# x y z rho theta phi s1 s2 stress_xx np intf bulk
-0.749467 -10.808498 -14.350111 17.980852 1.501567 2.494894 0.009262 -0.001048 -743679.000000 1 0 0
2.126333 -13.389698 -13.161911 18.895534 -1.413308 2.341391 0.014350 0.000700 935465.000000 1 0 0
2.162533 -11.027998 -14.688511 18.494476 -1.377159 2.488504 0.018773 -0.000694 566241.000000 1 0 0
-5.579267 -6.324798 -16.561111 18.584986 0.847945 2.670563 0.011158 -0.002150 453412.000000 1 0 0
4.512733 -14.074598 -11.526011 18.743212 -1.260522 2.233110 0.009164 0.002643 1203990.000000 1 0 0
13.967133 -10.775598 -7.817711 19.295360 -0.657118 1.987950 0.032638 -0.015261 -216934.000000 1 0 0
7.164633 10.803002 -10.763411 16.848971 0.985192 2.263756 0.018498 -0.013848 483866.000000 1 0 0
5.752033 -4.152898 -12.613211 14.471542 -0.625331 2.629227 0.004348 -0.003445 1860840.000000 1 0 0
13.582533 0.504902 -10.039911 16.897927 0.037156 2.207005 0.014072 0.005186 1215980.000000 1 0 0
14.138233 5.056202 -10.391211 18.260122 0.343452 2.176166 0.008761 -0.004508 -1097430.000000 1 0 0
4.125533 4.309402 -13.425811 14.691609 0.807193 2.723444 0.011745 -0.001440 1629180.000000 1 0 0
10.327933 -5.093098 -13.756311 17.939954 -0.458143 2.444633 0.020395 -0.001455 -1102430.000000 1 0 0
2.665033 -7.475698 -12.021911 14.405374 -1.228349 2.558100 0.005238 -0.002135 1222830.000000 1 0 0
-5.598667 -1.979098 -15.239511 16.355568 0.339785 2.770035 0.011996 -0.006308 508163.000000 1 0 0
10.628133 -0.026598 -9.628611 14.341132 -0.002503 2.306890 0.006730 0.003004 1464920.000000 1 0 0
-1.601367 -9.495298 -16.866711 19.421921 1.403720 2.622837 0.015356 -0.009393 1749150.000000 1 0 0
8.815233 1.535602 -17.769811 19.895542 0.172468 2.675109 0.033512 -0.004883 41727.300000 1 0 0
16.360233 -5.832898 -8.764611 19.455033 -0.342479 2.038128 0.043244 -0.004786 -1814620.000000 1 0 0
10.166133 7.546402 -9.852811 16.042952 0.638560 2.232107 0.008947 -0.008089 36613.000000 1 0 0
13.729833 -2.308398 -10.624111 17.513102 -0.166572 2.222621 0.026599 0.000717 -1943000.000000 1 0 0
7.281933 -1.841398 -13.667211 15.595190 -0.247680 2.639077 0.011475 -0.004567 -689086.000000 1 0 0
-2.791367 6.594702 -13.721111 15.477426 -1.170388 2.660574 0.005471 -0.006158 -113911.000000 1 0 0
11.282133 1.787802 -13.965011 18.041737 0.157156 2.455992 0.013097 -0.000296 1564.510000 1 0 0
-2.204967 10.754702 -12.935511 16.966229 -1.368575 2.437852 0.003695 -0.000173 153084.000000 1 0 0
2.914733 -1.086798 -15.249711 15.563756 -0.356897 2.940366 0.015852 -0.009035 1365780.000000 1 0 0
-9.045167 0.407902 -15.288111 17.768167 -0.045066 2.606892 0.008711 0.001173 -1044750.000000 1 0 0
2.312333 -1.681898 -18.050111 18.275179 -0.628853 2.984488 0.028597 -0.014977 995421.000000 1 0 0
1.034333 7.909602 -13.138011 15.370068 1.440765 2.595921 0.006216 -0.004384 -295164.000000 1 0 0
9.434333 -9.111998 -9.905311 16.436251 -0.768020 2.217614 0.017202 -0.002272 -324117.000000 1 0 0
3.946133 7.252602 -13.554511 15.871262 1.072495 2.594477 0.005017 -0.000168 1460580.000000 1 0 0
-2.667167 9.055202 -15.457511 18.112016 -1.284351 2.593346 0.002674 -0.003454 -106373.000000 1 0 0
5.671633 -7.647998 -15.267911 17.993566 -0.932703 2.583980 0.020896 -0.002411 -118270.000000 1 0 0
4.254333 7.365502 -16.379811 18.456657 1.047008 2.662632 0.017347 0.002679 920118.000000 1 0 0
-0.274167 5.076202 -13.480011 14.406724 -1.516838 2.780963 0.012610 -0.008144 2327600.000000 1 0 0
8.766033 4.174002 -16.678011 19.298230 0.444391 2.614404 0.017865 0.000259 1323720.000000 1 0 0
5.352333 0.279302 -14.435011 15.397890 0.052136 2.786076 0.008454 -0.000476 1175420.000000 1 0 0
6.275833 7.887602 -11.621011 15.383375 0.898709 2.427101 0.002902 -0.004627 456525.000000 1 0 0
2.874133 -8.286798 -15.023011 17.396049 -1.236946 2.613139 0.014806 -0.005589 1238860.000000 1 0 0
4.024333 11.411402 -13.854311 18.394490 1.231755 2.423675 0.018296 -0.015102 -1358420.000000 1 0 0
0.585133 -4.536998 -13.838711 14.575207 -1.442535 2.822337 0.012124 -0.006892 677672.000000 1 0 0
8.453333 -0.081898 -11.616811 14.367179 -0.009688 2.512507 -0.000341 -0.000581 792755.000000 1 0 0
-1.033767 -4.968298 -16.351711 17.121072 1.365651 2.840670 0.008310 -0.010842 1146050.000000 1 0 0
4.461633 0.878502 -11.790311 12.636826 0.194414 2.773491 0.008506 -0.004263 937805.000000 1 0 0
-2.929467 -7.111398 -15.604511 17.396969 1.180040 2.683657 0.002874 -0.006595 2354410.000000 1 0 0
11.369833 -3.871598 -11.431911 16.581645 -0.328200 2.331500 0.015195 -0.001831 1722370.000000 1 0 0
6.549733 -7.002598 -12.514711 15.765576 -0.818802 2.487828 0.012039 -0.000955 -1151160.000000 1 0 0
3.460833 -4.016198 -14.690611 15.617979 -0.859538 2.795254 0.016189 -0.006752 3611160.000000 1 0 0
-0.578467 -1.389598 -18.302611 18.364400 1.176332 3.059538 0.020386 -0.017980 431617.000000 1 0 0
14.889433 2.912102 -8.527311 17.403752 0.193144 2.082851 0.007946 0.003193 -659715.000000 1 0 0
6.925933 4.261202 -14.255011 16.411329 0.551560 2.623182 0.008706 0.000919 2828550.000000 1 0 0
10.221333 -9.623798 -14.050811 19.862488 -0.755297 2.356615 0.037149 -0.008801 -865110.000000 1 0 0
9.047933 -3.263498 -15.603411 18.329810 -0.346166 2.589176 0.027272 -0.010851 -1115370.000000 1 0 0
-5.277367 -2.037898 -18.175011 19.035090 0.368517 2.839837 0.008816 0.001267 -444063.000000 1 0 0
5.060233 -9.024898 -11.122111 15.190658 -1.059778 2.392296 0.001736 0.002583 2122640.000000 1 0 0
-2.470267 3.996602 -17.191911 17.822369 -1.017180 2.874815 0.007532 -0.001345 1322290.000000 1 0 0
9.646633 9.221402 -14.450111 19.669710 0.762865 2.395929 0.037495 -0.018685 169248.000000 1 0 0
9.866233 10.013502 -11.540111 18.187549 0.792806 2.258166 0.017667 -0.013246 -238310.000000 1 0 0
12.084733 -5.995798 -9.644911 16.583566 -0.460560 2.191484 0.025526 -0.002670 324354.000000 1 0 0
8.213633 6.820902 -13.617511 17.303903 0.693026 2.476666 0.008382 -0.000516 440978.000000 1 0 0
3.912933 -4.142698 -17.637111 18.534850 -0.813913 2.829082 0.037106 -0.012088 432497.000000 1 0 0
9.391733 -7.470098 -12.374311 17.237476 -0.671924 2.371538 0.018734 -0.006193 174493.000000 1 0 0
12.096933 -8.711298 -8.758011 17.289455 -0.624105 2.101978 0.030678 -0.008331 23153.200000 1 0 0
-3.002567 -2.549298 -13.967111 14.511875 0.703936 2.866724 0.008120 -0.007269 -1778760.000000 1 0 0
-0.373767 6.155202 -17.604511 18.653284 -1.510147 2.804667 0.016547 -0.001322 2232590.000000 1 0 0
1.142233 -8.375998 -17.450511 19.390265 -1.435263 2.690480 0.020438 -0.011832 2763530.000000 1 0 0
0.065333 8.513402 -15.927611 18.060207 1.563122 2.650711 0.008156 -0.002251 -950129.000000 1 0 0
1.772433 3.414402 -14.978211 15.464361 1.091982 2.890185 0.018675 -0.003150 3297840.000000 1 0 0
-1.979267 -0.432298 -15.769211 15.898818 0.215036 3.013819 0.014391 -0.009544 2203860.000000 1 0 0
14.088033 -4.246498 -8.445511 16.965614 -0.292764 2.091859 0.028977 -0.001117 -334071.000000 1 0 0
0.536133 0.619702 -14.562311 14.585348 0.857574 3.085381 0.011621 -0.008399 1979890.000000 1 0 0
8.812433 2.729302 -12.481311 15.520670 0.300341 2.505080 0.002369 0.000177 1540670.000000 1 0 0
6.016533 0.982902 -17.195911 18.244564 0.161936 2.800897 0.025210 0.001528 1378130.000000 1 0 0
15.268933 1.429002 -12.390911 19.715908 0.093317 2.250385 0.021431 -0.000129 470855.000000 1 0 0
8.908133 -11.269998 -11.969411 18.698516 -0.901919 2.265459 0.033645 -0.005055 2724970.000000 1 0 0
-4.671367 0.761202 -15.094211 15.818859 -0.161531 2.837740 0.015578 -0.006815 315542.000000 1 0 0
2.395533 5.205802 -17.185811 18.116044 1.139521 2.819741 0.023688 -0.003111 1824400.000000 1 0 0
5.990333 -11.684798 -12.397611 18.058775 -1.097072 2.327481 0.012911 -0.000431 1420380.000000 1 0 0
12.835633 7.123202 -8.572311 16.999353 0.506640 2.099336 0.006120 -0.008868 636331.000000 1 0 0
-5.000467 3.634902 -15.752311 16.921953 -0.628561 2.767611 0.008903 -0.002336 2826960.000000 1 0 0
-0.683267 -4.159598 -19.177411 19.635229 1.407987 2.925226 0.017823 -0.013514 -1148390.000000 1 0 0
9.809033 4.460802 -10.163511 14.812590 0.426809 2.326966 -0.000065 0.002128 3166530.000000 1 0 0
13.284633 3.574402 -12.793911 18.786750 0.262838 2.319933 0.017123 -0.006294 191695.000000 1 0 0
-6.195367 5.891802 -17.110011 19.127164 -0.760289 2.678197 0.004940 0.002888 -594026.000000 1 0 0
-10.353167 3.020502 -15.535011 18.911586 -0.283868 2.534754 0.019726 0.008798 322294.000000 1 0 0
10.810233 13.333902 -8.240811 19.041141 0.889545 2.018381 0.033218 -0.019602 1480280.000000 1 0 0
7.484533 13.311202 -12.288111 19.601122 1.058579 2.248375 0.034218 -0.021400 -130256.000000 1 0 0
5.401633 15.128002 -11.246911 19.609362 1.227844 2.181627 0.024780 -0.016684 185149.000000 1 0 0
14.110433 9.492902 -9.775111 19.615614 0.592208 2.092471 0.028522 -0.019568 -1044880.000000 1 0 0
8.290833 -17.223598 -1.937311 19.213105 -1.122168 1.671801 0.021024 -0.001339 -57703.700000 1 0 0
0.761233 -15.964198 0.012589 15.982342 -1.523149 1.570009 0.008385 -0.006397 3542300.000000 1 0 0
-9.155667 -11.690698 7.510489 16.640496 0.906409 1.102532 0.015381 -0.010392 -416712.000000 1 0 0
2.100133 -15.900298 -2.531711 16.236983 -1.439475 1.727358 0.002091 -0.000178 1501070.000000 1 0 0
-1.312867 -11.160398 -9.484411 14.704835 1.453698 2.271801 0.002380 -0.000745 496437.000000 1 0 0
-4.827867 -12.530598 -12.975911 18.673470 1.203038 2.339056 0.013571 -0.003488 -1366280.000000 1 0 0
-8.309067 -17.929298 -1.778311 19.840936 1.136826 1.660545 0.024596 -0.008951 -447159.000000 1 0 0
-11.383567 -7.119598 -8.860111 16.086512 0.558907 2.154093 0.019647 -0.006842 3579780.000000 1 0 0
-13.667567 -11.660198 -4.628011 18.552119 0.706308 1.822919 0.024297 -0.006639 -451097.000000 1 0 0
-5.803567 -13.479098 9.595989 17.534266 1.164225 0.991697 0.017656 -0.011593 844593.000000 1 0 0
0.199133 -13.972898 -3.603111 14.431353 -1.556546 1.823138 0.002317 -0.000932 -804553.000000 1 0 0
-14.846167 -11.630198 2.005089 18.965510 0.664525 1.464875 0.001634 -0.002884 -806929.000000 1 0 0
-3.854367 -16.581198 -7.450011 18.582114 1.342398 1.983321 0.007834 -0.007502 -138707.000000 1 0 0
0.507133 -15.311498 -9.402411 17.975108 -1.537687 2.121257 0.000129 0.006104 1030870.000000 1 0 0
4.545733 -14.204098 -2.553211 15.130730 -1.261066 1.740351 -0.003639 0.005730 -398573.000000 1 0 0
-3.509567 -18.124798 -2.489311 18.628528 1.379530 1.704826 0.010423 -0.009546 293616.000000 1 0 0
-0.964667 -13.471898 0.658489 13.522434 1.499312 1.522081 0.009143 -0.006800 2156300.000000 1 0 0
-8.442467 -11.326998 -10.462411 17.579482 0.930284 2.208247 0.023540 -0.011716 2193470.000000 1 0 0
-3.734167 -14.160598 -0.373811 14.649447 1.312965 1.596316 0.006018 -0.004746 3451130.000000 1 0 0
-1.477267 -14.907498 -7.240911 16.638708 1.472023 2.021040 -0.003530 0.000308 717621.000000 1 0 0
-14.245267 -7.926598 -1.816711 16.403019 0.507772 1.681779 0.007843 -0.002921 1324110.000000 1 0 0
-10.732767 -7.359198 -11.727211 17.517921 0.601048 2.304252 0.018505 -0.006586 -55791.400000 1 0 0
-9.381667 -14.700398 6.815089 18.723323 1.002767 1.198249 0.005199 -0.007535 1284470.000000 1 0 0
-2.592967 -14.251498 -12.320511 19.016406 1.390822 2.275606 0.017424 -0.000997 -881016.000000 1 0 0
2.386533 -17.839198 -4.655811 18.590565 -1.437806 1.823930 0.004289 -0.003979 8436.450000 1 0 0
-6.541567 -9.652598 -9.284011 14.904953 0.975194 2.243216 0.015745 -0.011163 252506.000000 1 0 0
-11.025967 -15.393398 0.449889 18.940197 0.949228 1.547041 0.015853 -0.007414 -415326.000000 1 0 0
-12.726467 -10.947598 4.045589 17.267880 0.710399 1.334314 0.021862 -0.006436 1589680.000000 1 0 0
-17.065367 -8.879998 -1.522311 19.297631 0.479796 1.649764 0.006921 -0.005683 1088820.000000 1 0 0
-1.319267 -19.253398 -4.086411 19.726443 1.502382 1.779461 0.006059 -0.008327 901420.000000 1 0 0
3.228533 -14.276198 -8.915211 17.138094 -1.348390 2.117880 -0.004015 0.002674 1013010.000000 1 0 0
-4.286567 -7.835298 -13.069311 15.829512 1.070195 2.542113 0.003069 -0.003196 1377120.000000 1 0 0
5.570833 -16.544798 1.299489 17.505805 -1.246008 1.496496 0.015099 -0.001731 4197270.000000 1 0 0
-2.779867 -13.811198 -3.205911 14.448347 1.372174 1.794546 0.003824 -0.006577 688867.000000 1 0 0
-0.466167 -13.928998 3.651989 14.407336 1.537341 1.314519 0.008215 -0.005495 -3458380.000000 1 0 0
1.184633 -16.241498 6.923189 17.695202 -1.497987 1.168810 0.022820 -0.009776 2461430.000000 1 0 0
-5.570367 -10.163398 -14.511911 18.572001 1.069428 2.467681 0.012758 -0.011932 -401288.000000 1 0 0
-0.126167 -17.234198 -5.833111 18.195018 1.563476 1.897147 0.005218 -0.005145 386597.000000 1 0 0
-6.542367 -13.460398 -1.225711 15.016233 1.118374 1.652513 0.009901 -0.006703 2217430.000000 1 0 0
-1.632967 -17.733498 -0.186611 17.809502 1.478972 1.581275 0.010434 -0.007263 2216950.000000 1 0 0
-9.421767 -9.858198 -4.900411 14.490266 0.808031 1.915785 0.022461 -0.010356 2074210.000000 1 0 0
-0.849967 -16.707998 4.705789 17.378841 1.519968 1.296596 0.018627 -0.008416 1536800.000000 1 0 0
-6.718567 -9.917398 -6.394311 13.578702 0.975364 2.061115 0.015869 -0.009924 2438290.000000 1 0 0
-5.970467 -14.603098 -8.555811 17.947113 1.182685 2.067720 0.014538 -0.012525 605469.000000 1 0 0
-5.710167 -12.192298 -10.240511 16.915266 1.132794 2.221065 0.014183 -0.008301 1308710.000000 1 0 0
-10.688867 -12.174998 -8.738811 18.407859 0.850306 2.065457 0.034340 -0.025495 325699.000000 1 0 0
3.952533 -17.122798 6.572389 18.761904 -1.343935 1.212900 0.031021 -0.011416 2098900.000000 1 0 0
-6.661067 -14.474298 -4.138311 16.462100 1.139493 1.824906 0.021346 -0.015681 -660979.000000 1 0 0
-2.823267 -12.265598 -7.126911 14.464045 1.344559 2.086024 0.004353 -0.003244 1712330.000000 1 0 0
-7.110467 -12.819898 4.206089 15.251220 1.064395 1.291388 0.003788 -0.001137 2789010.000000 1 0 0
2.603133 -16.331598 2.383189 16.708590 -1.412734 1.427676 0.012919 -0.007515 3121230.000000 1 0 0
-6.266767 -11.954598 7.090889 15.246819 1.087966 1.087079 0.008513 -0.004922 1242940.000000 1 0 0
-11.341567 -12.797498 -0.976611 17.127781 0.845639 1.627846 0.017822 -0.002076 1129660.000000 1 0 0
-14.308167 -8.620898 4.569289 17.318254 0.542267 1.303793 0.015635 -0.004305 244717.000000 1 0 0
-7.873567 -15.629898 4.316789 18.025578 1.104153 1.328965 0.001760 -0.002172 114931.000000 1 0 0
-16.533567 -9.192698 1.207889 18.955831 0.507440 1.507032 0.000824 -0.002597 -542628.000000 1 0 0
-6.587767 -17.199098 2.271989 18.557198 1.205004 1.448057 0.004386 0.000426 1410420.000000 1 0 0
-11.607967 -14.978598 -4.805511 19.549840 0.911505 1.819150 0.032696 -0.010230 -131505.000000 1 0 0
-10.086767 -10.021198 -12.601811 18.999288 0.782137 2.295987 0.020182 -0.004858 1486670.000000 1 0 0
-4.370267 -16.047298 -4.470011 17.221963 1.304908 1.833356 0.010778 -0.010490 -1208920.000000 1 0 0
-11.797867 -8.255598 -0.010211 14.399468 0.610560 1.571505 0.007313 -0.000665 1682050.000000 1 0 0
-9.698667 -11.173798 3.371489 15.175139 0.855954 1.346755 0.005915 -0.000454 2001190.000000 1 0 0
-14.272267 -12.997398 -0.535911 19.311064 0.738682 1.598551 0.011758 0.002280 1158550.000000 1 0 0
5.544033 -14.891098 -7.105611 17.406057 -1.214390 1.991307 -0.004508 -0.004284 1159740.000000 1 0 0
-7.453667 -10.622498 -1.311511 13.042802 0.958939 1.671521 0.008730 -0.004293 1257360.000000 1 0 0
-11.661767 -8.234498 -6.039411 15.500912 0.614815 1.971011 0.017978 -0.008891 -953603.000000 1 0 0
-14.434167 -6.665198 -9.294111 18.416041 0.432595 2.099802 0.027192 -0.004405 327307.000000 1 0 0
-3.865267 -16.523798 1.386989 17.026448 1.341007 1.489245 0.001977 -0.003931 1996210.000000 1 0 0
-8.055967 -15.641698 0.105389 17.594671 1.095196 1.564806 0.015372 -0.006157 2235410.000000 1 0 0
1.048633 -18.556398 3.625189 18.936249 -1.514346 1.378165 0.016279 -0.012909 176276.000000 1 0 0
-14.068867 -8.838398 -4.544411 17.225039 0.560914 1.837783 0.011972 -0.007520 158366.000000 1 0 0
-3.310667 -14.485998 11.059289 18.523297 1.346113 0.930981 0.011568 -0.014129 1240320.000000 1 0 0
-10.851067 -12.271298 -3.828611 16.822268 0.846743 1.800400 0.026873 -0.011274 1527940.000000 1 0 0
-10.024267 -10.667298 0.441089 14.644854 0.816465 1.540673 0.012689 -0.001350 2588150.000000 1 0 0
-0.147367 -13.183198 -11.235811 17.322295 1.559618 2.276583 0.005095 -0.000115 -220745.000000 1 0 0
-5.855267 -12.669798 -6.305411 15.315553 1.137890 1.995115 0.010743 -0.014480 1994540.000000 1 0 0
1.695433 -15.923998 9.848289 18.799920 -1.464726 1.019435 0.023206 -0.005341 -292576.000000 1 0 0
-8.955967 -15.783498 -5.498611 18.962144 1.054673 1.865001 0.038029 -0.016978 1786540.000000 1 0 0
-3.311467 -15.516398 5.845689 16.908474 1.360533 1.217785 0.003227 -0.003074 18011.000000 1 0 0
-17.380467 -5.422498 -6.447911 19.314753 0.302418 1.911164 0.016147 -0.000327 -705825.000000 1 0 0
18.843433 5.664902 -2.742211 19.866701 0.292035 1.709269 0.000952 0.006268 -749819.000000 1 0 0
12.753833 -12.649498 -5.846511 18.890520 -0.781291 1.885458 0.038350 -0.009536 233893.000000 1 0 0
10.972233 -13.519698 -1.560911 17.481664 -0.889038 1.660204 0.028256 -0.006153 1842340.000000 1 0 0
18.885433 -2.796798 4.469689 19.607646 -0.147024 1.340818 0.055040 -0.008820 -644419.000000 1 0 0
8.640133 -16.861298 5.041989 19.605533 -1.097259 1.310702 0.030446 -0.013401 89627.800000 1 0 0
18.171233 -1.149498 6.699189 19.400881 -0.063175 1.218234 0.056452 -0.012764 878293.000000 1 0 0
17.947133 -4.273598 -5.073311 19.133784 -0.233768 1.839155 0.046257 -0.007145 161194.000000 1 0 0
5.261333 -11.774098 14.771389 19.608798 -1.150560 0.717725 0.010437 0.006232 -348506.000000 1 0 0
16.049633 -8.873698 -0.773711 18.355704 -0.505060 1.612960 0.040577 -0.008894 -1311860.000000 1 0 0
13.879433 -12.737398 -1.362111 18.887438 -0.742518 1.642976 0.042418 -0.005009 1280160.000000 1 0 0
10.805633 -1.880698 13.756089 17.593428 -0.172322 0.673108 0.003743 -0.011854 435506.000000 1 0 0
16.973433 -6.064498 -1.440211 18.081752 -0.343158 1.650531 0.032473 -0.009506 367075.000000 1 0 0
17.780333 3.660802 -0.838711 18.172648 0.203053 1.616965 0.005346 0.007556 -759814.000000 1 0 0
9.837333 -11.149198 9.420289 17.601693 -0.847827 1.006061 0.019758 -0.002815 2999910.000000 1 0 0
9.084233 -10.926198 4.291789 14.843333 -0.877190 1.277469 0.005917 -0.007540 1181960.000000 1 0 0
14.074633 -10.160298 6.854389 18.663054 -0.625265 1.194724 0.027007 -0.015537 -285672.000000 1 0 0
16.306133 -0.523898 -4.674711 16.971074 -0.032118 1.849856 0.023208 0.001444 -177994.000000 1 0 0
15.802933 -0.549898 -1.690411 15.902596 -0.034783 1.677295 0.018692 0.001862 540032.000000 1 0 0
12.942333 -5.183798 -0.266411 13.944415 -0.380964 1.589903 0.015465 -0.004998 509900.000000 1 0 0
14.380733 -7.474398 1.046689 16.240926 -0.479323 1.506304 0.032681 -0.008034 1793930.000000 1 0 0
15.523333 2.423902 3.701289 16.141521 0.154895 1.339435 0.015166 -0.002942 1327990.000000 1 0 0
15.868833 -7.181298 5.030989 18.130134 -0.424965 1.289612 0.042413 -0.016288 -1437120.000000 1 0 0
13.609033 -12.156598 3.295689 18.543199 -0.729087 1.392117 0.025980 -0.007603 -96373.500000 1 0 0
13.989533 -0.907098 9.224289 16.781459 -0.064751 0.988825 0.028733 -0.010314 -560368.000000 1 0 0
14.161333 -2.833198 -1.644711 14.535317 -0.197459 1.684192 0.013738 0.000462 1214800.000000 1 0 0
15.048533 1.810702 9.056589 17.656692 0.119748 1.032206 0.035520 -0.011306 -564486.000000 1 0 0
14.419433 -10.238598 -2.932311 17.926165 -0.617443 1.735112 0.040298 -0.010867 615862.000000 1 0 0
7.371633 -12.555298 6.136689 15.799856 -1.039891 1.171900 0.003885 -0.006319 1521590.000000 1 0 0
12.413233 -4.647098 7.089989 15.031694 -0.358215 1.079613 0.019861 -0.006548 4667660.000000 1 0 0
14.948233 -9.064898 -5.560711 18.345123 -0.545126 1.878758 0.048190 -0.013247 623217.000000 1 0 0
14.400733 -4.600698 4.754989 15.847948 -0.309228 1.266064 0.024477 -0.011224 1397240.000000 1 0 0
17.206233 -4.302998 1.030489 17.766039 -0.245057 1.512760 0.032804 -0.008342 -930274.000000 1 0 0
10.234333 -14.393098 1.249589 17.704924 -0.952687 1.500159 0.029045 -0.006923 -538593.000000 1 0 0
16.415233 -2.561398 8.653589 18.732465 -0.154790 1.090596 0.053920 -0.013470 312.567000 1 0 0
16.147933 -2.706498 3.289089 16.700269 -0.166063 1.372552 0.031122 -0.005558 1256430.000000 1 0 0
7.832333 -15.175498 2.760789 17.299224 -1.094338 1.410521 0.012192 -0.005455 1712640.000000 1 0 0
16.695333 -7.026398 7.914189 19.767114 -0.398359 1.158874 0.053232 -0.015060 74296.500000 1 0 0
10.342733 -8.461598 5.139889 14.317445 -0.685693 1.203606 0.009616 -0.007896 2114410.000000 1 0 0
10.907733 -11.826398 2.197989 16.238026 -0.825785 1.435019 0.018635 -0.007468 -524384.000000 1 0 0
12.179433 -7.355298 12.005689 18.616540 -0.543291 0.869912 0.008465 -0.015249 -538124.000000 1 0 0
15.109433 -9.904798 4.277589 18.566038 -0.580258 1.338309 0.031929 -0.015287 -1721570.000000 1 0 0
7.312533 -10.185698 7.848589 14.792631 -0.948143 1.011518 0.005887 -0.004762 -353745.000000 1 0 0
15.241333 -3.326798 -4.380611 16.203566 -0.214904 1.844551 0.029259 0.000352 1080690.000000 1 0 0
11.792133 -9.013998 9.710789 17.737136 -0.652659 0.991442 0.007260 -0.014724 -2076680.000000 1 0 0
17.048233 -6.729198 2.459389 18.492511 -0.375942 1.437407 0.047759 -0.012242 1866290.000000 1 0 0
17.532133 3.995902 2.100189 18.103969 0.224091 1.454527 0.016574 0.003339 -219940.000000 1 0 0
14.800133 -4.986298 8.869689 17.960470 -0.324965 1.054290 0.040330 -0.013332 767331.000000 1 0 0
12.777333 -12.624698 6.108889 18.972658 -0.779389 1.242972 0.024258 -0.010284 141000.000000 1 0 0
18.306833 0.764302 -0.981311 18.349040 0.041725 1.624302 0.029506 0.002308 -88915.800000 1 0 0
11.746733 -2.158998 10.944289 16.199520 -0.181767 0.829027 0.015743 -0.009062 3104690.000000 1 0 0
5.847233 -12.505198 10.585089 17.395810 -1.133416 0.916646 0.012167 0.004413 -1138460.000000 1 0 0
10.712233 -5.037398 11.090589 16.221235 -0.439563 0.817965 0.008961 -0.006804 677404.000000 1 0 0
17.789833 1.191902 5.139189 18.555593 0.066899 1.290166 0.032963 -0.001511 -1187510.000000 1 0 0
12.365033 -7.727398 7.167189 16.247317 -0.558556 1.113938 0.021434 -0.014090 -613846.000000 1 0 0
10.505133 -7.952098 14.200289 19.371161 -0.647949 0.747981 0.009548 -0.011411 -1078710.000000 1 0 0
14.187933 -0.304898 3.723489 14.671563 -0.021487 1.314200 0.016583 -0.002516 2300020.000000 1 0 0
11.806933 -7.655798 2.636789 14.316688 -0.575261 1.385563 0.015351 -0.006692 885574.000000 1 0 0
9.224333 6.110202 3.548789 11.619672 0.585043 1.260425 0.006159 -0.001217 2521200.000000 1 0 0
-3.788667 14.790802 -9.942111 18.219972 -1.320038 2.147986 -0.006997 0.002150 -31983.800000 1 0 0
8.802333 -6.443398 9.289189 14.327857 -0.631888 0.865407 0.007459 -0.006280 712701.000000 1 0 0
5.790033 -10.559598 -8.542111 14.764730 -1.069244 2.187744 -0.002438 -0.001300 466675.000000 1 0 0
5.286733 1.048202 0.546689 5.417300 0.195732 1.469709 0.004669 -0.000469 3066460.000000 1 0 0
-0.570067 9.959402 10.942289 14.807037 -1.513620 0.739223 0.003728 -0.002280 982735.000000 1 0 0
-6.262567 -5.174098 1.042389 8.190093 0.690510 1.443176 0.004543 -0.001824 3894660.000000 1 0 0
-1.088167 3.970702 -10.880211 11.633124 -1.303314 2.779842 0.009460 -0.007008 1461110.000000 1 0 0
10.956433 5.786602 1.309089 12.459610 0.485910 1.465535 0.006686 -0.000321 659400.000000 1 0 0
-10.106867 -1.879998 -13.680811 17.112795 0.183910 2.497174 0.011371 -0.001220 611196.000000 1 0 0
7.318633 10.849002 -5.971811 14.384914 0.977328 1.998897 0.000673 -0.004949 481691.000000 1 0 0
-12.444067 -2.942798 -9.616011 15.999454 0.232216 2.215575 0.007070 -0.001414 -108351.000000 1 0 0
-3.947467 -8.692898 2.451189 9.856841 1.144536 1.319480 0.008661 -0.001510 -1905210.000000 1 0 0
7.974033 -6.744098 -5.906111 11.997925 -0.702026 2.085482 0.000296 -0.004292 1552060.000000 1 0 0
14.454733 3.135602 -4.252311 15.390044 0.213616 1.850741 0.014914 0.001450 863058.000000 1 0 0
-2.475167 -4.916398 9.826189 11.262833 1.104391 0.510616 0.001319 -0.001351 1802530.000000 1 0 0
3.478633 -1.894698 -4.569611 6.047488 -0.498740 2.427399 -0.000470 0.001059 -1711150.000000 1 0 0
-4.079167 8.446102 -3.566011 10.034574 -1.120870 1.934109 -0.002376 -0.003774 -378458.000000 1 0 0
5.810233 0.088702 11.792989 13.146911 0.015265 0.457825 -0.002057 -0.006083 1433900.000000 1 0 0
7.138833 4.771502 12.417889 15.097487 0.589193 0.604980 0.006533 -0.005801 2278170.000000 1 0 0
1.256133 -14.524498 12.283089 19.063399 -1.484527 0.870652 0.006620 -0.001857 417704.000000 1 0 0
3.071933 8.695202 -9.093311 12.951124 1.231193 2.349174 0.004027 -0.001801 71071.300000 1 0 0
-4.355567 -8.951898 -4.595111 10.964602 1.117965 2.003235 0.005713 -0.002792 554388.000000 1 0 0
5.579533 -6.573298 -4.067211 9.533186 -0.866989 2.011568 -0.000178 -0.002728 1994100.000000 1 0 0
-3.185667 3.454802 8.707189 9.894406 -0.825905 0.494910 0.000989 0.000174 2776570.000000 1 0 0
-3.799267 3.125702 -11.109911 12.150497 -0.688437 2.724717 0.007306 -0.007371 -1087550.000000 1 0 0
3.026133 -6.105798 8.598189 10.971194 -1.110662 0.670187 -0.004255 0.001372 -35227.300000 1 0 0
-5.148267 -8.655498 10.535189 14.574379 1.034211 0.762869 0.012922 -0.005157 2101930.000000 1 0 0
-13.143467 -2.556498 6.457489 14.865584 0.192108 1.121433 0.008421 -0.007444 -1577940.000000 1 0 0
3.923533 -5.937498 -8.435911 11.036874 -0.986862 2.440812 -0.000569 -0.000552 2276570.000000 1 0 0
2.942533 -0.431498 12.459989 12.809997 -0.145604 0.234300 -0.001366 -0.002980 899105.000000 1 0 0
1.520233 -1.373198 -7.611411 7.882281 -0.734625 2.878674 0.001271 -0.001835 344342.000000 1 0 0
3.607333 -3.510098 3.451389 6.102928 -0.771738 0.969721 0.002269 0.000155 2788020.000000 1 0 0
1.511333 0.473502 -11.848311 11.953694 0.303614 3.008710 0.009598 -0.008017 -1272420.000000 1 0 0
4.183733 3.571302 -10.552211 11.899873 0.706590 2.661062 0.000996 -0.001989 2802250.000000 1 0 0
2.796233 3.351202 3.462489 5.571203 0.875431 0.900144 -0.004508 0.003413 847410.000000 1 0 0
-5.300467 0.827202 2.600989 5.961909 -0.154813 1.119350 -0.005342 -0.000493 3279100.000000 1 0 0
-9.446467 -9.301298 5.598489 14.390725 0.777655 1.171213 0.009056 -0.002204 -1715540.000000 1 0 0
-3.094167 3.843702 -0.546811 4.964566 -0.893016 1.681163 -0.005438 -0.002699 -387530.000000 1 0 0
-15.932567 -6.421998 4.879789 17.857802 0.383153 1.294018 0.031883 -0.010904 2145930.000000 1 0 0
1.028933 6.708202 -8.127211 10.588212 1.418598 2.445840 0.003846 -0.004043 770640.000000 1 0 0
-1.609867 6.524202 -9.466311 11.608959 -1.328876 2.524271 0.003813 -0.005043 919453.000000 1 0 0
2.039533 -0.273198 5.221889 5.612705 -0.133159 0.375377 -0.000625 0.001602 1984200.000000 1 0 0
-3.467067 -0.567798 -6.367911 7.272774 0.162328 2.637436 0.002495 -0.003878 1241740.000000 1 0 0
1.782633 -1.191798 -2.455011 3.259638 -0.589313 2.423640 0.007343 0.000289 844212.000000 1 0 0
2.423833 -8.582698 -7.683311 11.771616 -1.295555 2.281937 -0.003983 0.001981 2937730.000000 1 0 0
-2.469767 14.002502 -5.511111 15.249333 -1.396212 1.940565 -0.003203 0.000422 2447270.000000 1 0 0
6.836933 -5.190798 -8.209911 11.878160 -0.649382 2.333913 0.000670 -0.002156 3433060.000000 1 0 0
-14.149667 -5.005498 -2.187911 15.167566 0.340015 1.715551 0.005478 -0.003464 1144780.000000 1 0 0
-2.631367 6.884802 -6.803111 10.030300 -1.205729 2.316183 0.000367 -0.004757 -2689530.000000 1 0 0
-5.636167 -1.252398 -8.164211 9.999461 0.218655 2.526058 0.009329 -0.007328 -594815.000000 1 0 0
-5.727067 -10.625998 3.340089 12.524669 1.076463 1.300849 0.005522 -0.000734 -2487100.000000 1 0 0
8.153233 -7.542198 6.679289 12.960434 -0.746487 1.029369 0.003183 -0.006699 158449.000000 1 0 0
8.709633 -5.900798 13.167389 16.853998 -0.595467 0.674111 0.007514 -0.001961 -7468.600000 1 0 0
-4.758467 9.528102 -0.837111 10.683094 -1.107618 1.649235 0.000572 -0.000927 491229.000000 1 0 0
2.757933 6.692602 12.212089 14.196205 1.179914 0.535064 0.008857 -0.006892 969443.000000 1 0 0
5.968433 -2.781798 10.964589 12.789949 -0.436150 0.540830 -0.005818 -0.004186 -1756870.000000 1 0 0
-9.592767 -6.562398 -1.145211 11.678945 0.599974 1.669012 0.010619 -0.003213 -1599050.000000 1 0 0
0.924833 -13.352398 6.226589 14.761852 -1.501643 1.135364 0.011092 -0.002910 586240.000000 1 0 0
-0.491367 -3.138598 8.755889 9.314388 1.415501 0.348052 -0.001843 -0.000816 989258.000000 1 0 0
4.175233 0.840002 3.447789 5.479546 0.198536 0.890259 -0.001104 0.003344 534781.000000 1 0 0
-10.209567 5.610902 8.242489 14.270813 -0.502515 0.955039 -0.002638 -0.008288 43911.500000 1 0 0
9.374933 7.963802 0.031689 12.300915 0.704191 1.568220 0.006140 -0.002044 850128.000000 1 0 0
4.249433 2.837102 8.190289 9.653375 0.588678 0.557769 -0.002518 0.000254 3330530.000000 1 0 0
1.336533 2.641502 -9.737111 10.177189 1.102380 2.846442 0.006923 -0.005902 3959590.000000 1 0 0
-1.426967 -10.127898 3.035889 10.668982 1.430823 1.282256 0.009397 -0.003666 -2631990.000000 1 0 0
-9.902867 9.502302 8.963789 16.392377 -0.764759 0.992227 0.003935 -0.009444 238729.000000 1 0 0
9.794533 -2.100698 -7.720311 12.647095 -0.211276 2.227414 0.007688 0.001173 522761.000000 1 0 0
-5.166267 -1.896498 6.722789 8.688090 0.351820 0.685988 -0.001269 -0.000414 695655.000000 1 0 0
3.082133 -7.766498 -4.906411 9.689732 -1.193009 2.101745 -0.006347 0.000417 904287.000000 1 0 0
-5.062367 4.858802 -13.072611 14.836734 -0.764883 2.648974 0.005088 -0.007106 2762310.000000 1 0 0
-5.617567 9.675102 5.480089 12.457770 -1.044748 1.115317 0.001173 -0.002454 1021100.000000 1 0 0
-0.488567 -1.769098 -9.442411 9.619123 1.301345 2.949616 0.006372 -0.007124 35198.800000 1 0 0
-16.697467 0.153802 6.304189 17.848582 -0.009211 1.209803 0.027460 -0.015590 -766573.000000 1 0 0
-6.010267 -2.926698 4.124489 7.854953 0.453153 1.017986 -0.007129 0.000590 1590160.000000 1 0 0
0.951733 -5.624798 -5.179511 7.705290 -1.403181 2.307975 -0.001722 0.000405 214853.000000 1 0 0
-6.989867 1.356002 -8.484911 11.076583 -0.191615 2.443427 0.002085 -0.002725 125876.000000 1 0 0
7.933433 1.989602 4.765689 9.466238 0.245719 1.043220 0.002560 -0.001703 -508066.000000 1 0 0
0.572133 -8.097098 -0.533511 8.134800 -1.500255 1.636427 0.001856 -0.000569 981136.000000 1 0 0
5.453233 5.518102 -3.364811 8.456308 0.791311 1.980029 0.003687 -0.000670 -608710.000000 1 0 0
-0.770767 -0.376698 -1.200911 1.475863 0.454592 2.521287 0.001696 -0.000645 914225.000000 1 0 0
9.098533 6.373802 -6.216711 12.730127 0.611082 2.080990 0.004028 -0.003001 1658660.000000 1 0 0
-14.980067 -7.016498 2.355889 16.708796 0.438041 1.429328 0.002281 -0.006832 1285240.000000 1 0 0
-6.453367 6.820402 8.877289 12.921690 -0.813042 0.813435 -0.000955 -0.003323 531601.000000 1 0 0
-9.435667 -3.225898 -9.651411 13.877607 0.329426 2.339865 0.004977 -0.001244 1403990.000000 1 0 0
14.907433 3.425802 -1.255811 15.347467 0.225883 1.652713 0.003788 0.004992 551675.000000 1 0 0
12.129733 1.645902 -5.738311 13.519158 0.134868 2.009159 0.012146 0.000657 361111.000000 1 0 0
1.652933 -9.510098 12.734689 15.979564 -1.398707 0.648591 -0.007408 0.002506 -457267.000000 1 0 0
-3.619367 6.382202 7.931689 10.804814 -1.054917 0.746473 -0.001495 -0.000010 111308.000000 1 0 0
-3.955867 13.051602 -12.303611 18.367690 -1.276503 2.304804 -0.003156 -0.000654 331659.000000 1 0 0
-10.241067 7.806002 6.352589 14.358569 -0.651280 1.112495 -0.004824 -0.007027 1859460.000000 1 0 0
8.074933 -9.329298 -7.210311 14.290869 -0.857346 2.099645 0.004464 -0.002218 946080.000000 1 0 0
5.875133 -3.809298 -0.282311 7.007684 -0.575233 1.611093 0.006040 -0.001983 -1622440.000000 1 0 0
-1.621367 -4.508298 4.220789 6.385033 1.225559 0.848587 0.000721 0.002321 1143560.000000 1 0 0
9.894033 -2.081098 -2.471511 10.408229 -0.207317 1.810544 0.010015 -0.001309 -2584510.000000 1 0 0
13.504633 7.102202 1.491589 15.331054 0.484159 1.473350 -0.000431 0.003530 48455.600000 1 0 0
5.415633 -3.624798 -3.227111 7.272035 -0.589838 2.030598 0.003677 -0.003377 -2382380.000000 1 0 0
-12.199367 -5.953898 1.812089 13.695150 0.454042 1.438091 0.004692 -0.002013 1975420.000000 1 0 0
3.763533 -5.687098 -0.260111 6.824582 -0.986194 1.608919 0.004604 -0.002752 -1235600.000000 1 0 0
-5.200267 3.693702 -8.724511 10.807558 -0.617599 2.510291 0.001344 -0.005600 -276568.000000 1 0 0
-1.700267 -9.294398 7.255789 11.913153 1.389862 0.915925 0.006211 -0.001916 2777970.000000 1 0 0
-7.395567 -7.427498 2.522889 10.780868 0.787552 1.334591 0.009876 -0.002929 -5285330.000000 1 0 0
-5.652367 13.057002 -8.576811 16.613134 -1.162254 2.113283 -0.006136 -0.004406 1036800.000000 1 0 0
9.205733 -13.792298 -4.096911 17.080916 -0.982248 1.813011 0.020018 -0.003604 -506330.000000 1 0 0
-6.449767 -5.241098 -6.679911 10.662543 0.682378 2.247830 0.008889 -0.002326 765148.000000 1 0 0
3.368733 0.431402 -6.217611 7.084713 0.127367 2.641649 0.003143 -0.002846 1076830.000000 1 0 0
-3.645367 5.749302 5.001389 8.447311 -1.005713 0.937173 -0.001001 0.001860 -588154.000000 1 0 0
-2.589467 -10.860698 -2.906811 11.537316 1.336741 1.825490 0.007215 -0.001776 913541.000000 1 0 0
-12.524567 -0.516898 1.749589 12.656738 0.041247 1.432118 0.001296 -0.006027 -1256920.000000 1 0 0
8.369533 -11.943598 -6.102611 15.809506 -0.959564 1.967098 0.011468 -0.006176 1516020.000000 1 0 0
6.154633 3.908702 1.045689 7.365522 0.565817 1.428344 0.003251 -0.001226 -400472.000000 1 0 0
3.416833 -4.708598 -10.988811 12.433809 -0.943057 2.654687 0.002259 -0.004523 -311041.000000 1 0 0
-7.708067 4.229802 8.670589 12.348467 -0.501883 0.792371 -0.002019 -0.003052 2120560.000000 1 0 0
8.204633 8.767802 4.026589 12.665061 0.818567 1.247252 0.007811 -0.000504 2805610.000000 1 0 0
0.258733 10.550402 -6.262211 12.271642 1.546278 2.106329 -0.000827 -0.001740 1455640.000000 1 0 0
5.374433 8.109602 3.261289 10.260905 0.985528 1.247350 0.004434 -0.001087 2799770.000000 1 0 0
8.046533 6.681202 -3.722411 11.101418 0.692958 1.912730 0.005167 -0.002139 1079480.000000 1 0 0
10.530633 2.450802 -8.163911 13.548066 0.228660 2.217537 0.004445 0.001670 1819120.000000 1 0 0
3.365233 -12.468598 -0.279911 12.917782 -1.307181 1.592467 0.000438 -0.001288 -1742530.000000 1 0 0
0.539433 2.200302 5.309689 5.772791 1.330375 0.403281 -0.001790 0.002925 1364370.000000 1 0 0
-4.886367 13.390202 1.456389 14.328125 -1.220891 1.468975 0.000254 0.001159 919843.000000 1 0 0
8.213733 4.077602 -7.974011 12.152247 0.460793 2.286536 0.000243 0.001380 1289380.000000 1 0 0
-13.806867 -0.464398 -3.584811 14.272215 0.033623 1.824689 0.002369 -0.004294 720548.000000 1 0 0
-8.585467 -0.011698 -0.455911 8.597572 0.001363 1.623849 -0.005245 -0.002451 479981.000000 1 0 0
1.832433 -3.799598 -1.079111 4.354221 -1.121433 1.821237 0.001700 0.000818 -2486220.000000 1 0 0
8.124233 -5.671298 -0.260111 9.911329 -0.609431 1.597043 0.007695 -0.003070 2898810.000000 1 0 0
-2.297467 -1.191498 7.466289 7.902120 0.478428 0.333671 0.000978 0.000976 2337790.000000 1 0 0
-5.821367 8.817202 -11.722711 15.781423 -0.987264 2.408065 -0.000387 -0.004402 -894803.000000 1 0 0
-6.129667 9.125602 -8.847511 14.111268 -0.979317 2.248469 -0.003437 -0.002600 183751.000000 1 0 0
-1.516867 13.936902 -8.358711 16.321954 -1.462385 2.108441 0.002067 -0.002316 -1049960.000000 1 0 0
-1.500267 7.183102 9.820089 12.258952 -1.364896 0.641741 0.002304 -0.003379 -356217.000000 1 0 0
10.009633 2.323102 -3.998711 11.026298 0.228049 1.941909 0.007165 -0.001252 -2029650.000000 1 0 0
-2.978367 -7.513198 -7.015811 10.702356 1.193382 2.285692 0.005236 -0.002036 1925790.000000 1 0 0
-5.511267 -5.030898 -1.629311 7.637975 0.739863 1.785765 0.004469 -0.001073 435841.000000 1 0 0
5.694533 7.339802 -8.791411 12.790203 0.910960 2.328638 0.002951 -0.000288 986421.000000 1 0 0
-9.530667 5.198902 -7.491211 13.190165 -0.499376 2.174796 -0.003314 -0.000048 993957.000000 1 0 0
-0.367767 6.190702 -5.348211 8.189225 -1.511460 2.282440 0.000472 -0.003199 -776958.000000 1 0 0
-8.236267 2.707902 -6.334711 10.737662 -0.317645 2.201796 -0.000579 -0.000602 1666480.000000 1 0 0
3.603833 1.387502 -2.031511 4.363463 0.367515 2.055078 0.003291 -0.001403 3033070.000000 1 0 0
-6.865267 12.520102 -3.502311 14.702075 -1.069229 1.811328 0.001966 0.000928 2073760.000000 1 0 0
-6.545367 3.155302 -2.352511 7.637543 -0.449198 1.883907 -0.002775 -0.000586 -657529.000000 1 0 0
12.071633 4.048002 -0.717811 12.752486 0.323548 1.627114 0.003945 -0.000228 626470.000000 1 0 0
2.234433 12.317002 -5.516611 13.679701 1.391338 1.985884 0.004997 -0.002731 -705075.000000 1 0 0
-9.152767 -1.458098 -4.268311 10.203807 0.157979 2.002376 -0.000399 0.000133 -604562.000000 1 0 0
-1.198967 5.716002 3.451989 6.784278 -1.364038 1.036981 -0.001505 0.001368 1399180.000000 1 0 0
11.539333 2.589902 12.004089 16.851170 0.220783 0.777942 0.020692 -0.001124 470271.000000 1 0 0
-6.979767 -2.377598 -5.731811 9.339367 0.328313 2.231567 0.005728 -0.000607 -962968.000000 1 0 0
7.417233 -7.338598 10.797389 15.015125 -0.780069 0.768289 0.010025 -0.003681 -278013.000000 1 0 0
-5.475567 -2.034898 -11.024711 12.476654 0.355815 2.654350 0.009668 -0.005968 870266.000000 1 0 0
0.828733 -6.232898 4.379389 7.662563 -1.438611 0.962426 0.001449 0.000588 1590370.000000 1 0 0
-4.825067 -9.333098 7.448189 12.878801 1.093654 0.954117 0.003884 -0.002819 2530970.000000 1 0 0
-8.769667 9.281802 1.502989 12.857600 -0.813761 1.453633 -0.001686 -0.001366 914000.000000 1 0 0
-8.108467 7.191502 -9.076811 14.136953 -0.725537 2.267982 -0.002485 -0.001755 -50273.700000 1 0 0
-1.263267 -10.574898 -0.080811 10.650392 1.451901 1.578384 0.005899 -0.002326 -722690.000000 1 0 0
-3.928667 10.321702 7.785389 13.512373 -1.207106 0.956765 0.002369 -0.002115 1351410.000000 1 0 0
-7.548267 12.028102 1.916589 14.329162 -1.010363 1.436640 -0.002078 -0.004630 2963030.000000 1 0 0
-8.073067 -8.354598 -2.896911 11.973547 0.802534 1.815164 0.018204 -0.005631 363634.000000 1 0 0
5.452233 4.567602 -8.024711 10.723144 0.697338 2.416374 0.003201 0.000898 388893.000000 1 0 0
-8.964867 -0.241698 -10.264911 13.630688 0.026954 2.423518 0.001380 -0.001498 -1828930.000000 1 0 0
-15.061267 -2.228798 -1.556711 15.304661 0.146916 1.672687 0.003656 -0.006505 -106204.000000 1 0 0
-7.208267 -5.811998 8.837089 12.799710 0.678568 0.808736 0.001198 -0.000506 -1474330.000000 1 0 0
8.086433 3.485602 -0.938911 8.855584 0.406978 1.677021 0.007560 -0.000661 1667730.000000 1 0 0
11.905033 7.236202 -5.756811 15.074259 0.546155 1.962644 0.004250 -0.006222 -564138.000000 1 0 0
3.845333 13.291502 -9.478811 16.771955 1.289178 2.171422 0.008449 -0.008324 180044.000000 1 0 0
-9.742867 5.476502 -0.494811 11.187510 -0.512088 1.615040 -0.001117 -0.002256 1648620.000000 1 0 0
11.212633 -1.322298 -5.120111 12.397062 -0.117387 1.996553 0.016002 -0.000543 38445.900000 1 0 0
10.557033 1.762602 -1.253111 10.776270 0.165434 1.687344 0.008621 -0.000672 815673.000000 1 0 0
14.617533 5.051302 4.934789 16.233917 0.332718 1.261929 0.006813 -0.005013 1894120.000000 1 0 0
0.866733 -0.822298 10.402889 10.471270 -0.759097 0.114346 0.000044 -0.001179 2606440.000000 1 0 0
-8.035967 1.364202 -12.609311 15.014411 -0.168159 2.567737 0.001652 -0.003208 279553.000000 1 0 0
3.097933 -11.571798 -7.870011 14.333205 -1.309216 2.152054 -0.007785 0.002449 -726716.000000 1 0 0
2.901433 4.995302 -6.776311 8.904479 1.044590 2.435650 0.002621 -0.000107 -1919830.000000 1 0 0
6.462733 8.034502 0.583889 10.327684 0.893395 1.514230 0.007723 -0.003417 -382147.000000 1 0 0
-9.070767 -5.405698 6.740489 12.527353 0.537434 1.002660 0.000138 0.000115 -2850840.000000 1 0 0
-0.233067 -6.889398 -11.829011 13.691006 1.536979 2.613955 0.009346 -0.003961 3193520.000000 1 0 0
6.413833 -13.338198 -4.670011 15.519465 -1.122576 1.876446 0.000460 0.002421 2740500.000000 1 0 0
-3.378767 -0.297498 10.078389 10.633837 0.087823 0.324639 0.000924 -0.001133 -687416.000000 1 0 0
8.564433 8.513302 6.931489 13.923769 0.782404 1.049716 0.004207 0.000513 -682495.000000 1 0 0
-7.948167 5.677402 -2.705411 10.135359 -0.620261 1.841000 0.000982 -0.003922 1231220.000000 1 0 0
-5.270067 5.802602 -6.486911 10.174665 -0.833456 2.262117 -0.002254 -0.002997 -347506.000000 1 0 0
3.277033 -13.521898 2.557589 14.146446 -1.333030 1.389003 0.007399 -0.006869 -36232.600000 1 0 0
-11.255967 -7.066398 6.480689 14.786146 0.560604 1.117096 0.012398 -0.002029 185601.000000 1 0 0
-12.865067 -3.684398 -6.782611 15.002952 0.278922 2.039898 0.007156 -0.000472 -2127260.000000 1 0 0
6.085133 0.374802 -7.279611 9.495370 0.061515 2.444401 -0.000042 0.002671 1555810.000000 1 0 0
-1.492767 2.242402 -2.429311 3.627433 -0.983463 2.304608 -0.001094 -0.003590 2964270.000000 1 0 0
7.603833 0.942702 -4.968411 9.131926 0.123348 2.146077 0.003427 0.001485 1008640.000000 1 0 0
3.574933 -4.378398 10.850489 12.234526 -0.886079 0.480261 -0.004599 -0.000723 1854690.000000 1 0 0
5.978133 -2.533098 2.078389 6.817210 -0.400792 1.260990 0.008009 -0.002541 -765737.000000 1 0 0
-6.259067 7.734102 1.075989 10.007497 -0.890421 1.463070 -0.001964 -0.001217 746288.000000 1 0 0
5.989233 -3.414898 7.986889 10.550964 -0.518199 0.712114 0.001866 -0.005992 9812.390000 1 0 0
6.744033 -2.289298 -7.871511 10.615251 -0.327250 2.406142 0.001696 -0.001063 1736060.000000 1 0 0
12.125233 -8.174798 -5.793211 15.729269 -0.593198 1.947984 0.025882 -0.010157 -30572.900000 1 0 0
5.587633 -9.641798 9.989989 14.966155 -1.045570 0.839943 0.002225 0.003184 1136940.000000 1 0 0
-6.623967 7.513602 -4.566411 11.008327 -0.848242 1.998535 -0.001001 -0.002788 -91817.000000 1 0 0
-1.279867 -7.527198 9.775189 12.403673 1.402375 0.663099 0.005547 -0.002859 -804494.000000 1 0 0
10.162033 -9.209098 0.806989 13.737745 -0.736244 1.512020 0.007842 -0.005435 2108230.000000 1 0 0
11.132433 6.073902 9.816889 16.037289 0.499462 0.912046 0.007568 0.000169 2193780.000000 1 0 0
-15.217067 -4.129998 -4.986611 16.537301 0.265022 1.877101 0.014507 -0.006038 1420030.000000 1 0 0
-4.780867 -4.586998 7.891289 10.303867 0.764706 0.698423 0.001215 -0.001227 -108489.000000 1 0 0
3.086533 10.883002 -11.059111 15.819935 1.294443 2.344881 0.005116 -0.004193 -216653.000000 1 0 0
9.949233 -1.363098 1.591889 10.167565 -0.136158 1.413584 0.009409 -0.001541 -471576.000000 1 0 0
-1.649967 -2.607898 0.699589 3.164325 1.006693 1.347868 0.000515 -0.000469 25878.600000 1 0 0
1.546533 3.075302 0.924189 3.564179 1.104841 1.308500 -0.001232 -0.001692 -1455890.000000 1 0 0
-8.976167 -2.372998 4.259489 10.214986 0.258454 1.140671 -0.003978 -0.001876 3633160.000000 1 0 0
9.896533 4.906602 -2.602911 11.348623 0.460274 1.802216 0.006310 -0.000906 317429.000000 1 0 0
2.517133 8.481602 2.513789 9.197427 1.282300 1.293959 0.000458 -0.000113 600981.000000 1 0 0
-8.169767 -0.129098 2.483789 8.539963 0.015801 1.275688 -0.005052 -0.002447 -220617.000000 1 0 0
6.889733 2.086602 13.773589 15.541367 0.294076 0.481603 0.001867 -0.004708 -1093060.000000 1 0 0
6.762833 4.432302 3.853889 8.957325 0.580156 1.126027 0.000075 -0.000380 -685279.000000 1 0 0
-0.320467 3.364902 7.906189 8.598435 -1.475845 0.404011 -0.001876 0.001511 -87713.200000 1 0 0
2.739533 -10.217898 9.215189 14.029618 -1.308846 0.854178 -0.001123 -0.000397 20736.600000 1 0 0
1.328633 -4.515998 6.857289 8.317567 -1.284664 0.601594 -0.003925 0.000892 -263595.000000 1 0 0
-0.206367 10.729602 -2.054011 10.926386 -1.551565 1.759908 0.000761 -0.001889 2377990.000000 1 0 0
8.742433 5.538802 8.061689 13.118662 0.564727 0.909018 0.002987 -0.000519 -1019950.000000 1 0 0
2.590133 11.370902 -2.832411 12.001198 1.346832 1.809055 0.005399 -0.005921 737565.000000 1 0 0
1.427333 2.453402 -6.627411 7.209649 1.043884 2.736947 0.004351 -0.003757 424681.000000 1 0 0
-13.615267 -2.231898 3.579489 14.253758 0.162481 1.316953 0.006090 -0.008213 1030730.000000 1 0 0
-0.960667 -10.675398 -5.418911 12.010479 1.481049 2.038886 0.000121 -0.000396 -1393190.000000 1 0 0
-5.707467 2.878102 0.489889 6.410822 -0.467057 1.494306 -0.003875 -0.001117 2497520.000000 1 0 0
3.677233 7.255702 -4.966111 9.530452 1.101719 2.118910 0.003974 -0.003399 -1878920.000000 1 0 0
2.929033 9.777402 -6.446811 12.072207 1.279733 2.134146 0.004258 -0.002300 -80462.500000 1 0 0
-12.146667 1.693802 -2.525811 12.521590 -0.138552 1.773906 0.001795 -0.004110 1557630.000000 1 0 0
-2.499767 9.614502 -5.733911 11.470188 -1.316429 2.094276 -0.003450 -0.002541 -943303.000000 1 0 0
-1.374267 3.365402 1.723089 4.022881 -1.183111 1.128161 -0.003153 0.000844 616487.000000 1 0 0
12.866633 3.721902 9.575189 16.464721 0.281582 0.950154 0.019268 -0.005670 1546680.000000 1 0 0
-2.565567 -9.548098 11.589289 15.233513 1.308297 0.706289 0.002511 -0.006162 1247050.000000 1 0 0
-0.454267 -8.926798 -7.558811 11.705969 1.519952 2.272766 -0.000086 0.000470 2467700.000000 1 0 0
2.297933 7.557902 -0.425511 7.910969 1.275634 1.624610 0.000842 -0.003227 3689670.000000 1 0 0
-11.773767 -1.245198 -5.626711 13.108470 0.105369 2.014450 0.001681 0.001964 -694443.000000 1 0 0
-6.220867 -7.178398 -10.963411 14.506032 0.856738 2.427645 0.006577 -0.003860 940529.000000 1 0 0
-4.746767 -2.277198 -1.430411 5.455594 0.447306 1.836089 -0.001401 -0.000260 -2315610.000000 1 0 0
-10.448067 3.598402 4.539689 11.946522 -0.331685 1.180999 -0.004297 -0.005201 2465590.000000 1 0 0
6.710133 9.324102 -3.587111 12.034622 0.947001 1.873462 0.006636 -0.001789 1256160.000000 1 0 0
1.214433 -2.674798 -11.611911 11.977724 -1.144598 2.893811 0.007570 -0.006045 -1444680.000000 1 0 0
1.210133 8.780902 7.683089 11.730239 1.433845 0.856638 -0.000730 0.000495 384394.000000 1 0 0
10.335033 0.412402 10.380289 14.653784 0.039882 0.783611 0.010917 -0.005550 291672.000000 1 0 0
-5.217967 -0.805398 -3.934611 6.584604 0.153142 2.211235 0.001029 -0.001505 -246679.000000 1 0 0
11.657333 5.713302 5.417189 14.067024 0.455699 1.175482 0.003894 -0.000101 3730560.000000 1 0 0
10.010833 -3.413298 3.683889 11.199929 -0.328599 1.235636 0.015899 -0.007621 359962.000000 1 0 0
7.359033 -1.659598 -3.326211 8.244593 -0.221808 1.986071 0.004010 -0.000181 -3651900.000000 1 0 0
2.367633 9.318402 10.496389 14.234201 1.321980 0.741574 0.003919 -0.000058 1938120.000000 1 0 0
2.443033 -10.878398 6.332789 12.822331 -1.349885 1.054241 -0.000242 -0.000394 1187320.000000 1 0 0
5.923933 -7.543798 -1.287411 9.677774 -0.905101 1.704219 0.002267 -0.004893 265733.000000 1 0 0
-0.205067 -5.614598 -2.301811 6.071581 1.534289 1.959633 0.001039 0.002248 1851980.000000 1 0 0
7.740033 -5.052898 2.713989 9.633568 -0.578360 1.285208 0.008628 -0.005908 1374060.000000 1 0 0
-2.725267 -12.452998 4.695189 13.584883 1.355349 1.217898 0.005694 -0.003600 -190539.000000 1 0 0
4.882733 -10.240298 -1.102911 11.398298 -1.125868 1.667709 -0.000108 -0.004721 828465.000000 1 0 0
0.915733 0.218602 1.101189 1.448782 0.234332 0.707362 -0.003697 0.000710 -2600630.000000 1 0 0
-1.677867 8.510102 2.338789 8.983708 -1.376131 1.307425 -0.002587 0.002130 -1421820.000000 1 0 0
-7.475867 0.675302 -3.068611 8.109315 -0.090086 1.958870 -0.004057 0.002153 -699405.000000 1 0 0
4.306733 -6.370498 12.849989 14.975093 -0.976330 0.539256 -0.001595 -0.000727 -283747.000000 1 0 0
-5.140067 13.065902 8.414689 16.369028 -1.195996 1.030883 0.004176 -0.009995 866941.000000 1 0 0
0.684833 6.076702 8.366789 10.363323 1.458572 0.631156 -0.001420 0.004473 -284367.000000 1 0 0
7.947533 -0.477998 -0.604911 7.984840 -0.060072 1.646626 0.008818 -0.000814 3145220.000000 1 0 0
2.463333 -9.203198 -2.425711 9.831121 -1.309266 1.820109 -0.003825 -0.000949 388595.000000 1 0 0
-7.267667 12.076602 4.800089 14.889733 -1.029056 1.242558 0.006297 -0.007542 893833.000000 1 0 0
-14.845467 0.243302 0.173689 14.848477 -0.016387 1.559099 0.004282 -0.009733 -354763.000000 1 0 0
6.752933 -0.512098 4.006889 7.868895 -0.075689 1.036534 0.004276 0.000472 2063640.000000 1 0 0
-4.186467 -5.083798 5.182089 8.380069 0.881894 0.904113 0.001683 0.000844 2125730.000000 1 0 0
2.904733 5.133602 6.951689 9.116870 1.055883 0.703615 -0.004511 0.001885 -127910.000000 1 0 0
2.107433 -7.152698 1.762689 7.662208 -1.284269 1.338668 0.000289 -0.001879 1052690.000000 1 0 0
-2.556067 6.390802 -1.870811 7.132725 -1.190324 1.836186 -0.000417 -0.001453 973117.000000 1 0 0
2.766233 -3.810998 -6.662611 8.158807 -0.942928 2.526319 -0.001527 -0.000767 -477904.000000 1 0 0
-5.183467 0.857502 -12.181011 13.265771 -0.163945 2.734381 0.007447 -0.004517 693636.000000 1 0 0
-7.438467 6.337702 -11.905211 15.402315 -0.705664 2.454273 0.001566 -0.004525 2282990.000000 1 0 0
-1.002367 11.131002 -8.971411 14.331439 -1.480987 2.247203 -0.000117 -0.002429 838180.000000 1 0 0
4.605733 5.909802 -0.538111 7.511864 0.908782 1.642493 0.004600 -0.001429 -392611.000000 1 0 0
-2.700767 13.295002 3.640389 14.046482 -1.370382 1.308636 -0.002683 0.002289 824848.000000 1 0 0
1.459233 -7.907998 10.298689 13.066323 -1.388323 0.662941 -0.007096 -0.001015 -987747.000000 1 0 0
12.991033 -0.198298 -1.106911 13.039613 -0.015263 1.655787 0.012117 -0.000702 1810930.000000 1 0 0
-1.108567 3.200802 -5.394111 6.369497 -1.237385 2.580861 0.004330 -0.007232 1373190.000000 1 0 0
6.554533 1.105102 7.344689 9.905938 0.167030 0.735578 0.001377 -0.000692 625366.000000 1 0 0
5.476433 -6.184198 6.934989 10.785624 -0.846021 0.872408 0.000101 -0.001478 2208780.000000 1 0 0
12.327433 -4.867298 2.697289 13.525219 -0.376046 1.370024 0.012771 -0.005842 -546536.000000 1 0 0
4.354033 -9.160198 13.893389 17.201543 -1.127086 0.630585 0.003327 0.004586 -67772.900000 1 0 0
-2.713367 -4.273198 -1.386211 5.248254 1.005057 1.838096 0.004429 -0.001265 2335700.000000 1 0 0
-9.275567 -5.170698 -7.510711 13.007038 0.508548 2.186379 0.009641 -0.002145 2407830.000000 1 0 0
-10.555967 -3.108498 7.860789 13.523432 0.286383 0.950506 -0.000823 -0.000856 -255314.000000 1 0 0
12.083433 -0.578498 1.644889 12.208590 -0.047839 1.435653 0.012812 -0.003047 -80333.200000 1 0 0
-7.603067 4.702802 4.345789 9.940264 -0.553940 1.118324 -0.003080 -0.002456 1799420.000000 1 0 0
-1.084267 10.587602 6.931389 12.701067 -1.468743 0.993533 -0.001671 0.002435 344278.000000 1 0 0
7.452333 -9.906098 1.848089 12.533295 -0.925826 1.422802 0.002744 -0.006218 2030040.000000 1 0 0
-4.398367 -1.742698 1.682589 5.021328 0.377239 1.229097 -0.005868 0.001396 2797220.000000 1 0 0
6.740133 -14.906598 -0.842411 16.381261 -1.146150 1.622244 0.011852 0.001228 -654317.000000 1 0 0
-10.466767 1.554302 2.502489 10.873432 -0.147421 1.338567 -0.006121 -0.000722 1304300.000000 1 0 0
-2.981067 8.320002 -11.381611 14.410075 -1.226745 2.481340 0.000845 -0.004170 -838928.000000 1 0 0
-1.327267 -5.155398 -6.962911 8.764810 1.318816 2.488843 -0.002394 -0.001709 -385250.000000 1 0 0
12.838433 -0.497598 6.421789 14.363577 -0.038739 1.107289 0.019214 -0.008283 2978540.000000 1 0 0
5.935533 -13.284798 3.701289 15.013859 -1.150614 1.321704 0.006627 -0.002880 -225267.000000 1 0 0
-5.528667 3.433302 -4.967411 8.187118 -0.555718 2.222743 -0.002009 -0.002066 2271780.000000 1 0 0
-4.448467 8.066602 3.345789 9.800675 -1.066827 1.222408 -0.000943 0.000357 89116.500000 1 0 0
14.058233 6.168202 -3.955311 15.853236 0.413468 1.822956 0.010575 -0.003049 -597186.000000 1 0 0
-6.697167 -8.497498 5.272989 12.035944 0.903333 1.117308 0.009071 -0.001062 673313.000000 1 0 0
1.671633 11.393202 2.747289 11.838370 1.425114 1.336595 0.000632 -0.002036 1624840.000000 1 0 0
-7.333567 7.274302 5.956689 11.923876 -0.781341 1.047706 -0.002642 -0.004638 -897543.000000 1 0 0
-17.420167 -3.993798 5.203789 18.614297 0.225368 1.287462 0.035912 -0.010197 -941274.000000 1 0 0
7.425733 -13.034098 -8.511711 17.247564 -1.052942 2.086908 0.016736 -0.002930 -1205700.000000 1 0 0
-2.287167 12.798002 -2.738611 13.286082 -1.393950 1.778411 -0.005446 0.002453 917962.000000 1 0 0
-5.463367 13.890202 -5.729911 15.988057 -1.196057 1.937336 0.001572 0.000271 2433250.000000 1 0 0
-5.624367 2.406102 7.486789 9.668239 -0.404239 0.685078 -0.001380 -0.001071 966880.000000 1 0 0
-7.444167 5.147502 1.432289 9.163179 -0.604986 1.413844 -0.002733 -0.001754 822330.000000 1 0 0
10.706533 -5.777498 -5.015911 13.159358 -0.494842 1.961854 0.010536 -0.003082 3228500.000000 1 0 0
-9.487967 -0.727598 6.788489 11.689076 0.076537 0.951141 -0.007154 -0.001640 1692500.000000 1 0 0
-11.212367 -4.582298 -2.578611 12.384017 0.387969 1.780552 0.004248 -0.002929 1612230.000000 1 0 0
6.418133 -4.314698 13.529589 15.583928 -0.591870 0.519282 0.001553 -0.004786 -574521.000000 1 0 0
0.293533 10.283902 -11.590811 15.498119 1.542261 2.415667 -0.000465 -0.003522 -991305.000000 1 0 0
-11.747267 -3.221598 1.440189 12.265852 0.267662 1.453110 0.000136 -0.005083 3960580.000000 1 0 0
5.193233 6.074902 5.507089 9.705778 0.863484 0.967448 -0.000479 0.002043 -4833070.000000 1 0 0
-7.065267 -0.075398 8.171589 10.802710 0.010671 0.712945 -0.005177 0.000310 -20350.700000 1 0 0
1.785433 2.073902 9.735589 10.112889 0.860005 0.274019 -0.000058 -0.000812 2231250.000000 1 0 0
10.537933 -4.936298 -2.022911 11.811318 -0.438075 1.742914 0.008475 -0.001430 1408840.000000 1 0 0
-9.657367 -2.437998 -1.623411 10.091781 0.247283 1.732363 -0.001549 -0.001909 -794206.000000 1 0 0
-1.995967 -5.236998 -10.009611 11.471807 1.206664 2.631174 0.007440 -0.006503 1285020.000000 1 0 0
7.625233 -1.555698 6.602489 10.205745 -0.201258 0.867234 0.006517 -0.004457 3315560.000000 1 0 0
1.500133 -11.772698 -2.611711 12.151866 -1.444055 1.787409 -0.002633 0.001884 -3564800.000000 1 0 0
-0.742367 -1.470198 4.842789 5.115193 1.103202 0.327821 -0.000047 0.001678 2741850.000000 1 0 0
7.654533 1.510102 9.909989 12.612698 0.194781 0.666945 0.001591 -0.004025 293519.000000 1 0 0
-3.794967 10.676902 -8.023211 13.884161 -1.229286 2.186910 -0.000948 -0.002580 2101140.000000 1 0 0
-9.595967 12.650102 6.393089 17.116636 -0.921834 1.188016 0.007698 -0.009496 -112811.000000 1 0 0
-2.510467 -2.442998 -11.162411 11.699150 0.771778 2.837508 0.010556 -0.007983 -3287390.000000 1 0 0
1.214433 -11.911298 11.005089 16.262406 -1.469191 0.827498 -0.003436 0.004076 2299380.000000 1 0 0
1.313033 3.495402 -1.914411 4.196053 1.211460 2.044563 0.002570 -0.002722 3106910.000000 1 0 0
-1.918267 -9.427298 -12.093211 15.453138 1.370057 2.469585 0.005764 -0.003808 2270410.000000 1 0 0
1.265433 -2.644598 1.537089 3.310266 -1.124498 1.087907 0.004701 0.000544 2445770.000000 1 0 0
-1.027167 -2.231498 -6.632511 7.072826 1.139407 2.786878 0.000265 -0.004302 1764500.000000 1 0 0
1.799333 5.928402 4.132789 7.447381 1.276122 0.982515 -0.005552 0.003393 -723643.000000 1 0 0
-11.004167 8.573002 3.531289 14.389512 -0.661847 1.322857 -0.007228 -0.004585 1762230.000000 1 0 0
-16.369967 -1.534698 3.919889 16.902564 0.093478 1.336755 0.022229 -0.009973 -322117.000000 1 0 0
-12.226367 0.257802 6.757389 13.971858 -0.021083 1.065984 -0.004051 -0.004351 20086.300000 1 0 0
-5.153767 3.041802 4.678989 7.596500 -0.533189 0.907218 -0.004500 0.001863 763145.000000 1 0 0
5.215033 -6.020698 3.995089 8.911011 -0.856981 1.105898 0.000590 -0.003423 361334.000000 1 0 0
9.874733 3.461802 6.270889 12.199117 0.337184 1.030903 0.003458 -0.000131 -391492.000000 1 0 0
-12.119067 5.812602 3.157889 13.806896 -0.447215 1.340036 -0.001741 -0.003695 1229470.000000 1 0 0
-4.952367 12.387902 -1.300411 13.404369 -1.190484 1.667963 -0.004796 0.001563 827940.000000 1 0 0
-1.735767 -12.184698 10.270389 16.029992 1.429294 0.875389 0.013024 -0.005223 1126020.000000 1 0 0
5.218833 6.459402 13.903689 16.194834 0.891230 0.538408 0.009005 -0.006765 1280080.000000 1 0 0
12.857133 -3.694898 -5.935211 14.635056 -0.279840 1.988374 0.007723 -0.001102 1757590.000000 1 0 0
3.501033 -2.504398 6.386689 7.701885 -0.620941 0.593055 -0.004552 0.001951 1025890.000000 1 0 0
7.269633 -11.781898 -0.602711 13.857271 -1.017958 1.614304 0.003650 -0.000274 -1535300.000000 1 0 0
-6.031067 -6.677698 -4.054411 9.869330 0.836235 1.994138 0.010198 -0.001195 -577294.000000 1 0 0
0.287633 -8.996998 5.042789 10.317869 -1.538837 1.060148 0.004791 -0.002236 1916780.000000 1 0 0
-10.228267 2.489802 -0.265611 10.530295 -0.238780 1.596023 -0.001603 -0.002090 -1523370.000000 1 0 0
-1.952567 8.877802 -0.502311 9.103856 -1.354305 1.626000 0.000131 -0.004354 182157.000000 1 0 0
-3.489067 2.263102 -6.693311 7.880078 -0.575409 2.585637 0.004327 -0.006272 -494349.000000 1 0 0
-12.642567 3.056002 6.454189 14.519993 -0.237174 1.110176 -0.000834 -0.008014 813298.000000 1 0 0
11.338633 1.660802 7.871189 13.902463 0.145439 0.968942 0.014936 -0.009037 -1526300.000000 1 0 0
5.946033 2.624302 -3.138211 7.217384 0.415640 2.020627 0.002868 0.000683 847764.000000 1 0 0
10.530633 -2.401798 6.437989 12.574202 -0.224242 1.033285 0.017327 -0.008598 3673650.000000 1 0 0
-0.961967 10.933902 4.060289 11.703057 -1.483042 1.216487 0.001048 0.002191 1579970.000000 1 0 0
-1.521767 -12.230298 7.411689 14.381554 1.447007 1.029368 0.005649 -0.001153 -362173.000000 1 0 0
8.036533 8.588702 -7.742011 14.081562 0.818599 2.152918 0.000339 -0.004100 446422.000000 1 0 0
-4.701767 -5.993198 -8.809811 11.646365 0.905568 2.428654 0.008753 -0.005843 533356.000000 1 0 0
-8.540967 -5.395898 -11.742011 15.489954 0.563450 2.431100 0.009914 -0.001502 1030720.000000 1 0 0
5.995433 -0.552098 -9.970411 11.647280 -0.091828 2.598335 0.002872 0.001103 -1123390.000000 1 0 0
-11.164267 -5.499898 -5.408911 13.570043 0.457738 1.980777 0.004939 -0.003658 -276440.000000 1 0 0
3.841233 8.834402 -2.606011 9.979630 1.160651 1.834992 0.006191 -0.004622 662177.000000 1 0 0
11.729133 -10.464298 -3.980611 16.214788 -0.728468 1.818824 0.024771 -0.010534 52696.400000 1 0 0
4.038833 -11.210698 3.906789 12.540133 -1.225005 1.253980 0.002586 -0.001054 -186666.000000 1 0 0
-1.079867 0.919602 3.212989 3.512133 -0.705415 0.415721 -0.000400 0.002164 -774398.000000 1 0 0
-10.611267 -5.102598 4.461689 12.591353 0.448224 1.208582 0.007239 -0.004707 3422400.000000 1 0 0
4.645033 -8.626698 2.748089 10.175866 -1.076865 1.297342 0.001949 -0.003356 5308090.000000 1 0 0
-3.622967 -5.744798 2.700189 7.308873 1.008143 1.192390 0.002317 0.000036 654712.000000 1 0 0
10.055233 5.102402 12.279989 16.671543 0.469580 0.742791 0.014806 0.002519 594973.000000 1 0 0
1.633433 -12.298898 -5.337711 13.506375 -1.438758 1.977081 -0.004786 0.003077 2205220.000000 1 0 0
9.859833 -10.681498 -1.720411 14.637982 -0.825377 1.688599 0.011890 -0.004921 948986.000000 1 0 0
9.645733 -4.587898 -9.133011 14.053500 -0.443971 2.278216 0.009305 -0.002110 3064310.000000 1 0 0
-7.430667 -3.184398 -13.193711 15.473501 0.404872 2.591861 0.008463 0.000700 2004320.000000 1 0 0
0.367333 6.228402 -2.545911 6.738663 1.511888 1.958222 -0.001753 -0.002848 1711360.000000 1 0 0
-5.912167 -9.429998 0.868589 11.163917 1.010794 1.492914 0.008288 -0.001575 374950.000000 1 0 0
-8.969667 -4.149198 0.593689 9.900669 0.433267 1.510796 -0.002466 -0.002097 1583460.000000 1 0 0
1.933833 3.791602 12.203489 12.924438 1.099156 0.335584 0.006301 -0.007318 582130.000000 1 0 0
6.605833 4.298902 9.673889 12.478049 0.576919 0.683650 -0.002292 0.000787 2455750.000000 1 0 0
-8.295967 9.790702 -3.584211 13.323944 -0.867854 1.843156 0.001527 -0.000486 2155560.000000 1 0 0
16.490833 2.193002 -6.052211 17.702714 0.132207 1.919713 0.021381 0.003949 -852340.000000 1 0 0
-10.928767 2.604102 -5.118811 12.345911 -0.233918 1.998317 -0.001564 0.001306 1636200.000000 1 0 0
-13.789067 4.006302 1.418489 14.429170 -0.282757 1.472330 0.000231 -0.001720 1041750.000000 1 0 0
-17.463667 10.477202 3.318689 20.634077 -0.540377 1.409259 0.046145 -0.013329 -1290450.000000 1 0 0
-14.399067 2.847602 -1.194111 14.726435 -0.195244 1.651972 0.005094 -0.003372 831293.000000 1 0 0
-14.314367 5.074102 5.064089 16.009142 -0.340657 1.248943 0.003603 -0.007465 1408160.000000 1 0 0
-17.460467 7.576202 3.153289 19.292744 -0.409390 1.406615 0.031927 -0.009661 -2170280.000000 1 0 0
-15.168967 12.559002 -3.455411 19.994148 -0.691547 1.744490 0.055534 -0.014756 -196979.000000 1 0 0
-8.433067 12.514802 -9.524411 17.845204 -0.977839 2.133794 0.004616 -0.011646 1549790.000000 1 0 0
-12.277567 8.809402 -9.776411 17.997845 -0.622388 2.145039 0.012155 -0.009370 -3143130.000000 1 0 0
-13.855567 -3.617498 -12.209511 18.818480 0.255385 2.276808 0.011087 0.002222 -1281340.000000 1 0 0
-14.678567 5.780502 -7.544411 17.486929 -0.375155 2.016875 0.027154 -0.003598 -289173.000000 1 0 0
-10.836067 13.596602 -8.234411 19.237813 -0.897906 2.013111 0.020162 -0.016694 474104.000000 1 0 0
-10.993867 13.502302 3.831089 17.828475 -0.887444 1.354221 0.006895 -0.010860 -192293.000000 1 0 0
-15.167567 3.231302 3.018289 15.798939 -0.209902 1.378571 0.006086 -0.005865 948390.000000 1 0 0
-11.083067 9.353802 -12.428811 19.099825 -0.700984 2.279341 0.000543 -0.007784 574073.000000 1 0 0
-12.891667 11.595402 -9.098611 19.581449 -0.732511 2.054041 0.022923 -0.018889 351426.000000 1 0 0
-8.915167 14.714902 -3.447211 17.546846 -1.026079 1.768540 0.010810 -0.007260 1839950.000000 1 0 0
-16.785567 8.197202 -4.041711 19.112426 -0.454283 1.783875 0.043371 -0.004871 -462805.000000 1 0 0
-16.937867 6.661502 0.344589 18.204002 -0.374709 1.551866 0.024891 -0.003474 -996841.000000 1 0 0
-10.596267 2.737002 -12.543711 16.646824 -0.252774 2.424196 0.005023 0.000351 865483.000000 1 0 0
-16.829167 0.888302 2.311289 17.010350 -0.052735 1.434499 0.021794 -0.011803 1165760.000000 1 0 0
-12.592067 1.211302 -7.037211 14.475833 -0.095901 2.078458 0.000202 -0.000928 964721.000000 1 0 0
-12.312967 8.997702 -5.549911 16.228657 -0.631067 1.919822 0.020481 -0.006389 -1163710.000000 1 0 0
-9.711667 13.884302 1.179789 16.984764 -0.960425 1.501279 0.013924 -0.008476 580841.000000 1 0 0
-12.333367 11.021502 2.654789 16.752115 -0.729286 1.411651 0.006746 -0.008719 174335.000000 1 0 0
-12.574467 6.790602 -3.676511 14.756227 -0.495157 1.822599 0.009786 -0.003321 1411800.000000 1 0 0
-15.848267 3.715102 -9.418311 18.806226 -0.230259 2.095329 0.026261 -0.004961 -2799320.000000 1 0 0
-15.124967 5.831702 -4.686611 16.874173 -0.368003 1.852236 0.019023 -0.000731 695963.000000 1 0 0
-17.860267 5.258802 7.426189 20.044760 -0.286349 1.191270 0.025117 -0.018065 -967077.000000 1 0 0
-15.860967 10.125302 -2.098611 18.933995 -0.568162 1.681863 0.036370 -0.004747 -818948.000000 1 0 0
-8.701867 9.895102 -8.288011 15.566845 -0.849473 2.132247 0.002602 -0.005993 180906.000000 1 0 0
-17.029467 4.188502 -1.292211 17.584542 -0.241169 1.644348 0.019196 -0.001985 -261301.000000 1 0 0
-10.190867 5.337802 -4.645011 12.406532 -0.482492 1.954546 0.002170 -0.000925 -70382.700000 1 0 0
-18.097067 2.721302 6.125789 19.298565 -0.149254 1.247787 0.037687 -0.020322 -140759.000000 1 0 0
-10.334667 10.034602 -5.716611 15.497684 -0.770668 1.948588 0.007400 -0.006535 515587.000000 1 0 0
-15.304667 0.591302 -5.853011 16.396348 -0.038616 1.935819 0.004651 -0.000764 129576.000000 1 0 0
-16.258667 -4.102698 -8.891911 18.980055 0.247179 2.058374 0.017943 -0.006416 -2456250.000000 1 0 0
-10.058167 9.527402 -1.142511 13.901203 -0.758305 1.653077 0.000729 -0.001144 1086430.000000 1 0 0
-17.254967 -2.883698 -3.271711 17.797576 0.165592 1.755677 0.021385 -0.009976 -223952.000000 1 0 0
-12.010167 5.071902 -11.603911 17.453339 -0.399582 2.298094 0.008598 0.001369 13311.500000 1 0 0
-16.256467 7.014502 5.808089 18.633568 -0.407355 1.253814 0.020720 -0.010636 -793057.000000 1 0 0
-12.071367 5.933102 -8.764711 16.054276 -0.456826 2.148310 0.010536 -0.001192 598215.000000 1 0 0
-14.600867 8.291302 -0.053711 16.790887 -0.516455 1.573995 0.021155 -0.004309 1488140.000000 1 0 0
-14.883667 11.894402 3.896989 19.447027 -0.674227 1.369040 0.012279 -0.014894 694848.000000 1 0 0
-17.294267 4.076302 -4.128711 18.241551 -0.231478 1.799110 0.022524 -0.003609 -1653500.000000 1 0 0
-13.746867 13.373702 -1.056411 19.208026 -0.771640 1.625823 0.028812 -0.006473 -1465200.000000 1 0 0
-10.019267 6.802002 -13.128111 17.860578 -0.596419 2.396511 -0.006587 -0.004572 570760.000000 1 0 0
-15.813867 -1.086798 -8.255811 17.872267 0.068616 2.050971 0.007017 -0.004015 138959.000000 1 0 0
-11.502067 11.839402 -0.133911 16.507178 -0.799849 1.578909 0.016724 -0.006860 -403778.000000 1 0 0
-12.028467 7.330402 -0.943811 14.117705 -0.547318 1.637699 0.003029 0.001462 1147590.000000 1 0 0
-11.518067 0.026102 -11.759011 16.460282 -0.002266 2.366544 0.006596 -0.003152 8970.890000 1 0 0
-18.947667 -1.214598 -4.900211 19.608708 0.064015 1.823373 0.025081 -0.008674 -1473380.000000 1 0 0
-17.900667 1.493302 -5.224011 18.707061 -0.083229 1.853813 0.017203 -0.006336 112286.000000 1 0 0
-13.330167 -0.136098 -9.493611 16.365834 0.010209 2.189632 0.005020 -0.004084 732149.000000 1 0 0
-6.031967 11.269902 -13.128711 18.323711 -1.079365 2.369551 -0.012790 -0.000624 -1078660.000000 1 0 0
16.358033 5.819302 7.125389 18.767543 0.341784 1.181362 0.022048 -0.009209 533325.000000 1 0 0
14.882433 10.162302 -5.506511 18.843589 0.599115 1.867346 0.031742 -0.015307 391768.000000 1 0 0
2.411133 16.820902 4.316189 17.532421 1.428425 1.322056 0.020447 -0.010785 1871320.000000 1 0 0
-3.856267 18.147802 -5.912411 19.472291 -1.361418 1.879299 -0.001563 -0.007211 200901.000000 1 0 0
5.387133 14.513102 5.676089 16.488460 1.215369 1.219361 0.015014 -0.007950 -1824230.000000 1 0 0
9.985733 6.006202 15.049089 19.033244 0.541506 0.658887 0.031703 0.001010 -1026070.000000 1 0 0
4.622933 12.753602 -1.133411 13.612879 1.223047 1.654153 0.006636 -0.007617 1393260.000000 1 0 0
3.660233 13.715802 12.964689 19.225079 1.310011 0.830694 0.024661 -0.010663 -1063170.000000 1 0 0
-0.778767 12.409402 9.155989 15.441239 -1.508122 0.936070 0.004671 -0.005054 717655.000000 1 0 0
-7.821167 13.981602 8.306589 18.045921 -1.060773 1.092460 0.015909 -0.015929 3110500.000000 1 0 0
11.312233 12.833102 -4.226011 17.621415 0.848303 1.812979 0.015920 -0.010842 621761.000000 1 0 0
-5.821167 16.107402 0.859189 17.148545 -1.224005 1.520673 0.002729 -0.001303 1159340.000000 1 0 0
3.213633 10.625902 6.866589 13.053247 1.277108 1.016854 0.002160 0.003497 2152170.000000 1 0 0
-1.234167 15.488602 2.464689 15.731962 -1.491282 1.413481 0.000531 -0.002493 -1835470.000000 1 0 0
9.934033 8.897202 9.442189 16.340139 0.730395 0.954701 0.009197 0.000535 1811400.000000 1 0 0
7.279433 12.328902 6.208989 15.605880 1.037439 1.161611 0.011730 -0.005918 -350894.000000 1 0 0
11.844433 14.032802 -1.652211 18.437460 0.869765 1.660528 0.019224 -0.005347 310337.000000 1 0 0
9.685433 15.956002 -1.227211 18.705818 1.025239 1.636449 0.005782 -0.003489 -755391.000000 1 0 0
10.132033 13.682902 2.885789 17.268690 0.933410 1.402898 0.010955 -0.005997 2808080.000000 1 0 0
-6.073967 14.499502 6.151389 16.881001 -1.174096 1.197811 -0.002171 -0.010549 -461149.000000 1 0 0
-0.886567 18.206702 -6.292211 19.283721 -1.522140 1.903179 0.012027 0.001283 1500780.000000 1 0 0
-3.510867 15.627502 5.484289 16.929927 -1.349806 1.240905 -0.004633 -0.007883 888226.000000 1 0 0
7.130933 12.326502 10.549389 17.722371 1.046333 0.933209 0.011271 -0.001474 2636910.000000 1 0 0
1.475033 14.673102 6.328289 16.047519 1.470607 1.165439 0.007898 -0.003336 494105.000000 1 0 0
17.446333 7.846802 -1.411211 19.181719 0.422661 1.644433 0.009013 0.008355 653005.000000 1 0 0
2.050533 16.181502 -3.416611 16.664901 1.444747 1.777279 0.003905 -0.007064 1246620.000000 1 0 0
6.726333 11.148302 0.563389 13.032482 1.027917 1.527553 0.012068 -0.006050 1691830.000000 1 0 0
12.734333 9.440902 3.149189 16.162031 0.637957 1.374691 0.004191 0.001450 -2269140.000000 1 0 0
6.010833 14.343502 -3.448911 15.929882 1.173965 1.789030 0.001534 -0.004131 -393509.000000 1 0 0
3.114833 16.517302 1.461789 16.871878 1.384405 1.484047 0.014119 -0.011163 -907999.000000 1 0 0
2.853933 18.912002 -2.648711 19.308662 1.421021 1.708408 0.011472 -0.009868 517975.000000 1 0 0
3.963533 11.961702 10.670589 16.512219 1.250830 0.868170 0.013397 -0.005690 3548230.000000 1 0 0
7.977233 11.598002 3.321189 14.463063 0.968298 1.339096 0.007833 -0.002971 682707.000000 1 0 0
0.674333 12.448202 0.203789 12.468119 1.516678 1.554451 0.004604 -0.003485 -2170930.000000 1 0 0
12.046933 9.923802 -4.584711 16.267452 0.689063 1.856501 0.011515 -0.006261 2085190.000000 1 0 0
-1.336567 16.525102 9.993889 19.358285 -1.490091 1.028319 0.007417 0.000656 -1025220.000000 1 0 0
8.328333 14.720802 -7.858711 18.649999 1.055939 2.005761 0.015558 -0.008237 971816.000000 1 0 0
14.535133 7.486202 -1.325411 16.403354 0.475609 1.651686 0.003118 0.004515 -583113.000000 1 0 0
12.493333 8.375402 5.963489 16.180047 0.590576 1.193325 0.002650 -0.002613 -1716080.000000 1 0 0
-3.089467 14.228902 10.176789 17.764388 -1.356989 0.960786 0.007752 -0.009989 3363940.000000 1 0 0
-4.580567 17.109402 -3.143511 17.988743 -1.309209 1.746447 0.003384 -0.004255 -630735.000000 1 0 0
-7.156367 16.520302 -1.788511 18.092339 -1.162012 1.669813 0.005653 -0.001903 149499.000000 1 0 0
8.352633 11.256002 -1.918211 14.147211 0.932396 1.706805 0.012048 -0.006289 -145924.000000 1 0 0
8.437033 12.927502 -4.195111 15.996962 0.992566 1.836143 0.012312 -0.008931 1828230.000000 1 0 0
2.582433 14.753002 -7.308811 16.665495 1.397507 2.024791 -0.001423 -0.003776 620138.000000 1 0 0
11.304433 11.400302 9.644789 18.729096 0.789621 1.029832 0.009381 -0.003298 1403450.000000 1 0 0
8.571533 15.643802 1.352189 17.889330 1.069552 1.495138 0.010081 -0.005422 -506009.000000 1 0 0
6.069533 10.024302 7.750389 14.049711 1.026356 0.986467 0.004519 0.003943 3041440.000000 1 0 0
14.472233 11.483002 2.539289 18.648132 0.670735 1.434203 0.019042 0.001352 1991320.000000 1 0 0
12.166433 12.711702 0.982789 17.623147 0.807312 1.515000 0.015994 0.002560 1732220.000000 1 0 0
5.222233 15.955002 8.250389 18.705687 1.254476 1.114013 0.024486 -0.002289 -308840.000000 1 0 0
11.487433 14.988702 5.132789 19.569563 0.916878 1.305408 0.023346 -0.007560 504586.000000 1 0 0
5.958733 16.758602 1.695689 17.867081 1.229175 1.475748 0.009741 -0.015665 273724.000000 1 0 0
-0.746767 16.244902 -4.215811 16.799630 -1.524859 1.824454 0.002499 -0.003258 2161380.000000 1 0 0
16.004333 6.463802 2.652589 17.462979 0.383845 1.418308 -0.005393 0.001836 -234500.000000 1 0 0
7.728933 16.744902 -3.150411 18.709709 1.138363 1.739986 0.003193 -0.005838 143569.000000 1 0 0
14.814633 8.170802 7.431289 18.478620 0.504022 1.156926 0.017946 -0.006149 -142172.000000 1 0 0
2.061833 12.954802 8.632189 15.703271 1.412964 0.988784 0.011959 -0.001758 1531360.000000 1 0 0
15.984033 7.483402 -5.803811 18.578881 0.437869 1.888502 0.011930 -0.001384 104624.000000 1 0 0
-2.963367 16.962602 0.709989 17.234137 -1.397842 1.529588 -0.000476 -0.005407 1852380.000000 1 0 0
-2.888667 18.408802 4.587389 19.190428 -1.415148 1.329413 -0.003336 -0.014500 404975.000000 1 0 0
-0.855667 18.976602 0.860889 19.015381 -1.525736 1.525508 0.002867 -0.009899 190425.000000 1 0 0
6.997633 16.812502 -6.059011 19.192152 1.176389 1.891993 0.008173 -0.003244 870920.000000 1 0 0
10.975433 10.095302 0.764389 14.931829 0.743652 1.519582 0.004063 -0.001647 -1796910.000000 1 0 0
9.253533 8.693602 14.335989 19.150122 0.754209 0.724832 0.030385 -0.004027 1024520.000000 1 0 0
6.431833 12.412202 -8.301411 16.258679 1.092706 2.106659 0.016736 -0.009908 1536440.000000 1 0 0
6.446233 9.006202 13.393289 17.379464 0.949575 0.690953 0.018686 -0.006988 -397965.000000 1 0 0
16.626133 9.472002 3.008089 19.369969 0.517846 1.414869 0.009695 0.001306 -1764730.000000 1 0 0
2.509733 14.725402 -0.832611 14.960931 1.401983 1.626477 0.003773 -0.007293 2835720.000000 1 0 0
9.160133 13.020102 8.330489 17.967418 0.957700 1.088693 0.016495 -0.004565 1276360.000000 1 0 0
7.270333 9.368802 10.514789 15.849068 0.910852 0.845399 0.013022 -0.002564 859522.000000 1 0 0
4.361933 15.826302 -5.320111 17.256937 1.301860 1.884189 0.007964 -0.006395 1238970.000000 1 0 0
0.281033 16.259402 -8.150211 18.189917 1.553514 2.035393 0.001389 -0.002490 -127267.000000 1 0 0
-2.456967 15.653502 -1.951411 15.964862 -1.415107 1.693334 -0.000997 -0.001157 -109447.000000 1 0 0
13.362033 10.611002 7.595689 18.677038 0.671143 1.151973 0.015861 -0.008634 1546300.000000 1 0 0
-1.038367 15.952502 7.128089 17.503433 -1.505797 1.151367 0.004442 -0.006295 1876400.000000 1 0 0
13.341233 13.395902 6.676289 20.050225 0.787443 1.231336 0.023360 -0.011275 -1983510.000000 1 0 0
5.348333 17.303502 4.471989 18.655147 1.271021 1.328720 0.021429 -0.012289 771188.000000 1 0 0
10.789833 9.472602 -1.870411 14.479265 0.720481 1.700337 0.003293 0.000447 129862.000000 1 0 0
3.110033 12.737502 4.815789 13.968109 1.331318 1.218802 0.004390 -0.000133 1154250.000000 1 0 0
-0.197467 17.940702 3.532989 18.286328 -1.559790 1.376370 0.002265 -0.010962 1176780.000000 1 0 0
-7.645467 15.992102 -5.694111 18.617824 -1.124840 1.881619 0.019488 -0.013015 -270201.000000 1 0 0
-12.395967 -9.098098 8.303089 17.475030 0.633154 1.075673 0.015100 -0.004467 -452121.000000 1 0 0
-13.275467 -11.630298 6.827189 18.923857 0.719438 1.201701 0.024235 -0.011189 -2400250.000000 1 0 0
-6.601967 -12.333398 12.150189 18.529052 1.079315 0.855638 0.028912 -0.013054 -1292950.000000 1 0 0
-1.826967 -10.703498 14.310789 17.963891 1.401737 0.649077 0.001100 -0.003459 799498.000000 1 0 0
-8.906267 2.806802 10.990989 14.422259 -0.305296 0.704269 0.004150 -0.006635 -31347.800000 1 0 0
0.488333 10.117402 15.199789 18.265647 1.522567 0.587820 0.015818 -0.011548 -982566.000000 1 0 0
0.913633 -6.764798 16.577589 17.928014 -1.436552 0.390615 -0.001016 -0.010017 572817.000000 1 0 0
6.107933 2.441002 17.793889 18.970709 0.380200 0.354078 0.017012 -0.010566 893879.000000 1 0 0
-5.123167 -3.000598 17.713689 18.682216 0.529833 0.323408 0.032526 -0.015741 265674.000000 1 0 0
-4.406167 8.004902 12.888789 15.799166 -1.067620 0.616704 0.002142 -0.005156 368953.000000 1 0 0
0.092133 -4.868398 18.527889 19.157047 -1.551874 0.256996 0.008314 -0.018214 -770153.000000 1 0 0
-11.674367 2.005402 11.187989 16.293667 -0.170118 0.813930 0.006968 -0.005076 406339.000000 1 0 0
-3.405467 -6.008798 14.300489 15.881022 1.055187 0.449932 0.017315 -0.010631 1422610.000000 1 0 0
-7.483267 -2.329898 14.651689 16.616248 0.301835 0.491197 0.017434 -0.007203 933745.000000 1 0 0
-6.234067 -1.137598 10.701089 12.436681 0.180495 0.534653 0.002244 -0.004019 627298.000000 1 0 0
-3.984767 2.463302 11.145489 12.090002 -0.553680 0.397901 0.003123 -0.000980 247073.000000 1 0 0
-6.514467 6.169502 13.478189 16.191436 -0.758208 0.587323 0.001285 -0.006323 720258.000000 1 0 0
-9.167567 5.456002 12.486489 16.423296 -0.536840 0.707035 0.008575 -0.008013 -438606.000000 1 0 0
-12.313267 -2.222298 15.822789 20.172154 0.178558 0.669088 0.025543 -0.005919 2712080.000000 1 0 0
-3.461967 -7.505098 16.966589 18.872648 1.138600 0.453306 0.023246 -0.009368 589199.000000 1 0 0
-0.554367 -5.308698 14.353289 15.313605 1.466747 0.356024 -0.000270 -0.004161 2485400.000000 1 0 0
-14.305667 -2.229798 13.611789 19.872215 0.154624 0.816239 0.016038 -0.003033 -171115.000000 1 0 0
-6.527567 1.512402 12.237389 13.951709 -0.227677 0.500954 0.007811 -0.005735 1793840.000000 1 0 0
2.130733 -2.166998 14.599689 14.912640 -0.793836 0.205229 -0.003989 -0.004800 -409869.000000 1 0 0
-12.497767 4.027102 9.194989 16.029958 -0.311721 0.959887 -0.000556 -0.004958 -1044070.000000 1 0 0
-9.115267 -3.125998 12.606289 15.867529 0.330372 0.652661 0.003343 0.003564 1014130.000000 1 0 0
-7.245567 -7.201198 15.268289 18.370524 0.782327 0.589660 0.031959 -0.009630 -662890.000000 1 0 0
-3.156467 6.200002 19.379889 20.590857 -1.099889 0.344664 0.022593 -0.011433 380738.000000 1 0 0
0.685033 5.509802 16.284289 17.204803 1.447101 0.328595 0.012496 -0.011563 1076110.000000 1 0 0
3.435533 1.523802 16.871189 17.284729 0.417470 0.219186 -0.000305 -0.010006 -3816.030000 1 0 0
-11.686067 11.381702 7.873989 18.113724 -0.772205 1.121094 0.005798 -0.011781 -1125360.000000 1 0 0
0.581533 -9.525698 15.436489 18.148341 -1.509823 0.553722 -0.008391 0.003108 304485.000000 1 0 0
-2.448767 -3.482698 18.872989 19.347231 0.957977 0.221869 0.032644 -0.021727 1318810.000000 1 0 0
-13.050367 2.290902 13.735489 19.084653 -0.173773 0.767406 0.007655 -0.008766 -426294.000000 1 0 0
-5.469867 -0.590398 15.827189 16.756131 0.107520 0.334541 0.021412 -0.005994 -561315.000000 1 0 0
-4.457467 -5.982398 11.659989 13.842451 0.930441 0.569194 0.008327 -0.001589 -582009.000000 1 0 0
2.368033 1.860702 14.033889 14.353391 0.665997 0.211389 0.001209 -0.007412 477480.000000 1 0 0
0.028033 3.369602 14.382189 14.771674 1.562477 0.230147 0.009773 -0.009935 -61167.200000 1 0 0
-13.013867 7.175702 12.178789 19.213910 -0.503909 0.884272 0.007702 -0.003936 489251.000000 1 0 0
0.853533 1.558502 18.295289 18.381378 1.069750 0.096821 0.007107 -0.009727 407328.000000 1 0 0
-2.045167 6.394802 12.532689 14.217753 -1.261259 0.491805 0.001739 -0.003399 653180.000000 1 0 0
-13.421667 -2.586998 10.886589 17.474311 0.190413 0.898217 0.013092 -0.004302 327280.000000 1 0 0
-2.577267 3.581402 13.534389 14.235464 -0.947020 0.315145 0.006707 -0.001929 760090.000000 1 0 0
3.560033 6.122602 16.354889 17.822527 1.044123 0.408664 0.011884 -0.011995 -59550.600000 1 0 0
-3.803767 12.295302 12.272989 17.783963 -1.270768 0.809148 0.013045 -0.010988 -454051.000000 1 0 0
3.693133 -1.382898 17.110889 17.559446 -0.358290 0.226515 0.005330 -0.010985 -5109.920000 1 0 0
-15.770867 0.426602 9.045289 18.185695 -0.027043 1.050215 0.023710 -0.011339 -1903020.000000 1 0 0
-4.769967 4.586702 15.270789 16.642939 -0.765814 0.408913 0.011941 -0.002882 1240740.000000 1 0 0
-8.059167 -8.222298 10.500989 15.582912 0.795417 0.831351 0.010923 -0.008419 2463750.000000 1 0 0
-2.743567 -0.524198 14.776389 15.038072 0.188789 0.186827 0.011822 -0.006678 3010750.000000 1 0 0
-1.908467 1.108402 17.220489 17.361337 -0.526168 0.127466 0.014816 -0.012458 1843780.000000 1 0 0
-0.750067 -2.424198 14.421089 14.642648 1.270731 0.174180 0.004930 -0.005331 -152846.000000 1 0 0
4.898533 -8.247298 16.594589 19.167523 -1.034833 0.524117 0.004855 0.004218 84507.300000 1 0 0
-4.509367 9.902102 10.595289 15.187039 -1.143465 0.798680 0.001425 -0.008357 -1147120.000000 1 0 0
-6.244067 2.087202 15.266589 16.625689 -0.322593 0.407150 0.018558 -0.004544 -1326760.000000 1 0 0
-4.968267 6.903902 17.217589 19.203981 -0.947016 0.458848 0.013054 0.001647 -350879.000000 1 0 0
-4.293967 9.258102 15.559989 18.608166 -1.136520 0.580495 0.012982 -0.002348 90025.800000 1 0 0
-4.739467 -9.785098 18.308489 21.293461 1.119742 0.535884 0.043620 -0.008857 -624561.000000 1 0 0
-6.848967 -4.186198 11.202889 13.781775 0.548626 0.621721 0.003782 0.001702 605434.000000 1 0 0
-2.341467 -0.666698 19.609589 19.760135 0.277394 0.123518 0.025470 -0.014725 -812946.000000 1 0 0
-5.722867 -4.553398 15.267689 16.928880 0.672083 0.446712 0.017242 -0.010225 457825.000000 1 0 0
-12.993667 0.004502 9.678589 16.202175 -0.000346 0.930587 0.004154 -0.001546 868152.000000 1 0 0
-14.466567 8.816702 10.291689 19.822579 -0.547342 1.024893 0.007292 -0.011973 -427486.000000 1 0 0
-8.424167 10.610202 12.729989 18.590201 -0.899744 0.816510 0.007046 -0.010372 -598558.000000 1 0 0
-10.530767 7.201402 10.709689 16.656971 -0.599800 0.872446 0.010630 -0.005693 -554806.000000 1 0 0
-10.018467 -6.537098 14.846689 19.066397 0.578134 0.678232 0.029322 -0.007906 43866.700000 1 0 0
-0.681667 -13.478198 14.355289 19.702812 1.520264 0.754534 0.003059 -0.005580 -7379.330000 1 0 0
3.720333 -5.619698 16.962089 18.251968 -0.986020 0.378204 0.005687 -0.006370 1775080.000000 1 0 0
-7.317967 9.321202 10.369789 15.747062 -0.905214 0.851943 0.002311 -0.005589 166646.000000 1 0 0
-10.351767 -6.737798 11.831989 17.104180 0.576996 0.806873 0.019683 -0.011808 1432320.000000 1 0 0
-10.911667 -3.991198 10.660189 15.768125 0.350657 0.828395 0.009707 0.000228 299712.000000 1 0 0
-10.105067 -10.280298 9.831989 17.448923 0.793994 0.972213 0.015574 -0.011097 730740.000000 1 0 0
-9.911767 -3.630698 15.314689 18.600129 0.351123 0.603482 0.027486 -0.012381 1705260.000000 1 0 0
5.521433 -3.354298 16.102289 17.349964 -0.545920 0.381552 0.003466 -0.005173 236909.000000 1 0 0
-11.336967 0.508102 15.229389 18.992611 -0.044788 0.640397 0.016499 -0.009342 887567.000000 1 0 0
-3.135167 3.340302 18.818389 19.367980 -0.817066 0.238795 0.022809 -0.011819 -773000.000000 1 0 0
0.494233 7.370802 14.008989 15.837448 1.503844 0.485271 0.011313 -0.010104 1655760.000000 1 0 0
-13.141567 -7.345098 12.189989 19.371295 0.509667 0.890169 0.019329 -0.013969 -1154050.000000 1 0 0
-1.561667 -1.069998 12.178389 12.324644 0.600699 0.154211 0.002297 -0.003623 -300301.000000 1 0 0
1.966233 -4.822098 13.098189 14.095434 -1.183623 0.378417 -0.008685 -0.003252 -1177810.000000 1 0 0
-14.565367 -4.006098 8.648989 17.407003 0.268406 1.050810 0.017659 -0.011627 -2060570.000000 1 0 0
8.038733 0.925502 16.098689 18.017923 0.114626 0.465757 0.012104 -0.009003 -54844.400000 1 0 0
-1.359267 11.373302 13.366389 17.602839 -1.451847 0.708511 0.009468 -0.007921 1860840.000000 1 0 0
2.843533 -12.160698 -13.828211 18.632973 -1.341094 2.407049 0.018225 0.001870 -581079.000000 1 0 0
0.778533 -10.507998 -14.040711 17.554649 -1.496842 2.497806 0.013306 0.002060 -970596.000000 1 0 0
3.146933 -14.298398 -12.361111 19.161014 -1.354160 2.271974 0.011064 -0.001816 -113475.000000 1 0 0
-5.227567 -10.162698 -16.100011 19.743816 1.095705 2.524295 0.010364 -0.013805 -67285.200000 1 0 0
-1.020067 -12.238198 -15.054711 19.428288 1.487637 2.457331 0.013317 -0.005645 -619497.000000 1 0 0
5.665033 -15.005498 -12.101611 20.092451 -1.209809 2.217171 0.022331 -0.001004 -274387.000000 1 0 0
1.921833 -11.740298 -16.143311 20.053293 -1.408540 2.506506 0.029866 -0.003137 -583764.000000 1 0 0
1.250433 -14.242798 -14.153011 20.117868 -1.483227 2.351113 0.021717 0.001783 -804040.000000 1 0 0
-1.029567 -10.612998 -15.885711 19.132474 1.474089 2.550444 0.010419 -0.006345 -339912.000000 1 0 0
-5.971667 -5.641898 -15.166111 17.248268 0.757011 2.645151 0.013326 0.000693 -538615.000000 1 0 0
-6.408367 -7.667498 -16.970011 19.693628 0.874614 2.609408 0.008383 0.012903 639486.000000 1 0 0
4.998033 -12.566598 -11.517111 17.763546 -1.192254 2.276220 0.006688 0.005409 -57169.300000 1 0 0
-1.934067 -15.444798 -13.197811 20.407465 1.446220 2.274066 0.017381 0.000518 65672.300000 1 0 0
15.951233 -7.367398 -8.426611 19.486615 -0.432681 2.017983 0.036915 -0.003419 793791.000000 1 0 0
19.175533 -3.758298 -4.149711 19.976135 -0.193541 1.780054 0.039205 -0.009943 673696.000000 1 0 0
14.904133 -11.740998 -8.738311 20.888808 -0.667238 2.002397 0.038829 -0.016995 512308.000000 1 0 0
17.840033 -3.391798 -6.449411 19.270858 -0.187881 1.912053 0.056061 -0.006569 375415.000000 1 0 0
9.563433 -9.149698 -15.471611 20.360427 -0.763292 2.433935 0.046190 -0.014273 482462.000000 1 0 0
1.225833 1.928002 -15.191811 15.362649 1.004465 2.992321 0.014925 -0.007174 212628.000000 1 0 0
4.906833 -4.289298 -14.012211 15.453710 -0.718347 2.706240 0.010578 -0.003554 977838.000000 1 0 0
13.245533 -5.551998 -8.649711 16.765629 -0.396914 2.112877 0.028039 -0.000521 -1953420.000000 1 0 0
2.928233 0.969402 -12.224911 12.608043 0.319697 2.894437 0.008777 -0.006771 -2845310.000000 1 0 0
0.597633 6.365802 -12.927411 14.422155 1.477189 2.682281 0.012409 -0.006805 1024860.000000 1 0 0
3.108833 -1.115698 -16.794611 17.116325 -0.344564 2.947402 0.026110 -0.009086 -223605.000000 1 0 0
13.186033 4.238802 -11.351911 17.908232 0.311028 2.257373 0.011066 -0.005266 599208.000000 1 0 0
-3.871567 9.476402 -16.432211 19.359979 -1.182943 2.584455 0.003632 -0.000068 -344685.000000 1 0 0
-0.341867 -4.954398 -17.800211 18.480001 1.501903 2.869516 0.015598 -0.009907 541655.000000 1 0 0
-0.470567 -8.554798 -17.581911 19.558364 1.515845 2.688154 0.018155 -0.008814 952352.000000 1 0 0
5.728233 -10.102098 -12.211711 16.852030 -1.054969 2.381313 0.015089 0.000997 965986.000000 1 0 0
1.878733 -9.668798 -18.079011 20.588005 -1.378879 2.642742 0.034254 -0.010689 -281243.000000 1 0 0
11.103733 8.582002 -14.505311 20.182856 0.657993 2.372720 0.046444 -0.026081 -709802.000000 1 0 0
10.939133 -3.833198 -12.976311 17.399502 -0.337041 2.412511 0.016708 -0.004787 416469.000000 1 0 0
4.892233 7.453302 -12.303311 15.193983 0.989946 2.514520 -0.001089 -0.000754 -48829.400000 1 0 0
9.681233 -5.992198 -12.676411 17.038900 -0.554237 2.409787 0.019545 -0.005902 -1500610.000000 1 0 0
-3.397767 0.336602 -15.906511 16.268842 -0.098743 2.930147 0.017274 -0.007857 -1269950.000000 1 0 0
-0.619067 10.832302 -12.693211 16.698491 -1.513708 2.434327 -0.002221 -0.003948 -1409370.000000 1 0 0
6.694733 -5.407698 -12.436511 15.123804 -0.679451 2.536261 0.010871 -0.004015 85801.400000 1 0 0
17.897733 -5.648998 -8.339411 20.537424 -0.305731 1.988934 0.041024 -0.005948 153934.000000 1 0 0
13.014233 4.709502 -13.910311 19.622600 0.347213 2.358723 0.011016 -0.010216 332910.000000 1 0 0
14.228233 0.740002 -11.452311 18.279651 0.051963 2.247859 0.019021 0.001719 -562599.000000 1 0 0
15.105133 6.087602 -11.104811 19.711437 0.383103 2.169254 0.020162 -0.011669 195509.000000 1 0 0
8.280933 1.517502 -11.564111 14.304032 0.181242 2.512312 -0.003731 0.002513 697012.000000 1 0 0
9.910433 1.152202 -8.823511 13.319106 0.115742 2.294908 0.000629 0.003520 373888.000000 1 0 0
-0.144367 -5.784798 -13.051011 14.276331 1.545845 2.724255 0.009751 -0.005930 545964.000000 1 0 0
10.654033 -5.797798 -8.932311 15.063501 -0.498370 2.205547 0.016396 -0.003752 -343093.000000 1 0 0
10.266833 8.510502 -11.140811 17.376828 0.692135 2.266767 0.017267 -0.015508 471094.000000 1 0 0
8.483433 8.046402 -14.557011 18.671363 0.758965 2.464893 0.023681 -0.010858 1760280.000000 1 0 0
8.740033 10.616102 -10.585711 17.353590 0.882020 2.226858 0.019616 -0.016068 -1126110.000000 1 0 0
7.244733 1.638102 -17.969811 19.444373 0.222370 2.749640 0.032002 0.006143 -1617040.000000 1 0 0
12.093833 2.527402 -12.801211 17.790997 0.206018 2.373926 0.006914 -0.003613 -1423540.000000 1 0 0
2.637433 -0.726498 -19.335311 19.527880 -0.268791 3.001040 0.039399 -0.013396 -473930.000000 1 0 0
10.429633 -2.488498 -15.624511 18.949808 -0.234220 2.540151 0.032319 -0.002043 -365415.000000 1 0 0
8.310733 -0.784998 -13.097111 15.531221 -0.094177 2.574146 0.005599 -0.002590 157191.000000 1 0 0
0.588333 4.412302 -14.623711 15.286186 1.438239 2.846111 0.014410 -0.006210 -308114.000000 1 0 0
4.140133 -7.575498 -15.688111 17.906583 -1.070632 2.638527 0.025514 -0.008642 -1069980.000000 1 0 0
11.478833 -5.789098 -14.601911 19.454898 -0.467104 2.419693 0.023018 -0.004554 -775617.000000 1 0 0
-5.864967 4.333802 -16.923011 18.427371 -0.636379 2.734720 0.006905 0.000533 495980.000000 1 0 0
11.401633 7.729602 -8.898411 16.398954 0.595765 2.144350 0.016254 -0.011371 -1707640.000000 1 0 0
9.608333 6.029802 -13.396011 17.553680 0.560438 2.438963 0.011352 -0.003130 23816.900000 1 0 0
12.001433 0.570402 -10.209711 15.766989 0.047492 2.275144 0.007664 0.006058 -1060980.000000 1 0 0
5.594833 -7.247498 -13.777611 16.542399 -0.913384 2.555063 0.013786 -0.001025 -610105.000000 1 0 0
8.678833 -10.184998 -10.791111 17.190242 -0.865073 2.249451 0.022261 -0.001247 159124.000000 1 0 0
9.933133 5.130502 -16.068711 19.575307 0.476763 2.533723 0.021697 0.003981 460470.000000 1 0 0
9.837233 -0.510698 -10.914311 14.702182 -0.051868 2.407382 -0.000493 0.002821 -339406.000000 1 0 0
-1.764467 5.388502 -13.995911 15.100822 -1.254350 2.756680 0.009995 -0.007430 321778.000000 1 0 0
1.367533 -0.691898 -14.989911 15.068056 -0.468393 3.039704 0.012494 -0.008428 381970.000000 1 0 0
11.627133 -10.340498 -14.366911 21.178391 -0.726895 2.316346 0.042821 -0.011661 72677.200000 1 0 0
9.477833 -7.758498 -10.806311 16.334013 -0.685976 2.293725 0.015964 -0.003416 -106021.000000 1 0 0
14.017333 -1.011198 -9.729711 17.093140 -0.072014 2.176350 0.017627 0.006759 889186.000000 1 0 0
4.114833 11.088602 -12.294511 17.060010 1.215461 2.375554 0.013987 -0.011906 -337302.000000 1 0 0
-1.335267 2.864602 -17.001411 17.292682 -1.134613 2.957793 0.012544 -0.005605 308981.000000 1 0 0
5.893233 -0.548898 -17.694611 18.658262 -0.092873 2.818798 0.015944 0.000926 128159.000000 1 0 0
6.607933 -6.566098 -15.959311 18.479124 -0.782223 2.613243 0.034949 -0.005456 106776.000000 1 0 0
-1.909367 -4.898798 -19.882711 20.566140 1.199147 2.883072 0.018306 -0.018988 -643445.000000 1 0 0
-0.029267 -4.286498 -15.250011 15.841015 1.563969 2.867575 0.010175 -0.010369 213350.000000 1 0 0
0.448433 0.752102 -12.958811 12.988362 1.033146 3.074124 0.009518 -0.009360 235258.000000 1 0 0
15.532633 0.501002 -13.659411 20.690413 0.032244 2.291856 0.022679 -0.002877 801812.000000 1 0 0
-0.111567 7.003902 -16.277911 17.721103 -1.554868 2.735220 0.011518 -0.002815 -316092.000000 1 0 0
-4.820367 -0.491498 -18.451511 19.077101 0.101612 2.884791 0.012269 -0.002296 -6078.490000 1 0 0
10.465533 -8.372298 -13.135711 18.766184 -0.674733 2.346148 0.020389 -0.013886 582955.000000 1 0 0
4.304833 8.681402 -17.254511 19.789302 1.110459 2.629888 0.026679 -0.016328 -458265.000000 1 0 0
9.319633 0.455602 -16.716611 19.144404 0.048847 2.632496 0.022369 -0.005953 -126319.000000 1 0 0
3.426733 4.963502 -18.410011 19.372851 0.966552 2.824993 0.033976 -0.004202 -356637.000000 1 0 0
1.589733 -7.994098 -15.966111 17.926226 -1.374494 2.669584 0.018680 -0.010194 689902.000000 1 0 0
4.553633 7.801002 -14.909611 17.432375 1.042430 2.596893 0.010054 -0.000344 653718.000000 1 0 0
-5.785167 -0.387598 -15.129711 16.202671 0.066899 2.775628 0.010735 -0.007099 -403112.000000 1 0 0
2.983633 3.252202 -13.839311 14.526025 0.828440 2.832879 0.011068 -0.004735 1701300.000000 1 0 0
-2.422167 -10.189798 -18.016611 20.839798 1.337422 2.615009 0.014187 -0.008588 -917437.000000 1 0 0
6.280533 -9.090998 -15.355911 18.918122 -0.966236 2.517860 0.021660 -0.006351 -316147.000000 1 0 0
-1.790367 5.429802 -17.257711 18.180120 -1.252292 2.821680 0.007787 -0.005150 1370650.000000 1 0 0
10.095833 -12.296198 -11.468811 19.612648 -0.883349 2.195388 0.044256 -0.009304 864788.000000 1 0 0
10.911633 3.540802 -9.330611 14.787201 0.313778 2.253628 0.003823 0.001434 -9900.930000 1 0 0
4.740033 -0.409098 -10.926711 11.917562 -0.086094 2.730934 0.007740 -0.003926 26707.700000 1 0 0
6.394833 9.497302 -11.343111 16.117034 0.978194 2.351524 0.009872 -0.010865 491300.000000 1 0 0
10.889633 -9.539798 -9.431911 17.278681 -0.719421 2.148223 0.032859 -0.008251 -673157.000000 1 0 0
3.240133 -2.458598 -14.512511 15.071700 -0.649107 2.868339 0.014783 -0.008598 -73283.800000 1 0 0
9.157433 -4.559398 -14.674711 17.888372 -0.461959 2.532818 0.025535 -0.009511 93306.600000 1 0 0
-4.004667 -6.582298 -16.653511 18.349481 1.024224 2.708266 0.003446 -0.006649 -1011580.000000 1 0 0
5.922033 -7.664198 -11.201711 14.808401 -0.912932 2.428654 0.005731 -0.000783 227470.000000 1 0 0
5.440933 6.386402 -16.827611 18.803148 0.865168 2.679084 0.025062 -0.009043 -930867.000000 1 0 0
9.384133 1.178102 -19.243411 21.441986 0.124889 2.684782 0.052534 -0.012300 301595.000000 1 0 0
13.131433 5.743802 -9.341011 17.107901 0.412334 2.148385 0.001887 -0.005928 943746.000000 1 0 0
-1.471367 -0.601798 -17.265511 17.338540 0.388246 3.049779 0.015999 -0.012726 123729.000000 1 0 0
-0.411767 -0.390898 -19.595211 19.603435 0.759405 3.112626 0.022337 -0.015329 -305421.000000 1 0 0
2.833733 6.561102 -16.468511 17.952436 1.163097 2.732146 0.017664 -0.000389 183136.000000 1 0 0
7.717633 3.681402 -15.520711 17.720244 0.445088 2.638042 0.017762 -0.000925 790011.000000 1 0 0
3.161833 -9.838598 -14.798611 18.049767 -1.259851 2.531995 0.020829 -0.003090 -444575.000000 1 0 0
9.183133 -10.594298 -13.401111 19.394815 -0.856630 2.333617 0.037869 -0.006554 -404907.000000 1 0 0
3.800433 0.143602 -14.827811 15.307772 0.037768 2.890518 0.016686 -0.007028 -1294850.000000 1 0 0
-1.286467 -2.740898 -18.834311 19.076132 1.131960 2.982197 0.025451 -0.014579 541293.000000 1 0 0
9.473433 10.058702 -13.073011 19.021751 0.815354 2.328515 0.035114 -0.017104 104034.000000 1 0 0
4.766233 2.147602 -10.887611 12.077634 0.423342 2.693947 0.000714 -0.000233 381096.000000 1 0 0
-0.431167 7.159002 -18.878211 20.194654 -1.510642 2.778526 0.023555 -0.004125 -45410.500000 1 0 0
0.792733 -1.684798 -17.578811 17.677148 -1.131009 3.036064 0.024797 -0.017547 -2544890.000000 1 0 0
-4.544267 -2.272398 -14.103811 14.991052 0.463694 2.795824 0.011589 -0.006849 -3632820.000000 1 0 0
10.049633 6.050302 -10.403911 15.679370 0.541920 2.296339 0.005548 0.000179 35140.400000 1 0 0
7.958133 4.957702 -17.837111 20.151258 0.557140 2.657637 0.030292 -0.007940 117521.000000 1 0 0
11.467333 0.225002 -13.746211 17.902756 0.019619 2.446238 0.012122 0.008678 561239.000000 1 0 0
6.802033 11.950402 -11.825511 18.136220 1.053340 2.281066 0.027747 -0.019520 -269996.000000 1 0 0
-0.990367 0.534102 -14.993411 15.035573 -0.494589 3.066686 0.011868 -0.007145 -447367.000000 1 0 0
-4.352767 -3.005198 -19.080311 19.799901 0.604261 2.871166 0.011119 -0.001890 9518.090000 1 0 0
5.712433 -12.039698 -13.934211 19.280780 -1.127783 2.378497 0.019212 -0.003869 -140878.000000 1 0 0
2.158033 -4.741698 -14.046411 14.981404 -1.143694 2.786429 0.010222 -0.004597 275803.000000 1 0 0
11.765933 2.190702 -15.434711 19.531171 0.184082 2.482030 0.023332 -0.002026 126299.000000 1 0 0
9.762533 2.160402 -13.677611 16.942592 0.217785 2.510344 0.006124 0.000408 22612.700000 1 0 0
-2.333067 -4.040098 -16.501511 17.148337 1.047102 2.866060 0.005711 -0.009996 -1086120.000000 1 0 0
-2.539367 10.205802 -14.371311 17.808463 -1.326932 2.509839 0.003174 -0.000909 446257.000000 1 0 0
3.572633 5.735102 -13.762011 15.331277 1.013679 2.685188 0.005998 0.000472 -157955.000000 1 0 0
-5.077267 -2.494698 -16.677911 17.611215 0.456701 2.814577 0.013869 -0.004943 351120.000000 1 0 0
-4.290067 6.193802 -13.486911 15.448774 -0.965028 2.632134 0.004429 -0.004213 -1206160.000000 1 0 0
6.015033 -1.122598 -14.201711 15.463811 -0.184509 2.734772 0.011175 -0.001906 -2168520.000000 1 0 0
6.793333 -2.964898 -12.700411 14.705116 -0.411522 2.613308 0.006052 -0.005343 479678.000000 1 0 0
2.859133 -3.153898 -18.273811 18.763099 -0.834380 2.912720 0.035156 -0.018023 -376720.000000 1 0 0
7.523333 -12.102098 -12.091211 18.688465 -1.014606 2.274424 0.023528 -0.000678 698646.000000 1 0 0
-5.977467 -5.334398 -17.757211 19.480874 0.728610 2.717762 0.022009 -0.001523 344302.000000 1 0 0
0.600033 8.744602 -11.861811 14.748921 1.502286 2.505208 0.002703 -0.004019 94948.300000 1 0 0
0.317733 8.592802 -14.347911 16.727216 1.533837 2.601690 0.005760 -0.003030 -614276.000000 1 0 0
7.861833 -2.405698 -15.013811 17.117544 -0.296950 2.640589 0.018860 -0.011896 -238232.000000 1 0 0
14.242233 1.527002 -8.963511 16.897262 0.106808 2.129953 0.006443 0.003401 579285.000000 1 0 0
2.836433 10.640902 -14.566011 18.260417 1.310294 2.494239 0.012799 -0.009858 -561713.000000 1 0 0
6.127633 1.042602 -15.600711 16.793364 0.168534 2.762446 0.016979 0.001461 438407.000000 1 0 0
16.316333 -5.650298 -10.339311 20.125853 -0.333372 2.110326 0.040355 -0.006783 241125.000000 1 0 0
4.859133 -4.073298 -11.271111 12.932164 -0.697649 2.629164 0.002271 -0.003201 -580811.000000 1 0 0
8.656633 -3.666298 -17.089411 19.504538 -0.400620 2.638667 0.018112 -0.011657 410798.000000 1 0 0
13.322933 -9.678298 -8.772211 18.658019 -0.628251 2.060266 0.040968 -0.012102 -972780.000000 1 0 0
2.479233 -7.630498 -13.583711 15.776194 -1.256645 2.608080 0.008014 -0.002120 246603.000000 1 0 0
-6.828867 -2.143398 -18.555311 19.887865 0.304135 2.773448 0.006833 -0.000416 -639822.000000 1 0 0
-1.508167 -6.392098 -15.824911 17.133631 1.339091 2.748208 0.008461 -0.007939 334773.000000 1 0 0
1.544933 -7.134498 -18.393611 19.789210 -1.357545 2.763788 0.026792 -0.013612 -95560.600000 1 0 0
5.414433 10.998402 -14.558111 19.032066 1.113334 2.441722 0.025283 -0.019364 99155.200000 1 0 0
5.299133 -3.357898 -17.313111 18.414671 -0.564809 2.793956 0.025600 -0.012873 -104689.000000 1 0 0
3.876433 13.011502 -14.054811 19.541331 1.281246 2.373497 0.022401 -0.018081 124887.000000 1 0 0
9.344633 10.236502 -15.691611 20.936446 0.830914 2.418084 0.046777 -0.028849 233272.000000 1 0 0
2.548533 3.913202 -16.288811 16.945015 0.993532 2.862386 0.022287 -0.001344 559798.000000 1 0 0
16.718033 1.568902 -11.628111 20.424667 0.093571 2.176471 0.032793 0.002981 1453900.000000 1 0 0
10.025533 -3.876498 -10.506811 15.031022 -0.368956 2.344806 0.012383 -0.001178 500790.000000 1 0 0
14.520133 -2.211898 -12.019211 18.978624 -0.151171 2.256610 0.031767 -0.001006 384729.000000 1 0 0
-2.584667 -8.641198 -15.913311 18.291645 1.280156 2.625952 0.004580 -0.006680 201264.000000 1 0 0
14.007533 8.154702 -8.951011 18.515689 0.527203 2.075363 0.024930 -0.010823 777218.000000 1 0 0
-8.263367 0.225002 -16.724411 18.655825 -0.027222 2.682537 -0.001929 0.000697 80354.600000 1 0 0
-3.392267 3.897102 -15.894411 16.713084 -0.854544 2.827302 0.011896 -0.006744 730005.000000 1 0 0
15.110633 4.046102 -9.681211 18.396413 0.261628 2.124987 0.014720 -0.000156 267910.000000 1 0 0
5.454633 1.024602 -13.039011 14.171049 0.185677 2.739173 0.006734 -0.001818 484745.000000 1 0 0
7.908733 -7.713098 -12.867711 16.959302 -0.772876 2.432174 0.025981 -0.005975 -2875080.000000 1 0 0
3.341633 -6.054998 -11.822911 13.697107 -1.066511 2.612308 0.004423 -0.003428 -1085690.000000 1 0 0
-3.320767 3.654202 -18.522711 19.169547 -0.833166 2.881076 0.012113 -0.003119 -159031.000000 1 0 0
0.919033 5.254102 -17.830811 18.611503 1.397631 2.850927 0.022171 -0.004434 -120556.000000 1 0 0
6.366533 7.130802 -10.195211 13.975815 0.841961 2.388372 -0.000604 0.001078 427961.000000 1 0 0
9.753533 3.640302 -11.575711 15.568567 0.357217 2.409132 0.005063 0.000800 -8964.350000 1 0 0
4.642833 1.818002 -17.538511 18.233497 0.373220 2.864607 0.026966 0.001491 1108200.000000 1 0 0
2.617133 8.107102 -13.244011 15.747327 1.258538 2.569985 0.006983 -0.002539 -329574.000000 1 0 0
14.343433 -3.545998 -9.853111 17.759278 -0.242361 2.158937 0.030232 0.002758 -111945.000000 1 0 0
-1.316667 9.193902 -16.292611 18.753949 -1.428553 2.623482 0.010738 -0.001997 -1534230.000000 1 0 0
-5.309967 2.083302 -15.723111 16.725792 -0.373884 2.793579 0.011601 -0.005019 680165.000000 1 0 0
4.424533 4.443702 -11.866511 13.421515 0.787560 2.655449 0.006097 -0.002398 595722.000000 1 0 0
9.509933 2.897502 -17.360111 20.005194 0.295746 2.621514 0.031307 -0.007632 978279.000000 1 0 0
-4.154867 14.347902 -13.251911 19.968434 -1.288926 2.296475 -0.004236 -0.001011 -467456.000000 1 0 0
15.445533 -4.822398 -7.905711 18.008894 -0.302629 2.025270 0.032149 -0.004269 -1116000.000000 1 0 0
1.215133 9.167602 -16.807911 19.184039 1.439018 2.638593 0.010250 -0.004190 -805715.000000 1 0 0
0.464933 -3.230998 -12.913711 13.319889 -1.427880 2.894003 0.009157 -0.008196 -106147.000000 1 0 0
7.560033 3.615702 -12.939911 15.416507 0.446109 2.566891 0.003504 0.001588 299825.000000 1 0 0
-2.939167 7.591202 -14.909911 16.987363 -1.201390 2.641850 0.003525 -0.003639 422113.000000 1 0 0
12.228933 -5.222598 -11.061911 17.297058 -0.403622 2.264677 0.027715 -0.003478 -34683.900000 1 0 0
0.639333 -4.184798 -20.085211 20.526495 -1.419194 2.933863 0.029974 -0.014922 -412442.000000 1 0 0
3.377433 -4.576298 -16.179111 17.149729 -0.935002 2.803543 0.024072 -0.012334 704775.000000 1 0 0
-5.654567 4.139302 -14.354811 15.973996 -0.631899 2.687447 0.004826 -0.003187 1007160.000000 1 0 0
12.345433 -7.561298 -9.834511 17.501444 -0.549544 2.167508 0.026993 -0.002438 349447.000000 1 0 0
-2.097067 -1.839798 -15.063211 15.319363 0.720142 2.958467 0.013636 -0.006983 510661.000000 1 0 0
7.183533 5.841002 -14.277011 17.016271 0.682684 2.566278 0.012144 0.000612 -561970.000000 1 0 0
4.218633 -5.387698 -18.573411 19.793831 -0.906500 2.788603 0.042693 -0.011670 250226.000000 1 0 0
7.663433 7.496102 -12.272111 16.294921 0.774361 2.423596 0.006094 -0.006967 -706463.000000 1 0 0
12.221033 -2.608098 -10.950411 16.615274 -0.210257 2.290360 0.015347 -0.001552 -1726380.000000 1 0 0
7.394833 -0.689598 -10.620811 12.959966 -0.092985 2.531350 -0.001344 -0.000828 -2603240.000000 1 0 0
5.356233 3.933102 -14.376511 15.838011 0.633380 2.708619 0.009804 0.000198 -397349.000000 1 0 0
14.704733 2.847002 -12.933811 19.789342 0.191245 2.283094 0.016315 -0.010623 469401.000000 1 0 0
-6.600867 6.649602 -15.726311 18.305887 -0.789076 2.604275 0.006707 0.000331 642883.000000 1 0 0
-11.587567 3.555502 -16.467911 20.447626 -0.297718 2.507096 0.040009 -0.002676 830399.000000 1 0 0
-4.949967 6.601502 -17.774811 19.596579 -0.927408 2.706988 0.006973 0.002620 -544900.000000 1 0 0
-10.246467 1.423502 -15.617711 18.733108 -0.138043 2.556563 0.023248 -0.005828 -197388.000000 1 0 0
-7.555267 5.778302 -17.992311 20.351759 -0.652909 2.655289 0.005145 0.004362 613596.000000 1 0 0
-9.033467 3.833402 -15.947211 18.724637 -0.401325 2.589960 0.009892 0.015931 -621043.000000 1 0 0
9.061533 13.287502 -12.066511 20.106461 0.972281 2.214461 0.043816 -0.025791 -1397850.000000 1 0 0
13.676733 9.195302 -11.308411 19.987165 0.591914 2.172180 0.016796 -0.017139 180096.000000 1 0 0
8.542033 15.790502 -9.047811 20.103959 1.074920 2.037619 0.035861 -0.017210 -50589.100000 1 0 0
7.195333 13.582002 -13.819211 20.669160 1.083618 2.303109 0.042051 -0.023952 -64764.500000 1 0 0
4.886533 15.816702 -12.637311 20.826615 1.271151 2.222808 0.038814 -0.023815 180800.000000 1 0 0
11.143833 10.957802 -11.407111 19.348918 0.776981 2.201295 0.039229 -0.023524 -425070.000000 1 0 0
15.652133 9.958502 -9.646311 20.909623 0.566641 2.050294 0.040186 -0.010312 482412.000000 1 0 0
13.248433 10.644802 -9.085711 19.271298 0.676857 2.061746 0.051562 -0.023474 -371822.000000 1 0 0
10.362333 11.786902 -8.173411 17.695017 0.849627 2.050938 0.017611 -0.011829 298921.000000 1 0 0
5.556233 16.270602 -10.145911 19.963560 1.241724 2.103915 0.022061 -0.010954 24957.300000 1 0 0
6.841033 14.492102 -11.486011 19.716724 1.129756 2.192661 0.031726 -0.013814 -742262.000000 1 0 0
10.815633 13.784602 -9.795211 20.073348 0.905506 2.080560 0.041235 -0.016060 -481192.000000 1 0 0
8.304233 -18.553298 -1.041411 20.353616 -1.149950 1.621985 0.040791 -0.000920 -330196.000000 1 0 0
7.259433 -17.412098 -3.172611 19.129715 -1.175790 1.737413 0.022990 0.000244 89032.400000 1 0 0
4.459933 -18.357098 5.669789 19.723604 -1.332460 1.279220 0.032787 0.000489 145397.000000 1 0 0
9.789733 -17.138298 -2.513911 19.896731 -1.051808 1.697483 0.038460 -0.004122 -288866.000000 1 0 0
-9.692467 -12.246198 -9.979911 18.534075 0.901280 2.139408 0.031076 -0.017636 507860.000000 1 0 0
-5.103267 -6.887198 -12.064411 14.799556 0.933094 2.523849 0.004064 -0.002770 94382.600000 1 0 0
-10.765367 -9.445198 -5.641411 15.392544 0.720170 1.946044 0.019708 -0.010817 -786569.000000 1 0 0
-4.610167 -11.307298 -13.972911 18.556694 1.183656 2.423383 0.015819 -0.008845 269066.000000 1 0 0
-2.626667 -15.514098 7.288089 17.340786 1.403078 1.137036 -0.004635 -0.004398 -67738.300000 1 0 0
-4.866667 -11.851898 -11.549011 17.249104 1.181165 2.304389 0.011601 -0.004640 345203.000000 1 0 0
-14.600067 -12.883098 -4.137511 19.906159 0.723006 1.780174 0.030160 -0.011604 378789.000000 1 0 0
-3.195367 -12.307798 -3.256911 13.126300 1.316783 1.821536 0.006409 -0.005026 824167.000000 1 0 0
-2.466067 -17.461298 -1.530311 17.700855 1.430494 1.657358 0.002480 -0.004664 -890538.000000 1 0 0
-5.797767 -12.183198 3.579689 13.959176 1.126628 1.311459 0.004902 -0.001108 309925.000000 1 0 0
-8.741067 -10.638998 -11.878211 18.184786 0.883019 2.282593 0.013690 -0.005454 1595310.000000 1 0 0
-9.756367 -12.009098 -7.412311 17.156559 0.888531 2.017549 0.032107 -0.021350 464966.000000 1 0 0
-10.773867 -15.055498 6.087089 19.488378 0.949670 1.253136 0.019083 -0.014416 -480856.000000 1 0 0
-9.548067 -15.866198 0.659689 18.529356 1.029064 1.535186 0.017828 0.000481 -1589780.000000 1 0 0
-15.023767 -7.599498 -8.091711 18.679982 0.468302 2.018809 0.025156 -0.004672 77191.000000 1 0 0
-2.407767 -16.598698 5.019389 17.507381 1.426743 1.280015 0.010197 -0.003809 247504.000000 1 0 0
4.350333 -15.705298 5.924989 17.340337 -1.300574 1.222084 0.024090 -0.007589 -467292.000000 1 0 0
4.305833 -14.568798 -10.042511 18.211044 -1.283426 2.154900 0.002450 0.001197 -185656.000000 1 0 0
-7.675367 -14.120798 -0.309311 16.074946 1.072918 1.590039 0.011029 -0.002388 977910.000000 1 0 0
2.917333 -14.984098 9.500089 17.980148 -1.378507 1.014122 0.015665 -0.005185 -1203920.000000 1 0 0
2.216833 -17.313398 10.526289 20.383102 -1.443448 1.028129 0.034262 -0.005547 -145611.000000 1 0 0
-8.172867 -17.197298 -5.835311 19.914660 1.127151 1.868176 0.037071 -0.013945 242271.000000 1 0 0
-6.350667 -9.167898 -7.752811 13.582614 0.964982 2.178263 0.015164 -0.010259 273091.000000 1 0 0
-6.015167 -13.178898 -4.795711 15.259897 1.142613 1.890483 0.012064 -0.015534 46367.500000 1 0 0
2.159533 -19.401198 -4.780511 20.097845 -1.459943 1.810960 -0.000233 -0.006080 -405370.000000 1 0 0
-5.622667 -13.004098 8.106989 16.323119 1.162694 1.051054 0.013326 -0.004503 1043900.000000 1 0 0
2.218933 -17.470898 3.450089 17.946004 -1.444465 1.377344 0.015409 -0.009281 495119.000000 1 0 0
-17.649267 -9.999798 -2.541311 20.443847 0.515487 1.695426 0.017980 -0.009663 699735.000000 1 0 0
-3.591767 -15.513598 2.584789 16.132379 1.343281 1.409879 0.005606 -0.003948 141286.000000 1 0 0
-10.211267 -10.468498 -14.121811 20.329412 0.797836 2.338729 0.013456 -0.005959 -325202.000000 1 0 0
5.850233 -14.477998 -5.611011 16.592803 -1.186780 1.915757 -0.010613 -0.001563 662035.000000 1 0 0
-7.268267 -12.350298 -10.656811 17.858477 1.038869 2.210225 0.019116 -0.011448 -1268090.000000 1 0 0
-7.079967 -14.347098 3.866789 16.459563 1.112380 1.333653 -0.000178 -0.000391 818496.000000 1 0 0
3.277233 -14.990698 -3.099511 15.654656 -1.355565 1.770106 -0.001718 0.002216 -805588.000000 1 0 0
-7.617267 -11.389598 7.718189 15.726288 0.981324 1.057809 0.011704 -0.010315 -2076780.000000 1 0 0
-12.882567 -12.331398 -1.039611 17.863502 0.763542 1.629027 0.018091 -0.000380 365292.000000 1 0 0
-1.960067 -13.664298 4.027889 14.379805 1.428324 1.286890 0.005022 -0.003288 -2839730.000000 1 0 0
-3.185167 -13.980998 5.183089 15.247230 1.346798 1.223947 0.000499 -0.001341 80397.500000 1 0 0
-14.381367 -10.327198 -4.227611 18.202952 0.622768 1.805185 0.009485 -0.006216 562529.000000 1 0 0
-6.214967 -8.715898 -10.536011 15.019994 0.951358 2.348248 0.011020 -0.007586 -8580.480000 1 0 0
0.927533 -19.487298 2.333689 19.648441 -1.523235 1.451743 0.021278 -0.014168 182642.000000 1 0 0
6.282533 -13.986898 -8.146211 17.362727 -1.148631 2.059156 0.008767 -0.003191 -3542430.000000 1 0 0
-3.847167 -16.718598 -5.835911 18.120985 1.344621 1.898693 0.009811 -0.011151 -7850.880000 1 0 0
-3.658867 -13.537998 -13.194611 19.255193 1.306836 2.325743 0.019489 -0.002405 -2375630.000000 1 0 0
-8.198567 -14.831898 -4.459611 17.523979 1.065832 1.828113 0.026839 -0.013448 -6579.120000 1 0 0
-4.505067 -14.305198 10.005889 18.029202 1.265704 0.982455 0.013701 -0.010973 -742246.000000 1 0 0
-0.188767 -12.128498 -10.062311 15.760273 1.555234 2.263293 0.007748 0.000804 559682.000000 1 0 0
2.344833 -17.357198 6.754589 18.772188 -1.436516 1.202722 0.022597 -0.008864 561768.000000 1 0 0
-2.850767 -19.117498 -3.554711 19.653030 1.422769 1.752671 0.010541 -0.011211 628626.000000 1 0 0
0.698133 -15.333098 -2.996211 15.638688 -1.525297 1.763578 -0.000393 -0.003192 -800141.000000 1 0 0
5.959533 -17.892298 0.545789 18.866591 -1.249275 1.541863 0.013998 -0.003283 -467674.000000 1 0 0
-6.820767 -16.760698 3.794089 18.488888 1.184313 1.364119 0.001746 -0.003336 891969.000000 1 0 0
-5.282067 -13.573198 -9.568311 17.426547 1.199675 2.152042 0.013482 -0.010048 -325197.000000 1 0 0
5.706133 -15.125598 -2.070511 16.298181 -1.210054 1.698180 0.004151 0.004425 -387644.000000 1 0 0
-8.839967 -10.255998 -0.582211 13.552472 0.859416 1.613769 0.011232 -0.002702 332813.000000 1 0 0
-7.372667 -18.282898 -3.074311 19.951741 1.187487 1.725500 0.027329 -0.018062 908719.000000 1 0 0
7.938433 -15.935598 -1.066311 17.835331 -1.108624 1.630618 0.014043 0.000126 -233980.000000 1 0 0
-8.038867 -10.191598 -9.385711 16.018228 0.902938 2.196835 0.021744 -0.012231 -1104080.000000 1 0 0
-9.167067 -15.118498 -6.959611 19.001060 1.025722 1.945799 0.039665 -0.017710 -332047.000000 1 0 0
-11.412367 -10.500198 -11.796411 19.484651 0.743795 2.221091 0.023131 -0.005679 101488.000000 1 0 0
6.668533 -16.271698 2.448689 17.754818 -1.181850 1.432438 0.023374 -0.001571 526871.000000 1 0 0
-2.247367 -11.140498 -6.173511 12.933430 1.371738 2.068410 0.003405 -0.002514 -1477520.000000 1 0 0
-12.355167 -15.284898 -3.411311 19.947815 0.891000 1.742653 0.016570 -0.012524 61484.300000 1 0 0
-0.271967 -19.768098 -3.011011 19.997947 1.557039 1.721937 0.017474 -0.009556 -311769.000000 1 0 0
-5.867167 -15.718098 -4.701811 17.423814 1.213539 1.844033 0.016455 -0.011324 -3713830.000000 1 0 0
2.085033 -15.816498 -0.929911 15.980417 -1.439726 1.629020 0.008123 -0.005277 1308430.000000 1 0 0
-13.302867 -11.781898 5.237689 18.526003 0.724839 1.284167 0.026084 -0.011372 319413.000000 1 0 0
2.048633 -15.347698 -9.021911 17.920480 -1.438099 2.098373 -0.001536 0.006221 -1240180.000000 1 0 0
-11.963367 -16.634298 0.066589 20.489667 0.947301 1.567546 0.034344 -0.014777 337194.000000 1 0 0
-7.675267 -16.635098 -1.104311 18.353630 1.138511 1.631001 0.025082 -0.007361 899246.000000 1 0 0
-3.125267 -14.460598 -1.815611 14.905457 1.357947 1.692908 0.005279 -0.006489 352227.000000 1 0 0
-1.858267 -10.457098 -13.302511 17.022364 1.394928 2.467819 0.008259 -0.001345 -707459.000000 1 0 0
1.449133 -19.570598 4.789689 20.200233 -1.496885 1.331406 0.026316 -0.015721 36425.700000 1 0 0
-17.437867 -9.299098 2.526689 19.923268 0.489908 1.443633 0.024470 -0.007961 -451247.000000 1 0 0
-2.594467 -15.722898 -7.972711 17.818668 1.407258 2.034692 -0.000293 -0.002633 -947648.000000 1 0 0
-10.515967 -12.159598 0.181089 16.077133 0.857756 1.559532 0.013243 -0.000344 239276.000000 1 0 0
-6.860167 -11.489698 -6.512611 14.882512 1.032533 2.023726 0.016690 -0.012890 -41865.300000 1 0 0
-2.198867 -13.617098 -6.646511 15.311319 1.410700 2.019826 -0.001672 -0.002841 420377.000000 1 0 0
-14.300967 -14.554198 -1.019211 20.429908 0.794174 1.620705 0.023040 -0.000582 75988.200000 1 0 0
-9.621667 -11.409798 -4.424811 15.567239 0.870216 1.859009 0.025002 -0.014371 1296370.000000 1 0 0
9.330633 -15.042198 -5.090311 18.418461 -1.015586 1.850811 0.025536 -0.006426 169091.000000 1 0 0
-5.550867 -10.908498 -9.305911 15.375547 1.100088 2.220865 0.013185 -0.007888 -490109.000000 1 0 0
-10.457367 -16.079498 -4.921811 19.802298 0.994172 1.821977 0.037198 -0.012915 541899.000000 1 0 0
2.236433 -17.363098 -3.152111 17.788047 -1.442698 1.748941 0.006325 -0.003083 433242.000000 1 0 0
-0.296767 -14.538298 -8.251011 16.719132 1.550386 2.086914 0.001524 0.001930 45933.600000 1 0 0
-0.368267 -18.134198 -7.080611 19.471000 1.550491 1.942979 0.010150 -0.009294 122899.000000 1 0 0
-1.930967 -10.212198 -10.652611 14.882733 1.383918 2.368522 0.005787 -0.003512 587573.000000 1 0 0
-5.049367 -17.485998 1.884089 18.297706 1.289677 1.467645 0.003746 -0.004747 47429.700000 1 0 0
0.283233 -12.756198 -2.614111 13.024377 -1.548596 1.772878 0.000607 0.000494 -1872490.000000 1 0 0
2.592433 -14.892798 3.066789 15.424699 -1.398450 1.370639 0.013401 -0.005450 -487508.000000 1 0 0
-9.387167 -13.104098 6.766289 17.481961 0.949179 1.173373 0.009244 -0.009750 -591197.000000 1 0 0
-0.782867 -17.814498 -4.508211 18.392749 1.526879 1.818427 0.002724 -0.009165 -653356.000000 1 0 0
-9.803967 -17.580898 -2.226611 20.252495 1.062100 1.680962 0.036507 -0.014881 -392539.000000 1 0 0
1.280733 -16.303398 1.455989 16.418312 -1.492401 1.481999 0.008639 -0.008768 931000.000000 1 0 0
-0.406367 -18.019698 3.976989 18.457820 1.548249 1.353630 0.016437 -0.015395 -370631.000000 1 0 0
-17.517067 -9.290398 -0.048511 19.828300 0.487642 1.573243 0.009790 -0.005805 918291.000000 1 0 0
-14.727567 -7.461498 -10.661211 19.652904 0.468941 2.144177 0.031387 -0.003661 570732.000000 1 0 0
2.772933 -12.727998 -8.921411 15.788688 -1.356287 2.171291 -0.006013 0.004067 552056.000000 1 0 0
-11.647167 -14.646098 1.766089 18.795844 0.898964 1.476696 0.011542 -0.004240 371102.000000 1 0 0
-2.306267 -15.660298 10.532589 19.013133 1.424579 0.983678 0.020989 -0.006137 137082.000000 1 0 0
-7.032667 -16.068598 1.260389 17.585416 1.158247 1.499062 0.011848 -0.000155 -940795.000000 1 0 0
-12.651267 -15.191498 -6.017511 20.665106 0.876381 1.866269 0.031448 -0.010062 353997.000000 1 0 0
0.954233 -13.676698 -5.029611 14.603411 -1.501139 1.922410 -0.002592 0.002593 694700.000000 1 0 0
5.942733 -16.409598 -7.244811 18.896515 -1.223339 1.964265 0.015822 -0.014606 66843.700000 1 0 0
-6.692967 -12.725898 5.745689 15.484096 1.086618 1.190635 0.007415 -0.006752 -139141.000000 1 0 0
-2.570167 -13.584898 0.558789 13.837177 1.383813 1.530402 0.008209 -0.007089 569349.000000 1 0 0
-4.271367 -15.546798 0.167789 16.123761 1.302669 1.560390 0.006617 -0.004264 249498.000000 1 0 0
-17.616067 -7.432698 -1.948511 19.218937 0.399265 1.672356 0.002518 -0.003988 195262.000000 1 0 0
1.052833 -12.772698 -12.125011 17.642737 -1.488554 2.328496 0.005592 0.003705 -713052.000000 1 0 0
1.453933 -17.030798 -5.686811 18.013934 -1.485632 1.891980 0.007710 -0.006562 -379710.000000 1 0 0
-12.875567 -6.545498 -9.106011 17.074637 0.470318 2.133301 0.021274 -0.001136 -645451.000000 1 0 0
-11.548667 -13.577398 -8.601011 19.791282 0.865965 2.020375 0.037573 -0.024046 728000.000000 1 0 0
-4.296567 -9.917698 3.447989 11.345037 1.161982 1.261991 0.007602 -0.000255 -4780750.000000 1 0 0
-7.075467 -14.483998 9.680289 18.803096 1.116389 1.029994 0.015669 -0.006988 -645540.000000 1 0 0
-5.141967 -15.838898 -7.960611 18.457569 1.256889 2.016721 0.016230 -0.018694 -1393820.000000 1 0 0
-0.277367 -13.359498 2.128589 13.530854 1.550038 1.412826 0.007970 -0.006379 926351.000000 1 0 0
-10.985867 -13.494298 -4.859111 18.066442 0.887510 1.843107 0.035630 -0.013092 -345141.000000 1 0 0
-9.764167 -10.506598 6.614889 15.795073 0.822008 1.138679 0.014471 -0.005726 15014.000000 1 0 0
-15.532167 -8.240498 -4.822411 18.232106 0.487783 1.838483 0.019142 -0.003406 -21263.000000 1 0 0
-14.608767 -7.276398 5.402989 17.191694 0.462114 1.251099 0.024014 -0.005759 1136420.000000 1 0 0
-1.356867 -19.288598 0.073389 19.336403 1.500566 1.567001 0.021215 -0.009218 68145.900000 1 0 0
-15.418567 -12.142898 -1.307211 19.669545 0.667103 1.637304 0.008079 0.000477 610367.000000 1 0 0
-4.373467 -12.204398 -6.749411 14.616056 1.226701 2.050798 0.003212 -0.007862 -347377.000000 1 0 0
-7.468267 -18.499498 2.065889 20.056778 1.187103 1.467611 0.009579 0.001066 -455505.000000 1 0 0
-2.468667 -11.906998 -8.667611 14.933131 1.366364 2.190051 0.000077 -0.002701 336804.000000 1 0 0
-1.319267 -20.213398 -5.304111 20.939330 1.505622 1.826895 0.009521 -0.006262 -187613.000000 1 0 0
-5.348967 -8.757998 -13.812411 17.207460 1.022508 2.502603 0.008577 -0.006593 4878.460000 1 0 0
-8.351267 -19.206198 -0.786411 20.958057 1.160636 1.608328 0.019580 0.001831 139263.000000 1 0 0
-17.237867 -7.252298 5.438989 19.476203 0.398239 1.287770 0.043430 -0.011872 698020.000000 1 0 0
-3.612167 -14.641698 -4.266511 15.672594 1.328922 1.846504 0.006443 -0.007729 -2748720.000000 1 0 0
-3.102967 -14.761798 -10.918011 18.621011 1.363610 2.197314 0.011057 -0.004736 -799173.000000 1 0 0
-0.123067 -16.748498 6.132989 17.836505 1.563449 1.219788 0.023502 -0.012489 -456089.000000 1 0 0
-11.214467 -11.424798 3.750089 16.442429 0.794688 1.340697 0.012640 -0.006578 -676951.000000 1 0 0
-0.153667 -14.624998 -0.118011 14.626282 1.560290 1.578865 0.006286 -0.004881 1249960.000000 1 0 0
-7.230167 -9.677598 -2.582511 12.353161 0.929152 1.781407 0.012309 -0.004252 -81140.300000 1 0 0
-11.129267 -14.398298 -0.792011 18.215347 0.912764 1.614290 0.018951 -0.010605 339576.000000 1 0 0
0.200733 -14.657398 -10.750511 18.178369 -1.557102 2.203578 0.000894 0.005724 -125762.000000 1 0 0
-1.319867 -14.125498 -3.810911 14.689956 1.477628 1.833221 -0.000838 -0.002637 -2810730.000000 1 0 0
-11.431167 -8.102498 -7.588711 15.934572 0.616613 2.067172 0.021083 -0.007983 812216.000000 1 0 0
-0.121967 -17.252798 -0.367111 17.257135 1.563727 1.592071 0.011152 -0.007718 34829.300000 1 0 0
-12.933067 -9.445298 4.540389 16.646111 0.630788 1.294536 0.017251 -0.004605 -386443.000000 1 0 0
4.014533 -16.801998 1.723689 17.360724 -1.336262 1.471346 0.014559 -0.006219 2276030.000000 1 0 0
-3.739967 -18.041798 -8.126111 20.137714 1.366397 1.986165 0.021869 -0.007570 94827.700000 1 0 0
-13.489667 -11.225898 2.684189 17.753782 0.694060 1.419025 0.009286 -0.004558 -1010630.000000 1 0 0
-8.633067 -12.308298 3.841589 15.517147 0.959130 1.320624 0.006831 -0.003005 2268510.000000 1 0 0
-8.172367 -9.492898 -5.844111 13.822313 0.860012 2.007332 0.021108 -0.010670 504739.000000 1 0 0
3.944633 -17.567698 -5.009711 18.689071 -1.349921 1.842171 -0.007185 0.004377 250836.000000 1 0 0
-2.501067 -13.150198 11.290089 17.511401 1.382849 0.870129 0.008538 -0.006704 123513.000000 1 0 0
0.035833 -16.864098 -9.609711 19.409937 -1.568672 2.088737 0.002708 0.005219 98099.700000 1 0 0
-7.139567 -10.460298 -14.396811 19.174447 0.971885 2.420119 0.015829 -0.007572 -912797.000000 1 0 0
-4.550367 -18.978898 -1.644511 19.585935 1.335479 1.654859 0.018810 -0.010929 -547366.000000 1 0 0
-2.413267 -17.203698 1.099889 17.406920 1.431430 1.507567 0.010618 -0.008859 1193330.000000 1 0 0
3.995233 -14.659198 -7.526311 16.955805 -1.304718 2.030718 -0.005685 0.003384 895129.000000 1 0 0
-0.938167 -15.908498 -6.120711 17.071133 1.511892 1.937501 0.000905 -0.000644 -424707.000000 1 0 0
-9.473167 -15.176898 8.342089 19.740050 1.012784 1.134487 0.016335 -0.012796 -681831.000000 1 0 0
-7.241167 -12.138298 -1.788011 14.246746 1.032913 1.696631 0.010930 -0.007686 888666.000000 1 0 0
-7.299367 -15.295998 -9.215211 19.291668 1.125548 2.068806 0.025532 -0.011998 688546.000000 1 0 0
-5.062567 -13.242498 -0.580211 14.189080 1.205644 1.611699 0.009077 -0.005279 2355160.000000 1 0 0
-6.521867 -13.750598 -7.328111 16.891268 1.127922 2.019547 0.018234 -0.013261 1018260.000000 1 0 0
5.670033 -15.318498 0.271489 16.336443 -1.216291 1.554177 0.007456 0.002638 830253.000000 1 0 0
-14.441467 -12.822698 1.047089 19.340992 0.726094 1.516632 0.003104 -0.008458 907602.000000 1 0 0
0.741533 -15.245398 10.930989 18.773880 -1.522195 0.949310 0.020446 -0.010088 227165.000000 1 0 0
-9.376367 -10.641798 1.922089 14.312881 0.848528 1.436099 0.009455 -0.000218 749903.000000 1 0 0
-9.401167 -8.899098 -3.619811 13.441686 0.757970 1.843460 0.018666 -0.007916 80374.000000 1 0 0
-12.215967 -7.245198 -12.374711 18.837628 0.535325 2.287515 0.024760 -0.003988 1117.010000 1 0 0
-13.283967 -8.295298 -0.583511 15.672149 0.558210 1.608037 0.007060 -0.003219 -317129.000000 1 0 0
-11.312467 -9.707398 0.366589 14.911066 0.709186 1.546209 0.009276 -0.001268 689738.000000 1 0 0
-15.865667 -12.274198 3.036789 20.287864 0.658455 1.420547 0.021964 -0.002596 -342349.000000 1 0 0
-10.532667 -12.617598 -2.333411 16.600773 0.875217 1.711824 0.027764 -0.010781 728826.000000 1 0 0
-3.395067 -8.771498 -12.110211 15.333717 1.201498 2.481241 0.004852 -0.004314 201144.000000 1 0 0
-0.303567 -15.509598 3.804289 15.972239 1.551226 1.330303 0.015927 -0.007779 -674315.000000 1 0 0
-15.836867 -7.712398 1.177889 17.654316 0.453186 1.504027 0.004290 -0.003690 345953.000000 1 0 0
-6.199867 -13.275598 -13.278111 19.773419 1.133885 2.307045 0.009918 -0.001385 -709132.000000 1 0 0
-15.467567 -10.391998 1.190689 18.672359 0.591588 1.506986 0.003320 -0.003475 108039.000000 1 0 0
-9.946867 -8.442298 -12.563611 18.112341 0.703762 2.337339 0.020218 -0.003718 109305.000000 1 0 0
-13.473667 -11.725298 -6.250011 18.923133 0.716127 1.907401 0.037762 -0.009213 198981.000000 1 0 0
-12.271067 -11.563798 -3.901511 17.306713 0.755733 1.798184 0.019742 -0.005236 -1811770.000000 1 0 0
-11.638367 -10.908698 -8.885511 18.259343 0.753047 2.079022 0.024561 -0.023171 31972.500000 1 0 0
-13.166767 -8.558598 -5.828311 16.750599 0.576386 1.926176 0.016887 -0.007358 -2375620.000000 1 0 0
-13.518767 -8.212998 -3.169411 16.132439 0.545935 1.768545 0.013955 -0.005411 -110189.000000 1 0 0
-4.310267 -17.001698 -3.202911 17.829604 1.322508 1.751417 0.011253 -0.013095 -248947.000000 1 0 0
-15.462767 -8.944398 -1.733811 17.947299 0.524421 1.667553 0.003338 -0.003629 -729305.000000 1 0 0
-9.246167 -15.706098 3.534089 18.565099 1.038728 1.379265 0.004275 -0.007958 -1540310.000000 1 0 0
4.687433 -17.174298 7.996189 19.515829 -1.304353 1.148640 0.033754 -0.025439 237767.000000 1 0 0
-8.218167 -15.479598 5.924989 18.500317 1.082733 1.244788 0.003114 -0.001842 977196.000000 1 0 0
0.852633 -16.185498 8.493989 18.298776 -1.518166 1.088084 0.022403 -0.006592 479998.000000 1 0 0
-10.864367 -7.836698 -10.194611 16.833847 0.624893 2.221318 0.019116 -0.008773 910020.000000 1 0 0
-4.867367 -15.903298 6.011789 17.684676 1.273789 1.223940 0.003371 -0.004904 -151095.000000 1 0 0
-1.486367 -13.168898 -12.061211 17.919319 1.458402 2.309168 0.008667 -0.000847 -1921670.000000 1 0 0
-6.389067 -14.387898 -2.565611 15.950365 1.152894 1.732348 0.017631 -0.010093 322849.000000 1 0 0
-17.582067 -6.948998 -6.977511 20.152006 0.376389 1.924361 0.024460 -0.006599 68084.100000 1 0 0
-17.167867 -3.849398 -10.153211 20.313573 0.220573 2.094192 0.033159 -0.011615 335507.000000 1 0 0
-15.190167 -5.245598 -9.261611 18.548178 0.332507 2.093618 0.017081 -0.004446 16965.000000 1 0 0
-16.055667 -5.336198 -5.602411 17.822639 0.320871 1.890560 0.016605 -0.001230 -796890.000000 1 0 0
-15.054067 -4.690198 -12.397811 20.058131 0.302025 2.237112 0.032635 -0.003663 162715.000000 1 0 0
-18.608567 -5.062698 -5.460611 20.043152 0.265633 1.846727 0.027885 -0.007123 -27486.600000 1 0 0
-17.314867 -4.443498 -7.723511 19.473108 0.251208 1.978633 0.020675 -0.004619 1215970.000000 1 0 0
12.160933 -7.833998 8.733789 16.897896 -0.572283 1.027621 0.016750 -0.014463 262015.000000 1 0 0
16.096633 -3.473798 1.852589 16.571088 -0.212549 1.458766 0.030342 -0.007962 553418.000000 1 0 0
11.855433 -2.037198 12.511989 17.356593 -0.170175 0.765728 0.008553 -0.008244 876642.000000 1 0 0
9.777533 -9.907298 5.253389 14.877930 -0.791990 1.209914 0.007110 -0.007430 -293034.000000 1 0 0
17.035133 -2.153398 7.291389 18.654684 -0.125742 1.169229 0.048804 -0.013922 730622.000000 1 0 0
5.226533 -12.942498 9.175989 16.704002 -1.186995 0.989236 0.014003 0.002773 46281.600000 1 0 0
15.269233 -9.160798 -2.121011 17.932328 -0.540384 1.689352 0.036064 -0.005844 529794.000000 1 0 0
11.177133 -8.537398 6.472389 15.482483 -0.652292 1.139503 0.018168 -0.011276 -1831680.000000 1 0 0
20.137633 -2.747698 3.473689 20.618938 -0.135609 1.401518 0.062620 -0.010284 519467.000000 1 0 0
13.674433 -8.609498 6.902289 17.571430 -0.561904 1.167108 0.024159 -0.012193 -1357820.000000 1 0 0
8.302033 -11.087298 8.787089 16.403197 -0.928072 1.005467 0.009401 -0.003038 2081780.000000 1 0 0
16.916133 0.020602 -0.707211 16.930922 0.001218 1.612579 0.019789 0.001976 -476367.000000 1 0 0
12.398433 -12.351898 2.341989 17.657164 -0.783518 1.437768 0.022033 -0.008879 -2537880.000000 1 0 0
10.333333 -11.701498 3.621589 16.025565 -0.847410 1.342839 0.012449 -0.005313 241029.000000 1 0 0
16.320333 3.015802 2.428689 16.773397 0.182727 1.425491 0.011180 -0.001827 -317860.000000 1 0 0
18.424833 -3.356498 0.576589 18.736942 -0.180196 1.540019 0.036684 -0.005578 386713.000000 1 0 0
13.549433 -11.756398 -0.094411 17.939034 -0.714662 1.576059 0.042483 -0.004700 -87172.800000 1 0 0
16.940333 -7.568198 -0.820111 18.572159 -0.420153 1.614969 0.031636 -0.011338 -388215.000000 1 0 0
10.196733 -5.759898 9.773289 15.253425 -0.514193 0.875351 0.012630 -0.010347 716461.000000 1 0 0
11.219933 -13.097698 6.061689 18.280609 -0.862464 1.232807 0.020662 -0.013701 246847.000000 1 0 0
13.195133 -1.707898 10.334089 16.847013 -0.128718 0.910428 0.027986 -0.006524 1111910.000000 1 0 0
15.582833 -2.111098 -1.399011 15.787294 -0.134656 1.659529 0.016451 -0.001508 166506.000000 1 0 0
10.552433 -12.475498 8.823189 18.569883 -0.868715 1.075680 0.024454 -0.013686 58272.800000 1 0 0
14.550033 1.180702 3.269489 14.959514 0.080970 1.350462 0.018654 -0.004008 1121180.000000 1 0 0
14.935533 -5.940198 5.406789 16.958463 -0.378542 1.246306 0.034776 -0.014731 -963436.000000 1 0 0
14.260533 -3.417998 -3.110811 14.990752 -0.235245 1.779831 0.013455 0.000482 1197500.000000 1 0 0
14.088133 0.625702 9.637189 17.080468 0.044384 0.971305 0.032749 -0.009765 722192.000000 1 0 0
15.554933 -3.533998 4.519589 16.579257 -0.223402 1.294697 0.034785 -0.009804 -657948.000000 1 0 0
18.491733 4.993202 -4.152411 19.598948 0.263734 1.784283 -0.000042 0.000588 555158.000000 1 0 0
18.238833 -5.895598 -5.291211 19.884919 -0.312643 1.840133 0.058237 -0.008083 704398.000000 1 0 0
17.290433 -0.015698 6.019389 18.308259 -0.000908 1.235785 0.042063 -0.005261 738909.000000 1 0 0
16.967633 -6.602198 4.046789 18.651168 -0.371079 1.352084 0.047480 -0.022247 -34685.300000 1 0 0
9.567033 -6.674398 14.237489 18.406026 -0.609144 0.686415 0.006512 -0.004983 -689269.000000 1 0 0
8.573533 -12.198998 5.130089 15.768286 -0.958189 1.239423 0.009263 -0.007558 -1210930.000000 1 0 0
16.934433 -10.067098 -0.283711 19.702842 -0.536347 1.585196 0.049400 -0.007714 -265070.000000 1 0 0
14.988933 -8.770498 0.375789 17.370405 -0.529415 1.549161 0.041277 -0.011320 -610493.000000 1 0 0
9.953333 -12.829198 1.506689 16.307277 -0.910965 1.478271 0.017076 -0.009675 -356151.000000 1 0 0
17.058533 -8.306598 8.856489 20.938732 -0.453151 1.134074 0.060618 -0.016256 357446.000000 1 0 0
19.177633 -0.017998 -2.061611 19.288135 -0.000939 1.677886 0.034119 0.005330 -408110.000000 1 0 0
13.393533 -1.228598 7.761189 15.528433 -0.091475 1.047423 0.022410 -0.009908 -57800.900000 1 0 0
12.850533 -9.933298 -2.991711 16.515355 -0.658051 1.752949 0.023614 -0.005679 -1280990.000000 1 0 0
8.914333 -15.167698 1.630089 17.668661 -1.039456 1.478406 0.023016 0.002055 -1778750.000000 1 0 0
11.308233 -8.325198 11.049089 17.868056 -0.634615 0.904128 0.010872 -0.015037 -23063.500000 1 0 0
13.979633 -4.022698 -0.634511 14.560729 -0.280185 1.614387 0.016381 -0.005891 -445234.000000 1 0 0
7.205933 -13.319298 10.807789 18.604770 -1.074878 0.950944 0.021539 0.007606 -652356.000000 1 0 0
15.524833 -6.741098 1.872689 17.028500 -0.409649 1.460600 0.036866 -0.013243 113466.000000 1 0 0
15.798533 -6.094698 -2.544711 17.123508 -0.368185 1.719958 0.038781 -0.005710 238635.000000 1 0 0
11.324433 -8.518198 3.844189 14.682652 -0.644905 1.305890 0.017295 -0.012534 798805.000000 1 0 0
10.652933 -14.496598 -0.302911 17.992445 -0.937057 1.587633 0.035687 -0.007631 569654.000000 1 0 0
13.449233 -12.840998 4.701389 19.180098 -0.762267 1.323155 0.026305 -0.010439 -137145.000000 1 0 0
12.826533 -11.118398 6.577689 18.204525 -0.714183 1.201111 0.020515 -0.011605 -288059.000000 1 0 0
10.913433 -10.416898 1.505489 15.161836 -0.762124 1.471338 0.009672 -0.009804 250677.000000 1 0 0
13.772233 -7.530098 11.889189 19.690850 -0.500352 0.922546 0.016524 -0.021125 -295181.000000 1 0 0
15.444833 -1.814498 -4.977011 16.328071 -0.116946 1.880539 0.022490 0.001610 -265534.000000 1 0 0
12.853933 -11.609698 -7.055611 18.702682 -0.734581 1.957623 0.040316 -0.008107 223813.000000 1 0 0
17.863933 -5.457498 1.884689 18.773823 -0.296498 1.470238 0.055927 -0.007760 982469.000000 1 0 0
10.637033 -9.813398 9.063789 17.076344 -0.745145 1.011275 0.008784 -0.010854 -1494680.000000 1 0 0
16.466033 1.710602 9.823689 19.249968 0.103515 1.035237 0.046391 -0.010774 508291.000000 1 0 0
18.154533 3.564302 0.683689 18.513745 0.193865 1.533859 0.005300 0.004472 482566.000000 1 0 0
13.349633 -4.115798 5.895289 15.162682 -0.299061 1.171465 0.027311 -0.010094 -442316.000000 1 0 0
12.151433 -6.208198 6.643789 15.176922 -0.472332 1.117695 0.022889 -0.011534 -431228.000000 1 0 0
16.463333 -10.242998 3.535789 19.709443 -0.556562 1.390424 0.023653 -0.011947 -839876.000000 1 0 0
16.341733 -8.250798 -5.384211 19.081867 -0.467553 1.856845 0.053102 -0.009964 1027970.000000 1 0 0
14.032433 -0.425498 5.317389 15.012157 -0.030313 1.208732 0.019933 -0.006785 924413.000000 1 0 0
18.573233 -4.288798 4.992389 19.704891 -0.226935 1.314647 0.076554 -0.013752 262037.000000 1 0 0
13.450433 -13.551598 7.246189 20.422223 -0.789145 1.208076 0.031414 -0.010705 125123.000000 1 0 0
14.995033 -13.830998 -0.966411 20.422573 -0.745039 1.618135 0.045217 -0.001887 558825.000000 1 0 0
17.844433 -5.862198 8.012789 20.420429 -0.317410 1.167567 0.062688 -0.015007 -10331.300000 1 0 0
14.381033 3.262502 9.265889 17.415933 0.223085 1.009794 0.023807 -0.010664 463948.000000 1 0 0
18.705033 3.782302 3.137289 19.339768 0.199517 1.407857 0.027542 0.000345 -430466.000000 1 0 0
14.865033 -10.715498 8.167389 20.062336 -0.624584 1.151519 0.026095 -0.016941 68333.300000 1 0 0
14.881333 -4.826298 10.477189 18.828667 -0.313616 0.980691 0.042971 -0.015379 286440.000000 1 0 0
17.897333 -8.017898 2.133189 19.726929 -0.421185 1.462449 0.060974 -0.016658 -9609.670000 1 0 0
18.470533 -5.831098 -2.078811 19.480343 -0.305795 1.677713 0.040483 -0.007171 1499850.000000 1 0 0
14.288133 -13.171798 -5.616111 20.228389 -0.744767 1.852128 0.049506 -0.012908 722358.000000 1 0 0
15.463633 -1.395298 9.197989 18.046434 -0.089987 1.035978 0.052243 -0.014371 -2024200.000000 1 0 0
13.066733 -9.923198 10.122889 19.279062 -0.649506 1.017997 0.007832 -0.023144 -545465.000000 1 0 0
16.547933 2.090102 4.791489 17.353990 0.125641 1.291059 0.024713 -0.004076 -2319530.000000 1 0 0
15.109633 2.409102 -0.051511 15.300570 0.158111 1.574163 0.004489 0.003200 -1665460.000000 1 0 0
14.972733 -9.983398 -6.866411 19.261323 -0.588075 1.935301 0.042273 -0.014574 847193.000000 1 0 0
16.148033 -0.069398 -3.145711 16.451726 -0.004298 1.763190 0.015013 0.004431 -174411.000000 1 0 0
12.093733 2.567602 13.532789 18.329957 0.209202 0.740268 0.036744 -0.005481 17861.600000 1 0 0
17.539533 -2.885698 9.754389 20.275862 -0.163065 1.068906 0.045479 -0.012274 -81197.000000 1 0 0
7.757633 -18.068798 4.531289 20.179071 -1.165257 1.344311 0.039078 -0.013161 -520494.000000 1 0 0
6.829233 -11.171598 6.683489 14.700750 -1.022107 1.098833 0.006415 -0.006754 22737.000000 1 0 0
17.955433 2.220002 -1.538611 18.157458 0.123015 1.655635 0.014883 0.005428 37705.200000 1 0 0
17.614033 -2.303198 3.688489 18.142873 -0.130022 1.366067 0.034409 -0.006899 -2540480.000000 1 0 0
12.548633 -13.533598 -1.868911 18.550453 -0.823144 1.671715 0.035429 -0.004370 564801.000000 1 0 0
14.967633 -8.341698 4.431989 17.699053 -0.508443 1.317694 0.032499 -0.013247 -265534.000000 1 0 0
11.050333 -3.134198 14.734689 18.682722 -0.276371 0.662137 0.006076 -0.013954 299080.000000 1 0 0
11.915533 -13.902298 -6.288811 19.359829 -0.862200 1.901637 0.029549 -0.014079 -891986.000000 1 0 0
10.642233 -11.995398 -1.242811 16.083883 -0.845102 1.648144 0.022758 -0.009511 -496412.000000 1 0 0
13.259433 -7.967198 2.116689 15.613109 -0.541059 1.434806 0.024913 -0.007724 -1010260.000000 1 0 0
8.704233 -7.886898 10.012589 15.434337 -0.736175 0.864893 0.012089 -0.008082 -1258400.000000 1 0 0
15.658133 -3.826298 8.191489 18.080879 -0.239668 1.100616 0.049822 -0.014582 -1091980.000000 1 0 0
10.183233 -17.316298 5.322089 20.781652 -1.039193 1.311815 0.037999 -0.011618 1003070.000000 1 0 0
15.274833 -6.430198 8.354089 18.559600 -0.398450 1.103894 0.039880 -0.008683 -222446.000000 1 0 0
16.635733 -4.983198 -0.310011 17.368822 -0.291042 1.588646 0.028944 -0.007177 -507630.000000 1 0 0
13.914133 -10.598298 3.503389 17.838182 -0.650943 1.373113 0.029509 -0.013286 -253058.000000 1 0 0
14.989433 -10.149898 -4.433611 18.637608 -0.595216 1.810984 0.045826 -0.014273 357892.000000 1 0 0
13.741933 -6.549998 -0.113111 15.223534 -0.444788 1.578226 0.026438 -0.007771 -50507.900000 1 0 0
17.875533 -0.912898 -4.842011 18.542199 -0.051025 1.834994 0.037755 -0.000379 701319.000000 1 0 0
14.454733 0.245002 -1.589611 14.543940 0.016948 1.680312 0.009888 0.003301 -1636190.000000 1 0 0
4.918333 -13.031798 11.808589 18.260902 -1.209914 0.867599 0.013751 0.008723 -123267.000000 1 0 0
11.861533 -7.638498 13.495689 19.523735 -0.572126 0.807585 0.009558 -0.013214 -724362.000000 1 0 0
11.953433 -5.798198 11.744489 17.732362 -0.451629 0.846886 0.012844 -0.007673 392472.000000 1 0 0
13.302633 -4.687398 8.430789 16.431979 -0.338781 1.032036 0.027470 -0.012742 -987314.000000 1 0 0
15.356833 -1.306898 3.174089 15.735792 -0.084898 1.367691 0.031109 -0.005333 952873.000000 1 0 0
15.151233 -10.469898 5.756489 19.295486 -0.604678 1.267850 0.030296 -0.015709 -423069.000000 1 0 0
13.681233 -8.045398 -5.556011 16.815880 -0.531595 1.907526 0.037219 -0.011890 -852562.000000 1 0 0
9.304233 -1.923298 13.159789 16.231077 -0.203841 0.625318 -0.004832 -0.017226 -198564.000000 1 0 0
9.779933 -9.170598 13.455689 18.994802 -0.753255 0.783585 0.017166 -0.008982 -342625.000000 1 0 0
20.315933 6.308102 -2.844211 21.462032 0.301062 1.703710 0.034482 0.000891 252966.000000 1 0 0
11.295033 -3.620198 10.570589 15.887761 -0.310168 0.842862 0.018246 -0.007891 951200.000000 1 0 0
10.199133 -14.030298 -2.867111 17.581010 -0.942220 1.734608 0.023573 -0.003590 404613.000000 1 0 0
14.935833 -12.807398 2.654389 19.853320 -0.708829 1.436695 0.033542 -0.002096 486898.000000 1 0 0
11.135533 -0.504498 14.536289 18.318251 -0.045274 0.654190 0.020168 -0.003401 147259.000000 1 0 0
19.197233 -1.887098 5.723689 20.121021 -0.097986 1.282350 0.069562 -0.013990 1034850.000000 1 0 0
19.056933 -0.537198 7.894189 20.634279 -0.028182 1.178213 0.062831 -0.009178 527961.000000 1 0 0
19.021533 0.820402 0.441889 19.044344 0.043103 1.547591 0.035990 -0.001785 -223916.000000 1 0 0
18.643533 0.697402 3.874889 19.054722 0.037390 1.366012 0.039672 -0.007246 397967.000000 1 0 0
16.627233 -4.046698 -4.215111 17.624069 -0.238736 1.812305 0.033151 -0.003994 -1545680.000000 1 0 0
10.982633 -8.334098 15.691589 20.887828 -0.649137 0.720871 0.024004 -0.013201 697197.000000 1 0 0
16.607533 -7.572498 6.408789 19.344908 -0.427806 1.233125 0.048386 -0.017093 617605.000000 1 0 0
18.755733 2.077002 6.035289 19.812021 0.110290 1.261249 0.037892 -0.003085 6541.270000 1 0 0
15.225433 1.760102 7.466389 17.048716 0.115092 1.117486 0.029395 -0.008028 -169369.000000 1 0 0
8.630333 -15.612798 4.040189 18.291125 -1.065827 1.348077 0.018354 -0.012171 320878.000000 1 0 0
11.361133 -15.003698 2.261689 18.955251 -0.922689 1.451194 0.032341 -0.002721 337238.000000 1 0 0
7.945333 -16.252798 6.349589 19.172873 -1.116101 1.233247 0.027131 -0.007248 168597.000000 1 0 0
14.581433 -11.752298 -2.422811 18.883980 -0.678375 1.699451 0.038855 -0.009297 956740.000000 1 0 0
13.762333 -4.930298 3.347889 14.997267 -0.344002 1.345666 0.019844 -0.007928 -2076870.000000 1 0 0
-1.070367 10.155102 -5.516311 11.606096 -1.465782 2.066095 -0.003448 0.000565 -2949700.000000 1 0 0
8.275333 -1.819498 -8.080211 11.708182 -0.216426 2.332470 0.000380 -0.000472 -1668780.000000 1 0 0
2.973333 -10.202198 7.641589 13.088905 -1.287211 0.947368 0.000453 -0.000682 878482.000000 1 0 0
-6.240067 1.260102 8.417889 10.554011 -0.199258 0.647489 -0.003360 -0.001006 130171.000000 1 0 0
7.118933 -6.266198 -7.098011 11.845936 -0.721777 2.213290 0.000913 -0.002323 -137024.000000 1 0 0
-11.312967 -4.503398 -4.144211 12.862282 0.378845 1.898847 0.005396 -0.002885 171744.000000 1 0 0
2.092333 -3.159198 2.863789 4.749703 -0.985824 0.923614 0.001628 0.001138 2870090.000000 1 0 0
-3.529467 -4.276198 8.838289 10.433521 0.880773 0.560282 0.001267 -0.001205 -1712430.000000 1 0 0
-4.835267 -1.063498 -2.409011 5.505831 0.216499 2.023655 -0.002408 0.000164 -274944.000000 1 0 0
4.987733 -5.131098 -3.670911 8.042465 -0.799565 2.044787 0.004077 -0.001896 174922.000000 1 0 0
2.707133 14.099402 -8.773311 16.825358 1.381102 2.119327 0.007357 -0.008723 -753105.000000 1 0 0
5.392833 -5.554398 13.689489 15.726922 -0.800156 0.514682 -0.002177 -0.001239 -170433.000000 1 0 0
-4.805867 -0.925798 10.039789 11.169191 0.190308 0.453584 0.004845 -0.002138 -3784660.000000 1 0 0
-1.080167 11.838802 -2.757811 12.203668 -1.479809 1.798747 -0.004303 -0.002052 -1367560.000000 1 0 0
3.222133 9.367902 -10.552311 14.473804 1.239517 2.387748 0.007056 -0.002324 -346548.000000 1 0 0
-10.567467 2.620702 1.303189 10.965297 -0.243093 1.451668 -0.003968 -0.002289 409525.000000 1 0 0
5.750433 -8.991898 -0.696011 10.696081 -1.001829 1.635914 0.000916 -0.005384 396576.000000 1 0 0
-7.025167 5.416502 9.438989 12.953223 -0.656815 0.754377 -0.000702 -0.004432 128081.000000 1 0 0
-5.562567 -1.887498 5.205089 7.848424 0.327130 0.845708 -0.002944 -0.000336 547513.000000 1 0 0
6.653433 -3.836298 -7.389011 10.657525 -0.523028 2.336874 0.001723 -0.001975 416351.000000 1 0 0
6.205433 4.827202 11.091989 13.595642 0.661119 0.616601 0.002112 -0.000960 535678.000000 1 0 0
3.825833 -9.903698 3.132989 11.069591 -1.202153 1.283848 -0.000025 -0.003600 1067290.000000 1 0 0
-6.539967 6.625602 -5.916611 11.030687 -0.791902 2.136935 -0.004189 -0.003517 116655.000000 1 0 0
-11.090167 8.530802 5.156589 14.911633 -0.655690 1.217695 -0.004230 -0.006428 771375.000000 1 0 0
-9.152967 -5.457998 5.124289 11.824758 0.537701 1.122587 0.000914 -0.002113 -15333.200000 1 0 0
3.267333 9.771002 -7.958611 13.018734 1.248094 2.228524 0.005558 -0.002822 764610.000000 1 0 0
-8.083467 -8.649398 6.026689 13.284409 0.819207 1.099921 0.003350 0.000573 -2198270.000000 1 0 0
-7.752967 -5.735898 -7.476611 12.202817 0.636962 2.230263 0.008465 -0.004093 366748.000000 1 0 0
9.249733 -1.478998 6.906089 11.637829 -0.158554 0.935498 0.010451 -0.008139 3645590.000000 1 0 0
-3.993467 -0.442398 -4.860311 6.306038 0.110331 2.450797 0.001395 -0.003822 -663682.000000 1 0 0
9.111633 1.143702 -4.502811 10.227669 0.124868 2.026682 0.004447 0.001107 -2892640.000000 1 0 0
-1.913467 -10.677998 10.695989 15.234342 1.393481 0.792458 0.003393 -0.004535 303623.000000 1 0 0
-12.744667 0.248402 -2.635411 13.016668 -0.019488 1.774670 0.001152 -0.004942 -533187.000000 1 0 0
-9.731667 -5.141098 -5.990311 12.530765 0.486019 2.069228 0.007710 -0.002617 -779032.000000 1 0 0
-5.448967 8.277102 -0.169511 9.911125 -0.988596 1.587900 0.000294 -0.001216 -188157.000000 1 0 0
6.225633 9.636802 0.418689 11.480494 0.997219 1.534319 0.011284 -0.005057 392526.000000 1 0 0
-0.624567 -12.037998 -0.035511 12.054242 1.518960 1.573742 0.008236 -0.002915 42653.000000 1 0 0
6.136633 4.685102 2.416589 8.090015 0.652063 1.267453 0.003097 -0.000657 290696.000000 1 0 0
3.464833 -7.470798 -8.302711 11.694140 -1.136539 2.360279 -0.000918 -0.001787 787690.000000 1 0 0
-6.564167 -9.876498 4.491489 12.680969 0.984209 1.208747 0.006845 -0.000201 -2568890.000000 1 0 0
-0.036067 6.501302 -9.252611 11.308361 -1.565249 2.529086 0.004101 -0.004556 -1839170.000000 1 0 0
-17.327867 -2.758898 4.216989 18.045761 0.157892 1.334932 0.041023 -0.012597 410918.000000 1 0 0
-8.289667 0.830002 -9.280111 12.471084 -0.099792 2.410028 0.003266 -0.002277 1048010.000000 1 0 0
-10.026667 -5.928898 -11.861611 16.624792 0.534007 2.365262 0.012580 0.000532 -1085980.000000 1 0 0
2.200833 9.426902 6.571089 11.699972 1.341441 0.974438 -0.002509 0.001469 314698.000000 1 0 0
-11.305167 1.687102 -1.128811 11.485962 -0.148140 1.669233 -0.000854 -0.004366 -1086520.000000 1 0 0
-5.937867 -5.437998 -3.066411 8.615856 0.741485 1.934677 0.009858 -0.001566 421053.000000 1 0 0
-6.851367 -8.216698 1.229189 10.768764 0.875762 1.456403 0.008104 -0.000806 -739101.000000 1 0 0
0.044133 10.951402 -7.768111 13.426790 1.566766 2.187750 -0.000486 -0.000756 759089.000000 1 0 0
-2.915767 9.232102 -4.238911 10.568906 -1.264881 1.983485 -0.003849 -0.002385 -847126.000000 1 0 0
3.433133 -4.739698 9.313689 10.999815 -0.943924 0.561019 -0.003464 -0.002352 -1230580.000000 1 0 0
-8.962567 1.557502 -0.320411 9.102532 -0.172060 1.606004 -0.005787 -0.001051 -2101410.000000 1 0 0
2.578033 3.564302 -10.218511 11.125128 0.944608 2.735085 0.003464 -0.003895 2031640.000000 1 0 0
-13.609967 0.430102 1.106389 13.661636 -0.031591 1.489722 0.001771 -0.006922 -1731070.000000 1 0 0
9.425233 -12.504098 -5.026711 16.445526 -0.924886 1.881426 0.024266 -0.005309 -1795200.000000 1 0 0
-4.688967 9.408402 -8.266611 13.373156 -1.108445 2.237183 -0.002309 -0.002857 -1607890.000000 1 0 0
-2.319867 7.077302 8.465789 11.275618 -1.254043 0.721517 0.001803 -0.000476 -1934770.000000 1 0 0
-10.683467 -1.271998 -4.502411 11.663025 0.118504 1.967133 -0.000148 -0.000917 -3459000.000000 1 0 0
2.701933 -7.096098 9.765689 12.370276 -1.206983 0.660887 -0.006603 0.001540 -1357330.000000 1 0 0
-16.001567 -6.230798 3.316289 17.489162 0.371324 1.380022 0.013808 -0.010263 164881.000000 1 0 0
-10.748767 0.064602 6.172589 12.395202 -0.006010 1.049526 -0.004054 -0.003928 -323891.000000 1 0 0
-8.417767 9.844402 9.379389 15.991998 -0.863359 0.944059 0.002723 -0.008243 -1593280.000000 1 0 0
0.380533 -5.910798 -3.731911 7.000679 -1.506506 2.133031 -0.001654 0.001783 17555.000000 1 0 0
4.838533 1.502702 -2.987411 5.881678 0.301125 2.103563 0.001797 0.000589 -799441.000000 1 0 0
0.325833 5.463302 3.733989 6.625444 1.511227 0.972079 -0.003665 0.003800 -1817980.000000 1 0 0
6.043433 -11.269498 -1.481711 12.873233 -1.078560 1.686152 -0.002236 -0.002527 -1807230.000000 1 0 0
6.234033 -13.354598 5.274689 15.653460 -1.134053 1.227103 0.008117 -0.005823 435700.000000 1 0 0
8.242333 -8.305198 -5.995811 13.147704 -0.789197 2.044331 0.002761 -0.003139 763238.000000 1 0 0
-13.028167 -1.219798 -4.714311 13.908479 0.093356 1.916599 0.001409 -0.001119 -3223090.000000 1 0 0
-6.749467 -1.593198 -7.105211 9.928626 0.231805 2.368320 0.005793 -0.002055 -566240.000000 1 0 0
-5.661567 12.859202 -4.532511 14.763335 -1.156060 1.882847 -0.001037 0.000278 805300.000000 1 0 0
-4.206967 6.898902 -6.850511 10.593532 -1.023200 2.274006 -0.002135 -0.003910 -2733400.000000 1 0 0
-9.262267 -3.724098 -8.175411 12.903327 0.382291 2.256980 0.006255 0.000738 898467.000000 1 0 0
-2.137467 -6.320598 9.252089 11.407010 1.244695 0.624787 0.004677 -0.000588 -460605.000000 1 0 0
7.443933 -5.948298 10.021589 13.828472 -0.674180 0.760187 0.002159 -0.002885 378048.000000 1 0 0
9.570333 -4.990898 12.184289 16.277507 -0.480697 0.724946 0.007296 -0.004211 -1098660.000000 1 0 0
-6.455367 2.754402 -9.063111 11.462918 -0.403296 2.482660 0.001553 -0.004431 -299034.000000 1 0 0
7.420833 5.467502 8.962689 12.856599 0.634985 0.799413 0.001312 0.000666 -218568.000000 1 0 0
12.676833 3.261102 11.097089 17.160485 0.251789 0.867592 0.024001 -0.004140 29255.900000 1 0 0
-7.437867 -7.392498 -3.943011 11.203492 0.782339 1.930444 0.014361 -0.006078 -1387260.000000 1 0 0
2.227333 1.416802 -5.777711 6.352187 0.566540 2.713026 0.004854 -0.000434 -766287.000000 1 0 0
12.803933 6.888002 -7.031911 16.150326 0.493552 2.021283 0.003979 -0.005350 288022.000000 1 0 0
0.830633 -7.754998 1.036989 7.867992 -1.464094 1.438613 0.000457 -0.000743 564959.000000 1 0 0
-10.279367 -5.978598 -8.520511 14.629017 0.526789 2.192522 0.011425 -0.003101 1100840.000000 1 0 0
-6.740067 0.190102 3.120389 7.429769 -0.028197 1.137368 -0.004017 -0.001935 1288250.000000 1 0 0
10.798833 -7.869198 1.382289 13.433160 -0.629735 1.467713 0.006723 -0.005474 572888.000000 1 0 0
6.305033 0.936702 10.504289 12.287023 0.147485 0.545421 0.000134 -0.003196 -706822.000000 1 0 0
-12.960967 5.354002 1.840089 14.143477 -0.391737 1.440325 -0.000492 -0.001891 532671.000000 1 0 0
2.007333 7.441902 3.623789 8.517226 1.307333 1.131320 -0.003142 0.002240 118359.000000 1 0 0
10.231233 -9.423898 -0.781611 13.931938 -0.744346 1.626928 0.006085 -0.003750 827765.000000 1 0 0
6.778533 -11.681198 -9.149711 16.313066 -1.044992 2.166248 0.002316 -0.001888 229298.000000 1 0 0
10.264633 3.528302 11.898689 16.105601 0.331082 0.739520 0.009578 -0.001692 -978215.000000 1 0 0
-11.033267 -3.144798 -1.897511 11.628555 0.277666 1.734706 -0.000290 -0.001714 -1037130.000000 1 0 0
12.263133 0.979602 6.765089 14.039604 0.079713 1.068023 0.018686 -0.005830 -96835.200000 1 0 0
-9.590267 9.128502 2.912189 13.556681 -0.760735 1.354293 -0.006353 -0.003349 1828530.000000 1 0 0
-6.576767 7.589502 -8.821711 13.367011 -0.856766 2.291564 -0.000672 -0.003268 -615926.000000 1 0 0
8.528633 5.511902 12.062989 15.768143 0.573757 0.699720 0.012198 -0.000528 -1113840.000000 1 0 0
1.281333 4.929602 -2.725311 5.776687 1.316497 2.062102 0.000099 -0.004181 431184.000000 1 0 0
1.202533 0.575402 9.637689 9.729451 0.446293 0.137450 -0.000149 -0.001056 986723.000000 1 0 0
2.556433 12.558302 -3.949411 13.410598 1.369975 1.869728 0.005342 -0.005274 401074.000000 1 0 0
2.063333 0.728602 13.019789 13.202390 0.339451 0.166511 -0.000414 -0.007591 -435971.000000 1 0 0
-12.241667 -1.805998 0.815989 12.401044 0.146472 1.504949 -0.001782 -0.005411 -406941.000000 1 0 0
3.207033 8.707302 -1.151411 9.350289 1.217899 1.694251 0.004019 -0.001883 87448.300000 1 0 0
3.742533 -2.836498 -5.846511 7.498931 -0.648544 2.464897 -0.000192 0.000402 -632947.000000 1 0 0
-7.780967 -7.251298 9.297089 14.126593 0.750177 0.852468 0.003369 -0.000604 -23702.400000 1 0 0
-7.176367 10.950102 -3.462511 13.542302 -0.990655 1.829349 0.001686 -0.000120 588933.000000 1 0 0
0.230033 0.435902 2.419589 2.469278 1.085222 0.200952 0.000073 0.003396 -2213340.000000 1 0 0
-7.163967 4.575202 -1.970011 8.725585 -0.568348 1.798534 0.000109 -0.002525 -1254170.000000 1 0 0
-6.769067 -3.943798 -5.821011 9.760020 0.527543 2.209822 0.006955 -0.001313 261255.000000 1 0 0
2.861433 -6.099098 13.438289 15.032445 -1.132126 0.464708 -0.008003 -0.000654 -1390610.000000 1 0 0
-5.429167 -0.650598 -11.817411 13.021150 0.119265 2.708221 0.009505 -0.006965 -225204.000000 1 0 0
11.789533 2.493502 -0.559911 12.063338 0.208430 1.617227 0.004284 -0.000066 -803338.000000 1 0 0
6.128733 -10.906998 10.787589 16.519566 -1.058856 0.859233 0.009543 0.003402 342602.000000 1 0 0
-8.141167 6.372002 -10.468211 14.712731 -0.664096 2.362437 -0.001373 -0.003903 639340.000000 1 0 0
2.789933 7.938402 11.152789 13.970921 1.232832 0.646353 0.004881 -0.002955 649580.000000 1 0 0
-6.217067 -10.105598 -0.478211 11.874499 1.019268 1.611079 0.011848 -0.002171 -234372.000000 1 0 0
11.182033 4.355002 6.130389 13.475369 0.371391 1.098499 0.004613 -0.001992 -465967.000000 1 0 0
-8.035067 10.668902 1.301489 13.419450 -0.925295 1.473658 -0.003489 0.000289 626795.000000 1 0 0
4.333833 -2.529998 -3.459711 6.095293 -0.528407 2.174389 0.002368 -0.001152 -5125750.000000 1 0 0
6.382633 6.470202 6.410589 11.121923 0.792211 0.956490 -0.000164 0.000738 -5989220.000000 1 0 0
-0.310967 10.291902 -10.119611 14.436983 -1.540591 2.347526 -0.002688 -0.002298 -109262.000000 1 0 0
14.168433 6.367102 -2.396311 15.717086 0.422344 1.723859 0.007194 0.003140 656333.000000 1 0 0
1.399933 9.426602 -6.238111 11.390112 1.423365 2.150383 0.002093 -0.002950 -1576830.000000 1 0 0
0.706633 7.321302 7.357289 10.403388 1.474577 0.785265 -0.002945 0.003578 -415343.000000 1 0 0
12.182833 6.381302 2.071289 13.908007 0.482502 1.421312 0.002870 -0.002089 -1326920.000000 1 0 0
-6.770867 6.665702 -3.235811 10.037265 -0.777572 1.899039 -0.003438 -0.005571 965671.000000 1 0 0
1.052733 10.025102 11.035689 14.946482 1.466170 0.740180 0.008071 -0.004011 286289.000000 1 0 0
-3.442667 13.581702 -10.891411 17.746476 -1.322547 2.231563 -0.006221 0.000834 -701603.000000 1 0 0
-9.972267 -5.578098 -2.307911 11.657090 0.510002 1.770097 0.007710 -0.003222 432510.000000 1 0 0
-3.997167 3.867602 -12.464111 13.648801 -0.768925 2.721870 0.005753 -0.008131 -793683.000000 1 0 0
-3.216167 8.446202 2.404989 9.352327 -1.206966 1.310720 -0.001753 0.001629 -3722630.000000 1 0 0
7.009033 8.966902 7.007589 13.365559 0.907341 1.018901 0.007613 0.001672 315073.000000 1 0 0
-1.379767 -2.284598 -8.207011 8.630074 1.027483 2.827180 0.002541 -0.005763 63507.900000 1 0 0
0.861833 -1.243398 4.787389 5.020746 -0.964698 0.306082 -0.000776 0.000940 -475215.000000 1 0 0
2.658233 -8.746298 -6.103011 10.991391 -1.275741 2.159464 -0.007343 0.001836 358593.000000 1 0 0
5.244933 3.943702 8.871789 11.034978 0.644720 0.636855 -0.000282 0.000880 955571.000000 1 0 0
6.076033 -7.502498 -2.885811 10.076386 -0.890067 1.861257 0.001379 -0.005091 1038960.000000 1 0 0
1.600133 2.179702 -8.189511 8.624362 0.937545 2.822686 0.005714 -0.002994 193912.000000 1 0 0
-5.443467 10.980902 -0.657311 12.273695 -1.110578 1.624376 -0.002049 -0.000304 594781.000000 1 0 0
-5.372767 3.365502 -3.407511 7.197525 -0.559605 2.063975 -0.004723 -0.000217 259822.000000 1 0 0
2.004633 13.685902 -6.273711 15.188216 1.425356 1.996613 -0.002466 -0.003939 679231.000000 1 0 0
-5.308967 -2.585598 2.697189 6.491940 0.453214 1.142340 -0.007436 -0.000163 161420.000000 1 0 0
10.510033 -3.387098 -1.835111 11.193787 -0.311763 1.735480 0.008392 -0.000357 -88749.500000 1 0 0
2.319833 -3.330198 7.025289 8.113355 -0.962353 0.523866 -0.002893 0.000806 -2163030.000000 1 0 0
-2.851667 9.906902 -11.743411 15.626465 -1.290526 2.421141 0.000329 -0.000329 -2312930.000000 1 0 0
0.585833 -2.006698 9.329989 9.561314 -1.286752 0.220418 0.000029 -0.001936 1302700.000000 1 0 0
9.331633 2.700602 4.944689 10.900576 0.281707 1.099976 0.003735 -0.003503 -1179450.000000 1 0 0
13.513333 2.047002 -5.036411 14.565913 0.150337 1.923852 0.011549 0.000260 -997888.000000 1 0 0
-6.483667 3.716002 7.748689 10.765165 -0.520430 0.767292 -0.002605 -0.001282 561832.000000 1 0 0
10.630433 0.078202 1.819889 10.785370 0.007356 1.401248 0.007729 -0.000481 876854.000000 1 0 0
15.427433 6.690602 -4.541911 17.418346 0.409201 1.834600 0.011556 -0.002279 -417877.000000 1 0 0
8.103533 -5.121198 -9.230311 13.307613 -0.563597 2.337287 0.004698 0.000869 2003320.000000 1 0 0
4.488533 5.614102 -2.109311 7.490945 0.896354 1.856238 0.004353 -0.003397 -66578.600000 1 0 0
-1.641767 -10.543698 1.505289 10.776403 1.416326 1.430654 0.009637 -0.002823 -856826.000000 1 0 0
-2.808067 12.251202 -12.973411 18.063404 -1.345481 2.372030 0.000904 0.000786 -1131530.000000 1 0 0
8.306933 4.244102 -9.497811 13.312624 0.472338 2.365197 0.000852 0.001646 886393.000000 1 0 0
4.119433 7.535302 -8.982311 12.427084 1.070502 2.378644 0.004794 -0.003283 -1606530.000000 1 0 0
-1.686167 -4.971198 -2.442411 5.789762 1.243787 2.006281 0.001344 0.001515 1018000.000000 1 0 0
-3.289867 -9.171498 7.008989 12.002730 1.226387 0.947211 0.006870 -0.001333 111198.000000 1 0 0
0.973833 7.220502 -1.413911 7.421802 1.436735 1.762476 -0.000554 -0.003088 2438560.000000 1 0 0
0.235233 -1.130298 -2.167411 2.455724 -1.365610 2.652151 0.007367 0.001795 -1964840.000000 1 0 0
4.173433 -6.770698 7.709689 11.076967 -1.018408 0.800970 -0.001599 0.000495 356213.000000 1 0 0
-13.881467 3.895802 5.951789 15.597955 -0.273609 1.179297 -0.000687 -0.005549 -428712.000000 1 0 0
4.290733 6.572902 12.613689 14.856600 0.992461 0.556651 0.008753 -0.008800 -1281810.000000 1 0 0
8.229633 10.002702 -7.011111 14.728767 0.882342 2.066914 0.006579 -0.007679 688584.000000 1 0 0
12.490233 5.280502 9.392689 16.495824 0.399981 0.965023 0.014195 -0.000677 838061.000000 1 0 0
7.589133 4.061302 0.412389 8.617376 0.491368 1.522923 0.007256 -0.000211 -1543460.000000 1 0 0
-10.787867 -7.575698 -1.015311 13.221200 0.612229 1.647666 0.013926 -0.003913 -1462420.000000 1 0 0
10.470733 6.860702 0.245589 12.520614 0.580041 1.551180 0.006052 -0.000890 -1125010.000000 1 0 0
14.627933 3.527002 4.433789 15.686766 0.236598 1.284246 0.011350 -0.004066 547317.000000 1 0 0
2.200233 5.612002 8.351689 10.299820 1.197155 0.625180 -0.003692 0.002884 -517696.000000 1 0 0
4.235833 0.251202 11.822989 12.561387 0.059235 0.344582 0.000159 -0.004047 -1785860.000000 1 0 0
-1.708067 -1.395798 -0.394511 2.240845 0.685129 1.747773 0.006412 -0.003115 -927597.000000 1 0 0
3.040033 -5.185898 -9.538511 11.274686 -1.040577 2.579255 0.000084 -0.002484 418091.000000 1 0 0
-3.949967 -5.272298 -1.332311 6.721192 0.927812 1.770343 0.002943 -0.002217 -759988.000000 1 0 0
-1.180567 -8.578198 8.596989 12.201944 1.434031 0.788995 0.006235 -0.000746 50766.500000 1 0 0
3.858133 8.536202 -5.939911 11.092091 1.146303 2.135906 0.005016 -0.002266 602650.000000 1 0 0
-14.159567 -1.715898 -2.730511 14.522167 0.120595 1.759946 0.002147 -0.005040 -1222700.000000 1 0 0
8.857733 -10.614998 -6.749611 15.384891 -0.875397 2.024967 0.007486 -0.004986 233323.000000 1 0 0
14.725333 6.150402 1.769389 16.055952 0.395650 1.460371 -0.006269 0.003263 -1579270.000000 1 0 0
-5.798767 0.328502 -8.552711 10.338398 -0.056590 2.545038 0.004796 -0.006629 -799635.000000 1 0 0
-8.129267 -4.630598 -13.092511 16.091652 0.517782 2.521150 0.010432 0.001065 696878.000000 1 0 0
0.900833 -10.722698 12.055289 16.159138 -1.486981 0.728708 -0.005035 0.002168 -329755.000000 1 0 0
0.220733 11.750602 3.366989 12.225464 1.552014 1.291782 0.000663 -0.000809 -630682.000000 1 0 0
5.189633 -13.142198 -3.593211 14.579466 -1.194709 1.819819 -0.004775 0.001903 1791940.000000 1 0 0
-7.440567 1.496502 -6.992611 10.319795 -0.198479 2.315280 0.000813 -0.001342 693091.000000 1 0 0
1.403633 2.832702 4.138789 5.208067 1.110747 0.652303 -0.002882 0.003630 -221395.000000 1 0 0
17.158933 5.530002 2.112189 18.151343 0.311771 1.454167 -0.001222 -0.000880 -298618.000000 1 0 0
2.522333 -8.075698 -3.465911 9.142845 -1.268061 1.959603 -0.004824 0.000729 163206.000000 1 0 0
-0.194267 -9.508698 -0.534811 9.525708 1.550369 1.626970 0.006589 0.000010 -1033070.000000 1 0 0
0.740433 11.856502 -5.538311 13.107165 1.508428 2.007043 0.002268 -0.002571 -1869220.000000 1 0 0
5.987133 -4.997198 7.841389 11.059165 -0.695519 0.782661 0.001769 -0.003481 -1149720.000000 1 0 0
-6.037467 -2.054598 -9.479611 11.425210 0.328015 2.549384 0.007245 -0.005425 -257184.000000 1 0 0
2.208733 -1.127398 11.255889 11.525821 -0.471955 0.216849 -0.007561 -0.004045 48525.000000 1 0 0
18.074033 2.306702 -5.833911 19.131807 0.126939 1.880664 0.023423 0.004575 -808099.000000 1 0 0
-8.916367 4.827902 7.772989 12.776134 -0.496267 0.916754 -0.000231 -0.007895 -925572.000000 1 0 0
11.350533 -7.185998 -4.834011 14.277284 -0.564401 1.916204 0.015395 -0.005774 -67807.800000 1 0 0
10.808933 0.573802 8.869689 13.994058 0.053036 0.884317 0.012031 -0.008456 -50461.500000 1 0 0
-8.392067 -7.443698 -1.564811 11.326256 0.725582 1.709398 0.012410 -0.004388 -1689990.000000 1 0 0
10.296933 -10.516698 -3.236011 15.069822 -0.795957 1.787216 0.018665 -0.007718 802613.000000 1 0 0
7.670833 -13.775098 -3.787811 16.215503 -1.062700 1.806567 0.010837 -0.003276 -2624110.000000 1 0 0
1.747833 -1.122498 -11.709611 11.892431 -0.570889 2.966023 0.008096 -0.007992 423243.000000 1 0 0
-11.797967 -2.562298 -6.522811 13.722408 0.213860 2.066147 0.003651 0.001584 -540692.000000 1 0 0
2.732233 -12.200898 -6.449911 14.068702 -1.350494 2.047056 -0.005840 0.002697 205391.000000 1 0 0
-5.540467 1.454002 1.173989 5.847149 -0.256646 1.368643 -0.006001 -0.001342 515175.000000 1 0 0
0.127833 6.887402 -3.987011 7.959202 1.552238 2.095470 0.002086 -0.003847 864181.000000 1 0 0
5.495733 -11.762198 3.593889 13.471022 -1.133701 1.300739 -0.001945 -0.006433 -2374320.000000 1 0 0
-4.328267 -9.238098 0.984789 10.249203 1.132645 1.474563 0.010242 -0.001600 -361770.000000 1 0 0
7.026833 -6.317398 -4.710611 10.558208 -0.732284 2.033262 0.001919 -0.003832 523119.000000 1 0 0
-6.860967 -6.012598 2.202489 9.384837 0.719593 1.333901 0.004637 -0.002386 -100513.000000 1 0 0
-6.107667 -0.736098 7.121889 9.410990 0.119942 0.712449 -0.002255 -0.000198 -956209.000000 1 0 0
4.146733 -5.034698 3.273589 7.297942 -0.881812 1.105639 0.000660 -0.001824 -358438.000000 1 0 0
-2.452867 10.512502 -8.843211 13.954628 -1.341569 2.257138 -0.002819 -0.004125 -1445930.000000 1 0 0
-2.305567 -4.903598 2.804889 6.101501 1.131289 1.093134 0.000105 0.001160 -1400940.000000 1 0 0
15.086433 5.098602 6.442689 17.178604 0.325908 1.186355 0.013605 -0.008888 471199.000000 1 0 0
6.694933 0.310002 0.115089 6.703094 0.046271 1.553626 0.004721 -0.000905 3734760.000000 1 0 0
-9.819167 9.089502 0.366489 13.385417 -0.746828 1.543413 -0.004182 -0.001873 -2056950.000000 1 0 0
7.169133 10.387902 -2.509211 12.868609 0.966717 1.767040 0.008517 -0.004314 -212111.000000 1 0 0
1.700033 -4.274298 -5.571811 7.225290 -1.192245 2.451448 -0.000959 0.000520 -514220.000000 1 0 0
0.889533 -8.089598 -7.962211 11.385503 -1.461276 2.345255 -0.003193 0.001151 1722480.000000 1 0 0
-10.463567 0.027102 -10.539311 14.851399 -0.002590 2.359799 0.000552 -0.000466 -4473780.000000 1 0 0
5.912233 -2.453998 0.527589 6.423002 -0.393431 1.488563 0.006457 -0.000588 -412247.000000 1 0 0
-3.411567 5.182102 -1.355911 6.350706 -0.988583 1.785958 -0.003302 -0.003912 652192.000000 1 0 0
-0.315467 4.589802 -5.191111 6.936385 -1.502172 2.416426 0.001611 -0.004709 -1040290.000000 1 0 0
4.001933 -9.692498 10.018189 14.502555 -1.179228 0.808218 -0.002953 0.001907 -2300020.000000 1 0 0
7.340633 -13.413798 -0.723211 15.308099 -1.070071 1.618058 0.008236 -0.001599 640165.000000 1 0 0
12.985733 0.020702 0.469189 12.994223 0.001594 1.534681 0.008464 -0.001923 470106.000000 1 0 0
9.279633 2.480302 -0.600311 9.624129 0.261179 1.633212 0.008952 -0.000786 -404214.000000 1 0 0
-0.717667 -5.788698 4.605789 7.432184 1.447448 0.902425 0.000890 0.002716 296225.000000 1 0 0
11.550233 -3.662598 3.332389 12.566914 -0.307072 1.302414 0.016373 -0.006577 -751854.000000 1 0 0
1.581033 -8.234898 11.840689 14.509139 -1.381113 0.616192 -0.006581 0.000126 308905.000000 1 0 0
9.323033 -5.888198 -5.855211 12.484924 -0.563314 2.058935 0.003272 -0.005127 174908.000000 1 0 0
3.199133 6.285702 0.024789 7.053021 1.100011 1.567282 0.000387 -0.001251 -1332410.000000 1 0 0
6.315833 -1.389698 11.597089 13.278308 -0.216583 0.508684 -0.003402 -0.003502 350180.000000 1 0 0
-4.846467 -7.672398 -3.809811 9.842185 1.007411 1.968270 0.008307 -0.002925 -668788.000000 1 0 0
-3.349067 -8.506698 -5.774411 10.813140 1.195735 2.134142 0.006463 -0.000427 -537894.000000 1 0 0
9.799733 5.323602 2.284589 11.383973 0.497638 1.368740 0.005534 -0.002812 -122447.000000 1 0 0
8.857333 -1.407298 0.365389 8.975876 -0.157568 1.530077 0.009986 -0.000222 996089.000000 1 0 0
-3.859467 9.618302 9.177289 13.843043 -1.189202 0.846040 -0.000476 -0.005235 186794.000000 1 0 0
-14.216067 -3.471298 -6.027511 15.826477 0.239495 1.961512 0.007070 -0.001032 -1909700.000000 1 0 0
10.667433 6.309702 -5.804511 13.685715 0.534140 2.008796 0.002124 -0.003863 -1340260.000000 1 0 0
-1.923067 4.440502 2.745389 5.563578 -1.162107 1.054736 -0.001202 0.001041 793445.000000 1 0 0
6.897933 -3.719498 2.643489 8.270682 -0.494529 1.245466 0.008811 -0.005084 -1086730.000000 1 0 0
8.338633 -11.105198 -1.560711 13.974765 -0.926734 1.682710 0.010568 -0.004481 -1897200.000000 1 0 0
4.464933 0.558002 1.880989 4.876998 0.124330 1.174845 0.004340 0.000040 40326.200000 1 0 0
-10.816567 2.156802 3.918489 11.704891 -0.196817 1.229431 -0.006263 -0.003825 -100044.000000 1 0 0
-0.924667 -3.031898 4.385089 5.410769 1.274777 0.625898 0.000945 0.002244 595474.000000 1 0 0
8.595133 -8.708698 -8.572511 14.940070 -0.791961 2.181926 0.010479 -0.002300 -58146.800000 1 0 0
12.198033 -4.808298 1.088189 13.156591 -0.375485 1.487991 0.010852 -0.005248 170050.000000 1 0 0
2.903733 4.926602 3.594489 6.754511 1.038208 1.009645 -0.004650 0.001090 -797147.000000 1 0 0
6.103133 7.479802 2.017689 9.862390 0.886406 1.364757 0.004142 -0.001785 -453687.000000 1 0 0
-1.723067 -1.341498 -10.293611 10.522690 0.661526 2.932550 0.008880 -0.006682 439451.000000 1 0 0
-0.957767 -8.640098 6.012789 10.569874 1.460396 0.965676 0.000828 -0.000956 164136.000000 1 0 0
-4.194267 -0.290998 2.293889 4.789414 0.069269 1.071338 -0.005458 0.000480 664843.000000 1 0 0
-8.379667 6.183602 -7.915411 13.080882 -0.635731 2.220704 -0.003178 -0.001730 -910152.000000 1 0 0
6.443233 11.214202 -9.414811 15.997257 1.049293 2.200032 0.011557 -0.007005 -32488.100000 1 0 0
-11.174267 -5.818198 3.100389 12.974132 0.480053 1.329494 0.005266 -0.003112 1373890.000000 1 0 0
1.628533 -6.267498 2.981989 7.129229 -1.316580 1.139249 -0.002465 -0.001428 163209.000000 1 0 0
10.018833 2.231102 7.212889 12.545142 0.219115 0.958248 0.009022 -0.002916 -1514300.000000 1 0 0
-3.998467 -2.527898 -10.768811 11.762028 0.563772 2.727688 0.007732 -0.007222 -3849820.000000 1 0 0
-8.406567 11.732902 5.867289 15.580643 -0.949085 1.184699 0.006495 -0.008281 -222921.000000 1 0 0
6.897933 5.957902 -2.886011 9.560708 0.712407 1.877441 0.006724 -0.001133 -3094350.000000 1 0 0
3.923033 -9.869098 -2.310611 10.868680 -1.192441 1.785025 -0.005068 -0.002644 -1303490.000000 1 0 0
8.516433 -12.901498 -7.345411 17.115296 -0.987345 2.014373 0.016600 -0.003333 1195570.000000 1 0 0
-1.114167 9.429602 3.516989 10.125609 -1.453185 1.216068 -0.000867 0.002341 135355.000000 1 0 0
0.460933 -13.151398 4.733389 13.984874 -1.535762 1.225511 0.010500 -0.003605 -910181.000000 1 0 0
-11.245867 -7.042798 -5.119611 14.222551 0.559502 1.939026 0.012357 -0.006408 131770.000000 1 0 0
3.496733 10.197502 -3.339611 11.285796 1.240460 1.871207 0.004102 -0.003035 -486170.000000 1 0 0
11.638333 -8.093798 -7.350211 15.968280 -0.607661 2.049130 0.029336 -0.007363 556007.000000 1 0 0
11.728133 -4.848298 -5.827111 13.964610 -0.391996 2.001243 0.011396 -0.001493 64408.100000 1 0 0
1.349933 -10.226998 -2.799111 10.688725 -1.439558 1.835761 -0.004439 0.002816 -1585630.000000 1 0 0
2.382733 -11.990398 -3.943511 12.845168 -1.374632 1.882839 -0.004688 0.003098 -1121770.000000 1 0 0
-7.674367 -5.675498 7.330989 12.035389 0.636773 0.915847 -0.000635 0.002675 -3246490.000000 1 0 0
-7.273067 -0.920798 9.515189 12.011836 0.125934 0.656471 -0.001358 -0.001589 79199.500000 1 0 0
16.182633 2.562802 -7.620511 18.069802 0.157063 2.006145 0.017408 0.005913 214949.000000 1 0 0
-1.977967 6.264702 -5.528911 8.586484 -1.264970 2.270392 -0.000850 -0.002830 204945.000000 1 0 0
7.725033 1.202502 8.371989 11.454795 0.154424 0.751198 0.003586 -0.004715 -1222760.000000 1 0 0
7.862333 8.269702 -3.802711 12.027670 0.810645 1.892479 0.006606 -0.001501 -325876.000000 1 0 0
7.943733 0.562102 4.075189 8.945726 0.070643 1.097811 0.003872 -0.000734 515904.000000 1 0 0
-7.003767 5.837402 5.283189 10.537557 -0.694817 1.045618 -0.000824 -0.004263 -271416.000000 1 0 0
-6.045867 -1.997898 -4.513811 7.805037 0.319160 2.187465 0.001971 -0.000543 -1585150.000000 1 0 0
-15.112367 -2.033298 3.041689 15.548949 0.133742 1.373906 0.010672 -0.010084 -829314.000000 1 0 0
1.132633 1.297102 -10.560211 10.699691 0.852985 2.979949 0.008516 -0.008581 474087.000000 1 0 0
1.574433 -9.217098 9.393589 13.254179 -1.401613 0.783105 -0.002834 -0.002388 -1565960.000000 1 0 0
-0.178467 -6.872698 -1.273611 6.991990 1.544835 1.753972 0.001041 0.001605 501999.000000 1 0 0
-0.518867 -10.201498 -8.471611 13.270568 1.519978 2.263183 -0.001151 -0.000345 73899.800000 1 0 0
-4.444067 6.539402 3.866089 8.801145 -0.973905 1.116009 -0.002019 0.001158 -234790.000000 1 0 0
10.807333 -1.291598 -8.627711 13.888991 -0.118947 2.241057 0.011231 0.003595 15845.800000 1 0 0
3.025733 -0.976898 6.246589 7.009227 -0.312298 0.470823 -0.002593 0.001831 399434.000000 1 0 0
2.061933 -12.351198 6.684189 14.194437 -1.405380 1.080483 0.006665 -0.001483 106404.000000 1 0 0
2.953333 -4.891598 -1.371811 5.876374 -1.027619 1.806416 0.003462 -0.000603 -1650900.000000 1 0 0
-1.061167 9.410502 -1.758111 9.631956 -1.458507 1.754354 -0.000541 -0.005435 519742.000000 1 0 0
4.519733 -2.536798 2.650489 5.821376 -0.511456 1.098084 0.004917 0.000082 -2498630.000000 1 0 0
17.756433 6.794002 -2.571811 19.184983 0.365436 1.705254 0.004576 0.007094 19329.700000 1 0 0
-7.088367 3.400502 -5.418411 9.548170 -0.447300 2.174240 -0.002222 -0.002108 859999.000000 1 0 0
-13.812067 -6.009798 1.962989 15.190267 0.410404 1.441207 0.002459 -0.005921 704941.000000 1 0 0
6.725733 -6.028098 3.522789 9.694508 -0.730753 1.198903 0.004800 -0.005229 -20807.700000 1 0 0
-4.630867 1.932902 3.606989 6.179920 -0.395412 0.947564 -0.003762 -0.000543 890077.000000 1 0 0
6.846333 -12.010998 -5.448611 14.860139 -1.052724 1.946212 0.001869 -0.000492 1821790.000000 1 0 0
2.914633 -12.217798 3.411289 13.015628 -1.336617 1.305607 0.004539 -0.006108 -473590.000000 1 0 0
3.316833 11.291002 -6.081011 13.246388 1.285075 2.047744 0.003539 -0.000282 -461942.000000 1 0 0
-5.517167 -8.316098 6.363489 11.835988 0.985036 1.003162 0.009234 0.001618 294955.000000 1 0 0
-3.919267 6.579302 6.357089 9.952911 -1.033547 0.877967 0.002444 -0.000583 398285.000000 1 0 0
4.257233 4.224102 -7.027211 9.238439 0.781492 2.435109 0.003468 0.000424 -1815060.000000 1 0 0
-0.320267 -2.645598 1.586589 3.101455 1.450326 1.033794 0.000038 0.001355 -1482080.000000 1 0 0
-13.178267 -0.955298 6.494589 14.722738 0.072364 1.113943 0.004709 -0.007449 -392018.000000 1 0 0
-0.494767 -9.312798 -6.026611 11.103740 1.517719 2.144510 -0.001010 0.003375 -40859.500000 1 0 0
2.030033 -1.705398 -3.931611 4.742044 -0.698709 2.548286 0.002431 0.000774 -841979.000000 1 0 0
11.369833 -1.936798 1.117589 11.587635 -0.168726 1.474200 0.010834 -0.003382 340425.000000 1 0 0
0.568633 -4.318998 -1.798411 4.712894 -1.439891 1.962316 0.001214 0.000212 -2410850.000000 1 0 0
1.226333 -7.331098 -11.307411 13.531683 -1.405053 2.560066 0.002451 -0.002399 102596.000000 1 0 0
-4.426267 4.061602 -10.014311 11.677965 -0.742461 2.601263 0.004499 -0.006235 -834979.000000 1 0 0
-1.122067 5.795002 -2.150611 6.282214 -1.379536 1.920195 -0.002502 -0.003056 -1599570.000000 1 0 0
-11.289767 1.714502 -3.878711 12.059965 -0.150712 1.898235 0.001655 -0.000519 -360076.000000 1 0 0
-1.769267 -11.282698 4.105789 12.136189 1.415251 1.225676 0.010731 -0.002733 -509091.000000 1 0 0
-3.552067 -5.474298 -9.735611 11.720377 0.995221 2.551083 0.005554 -0.002941 -1153640.000000 1 0 0
-12.950667 -3.783698 -8.379711 15.882560 0.284251 2.126575 0.009893 0.003094 -705973.000000 1 0 0
11.479533 4.444702 0.727289 12.331423 0.369410 1.511784 0.009688 0.000948 267707.000000 1 0 0
-8.803467 -2.381798 -2.983411 9.595558 0.264227 1.886953 0.001876 -0.001787 317518.000000 1 0 0
-2.536567 -6.056598 -6.482011 9.226756 1.174180 2.349733 0.001131 -0.001330 -816770.000000 1 0 0
-0.105267 2.756902 -1.800211 3.294290 -1.532632 2.148933 -0.001912 -0.003750 -809868.000000 1 0 0
8.110733 5.940302 -5.103211 11.274482 0.632142 2.040513 0.007201 -0.001816 -913049.000000 1 0 0
-9.750167 -1.003098 -0.919511 9.844667 0.102519 1.664335 -0.004359 -0.002876 -398429.000000 1 0 0
6.057333 0.639302 -8.856111 10.748520 0.105152 2.539121 0.001077 0.002280 646464.000000 1 0 0
-4.106367 2.471502 7.888489 9.230321 -0.541794 0.545963 -0.002337 0.001064 -1987110.000000 1 0 0
-10.105667 -3.372698 1.439289 10.750403 0.322119 1.436511 -0.000837 -0.003829 1582390.000000 1 0 0
-1.787667 -8.104698 -7.912511 11.466897 1.353701 2.332328 0.000239 -0.003581 -313812.000000 1 0 0
-9.312667 -9.900898 4.163489 14.215773 0.816004 1.273561 0.006304 0.000050 -925594.000000 1 0 0
-1.062267 -10.717098 7.378689 13.054871 1.472000 0.970114 0.009550 -0.002602 68171.600000 1 0 0
9.525133 3.775802 -3.669811 10.883582 0.377403 1.914725 0.006758 -0.000093 -997966.000000 1 0 0
12.857033 -0.816998 3.003689 13.228489 -0.063460 1.341736 0.013564 -0.003223 -950988.000000 1 0 0
6.451633 11.901902 -6.774011 15.138232 1.074064 2.034739 0.005633 -0.003675 159584.000000 1 0 0
-11.672767 0.026402 -6.495011 13.358120 -0.002262 2.078557 0.001052 0.000429 804884.000000 1 0 0
-7.625767 -6.701798 -11.521011 15.355785 0.720998 2.419269 0.010394 -0.003645 -1734060.000000 1 0 0
4.088733 6.098902 6.622889 9.888225 0.980210 0.836890 -0.003382 0.003083 -2737340.000000 1 0 0
-4.282567 -1.498898 -7.381111 8.664172 0.336675 2.590422 0.003698 -0.006152 -1519840.000000 1 0 0
9.602533 9.310202 0.814889 13.399721 0.769943 1.509945 0.006046 -0.001755 -1953720.000000 1 0 0
-8.900367 3.870602 4.841489 10.846110 -0.410210 1.108080 -0.002856 -0.003629 198442.000000 1 0 0
-6.973667 7.817602 -12.174511 16.061309 -0.842393 2.431041 0.000680 -0.005987 -640100.000000 1 0 0
11.122933 -3.566398 7.310089 13.779558 -0.310279 1.011603 0.017925 -0.008264 1913040.000000 1 0 0
11.769733 7.009702 6.344889 15.097024 0.537156 1.137049 0.002027 -0.003764 -173402.000000 1 0 0
-9.717167 -0.947298 -14.883711 17.800156 0.097180 2.561034 -0.000752 0.003382 282896.000000 1 0 0
1.831233 -13.094598 11.841189 17.749244 -1.431851 0.840437 0.002070 0.002439 49506.300000 1 0 0
2.958233 3.059302 13.153089 13.824406 0.802192 0.312917 0.003355 -0.006010 -1050730.000000 1 0 0
-2.562467 -1.310098 11.013189 11.383010 0.472618 0.255603 0.003205 -0.003064 -898470.000000 1 0 0
2.522033 -10.111398 -8.288111 13.315172 -1.326359 2.242673 -0.006239 0.001403 -844913.000000 1 0 0
13.890233 3.602802 -7.490511 16.187233 0.253784 2.051882 0.009945 -0.001788 -2622440.000000 1 0 0
7.281033 -1.581598 5.053889 9.003149 -0.213899 0.974784 0.006351 -0.001627 616309.000000 1 0 0
-1.250067 8.686302 10.268089 13.507337 -1.427865 0.707197 0.006327 -0.002642 133743.000000 1 0 0
-12.098967 -4.644798 0.838789 12.987021 0.366551 1.506165 0.003067 -0.005062 -786651.000000 1 0 0
-4.834367 4.825502 -5.330111 8.664102 -0.784480 2.233429 -0.000891 -0.004658 26734.900000 1 0 0
-11.215867 0.261502 1.969889 11.390545 -0.023311 1.396982 -0.005165 -0.002058 -3908850.000000 1 0 0
-1.575267 2.587702 -3.995411 5.014078 -1.023967 2.492841 0.000789 -0.006081 642654.000000 1 0 0
3.170933 -9.826198 13.110189 16.687901 -1.258644 0.667114 0.000504 0.005947 -2255250.000000 1 0 0
8.886133 4.732902 -1.416411 10.167101 0.489399 1.710564 0.007576 -0.003344 -1544830.000000 1 0 0
4.035733 2.412102 3.834489 6.067016 0.538716 0.886636 -0.003780 0.003649 -97311.200000 1 0 0
-5.547367 -3.212898 7.544189 9.900040 0.524967 0.704344 0.000575 -0.000499 295946.000000 1 0 0
1.751933 -5.774998 7.732589 9.808813 -1.276255 0.662705 -0.004865 0.000389 -705585.000000 1 0 0
-5.994267 -6.353998 -9.648611 13.015384 0.814522 2.405837 0.005023 -0.004622 -245759.000000 1 0 0
-11.656567 -5.792898 5.514389 14.136538 0.461216 1.170077 0.006541 -0.002513 -2302790.000000 1 0 0
10.515833 6.300402 4.474089 13.049723 0.539783 1.220848 0.004577 -0.001445 -501010.000000 1 0 0
1.438433 -3.721498 0.423089 4.012187 -1.201965 1.465149 0.006165 0.000976 -678152.000000 1 0 0
8.789633 4.310002 7.062089 12.070910 0.455898 0.945854 0.001968 0.003196 -372629.000000 1 0 0
-8.002967 11.914402 3.399889 14.749905 -0.979314 1.338202 -0.002719 -0.007373 169602.000000 1 0 0
-6.081267 13.299502 -7.042711 16.231400 -1.141925 2.019607 0.001899 -0.004571 320368.000000 1 0 0
4.547033 -6.884098 -0.900511 8.299231 -0.987066 1.679516 0.004797 -0.003769 -1090530.000000 1 0 0
-1.938467 -8.181198 11.066989 13.898486 1.338145 0.649687 0.002549 -0.004998 -706681.000000 1 0 0
11.688133 8.848702 -5.714711 15.734354 0.648009 1.942496 0.004754 -0.007043 429398.000000 1 0 0
-3.360367 -2.897098 -1.911811 4.831177 0.711498 1.977652 0.003710 -0.000564 -2067960.000000 1 0 0
-2.086767 5.945802 4.772889 7.904911 -1.233262 0.922552 -0.003435 0.001234 -420283.000000 1 0 0
0.270933 -11.556398 -5.814411 12.939518 -1.547356 2.036837 -0.005681 -0.002529 248470.000000 1 0 0
-8.950767 6.306202 -1.680211 11.077343 -0.613769 1.723064 0.002096 -0.000300 -330171.000000 1 0 0
2.859633 0.095802 3.893389 4.831682 0.033489 0.633764 -0.001324 0.002838 -1115040.000000 1 0 0
-10.075867 3.958002 -0.957911 10.867680 -0.374301 1.659054 0.003180 -0.003807 59979.200000 1 0 0
6.495333 5.512002 13.663689 16.101798 0.703686 0.557498 0.013428 -0.004918 17009.000000 1 0 0
-8.725967 -1.568498 5.649389 10.512768 0.177851 1.003465 -0.005532 -0.001460 353290.000000 1 0 0
12.961133 -1.730698 -1.500911 13.162029 -0.132745 1.685078 0.012907 -0.000094 -1184510.000000 1 0 0
5.130233 -5.578798 5.519289 9.375757 -0.827260 0.941376 0.001633 -0.003665 324963.000000 1 0 0
-9.039467 -1.293898 3.090089 9.640269 0.142173 1.244497 -0.007715 -0.000964 -175683.000000 1 0 0
1.916033 5.520302 5.709689 8.169789 1.236718 0.796968 -0.001726 0.002446 -704535.000000 1 0 0
9.268633 3.057102 -7.339611 12.211606 0.318597 2.215593 0.003874 0.000100 107014.000000 1 0 0
2.307133 -2.392798 -1.544911 3.665392 -0.803623 2.005880 0.003789 0.000999 -38588.700000 1 0 0
-6.220267 0.410402 -3.976611 7.394159 -0.065883 2.138627 -0.004079 0.002189 -2220930.000000 1 0 0
-4.081267 4.186402 5.096189 7.755891 -0.798114 0.853867 -0.003115 0.001378 483592.000000 1 0 0
-6.509967 1.729202 -12.400211 14.111522 -0.259628 2.643990 0.004405 -0.004696 -1740140.000000 1 0 0
-0.063767 3.248002 6.326789 7.112091 -1.551166 0.474367 -0.002714 0.001604 911196.000000 1 0 0
-8.758967 9.348202 -2.078111 12.977940 -0.817928 1.731615 -0.000701 -0.001050 796056.000000 1 0 0
-1.287667 -3.728198 -6.176511 7.328495 1.238238 2.573275 -0.002615 0.000126 -128818.000000 1 0 0
-3.440467 7.083802 -3.044811 8.443218 -1.118669 1.939731 -0.001577 -0.002792 1134000.000000 1 0 0
7.120633 -0.384698 -4.264411 8.308827 -0.053973 2.109750 0.002611 0.001409 -62021.400000 1 0 0
-5.187467 -10.792098 6.894689 13.817233 1.122730 1.048361 0.005033 -0.002141 400221.000000 1 0 0
9.732833 8.366702 -1.479811 12.919736 0.710062 1.685587 0.007654 -0.001695 16991.400000 1 0 0
13.869933 4.619802 -4.335411 15.248390 0.321523 1.859093 0.008955 -0.003631 643410.000000 1 0 0
4.739333 1.064802 -6.707411 8.281572 0.221003 2.514812 -0.001084 0.001413 -53998.900000 1 0 0
9.023033 -4.655898 3.505489 10.741553 -0.476367 1.238358 0.008463 -0.005926 -1103620.000000 1 0 0
-8.723267 -3.297098 -0.704511 9.352143 0.361368 1.646199 -0.003189 -0.001366 261111.000000 1 0 0
-8.574667 -4.293498 -10.515411 14.231406 0.464223 2.402215 0.005627 -0.003096 288938.000000 1 0 0
10.528233 -1.150798 10.484489 14.902769 -0.108874 0.790449 0.011712 -0.005082 1656480.000000 1 0 0
2.208133 -11.585398 9.817889 15.345626 -1.382459 0.876579 0.001558 -0.000194 176111.000000 1 0 0
-6.359267 -10.590998 1.879089 12.495619 1.030053 1.419844 0.008959 -0.000684 -586872.000000 1 0 0
-3.632867 -1.498498 6.654689 7.728396 0.391222 0.533426 0.001397 0.000482 -1376000.000000 1 0 0
4.739433 -7.521798 3.913289 9.713573 -1.008543 1.156148 -0.000801 -0.002307 374106.000000 1 0 0
11.622833 -9.559098 -5.248511 15.937800 -0.688276 1.906371 0.026076 -0.010782 402844.000000 1 0 0
11.312933 1.073902 11.416389 16.108062 0.094643 0.783089 0.013205 -0.005567 -494216.000000 1 0 0
-10.236867 -3.482598 4.312189 11.641173 0.327919 1.191329 0.002619 -0.004455 1588330.000000 1 0 0
1.998433 8.726802 9.074089 12.747152 1.345678 0.778664 0.000567 0.001026 -452171.000000 1 0 0
6.554733 8.889002 4.005889 11.748447 0.935409 1.222846 0.006356 0.000407 1852130.000000 1 0 0
-4.277467 3.601502 0.444689 5.609393 -0.699814 1.491437 -0.003006 -0.001412 -1415910.000000 1 0 0
4.853033 7.069102 4.335989 9.608586 0.969179 1.102617 0.001306 0.001171 -943120.000000 1 0 0
-8.309567 13.151402 1.054789 15.592333 -1.007294 1.503097 0.002515 -0.003573 -77125.700000 1 0 0
8.953233 8.158302 -9.018411 15.101325 0.738976 2.210794 -0.000684 -0.008987 -623271.000000 1 0 0
7.027733 1.936502 6.085589 9.495971 0.268879 0.875178 0.000982 0.000151 -468627.000000 1 0 0
11.567933 -6.168998 3.163789 13.486407 -0.489919 1.333999 0.012990 -0.005952 600.892000 1 0 0
11.361833 4.727802 -1.984711 12.465249 0.394319 1.730696 0.005165 0.000061 -235729.000000 1 0 0
-3.959767 14.412802 -5.976511 16.097431 -1.302672 1.951174 -0.007385 0.004343 -90036.100000 1 0 0
7.222933 -3.038098 7.032589 10.528918 -0.398154 0.839371 0.006572 -0.006663 52480.400000 1 0 0
-7.914267 -0.498598 0.921289 7.983295 0.062917 1.455137 -0.002915 -0.001551 490439.000000 1 0 0
-3.265767 1.112702 10.740489 11.281021 -0.328381 0.310814 0.002498 -0.001557 -80603.800000 1 0 0
7.172533 -1.275498 -1.739111 7.489768 -0.175991 1.805133 0.007274 0.000559 -2764050.000000 1 0 0
-7.826867 5.373502 2.954489 9.943006 -0.601639 1.269098 -0.002705 -0.001341 867574.000000 1 0 0
9.551133 -2.074998 2.942289 10.207194 -0.213927 1.278391 0.010532 -0.004024 -870839.000000 1 0 0
0.214833 3.500102 1.630189 3.867089 1.509494 1.135637 -0.001929 0.000447 -3151170.000000 1 0 0
-7.584967 -3.106298 3.958289 9.102135 0.388698 1.120897 -0.004894 -0.001133 -461624.000000 1 0 0
-2.207867 8.367202 -6.710911 10.950848 -1.312805 2.230422 -0.003692 -0.002931 -824905.000000 1 0 0
4.491033 9.854902 7.486789 13.165883 1.143199 0.965932 0.001861 0.003201 598408.000000 1 0 0
-11.763567 -3.152698 6.851789 13.973834 0.261852 1.058328 0.006216 -0.005707 -2899130.000000 1 0 0
-4.674767 2.269202 -5.644411 7.672164 -0.451912 2.397496 0.001293 -0.003605 -550627.000000 1 0 0
-2.820267 2.737602 -1.623711 4.252624 -0.770526 1.962554 -0.003791 -0.002423 1443200.000000 1 0 0
2.397333 5.218702 11.627289 12.968265 1.140175 0.458775 0.006669 -0.005173 321033.000000 1 0 0
-0.780367 1.720502 4.527989 4.906300 -1.144978 0.395270 0.000639 0.001437 170185.000000 1 0 0
5.076233 1.539802 7.728189 9.373582 0.294514 0.601540 -0.001933 0.002352 -170520.000000 1 0 0
3.393033 -8.118898 1.810189 8.983650 -1.174940 1.367909 0.001005 -0.003190 2790740.000000 1 0 0
5.023333 6.432602 -4.632211 9.384541 0.907800 2.087021 0.006644 -0.003004 -1559580.000000 1 0 0
-4.109667 2.837102 -8.006511 9.436246 -0.604219 2.583912 0.005354 -0.008636 -963679.000000 1 0 0
-8.754967 -2.298498 -12.926111 15.780269 0.256742 2.530691 0.008167 -0.002308 597897.000000 1 0 0
-7.753867 8.196302 1.002689 11.327277 -0.813130 1.482160 -0.001724 -0.002557 -2385240.000000 1 0 0
7.438033 0.883202 -6.568411 9.962349 0.118188 2.290715 -0.000530 0.002184 603923.000000 1 0 0
8.968633 8.890602 5.450889 13.754685 0.781029 1.163320 0.005322 -0.000302 612532.000000 1 0 0
9.359033 -1.112798 -1.267511 9.509805 -0.118345 1.704479 0.009462 0.000712 1014030.000000 1 0 0
5.333833 0.216702 4.377389 6.903497 0.040605 0.883974 -0.003062 0.002602 -228336.000000 1 0 0
-4.215767 -7.337398 -8.059511 11.686138 1.049294 2.331822 0.008919 -0.006820 81508.100000 1 0 0
-2.333067 7.360702 -0.654211 7.749266 -1.263851 1.655319 -0.001838 -0.003405 -24904.100000 1 0 0
13.186933 -3.321898 -7.455211 15.508397 -0.246774 2.072273 0.014302 0.000714 1076170.000000 1 0 0
-4.724467 -5.083998 1.636289 7.130573 0.822037 1.339258 0.003173 -0.000951 2810110.000000 1 0 0
-8.886967 1.250202 2.643889 9.355818 -0.139761 1.284300 -0.006334 -0.001282 -487198.000000 1 0 0
-1.080367 11.192202 10.086889 15.105559 -1.474566 0.839601 0.002286 -0.009439 311193.000000 1 0 0
-8.419767 0.263602 7.394989 11.209274 -0.031297 0.850349 -0.006382 -0.001718 -582931.000000 1 0 0
-6.209267 12.938602 -2.115711 14.506504 -1.123356 1.717164 -0.000254 0.000006 682776.000000 1 0 0
-12.944767 -0.832198 3.266889 13.376551 0.064200 1.324076 0.004744 -0.008813 218573.000000 1 0 0
-6.689367 12.807402 8.665189 16.848225 -1.089465 1.030595 0.007595 -0.011172 845521.000000 1 0 0
-8.157667 0.987202 -14.152911 16.365421 -0.120430 2.615560 0.003941 -0.000664 -971923.000000 1 0 0
7.122233 2.912402 3.776789 8.571605 0.388170 1.114511 0.002345 0.000271 -620485.000000 1 0 0
-1.539567 0.664602 -2.167911 2.740767 -0.407516 2.483217 -0.001813 -0.002824 795606.000000 1 0 0
-6.171067 9.582102 -10.374711 15.412118 -0.998636 2.309260 -0.002879 -0.003205 -125393.000000 1 0 0
-10.238467 13.622502 5.261189 17.834766 -0.926282 1.271345 0.001628 -0.009459 994416.000000 1 0 0
-5.735267 8.305502 2.451689 10.386791 -0.966449 1.332509 -0.001027 -0.001059 -1026310.000000 1 0 0
-2.400867 -10.671998 -1.257111 11.010724 1.349512 1.685217 0.005946 -0.000257 581036.000000 1 0 0
-2.230667 -12.470598 8.811289 15.431478 1.393794 0.963080 0.006831 -0.001357 425889.000000 1 0 0
-14.744567 -6.396698 -1.646311 16.156434 0.409329 1.672872 0.011223 -0.004192 315531.000000 1 0 0
-2.783567 -9.367198 3.265889 10.303333 1.281946 1.248259 0.007356 -0.002042 -1267660.000000 1 0 0
4.662733 -2.703198 7.466689 9.208681 -0.525393 0.625225 -0.001424 0.000098 -1436800.000000 1 0 0
-14.927667 -1.329898 -0.245711 14.988804 0.088855 1.587190 0.001697 -0.011004 -173742.000000 1 0 0
5.439933 8.758102 -2.742811 10.668656 1.014984 1.830807 0.005544 -0.002216 143061.000000 1 0 0
-5.668467 -5.654198 8.630789 11.772510 0.784138 0.747882 0.005040 0.001951 -3451260.000000 1 0 0
3.472733 3.646702 7.055189 8.667987 0.809829 0.619900 -0.003697 0.001786 -35531.500000 1 0 0
3.339033 2.287802 9.410789 10.244322 0.600703 0.406185 0.000143 -0.002483 -127768.000000 1 0 0
9.918933 -3.247498 5.257989 11.686656 -0.316405 1.104127 0.016055 -0.006908 -101880.000000 1 0 0
6.343833 10.027002 -4.986211 12.870403 1.006697 1.968624 0.007571 -0.004442 583514.000000 1 0 0
-4.410067 12.045602 -8.636711 15.464087 -1.219839 2.163374 -0.006331 -0.002611 -271339.000000 1 0 0
-3.316167 -7.259098 2.196689 8.277495 1.142278 1.302197 0.006822 -0.003100 1047650.000000 1 0 0
-7.458267 -4.077998 1.194489 8.583858 0.500364 1.431188 -0.001905 -0.002302 2632590.000000 1 0 0
-2.028067 -3.990898 -11.042211 11.915148 1.100632 2.756430 0.009592 -0.006406 -533680.000000 1 0 0
-5.274767 8.302902 -4.606611 10.861962 -1.004830 2.008770 -0.001183 -0.003479 -2048800.000000 1 0 0
-10.969367 -3.265598 -10.141911 15.292139 0.289347 2.295897 0.008984 -0.000658 -94448.100000 1 0 0
4.637233 -11.340498 -7.759511 14.502443 -1.182633 2.135362 -0.005069 0.000121 -2670390.000000 1 0 0
-9.344867 -3.955598 7.277789 12.487574 0.400422 0.948623 -0.002940 -0.000790 -445354.000000 1 0 0
-5.630767 -9.650298 -5.262811 12.350343 1.042612 2.011003 0.012783 -0.007700 -208967.000000 1 0 0
5.185933 4.285302 -9.565211 11.694057 0.690592 2.528643 -0.000807 0.003537 -37878.200000 1 0 0
-3.397667 -6.990198 -14.053411 16.059433 1.118361 2.636413 0.000151 -0.002340 -410691.000000 1 0 0
0.632933 -0.833898 -8.840311 8.902084 -0.921557 3.023719 0.005842 -0.007837 104007.000000 1 0 0
-7.707967 2.212602 -2.909211 8.530643 -0.279538 1.918809 -0.002795 -0.000668 -298882.000000 1 0 0
-2.233267 7.487302 -12.509011 14.748645 -1.280924 2.583273 0.002141 -0.006019 -384482.000000 1 0 0
-9.831867 8.843702 7.510989 15.208275 -0.732535 1.054256 -0.000727 -0.008091 -210683.000000 1 0 0
-10.606867 -3.213698 -14.435811 18.199619 0.294191 2.486831 0.008677 0.004701 -305695.000000 1 0 0
-3.329167 4.801002 7.928089 9.848226 -0.964492 0.635075 0.000649 -0.000524 73269.900000 1 0 0
8.710333 -2.415398 -3.476911 9.684676 -0.270506 1.938005 0.007446 0.000839 -4561910.000000 1 0 0
2.016433 -8.314498 -1.194811 8.638545 -1.332870 1.709553 -0.001586 0.000566 -544697.000000 1 0 0
-13.610767 -2.957998 5.011989 14.802796 0.214000 1.225385 0.013457 -0.010850 238790.000000 1 0 0
6.947533 2.752302 -1.897911 7.710087 0.377188 1.819512 0.008597 -0.001590 1417330.000000 1 0 0
-11.029367 4.436902 8.908989 14.856080 -0.382471 0.927687 -0.002505 -0.005161 -3619730.000000 1 0 0
-1.749467 -2.463298 8.147489 8.689652 0.953249 0.355110 -0.000659 -0.001359 -2063030.000000 1 0 0
3.332233 11.871602 -9.873111 15.796108 1.297148 2.245972 0.003772 -0.006507 379840.000000 1 0 0
3.676433 -5.047398 -7.145311 9.489355 -0.941275 2.423378 -0.001998 -0.002179 -37992.600000 1 0 0
8.179733 -13.836498 -9.665611 18.755819 -1.036894 2.112200 0.021058 -0.001228 325483.000000 1 0 0
-6.273667 -5.795298 -0.427011 8.551416 0.745783 1.620752 0.007535 -0.002542 -337032.000000 1 0 0
-1.115667 -4.063998 9.921589 10.779551 1.302872 0.401673 -0.002284 -0.001178 920653.000000 1 0 0
2.725533 3.342702 1.897689 4.712049 0.886755 1.156298 -0.003519 0.001582 -958419.000000 1 0 0
-9.219867 13.391702 7.727189 18.001474 -0.967846 1.127131 0.010483 -0.016032 441860.000000 1 0 0
4.139133 -11.108598 0.037989 11.854738 -1.214126 1.567592 -0.001737 -0.004415 -428400.000000 1 0 0
-12.559967 -1.471398 -9.076111 15.565782 0.116618 2.193312 0.004664 -0.002819 56895.400000 1 0 0
-4.292467 0.929602 -13.563911 14.257248 -0.213272 2.828448 0.012337 -0.007778 1023420.000000 1 0 0
3.940233 -3.022198 4.948589 7.010538 -0.654299 0.787134 -0.000418 0.002511 225556.000000 1 0 0
1.759933 -1.152198 1.109389 2.378165 -0.579660 1.085479 -0.001026 0.001167 745433.000000 1 0 0
8.172433 -9.040198 7.306789 14.209258 -0.835770 1.030690 0.007854 -0.005869 -1902810.000000 1 0 0
-0.039167 2.267302 -6.050911 6.461866 -1.553523 2.783032 0.002296 -0.004617 -1450930.000000 1 0 0
-3.679767 -9.821198 -3.445711 11.039454 1.212310 1.888227 0.008187 -0.002495 25286.200000 1 0 0
-9.386967 2.233102 -5.381811 11.048339 -0.233553 2.079580 0.000181 0.000116 -1126310.000000 1 0 0
9.011533 -7.517698 5.336389 12.891880 -0.695268 1.144025 0.005728 -0.005604 1749290.000000 1 0 0
-5.525267 -4.299798 4.676689 8.419517 0.661310 0.981883 -0.002262 0.000991 773077.000000 1 0 0
-0.172267 -12.478198 10.338489 16.205538 1.556992 0.878950 0.011022 -0.001313 -328439.000000 1 0 0
-14.248967 -8.219898 3.056689 16.731501 0.523244 1.387074 0.005837 -0.006808 -1196920.000000 1 0 0
10.801633 -1.260498 -3.522411 11.431164 -0.116170 1.884035 0.012623 0.000482 -452195.000000 1 0 0
-13.601767 2.998002 2.647989 14.177727 -0.216944 1.382922 -0.000084 -0.005155 -450467.000000 1 0 0
-6.245867 6.135602 1.091589 8.823153 -0.776493 1.446760 0.000492 -0.001416 409107.000000 1 0 0
7.167333 -6.902698 -0.533411 9.965061 -0.766592 1.624350 0.005208 -0.006248 -510416.000000 1 0 0
-6.895767 7.835002 10.021089 14.469315 -0.849072 0.805743 0.000880 -0.005473 22976.600000 1 0 0
-12.562067 -5.095898 -1.932911 13.693424 0.385374 1.712425 0.001390 -0.004490 -1210660.000000 1 0 0
-9.337567 -5.630398 0.148189 10.904747 0.542610 1.557207 0.004777 -0.003123 -1388650.000000 1 0 0
-1.783467 1.854702 2.104589 3.324149 -0.804975 0.885218 -0.001765 0.000601 -361808.000000 1 0 0
-7.090167 7.304002 7.514289 12.652409 -0.800253 0.934896 -0.001786 -0.005483 -311696.000000 1 0 0
5.587433 7.161302 -0.360211 9.090291 0.908230 1.610433 0.006922 -0.003374 -1699130.000000 1 0 0
-0.042867 -4.003998 7.496389 8.498805 1.560091 0.490596 -0.001328 0.001027 -664194.000000 1 0 0
6.491333 0.703502 13.117089 14.652315 0.107954 0.461865 -0.000522 -0.004789 596315.000000 1 0 0
5.778433 6.095102 -7.848611 11.495271 0.812062 2.322342 0.000531 -0.000288 -398569.000000 1 0 0
9.952433 5.335302 9.056989 14.475683 0.492093 0.894807 0.006129 0.000921 -2032870.000000 1 0 0
-1.266267 -5.005098 -8.577111 10.011058 1.323000 2.599758 0.003034 -0.002146 616968.000000 1 0 0
9.937933 -3.615198 -7.914911 13.209012 -0.348896 2.213305 0.009688 -0.001630 343751.000000 1 0 0
8.277133 -5.649798 1.317689 10.107792 -0.598938 1.440061 0.006134 -0.004278 1095480.000000 1 0 0
15.840233 3.193802 -5.015111 16.919358 0.198958 1.871731 0.017741 0.002457 -1280760.000000 1 0 0
-6.994167 3.647302 1.165489 7.973678 -0.480682 1.424104 -0.005503 -0.001206 1656750.000000 1 0 0
-1.755567 3.928902 0.325189 4.315557 -1.150578 1.495372 -0.001568 -0.001596 -320829.000000 1 0 0
-2.553567 10.020302 7.004289 12.489484 -1.321268 0.975427 -0.000766 0.000556 -769208.000000 1 0 0
5.451633 -5.682198 -8.849111 11.845440 -0.806104 2.414406 0.000288 -0.004706 -728451.000000 1 0 0
-1.233967 -0.875798 6.292689 6.472065 0.617234 0.235985 -0.000087 0.000268 576260.000000 1 0 0
-5.621567 4.931002 -7.810511 10.812996 -0.720051 2.377957 -0.001150 -0.004260 51767.800000 1 0 0
6.645433 -1.157598 2.556489 7.213698 -0.172464 1.208531 0.004006 -0.000281 -816199.000000 1 0 0
8.698533 7.560902 3.182089 11.956479 0.715545 1.301411 0.005368 -0.001537 -722069.000000 1 0 0
-5.261367 -4.950398 -7.726511 10.577684 0.754956 2.389783 0.009283 -0.006372 906948.000000 1 0 0
-2.233867 7.874902 -10.041611 12.955238 -1.294388 2.457670 0.001590 -0.005031 433322.000000 1 0 0
-2.904967 -2.424098 1.651589 4.128297 0.695407 1.159208 -0.003210 0.004221 849585.000000 1 0 0
5.863233 -1.976598 -9.200411 11.087471 -0.325152 2.549550 0.001335 0.000552 1549770.000000 1 0 0
1.115833 -7.634198 5.107689 9.252813 -1.425662 0.986018 -0.000245 -0.001279 532040.000000 1 0 0
1.671733 11.680402 1.173489 11.857637 1.428639 1.471669 0.003166 -0.001470 238784.000000 1 0 0
-1.213867 7.005202 2.498889 7.535965 -1.399219 1.232803 -0.001769 0.002190 672747.000000 1 0 0
8.631333 7.811902 -6.526011 13.345956 0.735605 2.081725 0.006034 -0.005772 138071.000000 1 0 0
3.777933 -10.914098 5.445289 12.768770 -1.237554 1.130228 0.004520 0.001872 829399.000000 1 0 0
7.874733 -6.997198 12.309689 16.201872 -0.726460 0.707838 0.006852 -0.000588 183063.000000 1 0 0
-8.622667 0.053802 -3.985311 9.499263 -0.006239 2.003734 -0.000988 0.000349 -685872.000000 1 0 0
-3.265767 -5.034998 11.213789 12.718707 0.995397 0.491392 0.005277 -0.003217 149801.000000 1 0 0
-8.275367 0.095402 -11.669111 14.305906 -0.011528 2.524708 0.003595 -0.002262 -1262370.000000 1 0 0
1.471333 -5.113698 5.345889 7.542762 -1.290640 0.783080 -0.001241 0.002936 -416061.000000 1 0 0
6.699233 3.729502 -7.586311 10.786149 0.507977 2.350879 -0.000048 0.000813 -1114940.000000 1 0 0
16.284133 4.147002 -1.109311 16.840462 0.249365 1.636716 0.005055 0.009416 -1758790.000000 1 0 0
7.882233 7.438302 0.229389 10.840228 0.756430 1.549634 0.007386 -0.003784 -1566840.000000 1 0 0
5.426333 -10.374198 13.984589 18.238361 -1.088871 0.697006 0.010445 0.004427 587728.000000 1 0 0
-5.190367 -9.197198 8.990689 13.869422 1.057009 0.865528 0.005020 -0.003487 360392.000000 1 0 0
-12.636467 -3.232798 2.820589 13.344925 0.250459 1.357830 0.003844 -0.006075 170381.000000 1 0 0
-2.023467 -1.194098 -6.021311 6.463473 0.533127 2.769561 0.001806 -0.004029 -179539.000000 1 0 0
-2.542467 12.991302 -4.305511 13.920326 -1.377534 1.885250 -0.003784 0.002907 363265.000000 1 0 0
3.839033 -0.417998 -4.958011 6.284486 -0.108454 2.479860 0.004355 0.001027 193221.000000 1 0 0
-8.769867 3.777202 -7.388711 12.073561 -0.406691 2.229351 -0.001079 -0.001238 443884.000000 1 0 0
-4.520267 7.985802 -11.384511 14.622344 -1.055723 2.463179 0.001920 -0.004447 -2671360.000000 1 0 0
-10.086267 -6.472698 7.374489 14.071663 0.570542 1.019178 0.000720 0.000974 -1610770.000000 1 0 0
8.045733 5.289002 4.228389 10.516018 0.581537 1.156998 0.001359 -0.000271 -1543800.000000 1 0 0
-6.712967 -7.488998 3.962289 10.809660 0.839986 1.195497 0.008814 -0.001236 -702237.000000 1 0 0
-4.109367 11.879402 8.126689 14.968305 -1.237758 0.996878 0.001139 -0.008148 11653.900000 1 0 0
-7.151767 9.961102 -7.896211 14.584974 -0.948112 2.142890 0.003275 -0.003292 -908425.000000 1 0 0
13.101733 5.501102 4.689089 14.963458 0.397522 1.252057 0.002911 -0.001914 915995.000000 1 0 0
5.329033 3.994502 -3.656311 7.597582 0.643228 2.072873 0.004336 0.000074 639906.000000 1 0 0
-2.778767 -4.321498 5.289289 7.373837 0.999351 0.770870 0.001975 0.002933 -819745.000000 1 0 0
12.393433 -2.365798 -5.208811 13.650124 -0.188622 1.962317 0.013145 -0.000533 -1686020.000000 1 0 0
-5.222167 9.802502 7.025889 13.142419 -1.081302 1.006766 -0.000607 -0.001179 -311980.000000 1 0 0
1.693633 3.889302 -0.400211 4.260895 1.160100 1.664862 0.000973 -0.002800 454687.000000 1 0 0
-0.116967 9.628402 7.728089 12.346787 -1.558649 0.894487 -0.000978 0.001106 -1210630.000000 1 0 0
-5.615467 2.177302 5.921289 8.446051 -0.369887 0.793897 -0.003254 0.000154 560629.000000 1 0 0
8.848733 0.871602 10.707389 13.917900 0.098183 0.693012 0.006361 -0.002819 -1907160.000000 1 0 0
0.400333 -2.873398 -10.223911 10.627561 -1.432364 2.865099 0.006269 -0.006459 -1575040.000000 1 0 0
1.226533 10.571102 -2.739011 10.988847 1.455286 1.822706 0.002503 -0.002974 -1742330.000000 1 0 0
2.137933 -4.330698 11.625289 12.588608 -1.112226 0.393750 -0.006196 -0.001004 984042.000000 1 0 0
6.417633 -2.945998 9.425589 11.777378 -0.430352 0.642979 0.001203 -0.005327 256664.000000 1 0 0
-10.635367 -8.250498 5.569389 14.567081 0.659785 1.178483 0.009262 -0.001563 -761885.000000 1 0 0
-3.073767 0.819202 -7.043411 7.728439 -0.260460 2.717379 0.004786 -0.004149 541632.000000 1 0 0
11.117533 2.654602 -5.040311 12.492045 0.234387 1.986115 0.005280 -0.001338 -1830890.000000 1 0 0
-1.942867 -4.019198 0.006589 4.464161 1.120519 1.569320 0.000442 0.000156 1064000.000000 1 0 0
-1.280567 -6.493798 -10.632311 12.524189 1.376096 2.584777 0.006444 -0.003104 1278100.000000 1 0 0
0.380233 6.876002 -6.615511 9.549291 1.515554 2.336126 0.002763 -0.003063 -3193610.000000 1 0 0
2.091933 3.792802 -6.129911 7.505820 1.066761 2.526444 0.000737 -0.002368 -1651990.000000 1 0 0
1.584433 -14.774898 6.477289 16.209976 -1.463966 1.159731 0.014395 -0.006588 -381920.000000 1 0 0
-1.832667 5.347402 -10.508011 11.931960 -1.240621 2.648052 0.006871 -0.006178 -461814.000000 1 0 0
13.648433 4.272602 -0.753811 14.321420 0.303383 1.623456 0.005982 0.001162 -598747.000000 1 0 0
-2.375967 3.339602 -6.383011 7.585578 -0.952426 2.570788 0.003355 -0.007384 -414240.000000 1 0 0
5.735833 7.879902 14.266989 17.278299 0.941586 0.599324 0.016964 -0.005251 229537.000000 1 0 0
16.081133 0.654802 -5.747211 17.089822 0.040696 1.913776 0.026547 0.000927 243269.000000 1 0 0
6.100533 -8.271498 10.658789 14.806889 -0.935320 0.767205 0.003304 0.001340 773176.000000 1 0 0
-0.056867 -5.926098 -6.361811 8.694511 1.561201 2.391615 -0.002630 -0.000410 -919544.000000 1 0 0
8.747133 5.474602 -7.458411 12.732301 0.559227 2.196647 0.001605 0.000787 121196.000000 1 0 0
-15.954567 -0.828298 5.256289 16.818527 0.051869 1.252941 0.020371 -0.014754 -178450.000000 1 0 0
-0.379667 4.060302 -12.294911 12.953572 -1.477560 2.821328 0.009309 -0.008445 803731.000000 1 0 0
-11.226867 3.663802 5.953089 13.225175 -0.315445 1.103882 -0.001683 -0.004865 324871.000000 1 0 0
5.233233 -9.571398 -9.638611 14.556827 -1.070446 2.294463 -0.000976 -0.001521 106133.000000 1 0 0
1.626733 11.157002 -11.597611 16.174966 1.426013 2.370300 0.004509 -0.004913 -1917420.000000 1 0 0
5.979833 2.347502 1.222789 6.539448 0.374085 1.382703 0.005427 -0.000652 139856.000000 1 0 0
5.651933 4.641802 4.947589 8.830023 0.687581 0.976031 -0.001743 0.000455 -594706.000000 1 0 0
0.485933 -1.608998 -6.417111 6.633575 -1.277497 2.885426 -0.001423 -0.001845 611613.000000 1 0 0
12.735133 6.820502 -4.466511 15.121262 0.491694 1.870649 0.004194 -0.006435 -928345.000000 1 0 0
7.321333 3.218302 12.724689 15.029208 0.414154 0.561112 0.003316 -0.003121 -77871.100000 1 0 0
-2.715867 -0.144198 8.606589 9.026079 0.053045 0.306071 0.003228 0.000491 980425.000000 1 0 0
2.357433 -15.346298 13.129489 20.333466 -1.418372 0.868846 0.010305 0.001170 -64383.500000 1 0 0
18.808433 4.661702 -1.492911 19.434953 0.242956 1.647688 -0.002234 0.006922 396825.000000 1 0 0
-0.334967 -13.237598 7.182189 15.064198 1.545497 1.073817 0.005994 -0.002874 -1704590.000000 1 0 0
4.308533 1.649002 -0.562711 4.647505 0.365530 1.692172 0.004514 -0.002791 527377.000000 1 0 0
2.785133 -0.461698 -7.397311 7.917723 -0.164279 2.777010 0.000079 -0.000614 -406171.000000 1 0 0
7.245133 -11.212498 0.926889 13.381748 -0.997121 1.501476 0.000497 -0.002739 262732.000000 1 0 0
-11.708667 -7.379498 1.255089 13.896947 0.562372 1.480359 0.008960 -0.001816 354161.000000 1 0 0
0.177333 -7.007198 10.138689 12.325798 -1.545494 0.604901 -0.002492 -0.001772 -2044900.000000 1 0 0
-4.607067 -7.142798 10.631289 13.611353 0.997948 0.674434 0.008493 -0.000897 -1170340.000000 1 0 0
11.803533 0.761102 -1.677911 11.946466 0.064392 1.711715 0.008394 0.000385 1702280.000000 1 0 0
6.499833 -9.621498 -7.440011 13.790389 -0.976667 2.140648 -0.002986 -0.003241 411326.000000 1 0 0
-10.965367 4.738502 3.557589 12.463912 -0.407897 1.281340 -0.004868 -0.004428 544683.000000 1 0 0
6.077533 -9.007598 2.047289 11.057333 -0.977245 1.384570 0.002766 -0.004811 3002450.000000 1 0 0
11.617433 -1.373498 5.854889 13.081703 -0.117681 1.106758 0.017850 -0.008742 -371017.000000 1 0 0
-6.476667 3.622402 4.092189 8.474374 -0.509955 1.066845 -0.006124 -0.000099 -2011620.000000 1 0 0
9.494533 6.306202 -3.136911 11.821783 0.586288 1.839363 0.008960 -0.001525 281616.000000 1 0 0
-2.299767 6.538902 10.949789 12.959323 -1.232603 0.564352 0.000935 -0.003632 -824015.000000 1 0 0
1.968633 9.874002 3.111489 10.538159 1.374001 1.271069 -0.002241 -0.000803 -112071.000000 1 0 0
2.866233 6.047002 -5.538311 8.686450 1.128170 2.262150 0.001908 -0.002191 -2098550.000000 1 0 0
11.870633 0.031702 -5.599311 13.124984 0.002671 2.011543 0.010347 0.000339 323784.000000 1 0 0
-2.641567 -12.466098 6.288489 14.210087 1.361985 1.112371 0.004829 -0.001839 292155.000000 1 0 0
10.838133 1.851302 -2.790811 11.343768 0.169181 1.819370 0.006429 -0.000706 22849.900000 1 0 0
-8.856367 5.524502 0.841589 10.472040 -0.557728 1.490344 -0.002911 -0.002913 -600809.000000 1 0 0
1.223133 -10.166698 5.586989 11.665001 -1.451064 1.071335 0.002619 -0.002085 -346900.000000 1 0 0
9.473533 -5.761398 -1.178111 11.150313 -0.546396 1.676651 0.008370 -0.003663 786097.000000 1 0 0
-7.750567 8.604402 -4.578511 12.452702 -0.837557 1.947301 0.000320 -0.001289 -1113600.000000 1 0 0
-7.459767 0.011902 -1.634311 7.636704 -0.001595 1.786472 -0.005519 0.000288 -621910.000000 1 0 0
4.072733 8.837402 2.643289 10.083343 1.138955 1.305553 0.004596 -0.002468 -341051.000000 1 0 0
-1.312267 -10.495498 -3.846711 11.254986 1.446410 1.919605 0.004099 0.002190 -343574.000000 1 0 0
3.151633 7.760302 -3.573311 9.106241 1.185023 1.974038 0.006362 -0.006246 -486896.000000 1 0 0
-4.374567 1.651702 -11.119311 12.062505 -0.361021 2.743515 0.006787 -0.007544 -693668.000000 1 0 0
1.344633 2.796902 11.094489 11.520346 1.122660 0.272748 0.001970 -0.001355 464878.000000 1 0 0
2.165333 5.565902 -8.053211 10.026073 1.199778 2.503489 0.000841 -0.001109 72667.400000 1 0 0
15.548533 6.065102 4.127689 17.192444 0.371922 1.328340 0.005073 -0.004417 189630.000000 1 0 0
-4.459767 9.049902 4.598489 11.087666 -1.112927 1.143140 0.000740 0.001326 -350374.000000 1 0 0
-0.794067 -8.295298 -12.345511 14.894770 1.475362 2.547843 0.007004 -0.004500 462724.000000 1 0 0
14.231333 -4.216098 -5.297911 15.759892 -0.288017 1.913637 0.022355 -0.001459 1022460.000000 1 0 0
-5.964567 -6.265298 -5.611911 10.311332 0.809983 2.146288 0.009720 -0.002231 348633.000000 1 0 0
-9.026167 2.589202 -12.228111 15.417599 -0.279354 2.486722 0.001365 -0.003102 297436.000000 1 0 0
10.599733 5.444602 13.707289 18.162813 0.474512 0.715615 0.027414 0.000920 640998.000000 1 0 0
-0.485867 10.816602 5.518689 12.152813 -1.525908 1.099426 -0.001336 0.004419 425196.000000 1 0 0
0.152233 11.205802 -0.601811 11.222983 1.557212 1.624445 0.002263 -0.002302 15626.200000 1 0 0
-1.527267 -0.520498 3.756789 4.088634 0.328459 0.405673 -0.001391 0.002076 462294.000000 1 0 0
-4.851567 6.741202 8.846889 12.134618 -0.946978 0.753846 0.000940 -0.003888 -1084450.000000 1 0 0
3.498633 -8.697298 -11.375911 14.740922 -1.188337 2.452343 -0.001600 0.002284 597428.000000 1 0 0
6.596033 -3.749798 12.026189 14.219629 -0.516930 0.562835 0.000261 -0.002530 -542947.000000 1 0 0
-2.396167 -1.926798 -12.641311 13.009878 0.677246 2.902995 0.008512 -0.009352 1121010.000000 1 0 0
-16.130667 -4.947298 5.368089 17.705665 0.297593 1.262763 0.025886 -0.008867 736393.000000 1 0 0
-8.871667 7.323902 5.667189 12.824315 -0.690120 1.113070 -0.003974 -0.005022 -2661870.000000 1 0 0
-12.849767 1.544602 6.042889 14.283516 -0.119631 1.133968 -0.000574 -0.007838 330283.000000 1 0 0
-3.497967 3.685902 10.257389 11.447081 -0.811553 0.459960 0.002963 -0.003001 222378.000000 1 0 0
2.088933 -12.133998 -1.167111 12.367688 -1.400312 1.665305 0.000377 -0.000094 -1852510.000000 1 0 0
10.346533 -5.164398 -3.616311 12.116083 -0.462962 1.873888 0.012510 -0.000937 582972.000000 1 0 0
2.901733 -13.246798 1.021889 13.599337 -1.355151 1.495583 0.000254 -0.001541 663271.000000 1 0 0
10.007133 -1.775298 -6.136411 11.872234 -0.175577 2.113988 0.011754 0.001842 877258.000000 1 0 0
11.994533 -5.380598 -1.533111 13.235184 -0.421679 1.686893 0.012614 -0.001632 -912574.000000 1 0 0
1.351733 0.988302 5.916689 6.149075 0.631319 0.275799 -0.001616 0.001493 102508.000000 1 0 0
-10.787667 11.697802 6.651489 17.246873 -0.825853 1.174870 0.001097 -0.008390 -1568240.000000 1 0 0
4.779633 -13.994198 2.991489 15.087461 -1.241675 1.371197 0.007586 -0.004827 -2546730.000000 1 0 0
5.268933 -3.394098 -1.682111 6.489303 -0.572267 1.833003 0.005173 -0.000842 -1597750.000000 1 0 0
2.102833 -2.896398 -7.792911 8.575575 -0.942822 2.711035 -0.001370 -0.002088 71866.600000 1 0 0
-2.737067 14.862702 -8.783611 17.479796 -1.388680 2.097285 0.000895 -0.001167 -2250890.000000 1 0 0
-2.253567 6.073802 -8.100111 10.372147 -1.215510 2.466979 0.004326 -0.006201 -544538.000000 1 0 0
2.500633 -3.563498 -11.520011 12.315127 -0.958907 2.780286 0.004496 -0.004673 -2574560.000000 1 0 0
14.775533 2.767702 -2.689711 15.271250 0.185171 1.747849 0.017186 0.004182 781443.000000 1 0 0
-3.589767 13.145102 2.325489 13.823459 -1.304209 1.401765 -0.003407 0.001141 -1183830.000000 1 0 0
7.806933 -4.920098 13.981889 16.752575 -0.562345 0.583370 0.004428 -0.001415 -1711020.000000 1 0 0
-11.400667 7.166602 2.856589 13.765736 -0.561193 1.361763 -0.004827 -0.002326 661615.000000 1 0 0
-2.330267 11.805002 3.983189 12.674936 -1.375905 1.251122 -0.003105 0.002961 669198.000000 1 0 0
1.697833 1.521802 0.721589 2.391486 0.730778 1.264287 -0.000697 -0.000098 -1315210.000000 1 0 0
-6.811267 8.640002 5.271489 12.199655 -0.903205 1.123975 -0.001518 -0.005308 -1293430.000000 1 0 0
-1.185767 9.073602 0.887589 9.193699 -1.440850 1.474103 -0.000061 0.000534 539493.000000 1 0 0
5.047633 13.172102 -8.443811 16.440219 1.204851 2.110180 0.013337 -0.010264 -2011760.000000 1 0 0
8.894233 6.918702 7.183489 13.363320 0.661111 1.003264 0.000637 0.001168 -1748890.000000 1 0 0
7.268133 -13.663298 2.934589 15.751930 -1.081920 1.383401 0.011261 -0.004759 -730883.000000 1 0 0
4.177233 -13.368498 -1.272011 14.063571 -1.267940 1.661367 -0.003557 0.006034 -2786780.000000 1 0 0
12.173333 -11.939698 -4.530711 17.642952 -0.775709 1.830506 0.031396 -0.008644 -657811.000000 1 0 0
2.803033 -0.042698 -1.896411 3.384552 -0.015232 2.165561 0.003703 -0.000554 2274670.000000 1 0 0
-13.574267 -3.102898 -10.703811 17.563037 0.224726 2.226164 0.009074 -0.003054 -289752.000000 1 0 0
-6.782367 13.639002 4.972389 16.023343 -1.109329 1.255265 0.009093 -0.009953 682972.000000 1 0 0
7.336133 -4.312498 -0.528811 8.526202 -0.531433 1.632858 0.004176 -0.000267 -1482040.000000 1 0 0
11.802933 2.033902 -7.256811 14.003831 0.170646 2.115543 0.011127 0.000734 -794350.000000 1 0 0
-7.514967 -4.600098 9.794089 13.174210 0.549287 0.732614 0.001091 0.001082 303751.000000 1 0 0
0.957433 2.746902 8.562689 9.043328 1.235414 0.327494 -0.001057 -0.000150 -1621190.000000 1 0 0
1.656733 8.050702 -8.789911 12.034164 1.367842 2.389723 0.003436 -0.002955 -659770.000000 1 0 0
-8.516567 -2.106598 -5.519311 10.364964 0.242486 2.132344 0.004917 -0.000484 -1441260.000000 1 0 0
6.608933 -0.448798 7.110389 9.717872 -0.067804 0.750011 0.002789 -0.001702 122302.000000 1 0 0
-10.906867 6.517602 7.086589 14.548492 -0.538630 1.062029 -0.001330 -0.007428 531862.000000 1 0 0
-6.008567 11.091202 4.901889 13.533150 -1.074316 1.200155 -0.002255 -0.002376 281066.000000 1 0 0
6.090633 -1.199198 -6.912211 9.290455 -0.194406 2.409852 0.000120 0.000799 -52192.400000 1 0 0
4.402433 -5.692998 11.399789 13.481351 -0.912545 0.563114 -0.004157 0.000551 -1347910.000000 1 0 0
-8.936067 -7.394598 2.644289 11.896455 0.691286 1.346649 0.009836 -0.002213 -3508600.000000 1 0 0
-1.219067 12.709702 -9.321311 15.808526 -1.475173 2.201407 0.004168 -0.000899 311022.000000 1 0 0
-4.693167 9.326102 -2.419611 10.717113 -1.104569 1.798531 -0.003453 -0.002132 387631.000000 1 0 0
-3.257667 9.774002 -0.379711 10.309592 -1.249076 1.607636 -0.000180 -0.003667 -2116980.000000 1 0 0
-3.331667 10.744902 -6.435211 12.960126 -1.270127 2.090404 -0.003290 -0.001331 168500.000000 1 0 0
4.888533 -4.856798 0.406389 6.902999 -0.782142 1.511891 0.004782 -0.003268 -1587070.000000 1 0 0
-2.272567 2.909002 -10.839611 11.450940 -0.907613 2.813359 0.010629 -0.006322 -1714030.000000 1 0 0
-3.657767 12.148702 -2.164811 12.870766 -1.278346 1.739796 -0.004025 0.001667 -190859.000000 1 0 0
-0.164767 0.419402 0.007989 0.450677 -1.196458 1.553069 -0.004162 0.000572 -2318090.000000 1 0 0
-4.889067 -1.782898 0.111789 5.205209 0.349684 1.549318 -0.006163 0.001156 155416.000000 1 0 0
2.437533 2.423802 -2.465311 4.230147 0.782574 2.192961 0.001186 -0.002135 2120830.000000 1 0 0
6.094333 -9.549398 8.520989 14.175301 -1.002768 0.925900 0.002216 -0.000963 -1966980.000000 1 0 0
-4.340667 -5.547798 6.698189 9.720349 0.906872 0.810565 0.000480 -0.000596 330751.000000 1 0 0
-6.278967 5.229002 -12.019611 14.534061 -0.694412 2.544540 0.001581 -0.004095 1147380.000000 1 0 0
-12.837267 3.036702 8.032689 15.444775 -0.232284 1.023839 -0.000407 -0.007502 651352.000000 1 0 0
4.625233 -7.412398 -5.008711 10.070929 -1.012927 2.091330 -0.000581 -0.003287 -1048610.000000 1 0 0
-6.006567 2.498402 -1.017911 6.584604 -0.394176 1.726008 -0.004005 -0.000743 -755285.000000 1 0 0
-6.845767 -2.794798 -14.638811 16.400312 0.387600 2.673861 0.010546 -0.001790 -29187.400000 1 0 0
2.792133 -6.035698 0.924789 6.714231 -1.137511 1.432621 0.000433 -0.002123 -386975.000000 1 0 0
4.777133 -7.908898 12.997889 15.947313 -1.027426 0.617977 0.002203 0.002349 -6683.440000 1 0 0
-9.995567 -1.613198 8.029289 12.922200 0.160012 0.900324 0.002737 -0.002497 -301240.000000 1 0 0
-4.468667 13.246102 -0.070711 13.979742 -1.245429 1.575854 -0.002403 0.001135 529250.000000 1 0 0
6.824633 2.232802 -4.406711 8.424970 0.316192 2.121226 0.004142 0.001448 -896341.000000 1 0 0
5.127833 4.554402 0.035289 6.858461 0.726242 1.565651 0.002133 -0.001271 -1099070.000000 1 0 0
-5.932167 12.265302 1.860889 13.751041 -1.120310 1.435053 -0.001270 -0.000208 694723.000000 1 0 0
6.601133 -7.267498 6.553589 11.804279 -0.833410 0.982208 0.001673 -0.002857 -1380710.000000 1 0 0
-0.294467 4.941502 7.919489 9.339350 -1.511276 0.558653 -0.002130 0.000534 -940017.000000 1 0 0
-5.773967 -3.436498 -1.662511 6.921861 0.536861 1.813350 0.000506 0.000164 -1235270.000000 1 0 0
2.237933 -6.499998 -5.239811 8.643723 -1.239211 2.222068 -0.003618 0.002180 -1397750.000000 1 0 0
-14.366267 -4.814898 -3.786911 15.617733 0.323387 1.815713 0.008556 -0.008062 3194.360000 1 0 0
-12.353867 -5.104098 -6.365911 14.805225 0.391798 2.015264 0.010446 -0.006435 -1399060.000000 1 0 0
-14.712767 -3.767798 -1.343211 15.246837 0.250703 1.659008 0.003399 -0.005838 214794.000000 1 0 0
11.898933 2.898702 8.607989 14.969454 0.238956 0.958147 0.015404 -0.007152 -1411890.000000 1 0 0
8.688333 -6.499598 7.740089 13.328199 -0.642273 0.951171 0.010235 -0.008973 -82542.600000 1 0 0
-8.797667 -1.762698 -9.818311 13.300575 0.197741 2.401175 0.002065 -0.001330 -194188.000000 1 0 0
-8.826167 5.070902 -3.902511 10.901599 -0.521481 1.936896 -0.000258 -0.004612 -1212710.000000 1 0 0
-4.105167 -6.301798 4.162789 8.596154 0.993418 1.065277 0.005145 -0.000378 -1142430.000000 1 0 0
-0.113267 -9.330998 3.549089 9.983806 1.558658 1.207364 0.003591 -0.003340 791760.000000 1 0 0
7.973633 -10.240598 3.318889 13.396406 -0.909223 1.320445 0.000636 -0.005160 616910.000000 1 0 0
-0.043067 6.481002 9.765489 11.720495 -1.564151 0.585931 0.000979 -0.003066 760684.000000 1 0 0
-0.038767 3.551102 -9.748711 10.375413 -1.559880 2.792249 0.006520 -0.006052 1247440.000000 1 0 0
4.437433 -3.039898 11.051989 12.291389 -0.600627 0.452938 -0.002237 -0.003161 -2961960.000000 1 0 0
8.581133 -9.065998 1.180289 12.538790 -0.812867 1.476526 0.004195 -0.005525 8503.200000 1 0 0
-0.338967 -0.449198 11.395489 11.409375 0.924355 0.049343 0.003507 -0.002805 -1515550.000000 1 0 0
10.883533 6.037202 11.350189 16.844164 0.506452 0.831409 0.013396 0.002255 -237144.000000 1 0 0
-6.345867 -3.043198 -12.004011 13.915005 0.447159 2.611315 0.008809 -0.003719 493804.000000 1 0 0
-1.678467 2.856602 8.555489 9.174629 -1.039563 0.369478 0.002374 -0.001976 272682.000000 1 0 0
-1.677867 13.495002 -6.805411 15.206707 -1.447099 2.034794 -0.000511 -0.000867 554461.000000 1 0 0
7.642033 3.110802 9.937489 12.916324 0.386582 0.692935 0.002589 -0.003917 411926.000000 1 0 0
6.503233 8.487302 -8.033111 13.373750 0.916988 2.215126 0.005549 -0.004164 -1347580.000000 1 0 0
6.643633 -2.960298 -3.891411 8.248897 -0.419176 2.062070 0.004699 -0.000968 -2962260.000000 1 0 0
1.947633 8.230802 0.988389 8.515649 1.338443 1.454467 0.000208 0.000671 765638.000000 1 0 0
-17.581067 6.335102 6.320689 19.727609 -0.345854 1.244647 0.033348 -0.013475 -443003.000000 1 0 0
-14.610867 3.106702 -10.149211 18.059223 -0.209509 2.167593 0.018917 -0.004228 -1616200.000000 1 0 0
-18.174367 0.118402 -4.540411 18.733312 -0.006515 1.815605 0.027770 -0.010819 -219155.000000 1 0 0
-13.036767 7.955902 0.099989 15.272972 -0.547934 1.564249 0.003392 0.000715 -504652.000000 1 0 0
-12.621067 -4.370098 -12.846511 18.531647 0.333334 2.336744 0.011777 0.003659 -1287820.000000 1 0 0
-17.323167 -0.580798 -8.593211 19.346130 0.033515 2.031058 0.023151 -0.005331 564326.000000 1 0 0
-16.573367 -2.110598 -2.062311 16.834021 0.126667 1.693613 0.021348 -0.010214 -171721.000000 1 0 0
-15.389667 4.019602 1.667689 15.993131 -0.255481 1.466331 0.008747 -0.003696 -371189.000000 1 0 0
-13.024767 5.813102 4.438289 14.937708 -0.419782 1.269122 0.000498 -0.004635 -253170.000000 1 0 0
-10.132067 14.182402 2.701889 17.638013 -0.950464 1.417005 0.017117 -0.009738 -286802.000000 1 0 0
-11.778167 2.470202 -6.469211 13.663009 -0.206731 2.064038 -0.000326 0.001529 282991.000000 1 0 0
-16.007567 10.725602 3.882089 19.655822 -0.590330 1.371986 0.024565 -0.008351 -301015.000000 1 0 0
-12.677767 1.090902 -8.662311 15.393228 -0.085837 2.168487 0.000824 -0.000456 757727.000000 1 0 0
-12.356767 14.401302 3.826389 19.357904 -0.861658 1.371821 0.017118 -0.012684 449856.000000 1 0 0
-10.422767 11.073602 -0.992111 15.239521 -0.815665 1.635944 0.007914 -0.001822 -553741.000000 1 0 0
-17.009067 5.639302 8.733889 19.934666 -0.320142 1.117284 0.019968 -0.015814 286087.000000 1 0 0
-11.656667 12.578402 -9.156911 19.440759 -0.823413 2.061239 0.018999 -0.014050 -1181770.000000 1 0 0
-17.158667 -0.446098 3.085689 17.439620 0.025993 1.392924 0.027449 -0.012977 590415.000000 1 0 0
-13.089267 14.798602 -0.992011 19.781598 -0.846615 1.620966 0.029720 -0.011380 -428376.000000 1 0 0
-16.478267 4.753902 -10.484411 20.101138 -0.280869 2.119502 0.040266 -0.002604 381795.000000 1 0 0
-11.750467 7.529602 -8.970611 16.590366 -0.569875 2.142080 0.009395 -0.001786 -258131.000000 1 0 0
-14.848267 13.406702 -2.159411 20.121475 -0.734422 1.678322 0.045655 -0.017202 -259680.000000 1 0 0
-11.837567 10.579502 -5.529011 16.811419 -0.729336 1.905918 0.023269 -0.009950 825917.000000 1 0 0
-17.686067 2.828202 -0.871211 17.931947 -0.158569 1.619400 0.027039 -0.004598 -878351.000000 1 0 0
-9.587967 15.268802 0.448089 18.035138 -1.010082 1.545948 0.021670 -0.012214 277950.000000 1 0 0
-8.215767 13.300202 -3.776611 16.082817 -1.017451 1.807833 0.002918 -0.003686 -531441.000000 1 0 0
-17.908167 11.697002 2.339089 21.517287 -0.578597 1.461874 0.067357 0.003563 -19719.300000 1 0 0
-8.094967 15.730702 -7.154911 19.083402 -1.095540 1.955116 0.029428 -0.024032 29693.200000 1 0 0
-6.291867 15.201002 -5.378111 17.308441 -1.178355 1.886749 0.005877 -0.004675 -766599.000000 1 0 0
-17.476467 5.286202 -0.210511 18.259659 -0.293726 1.582325 0.040073 -0.003189 723468.000000 1 0 0
-5.311567 12.189102 -12.108811 17.983611 -1.159844 2.309493 -0.014017 -0.004719 -338442.000000 1 0 0
-11.177067 3.711902 -11.421611 16.406043 -0.320640 2.340863 0.003111 -0.001100 95850.500000 1 0 0
-12.108967 10.936302 1.051189 16.350376 -0.734557 1.506461 0.011113 -0.004900 527142.000000 1 0 0
-12.953867 0.128602 -11.052011 17.028393 -0.009927 2.277111 0.008323 -0.004952 547563.000000 1 0 0
-14.186167 -2.373698 -13.158511 19.494312 0.165789 2.311751 0.024592 0.001820 256070.000000 1 0 0
-18.605867 -2.154198 -3.735711 19.099068 0.115267 1.767662 0.020205 -0.009140 769130.000000 1 0 0
-18.355067 4.795002 -5.137711 19.654430 -0.255525 1.835271 0.041301 -0.009115 625346.000000 1 0 0
-8.228267 15.503002 -2.258011 17.695933 -1.082850 1.698746 0.013065 -0.007755 -1264860.000000 1 0 0
-16.192167 9.049202 -5.263711 19.281623 -0.509622 1.847297 0.046004 -0.007460 378238.000000 1 0 0
-18.234767 1.694602 2.081889 18.431296 -0.092666 1.457601 0.046180 -0.013660 1183460.000000 1 0 0
-15.619567 -2.686498 -8.571111 18.018105 0.170329 2.066550 0.004975 -0.004587 -934004.000000 1 0 0
-9.490567 10.521702 -7.015011 15.810992 -0.836878 2.030496 0.009946 -0.009269 684291.000000 1 0 0
-13.990267 11.917302 -7.905711 20.006247 -0.705554 1.977041 0.045451 -0.020172 1453300.000000 1 0 0
-11.008667 6.480002 -3.929911 13.365081 -0.532015 1.869251 0.004005 -0.002154 48616.200000 1 0 0
-13.245967 4.838702 -12.591711 18.905551 -0.350236 2.299673 0.022885 -0.003197 353488.000000 1 0 0
-17.597167 9.067102 2.662089 19.973967 -0.475780 1.437121 0.034454 -0.012622 804430.000000 1 0 0
-13.377967 8.809202 -6.705511 17.364790 -0.582318 1.967257 0.023338 -0.004880 -992262.000000 1 0 0
-15.829467 6.946802 -3.765911 17.692150 -0.413545 1.785295 0.020282 0.000151 -570146.000000 1 0 0
-14.941167 -0.259298 -9.340011 17.622188 0.017353 2.129414 0.013742 -0.004431 906973.000000 1 0 0
-9.997267 5.811802 -6.117211 13.082151 -0.526585 2.057370 0.000733 0.000295 193734.000000 1 0 0
-12.683867 12.151602 -1.125811 17.601402 -0.763970 1.634801 0.023705 -0.009181 -367797.000000 1 0 0
-10.657667 3.432002 -14.018711 17.941259 -0.311536 2.467650 0.003839 0.003958 501662.000000 1 0 0
-11.049467 6.260402 -12.052711 17.508604 -0.515483 2.330061 0.002318 0.000363 -483387.000000 1 0 0
-5.668367 11.555302 -14.666311 19.512972 -1.114743 2.421309 -0.003025 -0.008861 -284947.000000 1 0 0
-15.534767 13.284802 3.470589 20.733064 -0.707485 1.402611 0.015054 -0.017054 200853.000000 1 0 0
-15.080967 11.006602 -3.159511 18.935769 -0.630469 1.738435 0.044209 -0.008677 554179.000000 1 0 0
-18.235967 7.650302 -4.482311 20.277296 -0.397218 1.793688 0.046238 -0.005545 194294.000000 1 0 0
-3.827267 16.196302 -10.708611 19.789960 -1.338748 2.142557 -0.000741 0.000022 -91553.400000 1 0 0
-15.823667 4.444202 -4.501911 17.041320 -0.273804 1.838146 0.015934 -0.002313 -1686430.000000 1 0 0
-18.453567 -1.845098 -6.287711 19.582488 0.099655 1.897675 0.020515 -0.006995 155880.000000 1 0 0
-10.812967 8.495602 -5.884511 14.957372 -0.665952 1.975144 0.009868 -0.003245 614241.000000 1 0 0
-11.346167 13.713302 -6.720611 19.025161 -0.879579 1.931838 0.019738 -0.008952 276244.000000 1 0 0
-9.588467 10.325002 -4.325611 14.739582 -0.822368 1.868650 -0.002703 -0.004304 -1021200.000000 1 0 0
-11.056767 6.312402 -0.171511 12.732947 -0.518754 1.584267 -0.000071 0.000974 -950453.000000 1 0 0
-14.759867 9.176502 -1.373311 17.434100 -0.556237 1.649650 0.029228 -0.005616 820701.000000 1 0 0
-18.669967 3.385502 4.746289 19.559053 -0.179385 1.325685 0.046352 -0.020916 578641.000000 1 0 0
-14.514167 13.195802 0.352489 19.619238 -0.737857 1.552829 0.013567 -0.003968 -17070.500000 1 0 0
-16.765067 2.493102 -8.972811 19.177966 -0.147626 2.057676 0.016725 -0.008958 -18111.100000 1 0 0
-9.089767 8.442402 -8.852011 15.239951 -0.748490 2.190560 0.004095 -0.000252 -2706030.000000 1 0 0
-17.644867 4.660702 -2.694311 18.447840 -0.258241 1.717371 0.023874 -0.000236 985019.000000 1 0 0
-13.593667 5.734302 -4.303411 15.368453 -0.399188 1.854607 0.014942 -0.000152 -1069260.000000 1 0 0
-12.216467 9.529102 3.173089 15.815004 -0.662439 1.368787 -0.003069 -0.006686 378148.000000 1 0 0
-17.511167 2.530102 -4.079211 18.157157 -0.143492 1.797392 0.022092 -0.003196 944426.000000 1 0 0
-11.332267 1.333902 -12.625211 17.017507 -0.117169 2.406689 0.008127 0.000407 -305256.000000 1 0 0
-11.247767 11.961202 3.368089 16.760866 -0.816128 1.368469 0.004863 -0.011011 125528.000000 1 0 0
-16.610667 12.948802 -4.082511 21.453499 -0.662145 1.762260 0.072300 -0.015965 543042.000000 1 0 0
-11.065467 4.024302 -4.502811 12.606144 -0.348811 1.936056 0.000134 -0.000437 -75408.400000 1 0 0
-10.995067 15.090702 -8.838711 20.657773 -0.941133 2.012924 0.028325 -0.019688 220141.000000 1 0 0
-15.482767 6.976202 -0.212411 16.983185 -0.423335 1.583304 0.019355 0.000533 -947910.000000 1 0 0
-12.783167 8.310602 -4.191311 15.812734 -0.576460 1.839062 0.015852 -0.004825 579889.000000 1 0 0
-19.161167 1.892102 -6.142511 20.210414 -0.098428 1.879609 0.043390 -0.010778 407838.000000 1 0 0
-12.295167 10.144302 -8.885911 18.249313 -0.689838 2.079354 0.015154 -0.015018 542054.000000 1 0 0
-16.576567 11.008702 -0.995311 19.923974 -0.586232 1.620773 0.032219 -0.003050 84378.000000 1 0 0
-10.573267 6.499102 -14.579611 19.146732 -0.551139 2.436370 -0.002922 -0.005057 -53183.200000 1 0 0
-14.083867 13.002602 -4.553511 19.701711 -0.745500 1.804028 0.050212 -0.012165 250592.000000 1 0 0
-17.919967 7.804402 -0.194111 19.546652 -0.410743 1.580727 0.036521 -0.003443 -270768.000000 1 0 0
-12.828567 6.661502 -2.118411 14.609429 -0.478945 1.716312 0.005122 0.000044 164172.000000 1 0 0
-13.713067 8.566202 -10.382811 19.215379 -0.558365 2.141636 0.018169 -0.010435 -1492390.000000 1 0 0
-15.019367 1.400002 -0.944911 15.114042 -0.092945 1.633356 0.007688 -0.004276 -515121.000000 1 0 0
-13.352667 2.745702 -2.426711 13.846354 -0.202803 1.746966 -0.000868 -0.001324 522079.000000 1 0 0
-11.207467 9.108202 -10.861811 18.070573 -0.682431 2.215645 0.006363 -0.012124 -671807.000000 1 0 0
-15.322667 4.435602 -8.114111 17.896857 -0.281777 2.041352 0.019296 -0.006216 601400.000000 1 0 0
-18.442167 10.556002 4.572389 21.735902 -0.519866 1.358852 0.068791 -0.023140 251807.000000 1 0 0
-15.341667 6.263602 -6.190111 17.689458 -0.387619 1.928295 0.025663 -0.000419 701073.000000 1 0 0
-7.620367 11.305502 -12.883811 18.758384 -0.977706 2.327914 -0.007556 -0.003759 -433290.000000 1 0 0
-16.967467 9.241202 -2.818111 19.525279 -0.498721 1.715634 0.046336 -0.005983 628444.000000 1 0 0
-20.523167 -0.961598 -4.761711 21.090257 0.046820 1.798538 0.039475 -0.012449 185530.000000 1 0 0
-15.410367 4.396502 4.114789 16.545094 -0.277912 1.319457 0.013841 -0.008903 282765.000000 1 0 0
-6.840667 12.547002 -9.432411 17.122861 -1.071643 2.154198 0.001039 -0.006776 -1659750.000000 1 0 0
-17.050167 1.584602 5.728289 18.056369 -0.092671 1.247974 0.026126 -0.017817 395161.000000 1 0 0
-10.459567 14.372602 -3.055611 18.036379 -0.941692 1.741031 0.024431 -0.014321 865400.000000 1 0 0
-9.936267 8.401102 -13.042211 18.423007 -0.701875 2.357360 -0.007625 -0.003658 372622.000000 1 0 0
-13.798567 11.617802 2.813089 18.256156 -0.699806 1.416090 0.013411 -0.012253 -1422400.000000 1 0 0
-16.944367 6.615602 1.949789 18.294246 -0.372230 1.464014 0.027001 -0.004623 1176860.000000 1 0 0
-9.289967 13.230502 -8.370011 18.204581 -0.958620 2.048538 0.017397 -0.018393 -231670.000000 1 0 0
-5.526367 9.803502 -12.886311 17.108664 -1.057485 2.423716 -0.002540 -0.001769 -390743.000000 1 0 0
-15.847667 1.817802 3.170889 16.263686 -0.114206 1.374572 0.009933 -0.009375 -542799.000000 1 0 0
-18.708167 -4.751598 4.621289 19.847658 0.248726 1.335801 0.055862 -0.011779 68031.200000 1 0 0
-5.166867 14.467102 -9.207911 17.910309 -1.227770 2.110769 -0.005994 -0.000816 -296092.000000 1 0 0
-15.380867 -0.767898 -6.739011 16.809968 0.049884 1.983289 0.006355 -0.002452 634474.000000 1 0 0
-8.939767 11.002302 -9.412711 17.016733 -0.888458 2.156930 0.003114 -0.009583 628264.000000 1 0 0
-16.602067 1.441102 -6.174911 17.771745 -0.086586 1.925654 0.005618 -0.004381 -369730.000000 1 0 0
-11.252467 8.603602 -1.575611 14.252106 -0.652778 1.681576 0.002025 -0.003799 -1360540.000000 1 0 0
-10.841867 10.901402 -12.606011 19.882107 -0.788136 2.257560 0.005726 -0.010492 -373132.000000 1 0 0
-13.663067 11.596702 -10.498711 20.769830 -0.703775 2.100733 0.026312 -0.018913 -214549.000000 1 0 0
-13.091267 5.683502 -7.548711 16.145170 -0.409591 2.057316 0.013295 -0.001431 -704747.000000 1 0 0
-8.871567 15.564702 -4.755511 18.535898 -1.052743 1.830254 0.017408 -0.010100 585573.000000 1 0 0
-8.628867 6.040202 -12.941911 16.686355 -0.610726 2.458459 -0.000709 -0.005447 -59753.600000 1 0 0
-16.336267 7.421002 4.253789 18.440163 -0.426395 1.338019 0.024680 -0.006857 170331.000000 1 0 0
-12.633167 5.401102 -10.161511 17.088743 -0.404015 2.207604 0.009045 -0.002702 331909.000000 1 0 0
-12.490567 9.120002 -13.197111 20.331071 -0.630676 2.277211 0.012869 -0.009734 -445050.000000 1 0 0
-10.753667 5.104102 -8.520011 14.638436 -0.443153 2.192019 -0.004405 0.000626 -1148360.000000 1 0 0
-17.507267 -4.385498 -2.784211 18.261677 0.245445 1.723855 0.011795 -0.010736 -413997.000000 1 0 0
-8.917067 13.014702 -10.944811 19.201183 -0.970104 2.177311 0.019755 -0.017144 -171977.000000 1 0 0
-14.982267 6.113602 6.153389 17.312096 -0.387432 1.207413 0.016493 -0.010436 -100591.000000 1 0 0
-16.217567 -2.967598 -4.492711 17.088024 0.180984 1.836839 0.010972 -0.009227 -606572.000000 1 0 0
-11.216367 -1.244298 -12.725011 17.008265 0.110484 2.416090 0.008447 0.004083 183441.000000 1 0 0
-15.161467 6.973802 -8.469411 18.714564 -0.431113 2.040427 0.018107 -0.002927 -186124.000000 1 0 0
-14.945267 9.159202 1.267089 17.574342 -0.549814 1.498635 0.021653 -0.006648 -416525.000000 1 0 0
-19.403167 5.183902 7.854389 21.564952 -0.261070 1.198001 0.067255 -0.029516 -220019.000000 1 0 0
-16.218267 0.461802 0.905789 16.250105 -0.028466 1.515027 0.014958 -0.008915 -564576.000000 1 0 0
-17.301067 3.846802 6.976189 19.047100 -0.218786 1.195810 0.017123 -0.016825 1188680.000000 1 0 0
-15.458567 3.970602 -1.493211 16.030055 -0.251419 1.664082 0.006994 -0.002403 -1558940.000000 1 0 0
-10.956167 13.234302 0.408089 17.185775 -0.879296 1.547048 0.018599 -0.011163 -743695.000000 1 0 0
-13.493367 3.373002 0.004789 13.908563 -0.244955 1.570452 0.002515 -0.002540 -218344.000000 1 0 0
-15.020867 0.362602 -4.248011 15.614209 -0.024135 1.846330 0.005305 -0.005502 182633.000000 1 0 0
-18.888467 6.978402 3.569289 20.450235 -0.353899 1.395362 0.050188 -0.011547 262959.000000 1 0 0
-14.023967 1.393402 -6.390211 15.474108 -0.099034 1.996500 0.002440 0.000331 -953042.000000 1 0 0
-14.235767 12.099002 5.367489 19.438437 -0.704437 1.291034 0.007163 -0.013094 442806.000000 1 0 0
17.721633 5.356702 6.386489 19.584120 0.293537 1.238615 0.022433 -0.009394 344641.000000 1 0 0
18.582633 7.747302 -0.293811 20.135075 0.394999 1.585389 0.014532 0.009389 -35148.200000 1 0 0
16.492733 5.239502 8.604589 19.326189 0.307602 1.109366 0.024023 -0.008353 417274.000000 1 0 0
11.648233 12.470702 10.746189 20.166316 0.819486 1.008798 0.006887 0.003154 469929.000000 1 0 0
-2.247067 16.245802 -0.516911 16.408613 -1.433352 1.602304 -0.002427 -0.001645 -126159.000000 1 0 0
14.985433 12.805102 3.290689 19.984055 0.707103 1.405377 0.029026 -0.003620 261158.000000 1 0 0
13.702933 11.866402 6.759789 19.346230 0.713696 1.213854 0.020460 -0.002022 928122.000000 1 0 0
-0.682167 15.929302 8.689289 18.157966 -1.527998 1.071807 0.004864 -0.000768 67221.000000 1 0 0
0.688333 12.968602 9.459089 16.066512 1.517769 0.941290 0.005775 -0.004176 -220927.000000 1 0 0
0.672033 15.495002 -3.865311 15.983971 1.527453 1.815042 -0.000109 -0.005297 1191180.000000 1 0 0
5.586533 10.315702 13.534989 17.911420 1.074459 0.714131 0.022618 -0.011073 -177019.000000 1 0 0
-1.500767 16.581902 -2.837511 16.889738 -1.480536 1.739599 -0.001579 0.000778 -1012430.000000 1 0 0
8.511633 10.116802 3.282489 13.622493 0.871354 1.327440 0.009438 -0.005564 424398.000000 1 0 0
12.467633 13.680402 -4.938911 19.156933 0.831746 1.831555 0.027784 -0.018414 13106.100000 1 0 0
2.314633 11.620402 7.794489 14.182571 1.374183 0.988932 0.006740 0.000250 556139.000000 1 0 0
-0.354067 14.945002 -8.680211 17.286541 -1.547109 2.096864 0.002170 -0.000294 -1677000.000000 1 0 0
2.355933 15.969602 0.170589 16.143348 1.424327 1.560229 0.008856 -0.007812 -405043.000000 1 0 0
1.797933 13.449402 5.354989 14.587490 1.437903 1.194913 0.006554 0.000524 -12067.300000 1 0 0
17.496133 9.311402 -2.021611 19.922444 0.489073 1.672445 0.002320 0.004775 506396.000000 1 0 0
-7.235067 14.974402 7.162389 18.107422 -1.120709 1.164130 0.008769 -0.015897 -200475.000000 1 0 0
8.536633 15.842202 -0.218911 17.997149 1.076551 1.582960 0.007953 -0.007663 -1713050.000000 1 0 0
15.723433 10.523102 2.195089 19.046796 0.589797 1.455293 0.015335 0.002329 217565.000000 1 0 0
14.146333 7.583502 8.762889 18.287057 0.492090 1.071070 0.015744 -0.006572 -782514.000000 1 0 0
4.322033 18.407302 -2.186711 19.033928 1.340174 1.685935 0.016766 -0.014250 41192.600000 1 0 0
-0.417367 17.661902 -4.862211 18.323702 -1.547170 1.839364 0.006603 0.001625 196109.000000 1 0 0
1.286533 13.641002 -0.690711 13.718935 1.476761 1.621165 0.002263 -0.007461 638227.000000 1 0 0
10.290433 14.677302 4.129189 18.394738 0.959324 1.344390 0.016071 -0.011358 93839.900000 1 0 0
-1.721467 15.340202 -5.102011 16.257791 -1.459045 1.890009 0.000107 -0.002687 128719.000000 1 0 0
15.081933 8.729502 -6.172611 18.487023 0.524689 1.911223 0.021534 -0.010803 33215.400000 1 0 0
-2.362867 18.448002 0.918389 18.621368 -1.443407 1.521457 -0.000004 -0.006262 -247005.000000 1 0 0
-3.856467 19.165802 3.516689 19.863721 -1.372232 1.392817 0.011672 -0.020088 450515.000000 1 0 0
1.869833 17.643402 -2.788511 17.960003 1.465211 1.726689 0.006083 -0.006733 130598.000000 1 0 0
2.814433 12.318002 3.330989 13.067122 1.346171 1.313038 0.004424 -0.000184 107720.000000 1 0 0
-2.577667 16.096502 1.951289 16.417956 -1.412006 1.451664 -0.000051 -0.005148 -1855410.000000 1 0 0
11.804733 12.800602 -2.669811 17.616328 0.825850 1.722936 0.008835 -0.004616 656921.000000 1 0 0
7.262333 11.612802 4.802589 14.514252 1.011929 1.233552 0.007668 -0.004997 148865.000000 1 0 0
7.089533 15.637602 1.819589 17.265774 1.145148 1.465213 0.009258 -0.008667 -2418700.000000 1 0 0
5.529933 12.264902 10.305689 16.947424 1.147215 0.917134 0.012191 0.003224 1732990.000000 1 0 0
-1.403967 14.083502 3.197389 14.509977 -1.471436 1.348615 -0.002726 -0.000927 -999592.000000 1 0 0
4.603033 15.994802 1.456489 16.707572 1.290585 1.483510 0.010521 -0.013274 -2869150.000000 1 0 0
7.533033 13.086902 11.937589 19.248886 1.048499 0.901836 0.025884 -0.001918 374503.000000 1 0 0
0.635533 17.092102 -9.465911 19.548589 1.533631 2.076273 0.005380 -0.002814 273484.000000 1 0 0
9.882233 9.522402 15.570889 20.755415 0.766857 0.722419 0.035413 -0.004059 -289837.000000 1 0 0
13.506733 7.438402 -0.096611 15.419824 0.503394 1.577062 -0.002641 0.003594 170290.000000 1 0 0
12.424033 13.674202 -0.220111 18.476711 0.833264 1.582710 0.019209 -0.000020 415273.000000 1 0 0
9.398733 12.320302 3.281689 15.839681 0.919112 1.362103 0.008263 -0.001589 604340.000000 1 0 0
-0.713967 12.879602 0.774089 12.922581 -1.515419 1.510858 0.002639 -0.003180 -1302990.000000 1 0 0
16.009633 7.416602 -0.813711 17.662855 0.433825 1.616882 -0.000850 0.006746 -1456840.000000 1 0 0
-4.100567 18.441802 -2.384211 19.042037 -1.352004 1.696334 0.004844 -0.008585 -189440.000000 1 0 0
11.546233 9.234002 -3.216411 15.130353 0.674583 1.785011 0.009251 -0.004085 -73742.400000 1 0 0
14.758033 9.771202 7.693689 19.299450 0.584830 1.160754 0.019485 -0.009009 825725.000000 1 0 0
4.333633 13.765802 4.773089 15.200659 1.265807 1.251387 0.009551 -0.001819 -784545.000000 1 0 0
2.146833 15.937202 5.664389 17.049592 1.436897 1.232129 0.012712 -0.002999 99900.100000 1 0 0
6.205933 18.303702 5.332889 20.049409 1.243907 1.301568 0.032009 -0.018214 -349407.000000 1 0 0
10.729533 17.029702 -0.685111 20.139588 1.008575 1.604821 0.028804 -0.009961 -986744.000000 1 0 0
9.884533 13.561902 -4.443811 17.360202 0.940972 1.829654 0.014121 -0.010434 425256.000000 1 0 0
16.462033 8.010502 2.434989 18.468780 0.452874 1.438568 -0.005611 0.004209 -81023.000000 1 0 0
3.952333 14.016102 -0.516311 14.571843 1.295948 1.606236 0.005648 -0.008261 1184070.000000 1 0 0
5.488733 13.221102 -2.426811 14.519405 1.177299 1.738727 0.005460 -0.006154 370401.000000 1 0 0
-6.149467 16.933902 -2.950011 18.255836 -1.222459 1.733101 0.008172 -0.003168 -1062260.000000 1 0 0
18.172333 9.856302 2.897489 20.875244 0.496974 1.431547 0.025703 -0.002679 -47076.800000 1 0 0
7.949033 12.958402 9.379189 17.862712 1.020563 1.017998 0.014666 -0.000277 -122924.000000 1 0 0
-2.587667 15.657602 6.821789 17.274065 -1.407011 1.164821 -0.001957 -0.008081 402890.000000 1 0 0
11.089033 15.997902 6.261089 20.447512 0.964679 1.259594 0.021590 -0.009262 -23918.500000 1 0 0
13.572833 11.958102 1.251789 18.132428 0.722236 1.501705 0.022334 0.000519 596105.000000 1 0 0
17.563333 7.846902 -5.650211 20.049175 0.420171 1.856484 0.019949 0.009451 829909.000000 1 0 0
9.471733 9.272002 7.947789 15.454808 0.774743 1.030652 0.007364 0.000159 -461181.000000 1 0 0
-1.957467 14.132902 -1.976011 14.404000 -1.433168 1.708415 -0.004795 -0.000313 481051.000000 1 0 0
11.038233 11.669002 0.589089 16.073432 0.813169 1.534138 0.007421 0.003475 -316688.000000 1 0 0
11.756133 9.721702 -0.585711 15.266342 0.690958 1.609172 0.002950 0.004781 -1151820.000000 1 0 0
-0.341667 16.148602 11.201189 19.656060 -1.549642 0.964462 0.015586 -0.003115 -113264.000000 1 0 0
2.179033 19.818402 -1.509811 19.994918 1.461286 1.646378 0.017671 -0.022946 -486339.000000 1 0 0
9.190533 14.261602 1.764189 17.057888 0.998350 1.467187 0.008206 -0.003862 -423607.000000 1 0 0
8.389233 11.615402 -5.112511 15.212973 0.945293 1.913530 0.008737 -0.007602 -999308.000000 1 0 0
10.616233 10.107402 10.218189 17.868278 0.760850 0.962023 0.004543 0.001445 200463.000000 1 0 0
-5.073067 15.669102 5.741589 17.441978 -1.257684 1.235359 -0.009196 -0.010066 -637518.000000 1 0 0
14.374733 8.976502 -1.940511 17.058022 0.558214 1.684803 0.007833 0.001216 -586436.000000 1 0 0
12.254333 9.728702 6.838189 17.075630 0.671010 1.158772 0.006258 -0.005877 -1109690.000000 1 0 0
3.261433 13.007602 9.684089 16.541349 1.325128 0.945365 0.014406 -0.001900 -278863.000000 1 0 0
8.459133 12.672502 -2.643411 15.464050 0.982204 1.742579 0.007747 -0.005625 -921309.000000 1 0 0
9.273333 16.846302 2.188489 19.354123 1.067595 1.457478 0.008660 -0.009461 -524235.000000 1 0 0
9.751233 14.180602 -7.387711 18.728435 0.968410 1.976282 0.025771 -0.019564 -90854.500000 1 0 0
6.427933 11.553602 7.348289 15.126182 1.063085 1.063519 0.005292 0.001978 -367172.000000 1 0 0
5.465033 16.924302 -5.610311 18.648704 1.258456 1.876372 0.008099 -0.004229 -1004170.000000 1 0 0
-4.069867 17.196202 -4.683511 18.281369 -1.338400 1.829875 -0.001171 -0.004236 -43087.000000 1 0 0
-0.164867 18.509302 -0.511611 18.517105 -1.561889 1.598429 0.003173 -0.007930 -715054.000000 1 0 0
6.536833 15.737402 -2.818311 17.272489 1.177111 1.734697 0.002524 -0.003447 229162.000000 1 0 0
-0.852867 20.562302 0.913089 20.600227 -1.529343 1.526458 0.005462 -0.011450 103887.000000 1 0 0
-1.345767 18.735302 4.265689 19.261846 -1.499089 1.347487 0.002052 -0.012191 -482762.000000 1 0 0
7.159233 13.831502 -4.405011 16.185462 1.093165 1.846432 0.008681 -0.003951 -1334890.000000 1 0 0
-0.884067 12.001002 7.606689 14.236128 -1.497263 1.007090 0.002500 0.000587 392818.000000 1 0 0
7.748333 10.861502 10.741989 17.128900 0.951150 0.892938 0.014989 -0.004109 121668.000000 1 0 0
1.573733 16.024202 -7.260211 17.662456 1.472901 1.994406 0.001919 -0.003657 -118966.000000 1 0 0
8.991833 7.194002 14.747089 18.710514 0.674777 0.662964 0.029957 -0.004329 -147865.000000 1 0 0
11.326033 11.359202 -4.847711 16.757410 0.786860 1.864279 0.015166 -0.013166 161842.000000 1 0 0
-3.290267 16.853502 4.549289 17.764076 -1.377994 1.311816 -0.004101 -0.009726 -764565.000000 1 0 0
4.013033 15.246702 -6.769711 17.157952 1.313427 1.976377 0.011528 -0.010816 104980.000000 1 0 0
-4.506667 14.164602 9.382089 17.577531 -1.262760 1.007762 0.011479 -0.013116 523858.000000 1 0 0
6.273733 17.776002 0.490389 18.857000 1.231511 1.544788 0.009704 -0.011778 -268233.000000 1 0 0
9.817733 10.674202 -2.132211 14.658540 0.827169 1.716773 0.004188 -0.002960 -929989.000000 1 0 0
7.396233 18.157502 -2.450711 19.758672 1.183980 1.695149 0.005373 -0.001452 17897.600000 1 0 0
3.555833 10.417902 10.380189 15.130266 1.241876 0.814744 0.007242 -0.001889 783528.000000 1 0 0
0.039533 18.401402 2.039289 18.514099 1.568648 1.460424 0.003844 -0.013511 211418.000000 1 0 0
-0.878367 17.089302 -7.433711 18.656790 -1.519443 1.980618 0.006069 -0.000357 75615.300000 1 0 0
10.170133 8.686002 13.036789 18.677154 0.706852 0.798185 0.021262 0.000615 -128838.000000 1 0 0
3.630533 11.440902 5.571789 13.233285 1.263518 1.136201 0.003498 -0.000028 728445.000000 1 0 0
13.116533 14.033302 8.108589 20.850089 0.819152 1.171360 0.021067 -0.007653 175986.000000 1 0 0
-0.560267 17.455402 6.811289 18.745629 -1.538710 1.198931 0.005334 -0.004674 -347540.000000 1 0 0
12.105433 13.662202 5.786889 19.149030 0.845740 1.263794 0.017533 -0.006860 -1367410.000000 1 0 0
4.844233 14.642502 -4.436211 16.048346 1.251297 1.850872 0.001889 -0.005447 -1610050.000000 1 0 0
3.774133 17.625402 4.568089 18.594792 1.359852 1.322591 0.019459 -0.010810 -295853.000000 1 0 0
6.997933 11.749002 2.057589 13.829092 1.033604 1.421455 0.014952 -0.004444 330240.000000 1 0 0
6.517933 8.719102 11.812489 16.063657 0.928867 0.744606 0.015008 -0.003490 707705.000000 1 0 0
-5.463867 14.831902 1.744189 15.902243 -1.217837 1.460893 0.002962 -0.000318 13602.200000 1 0 0
6.736733 13.783202 5.904789 16.438575 1.116178 1.203382 0.013321 -0.004600 -1452340.000000 1 0 0
5.754733 15.785902 4.752989 17.461459 1.221220 1.295119 0.014811 -0.014298 682633.000000 1 0 0
1.221933 17.904702 4.241989 18.440877 1.502656 1.338686 0.019440 -0.011172 -294781.000000 1 0 0
7.211033 18.032702 -7.074811 20.669550 1.190388 1.920141 0.008102 -0.004484 301120.000000 1 0 0
-2.371067 18.730502 -6.010611 19.813659 -1.444878 1.879010 0.006954 -0.001664 -1277920.000000 1 0 0
13.645033 10.174402 -4.529611 17.613141 0.640710 1.830891 0.016217 -0.004154 -682712.000000 1 0 0
-1.605167 18.089402 9.908189 20.687562 -1.482293 1.071345 0.010961 -0.001645 -381556.000000 1 0 0
3.409233 11.772902 -1.504411 12.348576 1.288924 1.692928 0.007536 -0.007438 324477.000000 1 0 0
4.342133 14.021702 -10.808111 18.228481 1.270490 2.205482 0.015932 -0.017988 131146.000000 1 0 0
11.608633 13.439202 2.257689 17.901666 0.858351 1.444343 0.016763 -0.004300 742143.000000 1 0 0
15.930133 6.444202 -7.000811 18.555544 0.384405 1.957664 0.005677 0.000781 290306.000000 1 0 0
2.487433 16.010102 2.907789 16.461042 1.416662 1.393218 0.012182 -0.009367 56548.900000 1 0 0
13.495233 10.767102 3.571789 17.629789 0.673425 1.366784 0.008057 0.004201 -768611.000000 1 0 0
-4.838667 19.388802 -5.920111 20.841930 -1.326232 1.858810 0.008323 -0.012749 -511323.000000 1 0 0
5.546833 12.094802 -0.042311 13.306140 1.140803 1.573976 0.008003 -0.006538 290767.000000 1 0 0
4.546333 15.566102 9.664789 18.878051 1.286634 1.033333 0.019980 0.003913 31775.200000 1 0 0
7.847433 9.403802 13.985389 18.590449 0.875372 0.719267 0.023329 -0.007052 -1242300.000000 1 0 0
-5.135367 13.491602 6.872389 15.988278 -1.207095 1.126482 -0.000602 -0.006937 -1963330.000000 1 0 0
-4.556667 17.006902 0.574289 17.616121 -1.309014 1.538190 0.003698 -0.008010 -1684500.000000 1 0 0
-0.681567 16.421202 3.606289 16.826340 -1.529315 1.354797 0.002984 -0.007720 -1853070.000000 1 0 0
7.902033 17.003802 -4.743711 19.340998 1.135768 1.818592 0.005016 -0.001922 630033.000000 1 0 0
3.038933 16.415602 -4.673011 17.336208 1.387744 1.843724 0.000252 -0.006154 -130246.000000 1 0 0
9.764533 14.494802 8.309189 19.351692 0.977969 1.126993 0.031215 -0.004128 -137617.000000 1 0 0
12.761133 10.989702 9.019589 19.104267 0.710952 1.079097 0.011257 -0.009749 1606320.000000 1 0 0
3.567833 12.369902 12.173189 17.718082 1.289989 0.813377 0.018562 -0.005596 798123.000000 1 0 0
-3.298067 18.987702 5.988889 20.181101 -1.398817 1.269501 0.004093 -0.014537 -21939.000000 1 0 0
-2.724067 15.816902 10.252089 19.044691 -1.400244 1.002357 0.013176 -0.007504 -715691.000000 1 0 0
2.079033 14.293302 7.789689 16.410366 1.426354 1.076195 0.013641 -0.002094 59247.300000 1 0 0
4.547933 17.377102 7.931189 19.635455 1.314818 1.154996 0.034781 -0.005918 417483.000000 1 0 0
-1.956167 13.459902 9.290489 16.471452 -1.426474 0.971531 0.007581 -0.010568 -281988.000000 1 0 0
5.832833 17.676102 2.981589 18.850899 1.252063 1.411962 0.011245 -0.018096 466474.000000 1 0 0
7.339833 15.418802 -6.820311 18.388291 1.126507 1.950780 0.012007 -0.005583 -33492.800000 1 0 0
10.984233 7.617702 9.390189 16.335801 0.606359 0.958409 0.004619 -0.002830 1025860.000000 1 0 0
9.167533 16.232102 -2.689811 18.835070 1.056678 1.714095 0.011242 -0.012282 -81522.500000 1 0 0
14.621833 11.351202 -6.537711 19.631338 0.660133 1.910305 0.048130 -0.018917 308580.000000 1 0 0
11.285233 6.482602 15.886189 20.536592 0.521407 0.686364 0.059592 -0.011707 465536.000000 1 0 0
8.579333 8.475202 10.179589 15.781572 0.779292 0.869734 0.011305 0.000164 -79359.600000 1 0 0
16.179333 9.447502 4.558989 19.282388 0.528515 1.332103 0.011580 -0.001505 98052.400000 1 0 0
-3.386567 14.209802 4.754889 15.362170 -1.336835 1.256109 -0.006084 -0.002851 -1642340.000000 1 0 0
5.038133 14.462002 12.638889 19.856329 1.235574 0.880823 0.030446 -0.011188 -657699.000000 1 0 0
16.154233 10.478702 -4.566311 19.789230 0.575437 1.803642 0.032847 -0.019686 210092.000000 1 0 0
14.626033 14.053102 5.989689 21.149158 0.765424 1.283655 0.031697 -0.010462 -632501.000000 1 0 0
6.312833 9.491302 9.278089 14.697605 0.983867 0.887613 0.008572 -0.000536 -236241.000000 1 0 0
10.327333 11.916502 8.520989 17.923841 0.856720 1.075378 0.011431 -0.009145 393909.000000 1 0 0
7.987133 11.468902 -0.376011 13.981108 0.962479 1.597694 0.010073 -0.005531 -37314.400000 1 0 0
7.538333 13.540402 -8.593611 17.720584 1.062802 2.077103 0.016346 -0.010507 -764983.000000 1 0 0
2.637833 15.236302 -2.339111 15.638878 1.399367 1.720930 0.002031 -0.007015 46714.400000 1 0 0
12.366433 13.495902 -7.751211 19.878363 0.829043 1.971354 0.044258 -0.027920 1517470.000000 1 0 0
-8.011267 14.786402 9.675089 19.401686 -1.074271 1.048730 0.020585 -0.016009 174829.000000 1 0 0
11.525533 9.732402 2.233289 15.249430 0.701246 1.423817 0.008500 0.001954 -2237940.000000 1 0 0
12.144433 8.748002 4.486389 15.625059 0.624240 1.279569 0.002186 -0.001809 594463.000000 1 0 0
14.020233 7.992502 6.073989 17.243560 0.518121 1.210826 0.003852 -0.004451 -2959320.000000 1 0 0
16.229933 7.438202 7.236389 19.264031 0.429736 1.185706 0.025671 -0.007574 -18954.700000 1 0 0
13.614633 8.412002 2.322689 16.171422 0.553452 1.426669 -0.000709 0.003450 -2340170.000000 1 0 0
-4.182967 17.328902 -7.236611 19.239454 -1.333941 1.956417 0.000441 -0.009662 38117.700000 1 0 0
2.899333 19.673002 -4.066711 20.297075 1.424473 1.772521 0.007457 -0.003797 362421.000000 1 0 0
-0.113967 14.926202 6.352089 16.222007 -1.563161 1.168457 0.007008 -0.000518 -130082.000000 1 0 0
6.828733 15.940402 8.397089 19.267566 1.166057 1.119853 0.028766 -0.007637 -4459.330000 1 0 0
12.816633 15.251102 -2.130111 20.034958 0.871917 1.677317 0.038656 -0.011042 159518.000000 1 0 0
12.651633 15.725902 4.264489 20.628952 0.893312 1.362571 0.033685 -0.007267 109022.000000 1 0 0
3.079733 18.097202 1.266089 18.400990 1.402234 1.501936 0.020988 -0.011385 -689076.000000 1 0 0
10.381533 14.552702 -1.283511 17.922186 0.951150 1.642473 0.007218 0.000837 -1180690.000000 1 0 0
-6.350167 15.781302 -0.625711 17.022503 -1.188235 1.607562 -0.000547 -0.004150 -114820.000000 1 0 0
-3.917467 15.825202 -2.546311 16.500523 -1.328129 1.725732 0.002684 -0.002605 -1531720.000000 1 0 0
-6.828267 17.111802 1.666189 18.499059 -1.191119 1.480605 0.008334 -0.005610 473313.000000 1 0 0
0.006133 19.476102 -6.720711 20.603071 1.570481 1.903077 0.011523 -0.001006 -112929.000000 1 0 0
4.807633 14.896402 7.126889 17.199089 1.258612 1.143539 0.019837 -0.003217 -359529.000000 1 0 0
8.658733 12.661502 6.850089 16.799137 0.970983 1.150792 0.014681 -0.004712 -1696410.000000 1 0 0
-7.397867 17.614202 -5.596611 19.907551 -1.173173 1.855768 0.021902 -0.014608 -5049.410000 1 0 0
-7.887167 17.824302 -1.193111 19.527843 -1.154201 1.631932 0.027125 -0.010714 327400.000000 1 0 0
-13.598467 -9.187798 9.298689 18.862650 0.594196 1.055298 0.024990 -0.011491 -1276290.000000 1 0 0
-12.584767 -12.889598 7.538289 19.528029 0.797364 1.174479 0.025834 -0.016163 116452.000000 1 0 0
-3.861367 -14.959598 12.501589 19.874342 1.318190 0.890489 0.017264 -0.012992 -11271.700000 1 0 0
-2.058267 -14.161598 14.768389 20.564354 1.426466 0.769649 0.026018 -0.006603 -883690.000000 1 0 0
-7.048367 -13.813498 12.553989 19.952314 1.098981 0.890273 0.026348 -0.015358 84268.600000 1 0 0
-9.956067 -11.590798 8.897589 17.681543 0.861122 1.043483 0.016227 -0.012811 662616.000000 1 0 0
-10.668867 -10.734698 11.247989 18.856716 0.788474 0.931666 0.032479 -0.016466 48543.800000 1 0 0
-5.997567 -12.333798 10.670089 17.376541 1.118192 0.909613 0.022804 -0.008913 722072.000000 1 0 0
-12.559867 -10.314398 7.305789 17.818856 0.687546 1.148339 0.018122 -0.007119 -375731.000000 1 0 0
-7.860667 -11.397098 12.286689 18.510717 0.967011 0.844961 0.025425 -0.014504 -1149850.000000 1 0 0
-14.795967 -11.503998 7.208689 20.080533 0.660876 1.203612 0.038067 -0.011789 -1296170.000000 1 0 0
-11.027467 -9.186498 9.164289 17.028828 0.694575 1.002540 0.009429 -0.008589 -503764.000000 1 0 0
-5.450467 -11.871598 13.197989 18.569581 1.140386 0.780259 0.030650 -0.015492 284463.000000 1 0 0
3.891533 -12.594398 14.561189 19.641566 -1.271113 0.735723 0.007855 0.008114 27288.000000 1 0 0
6.506833 -12.683198 14.324389 20.208674 -1.096781 0.782967 0.017510 0.007511 -13973.200000 1 0 0
6.428033 -8.655498 16.300189 19.543117 -0.932014 0.584364 0.000233 0.005201 -431320.000000 1 0 0
0.645233 -1.650498 14.485889 14.593884 -1.198131 0.121731 -0.000125 -0.006315 -2126860.000000 1 0 0
-0.219367 -6.341398 15.530389 16.776604 1.536217 0.387869 -0.000739 -0.007567 -81878.400000 1 0 0
-1.451967 -4.618398 18.350489 18.978363 1.266193 0.257945 0.018959 -0.020685 -2156130.000000 1 0 0
-5.238667 12.566902 12.955689 18.794162 -1.175839 0.810210 0.011875 -0.005813 -768790.000000 1 0 0
-4.158767 8.682702 11.499289 14.997276 -1.124113 0.697020 0.001148 -0.003948 -594756.000000 1 0 0
-0.654267 -3.879198 14.998189 15.505545 1.403708 0.256519 0.002519 -0.006759 -390035.000000 1 0 0
-4.713867 9.092202 14.017489 17.360261 -1.092497 0.630985 0.012118 -0.009758 402810.000000 1 0 0
-13.557667 -2.532998 16.858389 21.781453 0.184702 0.685695 0.025084 0.001350 840732.000000 1 0 0
-0.299367 0.995702 17.356389 17.387503 -1.278735 0.059833 0.009685 -0.011161 66366.200000 1 0 0
-3.280667 -7.147798 15.415989 17.306256 1.140503 0.471748 0.017469 -0.010265 323692.000000 1 0 0
-7.596167 5.414902 12.616889 15.691042 -0.619296 0.636666 0.003832 -0.005225 -2107450.000000 1 0 0
-9.924867 10.190402 13.138689 19.364205 -0.798598 0.825072 0.011283 -0.010249 357514.000000 1 0 0
-5.562767 2.260802 11.186689 12.696362 -0.386026 0.492626 0.004379 -0.002493 -1047510.000000 1 0 0
-7.271467 -7.276898 16.863289 19.753430 0.785771 0.547768 0.031836 -0.015103 -45283.900000 1 0 0
-4.706767 3.114502 18.659089 19.493983 -0.584561 0.293726 0.019764 -0.005728 -937423.000000 1 0 0
0.888233 -8.359998 16.554689 18.567074 -1.464945 0.469896 0.001633 -0.001633 643388.000000 1 0 0
-15.103367 -3.591098 13.798189 20.770116 0.233434 0.844201 0.032384 -0.010012 98715.600000 1 0 0
-14.433967 2.089502 12.997489 19.535612 -0.143764 0.842870 0.006852 -0.005528 -1165460.000000 1 0 0
-5.519567 0.976902 16.108789 17.056173 -0.175175 0.334864 0.022626 -0.008869 -57586.700000 1 0 0
4.481633 5.764002 15.115289 16.786325 0.909913 0.449988 0.009421 -0.011299 -97787.300000 1 0 0
-1.021767 -12.008598 13.849089 18.358859 1.485914 0.716126 -0.002593 -0.003638 244633.000000 1 0 0
-5.847167 -4.121898 16.823389 18.281297 0.614033 0.402074 0.031721 -0.012987 101931.000000 1 0 0
-12.943567 -1.559198 9.803089 16.311578 0.119884 0.926058 0.003987 -0.000988 -1087700.000000 1 0 0
-14.557267 10.421902 10.120389 20.565805 -0.621334 1.056298 0.010311 -0.005223 426579.000000 1 0 0
-3.557367 -3.214798 17.812989 18.447015 0.734856 0.262940 0.027057 -0.015140 -2311600.000000 1 0 0
-7.886067 9.406702 11.851889 17.062924 -0.873107 0.802934 0.000051 -0.004249 77560.400000 1 0 0
-4.440867 10.794202 16.027989 19.827570 -1.180491 0.629420 0.016482 -0.006687 67938.800000 1 0 0
-12.478167 12.681602 8.319789 19.640432 -0.793484 1.133375 0.007899 -0.013996 183932.000000 1 0 0
-12.570567 3.161802 10.531289 16.701024 -0.246413 0.888499 0.000871 -0.003414 560454.000000 1 0 0
-10.191167 -3.441698 13.758289 17.464126 0.325688 0.663563 0.016789 -0.000940 -1362040.000000 1 0 0
-4.122967 -6.312598 17.831489 19.360004 0.992222 0.400034 0.033116 -0.010213 -341375.000000 1 0 0
0.825533 -3.692098 17.711289 18.110849 -1.350820 0.210445 0.004646 -0.020184 -617473.000000 1 0 0
-5.919067 1.827602 13.706589 15.041478 -0.299479 0.424481 0.012433 -0.003674 -419881.000000 1 0 0
-10.551867 8.682702 10.166989 17.032289 -0.688525 0.931134 0.009275 -0.012378 -49437.600000 1 0 0
4.626633 2.470902 17.244789 18.024811 0.490523 0.295265 0.007190 -0.011865 -1978310.000000 1 0 0
0.527633 -5.345098 13.167689 14.220988 -1.472402 0.387297 -0.003398 -0.002279 -2892780.000000 1 0 0
-4.075267 5.847902 20.646189 21.841952 -0.962170 0.332425 0.028797 -0.011099 -335012.000000 1 0 0
-10.759267 10.817502 9.007289 17.717546 -0.788097 1.037491 0.008073 -0.011894 -287256.000000 1 0 0
0.683433 4.162602 13.137389 13.798019 1.408064 0.310695 0.010294 -0.008137 -1938290.000000 1 0 0
-3.181967 7.083502 13.329589 15.426563 -1.148601 0.527502 0.003990 -0.000908 -1641120.000000 1 0 0
0.540333 8.944902 14.143389 16.743317 1.510463 0.564757 0.012526 -0.008478 -31266.500000 1 0 0
-4.231967 -6.602998 13.067689 15.240526 1.000834 0.540541 0.014641 -0.006662 49744.200000 1 0 0
-5.156567 8.271302 16.433089 19.106309 -1.013328 0.535356 0.014688 0.003485 -161288.000000 1 0 0
1.598533 -10.731298 15.727189 19.106558 -1.422924 0.603894 -0.002468 0.002218 7835.380000 1 0 0
-15.166967 -1.058698 14.264489 20.847863 0.069690 0.817265 0.010596 0.000700 259029.000000 1 0 0
-13.586467 -5.262198 8.394189 16.815030 0.369521 1.048112 0.027174 -0.008346 -369837.000000 1 0 0
-14.203667 -1.871798 12.048889 18.719602 0.131028 0.871537 0.017343 -0.006007 272125.000000 1 0 0
9.345833 1.295302 16.958089 19.406163 0.137719 0.507729 0.025142 -0.005611 -372809.000000 1 0 0
4.864933 -6.682298 16.748089 18.676701 -0.941503 0.458456 0.009940 -0.008362 -122082.000000 1 0 0
-6.142567 -2.729298 11.143789 13.014001 0.418125 0.542749 0.005510 -0.002822 390066.000000 1 0 0
0.441533 -6.297998 18.014989 19.089252 -1.500804 0.337081 0.005520 -0.013427 -358031.000000 1 0 0
-8.512667 11.934602 11.835289 18.840761 -0.951216 0.891591 0.008518 -0.011939 63113.700000 1 0 0
-6.634067 -5.814198 14.815289 17.242637 0.719631 0.537045 0.025339 -0.010262 -203441.000000 1 0 0
-4.462667 -8.773298 17.057289 19.693584 1.100241 0.523381 0.032897 -0.011189 518348.000000 1 0 0
2.336233 -6.124498 16.308089 17.576155 -1.206377 0.382182 -0.004978 -0.007448 -973547.000000 1 0 0
2.251333 5.261602 16.140889 17.125456 1.166489 0.340737 0.012317 -0.013316 -1804400.000000 1 0 0
0.870133 -9.012798 13.979489 16.655743 -1.474550 0.574766 -0.007937 0.001051 -948837.000000 1 0 0
-9.914367 -2.896398 11.262289 15.281458 0.284232 0.742189 -0.002345 0.000172 -756638.000000 1 0 0
-1.260767 10.119702 12.386489 16.044407 -1.446850 0.688794 0.005446 -0.010397 -62773.300000 1 0 0
-12.294867 -3.611098 11.433389 17.173415 0.285674 0.842283 0.009967 0.000619 -358187.000000 1 0 0
-1.801667 6.960602 19.843789 21.106206 -1.317517 0.347616 0.021346 -0.011962 271279.000000 1 0 0
0.288133 -13.545398 15.609389 20.669152 -1.549528 0.714834 0.002136 -0.001703 -496874.000000 1 0 0
4.000733 -8.700098 15.369289 18.108358 -1.139782 0.557198 0.003620 0.001838 -614591.000000 1 0 0
4.304733 -4.346898 16.240589 17.354624 -0.790272 0.360253 0.001693 -0.002551 -1148550.000000 1 0 0
8.052133 1.885302 14.827389 16.977711 0.229994 0.508770 0.008346 -0.005819 98652.300000 1 0 0
-6.439167 -0.065198 11.900689 13.531205 0.010125 0.495987 0.005704 -0.002588 312212.000000 1 0 0
-3.582967 -10.864298 18.456789 21.714596 1.252236 0.554865 0.038427 -0.004613 -325050.000000 1 0 0
3.156433 -1.511698 13.585589 14.029131 -0.446647 0.252126 -0.001875 -0.005154 139917.000000 1 0 0
-2.715667 8.941102 15.799089 18.355636 -1.275922 0.534111 0.017290 -0.000640 -54576.500000 1 0 0
-3.339767 3.944402 14.906489 15.777064 -0.868215 0.333751 0.013286 -0.004939 123053.000000 1 0 0
-4.872667 -8.925098 19.676989 22.149134 1.071067 0.476978 0.055231 -0.013449 102380.000000 1 0 0
-5.770567 -2.936898 19.183589 20.246849 0.470778 0.325518 0.039842 -0.018380 -553783.000000 1 0 0
-6.661767 -8.634198 11.134089 15.585136 0.913642 0.775024 0.013473 -0.010002 -107282.000000 1 0 0
-11.856067 2.527302 12.681289 17.543337 -0.210022 0.762871 0.011190 -0.011217 316683.000000 1 0 0
-11.675667 -7.571998 11.664289 18.157973 0.575340 0.873199 0.023566 -0.010801 -2292740.000000 1 0 0
-11.203067 -7.298498 15.605589 20.550212 0.577410 0.708424 0.042978 -0.019472 -218618.000000 1 0 0
0.343433 5.851702 17.833289 18.771962 1.512174 0.317573 0.014230 -0.011820 -332127.000000 1 0 0
-2.335167 -0.145998 13.246389 13.451436 0.062440 0.174828 0.005613 -0.004780 271745.000000 1 0 0
-6.181367 -10.502098 18.157589 21.867817 1.038813 0.591090 0.042491 -0.005620 150075.000000 1 0 0
0.426233 2.734302 19.256989 19.454812 1.416157 0.142728 0.016762 -0.014769 -164155.000000 1 0 0
-0.764367 11.022802 14.829789 18.493487 -1.501563 0.640340 0.019112 -0.004401 -99164.600000 1 0 0
-12.847667 -2.332398 14.311989 19.373581 0.179587 0.739601 0.019038 -0.004922 166446.000000 1 0 0
-13.811367 8.448102 11.693889 19.971763 -0.548962 0.945274 0.014661 -0.009915 412949.000000 1 0 0
-18.085467 -0.541598 6.723789 19.302507 0.029938 1.214999 0.055305 -0.021438 -158597.000000 1 0 0
-2.040467 -7.823698 17.707489 19.466097 1.315673 0.428337 0.011048 -0.007317 -846969.000000 1 0 0
5.612033 2.655102 14.504189 15.777071 0.441904 0.404445 0.006963 -0.007632 -2903080.000000 1 0 0
-14.037467 -6.739098 11.000289 19.064949 0.447584 0.955758 0.023154 -0.014037 570456.000000 1 0 0
3.178633 7.670002 16.247689 18.246096 1.177918 0.472409 0.018380 -0.026787 -502651.000000 1 0 0
0.925533 2.080902 14.695389 14.870818 1.152296 0.153754 0.005416 -0.011103 -932270.000000 1 0 0
-14.414867 0.712402 9.723589 17.402416 -0.049381 0.977919 0.012710 -0.004321 -3464050.000000 1 0 0
-9.653567 -5.153798 15.580389 19.039473 0.490379 0.612314 0.025329 -0.006068 -72480.500000 1 0 0
-2.602967 0.069202 18.171889 18.357499 -0.026579 0.142323 0.020051 -0.014515 314127.000000 1 0 0
6.875033 3.830902 17.527989 19.213856 0.508369 0.422034 0.028401 -0.010356 -309755.000000 1 0 0
-4.331867 -0.864598 14.808889 15.453666 0.197002 0.289885 0.019221 -0.005038 -576624.000000 1 0 0
4.326533 -8.984998 17.909389 20.498666 -1.122035 0.508069 0.008938 0.004026 -100727.000000 1 0 0
1.958433 6.969302 13.518889 15.335155 1.296853 0.491636 0.014675 -0.008146 -1443610.000000 1 0 0
-3.755667 -0.843698 20.321289 20.682641 0.220978 0.187203 0.037086 -0.018294 -759262.000000 1 0 0
-10.792367 1.689902 16.195689 19.535386 -0.155322 0.593401 0.017143 -0.008657 18396.900000 1 0 0
-3.852567 7.145502 18.323089 20.040860 -1.076314 0.417053 0.020848 -0.003387 -620285.000000 1 0 0
-12.730667 1.030502 14.584689 19.386721 -0.080770 0.719246 0.013793 -0.007867 938574.000000 1 0 0
-15.982667 -4.630398 8.398189 18.639094 0.281993 1.103394 0.034060 -0.012766 -2245330.000000 1 0 0
-2.410967 0.688702 15.749789 15.948132 -0.278244 0.157877 0.015088 -0.008408 100451.000000 1 0 0
-13.736367 -8.783098 12.676289 20.652334 0.568891 0.909938 0.023470 -0.018696 404733.000000 1 0 0
5.943633 -3.246998 14.578989 16.075344 -0.499997 0.434891 -0.001888 -0.005683 794662.000000 1 0 0
-15.671967 0.394802 7.472889 17.366937 -0.025186 1.125978 0.021656 -0.014630 33815.900000 1 0 0
-14.134167 6.030102 12.452689 19.778935 -0.403253 0.889766 0.013583 -0.006410 433913.000000 1 0 0
0.326933 9.664002 16.718389 19.313320 1.536979 0.524368 0.018754 -0.016234 -372203.000000 1 0 0
-10.446967 -5.528898 10.763589 15.986328 0.486761 0.832134 0.014235 -0.005793 205106.000000 1 0 0
-3.257167 -10.995298 15.027089 18.902887 1.282799 0.651850 0.022040 -0.008071 207882.000000 1 0 0
-3.494967 2.671602 12.593789 13.340006 -0.652662 0.336059 0.007177 -0.001635 -1154400.000000 1 0 0
-12.418467 -7.754698 7.411389 16.409825 0.558203 1.102190 0.020204 -0.004071 953066.000000 1 0 0
-8.216767 -1.925898 13.222589 15.686338 0.230230 0.568078 0.011027 -0.003701 119211.000000 1 0 0
-9.812867 6.488002 9.494289 15.117144 -0.584190 0.891754 0.001053 -0.007055 -751201.000000 1 0 0
-17.887567 -3.429298 6.643489 19.387137 0.189416 1.221033 0.045944 -0.014799 368932.000000 1 0 0
-1.207567 0.086902 20.420189 20.456048 -0.071840 0.059220 0.021254 -0.020699 -1192820.000000 1 0 0
-2.736567 2.756602 20.250989 20.620141 -0.789045 0.189505 0.025198 -0.011119 -554510.000000 1 0 0
-3.794667 11.171802 11.137589 16.225121 -1.243358 0.814213 0.004414 -0.012371 -1052970.000000 1 0 0
-4.215767 -4.717098 14.815889 16.110067 0.841461 0.403566 0.019461 -0.011342 -502963.000000 1 0 0
-0.046167 -14.367698 13.187889 19.502649 1.567583 0.828190 0.009446 -0.008040 -285471.000000 1 0 0
-12.231567 0.411102 8.344889 14.812745 -0.033597 0.972351 -0.000912 -0.003993 -634263.000000 1 0 0
-7.813267 2.033202 15.459189 17.440401 -0.254578 0.481285 0.016492 -0.004965 -1425170.000000 1 0 0
3.383433 -2.023898 18.533489 18.948192 -0.539079 0.209602 0.007731 -0.006884 -158623.000000 1 0 0
-2.119667 4.838902 12.631889 13.692062 -1.157927 0.396107 0.004707 -0.002705 -410571.000000 1 0 0
-10.334867 -6.185598 13.327989 17.964031 0.539329 0.734857 0.010968 -0.010071 -806112.000000 1 0 0
2.281033 -3.730898 14.245189 14.901279 -1.022044 0.297846 -0.007001 -0.004552 -651208.000000 1 0 0
6.753433 1.261002 16.941189 18.281216 0.184594 0.385264 0.006342 -0.010487 -1724610.000000 1 0 0
-1.956767 -5.742698 13.714189 14.996216 1.242395 0.416501 0.005809 -0.005365 -1548530.000000 1 0 0
-13.266067 3.686802 14.525789 20.014484 -0.271072 0.758652 0.014826 -0.002478 353460.000000 1 0 0
-13.207267 -6.336798 13.453889 19.889546 0.447354 0.827892 0.014898 -0.019235 -806300.000000 1 0 0
-9.572767 6.921002 11.936689 16.793531 -0.625989 0.780174 0.006064 -0.005130 -517775.000000 1 0 0
-1.118967 -2.439498 12.852289 13.129530 1.140741 0.205867 0.000724 -0.001357 297100.000000 1 0 0
0.179933 6.753102 15.467889 16.878754 1.544158 0.411775 0.012655 -0.009644 324086.000000 1 0 0
-16.425367 -0.949898 9.557789 19.027515 0.057767 1.044523 0.034365 -0.010138 6417.730000 1 0 0
-1.299767 2.734702 13.927189 14.252529 -1.127114 0.214076 0.009185 -0.006500 -3160640.000000 1 0 0
-11.170467 -3.315398 16.211989 19.964964 0.288519 0.623188 0.025740 -0.012427 -165831.000000 1 0 0
-5.251267 -1.479598 17.145489 17.992576 0.274640 0.308071 0.032708 -0.009955 378997.000000 1 0 0
-11.965467 6.640802 11.120189 17.633243 -0.506672 0.888422 0.009893 -0.005833 -1611440.000000 1 0 0
-2.669467 4.869902 18.706289 19.513258 -1.069370 0.288594 0.023098 -0.008908 339207.000000 1 0 0
5.109233 -1.820998 16.546289 17.412638 -0.342377 0.316772 -0.001404 -0.005719 -315882.000000 1 0 0
-8.060867 -4.275098 12.238389 15.265392 0.487633 0.640649 0.010671 -0.000274 -1109410.000000 1 0 0
-11.731667 -0.769798 16.127089 19.957645 0.065523 0.629935 0.033862 -0.008181 607224.000000 1 0 0
2.115633 2.066302 17.492089 17.740312 0.773602 0.167480 0.006211 -0.011909 -2190780.000000 1 0 0
-8.975267 -7.547198 11.582189 16.482194 0.699180 0.791598 0.014624 -0.010664 303199.000000 1 0 0
-7.202867 6.949802 14.703189 17.786647 -0.767519 0.597682 0.000982 -0.002130 -367371.000000 1 0 0
-5.717067 3.456502 15.812689 17.166053 -0.543790 0.399745 0.018136 -0.004301 -163908.000000 1 0 0
-9.419567 4.214502 11.544489 15.484363 -0.420706 0.729425 0.002606 -0.007496 -316351.000000 1 0 0
-10.179867 0.199302 14.162789 17.442878 -0.019576 0.623307 0.010201 -0.006170 214956.000000 1 0 0
8.067933 -0.666698 15.807189 17.759596 -0.082448 0.473309 0.006522 -0.005432 22390.200000 1 0 0
-8.710167 -7.437598 14.736889 18.664425 0.706753 0.660687 0.028486 -0.008794 -2066890.000000 1 0 0
-0.124667 4.260502 15.699989 16.268284 -1.541544 0.265096 0.009363 -0.011934 173221.000000 1 0 0
-8.186567 3.079402 9.681389 13.047294 -0.359781 0.734714 -0.001496 -0.002162 -945240.000000 1 0 0
-2.072167 -9.693598 13.101089 16.428580 1.360199 0.647727 0.001044 -0.002374 488962.000000 1 0 0
-6.043067 10.244302 10.287289 15.725543 -1.037840 0.857702 0.007104 -0.010033 -1807420.000000 1 0 0
-8.575067 -2.788598 15.733389 18.134155 0.314411 0.520419 0.027381 -0.012709 830991.000000 1 0 0
4.335733 5.640602 17.645389 19.025633 0.915456 0.383252 0.018468 -0.022824 -255789.000000 1 0 0
-6.853167 -1.039598 15.257889 16.758575 0.150548 0.426419 0.018903 -0.005653 -1384350.000000 1 0 0
-0.953267 -9.994398 15.430889 18.409483 1.475704 0.576816 -0.003490 -0.001038 -261822.000000 1 0 0
-4.388567 5.792202 16.231189 17.783718 -0.922406 0.420954 0.012228 -0.002663 467117.000000 1 0 0
3.745933 0.130502 17.498989 17.895912 0.034824 0.211007 0.005568 -0.009756 -503746.000000 1 0 0
1.313633 0.329002 19.139789 19.187636 0.245404 0.070636 0.004575 -0.016275 -1212470.000000 1 0 0
-6.348667 6.495002 17.932189 20.101095 -0.796791 0.468824 0.010997 0.008060 -318982.000000 1 0 0
-12.274967 0.533702 11.014289 16.500734 -0.043452 0.839946 0.009556 -0.002842 -445755.000000 1 0 0
-5.477867 5.090602 13.972989 15.848207 -0.748771 0.491393 0.007342 -0.002851 -800383.000000 1 0 0
-8.666467 -9.625098 10.025189 16.378479 0.837759 0.912089 0.017220 -0.006858 -544986.000000 1 0 0
6.812633 -3.855498 16.945389 18.666093 -0.514994 0.432748 0.004869 -0.004656 204217.000000 1 0 0
-16.726067 1.606302 9.422089 19.264405 -0.095742 1.059747 0.035434 -0.017002 -619529.000000 1 0 0
-4.173967 -9.527898 11.430989 15.455431 1.157900 0.738306 0.013586 -0.007554 139974.000000 1 0 0
-11.082667 -3.822998 9.085289 14.831834 0.332171 0.911509 0.004787 0.000670 -808784.000000 1 0 0
3.507033 -5.407798 18.512689 19.602633 -0.995466 0.335037 -0.005638 -0.007086 -300192.000000 1 0 0
2.492533 -1.822498 16.142589 16.435249 -0.631349 0.188997 -0.000726 -0.008857 -123092.000000 1 0 0
-3.058367 -4.184898 20.195289 20.849860 0.939690 0.251238 0.038243 -0.019347 -699495.000000 1 0 0
-6.281267 -3.354298 14.400789 16.065129 0.490489 0.459216 0.015636 -0.005337 84180.100000 1 0 0
-9.867067 5.105002 13.885989 17.783159 -0.477453 0.674770 0.017798 -0.005785 461841.000000 1 0 0
-5.887367 -5.307498 11.807489 14.221372 0.733647 0.591216 0.005931 0.000827 -686715.000000 1 0 0
6.074833 2.121902 19.307089 20.351161 0.336046 0.321707 0.019483 -0.016528 197787.000000 1 0 0
-2.943267 11.720602 13.453089 18.083720 -1.324765 0.731859 0.016854 -0.017772 -265768.000000 1 0 0
3.313133 1.385602 15.237989 15.655448 0.396110 0.231451 -0.000255 -0.009874 -754991.000000 1 0 0
-5.713667 7.153902 12.569789 15.550688 -0.896862 0.629519 -0.003957 -0.012056 -649896.000000 1 0 0
-1.876967 -1.769698 15.290689 15.506773 0.755991 0.167136 0.011893 -0.007417 -483822.000000 1 0 0
-7.464067 10.840502 13.995589 19.212113 -0.967806 0.754700 0.019759 -0.004079 -17272.100000 1 0 0
-10.180967 1.945502 10.669089 14.875030 -0.188816 0.770951 0.000297 -0.004079 -2049510.000000 1 0 0
-13.646867 5.176202 9.206889 17.256791 -0.362532 1.008036 0.006390 -0.007926 579226.000000 1 0 0
0.550233 -4.716498 20.041389 20.596247 -1.454660 0.232644 0.016320 -0.022855 -312611.000000 1 0 0
-14.249867 -2.972298 7.494489 16.372557 0.205636 1.095337 0.008721 -0.007411 -46169.200000 1 0 0
-2.382567 2.585102 17.634689 17.981703 -0.826146 0.196777 0.015997 -0.011719 110212.000000 1 0 0
-6.376767 -8.397398 14.644089 18.045188 0.921323 0.624042 0.022708 -0.007280 98170.800000 1 0 0
-8.012867 2.074202 12.060089 14.627170 -0.253299 0.601480 0.002825 -0.004356 -505688.000000 1 0 0
-14.513967 -3.498198 10.141989 18.048617 0.236512 0.974084 0.015709 -0.008026 627406.000000 1 0 0
-0.611367 7.034902 12.894189 14.701147 -1.484109 0.501032 0.009135 -0.006406 119259.000000 1 0 0
-1.714767 -2.097898 19.254089 19.443805 0.885551 0.139807 0.027289 -0.021176 522827.000000 1 0 0
-12.830067 10.300302 7.472089 18.070389 -0.676461 1.144503 0.005446 -0.012903 552351.000000 1 0 0
-19.345267 2.072802 6.931489 20.653847 -0.106741 1.228551 0.055988 -0.025698 662706.000000 1 0 0
-16.053867 8.403702 6.548089 19.267234 -0.482246 1.224032 0.020942 -0.011769 671299.000000 1 0 0
-12.289167 7.501602 13.573889 19.787575 -0.548049 0.814846 0.009228 -0.000679 249574.000000 1 0 0
-16.019767 8.344802 10.293089 20.789813 -0.480233 1.052844 0.020257 -0.007795 401590.000000 1 0 0
1.836933 10.893302 14.934189 18.576015 1.403738 0.636888 0.025376 -0.019072 -1140940.000000 1 0 0
2.405333 14.614002 12.590489 19.439009 1.407668 0.866245 0.020476 -0.005432 -748993.000000 1 0 0
-3.288867 13.636602 11.625389 18.218760 -1.334136 0.878768 0.006858 -0.014361 -95417.000000 1 0 0
9.280933 4.709102 15.704189 18.839663 0.469546 0.585256 0.031349 -0.004293 9294.570000 1 0 0
-0.529067 12.660702 12.825089 18.029315 -1.529032 0.779384 0.011605 -0.012881 78512.400000 1 0 0
3.708733 13.367002 14.540689 20.096345 1.300150 0.761866 0.029336 -0.012526 87662.300000 1 0 0
-2.868767 -4.155298 -13.790311 14.685674 0.966551 2.790599 0.002850 -0.006861 -366994.000000 1 0 0
5.272033 -11.572898 16.336589 20.702909 -1.143337 0.661460 -0.004396 0.008637 120546.000000 1 0 0
8.061333 -13.539698 7.232989 17.338531 -1.033777 1.140475 0.011171 -0.006246 185445.000000 1 0 0
-0.078967 15.528402 1.347589 15.586965 -1.565711 1.484232 -0.000499 -0.004045 -1918740.000000 1 0 0
-13.709467 8.084802 9.076389 18.321963 -0.532829 1.052521 0.002338 -0.006277 470016.000000 1 0 0
-15.537467 -9.682698 4.742889 18.911968 0.557292 1.317302 0.030122 -0.007680 -795883.000000 1 0 0
9.479033 -11.277398 10.993289 18.381626 -0.871824 0.929720 0.015429 -0.005756 435940.000000 1 0 0
-5.902067 -10.318898 -16.750411 20.539969 1.051245 2.524394 0.017091 -0.007311 42680.600000 1 0 0
-1.900567 -12.546798 -14.875811 19.553109 1.420461 2.435326 0.012615 -0.004151 -49219.700000 1 0 0
5.828833 -15.777698 -11.573011 20.416798 -1.216914 2.173459 0.047088 -0.013146 245665.000000 1 0 0
2.632933 -11.516598 -16.732211 20.482462 -1.346038 2.526819 0.040395 -0.011944 238775.000000 1 0 0
0.461833 -13.777198 -14.405811 19.938703 -1.537287 2.378215 0.032632 -0.000224 -273886.000000 1 0 0
-6.913867 -5.727798 -15.080311 17.550642 0.691850 2.604589 0.021594 0.009191 -8877.310000 1 0 0
-5.963467 -8.154798 -17.653411 20.339779 0.939382 2.621807 0.003030 0.002101 32157.000000 1 0 0
-2.565267 -16.150798 -13.272411 21.061476 1.413280 2.252575 0.024638 -0.002523 356180.000000 1 0 0
15.537533 -7.872598 -9.116711 19.659785 -0.468979 2.052990 0.008407 -0.004882 -39396.600000 1 0 0
19.108833 -2.934798 -3.680811 19.680165 -0.152393 1.758936 0.037802 -0.010131 59934.900000 1 0 0
15.817333 -11.573598 -8.537411 21.378110 -0.631688 1.981607 0.042631 -0.014227 -5517.650000 1 0 0
18.647633 -2.924998 -6.629111 20.005873 -0.155589 1.908539 0.155371 -0.005623 -245620.000000 1 0 0
9.089733 -9.835798 -15.927011 20.809514 -0.824799 2.442415 0.055875 -0.000300 72372.400000 1 0 0
-4.666467 9.555502 -15.917911 19.143234 -1.116509 2.552628 0.003095 -0.007317 440464.000000 1 0 0
2.546733 -9.482398 -18.728211 21.145865 -1.308413 2.658727 0.042211 0.001830 340667.000000 1 0 0
11.310533 7.845802 -15.068911 20.409724 0.606466 2.401373 0.048024 -0.040100 425594.000000 1 0 0
18.414633 -6.377498 -8.662811 21.326403 -0.333400 1.989089 0.038294 -0.002345 228722.000000 1 0 0
12.382133 5.371402 -13.655611 19.200127 0.409303 2.362036 0.020023 -0.013296 79230.300000 1 0 0
16.008133 6.075702 -10.809911 20.249164 0.362744 2.133937 0.018779 -0.013977 270957.000000 1 0 0
3.274933 -0.050898 -19.136311 19.414587 -0.015541 2.972077 0.042506 -0.012813 197848.000000 1 0 0
10.410633 -1.634898 -15.207811 18.502208 -0.155769 2.535615 0.023839 0.007155 267418.000000 1 0 0
12.213633 -6.165198 -14.131811 19.669534 -0.467464 2.372385 0.021632 0.000199 491350.000000 1 0 0
10.285633 6.478402 -12.903611 17.727581 0.562079 2.386026 0.019452 -0.007248 449105.000000 1 0 0
10.535533 5.544402 -16.675611 20.489359 0.484432 2.521573 0.022022 -0.001735 323624.000000 1 0 0
12.129033 -9.780798 -14.947711 21.591932 -0.678629 2.335443 0.056007 -0.022825 354911.000000 1 0 0
-1.438567 2.139302 -17.606311 17.794052 -0.978803 2.996201 0.008934 -0.008476 324925.000000 1 0 0
6.585233 -1.039098 -17.266311 18.508661 -0.156502 2.773117 0.028949 0.008947 118526.000000 1 0 0
6.788333 -5.717498 -15.572311 17.923954 -0.699980 2.623568 0.012704 -0.009742 299376.000000 1 0 0
-2.306567 -4.391298 -20.580711 21.170012 1.087147 2.905090 0.022230 -0.019038 475130.000000 1 0 0
16.043333 -0.256398 -13.398711 20.904060 -0.015980 2.266547 0.027280 0.002330 -44904.900000 1 0 0
-3.879267 -0.404398 -18.547511 18.953164 0.103871 2.934326 0.007918 -0.008247 128678.000000 1 0 0
3.486933 9.138002 -17.412811 19.971674 1.206264 2.629815 0.027514 -0.028378 -368465.000000 1 0 0
10.268033 0.510202 -16.724911 19.632001 0.049648 2.590439 0.039558 -0.019925 -96216.700000 1 0 0
4.165033 4.438902 -18.123311 19.118205 0.817218 2.817566 0.037076 -0.011130 365879.000000 1 0 0
-2.995967 -10.847298 -17.641011 20.924746 1.301320 2.573761 0.022704 -0.027275 265127.000000 1 0 0
7.020133 -9.075198 -15.951811 19.649472 -0.912392 2.518057 0.055532 -0.014637 -1579.760000 1 0 0
10.333233 -12.188398 -10.555311 19.150649 -0.867585 2.154565 0.027814 -0.013452 305783.000000 1 0 0
6.256333 6.750302 -17.152011 19.465348 0.823358 2.649098 0.036282 -0.011167 361763.000000 1 0 0
8.838733 1.443102 -19.974711 21.890519 0.161842 2.720107 0.057478 -0.017561 127810.000000 1 0 0
-0.988067 -0.618398 -20.315211 20.348624 0.559222 3.084278 0.022536 -0.010177 165841.000000 1 0 0
-1.184967 7.004002 -19.435211 20.692695 -1.403199 2.791178 0.011765 -0.008812 40336.200000 1 0 0
8.278433 5.829902 -18.035111 20.682975 0.613558 2.630026 0.032983 -0.016767 199571.000000 1 0 0
12.142333 0.062302 -13.097811 17.860369 0.005131 2.394025 0.005879 0.001870 20299.600000 1 0 0
-4.131867 -2.596398 -19.908911 20.498252 0.561029 2.901219 -0.000845 -0.007398 374361.000000 1 0 0
5.386733 -11.356898 -14.508811 19.196396 -1.127908 2.427685 0.009298 -0.005933 -43666.200000 1 0 0
11.548333 3.103502 -15.582611 19.642135 0.262537 2.487049 0.030053 -0.003484 -70788.700000 1 0 0
-2.919267 -4.095398 -17.247011 17.965350 0.951520 2.857853 0.004364 -0.007363 265423.000000 1 0 0
-6.800467 -4.879898 -17.620711 19.507671 0.622429 2.698129 0.020697 -0.003307 91520.500000 1 0 0
3.042133 10.612102 -15.493011 19.023792 1.291617 2.522494 0.008327 -0.010478 241618.000000 1 0 0
16.923333 -6.285298 -10.700811 20.985984 -0.355609 2.105868 0.045714 -0.011734 -43859.700000 1 0 0
9.195933 -3.148298 -17.675411 20.171691 -0.329850 2.638817 -0.002929 -0.012173 173240.000000 1 0 0
-7.240667 -1.314798 -18.770411 20.161456 0.179628 2.767952 0.002254 0.002563 645074.000000 1 0 0
1.205233 -7.127098 -19.280811 20.591207 -1.403276 2.782914 0.033528 -0.021541 195301.000000 1 0 0
5.957233 10.410602 -14.045811 18.470356 1.051048 2.434805 0.024755 -0.017448 454909.000000 1 0 0
6.063333 -3.920098 -17.362311 18.803750 -0.573929 2.747494 0.039974 -0.029479 439188.000000 1 0 0
4.604233 13.379002 -14.542411 20.289859 1.239353 2.369902 0.024527 -0.025897 119920.000000 1 0 0
9.210033 11.122102 -15.375111 21.093124 0.879164 2.387533 0.052519 -0.034013 188944.000000 1 0 0
17.214833 0.759602 -11.604711 20.774908 0.044096 2.163484 0.043756 0.004697 190455.000000 1 0 0
14.623433 -3.024498 -12.500211 19.474282 -0.203950 2.267748 0.032268 0.003354 69408.300000 1 0 0
-8.830967 0.534702 -17.420411 19.538235 -0.060475 2.671676 0.012595 -0.007405 452629.000000 1 0 0
-3.664167 4.373102 -19.040211 19.876614 -0.873376 2.850463 0.018225 -0.003278 215217.000000 1 0 0
3.913733 1.831902 -16.929611 17.472404 0.437779 2.891681 0.022769 -0.002515 546786.000000 1 0 0
-4.881467 14.236002 -13.853511 20.455127 -1.240464 2.314833 -0.007755 -0.002980 367934.000000 1 0 0
0.950633 9.061402 -17.714111 19.919901 1.466269 2.666537 0.015897 -0.018005 360723.000000 1 0 0
1.282433 -4.806298 -19.764711 20.381093 -1.310048 2.895030 0.031717 -0.009877 502746.000000 1 0 0
3.876433 -6.176998 -18.170411 19.579221 -1.010359 2.759927 0.039596 -0.016231 118260.000000 1 0 0
-7.312967 7.274402 -15.797211 18.866592 -0.782754 2.563143 0.006410 -0.001515 65365.300000 1 0 0
-12.224067 2.942602 -16.816811 20.997425 -0.236228 2.499591 0.054502 -0.009507 412285.000000 1 0 0
-4.300767 6.906102 -17.151811 18.983558 -1.013817 2.698684 0.003484 0.005100 405712.000000 1 0 0
-8.300867 5.484002 -17.482311 20.114917 -0.583828 2.624220 0.013385 -0.005070 296230.000000 1 0 0
-8.481667 4.105802 -15.223511 17.903954 -0.450830 2.587328 -0.008389 -0.005142 455004.000000 1 0 0
9.558433 13.441202 -12.861511 20.915258 0.952640 2.233099 0.044512 -0.032383 357056.000000 1 0 0
14.233333 9.572102 -11.979811 20.921969 0.592039 2.180464 0.050403 -0.023361 122067.000000 1 0 0
8.510233 15.406402 -9.916111 20.201746 1.066125 2.083866 0.021054 -0.021756 9906.300000 1 0 0
7.953833 13.468602 -14.379811 21.247251 1.037357 2.314182 0.048348 -0.034230 92922.300000 1 0 0
3.966033 15.691202 -12.835911 20.656811 1.323226 2.241310 0.035059 -0.023774 226308.000000 1 0 0
10.836333 11.840402 -11.237211 19.593268 0.829647 2.181598 0.036438 -0.023801 170608.000000 1 0 0
15.823433 10.159302 -8.733711 20.733310 0.570760 2.005609 0.037069 -0.056082 283279.000000 1 0 0
13.123033 11.383902 -9.669311 19.882223 0.714552 2.078680 0.044548 -0.025362 19952.600000 1 0 0
11.090333 11.186402 -8.282011 17.796707 0.789711 2.054846 0.028570 -0.014544 -245969.000000 1 0 0
6.168333 16.975302 -10.323011 20.803215 1.222260 2.090038 0.053931 -0.006023 126544.000000 1 0 0
11.656433 13.785302 -10.237411 20.753591 0.868880 2.086657 0.060391 -0.035240 100318.000000 1 0 0
8.128133 -19.362998 -1.506011 21.053748 -1.173358 1.642389 0.035921 -0.004314 200647.000000 1 0 0
7.314433 -16.768798 -3.869511 18.699375 -1.159483 1.779235 0.023472 -0.009073 331430.000000 1 0 0
3.890533 -19.109298 5.781789 20.340369 -1.369948 1.282570 0.038114 -0.002160 245756.000000 1 0 0
10.293533 -17.913098 -2.293911 20.786966 -1.049235 1.681375 0.041510 -0.007180 489774.000000 1 0 0
-2.958167 -14.869998 7.902589 17.097325 1.374425 1.090308 0.020322 -0.030486 222781.000000 1 0 0
-15.508267 -12.951998 -4.407811 20.680653 0.695820 1.785581 0.028954 -0.005516 -58770.600000 1 0 0
-9.133067 -12.722598 -7.342711 17.297191 0.948183 2.009209 0.030119 -0.017289 89703.900000 1 0 0
-11.520667 -15.268698 6.634089 20.245248 0.924403 1.236943 0.020172 -0.011997 286785.000000 1 0 0
-14.730467 -7.302098 -7.238511 17.963946 0.460213 1.985530 0.039223 -0.024534 -84153.500000 1 0 0
5.259433 -15.532798 6.139889 17.510788 -1.244312 1.212548 0.032956 -0.011534 212713.000000 1 0 0
2.689633 -14.221198 8.981889 17.033817 -1.383876 1.015380 0.010486 -0.002615 457237.000000 1 0 0
2.990733 -17.668498 10.105089 20.572631 -1.403117 1.057340 0.018722 0.001043 292629.000000 1 0 0
-7.325367 -17.058698 -6.241611 19.586166 1.165187 1.895127 -0.012972 -0.008528 33017.500000 1 0 0
2.081133 -19.958298 -4.014911 20.464220 -1.466898 1.768269 0.011695 0.000256 76538.700000 1 0 0
-17.167967 -10.812798 -2.441211 20.435636 0.562061 1.690541 -0.069160 -0.008297 -139930.000000 1 0 0
-4.102567 -14.720298 2.695489 15.517213 1.298992 1.396201 0.003646 -0.004148 34021.800000 1 0 0
-10.942167 -10.134398 -14.628411 20.890846 0.747091 2.346517 0.020268 0.005018 291050.000000 1 0 0
0.575333 -20.347198 2.530989 20.512079 -1.542528 1.447091 0.022300 -0.014912 219107.000000 1 0 0
5.899733 -18.668898 1.089589 19.609228 -1.264708 1.515203 0.014904 0.008192 299772.000000 1 0 0
-7.876267 -18.945498 -3.532311 20.819335 1.176801 1.741286 0.036063 -0.018615 349765.000000 1 0 0
-9.767867 -15.592598 -7.522511 19.877840 1.011160 1.958904 0.047101 -0.017814 101095.000000 1 0 0
-11.813067 -11.226798 -12.259111 20.393022 0.759958 2.215726 0.020458 -0.002194 255812.000000 1 0 0
-13.235067 -14.958298 -3.264711 20.237985 0.846444 1.732820 0.019050 -0.017034 196789.000000 1 0 0
-0.470167 -20.636898 -2.681911 20.815746 1.548017 1.699996 0.021695 -0.008896 448803.000000 1 0 0
-12.149167 -16.739598 -0.859011 20.701553 0.942981 1.612303 0.031300 -0.010785 153235.000000 1 0 0
0.730233 -19.993598 5.244389 20.682863 -1.534289 1.314435 0.030510 -0.023529 26696.800000 1 0 0
-18.326367 -9.610298 2.399389 20.831962 0.482974 1.455362 0.049074 -0.000943 42235.900000 1 0 0
-14.905967 -15.181798 -0.641411 21.285823 0.794565 1.600934 0.017974 -0.004023 -155332.000000 1 0 0
9.764433 -15.795298 -4.706911 19.156999 -1.017112 1.819040 0.031463 -0.001952 21769.200000 1 0 0
0.175033 -18.913398 -7.095911 20.201466 -1.561542 1.929710 0.013764 -0.006241 140644.000000 1 0 0
-9.820067 -16.670298 -2.496911 19.508130 1.038448 1.699142 0.023727 -0.015604 525600.000000 1 0 0
-14.612367 -6.891798 -11.412611 19.780441 0.440705 2.185804 0.027828 -0.002630 -93957.400000 1 0 0
-12.220367 -15.184698 2.298889 19.626445 0.893147 1.453395 0.018539 -0.012915 100154.000000 1 0 0
-2.698067 -16.388798 10.065389 19.421234 1.407631 1.025973 0.021276 -0.015521 267501.000000 1 0 0
-12.867567 -14.321698 -6.332311 20.267794 0.838829 1.888549 0.045620 -0.017883 188674.000000 1 0 0
5.187733 -16.937198 -7.477411 19.227401 -1.273577 1.970227 0.008030 -0.008088 107231.000000 1 0 0
-17.993967 -7.348398 -2.816011 19.639545 0.387711 1.714677 0.027482 -0.004003 -18980.200000 1 0 0
-12.455767 -13.440398 -8.354211 20.139098 0.823402 1.998547 0.058124 -0.047951 169450.000000 1 0 0
-7.874267 -14.016498 9.894789 18.877848 1.058950 1.019082 0.027842 -0.009606 418201.000000 1 0 0
-15.880767 -8.506298 -5.665211 18.885192 0.491748 1.875470 0.031946 0.005878 168461.000000 1 0 0
-0.458867 -19.546198 -0.099511 19.551837 1.547325 1.575886 0.019970 -0.011177 202943.000000 1 0 0
-15.058367 -11.595998 -1.995511 19.110303 0.656223 1.675408 0.009293 0.004253 -99669.300000 1 0 0
-7.047667 -19.309598 1.802389 20.634408 1.220837 1.483336 0.006930 -0.004965 176975.000000 1 0 0
-2.192267 -20.497098 -5.548711 21.347723 1.464246 1.833736 0.013230 -0.005153 261216.000000 1 0 0
-9.067867 -19.826598 -0.851111 21.818446 1.141840 1.609815 0.019015 0.005410 61765.900000 1 0 0
-17.919667 -7.414798 4.797789 19.977800 0.392329 1.328270 0.055422 -0.010018 136450.000000 1 0 0
-2.780667 -15.584198 -10.568311 19.033879 1.394226 2.159444 0.011979 -0.005388 41158.400000 1 0 0
-3.002767 -18.546898 -7.803911 20.344657 1.410288 1.964472 0.008908 0.005126 212712.000000 1 0 0
4.435433 -18.165298 -5.561611 19.508528 -1.331312 1.859893 0.001326 0.032752 668928.000000 1 0 0
0.668433 -17.475498 -9.251111 19.784411 -1.532565 2.057366 0.002817 0.003587 107282.000000 1 0 0
-7.334667 -11.181998 -13.810611 19.224136 0.990260 2.372295 -0.003918 -0.035660 97821.300000 1 0 0
-5.217567 -18.446198 -1.227911 19.209191 1.295144 1.634763 0.024456 -0.034249 162574.000000 1 0 0
-10.113567 -15.877598 8.380689 20.606269 1.003635 1.151951 0.019073 -0.019397 282192.000000 1 0 0
-7.927367 -14.663198 -9.543311 19.207481 1.075175 2.090766 0.054924 -0.025189 322432.000000 1 0 0
-12.741367 -8.013198 -12.183111 19.364452 0.561407 2.251253 0.029943 -0.012969 277118.000000 1 0 0
-15.862167 -13.216098 3.160689 20.886923 0.694650 1.418889 0.028559 -0.003348 64787.600000 1 0 0
-6.141567 -14.202598 -13.078811 20.260502 1.162653 2.272517 -0.006736 0.003341 449397.000000 1 0 0
-14.262167 -11.497798 -6.728511 19.516189 0.678495 1.922785 0.043424 -0.016953 131061.000000 1 0 0
-11.790567 -10.477398 -8.052911 17.709961 0.726495 2.042844 0.029276 -0.015697 310321.000000 1 0 0
-9.619567 -14.851798 3.351689 18.009603 0.996037 1.383599 0.001935 -0.003503 403168.000000 1 0 0
5.344833 -17.854998 8.079589 20.313738 -1.279939 1.161744 0.051616 -0.034240 248906.000000 1 0 0
-5.102167 -16.528298 5.335889 18.102167 1.271384 1.271587 0.007257 -0.000543 86548.200000 1 0 0
-18.138967 -7.420298 -6.369011 20.606971 0.388310 1.885012 0.021106 -0.019169 -13583.600000 1 0 0
-17.300367 -4.667798 -10.617011 20.828153 0.263534 2.105683 0.056347 -0.003640 -33535.300000 1 0 0
-15.684767 -4.394998 -13.044111 20.868080 0.273202 2.246024 0.041263 -0.008501 226254.000000 1 0 0
-19.424267 -4.936898 -5.931111 20.901033 0.248891 1.858521 0.048539 -0.004191 -60359.100000 1 0 0
5.830133 -13.515398 8.717789 17.107200 -1.163543 1.036079 0.033361 -0.004172 319277.000000 1 0 0
19.978733 -3.196598 2.651689 20.405868 -0.158655 1.440480 0.052717 -0.004971 -66417.500000 1 0 0
18.098233 -2.691898 -0.018411 18.297341 -0.147656 1.571803 0.028182 -0.004631 412662.000000 1 0 0
14.272433 -11.284198 0.301489 18.196878 -0.669001 1.554227 0.041121 -0.004542 -15993.800000 1 0 0
11.178233 -14.038798 6.184289 18.981206 -0.898353 1.238927 0.027950 0.009699 432727.000000 1 0 0
10.291133 -13.377598 8.965989 19.111685 -0.915069 1.082484 0.038576 -0.005493 18718.400000 1 0 0
17.700133 4.468102 -4.136711 18.718200 0.247267 1.793635 -0.011722 0.004350 -233403.000000 1 0 0
18.749433 -6.346598 -4.629211 20.328555 -0.326389 1.800531 0.041493 -0.012257 20812.000000 1 0 0
17.523733 -9.905098 0.443589 20.134273 -0.514468 1.548763 0.043705 -0.005360 236481.000000 1 0 0
17.779733 -8.810598 8.498289 21.586256 -0.460075 1.166154 0.092976 -0.024785 -207015.000000 1 0 0
19.901133 0.537602 -2.327111 20.043940 0.027007 1.687159 0.035846 0.002319 82957.000000 1 0 0
7.575433 -13.102898 11.655789 19.103155 -1.046598 0.914547 0.021452 -0.000833 362348.000000 1 0 0
16.076633 -6.588898 -3.306911 17.686361 -0.388963 1.758878 0.038076 -0.006100 363419.000000 1 0 0
14.177333 -6.928498 12.502789 20.132575 -0.454569 0.900749 0.021520 -0.018531 202750.000000 1 0 0
16.457533 0.948102 10.390189 19.486028 0.057545 1.008403 0.050481 -0.019245 229871.000000 1 0 0
16.404833 -10.567998 2.645089 19.692578 -0.572287 1.436070 0.015159 -0.006860 92860.700000 1 0 0
16.534733 -7.581198 -6.029911 19.163293 -0.429901 1.890894 0.058907 -0.001561 197824.000000 1 0 0
18.838933 -5.008498 4.431989 19.990822 -0.259848 1.347238 0.164890 -0.031040 -525179.000000 1 0 0
13.159233 -13.191098 8.075489 20.307240 -0.786607 1.161825 0.033398 -0.025393 292597.000000 1 0 0
15.274033 -14.325498 -1.728011 21.011949 -0.753364 1.653129 0.051241 -0.007900 144508.000000 1 0 0
18.665533 -6.102298 7.599689 21.056957 -0.315975 1.201552 0.079730 -0.028045 249035.000000 1 0 0
19.548933 3.451102 2.853389 20.055241 0.174736 1.428035 0.026966 0.002843 311470.000000 1 0 0
15.806433 -10.760998 8.047889 20.746347 -0.597723 1.172424 0.048761 -0.034545 187537.000000 1 0 0
14.294733 -4.145398 10.784989 18.380416 -0.282253 0.943738 0.037499 -0.013843 -57605.600000 1 0 0
18.789233 -7.744598 1.953589 20.416429 -0.390964 1.474963 0.063161 -0.017532 -53047.800000 1 0 0
18.967433 -5.043398 -1.891611 19.717443 -0.259884 1.666880 0.043383 -0.008970 395085.000000 1 0 0
14.506733 -13.884498 -6.204911 21.017267 -0.763485 1.870492 0.054632 -0.016096 438022.000000 1 0 0
13.903333 -9.491398 9.996389 19.578486 -0.599001 1.034937 0.011300 -0.025546 503556.000000 1 0 0
14.371433 2.326102 0.540689 14.568499 0.160464 1.533674 0.003812 -0.000773 -16750.600000 1 0 0
13.042933 2.606502 13.527589 18.971231 0.197242 0.776946 0.035051 -0.010022 248000.000000 1 0 0
18.258033 -3.303198 9.294089 20.752035 -0.178982 1.106421 0.061056 -0.015828 50132.200000 1 0 0
6.827133 -17.889498 4.598289 19.692337 -1.206228 1.335114 0.022397 -0.025582 367339.000000 1 0 0
11.577833 -2.927798 15.497289 19.564871 -0.247687 0.656558 0.004872 0.009048 161811.000000 1 0 0
11.055933 -13.758198 -6.666811 18.867115 -0.893871 1.931953 0.022229 -0.014570 115060.000000 1 0 0
10.567333 -17.669598 4.528289 21.080527 -1.031811 1.354300 0.028196 -0.009674 515093.000000 1 0 0
18.426033 -0.319798 -5.339711 19.186805 -0.017354 1.852821 0.049359 -0.004378 245292.000000 1 0 0
4.552033 -13.884998 11.607489 18.661403 -1.254000 0.899495 0.019363 0.003645 289871.000000 1 0 0
8.891433 -2.729398 13.446489 16.349778 -0.297838 0.605133 -0.004860 -0.016058 44270.300000 1 0 0
8.869933 -9.368198 13.643689 18.777356 -0.812711 0.757431 0.010464 -0.013714 411013.000000 1 0 0
21.079833 5.745802 -2.791711 22.026512 0.266109 1.697881 0.044028 0.002239 531029.000000 1 0 0
14.719133 -13.287998 1.864089 19.917294 -0.734344 1.477068 0.035068 -0.007448 288228.000000 1 0 0
10.842333 0.263602 14.060489 17.757337 0.024307 0.657025 0.015448 -0.027277 189595.000000 1 0 0
19.310733 0.374202 7.979889 20.897920 0.019375 1.178998 0.056373 -0.011802 212096.000000 1 0 0
19.591233 1.574102 0.540489 19.661799 0.080175 1.543304 0.017785 0.000551 146244.000000 1 0 0
18.235633 0.264602 3.134089 18.504887 0.014509 1.400611 0.037026 -0.002012 35095.800000 1 0 0
10.279833 -8.406798 16.326689 21.045427 -0.685498 0.682841 0.025419 -0.004143 152194.000000 1 0 0
19.020233 2.876202 5.595089 20.033642 0.150081 1.287747 0.038450 -0.004015 148321.000000 1 0 0
15.247233 2.572302 6.974089 16.962687 0.167132 1.147089 0.025495 -0.007508 42215.400000 1 0 0
11.433233 -15.950598 2.284289 19.757489 -0.948890 1.454921 0.019955 0.004709 231316.000000 1 0 0
8.397033 -16.319498 7.182689 19.708557 -1.095585 1.197759 0.026271 -0.001964 228504.000000 1 0 0
6.202433 6.886702 7.245189 11.763911 0.837628 0.907290 0.001221 0.001194 -751492.000000 1 0 0
18.559733 2.436602 -6.639911 19.861750 0.130538 1.911666 0.025833 0.006234 251246.000000 1 0 0
14.135133 4.448902 -7.134711 16.446848 0.304925 2.019507 0.009266 -0.005149 212736.000000 1 0 0
-10.391367 -3.915998 -13.833411 17.739189 0.360393 2.465178 0.005752 -0.002789 -441326.000000 1 0 0
7.571833 -14.134298 -10.332111 19.075208 -1.078993 2.143197 0.010869 0.000090 8232.430000 1 0 0
1.967333 -15.831898 13.846789 21.124700 -1.447166 0.855980 0.003592 -0.004232 374297.000000 1 0 0
-9.308567 -8.226698 2.377189 12.648281 0.723780 1.381726 0.015343 -0.001480 449655.000000 1 0 0
-13.774467 3.219202 -9.713111 17.159363 -0.229587 2.172507 0.010567 -0.002097 315714.000000 1 0 0
-12.784167 -4.874398 -13.634911 19.315939 0.364269 2.354474 0.012476 0.004544 162192.000000 1 0 0
-18.080867 -1.151198 -8.539111 20.028965 0.063584 2.011237 0.061608 -0.019479 374805.000000 1 0 0
-12.359567 15.237602 4.276889 20.080717 -0.889310 1.356167 0.019489 -0.015805 325631.000000 1 0 0
-17.317267 6.314902 9.326389 20.657862 -0.349674 1.102385 0.024015 -0.017144 86728.400000 1 0 0
-13.150167 15.207702 -0.136811 20.105218 -0.857827 1.577601 0.031606 -0.023375 155433.000000 1 0 0
-15.821867 5.292502 -10.910411 19.934371 -0.322805 2.149951 0.027902 0.001277 39286.000000 1 0 0
-18.505767 2.903902 -0.397011 18.736427 -0.155649 1.591987 0.067769 -0.007585 -93380.000000 1 0 0
-9.658867 15.207602 -0.497211 18.022544 -1.004943 1.598388 0.013405 -0.014589 -207875.000000 1 0 0
-18.490267 12.347202 2.714289 22.398900 -0.588764 1.449318 0.090179 -0.012623 -82773.100000 1 0 0
-8.153867 16.551502 -7.629611 19.966190 -1.113057 1.962893 0.041850 -0.027167 100543.000000 1 0 0
-15.028467 -2.408998 -13.596511 20.408900 0.158944 2.299905 0.030852 0.003142 136563.000000 1 0 0
-19.134067 5.131102 -4.710411 20.362434 -0.262001 1.804239 0.066390 -0.012186 -74471.600000 1 0 0
-16.855967 9.382202 -5.856111 20.160441 -0.507904 1.865520 0.058105 -0.000728 -19577.000000 1 0 0
-18.975467 1.350302 2.567089 19.195875 -0.071041 1.436663 0.055578 -0.021602 360704.000000 1 0 0
-13.545067 12.104002 -7.087511 19.498936 -0.729273 1.942799 0.035470 -0.008099 186594.000000 1 0 0
-13.093367 5.422902 -13.325211 19.452645 -0.392663 2.325411 0.025098 -0.006427 -87625.300000 1 0 0
-14.062667 9.464802 -6.643111 18.206373 -0.592405 1.944298 0.034064 -0.009814 247781.000000 1 0 0
-6.399367 11.629302 -15.268611 20.231734 -1.067738 2.425972 -0.002225 -0.016103 132279.000000 1 0 0
-14.945167 13.881302 3.024389 20.620269 -0.748509 1.423595 0.015065 -0.018350 -45123.900000 1 0 0
-18.785467 8.379002 -4.746111 21.109880 -0.419553 1.797564 0.067687 -0.011284 249980.000000 1 0 0
-3.591267 16.851802 -10.062711 19.953410 -1.360829 2.099379 -0.000383 -0.002431 89399.100000 1 0 0
-19.096267 -1.622798 -6.951011 20.386698 0.084776 1.918732 0.023713 -0.006296 -229052.000000 1 0 0
-10.699667 13.942802 -6.063411 18.591653 -0.916254 1.903010 0.019734 -0.017355 36385.000000 1 0 0
-19.368767 2.833702 4.415289 20.066733 -0.145272 1.348951 0.067146 -0.023849 103151.000000 1 0 0
-14.858167 12.310402 0.365789 19.298832 -0.691895 1.551841 0.009660 -0.009519 -67211.600000 1 0 0
-16.773767 1.795702 -9.617811 19.418705 -0.106648 2.088960 -0.011106 0.001421 83634.000000 1 0 0
-16.975367 12.420102 -4.782511 21.570685 -0.631656 1.794368 0.075653 -0.015779 433136.000000 1 0 0
-10.262367 15.677502 -8.692411 20.655707 -0.991200 2.005149 0.023099 -0.020984 74288.300000 1 0 0
-18.907167 2.125502 -7.027711 20.282689 -0.111948 1.924621 0.028383 -0.014439 266603.000000 1 0 0
-17.343667 10.550402 -0.672811 20.311732 -0.546511 1.603927 0.050246 0.000042 -52842.000000 1 0 0
-11.520767 6.551502 -14.624611 19.736502 -0.517063 2.405344 0.006204 -0.009061 196325.000000 1 0 0
-14.281867 13.906302 -4.769511 20.496468 -0.772075 1.805648 0.052481 0.003950 261077.000000 1 0 0
-18.815967 7.563102 0.009489 20.279083 -0.382187 1.570328 0.051263 -0.010326 -62779.100000 1 0 0
-14.432567 9.032002 -9.973111 19.731675 -0.559179 2.100684 0.027644 -0.019609 596188.000000 1 0 0
-18.549967 11.456902 4.853789 22.336543 -0.553278 1.351746 0.059089 -0.025648 151177.000000 1 0 0
-7.999267 12.160502 -13.050611 19.549540 -0.988952 2.301731 -0.011654 -0.000958 442733.000000 1 0 0
-21.109267 -1.335598 -5.409011 21.832141 0.063186 1.821158 0.051155 -0.016450 413599.000000 1 0 0
-10.689567 13.451402 -3.024111 17.445696 -0.899307 1.745021 0.021768 -0.008189 406761.000000 1 0 0
-18.660567 -4.890598 3.682689 19.639168 0.256317 1.382162 0.042815 -0.012801 -4800.050000 1 0 0
-10.866067 11.178102 -13.514511 20.631611 -0.799552 2.285031 -0.000190 -0.008261 263810.000000 1 0 0
-14.539467 11.240302 -10.413511 21.123014 -0.658115 2.086324 0.046177 -0.020065 262257.000000 1 0 0
-12.867167 9.944202 -13.482411 21.124075 -0.657956 2.263017 0.027899 -0.015528 86077.200000 1 0 0
-18.353167 -4.554598 -2.386211 19.059830 0.243250 1.696322 0.022321 -0.009070 -315483.000000 1 0 0
-9.464367 12.418402 -11.442211 19.357560 -0.919581 2.203215 0.017826 -0.015401 6397.680000 1 0 0
-15.494867 7.721402 -7.987211 19.065846 -0.462303 2.003060 0.017543 -0.004382 -74822.500000 1 0 0
-14.588067 8.806302 2.073489 17.165722 -0.543110 1.449708 0.017883 -0.004509 -135525.000000 1 0 0
-19.782667 5.999102 8.160989 22.224871 -0.294436 1.194799 0.080283 -0.024263 260132.000000 1 0 0
-18.910067 6.076402 3.866789 20.235250 -0.310910 1.378522 0.048606 -0.009190 104677.000000 1 0 0
-14.539667 12.930402 5.712189 20.278716 -0.726883 1.285248 0.017904 -0.016144 54542.700000 1 0 0
18.137733 5.928702 5.752289 19.930270 0.315923 1.278010 0.019950 -0.007002 161257.000000 1 0 0
18.359333 7.285802 0.505989 19.758644 0.377783 1.545185 0.018156 0.000907 -93686.700000 1 0 0
16.937233 4.400302 8.630789 19.512125 0.254181 1.112602 0.031254 -0.007210 -1818.420000 1 0 0
12.483233 12.909902 10.634889 20.870973 0.802199 1.036130 0.032097 -0.000116 104668.000000 1 0 0
15.283033 12.559702 4.158889 20.214192 0.687897 1.363575 0.028430 -0.006358 145580.000000 1 0 0
5.172033 10.313902 14.389789 18.444308 1.105980 0.675851 0.023650 -0.010731 233073.000000 1 0 0
13.065833 13.134602 -5.435711 19.307530 0.788023 1.856188 0.035837 -0.017591 273494.000000 1 0 0
17.554333 9.329202 -2.969611 20.099930 0.488488 1.719082 -0.001582 -0.001022 -188478.000000 1 0 0
14.830733 7.502402 9.416689 19.102636 0.468331 1.055317 0.026715 -0.007671 23333.400000 1 0 0
4.835133 18.935302 -1.586311 19.607155 1.320789 1.651790 0.010130 -0.013913 661823.000000 1 0 0
-4.570367 19.641602 3.924689 20.544682 -1.342176 1.378583 0.003499 0.004638 93666.400000 1 0 0
7.050833 12.668002 12.640789 19.234918 1.062911 0.853726 0.036344 -0.002039 8335.540000 1 0 0
0.080933 16.823002 -10.188811 19.668040 1.565986 2.115353 0.007697 -0.000187 62534.700000 1 0 0
10.741433 9.206302 15.824789 21.226359 0.708592 0.729474 0.048508 -0.008763 -47387.900000 1 0 0
-1.194267 12.149002 1.145689 12.261204 -1.472809 1.477220 -0.000599 -0.000943 395190.000000 1 0 0
-4.567967 19.259602 -2.507611 19.952110 -1.337921 1.696811 0.008367 0.001763 94889.200000 1 0 0
6.072133 18.347702 6.272389 20.318755 1.251194 1.256971 0.036157 -0.017812 149620.000000 1 0 0
11.156033 17.507402 -1.386711 20.805988 1.003459 1.637495 0.029313 -0.005019 426316.000000 1 0 0
18.529033 10.016102 3.763289 21.396488 0.495569 1.393993 0.037140 -0.004295 51657.500000 1 0 0
11.529133 16.822802 6.092789 21.284963 0.969986 1.280487 0.030159 0.001873 -42710.400000 1 0 0
18.198433 7.153702 -5.786611 20.392236 0.374539 1.858515 0.020112 0.007262 428197.000000 1 0 0
0.164233 15.370302 10.999489 18.901373 1.560112 0.949683 0.010713 -0.006761 297744.000000 1 0 0
1.249433 19.954402 -1.651111 20.061540 1.508264 1.653192 0.012369 -0.016283 66090.700000 1 0 0
14.052633 9.624802 -1.325411 17.084204 0.600527 1.648455 0.001319 -0.002225 -241298.000000 1 0 0
10.178333 16.662202 2.411289 19.673376 1.022427 1.447921 0.034878 -0.024295 291660.000000 1 0 0
0.613133 17.977002 -0.393611 17.991761 1.536703 1.592675 0.000061 0.005398 13631.100000 1 0 0
-0.151067 20.980002 1.398389 21.027096 -1.563596 1.504243 0.015205 -0.007501 193177.000000 1 0 0
6.127233 17.364202 -0.353111 18.416926 1.231571 1.589971 0.010746 -0.018061 -18947.100000 1 0 0
6.974433 18.841302 -2.957711 20.307275 1.216269 1.716964 -0.004981 -0.005259 146896.000000 1 0 0
10.114333 9.508502 12.564689 18.723855 0.754534 0.835169 0.014622 -0.004257 16087.500000 1 0 0
12.478633 14.737202 8.119189 20.948093 0.868196 1.172785 0.021553 -0.005831 169669.000000 1 0 0
0.340133 17.666702 6.594089 18.860277 1.551546 1.213622 0.007784 -0.009015 94487.800000 1 0 0
7.278233 17.751502 -7.979711 20.778938 1.181693 1.964952 0.015059 -0.014722 121049.000000 1 0 0
-1.437767 18.479602 9.058289 20.630450 -1.493150 1.116229 0.046445 -0.016815 161194.000000 1 0 0
16.085333 6.951202 -7.789011 19.176179 0.407907 1.989068 0.029804 0.003140 -88024.000000 1 0 0
-4.900867 19.739602 -6.800811 21.445778 -1.327441 1.893484 0.002521 -0.012899 350251.000000 1 0 0
3.625933 15.333602 9.628389 18.465443 1.338592 1.022273 0.024970 -0.007694 65822.500000 1 0 0
9.232833 15.263602 8.139789 19.608134 1.026787 1.142718 0.027323 0.011622 -87921.900000 1 0 0
-2.669367 19.513302 6.469489 20.730382 -1.434843 1.253417 0.008094 -0.009200 -3160.620000 1 0 0
4.920633 18.037202 8.503789 20.539418 1.304472 1.143927 0.034993 -0.006424 112443.000000 1 0 0
13.720233 11.277002 -6.827611 19.027134 0.687968 1.937816 -0.040353 -0.038736 -65334.900000 1 0 0
11.996633 6.819302 15.354089 20.643888 0.516886 0.732119 0.058626 -0.009913 294304.000000 1 0 0
17.024933 9.250102 4.944389 19.996492 0.497705 1.320942 0.023044 -0.003730 128801.000000 1 0 0
4.915033 15.369202 12.385289 20.341221 1.261277 0.916153 0.013016 0.005853 516770.000000 1 0 0
15.903933 11.120902 -3.912611 19.796920 0.610226 1.769743 0.031326 -0.004612 213538.000000 1 0 0
15.422033 13.827802 6.456589 21.696422 0.730948 1.268631 0.039277 0.000364 226203.000000 1 0 0
12.568333 14.408302 -7.580111 20.567456 0.853499 1.948244 0.058713 -0.026104 354074.000000 1 0 0
-8.392867 15.631302 9.467889 20.110165 -1.078045 1.080598 0.023576 -0.016631 219418.000000 1 0 0
-4.657167 16.529702 -7.039411 18.559999 -1.296170 1.959813 -0.004280 -0.008457 24206.000000 1 0 0
2.690133 19.204502 -4.866211 19.993242 1.431624 1.816659 0.013364 -0.020405 75832.400000 1 0 0
7.184033 16.206302 9.236989 19.989410 1.153539 1.090441 0.027226 -0.011164 537681.000000 1 0 0
13.542733 15.522102 -1.580711 20.660104 0.853395 1.647381 0.058768 -0.014907 315079.000000 1 0 0
13.494333 15.295502 4.180389 20.821264 0.847879 1.368647 0.060821 -0.027600 336472.000000 1 0 0
2.906633 18.374802 0.374189 18.607038 1.413910 1.550685 0.021698 -0.014742 54966.400000 1 0 0
-6.413367 17.963002 1.742089 19.152952 -1.227871 1.479714 -0.031289 0.019794 235728.000000 1 0 0
0.657433 19.721302 -6.074011 20.645958 1.537472 1.869413 0.015209 -0.002115 223296.000000 1 0 0
-7.268567 18.004402 -6.453011 20.460496 -1.187095 1.891663 0.030493 -0.021257 132178.000000 1 0 0
-7.194667 18.461502 -1.063311 19.842402 -1.199190 1.624410 0.016498 -0.011979 243461.000000 1 0 0
-14.443267 -9.147798 8.865989 19.258659 0.564589 1.092391 0.040625 -0.009186 319885.000000 1 0 0
-13.267067 -13.430398 7.918489 20.471764 0.791516 1.173637 0.033268 -0.014755 56471.000000 1 0 0
-3.364467 -15.695498 12.839189 20.555123 1.359633 0.896148 0.019909 -0.006538 215315.000000 1 0 0
-2.118067 -14.559298 15.629089 21.464571 1.426331 0.755200 0.025578 -0.002167 466421.000000 1 0 0
-7.115667 -13.961398 13.489989 20.676875 1.099445 0.860024 -0.001313 -0.004885 -36651.000000 1 0 0
-10.326167 -11.577998 11.519889 19.323240 0.842486 0.932077 0.041705 -0.008763 32414.900000 1 0 0
-7.926767 -10.948398 13.121489 18.838114 0.944136 0.800233 0.030399 0.000535 513919.000000 1 0 0
-15.246867 -12.339698 7.180989 20.887837 0.680402 1.219848 0.039031 -0.010955 197077.000000 1 0 0
-4.730967 -12.490298 13.241489 18.807622 1.208723 0.789713 0.032063 -0.016013 319465.000000 1 0 0
3.523433 -12.347298 13.720989 18.791910 -1.292824 0.752249 0.007499 -0.000667 303200.000000 1 0 0
6.646833 -13.420698 14.906589 21.130592 -1.110942 0.787738 0.023088 0.010701 361999.000000 1 0 0
6.798433 -9.170998 17.006989 20.483251 -0.932888 0.591173 0.010165 0.007041 576982.000000 1 0 0
-5.313667 13.441002 13.320189 19.655102 -1.194320 0.826171 0.006808 -0.000716 248578.000000 1 0 0
-13.756267 -1.717198 17.302689 22.171304 0.124188 0.675476 0.035324 -0.014090 237373.000000 1 0 0
-10.057967 9.249802 13.146589 18.961918 -0.743566 0.804717 0.002238 -0.008336 326116.000000 1 0 0
-7.482267 -8.139098 17.201789 20.448246 0.827420 0.571232 0.032871 -0.008219 27717.400000 1 0 0
-4.864067 2.348002 18.120289 18.908123 -0.449731 0.289686 0.026440 -0.011784 427183.000000 1 0 0
-15.641167 -3.627398 14.580489 21.688587 0.227885 0.833532 0.036939 -0.008089 46698.900000 1 0 0
-14.764367 2.890702 12.608389 19.629421 -0.193343 0.873274 0.011922 0.001281 247172.000000 1 0 0
-14.314767 10.754402 9.264189 20.159239 -0.644320 1.093307 -0.021481 -0.003419 -381341.000000 1 0 0
-4.972867 11.285202 15.412889 19.739360 -1.155742 0.674819 0.039208 -0.006767 287805.000000 1 0 0
-12.846767 13.113002 7.557789 19.852214 -0.795653 1.180240 0.006396 -0.028028 91506.800000 1 0 0
-3.838667 -6.375698 18.735689 20.159636 1.028850 0.378103 0.037064 -0.010869 290479.000000 1 0 0
0.397933 -2.849598 17.810789 18.041695 -1.432048 0.160162 0.001391 -0.021393 12841.700000 1 0 0
-4.396867 6.602302 21.125689 22.565849 -0.983283 0.359196 0.021814 -0.003211 295109.000000 1 0 0
1.864433 -10.877098 16.627489 19.956472 -1.401037 0.585949 -0.003799 0.005472 300528.000000 1 0 0
-15.263467 -0.321398 13.673289 20.494769 0.021054 0.840407 0.009150 -0.005612 62898.100000 1 0 0
-13.896067 -5.780198 7.660489 16.887702 0.394188 1.099981 0.025960 -0.006367 58747.300000 1 0 0
10.030433 0.662802 16.774289 19.555706 0.065983 0.539882 0.030182 0.010632 502165.000000 1 0 0
-7.738167 12.159702 11.333389 18.335301 -1.004057 0.904449 0.016415 -0.019690 121069.000000 1 0 0
-2.072367 7.812202 20.166189 21.725570 -1.311495 0.381187 0.031421 -0.010770 592584.000000 1 0 0
1.209833 -13.335798 15.514589 20.494138 -1.480323 0.712047 -0.003005 -0.005771 575021.000000 1 0 0
-3.297967 -11.386098 17.715989 21.316099 1.288863 0.589698 0.025811 -0.010497 426464.000000 1 0 0
-2.481167 8.962602 16.719389 19.131711 -1.300724 0.507608 0.028229 -0.011961 544567.000000 1 0 0
-5.499167 -9.303298 20.282689 22.982160 1.036948 0.489558 0.086966 -0.018019 178238.000000 1 0 0
-6.561067 -2.410298 19.162189 20.397221 0.352059 0.349772 0.039160 -0.019599 291313.000000 1 0 0
-11.014667 -8.087998 16.099389 21.117029 0.633373 0.703800 0.063979 -0.016198 92402.100000 1 0 0
-0.355567 6.481902 17.962889 19.099918 -1.515996 0.346787 0.022883 -0.012935 -7865.700000 1 0 0
-6.386167 -11.082498 18.881189 22.805793 1.048031 0.595422 0.054474 -0.006224 437123.000000 1 0 0
0.432433 3.599102 18.863889 19.209030 1.451219 0.189851 0.014866 -0.014588 128575.000000 1 0 0
-18.470567 -0.151298 7.499589 19.935611 0.008191 1.185115 0.049121 -0.022190 143298.000000 1 0 0
-1.695767 -8.614898 17.310489 19.409923 1.376440 0.469406 0.008517 -0.010155 219654.000000 1 0 0
5.592333 3.483502 14.968789 16.354620 0.557093 0.414635 0.007737 -0.010679 315293.000000 1 0 0
-13.657367 -6.856498 10.137589 18.338647 0.465276 0.985077 0.018258 -0.010322 91578.400000 1 0 0
3.542933 8.299102 16.859289 19.122319 1.167313 0.491438 0.026750 -0.017772 143208.000000 1 0 0
6.352633 4.420002 16.996489 18.675465 0.607885 0.427278 0.028848 -0.045649 130423.000000 1 0 0
4.118933 -9.909098 17.834889 20.814396 -1.176853 0.541661 -0.009979 0.000834 332111.000000 1 0 0
-4.512767 -0.653598 19.779789 20.298579 0.143833 0.226573 0.034742 -0.018852 634718.000000 1 0 0
-11.452567 2.204102 16.645489 20.324656 -0.190130 0.611165 0.046957 -0.013511 32107.300000 1 0 0
-16.751967 -4.102698 8.577689 19.262328 0.240181 1.109277 0.036773 -0.018984 365030.000000 1 0 0
-13.386167 -9.529698 12.204589 20.468430 0.618672 0.931957 0.039438 -0.025387 111032.000000 1 0 0
-14.946267 6.465502 12.683589 20.641391 -0.408276 0.909078 0.020703 -0.016182 195080.000000 1 0 0
1.072033 9.211102 17.095489 19.448635 1.454933 0.497020 0.022406 -0.030360 113331.000000 1 0 0
-3.964867 -10.456198 14.693889 18.465173 1.208359 0.650531 0.027012 -0.013168 577823.000000 1 0 0
-18.603467 -2.805798 6.677789 19.963826 0.149693 1.229728 0.107553 -0.018614 -243854.000000 1 0 0
-0.431567 -0.370398 20.722489 20.730292 0.709272 0.027438 0.021642 -0.026504 360895.000000 1 0 0
-1.795567 2.645702 20.320089 20.570119 -0.974527 0.156075 0.021727 -0.018333 74442.400000 1 0 0
-8.071067 1.885502 16.361589 18.341179 -0.229497 0.468894 0.013662 0.003747 552724.000000 1 0 0
2.608133 -1.626598 18.912289 19.160450 -0.557638 0.161120 0.001237 -0.010680 -59769.700000 1 0 0
-12.967867 4.495602 14.126589 19.696104 -0.333707 0.770981 0.017836 -0.004636 116304.000000 1 0 0
-12.972467 -5.452798 13.197189 19.292063 0.397914 0.817464 -0.003865 -0.014360 -74863.000000 1 0 0
-17.352067 -0.911298 9.352389 19.733015 0.052470 1.077029 0.043583 -0.027748 132509.000000 1 0 0
-7.677367 7.686802 14.336789 17.988118 -0.786012 0.648461 0.010721 -0.013286 -4245.350000 1 0 0
-9.494167 0.824102 13.958289 16.901248 -0.086584 0.599047 0.014017 -0.009524 296702.000000 1 0 0
7.534133 -0.916098 15.061989 16.866117 -0.120999 0.466757 0.007753 -0.006532 135843.000000 1 0 0
4.069633 6.069402 18.450289 19.844715 0.980133 0.377109 0.023813 -0.024966 116444.000000 1 0 0
2.028433 0.470402 19.749389 19.858856 0.227876 0.105046 0.011716 -0.022253 219553.000000 1 0 0
-7.079267 7.038002 17.660289 20.286333 -0.782475 0.514475 0.007027 0.008115 517910.000000 1 0 0
7.564233 -3.287198 16.824389 18.737218 -0.409950 0.455792 0.003408 0.006142 467273.000000 1 0 0
-16.406067 2.480702 9.233789 18.988833 -0.150070 1.062975 0.028169 -0.013733 223702.000000 1 0 0
4.073833 -6.001898 18.990489 20.328737 -0.974470 0.364872 0.012045 -0.017488 146831.000000 1 0 0
-3.524767 -3.550898 20.727289 21.322602 0.789091 0.236855 0.031971 -0.013673 379178.000000 1 0 0
-10.044067 5.900702 14.373889 18.501628 -0.531164 0.681071 0.015877 -0.002792 -39286.500000 1 0 0
6.479333 2.841102 19.777789 21.005108 0.413238 0.343533 0.034045 -0.023393 134793.000000 1 0 0
-6.984667 11.659102 14.046789 19.545652 -1.031058 0.768915 0.003747 -0.011171 -206369.000000 1 0 0
-14.509067 4.803402 9.065389 17.769833 -0.319705 1.035430 0.007442 -0.014962 234996.000000 1 0 0
1.434033 -5.048598 20.146889 20.819268 -1.294040 0.254839 0.028146 -0.024650 337704.000000 1 0 0
-6.527367 -8.449898 13.707589 17.375422 0.913063 0.661768 0.027842 -0.002788 310942.000000 1 0 0
-13.010167 10.210502 6.543689 17.785912 -0.665410 1.194031 -0.002692 -0.017518 130270.000000 1 0 0
-19.747267 2.656902 7.563689 21.312510 -0.133742 1.207995 0.056872 -0.028374 -24649.300000 1 0 0
-15.605067 9.090202 6.068789 19.052036 -0.527464 1.246610 0.008573 -0.016980 -46053.400000 1 0 0
-12.906067 7.486002 14.296189 20.663683 -0.525612 0.806747 0.012879 -0.002839 97845.200000 1 0 0
-16.596167 9.059002 10.538289 21.646104 -0.499651 1.062323 0.033621 -0.016724 381367.000000 1 0 0
2.296233 10.671702 14.132689 17.857514 1.358857 0.657677 0.023293 -0.059541 394675.000000 1 0 0
1.774733 14.590302 13.300589 19.822519 1.449753 0.835262 0.022745 -0.021096 471994.000000 1 0 0
8.732833 5.026602 16.412189 19.258480 0.522284 0.550609 0.030741 -0.013923 20284.400000 1 0 0
-0.325467 13.330702 13.467089 18.951940 -1.546386 0.780458 0.011104 0.002020 151643.000000 1 0 0
4.256033 12.611502 14.720089 19.845524 1.245325 0.735145 0.041469 -0.011112 151136.000000 1 0 0
-3.503567 -4.565098 -13.214511 14.413133 0.916209 2.730884 -0.000307 -0.009579 155500.000000 1 0 0
5.766733 -12.164198 16.891689 21.599817 -1.128104 0.672881 -0.013851 0.025462 118161.000000 1 0 0
8.961033 -13.748498 7.010789 17.845797 -0.993169 1.167064 0.019065 -0.008879 94635.000000 1 0 0
-0.368067 15.321502 0.466589 15.333023 -1.546778 1.540361 -0.001232 -0.003128 -508276.000000 1 0 0
-14.215467 8.002502 8.276589 18.292661 -0.512726 1.101281 0.007779 -0.007139 838.347000 1 0 0
-16.090767 -9.620498 5.512589 19.541121 0.538866 1.284812 0.029400 -0.007176 156404.000000 1 0 0
9.123433 -10.483898 11.375889 17.959955 -0.854673 0.884853 0.016001 -0.000927 103134.000000 1 0 0
-25.539557 6.180602 31.037637 40.666986 -0.237436 0.702523 0.048351 -0.020017 -429609.000000 0 0 1
-24.514567 5.242802 31.167227 39.998088 -0.210691 0.677379 0.044394 -0.020791 -759276.000000 0 0 1
-23.599767 5.675002 32.112717 40.253959 -0.235988 0.647237 0.033552 -0.022453 -882394.000000 0 0 1
-22.215567 5.049802 32.042047 39.315706 -0.223511 0.618078 0.037899 -0.016885 -612082.000000 0 0 1
-22.212267 3.693202 32.494836 39.534022 -0.164761 0.605977 0.018611 -0.010844 181575.000000 0 0 1
-21.053567 3.049202 31.984057 38.412631 -0.143831 0.586931 0.034596 -0.011137 200027.000000 0 0 1
-20.663667 1.772102 32.738444 38.754783 -0.085550 0.564682 0.018358 -0.013892 -222802.000000 0 0 1
-21.331067 0.598302 32.287267 38.701938 -0.028041 0.584017 0.020664 -0.013842 209262.000000 0 0 1
-21.236667 -0.397998 33.275758 39.476962 0.018739 0.568116 0.010502 -0.008672 195337.000000 0 0 1
-21.970767 -1.649198 32.751328 39.472572 0.074923 0.592184 0.016631 -0.021919 -131870.000000 0 0 1
-20.986767 -2.497498 32.201247 38.517557 0.118446 0.580817 0.042545 -0.018744 191534.000000 0 0 1
-21.146767 -3.902898 32.347287 38.842829 0.182509 0.586697 0.048674 -0.024974 -569212.000000 0 0 1
-22.416767 -4.569798 31.721817 39.110973 0.201101 0.624814 0.055463 -0.019536 29670.200000 0 0 1
-23.581467 -4.437798 32.482865 40.384603 0.186015 0.636236 0.049032 -0.016043 -392027.000000 0 0 1
-23.683967 -5.006298 33.774524 41.553722 0.208313 0.621868 0.039958 -0.009276 -415549.000000 0 0 1
-24.924767 -4.692398 -33.823501 42.276375 0.186084 2.498186 0.036364 -0.005462 468357.000000 0 0 1
-24.904267 -5.012898 -32.439111 41.202519 0.198632 2.477228 0.035694 -0.002835 -229646.000000 0 0 1
-25.958777 -4.391898 -31.759551 41.253072 0.167600 2.449436 0.020153 -0.000882 -466524.000000 0 0 1
-26.141927 -5.032398 -30.336301 40.361077 0.190177 2.421315 0.003992 -0.000260 -567957.000000 0 0 1
-26.399477 -6.422098 -30.352171 40.736102 0.238631 2.411470 0.014799 -0.000195 526685.000000 0 0 1
-26.154337 -7.087798 -29.096051 39.760111 0.264643 2.391741 -0.005157 -0.001215 -99508.500000 0 0 1
-26.376647 -8.648698 -29.135411 40.241765 0.316846 2.380393 0.003954 -0.003450 -92071.300000 0 0 1
-27.768887 -8.879898 -29.035651 41.146479 0.309502 2.354158 0.013477 -0.006407 -100198.000000 0 0 1
-27.966097 -10.234898 -28.665451 41.334777 0.350835 2.337125 0.016088 -0.007546 275354.000000 0 0 1
-29.457157 -10.617698 -28.491351 42.334581 0.345950 2.309059 0.046159 -0.012086 430244.000000 0 0 1
-29.542327 -11.839498 -27.778031 42.243838 0.381165 2.288377 0.062564 -0.019668 -428839.000000 0 0 1
-30.732847 -11.852598 -27.033581 42.612281 0.368088 2.258039 0.064053 -0.019756 -300756.000000 0 0 1
-30.666757 -12.493198 -25.635651 41.877400 0.386857 2.229585 0.073122 -0.018472 -51030.800000 0 0 1
-29.936617 -11.788798 -24.633011 40.521131 0.375143 2.224216 0.071862 -0.017260 257395.000000 0 0 1
-29.748747 -12.597598 -23.510211 39.955193 0.400571 2.199893 0.076964 -0.016952 -320862.000000 0 0 1
-28.968027 -11.839398 -22.401211 38.485481 0.387989 2.192067 0.091284 -0.017977 37680.900000 0 0 1
-28.969187 -12.485498 -21.162511 37.986226 0.406935 2.161698 0.095197 -0.013450 1537960.000000 0 0 1
-27.721687 -13.258998 -21.061111 37.254038 0.446129 2.171639 0.106391 -0.011100 1046600.000000 0 0 1
-27.532297 -13.581398 -19.536111 36.388754 0.458265 2.137522 0.077246 -0.015616 -207838.000000 0 0 1
-27.098447 -12.533998 -18.739511 35.250478 0.433230 2.131297 0.062663 -0.013152 -98089.900000 0 0 1
-26.973347 -12.965098 -17.356611 34.596346 0.448059 2.096347 0.066647 -0.012749 -81402.600000 0 0 1
-26.875097 -11.677698 -16.514311 33.635724 0.409904 2.084005 0.065289 -0.018530 468194.000000 0 0 1
-25.637007 -10.959198 -16.581411 32.439226 0.403966 2.107322 0.055486 -0.019366 569579.000000 0 0 1
-25.609147 -9.769898 -15.846011 31.660313 0.364457 2.094973 0.062064 -0.023355 -634495.000000 0 0 1
-24.282267 -9.065298 -16.060711 30.491877 0.357306 2.125535 0.072349 -0.024623 547987.000000 0 0 1
-23.199467 -9.691098 -15.325711 29.445035 0.395696 2.118216 0.073254 -0.031417 586616.000000 0 0 1
-21.946767 -9.069398 -15.407811 28.307512 0.391872 2.146352 0.094898 -0.039907 60285.300000 0 0 1
-20.914367 -9.527498 -14.355011 27.097054 0.427458 2.129117 0.067918 -0.013113 -291362.000000 0 0 1
-20.246367 -10.743498 -14.703211 27.230912 0.487857 2.141169 0.059453 -0.022953 65878.000000 0 0 1
-19.303567 -10.938598 -13.637811 26.043627 0.515545 2.121929 0.063028 -0.011504 430954.000000 0 0 1
-18.216567 -11.999598 -14.055311 25.949672 0.582480 2.143180 0.059370 -0.014570 198246.000000 0 0 1
-17.437567 -11.612698 -15.181011 25.872507 0.587512 2.197851 0.073951 -0.027820 -24932.600000 0 0 1
-18.101867 -11.743398 -16.410711 27.108973 0.575489 2.221015 0.073215 -0.030530 -917814.000000 0 0 1
-17.355767 -11.268698 -17.640511 27.191797 0.575867 2.276729 0.064012 -0.025258 -335672.000000 0 0 1
-18.160867 -11.224598 -18.793611 28.443075 0.553597 2.292607 0.060255 -0.020463 138282.000000 0 0 1
-17.454367 -10.736598 -19.921911 28.579923 0.551466 2.342085 0.064543 -0.020357 93917.500000 0 0 1
-18.271767 -10.947898 -21.217211 30.064664 0.539809 2.354234 0.079606 -0.018292 52326.600000 0 0 1
-19.552267 -10.357798 -21.267711 30.690237 0.487163 2.336410 0.074458 -0.027039 196148.000000 0 0 1
-20.274267 -10.937298 -22.372111 32.112019 0.494721 2.341569 0.073176 -0.020204 895189.000000 0 0 1
-21.629167 -10.188598 -22.650811 32.934597 0.440227 2.329183 0.048236 -0.024036 624382.000000 0 0 1
-21.472567 -8.932898 -23.284011 32.909163 0.394235 2.356784 0.057295 -0.029683 -433232.000000 0 0 1
-22.482967 -8.763598 -24.203011 34.177042 0.371672 2.357693 0.043366 -0.034641 -760423.000000 0 0 1
-22.123567 -7.895798 -25.451731 34.635047 0.342804 2.396249 0.036327 -0.028400 -161440.000000 0 0 1
-21.146467 -8.470198 -26.282551 34.780596 0.380980 2.427468 0.051370 -0.026082 -79417.100000 0 0 1
-20.781267 -7.605298 -27.291171 35.135590 0.350830 2.460267 0.045734 -0.031813 306656.000000 0 0 1
-19.482967 -8.095098 -28.021921 35.076270 0.393793 2.496236 0.082760 -0.034166 398216.000000 0 0 1
-19.720767 -9.301798 -28.751821 36.084613 0.440732 2.492759 0.089403 -0.031959 764415.000000 0 0 1
-18.504267 -9.756398 -29.363701 36.053046 0.485210 2.522591 0.060120 -0.023316 465857.000000 0 0 1
-18.660667 -11.034498 -30.234571 37.203628 0.534016 2.519530 0.058416 -0.020026 -306962.000000 0 0 1
-19.103967 -10.735198 -31.506321 38.377784 0.511961 2.533873 0.052601 -0.015469 109775.000000 0 0 1
-18.970867 -11.881898 -32.362081 39.349430 0.559550 2.536463 0.038241 -0.009571 -278161.000000 0 0 1
-19.864767 -11.833098 -33.592901 40.781297 0.537239 2.538760 0.039071 -0.011783 -258376.000000 0 0 1
-19.465567 -10.899598 33.923565 40.601944 0.510445 0.581725 0.038729 -0.012360 -189741.000000 0 0 1
-20.009367 -11.121998 32.637371 39.865670 0.507316 0.611681 0.060068 -0.016068 -423011.000000 0 0 1
-19.495067 -12.300198 31.797967 39.274206 0.562859 0.627258 0.064479 -0.018204 -600120.000000 0 0 1
-18.151467 -12.026698 31.481267 38.277767 0.585164 0.605105 0.065516 -0.015364 -270853.000000 0 0 1
-17.720267 -12.635698 30.300827 37.306955 0.619441 0.622877 0.054802 -0.016890 10852.000000 0 0 1
-17.471667 -14.198098 30.302697 37.750478 0.682398 0.638970 0.047584 -0.008192 -533402.000000 0 0 1
-18.657967 -14.955498 30.172327 38.498779 0.675692 0.670161 0.044604 -0.011793 -96341.600000 0 0 1
-18.640767 -16.240698 30.735327 39.444883 0.716700 0.677413 0.049600 -0.011913 -154319.000000 0 0 1
-18.911567 -16.262798 32.291167 40.802518 0.710236 0.657698 0.021920 -0.017576 63060.500000 0 0 1
-17.747067 -15.903798 33.006740 40.710368 0.730677 0.625330 0.037217 -0.014324 297809.000000 0 0 1
-18.080067 -15.795698 -34.144567 41.740201 0.718066 2.528767 0.031075 -0.011600 130125.000000 0 0 1
-16.835867 -15.359698 -33.362331 40.403117 0.739580 2.542303 0.027669 -0.008749 -216135.000000 0 0 1
-16.388367 -14.060098 -33.769391 40.082873 0.709081 2.572684 0.032967 -0.009232 -296982.000000 0 0 1
-15.187767 -13.615798 -33.187641 38.954817 0.730877 2.590499 0.032056 -0.004534 -226856.000000 0 0 1
-15.290267 -13.300198 -31.684241 37.610885 0.715904 2.572559 0.053510 -0.010939 -388493.000000 0 0 1
-15.539667 -14.420598 -30.868061 37.446924 0.748064 2.539787 0.034209 -0.011473 -188541.000000 0 0 1
-15.924967 -14.040698 -29.567611 36.400404 0.722600 2.518861 0.026925 -0.008610 -86204.600000 0 0 1
-16.065767 -15.177798 -28.524061 36.084574 0.756985 2.482385 0.026654 0.001156 1443640.000000 0 0 1
-14.845367 -15.849598 -28.053521 35.476679 0.818103 2.482845 0.046346 -0.026424 980397.000000 0 0 1
-14.256167 -16.704998 -28.962561 36.347286 0.864327 2.492825 0.045195 -0.026811 -648288.000000 0 0 1
-12.905567 -17.277298 -28.513271 35.750040 0.929239 2.494058 0.065631 -0.029102 -566508.000000 0 0 1
-11.928267 -16.282998 -28.455561 34.887513 0.938551 2.524626 0.052923 -0.029398 -730045.000000 0 0 1
-10.866467 -16.666398 -27.626101 34.044829 0.993017 2.517447 0.075970 -0.034520 266244.000000 0 0 1
-9.487067 -16.047798 -27.977211 33.619349 1.036891 2.553816 0.056078 -0.042063 344672.000000 0 0 1
-9.303567 -14.686398 -27.655671 32.666233 1.006121 2.580386 0.055774 -0.029708 433143.000000 0 0 1
-7.945967 -14.327498 -27.963431 32.409398 1.064432 2.611615 0.056560 -0.030284 889730.000000 0 0 1
-7.757167 -12.792798 -28.132651 31.863386 1.025706 2.652830 0.050159 -0.035000 -108759.000000 0 0 1
-8.542567 -12.324398 -29.195761 32.821620 0.964687 2.667108 0.069774 -0.030820 177389.000000 0 0 1
-8.220367 -10.968398 -29.507251 32.535489 0.927641 2.706723 0.053685 -0.029017 132023.000000 0 0 1
-7.032267 -10.701898 -30.484591 33.064992 0.989443 2.743907 0.040067 -0.013975 108891.000000 0 0 1
-5.752667 -10.945098 -29.909561 32.364644 1.086885 2.749583 0.036530 -0.016151 1066690.000000 0 0 1
-4.628267 -10.490798 -30.690521 32.762567 1.155306 2.784039 0.044728 -0.015817 565042.000000 0 0 1
-4.534367 -9.037398 -31.169681 32.768645 1.105763 2.827913 0.026599 -0.014199 -1480700.000000 0 0 1
-3.400567 -8.660698 -31.918461 33.246950 1.196648 2.857948 0.030381 -0.015119 -90662.700000 0 0 1
-3.348567 -7.300798 -32.139931 33.128383 1.140766 2.896699 0.029824 -0.017411 -321176.000000 0 0 1
-1.953267 -6.875598 -32.591451 33.366028 1.294002 2.925700 0.026657 -0.016711 -301323.000000 0 0 1
-1.573367 -7.306298 -33.868671 34.683488 1.358691 2.924404 0.026854 -0.017972 320155.000000 0 0 1
-0.331067 -6.717298 34.239052 34.893329 1.521550 0.193957 0.021013 -0.006547 770243.000000 0 0 1
0.353433 -7.312998 32.969273 33.772442 -1.522505 0.218525 0.009933 -0.001166 45054.500000 0 0 1
-0.300767 -7.044598 31.769637 32.542690 1.528128 0.218402 0.004855 0.006019 -10560.900000 0 0 1
0.388333 -7.720098 30.734517 31.691659 -1.520537 0.246394 0.001540 0.004376 67140.100000 0 0 1
0.014233 -7.309898 29.293777 30.192055 -1.568849 0.244544 0.005901 0.010008 163580.000000 0 0 1
0.585933 -6.038498 28.881867 29.512184 -1.474066 0.207047 0.009466 0.003984 278800.000000 0 0 1
0.364533 -5.675598 27.515097 28.096723 -1.506656 0.203827 0.016329 0.005035 -328218.000000 0 0 1
-0.812667 -4.707798 27.161467 27.578417 1.399859 0.174109 0.019681 0.006409 1042920.000000 0 0 1
-2.081567 -5.306798 27.476327 28.061425 1.196993 0.204565 0.020437 0.008804 255407.000000 0 0 1
-3.093467 -4.323098 27.285537 27.798548 0.949699 0.192414 0.014397 0.002272 1433760.000000 0 0 1
-4.563967 -4.880498 27.557487 28.356025 0.818901 0.237884 0.021815 -0.000776 1282310.000000 0 0 1
-5.012067 -5.761298 26.502887 27.581088 0.854831 0.280533 0.029139 0.001721 -1005950.000000 0 0 1
-6.301367 -6.183398 26.745007 28.164464 0.775949 0.318835 0.022974 -0.005375 -603491.000000 0 0 1
-6.378767 -7.698298 26.851677 28.652487 0.878861 0.356426 0.024992 -0.003519 236315.000000 0 0 1
-5.814767 -8.423298 27.964697 29.778982 0.966597 0.350867 0.022138 -0.006546 -42641.700000 0 0 1
-5.937267 -9.809198 27.847317 30.115521 1.026507 0.390594 0.019442 -0.011187 -151816.000000 0 0 1
-5.217767 -10.539098 28.966147 31.262363 1.111087 0.385661 0.018263 -0.009557 -220064.000000 0 0 1
-5.291967 -11.936098 28.861957 31.677878 1.153479 0.424833 0.032332 -0.019169 165626.000000 0 0 1
-4.717667 -12.495198 30.018137 32.855364 1.209785 0.418634 0.044192 -0.017964 -105535.000000 0 0 1
-5.114667 -13.962698 29.951777 33.439882 1.219667 0.460815 0.061658 -0.025627 -22036.800000 0 0 1
-6.478967 -14.208698 30.223427 34.019401 1.142976 0.476910 0.060217 -0.026781 -272111.000000 0 0 1
-6.713267 -15.610198 30.264017 34.708169 1.164651 0.511612 0.068213 -0.028178 39590.300000 0 0 1
-6.676367 -16.216998 31.685937 36.215515 1.180254 0.505511 0.069020 -0.029480 -656521.000000 0 0 1
-7.971167 -16.411898 32.158377 36.973655 1.118659 0.516071 0.075367 -0.022657 -531386.000000 0 0 1
-7.925867 -16.953698 33.450209 38.329672 1.133484 0.510096 0.072570 -0.018032 12962.200000 0 0 1
-9.397867 -17.025298 33.922585 39.101438 1.066423 0.520535 0.070257 -0.012167 715899.000000 0 0 1
-10.219567 -18.141998 33.512783 39.454762 1.057792 0.555953 0.066987 -0.013292 616014.000000 0 0 1
-10.649067 -18.101098 32.168027 38.416590 1.039016 0.578384 0.056279 -0.017991 -854470.000000 0 0 1
-11.322467 -19.389898 31.708807 38.853763 1.042272 0.616155 0.046438 -0.012486 -826314.000000 0 0 1
-12.326067 -19.809298 32.550977 40.048799 1.014187 0.621883 0.052385 -0.011413 -322813.000000 0 0 1
-12.708167 -21.141198 32.295797 40.638237 1.029562 0.652259 0.043104 -0.010637 -373929.000000 0 0 1
-12.139967 -22.044398 33.408019 41.826188 1.067412 0.645607 0.047975 -0.009665 99792.000000 0 0 1
-10.736567 -22.242698 33.222369 41.397310 1.121084 0.639281 0.044507 -0.010028 430758.000000 0 0 1
-10.122067 -22.922898 -34.212607 42.407759 1.154975 2.509433 0.054194 -0.020647 100227.000000 0 0 1
-10.415067 -24.400098 -34.007861 43.132042 1.167364 2.479096 0.060229 -0.011446 -358736.000000 0 0 1
-10.196067 -25.169668 33.392104 43.040732 1.185907 0.682774 0.054337 -0.015859 -16117.900000 0 0 1
-10.376167 -26.566748 33.657746 44.116900 1.198446 0.702976 0.068264 -0.018545 -762480.000000 0 0 1
-9.746367 -27.371578 32.494934 43.590317 1.228719 0.729568 0.057274 -0.009203 -431533.000000 0 0 1
-8.356367 -27.279118 32.417747 43.184366 1.273544 0.721702 0.078311 -0.025491 -680287.000000 0 0 1
-7.671267 -28.167528 33.264610 44.258245 1.304901 0.720308 0.061658 -0.018349 -370527.000000 0 0 1
-6.142767 -27.895598 33.262055 43.843612 1.354050 0.709554 0.068391 -0.023955 260230.000000 0 0 1
-5.715867 -26.734898 33.849762 43.511290 1.360169 0.679394 0.070564 -0.017101 -130908.000000 0 0 1
-5.323667 -25.753328 32.914983 42.130410 1.366950 0.674108 0.090921 -0.008368 89233.800000 0 0 1
-4.695067 -24.485198 33.569108 41.814514 1.381345 0.638803 0.091640 -0.014784 -453781.000000 0 0 1
-3.415867 -24.651198 34.073057 42.193873 1.433105 0.630834 0.088511 -0.023601 -617723.000000 0 0 1
-2.915867 -23.478298 -33.819391 41.273284 1.447235 2.531162 0.084873 -0.017441 120943.000000 0 0 1
34.517051 -15.347998 2.422289 37.853076 -0.418396 1.506761 0.130412 -0.042675 -446677.000000 0 0 1
35.589381 -15.408998 3.293789 38.921592 -0.408599 1.486069 0.110872 -0.041755 -329507.000000 0 0 1
35.142411 -15.864498 4.562989 38.826438 -0.424046 1.453001 0.114917 -0.045649 438135.000000 0 0 1
36.236861 -15.881798 5.699089 39.972756 -0.413063 1.427734 0.099688 -0.022386 327257.000000 0 0 1
-35.592035 -17.072698 5.595289 39.869503 0.447258 1.429991 0.106900 -0.016711 -327724.000000 0 0 1
-34.650272 -17.101798 6.630789 39.205615 0.458478 1.400851 0.099613 -0.011161 -363366.000000 0 0 1
-33.640017 -18.257198 6.611789 38.841882 0.497239 1.399740 0.063694 -0.020913 -374235.000000 0 0 1
-34.095547 -19.567998 6.625789 39.866201 0.521020 1.403821 0.086053 -0.024123 119418.000000 0 0 1
-33.033427 -20.337298 7.178589 39.450541 0.551853 1.387813 0.070952 -0.015946 356428.000000 0 0 1
-33.400347 -21.788398 7.414789 40.562256 0.578019 1.386962 0.075096 -0.012013 -327329.000000 0 0 1
-33.263477 -22.555598 6.227189 40.669298 0.595869 1.417074 0.082186 -0.011662 342986.000000 0 0 1
-33.618287 -23.950098 6.428389 41.774641 0.619008 1.416300 0.085588 -0.013778 -122721.000000 0 0 1
-32.925677 -24.918198 5.460989 41.651401 0.647840 1.439306 0.082714 -0.012309 -164185.000000 0 0 1
-33.379217 -24.833498 4.119289 41.807216 0.639638 1.472106 0.072313 -0.005205 185843.000000 0 0 1
-32.816577 -25.853348 3.294089 41.906734 0.667266 1.492110 0.065475 -0.004840 -176511.000000 0 0 1
-33.205687 -25.650458 1.830089 41.998963 0.657729 1.527208 0.053717 -0.000303 -753611.000000 0 0 1
-34.544539 -25.967228 1.619389 43.246324 0.644590 1.533342 0.036602 -0.000956 -669952.000000 0 0 1
-35.063057 -25.350898 0.472489 43.270189 0.626002 1.559877 0.029397 0.000531 95021.200000 0 0 1
-36.019994 -24.139998 0.738089 43.367318 0.590433 1.553776 0.044049 0.000669 1274240.000000 0 0 1
35.163601 -24.533898 0.716089 42.882442 -0.609186 1.554097 0.032897 -0.003544 1407910.000000 0 0 1
34.343811 -23.449498 1.240989 41.604284 -0.599080 1.540964 0.060057 -0.004441 377081.000000 0 0 1
32.891481 -23.590898 0.754589 40.483941 -0.622199 1.552156 0.056458 -0.007849 -80573.200000 0 0 1
32.691501 -23.367798 -0.635311 40.189450 -0.620588 1.586605 0.056045 -0.018609 -367270.000000 0 0 1
31.310361 -23.418198 -0.872411 39.108974 -0.642180 1.593105 0.054346 -0.013991 -85784.200000 0 0 1
30.884171 -23.126498 -2.336611 38.653935 -0.642742 1.631283 0.056135 -0.011614 -111524.000000 0 0 1
31.067791 -21.782198 -2.769711 38.043963 -0.611476 1.643664 0.082559 -0.024981 113969.000000 0 0 1
30.884661 -21.628098 -4.155111 37.932860 -0.610918 1.680555 0.075741 -0.036078 -1448.600000 0 0 1
30.859901 -20.109098 -4.518511 37.109652 -0.577517 1.692860 0.084939 -0.033901 726027.000000 0 0 1
29.710681 -19.445898 -3.966111 35.729506 -0.579538 1.682029 0.090591 -0.038320 713175.000000 0 0 1
29.805881 -18.031698 -4.125511 35.079233 -0.544067 1.688675 0.095581 -0.035495 333791.000000 0 0 1
28.749801 -17.404898 -3.148211 33.754893 -0.544375 1.664199 0.103795 -0.026761 169394.000000 0 0 1
29.088761 -17.373698 -1.711411 33.925365 -0.538406 1.621264 0.105773 -0.018687 204229.000000 0 0 1
29.508041 -18.576898 -1.055711 34.884670 -0.561867 1.601064 0.101379 -0.016098 -406486.000000 0 0 1
28.495911 -19.692798 -0.850611 34.648908 -0.604711 1.595348 0.078305 -0.007163 -61969.200000 0 0 1
27.410821 -19.406498 0.037789 33.585216 -0.616066 1.569671 0.075399 0.003553 484390.000000 0 0 1
26.651821 -20.615798 0.168089 33.695088 -0.658387 1.565808 0.040256 0.007356 266947.000000 0 0 1
25.495921 -20.446198 1.216389 32.704260 -0.675923 1.533594 0.035433 0.012175 -146753.000000 0 0 1
24.668921 -21.617198 1.267189 32.824758 -0.719562 1.532182 0.033285 0.016444 527334.000000 0 0 1
23.795321 -21.614398 2.422889 32.237710 -0.737407 1.495568 0.009615 0.021641 44456.100000 0 0 1
22.438421 -20.945298 2.206889 30.774318 -0.750995 1.499023 -0.001751 0.027438 -1334820.000000 0 0 1
22.522121 -19.569598 1.883789 29.895883 -0.715368 1.507743 0.012817 0.009189 64588.200000 0 0 1
22.798221 -18.654398 2.963989 29.606261 -0.685764 1.470515 0.018285 0.012972 -548443.000000 0 0 1
22.886821 -17.202798 2.420089 28.733251 -0.644554 1.486470 0.017155 0.011950 392803.000000 0 0 1
21.631921 -16.837098 1.853189 27.474756 -0.661397 1.503294 0.011438 0.009296 201979.000000 0 0 1
21.668321 -15.489198 1.489789 26.676786 -0.620611 1.514921 0.025178 -0.000124 209400.000000 0 0 1
20.393621 -14.886198 0.846289 25.262916 -0.630541 1.537291 0.039409 -0.000461 776790.000000 0 0 1
19.247521 -14.747198 1.722689 24.308735 -0.653780 1.499870 0.039642 -0.009000 948855.000000 0 1 0
18.452321 -13.590598 1.549789 22.969423 -0.634821 1.503273 0.062726 -0.014119 -102425.000000 0 1 0
18.959821 -12.279198 2.222789 22.697893 -0.574717 1.472710 0.073322 -0.012490 -472225.000000 0 1 0
19.740721 -11.518498 1.341689 22.894803 -0.528191 1.512160 0.068804 -0.016486 515997.000000 0 1 0
20.401621 -10.433198 2.039289 23.005140 -0.472719 1.482035 0.082393 -0.020045 -241838.000000 0 1 0
21.269021 -9.622298 1.068489 23.368816 -0.424856 1.525058 0.094359 -0.021484 -708120.000000 0 1 0
20.663421 -8.943498 -0.009511 22.515844 -0.408474 1.571219 0.099016 -0.024556 104642.000000 0 1 0
21.569921 -8.475398 -0.969311 23.195548 -0.374394 1.612597 0.099626 -0.014212 -457698.000000 0 1 0
20.864121 -8.040698 -2.287711 22.476610 -0.367843 1.672755 0.111548 -0.014064 -292387.000000 0 1 0
21.693121 -7.560198 -3.331111 23.213023 -0.335344 1.714795 0.108129 -0.019100 45260.500000 0 1 0
22.559821 -8.505398 -3.887111 24.421240 -0.360536 1.730645 0.095263 -0.017129 -666937.000000 0 1 0
21.901621 -9.653698 -4.737711 24.399197 -0.415156 1.766213 0.066912 -0.019809 -292051.000000 0 1 0
21.451421 -9.142798 -5.990211 24.075649 -0.402895 1.822246 0.074162 -0.026807 883778.000000 0 1 0
20.023121 -9.047698 -5.976511 22.770703 -0.424402 1.836372 0.066506 -0.016717 164511.000000 0 1 0
19.358021 -8.949098 -7.354711 22.559059 -0.433031 1.902887 0.066885 -0.011842 -346798.000000 0 1 0
19.342921 -10.057898 -8.178511 23.285145 -0.479502 1.929684 0.062784 -0.010660 568868.000000 0 1 0
20.562721 -10.398598 -8.814411 24.670837 -0.468198 1.936151 0.060802 -0.006692 -178232.000000 0 1 0
20.446021 -11.850498 -9.404811 25.434712 -0.525284 1.949550 0.048408 -0.010023 -59860.100000 0 0 1
19.396621 -11.996198 -10.340911 25.041409 -0.553889 1.996490 0.060987 -0.017387 264673.000000 0 0 1
19.244821 -13.341698 -10.763711 25.772496 -0.606189 2.001646 0.057455 -0.014700 286073.000000 0 0 1
18.082521 -13.549898 -11.797111 25.490178 -0.643077 2.051959 0.053547 -0.020973 517573.000000 0 0 1
17.862921 -14.930098 -12.025211 26.203006 -0.696201 2.047581 0.047164 -0.019426 534364.000000 0 0 1
16.899721 -15.065998 -13.088111 26.151167 -0.728096 2.094948 0.053932 -0.024354 129931.000000 0 0 1
16.829521 -16.536498 -13.635911 27.251177 -0.776616 2.094833 0.039462 -0.015212 -435580.000000 0 0 1
16.372121 -17.415898 -12.654011 27.045959 -0.816280 2.057676 0.033773 -0.015996 150727.000000 0 0 1
16.576021 -18.768798 -12.919511 28.177048 -0.847358 2.047116 0.027113 -0.017953 -117087.000000 0 0 1
15.564821 -19.672498 -12.122511 27.860835 -0.901446 2.020956 0.027524 -0.020950 741712.000000 0 0 1
14.202621 -19.497398 -12.508011 27.171922 -0.941239 2.049162 0.018864 -0.019006 260431.000000 0 0 1
13.356021 -20.312998 -11.706811 26.982413 -0.989159 2.019578 0.028756 -0.018521 877298.000000 0 0 1
11.855121 -20.141798 -12.115711 26.325395 -1.038814 2.049049 0.047119 -0.027165 564445.000000 0 0 1
10.919621 -20.626798 -11.192011 25.883664 -1.083914 2.017945 0.064150 -0.036063 291632.000000 0 0 1
9.574321 -20.287798 -11.572711 25.242623 -1.129860 2.047057 0.067772 -0.032828 920578.000000 0 0 1
8.575421 -20.772798 -10.488811 24.800447 -1.179288 2.007471 0.054378 -0.033684 -206468.000000 0 1 0
8.456321 -22.189698 -10.459911 25.948060 -1.206695 1.985709 0.077351 -0.030861 -156369.000000 0 0 1
7.581421 -22.642598 -9.458511 25.683237 -1.247699 1.947950 0.067814 -0.036725 2781.620000 0 0 1
7.567121 -24.164498 -9.450611 27.027733 -1.267319 1.928008 0.065886 -0.034503 582485.000000 0 0 1
8.820921 -24.646298 -8.984511 27.676165 -1.227101 1.901417 0.066416 -0.028822 -90260.200000 0 0 1
9.039121 -25.934498 -9.542211 29.075036 -1.235426 1.905186 0.056014 -0.026210 -243450.000000 0 0 1
10.482521 -26.425018 -9.465011 29.962498 -1.193147 1.892196 0.049493 -0.020925 -343667.000000 0 0 1
10.949721 -26.633598 -8.145511 29.926482 -1.180737 1.846458 0.057624 -0.024123 194235.000000 0 0 1
12.243821 -27.231928 -8.097411 30.936340 -1.148265 1.835625 0.074155 -0.010720 199598.000000 0 0 1
12.655021 -27.671048 -6.643011 31.144278 -1.141857 1.785746 0.066508 -0.016612 132542.000000 0 0 1
12.144421 -28.858898 -6.019711 31.883537 -1.172471 1.760740 0.063054 -0.016582 1171670.000000 0 0 1
10.711021 -28.967428 -5.848511 31.433151 -1.216627 1.757949 0.055039 -0.015345 1187940.000000 0 0 1
10.158721 -29.959408 -4.770611 31.992569 -1.243880 1.720471 0.056379 -0.009738 282558.000000 0 0 1
10.429321 -31.309058 -5.175811 33.403846 -1.249248 1.726370 0.064002 -0.011787 490943.000000 0 0 1
9.510521 -31.825618 -6.178111 33.785930 -1.280411 1.754692 0.058717 -0.013414 571853.000000 0 0 1
9.775921 -33.286718 -6.470911 35.290890 -1.285140 1.755199 0.054750 -0.007290 -135234.000000 0 0 1
9.458021 -34.095063 -5.410711 35.793900 -1.300199 1.722541 0.051518 -0.008430 17018.900000 0 0 1
10.009521 33.116618 -5.489311 35.029037 1.277276 1.728152 0.053887 -0.012371 -22542.200000 0 0 1
9.487221 32.228297 -4.380811 33.880113 1.284508 1.700463 0.057493 -0.012471 -1276400.000000 0 0 1
8.146721 32.017807 -4.507611 33.344079 1.321640 1.706396 0.060245 -0.017513 -1696330.000000 0 0 1
7.705421 31.061217 -3.547611 32.198731 1.327633 1.681199 0.030499 -0.013362 464287.000000 0 0 1
6.342821 30.348537 -3.790811 31.235162 1.364763 1.692460 0.020904 -0.019107 452574.000000 0 0 1
6.346721 29.481507 -4.878811 30.549025 1.358754 1.731187 0.017570 -0.017671 117875.000000 0 0 1
5.532421 30.129947 -5.846211 31.186529 1.389200 1.759371 0.017499 -0.014656 -388364.000000 0 0 1
5.530921 29.454457 -7.281811 30.841221 1.385179 1.809153 0.025127 -0.021799 -178945.000000 0 0 1
4.969821 28.163587 -7.508911 29.568066 1.396132 1.827562 0.028299 -0.016994 19604.200000 0 0 1
5.577921 27.069117 -6.812511 28.465077 1.367579 1.812471 0.012144 -0.019328 -227807.000000 0 0 1
4.930021 25.743577 -7.355211 27.223813 1.381582 1.844372 0.008529 -0.011878 1664780.000000 0 0 1
3.525121 25.470797 -7.082511 26.671145 1.433271 1.839570 0.010735 -0.016251 924475.000000 0 0 1
2.571821 26.192607 -7.832711 27.459394 1.472921 1.860061 0.034659 -0.020169 -149260.000000 0 0 1
2.109821 25.637327 -9.163111 27.307261 1.488686 1.912992 0.035518 -0.013646 -871368.000000 0 0 1
3.128121 25.357107 -10.063411 27.459794 1.448054 1.946017 0.025087 -0.014336 -761929.000000 0 0 1
2.764721 24.787587 -11.307611 27.384854 1.459719 1.996448 0.042729 -0.016024 -758726.000000 0 0 1
2.327121 23.300037 -11.312611 26.005430 1.471250 2.020845 0.058282 -0.011071 253871.000000 0 0 1
1.184921 22.990237 -10.516611 25.309171 1.519302 1.999317 0.076514 -0.012405 120877.000000 0 0 1
1.152921 21.579937 -10.472811 24.014635 1.517421 2.022058 0.041852 -0.006278 -262992.000000 0 1 0
0.110821 21.019137 -9.490911 23.062823 1.565524 1.994922 0.042931 -0.005760 -1006010.000000 0 1 0
-1.162379 21.195537 -9.984211 23.458184 -1.516010 2.010440 0.049714 -0.007504 -1267630.000000 0 1 0
-2.115479 20.455637 -9.241011 22.545612 -1.467745 1.993120 0.035228 -0.009468 580956.000000 0 1 0
-3.531279 20.506237 -9.891911 23.039653 -1.400264 2.014561 0.026151 -0.008225 371130.000000 0 1 0
-4.512279 19.766937 -9.208511 22.268569 -1.346368 1.997114 0.027567 -0.015511 -229176.000000 0 1 0
-5.431879 19.267837 -10.155911 22.447659 -1.296013 2.040280 0.030526 -0.012887 -515456.000000 0 1 0
-6.371179 18.164637 -9.590011 21.506145 -1.233457 2.032998 0.025044 -0.019227 209808.000000 0 1 0
-7.423079 18.605937 -8.734511 21.853482 -1.191184 1.981970 0.051438 -0.019054 186898.000000 0 1 0
-8.588379 18.943637 -9.492211 22.863152 -1.145148 1.998932 0.056001 -0.020821 -245728.000000 0 1 0
-9.729379 19.274237 -8.526911 23.213471 -1.103327 1.946929 0.059789 -0.027066 -221881.000000 0 1 0
-10.031879 18.175637 -7.701311 22.142777 -1.066464 1.926022 0.054533 -0.025724 178924.000000 0 1 0
-11.119079 18.501137 -6.815211 22.635660 -1.029646 1.876624 0.064446 -0.022899 400006.000000 0 1 0
-11.497979 17.336637 -5.892411 21.621356 -0.985185 1.846815 0.032469 -0.019474 -550953.000000 0 1 0
-12.502479 17.652737 -4.978911 22.197312 -0.954558 1.797024 0.056331 -0.019474 -382401.000000 0 1 0
-12.854379 16.556137 -4.229811 21.382985 -0.910605 1.769922 0.040583 -0.014844 330859.000000 0 1 0
-14.210879 16.824137 -3.478411 22.295740 -0.869404 1.727449 0.044618 -0.016676 341035.000000 0 1 0
-15.334479 16.717037 -4.336111 23.095615 -0.828507 1.759663 0.068203 -0.038877 -582503.000000 0 1 0
-16.381679 17.142437 -3.527811 23.972234 -0.808087 1.718495 0.080299 -0.034511 -780790.000000 0 1 0
-17.779279 17.296437 -4.150111 25.149412 -0.771633 1.736573 0.092768 -0.038421 35713.700000 0 0 1
-17.695179 18.117737 -5.250611 25.863887 -0.797197 1.775227 0.073579 -0.040149 -277215.000000 0 0 1
-18.995579 18.380337 -5.698211 27.039571 -0.768939 1.783124 0.063853 -0.031474 -253667.000000 0 0 1
-19.011479 19.264637 -6.947511 27.943344 -0.792012 1.822060 0.049596 -0.019007 -86634.600000 0 0 1
-18.677579 20.588537 -6.655411 28.583812 -0.834027 1.805792 0.047937 -0.027027 12799.500000 0 0 1
-18.722479 21.496637 -7.718511 29.533236 -0.854265 1.835217 0.039101 -0.009907 -18651.200000 0 0 1
-18.503579 22.959537 -7.223711 30.359591 -0.892455 1.811039 0.053889 -0.014400 -200112.000000 0 0 1
-17.320479 23.137337 -6.482011 29.620125 -0.928195 1.791420 0.047521 -0.021368 -174272.000000 0 0 1
-17.313979 24.168167 -5.579211 30.248996 -0.949151 1.756301 0.055789 -0.021263 -155176.000000 0 0 1
-15.974779 24.391157 -4.847211 29.557022 -0.990955 1.735536 0.044435 -0.020249 -96780.400000 0 0 1
-16.198179 25.307787 -3.800711 30.287134 -1.001450 1.696617 0.046088 -0.018367 828519.000000 0 0 1
-15.009079 25.929527 -3.274311 30.138579 -1.046080 1.679653 0.049343 -0.023729 1093030.000000 0 0 1
-14.344279 27.110427 -4.093911 30.943395 -1.084136 1.703489 0.059921 -0.022414 50370.300000 0 0 1
-15.222579 28.169727 -4.082111 32.278849 -1.075363 1.697600 0.051923 -0.017205 -196798.000000 0 0 1
-14.633679 29.219617 -4.823611 33.033283 -1.106495 1.717343 0.047745 -0.012469 -246016.000000 0 0 1
-15.131279 30.648247 -4.541611 34.480384 -1.112195 1.702896 0.048631 -0.019722 -532702.000000 0 0 1
-16.486979 30.829217 -4.833411 35.293384 -1.079710 1.708178 0.074131 -0.019040 -365495.000000 0 0 1
-16.905879 32.123957 -4.451511 36.572849 -1.086354 1.692815 0.073218 -0.023337 -9780.090000 0 0 1
12.591533 -8.595998 18.882727 24.269225 -0.599008 0.679237 0.044282 -0.013355 -117775.000000 0 1 0
13.151733 -9.746198 19.393527 25.378443 -0.637754 0.701038 0.038905 -0.009318 -195284.000000 0 0 1
13.340433 -10.659498 18.309627 25.036663 -0.674153 0.750552 0.039069 -0.010470 -121631.000000 0 0 1
13.590333 -12.120498 18.830427 26.195202 -0.728292 0.768649 0.067931 -0.015353 -744884.000000 0 0 1
14.754133 -12.160698 19.595627 27.378013 -0.689338 0.773109 0.053385 -0.013262 -220767.000000 0 0 1
15.050833 -13.411998 20.184527 28.527608 -0.727884 0.784780 0.066142 -0.011171 22741.700000 0 0 1
15.733933 -14.461298 19.201527 28.729505 -0.743276 0.838800 0.075934 -0.011384 -601306.000000 0 0 1
14.982833 -14.769898 18.074427 27.736620 -0.778241 0.861045 0.077271 -0.015480 -198843.000000 0 0 1
15.486533 -15.842898 17.316227 28.119066 -0.796772 0.907373 0.083832 -0.015983 -451136.000000 0 0 1
14.749333 -16.078398 15.985427 27.047950 -0.828484 0.938494 0.076645 -0.016323 -700564.000000 0 0 1
13.430633 -16.483498 16.163627 26.708621 -0.887100 0.920800 0.090286 -0.025267 -535256.000000 0 0 1
12.644133 -16.459398 14.994327 25.604994 -0.915748 0.945174 0.103403 -0.037428 40357.900000 0 0 1
12.458533 -17.901098 14.362627 26.114161 -0.962784 0.988439 0.074712 -0.025201 -730630.000000 0 0 1
13.548233 -18.397698 13.669827 26.625065 -0.936050 1.031631 0.076637 -0.023669 -466452.000000 0 0 1
13.271633 -19.680198 13.121127 27.122139 -0.977483 1.065829 0.072573 -0.031032 264944.000000 0 0 1
14.571633 -20.482098 12.821927 28.217914 -0.952439 1.099109 0.080263 -0.032709 368034.000000 0 0 1
15.236633 -21.026098 13.970927 29.486244 -0.943715 1.077182 0.089747 -0.026312 92960.800000 0 0 1
15.500033 -22.423298 13.846927 30.574380 -0.965969 1.100789 0.060665 -0.031704 -572.812000 0 0 1
16.298933 -22.976198 15.073527 31.949525 -0.953801 1.079474 0.066700 -0.032009 224102.000000 0 0 1
17.647133 -22.548798 15.071627 32.357743 -0.906743 1.086279 0.043182 -0.029762 -214372.000000 0 0 1
18.308033 -23.089598 16.194127 33.623851 -0.900392 1.068287 0.054533 -0.034033 -335755.000000 0 0 1
19.771833 -22.624598 16.173027 34.122787 -0.852585 1.077007 0.021536 -0.019293 -275045.000000 0 0 1
20.691933 -23.435098 15.498927 34.893791 -0.847483 1.110544 0.028856 -0.029179 -1017930.000000 0 0 1
21.955133 -22.850998 15.540227 35.294400 -0.805390 1.114860 0.021324 -0.015569 -553270.000000 0 0 1
22.996933 -23.784698 14.903927 36.286331 -0.802236 1.147540 0.006646 -0.023428 -344498.000000 0 0 1
23.413433 -24.780398 15.821027 37.584064 -0.813754 1.136304 0.017014 -0.022807 385836.000000 0 0 1
24.535433 -25.496098 15.307027 38.553127 -0.804597 1.162510 0.018401 -0.029848 143398.000000 0 0 1
25.030033 -26.631438 16.287327 40.012661 -0.816386 1.151570 0.016017 -0.028185 -390009.000000 0 0 1
25.701033 -26.174538 17.413827 40.606538 -0.794526 1.127585 0.014852 -0.021073 -87561.600000 0 0 1
25.996033 -27.204088 18.299927 41.841887 -0.808102 1.118136 0.043426 -0.019625 24286.900000 0 0 1
26.375033 -26.715328 19.715827 42.403596 -0.791808 1.087211 0.030344 -0.017292 205099.000000 0 0 1
25.250233 -26.210938 20.433027 41.738425 -0.804065 1.059223 0.048455 -0.013282 417034.000000 0 0 1
25.527433 -25.902608 21.801227 42.401515 -0.792693 1.030767 0.048818 -0.000541 -535018.000000 0 0 1
24.210333 -25.659098 22.521627 41.853951 -0.814441 1.002615 0.047632 -0.002976 -344774.000000 0 0 1
23.528633 -26.873688 22.720527 42.332187 -0.851668 1.004252 0.053233 -0.008329 -535312.000000 0 0 1
22.414333 -26.800168 23.553527 42.135733 -0.874280 0.977627 0.056794 -0.007581 -471886.000000 0 0 1
21.805033 -28.247908 23.537667 42.748398 -0.913415 0.987702 0.066876 -0.009481 -45460.600000 0 0 1
22.631833 -29.218628 24.195767 44.174237 -0.911756 0.991142 0.055659 -0.004465 607671.000000 0 0 1
22.383733 -30.495188 23.685437 44.631692 -0.937608 1.011386 0.065784 -0.004948 -166051.000000 0 0 1
23.337033 -31.553008 24.291347 46.154945 -0.933976 1.016553 0.042615 0.000691 -21260.400000 0 0 1
23.110533 -31.842778 25.620627 46.951845 -0.942984 0.993597 0.028909 0.004096 956211.000000 0 0 1
24.349533 -32.192528 26.270637 48.160201 -0.923229 0.993829 0.023246 0.006894 317843.000000 0 0 1
24.144633 -32.727538 27.682667 49.197410 -0.935184 0.973166 0.019426 -0.000414 401401.000000 0 0 1
23.529933 -34.039878 27.800507 49.852174 -0.965970 0.979234 0.012107 0.001756 -213172.000000 0 0 1
22.257233 34.228213 27.328827 49.130640 0.994238 0.980932 0.020327 0.012979 -1337800.000000 0 0 1
21.630233 32.986953 27.863307 48.294616 0.990410 0.955814 0.052399 -0.005968 -362205.000000 0 0 1
21.128233 33.138490 29.200157 48.961321 1.003206 0.931797 0.032530 -0.006992 219853.000000 0 0 1
20.805733 31.867037 29.737547 48.298119 0.992391 0.907512 0.041290 -0.011609 -320545.000000 0 0 1
20.399533 31.877907 31.229987 49.067851 1.001535 0.880889 0.032473 -0.011381 -640772.000000 0 0 1
21.438433 32.268847 32.065187 50.289772 0.984386 0.879406 0.026553 -0.010250 -427624.000000 0 0 1
21.151733 32.370237 33.458820 51.134340 0.992013 0.857498 0.030471 -0.010181 443831.000000 0 0 1
22.495633 32.426227 -34.230562 52.242177 0.964279 2.285281 0.016999 -0.003580 851503.000000 0 0 1
22.955833 31.104387 -34.057401 51.520479 0.935003 2.293008 0.018948 -0.000458 -482112.000000 0 0 1
24.140033 31.013417 -33.333051 51.533150 0.909382 2.274213 0.014748 0.007622 -431502.000000 0 0 1
24.508733 29.556117 -32.849751 50.530666 0.878486 2.278506 0.023298 -0.000453 -100730.000000 0 0 1
24.824833 28.783287 -33.999571 50.997263 0.859105 2.300561 0.025503 -0.001947 286841.000000 0 0 1
24.200933 27.538227 -33.901951 49.933770 0.849811 2.317112 0.036107 -0.015789 -199435.000000 0 0 1
24.412733 26.808497 33.283131 49.218329 0.832137 0.828157 0.064506 -0.013614 -556260.000000 0 0 1
25.687333 26.274177 33.153212 49.490473 0.796692 0.836735 0.059089 -0.017682 -343134.000000 0 0 1
25.808833 25.725847 31.861877 48.405519 0.783788 0.852334 0.082641 -0.031017 141133.000000 0 0 1
27.143233 24.917827 31.704727 48.609083 0.742678 0.860262 0.056625 -0.018794 398209.000000 0 0 1
27.371733 23.845607 32.619358 48.804173 0.716660 0.838778 0.060993 -0.019290 80486.300000 0 0 1
28.080133 24.249497 33.751890 50.156974 0.712326 0.832640 0.061325 -0.027325 -1014170.000000 0 0 1
27.855433 23.377437 -33.505751 49.447599 0.698215 2.315292 0.049558 -0.028836 513261.000000 0 0 1
26.621333 23.492547 -32.786751 48.327696 0.723046 2.316414 0.058495 -0.031023 2174340.000000 0 0 1
25.400233 22.957537 -33.415061 47.841265 0.734928 2.344035 0.066010 -0.024026 1237520.000000 0 0 1
25.154833 21.421537 -33.184351 46.827866 0.705415 2.358373 0.056217 -0.027486 -350874.000000 0 0 1
24.806333 21.039337 -31.865841 45.535038 0.703415 2.345927 0.049369 -0.038917 307403.000000 0 0 1
25.058233 19.681937 -31.722131 44.962065 0.665805 2.353968 0.044808 -0.031727 -326561.000000 0 0 1
24.881233 19.292037 -30.209121 43.633123 0.659538 2.335529 0.044770 -0.030246 -456481.000000 0 0 1
23.535333 19.213237 -29.839731 42.584856 0.684636 2.347192 0.036272 -0.032290 -278410.000000 0 0 1
23.316233 18.826937 -28.471781 41.336940 0.679274 2.330592 0.039553 -0.029049 164766.000000 0 0 1
21.907033 19.119637 -27.868851 40.275942 0.717561 2.334980 0.050094 -0.027750 277214.000000 0 0 1
21.585233 18.531737 -26.637731 38.973277 0.709430 2.323325 0.048445 -0.016439 -4811.880000 0 0 1
22.240233 19.054437 -25.473631 38.815015 0.708403 2.286678 0.039792 -0.007923 -36884.100000 0 0 1
22.240933 18.074837 -24.340111 37.600530 0.682427 2.274878 0.043311 -0.005558 -260702.000000 0 0 1
23.219633 17.108837 -24.559811 37.882027 0.635017 2.276177 0.049699 -0.018285 -174611.000000 0 0 1
23.179833 16.108637 -23.560711 36.768192 0.607323 2.266324 0.056206 -0.019156 -350988.000000 0 0 1
24.143933 14.919637 -23.780711 37.027656 0.553510 2.268216 0.085638 -0.020149 -721834.000000 0 0 1
25.463733 15.331537 -23.528511 37.908423 0.541957 2.240390 0.116137 -0.029578 369928.000000 0 0 1
26.436133 14.238137 -23.590611 38.185214 0.494038 2.236731 0.131039 -0.037736 829356.000000 0 0 1
26.463733 13.329837 -22.375311 37.130422 0.466605 2.217569 0.117284 -0.030764 -21297.400000 0 0 1
25.268633 12.543437 -22.276811 35.945764 0.460766 2.239200 0.102214 -0.022956 297629.000000 0 0 1
25.104433 12.026937 -20.992811 34.865139 0.446769 2.216943 0.085478 -0.023348 -799324.000000 0 0 1
23.690533 11.629437 -20.653311 33.511855 0.456333 2.234830 0.077119 -0.019332 -446667.000000 0 0 1
22.758833 12.693337 -20.620511 33.230871 0.508760 2.240205 0.091003 -0.016735 -637933.000000 0 0 1
21.433333 12.329337 -20.800711 32.312070 0.522016 2.270178 0.054318 -0.012828 -566547.000000 0 0 1
20.451033 13.498437 -20.615711 32.022806 0.583399 2.270227 0.045962 -0.008555 -598543.000000 0 0 1
20.726933 14.622337 -21.490711 33.245589 0.614391 2.273683 0.038213 -0.006695 -39926.900000 0 0 1
19.796033 15.674837 -21.455911 33.135171 0.669731 2.275131 0.026104 -0.004477 -329996.000000 0 0 1
18.599333 15.426637 -22.392111 32.944240 0.692424 2.318146 0.018249 0.012377 62232.300000 0 0 1
17.586633 14.589737 -21.830011 31.602207 0.692526 2.333357 0.011885 0.005729 392282.000000 0 0 1
16.448133 14.505337 -22.667711 31.539991 0.722715 2.372724 0.018223 -0.007466 365966.000000 0 0 1
15.204633 13.840037 -21.999711 30.111705 0.738450 2.390001 0.005539 -0.003083 1485560.000000 0 0 1
14.017833 14.145937 -22.768611 30.249245 0.789947 2.422950 0.021774 -0.001876 1447360.000000 0 0 1
12.808133 13.397537 -22.532111 29.175989 0.807886 2.453223 0.045831 -0.005222 1029860.000000 0 0 1
11.676133 13.699437 -23.546211 29.638332 0.864964 2.488900 0.053862 -0.003957 -8598.300000 0 0 1
11.423433 15.075037 -23.412111 30.097816 0.922340 2.462062 0.031940 0.002193 -78055.100000 0 0 1
10.984733 15.592337 -24.637711 31.157698 0.957060 2.482817 0.035206 -0.009417 -638469.000000 0 0 1
10.963733 17.181837 -24.667511 31.998517 1.002832 2.451042 0.030962 -0.004991 30897.000000 0 0 1
12.210433 17.812637 -24.424011 32.602408 0.969873 2.417570 0.030778 -0.001756 1029580.000000 0 0 1
13.363433 17.684637 -25.291011 33.629793 0.923688 2.421951 0.035966 -0.004588 837500.000000 0 0 1
13.065133 17.997337 -26.804921 34.829666 0.942867 2.449011 0.054762 -0.021313 -440329.000000 0 0 1
14.121733 17.782137 -27.720451 35.833660 0.899631 2.455278 0.047015 -0.023684 76275.300000 0 0 1
13.588833 17.631237 -29.016891 36.571804 0.914163 2.487208 0.064674 -0.018532 -40343.000000 0 0 1
14.663633 17.727437 -30.127871 37.907424 0.879706 2.489433 0.064433 -0.026137 327226.000000 0 0 1
15.604733 16.680337 -30.276641 37.926460 0.818702 2.495261 0.045699 -0.021383 57119.000000 0 0 1
16.321933 16.798637 -31.507141 39.259389 0.799790 2.502333 0.047092 -0.015611 280968.000000 0 0 1
17.675733 16.043237 -31.408771 39.450322 0.737021 2.491719 0.045683 -0.015220 -299642.000000 0 0 1
18.762033 16.805337 -31.012591 39.952648 0.730440 2.459466 0.052858 -0.027063 -778709.000000 0 0 1
19.954933 16.084037 -31.000861 40.223737 0.678400 2.450752 0.053131 -0.021397 -414412.000000 0 0 1
21.217733 16.850037 -31.350181 41.436093 0.671163 2.428880 0.053014 -0.021738 -327771.000000 0 0 1
21.215033 17.136937 -32.748981 42.617461 0.679463 2.447197 0.060801 -0.026833 666012.000000 0 0 1
22.494733 17.582437 -33.221031 43.804018 0.663436 2.431653 0.072195 -0.028870 361718.000000 0 0 1
22.603533 17.790037 33.769652 44.359830 0.666793 0.705532 0.045542 -0.013864 5725.330000 0 0 1
23.688133 18.660637 33.495407 45.069827 0.667235 0.732972 0.045728 -0.014856 377048.000000 0 0 1
23.518433 18.953037 32.117497 44.089318 0.678316 0.754719 0.060931 -0.019324 -588673.000000 0 0 1
24.483533 20.065837 31.718147 44.812075 0.686557 0.784412 0.066522 -0.016546 -1474130.000000 0 0 1
25.773533 19.598337 31.820037 45.396967 0.650127 0.794098 0.027481 -0.008275 -1515010.000000 0 0 1
26.567633 20.739637 31.570427 46.180770 0.662821 0.818075 0.031978 -0.015729 -428613.000000 0 0 1
28.073633 20.432337 31.531637 46.902595 0.629149 0.833513 0.033759 -0.014930 -130936.000000 0 0 1
28.638833 20.227437 32.839573 48.039250 0.614938 0.818114 0.025574 -0.017457 726678.000000 0 0 1
30.059033 20.070237 32.785423 48.797990 0.588714 0.834079 0.019349 -0.012821 647052.000000 0 0 1
30.647133 19.537437 34.122119 49.852555 0.567535 0.816932 0.022707 -0.005679 -172109.000000 0 0 1
30.506433 20.218437 -33.173621 49.395514 0.585293 2.307151 0.020672 -0.014983 199274.000000 0 0 1
29.417533 19.638137 -32.462711 48.009117 0.588625 2.313359 0.018364 -0.023993 105383.000000 0 0 1
29.566533 19.793137 -30.886181 47.115861 0.589923 2.285690 0.047114 -0.026969 332377.000000 0 0 1
30.598633 18.949337 -30.373151 47.094395 0.554481 2.271744 0.055864 -0.030069 -71808.800000 0 0 1
31.306833 19.607037 -29.386291 47.202837 0.559524 2.242798 0.052649 -0.033702 -86485.600000 0 0 1
32.806833 19.250737 -29.342091 48.039957 0.530650 2.227848 0.062203 -0.024152 446060.000000 0 0 1
33.671533 19.919037 -30.278011 49.470174 0.534197 2.229441 0.032716 -0.023110 776675.000000 0 0 1
34.970133 20.115737 -29.696501 50.094264 0.522004 2.205343 0.043659 -0.009085 1032870.000000 0 0 1
35.974133 20.860437 -30.644251 51.656231 0.525489 2.205867 0.041763 -0.012035 248188.000000 0 0 1
-35.925956 20.007337 -31.558461 51.835358 -0.508129 2.225370 0.027506 -0.007969 367533.000000 0 0 1
-34.856656 20.727137 -32.178451 51.769232 -0.536468 2.241548 0.030979 -0.003851 292011.000000 0 0 1
-33.988556 19.878137 -33.126831 51.456285 -0.529204 2.270232 0.026838 -0.001801 -217822.000000 0 0 1
-33.143356 18.956537 -32.486621 50.131955 -0.519544 2.275781 0.040221 -0.010713 -77326.000000 0 0 1
-32.349856 18.359337 -33.472111 50.039591 -0.516198 2.303541 0.043738 -0.015587 -401264.000000 0 0 1
-31.583256 17.073037 -33.051941 48.799810 -0.495576 2.314878 0.026939 -0.001829 -1983.870000 0 0 1
-32.338256 15.884037 -32.911031 48.797555 -0.456570 2.311003 0.042111 0.001362 -52492.700000 0 0 1
-31.738656 14.822037 -33.601671 48.539750 -0.436903 2.335399 0.036886 0.003796 -291019.000000 0 0 1
-32.477056 13.485737 -33.493381 48.563678 -0.393574 2.331843 0.048033 0.000362 -402120.000000 0 0 1
-31.732756 12.350137 -33.801021 47.979190 -0.371155 2.352505 0.051663 -0.007131 101703.000000 0 0 1
-32.553056 11.256437 -33.405751 47.982841 -0.332917 2.340889 0.051103 -0.007999 351236.000000 0 0 1
-32.193656 9.918537 -34.108863 47.939789 -0.298862 2.362418 0.050308 -0.002557 8944.460000 0 0 1
-32.483756 10.001337 32.998498 47.372165 -0.298677 0.800177 0.060123 -0.014578 130064.000000 0 0 1
-32.516756 8.719737 32.497386 46.791595 -0.261997 0.803053 0.055265 -0.027832 -248583.000000 0 0 1
-31.193456 8.214937 31.924727 45.383974 -0.257508 0.790576 0.076712 -0.020797 -255594.000000 0 0 1
-30.256856 7.755737 32.874113 45.346842 -0.250927 0.759837 0.057832 -0.010075 364571.000000 0 0 1
-29.127056 7.206837 32.154687 43.980084 -0.242556 0.750835 0.052345 -0.013399 613424.000000 0 0 1
20.434333 -4.543298 -31.682161 37.973186 -0.218778 2.557712 0.066069 -0.034570 -681717.000000 0 0 1
21.742433 -4.762098 -32.085941 39.050206 -0.215618 2.535111 0.068170 -0.032673 -257087.000000 0 0 1
22.715533 -3.760798 -31.755441 39.224317 -0.164072 2.514242 0.079949 -0.032090 487685.000000 0 0 1
22.821733 -2.432298 -32.532261 39.813259 -0.106177 2.527196 0.071739 -0.034166 -217893.000000 0 0 1
23.665733 -1.508598 -31.850491 39.708898 -0.063660 2.501599 0.080751 -0.028066 478879.000000 0 0 1
23.477633 -0.238198 -32.487621 40.083681 -0.010145 2.515793 0.067031 -0.025272 -335564.000000 0 0 1
24.270733 0.937402 -31.912851 40.104579 0.038604 2.491026 0.074404 -0.024296 277921.000000 0 0 1
25.667033 0.814402 -32.208461 41.192776 0.031719 2.468497 0.074285 -0.027039 448470.000000 0 0 1
26.471333 1.686102 -31.444321 41.137814 0.063609 2.440853 0.071802 -0.024934 -590958.000000 0 0 1
27.943433 1.592102 -31.789801 42.355185 0.056914 2.419695 0.055312 -0.026050 -663059.000000 0 0 1
28.304933 2.225902 -33.024521 43.551611 0.078479 2.431474 0.053906 -0.018763 -220320.000000 0 0 1
28.966133 1.299002 -33.833561 44.558210 0.044816 2.433051 0.045473 -0.013416 166847.000000 0 0 1
29.828033 1.978502 33.520002 44.913434 0.066233 0.728274 0.041795 -0.022716 452772.000000 0 0 1
29.080333 2.807502 32.644422 43.808745 0.096245 0.730025 0.043084 -0.020979 207286.000000 0 0 1
29.034233 4.110202 33.078598 44.204910 0.140630 0.725298 0.042488 -0.013954 -95563.600000 0 0 1
28.382833 4.981402 32.012937 43.072354 0.173738 0.732902 0.058006 -0.009734 -142500.000000 0 0 1
28.480633 6.406102 32.275447 43.518836 0.221246 0.735280 0.052224 -0.013412 -144091.000000 0 0 1
27.767933 7.058302 31.275087 42.414724 0.248917 0.741637 0.046071 -0.007523 -390640.000000 0 0 1
28.054033 8.535302 31.276687 42.873200 0.295347 0.753182 0.043275 -0.001371 -38307.500000 0 0 1
29.334833 8.900302 30.822117 43.471263 0.294577 0.782685 0.031419 -0.004649 -301675.000000 0 0 1
29.587933 10.240402 31.252867 44.238595 0.333197 0.786310 0.037322 -0.008917 -665459.000000 0 0 1
30.847733 10.868202 30.723087 44.873249 0.338738 0.816654 0.034110 -0.000681 -603990.000000 0 0 1
32.046233 10.355502 31.298217 45.975818 0.312551 0.822005 0.044818 -0.009820 1388780.000000 0 0 1
33.282733 10.915802 30.782807 46.631280 0.316918 0.849802 0.057870 -0.016241 1180300.000000 0 0 1
33.617033 12.462202 30.954587 47.366632 0.355005 0.858583 0.073549 -0.019251 -797686.000000 0 0 1
33.981233 12.804702 32.287407 48.591781 0.360363 0.844022 0.074056 -0.016471 367608.000000 0 0 1
34.204933 14.166902 32.485383 49.254225 0.392668 0.850583 0.087542 -0.012670 -127680.000000 0 0 1
32.882933 14.952102 32.585483 48.648395 0.426761 0.836835 0.077705 -0.016995 -852198.000000 0 0 1
32.474633 15.390702 31.330437 47.676742 0.442575 0.853774 0.061336 -0.019630 196246.000000 0 0 1
31.368033 16.276602 31.395537 47.271143 0.478646 0.844429 0.035793 -0.013797 182147.000000 0 0 1
29.966433 15.651102 31.523197 46.223977 0.481318 0.820349 0.036523 -0.007356 -809814.000000 0 0 1
29.429133 15.094002 30.348887 44.888280 0.473909 0.828342 0.008267 0.003201 394161.000000 0 0 1
28.377033 14.199102 30.713417 44.160893 0.463946 0.801696 0.003473 0.008775 506006.000000 0 0 1
27.536633 13.596202 29.529597 42.604225 0.458635 0.804996 0.014923 0.011313 176713.000000 0 0 1
28.149933 12.519502 28.875887 42.225271 0.418474 0.817766 0.016296 0.002463 -88510.000000 0 0 1
27.308933 12.053302 27.860697 40.832320 0.415653 0.819865 0.026054 -0.005822 -157701.000000 0 0 1
27.284133 10.509602 27.755297 40.314168 0.367675 0.811412 0.027776 0.004743 -610348.000000 0 0 1
28.388233 9.856402 27.256937 40.570692 0.334178 0.834109 0.027342 -0.003093 -761415.000000 0 0 1
28.134533 8.483102 27.223917 40.058165 0.292850 0.823566 0.042158 -0.003819 126230.000000 0 0 1
29.285633 7.625602 26.653887 40.326515 0.254731 0.848710 0.034152 -0.006008 84886.200000 0 0 1
29.655333 8.010202 25.317837 39.806971 0.263814 0.881473 0.041626 -0.008892 350026.000000 0 0 1
30.690833 7.280402 24.675527 40.047635 0.232912 0.906946 0.045514 0.001217 188211.000000 0 0 1
30.886833 7.858202 23.257127 39.454299 0.249134 0.940394 0.056354 -0.003517 -516953.000000 0 0 1
31.643433 9.069602 23.194027 40.268193 0.279136 0.956983 0.050469 -0.012532 201520.000000 0 0 1
31.043333 10.264402 22.674327 39.789088 0.319331 0.964457 0.047698 -0.016444 -228002.000000 0 0 1
30.393533 10.132802 21.260127 38.450403 0.321799 0.984928 0.050800 -0.001284 254004.000000 0 0 1
31.309833 10.392502 20.185727 38.675228 0.320482 1.021685 0.056849 -0.007614 379074.000000 0 0 1
30.892533 9.946402 18.919627 37.566365 0.311487 1.042998 0.057786 -0.022839 45651.500000 0 0 1
31.911333 10.495502 17.813327 38.023721 0.317751 1.083228 0.069028 -0.053665 1739940.000000 0 0 1
33.279233 10.102802 17.711727 39.029210 0.294735 1.099763 0.068399 -0.037700 989295.000000 0 0 1
34.132833 10.259302 18.856727 40.322199 0.291980 1.084165 0.063220 -0.024626 467151.000000 0 0 1
35.614533 9.885602 18.511927 41.337773 0.270756 1.106469 0.074299 -0.019815 357248.000000 0 0 1
35.657433 8.489402 18.315027 40.975147 0.233731 1.107411 0.073520 -0.011386 -18685.000000 0 0 1
-35.931156 8.063502 17.431427 40.742149 -0.220758 1.128686 0.080971 -0.008687 -482799.000000 0 0 1
-35.959956 6.544902 17.256227 40.419445 -0.180035 1.129703 0.080896 -0.007620 23405.000000 0 0 1
35.352633 6.089002 16.850227 39.633505 0.170563 1.131668 0.066250 -0.007890 379328.000000 0 0 1
35.637533 4.830402 16.256927 39.467128 0.134722 1.146247 0.067683 -0.005683 1233200.000000 0 0 1
34.309933 3.953002 16.121927 38.114489 0.114709 1.134057 0.062303 -0.004116 1130010.000000 0 0 1
33.923633 3.304702 17.341427 38.242110 0.097110 1.100148 0.065590 -0.002034 -124218.000000 0 0 1
32.668933 2.686702 17.324327 37.075731 0.082056 1.084597 0.051190 -0.003988 -175886.000000 0 0 1
32.413933 1.761602 18.539627 37.382938 0.054294 1.051881 0.053788 -0.010120 -206524.000000 0 0 1
33.052833 0.527302 18.463127 37.863635 0.015952 1.061433 0.061348 -0.008966 -136558.000000 0 0 1
32.874133 -0.201698 19.665427 38.307680 -0.006135 1.031707 0.072225 -0.018675 218136.000000 0 0 1
33.686733 -1.536998 19.652427 39.030452 -0.045595 1.043134 0.066796 -0.019874 264705.000000 0 0 1
33.511833 -2.271598 20.875927 39.547534 -0.067681 1.014706 0.069892 -0.017796 149096.000000 0 0 1
34.263133 -3.493898 20.841027 40.255658 -0.101621 1.026616 0.056399 -0.017157 -243514.000000 0 0 1
33.986133 -4.456298 21.986427 40.722461 -0.130377 1.000467 0.055533 -0.016219 -178633.000000 0 0 1
34.304533 -3.830198 23.244127 41.614431 -0.111192 0.978148 0.056567 -0.021895 308012.000000 0 0 1
33.815933 -4.643498 24.289397 41.893367 -0.136463 0.952324 0.058990 -0.020024 90180.700000 0 0 1
33.971433 -3.913398 25.638837 42.740179 -0.114691 0.927449 0.038990 -0.015917 -62366.800000 0 0 1
33.165933 -4.459398 26.645317 42.776609 -0.133656 0.898359 0.049162 -0.005751 25640.500000 0 0 1
33.412133 -3.728898 27.821237 43.638246 -0.111143 0.879492 0.048113 -0.006753 174653.000000 0 0 1
32.469233 -4.167298 28.959307 43.706509 -0.127648 0.846531 0.048307 -0.014983 134985.000000 0 0 1
32.806533 -5.508098 29.306327 44.333605 -0.166345 0.848591 0.044938 -0.013096 114568.000000 0 0 1
32.005133 -5.967798 30.361637 44.517099 -0.184347 0.820273 0.050920 -0.021346 20900.800000 0 0 1
32.373033 -7.429798 30.599157 45.161085 -0.225599 0.826362 0.046112 -0.012749 452144.000000 0 0 1
33.581533 -7.691298 31.302727 46.548213 -0.225150 0.833242 0.045319 -0.005729 15828.800000 0 0 1
33.895833 -9.043798 31.202857 46.950357 -0.260738 0.843848 0.032495 0.003030 -205788.000000 0 0 1
35.116933 -9.488098 31.997197 48.446296 -0.263885 0.849355 0.028737 0.011450 -375381.000000 0 0 1
34.872633 -9.558298 33.387635 49.215808 -0.267522 0.825224 0.006722 0.002225 -100847.000000 0 0 1
36.020033 -9.755398 34.169941 50.598374 -0.264488 0.829402 -0.012627 0.004443 -664588.000000 0 0 1
35.733233 -10.021898 -32.829671 49.548862 -0.273439 2.295043 0.007561 0.002307 -269863.000000 0 0 1
35.265533 -8.933998 -32.047741 48.482284 -0.248115 2.292973 0.005177 -0.005373 613929.000000 0 0 1
36.209633 -7.843798 -31.896201 48.887936 -0.213326 2.281589 0.001465 -0.003025 485020.000000 0 0 1
35.682133 -6.504298 -31.278841 47.894534 -0.180305 2.282437 0.016233 -0.009820 24022.400000 0 0 1
35.926333 -6.580998 -29.899521 47.201613 -0.181172 2.256791 0.028583 -0.008736 210105.000000 0 0 1
35.311133 -5.487398 -29.262381 46.187386 -0.154168 2.256939 0.047219 -0.025692 -67482.800000 0 0 1
35.730233 -5.411998 -27.738511 45.556166 -0.150326 2.225452 0.050679 -0.028951 -73221.300000 0 0 1
-35.511456 -5.009298 -27.669251 45.296181 0.140137 2.227932 0.050057 -0.025335 -541928.000000 0 0 1
-35.147856 -4.856198 -26.335461 44.187226 0.137296 2.209303 0.062430 -0.026903 -681205.000000 0 0 1
-33.677656 -4.605598 -26.045181 42.822278 0.135912 2.224607 0.046265 -0.013972 -1477050.000000 0 0 1
-33.432556 -4.217598 -24.709611 41.786228 0.125490 2.203508 0.060517 -0.019294 570601.000000 0 0 1
-32.090456 -4.248498 -24.229211 40.433919 0.131626 2.213335 0.059662 -0.018376 326288.000000 0 0 1
-31.079656 -3.253998 -24.806211 39.898391 0.104319 2.241752 0.033559 -0.007275 -783617.000000 0 0 1
-30.784056 -3.648998 -26.127101 40.541321 0.117985 2.271108 0.038412 -0.015528 -681352.000000 0 0 1
-29.828356 -2.813198 -26.679881 40.118088 0.094035 2.298335 0.026397 -0.018114 -383696.000000 0 0 1
-29.294856 -3.441398 -28.009431 40.676283 0.116939 2.330344 0.018876 -0.011617 207936.000000 0 0 1
-30.223756 -3.383098 -29.095951 42.089133 0.111471 2.334074 0.033023 -0.014033 -7168.710000 0 0 1
-29.771056 -4.132098 -30.181121 42.594484 0.137915 2.358264 0.034752 -0.006738 -754950.000000 0 0 1
-30.874656 -4.462898 -31.240721 44.149117 0.143555 2.356918 0.022316 0.002855 -515443.000000 0 0 1
-31.914356 -5.302698 -30.845231 44.699810 0.164650 2.332358 0.020669 0.000021 107873.000000 0 0 1
-32.897156 -4.740998 -29.972181 44.755241 0.143130 2.304589 0.038167 -0.015875 100194.000000 0 0 1
-33.919356 -3.645598 -30.518851 45.773501 0.107067 2.300617 0.047668 -0.020678 -391639.000000 0 0 1
-33.396256 -2.456998 -31.129941 45.721111 0.073439 2.319740 0.050817 -0.022513 117487.000000 0 0 1
-32.721756 -1.585898 -30.198691 44.555464 0.048428 2.315532 0.046370 -0.025488 1517.270000 0 0 1
-32.218456 -0.271298 -30.809041 44.579138 0.008420 2.333819 0.058962 -0.028268 13174.300000 0 0 1
-33.298356 0.541702 -31.223091 45.650360 -0.016267 2.323976 0.056617 -0.018432 -160865.000000 0 0 1
-33.060456 1.387402 -32.298601 46.239791 -0.041941 2.344099 0.063182 -0.020935 583667.000000 0 0 1
-34.312656 2.176702 -32.848071 47.550943 -0.063352 2.333388 0.049052 -0.021071 844201.000000 0 0 1
-35.051056 1.578002 -33.908471 48.793965 -0.044990 2.339121 0.048113 -0.025979 797766.000000 0 0 1
36.161233 2.008802 -33.875761 49.590697 0.055494 2.322805 0.042234 -0.018874 560130.000000 0 0 1
35.284133 1.479302 33.529662 48.696987 0.041901 0.811327 0.037176 -0.018963 -414190.000000 0 0 1
35.432733 1.963902 32.235937 47.942581 0.055370 0.833368 0.037296 -0.010784 109580.000000 0 0 1
-36.171956 1.278202 31.494037 47.978313 -0.035322 0.854730 0.019055 -0.006314 -363072.000000 0 0 1
-36.255156 1.621402 29.962857 47.062066 -0.044692 0.880628 0.033215 -0.007127 -241568.000000 0 0 1
-35.605456 2.837002 29.724697 46.468857 -0.079511 0.876728 0.054198 -0.016517 70503.100000 0 0 1
-35.424256 3.169202 28.331707 45.470951 -0.089227 0.898131 0.058737 -0.013861 -120388.000000 0 0 1
-34.517056 4.393002 28.171697 44.770192 -0.126590 0.890207 0.053938 -0.016188 -304075.000000 0 0 1
-34.123856 4.618702 26.830477 43.653688 -0.134534 0.908891 0.061580 -0.011933 -195726.000000 0 0 1
-33.378456 5.770002 26.824417 43.208374 -0.171174 0.901014 0.064100 -0.009742 -732310.000000 0 0 1
-32.573756 5.943302 25.523507 41.806959 -0.180472 0.914094 0.056294 -0.001441 -465518.000000 0 0 1
-31.431956 5.141702 25.370927 40.719638 -0.162146 0.898143 0.054041 -0.007929 230171.000000 0 0 1
-30.724356 5.350002 24.133027 39.433635 -0.172400 0.912221 0.052715 -0.006030 240511.000000 0 0 1
-31.387056 4.849902 22.820427 39.108065 -0.153307 0.947737 0.056861 -0.008336 -67530.500000 0 0 1
-31.344956 3.449802 22.781227 38.902335 -0.109618 0.945176 0.064140 -0.009597 124204.000000 0 0 1
-31.972056 2.970302 21.564027 38.678706 -0.092637 0.979405 0.081215 -0.011712 -866615.000000 0 0 1
-31.938956 1.441202 21.293327 38.413276 -0.045093 0.983248 0.079713 -0.012698 -163703.000000 0 0 1
-30.722356 1.051102 20.693827 37.056746 -0.034200 0.978297 0.093646 -0.010463 98897.100000 0 0 1
-30.702156 1.357402 19.330327 36.306011 -0.044183 1.009330 0.092402 -0.009049 -288096.000000 0 0 1
-29.247456 1.271402 18.818727 34.801934 -0.043443 0.999482 0.099469 -0.007691 -290577.000000 0 0 1
-28.752256 -0.073398 18.795827 34.350847 0.002553 0.991814 0.113731 -0.013015 151481.000000 0 0 1
-27.511856 -0.159198 18.116827 32.941569 0.005786 0.988470 0.116103 -0.019008 -146821.000000 0 0 1
-27.441356 0.060602 16.585027 32.063918 -0.002208 1.027163 0.136970 -0.012150 -697144.000000 0 0 1
-27.452156 1.429602 16.178627 31.896906 -0.052029 1.038845 0.128723 -0.019024 289219.000000 0 0 1
-27.793456 1.618202 14.817727 31.538228 -0.058157 1.081694 0.145250 -0.015388 -228852.000000 0 0 1
-27.210456 2.853502 14.121627 30.789150 -0.104486 1.094314 0.138898 -0.011178 142246.000000 0 0 1
-25.814756 2.670402 13.937927 29.458419 -0.103078 1.077946 0.122853 -0.017762 37372.800000 0 0 1
-25.230256 3.776902 13.356127 28.796127 -0.148594 1.088498 0.120506 -0.019663 -6937.490000 0 0 1
-23.695456 3.673102 13.188827 27.366247 -0.153789 1.067931 0.112937 -0.021908 20066.700000 0 0 1
-22.995356 3.952802 14.363827 27.399463 -0.170232 1.018977 0.095533 -0.010232 -183217.000000 0 0 1
-21.619356 4.143002 14.150027 26.168383 -0.189338 0.999492 0.073168 -0.005210 -194829.000000 0 0 1
-20.888556 4.837202 15.326827 26.356060 -0.227561 0.950189 0.052006 -0.009400 -446151.000000 0 0 1
-21.204956 6.160302 15.606227 27.039856 -0.282730 0.955554 0.060662 -0.000253 187610.000000 0 0 1
-20.736356 6.686902 16.798527 27.511845 -0.311944 0.913988 0.044437 0.004759 -430351.000000 0 0 1
-20.816356 8.218502 16.773227 27.967939 -0.376024 0.927632 0.052650 -0.007940 -119932.000000 0 0 1
-19.899156 8.928002 15.935927 27.011838 -0.421741 0.939786 0.032903 -0.008256 564951.000000 0 0 1
-20.125056 10.311902 16.045727 27.727577 -0.473511 0.953672 0.044317 -0.006268 -94208.100000 0 0 1
-19.551756 11.054502 17.293327 28.346646 -0.514587 0.914652 0.045933 -0.004618 -401802.000000 0 0 1
-20.166656 10.651102 18.463027 29.343199 -0.485916 0.890260 0.056255 -0.017407 370800.000000 0 0 1
-19.611056 11.401302 19.541327 29.940719 -0.526609 0.859697 0.065973 -0.012335 37691.800000 0 0 1
-12.322967 -33.855034 -20.752311 41.577365 1.221711 2.093385 0.088195 -0.044745 355267.000000 0 0 1
-13.406167 34.200202 -19.917511 41.786198 -1.197213 2.067640 0.120007 -0.042619 -109817.000000 0 0 1
-14.395667 -33.368434 -19.949711 41.456949 1.163504 2.072837 0.108834 -0.056468 -881932.000000 0 0 1
-15.701467 -33.886234 -19.334211 42.055019 1.136889 2.048494 0.094657 -0.047192 -897275.000000 0 0 1
-16.508367 33.836702 -20.167511 42.710386 -1.116889 2.062572 0.096652 -0.041231 166201.000000 0 0 1
-17.191967 32.776902 -19.536911 41.851881 -1.087730 2.056477 0.088193 -0.019661 1059130.000000 0 0 1
-18.440867 33.129202 -18.610511 42.236959 -1.062873 2.027087 0.081756 -0.023065 35877.100000 0 0 1
-18.105367 33.819002 -17.419811 42.130500 -1.079262 1.997061 0.080515 -0.027473 -131806.000000 0 0 1
-19.248767 34.145902 -16.671411 42.595699 -1.057480 1.972935 0.057102 -0.020719 -150262.000000 0 0 1
-19.362367 33.515702 -15.237911 41.598046 -1.046928 1.945840 0.051775 -0.013056 -447926.000000 0 0 1
-19.721267 32.155202 -15.262511 40.691886 -1.020644 1.955274 0.055206 -0.006376 183504.000000 0 0 1
-19.960567 31.661602 -13.920111 39.933079 -1.008299 1.926858 0.056112 0.003694 -79606.400000 0 0 1
-20.014367 30.105102 -13.834311 38.707625 -0.984076 1.936285 0.045122 -0.002939 -649487.000000 0 0 1
-18.799267 29.549402 -13.490911 37.531111 -1.004185 1.938485 0.055598 -0.014383 -576146.000000 0 0 1
-18.937167 28.138202 -13.616811 36.548492 -0.978418 1.952571 0.058309 -0.022334 -395795.000000 0 0 1
-17.689067 27.427602 -13.095311 35.166228 -0.997989 1.952372 0.075069 -0.014451 -610313.000000 0 0 1
-16.641367 27.647402 -13.989611 35.171340 -1.028970 1.979866 0.085348 -0.018420 -1070520.000000 0 0 1
-15.503767 26.904702 -13.667411 33.926802 -1.048025 1.985425 0.097396 -0.031602 213563.000000 0 0 1
-14.239267 27.498902 -14.388811 34.146511 -1.093001 2.005768 0.088179 -0.029008 409143.000000 0 0 1
-14.447067 27.561802 -15.794011 34.897299 -1.088000 2.040459 0.079946 -0.032510 -740764.000000 0 0 1
-13.389467 28.255102 -16.310811 35.265722 -1.128264 2.051622 0.091452 -0.028077 -719257.000000 0 0 1
-13.516467 28.459802 -17.852111 36.212609 -1.127404 2.086309 0.107223 -0.039909 24545.800000 0 0 1
-13.274367 27.193602 -18.399611 35.415343 -1.116679 2.117106 0.091365 -0.037478 95998.900000 0 0 1
-13.587367 27.123702 -19.740111 36.193697 -1.106396 2.147665 0.077714 -0.041063 -89162.800000 0 0 1
-12.839267 25.968402 -20.440811 35.454639 -1.111624 2.185277 0.054655 -0.027676 -289227.000000 0 0 1
-11.583167 26.277202 -20.970911 35.558968 -1.155614 2.201546 0.038972 -0.021711 -365645.000000 0 0 1
-10.915767 25.122802 -21.461611 34.798131 -1.160910 2.235399 0.044423 -0.021195 -223741.000000 0 0 1
-9.677367 25.488902 -22.242411 35.186082 -1.207938 2.255104 0.068761 -0.030776 -527988.000000 0 0 1
-10.049167 25.939702 -23.516911 36.426625 -1.201195 2.272601 0.056013 -0.025610 -6455.430000 0 0 1
-8.939767 26.290102 -24.320811 36.913287 -1.243019 2.290103 0.053641 -0.031424 -142794.000000 0 0 1
-9.240067 26.916102 -25.718911 38.357760 -1.240110 2.305680 0.049611 -0.026324 -205992.000000 0 0 1
-10.077867 26.120502 -26.572331 38.599648 -1.202572 2.330089 0.028100 -0.018293 42534.700000 0 0 1
-10.217367 26.731202 -27.813591 39.906736 -1.205705 2.341953 0.035004 -0.012371 -93181.600000 0 0 1
-11.657467 26.579602 -28.335721 40.562111 -1.157474 2.344202 0.015149 -0.006264 -106913.000000 0 0 1
-11.971067 27.014002 -29.639051 41.851357 -1.153659 2.357739 0.017808 -0.004810 -1244170.000000 0 0 1
-13.314267 26.827902 -29.865091 42.295741 -1.110126 2.354774 0.003830 0.004708 -1396910.000000 0 0 1
-13.692667 26.965202 -31.369791 43.573788 -1.100936 2.374488 0.006884 -0.003900 -220717.000000 0 0 1
-12.927467 26.346402 -32.380451 43.700640 -1.114638 2.405296 0.015077 -0.004644 -128685.000000 0 0 1
-12.855267 24.942302 -32.280941 42.771900 -1.094905 2.426028 0.002502 -0.010383 105834.000000 0 0 1
-12.011867 24.416402 -33.479901 43.143359 -1.113602 2.459119 0.005683 -0.005569 43694.200000 0 0 1
-12.633067 24.590202 33.783484 43.653135 -1.096214 0.685808 0.009024 0.000232 -293345.000000 0 0 1
-12.015867 23.853802 32.753868 42.263469 -1.104169 0.684093 0.002917 -0.000550 -718689.000000 0 0 1
-12.675367 23.893402 31.363527 41.415340 -1.083050 0.711639 0.013987 0.012477 166726.000000 0 0 1
-13.822667 23.034102 31.315827 41.259144 -1.030306 0.709015 0.011728 0.000015 280154.000000 0 0 1
-14.302967 22.924102 29.984937 40.363173 -1.012969 0.733436 0.029471 0.010351 797429.000000 0 0 1
-15.527367 21.948902 29.858757 40.179582 -0.955099 0.733057 0.034565 0.006104 650808.000000 0 0 1
-15.048267 20.630302 29.907887 39.326091 -0.940593 0.706698 0.013700 0.005618 294717.000000 0 0 1
-16.091267 19.668302 29.949817 39.278016 -0.885097 0.703615 0.016405 0.004218 -396517.000000 0 0 1
-15.489867 18.277702 29.874617 38.294949 -0.867771 0.675940 -0.004864 0.006579 -265961.000000 0 0 1
-15.090467 17.920002 28.595727 36.967070 -0.870905 0.686379 0.019339 -0.001575 -217552.000000 0 0 1
-14.639767 16.607802 28.538307 36.118926 -0.848297 0.659791 0.006006 -0.006721 -229834.000000 0 0 1
-14.128467 16.206702 27.157107 34.637829 -0.853800 0.669664 0.032903 -0.009225 -463221.000000 0 0 1
-12.963067 16.884102 26.823587 34.243522 -0.916021 0.670810 -0.001864 -0.006448 -411283.000000 0 0 1
-12.300567 16.248202 25.731717 32.824218 -0.922804 0.669834 -0.009921 -0.006900 -160881.000000 0 0 1
-11.300067 17.106402 24.969327 32.307705 -0.987023 0.687461 0.002469 -0.001780 -365253.000000 0 0 1
-11.795367 18.072602 24.080287 32.335891 -0.992549 0.730723 0.003142 0.003668 16573.000000 0 0 1
-12.390967 19.303602 24.616327 33.647120 -1.000137 0.750126 0.012606 0.001884 800815.000000 0 0 1
-11.429967 20.224102 25.498707 34.494094 -1.056384 0.738886 0.006260 -0.003216 435172.000000 0 0 1
-11.200667 19.719802 26.788077 35.098812 -1.054246 0.702516 0.012149 -0.003546 -658828.000000 0 0 1
-12.162267 20.002102 27.739267 36.296994 -1.024479 0.700949 0.017812 -0.000956 -686339.000000 0 0 1
-11.869867 19.639602 29.232027 37.163411 -1.027159 0.665544 0.016710 -0.003855 -328206.000000 0 0 1
-10.939767 20.450802 29.897487 37.838783 -1.079596 0.659778 0.009257 -0.005686 -200430.000000 0 0 1
-10.872767 20.127002 31.278817 38.751486 -1.075502 0.631464 0.004787 -0.001028 51589.500000 0 0 1
-9.776167 20.922802 32.023197 39.481923 -1.133691 0.624792 -0.003205 0.000235 -15449.800000 0 0 1
-8.458567 20.478402 31.843617 38.793405 -1.179092 0.607896 0.004199 -0.001488 -825535.000000 0 0 1
-7.538567 21.328902 32.425917 39.537225 -1.231057 0.609147 0.019071 -0.003628 -365240.000000 0 0 1
-6.308667 20.524002 32.883665 39.273011 -1.272583 0.578453 0.016649 0.002121 -264713.000000 0 0 1
-6.661767 19.625302 33.944163 39.771068 -1.243553 0.548152 0.018883 -0.004374 256985.000000 0 0 1
-5.515567 19.176802 -33.880861 39.320274 -1.290739 2.609336 0.015241 -0.002440 362722.000000 0 0 1
-4.679267 18.045002 33.977849 38.755798 -1.317074 0.501803 0.000953 0.005161 87944.900000 0 0 1
-5.238467 16.734002 34.083541 38.329572 -1.267417 0.475152 0.006163 0.003631 96212.700000 0 0 1
-4.929667 16.037502 32.877077 36.910775 -1.272579 0.471875 0.010043 0.001014 25463.800000 0 0 1
-5.432867 14.570202 32.711545 36.219498 -1.213890 0.443751 0.027413 -0.008830 -524554.000000 0 0 1
-4.757867 13.605702 33.430855 36.405693 -1.234392 0.407066 0.030289 -0.007895 -581690.000000 0 0 1
-5.237967 12.292302 33.181567 35.770845 -1.167979 0.382820 0.037606 -0.013608 -294208.000000 0 0 1
-4.308767 11.156502 33.614611 35.678776 -1.202233 0.341821 0.039320 -0.020888 -385047.000000 0 0 1
-4.271867 10.891102 -33.500181 35.484181 -1.197002 2.805613 0.066593 -0.025284 34051.400000 0 0 1
-3.408667 9.763302 -33.278301 34.848047 -1.234896 2.840303 0.075593 -0.030140 374876.000000 0 0 1
-3.461667 9.245202 -31.853681 33.348372 -1.212527 2.841062 0.076206 -0.028075 -491850.000000 0 0 1
-4.663467 8.637602 -31.500551 32.994557 -1.075738 2.839512 0.073783 -0.027429 -609723.000000 0 0 1
-4.703167 8.396202 -30.115551 31.615857 -1.060191 2.832289 0.076353 -0.022510 -103691.000000 0 0 1
-6.046867 7.846702 -29.644541 31.255946 -0.914225 2.819089 0.066548 -0.032534 -375355.000000 0 0 1
-5.854367 6.793202 -28.692751 30.061523 -0.859493 2.838666 0.062334 -0.021202 153250.000000 0 0 1
-7.032567 6.093702 -28.325751 29.815070 -0.713994 2.824186 0.070257 -0.040016 -482275.000000 0 0 1
-6.693967 5.282202 -27.067991 28.379341 -0.668058 2.836410 0.053769 -0.038349 -76109.900000 0 0 1
-6.789967 5.925002 -25.782541 27.312062 -0.717475 2.805342 0.032799 -0.024881 504846.000000 0 0 1
-5.720267 6.852002 -25.567731 27.080994 -0.875175 2.805713 0.040498 -0.023975 -223925.000000 0 0 1
-6.012967 7.836402 -24.424511 26.346190 -0.916307 2.757291 0.014557 -0.009429 -226225.000000 0 0 1
-6.080167 7.243602 -23.125811 24.984822 -0.872497 2.753399 0.003242 -0.005456 350204.000000 0 1 0
-7.401067 7.381302 -22.587111 24.888491 -0.784061 2.708167 0.007326 -0.002254 532222.000000 0 1 0
-7.410067 7.533502 -21.046911 23.550695 -0.793658 2.676289 0.008904 -0.002386 -399556.000000 0 1 0
-6.934967 8.813202 -20.642511 23.492117 -0.904104 2.643927 -0.004366 0.003446 -42218.500000 0 1 0
-6.849467 8.976502 -19.202611 22.276289 -0.918999 2.610038 0.002400 0.003010 -191527.000000 0 1 0
-8.131067 9.373502 -18.413311 22.204207 -0.856257 2.548599 -0.005269 0.013024 -107012.000000 0 1 0
-7.863667 9.424502 -17.033811 20.995457 -0.875437 2.517185 -0.009443 0.007897 718222.000000 0 1 0
-8.997867 9.801202 -16.214011 20.974254 -0.828105 2.454421 0.000743 0.004784 994998.000000 0 1 0
-9.575967 11.227602 -16.428011 22.082521 -0.864624 2.409739 -0.002901 0.001164 -479179.000000 0 1 0
-8.738167 12.121802 -15.750111 21.710819 -0.946205 2.382484 -0.008984 -0.003690 -70292.100000 0 1 0
-8.991367 13.468202 -15.998211 22.763565 -0.982148 2.350121 0.010482 -0.005875 61273.600000 0 1 0
-7.792267 14.413202 -15.688411 22.684489 -1.075172 2.334487 0.023604 -0.005694 149737.000000 0 1 0
-7.321967 14.603102 -14.298011 21.709328 -1.106031 2.289768 0.020708 -0.010364 586013.000000 0 1 0
-8.184267 15.197302 -13.305111 21.793719 -1.076799 2.227491 0.015326 -0.025703 -295476.000000 0 1 0
-7.301367 15.990402 -12.330411 21.471887 -1.142460 2.182494 0.014022 -0.021180 291357.000000 0 1 0
-6.988567 17.277802 -12.834111 22.629116 -1.186432 2.173838 0.027313 -0.014630 91224.100000 0 1 0
-5.926967 17.373002 -13.787311 22.957353 -1.242019 2.215000 0.025503 -0.004118 89483.300000 0 1 0
-5.847867 18.841802 -14.263911 24.344819 -1.269856 2.196801 0.063703 0.004499 496375.000000 0 1 0
-5.156867 19.732202 -13.360511 24.381475 -1.315171 2.150741 0.055881 -0.005771 45145.600000 0 1 0
-5.400667 21.061402 -13.767311 25.734970 -1.319780 2.135263 0.071994 -0.001515 -211886.000000 0 0 1
-4.829067 22.152402 -12.829911 26.051016 -1.356161 2.085747 0.073677 -0.000508 -503082.000000 0 0 1
-5.017067 23.520102 -13.143411 27.406485 -1.360636 2.070964 0.079812 -0.008324 1869940.000000 0 0 1
-6.412767 23.990002 -13.059811 28.057128 -1.309593 2.054964 0.081111 -0.008160 1822740.000000 0 0 1
-7.214867 24.018202 -11.747211 27.693416 -1.278980 2.008861 0.056084 -0.010013 -324755.000000 0 0 1
-7.366967 22.708302 -11.269511 26.399641 -1.257091 2.011837 0.066805 -0.009113 -313865.000000 0 0 1
-7.903767 22.620702 -9.958811 25.948865 -1.234652 1.964689 0.078636 -0.014977 -42649.000000 0 0 1
-6.951767 23.005202 -8.811911 25.597190 -1.277339 1.922239 0.077392 -0.020797 59197.400000 0 0 1
-6.602767 24.393902 -8.825311 26.768360 -1.306457 1.906774 0.085727 -0.019708 -56813.500000 0 0 1
-5.877567 24.744902 -7.646011 26.557813 -1.337592 1.862830 0.082329 -0.024367 45625.400000 0 0 1
-6.238567 26.227402 -7.375611 27.949883 -1.337272 1.837846 0.069989 -0.022970 192833.000000 0 0 1
-5.743467 27.263102 -8.244311 29.055684 -1.363164 1.858490 0.078180 -0.026277 -121832.000000 0 0 1
-6.077767 27.224002 -9.625311 29.508171 -1.351148 1.903068 0.081184 -0.021819 -4835.710000 0 0 1
-5.568867 28.470902 -10.383811 30.812791 -1.377636 1.914522 0.073941 -0.019926 113114.000000 0 0 1
-6.300967 29.655402 -10.149311 31.971136 -1.361437 1.893838 0.070260 -0.024073 -336965.000000 0 0 1
-7.254967 29.839702 -11.161011 32.674310 -1.332293 1.919398 0.074506 -0.022098 -799212.000000 0 0 1
-8.231267 30.941702 -10.878311 33.815386 -1.310793 1.898318 0.068512 -0.023359 -781289.000000 0 0 1
-9.340367 30.505802 -10.144711 33.477777 -1.273676 1.878665 0.071768 -0.016771 -333941.000000 0 0 1
-10.358567 31.490302 -10.157511 34.671516 -1.253001 1.868122 0.056465 -0.022282 654037.000000 0 0 1
-11.579767 31.134002 -9.248911 34.481291 -1.214717 1.842351 0.059429 -0.016157 796581.000000 0 0 1
-12.282967 29.945202 -9.635711 33.770302 -1.181544 1.860148 0.069213 -0.019642 -172728.000000 0 0 1
-13.422967 29.687002 -8.859111 33.763560 -1.146156 1.836291 0.075533 -0.010132 49662.000000 0 0 1
-14.271367 28.505302 -9.377311 33.228875 -1.106624 1.856887 0.078903 -0.008409 12777.900000 0 0 1
-13.837367 27.164302 -9.133011 31.824266 -1.099661 1.861872 0.076303 -0.013905 396020.000000 0 0 1
-14.877667 26.258502 -9.541011 31.652564 -1.055309 1.876988 0.089254 -0.015727 417345.000000 0 0 1
-14.894567 24.939102 -8.744211 30.335922 -1.032411 1.863191 0.085556 -0.020272 -400953.000000 0 0 1
-13.910267 24.066502 -9.191911 29.277692 -1.046716 1.890153 0.093448 -0.015474 -153388.000000 0 0 1
-14.270067 22.716202 -8.860711 28.251953 -1.009907 1.889812 0.091809 -0.021051 414001.000000 0 0 1
-13.269567 21.591102 -9.340611 27.009334 -1.019722 1.923918 0.098082 -0.023770 176156.000000 0 0 1
-13.456067 21.228802 -10.707811 27.320047 -1.005852 1.973535 0.095568 -0.019534 -20411.100000 0 0 1
-12.795767 20.072102 -11.098211 26.263877 -1.003266 2.007071 0.088256 -0.020543 -332365.000000 0 0 1
-13.089167 19.742202 -12.583311 26.822016 -0.985333 2.059114 0.086322 -0.011459 -729961.000000 0 0 1
-14.380767 19.425102 -12.947011 27.418354 -0.933520 2.062584 0.098830 -0.007746 -1133520.000000 0 0 1
-14.444767 18.961602 -14.259911 27.776586 -0.919792 2.109914 0.097785 -0.003691 -77025.500000 0 0 1
-15.896567 18.781402 -14.713511 28.669310 -0.868396 2.109723 0.089739 -0.000578 -342219.000000 0 0 1
-16.537067 19.924802 -15.076711 29.962969 -0.878044 2.098069 0.069303 -0.005966 -351387.000000 0 0 1
-17.938967 19.723302 -15.083111 30.631935 -0.832740 2.085639 0.048350 -0.001362 179390.000000 0 0 1
-18.785467 20.856602 -15.720411 32.171772 -0.837597 2.081327 0.028891 -0.004471 -47184.100000 0 0 1
-18.957967 22.033802 -14.959511 32.690670 -0.860293 2.046099 0.045475 -0.026124 186339.000000 0 0 1
-19.427467 22.992902 -15.869211 34.028398 -0.869251 2.055959 0.044191 -0.026417 -433470.000000 0 0 1
-20.041267 24.185502 -15.132111 34.865049 -0.878830 2.019746 0.038416 -0.011345 -181077.000000 0 0 1
-21.343367 23.999702 -14.628111 35.291736 -0.843914 1.998180 0.058743 -0.012917 -2940.490000 0 0 1
-21.734767 25.041402 -13.770111 35.903870 -0.855971 1.964409 0.063614 -0.019618 -78667.600000 0 0 1
-25.792817 -0.934598 4.371389 26.177317 0.036219 1.403019 0.116131 -0.025851 -133363.000000 0 0 1
-26.406837 -0.135198 5.331289 26.939970 0.005120 1.371586 0.136534 -0.028920 -952168.000000 0 0 1
-27.783497 -0.218698 5.290789 28.283617 0.007871 1.382626 0.126414 -0.035257 -1228990.000000 0 0 1
-28.332897 0.677602 6.402889 29.055278 -0.023911 1.348603 0.137521 -0.032041 -466605.000000 0 0 1
-28.474127 2.047902 6.156189 29.203912 -0.071798 1.358403 0.146500 -0.039227 301920.000000 0 0 1
-29.160897 2.733402 7.188389 30.157957 -0.093462 1.330122 0.150285 -0.034815 569663.000000 0 0 1
-28.100107 3.344102 8.191789 29.460218 -0.118450 1.289020 0.174022 -0.042633 681405.000000 0 0 1
-27.487627 2.300502 8.951689 28.999908 -0.083498 1.256991 0.164490 -0.046581 -28252.900000 0 0 1
-26.431957 2.809502 9.718089 28.301642 -0.105894 1.220288 0.163538 -0.047848 -599907.000000 0 0 1
-25.628697 1.660002 10.341389 27.686279 -0.064681 1.187995 0.152072 -0.042922 -781209.000000 0 0 1
-24.698967 1.111302 9.469089 26.475226 -0.044964 1.205037 0.157827 -0.041372 -106373.000000 0 0 1
-25.108707 -0.111298 9.008989 26.676234 0.004433 1.226307 0.132760 -0.042679 -165270.000000 0 0 1
-23.981167 -0.763498 8.168389 25.345648 0.031827 1.242660 0.126085 -0.042363 401996.000000 0 0 1
-22.861967 -1.120698 8.969889 24.584231 0.048981 1.197310 0.106907 -0.056405 -358702.000000 0 1 0
-21.802567 -1.557598 8.192489 23.342984 0.071320 1.212199 0.115237 -0.040796 -10529.700000 0 1 0
-20.586567 -1.920498 9.126289 22.600536 0.093020 1.155120 0.099199 -0.027520 405584.000000 0 1 0
-19.775567 -0.837698 9.572989 21.986744 0.042335 1.120316 0.074473 -0.030799 772508.000000 0 1 0
-20.174567 -0.243398 10.819989 22.894204 0.012064 1.078548 0.076923 -0.028268 -623777.000000 0 1 0
-19.759967 1.257002 10.865189 22.585143 -0.063528 1.068914 0.047006 -0.020322 -327097.000000 0 1 0
-20.242567 2.284802 10.000589 22.693471 -0.112395 1.114439 0.068424 -0.025155 -687053.000000 0 1 0
-21.624667 2.362102 10.071789 23.971789 -0.108800 1.137184 0.101439 -0.028807 -1274130.000000 0 1 0
-22.051167 3.742202 9.535689 24.314346 -0.168104 1.167792 0.101106 -0.039913 -358430.000000 0 1 0
-21.785667 4.811402 10.383589 24.608612 -0.217363 1.135202 0.081586 -0.035997 686579.000000 0 1 0
-22.264567 5.994302 9.670489 25.003219 -0.262995 1.173670 0.080044 -0.033106 -38734.800000 0 0 1
-22.642767 7.145802 10.668489 26.030252 -0.305696 1.148507 0.091817 -0.027168 -55898.700000 0 0 1
-23.796267 6.880002 11.427689 27.279825 -0.281446 1.138556 0.094361 -0.019663 9073.030000 0 0 1
-23.891067 7.797402 12.494389 28.065857 -0.315473 1.109420 0.079658 -0.012911 101800.000000 0 0 1
-24.812267 7.417802 13.695789 29.295853 -0.290500 1.084337 0.086253 -0.011919 473667.000000 0 0 1
-26.173987 7.278802 13.306889 30.251146 -0.271239 1.115331 0.094662 -0.008608 4495.820000 0 0 1
-26.960027 7.106902 14.459889 31.407634 -0.257745 1.092357 0.107550 -0.005431 237691.000000 0 0 1
-28.442457 6.848802 14.050089 32.454344 -0.236297 1.123068 0.105105 0.003505 217048.000000 0 0 1
-28.642567 5.601102 13.411589 32.119149 -0.193115 1.140041 0.126298 -0.002699 720991.000000 0 0 1
-29.581877 5.716402 12.294089 32.540887 -0.190887 1.183373 0.112201 -0.016126 343517.000000 0 0 1
-29.799347 4.414902 11.502889 32.246068 -0.147084 1.206039 0.134551 -0.020643 332277.000000 0 0 1
-30.738737 3.498002 12.089989 33.215566 -0.113310 1.198253 0.122593 -0.015654 550155.000000 0 0 1
-31.427067 2.705702 11.141089 33.453030 -0.085883 1.231274 0.121975 -0.015510 192659.000000 0 0 1
-32.542497 1.795202 11.719689 34.635069 -0.055109 1.225605 0.089607 -0.002788 -218764.000000 0 0 1
-32.040227 0.821802 12.577689 34.430361 -0.025643 1.196833 0.114159 -0.012022 -128572.000000 0 0 1
-32.975577 0.250002 13.493989 35.630590 -0.007581 1.182384 0.087039 -0.003885 -68956.300000 0 0 1
-32.452217 -0.912298 14.351589 35.495729 0.028105 1.154562 0.086049 -0.014171 -217356.000000 0 0 1
-32.555647 -2.208598 13.818189 35.435722 0.067737 1.170218 0.080232 -0.015076 193655.000000 0 0 1
-32.670547 -3.092898 14.901989 36.041642 0.094388 1.144539 0.077771 -0.014373 -164019.000000 0 0 1
-32.548467 -4.612798 14.614189 35.975758 0.140783 1.152479 0.078262 -0.013735 -515053.000000 0 0 1
-33.525827 -5.081198 13.751289 36.590950 0.150416 1.185524 0.061769 -0.018069 -412905.000000 0 0 1
-33.312597 -6.413298 13.304689 36.440009 0.190192 1.197043 0.065234 -0.020847 -1047360.000000 0 0 1
-34.354740 -6.905998 12.283889 37.132666 0.198376 1.233634 0.063855 -0.013096 822655.000000 0 0 1
-35.731545 -6.983598 12.663789 38.547186 0.193013 1.236053 0.051823 -0.011162 698855.000000 0 0 1
36.228241 -5.790298 13.006789 38.925436 -0.158488 1.230097 0.053761 -0.017895 -1293430.000000 0 0 1
34.747751 -5.694798 12.595589 37.396334 -0.162446 1.227266 0.054306 -0.012670 -193304.000000 0 0 1
33.854891 -6.340998 13.454589 36.978208 -0.185154 1.198396 0.047612 -0.006491 -180810.000000 0 0 1
32.527251 -6.074198 13.035089 35.564470 -0.184615 1.195530 0.058538 -0.007308 -484815.000000 0 0 1
31.554931 -7.171898 13.254689 34.969081 -0.223486 1.182037 0.059978 -0.006382 -903062.000000 0 0 1
31.152051 -7.237798 14.573689 35.145817 -0.228288 1.143223 0.062654 -0.003854 -379241.000000 0 0 1
30.280211 -8.317898 14.675589 34.661961 -0.268085 1.133610 0.054659 -0.001110 -231741.000000 0 0 1
29.684791 -8.409398 16.130989 34.815422 -0.276057 1.089048 0.052840 -0.005805 295472.000000 0 0 1
30.611611 -8.805798 17.141389 36.172366 -0.280099 1.077104 0.041071 0.001535 -40401.900000 0 0 1
30.042231 -8.692598 18.410489 36.291088 -0.281654 1.038747 0.046869 -0.002211 -909936.000000 0 0 1
30.945701 -9.136998 19.576589 37.740747 -0.287102 1.025452 0.053024 -0.006265 452368.000000 0 0 1
32.015841 -8.275698 19.960989 38.625670 -0.252951 1.027710 0.055782 -0.007802 -257857.000000 0 0 1
33.115361 -8.388198 19.111889 39.144008 -0.248084 1.060718 0.031687 0.000489 -1036210.000000 0 0 1
34.414281 -7.734598 19.641889 40.372894 -0.221076 1.062704 0.032343 -0.005688 68306.700000 0 0 1
34.780431 -8.326498 20.855489 41.400005 -0.234979 1.042855 0.027061 -0.005374 -728893.000000 0 0 1
36.056171 -7.990798 21.275589 42.621016 -0.218096 1.048143 0.019391 -0.004200 -673627.000000 0 0 1
-36.073157 -8.569098 22.640589 43.443048 0.233225 1.022592 0.024232 -0.006082 133952.000000 0 0 1
36.036331 -7.814598 23.783689 43.878799 -0.213547 0.997944 0.028525 -0.007552 180257.000000 0 0 1
35.829571 -8.738798 24.836289 44.463086 -0.239228 0.978121 0.021892 -0.002615 -137901.000000 0 0 1
35.384941 -8.235798 26.226289 44.807819 -0.228677 0.945539 0.037470 0.001178 -297425.000000 0 0 1
-36.228427 -7.745698 27.078989 45.888631 0.210630 0.939611 0.000698 -0.004603 -641140.000000 0 0 1
35.721981 -7.075398 28.098489 45.996155 -0.195538 0.913615 0.005073 -0.007647 -525911.000000 0 0 1
-35.816774 -6.512498 28.997889 46.541718 0.179863 0.898158 0.002557 -0.001731 219278.000000 0 0 1
-35.148807 -7.561498 29.789489 46.690776 0.211899 0.878877 -0.002870 0.000476 664555.000000 0 0 1
-33.892347 -7.100298 30.303789 46.015487 0.206509 0.851898 -0.013091 -0.001378 490132.000000 0 0 1
-33.618297 -7.915698 31.568289 46.791079 0.231246 0.830286 -0.024117 0.008561 -303459.000000 0 0 1
-33.519697 -9.341998 31.434689 46.893312 0.271804 0.836123 -0.022741 0.009439 248861.000000 0 0 1
-33.339127 -10.025198 32.672589 47.744110 0.292102 0.817116 -0.029356 0.008474 -473646.000000 0 0 1
-33.391067 -11.598098 32.622689 48.101134 0.334304 0.825472 -0.001724 0.005584 -568293.000000 0 0 1
-34.690133 -12.069398 32.811689 49.251220 0.334821 0.841680 -0.017416 0.007594 -539451.000000 0 0 1
-34.806386 -13.398398 33.122189 49.880668 0.367457 0.844602 0.000503 -0.003224 737963.000000 0 0 1
36.282391 -13.727398 33.450589 51.222996 -0.361703 0.859207 0.016248 0.001293 675073.000000 0 0 1
36.139001 -15.047998 34.027989 51.868812 -0.394557 0.855237 0.020398 -0.009123 -430686.000000 0 0 1
34.820061 -15.400298 -34.195849 51.175795 -0.416417 2.302588 0.012874 -0.008110 -569261.000000 0 0 1
34.666241 -16.886098 -34.003449 51.411314 -0.453278 2.293480 0.009798 0.000161 -111637.000000 0 0 1
35.212051 -17.262998 -32.760149 51.099188 -0.455824 2.266739 0.023455 -0.011236 211579.000000 0 0 1
35.158451 -18.680198 -32.636849 51.480389 -0.488384 2.257468 0.024776 -0.014903 -330914.000000 0 0 1
35.589211 -19.196198 -31.279749 51.122487 -0.494655 2.229205 0.046672 -0.030521 -381379.000000 0 0 1
34.618061 -19.152098 -30.242649 49.797900 -0.505327 2.223464 0.048965 -0.024145 -99982.500000 0 0 1
34.929661 -20.052298 -29.147049 49.716460 -0.521140 2.197238 0.047650 -0.017254 -776681.000000 0 0 1
33.699091 -20.281098 -28.292249 48.450006 -0.541763 2.194379 0.038121 -0.016909 702800.000000 0 0 1
32.545071 -20.934198 -28.875149 48.282467 -0.571606 2.211858 0.054332 -0.018259 1052670.000000 0 0 1
31.720911 -20.094098 -29.697849 47.874328 -0.564664 2.239959 0.037148 -0.012262 124702.000000 0 0 1
30.229791 -20.575798 -29.660249 47.084330 -0.597619 2.252271 0.029180 -0.008703 744556.000000 0 0 1
29.384231 -19.728198 -30.432449 46.677284 -0.591264 2.280983 0.011704 0.003052 -667379.000000 0 0 1
28.058221 -20.130898 -30.383849 45.996686 -0.622354 2.292369 0.015884 0.003263 -345037.000000 0 0 1
27.181421 -19.575598 -31.543849 46.011392 -0.624144 2.326177 0.014706 0.014804 236576.000000 0 0 1
27.599611 -20.003798 -32.833249 47.327717 -0.627168 2.337469 0.008678 0.006217 -76977.400000 0 0 1
26.574621 -19.827698 -33.771849 47.327433 -0.641009 2.365390 0.029339 0.004086 52576.900000 0 0 1
27.099521 -20.149198 33.288889 47.418608 -0.639345 0.792564 0.035352 0.000424 252090.000000 0 0 1
28.024271 -19.179498 32.817589 47.225068 -0.600172 0.802489 0.020998 0.000505 187232.000000 0 0 1
28.217041 -19.198298 31.414289 46.385705 -0.597436 0.826790 0.022671 -0.004378 227334.000000 0 0 1
27.286821 -18.217998 30.588989 44.857021 -0.588682 0.820409 0.026442 -0.006344 174309.000000 0 0 1
27.496721 -16.863498 30.782989 44.587438 -0.550135 0.808760 0.033051 -0.012593 175023.000000 0 0 1
26.604221 -16.080098 30.029289 43.221665 -0.543662 0.802691 0.044765 -0.015801 -240910.000000 0 0 1
26.477921 -14.602798 30.494289 42.944426 -0.504001 0.781174 0.066239 -0.022479 -765665.000000 0 0 1
27.672491 -13.909098 30.453689 43.435665 -0.465752 0.793827 0.046448 -0.009248 -842024.000000 0 0 1
27.499121 -12.621298 30.968189 43.295815 -0.430289 0.773786 0.076466 -0.020298 -188698.000000 0 0 1
28.717601 -11.683898 31.008989 43.849418 -0.386402 0.785309 0.058220 -0.018002 -171308.000000 0 0 1
28.967211 -11.241598 29.674189 42.965455 -0.370189 0.808406 0.044935 -0.015198 -504326.000000 0 0 1
30.112071 -10.461098 29.688989 43.561537 -0.334362 0.820929 0.036741 -0.011140 -514353.000000 0 0 1
30.584021 -10.072398 28.262089 42.843684 -0.318148 0.850435 0.039937 -0.009916 7082.230000 0 0 1
30.038861 -8.833398 27.898889 41.936978 -0.286004 0.842958 0.047439 -0.011637 -198349.000000 0 0 1
30.623831 -8.426098 26.740489 41.519537 -0.268504 0.871021 0.051700 -0.006152 -102626.000000 0 0 1
30.487281 -6.902098 26.640289 41.070893 -0.222640 0.864998 0.052862 -0.013808 412624.000000 0 0 1
29.182501 -6.390298 26.412289 39.875598 -0.215574 0.846822 0.065532 -0.015391 41162.000000 0 0 1
29.133561 -5.016598 26.677889 39.820101 -0.170521 0.836641 0.069173 -0.010571 1350590.000000 0 0 1
27.611911 -4.618998 26.475289 38.531724 -0.165748 0.813301 0.054441 -0.006682 987574.000000 0 0 1
27.196021 -4.919598 25.182989 37.389958 -0.178959 0.831832 0.060234 -0.009251 -175361.000000 0 0 1
25.799221 -4.721598 25.096589 36.300580 -0.181010 0.807434 0.060839 -0.011561 54821.800000 0 0 1
25.107421 -5.231898 23.801689 34.989652 -0.205441 0.822694 0.057094 -0.006985 -119463.000000 0 0 1
25.490021 -4.454598 22.697989 34.420682 -0.173011 0.850738 0.067209 -0.001312 32812.500000 0 0 1
24.979021 -4.915498 21.503189 33.324177 -0.194302 0.869416 0.066016 0.004342 -67058.200000 0 0 1
25.431821 -3.996498 20.367189 32.826391 -0.155871 0.901478 0.086541 -0.007183 32135.400000 0 0 1
24.622221 -2.859698 20.332789 32.060162 -0.115625 0.883813 0.067946 0.001467 -137839.000000 0 0 1
25.044521 -1.899398 19.417989 31.747347 -0.075696 0.912663 0.077178 -0.017261 -336380.000000 0 0 1
23.902221 -0.933698 19.029489 30.566476 -0.039043 0.898786 0.042465 -0.014241 615828.000000 0 0 1
22.871221 -1.674598 18.302689 29.340850 -0.073088 0.897207 0.059694 -0.019012 564843.000000 0 0 1
21.905121 -0.772698 17.787989 28.228425 -0.035260 0.889057 0.060162 -0.020651 -458978.000000 0 0 1
20.698421 -1.442598 17.189289 26.943968 -0.069584 0.878945 0.055217 -0.024030 -808255.000000 0 0 1
20.967421 -2.059098 15.995889 26.452620 -0.097891 0.921408 0.077820 -0.030799 116794.000000 0 0 1
19.930521 -2.981798 15.739889 25.570704 -0.148508 0.907721 0.089343 -0.033126 -62010.800000 0 0 1
20.164121 -3.535198 14.299489 24.971280 -0.173557 0.961077 0.091403 -0.035583 -67647.100000 0 1 0
19.378421 -4.666498 13.919289 24.311438 -0.236310 0.961195 0.084690 -0.026955 580664.000000 0 1 0
19.405621 -4.827398 12.528689 23.597669 -0.243814 1.011100 0.081029 -0.022550 -391202.000000 0 1 0
18.285621 -5.699898 11.940789 22.570672 -0.302169 1.013327 0.051723 -0.023788 -384240.000000 0 1 0
18.331621 -7.038898 12.404089 23.226189 -0.366617 1.007405 0.078766 -0.034518 751452.000000 0 1 0
17.214921 -7.769398 11.921189 22.334543 -0.423949 1.007761 0.051034 -0.028423 -119970.000000 0 1 0
17.324621 -9.291798 12.241389 23.158835 -0.492291 1.013865 0.078275 -0.050519 -201812.000000 0 1 0
18.406921 -9.839298 11.525189 23.842326 -0.490899 1.066271 0.075338 -0.050359 346355.000000 0 1 0
18.307721 -11.212498 11.457089 24.334290 -0.549521 1.080575 0.090859 -0.049462 -81535.000000 0 1 0
18.866421 -11.696898 10.107589 24.391036 -0.554985 1.143515 0.089236 -0.049680 40932.100000 0 1 0
18.157321 -11.202898 9.008389 23.159109 -0.552819 1.171274 0.072665 -0.040628 -89934.900000 0 1 0
18.838021 -11.607698 7.916889 23.500784 -0.552235 1.227198 0.074506 -0.046466 -445667.000000 0 1 0
18.610321 -10.742898 6.685389 22.504407 -0.523527 1.269173 0.073091 -0.040462 -256368.000000 0 1 0
19.207421 -9.452898 6.729089 22.440209 -0.457346 1.266243 0.089017 -0.033927 596490.000000 0 1 0
19.485621 -9.057198 5.384389 22.152064 -0.435105 1.325272 0.059625 -0.036770 -291034.000000 0 1 0
20.135121 -7.632498 5.292389 22.174028 -0.362329 1.329795 0.096204 -0.033839 -155682.000000 0 1 0
20.391921 -7.119798 4.012689 21.968697 -0.335916 1.387110 0.061419 -0.027221 349541.000000 0 1 0
21.366421 -6.134398 4.015089 22.589284 -0.279585 1.392104 0.112950 -0.025037 -1156160.000000 0 1 0
21.906521 -5.885998 2.619589 22.834248 -0.262488 1.455821 0.100493 -0.023025 -159451.000000 0 1 0
20.982821 -5.200898 1.797889 21.692408 -0.242968 1.487820 0.089478 -0.041390 687070.000000 0 1 0
21.595721 -4.885098 0.569889 22.148683 -0.222463 1.545063 0.099623 -0.025016 193778.000000 0 1 0
-25.847147 -15.348798 -0.005611 30.060949 0.535870 1.570983 0.076351 -0.014260 -51908.800000 0 0 1
-24.864567 -14.553198 -0.655911 28.817920 0.529540 1.593559 0.072138 -0.011854 445140.000000 0 0 1
-23.546567 -15.040598 -0.436711 27.943714 0.568433 1.586425 0.078695 -0.010332 410023.000000 0 0 1
-22.741567 -14.472698 0.722989 26.965915 0.566754 1.543982 0.087769 -0.027740 -610717.000000 0 0 1
-23.050867 -15.070098 1.949789 27.608912 0.579025 1.500116 0.077233 -0.006856 -194763.000000 0 0 1
-22.125867 -14.805298 2.967189 26.787218 0.589713 1.459800 0.074635 -0.000882 -162884.000000 0 0 1
-22.453867 -15.540498 4.273589 27.639588 0.605410 1.415555 0.071669 0.005719 -217082.000000 0 0 1
-22.206667 -16.936398 4.244689 28.248806 0.651562 1.419964 0.090032 -0.006073 195353.000000 0 0 1
-22.781267 -17.559198 5.370589 29.260123 0.656664 1.386203 0.086200 -0.013411 -131142.000000 0 0 1
-22.960667 -19.095398 5.069389 30.290678 0.693748 1.402647 0.067553 -0.011067 360020.000000 0 0 1
-23.669567 -19.662898 6.197389 31.389259 0.693197 1.372054 0.057023 -0.011031 308146.000000 0 0 1
-23.854167 -21.070998 6.014489 32.391084 0.723526 1.384029 0.064380 -0.016164 -276278.000000 0 0 1
-24.381767 -21.851098 7.173589 33.517181 0.730715 1.355100 0.058322 -0.013929 -319435.000000 0 0 1
-23.568367 -21.966298 8.310089 33.272267 0.750229 1.318364 0.047428 -0.009719 -281137.000000 0 0 1
-24.258967 -22.710598 9.276789 34.501124 0.752445 1.298562 0.048307 -0.004012 291238.000000 0 0 1
-23.268467 -23.254298 10.358189 34.488781 0.785094 1.265752 0.024784 -0.005576 454292.000000 0 0 1
-22.946367 -22.316298 11.369389 33.967866 0.771479 1.229499 0.029293 -0.000905 57770.600000 0 0 1
-22.240167 -22.874298 12.452089 34.247819 0.799453 1.198680 0.028566 -0.000310 -180159.000000 0 0 1
-22.531067 -22.017298 13.658989 34.336255 0.773866 1.161678 0.033581 0.004263 -334146.000000 0 0 1
-23.835467 -22.108198 14.165889 35.462295 0.747820 1.159865 0.031743 0.003872 -495655.000000 0 0 1
-24.026767 -21.343798 15.342089 35.612118 0.726332 1.125405 0.037051 0.008957 -374796.000000 0 0 1
-25.404617 -21.645798 15.959589 36.995184 0.705678 1.124756 0.030517 -0.000117 906968.000000 0 0 1
-26.604207 -21.410098 15.179289 37.370937 0.677639 1.152528 0.027656 0.000645 1011220.000000 0 0 1
-26.844327 -22.443998 14.253389 37.782404 0.696357 1.183972 0.023794 0.002285 -857800.000000 0 0 1
-28.028807 -23.359498 14.591089 39.296057 0.694784 1.190375 0.032061 0.000464 -290163.000000 0 0 1
-27.740487 -23.974798 15.845789 39.942641 0.712711 1.162862 0.026306 0.002642 -1054.440000 0 0 1
-28.470387 -25.142278 16.209989 41.297226 0.723401 1.167426 0.024738 -0.001503 -272007.000000 0 0 1
-28.061717 -26.486998 15.547589 41.602266 0.756538 1.187780 0.022680 0.005249 -304811.000000 0 0 1
-28.638497 -26.793908 14.302989 41.745090 0.752134 1.221085 0.034926 -0.007166 -1069990.000000 0 0 1
-29.895897 -27.337798 14.502189 43.028286 0.740732 1.227027 0.072753 -0.018689 -713085.000000 0 0 1
-30.673677 -27.621388 13.169389 43.327224 0.733087 1.261958 0.101260 -0.026587 103897.000000 0 0 1
-30.063427 -28.591898 12.324189 43.280387 0.760316 1.282048 0.092760 -0.026925 -39465.500000 0 0 1
-30.820347 -28.872888 11.192089 43.689820 0.752785 1.311737 0.102951 -0.023500 -38093.200000 0 0 1
-30.235437 -30.068378 10.371889 43.884680 0.782628 1.332195 0.090692 -0.024869 75274.500000 0 0 1
-30.686697 -31.263928 10.945289 45.154246 0.794715 1.325960 0.083868 -0.013412 -60035.800000 0 0 1
-30.063607 -32.349368 10.346289 45.357996 0.822005 1.340668 0.082401 -0.020786 -316833.000000 0 0 1
-30.307317 -33.692568 11.047789 46.645217 0.838244 1.331677 0.063417 -0.018946 980155.000000 0 0 1
-31.686037 -34.096011 11.165089 47.866503 0.822018 1.335373 0.058179 -0.019481 923050.000000 0 0 1
-31.711677 33.155889 11.734089 47.356439 -0.807658 1.320406 0.064130 -0.023241 964382.000000 0 0 1
-33.118317 32.715868 12.331089 48.158143 -0.779285 1.311858 0.089463 -0.022068 1283620.000000 0 0 1
-34.270738 32.487775 11.563089 48.617323 -0.758697 1.330656 0.069499 -0.022185 253753.000000 0 0 1
-34.824008 33.540530 10.784089 49.537615 -0.766626 1.351344 0.079071 -0.017770 -396171.000000 0 0 1
-36.235987 33.223938 10.260189 50.220995 -0.742061 1.365047 0.069945 -0.011250 -113598.000000 0 0 1
-36.232707 32.417557 9.096989 49.461726 -0.729882 1.385824 0.047397 -0.007821 -85105.700000 0 0 1
35.025491 32.095147 8.777889 48.310815 0.741768 1.388085 0.045035 -0.005938 -337546.000000 0 0 1
34.931561 31.621027 7.291589 47.678828 0.735696 1.417262 0.044478 -0.010032 -23014.200000 0 0 1
35.258931 30.260217 7.111889 47.004808 0.709252 1.418912 0.057176 -0.010914 64543.800000 0 0 1
35.054691 29.951677 5.773589 46.467932 0.707059 1.446226 0.074396 -0.014257 12905.500000 0 0 1
35.359971 28.515957 5.384189 45.743599 0.678660 1.452819 0.075742 -0.009788 304301.000000 0 0 1
34.527341 27.545547 6.049989 44.581351 0.673392 1.434670 0.069500 -0.011805 485033.000000 0 0 1
35.053941 27.162397 7.307789 44.944170 0.659232 1.407474 0.051133 -0.012949 560714.000000 0 0 1
34.053761 26.126257 7.949689 43.651318 0.654422 1.387656 0.050081 -0.015990 640879.000000 0 0 1
34.114961 24.934417 7.246189 42.872637 0.631161 1.400964 0.044530 -0.017481 -371961.000000 0 0 1
32.976381 24.157547 7.447989 41.551190 0.632253 1.390574 0.030787 -0.014719 -743411.000000 0 0 1
32.987761 22.925537 6.523689 40.698049 0.607343 1.409807 0.034131 -0.015965 30966.600000 0 0 1
33.918641 21.898437 6.815689 40.944712 0.573288 1.403557 0.040662 -0.010712 -151092.000000 0 0 1
35.282441 22.155137 6.574989 42.177379 0.560708 1.414269 0.056441 -0.014615 -694173.000000 0 0 1
36.129451 20.937837 6.565489 42.270982 0.525227 1.414846 0.053336 -0.018012 -714407.000000 0 0 1
36.096121 20.205337 5.372089 41.713846 0.510309 1.441653 0.061011 -0.023079 -14352.900000 0 0 1
-36.172997 18.883037 5.716789 41.203598 -0.481108 1.431602 0.079366 -0.019897 -266449.000000 0 0 1
35.832031 17.846037 4.761689 40.312395 0.462084 1.452400 0.076354 -0.024916 -303236.000000 0 0 1
-36.146397 17.860537 3.482689 40.468382 -0.458930 1.484630 0.087688 -0.023623 -13214.500000 0 0 1
35.854341 16.857637 2.675989 39.709881 0.439500 1.503357 0.078358 -0.021262 -1749520.000000 0 0 1
-35.840006 16.155237 1.647289 39.347316 -0.423486 1.528919 0.101674 -0.015907 -287219.000000 0 0 1
-34.763825 15.376137 2.122389 38.071691 -0.416435 1.515020 0.097124 -0.032556 -247930.000000 0 0 1
-33.707067 16.192437 2.531589 37.480266 -0.447834 1.503200 0.098616 -0.028596 -1930680.000000 0 0 1
-32.408357 15.439937 2.804689 36.007771 -0.444605 1.492826 0.099564 -0.032375 -454708.000000 0 0 1
-32.339737 14.664637 3.953289 35.728682 -0.425724 1.459922 0.095428 -0.032688 247155.000000 0 0 1
-30.980547 14.283837 4.049689 34.354364 -0.432012 1.452642 0.088206 -0.030624 -129295.000000 0 0 1
-30.534137 13.575137 5.292189 33.832309 -0.418345 1.413727 0.101172 -0.027238 -372669.000000 0 0 1
-30.950457 12.257037 5.307989 33.709650 -0.377072 1.412676 0.106945 -0.028199 184303.000000 0 0 1
-30.543417 11.549637 6.421089 33.279496 -0.361519 1.376634 0.095216 -0.020237 -207777.000000 0 0 1
-30.727307 10.043537 6.241089 32.924022 -0.315914 1.380082 0.096879 -0.033885 628376.000000 0 0 1
-32.084367 9.600937 6.351889 34.087111 -0.290760 1.383358 0.095657 -0.015710 552724.000000 0 0 1
-32.218387 8.204237 6.365689 33.850495 -0.249345 1.381617 0.101390 -0.026131 391177.000000 0 0 1
-33.700527 7.721837 6.350989 35.152345 -0.225243 1.389128 0.104173 -0.020863 -80776.000000 0 0 1
-34.472100 8.002837 7.441089 36.162700 -0.228113 1.363549 0.103764 -0.010284 -360649.000000 0 0 1
-35.663057 7.234437 7.375089 37.129270 -0.200139 1.370834 0.084388 -0.007151 175188.000000 0 0 1
-36.015754 6.519037 8.700289 37.620838 -0.179066 1.337421 0.082784 -0.006276 221167.000000 0 0 1
35.878261 7.271937 9.718189 37.875769 0.199975 1.311314 0.079068 -0.008776 764818.000000 0 0 1
-35.763961 7.900737 10.583789 38.124784 -0.217421 1.289492 0.086171 -0.015798 254405.000000 0 0 1
36.152401 8.817537 11.633589 38.988274 0.239228 1.267794 0.084389 -0.018993 -120564.000000 0 0 1
35.273641 8.144837 12.499389 38.298863 0.226927 1.238341 0.061695 -0.019632 628909.000000 0 0 1
34.593951 9.009737 13.419889 38.183901 0.254783 1.211672 0.075004 -0.028898 -118080.000000 0 0 1
34.142131 8.269437 14.698789 38.080482 0.237630 1.174513 0.073477 -0.028632 629308.000000 0 0 1
32.854121 7.623637 14.581889 36.744314 0.228010 1.162717 0.066278 -0.026343 1144230.000000 0 0 1
32.358601 7.115437 15.816289 36.713261 0.216448 1.125411 0.060225 -0.020193 -320618.000000 0 0 1
30.839291 6.979437 15.928689 35.404768 0.222567 1.104140 0.042129 -0.007788 -818783.000000 0 0 1
30.132881 8.222337 15.993589 35.091199 0.266384 1.097557 0.031515 -0.013875 1516920.000000 0 0 1
28.693651 8.005437 15.950889 33.791175 0.272078 1.079190 0.035824 -0.012016 1492910.000000 0 0 1
28.014091 7.421637 17.202889 33.701772 0.258976 1.035095 0.035752 -0.006786 -884311.000000 0 0 1
28.020981 8.233737 18.344889 34.489198 0.285798 1.009951 0.051984 -0.015495 162825.000000 0 0 1
27.186921 7.867537 19.431689 34.330997 0.281692 0.969138 0.048155 -0.006452 -184057.000000 0 0 1
27.755301 6.777037 20.339789 35.071242 0.239485 0.952121 0.049321 -0.003896 -295605.000000 0 0 1
27.126821 6.743437 21.593589 35.321686 0.243650 0.913043 0.037716 0.001762 -156243.000000 0 0 1
27.578281 5.715537 22.411489 35.993108 0.204355 0.898658 0.041178 0.006054 -940355.000000 0 0 1
26.893621 5.483237 23.804589 36.331683 0.201129 0.856346 0.042400 0.007942 839214.000000 0 0 1
25.557121 4.966937 23.809989 35.281050 0.191954 0.830013 0.023409 0.015127 764509.000000 0 0 1
24.584421 5.951737 23.477989 34.511345 0.237524 0.822628 0.029728 0.014723 -181840.000000 0 0 1
23.100221 5.528437 23.601989 33.484888 0.234906 0.788578 0.032978 0.010559 184506.000000 0 0 1
22.630821 4.778437 22.510389 32.275457 0.208091 0.798969 0.019203 0.015546 -98430.800000 0 0 1
21.227021 4.886937 22.461989 31.289128 0.226280 0.770037 0.028078 0.008035 -1852720.000000 0 0 1
20.752921 3.494437 21.912789 30.381987 0.166818 0.765202 0.047738 0.003181 506507.000000 0 0 1
19.511521 3.506837 21.193789 29.020235 0.177833 0.752020 0.050580 -0.005487 694309.000000 0 0 1
18.393921 4.082837 21.818289 28.827827 0.218425 0.712319 0.073142 -0.005387 -465985.000000 0 0 1
17.064321 3.847537 20.981089 27.316674 0.221764 0.694976 0.101970 -0.008979 866262.000000 0 0 1
16.435521 2.595437 21.250989 26.990131 0.156623 0.664279 0.081666 -0.010343 225534.000000 0 0 1
15.294721 2.385337 20.449589 25.647690 0.154712 0.647943 0.092703 -0.019036 206620.000000 0 0 1
14.186221 1.393937 20.999289 25.380348 0.097946 0.596363 0.089807 -0.017987 658711.000000 0 0 1
14.560821 0.010037 20.813289 25.400996 0.000689 0.610453 0.070721 -0.032642 667473.000000 0 0 1
13.683721 -0.685663 21.684489 25.650174 -0.050066 0.563495 0.066445 -0.028827 218164.000000 0 0 1
13.971721 -2.239063 21.719289 25.921997 -0.158906 0.577425 0.039647 -0.019782 46595.000000 0 0 1
13.656521 -2.889463 20.504889 24.805242 -0.208506 0.597694 0.032741 -0.009691 209290.000000 0 1 0
13.849521 -4.309463 20.509789 25.120353 -0.301667 0.615541 0.019974 -0.000457 -274303.000000 0 0 1
13.521521 -4.834263 19.104089 23.899118 -0.343362 0.644561 0.024312 -0.006276 -754773.000000 0 1 0
12.144421 -4.845863 18.910289 22.990615 -0.379661 0.604965 0.024521 -0.009923 -735190.000000 0 1 0
11.942121 -5.200963 17.568889 21.870760 -0.410742 0.637973 0.030331 -0.008338 -381017.000000 0 1 0
10.449321 -5.334863 17.280389 20.886860 -0.472049 0.596453 0.032426 -0.010961 -495602.000000 0 1 0
9.946321 -6.394463 18.041689 21.571300 -0.571366 0.580161 0.033542 -0.009228 330541.000000 0 1 0
8.535721 -6.275163 18.285189 21.132542 -0.633939 0.525123 0.031571 -0.007336 811963.000000 0 1 0
8.112221 -7.240863 19.397089 22.237025 -0.728704 0.510934 0.049820 -0.009410 -113215.000000 0 1 0
7.891721 -8.574363 18.937289 22.235554 -0.826832 0.551638 0.034140 -0.013742 -78784.500000 0 1 0
8.729421 -9.484663 19.616089 23.472379 -0.826839 0.581373 0.044412 -0.006612 134993.000000 0 1 0
8.991921 -10.875063 19.007989 23.673303 -0.879903 0.638603 0.057993 -0.009924 35898.000000 0 1 0
9.773521 -10.770963 17.845189 23.021427 -0.833910 0.683835 0.059888 0.000704 -112852.000000 0 1 0
9.811921 -11.986463 17.141689 23.103822 -0.884826 0.734835 0.047208 -0.007884 119763.000000 0 1 0
10.716221 -11.921763 15.878289 22.562932 -0.838601 0.790158 0.063334 -0.008493 145242.000000 0 1 0
10.806821 -13.090663 15.087789 22.711103 -0.880677 0.844192 0.060357 -0.013177 46775.600000 0 1 0
10.430421 -12.813563 13.711189 21.470393 -0.887568 0.878107 0.049197 -0.017013 -115917.000000 0 1 0
10.882921 -13.916863 12.725089 21.772573 -0.907131 0.946588 0.054968 -0.028742 393740.000000 0 1 0
12.268421 -14.005963 12.439489 22.392455 -0.851433 0.981806 0.040285 -0.028314 180965.000000 0 1 0
12.652421 -13.203563 11.298589 21.495952 -0.806711 1.017359 0.029510 -0.024909 947899.000000 0 1 0
14.212221 -13.185363 10.984889 22.282478 -0.747936 1.055281 0.047074 -0.035794 1224240.000000 0 1 0
14.676221 -14.422563 10.490089 23.096401 -0.776681 1.099337 0.058894 -0.029692 -48408.600000 0 1 0
15.918921 -14.157463 9.876089 23.481545 -0.726899 1.136701 0.051094 -0.035284 -190374.000000 0 1 0
16.648421 -15.408063 9.327089 24.526983 -0.746725 1.180699 0.055671 -0.033734 -34839.300000 0 1 0
17.036021 -16.367163 10.347789 25.791215 -0.765377 1.157955 0.053530 -0.024330 -13433.900000 0 0 1
16.037221 -17.127163 10.952289 25.893721 -0.818251 1.134075 0.079804 -0.026529 -254207.000000 0 0 1
16.582121 -17.452863 12.364589 27.063855 -0.810976 1.096326 0.074644 -0.022932 532462.000000 0 0 1
17.441621 -18.606263 12.377289 28.347847 -0.817695 1.118956 0.089625 -0.025904 54885.800000 0 0 1
17.902421 -19.009463 13.648189 29.464036 -0.815381 1.089177 0.078118 -0.026282 -1245840.000000 0 0 1
19.136521 -19.822463 13.397489 30.637056 -0.803003 1.118206 0.037055 -0.020573 -927095.000000 0 0 1
20.214821 -18.952263 13.115189 30.656736 -0.753174 1.128730 0.027321 -0.011993 -1045970.000000 0 0 1
21.355721 -19.688863 12.799589 31.741891 -0.744810 1.155742 0.013462 -0.010382 -131896.000000 0 0 1
22.227121 -18.863563 11.816989 31.456639 -0.703723 1.185688 0.025263 0.000883 -439755.000000 0 0 1
21.802821 -18.927163 10.490789 30.719003 -0.714912 1.222275 0.030965 0.000954 70421.800000 0 0 1
20.663021 -18.178263 10.086489 29.311209 -0.721513 1.219498 0.034595 -0.000971 327146.000000 0 0 1
20.789921 -16.621063 10.188689 28.500701 -0.674422 1.205218 0.062750 -0.024001 -254667.000000 0 0 1
21.590021 -15.999563 9.201889 28.404045 -0.637757 1.240880 0.047306 -0.002614 94394.000000 0 0 1
21.420321 -14.600463 9.128989 27.483488 -0.598282 1.232201 0.062297 -0.024526 -52449.900000 0 0 1
-34.286839 25.097002 7.549189 43.155962 -0.631863 1.394964 0.081115 -0.014610 -707119.000000 0 0 1
-33.636687 24.317302 8.436989 42.354937 -0.625957 1.370258 0.069687 -0.014258 -266900.000000 0 0 1
-32.670327 25.062802 9.149789 42.180718 -0.654382 1.352139 0.068836 -0.012079 -142339.000000 0 0 1
-31.631657 24.268002 9.965489 41.095117 -0.654422 1.325856 0.066970 -0.026232 -339999.000000 0 0 1
-30.676057 23.678402 9.132989 39.813298 -0.657361 1.339340 0.068654 -0.024942 -321124.000000 0 0 1
-30.056217 22.624802 9.822289 38.881039 -0.645258 1.315405 0.061206 -0.024320 -9980.070000 0 0 1
-29.208017 21.776702 8.837989 37.489239 -0.640662 1.332809 0.065659 -0.030350 517978.000000 0 0 1
-30.005287 20.793202 8.088689 37.391194 -0.606002 1.352747 0.085081 -0.033435 1069470.000000 0 0 1
-29.267567 20.077102 7.085289 36.192290 -0.601258 1.373756 0.074420 -0.033428 391845.000000 0 0 1
-30.269537 19.359702 6.126689 36.449681 -0.569013 1.401908 0.082046 -0.029864 312954.000000 0 0 1
-30.956807 18.289602 6.766489 36.587140 -0.533635 1.384784 0.088988 -0.029240 162246.000000 0 0 1
-31.995087 17.841402 5.943589 37.112363 -0.508682 1.409953 0.082856 -0.027371 -296948.000000 0 0 1
-32.720117 16.572902 6.404889 37.232912 -0.468838 1.397914 0.099051 -0.025233 197479.000000 0 0 1
-33.543377 16.729002 7.573189 38.240958 -0.462629 1.371440 0.094598 -0.025348 93133.400000 0 0 1
-34.579984 15.842002 7.721489 38.811927 -0.429591 1.370514 0.098323 -0.027708 -578516.000000 0 0 1
-35.606511 16.067502 8.828589 40.049123 -0.423894 1.348527 0.084480 -0.022301 32273.100000 0 0 1
36.151941 17.207402 8.608489 40.953188 0.444243 1.359014 0.067760 -0.015262 -188524.000000 0 0 1
35.561081 17.532202 9.802189 40.841786 0.458045 1.328426 0.070063 -0.003351 -850188.000000 0 0 1
34.759021 18.783302 9.759589 40.697071 0.495432 1.328626 0.049183 -0.006251 -514039.000000 0 0 1
33.466441 18.563502 9.232989 39.368190 0.506437 1.334062 0.021206 0.002013 -227879.000000 0 0 1
32.883541 19.833502 9.004289 39.443280 0.542728 1.340481 0.015349 0.007323 253504.000000 0 0 1
31.441111 19.687902 8.423689 38.040971 0.559450 1.347508 -0.002556 0.005048 21845.500000 0 0 1
30.903381 21.010702 8.355789 38.292137 0.597097 1.350815 -0.006903 -0.003297 1205940.000000 0 0 1
29.574781 21.126402 7.753989 37.163381 0.620284 1.360606 -0.020902 0.000636 1481280.000000 0 0 1
29.263651 20.630202 6.324089 36.358776 0.614058 1.395971 -0.031952 0.013813 -759123.000000 0 0 1
29.542441 19.247402 6.091689 35.781657 0.577441 1.399717 -0.024684 0.007883 -41974.500000 0 0 1
29.389381 18.753302 4.789889 35.190412 0.567963 1.434259 -0.021134 0.013744 -214774.000000 0 0 1
27.956421 18.974402 4.213189 34.049088 0.596296 1.446740 0.013860 0.021706 -542799.000000 0 0 1
26.971721 18.213902 4.935789 32.917806 0.593953 1.420286 0.009817 0.013805 -123998.000000 0 0 1
25.650421 18.424202 4.571089 31.910659 0.622890 1.427055 0.050618 0.009929 -803796.000000 0 0 1
25.052221 19.787102 4.971389 32.308790 0.668511 1.416311 0.071419 0.004331 -1195870.000000 0 0 1
25.700521 20.972902 4.542189 33.481501 0.684451 1.434714 0.046645 0.001106 12052.800000 0 0 1
25.060121 22.089402 5.106689 33.793929 0.722475 1.419103 0.067746 -0.000293 -335737.000000 0 0 1
25.708921 23.456302 4.799489 35.130924 0.739613 1.433751 0.043331 -0.003441 652311.000000 0 0 1
26.969021 23.643902 5.456389 36.278566 0.719795 1.419821 0.030180 -0.005567 812270.000000 0 0 1
27.688931 24.836902 5.178889 37.554886 0.731154 1.432454 0.029234 -0.003467 1221280.000000 0 0 1
29.179811 24.809002 5.755389 38.730769 0.704617 1.421644 0.023601 -0.005880 1964510.000000 0 0 1
30.070481 23.677802 5.347689 38.645439 0.667017 1.431973 0.018188 -0.005478 999352.000000 0 0 1
30.342341 23.520202 3.953189 38.593850 0.659411 1.468186 0.022864 -0.006489 -692058.000000 0 0 1
31.121021 24.668502 3.294489 39.848546 0.670252 1.488027 0.042731 -0.019302 -699427.000000 0 0 1
30.464991 25.928602 3.402989 40.149576 0.705129 1.485937 0.036552 -0.015507 -496961.000000 0 0 1
31.199421 26.930702 2.812789 41.310754 0.712096 1.502655 0.085551 -0.020845 -812818.000000 0 0 1
30.595131 28.369902 2.991889 41.831385 0.747678 1.499213 0.078303 -0.014525 1463000.000000 0 0 1
29.371651 28.753102 2.305189 41.167325 0.774757 1.514771 0.103011 -0.021651 1816520.000000 0 0 1
28.194831 28.029502 2.736489 39.850845 0.782458 1.502074 0.064994 -0.005461 707521.000000 0 0 1
26.816621 28.647402 2.357689 39.311112 0.818395 1.510785 0.023065 0.004051 259890.000000 0 0 1
26.542721 29.903202 2.956489 40.093121 0.844862 1.496989 0.029527 -0.007646 266292.000000 0 0 1
25.402321 30.515402 2.369389 39.775390 0.876584 1.511192 0.023172 -0.000060 207071.000000 0 0 1
25.188821 31.966902 2.902389 40.801757 0.903437 1.499602 0.030032 -0.013752 -279867.000000 0 0 1
24.941621 32.131802 4.296889 40.902328 0.910719 1.465550 0.020177 -0.029269 -302962.000000 0 0 1
26.061921 31.937502 5.120089 41.538453 0.886358 1.447221 0.037812 -0.028133 -307676.000000 0 0 1
25.765621 31.760402 6.698889 41.442315 0.889233 1.408440 0.042547 -0.032976 -7594.930000 0 0 1
25.221421 30.498102 7.043789 40.197876 0.879817 1.394659 0.036848 -0.030914 527043.000000 0 0 1
26.151221 29.411302 6.870289 39.951369 0.844005 1.397971 0.066893 -0.028835 455905.000000 0 0 1
25.541621 28.056802 7.340289 38.645031 0.832290 1.379694 0.062868 -0.024448 163401.000000 0 0 1
24.507921 27.648702 6.465989 37.508638 0.845544 1.397544 0.039872 -0.021172 96722.600000 0 0 1
23.989021 26.333902 6.723089 36.251172 0.831961 1.384258 0.045646 -0.025763 377744.000000 0 0 1
22.695321 25.947502 5.925689 34.978054 0.852157 1.400564 0.054485 -0.012156 228537.000000 0 0 1
22.743721 25.994202 4.504089 34.831914 0.851993 1.441124 0.035682 -0.008663 120858.000000 0 0 1
23.042121 27.279802 3.874389 35.918489 0.869411 1.462720 0.037739 -0.009556 -210806.000000 0 0 1
23.195921 27.200402 2.341789 35.824525 0.864691 1.505381 0.037402 0.003522 -984214.000000 0 0 1
24.272421 26.441502 1.948589 35.945799 0.828143 1.516561 0.018103 0.017635 -577626.000000 0 0 1
24.301021 26.399602 0.554989 35.885744 0.826766 1.555330 0.031502 0.012264 -687493.000000 0 0 1
25.502921 25.645902 0.044989 36.167849 0.788194 1.569552 0.034980 0.010860 -2222730.000000 0 0 1
26.665621 26.396102 -0.079211 37.520872 0.780319 1.572907 0.028114 0.011852 -409562.000000 0 0 1
27.672211 25.803102 -0.866511 37.845768 0.750460 1.593694 0.021916 0.020271 -311602.000000 0 0 1
28.369631 24.583702 -0.286711 37.540333 0.714024 1.578434 0.013516 0.014210 -1360670.000000 0 0 1
27.572221 23.423502 -0.068911 36.178620 0.704223 1.572701 0.015400 0.016897 185352.000000 0 0 1
28.124561 22.600702 0.958389 36.092952 0.676928 1.544240 0.015452 0.014028 161397.000000 0 0 1
27.121521 21.505902 1.429189 34.642796 0.670425 1.529530 0.010769 0.016167 150063.000000 0 0 1
26.622121 20.703002 0.380989 33.726796 0.660971 1.559500 0.028618 0.009879 209962.000000 0 0 1
25.673721 19.822502 0.907489 32.448345 0.657491 1.542825 0.031623 0.006227 -465946.000000 0 0 1
25.140221 18.797502 -0.114911 31.390922 0.642032 1.574457 0.039741 -0.001701 26619.100000 0 0 1
23.892321 18.244602 0.246589 30.062756 0.652160 1.562594 0.050520 -0.006200 407083.000000 0 0 1
23.301721 17.256802 -0.606911 29.002341 0.637445 1.591724 0.072654 -0.027965 932326.000000 0 0 1
21.907621 16.771902 -0.077211 27.590696 0.653394 1.573595 0.093439 -0.019955 284862.000000 0 0 1
21.236321 15.885502 -0.940411 26.537047 0.642242 1.606241 0.089195 -0.024389 1323370.000000 0 0 1
19.872721 15.497602 -0.617611 25.208771 0.662329 1.595299 0.088200 -0.024748 1654130.000000 0 0 1
18.802621 16.502702 -1.166711 25.044739 0.720346 1.617398 0.093099 -0.025485 -168776.000000 0 0 1
18.894321 17.743802 -0.485111 25.924375 0.754006 1.589510 0.085780 -0.019466 -42917.600000 0 0 1
18.065121 18.713902 -1.082211 26.033246 0.803036 1.612379 0.070792 -0.020120 102641.000000 0 0 1
18.180421 20.138202 -0.432511 27.134147 0.836446 1.586737 0.081679 -0.009868 -88911.500000 0 0 1
17.644921 20.099502 0.884189 26.760325 0.850338 1.537749 0.082766 -0.007816 109251.000000 0 0 1
17.833621 21.314202 1.559689 27.834617 0.874074 1.514733 0.085884 -0.006586 -57471.600000 0 0 1
16.891321 22.515402 1.244689 28.174622 0.927160 1.526604 0.074372 -0.006855 -449483.000000 0 0 1
15.567221 22.353802 1.643889 27.289800 0.962490 1.510522 0.072899 -0.005155 -667689.000000 0 0 1
14.791521 23.459002 1.283389 27.762582 1.008233 1.524553 0.047865 -0.003819 -240604.000000 0 0 1
13.330021 23.370702 1.757289 26.962330 1.052446 1.505574 0.035331 -0.004805 -33023.700000 0 0 1
13.043121 23.620702 3.119989 27.162380 1.066273 1.455678 0.044369 0.001922 385503.000000 0 0 1
11.664121 23.450002 3.429089 26.414257 1.109228 1.440609 0.021464 0.005524 571447.000000 0 0 1
11.265621 23.780102 4.908789 26.767586 1.128375 1.386367 0.036427 0.004367 149004.000000 0 0 1
11.834821 22.928302 5.900089 26.468492 1.094299 1.345998 0.051550 -0.017933 608386.000000 0 0 1
11.070221 23.009802 7.129889 26.511056 1.122375 1.298504 0.042502 -0.004130 -159000.000000 0 0 1
11.574521 21.914202 8.162089 26.092556 1.084864 1.252643 0.047129 -0.000460 -176208.000000 0 0 1
12.861621 22.116902 8.640689 27.004447 1.044069 1.245096 0.057682 -0.006475 -690409.000000 0 0 1
13.888921 21.673202 7.820189 26.903256 1.000892 1.275861 0.084468 -0.016756 -929542.000000 0 0 1
15.324821 21.811002 8.338189 27.930187 0.958315 1.267637 0.086873 -0.017775 -227928.000000 0 0 1
15.687621 20.752102 9.209489 27.596483 0.923496 1.230550 0.095367 -0.015372 312687.000000 0 0 1
17.021121 20.668902 9.690789 28.475138 0.881881 1.223534 0.098697 -0.024546 305825.000000 0 0 1
17.223921 21.562602 10.967789 29.696829 0.896796 1.192513 0.083876 -0.017293 -583979.000000 0 0 1
16.608721 21.091302 12.127689 29.457995 0.903744 1.146484 0.081384 -0.019587 -40644.400000 0 0 1
16.981721 21.885402 13.194889 30.683135 0.910900 1.126262 0.072495 -0.016517 -103822.000000 0 0 1
18.004221 21.244102 14.173989 31.246853 0.867760 1.099981 0.069763 -0.013408 1494390.000000 0 0 1
19.366221 21.423502 13.669589 31.951129 0.835792 1.128708 0.078605 -0.010986 1076190.000000 0 0 1
20.238421 20.993402 14.714789 32.662542 0.803707 1.103460 0.064193 -0.011327 641680.000000 0 0 1
21.743221 21.377902 14.588689 33.802547 0.776926 1.124547 0.056150 -0.008473 490063.000000 0 0 1
22.337821 20.796202 13.457489 33.355124 0.749673 1.155500 0.063535 -0.009121 612163.000000 0 0 1
23.696221 21.238602 13.303689 34.490249 0.730760 1.174805 0.055066 -0.003813 669243.000000 0 0 1
24.394121 20.838202 11.995489 34.251942 0.706945 1.212997 0.069388 -0.004117 -92215.800000 0 0 1
23.885821 21.468202 10.806989 33.885206 0.732143 1.246197 0.076313 -0.010100 392748.000000 0 0 1
24.595321 21.128402 9.627789 33.823564 0.709720 1.282158 0.077068 -0.007800 -432682.000000 0 0 1
24.468521 22.275802 8.602089 34.189411 0.738524 1.316462 0.070558 -0.005969 123111.000000 0 0 1
25.040421 23.513502 9.034589 35.518041 0.753961 1.313604 0.056126 -0.012130 1430920.000000 0 0 1
26.485821 23.616202 9.061589 36.624256 0.728185 1.320779 0.040036 -0.005764 1055550.000000 0 0 1
27.037521 25.031902 9.578089 38.070506 0.746899 1.316475 0.056616 -0.003794 -468736.000000 0 0 1
28.366171 25.246102 9.218489 39.076667 0.727267 1.332644 0.055649 -0.007766 -409456.000000 0 0 1
28.808261 26.433102 9.892589 40.329742 0.742429 1.322975 0.072936 -0.019348 -290947.000000 0 0 1
30.084601 27.028502 9.343089 41.508029 0.731940 1.343760 0.075363 -0.024710 -441809.000000 0 0 1
29.805211 27.744102 8.150189 41.527237 0.749599 1.373253 0.089718 -0.025458 -334492.000000 0 0 1
30.961261 28.345002 7.684289 42.674197 0.741312 1.389740 0.077642 -0.019399 -641944.000000 0 0 1
30.795221 29.264202 6.513189 42.978609 0.759912 1.418665 0.090955 -0.015056 75632.000000 0 0 1
30.460021 30.610102 6.818389 43.718207 0.787856 1.414195 0.110005 -0.022951 151968.000000 0 0 1
30.183451 31.401702 5.672989 43.923689 0.805177 1.441279 0.125907 -0.025428 108018.000000 0 0 1
30.273981 32.910802 5.978689 45.115181 0.827106 1.437885 0.089361 -0.023919 -114364.000000 0 0 1
29.127081 33.373902 6.643589 44.792203 0.853242 1.421927 0.075225 -0.030149 -54433.500000 0 0 1
29.101601 -33.734934 6.714689 45.055921 -0.859001 1.421209 0.062578 -0.026515 265898.000000 0 0 1
27.733781 -33.213234 7.246089 43.872398 -0.875062 1.404873 0.067484 -0.029642 1193760.000000 0 0 1
26.691821 -33.376234 6.257389 43.192375 -0.896223 1.425412 0.058477 -0.034408 748044.000000 0 0 1
25.429221 -32.783934 6.578289 42.008398 -0.911073 1.413555 0.042353 -0.034375 405967.000000 0 0 1
24.384821 -32.946134 5.481989 41.353591 -0.933634 1.437841 0.034757 -0.023163 -580506.000000 0 0 1
24.725821 -32.310434 4.271989 40.909416 -0.917601 1.466180 0.028628 -0.011641 -398878.000000 0 0 1
23.957821 -32.705534 3.206389 40.668293 -0.938569 1.491872 0.037654 -0.014336 -647676.000000 0 0 1
24.573921 -32.125334 1.915989 40.491798 -0.917803 1.523461 0.047445 -0.006891 -224238.000000 0 0 1
24.582721 -30.704234 1.931089 39.380062 -0.895672 1.521739 0.055638 -0.001589 451349.000000 0 0 1
25.437321 -30.155134 0.892789 39.461202 -0.870060 1.548170 0.048216 -0.004555 198941.000000 0 0 1
25.570421 -28.638434 1.101589 38.408591 -0.841934 1.542112 0.051101 -0.005888 -235230.000000 0 0 1
24.375621 -27.900434 1.107989 37.065250 -0.852723 1.540899 0.050435 0.000477 -455890.000000 0 0 1
23.982021 -27.576934 -0.169211 36.546590 -0.855010 1.575426 0.045713 0.000067 95786.000000 0 0 1
22.685421 -26.698634 -0.177311 35.035366 -0.866485 1.575857 0.041844 0.000285 333835.000000 0 0 1
22.872321 -25.298234 -0.096011 34.105028 -0.835717 1.573611 0.039793 0.001088 -64770.600000 0 0 1
22.879221 -24.736034 1.218789 33.716696 -0.824375 1.534641 0.031300 0.013405 142596.000000 0 0 1
21.528521 -24.580834 1.975889 32.735283 -0.851499 1.510400 0.021713 0.014581 7495.990000 0 0 1
21.618121 -23.863534 3.225889 32.360745 -0.834728 1.470945 0.018223 0.017703 600435.000000 0 0 1
20.318621 -23.680134 3.813689 31.434684 -0.861650 1.449176 0.018406 0.023503 664377.000000 0 0 1
20.473621 -22.909834 5.188889 31.160139 -0.841495 1.403494 0.012482 0.025122 -49155.100000 0 0 1
20.696621 -21.510934 5.129289 30.288282 -0.804689 1.400627 0.017522 0.027898 43416.900000 0 0 1
19.592221 -20.744634 4.677989 28.915023 -0.813960 1.408298 0.010440 0.022513 -484753.000000 0 0 1
19.804121 -19.233134 4.732889 28.009229 -0.770772 1.401006 0.011064 0.013030 -545342.000000 0 0 1
19.640621 -18.578434 5.975389 27.687858 -0.757613 1.353272 0.031898 0.004359 -266379.000000 0 0 1
18.338721 -18.433634 6.479589 26.797251 -0.787979 1.326575 0.031922 0.002491 -64161.000000 0 0 1
19.250533 -26.157628 -12.138811 34.672111 -0.936352 1.928477 0.051286 -0.006834 59626.400000 0 0 1
19.112033 -24.753498 -12.235311 33.581369 -0.913304 1.943729 0.064184 -0.009326 -285883.000000 0 0 1
17.880033 -24.396098 -12.808211 32.846849 -0.938326 1.971360 0.037541 -0.011521 -111634.000000 0 0 1
17.826533 -22.855898 -13.157311 31.832251 -0.908399 1.996907 0.032092 -0.016324 -149616.000000 0 0 1
17.811233 -22.041498 -11.955711 30.757222 -0.891150 1.970030 0.040954 -0.023422 -37155.800000 0 0 1
19.070433 -21.681398 -11.402711 31.044907 -0.849381 1.946898 0.036810 -0.024720 -404485.000000 0 0 1
19.363733 -22.426498 -10.040911 31.284531 -0.858556 1.897533 0.051823 -0.008931 94981.600000 0 0 1
18.590433 -22.045298 -8.915911 30.184314 -0.870215 1.870652 0.051756 -0.012601 22297.100000 0 0 1
17.206833 -22.270098 -9.027211 29.555421 -0.912961 1.881190 0.061517 -0.003441 -462290.000000 0 0 1
16.331333 -21.570398 -7.972911 28.205706 -0.922755 1.857373 0.058572 -0.016659 -1044590.000000 0 0 1
16.371233 -20.155898 -8.052411 27.186740 -0.888642 1.871496 0.059404 -0.028044 -282020.000000 0 0 1
15.368533 -19.543498 -7.336911 25.922392 -0.904418 1.857752 0.065368 -0.035415 -60767.100000 0 0 1
13.935033 -19.548598 -7.961311 25.292594 -0.951504 1.891009 0.064098 -0.025212 400360.000000 0 0 1
13.275633 -20.792598 -7.637011 25.824378 -1.002563 1.871015 0.053018 -0.029612 209718.000000 0 0 1
11.964933 -20.861398 -8.207111 25.410908 -1.050057 1.899669 0.069694 -0.027240 485833.000000 0 0 1
11.365733 -22.283898 -8.057911 26.280828 -1.099147 1.882424 0.077180 -0.023300 -63846.000000 0 0 1
11.220633 -22.544298 -6.696711 26.057512 -1.108978 1.830710 0.078017 -0.028507 1957.660000 0 0 1
10.520533 -23.735798 -6.456411 26.753597 -1.153583 1.814531 0.061994 -0.027058 -220569.000000 0 0 1
10.905033 -24.375198 -5.143711 27.194260 -1.150121 1.761090 0.070938 -0.020988 588794.000000 0 0 1
9.992533 -25.286558 -4.497811 27.558865 -1.194459 1.734737 0.057517 -0.015253 428215.000000 0 0 1
10.726833 -25.828058 -3.408511 28.173950 -1.177156 1.692074 0.058357 -0.021343 146255.000000 0 0 1
9.889633 -26.741838 -2.539711 28.624830 -1.216576 1.659637 0.057944 -0.016714 234575.000000 0 0 1
8.918933 -26.069868 -1.720211 27.606965 -1.241162 1.633147 0.038129 -0.014091 153321.000000 0 0 1
8.401133 -27.017248 -0.778811 28.304015 -1.269320 1.598316 0.045363 -0.014808 144871.000000 0 0 1
7.546733 -26.314128 0.288089 27.376441 -1.291499 1.560273 0.046892 -0.016973 665582.000000 0 0 1
6.204033 -25.922888 -0.037211 26.654972 -1.335888 1.572192 0.046289 -0.024966 482245.000000 0 0 1
5.599633 -25.433448 1.124389 26.066845 -1.354086 1.527648 0.043091 -0.017267 -748833.000000 0 0 1
4.169433 -24.948398 1.046989 25.316061 -1.405204 1.529428 0.040921 -0.023882 -148764.000000 0 0 1
3.152933 -25.924558 0.807589 26.128067 -1.449771 1.539883 0.046988 -0.023243 412105.000000 0 0 1
1.879533 -25.296988 0.898989 25.382641 -1.496634 1.535371 0.041662 -0.019808 346674.000000 0 0 1
0.680933 -26.136138 0.402389 26.148103 -1.544749 1.555407 0.039021 -0.013648 234638.000000 0 0 1
0.280433 -27.187878 1.241889 27.217672 -1.560482 1.525152 0.040902 -0.009130 -157244.000000 0 0 1
0.947633 -28.410468 0.920089 28.441155 -1.537454 1.538440 0.032843 -0.011499 18000.100000 0 0 1
0.585433 -29.614078 1.827689 29.676199 -1.551030 1.509170 0.033958 -0.006827 115714.000000 0 0 1
0.859333 -29.547798 3.192589 29.732196 -1.541722 1.463211 0.027133 -0.003750 256999.000000 0 0 1
0.204033 -30.641348 3.882089 30.886963 -1.564138 1.444776 0.032755 -0.004775 335701.000000 0 0 1
0.450133 -30.501258 5.423689 30.982992 -1.556040 1.394836 0.034836 -0.005770 -1032480.000000 0 0 1
1.668233 -30.930978 5.894089 31.531709 -1.516914 1.382765 0.018756 0.003352 -795273.000000 0 0 1
1.705033 -30.696318 7.264089 31.590158 -1.515308 1.338772 0.022399 0.004999 -325273.000000 0 0 1
3.088633 -31.081748 7.780489 32.189295 -1.471750 1.326668 0.015499 0.002249 -188974.000000 0 0 1
3.276433 -32.503038 7.630289 33.547039 -1.470332 1.341338 0.008209 0.000171 -18887.900000 0 0 1
4.654633 -32.814248 7.563389 33.994784 -1.429888 1.346432 0.014101 -0.003592 180649.000000 0 0 1
4.927933 34.236133 7.280489 35.346893 1.427839 1.363339 0.007559 0.004524 -484143.000000 0 0 1
4.813433 33.790575 5.949589 34.646352 1.429299 1.398218 0.007748 -0.000318 8507.670000 0 0 1
4.958133 32.392037 5.856689 33.288556 1.418909 1.393939 -0.005022 0.001036 -608565.000000 0 0 1
5.050433 31.758487 4.459289 32.465268 1.413091 1.433005 0.002248 0.001231 669852.000000 0 0 1
6.393533 31.873307 3.953789 32.747785 1.372832 1.449767 0.010625 0.002055 858740.000000 0 0 1
7.244533 30.774727 4.192689 31.892722 1.339600 1.438952 0.003501 0.001250 163814.000000 0 0 1
8.649233 30.822627 3.533889 32.207638 1.297219 1.460853 0.002648 -0.001587 121491.000000 0 0 1
9.574533 31.546517 4.307389 33.247677 1.276127 1.440877 0.018455 -0.006070 -443859.000000 0 0 1
10.786033 31.680137 3.589989 33.657950 1.242640 1.463932 0.028411 -0.013903 -34268.900000 0 0 1
11.931233 32.156287 4.529289 34.596179 1.215503 1.439501 0.041576 -0.026951 -10487.800000 0 0 1
12.439333 31.193287 5.463389 34.023621 1.191340 1.409522 0.047674 -0.019888 99028.100000 0 0 1
13.424533 31.838047 6.266689 35.116246 1.171766 1.391380 0.076325 -0.028380 331499.000000 0 0 1
14.264833 30.850317 7.135389 34.729545 1.137688 1.363867 0.074672 -0.027333 -208263.000000 0 0 1
13.589733 30.361607 8.247789 34.271476 1.149943 1.327750 0.056922 -0.017241 -180378.000000 0 0 1
14.345333 29.430887 8.964189 33.945874 1.117260 1.303554 0.052669 -0.015926 -148783.000000 0 0 1
14.083433 29.452017 10.519089 34.298916 1.124755 1.259084 0.050018 -0.006966 66851.700000 0 0 1
14.670033 30.531117 11.276289 35.700332 1.122875 1.249434 0.048654 -0.009357 29885.100000 0 0 1
14.065733 30.733007 12.516189 36.041886 1.141578 1.216140 0.029708 0.004045 -238782.000000 0 0 1
14.844433 31.675677 13.468089 37.484599 1.132551 1.203282 0.027511 0.008498 -954146.000000 0 0 1
15.928633 31.080767 14.035889 37.639628 1.097205 1.188662 0.028894 0.003886 -1119040.000000 0 0 1
16.440233 31.898207 15.044989 38.911805 1.094907 1.173807 0.036145 0.005406 -1096360.000000 0 0 1
17.582633 31.321237 15.820689 39.248733 1.059270 1.155908 0.029961 -0.000164 -2400.090000 0 0 1
18.706333 31.030737 14.946289 39.194708 1.028297 1.179557 0.038243 0.002993 831297.000000 0 0 1
19.150633 29.657067 14.969789 38.345573 0.997425 1.169739 0.025411 0.002651 -452698.000000 0 0 1
20.568033 29.427927 14.474589 38.711246 0.960789 1.187573 0.041834 -0.004802 -759191.000000 0 0 1
21.578533 29.616897 15.410989 39.752890 0.941140 1.172694 0.052757 -0.013877 -195943.000000 0 0 1
22.862333 29.259807 14.939389 40.025091 0.907527 1.188286 0.067443 -0.020357 157027.000000 0 0 1
24.016333 29.443237 15.943289 41.205302 0.886566 1.173504 0.100814 -0.036643 -264604.000000 0 0 1
24.125533 28.330307 16.838489 40.843388 0.865386 1.145852 0.081400 -0.026073 -203500.000000 0 0 1
25.182633 28.527317 17.758189 41.991977 0.847591 1.134159 0.086322 -0.034798 -345142.000000 0 0 1
26.072633 27.283347 17.894889 41.765898 0.808086 1.128012 0.052544 -0.019573 -597132.000000 0 0 1
25.503633 26.095237 18.332389 40.834706 0.796863 1.105216 0.044343 -0.007733 -401365.000000 0 0 1
25.322333 25.964687 19.718189 41.281866 0.797922 1.072821 0.080127 -0.010468 -200564.000000 0 0 1
24.790633 24.616237 20.195189 40.353194 0.781868 1.046665 0.076578 -0.008493 -203967.000000 0 0 1
25.707033 23.566747 20.212189 40.308506 0.741989 1.045537 0.041460 -0.003534 8086.600000 0 0 1
25.033933 22.408537 20.670789 39.447710 0.730116 1.019250 0.044108 -0.000794 343048.000000 0 0 1
25.860333 21.135837 20.348989 39.109612 0.685205 1.023586 0.016100 -0.008283 74897.600000 0 0 1
25.094533 19.961637 20.519989 38.069312 0.671965 1.001527 0.020730 0.011346 186583.000000 0 0 1
25.887033 18.800237 20.255989 37.866773 0.628121 1.006374 0.009522 -0.005529 313595.000000 0 0 1
26.778133 18.344537 21.453589 38.908186 0.600626 0.986767 0.029717 0.005259 116035.000000 0 0 1
26.035933 17.822837 22.584889 38.802069 0.600280 0.949544 0.018824 0.011839 233862.000000 0 0 1
26.857933 17.270137 23.603689 39.708190 0.571451 0.934241 0.040694 0.012766 -308217.000000 0 0 1
26.120133 16.464837 24.654689 39.512098 0.562438 0.896973 0.024495 0.022128 -334477.000000 0 0 1
25.604733 15.296337 24.146089 38.374652 0.538508 0.890247 0.035073 0.014714 389285.000000 0 0 1
24.564033 14.730137 24.938389 37.977518 0.540172 0.854412 0.039144 0.013535 162609.000000 0 0 1
23.965333 13.466437 24.276389 36.674585 0.511944 0.847392 0.046733 0.010106 -899922.000000 0 0 1
22.870433 13.074137 25.018989 36.330973 0.519321 0.811183 0.039602 0.001829 -570749.000000 0 0 1
22.283833 11.990137 24.376489 35.136104 0.493633 0.804081 0.044440 0.005825 -336042.000000 0 0 1
21.000233 11.359637 24.947089 34.531267 0.495852 0.763458 0.042232 0.001637 378485.000000 0 0 1
19.908533 12.275737 24.938889 34.190519 0.552541 0.753338 0.043092 -0.004079 358495.000000 0 0 1
18.633133 11.667937 24.844189 33.174812 0.559457 0.724415 0.050250 -0.000165 -9626.340000 0 0 1
17.479133 12.656737 24.888889 32.941917 0.626722 0.714320 0.045356 -0.011042 -444714.000000 0 0 1
17.140233 13.070737 26.193089 33.922112 0.651502 0.688573 0.059130 -0.001620 774785.000000 0 0 1
16.008633 13.965537 26.256189 33.774251 0.717342 0.680271 0.070249 -0.005356 183287.000000 0 0 1
15.709633 14.225137 27.748289 34.915822 0.735848 0.652251 0.056097 0.006580 -12709.500000 0 0 1
15.115333 13.070537 28.451389 34.767711 0.712978 0.612301 0.054571 0.007305 452171.000000 0 0 1
15.143933 13.276637 29.876989 36.031129 0.719790 0.593123 0.040724 0.005076 -542531.000000 0 0 1
16.532433 13.063237 30.500689 37.071033 0.668711 0.604540 0.047959 0.008266 -194740.000000 0 0 1
17.361633 14.189037 30.278989 37.677211 0.685179 0.637406 0.067995 -0.011204 -181951.000000 0 0 1
18.688733 13.806137 30.010889 37.954336 0.636256 0.658828 0.060831 0.005451 -659585.000000 0 0 1
19.586333 15.018337 29.698989 38.616121 0.654152 0.693392 0.074807 0.001958 -476057.000000 0 0 1
19.527833 15.563937 28.422889 37.834284 0.672917 0.720847 0.073824 -0.011030 329234.000000 0 0 1
20.000933 14.719037 27.386689 36.969151 0.634427 0.736538 0.067027 -0.005136 -449196.000000 0 0 1
19.802433 15.415737 26.026689 36.154804 0.661479 0.767184 0.046043 -0.005353 -460535.000000 0 0 1
20.871633 16.234737 25.619689 36.817933 0.661080 0.801196 0.041921 0.007451 -16450.200000 0 0 1
20.629233 17.046537 24.526889 36.300385 0.690590 0.828930 0.023769 0.001836 -103260.000000 0 0 1
21.925833 17.795937 24.140489 37.151053 0.681800 0.863484 0.034797 0.004250 -57582.200000 0 0 1
21.903033 18.513337 22.956989 36.735675 0.701725 0.895763 0.032367 -0.001258 -412318.000000 0 0 1
23.061633 19.245937 22.664789 37.628947 0.695452 0.924388 0.044232 -0.001750 -611952.000000 0 0 1
23.108633 20.654437 23.442989 38.861143 0.729378 0.923226 0.053361 -0.007872 -572736.000000 0 0 1
22.207133 21.504637 22.849489 38.440933 0.769328 0.934271 0.054018 -0.000841 -284553.000000 0 0 1
22.089933 22.659937 23.618789 39.487784 0.798135 0.929632 0.078241 -0.000759 280155.000000 0 0 1
21.133333 23.721297 22.980189 39.209779 0.843031 0.944580 0.077568 -0.009631 138417.000000 0 0 1
21.694733 24.427317 21.894189 39.328244 0.844576 0.980384 0.090961 -0.008350 118267.000000 0 0 1
20.836733 25.484867 21.534589 39.336833 0.885408 0.991493 0.092064 -0.016370 -262732.000000 0 0 1
21.373133 26.380277 20.446789 39.633332 0.889871 1.028740 0.095278 -0.018926 -338515.000000 0 0 1
21.487433 25.802617 19.171589 38.665678 0.876395 1.052006 0.091737 -0.014109 27872.800000 0 0 1
21.699133 26.820617 18.294189 39.049651 0.890563 1.083221 0.089099 -0.017371 -414037.000000 0 0 1
21.686433 26.465357 16.820789 38.126834 0.884321 1.113883 0.068020 -0.016225 -443548.000000 0 0 1
20.474633 26.036607 16.257789 36.897577 0.904416 1.114508 0.048374 -0.011242 -355824.000000 0 0 1
20.659933 25.870937 14.905089 36.308400 0.896924 1.147779 0.052590 -0.008800 -438316.000000 0 0 1
19.566233 25.000457 14.254489 34.800155 0.906734 1.148770 0.063300 -0.004739 732267.000000 0 0 1
18.276333 25.546417 14.031389 34.402379 0.949798 1.150686 0.048548 0.000989 369558.000000 0 0 1
17.401133 25.663147 15.172889 34.519750 0.974948 1.115707 0.043575 -0.013167 81107.800000 0 0 1
15.974033 26.041937 14.648789 33.881252 1.020585 1.123691 0.042783 -0.012361 -35670.900000 0 0 1
15.133333 24.969567 14.240189 32.485074 1.025925 1.117022 0.053769 -0.003319 422072.000000 0 0 1
14.565833 24.130737 15.280989 32.061887 1.027718 1.074003 0.067668 -0.009756 -1019250.000000 0 0 1
13.485333 24.763317 16.074889 32.457328 1.072132 1.052660 0.062853 -0.022416 -1773820.000000 0 0 1
13.957833 25.792807 16.923889 33.860124 1.074771 1.047408 0.065726 -0.025887 540240.000000 0 0 1
13.047733 26.079467 18.047089 34.294014 1.106903 1.016617 0.044712 -0.016982 629691.000000 0 0 1
13.496233 27.220687 19.008389 35.838987 1.110508 1.011744 0.043328 -0.026771 -499042.000000 0 0 1
13.613633 28.477547 18.317589 36.494325 1.124864 1.044968 0.036976 -0.014060 279490.000000 0 0 1
14.471833 29.426137 18.919589 37.858716 1.113729 1.047495 0.025091 -0.003513 -649699.000000 0 0 1
14.499633 30.726367 18.144789 38.517300 1.129884 1.080280 0.008498 -0.011381 432439.000000 0 0 1
13.215233 31.387907 18.235089 38.631096 1.172294 1.079203 0.006199 -0.000109 1180180.000000 0 0 1
13.245533 32.620120 17.535789 39.332179 1.185082 1.108686 0.009375 0.007438 356028.000000 0 0 1
11.816633 33.249767 17.686089 39.471225 1.229328 1.106185 0.020313 0.001577 353134.000000 0 0 1
11.468033 -34.037108 16.998589 39.736539 -1.245815 1.128758 0.028610 0.007930 129125.000000 0 0 1
12.020333 -32.765468 17.427489 39.010020 -1.219181 1.107674 0.021337 -0.003158 243.368000 0 0 1
11.845933 -32.388308 18.950989 39.350586 -1.220162 1.068324 0.032472 -0.018030 -445536.000000 0 0 1
12.740833 -33.159078 19.700589 40.619780 -1.203955 1.064433 0.043646 -0.012743 70593.600000 0 0 1
12.811933 -32.725118 21.042789 40.961909 -1.197638 1.031286 0.037722 -0.014268 -716684.000000 0 0 1
13.939633 -33.278618 21.925089 42.219537 -1.174124 1.024751 0.058918 -0.018318 -247499.000000 0 0 1
15.148633 -32.602118 21.562989 41.920659 -1.135825 1.030516 0.064842 -0.017117 65174.100000 0 0 1
16.181733 -33.042958 22.436689 43.093974 -1.115408 1.023189 0.064871 -0.012457 891407.000000 0 0 1
17.540733 -32.325148 22.049189 42.880756 -1.073626 1.030724 0.069230 -0.016209 775663.000000 0 0 1
17.589133 -30.974358 22.445689 42.102226 -1.054344 1.008508 0.086508 -0.023054 512146.000000 0 0 1
18.647433 -30.326678 21.731289 41.709508 -1.019503 1.022756 0.084287 -0.015472 151194.000000 0 0 1
-4.944567 13.228702 18.249427 23.075721 -1.213099 0.658600 0.021888 0.003751 -285314.000000 0 1 0
-4.739667 14.596502 18.003127 23.656604 -1.256824 0.705914 0.022924 0.004305 912383.000000 0 1 0
-6.010867 15.276502 17.978527 24.346036 -1.195931 0.740016 0.016593 0.001045 888854.000000 0 1 0
-5.788767 16.772802 17.701127 25.063252 -1.238468 0.786598 0.030982 -0.002792 -106140.000000 0 0 1
-5.241067 17.507502 18.795527 26.215515 -1.279926 0.771362 0.039904 -0.001787 87919.600000 0 0 1
-4.964467 18.837102 18.486727 26.855938 -1.313108 0.811562 0.044209 -0.007437 -202738.000000 0 0 1
-4.117067 19.427002 19.632527 27.924805 -1.361961 0.791119 0.031793 -0.004941 -269784.000000 0 0 1
-4.994067 19.744602 20.673427 29.020348 -1.323059 0.777917 0.023482 0.001602 -176113.000000 0 0 1
-4.370967 20.264502 21.782727 30.070627 -1.358355 0.760654 0.021520 0.003830 -51876.900000 0 0 1
-5.423967 20.656902 22.870327 31.291834 -1.314019 0.751198 0.005236 0.006996 482558.000000 0 0 1
-5.890067 19.516002 23.622287 31.202238 -1.277682 0.711979 0.002869 0.000883 -178785.000000 0 0 1
-6.416467 19.768502 24.885207 32.422804 -1.256944 0.695830 -0.009826 0.003489 -203898.000000 0 0 1
-5.424567 20.331602 25.902737 33.372919 -1.310065 0.682243 -0.015437 0.009624 -627173.000000 0 0 1
-5.099167 21.697902 25.606857 33.948661 -1.339977 0.716237 -0.002112 0.004507 1028640.000000 0 0 1
-3.898767 22.247002 26.207637 34.597250 -1.397309 0.711311 0.001220 0.011404 792414.000000 0 0 1
-2.515067 21.697902 25.887007 33.871251 -1.455398 0.700877 0.004956 0.012926 -776769.000000 0 0 1
-2.221267 20.462102 26.498937 33.553320 -1.462665 0.660385 0.014695 0.012555 -210360.000000 0 0 1
-0.852067 20.199502 26.268487 33.147840 -1.528639 0.655957 0.015189 0.012171 60872.300000 0 0 1
-0.412167 18.881002 26.922217 32.885679 -1.548970 0.611721 0.023009 0.013500 -144784.000000 0 0 1
-0.828867 17.735202 26.197707 31.647184 -1.524095 0.595612 0.026582 0.005832 -309715.000000 0 0 1
-0.266567 16.518002 26.598407 31.311191 -1.554660 0.555787 0.024617 0.005751 106357.000000 0 0 1
1.172833 16.198202 26.100997 30.741167 1.498517 0.556599 0.044203 0.002372 26816.400000 0 0 1
1.368333 15.822602 24.739667 29.398609 1.484531 0.570696 0.038114 -0.000257 -278233.000000 0 0 1
0.840733 14.579802 24.362837 28.404670 1.513196 0.540007 0.048122 -0.003352 -145958.000000 0 0 1
0.852033 14.426602 22.851427 27.037761 1.511805 0.563919 0.059501 -0.015672 934669.000000 0 0 1
2.189033 14.145902 22.364627 26.553247 1.417267 0.569342 0.065994 -0.020163 936194.000000 0 0 1
2.199533 13.846802 21.013727 25.261603 1.413265 0.588373 0.060441 -0.026094 -25403.000000 0 0 1
3.636633 13.727102 20.477627 24.919704 1.311822 0.606331 0.049234 -0.027599 142782.000000 0 1 0
4.353733 14.923502 20.321027 25.585348 1.286938 0.653033 0.052248 -0.024205 563463.000000 0 0 1
5.759333 14.679502 20.171427 25.603596 1.196912 0.663509 0.048861 -0.019377 989307.000000 0 0 1
6.551333 15.720202 19.331827 25.763622 1.175938 0.722199 0.056433 -0.026079 -46147.100000 0 0 1
6.205833 15.776502 17.976127 24.709341 1.196028 0.756120 0.051877 -0.029714 476483.000000 0 1 0
7.004433 16.710702 17.196927 24.980871 1.173884 0.811510 0.040074 -0.014531 338732.000000 0 1 0
6.882233 16.301802 15.662027 23.630763 1.171320 0.846269 0.034644 -0.007964 192455.000000 0 1 0
7.791133 15.360302 15.095327 22.902173 1.101385 0.851146 0.030833 -0.006228 185427.000000 0 1 0
7.858433 14.071302 15.723627 22.516415 1.061472 0.797751 0.041813 -0.012043 80307.100000 0 1 0
8.932533 13.213902 14.994227 21.891190 0.976363 0.816270 0.039555 -0.014441 -355731.000000 0 1 0
10.247833 13.590902 15.219627 22.833478 0.924726 0.841227 0.029340 -0.007693 -499657.000000 0 1 0
11.084233 13.169002 14.127927 22.268389 0.871146 0.883514 0.026159 -0.000184 662854.000000 0 1 0
12.518433 13.780002 14.185427 23.405682 0.833333 0.919689 0.020308 0.014924 -591583.000000 0 1 0
13.124933 13.366702 15.394127 24.246891 0.794524 0.882929 0.017945 0.005340 841331.000000 0 1 0
14.438333 13.936202 15.608727 25.422737 0.767703 0.909719 0.024901 0.013866 919273.000000 0 0 1
15.525933 13.270702 14.757327 25.198111 0.707242 0.945112 0.024524 0.011851 -2228330.000000 0 0 1
16.794933 13.800502 14.842427 26.321498 0.687837 0.971708 0.035222 -0.003554 -868641.000000 0 0 1
17.589033 13.097902 13.940627 25.985961 0.640077 1.004550 0.037997 -0.002875 -189621.000000 0 0 1
19.026233 13.651502 13.731927 27.146397 0.622381 1.040433 0.045592 -0.012410 600629.000000 0 0 1
19.924433 13.156402 14.719227 28.048700 0.583592 1.018347 0.032292 -0.009198 803103.000000 0 0 1
21.266933 13.615202 14.550027 29.143772 0.569459 1.048063 0.060632 -0.027693 433870.000000 0 0 1
22.238233 13.430202 15.730627 30.370412 0.543300 1.026333 0.052829 -0.016182 -393769.000000 0 0 1
22.498533 12.065502 15.953727 30.104513 0.492248 1.012261 0.059419 -0.015671 -534406.000000 0 0 1
23.494433 11.903202 16.861627 31.272816 0.468945 1.001335 0.038417 -0.014564 -956204.000000 0 0 1
23.758833 10.369002 16.995427 30.997466 0.411510 0.990485 0.053191 -0.004861 -389522.000000 0 0 1
22.650833 9.796902 17.626027 30.326825 0.408222 0.950591 0.027709 0.008280 124275.000000 0 0 1
22.588733 8.379002 17.530027 29.795308 0.355204 0.941781 0.024211 0.009164 674004.000000 0 0 1
21.288533 7.690402 18.117727 28.993033 0.346658 0.895794 0.040373 0.008662 615347.000000 0 0 1
21.393333 6.304502 18.140927 28.749168 0.286582 0.887946 0.044206 -0.001800 289635.000000 0 0 1
20.220033 5.701602 18.638327 28.084608 0.274842 0.845110 0.041778 0.001530 -265228.000000 0 0 1
19.902533 4.359502 17.970027 27.166854 0.215637 0.848021 0.057428 -0.005969 -946662.000000 0 0 1
19.327433 4.430002 16.693027 25.919717 0.225316 0.871044 0.061413 -0.020537 182570.000000 0 0 1
19.193833 3.178902 16.031027 25.209174 0.164131 0.881596 0.050735 -0.024705 -317828.000000 0 0 1
18.236733 2.172502 16.669227 24.802446 0.118569 0.833782 0.078539 -0.018177 -511126.000000 0 1 0
18.829733 1.352302 17.659127 25.850190 0.071694 0.818752 0.082381 -0.027576 -387309.000000 0 0 1
17.895533 0.984202 18.609627 25.836737 0.054942 0.766594 0.086544 -0.016728 -747938.000000 0 0 1
18.464833 0.210702 19.796727 27.072215 0.011410 0.750634 0.071576 -0.027419 -366513.000000 0 0 1
18.628033 -1.208998 19.511927 27.003344 -0.064811 0.763277 0.075074 -0.027657 -116190.000000 0 0 1
17.395633 -1.893298 19.612527 26.283908 -0.108411 0.728491 0.064083 -0.012140 46407.900000 0 0 1
17.405233 -3.361998 19.220527 26.147157 -0.190810 0.744996 0.037380 -0.012830 -183417.000000 0 0 1
17.253433 -3.511498 17.830227 25.058503 -0.200782 0.779103 0.048880 -0.025862 275483.000000 0 0 1
17.012933 -4.855698 17.490727 24.878570 -0.278020 0.791128 0.057378 -0.018438 -290531.000000 0 1 0
16.491633 -5.033598 16.062327 23.565004 -0.296240 0.820825 0.029056 -0.018150 2086.610000 0 1 0
15.124333 -4.694598 15.871627 22.420822 -0.300971 0.784280 0.019024 -0.010949 393071.000000 0 1 0
14.736033 -4.935798 14.513427 21.263874 -0.323203 0.819565 0.019278 -0.012308 265386.000000 0 1 0
15.287933 -3.844798 13.535727 20.777855 -0.246383 0.861303 0.023193 -0.010750 -176254.000000 0 1 0
14.823633 -2.558398 13.807027 20.418606 -0.170906 0.828206 0.023201 -0.009563 497770.000000 0 1 0
15.548433 -1.570798 13.080327 20.379306 -0.100685 0.873896 0.037909 -0.010139 217570.000000 0 1 0
14.681833 -0.302898 13.241927 19.773634 -0.020628 0.837024 0.035301 -0.006266 -79498.300000 0 1 0
15.101733 0.966402 12.742527 19.783030 0.063906 0.870932 0.041496 -0.007757 -363032.000000 0 1 0
16.045733 1.583302 13.545727 21.058469 0.098356 0.872069 0.054751 -0.018678 -452158.000000 0 1 0
16.256133 3.080202 13.146727 21.132580 0.187259 0.899365 0.053421 -0.017231 -262772.000000 0 1 0
15.181633 3.931902 13.444627 20.656714 0.253422 0.862080 0.051295 -0.009079 202745.000000 0 1 0
15.367833 5.191702 12.803527 20.665294 0.325791 0.902606 0.049196 -0.012496 -32123.800000 0 1 0
14.252133 6.223802 13.051927 20.303000 0.411733 0.872574 0.048516 -0.006424 -85339.600000 0 1 0
14.602833 7.393702 12.379827 20.522419 0.468691 0.923246 0.035326 -0.006230 666303.000000 0 1 0
13.557933 8.374202 12.426827 20.208187 0.553304 0.908486 0.021420 -0.001687 187814.000000 0 1 0
13.687133 9.321302 13.599627 21.428349 0.597878 0.883233 0.031363 -0.009592 -81513.800000 0 1 0
13.446033 8.732902 14.806727 21.824265 0.576008 0.825142 0.048594 -0.011371 347541.000000 0 1 0
13.776433 9.618802 15.897427 23.130924 0.609522 0.813058 0.053972 -0.015677 -62133.300000 0 1 0
13.329533 9.267302 17.333227 23.748686 0.607528 0.752679 0.061881 -0.008741 59731.500000 0 1 0
11.975533 9.476702 17.695127 23.373891 0.669437 0.712015 0.059182 -0.018483 26951.600000 0 1 0
11.546833 8.720702 18.813427 23.734469 0.646850 0.655632 0.078660 -0.013960 -59409.400000 0 1 0
12.155633 9.052202 20.236227 25.282536 0.640095 0.642829 0.098707 -0.010994 632097.000000 0 0 1
13.505033 8.541102 20.268427 25.809794 0.563930 0.667616 0.102455 -0.010110 893039.000000 0 0 1
14.180833 8.973902 21.462027 27.244184 0.564202 0.663623 0.091789 0.004520 131760.000000 0 0 1
15.694533 8.716102 21.382227 27.919320 0.506948 0.698422 0.080864 0.000704 261833.000000 0 0 1
16.460833 9.628002 20.584527 28.060296 0.529245 0.747219 0.096304 0.005710 708355.000000 0 0 1
17.458033 9.086802 19.714727 27.857195 0.479908 0.784549 0.070524 -0.000075 275798.000000 0 0 1
18.213933 10.155402 18.911327 28.151693 0.508631 0.834207 0.063478 -0.001237 42679.700000 0 0 1
19.067833 10.927702 19.763327 29.556488 0.520402 0.838387 0.057808 -0.003259 394731.000000 0 0 1
19.963033 11.678802 18.956427 29.904234 0.529333 0.884205 0.051034 0.000424 -403136.000000 0 0 1
20.951433 12.464602 19.762827 31.383087 0.536682 0.889593 0.037901 0.000537 -975485.000000 0 0 1
20.391133 13.657002 20.330227 31.868952 0.590136 0.878986 0.039155 -0.003148 295076.000000 0 0 1
21.121033 14.407802 21.329327 33.295990 0.598648 0.875520 0.011667 0.001474 267129.000000 0 0 1
22.427933 15.116802 20.876827 34.166823 0.593074 0.913440 0.012976 0.004108 742036.000000 0 0 1
23.520633 14.225202 20.641627 34.375184 0.543939 0.926694 0.003686 0.007923 313550.000000 0 0 1
24.778633 14.866402 20.768627 35.585480 0.540396 0.947609 0.017137 -0.002658 201804.000000 0 0 1
25.908433 13.809702 20.845827 36.006989 0.489713 0.953370 0.017894 -0.011946 -109187.000000 0 0 1
26.256533 13.247202 19.586327 35.334375 0.467265 0.983258 0.028657 -0.033706 892205.000000 0 0 1
27.409333 12.373402 19.656427 35.926978 0.424043 0.991875 0.039577 -0.042615 856422.000000 0 0 1
27.659633 11.725102 18.249227 35.150641 0.400944 1.024915 0.052884 -0.043623 -306871.000000 0 0 1
28.042233 12.644402 17.273327 35.279109 0.423607 1.059143 0.066091 -0.059342 48305.500000 0 0 1
28.242133 12.006402 15.986127 34.602428 0.401975 1.090554 0.076179 -0.057283 -2640.230000 0 0 1
26.997833 11.626602 15.124827 33.057847 0.406646 1.095585 0.070431 -0.052327 63397.600000 0 0 1
26.386433 12.747702 14.508827 32.699446 0.450049 1.111070 0.086161 -0.049472 45509.500000 0 0 1
25.353633 12.375302 13.624827 31.330348 0.454089 1.120895 0.088228 -0.042736 -78535.600000 0 0 1
24.869333 13.624602 12.794127 31.109535 0.501189 1.146960 0.080560 -0.032925 -254258.000000 0 0 1
24.134833 14.522102 13.584827 31.271858 0.541674 1.121413 0.070848 -0.030765 -80175.900000 0 0 1
24.190633 15.791802 12.982527 31.671971 0.578346 1.148445 0.047422 -0.012179 -194212.000000 0 0 1
23.062033 16.707302 13.492827 31.512659 0.626948 1.128328 0.050300 -0.012986 260449.000000 0 0 1
21.886133 16.722302 12.674627 30.319702 0.652438 1.139518 0.078750 -0.029267 280641.000000 0 0 1
21.024133 17.680202 13.240327 30.494425 0.699215 1.121659 0.062128 -0.015760 -1050610.000000 0 0 1
20.286633 18.502802 12.140627 30.021592 0.739443 1.154477 0.080969 -0.009283 374829.000000 0 0 1
19.237333 17.750502 11.517627 28.597395 0.745222 1.156276 0.091441 -0.003035 1215960.000000 0 0 1
18.011233 17.842802 12.322427 28.188868 0.780701 1.118382 0.073507 -0.001619 957274.000000 0 0 1
16.814233 17.172302 11.550427 26.664935 0.795933 1.122790 0.074494 0.007113 276643.000000 0 0 1
16.858233 15.770402 11.548227 25.812151 0.752071 1.106946 0.060508 0.008506 70370.200000 0 0 1
15.846433 15.283302 10.696727 24.476697 0.767310 1.118517 0.059084 0.004313 -120902.000000 0 1 0
15.974933 13.856402 10.136627 23.451003 0.714500 1.123813 0.060089 -0.003570 -243560.000000 0 1 0
15.928533 12.765202 11.061027 23.216693 0.675597 1.074212 0.043227 0.008615 503355.000000 0 1 0
16.029133 11.564802 10.255527 22.267770 0.625001 1.092176 0.029211 0.000596 -388008.000000 0 1 0
16.452433 10.294102 10.906527 22.262152 0.559094 1.058806 0.037721 -0.011757 -1297090.000000 0 1 0
16.813133 9.250802 10.047627 21.661338 0.503007 1.088459 0.018082 -0.013646 477938.000000 0 1 0
17.394033 8.075702 10.621927 21.922469 0.434666 1.064979 0.017787 -0.013938 290321.000000 0 1 0
18.725133 8.334902 11.380327 23.443827 0.418787 1.063942 0.033353 -0.015904 -405081.000000 0 1 0
18.417033 8.784102 12.697227 24.032626 0.445042 1.014160 0.034741 -0.017836 -797051.000000 0 1 0
19.515533 9.210602 13.387627 25.395270 0.440967 1.015529 0.044891 -0.025844 -1327380.000000 0 0 1
19.137233 9.469402 14.838327 26.001523 0.459492 0.963473 0.030947 -0.005231 260493.000000 0 0 1
18.707933 8.398602 15.708227 25.831602 0.421966 0.917130 0.035265 -0.007008 32540.500000 0 0 1
17.586233 7.692702 15.278727 24.533502 0.412350 0.898518 0.052635 -0.022788 -743315.000000 0 1 0
17.113733 6.584502 16.238827 24.493571 0.367291 0.846000 0.056202 -0.013146 -859012.000000 0 1 0
16.499333 7.001802 17.472227 25.030620 0.401336 0.798148 0.078858 -0.005737 710251.000000 0 0 1
15.750133 5.887902 18.018427 24.645441 0.357746 0.750855 0.078476 0.007257 557554.000000 0 1 0
14.490333 5.335802 17.293927 23.184487 0.352824 0.728871 0.092732 -0.021686 -666270.000000 0 1 0
14.093733 4.027802 17.616327 22.917056 0.278367 0.693991 0.099664 -0.013428 91841.200000 0 1 0
13.372433 3.533302 16.513827 21.540953 0.258319 0.697228 0.078212 -0.012422 -191576.000000 0 1 0
13.096233 2.016402 16.678727 21.301576 0.152768 0.671353 0.052852 -0.010561 455461.000000 0 1 0
14.262933 1.165902 16.652827 21.956940 0.081562 0.709894 0.048515 -0.012420 709980.000000 0 1 0
14.060833 -0.270598 16.644227 21.790148 -0.019242 0.701551 0.040702 -0.003269 -183570.000000 0 1 0
13.384033 -0.951798 17.852727 22.332893 -0.070995 0.644514 0.042481 -0.003153 753866.000000 0 1 0
11.982933 -0.698298 17.965927 21.606778 -0.058209 0.589003 0.035065 0.008559 702093.000000 0 1 0
11.264133 -1.653298 18.745027 21.931487 -0.145735 0.545807 0.025618 -0.005126 -37574.000000 0 1 0
-26.037657 14.656402 28.909147 41.575335 -0.512688 0.801898 0.074129 -0.017886 -699776.000000 0 0 1
-24.884067 14.390902 29.631077 41.283357 -0.524324 0.770233 0.073197 -0.019411 -273989.000000 0 0 1
-24.594067 13.011502 29.733707 40.721747 -0.486617 0.752229 0.069798 -0.012804 105733.000000 0 0 1
-23.295067 12.725202 30.533367 40.458342 -0.499969 0.715620 0.055760 -0.017228 271564.000000 0 0 1
-23.507167 12.972302 31.877807 41.678077 -0.504258 0.699976 0.054112 -0.023310 500172.000000 0 0 1
-22.238867 13.043902 32.519888 41.500045 -0.530461 0.670339 0.028182 -0.014314 137701.000000 0 0 1
-22.265367 13.240502 34.066615 42.797099 -0.536490 0.650134 0.025716 -0.005109 -284070.000000 0 0 1
-23.024067 12.246102 -33.823341 42.709403 -0.488827 2.484778 0.017886 -0.010619 81076.200000 0 0 1
-23.444467 12.654702 -32.522271 42.041440 -0.494958 2.455262 -0.002216 -0.003006 -81169.100000 0 0 1
-24.345367 11.630202 -31.791071 41.696891 -0.445663 2.437861 -0.002915 -0.014030 -273324.000000 0 0 1
-23.770867 10.594702 -31.043401 40.509191 -0.419273 2.443905 0.004618 -0.012951 -88430.100000 0 0 1
-23.294167 9.492302 -31.805271 40.549936 -0.386952 2.472441 0.005576 -0.016020 98146.200000 0 0 1
-22.476467 8.470602 -30.963521 39.187783 -0.360405 2.481821 0.017699 -0.005640 -150568.000000 0 0 1
-23.321167 7.799802 -30.051031 38.830120 -0.322757 2.455789 0.019923 -0.002675 155201.000000 0 0 1
-22.608767 6.906302 -29.192901 37.564329 -0.296468 2.460911 0.017490 -0.003986 -207330.000000 0 0 1
-23.376067 6.048802 -28.166931 37.099926 -0.253207 2.432907 0.026022 0.000162 11077.700000 0 0 1
-24.190967 5.010002 -28.725371 37.887332 -0.204215 2.431312 0.035900 -0.008243 436132.000000 0 0 1
-24.464967 4.020702 -27.764311 37.223079 -0.162889 2.412666 0.051600 0.002800 -417343.000000 0 0 1
-25.116057 2.783602 -28.349861 37.977354 -0.110379 2.413573 0.040401 0.003966 339964.000000 0 0 1
-26.518317 2.749602 -28.560511 39.070248 -0.103318 2.390589 0.032652 -0.008546 452317.000000 0 0 1
-26.975747 3.422502 -29.743931 40.300197 -0.126199 2.400986 0.022008 -0.008020 -313006.000000 0 0 1
-28.383997 3.071102 -30.241031 41.588495 -0.107779 2.384956 0.036909 -0.025079 -502327.000000 0 0 1
-29.446197 3.447302 -29.381261 41.739920 -0.116541 2.351688 0.035766 -0.023915 372385.000000 0 0 1
-30.711497 3.426902 -30.038891 43.096110 -0.111124 2.342031 0.055370 -0.026730 525339.000000 0 0 1
-30.980207 4.783402 -30.785501 43.936332 -0.153192 2.347153 0.063506 -0.035574 -422320.000000 0 0 1
-30.009027 5.195102 -31.759691 44.002372 -0.171419 2.377156 0.064189 -0.033548 182477.000000 0 0 1
-30.363987 6.368002 -32.443721 44.890068 -0.206726 2.378551 0.073900 -0.034594 -664630.000000 0 0 1
-29.896957 7.702402 -31.788381 44.313161 -0.252148 2.370798 0.054517 -0.023456 -88474.200000 0 0 1
-28.496297 7.851502 -31.649791 43.305823 -0.268856 2.390354 0.047076 -0.025041 315609.000000 0 0 1
-27.900727 7.297402 -30.463601 41.949179 -0.255818 2.383578 0.031180 -0.023562 -498063.000000 0 0 1
-27.863897 8.311102 -29.287171 41.269960 -0.289873 2.359796 0.022714 -0.009415 32814.400000 0 0 1
-29.068877 8.680102 -28.617001 41.704635 -0.290176 2.327025 0.034110 -0.016061 243148.000000 0 0 1
-29.587587 7.613902 -27.852911 41.342248 -0.251870 2.310021 0.028661 -0.000399 967520.000000 0 0 1
-30.950737 7.998002 -27.094611 41.905061 -0.252879 2.273878 0.019831 0.005274 1329220.000000 0 0 1
-30.751037 8.841302 -25.980831 41.216483 -0.279961 2.252801 0.009837 0.006242 -112419.000000 0 0 1
-30.599877 8.055402 -24.812611 40.210790 -0.257409 2.235802 0.016724 0.005557 -174182.000000 0 0 1
-30.216627 8.902302 -23.576711 39.346624 -0.286510 2.213305 0.018976 0.003013 -241113.000000 0 0 1
-31.155097 9.826602 -23.077511 39.997171 -0.305533 2.185821 0.027388 -0.000648 112337.000000 0 0 1
-30.428607 10.839802 -22.388711 39.302110 -0.342220 2.176884 0.028826 0.001794 -203633.000000 0 0 1
-31.298307 11.856802 -21.701311 39.888779 -0.362126 2.146047 0.023708 -0.000645 -525327.000000 0 0 1
-31.714427 11.297902 -20.501511 39.417755 -0.342222 2.117774 0.021569 0.000695 -63965.300000 0 0 1
-32.478957 12.172802 -19.728811 39.903455 -0.358587 2.087956 0.024524 0.000848 -180827.000000 0 0 1
-31.622357 12.996602 -18.749111 38.992490 -0.389948 2.072408 0.030856 -0.001079 -18895.100000 0 0 1
-31.075347 12.189702 -17.715211 37.790141 -0.373819 2.058704 0.060806 0.001444 460680.000000 0 0 1
-31.991437 11.812202 -16.670411 37.958962 -0.353703 2.025470 0.059091 0.001854 76136.100000 0 0 1
-32.292877 12.921602 -15.654811 38.142769 -0.380625 1.993718 0.045603 0.012658 -214231.000000 0 0 1
-33.036157 13.978302 -16.164611 39.345587 -0.400278 1.994168 0.026264 0.008075 635659.000000 0 0 1
-34.131976 14.421002 -15.315511 40.093914 -0.399757 1.962746 0.008178 0.010290 778200.000000 0 0 1
-34.773896 15.738102 -15.785911 41.305044 -0.425001 1.962949 0.000580 0.005583 33112.100000 0 0 1
-35.514156 15.528202 -16.958711 42.308134 -0.412192 1.983228 0.013113 -0.006580 5872.870000 0 0 1
-36.268857 16.660002 -17.386411 43.534733 -0.430600 1.981625 0.023835 -0.009019 -193047.000000 0 0 1
35.831221 16.364202 -18.805611 43.649909 0.428414 2.016207 0.034021 -0.006507 -353189.000000 0 0 1
34.788401 15.481602 -19.065111 42.583933 0.418706 2.034995 0.074808 -0.009866 534858.000000 0 0 1
33.507451 16.155802 -19.083711 41.808459 0.449270 2.044804 0.129150 -0.019632 698735.000000 0 0 1
32.333101 15.188402 -19.406811 40.653921 0.439154 2.068451 0.142324 -0.024441 -46743.700000 0 0 1
32.301681 14.608902 -20.737911 41.071640 0.424735 2.100086 0.141346 -0.025580 -38842.000000 0 0 1
31.499211 13.448802 -20.858311 40.101618 0.403527 2.117807 0.095965 -0.022833 -226564.000000 0 0 1
32.035091 12.130302 -20.288711 39.812349 0.361973 2.105526 0.083524 -0.005205 -302597.000000 0 0 1
32.089671 12.083802 -18.861011 39.134422 0.360141 2.073680 0.099274 -0.002790 51122.800000 0 0 1
32.732671 10.901002 -18.414511 39.106954 0.321479 2.061079 0.069792 -0.004689 -144256.000000 0 0 1
32.691281 10.794302 -16.850611 38.329883 0.318918 2.025973 0.058205 0.003676 -28291.400000 0 0 1
31.415731 10.444802 -16.340611 36.919610 0.320974 2.029292 0.066726 0.000036 209777.000000 0 0 1
31.397861 10.166102 -14.967611 36.238166 0.313131 1.996580 0.048539 0.002544 127824.000000 0 0 1
30.578811 11.171402 -14.091511 35.474422 0.350267 1.979293 0.074295 -0.005264 353939.000000 0 0 1
29.161031 11.113702 -14.085711 34.238682 0.364121 1.994783 0.077284 -0.009518 269874.000000 0 0 1
28.665831 12.111202 -13.232011 33.815636 0.399748 1.972839 0.095279 -0.013045 727025.000000 0 0 1
27.100221 12.057702 -13.115511 32.431879 0.418630 1.987121 0.096671 -0.011489 469024.000000 0 0 1
26.550321 10.869102 -12.547211 31.312768 0.388564 1.983084 0.078830 -0.017207 -251121.000000 0 0 1
25.308721 10.547002 -13.108511 30.390849 0.394848 2.016764 0.072759 0.002705 -1050400.000000 0 0 1
25.293621 9.971002 -14.561011 30.841712 0.375505 2.062491 0.059771 -0.016070 -1056370.000000 0 0 1
25.654421 8.615602 -14.692911 30.793824 0.323999 2.068192 0.054083 -0.011197 -523557.000000 0 0 1
27.030721 8.507002 -14.776411 31.958900 0.304902 2.051448 0.062601 -0.021554 -1351560.000000 0 0 1
27.611331 7.524802 -13.712011 31.733697 0.266065 2.017612 0.064174 -0.023047 -359361.000000 0 0 1
27.275621 6.151002 -13.869111 31.211322 0.221802 2.031258 0.058409 -0.026718 1216360.000000 0 0 1
25.992821 5.762102 -13.330311 29.774583 0.218153 2.034996 0.065893 -0.020059 464740.000000 0 0 1
25.784421 4.214302 -13.341511 29.335859 0.162011 2.042927 0.064540 -0.020921 -492322.000000 0 0 1
24.889821 3.892502 -12.329211 28.047535 0.155133 2.025930 0.071685 -0.018819 -139948.000000 0 0 1
24.495321 2.545102 -12.425311 27.584174 0.103530 2.038066 0.063626 -0.019303 501258.000000 0 0 1
23.620221 2.109402 -11.170811 26.213574 0.089069 2.011025 0.051433 -0.014989 564069.000000 0 0 1
24.479821 1.761702 -10.096111 26.538589 0.071842 1.961059 0.057907 -0.013272 1125130.000000 0 0 1
23.729521 1.595102 -8.880811 25.387070 0.067119 1.928171 0.062293 0.000339 -39859.100000 0 0 1
24.691321 1.334602 -7.647711 25.883006 0.053999 1.870746 0.078188 0.001095 243476.000000 0 0 1
24.985421 0.026802 -7.273911 26.022717 0.001073 1.854092 0.067600 -0.006451 184747.000000 0 0 1
25.702721 -0.665798 -8.234211 26.997693 -0.025898 1.880731 0.062334 -0.011079 -918027.000000 0 0 1
26.064721 -2.122598 -7.832911 27.298894 -0.081256 1.861818 0.069827 -0.020791 -346887.000000 0 0 1
26.925221 -2.385398 -6.747011 27.860004 -0.088363 1.815404 0.081490 -0.023238 413277.000000 0 0 1
26.872921 -3.746798 -6.327011 27.860787 -0.138533 1.799889 0.096862 -0.026277 -1254750.000000 0 0 1
28.073371 -4.171998 -5.558411 28.920852 -0.147531 1.764194 0.089214 -0.025048 -1054840.000000 0 0 1
29.243601 -4.306798 -6.334011 30.230058 -0.146222 1.781887 0.076252 -0.017416 -66827.400000 0 0 1
30.341381 -4.632998 -5.521511 31.185753 -0.151525 1.748787 0.090355 -0.015557 -7495.530000 0 0 1
31.622701 -4.900098 -6.353611 32.624754 -0.153732 1.766797 0.090405 -0.015574 62283.900000 0 0 1
31.434401 -6.097198 -7.114811 32.801188 -0.191587 1.789441 0.078155 -0.011848 -85519.800000 0 0 1
32.275541 -6.124598 -8.223311 33.865087 -0.187530 1.816074 0.075755 -0.022869 -1101850.000000 0 0 1
31.717961 -6.989798 -9.404711 33.813236 -0.216907 1.852650 0.065112 -0.019692 1067920.000000 0 0 1
30.432901 -6.610298 -9.959811 32.696412 -0.213887 1.880330 0.062861 -0.017295 1138010.000000 0 0 1
29.390331 -7.089398 -9.091711 31.570720 -0.236694 1.862912 0.063023 -0.011766 225858.000000 0 0 1
28.125251 -6.123098 -9.201711 30.219093 -0.214363 1.880210 0.063149 -0.015141 227013.000000 0 0 1
27.388621 -6.264298 -10.405911 29.960991 -0.224851 1.925503 0.048564 -0.012125 531217.000000 0 0 1
26.274621 -5.378498 -10.334111 28.741570 -0.201914 1.938585 0.069945 -0.014292 503258.000000 0 0 1
24.899521 -5.995398 -9.991011 27.490931 -0.236286 1.942743 0.092275 -0.007512 -631895.000000 0 0 1
24.926821 -6.533698 -8.653211 27.182967 -0.256348 1.894766 0.087378 -0.016530 909598.000000 0 0 1
23.669021 -7.117798 -8.281311 26.066564 -0.292119 1.894098 0.080759 -0.015378 409171.000000 0 0 1
22.746121 -6.117098 -7.539011 24.731389 -0.262714 1.880562 0.097897 -0.012427 -390160.000000 0 1 0
22.283821 -5.173798 -8.470711 24.394463 -0.228135 1.925422 0.092875 -0.014028 137337.000000 0 1 0
21.933821 -3.928698 -7.915511 23.647040 -0.177237 1.912121 0.085868 -0.014217 -51519.800000 0 1 0
21.646021 -2.920798 -9.033811 23.636646 -0.134125 1.962967 0.072938 -0.011239 -501081.000000 0 1 0
22.752021 -2.885598 -9.865311 24.966087 -0.126155 1.977026 0.063936 -0.009598 174826.000000 0 1 0
22.472621 -2.141298 -11.020311 25.120731 -0.094998 2.024941 0.057999 -0.009810 -613043.000000 0 0 1
23.620221 -2.168298 -12.020511 26.591522 -0.091542 2.039851 0.058294 -0.014193 -21113.700000 0 0 1
24.722721 -1.370798 -11.545711 27.320240 -0.055390 2.007116 0.047222 -0.017770 63468.900000 0 0 1
25.848721 -1.610398 -12.295511 28.669311 -0.062220 2.014042 0.046207 -0.017688 -578999.000000 0 0 1
27.019321 -0.632698 -11.909311 29.534314 -0.023412 1.985847 0.045110 -0.010528 801633.000000 0 0 1
28.291051 -1.067298 -12.470411 30.935964 -0.037708 1.985702 0.041910 -0.017782 1392720.000000 0 0 1
29.392871 -0.257998 -12.088411 31.782655 -0.008777 1.960967 0.053013 -0.016184 -28797.900000 0 0 1
29.418551 1.185702 -12.558311 32.008877 0.040283 1.973969 0.060941 -0.015243 -1001080.000000 0 0 1
29.678161 1.171802 -13.941411 32.810506 0.039463 2.009655 0.047072 -0.017491 362961.000000 0 0 1
29.753811 2.391502 -14.500611 33.185483 0.080204 2.023009 0.051616 -0.018844 -102584.000000 0 0 1
30.143101 2.358602 -15.991111 34.203585 0.078088 2.057288 0.047453 -0.005347 -215665.000000 0 0 1
29.140051 1.848802 -16.834211 33.703877 0.063360 2.093788 0.041232 -0.008219 -163729.000000 0 0 1
29.533651 1.777902 -18.203911 34.738738 0.060127 2.122364 0.036730 -0.008831 -149688.000000 0 0 1
28.554311 0.956302 -19.107711 34.371032 0.033478 2.160272 0.025167 -0.004482 263445.000000 0 0 1
28.487661 -0.463498 -18.882511 34.180563 -0.016269 2.156078 0.023487 -0.009546 -72490.100000 0 0 1
28.116591 -1.108898 -20.069111 34.562141 -0.039419 2.190345 0.020840 -0.005029 -79934.600000 0 0 1
27.827841 -2.599098 -20.040811 34.391542 -0.093129 2.192874 0.027135 -0.012815 -90862.600000 0 0 1
26.620121 -2.966798 -19.405511 33.075771 -0.110991 2.197772 0.027146 -0.014587 165280.000000 0 0 1
26.219321 -4.292098 -19.488411 32.949554 -0.162261 2.203667 0.031601 -0.017665 -132621.000000 0 0 1
27.000921 -5.256698 -18.542911 33.174119 -0.192281 2.163924 0.021840 -0.016556 1147130.000000 0 0 1
28.430051 -5.152498 -18.759311 34.448916 -0.179288 2.146654 0.013341 -0.011817 870799.000000 0 0 1
29.077351 -5.616598 -17.590411 34.445045 -0.190811 2.106772 0.017896 -0.012108 303916.000000 0 0 1
30.620201 -5.419498 -17.764411 35.812596 -0.175177 2.089826 0.025554 -0.006692 396196.000000 0 0 1
31.103351 -6.380998 -18.683011 36.840067 -0.202347 2.102658 0.017099 -0.008412 -504824.000000 0 0 1
32.425051 -6.211998 -19.100011 38.141622 -0.189287 2.095279 0.029322 -0.005001 -412577.000000 0 0 1
32.949221 -7.526998 -19.736511 39.138686 -0.224589 2.099334 0.023893 0.000259 -166199.000000 0 0 1
33.361821 -8.447398 -18.748911 39.190450 -0.247993 2.069634 0.030741 -0.009371 89316.000000 0 0 1
33.875331 -9.605498 -19.423511 40.212889 -0.276302 2.074893 0.029998 0.000106 -439318.000000 0 0 1
34.723571 -10.479798 -18.511911 40.721535 -0.293113 2.042717 0.048050 0.001888 -95459.100000 0 0 1
33.994401 -10.996098 -17.341511 39.714752 -0.312846 2.022670 0.027310 0.001392 1283890.000000 0 0 1
34.906631 -11.626698 -16.399011 40.281269 -0.321522 1.990087 0.050980 -0.013175 539812.000000 0 0 1
36.025901 -10.825898 -15.654911 40.744839 -0.291918 1.965157 0.064041 -0.015915 -137963.000000 0 0 1
-35.981799 -11.505298 -14.552711 40.482628 0.309479 1.938507 0.066691 -0.021576 406063.000000 0 0 1
-35.341824 -12.786698 -14.634311 40.332459 0.347149 1.942112 0.080513 -0.015430 -472534.000000 0 0 1
-33.946577 -12.740098 -15.273711 39.344205 0.359032 1.969482 0.088746 -0.017642 -684397.000000 0 0 1
-33.941737 -12.284598 -16.605811 39.732931 0.347265 2.001968 0.088674 -0.013183 -315806.000000 0 0 1
-32.669707 -12.483598 -17.167811 38.960027 0.364994 2.027121 0.104046 -0.009644 -139152.000000 0 0 1
-32.422617 -11.652198 -18.457611 39.085589 0.345011 2.062622 0.106223 -0.005820 223855.000000 0 0 1
-32.459627 -10.266398 -18.306311 38.654202 0.306327 2.064161 0.106634 -0.012009 841541.000000 0 0 1
-33.786147 -9.818298 -18.623711 39.808860 0.282812 2.057628 0.091819 -0.011403 494369.000000 0 0 1
-34.057126 -8.338298 -18.304611 39.553430 0.240109 2.051927 0.092609 -0.012093 -168075.000000 0 0 1
-35.439108 -8.133498 -18.498611 40.795622 0.225599 2.041424 0.073308 -0.017706 -79920.500000 0 0 1
-35.800851 -6.882098 -17.998411 40.657189 0.189916 2.029389 0.064407 -0.016492 -158201.000000 0 0 1
24.224733 27.326802 -26.994231 45.412336 0.845500 2.207347 0.037494 0.014326 132334.000000 0 0 1
24.820133 26.328002 -26.191481 44.667621 0.814870 2.197359 0.034238 0.003640 -77127.200000 0 0 1
26.105133 25.937702 -26.627871 45.423406 0.782181 2.197175 0.040647 -0.000238 -187771.000000 0 0 1
26.855833 25.076802 -25.645951 44.808443 0.751155 2.180161 0.042015 0.001462 -606895.000000 0 0 1
27.258333 25.747902 -24.502811 44.792398 0.756911 2.149609 0.041746 0.005481 200255.000000 0 0 1
27.642633 24.864902 -23.434311 43.949351 0.732546 2.133189 0.043638 0.003701 -4062.900000 0 0 1
28.427033 25.479902 -22.241711 44.181617 0.730782 2.098343 0.041047 0.009626 -238649.000000 0 0 1
27.669133 26.249802 -21.361811 43.714528 0.759081 2.081357 0.038419 0.013117 61397.400000 0 0 1
28.407033 26.581402 -20.183011 43.827895 0.752210 2.049362 0.032805 0.012000 248380.000000 0 0 1
27.736333 27.764402 -19.447211 43.799089 0.785904 2.030865 0.044567 0.011526 50982.500000 0 0 1
26.595233 27.355502 -18.717411 42.496722 0.799489 2.026889 0.048551 0.006151 -24884.600000 0 0 1
25.817833 28.491802 -18.431411 42.638717 0.834594 2.017804 0.054738 0.003365 166330.000000 0 0 1
24.591333 28.233702 -17.514511 41.335622 0.854241 2.008339 0.060809 0.002636 343084.000000 0 0 1
23.573333 27.428002 -18.090411 40.438351 0.860835 2.034605 0.064069 0.002738 -37648.100000 0 0 1
22.428733 27.473102 -17.273911 39.448794 0.886142 2.024038 0.055608 0.002225 -66462.100000 0 0 1
21.345733 26.429002 -17.646211 38.282126 0.891400 2.049864 0.050883 -0.005325 -358223.000000 0 0 1
20.874833 26.740602 -18.902611 38.834613 0.907971 2.079158 0.048914 -0.002993 -492401.000000 0 0 1
20.202933 25.616902 -19.399311 37.956784 0.903011 2.107248 0.035688 -0.000605 -312657.000000 0 0 1
19.429133 25.749602 -20.695211 38.325252 0.924395 2.141220 0.029640 0.001080 156955.000000 0 0 1
18.319633 26.589702 -20.503211 38.249220 0.967508 2.136539 0.021187 -0.000976 221052.000000 0 0 1
17.353333 26.646202 -21.593011 38.437174 0.993543 2.167325 0.016569 -0.005798 1417120.000000 0 0 1
16.172633 27.655602 -21.274611 38.457710 1.041638 2.156991 0.012776 -0.002606 395704.000000 0 0 1
15.355133 27.249802 -20.210511 37.239717 1.057651 2.144461 0.018101 -0.004761 -340287.000000 0 0 1
14.562033 28.323402 -19.782511 37.491541 1.095905 2.126631 0.003949 -0.000698 -22603.300000 0 0 1
14.056133 28.280802 -18.341311 36.520984 1.109535 2.096952 0.003016 -0.000850 -232950.000000 0 0 1
13.217833 27.223402 -18.043111 35.233203 1.118790 2.108430 0.003060 0.003160 -730537.000000 0 0 1
12.680033 27.403402 -16.772411 34.540461 1.137417 2.077831 0.019882 0.001653 -127482.000000 0 0 1
11.781133 26.218602 -16.460111 33.123186 1.148489 2.090861 0.033047 -0.002006 -397275.000000 0 0 1
12.581733 25.086602 -16.156711 32.383281 1.105924 2.093150 0.013570 -0.001782 109334.000000 0 0 1
11.810333 23.893002 -15.912111 31.041179 1.111718 2.109022 0.036835 -0.004020 108311.000000 0 0 1
12.604933 22.607602 -16.040911 30.451581 1.062173 2.125590 0.016975 -0.001751 -209498.000000 0 0 1
13.160433 22.562102 -17.306911 31.333283 1.042748 2.155976 0.027865 0.003988 -741779.000000 0 0 1
13.827733 21.349302 -17.585911 30.923505 0.996047 2.175710 0.032310 0.004861 -220078.000000 0 0 1
13.013333 20.056702 -17.923911 29.881176 0.995246 2.214097 0.033181 0.007198 91017.500000 0 0 1
12.414333 19.547002 -16.733311 28.569295 1.004966 2.196552 0.041836 -0.000128 -123763.000000 0 0 1
11.981733 18.190402 -16.762811 27.485350 0.988340 2.226708 0.039226 0.000727 171083.000000 0 0 1
13.108433 17.113302 -16.809911 27.336225 0.917147 2.233096 0.038048 0.002016 116425.000000 0 0 1
13.761633 16.909702 -15.574611 26.793452 0.887679 2.191102 0.047712 -0.007329 -252498.000000 0 0 1
14.733833 15.925702 -15.717511 26.790931 0.824253 2.197741 0.046657 -0.005405 -1265010.000000 0 0 1
15.083433 15.249302 -14.379111 25.822664 0.790866 2.161374 0.063564 -0.008388 -874570.000000 0 0 1
15.810833 15.920502 -13.352311 26.109941 0.788854 2.107596 0.045229 -0.003777 900099.000000 0 0 1
17.061133 16.532302 -13.705111 27.426799 0.769657 2.094046 0.027350 0.001941 664899.000000 0 0 1
18.184133 15.506402 -14.184611 27.790545 0.706085 2.106459 0.025832 -0.000474 -533343.000000 0 0 1
18.699333 14.691002 -13.166211 27.181606 0.665925 2.076450 0.048105 -0.012016 -681398.000000 0 0 1
19.808433 15.236402 -12.557211 27.967937 0.655669 2.036426 0.050336 -0.008231 -1137120.000000 0 0 1
20.664333 14.073102 -11.977211 27.722201 0.597883 2.017554 0.064025 -0.017194 -480273.000000 0 0 1
19.998033 13.316002 -10.959211 26.407225 0.587448 1.998748 0.108961 -0.021770 259613.000000 0 0 1
20.607533 12.122902 -10.484611 26.106747 0.531754 1.984066 0.121050 -0.013180 -290153.000000 0 0 1
20.575833 10.941602 -11.495311 25.985106 0.488739 2.029048 0.087506 -0.012437 -826791.000000 0 0 1
21.312733 11.132702 -12.668211 27.178175 0.481367 2.055693 0.067134 0.004730 176065.000000 0 0 1
21.345733 10.069902 -13.612811 27.246135 0.440795 2.093960 0.058949 0.006518 -202825.000000 0 0 1
22.138433 8.809502 -13.177311 27.227909 0.378719 2.075975 0.055172 0.011543 -698547.000000 0 0 1
21.493633 8.128602 -12.104011 25.972245 0.361561 2.055602 0.061344 -0.001203 542821.000000 0 0 1
22.176133 6.989402 -11.628111 25.997030 0.305322 2.034525 0.063771 0.031799 -827446.000000 0 0 1
22.213733 5.670902 -12.446011 26.086630 0.249949 2.068152 0.064431 0.017846 -616894.000000 0 0 1
21.129533 4.804302 -12.302311 24.917571 0.223573 2.087159 0.055537 0.001716 252913.000000 0 1 0
19.932933 5.206602 -12.961911 24.340124 0.255497 2.132386 0.005654 -0.015988 -255372.000000 0 1 0
19.039633 3.983702 -13.135211 23.471499 0.206257 2.164728 0.013463 -0.030538 -22716.800000 0 1 0
19.720733 3.136802 -14.080211 24.433567 0.157740 2.184948 0.022115 -0.025262 571288.000000 0 1 0
19.275533 1.835202 -14.001211 23.894519 0.094923 2.196859 0.043971 -0.018832 -961056.000000 0 1 0
20.118733 0.868402 -14.788811 24.984525 0.043137 2.204234 0.058281 -0.016022 -494704.000000 0 1 0
21.327533 0.714202 -14.043611 25.545973 0.033475 2.152848 0.077240 -0.007319 640643.000000 0 0 1
22.457433 0.334702 -14.821911 26.909800 0.014903 2.154118 0.053659 -0.018145 13926.100000 0 0 1
22.543633 -1.157798 -15.346811 27.296163 -0.051313 2.167880 0.052368 -0.016037 -575706.000000 0 0 1
21.576133 -1.525898 -16.325311 27.099329 -0.070604 2.217332 0.050660 -0.011019 341569.000000 0 0 1
22.088233 -2.536298 -17.182611 28.099199 -0.114325 2.228749 0.047043 -0.015330 -71333.100000 0 0 1
21.015233 -3.245398 -18.030211 27.879403 -0.153220 2.274075 0.048734 -0.014583 -705842.000000 0 0 1
20.141833 -3.992998 -17.294511 26.846556 -0.195707 2.270771 0.054494 -0.010690 -799265.000000 0 0 1
19.237533 -4.627398 -18.126311 26.833908 -0.236056 2.312439 0.045551 -0.010420 -614945.000000 0 0 1
18.400533 -5.675198 -17.409511 25.959171 -0.299169 2.305881 0.042972 -0.011153 -209591.000000 0 0 1
19.162733 -6.817598 -17.032111 26.528905 -0.341809 2.267928 0.048271 -0.005828 700232.000000 0 0 1
18.327433 -7.857698 -16.607311 25.950742 -0.405034 2.265236 0.048214 -0.001266 478927.000000 0 0 1
19.293733 -8.902698 -15.945211 26.566067 -0.432318 2.214560 0.051548 -0.001242 918590.000000 0 0 1
20.137933 -9.686698 -16.784411 27.947897 -0.448347 2.214999 0.059374 -0.010373 220687.000000 0 0 1
20.902033 -10.573398 -16.054711 28.397984 -0.468321 2.171650 0.061432 -0.014573 -701179.000000 0 0 1
21.669033 -11.555898 -16.943111 29.835462 -0.489924 2.174730 0.054305 -0.014144 -238012.000000 0 0 1
22.861233 -11.084798 -17.543911 30.875517 -0.451473 2.175131 0.052219 -0.006783 179324.000000 0 0 1
23.413733 -12.028698 -18.440611 32.139518 -0.474583 2.181895 0.065010 -0.009884 -631943.000000 0 0 1
22.709533 -11.987598 -19.845911 32.454362 -0.485691 2.228754 0.070385 -0.011076 353151.000000 0 0 1
21.381733 -12.487498 -19.789411 31.697585 -0.528591 2.245056 0.061854 -0.009468 187959.000000 0 0 1
21.240633 -13.873198 -19.778511 32.168612 -0.578582 2.232978 0.057309 -0.011287 182348.000000 0 0 1
19.714133 -14.193398 -19.707111 31.280502 -0.623997 2.252366 0.047576 -0.009115 767693.000000 0 0 1
18.965633 -13.946798 -20.888311 31.472686 -0.634073 2.296546 0.039311 -0.000121 -553876.000000 0 0 1
17.588033 -14.082798 -20.653511 30.565203 -0.675170 2.312737 0.046806 -0.001547 -339760.000000 0 0 1
16.762533 -13.574998 -21.831811 30.690244 -0.680713 2.362228 0.048194 -0.002945 -399301.000000 0 0 1
16.727433 -14.388298 -23.018111 31.885162 -0.710364 2.377350 0.044400 -0.007109 301231.000000 0 0 1
16.400433 -13.597498 -24.110511 32.174258 -0.692231 2.417911 0.057929 -0.018690 -200138.000000 0 0 1
16.499233 -14.351498 -25.458231 33.560568 -0.715893 2.431921 0.060400 -0.025306 -259476.000000 0 0 1
15.402933 -15.198498 -25.728301 33.618301 -0.778718 2.442314 0.059120 -0.025758 -269.122000 0 0 1
15.298933 -15.871198 -26.999671 34.855911 -0.803756 2.456892 0.062847 -0.027605 -336620.000000 0 0 1
16.246433 -17.043998 -27.232001 36.000366 -0.809351 2.428644 0.061830 -0.022885 -985400.000000 0 0 1
17.612733 -16.835498 -27.281541 36.577655 -0.762840 2.412610 0.059312 -0.016992 -861843.000000 0 0 1
18.337433 -18.039298 -27.366491 37.557989 -0.777203 2.387140 0.053148 -0.008229 -608955.000000 0 0 1
19.825733 -17.765498 -27.253241 38.097398 -0.730647 2.367931 0.035401 0.000794 -761674.000000 0 0 1
20.192933 -17.142798 -26.003601 37.118962 -0.703884 2.346961 0.037010 0.003023 430036.000000 0 0 1
21.610933 -17.074798 -25.839961 37.766185 -0.668675 2.324315 0.020896 0.008645 702890.000000 0 0 1
22.095333 -16.554798 -24.422911 36.861140 -0.643017 2.295035 0.037175 0.012071 176518.000000 0 0 1
21.965533 -15.188598 -24.092311 35.966896 -0.604981 2.304799 0.035425 0.008919 342824.000000 0 0 1
20.603633 -14.802498 -23.905511 34.858243 -0.622996 2.326488 0.058375 -0.000119 518491.000000 0 0 1
20.654133 -13.388898 -23.229211 33.844528 -0.575139 2.327255 0.057481 0.000577 -141419.000000 0 0 1
20.986333 -12.392598 -24.189811 34.338748 -0.533411 2.352439 0.061714 -0.001985 247128.000000 0 0 1
20.599233 -11.159598 -23.655311 33.293224 -0.496486 2.361025 0.064366 -0.009360 -65307.400000 0 0 1
20.495333 -9.972898 -24.697511 33.607803 -0.452865 2.396278 0.080335 -0.012743 -188274.000000 0 0 1
20.475533 -8.763298 -24.036911 32.769131 -0.404399 2.394287 0.077834 -0.010720 179531.000000 0 0 1
20.398733 -7.755198 -24.975211 33.166437 -0.363305 2.423446 0.064820 -0.005172 -209922.000000 0 0 1
19.847433 -6.452198 -24.338411 32.061031 -0.314313 2.432768 0.060573 -0.011967 537093.000000 0 0 1
18.492433 -6.554398 -23.864511 30.894095 -0.340622 2.453505 0.068088 -0.012861 612935.000000 0 0 1
18.139133 -5.663198 -22.765111 29.653840 -0.302620 2.446033 0.048924 -0.011748 125972.000000 0 0 1
18.725933 -5.962198 -21.351611 29.018954 -0.308244 2.397616 0.040575 -0.015007 -84883.100000 0 0 1
18.120233 -7.029298 -20.584211 28.310133 -0.370054 2.384880 0.044667 -0.016019 292467.000000 0 0 1
18.059233 -8.315598 -21.182911 29.051692 -0.431520 2.387869 0.050674 -0.011947 -21242.600000 0 0 1
17.784833 -9.485698 -20.169111 28.514414 -0.489977 2.356511 0.047445 -0.013766 104510.000000 0 0 1
16.488033 -9.455998 -19.620811 27.317528 -0.520711 2.372080 0.040077 -0.015121 -428510.000000 0 0 1
16.174733 -10.639498 -18.909411 27.062645 -0.581829 2.344413 0.046785 -0.007749 -598804.000000 0 0 1
14.734633 -10.549398 -18.426711 25.844591 -0.621357 2.364537 0.051530 -0.013572 -586752.000000 0 0 1
14.532933 -9.753998 -17.244211 24.570499 -0.591110 2.348754 0.063523 -0.015001 185782.000000 0 1 0
14.564333 -8.318498 -17.463111 24.213167 -0.518940 2.376364 0.075970 -0.028485 -378050.000000 0 1 0
13.238833 -7.600598 -17.174411 22.978168 -0.521168 2.414971 0.061908 -0.017024 -432472.000000 0 1 0
12.146933 -7.680598 -18.032711 23.059016 -0.563837 2.468704 0.056312 -0.020807 -241801.000000 0 1 0
11.204633 -6.735298 -17.592311 21.917971 -0.541241 2.502510 0.044875 -0.017325 -1492340.000000 0 1 0
9.787133 -6.784298 -18.019511 21.599015 -0.606138 2.557612 0.061501 -0.012638 -1222230.000000 0 1 0
9.523133 -6.360298 -19.368611 22.500812 -0.588841 2.607628 0.053295 -0.021429 -456579.000000 0 1 0
8.134933 -6.191098 -19.460711 21.982405 -0.650536 2.657905 0.059099 -0.026792 -100818.000000 0 1 0
7.725333 -5.772098 -20.920211 23.035909 -0.641684 2.709656 0.062951 -0.029982 131278.000000 0 1 0
7.760133 -6.765198 -21.909111 24.207369 -0.717008 2.702316 0.068892 -0.022055 -106358.000000 0 1 0
6.970333 -6.392498 -23.007011 24.875131 -0.742183 2.751569 0.070190 -0.026281 -57499.000000 0 1 0
6.837833 -7.499898 -24.082311 26.133544 -0.831542 2.742746 0.069802 -0.027858 -127448.000000 0 0 1
6.257333 -8.699698 -23.612511 25.930477 -0.947262 2.715550 0.074908 -0.028130 -14461.200000 0 0 1
6.104533 -9.573398 -24.688111 27.173850 -1.003148 2.710536 0.069034 -0.017715 -360936.000000 0 0 1
5.400533 -10.907298 -24.525011 27.379026 -1.111052 2.680932 0.068318 -0.016343 -112703.000000 0 0 1
6.051833 -11.878198 -23.733411 27.221151 -1.099585 2.629812 0.071950 -0.025667 207575.000000 0 0 1
5.168833 -12.970098 -23.522411 27.354051 -1.191567 2.605918 0.081963 -0.027076 -172528.000000 0 0 1
5.848533 -14.023498 -22.649511 27.273874 -1.175677 2.550706 0.093331 -0.026166 30558.800000 0 0 1
6.929933 -14.788898 -23.190811 28.364577 -1.132591 2.528023 0.070432 -0.015990 1134400.000000 0 0 1
8.205033 -14.111198 -23.236711 28.397064 -1.044124 2.529206 0.068458 -0.019503 644467.000000 0 0 1
8.977633 -13.925198 -21.935911 27.489875 -0.998153 2.494705 0.057997 -0.011261 -773609.000000 0 0 1
9.346333 -15.052398 -21.126411 27.572702 -1.015136 2.443715 0.052886 0.003238 267572.000000 0 0 1
8.376833 -15.546398 -20.216811 26.843645 -1.076571 2.423607 0.052548 0.000106 -96165.100000 0 0 1
8.976533 -15.746398 -18.833011 26.138277 -1.052676 2.375341 0.049761 0.000142 26193.200000 0 0 1
10.085933 -16.609098 -18.818311 27.050268 -1.025060 2.340161 0.053925 0.000939 -477770.000000 0 0 1
10.482433 -17.108898 -17.559811 26.663510 -1.021099 2.289714 0.042581 -0.006507 -306487.000000 0 0 1
9.455933 -17.828898 -16.618611 26.143116 -1.083148 2.259683 0.052132 -0.015188 -110279.000000 0 0 1
9.161133 -19.201398 -16.971011 27.214615 -1.125630 2.244135 0.051592 -0.015885 -35042.000000 0 0 1
8.395633 -19.407898 -18.156811 27.871544 -1.162516 2.280285 0.065507 -0.007477 802839.000000 0 0 1
6.840633 -19.270998 -17.943111 27.205163 -1.229700 2.291014 0.073806 -0.007613 611343.000000 0 0 1
6.338333 -17.979498 -17.701111 26.014730 -1.231868 2.319141 0.074599 -0.012412 492343.000000 0 0 1
4.910933 -17.925898 -17.710211 25.673073 -1.303400 2.332059 0.081597 -0.015304 552847.000000 0 0 1
4.419433 -16.502498 -17.605711 24.532120 -1.309133 2.371232 0.064068 -0.003960 -116879.000000 0 1 0
4.748233 -15.998398 -16.340711 23.356226 -1.282283 2.345676 0.046499 -0.009990 120472.000000 0 1 0
4.319833 -14.685598 -16.210811 22.296147 -1.284711 2.384838 0.031701 0.003709 86422.300000 0 1 0
10.893533 30.429402 -18.070911 37.029385 1.227018 2.080611 0.020819 -0.007034 -513726.000000 0 0 1
10.023833 29.760802 -18.890211 36.647273 1.245917 2.112341 0.042294 -0.008417 -326656.000000 0 0 1
9.075733 28.943902 -18.215111 35.382321 1.266943 2.111580 0.034379 -0.006480 561593.000000 0 0 1
8.006233 28.254902 -19.109111 35.037086 1.294677 2.147659 0.048877 -0.012608 349922.000000 0 0 1
7.037133 29.140002 -19.624611 35.829964 1.333839 2.150427 0.053020 -0.021892 16383.500000 0 0 1
6.317933 28.634102 -20.756711 35.925884 1.353632 2.186784 0.055594 -0.023433 917783.000000 0 0 1
5.326633 29.691102 -21.417011 36.994904 1.393283 2.188197 0.062495 -0.023242 602835.000000 0 0 1
4.444333 30.232902 -20.425811 36.755873 1.424839 2.160020 0.050768 -0.028362 264647.000000 0 0 1
3.394733 30.946102 -21.085711 37.600434 1.461535 2.166128 0.049111 -0.034014 -1020300.000000 0 0 1
2.043333 30.829202 -20.343411 36.992827 1.504614 2.153075 0.074938 -0.035349 521624.000000 0 0 1
1.297533 29.592802 -20.605111 36.083072 1.526978 2.178576 0.074466 -0.040532 389931.000000 0 0 1
0.917433 29.532702 -21.927211 36.794357 1.539741 2.209231 0.093442 -0.047334 -1301870.000000 0 0 1
0.220533 28.191002 -22.361411 35.983523 1.562974 2.241369 0.092967 -0.047601 610792.000000 0 0 1
-1.038367 27.944602 -21.750911 35.427124 -1.533655 2.231867 0.098884 -0.048033 250261.000000 0 0 1
-1.607367 26.710202 -22.162111 34.744462 -1.510691 2.262513 0.107061 -0.048631 508017.000000 0 0 1
-2.720567 26.204002 -21.171911 33.797944 -1.467344 2.247756 0.089876 -0.049336 387514.000000 0 0 1
-3.890167 26.968002 -21.283511 34.574476 -1.427533 2.233924 0.074807 -0.045169 580129.000000 0 0 1
-5.021167 26.431802 -20.544911 33.851819 -1.383066 2.222960 0.077704 -0.045242 442575.000000 0 0 1
-6.198267 27.359002 -20.354111 34.658669 -1.348004 2.198482 0.077233 -0.055611 -690419.000000 0 0 1
-7.270667 26.696002 -19.758111 33.998854 -1.304895 2.190926 0.072566 -0.030595 -560867.000000 0 0 1
-8.062267 27.592102 -18.973911 34.443193 -1.286516 2.154209 0.063937 -0.039691 650378.000000 0 0 1
-9.350567 26.956002 -18.362311 33.929834 -1.236901 2.142642 0.076271 -0.024602 325397.000000 0 0 1
-9.207367 25.929902 -17.378011 32.544288 -1.229597 2.134098 0.078639 -0.034519 544882.000000 0 0 1
-10.480667 25.314002 -17.056311 32.273221 -1.178257 2.127626 0.055647 -0.025922 1005500.000000 0 0 1
-10.395267 24.523902 -15.780011 30.959523 -1.169872 2.105630 0.056758 -0.014388 336971.000000 0 0 1
-9.699567 23.236302 -15.783811 29.717604 -1.175354 2.130726 0.070552 -0.018340 33666.400000 0 0 1
-9.697067 22.715902 -14.449011 28.615017 -1.167331 2.100115 0.089764 -0.007970 -300218.000000 0 0 1
-8.965267 21.378202 -14.219011 27.195290 -1.173708 2.120985 0.091586 0.001576 -250227.000000 0 0 1
-9.602367 20.134102 -14.590811 26.654817 -1.125782 2.150049 0.064419 0.001732 -208575.000000 0 0 1
-9.956267 19.955402 -15.999111 27.446619 -1.108008 2.193111 0.069152 0.011704 -308574.000000 0 0 1
-8.852667 19.914102 -17.048711 27.669473 -1.152490 2.234649 0.063175 0.003660 -937.760000 0 0 1
-8.092867 18.692202 -16.991111 26.525285 -1.162208 2.266027 0.060560 0.006169 294769.000000 0 0 1
-7.057267 18.659202 -17.976011 26.853451 -1.209206 2.304213 0.061616 0.004139 562950.000000 0 0 1
-6.608967 17.240702 -18.361011 26.039335 -1.204738 2.353397 0.040497 0.002733 542715.000000 0 0 1
-7.730167 16.461602 -18.786111 26.146850 -1.131773 2.372418 0.041385 0.001105 58878.100000 0 0 1
-7.477467 15.617402 -19.898311 26.377235 -1.124260 2.425497 0.044533 -0.006569 893533.000000 0 0 1
-6.310667 14.520802 -19.871011 25.407386 -1.160827 2.468818 0.041159 -0.004032 652858.000000 0 0 1
-6.484667 13.316702 -19.090811 24.162875 -1.117637 2.481750 0.014795 -0.003477 1415760.000000 0 1 0
-5.176367 12.750702 -18.743411 23.252755 -1.185156 2.508282 0.025053 0.002161 1598020.000000 0 1 0
-4.421967 13.364102 -17.560611 22.506179 -1.251252 2.465873 0.018192 0.008748 -86730.700000 0 1 0
-3.922967 14.694002 -17.793011 23.407149 -1.309904 2.434345 0.019648 0.002602 -303413.000000 0 1 0
-3.331667 15.161302 -16.596111 22.724348 -1.354486 2.389591 0.013152 0.014664 618601.000000 0 1 0
-2.416167 16.446302 -16.688211 23.554513 -1.424927 2.358157 0.025090 0.006223 572693.000000 0 1 0
-3.195767 17.609202 -16.934011 24.638540 -1.391267 2.328559 0.027999 0.002104 -197122.000000 0 1 0
-2.411667 18.779702 -16.943511 25.408186 -1.443077 2.300773 0.040745 -0.002080 143789.000000 0 0 1
-3.039367 20.037402 -17.647311 26.873087 -1.420259 2.287219 0.055393 -0.001050 324731.000000 0 0 1
-3.199067 19.918502 -19.050111 27.746846 -1.411548 2.327555 0.060835 -0.006327 -61734.600000 0 0 1
-3.828567 21.122902 -19.597111 29.066848 -1.391491 2.310689 0.078836 -0.012419 526644.000000 0 0 1
-2.938867 22.410702 -19.830011 30.068353 -1.440404 2.290947 0.073228 -0.023254 -478000.000000 0 0 1
-1.994867 22.190202 -20.851411 30.515011 -1.481139 2.323092 0.091009 -0.020295 -228383.000000 0 0 1
-0.798767 22.904002 -20.642311 30.843741 -1.535936 2.304001 0.088199 -0.026439 730665.000000 0 0 1
0.257933 22.372602 -19.609211 29.750983 1.559268 2.290433 0.089736 -0.026297 24039.600000 0 0 1
-0.238267 22.475502 -18.275211 28.968747 -1.560196 2.253457 0.077138 -0.020362 129703.000000 0 0 1
0.774233 22.125102 -17.313211 28.104570 1.535817 2.234487 0.078998 -0.020567 419822.000000 0 0 1
0.279033 22.284302 -15.884011 27.367312 1.558275 2.190017 0.080372 -0.014188 43690.900000 0 0 1
-0.547267 21.205202 -15.499711 26.271679 -1.544994 2.201828 0.062425 -0.003085 -300260.000000 0 0 1
-0.541567 21.124202 -14.082411 25.393690 -1.545165 2.158635 0.077042 -0.006990 -34266.000000 0 0 1
-1.402567 19.965002 -13.577011 24.184783 -1.500660 2.166857 0.048272 0.003402 -47974.300000 0 1 0
-0.952267 18.630202 -13.740411 23.168732 -1.519727 2.205648 0.039637 0.001089 -267875.000000 0 1 0
-1.784567 17.711602 -13.046011 22.069978 -1.470378 2.203243 0.022049 0.001334 174540.000000 0 1 0
-1.341367 16.251502 -13.233611 21.000929 -1.488445 2.252535 0.007592 0.007591 -415945.000000 0 1 0
-0.382367 15.910802 -12.249211 20.083401 -1.546769 2.226752 0.004785 0.001002 19663.200000 0 1 0
-0.062867 14.540502 -12.159111 18.954528 -1.566473 2.267233 0.003903 -0.000522 -26345.300000 0 1 0
0.577733 13.788302 -13.349811 19.200742 1.528921 2.339600 0.007570 -0.010004 23697.700000 0 1 0
-0.208267 13.647802 -14.591811 19.980661 -1.555537 2.389553 0.010231 -0.010697 1037530.000000 0 1 0
0.546733 12.820102 -15.528011 20.143809 1.528176 2.450983 0.009792 -0.013818 538400.000000 0 1 0
-0.215467 12.801202 -16.902611 21.204138 -1.553966 2.493336 0.017099 -0.005612 220786.000000 0 1 0
-0.303167 14.042602 -17.557611 22.484579 -1.549211 2.466859 0.021002 -0.010134 24554.300000 0 1 0
-0.531867 13.843402 -18.992311 23.508095 -1.532395 2.511385 0.035341 -0.012208 -159051.000000 0 1 0
-0.940867 15.145102 -19.759111 24.913487 -1.508753 2.486693 0.047803 -0.005352 -102199.000000 0 1 0
0.045833 16.155702 -19.801211 25.555758 1.567959 2.457233 0.040310 -0.013643 -166790.000000 0 0 1
-0.522167 17.415302 -20.048211 26.561178 -1.540822 2.426136 0.078720 -0.022080 288448.000000 0 0 1
0.547333 18.496202 -20.394311 27.537919 1.541213 2.404744 0.096526 -0.029346 360692.000000 0 0 1
1.117033 18.309002 -21.665611 28.387779 1.509862 2.439051 0.092933 -0.037046 -322031.000000 0 0 1
1.807533 19.472002 -22.071111 29.488302 1.478234 2.416548 0.095166 -0.029457 107662.000000 0 0 1
2.421433 19.305302 -23.488011 30.499913 1.446020 2.449796 0.109539 -0.043219 1115220.000000 0 0 1
3.526233 18.358702 -23.605711 30.111557 1.381033 2.471786 0.092189 -0.033918 673656.000000 0 0 1
3.720933 18.110602 -24.965911 31.066637 1.368160 2.504157 0.085696 -0.039438 192552.000000 0 0 1
4.752433 16.978402 -25.130991 30.698835 1.297871 2.529818 0.062860 -0.026857 281307.000000 0 0 1
6.040733 17.196902 -24.539111 30.567824 1.232992 2.502732 0.049783 -0.016181 632906.000000 0 0 1
7.007733 16.213502 -24.864811 30.499915 1.162830 2.523943 0.043323 -0.013575 300341.000000 0 0 1
7.460333 15.957402 -26.336351 31.684359 1.133472 2.552077 0.037476 -0.020416 -774703.000000 0 0 1
8.446433 16.906902 -26.824221 32.813479 1.107481 2.527811 0.018896 -0.014187 659120.000000 0 0 1
8.823233 16.825902 -28.187231 33.992358 1.087832 2.548512 0.030779 -0.019929 152407.000000 0 0 1
9.425233 15.476902 -28.613821 33.869164 1.023795 2.577051 0.038008 -0.021686 -880911.000000 0 0 1
10.692333 15.201602 -28.087221 33.679470 0.957813 2.557036 0.052632 -0.015981 -368457.000000 0 0 1
11.050333 13.861902 -28.312011 33.404074 0.897782 2.582170 0.042563 -0.003366 -79960.200000 0 0 1
10.548933 12.783302 -27.286861 31.925939 0.880870 2.595755 0.041331 -0.006107 -176462.000000 0 0 1
9.179933 12.496602 -27.382831 31.468328 0.937228 2.626346 0.049642 -0.007893 -409254.000000 0 0 1
8.619633 11.966102 -26.186701 30.053768 0.946551 2.628699 0.064865 -0.008241 -41083.800000 0 0 1
7.104733 11.767002 -26.200831 29.587550 1.027599 2.658442 0.062455 -0.020594 -290115.000000 0 0 1
6.319733 12.889302 -25.981991 29.683952 1.114932 2.636826 0.071515 -0.007984 481092.000000 0 0 1
5.010633 12.525802 -25.484141 28.834764 1.190268 2.654718 0.084876 -0.024093 963583.000000 0 0 1
3.819533 13.380702 -25.892101 29.394437 1.292740 2.648452 0.092066 -0.019874 -517080.000000 0 0 1
3.510233 13.428602 -27.306271 30.631381 1.315118 2.671326 0.083300 -0.018063 637340.000000 0 0 1
4.313033 14.454102 -27.974331 31.781858 1.280813 2.647076 0.086419 -0.010899 602335.000000 0 0 1
4.001333 14.420802 -29.492071 33.071928 1.300136 2.672006 0.089262 -0.016687 144547.000000 0 0 1
4.739533 13.364702 -30.087341 33.261487 1.230002 2.701166 0.083626 -0.018898 76774.100000 0 0 1
4.441333 13.172102 -31.410951 34.349346 1.245590 2.724957 0.082377 -0.020544 -918443.000000 0 0 1
5.374133 12.114302 -31.999361 34.635195 1.153262 2.748940 0.088235 -0.006485 364617.000000 0 0 1
6.747733 12.486902 -32.207581 35.196348 1.075365 2.726510 0.073973 -0.003806 1279040.000000 0 0 1
7.582833 12.545902 -31.021591 34.310904 1.027143 2.700140 0.069517 -0.004846 -177089.000000 0 0 1
7.752133 11.261602 -30.218651 33.167546 0.967919 2.716719 0.073133 -0.003554 -806631.000000 0 0 1
8.757633 10.404602 -30.672251 33.552032 0.871136 2.724251 0.058071 0.002199 -279459.000000 0 0 1
8.503433 9.114602 -30.122761 32.600078 0.820074 2.749232 0.070256 -0.006974 -182175.000000 0 0 1
9.661033 8.122302 -30.405221 32.920887 0.699087 2.748123 0.067800 -0.006545 720807.000000 0 0 1
10.663733 8.212202 -29.365021 32.302630 0.656245 2.711818 0.063421 -0.010463 297537.000000 0 0 1
11.598033 7.165302 -29.487961 32.486855 0.553407 2.708540 0.043036 -0.004569 -574516.000000 0 0 1
12.698033 7.102602 -28.396411 31.906789 0.509991 2.668098 0.031033 0.012223 557282.000000 0 0 1
13.554633 5.965502 -28.309811 31.949346 0.414597 2.659624 0.041910 0.000316 46520.400000 0 0 1
14.431333 5.831402 -29.390171 33.257342 0.384018 2.654548 0.034189 0.004083 -1294210.000000 0 0 1
15.323633 4.612202 -29.242761 33.335045 0.292361 2.640874 0.032890 -0.003896 -74782.400000 0 0 1
16.338333 4.715002 -28.245471 32.969365 0.280952 2.599670 0.027494 -0.004014 426757.000000 0 0 1
17.112533 3.521102 -28.210461 33.182330 0.202929 2.587095 0.041239 -0.018522 -157358.000000 0 0 1
17.858933 3.431402 -26.882751 32.456098 0.189826 2.546828 0.042076 -0.015924 123349.000000 0 0 1
18.870633 4.446902 -26.809521 33.085135 0.231430 2.515493 0.068166 -0.015553 548618.000000 0 0 1
19.289233 4.732002 -25.451391 32.283737 0.240568 2.478944 0.068301 -0.013578 286740.000000 0 0 1
20.298233 5.913002 -25.333811 32.996725 0.283462 2.446146 0.050842 -0.010460 -52502.400000 0 0 1
19.689333 7.150002 -25.518771 33.015149 0.348333 2.454260 0.048523 -0.007543 561316.000000 0 0 1
20.566233 8.212602 -26.045201 34.187268 0.379924 2.436944 0.038759 -0.018688 65548.600000 0 0 1
20.956133 8.217702 -27.548201 35.575181 0.373711 2.456508 0.086083 -0.011924 -543064.000000 0 0 1
20.002233 8.477302 -28.537721 35.865798 0.400869 2.490927 0.065242 -0.004718 -257207.000000 0 0 1
19.341933 7.236102 -28.897741 35.518319 0.357994 2.521115 0.055175 -0.004513 -505514.000000 0 0 1
17.949033 7.426602 -29.487701 35.310717 0.392312 2.559097 0.044045 0.000138 -741679.000000 0 0 1
17.922633 8.297302 -30.634091 36.448779 0.433572 2.568946 0.034828 0.010920 658583.000000 0 0 1
16.653433 8.930902 -30.809651 36.143221 0.492249 2.591416 0.024430 0.016011 834812.000000 0 0 1
15.824433 8.610302 -32.099161 36.809049 0.498313 2.630162 0.017305 0.022469 275319.000000 0 0 1
15.295333 7.309302 -32.144921 36.341011 0.445794 2.656294 0.028209 0.013094 476963.000000 0 0 1
14.173233 7.299602 -33.040831 36.685981 0.475597 2.692034 0.027133 0.015273 741852.000000 0 0 1
13.547733 5.892002 -33.278211 36.410110 0.410232 2.723790 0.033267 0.007156 97918.000000 0 0 1
13.094533 5.157302 -32.186741 35.129060 0.375195 2.729395 0.048088 -0.000765 138022.000000 0 0 1
12.376433 4.022102 -32.638401 35.137140 0.314214 2.762190 0.048483 -0.012663 119870.000000 0 0 1
11.987533 2.957202 -31.622681 33.947606 0.241861 2.769351 0.051565 -0.014904 647094.000000 0 0 1
13.143533 2.221302 -31.190031 33.919090 0.167421 2.737710 0.056308 -0.021191 702604.000000 0 0 1
12.815033 1.173802 -30.297261 32.916970 0.091341 2.739936 0.053878 -0.020734 56201.300000 0 0 1
12.250733 -0.106698 -31.009161 33.341564 -0.008709 2.765332 0.053057 -0.022140 297864.000000 0 0 1
13.200133 -0.889798 -31.708851 34.358208 -0.067306 2.746316 0.062728 -0.023954 1241150.000000 0 0 1
14.140233 -1.724498 -30.885281 34.012067 -0.121358 2.709445 0.058600 -0.025382 1056580.000000 0 0 1
14.548233 -3.063398 -31.545281 34.873202 -0.207537 2.701168 0.068470 -0.025530 554321.000000 0 0 1
13.463533 -3.963198 -31.851911 34.806866 -0.286279 2.726563 0.071276 -0.031390 781360.000000 0 0 1
13.910333 -5.033198 -32.649441 35.844336 -0.347176 2.716178 0.073455 -0.032088 1212740.000000 0 0 1
12.702733 -6.091898 -32.574091 35.490028 -0.447174 2.733395 0.068618 -0.030009 1217140.000000 0 0 1
12.540533 -6.682498 -31.320201 34.392961 -0.489598 2.715669 0.072368 -0.033481 177680.000000 0 0 1
12.387833 -8.105498 -31.392041 34.707604 -0.579400 2.700936 0.083866 -0.034805 -62710.400000 0 0 1
12.261633 -8.913998 -30.091341 33.694151 -0.628607 2.674926 0.085601 -0.035920 1160370.000000 0 0 1
13.478633 -8.847298 -29.257261 33.405622 -0.580857 2.637925 0.064710 -0.032970 1553010.000000 0 0 1
13.492633 -9.540498 -28.025791 32.534862 -0.615468 2.608832 0.065624 -0.035211 -277049.000000 0 0 1
13.498733 -11.093798 -28.121561 33.107557 -0.687917 2.585644 0.072143 -0.033387 -999050.000000 0 0 1
12.346833 -11.680398 -28.572811 33.245774 -0.757669 2.604973 0.067850 -0.033990 -803941.000000 0 0 1
12.604633 -13.047698 -28.726631 33.975558 -0.802668 2.578314 0.060727 -0.040929 -251259.000000 0 0 1
-10.237967 -3.491498 -17.858111 20.878665 0.328665 2.596980 0.015489 0.009386 70580.700000 0 1 0
-10.789867 -2.763098 -18.950711 21.981479 0.250695 2.610239 0.018365 0.001149 377820.000000 0 1 0
-11.821467 -3.633498 -19.431911 23.033640 0.298199 2.574808 0.025121 0.004987 -731718.000000 0 1 0
-12.700667 -3.070098 -20.515411 24.323128 0.237178 2.574475 0.030059 -0.006855 -223385.000000 0 1 0
-13.618267 -2.011298 -20.212511 24.455023 0.146631 2.543690 0.030944 -0.005830 381168.000000 0 1 0
-14.295067 -1.536098 -21.355611 25.744333 0.107046 2.549056 0.035933 0.000012 546504.000000 0 0 1
-15.203167 -0.297398 -21.014511 25.939052 0.019559 2.515203 0.042808 0.005437 383861.000000 0 0 1
-14.411267 0.861402 -20.923611 25.420939 -0.059702 2.537619 0.032980 -0.003184 210268.000000 0 0 1
-15.193567 2.011102 -20.556711 25.641127 -0.131600 2.500945 0.035129 0.003800 147209.000000 0 0 1
-14.770167 3.321902 -21.297711 26.130162 -0.221225 2.523633 0.042030 -0.004924 744601.000000 0 0 1
-13.471567 3.828802 -20.962911 25.210841 -0.276912 2.552606 0.045863 -0.007169 688985.000000 0 0 1
-13.035967 4.915602 -21.727211 25.810294 -0.360593 2.571413 0.046815 -0.010793 -80767.900000 0 0 1
-11.742367 5.527402 -21.152311 24.816439 -0.439953 2.591260 0.023861 -0.009294 -153793.000000 0 1 0
-11.979067 6.176702 -19.902611 24.036714 -0.476069 2.546343 0.030932 -0.012492 -165565.000000 0 1 0
-10.833467 6.442502 -19.159811 22.933997 -0.536502 2.559716 0.017044 -0.007833 -551088.000000 0 1 0
-11.210067 6.972702 -17.731111 22.106028 -0.556442 2.501590 0.025136 -0.007405 2166.810000 0 1 0
-11.732867 8.274002 -17.758311 22.835869 -0.614206 2.461715 0.014910 -0.008378 155350.000000 0 1 0
-12.709067 8.411002 -16.762811 22.655180 -0.584634 2.403734 0.027697 -0.003261 -206254.000000 0 1 0
-13.465267 9.761002 -16.608511 23.503898 -0.627244 2.355518 0.030449 -0.005460 -281074.000000 0 1 0
-12.738167 10.793402 -15.998611 23.123883 -0.702941 2.334866 -0.000239 0.002274 356861.000000 0 1 0
-13.467567 12.031402 -16.112611 24.202195 -0.729135 2.299295 0.016752 -0.005066 290007.000000 0 1 0
-12.702767 13.265902 -15.517211 24.044298 -0.807080 2.272290 0.025697 0.005665 -201864.000000 0 1 0
-12.647667 13.056902 -14.138511 23.029192 -0.801318 2.231837 0.046910 -0.007584 351182.000000 0 1 0
-12.013767 14.185502 -13.443211 22.940771 -0.868102 2.196906 0.049527 -0.011470 -1036350.000000 0 1 0
-12.604867 14.534302 -12.041511 22.696400 -0.856373 2.130042 0.043094 -0.016468 261354.000000 0 1 0
-13.910867 15.098502 -12.070511 23.815420 -0.826315 2.102307 0.039656 -0.010657 696814.000000 0 1 0
-14.903667 14.123102 -12.447311 24.010765 -0.758513 2.115782 0.039683 -0.009155 -756254.000000 0 1 0
-16.183767 14.227002 -11.557611 24.451999 -0.721142 2.063109 0.032719 -0.010931 106577.000000 0 1 0
-17.234467 13.464502 -12.084311 24.987001 -0.663206 2.075587 0.030908 -0.007733 -719878.000000 0 1 0
-18.463867 13.862402 -11.570511 25.825516 -0.644004 2.035353 0.084050 -0.006613 -986162.000000 0 0 1
-19.668867 13.405702 -12.358811 26.820093 -0.598249 2.049697 0.071135 -0.006259 -813490.000000 0 0 1
-19.994067 12.083902 -12.191711 26.351873 -0.543630 2.051779 0.073943 -0.008548 201413.000000 0 0 1
-21.237267 11.878502 -12.844311 27.515389 -0.509973 2.056470 0.095880 -0.006210 392023.000000 0 0 1
-22.100667 10.691802 -12.314111 27.466187 -0.450585 2.035700 0.085373 -0.014403 246984.000000 0 0 1
-21.342067 9.473302 -12.340111 26.410332 -0.417752 2.056969 0.075922 -0.014775 751495.000000 0 0 1
-22.057267 8.307202 -11.873411 26.391486 -0.360190 2.037445 0.080667 -0.014866 426672.000000 0 0 1
-21.088067 7.065502 -11.747011 25.151942 -0.323292 2.056739 0.083652 -0.014732 380484.000000 0 0 1
-20.767667 6.432002 -12.941211 25.301020 -0.300343 2.107714 0.080815 -0.013830 437229.000000 0 0 1
-19.696767 5.512402 -12.799611 24.128391 -0.272882 2.129962 0.076366 -0.015624 94545.300000 0 1 0
-19.640267 4.406202 -13.866911 24.442707 -0.220691 2.174048 0.076954 -0.016546 -211845.000000 0 1 0
-20.606167 3.391402 -13.717811 24.985878 -0.163120 2.151991 0.076553 -0.023801 118391.000000 0 1 0
-20.209967 2.181202 -14.256911 24.828611 -0.107511 2.182439 0.081562 -0.029999 -460782.000000 0 1 0
-21.179767 1.076602 -13.910411 25.362199 -0.050788 2.151330 0.085999 -0.027816 518685.000000 0 0 1
-22.417567 1.006902 -14.640911 26.793982 -0.044886 2.148886 0.076919 -0.028527 948826.000000 0 0 1
-23.013567 -0.266698 -14.507211 27.205782 0.011588 2.133222 0.075156 -0.030258 -369982.000000 0 0 1
-24.363067 -0.470998 -15.183611 28.711025 0.019330 2.128033 0.079043 -0.035561 -400924.000000 0 0 1
-25.506087 0.092202 -14.596911 29.387732 -0.003615 2.090590 0.104342 -0.042426 -397331.000000 0 0 1
-26.687287 -0.375098 -15.173111 30.701389 0.014054 2.087729 0.090307 -0.029188 -161595.000000 0 0 1
-27.941567 0.189202 -14.462011 31.462942 -0.006771 2.048400 0.088060 -0.027921 -115739.000000 0 0 1
-28.163787 -0.537898 -13.279311 31.142067 0.019097 2.011317 0.102978 -0.027280 628996.000000 0 0 1
-29.436577 -0.129498 -12.755211 32.081525 0.004399 1.979682 0.125927 -0.032192 673579.000000 0 0 1
-29.719687 -0.776198 -11.299411 31.804701 0.026111 1.934004 0.121963 -0.032694 -102112.000000 0 0 1
-29.964367 -2.135398 -11.125511 32.034360 0.071144 1.925486 0.126487 -0.023531 703633.000000 0 0 1
-28.984897 -3.014098 -11.710711 31.406207 0.103616 1.952906 0.119719 -0.031529 106353.000000 0 0 1
-29.081447 -4.505098 -11.269611 31.512388 0.153691 1.936520 0.114469 -0.029510 242802.000000 0 0 1
-30.318287 -5.129098 -11.640611 32.878717 0.167588 1.932691 0.109962 -0.024163 808171.000000 0 0 1
-30.586297 -6.449298 -11.088711 33.167372 0.207812 1.911686 0.102139 -0.024259 -99531.000000 0 0 1
-29.865227 -7.625498 -11.780811 32.997993 0.249989 1.935868 0.095632 -0.027595 1053400.000000 0 0 1
-28.449797 -7.650698 -11.520711 31.633067 0.262704 1.943568 0.079670 -0.018185 972832.000000 0 0 1
-27.709237 -8.696098 -12.079311 31.453676 0.304100 1.964959 0.073890 -0.020973 553191.000000 0 0 1
-26.231837 -8.813098 -11.585111 29.999913 0.324121 1.967274 0.083576 -0.024745 281874.000000 0 0 1
-25.341397 -7.825698 -12.083011 29.144933 0.299520 1.998282 0.079334 -0.012779 967526.000000 0 0 1
-24.011267 -7.908098 -11.553511 27.795010 0.318161 1.999474 0.091758 -0.014653 497643.000000 0 0 1
-23.758767 -7.606798 -10.026611 26.886341 0.309855 1.952957 0.084802 -0.015546 -728434.000000 0 0 1
-24.037567 -6.267798 -9.593611 26.629444 0.255071 1.939346 0.084296 -0.008659 691375.000000 0 0 1
-25.429467 -5.979898 -9.564311 27.818933 0.230960 1.921763 0.083759 -0.015753 -22894.500000 0 0 1
-25.790397 -4.524898 -9.085111 27.715673 0.173681 1.904767 0.083834 -0.019250 -315692.000000 0 0 1
-25.737757 -4.426198 -7.666011 27.217478 0.170307 1.856318 0.088541 -0.022205 411210.000000 0 0 1
-25.919087 -3.066498 -7.359511 27.117612 0.117763 1.845636 0.119470 -0.031007 -10976.500000 0 0 1
-25.880437 -2.864198 -5.795711 26.675662 0.110222 1.789809 0.113735 -0.028032 351945.000000 0 0 1
-24.557567 -2.917198 -5.269911 25.285492 0.118236 1.780752 0.093786 -0.018737 308071.000000 0 0 1
-24.515567 -2.744298 -3.877011 24.971492 0.111477 1.726684 0.090649 -0.016376 -663853.000000 0 1 0
-23.198467 -3.107498 -3.237311 23.628491 0.133160 1.708237 0.082593 -0.010911 -597946.000000 0 1 0
-22.925967 -4.502698 -3.076311 23.565610 0.193933 1.701712 0.080374 -0.006823 1079290.000000 0 1 0
-21.541267 -4.794598 -2.825111 22.248497 0.219007 1.698120 0.064544 -0.005892 721983.000000 0 1 0
-21.279467 -6.314298 -2.777411 22.369625 0.288456 1.695277 0.068289 -0.007396 -162849.000000 0 1 0
-21.913667 -6.974398 -1.680611 23.058090 0.308130 1.643747 0.076865 -0.008143 540406.000000 0 1 0
-22.413367 -8.216098 -2.140411 23.967575 0.351361 1.660220 0.077632 -0.013188 -119299.000000 0 1 0
-22.783667 -9.101198 -0.909911 24.551074 0.380042 1.607867 0.084425 -0.015283 676283.000000 0 1 0
-21.665867 -9.656198 -0.149811 23.720759 0.419262 1.577112 0.057070 -0.008989 952310.000000 0 1 0
-22.071267 -10.439498 0.907289 24.432502 0.441807 1.533653 0.038826 -0.004987 168507.000000 0 1 0
-20.872867 -11.147098 1.621089 23.718396 0.490513 1.502396 0.041661 -0.003287 54971.000000 0 1 0
-20.334367 -12.212798 0.871289 23.736008 0.540860 1.534081 0.052943 -0.007523 -83917.800000 0 1 0
-19.274667 -12.647098 1.681089 23.114670 0.580687 1.498004 0.032575 -0.009235 -472465.000000 0 1 0
-18.456467 -13.827798 1.112289 23.088663 0.642996 1.522603 0.022340 -0.006470 -491849.000000 0 1 0
-19.196967 -15.012698 0.963089 24.389182 0.663690 1.531298 0.037420 -0.005405 169976.000000 0 1 0
-18.450967 -16.080898 0.375089 24.478035 0.716871 1.555472 0.030315 -0.010086 -159390.000000 0 1 0
-17.357267 -16.650098 1.293989 24.086820 0.764607 1.517049 0.033486 -0.010600 -485357.000000 0 1 0
-16.134167 -15.951498 1.118789 22.715927 0.779705 1.521525 0.026311 -0.014331 730374.000000 0 1 0
-14.980167 -16.596198 1.695089 22.421252 0.836532 1.495122 0.030297 -0.016377 741224.000000 0 1 0
-14.840567 -16.469998 3.206389 22.400540 0.837392 1.427164 0.027042 -0.020534 -509296.000000 0 1 0
-14.715667 -15.133998 3.736589 21.437137 0.799412 1.395597 0.024054 -0.022049 -45719.200000 0 1 0
-13.976667 -15.068898 4.922689 21.134138 0.822985 1.335711 0.010299 -0.012368 -137480.000000 0 1 0
-14.671367 -15.496098 6.294089 22.248452 0.812730 1.283980 0.038936 -0.014612 -492695.000000 0 1 0
-15.403067 -14.488798 7.003189 22.276095 0.754822 1.250991 0.036442 -0.009517 405360.000000 0 1 0
-15.772767 -14.892798 8.327789 23.236344 0.756710 1.204248 0.045507 -0.003777 -300059.000000 0 1 0
-16.869667 -15.996398 8.516189 24.758754 0.758834 1.219658 0.037090 -0.001483 -133260.000000 0 1 0
-16.381867 -17.302198 8.223489 25.206297 0.812714 1.238465 0.037334 -0.001762 8777.270000 0 0 1
-17.155667 -18.329498 8.783489 26.597690 0.818466 1.234244 0.044818 -0.005895 -206077.000000 0 0 1
-16.816367 -18.711398 10.260589 27.169584 0.838687 1.183539 0.043915 -0.008600 -112960.000000 0 0 1
-15.535367 -19.286598 10.328789 26.832897 0.892710 1.175664 0.043861 -0.006859 -230719.000000 0 0 1
-15.190867 -19.560498 11.660789 27.374250 0.910482 1.130755 0.043456 -0.013591 201664.000000 0 0 1
-13.795067 -20.218998 11.802289 27.173623 0.972061 1.121503 0.042303 -0.006631 332441.000000 0 0 1
-12.681767 -19.362998 11.908489 26.030079 0.990950 1.095626 0.039288 -0.015286 -238473.000000 0 0 1
-11.561167 -20.075498 12.437489 26.294055 1.048298 1.078086 0.025176 -0.007546 524657.000000 0 0 1
-10.396967 -19.097298 12.675289 25.168764 1.072247 1.043022 0.035169 -0.017853 297448.000000 0 0 1
-9.717067 -18.582898 11.522489 23.927249 1.088994 1.068359 0.029918 -0.020294 -114471.000000 0 1 0
-8.535767 -17.880898 11.813989 23.068511 1.125418 1.033138 0.033591 -0.019407 2059.620000 0 1 0
-7.737767 -17.415798 10.615289 21.814386 1.152696 1.062581 0.020173 -0.017699 9237.150000 0 1 0
-6.753067 -18.313398 10.104589 21.979245 1.217516 1.093102 0.019476 -0.011141 260067.000000 0 1 0
-6.079267 -17.531198 9.083289 20.659297 1.237003 1.115564 0.021262 -0.009542 573684.000000 0 1 0
-4.829967 -18.165498 8.384489 20.581875 1.310922 1.151221 0.014591 -0.015627 1051280.000000 0 1 0
-3.622867 -18.262598 9.130089 20.736591 1.374962 1.114876 0.024925 -0.013616 335627.000000 0 1 0
-2.569867 -18.821498 8.351489 20.750913 1.435097 1.156590 0.029551 -0.019553 298413.000000 0 1 0
-1.295767 -19.159398 9.135089 21.265263 1.503268 1.126771 0.034679 -0.019233 -452501.000000 0 1 0
-0.310367 -19.734098 8.324389 21.420234 1.555070 1.171660 0.038501 -0.011472 -394300.000000 0 1 0
0.813833 -19.996298 9.143989 22.002882 -1.530120 1.142214 0.041497 -0.013509 -191428.000000 0 1 0
2.076533 -20.385398 8.348689 22.126388 -1.469283 1.183898 0.041861 -0.029863 -76229.000000 0 1 0
2.134233 -21.691598 7.822789 23.157643 -1.472722 1.226212 0.051842 -0.022424 -137173.000000 0 1 0
2.434433 -22.619698 8.843589 24.408734 -1.463585 1.200049 0.049773 -0.025625 -329376.000000 0 1 0
1.909933 -23.996898 8.489289 25.525810 -1.491373 1.231762 0.045881 -0.018565 -181543.000000 0 0 1
1.999833 -24.934598 9.494589 26.755948 -1.490765 1.208033 0.037442 -0.016646 -145537.000000 0 0 1
1.592033 -26.194348 9.046889 27.758326 -1.510093 1.238816 0.038465 -0.013664 -1468160.000000 0 0 1
1.630133 -27.269608 10.158289 29.145835 -1.511089 1.214791 0.036359 -0.015386 -31332.600000 0 0 1
0.675533 -27.102298 11.175889 29.323905 -1.545876 1.179790 0.032390 -0.019633 919021.000000 0 0 1
-0.697367 -27.285648 10.717089 29.323181 1.545244 1.196646 0.021149 -0.007376 565440.000000 0 0 1
-1.565867 -27.601598 11.918889 30.105815 1.514126 1.163749 0.029314 -0.021169 -106914.000000 0 0 1
-1.044967 -28.774728 12.552489 31.410857 1.534497 1.159691 0.022583 -0.028879 10539.700000 0 0 1
-1.310467 -28.662568 13.948889 31.903474 1.525108 1.118289 0.023419 -0.032698 -396459.000000 0 0 1
-0.830067 -29.821018 14.736989 33.274029 1.542969 1.111968 0.009535 -0.018687 -39147.800000 0 0 1
-0.993967 -29.642978 16.135789 33.764742 1.537278 1.072547 0.016400 -0.018328 -120267.000000 0 0 1
-0.563867 -30.691978 16.992589 35.086515 1.552427 1.065227 0.007188 -0.011340 -31127.700000 0 0 1
-0.962667 -30.432088 18.457689 35.605126 1.539174 1.025818 0.013073 -0.009109 465402.000000 0 0 1
-2.364567 -30.339758 18.684389 35.709922 1.493017 1.020163 0.015371 -0.009318 357609.000000 0 0 1
-2.656667 -30.159168 20.055189 36.315891 1.482935 0.985744 0.028296 -0.015852 -290923.000000 0 0 1
-4.165767 -30.100718 20.323389 36.557448 1.433276 0.981315 0.050806 -0.022332 -527401.000000 0 0 1
-4.637867 -28.828228 19.948389 35.362618 1.411284 0.971442 0.052724 -0.028600 164582.000000 0 0 1
-5.930767 -28.544698 20.468489 35.622084 1.365940 0.958680 0.052621 -0.031946 292524.000000 0 0 1
-5.973167 -27.752948 21.793989 35.789423 1.358804 0.916059 0.069111 -0.038302 -279564.000000 0 0 1
-5.340167 -28.405498 22.894589 36.872102 1.384968 0.900882 0.065032 -0.036464 34895.800000 0 0 1
-5.134467 -27.476398 23.878089 36.762458 1.386059 0.863838 0.065663 -0.038401 109746.000000 0 0 1
-3.912467 -27.829288 24.792989 37.476246 1.431124 0.847892 0.072691 -0.033153 394217.000000 0 0 1
-4.185567 -28.912208 25.662789 38.884618 1.427027 0.850014 0.067326 -0.033085 238128.000000 0 0 1
-3.545567 -30.102898 25.240489 39.444110 1.453555 0.876422 0.053657 -0.028448 130645.000000 0 0 1
-3.858467 -31.250688 26.284389 41.016611 1.447950 0.875226 0.046548 -0.016060 -10383.100000 0 0 1
-3.425867 -31.014308 27.581789 41.645876 1.460781 0.846921 0.055695 -0.018674 145060.000000 0 0 1
-3.990467 -31.948438 28.488589 42.991002 1.446536 0.846426 0.043688 -0.015756 -319304.000000 0 0 1
-3.359167 -31.834168 29.872289 43.784151 1.465665 0.819943 0.074245 -0.016274 -156837.000000 0 0 1
-1.991367 -32.171978 29.807089 43.902896 1.508978 0.824489 0.068283 -0.011465 -76767.200000 0 0 1
-1.290767 -31.790768 30.954089 44.390029 1.530217 0.799144 0.078176 -0.013545 -98059.000000 0 0 1
-28.679187 2.989902 -9.759011 30.441314 -0.103878 1.897143 0.129067 -0.025920 -158719.000000 0 0 1
-29.677197 2.601302 -10.669611 31.644011 -0.087430 1.914712 0.116145 -0.031951 192698.000000 0 0 1
-30.275347 3.656102 -11.367811 32.545213 -0.120180 1.927613 0.093518 -0.036882 151143.000000 0 0 1
-31.042107 3.402202 -12.692111 33.708709 -0.109164 1.956837 0.105698 -0.035597 8250.180000 0 0 1
-32.154747 2.564702 -12.550611 34.612473 -0.079593 1.941857 0.117849 -0.031939 -126903.000000 0 0 1
-32.878987 2.446102 -13.736811 35.717099 -0.074260 1.965571 0.121622 -0.031391 80909.200000 0 0 1
-34.152907 1.576302 -13.570511 36.784026 -0.046122 1.948647 0.093967 -0.021203 92512.300000 0 0 1
-33.843387 0.218902 -13.579711 36.466852 -0.006468 1.952374 0.108836 -0.020905 95185.700000 0 0 1
-34.798108 -0.616598 -12.934511 37.129370 0.017717 1.926621 0.092436 -0.017923 234781.000000 0 0 1
-34.299141 -2.075098 -12.734011 36.645493 0.060426 1.925691 0.090063 -0.020227 10032.200000 0 0 1
-34.250696 -2.892098 -13.889711 37.072881 0.084239 1.954826 0.083774 -0.015755 262608.000000 0 0 1
-33.668997 -4.115298 -13.455211 36.490817 0.121625 1.948437 0.097503 -0.021149 45665.000000 0 0 1
-34.034067 -5.283598 -14.379411 37.322937 0.154015 1.966297 0.086586 -0.018787 -141351.000000 0 0 1
-33.868927 -6.538898 -13.770611 37.141502 0.190718 1.950624 0.083908 -0.026558 130029.000000 0 0 1
-34.265256 -7.621498 -14.535311 37.993029 0.218864 1.963382 0.080697 -0.017532 -884929.000000 0 0 1
-33.973517 -8.933298 -13.759111 37.726871 0.257128 1.944110 0.068515 -0.019817 119698.000000 0 0 1
-32.678597 -9.385098 -13.357511 36.529357 0.279667 1.945144 0.079176 -0.022709 606849.000000 0 0 1
-31.862637 -9.673598 -14.486011 36.313230 0.294759 1.981133 0.090605 -0.024284 -309951.000000 0 0 1
-30.646957 -10.555398 -14.112111 35.352569 0.331694 1.981421 0.080860 -0.021792 -36787.400000 0 0 1
-31.034177 -11.874098 -13.925111 36.028087 0.365429 1.967638 0.077490 -0.022878 376090.000000 0 0 1
-29.888817 -12.674098 -13.674411 35.227314 0.401058 1.969448 0.084818 -0.020692 -27413.600000 0 0 1
-29.970387 -14.115598 -14.199311 36.042956 0.440167 1.975727 0.089373 -0.023084 -235303.000000 0 0 1
-30.019577 -14.256798 -15.643211 36.730660 0.443380 2.010741 0.083347 -0.021418 105364.000000 0 0 1
-29.973737 -15.576698 -16.156411 37.444467 0.479266 2.016925 0.097366 -0.023044 605934.000000 0 0 1
-28.697807 -16.513698 -15.968011 36.759268 0.522160 2.020162 0.063480 -0.026257 245619.000000 0 0 1
-27.600337 -15.962098 -16.625011 35.957728 0.524333 2.051439 0.056344 -0.028101 -1642700.000000 0 0 1
-26.565307 -16.879698 -16.514611 35.543947 0.566046 2.054008 0.048444 -0.027231 777016.000000 0 0 1
-25.215527 -16.169798 -17.028211 34.456424 0.570209 2.087706 0.036655 -0.026226 1256920.000000 0 0 1
-25.308197 -15.891698 -18.378411 35.083000 0.560701 2.122167 0.038612 -0.029418 -1559250.000000 0 0 1
-24.088867 -15.579098 -18.881311 34.343642 0.574076 2.152892 0.023956 -0.021386 -1705700.000000 0 0 1
-23.996867 -15.322398 -20.377711 35.012521 0.568260 2.191997 0.029092 -0.017733 -66495.300000 0 0 1
-24.472867 -16.383098 -21.201311 36.288052 0.589920 2.194753 0.031895 -0.016928 1524250.000000 0 0 1
-25.922147 -16.474898 -21.239711 37.343076 0.566152 2.175809 0.035807 -0.022778 819758.000000 0 0 1
-26.374047 -17.653698 -22.117311 38.683574 0.589864 2.179433 0.045449 -0.030083 -160375.000000 0 0 1
-26.038357 -17.626498 -23.501211 39.255527 0.595084 2.212639 0.055866 -0.023047 -59172.800000 0 0 1
-26.577887 -18.743098 -24.147011 40.506370 0.614217 2.209467 0.054863 -0.018694 140426.000000 0 0 1
-25.756047 -19.161398 -25.421781 40.948750 0.639623 2.240584 0.059446 -0.017088 431161.000000 0 0 1
-24.462767 -19.694998 -25.201231 40.266885 0.677844 2.247024 0.045457 -0.016638 35753.500000 0 0 1
-24.321067 -21.063898 -24.927411 40.701080 0.713753 2.229954 0.041685 -0.014251 -211085.000000 0 0 1
-22.832567 -21.492998 -25.047511 40.132941 0.755186 2.244793 0.029610 -0.000379 244432.000000 0 0 1
-22.363867 -21.313498 -26.337921 40.596722 0.761354 2.276763 0.024037 -0.002546 213198.000000 0 0 1
-20.984567 -21.696798 -26.334941 40.057861 0.802084 2.288189 0.018687 -0.000784 523937.000000 0 0 1
-20.478867 -21.573998 -27.761401 40.688042 0.811434 2.321699 0.025556 -0.000677 -517115.000000 0 0 1
-20.922767 -22.659798 -28.545051 42.024381 0.825233 2.317536 0.058761 -0.007132 -273421.000000 0 0 1
-21.364867 -22.237898 -29.822311 42.899323 0.805418 2.339452 0.051070 -0.005561 204793.000000 0 0 1
-20.329567 -22.179098 -31.012731 43.208717 0.828880 2.371351 0.048346 -0.013209 473097.000000 0 0 1
-19.838067 -23.437498 -31.441691 43.948210 0.868382 2.368030 0.052465 -0.019232 70494.000000 0 0 1
-19.433967 -23.515998 -32.799431 44.793794 0.880155 2.392389 0.045906 -0.018235 96056.500000 0 0 1
-18.899467 -24.882798 -33.299621 45.664081 0.921218 2.387992 0.048573 -0.015323 146779.000000 0 0 1
-18.189967 -24.776398 33.995901 45.830842 0.937507 0.735092 0.048056 -0.026791 -282814.000000 0 0 1
-19.019567 -24.691798 32.859078 45.289600 0.914443 0.758988 0.067218 -0.024563 -504800.000000 0 0 1
-18.241267 -24.492098 31.543747 43.904609 0.930643 0.769209 0.071896 -0.023988 74063.000000 0 0 1
-17.548067 -23.231298 31.489417 42.886027 0.923872 0.746223 0.045180 -0.020523 -170029.000000 0 0 1
-16.725267 -23.173798 30.371527 41.703587 0.945634 0.755000 0.055059 -0.023636 -335648.000000 0 0 1
-15.955867 -21.872398 30.129287 40.506363 0.940546 0.732034 0.033783 -0.014159 -171176.000000 0 0 1
-16.787867 -20.779098 29.856197 40.062400 0.891244 0.729898 0.044838 -0.012212 597.655000 0 0 1
-16.053867 -19.591398 29.665747 39.007770 0.884317 0.706700 0.042411 -0.006375 -26286.900000 0 0 1
-15.787367 -18.849298 30.962967 39.537860 0.873570 0.671126 0.042873 -0.010859 427005.000000 0 0 1
-15.029467 -17.632098 30.783067 38.527561 0.864915 0.645186 0.044685 -0.008894 312519.000000 0 0 1
-14.458567 -17.051098 31.906917 38.959485 0.867491 0.611171 0.047947 -0.011706 70934.000000 0 0 1
-13.765067 -15.685898 31.646887 37.908442 0.850527 0.582983 0.054766 -0.016436 431293.000000 0 0 1
-12.607167 -15.760798 30.822357 36.842382 0.896112 0.579748 0.050723 -0.017204 217423.000000 0 0 1
-12.069267 -14.497998 30.506167 35.867609 0.876563 0.553821 0.058121 -0.017583 651968.000000 0 0 1
-10.579367 -14.323398 30.064747 34.942406 0.934626 0.534725 0.081717 -0.022858 602475.000000 0 0 1
-10.377867 -12.917598 29.833557 34.126318 0.893992 0.506991 0.085058 -0.019587 190930.000000 0 0 1
-9.069267 -12.537598 30.239597 33.968753 0.944560 0.472973 0.059806 -0.020766 121436.000000 0 0 1
-8.924367 -10.984398 30.163847 33.319049 0.888505 0.438703 0.046427 -0.015442 -473270.000000 0 0 1
-9.608867 -10.333298 31.185727 34.229475 0.821709 0.424904 0.049701 -0.015869 32284.500000 0 0 1
-9.270467 -8.958998 31.208657 33.766633 0.768314 0.391742 0.037983 -0.016492 -181688.000000 0 0 1
-10.073967 -8.222198 32.285657 34.805934 0.684531 0.382885 0.037090 -0.018964 -757051.000000 0 0 1
-11.353467 -7.912398 31.859527 34.735238 0.608652 0.409775 0.058649 -0.023951 -716283.000000 0 0 1
-12.283667 -7.408798 32.798343 35.798185 0.542727 0.412301 0.060555 -0.026051 40862.800000 0 0 1
-12.188767 -5.936698 33.235497 35.894410 0.453245 0.387322 0.052603 -0.031155 -400348.000000 0 0 1
-12.283967 -5.030398 32.177357 34.807802 0.388677 0.391260 0.042221 -0.027934 230941.000000 0 0 1
-12.433667 -3.671998 32.645134 35.125268 0.287164 0.378035 0.050380 -0.029780 -154546.000000 0 0 1
-11.987667 -2.521898 31.662077 33.949245 0.207351 0.369163 0.049407 -0.027342 79473.700000 0 0 1
-10.580067 -2.497398 31.559907 33.379673 0.231804 0.331722 0.056467 -0.027415 95975.900000 0 0 1
-10.115467 -1.337898 30.924627 32.564478 0.131499 0.318702 0.053094 -0.021557 -360121.000000 0 0 1
-8.629267 -1.083498 31.215487 32.404396 0.124907 0.271722 0.059251 -0.025759 -115006.000000 0 0 1
-8.336267 -0.679398 32.553267 33.610566 0.081319 0.251490 0.055322 -0.040600 685032.000000 0 0 1
-6.923767 -0.554798 32.771506 33.499522 0.079959 0.208860 0.055968 -0.045457 716914.000000 0 0 1
-6.539967 0.189702 34.061099 34.683795 -0.028998 0.189776 0.073263 -0.046798 -296073.000000 0 0 1
-7.055767 1.501502 34.128447 34.882506 -0.209677 0.208305 0.079127 -0.041452 -91334.400000 0 0 1
-6.530967 2.418402 33.194162 33.916878 -0.354642 0.206807 0.079738 -0.034210 -277506.000000 0 0 1
-7.178367 3.797402 33.214697 34.193059 -0.486583 0.239793 0.090633 -0.033784 -906728.000000 0 0 1
-8.462867 3.832802 32.723920 34.017134 -0.425260 0.276622 0.070450 -0.026255 -894403.000000 0 0 1
-9.174967 5.026102 32.986804 34.605938 -0.501157 0.307107 0.042117 -0.012523 954441.000000 0 0 1
-10.565367 4.982502 32.231527 34.282994 -0.440661 0.347694 0.025957 -0.004475 772598.000000 0 0 1
-11.436467 6.007502 32.644261 35.107416 -0.483677 0.376820 0.026639 -0.000999 -820523.000000 0 0 1
-12.521367 6.095602 31.805847 34.721073 -0.453045 0.412706 0.014269 0.000872 -553426.000000 0 0 1
-13.330167 7.402002 32.014977 35.460425 -0.506889 0.444474 0.029389 -0.007197 274360.000000 0 0 1
-14.056667 7.608602 33.245086 36.887890 -0.496124 0.448158 0.023001 -0.012044 279277.000000 0 0 1
-14.697467 8.875002 33.232879 37.405955 -0.543242 0.476865 0.024641 -0.001415 -309630.000000 0 0 1
-15.556867 9.082802 -34.075171 38.543880 -0.528456 2.655279 0.014621 0.004957 -383401.000000 0 0 1
-14.793767 9.302202 -32.942001 37.290239 -0.561321 2.653854 0.001968 -0.001151 27679.200000 0 0 1
-15.645867 9.859302 -31.921091 36.891124 -0.562297 2.616502 0.011800 -0.007000 -796683.000000 0 0 1
-14.925767 10.286802 -30.593601 35.560726 -0.603439 2.606693 0.035357 -0.015608 555231.000000 0 0 1
-14.009667 11.411902 -30.615991 35.550544 -0.683564 2.608415 0.037707 -0.015516 226568.000000 0 0 1
-12.880567 11.050502 -31.377291 35.672917 -0.709074 2.645781 0.046305 -0.024764 -1510640.000000 0 0 1
-12.074667 12.291402 -31.813941 36.180146 -0.794293 2.645230 0.051554 -0.017358 -69391.500000 0 0 1
-12.704367 13.294102 -32.638811 37.462329 -0.808078 2.628526 0.041852 -0.020825 85606.900000 0 0 1
-12.001767 14.529202 -32.561161 37.621395 -0.880375 2.616936 0.049725 -0.018768 54151.900000 0 0 1
-12.223167 15.446102 -31.319281 36.998449 -0.901356 2.580177 0.045024 -0.015887 663492.000000 0 0 1
-13.510967 16.078002 -31.356171 37.739341 -0.871938 2.551451 0.034310 -0.020551 731932.000000 0 0 1
-13.636467 16.998202 -30.318761 37.337908 -0.894697 2.518384 0.012940 -0.017765 121637.000000 0 0 1
-15.016567 17.708302 -30.399651 38.252059 -0.867467 2.489341 0.006192 -0.021105 77696.500000 0 0 1
-15.092767 18.476702 -31.534801 39.542683 -0.885863 2.493916 0.009166 -0.018856 863508.000000 0 0 1
-16.393867 19.094402 -31.660681 40.444453 -0.861348 2.469979 -0.001534 -0.018103 1013710.000000 0 0 1
-16.689567 20.296802 -30.755201 40.452246 -0.882619 2.434547 -0.026644 -0.021142 -544819.000000 0 0 1
-15.983667 21.489102 -31.121221 41.058367 -0.931273 2.431000 -0.023783 -0.008895 -52938.000000 0 0 1
-16.419567 22.735502 -30.674771 41.562565 -0.945326 2.400955 -0.029022 -0.013934 -193399.000000 0 0 1
-17.741667 23.232202 -31.327491 42.847563 -0.918606 2.390785 -0.024121 -0.012796 405066.000000 0 0 1
-18.849067 22.546002 -30.745921 42.531414 -0.874470 2.378785 -0.014148 -0.020680 582978.000000 0 0 1
-20.001467 22.665302 -31.597311 43.728305 -0.847751 2.378327 0.016204 -0.023778 961978.000000 0 0 1
-21.276467 21.812102 -31.164091 43.585048 -0.797829 2.367446 0.028985 -0.038903 383474.000000 0 0 1
-22.116267 22.355302 -30.196581 43.597274 -0.790773 2.335919 0.066595 -0.043074 407464.000000 0 0 1
-23.028667 23.370202 -30.671381 44.913466 -0.792759 2.322521 0.084185 -0.028532 118504.000000 0 0 1
-24.352567 22.929802 -31.335391 45.833722 -0.755316 2.323584 0.089893 -0.045027 -538916.000000 0 0 1
-24.155067 22.028602 -32.393701 46.022586 -0.739387 2.351621 0.098242 -0.035770 64102.800000 0 0 1
-25.343957 21.754102 -33.133891 47.046911 -0.709324 2.352196 0.112000 -0.031416 -9314.850000 0 0 1
-25.180077 20.910902 34.131987 47.289477 -0.693037 0.764444 0.109619 -0.016149 -168769.000000 0 0 1
-24.748267 19.583702 -34.138014 46.490882 -0.669423 2.395424 0.105801 -0.026088 203807.000000 0 0 1
-24.622367 18.905402 33.155289 45.419691 -0.654805 0.752509 0.090837 -0.038146 -187066.000000 0 0 1
-24.025067 17.471002 33.213878 44.560088 -0.628748 0.729702 0.064901 -0.015863 -153844.000000 0 0 1
-24.794867 16.413302 33.789175 45.009891 -0.584740 0.721667 0.062094 -0.012601 480004.000000 0 0 1
-25.323377 15.509302 32.790320 44.238184 -0.549524 0.735907 0.068119 -0.016581 234117.000000 0 0 1
-26.183047 14.283302 33.349000 44.740591 -0.499395 0.729683 0.045420 -0.010005 398931.000000 0 0 1
-27.585067 14.527502 33.394804 45.685853 -0.484735 0.751060 0.048540 -0.005800 142474.000000 0 0 1
-28.341007 13.446502 32.920906 45.473148 -0.443003 0.761265 0.050076 0.001542 212146.000000 0 0 1
-28.623877 12.137302 33.818493 45.938338 -0.401046 0.743400 0.035777 0.001387 -175264.000000 0 0 1
-27.483237 11.313702 33.793560 45.003698 -0.390516 0.721363 0.042665 -0.014153 -376824.000000 0 0 1
-27.823447 10.012202 -34.246067 45.245790 -0.345421 2.429337 0.051310 -0.007930 -213420.000000 0 0 1
-26.609167 9.048502 -34.018411 44.126811 -0.327785 2.451087 0.043866 -0.017181 355606.000000 0 0 1
-25.772447 8.915002 33.385478 43.107847 -0.333028 0.684929 0.029540 -0.012475 387090.000000 0 0 1
-24.920867 10.023302 32.997585 42.548288 -0.382406 0.683238 0.024265 -0.013492 56326.000000 0 0 1
-23.597967 9.517202 32.313497 41.129105 -0.383353 0.667034 0.024893 -0.015651 523544.000000 0 0 1
-23.763167 9.117502 30.998507 40.108907 -0.366361 0.687463 0.030904 -0.020541 -37518.600000 0 0 1
-22.491867 9.008702 30.410137 38.882094 -0.380964 0.672749 0.042770 -0.018204 185162.000000 0 0 1
-22.639467 8.913702 28.904467 37.781844 -0.375084 0.699699 0.070301 -0.020956 150712.000000 0 0 1
-23.134067 10.159702 28.391597 38.006412 -0.413808 0.727226 0.069163 -0.023977 292492.000000 0 0 1
-23.166667 10.144402 26.968907 36.971953 -0.412736 0.753290 0.071999 -0.025122 -650684.000000 0 0 1
-23.562367 11.497202 26.313147 37.145020 -0.453959 0.783582 0.073439 -0.023369 1348970.000000 0 0 1
-24.944067 11.894102 26.500067 38.287461 -0.444941 0.806354 0.068777 -0.020700 920918.000000 0 0 1
-25.798097 11.336002 25.513227 38.012781 -0.414014 0.835004 0.074171 -0.015770 428152.000000 0 0 1
-27.228367 11.979802 25.562597 39.221754 -0.414486 0.860913 0.063669 -0.019437 486207.000000 0 0 1
-27.242487 13.374102 25.411377 39.582291 -0.456364 0.873707 0.075986 -0.019108 -200360.000000 0 0 1
-28.536467 13.935302 25.549607 40.759110 -0.454271 0.893300 0.048003 -0.024048 231441.000000 0 0 1
-28.679407 15.318402 24.846887 40.921017 -0.490574 0.918275 0.054177 -0.025946 -62006.000000 0 0 1
-28.015867 16.336102 25.551257 41.287090 -0.527902 0.903496 0.065710 -0.029095 -222691.000000 0 0 1
-27.657437 17.413902 24.768167 41.007803 -0.561921 0.922302 0.061662 -0.030103 -204167.000000 0 0 1
-22.919067 -9.358798 31.219507 39.843800 0.387676 0.670441 0.056399 -0.021709 948783.000000 0 0 1
-21.732167 -9.166498 30.409877 38.484704 0.399152 0.659692 0.065288 -0.021919 863937.000000 0 0 1
-22.101367 -9.117698 29.043457 37.618151 0.391270 0.688721 0.064560 -0.021348 328635.000000 0 0 1
-20.892967 -8.719498 28.176357 36.144887 0.395366 0.676866 0.057121 -0.025543 -794598.000000 0 0 1
-20.654767 -7.359398 28.237477 35.751018 0.342281 0.660253 0.060573 -0.026960 1296260.000000 0 0 1
-19.334167 -6.908498 28.680777 35.272147 0.343182 0.621290 0.065710 -0.032022 1843390.000000 0 0 1
-18.100667 -7.333798 27.775537 33.954370 0.384953 0.612827 0.071022 -0.031790 -117597.000000 0 0 1
-17.633367 -8.727098 27.842547 34.092599 0.459575 0.615172 0.072328 -0.028526 300166.000000 0 0 1
-17.272967 -9.223298 29.146317 35.113138 0.490455 0.591565 0.061477 -0.023782 228731.000000 0 0 1
-15.920667 -8.679298 29.768377 34.856192 0.499119 0.547105 0.060390 -0.020811 765903.000000 0 0 1
-14.824667 -9.407998 29.260107 34.123819 0.565486 0.540467 0.061660 -0.017284 598836.000000 0 0 1
-13.524467 -8.970598 29.749527 33.888305 0.585659 0.499400 0.060764 -0.019982 1618420.000000 0 0 1
-12.368967 -9.792998 29.113607 33.113385 0.669684 0.496596 0.062671 -0.014478 -199395.000000 0 0 1
-12.046867 -9.475598 27.799467 31.744674 0.666493 0.503870 0.077464 -0.020864 -43945.100000 0 0 1
-11.104867 -10.393298 27.274927 31.229159 0.752311 0.508696 0.068520 -0.019624 29206.300000 0 0 1
-10.606367 -10.082798 25.858457 29.712247 0.760097 0.514993 0.057688 -0.016588 197959.000000 0 0 1
-11.608867 -10.382498 24.910497 29.378477 0.729690 0.558754 0.053373 -0.016191 -227192.000000 0 0 1
-11.099567 -10.252098 23.640827 28.056989 0.745728 0.568703 0.042424 -0.020434 -166375.000000 0 0 1
-12.044967 -10.670398 22.477227 27.643523 0.724959 0.621321 0.042399 -0.022243 -489214.000000 0 0 1
-12.034467 -12.077798 22.528627 28.253153 0.787195 0.647848 0.044364 -0.016516 -325569.000000 0 0 1
-13.210967 -12.623698 22.056127 28.641930 0.762670 0.691854 0.031612 -0.009429 -378180.000000 0 0 1
-14.510367 -12.536398 22.876127 29.850113 0.712544 0.697630 0.032803 -0.012218 -204315.000000 0 0 1
-15.636267 -13.306398 22.503527 30.462466 0.705072 0.739613 0.015668 -0.003050 954979.000000 0 0 1
-16.777467 -13.015198 23.344627 31.557098 0.659781 0.738085 0.012930 -0.001812 910546.000000 0 0 1
-18.027067 -13.863398 22.966827 32.320955 0.655571 0.780465 0.028076 -0.005297 -87278.800000 0 0 1
-17.865967 -15.246398 23.254027 33.051403 0.706451 0.790385 0.021981 -0.004845 261522.000000 0 0 1
-19.034467 -16.046998 23.124427 33.978761 0.700445 0.822276 0.035697 -0.001582 162201.000000 0 0 1
-20.014267 -16.055798 24.320637 35.353259 0.676092 0.812161 0.039959 -0.001870 -259975.000000 0 0 1
-19.478967 -16.794098 25.406847 36.152175 0.711515 0.791506 0.034300 0.003959 -118839.000000 0 0 1
-20.216067 -16.735298 26.590627 37.360688 0.691477 0.778842 0.037714 -0.003288 -285664.000000 0 0 1
-19.785667 -17.767598 27.686087 38.388535 0.731711 0.765253 0.046166 -0.008289 94163.700000 0 0 1
-20.109267 -19.135898 27.406477 39.008720 0.760601 0.791789 0.055688 -0.007125 56114.800000 0 0 1
-19.858667 -19.969098 28.479637 40.052731 0.788171 0.779801 0.054171 -0.010196 -100198.000000 0 0 1
-19.873767 -21.500298 28.145187 40.612572 0.824691 0.805131 0.053414 -0.006502 114092.000000 0 0 1
-21.188067 -21.888798 27.820267 41.255557 0.801664 0.830726 0.059560 -0.007760 54352.400000 0 0 1
-21.126967 -23.302298 27.604377 41.849104 0.834321 0.850487 0.070472 -0.000710 948949.000000 0 0 1
-22.534167 -23.773698 27.101147 42.514111 0.812159 0.879596 0.073177 -0.003720 631289.000000 0 0 1
-23.518067 -23.999998 28.078407 43.789226 0.795540 0.874713 0.073850 0.000582 -202649.000000 0 0 1
-24.692567 -24.477698 27.451777 44.299895 0.781028 0.902461 0.056610 0.003049 -104646.000000 0 0 1
-25.537607 -25.294968 28.430877 45.829244 0.780625 0.901588 0.026841 0.003379 -474288.000000 0 0 1
-26.019167 -24.619998 29.546877 46.434463 0.757775 0.881086 0.018731 0.007491 32325.700000 0 0 1
-26.551767 -25.500908 30.509077 47.813141 0.765213 0.878782 0.019949 0.007694 -32146.100000 0 0 1
-27.847467 -24.943598 31.140277 48.655744 0.730447 0.876282 0.002273 0.012328 -38492.600000 0 0 1
-28.880177 -24.722598 30.201327 48.552978 0.707990 0.899466 0.011076 0.012082 -431626.000000 0 0 1
-29.773177 -23.778898 30.691067 48.926677 0.673929 0.892732 0.007531 0.006281 -448590.000000 0 0 1
-31.036917 -23.745698 29.793017 49.140333 0.653082 0.919416 0.005282 0.004737 234010.000000 0 0 1
-31.918737 -24.865298 30.000787 50.369992 0.661816 0.932774 0.002581 0.009983 314493.000000 0 0 1
-33.036047 -24.920198 29.146337 50.615271 0.646269 0.957164 0.010451 0.000344 -32574.700000 0 0 1
-34.179464 -25.789798 29.713767 52.117727 0.646401 0.964135 0.013069 -0.003118 34522.200000 0 0 1
-33.854537 -27.167598 29.847787 52.679203 0.676251 0.968428 0.023020 -0.003772 280334.000000 0 0 1
-34.951889 -27.785188 30.482697 54.063352 0.671657 0.971777 0.028787 -0.004991 303141.000000 0 0 1
-34.459988 -29.226988 30.868157 54.722489 0.703415 0.971471 0.027019 -0.011097 494703.000000 0 0 1
-33.560947 -29.178248 31.973507 54.772370 0.715656 0.947454 0.027111 0.000815 140462.000000 0 0 1
-32.928647 -30.419928 32.243767 55.220724 0.745817 0.947263 0.032146 -0.007823 75707.500000 0 0 1
-31.910817 -30.481418 33.396484 55.342048 0.762492 0.922968 0.024510 -0.007065 -227978.000000 0 0 1
-32.439617 -30.310738 -33.828691 55.816216 0.751485 2.221910 0.008066 0.006140 -222090.000000 0 0 1
-31.450317 -30.363788 -32.799821 54.652634 0.767823 2.214486 0.009688 -0.001253 235692.000000 0 0 1
-31.975707 -30.028958 -31.356111 53.920218 0.754012 2.191402 0.012978 0.001281 -26580.300000 0 0 1
-32.252547 -28.687388 -31.069761 53.183861 0.726962 2.194685 0.019498 0.003195 117230.000000 0 0 1
-31.067897 -27.902828 -30.938381 51.970814 0.731778 2.208439 0.030456 0.005022 -266172.000000 0 0 1
-31.257887 -26.374718 -30.858591 51.234109 0.700871 2.217183 0.007899 0.018323 -46092.300000 0 0 1
-31.869227 -25.934728 -29.645401 50.666632 0.683091 2.195808 0.009242 0.002140 -64491.200000 0 0 1
-31.818207 -24.515598 -29.655561 49.928601 0.656486 2.206768 0.024305 -0.007135 354837.000000 0 0 1
-30.558027 -23.798098 -29.053411 48.417385 0.661670 2.214374 0.028457 -0.011859 -42172.700000 0 0 1
-30.642377 -22.405898 -28.837301 47.671475 0.631364 2.220458 0.038330 -0.013478 100178.000000 0 0 1
-29.556987 -22.027098 -28.008351 46.295532 0.640449 2.220550 0.042791 -0.013584 18066.600000 0 0 1
-29.233567 -20.503398 -28.068061 45.418134 0.611641 2.236983 0.049412 -0.019951 -77249.100000 0 0 1
-28.647307 -20.071698 -29.286541 45.620640 0.611161 2.267846 0.054399 -0.022574 362289.000000 0 0 1
-28.509697 -18.640998 -29.339471 44.956582 0.579075 2.281831 0.054134 -0.022929 -163599.000000 0 0 1
-27.946667 -18.138498 -30.712001 45.312783 0.575700 2.315533 0.067466 -0.024148 -161478.000000 0 0 1
-28.722327 -18.189798 -31.886691 46.611178 0.564544 2.324165 0.062919 -0.024437 282187.000000 0 0 1
-29.632977 -17.056798 -31.967441 46.807745 0.522287 2.322593 0.062519 -0.024946 -388136.000000 0 0 1
-30.118127 -16.802198 -33.391501 48.004248 0.508870 2.340044 0.070017 -0.031233 601101.000000 0 0 1
-31.247727 -17.529598 -33.936461 49.349677 0.511240 2.329076 0.052278 -0.025114 1569220.000000 0 0 1
-32.491957 -17.201098 -33.299951 49.603345 0.486887 2.306791 0.041699 -0.022666 327477.000000 0 0 1
-33.765577 -17.588898 -34.103730 51.113090 0.480237 2.301268 0.035789 -0.020843 238412.000000 0 0 1
-33.804797 -18.936098 34.013945 51.558594 0.510610 0.850358 0.029452 -0.012500 261966.000000 0 0 1
-34.994160 -19.254098 33.299576 52.001666 0.503004 0.875835 0.025094 -0.009306 -93587.500000 0 0 1
-35.420126 -20.741298 33.472972 52.964390 0.529749 0.886678 0.027054 -0.015325 -530540.000000 0 0 1
-34.495768 -21.698798 33.057860 52.474927 0.561490 0.889276 0.032721 -0.010919 -668816.000000 0 0 1
-34.846192 -23.028698 33.268916 53.398491 0.583977 0.898185 0.034357 -0.011579 -835301.000000 0 0 1
-33.603037 -23.931098 33.321376 53.029951 0.618848 0.891366 0.021977 0.000231 81340.100000 0 0 1
-32.660947 -23.720998 -34.189959 52.899684 0.628147 2.273544 0.012795 -0.001037 64993.700000 0 0 1
-31.849687 -22.547398 34.232236 51.909862 0.616029 0.850702 0.022413 -0.000579 -560211.000000 0 0 1
-30.669777 -22.524298 -33.266051 50.543144 0.633451 2.289184 0.015779 0.002429 88602.300000 0 0 1
-29.680397 -23.483298 -33.591171 50.603933 0.669355 2.296692 0.017358 0.005680 203608.000000 0 0 1
-28.368827 -23.331098 -33.101531 49.445342 0.688263 2.304274 0.025272 0.000179 294613.000000 0 0 1
-28.211147 -23.681998 -31.600621 48.531486 0.698340 2.279877 0.028700 0.008790 -969001.000000 0 0 1
-28.053797 -25.081708 -31.446311 49.040576 0.729522 2.266897 0.027835 0.008057 30211.100000 0 0 1
-27.495057 -25.378848 -30.171611 48.066519 0.745396 2.249398 0.018872 0.002270 -267829.000000 0 0 1
-27.104937 -26.888128 -29.951381 48.525605 0.781383 2.236011 0.016979 0.001406 -54710.800000 0 0 1
-28.181967 -27.794138 -30.038441 49.689489 0.778470 2.219963 0.017255 0.005608 -346477.000000 0 0 1
-27.805917 -29.025558 -29.417841 49.810254 0.806856 2.202596 0.016285 0.003158 107091.000000 0 0 1
-28.535127 -30.358658 -29.829051 51.241330 0.816351 2.192141 0.014429 0.013360 -208678.000000 0 0 1
-28.476637 -30.805358 -31.163331 52.259374 0.824660 2.209706 0.032409 -0.004188 170966.000000 0 0 1
-28.404807 -32.216148 -31.175661 53.071981 0.848187 2.198666 0.031696 0.005024 -210573.000000 0 0 1
-28.184367 -32.631108 -32.618111 54.065599 0.858387 2.218437 0.029576 -0.006298 -231073.000000 0 0 1
-26.862237 -32.407888 -33.032551 53.507013 0.878692 2.236166 0.020399 -0.005450 -504087.000000 0 0 1
-26.594357 -32.968558 34.232400 54.461389 0.892009 0.891092 0.031703 -0.011331 180935.000000 0 0 1
-25.067087 -33.146528 34.032833 53.714848 0.923307 0.884620 0.032265 -0.013501 241042.000000 0 0 1
-24.718067 -33.863918 32.899729 53.292964 0.940269 0.905443 0.029506 -0.006979 -218053.000000 0 0 1
-23.830967 33.617298 33.197932 52.916353 -0.954129 0.892630 0.032091 -0.002666 -233748.000000 0 0 1
-23.471867 32.671612 31.982087 51.392769 -0.947816 0.899110 0.026181 -0.007080 1812.620000 0 0 1
-24.512767 31.764357 31.642207 51.098722 -0.913547 0.903026 0.040333 -0.016338 100625.000000 0 0 1
-24.353867 31.061527 30.439807 49.844871 -0.905855 0.913864 0.023338 -0.004674 -457058.000000 0 0 1
-25.694287 30.509017 29.945107 49.876908 -0.870856 0.926820 0.017207 -0.005178 -164835.000000 0 0 1
-26.218307 29.422627 30.673477 49.939492 -0.842924 0.909408 0.020784 -0.005699 -157875.000000 0 0 1
-27.484377 28.992997 30.256097 50.114033 -0.812104 0.922606 0.024479 -0.006076 -163988.000000 0 0 1
-27.999047 27.757387 31.002387 50.155430 -0.781064 0.904440 0.027333 -0.021282 -201985.000000 0 0 1
-27.334017 26.522307 30.700667 48.919446 -0.770328 0.892361 0.028297 -0.014478 -164440.000000 0 0 1
-27.910027 25.329277 31.162457 48.904403 -0.736962 0.879921 0.040772 -0.016405 293253.000000 0 0 1
-28.903607 24.692167 30.124557 48.503717 -0.706981 0.900680 0.044618 -0.017376 538931.000000 0 0 1
-28.265567 24.327107 28.928527 47.197565 -0.710652 0.911040 0.041733 -0.024571 -449427.000000 0 0 1
-29.184977 23.611647 28.141217 46.916957 -0.680225 0.927534 0.048028 -0.015436 339175.000000 0 0 1
-28.551067 23.227437 26.774257 45.514153 -0.682943 0.941888 0.062846 -0.024330 154357.000000 0 0 1
-27.641857 22.144537 26.828237 44.432050 -0.675426 0.922532 0.062960 -0.028481 -191667.000000 0 0 1
-26.959757 21.942537 25.635557 43.191263 -0.683159 0.935351 0.053309 -0.015694 -802303.000000 0 0 1
-25.629267 21.265437 25.954527 42.222217 -0.692609 0.908775 0.070240 -0.022894 -1092090.000000 0 0 1
-25.645067 19.960237 26.490787 41.926631 -0.661385 0.886876 0.096089 -0.037408 -1081290.000000 0 0 1
-24.410567 19.585937 26.939017 41.294011 -0.676175 0.860088 0.098462 -0.025533 -1265530.000000 0 0 1
-24.408067 18.601137 28.105567 41.613447 -0.651194 0.829294 0.113118 -0.030928 895978.000000 0 0 1
-23.097967 18.030937 28.340707 40.765506 -0.662817 0.802080 0.100550 -0.020283 1129960.000000 0 0 1
-23.188867 17.098137 29.432127 41.186405 -0.635351 0.774733 0.094035 -0.018248 -590907.000000 0 0 1
-22.015967 16.171737 29.667057 40.328181 -0.633537 0.744184 0.084605 -0.023902 -663937.000000 0 0 1
-20.896067 16.725337 30.290457 40.421459 -0.674988 0.723693 0.104507 -0.020877 -242096.000000 0 0 1
-19.765667 15.889937 30.190437 39.428850 -0.677124 0.698677 0.075690 -0.017940 457677.000000 0 0 1
-18.578067 16.380937 31.075927 39.739061 -0.722632 0.672929 0.056214 -0.023178 202568.000000 0 0 1
-18.859267 16.051537 32.423837 40.799865 -0.705145 0.652276 0.030068 -0.010778 240820.000000 0 0 1
-17.858867 16.625437 33.207489 41.207786 -0.749646 0.633679 0.018083 -0.009900 -880934.000000 0 0 1
-18.043767 16.248837 -33.792261 41.611527 -0.733104 2.518519 0.004714 -0.015574 560260.000000 0 0 1
-19.055167 16.932937 -33.042001 41.732453 -0.726496 2.484478 0.015503 -0.013528 1450350.000000 0 0 1
-20.427267 16.682937 -33.427751 42.579434 -0.684841 2.473602 0.023840 -0.013714 837808.000000 0 0 1
-21.467867 17.579637 -32.701261 42.886891 -0.686148 2.437965 0.030975 -0.024078 65539.700000 0 0 1
-21.649367 17.172537 -31.359271 41.797070 -0.670588 2.419273 0.023510 -0.024175 -263029.000000 0 0 1
-22.543667 17.972637 -30.669761 42.093549 -0.673054 2.387086 0.020037 -0.030872 -858190.000000 0 0 1
-22.519567 17.517337 -29.184161 40.813028 -0.661102 2.367520 0.019769 -0.033493 95483.100000 0 0 1
-23.155567 16.325437 -28.765901 40.375454 -0.614096 2.363794 0.010801 -0.030455 59714.500000 0 0 1
-24.440867 16.034337 -29.291241 41.381551 -0.580614 2.357223 0.030420 -0.031632 -334331.000000 0 0 1
-25.268847 15.020337 -28.540411 40.971701 -0.536307 2.341428 0.035220 -0.025968 -217623.000000 0 0 1
-24.803967 13.723537 -28.635051 40.293156 -0.505358 2.361243 0.005907 -0.014364 -400957.000000 0 0 1
-25.651577 12.939037 -27.859541 40.019697 -0.467173 2.340811 -0.002052 -0.008256 -19128.600000 0 0 1
-25.234677 11.434537 -27.901281 39.319449 -0.425452 2.359734 0.008061 -0.007623 673044.000000 0 0 1
-24.075467 11.142737 -27.118661 37.936928 -0.433468 2.367185 0.006933 -0.006627 713175.000000 0 0 1
-23.257467 10.066437 -27.651361 37.507875 -0.408481 2.399735 0.002817 0.001528 407216.000000 0 0 1
-22.296767 9.455437 -26.622331 35.990271 -0.401084 2.403434 0.027260 -0.001353 -117136.000000 0 0 1
-22.885267 8.610337 -25.648901 35.436415 -0.359857 2.380091 0.036962 -0.000131 -388297.000000 0 0 1
-21.954267 8.017237 -24.820511 34.092869 -0.350133 2.386235 0.065554 0.002573 -408561.000000 0 0 1
-22.689267 6.997037 -23.923311 33.705878 -0.299132 2.359963 0.069479 0.002961 224005.000000 0 0 1
-23.244267 5.874137 -24.523811 34.296046 -0.247531 2.367510 0.062358 -0.007143 7700.100000 0 0 1
-23.616767 4.918237 -23.604111 33.750479 -0.205317 2.345314 0.068072 -0.003999 -247851.000000 0 0 1
34.511271 25.219202 -10.784011 44.083227 0.631069 1.817933 0.010695 -0.003356 799461.000000 0 0 1
35.522931 24.713102 -9.858011 44.382389 0.607830 1.794780 0.012489 -0.005033 854372.000000 0 0 1
-36.220827 23.770702 -10.517611 44.582673 -0.580771 1.808954 0.015186 -0.007836 276037.000000 0 0 1
-35.069937 23.182502 -9.665111 43.136334 -0.584095 1.796774 0.038785 -0.015461 158559.000000 0 0 1
-35.488235 22.335002 -8.634111 42.811389 -0.561731 1.773867 0.018722 -0.012820 -490272.000000 0 0 1
-34.376564 21.713702 -8.057411 41.450632 -0.563362 1.766428 0.050934 -0.009507 -554687.000000 0 0 1
-34.730650 20.694402 -6.959211 41.023249 -0.537365 1.741261 0.052598 0.004021 57559.700000 0 0 1
-35.254974 19.514602 -7.619311 41.009594 -0.505548 1.757676 0.047073 -0.005431 330514.000000 0 0 1
-35.493989 18.483902 -6.649911 40.567218 -0.480118 1.735463 0.040563 -0.028987 -255368.000000 0 0 1
-36.174727 17.211602 -7.126811 40.689576 -0.444093 1.746855 0.060968 -0.009589 500242.000000 0 0 1
35.112871 17.448602 -7.696511 39.957524 0.461188 1.764625 0.060456 -0.015117 319445.000000 0 0 1
34.615251 16.262602 -8.236911 39.122047 0.439205 1.782928 0.072612 -0.005687 -138068.000000 0 0 1
33.332721 16.566002 -9.023611 38.300500 0.461236 1.808633 0.046817 -0.017416 -326435.000000 0 0 1
32.699741 15.455902 -9.576311 37.414753 0.441538 1.829627 0.065457 -0.030608 -428808.000000 0 0 1
31.922981 15.871202 -10.645611 37.206193 0.461382 1.860976 0.075708 -0.027973 -663768.000000 0 0 1
31.165031 14.763802 -11.398211 36.320080 0.442411 1.890017 0.063791 -0.024855 916065.000000 0 0 1
29.907631 14.298502 -10.848711 34.879910 0.445965 1.887073 0.057504 -0.015125 994859.000000 0 0 1
29.999891 13.623602 -9.625211 34.325511 0.426276 1.855017 0.061345 -0.014637 -793911.000000 0 0 1
28.885861 12.639502 -9.252111 32.859573 0.412467 1.856221 0.068359 -0.008020 -183497.000000 0 0 1
29.067661 11.525902 -10.077011 32.853029 0.377503 1.882552 0.067645 -0.010887 828373.000000 0 0 1
28.137111 10.495502 -9.697111 31.557670 0.357027 1.883132 0.083485 -0.008963 32000.000000 0 0 1
28.671631 9.105402 -10.042311 31.714647 0.307502 1.892988 0.083150 -0.006493 -161032.000000 0 0 1
29.811941 8.719602 -9.310211 32.426275 0.284550 1.862015 0.071552 -0.008086 251638.000000 0 0 1
29.920231 7.352402 -9.256711 32.170868 0.240959 1.862658 0.077373 -0.006045 -238850.000000 0 0 1
31.112411 6.819502 -8.438311 32.949853 0.215777 1.829777 0.088383 -0.006195 1196540.000000 0 0 1
32.419331 7.082502 -9.029111 34.390402 0.215086 1.836458 0.082488 -0.011928 1148880.000000 0 0 1
33.435471 6.593202 -8.172911 35.045649 0.194694 1.806171 0.086122 -0.015721 11683.700000 0 0 1
34.843911 6.880102 -8.742811 36.576915 0.194947 1.812158 0.084973 -0.015817 -78837.500000 0 0 1
35.217851 6.124502 -9.831711 37.073833 0.172181 1.839200 0.088283 -0.014855 176309.000000 0 0 1
-35.992400 6.246502 -10.162111 37.917544 -0.171839 1.842119 0.085370 -0.016402 -469300.000000 0 0 1
-35.617681 5.429302 -11.423111 37.796614 -0.151268 1.877823 0.093910 -0.018798 796884.000000 0 0 1
-34.223853 5.496202 -11.782211 36.610120 -0.159236 1.898457 0.102921 -0.022638 1429890.000000 0 0 1
-33.746147 6.725702 -12.423611 36.583926 -0.196725 1.917279 0.085638 -0.016746 -123736.000000 0 0 1
-33.008397 7.799002 -11.542511 35.827479 -0.232018 1.898816 0.075441 -0.007949 -159674.000000 0 0 1
-33.817697 8.523102 -10.592311 36.448278 -0.246889 1.865663 0.077066 -0.008611 357429.000000 0 0 1
-34.444238 9.684402 -11.045911 37.446032 -0.274086 1.870233 0.075633 -0.008328 183727.000000 0 0 1
-35.250278 10.420202 -9.944811 38.079679 -0.287421 1.835018 0.064357 -0.007610 228594.000000 0 0 1
-34.396333 11.086702 -9.051011 37.255114 -0.311808 1.816199 0.052666 -0.013550 -18224.800000 0 0 1
-35.154048 11.765802 -8.080511 37.941216 -0.322973 1.785415 0.053835 -0.010714 -182017.000000 0 0 1
-34.350425 12.692702 -7.115611 37.305339 -0.353946 1.762712 0.060114 -0.012587 -22561.800000 0 0 1
-33.924207 13.859202 -7.712211 37.448732 -0.387842 1.778221 0.049086 -0.015401 21139.000000 0 0 1
-33.051157 14.636102 -6.864111 36.792805 -0.416877 1.758457 0.043050 -0.012543 92550.800000 0 0 1
-32.214917 15.637702 -7.644611 36.616645 -0.451914 1.781118 0.034237 -0.012697 -877874.000000 0 0 1
-32.923017 16.505302 -8.478011 37.791887 -0.464711 1.797056 0.030749 -0.013320 -543539.000000 0 0 1
-32.056287 17.531002 -8.901911 37.605659 -0.500446 1.809782 0.035172 -0.008998 111863.000000 0 0 1
-32.524687 18.493302 -10.008311 38.730140 -0.517006 1.832174 0.018703 -0.011651 -12858.000000 0 0 1
-32.217907 18.027602 -11.285511 38.605061 -0.510147 1.867461 0.012351 -0.011100 -299454.000000 0 0 1
-33.192567 18.382002 -12.254211 39.872424 -0.505755 1.883188 0.010845 -0.017618 -5624.740000 0 0 1
-32.665837 18.586702 -13.701011 40.003001 -0.517310 1.920372 0.005102 0.005712 -351096.000000 0 0 1
-31.956607 19.790502 -13.804911 40.043280 -0.554485 1.922769 0.004621 -0.000308 -114997.000000 0 0 1
-31.829547 20.088202 -15.190511 40.588269 -0.562987 1.954394 -0.014555 0.001422 -858138.000000 0 0 1
-31.118437 21.436802 -15.284411 40.761585 -0.603222 1.955162 0.004271 -0.006063 -870112.000000 0 0 1
-29.819537 21.344902 -14.761311 39.531076 -0.621253 1.953479 -0.001226 -0.001099 -515834.000000 0 0 1
-29.336347 22.598502 -14.409811 39.736082 -0.656382 1.941893 -0.011959 -0.004735 42556.300000 0 0 1
-28.491377 23.269602 -15.569911 39.945651 -0.684856 1.971186 -0.013766 -0.004050 -988145.000000 0 0 1
-29.273247 23.637802 -16.675311 41.155008 -0.679290 1.987975 -0.004108 0.004748 15738.500000 0 0 1
-28.560707 24.194602 -17.766511 41.433581 -0.702825 2.013955 -0.005322 0.005934 365168.000000 0 0 1
-27.721217 25.538902 -17.529711 41.569125 -0.744446 2.006116 0.009890 0.004686 324629.000000 0 0 1
-28.573437 26.631802 -17.452711 42.781904 -0.750241 1.991000 0.021058 0.000455 -118002.000000 0 0 1
-27.876797 27.879602 -17.386311 43.089115 -0.785448 1.986131 0.024928 0.003109 71003.500000 0 0 1
-28.592547 29.094702 -16.747611 44.096688 -0.794103 1.960369 0.025729 -0.002272 -303695.000000 0 0 1
-28.897647 29.051602 -15.346311 43.755901 -0.788055 1.929142 0.027735 -0.000627 850868.000000 0 0 1
-27.771957 29.109502 -14.438311 42.744702 -0.808908 1.915354 0.028683 0.004739 349457.000000 0 0 1
-28.005607 30.077402 -13.257611 43.182501 -0.821053 1.882850 0.045362 -0.007840 -96808.300000 0 0 1
-27.486347 31.357402 -13.455411 43.815910 -0.851089 1.882930 0.057539 -0.009772 -49109.400000 0 0 1
-27.724397 32.139802 -12.306511 44.193430 -0.859022 1.852996 0.058491 -0.011895 -74547.300000 0 0 1
-27.164537 33.561902 -12.279511 44.889862 -0.890358 1.847876 0.035780 -0.013631 -264174.000000 0 0 1
-27.674167 -34.197834 -13.355111 45.975106 0.890448 1.865531 0.021051 -0.025843 -76906.100000 0 0 1
-27.003157 -32.991934 -13.595211 44.748944 0.884890 1.879486 0.030650 -0.026581 -264137.000000 0 0 1
-27.422297 -32.353834 -14.946311 44.968269 0.867712 1.909617 0.018719 -0.025731 26741.600000 0 0 1
-26.767717 -32.889634 -16.084011 45.353436 0.887658 1.933322 0.012286 -0.022227 -59799.500000 0 0 1
-27.157977 -32.191334 -17.235811 45.507262 0.870005 1.959240 0.007448 -0.006349 182261.000000 0 0 1
-26.398477 -32.623534 -18.559111 45.886983 0.890480 1.987177 0.007616 -0.000329 67579.900000 0 0 1
-26.757547 -33.893534 -19.114411 47.223921 0.902516 1.987514 0.010049 0.005210 46111.600000 0 0 1
-26.099467 33.541702 -18.512811 46.356791 -0.909540 1.981609 0.005980 -0.001480 -605687.000000 0 0 1
-26.427547 32.206202 -19.148211 45.850940 -0.883636 2.001619 0.017413 -0.002467 992080.000000 0 0 1
-27.743197 31.616102 -18.979711 46.146423 -0.850551 1.994669 0.018665 -0.007711 1040310.000000 0 0 1
-28.637357 32.108402 -19.962311 47.429332 -0.842477 2.005217 0.012708 0.000559 -799690.000000 0 0 1
-30.084237 31.644002 -19.898511 47.982861 -0.810661 1.998410 0.013722 -0.014220 -551082.000000 0 0 1
-30.263717 30.295902 -20.289011 47.385422 -0.785930 2.013263 0.014799 -0.010010 784679.000000 0 0 1
-31.598967 30.196402 -20.795111 48.402005 -0.762705 2.014883 0.023092 -0.012421 365077.000000 0 0 1
-31.793297 28.796602 -21.404011 47.939438 -0.735980 2.033624 0.023722 -0.015077 -321108.000000 0 0 1
-33.170577 28.515302 -21.484211 48.733776 -0.710074 2.027340 0.031495 -0.019547 75097.000000 0 0 1
-33.307227 27.317002 -22.325111 48.518044 -0.686909 2.048950 0.034935 -0.016434 -604537.000000 0 0 1
-34.711844 26.750702 -22.409111 49.220732 -0.656587 2.043481 0.052400 -0.023469 -329634.000000 0 0 1
-35.635214 27.429802 -23.268211 50.632718 -0.656015 2.048284 0.039331 -0.018631 -331895.000000 0 0 1
35.966301 26.466002 -23.553311 50.485469 0.634387 2.056167 0.055697 -0.016781 82622.300000 0 0 1
35.026321 26.956502 -24.696611 50.630216 0.655932 2.080346 0.063122 -0.024967 178168.000000 0 0 1
35.671041 26.892802 -25.927761 51.651668 0.646000 2.096675 0.060499 -0.021709 -153913.000000 0 0 1
34.848281 27.444902 -26.912971 51.883845 0.667106 2.116145 0.066037 -0.018034 -47716.900000 0 0 1
35.731241 27.746002 -28.126731 53.269834 0.660259 2.127046 0.062939 -0.010109 106264.000000 0 0 1
36.199191 26.570602 -28.733881 53.310546 0.633189 2.140035 0.059599 -0.000522 -304966.000000 0 0 1
-35.764439 26.903802 -29.948721 53.850121 -0.644940 2.160542 0.023346 0.004192 -806914.000000 0 0 1
-35.179810 25.634502 -30.638041 53.230032 -0.629710 2.184107 0.016306 0.003649 395385.000000 0 0 1
-34.158568 24.907402 -29.966811 51.818879 -0.630036 2.187439 0.031765 -0.000386 -339330.000000 0 0 1
-32.920227 25.563502 -29.993231 51.350053 -0.660264 2.194559 0.011726 0.005954 -618159.000000 0 0 1
-31.865027 24.763102 -29.184901 49.803109 -0.660636 2.196917 0.006619 -0.001527 -321200.000000 0 0 1
-31.449087 23.466802 -29.615151 49.160889 -0.641054 2.217317 0.030531 -0.011743 284664.000000 0 0 1
-32.280267 22.430302 -29.107361 48.911886 -0.607269 2.208184 0.024223 -0.004735 153958.000000 0 0 1
-31.894467 21.076502 -29.739821 48.434832 -0.583944 2.231937 0.019221 -0.013467 499006.000000 0 0 1
-30.522917 20.705002 -29.627191 47.308731 -0.596043 2.247533 0.054642 -0.018598 300848.000000 0 0 1
-30.196027 19.420002 -30.117781 46.861682 -0.571531 2.268807 0.046726 -0.021844 1061930.000000 0 0 1
-28.693417 18.993702 -29.807951 45.525672 -0.584732 2.284649 0.068627 -0.030603 1160990.000000 0 0 1
-27.796297 19.632702 -30.731861 45.853292 -0.614946 2.305303 0.077573 -0.028289 529684.000000 0 0 1
-26.563907 18.919802 -30.891281 44.920723 -0.618892 2.329091 0.077059 -0.037594 542568.000000 0 0 1
-26.629817 17.673702 -31.838621 45.113243 -0.585933 2.354276 0.067197 -0.026875 -598061.000000 0 0 1
-27.114067 16.529602 -31.211431 44.525878 -0.547472 2.347557 0.036501 -0.019932 -177632.000000 0 0 1
-27.524287 15.639902 -32.177211 45.139404 -0.516725 2.364337 0.013831 -0.001477 -79194.000000 0 0 1
-27.970797 14.267902 -31.576171 44.530811 -0.471695 2.358997 0.025486 -0.004015 -667141.000000 0 0 1
-29.170767 14.318002 -30.886261 44.831908 -0.456288 2.330815 0.033769 -0.002091 -757433.000000 0 0 1
-29.726417 13.000202 -30.794431 44.732115 -0.412266 2.330103 0.027506 -0.001258 -62630.900000 0 0 1
-29.215147 12.035802 -29.687261 43.355724 -0.390784 2.325039 0.017120 -0.011872 -234756.000000 0 0 1
-29.484787 12.534902 -28.416941 42.825214 -0.401982 2.296359 0.001323 -0.007059 54140.400000 0 0 1
-29.532447 11.519802 -27.423441 41.915587 -0.371919 2.283992 0.011895 -0.004082 1131.130000 0 0 1
-29.629847 12.098602 -26.002521 41.236332 -0.387662 2.253088 0.008160 -0.004820 661186.000000 0 0 1
-28.357147 12.639502 -25.615731 40.249851 -0.419294 2.260642 0.005796 -0.009511 461054.000000 0 0 1
-28.419267 13.528702 -24.592411 39.943300 -0.444296 2.234049 0.004292 -0.007546 28176.000000 0 0 1
-27.061197 14.000702 -24.022111 38.799354 -0.477448 2.238439 0.005298 0.001960 -112172.000000 0 0 1
-26.302707 14.840602 -24.923011 39.156511 -0.513698 2.260745 0.008366 -0.013161 169217.000000 0 0 1
-24.935467 14.896402 -24.568811 38.043486 -0.538504 2.272878 0.011122 -0.015391 250712.000000 0 0 1
-24.512067 15.689102 -23.301711 37.282155 -0.569353 2.245940 0.014420 -0.011021 -1054210.000000 0 0 1
-24.780267 17.105802 -23.388611 38.127382 -0.604186 2.231197 0.028897 -0.013487 -59283.400000 0 0 1
-24.939867 17.650402 -22.089711 37.702639 -0.615887 2.196778 0.023141 -0.013084 249649.000000 0 0 1
-26.417697 17.672702 -21.605111 38.431757 -0.589597 2.167801 0.020507 -0.000710 41557.200000 0 0 1
-27.060897 16.431802 -21.497911 38.268217 -0.545708 2.167319 0.027437 0.004375 -915619.000000 0 0 1
-28.318487 16.694602 -20.971411 38.992904 -0.532686 2.138653 0.029671 0.009507 -1536780.000000 0 0 1
-29.201387 15.418402 -20.999311 39.133351 -0.485798 2.137210 0.021829 0.006192 -66769.700000 0 0 1
-29.870897 15.169402 -22.190011 40.184298 -0.469894 2.155804 0.015727 0.008070 857243.000000 0 0 1
-30.941827 16.102702 -22.531811 41.525609 -0.479849 2.144326 0.001992 0.006970 126196.000000 0 0 1
-31.557947 16.009802 -23.906011 42.704978 -0.469482 2.164934 0.001103 0.002452 -270578.000000 0 0 1
-32.447987 14.937202 -24.156711 43.122367 -0.431422 2.165411 0.018748 0.002446 47443.000000 0 0 1
-32.828797 15.018202 -25.527111 44.214361 -0.429049 2.186274 0.024650 -0.008442 -26074.400000 0 0 1
-34.104518 14.224002 -25.908911 45.129946 -0.395135 2.182296 0.023210 -0.006085 81199.400000 0 0 1
-34.096774 12.814502 -26.129911 44.828269 -0.359496 2.193076 0.020998 -0.006442 -197419.000000 0 0 1
-33.803877 12.060302 -25.004811 43.742354 -0.342696 2.179298 0.016223 -0.011651 -157376.000000 0 0 1
-33.908987 10.565702 -25.460871 43.700222 -0.302056 2.192752 0.020864 -0.018765 588746.000000 0 0 1
-35.224939 10.080502 -25.740811 44.777251 -0.278726 2.183234 0.028356 -0.005928 470668.000000 0 0 1
-35.105131 8.882502 -26.507791 44.876854 -0.247824 2.202696 0.025144 0.006779 -196413.000000 0 0 1
36.129081 8.248902 -26.835831 45.754964 0.224470 2.197542 0.041316 0.008050 -196853.000000 0 0 1
35.452081 7.636502 -25.730691 44.466107 0.212162 2.187879 0.037041 0.014903 -149783.000000 0 0 1
34.232641 7.125102 -26.201171 43.693732 0.205208 2.213866 0.045804 0.009152 -305372.000000 0 0 1
33.444011 6.302602 -25.184101 42.337497 0.186268 2.207865 0.044912 0.008011 298103.000000 0 0 1
34.248971 5.177802 -24.783011 42.591071 0.150045 2.191838 0.045414 0.006980 497001.000000 0 0 1
33.527471 4.308102 -23.931611 41.417063 0.127794 2.186852 0.049855 0.008473 63710.500000 0 0 1
34.423061 3.374802 -23.089811 41.586967 0.097727 2.159421 0.046320 0.001652 45816.500000 0 0 1
35.042801 2.323302 -23.797311 42.422962 0.066202 2.166334 0.052090 -0.002408 -504955.000000 0 0 1
36.008151 1.733402 -23.026111 42.776085 0.048102 2.139208 0.065297 -0.001697 -421022.000000 0 0 1
-35.590939 0.707702 -23.606311 42.713859 -0.019882 2.156351 0.064202 -0.010980 -89018.200000 0 0 1
-36.280537 -0.311698 -24.216611 43.621311 0.008591 2.159346 0.084653 -0.018377 -470738.000000 0 0 1
-35.386016 -1.277798 -24.658211 43.148931 0.036095 2.179089 0.078659 -0.019981 -21923.100000 0 0 1
-22.855167 28.956502 27.772377 46.175130 -0.902618 0.925472 0.005305 -0.000750 -863918.000000 0 0 1
-23.983867 29.520602 27.139207 46.725029 -0.888513 0.951051 -0.010159 -0.000184 471499.000000 0 0 1
-24.276967 29.091202 25.822687 45.852811 -0.875363 0.972586 -0.015225 0.007769 -651156.000000 0 0 1
-24.464467 27.579302 25.506807 44.829959 -0.845177 0.965546 0.002484 0.000309 372274.000000 0 0 1
-25.753367 27.004902 25.808027 45.371300 -0.809116 0.965728 0.004540 -0.003916 894185.000000 0 0 1
-26.071937 26.850802 27.184417 46.256935 -0.800114 0.942604 0.013981 -0.007130 -927741.000000 0 0 1
-25.628827 25.550702 27.932607 45.715486 -0.783872 0.913461 0.034502 -0.009844 774753.000000 0 0 1
-24.216267 25.523802 28.239157 45.114765 -0.811679 0.894459 0.027848 -0.003290 806309.000000 0 0 1
-23.938367 26.074502 29.494857 46.074631 -0.828084 0.876098 0.026090 -0.006544 15203.400000 0 0 1
-22.491167 25.927902 30.028747 45.605201 -0.856258 0.852039 0.040495 0.000085 -500183.000000 0 0 1
-21.487967 26.570002 29.260447 44.987459 -0.890755 0.862668 0.046277 -0.006562 -83704.400000 0 0 1
-20.305567 26.632402 30.028727 44.981389 -0.919382 0.839841 0.056450 -0.013174 214016.000000 0 0 1
-19.377467 25.378402 29.960337 43.785515 -0.918685 0.817218 0.052579 0.006544 -526978.000000 0 0 1
-18.778567 25.078202 28.697387 42.486360 -0.928063 0.829222 0.059694 0.001223 -145764.000000 0 0 1
-19.528367 24.283202 27.832487 41.781316 -0.893504 0.841766 0.063340 -0.004015 -301955.000000 0 0 1
-19.358367 22.767302 27.880707 40.870897 -0.866145 0.820076 0.048453 0.014765 100172.000000 0 0 1
-19.797167 22.087602 29.025737 41.500402 -0.840028 0.796227 0.040058 0.007465 75979.300000 0 0 1
-19.375767 20.735802 28.947597 40.538342 -0.819291 0.775488 0.064467 0.001747 -5704.220000 0 0 1
-19.879867 19.933102 30.212627 41.295769 -0.786735 0.750108 0.070489 -0.003945 -73822.000000 0 0 1
-19.246267 20.407502 31.371947 42.084249 -0.814674 0.729578 0.053717 -0.013757 128694.000000 0 0 1
-19.873867 20.007802 32.617134 43.117980 -0.788756 0.712909 0.044347 -0.007430 -349770.000000 0 0 1
-19.148567 20.522102 33.831379 43.958918 -0.820008 0.692561 0.034314 -0.010106 -968886.000000 0 0 1
-19.207467 21.936002 34.048080 44.826183 -0.851619 0.708163 0.012272 -0.007821 498205.000000 0 0 1
-18.301767 22.690202 33.194818 44.178002 -0.892048 0.720633 0.030662 0.004817 -90556.600000 0 0 1
-16.830867 22.669502 33.596756 43.885378 -0.932148 0.698890 0.015733 0.012141 -888622.000000 0 0 1
-16.276467 21.404602 33.572563 43.013920 -0.920660 0.675324 0.024632 -0.002724 -599486.000000 0 0 1
-14.919567 21.517202 33.966100 42.886821 -0.964528 0.656728 0.003410 -0.003313 -497101.000000 0 0 1
-14.138167 20.211702 33.616086 41.694627 -0.960403 0.633019 -0.001001 -0.001846 -105834.000000 0 0 1
-12.764567 20.201402 33.919304 41.491565 -1.007275 0.613742 -0.008422 -0.010551 11417.400000 0 0 1
-12.449167 20.172002 -33.191981 40.787241 -1.017861 2.521429 0.008104 -0.009425 132468.000000 0 0 1
-10.928467 20.281602 -32.851291 40.124582 -1.076564 2.529996 0.007470 -0.012833 744363.000000 0 0 1
-10.397867 21.600002 -32.971761 40.765338 -1.122153 2.512937 0.011649 -0.019509 -849177.000000 0 0 1
-9.036367 21.562302 -32.699531 40.197613 -1.173949 2.520889 0.020904 -0.016737 -625428.000000 0 0 1
-8.327467 22.957602 -32.579371 40.716257 -1.222824 2.498352 0.026891 -0.016110 188735.000000 0 0 1
-8.654167 23.679102 -31.383331 40.255533 -1.220401 2.464828 0.032345 -0.021762 100649.000000 0 0 1
-8.097067 23.034102 -30.247581 38.872207 -1.232763 2.462477 0.040112 -0.026077 -94411.800000 0 0 1
-7.538567 24.090602 -29.266571 38.648665 -1.267524 2.429883 0.041159 -0.022252 -207012.000000 0 0 1
-6.563067 24.886002 -29.859751 39.420701 -1.312942 2.430216 0.046526 -0.020926 -407431.000000 0 0 1
-6.048767 25.852702 -28.975821 39.300738 -1.340960 2.399838 0.076361 -0.022664 512110.000000 0 0 1
-4.720667 26.531502 -29.464981 39.929818 -1.394712 2.400778 0.068412 -0.021890 -188884.000000 0 0 1
-3.574467 25.846002 -29.080601 39.070116 -1.433369 2.410310 0.067498 -0.017544 -185673.000000 0 0 1
-2.407767 26.091202 -29.856761 39.723725 -1.478774 2.421296 0.076504 -0.016316 831600.000000 0 0 1
-1.563867 27.378402 -29.535211 40.303241 -1.513738 2.393260 0.090718 -0.032190 124984.000000 0 0 1
-0.857467 27.420702 -28.270861 39.393803 -1.539536 2.371215 0.096424 -0.039053 591282.000000 0 0 1
-0.132167 28.639402 -28.122821 40.138832 -1.566181 2.347089 0.098015 -0.038554 -428420.000000 0 0 1
0.252833 28.871502 -26.673441 39.307760 1.562039 2.316623 0.103586 -0.043957 762886.000000 0 0 1
1.321833 28.102902 -26.075141 38.359266 1.523796 2.318233 0.115830 -0.047173 1071050.000000 0 0 1
2.638633 28.415302 -26.516601 38.955383 1.478202 2.319503 0.105714 -0.044190 130227.000000 0 0 1
3.707533 28.408102 -25.405891 38.291322 1.441020 2.296269 0.089214 -0.044574 -13182.100000 0 0 1
4.178533 27.138102 -25.010611 37.141182 1.418023 2.309585 0.090349 -0.032985 615992.000000 0 0 1
5.392133 27.278602 -24.254611 36.898284 1.375643 2.288076 0.072745 -0.024362 701986.000000 0 0 1
6.140633 25.935202 -23.959111 35.838263 1.338309 2.303033 0.061311 -0.024690 -200761.000000 0 0 1
7.127633 26.173802 -23.003111 35.567038 1.304924 2.274117 0.057164 -0.026405 -699035.000000 0 0 1
8.003133 25.080102 -22.863811 34.868546 1.261907 2.285925 0.050252 -0.018079 938378.000000 0 0 1
9.466233 25.480802 -22.449511 35.254239 1.215094 2.261123 0.035307 -0.008661 442803.000000 0 0 1
9.539633 25.908902 -21.099411 34.748539 1.218001 2.223332 0.044048 -0.008916 760378.000000 0 0 1
10.848533 26.496202 -20.897211 35.446196 1.182181 2.201295 0.049121 -0.005276 1421140.000000 0 0 1
11.893333 25.518602 -20.250711 34.680567 1.134663 2.194347 0.031421 -0.000101 19185.400000 0 0 1
12.270033 24.537602 -21.165811 34.650240 1.107109 2.227920 0.032617 -0.010646 -268094.000000 0 0 1
12.118533 23.205002 -20.633811 33.332943 1.089517 2.238293 0.017549 0.001452 -278150.000000 0 0 1
12.183433 22.128202 -21.737911 33.326118 1.067505 2.281383 0.028359 -0.009745 -196799.000000 0 0 1
11.190133 22.170202 -22.718711 33.658235 1.103366 2.311737 0.027133 -0.020590 -79837.300000 0 0 1
11.486233 21.145902 -23.657911 33.745807 1.073197 2.347682 0.025360 -0.017609 245710.000000 0 0 1
10.533833 21.191202 -24.877811 34.335611 1.109483 2.381175 0.044544 -0.019296 -272896.000000 0 0 1
9.255633 20.708202 -24.640611 33.491134 1.150478 2.397548 0.032055 -0.019320 -345317.000000 0 0 1
8.432633 20.489602 -25.806361 34.013253 1.180367 2.432134 0.036598 -0.017408 -148276.000000 0 0 1
6.960133 20.266002 -25.487261 33.297969 1.239979 2.442505 0.035885 -0.030263 -678480.000000 0 0 1
6.150733 21.346602 -25.169721 33.571175 1.290259 2.418468 0.058334 -0.029842 -309485.000000 0 0 1
6.326133 21.880502 -23.901511 33.016035 1.289349 2.380288 0.063356 -0.027705 -878379.000000 0 0 1
4.973533 22.131002 -23.238511 32.473769 1.349737 2.368291 0.084676 -0.034933 -169020.000000 0 0 1
4.231133 23.176602 -23.843011 33.519346 1.390224 2.362172 0.085668 -0.034438 -64811.500000 0 0 1
2.917433 23.296502 -23.312811 33.086637 1.446214 2.352654 0.112349 -0.033398 245676.000000 0 0 1
2.191133 24.244602 -24.286611 34.386644 1.480665 2.355026 0.105509 -0.033453 -929431.000000 0 0 1
0.801033 24.247702 -24.224711 34.284535 1.537773 2.355448 0.116517 -0.049758 -639938.000000 0 0 1
0.434833 25.048502 -25.384071 35.664655 1.553438 2.362773 0.107542 -0.042426 -441488.000000 0 0 1
-0.991567 24.858902 -25.869491 35.891207 -1.530930 2.375716 0.116473 -0.039651 -538809.000000 0 0 1
-1.236167 23.636202 -26.500041 35.530977 -1.518544 2.412575 0.125925 -0.044571 -626067.000000 0 0 1
-2.512567 23.744902 -27.054671 36.084465 -1.465374 2.418495 0.116532 -0.035296 -513458.000000 0 0 1
-3.216567 22.476602 -27.466011 35.636017 -1.428654 2.450794 0.113187 -0.032840 -583602.000000 0 0 1
-2.606167 21.862002 -28.559061 36.060494 -1.452146 2.484836 0.123931 -0.041373 178559.000000 0 0 1
-3.305467 20.680502 -29.042101 35.805766 -1.412302 2.516829 0.095170 -0.039743 274407.000000 0 0 1
-4.507167 20.833402 -30.006141 36.806435 -1.357737 2.523943 0.073419 -0.029578 86357.300000 0 0 1
-4.173467 21.069202 -31.367681 38.016582 -1.375244 2.541185 0.069817 -0.025348 153098.000000 0 0 1
-3.748967 22.443702 -31.622641 38.958516 -1.405286 2.517854 0.083170 -0.031382 118315.000000 0 0 1
-3.505467 22.681502 -33.108741 40.285575 -1.417458 2.535449 0.060969 -0.020406 -35942.600000 0 0 1
-2.446767 21.848602 -33.526741 40.092274 -1.459274 2.561185 0.054807 -0.013181 52466.400000 0 0 1
-2.160167 22.075402 33.649511 40.302348 -1.473253 0.582797 0.046696 0.005657 -386978.000000 0 0 1
-0.999067 21.281202 33.066857 39.335794 -1.523885 0.572351 0.056474 0.007695 -461230.000000 0 0 1
-1.235667 19.910502 32.871156 38.450850 -1.508815 0.545462 0.039205 0.015314 -372803.000000 0 0 1
-0.138467 19.197402 32.378547 37.642127 -1.563584 0.535198 0.043625 0.009323 -270865.000000 0 0 1
-0.427067 17.702402 32.065557 36.630006 -1.546676 0.504553 0.030576 0.015290 -278047.000000 0 0 1
-1.077467 17.496602 30.884577 35.512661 -1.509292 0.516247 0.012883 0.014357 -286187.000000 0 0 1
-1.482567 16.188302 30.595357 34.645851 -1.479468 0.488392 0.013818 0.014609 73026.700000 0 0 1
-2.511867 16.042502 29.427497 33.610250 -1.415482 0.504221 0.010275 0.010157 311752.000000 0 0 1
-3.808167 16.561102 29.622237 34.150390 -1.344779 0.520832 -0.004837 0.009801 -96079.300000 0 0 1
-4.022567 17.921002 29.591637 34.828269 -1.349995 0.555486 -0.004240 0.011118 17452.500000 0 0 1
-5.513267 18.361702 29.710787 35.359286 -1.279102 0.573044 -0.014026 0.004083 1048570.000000 0 0 1
-6.336867 17.876602 28.634347 34.346100 -1.230138 0.585022 -0.023724 0.006982 624026.000000 0 0 1
-7.695367 18.315602 28.649087 34.863306 -1.173038 0.606313 -0.010349 0.007895 355989.000000 0 0 1
-8.599267 17.525902 27.673527 33.866336 -1.114648 0.614365 -0.008115 0.001030 -131745.000000 0 0 1
-8.893467 16.188702 27.909397 33.467929 -1.068443 0.584633 -0.011974 -0.008705 399572.000000 0 0 1
-9.631167 15.942402 29.135677 34.580446 -1.027351 0.568800 -0.009055 -0.005034 31645.100000 0 0 1
-10.229867 14.498402 29.374217 34.317612 -0.956331 0.543408 -0.008031 -0.009410 1109020.000000 0 0 1
-9.260267 13.453002 29.809797 33.990584 -0.967937 0.501210 0.004128 -0.009650 1259700.000000 0 0 1
-8.682067 13.661302 31.094197 35.055079 -1.004666 0.479968 0.013465 -0.005769 -627885.000000 0 0 1
-9.526167 13.149702 32.205787 36.067648 -0.943855 0.466990 0.054664 -0.016771 -721138.000000 0 0 1
-9.730567 11.731902 32.342527 35.754168 -0.878377 0.440401 0.050439 -0.014469 122690.000000 0 0 1
-10.149767 11.446802 33.657806 36.971542 -0.845384 0.426617 0.057523 -0.013508 -409483.000000 0 0 1
-10.505167 10.005702 33.867090 36.843621 -0.761052 0.404722 0.052166 -0.016794 14825.000000 0 0 1
-9.434367 9.054602 33.942300 36.374068 -0.764861 0.367731 0.050945 -0.019372 193670.000000 0 0 1
-9.442767 8.248002 -33.410361 35.685398 -0.717964 2.782589 0.070280 -0.028789 -343803.000000 0 0 1
-8.712967 8.788102 -32.178391 34.476012 -0.789691 2.774448 0.060080 -0.026035 28431.000000 0 0 1
-9.412767 9.917502 -31.600831 34.432101 -0.811503 2.733230 0.062670 -0.024052 231855.000000 0 0 1
-8.643167 10.677402 -30.703131 33.636193 -0.890300 2.720886 0.056449 -0.027489 235831.000000 0 0 1
-7.686167 11.749002 -31.354501 34.354344 -0.991476 2.720589 0.047599 -0.016405 354315.000000 0 0 1
-8.324767 12.836602 -31.999901 35.469336 -0.995464 2.695605 0.046555 -0.011875 -611297.000000 0 0 1
-7.411567 13.798202 -32.330351 35.924550 -1.077880 2.690454 0.031525 -0.004955 -583498.000000 0 0 1
-8.034167 15.165602 -32.632041 36.869953 -1.083623 2.657415 0.032791 -0.003372 -248771.000000 0 0 1
-8.584067 15.290802 -33.883881 38.152487 -1.059252 2.664029 0.043224 -0.009077 -183939.000000 0 0 1
-9.020667 16.622302 -34.050071 38.949720 -1.073587 2.634594 0.050130 -0.012337 -832107.000000 0 0 1
-9.363867 17.036602 32.997588 38.298415 -1.068235 0.532400 0.031408 -0.011715 809112.000000 0 0 1
-10.512567 16.427502 32.374757 37.795526 -1.001528 0.542198 0.011882 -0.005572 714085.000000 0 0 1
-11.729867 16.895902 32.922752 38.819697 -0.963944 0.558419 0.016014 -0.012242 -955168.000000 0 0 1
-12.986867 16.374002 32.251047 38.430414 -0.900253 0.574974 0.019635 -0.019767 -560730.000000 0 0 1
-13.000367 14.970302 32.371477 37.960927 -0.855711 0.549554 0.021559 -0.021372 -655076.000000 0 0 1
-14.259767 14.419602 32.408027 38.230173 -0.790971 0.559147 0.018904 -0.010505 -1085100.000000 0 0 1
-14.203067 12.955402 32.862165 38.072187 -0.739490 0.529313 0.022852 -0.010731 -39623.800000 0 0 1
-14.155467 12.075102 31.712757 36.767979 -0.706253 0.530587 0.009779 -0.014634 978104.000000 0 0 1
-12.826567 11.872902 31.170787 35.736600 -0.746807 0.511039 0.017026 -0.009562 319577.000000 0 0 1
-12.711367 11.315102 29.758287 34.280695 -0.727350 0.519481 0.027698 -0.004707 -69433.100000 0 0 1
-13.387967 10.061202 29.681587 34.080230 -0.644467 0.513699 0.021476 -0.002942 79531.000000 0 0 1
-13.367867 9.486502 28.360647 32.756982 -0.617173 0.524071 0.004891 0.001055 449206.000000 0 0 1
-14.338967 8.288002 28.011897 32.541717 -0.524090 0.533958 0.029996 0.003411 558216.000000 0 0 1
-13.967867 7.103302 28.706197 32.704800 -0.470461 0.499679 0.009533 0.004800 -304616.000000 0 0 1
-14.776367 6.049102 28.332837 32.522028 -0.388564 0.513177 0.026518 0.011768 -160748.000000 0 0 1
-14.056567 4.660202 28.311737 31.950884 -0.320128 0.481930 0.033279 0.009993 -113027.000000 0 0 1
-13.103767 4.402402 27.309537 30.608833 -0.324117 0.468579 0.025449 0.006572 -525225.000000 0 0 1
-13.568667 4.254302 25.975957 29.613479 -0.303831 0.500867 0.027238 0.009355 -787583.000000 0 0 1
-12.643567 3.928602 24.805907 28.118085 -0.301262 0.490272 0.017343 0.015796 -638196.000000 0 0 1
-12.035767 2.660602 24.980967 27.856547 -0.217559 0.458377 0.015387 0.013068 -29803.300000 0 0 1
-11.537667 2.250402 23.731437 26.483262 -0.192630 0.459911 0.014061 0.006446 -110724.000000 0 0 1
-10.370567 1.244702 23.885727 26.069636 -0.119451 0.412234 0.017905 0.003999 415591.000000 0 0 1
-9.075367 1.733302 24.206997 25.910333 -0.188717 0.364617 0.015356 -0.004381 485090.000000 0 0 1
-8.178467 0.657002 24.461367 25.800726 -0.080161 0.323627 0.017558 -0.012269 573161.000000 0 0 1
-6.705467 1.158902 24.286397 25.221725 -0.171139 0.273188 0.032552 -0.016139 -260426.000000 0 0 1
-6.391567 1.307802 22.903727 23.814768 -0.201828 0.277495 0.038160 -0.015451 464220.000000 0 1 0
-5.003067 1.546102 22.696027 23.292290 -0.299721 0.226756 0.036024 -0.017726 413233.000000 0 1 0
-4.423067 2.931402 23.080627 23.682736 -0.585288 0.225975 0.036172 -0.020674 -790164.000000 0 1 0
-4.310667 2.993302 24.486027 25.042109 -0.606954 0.211133 0.036863 -0.018664 -34906.300000 0 0 1
-4.055967 4.286802 24.984427 25.671952 -0.813060 0.231955 0.026510 -0.015437 -145933.000000 0 0 1
4.110733 -23.539498 12.916089 27.163053 -1.397908 1.075262 0.055086 -0.021572 185247.000000 0 0 1
3.923433 -24.720698 13.647989 28.509189 -1.413399 1.071597 0.048262 -0.026733 732595.000000 0 0 1
2.552733 -25.156028 13.492889 28.660081 -1.469667 1.080610 0.034757 -0.018802 1022770.000000 0 0 1
2.161233 -26.481118 14.145989 30.100325 -1.489363 1.081549 0.022261 -0.016176 -104375.000000 0 0 1
2.040733 -26.315488 15.506289 30.612326 -1.493402 1.039632 0.043150 -0.024183 -4710.070000 0 0 1
2.131033 -27.617948 16.107189 32.042689 -1.493788 1.044101 0.043390 -0.020229 -409580.000000 0 0 1
1.932233 -27.549038 17.622889 32.760483 -1.500773 1.002815 0.029578 -0.014943 113476.000000 0 0 1
3.033233 -27.067408 18.364089 32.849427 -1.459200 0.977571 0.048357 -0.020036 220611.000000 0 0 1
2.710933 -27.260888 19.687989 33.736065 -1.471678 0.947655 0.048449 -0.022713 -32395.200000 0 0 1
3.480233 -26.399348 20.692789 33.722828 -1.439722 0.910167 0.055081 -0.020284 -311539.000000 0 0 1
2.867933 -25.143028 21.016789 32.895324 -1.457222 0.877730 0.053229 -0.017978 61643.500000 0 0 1
3.460533 -24.359098 22.046189 33.035971 -1.429677 0.840166 0.074623 -0.026477 -93765.700000 0 0 1
2.564233 -23.181798 22.448389 32.371302 -1.460630 0.804508 0.068845 -0.024407 93131.500000 0 0 1
1.997933 -22.242898 21.496789 30.997584 -1.481213 0.804462 0.051616 -0.020253 687032.000000 0 0 1
2.952133 -21.559898 20.644989 29.995998 -1.434716 0.811711 0.047564 -0.010485 522323.000000 0 0 1
2.284533 -20.487698 19.707489 28.519292 -1.459748 0.807893 0.030814 -0.017535 339222.000000 0 0 1
1.740733 -19.462198 20.544089 28.352547 -1.481592 0.760351 0.025609 -0.016030 -339014.000000 0 0 1
1.102533 -18.500498 19.852889 27.159183 -1.511272 0.751036 0.019658 -0.023140 -797372.000000 0 0 1
0.960833 -17.109698 20.525989 26.739132 -1.514698 0.695648 0.015886 -0.020164 -103558.000000 0 0 1
2.101033 -16.263298 20.593689 26.325068 -1.442319 0.672472 -0.000136 -0.007313 200963.000000 0 0 1
1.769433 -14.941798 21.167389 25.970109 -1.452924 0.617951 0.008824 -0.000120 -51858.900000 0 0 1
2.870233 -13.918698 20.929389 25.298374 -1.367433 0.596509 -0.010961 0.002714 -732836.000000 0 0 1
3.108933 -13.372998 19.628389 23.953626 -1.342375 0.610375 -0.022897 0.001256 584046.000000 0 1 0
2.031933 -12.862298 18.783389 22.855703 -1.414115 0.606189 -0.010354 0.006240 770505.000000 0 1 0
1.116733 -11.718898 19.233489 22.550095 -1.475790 0.549238 -0.007861 0.002593 -44958.700000 0 1 0
1.751633 -10.423698 19.122489 21.849286 -1.404309 0.504948 -0.005657 0.004446 -18295.500000 0 1 0
1.383333 -9.470498 20.085289 22.249107 -1.425754 0.444686 0.000046 -0.005371 361805.000000 0 1 0
-0.066367 -8.895398 20.111789 21.991284 1.563336 0.416441 0.008993 -0.010061 538179.000000 0 1 0
-0.176967 -8.000898 21.239289 22.696984 1.548682 0.360343 0.015850 -0.014329 443333.000000 0 1 0
-1.525067 -7.514698 21.214589 22.557821 1.370571 0.346833 0.018407 -0.011557 766271.000000 0 1 0
-1.935367 -6.865798 22.558489 23.659464 1.296040 0.306267 0.030720 -0.007416 -203673.000000 0 1 0
-2.221267 -7.875998 23.567689 24.947973 1.295906 0.334199 0.031637 -0.003424 155218.000000 0 1 0
-1.868967 -7.466098 24.890789 26.053542 1.325510 0.299884 0.027608 0.006864 25007.000000 0 0 1
-2.148967 -8.535198 25.973889 27.424634 1.324146 0.326718 0.035186 0.006962 248317.000000 0 0 1
-1.130567 -9.523398 25.921489 27.638685 1.452635 0.354357 0.031208 0.009609 202866.000000 0 0 1
-1.264967 -10.556198 26.931089 28.953705 1.451533 0.375994 0.042837 0.000815 264560.000000 0 0 1
0.057433 -11.337198 27.261789 29.525252 -1.565730 0.394112 0.037677 -0.000180 300359.000000 0 0 1
1.077533 -10.609298 27.862389 29.833387 -1.469578 0.365534 0.021492 0.002629 -461652.000000 0 0 1
2.166133 -11.475298 28.130989 30.458613 -1.384227 0.393479 0.029204 -0.005017 15931.400000 0 0 1
3.040533 -10.956198 29.282989 31.413000 -1.300091 0.370370 0.027386 -0.005764 -58105.900000 0 0 1
2.524933 -11.195998 30.563689 32.647584 -1.348986 0.359224 0.034461 -0.006470 410029.000000 0 0 1
3.346233 -10.417798 31.477789 33.325351 -1.260002 0.334545 0.035239 0.000102 -43043.900000 0 0 1
2.865933 -10.248398 32.915289 34.592766 -1.298115 0.312695 0.031571 -0.002655 -523377.000000 0 0 1
2.929833 -11.471698 33.621689 35.645501 -1.320745 0.338590 0.033632 -0.012466 304025.000000 0 0 1
2.313533 -11.441798 -33.612949 35.582265 -1.371286 2.807336 0.030740 -0.015812 -144189.000000 0 0 1
3.121333 -10.710598 -32.508849 34.369826 -1.287225 2.811013 0.035122 -0.010154 -172425.000000 0 0 1
3.109033 -9.314398 -32.713249 34.155245 -1.248637 2.849979 0.035492 -0.017475 292505.000000 0 0 1
3.647133 -8.720898 -31.533849 32.920196 -1.174694 2.850350 0.046916 -0.017438 -160918.000000 0 0 1
2.869733 -7.471198 -31.138849 32.150927 -1.204066 2.890016 0.027651 -0.012157 -250408.000000 0 0 1
2.974033 -6.508398 -32.140549 32.927481 -1.142175 2.922528 0.044022 -0.011979 65366.400000 0 0 1
2.531033 -5.275498 -31.628449 32.165134 -1.123462 2.958662 0.024743 -0.008375 24449.400000 0 0 1
2.696533 -4.090798 -32.601749 32.967863 -0.988001 2.992423 0.027241 -0.005825 90012.000000 0 0 1
1.978233 -4.213898 -33.807549 34.126540 -1.131882 3.004758 0.021191 -0.004193 -199193.000000 0 0 1
2.319033 -3.164498 33.833289 34.059997 -0.938376 0.115443 0.042144 -0.001969 -97421.400000 0 0 1
1.821533 -3.353498 32.408889 32.632806 -1.073209 0.117214 0.036463 -0.004505 657904.000000 0 0 1
0.430333 -3.040198 32.349389 32.494783 -1.430183 0.094633 0.027791 -0.008715 10705.700000 0 0 1
-0.015767 -3.200498 31.026989 31.191625 1.565870 0.102790 0.018640 0.011256 -140342.000000 0 0 1
-1.512767 -3.414898 30.736989 30.963083 1.153787 0.120921 0.017077 -0.002349 -180434.000000 0 0 1
-2.248867 -2.234098 30.832989 30.995513 0.782104 0.102450 0.027764 -0.007232 -1193560.000000 0 0 1
-3.596767 -2.539998 30.788489 31.101758 0.614868 0.142052 0.018061 -0.008755 -822753.000000 0 0 1
-4.484967 -1.487498 30.107789 30.476327 0.320247 0.155673 0.025109 -0.013000 -396005.000000 0 0 1
-4.379967 -1.621098 28.702789 29.080271 0.354482 0.161300 0.027446 -0.014108 471402.000000 0 0 1
-5.378467 -0.940198 27.900989 28.430214 0.173059 0.193251 0.020842 -0.021227 600328.000000 0 0 1
-5.565967 0.583002 28.017989 28.571447 -0.104363 0.197149 0.035423 -0.017998 213745.000000 0 0 1
-6.571267 0.916702 28.985589 29.735270 -0.138607 0.225027 0.031722 -0.013920 79052.400000 0 0 1
-6.996467 2.239102 28.764789 29.687998 -0.309733 0.250038 0.036450 -0.013058 374810.000000 0 0 1
-8.373167 2.618102 29.407589 30.688282 -0.303047 0.289917 0.026310 -0.015828 59729.000000 0 0 1
-9.434467 2.041402 28.729489 30.307755 -0.213092 0.324139 0.017098 -0.010975 -768548.000000 0 0 1
-10.679867 2.548002 29.155989 31.154832 -0.234202 0.360157 0.016303 -0.004559 -156303.000000 0 0 1
-11.805467 1.873102 28.348889 30.765843 -0.157352 0.399025 0.022240 -0.003148 -531811.000000 0 0 1
-11.900967 0.456902 28.623889 31.002722 -0.038373 0.394288 0.031789 -0.005828 -13707.500000 0 0 1
-12.258367 -0.215498 27.453789 30.067001 0.017578 0.420005 0.028841 -0.003588 -1019270.000000 0 0 1
-12.215967 -1.738998 27.653889 30.281868 0.141404 0.419688 0.034480 -0.010931 716197.000000 0 0 1
-10.979367 -2.388598 28.053789 30.220307 0.214215 0.380957 0.045352 -0.016365 2025660.000000 0 0 1
-9.771667 -2.105598 27.296589 29.069276 0.212235 0.351031 0.040995 -0.015444 478231.000000 0 0 1
-9.716467 -2.732198 25.849489 27.750148 0.274114 0.372259 0.037289 -0.013000 -226374.000000 0 0 1
-10.687667 -2.087098 24.996489 27.265485 0.192854 0.410851 0.029007 -0.011498 736875.000000 0 0 1
-10.731367 -2.594498 23.679189 26.126570 0.237216 0.436289 0.042980 -0.011698 -278591.000000 0 0 1
-9.621267 -2.174998 22.687789 24.739344 0.222325 0.410120 0.039749 -0.017024 243671.000000 0 1 0
-8.312067 -2.330298 23.176889 24.732346 0.273334 0.356545 0.044667 -0.016543 -127889.000000 0 1 0
-7.311367 -2.368998 22.188089 23.481472 0.313341 0.333449 0.036463 -0.013800 564405.000000 0 1 0
-5.855667 -2.317898 22.773289 23.628038 0.376914 0.269798 0.042404 -0.010703 593441.000000 0 1 0
-5.083567 -3.484298 22.741589 23.561894 0.600863 0.264646 0.037158 -0.009989 -54532.600000 0 1 0
-5.488867 -4.465698 23.654289 24.689988 0.682974 0.290671 0.037727 -0.010006 -293719.000000 0 1 0
-5.399367 -5.908498 23.185889 24.528534 0.830392 0.332400 0.042632 -0.007616 103769.000000 0 1 0
-6.399167 -6.212298 22.202689 23.927001 0.770582 0.381964 0.048561 -0.017589 386477.000000 0 1 0
-6.026667 -6.008998 20.835189 22.506307 0.783930 0.387785 0.050705 -0.020490 -459083.000000 0 1 0
-7.260167 -6.153998 19.930489 22.086333 0.703122 0.445512 0.054974 -0.017267 267944.000000 0 1 0
-8.301967 -5.251398 20.357589 22.603789 0.564009 0.449586 0.057306 -0.012261 130478.000000 0 1 0
-9.239767 -5.198698 19.293489 22.014506 0.512499 0.502463 0.050026 -0.007663 -156378.000000 0 1 0
-9.911267 -3.824098 19.284689 22.017179 0.368234 0.503513 0.046526 -0.012505 -293917.000000 0 1 0
-9.114167 -2.779898 18.847189 21.119006 0.296045 0.468098 0.043105 -0.018663 103416.000000 0 1 0
-9.803267 -1.565998 19.036489 21.469614 0.158404 0.480700 0.044129 -0.015549 42162.900000 0 1 0
-8.963167 -0.498698 18.287889 20.372382 0.055581 0.456319 0.050097 -0.013607 534494.000000 0 1 0
-7.728867 -0.150598 18.916389 20.434966 0.019483 0.387948 0.040162 -0.011864 554064.000000 0 1 0
-7.861567 0.679102 20.059989 21.556172 -0.086169 0.374771 0.048937 -0.010992 -442685.000000 0 1 0
-7.739267 2.208802 19.753289 21.329967 -0.278011 0.386904 0.036526 -0.016146 -89062.100000 0 1 0
-8.672967 2.649202 18.781989 20.856695 -0.296454 0.449819 0.024168 -0.024208 250547.000000 0 1 0
-8.496967 4.000002 18.503789 20.750631 -0.439980 0.469661 0.017649 -0.016363 -336997.000000 0 1 0
-9.360167 4.472502 17.357989 20.221666 -0.445749 0.538682 0.016658 -0.007390 489113.000000 0 1 0
-10.757067 4.534402 17.720489 21.220062 -0.398926 0.582515 0.014358 -0.001095 1103040.000000 0 1 0
-11.628767 5.194302 16.826289 21.102914 -0.420087 0.647914 0.017029 0.008145 -102734.000000 0 1 0
-11.656167 6.729102 16.795089 21.522594 -0.523561 0.675576 0.014343 0.012570 -470366.000000 0 1 0
-10.397467 7.342202 16.552289 20.880458 -0.614844 0.655543 0.010693 0.009140 289079.000000 0 1 0
-10.435167 8.761802 16.435489 21.349173 -0.698450 0.692203 -0.001595 0.007715 -86029.200000 0 1 0
-9.166667 9.493902 16.918389 21.456790 -0.802933 0.662452 -0.001438 0.018994 33549.800000 0 1 0
-8.990267 9.620002 18.347089 22.582848 -0.819223 0.622481 0.015188 0.032681 90825.300000 0 1 0
-8.353567 10.856402 18.709189 23.187869 -0.914957 0.631992 0.029595 0.030792 161476.000000 0 1 0
-9.000267 12.191702 18.194789 23.678951 -0.934871 0.694467 0.029281 0.023933 292412.000000 0 1 0
-8.598467 12.512302 16.866489 22.692946 -0.968712 0.732884 0.012635 0.011361 14088.800000 0 1 0
-9.323867 13.653402 16.435889 23.312836 -0.971641 0.788353 0.022265 -0.001271 -252064.000000 0 1 0
-9.016267 14.173002 14.995689 22.517498 -1.004214 0.842020 0.030333 -0.008051 -122602.000000 0 1 0
-7.788667 14.825002 14.893389 22.411092 -1.087056 0.843899 0.021034 0.001718 -626580.000000 0 1 0
-7.509467 15.139002 13.538489 21.653456 -1.110326 0.895364 0.013402 -0.009179 -179858.000000 0 1 0
-6.462267 16.249902 13.392889 22.027021 -1.192291 0.917231 -0.005955 -0.012591 -95362.200000 0 1 0
-5.148367 15.841802 13.639889 21.529397 -1.256577 0.884667 -0.003504 -0.017316 -97329.300000 0 1 0
-4.166167 16.896202 13.483389 22.014549 -1.329045 0.911607 -0.006938 -0.021794 -343422.000000 0 1 0
-2.754267 16.413402 13.463389 21.406742 -1.404539 0.890617 0.010209 -0.034125 -1204780.000000 0 1 0
-2.130567 16.026402 14.703689 21.853680 -1.438630 0.832776 0.022385 -0.025046 156002.000000 0 1 0
-2.615167 14.798902 15.270889 21.425374 -1.395888 0.777388 0.025810 -0.015383 -64136.600000 0 1 0
-1.632667 14.266702 16.364689 21.771711 -1.456853 0.720237 0.024177 -0.005537 122291.000000 0 1 0
-0.398967 13.915702 15.775489 21.039771 -1.542134 0.723046 0.023682 -0.025989 -22242.700000 0 1 0
0.622833 13.590202 16.749389 21.578312 1.524999 0.682158 0.032814 -0.002571 727187.000000 0 1 0
1.614333 14.735402 16.958089 22.523652 1.461677 0.718337 0.037636 -0.022851 -494441.000000 0 1 0
1.100333 15.655602 17.902289 23.807573 1.500628 0.719769 0.038843 -0.025347 -387720.000000 0 1 0
2.025533 16.576602 18.424589 24.866684 1.449207 0.736335 0.050227 -0.023300 -518573.000000 0 1 0
1.300733 17.831502 18.982289 26.076458 1.497980 0.755473 0.046766 -0.020276 528612.000000 0 0 1
0.584433 18.597502 18.003789 25.891022 1.539381 0.801864 0.035962 -0.018774 400199.000000 0 0 1
-0.661267 18.051502 17.564589 25.195412 -1.534180 0.799404 0.035116 -0.016288 -261456.000000 0 0 1
-1.430567 19.003202 16.629589 25.292517 -1.495658 0.853313 0.028461 -0.013900 27765.100000 0 0 1
-2.046967 20.153602 17.222089 26.588683 -1.469575 0.866205 0.028922 -0.007358 -149258.000000 0 0 1
-2.594867 20.962502 16.250089 26.650051 -1.447637 0.915041 0.025464 -0.008453 -509838.000000 0 0 1
-3.221167 22.235302 16.915689 28.123390 -1.426930 0.925443 0.023167 -0.004021 -204477.000000 0 0 1
-4.427967 21.950002 17.596089 28.478620 -1.371738 0.904765 0.026451 -0.000075 -95245.000000 0 0 1
-4.869567 23.073402 18.321889 29.862789 -1.362802 0.910266 0.026849 -0.004111 -16753.400000 0 0 1
-5.957067 22.763502 19.376489 30.481338 -1.314842 0.881902 0.017013 -0.006714 -587605.000000 0 0 1
-7.240767 22.709302 18.873189 30.402933 -1.262141 0.901074 0.010902 -0.006782 -456294.000000 0 0 1
-8.213967 22.363102 19.885289 31.032278 -1.218793 0.875265 -0.007205 -0.007139 1213420.000000 0 0 1
-9.681367 22.753202 19.512289 31.498674 -1.168507 0.902737 0.003467 -0.013153 432850.000000 0 0 1
-9.865667 24.142202 19.514789 32.573061 -1.182857 0.928409 0.012612 -0.009510 -761862.000000 0 0 1
-11.008067 24.408702 18.792189 32.712515 -1.147120 0.958846 0.016617 -0.009344 -531877.000000 0 0 1
-11.642867 25.805602 19.069089 34.133789 -1.146965 0.978030 0.026239 -0.014047 251308.000000 0 0 1
-12.304767 25.996302 20.339089 35.226319 -1.128713 0.955276 0.021243 0.001752 497947.000000 0 0 1
-12.811667 27.315102 20.461689 36.454551 -1.132228 0.974849 0.034268 -0.005062 -400444.000000 0 0 1
-13.762167 27.462602 21.645289 37.578056 -1.106250 0.956959 0.056559 -0.010756 745019.000000 0 0 1
-15.040567 26.774402 21.534389 37.507561 -1.058975 0.959250 0.058174 -0.001797 1475800.000000 0 0 1
-15.819467 26.961702 22.716989 38.642599 -1.040185 0.942368 0.050920 0.005013 31190.800000 0 0 1
-17.280067 26.506102 22.723789 38.955676 -0.993067 0.947981 0.067620 0.008367 -249367.000000 0 0 1
-17.507367 25.128002 22.824089 38.195070 -0.962270 0.930334 0.075162 0.003671 825874.000000 0 0 1
-18.858867 24.805102 23.210389 38.854499 -0.920747 0.930583 0.077970 0.005752 953422.000000 0 0 1
27.790733 23.967702 24.098977 43.903716 0.711669 0.989742 0.079834 -0.004779 68170.500000 0 0 1
27.615233 23.268102 25.299557 44.091646 0.700172 0.959664 0.063863 -0.009951 -9830.820000 0 0 1
27.143833 22.004902 25.010717 42.971378 0.681218 0.949571 0.059675 0.003540 -62491.300000 0 0 1
26.593633 21.260702 26.294007 43.018758 0.674415 0.913193 0.069398 -0.004180 284337.000000 0 0 1
25.429133 21.794602 26.906147 42.960286 0.708586 0.893995 0.075294 -0.000074 74097.900000 0 0 1
24.922033 20.887102 27.865677 42.823763 0.697544 0.862283 0.065470 -0.003170 -474704.000000 0 0 1
23.584833 21.440502 28.351297 42.658358 0.737809 0.843821 0.088040 -0.012603 -732099.000000 0 0 1
23.564533 22.747302 28.856377 43.651087 0.767754 0.848554 0.105387 -0.027169 511054.000000 0 0 1
22.598033 22.945702 29.935197 43.969220 0.793032 0.821912 0.114213 -0.029093 690006.000000 0 0 1
22.358733 24.465202 30.334317 44.929164 0.830355 0.829616 0.105933 -0.024176 -398393.000000 0 0 1
21.741033 25.169502 29.339757 44.350847 0.858354 0.847929 0.107240 -0.030424 -201269.000000 0 0 1
21.251033 26.421602 29.789577 45.134536 0.893436 0.849954 0.082360 -0.031677 1465420.000000 0 0 1
19.784233 26.610302 30.405077 44.988807 0.931481 0.828697 0.086492 -0.032758 1316940.000000 0 0 1
18.729033 26.308402 29.502967 43.741670 0.952126 0.830534 0.078496 -0.031869 1388730.000000 0 0 1
17.392033 26.541202 30.022887 43.684001 0.990715 0.813066 0.065595 -0.030799 1533420.000000 0 0 1
16.754033 25.379402 30.884697 43.343698 0.987324 0.777666 0.046673 -0.028377 -388416.000000 0 0 1
17.352133 25.098802 32.128077 44.308686 0.965897 0.759622 0.052111 -0.031869 127631.000000 0 0 1
16.710933 23.985102 32.723731 43.879186 0.962274 0.729108 0.048067 -0.033696 248604.000000 0 0 1
17.199833 23.845902 34.173920 45.081239 0.945924 0.710475 0.061653 -0.030584 -116400.000000 0 0 1
16.972733 25.025602 -33.694711 45.273480 0.974841 2.410205 0.038937 -0.025943 138819.000000 0 0 1
17.371733 24.931702 -32.313421 44.356781 0.962240 2.386910 0.031895 -0.010996 -118956.000000 0 0 1
17.611033 26.229402 -31.517141 44.625779 0.979508 2.354989 0.022616 0.003934 366953.000000 0 0 1
16.463533 26.960502 -31.066631 44.306344 1.022580 2.347845 0.038470 -0.006888 584828.000000 0 0 1
16.864333 28.251202 -30.593671 44.927818 1.032628 2.319858 0.034006 -0.002481 -65030.200000 0 0 1
16.452533 28.542602 -29.072331 43.938211 1.047895 2.293832 0.043989 -0.004312 -17976.100000 0 0 1
17.095133 27.642302 -28.160601 43.004184 1.016928 2.284759 0.036671 -0.003085 251439.000000 0 0 1
16.770233 27.923302 -26.818911 42.192481 1.029949 2.259624 0.032355 -0.000841 -224616.000000 0 0 1
17.442433 27.017402 -25.754171 41.200192 0.997521 2.246054 0.024320 -0.001153 131939.000000 0 0 1
18.792333 27.426202 -25.611641 41.967898 0.970075 2.227194 0.037058 0.001286 -262778.000000 0 0 1
19.452633 26.692702 -24.577511 41.169883 0.941027 2.210525 0.037956 0.001319 106003.000000 0 0 1
20.979133 26.932402 -24.648011 42.107039 0.909020 2.196127 0.039111 0.002965 14722.200000 0 0 1
21.527233 26.161402 -23.592211 41.284781 0.882270 2.179069 0.036259 0.009416 441836.000000 0 0 1
22.957133 26.216302 -23.500411 42.030867 0.851580 2.164124 0.041183 0.013242 946980.000000 0 0 1
23.532133 26.134502 -22.067211 41.517891 0.837747 2.131180 0.042733 0.012495 96093.200000 0 0 1
23.304333 24.911402 -21.390911 40.264636 0.818717 2.130881 0.046270 0.013512 192738.000000 0 0 1
24.031433 24.865202 -20.167111 40.031243 0.802448 2.098770 0.048112 0.007399 -9341.270000 0 0 1
23.535033 23.678502 -19.270611 38.547706 0.788437 2.094298 0.038241 -0.000824 -596861.000000 0 0 1
23.970433 22.391002 -19.691311 38.258154 0.751344 2.111449 0.043613 0.002470 280338.000000 0 0 1
23.510833 21.564902 -18.671311 36.965147 0.742255 2.100301 0.047045 -0.002593 -1021960.000000 0 0 1
23.629033 20.045602 -19.029611 36.363215 0.703533 2.121539 0.051129 -0.000716 182243.000000 0 0 1
22.677733 19.540402 -19.942011 35.969302 0.711222 2.158459 0.034281 -0.001374 -517642.000000 0 0 1
21.335533 19.693902 -19.613711 35.039298 0.745408 2.164896 0.031149 -0.008372 -1277870.000000 0 0 1
20.370133 19.511502 -20.794511 35.043583 0.763872 2.206060 0.022977 -0.005464 -100363.000000 0 0 1
20.561133 20.379202 -21.938211 36.322956 0.780954 2.219277 0.021867 -0.001987 -136728.000000 0 0 1
20.706933 21.773202 -21.720811 37.076179 0.810493 2.196716 0.014790 0.004301 -67435.700000 0 0 1
20.438033 22.458602 -23.001811 38.094426 0.832467 2.219069 0.031611 0.003422 -796119.000000 0 0 1
19.077233 22.494202 -23.224911 37.540997 0.867409 2.237825 0.041170 -0.002054 -1147280.000000 0 0 1
18.716133 23.136102 -24.424911 38.498690 0.890617 2.258074 0.037026 -0.007580 -354757.000000 0 0 1
17.234233 23.273102 -24.756011 38.098768 0.933389 2.278098 0.036684 -0.009455 -323345.000000 0 0 1
16.539033 24.310102 -24.057411 37.990521 0.973390 2.256539 0.029330 -0.018332 111055.000000 0 0 1
15.150833 24.116602 -24.268011 37.417838 1.009876 2.276498 0.038029 -0.019352 234179.000000 0 0 1
14.285933 25.201102 -23.575611 37.349603 1.055088 2.253914 0.028018 -0.014283 -51978.000000 0 0 1
14.532533 26.513202 -23.995311 38.599473 1.069394 2.241642 0.020525 -0.005854 417121.000000 0 0 1
13.431433 27.347302 -23.603111 38.540695 1.114259 2.229915 0.028138 -0.007593 552000.000000 0 0 1
13.344833 28.723002 -24.354111 39.952699 1.135864 2.226319 0.027275 -0.010019 25963.000000 0 0 1
13.205933 28.639102 -25.756381 40.718374 1.138737 2.255637 0.034642 -0.018132 -105875.000000 0 0 1
12.814133 29.805302 -26.447251 41.857079 1.164759 2.254730 0.050558 -0.019764 4713.280000 0 0 1
13.696133 31.108602 -26.280001 42.964725 1.156065 2.228959 0.066222 -0.022190 789990.000000 0 0 1
15.000633 30.981702 -26.857691 43.660284 1.119887 2.233374 0.049174 -0.016241 491694.000000 0 0 1
15.580933 32.283602 -26.999281 44.877139 1.121144 2.216332 0.056259 -0.017998 -100225.000000 0 0 1
17.033833 32.257302 -27.512761 45.690666 1.084953 2.216991 0.055589 0.000526 -4426.880000 0 0 1
17.912633 31.723002 -26.517001 45.059545 1.056769 2.199984 0.031057 0.002078 542825.000000 0 0 1
19.214333 31.544202 -27.067461 45.791644 1.023695 2.203219 0.038973 0.004493 28035.000000 0 0 1
20.179333 30.659302 -26.226791 45.111449 0.988692 2.191217 0.024743 0.005406 -542162.000000 0 0 1
20.703133 31.170702 -24.971611 44.986817 0.984513 2.159264 0.038057 -0.000396 409170.000000 0 0 1
21.487433 32.389802 -25.072311 46.253971 0.985058 2.143680 0.042583 -0.006975 680931.000000 0 0 1
22.918433 32.096202 -25.677931 47.061416 0.950700 2.147932 0.034870 0.000885 5895.120000 0 0 1
22.964733 31.711602 -27.063671 47.596711 0.944029 2.175604 0.028132 0.008541 299669.000000 0 0 1
24.285433 31.788602 -27.590801 48.595779 0.918416 2.174580 0.032464 0.013526 -14824.600000 0 0 1
24.257433 31.014302 -28.927211 48.857891 0.907043 2.204419 0.025549 0.006598 72276.400000 0 0 1
23.460633 31.552702 -29.988091 49.449569 0.931444 2.222369 0.042412 -0.004667 1210120.000000 0 0 1
22.119533 30.995402 -29.865641 48.393648 0.950975 2.235899 0.036041 -0.004492 631124.000000 0 0 1
21.155633 31.657102 -30.864501 49.013777 0.981681 2.251977 0.025215 0.003519 -164771.000000 0 0 1
20.526433 32.896402 -30.376281 49.256737 1.012937 2.235331 0.040390 0.001617 1016980.000000 0 0 1
19.696533 33.585602 -31.358041 49.992727 1.040394 2.248816 0.051266 -0.004768 -594890.000000 0 0 1
18.219733 33.295002 -31.300491 49.195900 1.070089 2.260413 0.057163 -0.006214 -1255520.000000 0 0 1
17.667733 32.009802 -31.543331 48.288279 1.066459 2.282638 0.059816 -0.009465 186198.000000 0 0 1
17.929233 31.376202 -32.817491 48.815071 1.051651 2.308083 0.064152 -0.012616 -365809.000000 0 0 1
17.319433 32.032802 -34.120096 49.902346 1.075138 2.323668 0.079077 -0.017698 -63745.700000 0 0 1
17.877633 33.345202 34.161646 50.975781 1.078658 0.836379 0.072804 -0.010269 257384.000000 0 0 1
17.439633 33.836902 32.926803 50.331412 1.094903 0.857672 0.061844 -0.014886 587018.000000 0 0 1
16.018133 -34.021334 32.874272 49.947467 -1.130759 0.852402 0.077195 -0.019642 207500.000000 0 0 1
15.006433 33.515102 32.988738 49.363062 1.149814 0.838891 0.092130 -0.021162 330854.000000 0 0 1
13.640933 33.921002 32.902713 49.186359 1.188448 0.838015 0.086193 -0.026193 783496.000000 0 0 1
13.227933 -34.060934 31.485227 48.233235 -1.200364 0.859561 0.079973 -0.030064 -1074490.000000 0 0 1
13.720233 -32.791334 31.123657 47.246147 -1.174520 0.851633 0.085839 -0.019799 5269.660000 0 0 1
12.980033 -32.229934 30.073877 45.953106 -1.187937 0.857345 0.076423 -0.021335 -234521.000000 0 0 1
13.481233 -30.896834 29.574817 44.844485 -1.159368 0.850646 0.076010 -0.021344 -289076.000000 0 0 1
13.094533 -29.928634 30.476777 44.676883 -1.158365 0.820084 0.073096 -0.026058 510818.000000 0 0 1
13.654033 -28.643134 30.181287 43.792372 -1.125966 0.810425 0.077768 -0.034475 -184732.000000 0 0 1
13.237833 -27.703234 31.353487 43.883374 -1.125030 0.774926 0.064058 -0.030884 1311570.000000 0 0 1
11.838733 -27.324534 31.424777 43.293214 -1.161947 0.758514 0.055797 -0.031395 1485100.000000 0 0 1
11.228333 -26.452534 30.460707 41.876804 -1.169374 0.756288 0.039038 -0.029296 -526956.000000 0 0 1
11.521633 -25.011434 30.846727 41.350217 -1.139117 0.728781 0.039222 -0.021863 -158966.000000 0 0 1
10.770033 -24.627034 31.972437 41.769859 -1.158532 0.699067 0.051617 -0.024337 197301.000000 0 0 1
11.236133 -23.381334 32.392467 41.499511 -1.122821 0.675250 0.051184 -0.022662 8230.080000 0 0 1
10.391933 -22.780134 33.542388 41.857121 -1.142812 0.641240 0.048689 -0.019064 -338498.000000 0 0 1
10.412633 -23.324934 -33.650221 42.247045 -1.150927 2.492298 0.048116 -0.016432 95835.100000 0 0 1
11.680333 -23.629734 -33.103531 42.315934 -1.111714 2.469138 0.047701 -0.017585 209348.000000 0 0 1
12.400033 -22.392534 -32.446831 41.327754 -1.065073 2.473670 0.052424 -0.017572 -113538.000000 0 0 1
12.779433 -21.410334 -33.369181 41.655955 -1.032673 2.499871 0.049558 -0.015397 2485.290000 0 0 1
13.595833 -20.511834 -32.660161 40.893375 -0.985455 2.495872 0.049631 -0.017469 -244900.000000 0 0 1
13.781733 -19.171434 -33.408851 40.910040 -0.947519 2.526365 0.034511 -0.015774 -748674.000000 0 0 1
14.540033 -19.422734 33.975272 41.748943 -0.928186 0.620136 0.044729 -0.002018 79624.900000 0 0 1
14.397133 -18.437834 32.944139 40.404795 -0.907843 0.617459 0.031043 -0.000848 207549.000000 0 0 1
15.394133 -17.223434 33.030023 40.306432 -0.841423 0.610306 0.039611 -0.002884 -375303.000000 0 0 1
15.174233 -16.347134 34.084567 40.733817 -0.822591 0.579451 0.041445 -0.007252 135306.000000 0 0 1
15.958033 -15.194634 34.058207 40.564728 -0.760898 0.574247 0.058507 -0.012122 1037420.000000 0 0 1
17.512633 -15.258734 -34.172275 41.319071 -0.716730 2.544607 0.068009 -0.012759 945353.000000 0 0 1
18.332833 -15.859634 33.397726 41.267770 -0.713192 0.627848 0.078055 -0.014975 -266045.000000 0 0 1
19.708933 -15.849634 33.680267 42.119037 -0.677288 0.644093 0.090904 -0.014505 -114570.000000 0 0 1
20.464433 -16.519634 32.500378 41.808682 -0.679138 0.680339 0.100419 -0.020544 -451602.000000 0 0 1
20.557233 -15.759434 31.287827 40.618810 -0.654049 0.691517 0.090108 -0.015278 483553.000000 0 0 1
21.056433 -16.625934 30.229277 40.417870 -0.668361 0.725875 0.085117 -0.014878 -300301.000000 0 0 1
21.557233 -15.749734 29.069657 39.469144 -0.630970 0.742891 0.081876 -0.012794 -278547.000000 0 0 1
22.603933 -14.895034 29.458317 40.007403 -0.582647 0.743178 0.057704 -0.016703 29377.500000 0 0 1
23.134633 -14.283834 28.362107 39.289289 -0.553131 0.764283 0.051927 -0.019159 -200824.000000 0 0 1
23.769133 -12.912934 28.532507 39.316911 -0.497658 0.758737 0.043501 -0.009941 -189948.000000 0 0 1
22.802733 -11.986434 28.914947 38.726133 -0.483963 0.727781 0.057507 -0.016666 259494.000000 0 0 1
23.387833 -10.662034 28.944227 38.709663 -0.427733 0.726165 0.040323 -0.018540 652984.000000 0 0 1
22.318033 -9.510134 28.942967 37.765495 -0.402818 0.697599 0.052479 -0.023082 559817.000000 0 0 1
21.469833 -9.405134 30.077357 38.132108 -0.412883 0.661995 0.071519 -0.036309 362004.000000 0 0 1
20.525633 -8.332234 29.875117 37.192074 -0.385619 0.638038 0.067618 -0.028891 1208730.000000 0 0 1
19.244533 -8.415334 30.807047 37.285976 -0.412229 0.598402 0.053045 -0.020462 590744.000000 0 0 1
19.443233 -7.964334 32.095337 38.361186 -0.388772 0.579637 0.070411 -0.028517 287955.000000 0 0 1
19.911933 -8.945834 33.048302 39.606859 -0.422247 0.583738 0.079371 -0.030593 -505991.000000 0 0 1
19.946133 -8.352834 -34.092896 40.372560 -0.396582 2.576347 0.088480 -0.039386 -21831.000000 0 0 1
18.621633 -8.076734 -33.693801 39.335367 -0.409241 2.599397 0.079739 -0.041590 37905.500000 0 0 1
18.604733 -7.591134 -32.370261 38.099806 -0.387402 2.586056 0.077697 -0.043663 -781081.000000 0 0 1
17.277033 -7.285534 -31.730751 36.856688 -0.399063 2.607877 0.079299 -0.042694 -755457.000000 0 0 1
17.574933 -6.546034 -30.542591 35.841020 -0.356546 2.590912 0.066401 -0.035015 464352.000000 0 0 1
16.428833 -6.328634 -29.725501 34.547989 -0.367696 2.606874 0.061686 -0.031181 226537.000000 0 0 1
16.480233 -5.144034 -28.729571 33.517867 -0.302551 2.600491 0.043818 -0.024975 -156563.000000 0 0 1
17.316633 -5.191734 -27.579521 32.976505 -0.291284 2.561366 0.046635 -0.017003 -64138.400000 0 0 1
16.997733 -6.119034 -26.551731 32.114793 -0.345548 2.544148 0.046082 -0.020753 1134780.000000 0 0 1
15.553733 -6.015034 -25.853921 30.765638 -0.369011 2.568726 0.046418 -0.016263 1702580.000000 0 0 1
15.406833 -4.763434 -25.217791 29.933222 -0.299854 2.572645 0.028034 -0.003792 222299.000000 0 0 1
14.078233 -4.664834 -24.691811 28.803522 -0.319965 2.600701 0.019945 -0.015348 755070.000000 0 0 1
13.758433 -3.398834 -23.822311 27.719110 -0.242187 2.604927 0.020472 -0.006159 -28072.600000 0 0 1
13.787733 -2.167834 -24.547511 28.237942 -0.155952 2.624600 0.009193 -0.013217 -138242.000000 0 0 1
13.445033 -1.128834 -23.647511 27.225869 -0.083763 2.623101 0.012139 -0.011375 -65975.000000 0 0 1
13.787733 0.300166 -24.094811 27.762413 0.021767 2.621742 0.012819 -0.014585 -404350.000000 0 0 1
13.064733 0.746166 -25.197181 28.392639 0.057051 2.662589 0.011970 -0.020689 -30567.700000 0 0 1
13.578933 1.984166 -25.655281 29.094979 0.145094 2.650413 0.018477 -0.005858 -74119.400000 0 0 1
12.868333 2.586166 -26.902111 29.933356 0.198329 2.687669 0.019843 -0.013119 -269218.000000 0 0 1
11.697233 3.266166 -26.567891 29.212085 0.272290 2.712835 0.040024 -0.027082 -130736.000000 0 0 1
10.885533 3.627166 -27.692651 29.975558 0.321639 2.748793 0.058077 -0.026123 697395.000000 0 0 1
9.671333 4.510166 -27.221701 29.238627 0.436362 2.767990 0.062402 -0.024664 184837.000000 0 0 1
9.963433 5.730166 -26.671891 29.042978 0.521924 2.734711 0.058066 -0.032914 32639.500000 0 0 1
8.834333 6.589166 -26.676341 28.863294 0.640846 2.749812 0.072897 -0.037103 169238.000000 0 0 1
8.300333 4.793502 -31.467921 32.895338 0.523716 2.845923 0.051494 -0.022599 -23122.200000 0 0 1
7.943233 3.923402 -30.422271 31.686000 0.458780 2.858217 0.049297 -0.012125 389855.000000 0 0 1
7.716333 2.621802 -30.878301 31.935640 0.327535 2.883551 0.037425 -0.008458 -178880.000000 0 0 1
7.645533 1.554102 -29.736451 30.742900 0.200537 2.885008 0.043107 -0.011360 -425388.000000 0 0 1
8.898233 1.213702 -29.223551 30.572333 0.135562 2.843445 0.065391 -0.020185 102442.000000 0 0 1
8.661233 0.363102 -28.116211 29.422273 0.041898 2.842519 0.053427 -0.021551 602112.000000 0 0 1
10.028133 -0.098798 -27.508821 29.279830 -0.009852 2.792006 0.051888 -0.027227 196117.000000 0 0 1
10.554333 -1.083998 -28.273611 30.198776 -0.102348 2.782597 0.042693 -0.020260 6223.010000 0 0 1
11.769633 -1.520298 -27.661651 30.099876 -0.128460 2.736322 0.035852 -0.019267 232821.000000 0 0 1
12.378333 -2.803798 -28.183751 30.909679 -0.222750 2.718467 0.023135 -0.017641 261683.000000 0 0 1
11.511133 -3.932598 -27.891971 30.429156 -0.329203 2.730338 0.025896 -0.017199 801774.000000 0 0 1
12.141933 -5.176198 -28.192781 31.129608 -0.402978 2.703726 0.035123 -0.020750 149596.000000 0 0 1
11.374033 -6.303298 -27.467121 30.389849 -0.506049 2.699423 0.025542 -0.027853 88448.700000 0 0 1
11.400833 -6.178398 -26.065831 29.113213 -0.496623 2.679960 0.034556 -0.021936 107164.000000 0 0 1
10.620433 -7.144698 -25.389681 28.433716 -0.592190 2.674637 0.038760 -0.025010 -110738.000000 0 0 1
10.657133 -6.910898 -23.838511 27.011287 -0.575303 2.652031 0.041809 -0.024630 -670573.000000 0 0 1
11.888733 -7.008798 -23.193011 26.988534 -0.532688 2.604824 0.030726 -0.018516 -511068.000000 0 0 1
11.721433 -6.836698 -21.806311 25.683606 -0.528023 2.584955 0.044232 -0.021955 794761.000000 0 0 1
13.130033 -6.746398 -21.115311 25.763696 -0.474638 2.531467 0.052035 -0.022472 846696.000000 0 0 1
13.696933 -5.480298 -20.947111 25.620716 -0.380602 2.528001 0.035260 -0.020650 -346305.000000 0 0 1
14.935333 -5.687798 -20.288411 25.827018 -0.363871 2.474381 0.044697 -0.019390 74924.600000 0 0 1
15.391733 -4.330898 -19.676511 25.354037 -0.274286 2.459207 0.039618 -0.015318 -339494.000000 0 0 1
15.847333 -3.440598 -20.616211 26.229827 -0.213791 2.475082 0.028269 -0.010455 -175969.000000 0 0 1
16.386733 -2.344298 -19.911811 25.894033 -0.142097 2.448029 0.029649 -0.007481 -97771.400000 0 0 1
17.382333 -1.558798 -20.788211 27.142680 -0.089438 2.443215 0.024993 -0.005477 151724.000000 0 0 1
18.593333 -2.248398 -21.020211 28.153447 -0.120341 2.413778 0.041408 -0.013197 -358225.000000 0 0 1
19.495033 -1.439198 -21.724611 29.224755 -0.073690 2.408881 0.049363 -0.011849 697265.000000 0 0 1
20.845933 -2.199398 -22.049311 30.423057 -0.105118 2.381477 0.049898 -0.015697 71815.500000 0 0 1
21.676833 -2.277998 -20.899411 30.197015 -0.104705 2.335193 0.050802 -0.012288 1380780.000000 0 0 1
22.964233 -2.929898 -21.151211 31.357838 -0.126900 2.311099 0.035948 -0.012414 1977130.000000 0 0 1
24.043133 -2.040598 -21.888011 32.577927 -0.084669 2.307522 0.044781 -0.017699 -796703.000000 0 0 1
23.663833 -1.604098 -23.157411 33.148391 -0.067683 2.344233 0.056221 -0.021292 143989.000000 0 0 1
24.682033 -0.944698 -23.901211 34.370963 -0.038256 2.339758 0.049348 -0.020387 -3617.840000 0 0 1
25.818633 -1.773798 -24.515711 35.647837 -0.068594 2.329139 0.061774 -0.021401 -1072480.000000 0 0 1
26.674733 -2.377898 -23.532511 35.650734 -0.088909 2.291728 0.052875 -0.015326 475850.000000 0 0 1
27.759633 -3.123898 -24.073011 36.876359 -0.112062 2.282076 0.042387 -0.008141 633970.000000 0 0 1
28.878033 -2.385698 -24.853111 38.174723 -0.082426 2.279745 0.047996 -0.008303 -1062170.000000 0 0 1
28.400533 -1.792598 -26.038251 38.571935 -0.063035 2.311838 0.066903 -0.020295 -434210.000000 0 0 1
29.319333 -1.001998 -26.731621 39.688876 -0.034162 2.309770 0.066836 -0.020966 -854569.000000 0 0 1
28.842133 -0.623398 -28.217151 40.354242 -0.021611 2.345125 0.067622 -0.028392 -285437.000000 0 0 1
27.555233 -0.145198 -28.479821 39.628426 -0.005269 2.372686 0.070635 -0.025982 -307962.000000 0 0 1
27.254233 1.036202 -27.762141 38.917906 0.038002 2.365065 0.061771 -0.015767 -1236080.000000 0 0 1
25.812533 1.522902 -27.832921 37.990493 0.058930 2.392972 0.075364 -0.019859 -754985.000000 0 0 1
24.935333 0.803202 -26.978321 36.745690 0.032200 2.395269 0.085813 -0.019508 -1073470.000000 0 0 1
23.691633 1.306502 -27.281101 36.156035 0.055090 2.425746 0.066756 -0.017825 -913587.000000 0 0 1
22.547033 0.809802 -26.346531 34.686657 0.035901 2.433430 0.059511 -0.017888 293395.000000 0 0 1
22.710433 1.567002 -25.175741 33.941673 0.068890 2.406450 0.067239 -0.019884 645.441000 0 0 1
21.557133 1.471402 -24.395811 32.588811 0.068150 2.416736 0.066130 -0.020623 -413355.000000 0 0 1
21.593033 2.161402 -22.975411 31.603801 0.099765 2.384714 0.066328 -0.018169 -319938.000000 0 0 1
21.444433 3.566902 -23.045211 31.680724 0.164823 2.385352 0.060327 -0.020589 278917.000000 0 0 1
21.424033 3.990502 -21.717711 30.766415 0.184153 2.354475 0.044989 -0.020159 8122.680000 0 0 1
20.842333 5.397602 -21.443511 30.386858 0.253406 2.354184 0.044763 -0.010932 559597.000000 0 0 1
21.769633 6.357902 -22.027611 31.615747 0.284151 2.341624 0.042729 -0.010238 982900.000000 0 0 1
21.616433 7.704302 -21.519211 31.459544 0.342373 2.324067 0.031692 -0.014137 -297201.000000 0 0 1
21.942133 7.938302 -20.018411 30.744278 0.347134 2.279864 0.036358 -0.018524 -758975.000000 0 0 1
23.310533 7.985002 -19.733211 31.568035 0.330022 2.246057 0.040602 -0.017877 -154636.000000 0 0 1
23.571333 8.083402 -18.327711 30.933059 0.330366 2.204950 0.045653 -0.023939 -115257.000000 0 0 1
23.291833 9.412702 -17.598011 30.672438 0.384053 2.181862 0.050562 -0.033791 764473.000000 0 0 1
21.912333 9.837902 -17.483411 29.708657 0.421994 2.199993 0.034083 -0.030059 979049.000000 0 0 1
21.704533 11.184002 -17.105011 29.811911 0.475800 2.181891 0.013258 -0.018314 -545536.000000 0 0 1
20.243133 11.655002 -16.998411 28.888916 0.522398 2.199882 0.018620 -0.022285 91286.000000 0 0 1
19.511133 11.549602 -18.218611 29.086000 0.534479 2.247685 0.020974 -0.020164 487639.000000 0 0 1
18.874333 10.271202 -18.452911 28.323982 0.498371 2.280349 0.023229 -0.017338 -436313.000000 0 0 1
18.103533 10.201902 -19.763911 28.678021 0.513172 2.331133 0.022291 -0.011708 -213074.000000 0 0 1
18.935633 10.278602 -20.912411 30.025602 0.497312 2.341285 0.027299 -0.018014 262832.000000 0 0 1
18.228633 10.014502 -22.106311 30.352303 0.502369 2.386669 0.022418 -0.013959 -135643.000000 0 0 1
19.152033 10.262202 -23.310611 31.866875 0.491898 2.391315 0.034937 -0.017047 -36494.900000 0 0 1
19.369133 11.615402 -23.734011 32.762542 0.540189 2.380997 0.025691 -0.012864 152644.000000 0 0 1
20.354833 11.810302 -24.723911 34.133184 0.525749 2.380868 0.032770 -0.015388 -13742.500000 0 0 1
20.583933 13.318402 -24.955411 34.983577 0.574284 2.365058 0.041017 -0.022141 -78483.100000 0 0 1
21.363033 13.605302 -26.117871 36.381679 0.567084 2.371556 0.053603 -0.028121 225893.000000 0 0 1
21.280133 15.019002 -26.478591 37.142028 0.614592 2.364423 0.066358 -0.023506 -81790.200000 0 0 1
19.979833 15.478802 -27.182131 37.116779 0.659136 2.392550 0.048634 -0.020277 350834.000000 0 0 1
18.818833 15.413702 -26.366031 35.873364 0.686254 2.396426 0.042979 -0.021050 -881584.000000 0 0 1
17.717333 15.823702 -27.082941 36.024701 0.729001 2.421566 0.039910 -0.021375 -1213230.000000 0 0 1
16.431833 15.358402 -26.434221 34.708121 0.751645 2.436598 0.034034 -0.017722 -680345.000000 0 0 1
16.231333 13.961502 -26.420491 34.006206 0.710362 2.460573 0.030051 -0.010199 -520343.000000 0 0 1
14.987533 13.632202 -25.889391 32.874361 0.738077 2.477579 0.025091 -0.005245 -476816.000000 0 0 1
14.911233 12.094302 -25.583391 31.986355 0.681465 2.497795 0.016448 -0.004605 -814909.000000 0 0 1
13.600233 11.670802 -25.638431 31.281034 0.709196 2.531536 0.024700 -0.012041 -878340.000000 0 0 1
13.517733 10.301602 -25.130911 30.338339 0.651188 2.546961 0.024693 -0.012714 54756.700000 0 0 1
12.145433 9.588502 -25.037511 29.433448 0.668290 2.588013 0.064209 -0.034758 216994.000000 0 0 1
11.291433 10.033402 -24.013611 28.369334 0.726473 2.580104 0.073558 -0.035918 443268.000000 0 0 1
10.126733 9.189402 -23.908411 27.542838 0.736910 2.622046 0.081396 -0.037837 904572.000000 0 0 1
9.110833 9.742102 -22.845911 26.454706 0.818870 2.613135 0.079093 -0.037323 198439.000000 0 0 1
8.566033 11.010402 -23.165011 27.041147 0.909618 2.599552 0.075845 -0.039177 -234510.000000 0 0 1
7.819033 11.602002 -22.145411 26.194712 0.977776 2.578139 0.064572 -0.031731 -227351.000000 0 0 1
8.555933 12.483102 -21.131811 25.992023 0.969936 2.520102 0.060335 -0.034276 -349475.000000 0 0 1
9.380633 11.802402 -20.239211 25.237247 0.899230 2.501362 0.070845 -0.042847 -803103.000000 0 0 1
10.098833 12.682202 -19.440611 25.313278 0.898316 2.446510 0.068784 -0.035875 -315386.000000 0 0 1
11.288533 11.981202 -18.697211 24.911160 0.815156 2.419699 0.072015 -0.041454 720285.000000 0 1 0
12.357233 11.478502 -19.520711 25.797585 0.748549 2.429028 0.067270 -0.037644 448539.000000 0 0 1
12.065933 10.523802 -20.539911 26.042755 0.717237 2.479487 0.071826 -0.040596 -525063.000000 0 0 1
13.350733 9.970502 -21.253111 27.006438 0.641458 2.476670 0.070646 -0.041302 848526.000000 0 0 1
14.095833 8.997902 -20.509711 26.463238 0.568133 2.457553 0.070886 -0.044004 685095.000000 0 0 1
14.972133 8.239702 -21.361711 27.356538 0.503101 2.466843 0.056641 -0.040550 181372.000000 0 0 1
15.481333 6.912402 -20.734311 26.783663 0.419939 2.456152 0.073057 -0.035322 210578.000000 0 0 1
16.344933 7.131602 -19.630111 26.520894 0.411419 2.404127 0.042214 -0.028087 125874.000000 0 0 1
16.926233 5.932502 -19.202311 26.275857 0.337113 2.390285 0.036740 -0.028112 -75500.700000 0 0 1
17.788633 6.094602 -17.920111 25.975181 0.330078 2.332138 0.062829 -0.025620 -226790.000000 0 0 1
19.029333 6.708502 -18.203511 27.175123 0.338931 2.304816 0.048595 -0.033269 612869.000000 0 0 1
19.856833 7.007802 -17.044411 27.090866 0.339271 2.251265 0.051014 -0.044545 656914.000000 0 0 1
20.578533 5.802602 -16.328711 26.903030 0.274838 2.223010 0.045582 -0.042574 -780022.000000 0 0 1
21.649233 5.296402 -17.069611 28.073346 0.239933 2.224381 0.040384 -0.043332 -53324.300000 0 0 1
22.167333 4.190602 -16.369911 27.873388 0.186839 2.198509 0.062044 -0.044397 10934.700000 0 0 1
23.559433 3.687202 -16.817711 29.180091 0.155247 2.185042 0.027392 -0.014991 -38173.600000 0 0 1
24.109833 2.674502 -16.032811 29.077277 0.110478 2.154821 0.027400 -0.014542 598633.000000 0 0 1
25.407533 2.370402 -16.575711 30.428863 0.093026 2.146871 0.026496 -0.016127 821843.000000 0 0 1
26.179833 1.120002 -16.000611 30.702730 0.042755 2.118990 0.045645 -0.029672 339289.000000 0 0 1
25.558633 -0.184998 -16.196711 30.259071 -0.007238 2.135621 0.052446 -0.025582 -131474.000000 0 0 1
26.527633 -1.168798 -15.974811 30.988320 -0.044031 2.112400 0.042152 -0.016736 -614199.000000 0 0 1
26.124233 -2.665098 -16.076111 30.789928 -0.101665 2.120134 0.038893 -0.018329 -109469.000000 0 0 1
25.373433 -3.292598 -15.020711 29.669413 -0.129044 2.101649 0.047091 -0.017218 559238.000000 0 0 1
25.251033 -4.678398 -15.165711 29.824501 -0.183198 2.104236 0.046075 -0.014514 -1073790.000000 0 0 1
24.550733 -5.294998 -13.921211 28.715425 -0.212422 2.076930 0.047081 -0.015407 928915.000000 0 0 1
23.143833 -5.099398 -13.764511 27.406252 -0.216870 2.096983 0.053831 -0.004430 776255.000000 0 0 1
22.265933 -5.507398 -14.807511 27.301384 -0.242480 2.144054 0.060201 -0.002043 -999268.000000 0 0 1
20.790433 -5.398398 -14.421511 25.872085 -0.254048 2.162066 0.068637 -0.002472 -547878.000000 0 0 1
20.417233 -6.275198 -13.375911 25.202312 -0.298184 2.130271 0.068378 0.000518 373308.000000 0 0 1
20.661733 -5.718598 -12.100511 24.617716 -0.270013 2.084650 0.079332 -0.005671 -763329.000000 0 1 0
20.612533 -6.782098 -10.961811 24.311205 -0.317871 2.038565 0.091330 -0.005842 865181.000000 0 1 0
19.310333 -7.352898 -10.676211 23.258021 -0.363824 2.047703 0.088712 -0.007273 1489030.000000 0 1 0
19.136933 -8.442798 -11.536911 23.887305 -0.415494 2.074843 0.075401 -0.016499 -122036.000000 0 1 0
17.822933 -9.223498 -11.204011 22.983901 -0.477555 2.079989 0.097737 -0.028918 995945.000000 0 1 0
16.638333 -8.434698 -11.489511 21.908608 -0.469187 2.122841 0.068859 -0.021662 834281.000000 0 1 0
15.658933 -9.216498 -12.149711 21.857756 -0.531978 2.160186 0.073597 -0.015518 -275018.000000 0 1 0
14.455233 -8.356098 -12.557011 20.891545 -0.524136 2.215619 0.045980 -0.006026 -423272.000000 0 1 0
14.567833 -7.474398 -13.659411 21.322943 -0.474053 2.266072 0.047138 -0.008945 201363.000000 0 1 0
15.500833 -6.431698 -13.512111 21.545758 -0.393307 2.248667 0.046153 -0.011041 -142286.000000 0 1 0
15.382933 -5.333998 -14.581411 21.856434 -0.333775 2.301166 0.036821 -0.010125 438505.000000 0 1 0
14.158133 -4.603298 -14.451811 20.748444 -0.314354 2.341339 0.035149 -0.007011 407158.000000 0 1 0
13.840133 -3.669698 -15.442511 21.059134 -0.259185 2.393949 0.028333 -0.011090 145661.000000 0 1 0
14.843833 -2.450798 -15.531111 21.623163 -0.163629 2.372098 0.034948 -0.017094 246390.000000 0 1 0
15.971533 -2.751098 -16.357611 23.026720 -0.170576 2.360827 0.030203 -0.010875 493746.000000 0 1 0
17.022233 -1.798198 -16.253811 23.604582 -0.105248 2.330335 0.040880 -0.007314 121780.000000 0 1 0
18.086633 -2.088798 -15.208411 23.723093 -0.114979 2.266702 0.049246 -0.009401 -1002000.000000 0 1 0
17.556933 -2.149798 -13.934211 22.517321 -0.121841 2.238038 0.041265 0.000988 -219279.000000 0 1 0
18.542833 -2.492198 -13.004811 22.785364 -0.133602 2.178219 0.043064 0.001343 -186277.000000 0 1 0
18.027133 -2.504198 -11.534511 21.547470 -0.138029 2.135667 0.040346 0.004256 -111726.000000 0 1 0
17.868233 -1.226698 -10.929011 20.981464 -0.068545 2.118688 0.041143 0.003931 526377.000000 0 1 0
17.584033 -1.484898 -9.599911 20.088838 -0.084246 2.069028 0.048555 0.000779 -874389.000000 0 1 0
17.525233 -0.240598 -8.659511 19.549394 -0.013728 2.029689 0.042873 -0.000598 826521.000000 0 1 0
18.781033 0.340102 -8.184511 20.489731 0.018107 1.981707 0.045813 -0.000481 1621220.000000 0 1 0
19.699333 0.830202 -9.114411 21.721543 0.042119 2.003804 0.042711 0.009259 -314473.000000 0 1 0
19.270833 2.287502 -9.597211 21.649576 0.118150 2.030071 0.033232 0.001359 -176408.000000 0 1 0
19.598033 3.361102 -8.776011 21.734725 0.169850 1.986439 0.049018 0.010010 422350.000000 0 1 0
18.748233 4.381402 -9.225311 21.349456 0.229577 2.017627 0.029309 -0.001768 -111825.000000 0 1 0
19.057033 5.863502 -8.851011 21.814939 0.298489 1.988576 0.072810 0.005450 -13599.100000 0 1 0
18.065533 6.645002 -9.511211 21.470507 0.352468 2.029727 0.039272 -0.002076 936169.000000 0 1 0
18.434633 8.038802 -9.392311 22.196250 0.411210 2.007714 0.054133 0.011929 54816.000000 0 1 0
-26.120187 -29.305398 6.028289 39.716631 0.842803 1.418425 0.045686 -0.003379 7842.220000 0 0 1
-25.983677 -28.211638 6.778089 38.948562 0.826485 1.395879 0.055653 -0.001800 474824.000000 0 0 1
-24.658167 -27.667428 6.713089 37.664006 0.842845 1.391603 0.034529 -0.003396 345918.000000 0 0 1
-24.507667 -26.389988 7.603689 36.808604 0.822364 1.362725 0.040030 0.003444 441140.000000 0 0 1
-25.381857 -25.214098 7.358989 36.525938 0.782083 1.367935 0.062352 -0.010728 1308390.000000 0 0 1
-26.769277 -25.357308 7.665289 37.660907 0.758317 1.365830 0.024438 -0.008722 688725.000000 0 0 1
-27.214667 -25.376288 9.178189 38.325361 0.750456 1.328965 0.039358 -0.010694 -365915.000000 0 0 1
-26.614867 -26.415488 9.853389 38.771361 0.781638 1.313837 0.042043 -0.011320 -58621.800000 0 0 1
-27.243327 -26.620488 11.110689 39.677408 0.773835 1.286976 0.037725 -0.009335 -534769.000000 0 0 1
-26.371387 -27.520758 11.933889 39.940705 0.806722 1.267372 0.013909 0.000857 595065.000000 0 0 1
-25.139097 -26.922358 12.376389 38.858237 0.819638 1.246649 0.011987 0.010666 482033.000000 0 0 1
-25.271867 -25.967658 13.429589 38.643763 0.798977 1.215868 0.023858 0.012068 -728295.000000 0 0 1
-23.939567 -25.684678 14.153689 37.856736 0.820550 1.187613 0.022704 0.009415 83252.000000 0 0 1
-23.514167 -26.772718 15.002589 38.662284 0.850107 1.172290 0.016486 0.009474 180548.000000 0 0 1
-22.335867 -26.393498 15.699789 37.973558 0.868475 1.144567 0.028841 0.012651 659489.000000 0 0 1
-21.488067 -27.569348 16.292989 38.565107 0.908732 1.134616 0.034644 0.005957 418162.000000 0 0 1
-22.331667 -28.258488 17.180889 39.905244 0.902020 1.125703 0.029553 0.010249 575513.000000 0 0 1
-21.626167 -29.386038 17.671689 40.540337 0.936359 1.119754 0.043224 0.012317 126795.000000 0 0 1
-22.552967 -30.223438 18.582489 42.040474 0.929727 1.112953 0.042644 -0.004039 547130.000000 0 0 1
-23.656967 -30.696818 17.782589 42.639972 0.914200 1.140610 0.015853 0.008298 783305.000000 0 0 1
-24.417667 -31.710758 18.426789 44.060654 0.914610 1.139318 0.025483 0.005807 -9229.220000 0 0 1
-25.431797 -32.526268 17.612089 44.887862 0.907199 1.167603 0.020499 0.002277 126521.000000 0 0 1
-24.786767 -33.278048 16.623689 44.700776 0.930607 1.189754 0.017519 -0.000148 -14078.900000 0 0 1
-25.674757 -34.245130 16.139589 45.742851 0.927465 1.210199 0.020586 -0.003493 -785409.000000 0 0 1
-25.171557 33.520153 14.879789 44.481637 -0.926695 1.229705 0.021796 -0.012625 -386170.000000 0 0 1
-23.943567 32.871254 14.987289 43.340888 -0.941260 1.217705 0.008528 -0.007373 110540.000000 0 0 1
-22.833967 33.759194 14.778789 43.353038 -0.976101 1.222929 0.007740 -0.010084 884577.000000 0 0 1
-21.445367 32.967626 14.862589 42.043605 -0.994071 1.209482 0.024042 -0.012407 1063360.000000 0 0 1
-21.307067 32.074517 13.806289 40.906960 -0.984435 1.226532 0.016755 -0.010765 236638.000000 0 0 1
-20.172867 31.219957 13.907689 39.686951 -0.997130 1.212761 0.016421 -0.006515 104614.000000 0 0 1
-20.128667 30.178077 12.792289 38.464558 -0.982566 1.231765 0.012130 -0.011874 64240.900000 0 0 1
-19.621967 30.693717 11.585889 38.227722 -1.001992 1.262878 0.001541 -0.005820 16328.400000 0 0 1
-19.844967 29.817207 10.477489 37.318445 -0.983564 1.286212 0.016556 -0.008847 34973.400000 0 0 1
-19.441967 30.304757 9.074689 37.131097 -1.000385 1.323900 0.001587 -0.002133 125325.000000 0 0 1
-18.064767 30.376687 8.756689 36.410967 -1.034289 1.327920 0.010791 -0.013222 -129779.000000 0 0 1
-17.828267 31.043707 7.572789 36.591065 -1.049492 1.362332 0.020456 -0.019393 -27177.400000 0 0 1
-17.155567 30.227127 6.426589 35.345350 -1.054575 1.387957 0.022835 -0.016052 68901.500000 0 0 1
-17.957167 29.182327 5.865689 34.763118 -1.019171 1.401252 0.020918 -0.009601 169260.000000 0 0 1
-18.047267 27.953077 6.629989 33.926909 -0.997501 1.374111 0.010037 -0.009719 44534.000000 0 0 1
-19.060267 26.905467 6.081889 33.528903 -0.954444 1.388394 0.019307 -0.005408 104651.000000 0 0 1
-18.630267 26.194197 4.959789 32.524181 -0.952569 1.417704 0.037926 -0.017288 -5629.430000 0 0 1
-19.768367 25.620397 4.400889 32.658244 -0.913622 1.435629 0.038105 -0.015236 -816766.000000 0 0 1
-19.411667 24.822717 3.110589 31.664742 -0.907120 1.472403 0.053327 -0.017298 -1240230.000000 0 0 1
-19.144067 25.614897 1.926389 32.036374 -0.928974 1.510629 0.053883 -0.024651 608332.000000 0 0 1
-17.892267 26.291537 1.840689 31.855397 -0.973255 1.512981 0.053094 -0.026075 351642.000000 0 0 1
-16.558067 25.556257 2.213789 30.531832 -0.995894 1.498225 0.060695 -0.031681 -505528.000000 0 0 1
-16.152167 24.499197 1.367389 29.376401 -0.987915 1.524232 0.077865 -0.032323 161181.000000 0 0 1
-15.879367 24.814687 0.013489 29.460536 -1.001541 1.570338 0.073500 -0.033436 -548912.000000 0 0 1
-15.580567 23.582907 -0.849311 28.277711 -0.986955 1.600835 0.069020 -0.031742 -237930.000000 0 0 1
-16.615167 22.631237 -0.888911 28.089622 -0.937504 1.602447 0.083531 -0.034858 1142.970000 0 0 1
-16.528167 21.745337 -1.984811 27.385753 -0.920876 1.643336 0.075569 -0.034011 -359183.000000 0 0 1
-15.660267 20.524337 -1.572211 25.864343 -0.919021 1.631621 0.074459 -0.034287 289288.000000 0 0 1
-16.239167 19.474637 -0.740611 25.367707 -0.875746 1.599996 0.085505 -0.039490 709687.000000 0 0 1
-15.189467 18.533037 -0.463211 23.966809 -0.884225 1.590125 0.098323 -0.037665 519086.000000 0 1 0
-15.552167 17.399037 0.539989 23.342836 -0.841388 1.547661 0.078793 -0.035929 293720.000000 0 1 0
-16.536567 16.510837 0.017989 23.368058 -0.784620 1.570027 0.072605 -0.032031 197875.000000 0 1 0
-17.195167 15.832037 1.029789 23.396317 -0.744149 1.526767 0.076282 -0.037401 -71398.500000 0 1 0
-17.850567 14.554537 0.368289 23.035037 -0.684033 1.554807 0.088349 -0.036624 -129068.000000 0 1 0
-18.967567 14.843637 -0.418011 24.088937 -0.664028 1.588150 0.121369 -0.046199 -29236.600000 0 1 0
-19.650767 13.649737 -0.819911 23.940347 -0.607103 1.605051 0.116798 -0.034760 59777.600000 0 1 0
-20.777367 14.013437 -1.870511 25.131141 -0.593376 1.645295 0.122719 -0.025611 644876.000000 0 0 1
-21.778167 12.993037 -2.083611 25.445020 -0.537922 1.652775 0.119329 -0.019885 1162790.000000 0 0 1
-22.675567 12.725537 -1.008111 26.021855 -0.511402 1.609547 0.114457 -0.018048 -257153.000000 0 0 1
-23.911167 13.667337 -0.903411 27.556418 -0.519266 1.603586 0.099363 -0.015932 -126909.000000 0 0 1
-23.543667 14.988437 -0.608811 27.916450 -0.566914 1.592606 0.096467 -0.021060 -307838.000000 0 0 1
-24.683267 15.680537 -0.209711 29.243579 -0.565950 1.577968 0.080379 -0.021600 -338949.000000 0 0 1
-24.411267 16.995137 0.580789 29.750327 -0.608171 1.551273 0.078317 -0.027125 91631.900000 0 0 1
-24.006167 16.638537 1.887389 29.269425 -0.606076 1.506268 0.076702 -0.029117 -89526.900000 0 0 1
-23.400267 17.691737 2.601189 29.450573 -0.647361 1.482357 0.061679 -0.029498 -343594.000000 0 0 1
-24.323767 18.776637 3.191489 30.893258 -0.657399 1.467305 0.061644 -0.031716 -444232.000000 0 0 1
-25.073657 18.221037 4.257189 31.286069 -0.628422 1.434300 0.063224 -0.038115 839444.000000 0 0 1
-26.463687 18.553937 4.261589 32.599639 -0.611470 1.439696 0.046814 -0.037731 1294070.000000 0 0 1
-27.505977 18.039837 3.215789 33.050807 -0.580478 1.473344 0.066841 -0.033279 -167701.000000 0 0 1
-28.698557 18.732737 3.095989 34.410867 -0.578300 1.480703 0.064177 -0.028911 65204.900000 0 0 1
-29.650617 18.284337 2.132789 34.900213 -0.552579 1.509647 0.055870 -0.020474 385944.000000 0 0 1
-30.861127 19.188437 1.838089 36.386589 -0.556271 1.520259 0.059237 -0.028237 47700.700000 0 0 1
-31.798337 19.159637 2.886689 37.236527 -0.542282 1.493195 0.104633 -0.028469 320112.000000 0 0 1
-32.888157 20.068937 2.743089 38.625350 -0.547899 1.499719 0.087895 -0.027308 757321.000000 0 0 1
-33.492867 20.702137 4.006289 39.577784 -0.553626 1.469397 0.077845 -0.027679 -43664.600000 0 0 1
-32.483897 21.540937 4.528789 39.239336 -0.585548 1.455124 0.074713 -0.025666 404874.000000 0 0 1
-32.841047 22.210337 5.683689 40.051689 -0.594641 1.428407 0.076402 -0.024551 493685.000000 0 0 1
-31.692067 23.248037 6.033589 39.765092 -0.632896 1.418477 0.069577 -0.024745 432634.000000 0 0 1
-31.714867 24.453437 5.254489 40.390755 -0.656831 1.440335 0.063858 -0.018689 54741.300000 0 0 1
-30.683277 25.331577 5.624989 40.184485 -0.690147 1.430356 0.054449 -0.021885 -285132.000000 0 0 1
-31.052517 26.814047 5.387589 41.379682 -0.712283 1.440227 0.050232 -0.014986 -281243.000000 0 0 1
-31.992947 27.184457 6.351289 42.460361 -0.704321 1.420651 0.065233 -0.010282 -290129.000000 0 0 1
-32.535337 28.443797 6.211389 43.659811 -0.718401 1.428044 0.069394 -0.008718 88353.600000 0 0 1
-33.600077 28.896317 7.252589 44.906151 -0.710275 1.408580 0.068658 -0.003195 -293259.000000 0 0 1
-33.071027 29.363367 8.524389 45.039598 -0.726083 1.380383 0.077760 -0.012439 560108.000000 0 0 1
-33.966967 29.813487 9.597689 46.202971 -0.720368 1.361544 0.087633 -0.011689 503226.000000 0 0 1
-35.159970 28.880297 9.986789 46.583592 -0.687652 1.354735 0.073456 -0.010702 115529.000000 0 0 1
-34.829380 27.595527 10.431689 45.644485 -0.670032 1.340216 0.078285 -0.019517 -535465.000000 0 0 1
-35.826991 27.182767 11.287089 46.366739 -0.649061 1.324895 0.080828 -0.017955 -453732.000000 0 0 1
-35.554335 25.891177 11.981389 45.585277 -0.629412 1.304837 0.087282 -0.019052 383314.000000 0 0 1
-34.400690 26.003487 12.822689 44.989001 -0.647267 1.281771 0.085059 -0.029149 391023.000000 0 0 1
-34.058173 24.817367 13.435389 44.230878 -0.629713 1.262164 0.088982 -0.028396 -359607.000000 0 0 1
-32.764577 25.017477 14.230789 43.610859 -0.652118 1.238396 0.081154 -0.031803 -253215.000000 0 0 1
-32.923207 25.893147 15.356689 44.611888 -0.666437 1.219379 0.078328 -0.027949 33048.400000 0 0 1
-31.682387 26.483057 15.693389 44.174749 -0.696246 1.207607 0.095886 -0.025252 84595.200000 0 0 1
-31.834147 27.716597 16.613389 45.361078 -0.716364 1.195823 0.068864 -0.021112 -501390.000000 0 0 1
-32.308237 28.894697 16.022289 46.210815 -0.729682 1.216723 0.092865 -0.023469 88453.600000 0 0 1
-32.460447 29.944557 16.995989 47.320406 -0.745104 1.203420 0.074733 -0.021640 -200552.000000 0 0 1
-32.106697 31.255177 16.302089 47.681068 -0.771960 1.221860 0.063735 -0.018847 -508462.000000 0 0 1
-30.750707 31.278367 15.993489 46.687621 -0.793905 1.221152 0.047336 -0.012101 -923548.000000 0 0 1
-30.360917 32.523008 15.613089 47.151881 -0.819767 1.233302 0.055090 -0.000883 116559.000000 0 0 1
-28.907227 32.588439 15.050589 46.088549 -0.845188 1.238137 0.055091 -0.007713 177261.000000 0 0 1
-28.729017 31.868037 13.859189 45.088861 -0.837153 1.258363 0.050038 -0.009945 242022.000000 0 0 1
-28.166307 30.548227 14.027589 43.855539 -0.825944 1.245216 0.049858 -0.009824 -137942.000000 0 0 1
-29.062397 29.356617 13.667089 43.511185 -0.790434 1.251282 0.076049 -0.012368 -46925.300000 0 0 1
-29.323937 29.272797 12.296889 43.220405 -0.784525 1.282295 0.088565 -0.023367 890211.000000 0 0 1
-30.488087 28.426177 12.100889 43.405098 -0.750414 1.288263 0.080907 -0.020528 1011090.000000 0 0 1
-30.540567 28.278247 10.577489 42.944951 -0.746955 1.321932 0.085534 -0.019265 -336140.000000 0 0 1
-29.412337 27.611117 10.102989 41.587616 -0.753821 1.325408 0.061396 -0.010718 -445815.000000 0 0 1
-29.269277 27.711077 8.690789 41.232562 -0.758059 1.358429 0.058341 -0.010755 223150.000000 0 0 1
-28.043117 27.045397 8.011389 39.775021 -0.767289 1.367991 0.060539 -0.008313 203682.000000 0 0 1
-27.971847 27.247747 6.605889 39.604315 -0.772286 1.403216 0.049690 -0.013956 -88284.000000 0 0 1
-26.933347 26.518667 5.951089 38.263042 -0.777640 1.414631 0.029490 -0.010491 -421996.000000 0 0 1
-26.774447 26.900157 4.484789 38.217834 -0.787740 1.453177 0.031582 -0.004984 -147518.000000 0 0 1
-25.999777 28.088687 4.284589 38.513900 -0.823999 1.459318 0.022473 -0.004351 336779.000000 0 0 1
-25.903977 28.549217 2.929589 38.660786 -0.833938 1.494947 0.018780 -0.004166 95513.900000 0 0 1
-24.770367 29.621307 2.860289 38.719171 -0.874348 1.496856 0.016223 -0.005625 1694520.000000 0 0 1
-23.443867 29.069137 3.136289 37.476205 -0.892113 1.487011 0.008333 -0.004128 1751510.000000 0 0 1
-22.418167 30.050817 2.934589 37.606351 -0.929855 1.492683 0.012263 -0.002948 1365490.000000 0 0 1
-20.910867 29.657907 2.960489 36.409069 -0.956677 1.489395 0.007526 -0.008375 1353120.000000 0 0 1
-19.953767 30.589567 2.463689 36.605249 -0.992802 1.503441 0.009266 -0.009912 -120404.000000 0 0 1
-18.623867 30.161967 2.616389 35.544876 -1.017636 1.497122 0.016944 -0.013157 304964.000000 0 0 1
-17.583867 31.218437 2.142289 35.893908 -1.057835 1.511077 0.022197 -0.015323 185479.000000 0 0 1
-17.647567 32.363757 2.979389 36.982782 -1.071578 1.490147 0.027726 -0.016496 16942.600000 0 0 1
-16.542067 33.188935 2.692989 37.180608 -1.108413 1.498303 0.045221 -0.020795 -159591.000000 0 0 1
-16.441767 -34.173673 3.661389 38.099573 1.122363 1.474547 0.048685 -0.021140 -10496.300000 0 0 1
-17.304167 -33.070498 3.375289 37.476454 1.088722 1.480610 0.055211 -0.024845 123672.000000 0 0 1
-17.365767 -32.103418 4.386789 36.761981 1.074942 1.451182 0.039198 -0.022400 -285885.000000 0 0 1
-18.651667 -31.273458 4.478189 36.687437 1.033024 1.448428 0.041368 -0.015403 -333521.000000 0 0 1
-18.731667 -30.302728 3.484689 35.794884 1.017137 1.473290 0.063196 -0.022089 773155.000000 0 0 1
-19.872367 -29.430278 3.589589 35.692260 0.976885 1.470056 0.062552 -0.028093 15559.700000 0 0 1
-19.924767 -28.453528 2.359889 34.816213 0.959898 1.502963 0.069139 -0.031318 -64314.200000 0 0 1
-18.929467 -27.465968 2.385989 33.442444 0.967357 1.499390 0.074274 -0.022052 -841.901000 0 0 1
-19.406667 -26.315668 1.711789 32.742379 0.935371 1.518492 0.080593 -0.018681 786996.000000 0 0 1
-18.273267 -25.222148 1.590489 31.186515 0.943821 1.519775 0.071463 -0.013002 598085.000000 0 0 1
-17.149967 -25.662768 0.884689 30.878499 0.981676 1.542142 0.072787 -0.017599 -353876.000000 0 0 1
-16.001467 -24.854198 1.133689 29.581470 0.998782 1.532463 0.072339 -0.014887 530289.000000 0 0 1
-14.805267 -25.286698 0.250689 29.303172 1.041110 1.562241 0.072531 -0.013046 -531389.000000 0 0 1
-14.936967 -25.170208 -1.192711 29.292916 1.035216 1.611524 0.061800 -0.010255 -39622.000000 0 0 1
-14.987967 -23.862998 -1.758911 28.234299 1.009982 1.633134 0.062739 -0.006971 -87882.900000 0 0 1
-15.014167 -23.929898 -3.293411 28.441375 1.010457 1.686853 0.036242 0.000742 31138.400000 0 0 1
-13.809367 -24.447598 -3.814311 28.336066 1.056619 1.705816 0.048016 -0.003757 -78997.900000 0 0 1
-13.821967 -24.234998 -5.169711 28.374422 1.052478 1.754016 0.048174 0.003641 217318.000000 0 0 1
-12.591167 -24.826798 -5.893111 28.454106 1.101437 1.779416 0.051303 -0.004055 104762.000000 0 0 1
-12.626767 -26.226828 -6.052711 29.730743 1.122103 1.775814 0.030899 -0.001692 -595417.000000 0 0 1
-11.631767 -26.727728 -6.888311 29.951933 1.160322 1.802852 0.039641 -0.000870 -192801.000000 0 0 1
23.044933 12.825702 28.453607 38.796589 0.507860 0.747479 0.028056 0.011088 -109362.000000 0 0 1
23.984533 11.809002 28.767947 39.272193 0.457516 0.748769 0.036773 0.001688 509720.000000 0 0 1
23.497633 10.816602 29.668037 39.361530 0.431409 0.717074 0.045463 -0.001171 -357111.000000 0 0 1
23.462833 11.231402 31.109547 40.551854 0.446454 0.696403 0.057967 -0.004182 -367912.000000 0 0 1
22.435733 12.122302 31.392957 40.445396 0.495375 0.682210 0.041093 0.009432 -273225.000000 0 0 1
22.682333 12.830802 32.615144 41.747638 0.514797 0.674138 0.053863 0.005826 -774032.000000 0 0 1
21.482433 13.672602 33.019868 41.698281 0.566794 0.656921 0.042769 0.008113 -608577.000000 0 0 1
20.479533 12.938002 33.646174 41.459235 0.563441 0.623999 0.044672 0.013700 -315012.000000 0 0 1
19.652533 13.743802 -34.070871 41.664594 0.610283 2.528273 0.050932 0.013006 515615.000000 0 0 1
18.458233 13.060002 -33.277091 40.232261 0.615771 2.544768 0.041529 0.019816 682186.000000 0 0 1
17.359033 12.878902 -34.140580 40.407689 0.638306 2.577180 0.038300 0.026528 -152054.000000 0 0 1
16.286333 12.190702 -33.519081 39.209522 0.642555 2.596098 0.032089 0.024610 315350.000000 0 0 1
15.095033 12.064102 34.023181 39.127732 0.674259 0.516523 0.031565 0.025794 197403.000000 0 0 1
15.291633 10.986002 33.140468 38.115835 0.622990 0.516674 0.016764 0.034589 507709.000000 0 0 1
14.040233 10.471302 32.653168 37.054091 0.640812 0.492339 0.038792 0.028826 785897.000000 0 0 1
14.265933 9.411502 31.619627 35.942927 0.583177 0.495528 0.034600 0.029576 -6273.580000 0 0 1
14.733833 8.232602 32.187807 36.344415 0.509540 0.482941 0.024131 0.026129 -107707.000000 0 0 1
15.180233 7.356902 31.179257 35.450099 0.451282 0.495933 0.021232 0.012630 127815.000000 0 0 1
15.505633 5.965202 31.684547 35.775953 0.367258 0.482930 0.062621 -0.001939 284556.000000 0 0 1
14.333333 5.187702 31.881537 35.338210 0.347265 0.445992 0.059075 0.009015 -105453.000000 0 0 1
14.719433 3.858402 32.166677 35.584323 0.256362 0.441863 0.066216 -0.001749 -2959.770000 0 0 1
13.678433 2.717502 32.272967 35.157200 0.196117 0.407885 0.047442 -0.008715 46759.100000 0 0 1
14.214333 1.533402 32.852977 35.828992 0.107462 0.410458 0.059888 -0.022001 -365658.000000 0 0 1
13.131833 0.707202 33.124227 35.639298 0.053802 0.377932 0.056755 -0.026014 -250594.000000 0 0 1
13.544733 -0.681298 33.624080 36.256071 -0.050258 0.383380 0.037448 -0.027987 -82145.300000 0 0 1
13.955633 -1.615198 32.650464 35.544639 -0.115225 0.406333 0.035366 -0.023988 113191.000000 0 0 1
14.472333 -2.817698 33.200524 36.327161 -0.192290 0.417930 0.068161 -0.030294 -312610.000000 0 0 1
14.701233 -3.979798 32.154547 35.579207 -0.264375 0.442356 0.076977 -0.036196 -804727.000000 0 0 1
15.205533 -5.233698 32.730261 36.467380 -0.331496 0.456680 0.080661 -0.032841 54270.000000 0 0 1
16.490133 -5.287698 33.282379 37.518009 -0.310300 0.479764 0.075726 -0.027964 -318362.000000 0 0 1
17.696733 -4.858998 32.417607 37.251650 -0.267967 0.515122 0.075800 -0.035922 -933654.000000 0 0 1
17.732533 -3.454198 32.191487 36.914307 -0.192385 0.511401 0.074611 -0.036956 -125144.000000 0 0 1
18.819633 -3.076898 31.385667 36.724733 -0.162060 0.545979 0.095264 -0.037286 -263202.000000 0 0 1
18.835833 -1.530198 31.171617 36.452707 -0.081061 0.545005 0.105988 -0.041603 -408024.000000 0 0 1
19.231033 -0.904498 32.388357 37.678328 -0.046999 0.536307 0.084094 -0.038072 224817.000000 0 0 1
19.343733 0.519802 32.431687 37.765917 0.026865 0.537961 0.065080 -0.029466 86245.200000 0 0 1
20.543733 1.176502 31.697417 37.790943 0.057206 0.575800 0.087571 -0.032481 -262513.000000 0 0 1
20.422733 1.150102 30.282597 36.543761 0.056255 0.594075 0.098382 -0.035058 262141.000000 0 0 1
21.464233 1.914302 29.696897 36.691737 0.088950 0.627731 0.085070 -0.028645 261470.000000 0 0 1
21.168333 3.471102 29.688527 36.627251 0.162530 0.625691 0.080841 -0.016725 -154542.000000 0 0 1
20.885233 4.084302 30.915587 37.531960 0.193122 0.602867 0.071253 -0.019104 303597.000000 0 0 1
20.232833 5.297702 30.656227 37.111150 0.256088 0.598707 0.074061 -0.012320 -422884.000000 0 0 1
19.685233 5.983302 31.907387 37.965638 0.295076 0.572724 0.072879 -0.004758 -147404.000000 0 0 1
18.716333 5.243602 32.610579 37.963750 0.273159 0.537498 0.073721 -0.001763 81413.900000 0 0 1
18.655233 5.738802 33.958184 39.167714 0.298437 0.521658 0.064703 0.004580 550263.000000 0 0 1
17.493533 5.145502 -33.661771 38.283348 0.286070 2.645144 0.071384 0.001415 376823.000000 0 0 1
17.492833 3.759302 -33.689461 38.145922 0.211686 2.653382 0.067433 -0.008120 161681.000000 0 0 1
16.509933 3.077702 -32.923601 36.959622 0.184300 2.669897 0.059570 -0.012377 55690.700000 0 0 1
16.423133 1.561202 -33.154551 37.032160 0.094776 2.679880 0.061869 -0.030812 -145843.000000 0 0 1
17.532833 0.875402 -32.637711 37.059233 0.049888 2.648114 0.039615 -0.024932 6959.160000 0 0 1
17.477333 -0.484398 -33.024371 37.367110 -0.027709 2.654680 0.047781 -0.024485 -12231.700000 0 0 1
18.511733 -1.323398 -32.229131 37.190759 -0.071368 2.619124 0.048438 -0.021733 65665.700000 0 0 1
18.200133 -1.571998 -30.815221 35.823091 -0.086159 2.606469 0.047717 -0.021360 409765.000000 0 0 1
18.037633 -0.367898 -30.042641 35.043570 -0.020393 2.600787 0.034139 -0.014446 -187481.000000 0 0 1
17.766233 -0.503998 -28.546711 33.627485 -0.028361 2.584716 0.038151 -0.008951 -147758.000000 0 0 1
16.488733 -1.052198 -28.311241 32.779747 -0.063727 2.613324 0.052466 -0.012302 58015.300000 0 0 1
16.027933 -1.024898 -26.935141 31.359957 -0.063858 2.603919 0.039654 -0.011196 71025.400000 0 0 1
16.676933 -1.946798 -25.845901 30.820784 -0.116210 2.565480 0.049755 -0.006511 -856508.000000 0 0 1
17.973033 -1.579598 -25.449141 31.195894 -0.087662 2.524881 0.059794 -0.014944 -99627.000000 0 0 1
18.850633 -2.726098 -25.394661 31.743768 -0.143620 2.498073 0.052192 -0.010103 752653.000000 0 0 1
19.602633 -3.088098 -26.715131 33.279089 -0.156251 2.502706 0.073200 -0.021979 131325.000000 0 0 1
20.664033 -2.194198 -27.088381 34.140843 -0.105788 2.487221 0.087346 -0.020974 270855.000000 0 0 1
21.141433 -2.484898 -28.387821 35.482436 -0.117000 2.498179 0.097744 -0.023893 -507708.000000 0 0 1
22.529333 -1.980898 -28.741031 36.572417 -0.087700 2.474892 0.083441 -0.028930 -651602.000000 0 0 1
23.557033 -2.779998 -28.239571 36.880016 -0.117468 2.442948 0.068550 -0.029444 -166948.000000 0 0 1
24.831033 -2.252198 -28.573461 37.922227 -0.090453 2.424128 0.058906 -0.030580 829381.000000 0 0 1
26.077833 -3.141498 -28.249331 38.573917 -0.119889 2.392553 0.063561 -0.020667 203052.000000 0 0 1
26.380733 -4.119498 -29.211591 39.575629 -0.154905 2.401077 0.070604 -0.025623 603131.000000 0 0 1
27.707133 -4.637998 -29.139241 40.475815 -0.165856 2.374480 0.076859 -0.018140 436336.000000 0 0 1
27.835033 -6.001998 -28.315061 40.156640 -0.212376 2.353382 0.058216 -0.008868 -123538.000000 0 0 1
27.729433 -5.824698 -26.892651 39.064859 -0.207045 2.330091 0.046481 0.001696 325098.000000 0 0 1
27.656333 -7.072398 -26.210931 38.754412 -0.250359 2.313571 0.020882 0.000404 -200213.000000 0 0 1
27.459333 -7.005498 -24.694111 37.588444 -0.249794 2.287576 0.007208 -0.003894 94864.300000 0 0 1
28.655933 -6.730798 -23.983511 37.969395 -0.230701 2.254481 0.003859 -0.001218 242777.000000 0 0 1
28.402333 -6.325898 -22.682311 36.894400 -0.219148 2.232916 0.002412 0.002339 -571853.000000 0 0 1
29.597433 -5.771498 -21.929011 37.285383 -0.192583 2.199553 0.005279 0.005088 -598520.000000 0 0 1
30.209833 -4.642798 -22.509511 37.958763 -0.152492 2.205575 0.031209 -0.006705 32594.800000 0 0 1
31.344433 -4.243498 -21.779911 38.403714 -0.134565 2.173814 0.033326 -0.005161 10918.200000 0 0 1
32.178833 -3.078198 -22.309111 39.276571 -0.095369 2.174871 0.042852 -0.012830 -162387.000000 0 0 1
31.496733 -1.837598 -22.219111 38.588986 -0.058276 2.184365 0.026982 -0.008615 -91610.900000 0 0 1
32.246433 -0.811498 -22.748911 39.471558 -0.025160 2.185035 0.049572 -0.011897 -189864.000000 0 0 1
31.496633 0.541702 -22.691511 38.823137 0.017197 2.195041 0.045413 -0.003294 231998.000000 0 0 1
30.323533 0.533502 -23.475511 38.352326 0.017592 2.229512 0.037927 -0.000842 -317450.000000 0 0 1
29.417533 1.508502 -23.156711 37.468655 0.051234 2.237029 0.034017 0.003359 -372609.000000 0 0 1
28.076733 1.431602 -23.919111 36.911736 0.050945 2.275763 0.024788 0.002054 -83550.300000 0 0 1
27.109933 2.314302 -23.415611 35.897010 0.085161 2.281411 0.032332 -0.001715 -185167.000000 0 0 1
26.045033 2.470502 -24.324011 35.722607 0.094572 2.319806 0.066734 -0.016180 -241823.000000 0 0 1
24.988033 3.505602 -23.953211 34.791484 0.139382 2.330186 0.061983 -0.012164 -391724.000000 0 0 1
25.500533 4.844702 -23.874111 35.266436 0.187747 2.314426 0.053086 -0.009467 247196.000000 0 0 1
24.468333 5.803802 -23.767511 34.601705 0.232892 2.327995 0.060846 -0.012571 -28843.800000 0 0 1
25.021633 7.069802 -23.120711 34.794130 0.275370 2.297621 0.066577 -0.009741 33840.800000 0 0 1
25.801533 7.856702 -24.011911 36.111200 0.295585 2.298215 0.062638 -0.010031 141929.000000 0 0 1
26.096733 9.092102 -23.419911 36.224274 0.335249 2.273817 0.082282 -0.015718 -380963.000000 0 0 1
26.843933 10.126302 -24.299411 37.597874 0.360723 2.273519 0.109758 -0.014728 -131803.000000 0 0 1
26.282433 10.605902 -25.529271 38.144398 0.383551 2.304035 0.112599 -0.021936 338509.000000 0 0 1
24.994833 11.214002 -25.494061 37.422489 0.421733 2.320265 0.099415 -0.024132 339013.000000 0 0 1
24.593133 11.586902 -26.920081 38.259237 0.440297 2.351280 0.086436 -0.018771 -239510.000000 0 0 1
24.024033 10.592302 -27.749101 38.201618 0.415264 2.383844 0.073841 -0.010758 596966.000000 0 0 1
24.932333 9.636302 -28.361281 38.972321 0.368813 2.385801 0.076521 -0.016649 843612.000000 0 0 1
25.893833 10.141102 -29.523531 40.558247 0.373280 2.386093 0.083874 -0.009462 466538.000000 0 0 1
27.066733 10.764302 -29.002311 41.104893 0.378518 2.354021 0.088162 -0.016064 777551.000000 0 0 1
27.955633 11.357602 -29.948061 42.513514 0.385902 2.352425 0.094550 -0.006072 1172580.000000 0 0 1
29.013933 10.376802 -30.642491 43.456283 0.343473 2.353408 0.082866 -0.007305 308420.000000 0 0 1
28.406933 9.422402 -31.514131 43.461200 0.320274 2.381990 0.084440 -0.010774 110639.000000 0 0 1
29.268333 8.379702 -31.869511 44.074034 0.278847 2.379062 0.069551 -0.006202 25109.800000 0 0 1
28.516433 7.335502 -32.766271 44.052526 0.251779 2.409534 0.067682 -0.010693 536926.000000 0 0 1
27.431433 6.696402 -32.103361 42.754545 0.239431 2.420184 0.070885 -0.009514 484868.000000 0 0 1
26.822233 5.731402 -33.020231 42.925713 0.210515 2.448449 0.061576 -0.010054 -148734.000000 0 0 1
25.442033 5.184402 -32.604091 41.679753 0.201021 2.469070 0.065202 -0.009198 220770.000000 0 0 1
24.377633 6.076102 -32.950431 41.435720 0.244272 2.490163 0.070572 -0.005497 47339.600000 0 0 1
23.789733 6.585502 -31.764631 40.228249 0.270059 2.480970 0.082644 -0.001305 862527.000000 0 0 1
22.276733 7.014102 -31.934951 39.563766 0.305035 2.510150 0.077850 -0.004311 974940.000000 0 0 1
22.094733 8.085002 -32.825341 40.386229 0.350790 2.519714 0.080486 0.002969 384495.000000 0 0 1
20.776833 8.655502 -32.805111 39.784040 0.394729 2.540255 0.068119 0.009274 713034.000000 0 0 1
20.538333 9.741602 -33.879991 40.799212 0.442888 2.550636 0.061904 0.025206 -16951.300000 0 0 1
20.142933 9.160002 33.376702 40.045570 0.426797 0.585442 0.057192 0.019437 31696.600000 0 0 1
19.893133 10.209302 32.435607 39.395878 0.474158 0.603552 0.041685 0.019873 401171.000000 0 0 1
18.750333 9.804102 31.423967 37.883520 0.481781 0.592604 0.045485 0.015758 476248.000000 0 0 1
19.080533 8.863202 30.412967 36.980693 0.434859 0.605177 0.046996 0.003351 696993.000000 0 0 1
20.084433 9.258602 29.432447 36.815419 0.431951 0.644401 0.062441 0.001030 157858.000000 0 0 1
19.549733 10.222102 28.323037 35.900945 0.481781 0.661744 0.055103 0.006541 -472581.000000 0 0 1
18.580033 9.683702 27.496207 34.569251 0.480454 0.651137 0.046867 0.009483 329398.000000 0 0 1
17.261033 10.073202 27.936887 34.349415 0.528259 0.620969 0.052371 -0.004695 607771.000000 0 0 1
16.162533 9.199302 27.256147 32.996245 0.517445 0.598755 0.058031 -0.002073 -113812.000000 0 0 1
16.033733 9.366302 25.852967 31.830553 0.528693 0.622873 0.065447 0.001329 -306636.000000 0 0 1
14.810433 8.873302 25.394227 30.707510 0.539776 0.597097 0.072223 0.002824 -177142.000000 0 0 1
14.705833 7.355902 25.080287 29.989858 0.463810 0.580311 0.074477 0.006918 -77215.300000 0 0 1
14.607433 6.591302 26.283277 30.783648 0.423876 0.547543 0.062298 0.002121 -137648.000000 0 0 1
14.544433 5.171902 26.078217 30.304496 0.341649 0.534468 0.068231 -0.000188 10173.500000 0 0 1
14.567633 4.336102 27.420787 31.351511 0.289302 0.506136 0.070448 -0.006365 425653.000000 0 0 1
15.836633 3.712502 27.595157 32.032395 0.230267 0.532626 0.059538 -0.003544 530615.000000 0 0 1
15.817533 3.283302 28.922927 33.128690 0.204667 0.509379 0.046277 -0.005397 433438.000000 0 0 1
16.915333 2.237702 29.316817 33.920666 0.131525 0.527087 0.070299 -0.011150 405413.000000 0 0 1
16.585933 0.891802 28.973367 33.396773 0.053717 0.520542 0.069382 -0.021806 111715.000000 0 0 1
15.686233 0.266602 29.865897 33.735749 0.016994 0.483681 0.057910 -0.021761 -67709.500000 0 0 1
15.449733 -1.261198 29.539777 33.359905 -0.081452 0.483254 0.064116 -0.025800 -396235.000000 0 0 1
14.752433 -1.553598 28.330077 31.978762 -0.104925 0.482360 0.059374 -0.024759 144986.000000 0 0 1
15.386433 -1.374298 27.055017 31.154534 -0.089082 0.518803 0.071895 -0.022445 -535552.000000 0 0 1
16.540133 -2.413798 26.767857 31.558209 -0.144913 0.558208 0.082577 -0.025932 445668.000000 0 0 1
17.769733 -2.273498 27.449407 32.778074 -0.127251 0.578229 0.088131 -0.029148 443712.000000 0 0 1
18.517233 -1.087598 27.044897 32.794775 -0.058667 0.601176 0.090186 -0.028450 -914695.000000 0 0 1
19.894533 -1.030198 27.689637 34.111138 -0.051737 0.623658 0.088703 -0.024934 -67939.200000 0 0 1
20.860633 -1.925898 27.153167 34.295329 -0.092061 0.657135 0.055514 -0.023107 715196.000000 0 0 1
22.225033 -1.683398 27.508427 35.404794 -0.075599 0.680960 0.051067 -0.020086 642316.000000 0 0 1
23.196633 -2.310798 26.511307 35.302591 -0.099290 0.721261 0.037726 -0.013789 -553823.000000 0 0 1
23.225333 -1.780498 25.247727 34.351623 -0.076512 0.745160 0.041248 0.006033 177164.000000 0 0 1
22.411033 -2.538598 24.376747 33.210310 -0.112794 0.746586 0.052934 0.011024 -89146.300000 0 0 1
22.205833 -1.937098 23.004427 32.032094 -0.087013 0.769630 0.052047 -0.014301 -14171.300000 0 0 1
21.514733 -0.674298 22.970327 31.479745 -0.031331 0.752934 0.045112 -0.007995 364934.000000 0 0 1
21.509333 -0.147598 21.607027 30.488306 -0.006862 0.783144 0.033199 -0.000011 -447477.000000 0 0 1
-30.543147 -27.626734 -10.317011 42.456578 0.735304 1.816255 0.011311 0.013593 205741.000000 0 0 1
-30.348387 -26.381134 -9.616311 41.345644 0.715579 1.805529 0.019673 0.020745 -145138.000000 0 0 1
-30.881937 -26.534134 -8.319411 41.556791 0.709818 1.772352 0.028245 0.013079 -683584.000000 0 0 1
-31.009097 -25.256634 -7.449511 40.681161 0.683515 1.754955 0.050526 0.009149 524122.000000 0 0 1
-29.854477 -24.523834 -7.010211 39.266414 0.687682 1.750288 0.057801 0.006262 -309576.000000 0 0 1
-29.017087 -25.289834 -6.183011 38.984570 0.716873 1.730070 0.057715 0.006318 -180977.000000 0 0 1
-27.825417 -24.478934 -5.583611 37.478644 0.721504 1.720334 0.052120 0.006584 -113009.000000 0 0 1
-27.953667 -23.473934 -4.610211 36.792487 0.698510 1.696430 0.065020 0.003598 -97118.900000 0 0 1
-28.690557 -22.329934 -5.069311 36.707927 0.661370 1.709338 0.063938 0.000297 161229.000000 0 0 1
-28.777797 -21.178834 -4.051011 35.959913 0.634444 1.683690 0.058014 -0.005178 -716580.000000 0 0 1
-27.648127 -20.394834 -4.114511 34.601985 0.635555 1.689988 0.061786 -0.008785 -548123.000000 0 0 1
-27.766357 -19.305234 -3.161411 33.965529 0.607547 1.664008 0.069383 -0.010146 67119.100000 0 0 1
-26.764357 -18.118334 -3.235211 32.481863 0.595093 1.670562 0.064182 -0.010163 162261.000000 0 0 1
-27.019567 -17.192634 -4.255511 32.307167 0.566686 1.702901 0.061466 -0.020157 1465.850000 0 0 1
-25.918547 -16.336034 -4.422811 30.954779 0.562390 1.714167 0.063160 -0.021296 -84895.500000 0 0 1
-26.222247 -15.271534 -5.529711 30.844833 0.527369 1.751046 0.068240 -0.025957 -376897.000000 0 0 1
-27.304567 -14.466834 -5.166211 31.329194 0.487227 1.736454 0.064028 -0.015934 -246269.000000 0 0 1
-27.633857 -13.594834 -6.252111 31.425125 0.457197 1.771085 0.074706 -0.026569 -827507.000000 0 0 1
-28.937747 -12.855134 -6.072711 32.241673 0.418049 1.760278 0.051669 -0.018404 -517087.000000 0 0 1
-30.050197 -13.649034 -6.444911 33.628074 0.426348 1.763642 0.049183 -0.016187 -119332.000000 0 0 1
-31.280857 -12.960034 -6.350211 34.449669 0.392783 1.756190 0.042843 -0.013966 -444218.000000 0 0 1
-32.305277 -13.783434 -7.120311 35.837310 0.403278 1.770812 0.027490 -0.014856 -813146.000000 0 0 1
-32.612367 -15.040034 -6.496611 36.496234 0.432109 1.749758 0.028197 -0.012570 328269.000000 0 0 1
-33.013427 -16.016934 -7.455011 37.443367 0.451709 1.771237 0.031577 -0.011566 88365.800000 0 0 1
-34.092150 -17.068034 -6.981511 38.759953 0.464163 1.751907 0.041427 -0.017209 1540650.000000 0 0 1
-35.434545 -16.624334 -6.670611 39.704817 0.438669 1.739602 0.058595 -0.027094 1181850.000000 0 0 1
-35.688156 -15.857834 -5.551011 39.445267 0.418141 1.711992 0.052447 -0.022304 267780.000000 0 0 1
35.361941 -15.631834 -5.319411 39.027135 -0.416225 1.707522 0.091530 -0.026076 50271.400000 0 0 1
34.725171 -14.745634 -6.248411 38.240213 -0.401564 1.734931 0.078662 -0.031461 886928.000000 0 0 1
33.318291 -14.928834 -6.371111 37.061701 -0.421245 1.743560 0.094417 -0.026765 736701.000000 0 0 1
32.356141 -14.556334 -5.219411 35.861525 -0.422753 1.716859 0.116352 -0.030741 -598933.000000 0 0 1
32.563981 -15.341634 -4.039711 36.222892 -0.440280 1.682553 0.117282 -0.036063 204352.000000 0 0 1
32.080441 -14.597734 -2.942411 35.368154 -0.427033 1.654086 0.134344 -0.036010 -868799.000000 0 0 1
32.055261 -15.260734 -1.529611 35.535468 -0.444326 1.613854 0.136703 -0.036148 519646.000000 0 0 1
33.293421 -15.666734 -0.913011 36.806685 -0.439824 1.595604 0.144648 -0.032386 518623.000000 0 0 1
34.110821 -16.532034 -1.631311 37.940973 -0.451298 1.613806 0.118682 -0.031979 -1009000.000000 0 0 1
33.618241 -17.989534 -1.782911 38.170516 -0.491341 1.617522 0.128317 -0.036043 -752246.000000 0 0 1
33.888131 -18.946834 -0.746611 38.832273 -0.509802 1.590024 0.124049 -0.040216 159234.000000 0 0 1
33.824481 -20.308634 -1.212611 39.471592 -0.540723 1.601522 0.104864 -0.030081 -198206.000000 0 0 1
34.948401 -20.831934 -2.132511 40.741967 -0.537530 1.623162 0.082197 -0.021654 -246742.000000 0 0 1
35.064161 -20.114034 -3.344911 40.561783 -0.520808 1.653355 0.045595 -0.029448 -512306.000000 0 0 1
36.101921 -20.655034 -4.071211 41.791793 -0.519676 1.668368 0.044295 -0.024190 -786856.000000 0 0 1
36.188271 -19.890134 -5.439511 41.650891 -0.502559 1.701768 0.080983 -0.031527 -388425.000000 0 0 1
35.052881 -19.998234 -6.263411 40.839493 -0.518458 1.724771 0.060266 -0.040667 48583.600000 0 0 1
34.978161 -19.018834 -7.252911 40.469650 -0.498020 1.750988 0.074932 -0.038290 418598.000000 0 0 1
33.727701 -19.247734 -8.182811 39.686163 -0.518582 1.778474 0.077539 -0.045977 676059.000000 0 0 1
33.879851 -20.292434 -9.082811 40.523137 -0.539649 1.796856 0.083679 -0.048415 1353800.000000 0 0 1
32.587441 -20.377534 -9.754211 39.652615 -0.558828 1.819339 0.074535 -0.055225 1062570.000000 0 0 1
32.400591 -21.598634 -10.740211 40.393706 -0.587965 1.839922 0.072671 -0.052006 -107715.000000 0 0 1
32.320741 -22.871134 -10.054411 40.851074 -0.615829 1.819475 0.058761 -0.055997 -46124.500000 0 0 1
32.109901 -23.979034 -10.920911 41.536805 -0.641437 1.836845 0.049882 -0.054182 -896166.000000 0 0 1
31.766141 -25.260234 -10.168011 41.839642 -0.671803 1.816278 0.046370 -0.044314 -276046.000000 0 0 1
30.524901 -25.146134 -9.521311 40.678656 -0.689080 1.807050 0.061690 -0.052849 -319682.000000 0 0 1
29.756241 -26.326034 -9.488911 40.847685 -0.724310 1.805238 0.034003 -0.047450 -690577.000000 0 0 1
28.392891 -26.062834 -8.877811 39.550514 -0.742636 1.797193 0.034074 -0.043600 -964470.000000 0 0 1
27.597661 -25.434934 -9.826111 38.795866 -0.744640 1.826863 0.042280 -0.047227 -59407.300000 0 0 1
26.327021 -25.039234 -9.311011 37.506936 -0.760333 1.821667 0.045825 -0.042148 403487.000000 0 0 1
25.338421 -24.448034 -10.336111 36.695738 -0.767516 1.856331 0.087284 -0.031409 -351913.000000 0 0 1
24.646721 -25.343934 -11.147511 37.068084 -0.799344 1.876255 0.059671 -0.028237 31045.900000 0 0 1
23.976421 -24.700234 -12.209011 36.524379 -0.800267 1.911627 0.058497 -0.018610 -648710.000000 0 0 1
23.151121 -25.707534 -12.970911 36.947209 -0.837673 1.929506 0.053961 -0.022075 -593040.000000 0 0 1
23.861521 -26.607834 -13.803711 38.313072 -0.839760 1.939372 0.054862 -0.025893 -126718.000000 0 0 1
23.337321 -27.922734 -13.744711 38.900215 -0.874615 1.931927 0.053243 -0.008252 -487807.000000 0 0 1
24.047421 -29.094334 -14.441211 40.414197 -0.880085 1.936204 0.037236 -0.009440 -453763.000000 0 0 1
24.039821 -29.060934 -15.827411 40.901807 -0.879676 1.968130 0.040723 -0.006989 310989.000000 0 0 1
24.543921 -30.277834 -16.298811 42.246924 -0.889611 1.966870 0.036884 -0.003621 -355027.000000 0 0 1
24.477221 -30.374534 -17.855311 42.901734 -0.892500 2.000048 0.048762 -0.004065 682542.000000 0 0 1
23.133321 -30.340634 -18.376011 42.348346 -0.919373 2.019641 0.050392 -0.003158 673582.000000 0 0 1
22.947121 -30.511634 -19.723311 42.971376 -0.925967 2.047651 0.048388 -0.002679 -722404.000000 0 0 1
21.493021 -30.444834 -20.150111 42.365846 -0.956077 2.066467 0.038901 -0.001375 -580920.000000 0 0 1
21.447521 -30.578834 -21.543011 43.118008 -0.959142 2.093967 0.038414 -0.007691 -256457.000000 0 0 1
20.124521 -30.590534 -22.003711 42.719322 -0.988910 2.111893 0.048875 -0.008038 -653243.000000 0 0 1
19.969421 -30.756134 -23.546811 43.579466 -0.994926 2.141612 0.045411 -0.008081 -562452.000000 0 0 1
20.302821 -29.632834 -24.371011 43.408013 -0.970109 2.166922 0.047303 -0.007899 346719.000000 0 0 1
20.175621 -30.008234 -25.743051 44.387549 -0.978879 2.189477 0.051918 -0.013394 -480397.000000 0 0 1
20.542121 -28.915234 -26.769361 44.437239 -0.953108 2.217311 0.051224 -0.017866 300310.000000 0 0 1
19.729421 -27.721634 -26.802261 43.313973 -0.952263 2.237998 0.043729 -0.013440 332566.000000 0 0 1
18.526421 -27.878434 -27.538641 43.345267 -0.984265 2.259235 0.062302 -0.019048 -50099.300000 0 0 1
17.904521 -26.493634 -27.834931 42.394197 -0.976494 2.287064 0.053450 -0.024162 -313391.000000 0 0 1
17.208021 -25.971134 -26.725791 41.047335 -0.985626 2.279825 0.039945 -0.006573 -196657.000000 0 0 1
16.895821 -24.624134 -27.026811 40.277354 -0.969427 2.306377 0.041255 0.002995 -132773.000000 0 0 1
15.783421 -24.042634 -26.114271 38.847391 -0.989882 2.308009 0.049352 0.001539 -515034.000000 0 0 1
14.588321 -24.736934 -26.337111 38.966376 -1.037956 2.312972 0.061609 -0.004551 369995.000000 0 0 1
13.375321 -24.198934 -25.733881 37.771951 -1.065864 2.320328 0.057053 -0.004909 1470850.000000 0 0 1
13.342621 -24.382534 -24.179011 36.839627 -1.070090 2.286743 0.050693 0.006019 -178667.000000 0 0 1
14.239421 -23.507534 -23.473211 36.143560 -1.026168 2.277649 0.030839 -0.002566 70864.100000 0 0 1
14.264921 -23.860934 -22.083911 35.503962 -1.031970 2.242107 0.045323 0.001057 -519454.000000 0 0 1
15.497121 -23.351734 -21.385111 35.253188 -0.984893 2.222592 0.018470 0.000540 -502409.000000 0 0 1
15.424821 -21.926134 -21.219311 34.189759 -0.957732 2.240347 0.017231 0.002574 482142.000000 0 0 1
16.622321 -21.434434 -20.599911 34.060136 -0.911176 2.220324 0.015271 -0.006474 289767.000000 0 0 1
16.490221 -20.100734 -19.807911 32.685169 -0.883752 2.221846 0.027548 -0.000555 78141.600000 0 0 1
15.834421 -20.146634 -18.551011 31.634724 -0.904676 2.197420 0.025937 -0.015229 335968.000000 0 0 1
14.421921 -20.089634 -18.591311 30.939006 -0.948172 2.215425 0.019704 -0.012250 -222160.000000 0 0 1
13.757621 -19.914634 -17.230511 29.711198 -0.966251 2.189443 0.019895 -0.010576 -357623.000000 0 0 1
13.796521 -18.632634 -16.640711 28.538261 -0.933436 2.193338 0.034204 -0.018982 129151.000000 0 0 1
13.346821 -18.748034 -15.293811 27.631994 -0.952125 2.157336 0.026283 -0.018432 -155714.000000 0 0 1
13.381821 -17.369034 -14.616211 26.351283 -0.914341 2.158760 0.035538 -0.014237 -275860.000000 0 0 1
12.336221 -16.514034 -15.062611 25.529942 -0.929209 2.201853 0.052500 -0.026880 351222.000000 0 0 1
12.556821 -15.221934 -14.612211 24.553976 -0.881046 2.208193 0.054757 -0.032051 -132351.000000 0 1 0
11.254821 -14.460334 -14.277411 23.229652 -0.909413 2.232701 0.055460 -0.031098 145960.000000 0 1 0
10.542721 -14.090934 -15.462611 23.426390 -0.928453 2.291683 0.062041 -0.016004 54918.600000 0 1 0
9.174821 -13.803134 -15.262911 22.531318 -0.984163 2.315031 0.058573 -0.013237 244352.000000 0 1 0
8.488721 -13.266134 -16.529511 22.831413 -1.001569 2.380352 0.051008 -0.000537 73845.900000 0 1 0
9.010021 -12.016534 -16.993811 22.679665 -0.927422 2.417797 0.050072 -0.001691 211494.000000 0 1 0
10.185121 -12.140434 -17.781411 23.818174 -0.872757 2.413655 0.059792 -0.002576 164261.000000 0 1 0
10.411021 -10.910934 -18.662011 23.993926 -0.808840 2.461923 0.063219 -0.006362 259816.000000 0 1 0
9.378621 -10.784934 -19.630511 24.282304 -0.855031 2.512274 0.054896 -0.007388 406309.000000 0 1 0
9.623021 -9.634834 -20.453011 24.571492 -0.786012 2.554199 0.053524 -0.010561 33540.300000 0 1 0
9.197121 -9.861734 -21.930611 25.744758 -0.820256 2.590299 0.057547 -0.008282 360881.000000 0 0 1
10.238721 -10.360534 -22.792511 27.049411 -0.791312 2.572936 0.029479 -0.005234 139143.000000 0 0 1
9.816721 -10.709534 -24.102011 28.141945 -0.828867 2.599139 0.041778 -0.010525 -525345.000000 0 0 1
10.952821 -11.301034 -24.903711 29.459676 -0.801044 2.578015 0.055803 -0.012559 -601778.000000 0 0 1
11.143821 -12.649234 -24.582011 29.807099 -0.848585 2.540474 0.047060 -0.015587 -202390.000000 0 0 1
12.271021 -13.217634 -25.202281 30.990947 -0.822520 2.520451 0.045437 -0.020208 -21829.100000 0 0 1
12.310821 -14.734834 -24.866911 31.417112 -0.874786 2.484070 0.045792 -0.016809 250152.000000 0 0 1
11.278521 -15.453034 -25.558051 31.925151 -0.940311 2.499028 0.050320 -0.023192 212997.000000 0 0 1
11.090721 -16.699634 -24.877211 31.949296 -0.984552 2.463302 0.051985 -0.018736 544318.000000 0 0 1
9.831721 -17.507034 -25.335311 32.327032 -1.059101 2.471427 0.059263 -0.018738 317802.000000 0 0 1
10.079121 -18.420634 -26.407611 33.738263 -1.070133 2.469820 0.065047 -0.023053 -234618.000000 0 0 1
8.929021 -18.924334 -27.065271 34.210916 -1.129940 2.483450 0.063823 -0.023604 -71650.700000 0 0 1
9.187521 -19.986334 -28.164941 35.736928 -1.139913 2.478543 0.060387 -0.026118 -242398.000000 0 0 1
9.733021 -21.259734 -27.839791 36.356044 -1.141463 2.443009 0.060334 -0.024241 -41739.400000 0 0 1
9.670221 -22.087134 -28.968501 37.689902 -1.158116 2.447448 0.059733 -0.020290 102502.000000 0 0 1
10.260621 -23.521534 -28.795691 38.571165 -1.159459 2.413673 0.047046 -0.012644 3270.920000 0 0 1
10.197621 -24.463134 -29.881951 39.942051 -1.175843 2.416040 0.051000 -0.016442 13518.200000 0 0 1
10.839121 -25.729434 -29.773511 40.816079 -1.172087 2.388322 0.057107 -0.014666 30928.200000 0 0 1
10.416821 -26.648034 -28.625381 40.472711 -1.198156 2.356434 0.051172 -0.012374 -529.467000 0 0 1
11.200621 -26.429934 -27.491001 39.746075 -1.169955 2.334589 0.056217 -0.010787 -463360.000000 0 0 1
10.571921 -26.956934 -26.362931 39.159238 -1.197051 2.309356 0.038883 -0.000992 520057.000000 0 0 1
9.461621 -26.072134 -25.705961 37.816331 -1.222674 2.318229 0.035304 -0.002710 372746.000000 0 0 1
9.987221 -24.829634 -25.295891 36.825771 -1.188369 2.328021 0.045114 0.007933 2679.120000 0 0 1
8.947421 -23.880934 -25.112841 35.791202 -1.212317 2.348505 0.043828 0.007718 291944.000000 0 0 1
9.554921 -22.450834 -24.999811 34.933179 -1.168423 2.368346 0.057745 -0.001109 344386.000000 0 0 1
10.235521 -22.325734 -23.756811 34.170022 -1.140927 2.339568 0.052207 0.009343 29146.600000 0 0 1
11.001121 -21.121434 -23.766111 33.644727 -1.090607 2.355173 0.051343 0.003407 352434.000000 0 0 1
11.722121 -20.859134 -22.391711 32.770419 -1.058813 2.323056 0.031488 0.007220 218325.000000 0 0 1
10.941321 -20.243634 -21.376311 31.408023 -1.075290 2.319378 0.036039 0.005311 -265804.000000 0 0 1
10.776821 -18.781134 -21.455411 30.482873 -1.049856 2.351601 0.049736 -0.001479 -687614.000000 0 0 1
11.955921 -17.847834 -21.244111 30.212605 -0.980572 2.350620 0.035966 -0.003253 -729979.000000 0 0 1
12.923721 -18.031134 -22.230611 31.406121 -0.948920 2.357237 0.032046 -0.001571 71147.500000 0 0 1
13.958021 -16.998034 -22.112111 31.188219 -0.883288 2.358860 0.030851 0.001374 1539780.000000 0 0 1
15.240821 -17.328134 -22.992011 32.575749 -0.849400 2.354350 0.032227 -0.001957 751254.000000 0 0 1
16.345321 -17.727634 -22.195411 32.773081 -0.825945 2.314808 0.030466 0.002561 613353.000000 0 0 1
17.551821 -17.393134 -22.888611 33.681984 -0.780857 2.317946 0.043074 0.001595 812621.000000 0 0 1
18.841621 -17.587134 -22.021711 33.900881 -0.750975 2.277843 0.040664 -0.001561 441175.000000 0 0 1
19.324521 -18.932834 -21.959511 34.844074 -0.775160 2.252636 0.034990 -0.000480 -473002.000000 0 0 1
20.572721 -19.000334 -21.357611 35.219272 -0.745685 2.222345 0.026353 -0.006463 -297549.000000 0 0 1
21.181021 -20.426834 -21.280711 36.314734 -0.767274 2.196919 0.044284 -0.014451 146780.000000 0 0 1
20.378721 -21.282134 -20.463511 35.874459 -0.807080 2.177814 0.033646 -0.012425 213627.000000 0 0 1
20.809421 -22.601534 -20.385211 36.870289 -0.826657 2.156625 0.046351 -0.010909 -144733.000000 0 0 1
-16.018767 13.080002 29.322427 35.881640 -0.684747 0.614263 0.062901 -0.015919 -514305.000000 0 0 1
-17.265767 13.398102 28.764967 36.125326 -0.659930 0.649717 0.076340 -0.020910 -2792.250000 0 0 1
-17.141667 13.267602 27.371537 34.915141 -0.658683 0.669802 0.078533 -0.021350 -222445.000000 0 0 1
-18.364567 13.871502 26.707357 35.255621 -0.646910 0.711268 0.097761 -0.013201 -326714.000000 0 0 1
-18.371467 15.275702 26.950497 36.016485 -0.693650 0.725327 0.085479 -0.006297 -456879.000000 0 0 1
-19.504767 15.872402 26.421157 36.475288 -0.683081 0.760694 0.097152 -0.015638 -882956.000000 0 0 1
-19.670867 17.391502 26.674827 37.429317 -0.723975 0.777496 0.102077 -0.008795 73855.500000 0 0 1
-18.771267 18.301002 26.077877 36.977599 -0.772714 0.788043 0.064911 0.011959 801189.000000 0 0 1
-17.460967 18.362002 26.676247 36.792263 -0.810545 0.759689 0.039471 0.029618 582415.000000 0 0 1
-16.371667 19.173902 25.941807 36.175231 -0.864070 0.771142 0.040438 0.024157 -131905.000000 0 0 1
-16.675367 20.586602 25.861437 37.022830 -0.889981 0.797460 0.051895 0.016695 -425626.000000 0 0 1
-15.743567 21.392202 25.223187 36.629160 -0.936349 0.811227 0.066832 0.005317 -467316.000000 0 0 1
-15.978267 22.925302 25.358387 37.734895 -0.962106 0.833871 0.071810 0.006004 -92913.000000 0 0 1
-15.601067 23.514202 26.551747 38.746693 -0.985007 0.815829 0.058877 0.010378 -5753.430000 0 0 1
-15.798167 24.922402 26.476077 39.644556 -1.005827 0.839498 0.058140 0.002238 -40642.200000 0 0 1
-15.158167 25.763602 27.615907 40.696087 -1.038983 0.824957 0.036033 0.007860 269465.000000 0 0 1
-13.742667 25.771902 27.689387 40.246167 -1.080910 0.812066 0.028476 -0.000349 -147722.000000 0 0 1
-13.302367 26.767502 28.594467 41.365392 -1.109584 0.807557 0.042452 0.002597 -1353570.000000 0 0 1
-11.821667 26.765102 28.747157 41.018551 -1.154881 0.794232 0.054681 -0.002437 -1292810.000000 0 0 1
-11.183067 27.464302 27.687737 40.570428 -1.184111 0.819672 0.052726 0.002254 -580934.000000 0 0 1
-9.794867 27.391502 27.760307 40.210303 -1.227378 0.808785 0.038779 0.003210 -913144.000000 0 0 1
-9.142267 28.186702 26.639277 39.846233 -1.257155 0.838536 0.042503 -0.005194 503533.000000 0 0 1
-7.706067 28.103802 26.610327 39.462851 -1.303174 0.830762 0.031909 -0.013989 947170.000000 0 0 1
-7.203067 28.822302 25.497237 39.149947 -1.325900 0.861538 0.037422 -0.016738 -1066220.000000 0 0 1
-5.726667 28.573402 25.316697 38.602709 -1.372997 0.855519 0.037477 -0.015810 -1609320.000000 0 0 1
-4.946767 29.265502 26.248407 39.622203 -1.403348 0.846689 0.038785 -0.017160 -1431100.000000 0 0 1
-3.603267 29.057502 26.198237 39.289560 -1.447421 0.840891 0.024735 -0.016193 -1068420.000000 0 0 1
-2.825267 29.850202 25.086497 39.094105 -1.476429 0.874090 0.016869 -0.010605 -657859.000000 0 0 1
-3.041967 29.450802 23.773357 37.970723 -1.467872 0.894259 0.018234 -0.000054 -4792.970000 0 0 1
-2.441367 30.378302 22.888927 38.114360 -1.490603 0.926629 0.017136 -0.006078 -137410.000000 0 0 1
-2.944667 30.087602 21.473227 37.081455 -1.473237 0.953193 0.014692 0.000040 918.418000 0 0 1
-4.319067 30.191802 21.189627 37.137576 -1.428706 0.963595 0.015480 0.004463 -147075.000000 0 0 1
-4.926667 28.895002 21.306727 36.237685 -1.401918 0.942248 0.024457 0.001811 -17669.800000 0 0 1
-6.438667 28.834402 20.982127 36.237119 -1.351102 0.953266 0.024108 -0.006399 -202757.000000 0 0 1
-6.679167 28.963202 19.556627 35.580050 -1.344150 0.988849 0.024315 -0.007679 488392.000000 0 0 1
-7.667267 28.040002 19.074527 34.768754 -1.303881 0.990094 0.019832 -0.004593 -135232.000000 0 0 1
-7.133267 26.583002 18.723727 33.288398 -1.308633 0.973426 0.012705 -0.006712 545680.000000 0 0 1
-6.222167 26.522702 17.607927 32.437758 -1.340366 0.997003 0.010539 -0.006401 1328090.000000 0 0 1
-4.840667 26.697902 17.990027 32.555354 -1.391432 0.985318 0.013636 0.001091 432642.000000 0 0 1
-3.899367 26.876502 16.816627 31.942923 -1.426717 1.016367 0.012270 -0.001790 -264450.000000 0 0 1
-3.569867 25.668202 16.104627 30.511630 -1.432605 1.014765 0.020179 -0.005805 296299.000000 0 0 1
-2.756367 25.915602 14.937227 30.038920 -1.464835 1.050356 0.029164 -0.016112 256376.000000 0 0 1
-2.169067 24.677902 14.285227 28.596703 -1.483127 1.047727 0.023824 -0.013731 466166.000000 0 0 1
-1.117767 24.095102 15.077127 28.445441 -1.524440 1.012152 0.032691 -0.014966 765986.000000 0 0 1
-0.312867 23.185302 14.295227 27.239853 -1.557303 1.018327 0.028683 -0.026155 -228470.000000 0 0 1
0.933233 22.634002 14.996427 27.167292 1.529588 0.986032 0.025107 -0.021321 12042.200000 0 0 1
1.872833 23.699202 15.190527 28.211908 1.491935 1.002207 0.030475 -0.026412 304220.000000 0 0 1
3.112033 23.146002 15.644527 28.110023 1.437146 0.980573 0.032242 -0.023692 401000.000000 0 0 1
4.242733 24.203302 15.606527 29.109522 1.397264 1.004949 0.038112 -0.025549 1225000.000000 0 0 1
5.518233 23.691002 16.079627 29.159370 1.341951 0.986708 0.039858 -0.026139 684666.000000 0 0 1
6.442633 24.705702 16.397627 30.344050 1.315702 0.999896 0.040182 -0.025556 -493232.000000 0 0 1
7.866833 24.151502 16.384827 30.226555 1.255906 0.997901 0.045170 -0.026599 -407224.000000 0 0 1
8.406933 23.802302 15.109227 29.419633 1.231275 1.031449 0.037688 -0.005934 163842.000000 0 0 1
9.155933 24.852802 14.494427 30.192404 1.217819 1.070063 0.045450 -0.008758 -160228.000000 0 0 1
9.723433 24.410902 13.124127 29.371414 1.191736 1.107574 0.045398 -0.000293 -118748.000000 0 0 1
10.731333 23.426202 13.193427 28.948488 1.141234 1.097576 0.048473 -0.008903 -95424.100000 0 0 1
10.899533 22.625402 11.969027 27.820248 1.121864 1.126052 0.042107 -0.005405 608941.000000 0 0 1
12.246633 21.817402 11.946827 27.725543 1.059301 1.125311 0.064406 -0.009459 670792.000000 0 0 1
12.253633 21.003102 13.080927 27.611455 1.042657 1.077252 0.046536 0.002022 -666776.000000 0 0 1
13.336233 20.154002 13.095727 27.487033 0.986229 1.074203 0.055351 0.003452 -719157.000000 0 0 1
13.873433 19.773502 14.494527 28.170105 0.958986 1.030330 0.046851 -0.000015 -29814.300000 0 0 1
14.876633 18.765602 14.455627 27.971900 0.900485 1.027698 0.061178 0.001556 436223.000000 0 0 1
15.319433 18.389102 15.791227 28.674151 0.876213 0.987578 0.044793 -0.006762 661360.000000 0 0 1
16.595233 17.471202 15.866227 28.851028 0.811106 0.988508 0.032482 -0.010571 558526.000000 0 0 1
16.862033 16.970702 17.182227 29.454402 0.788610 0.947949 0.041299 -0.017070 77552.900000 0 0 1
17.858233 15.970802 16.978227 29.363978 0.729663 0.954277 0.027911 -0.012105 32149.500000 0 0 1
18.480533 15.447502 18.264527 30.228271 0.696239 0.922010 0.039174 -0.009884 -148570.000000 0 0 1
19.099933 16.543402 18.965627 31.594091 0.713795 0.926932 0.039503 -0.007121 -125240.000000 0 0 1
18.286633 17.259502 19.833527 32.025929 0.756510 0.902951 0.032312 -0.004905 -487130.000000 0 0 1
19.020533 18.393602 20.609227 33.538716 0.768643 0.909056 0.021463 -0.004026 198635.000000 0 0 1
18.121133 19.270502 21.243927 33.926864 0.816127 0.894167 0.039710 -0.007193 304524.000000 0 0 1
18.898433 20.272402 21.859027 35.297848 0.820460 0.902979 0.029719 -0.002129 682539.000000 0 0 1
17.994233 21.327102 22.600527 35.908516 0.869956 0.890026 0.052736 -0.009067 425601.000000 0 0 1
17.141333 20.882002 23.613217 35.881295 0.883461 0.852514 0.046086 -0.010135 84014.300000 0 0 1
16.465933 21.938402 24.249447 36.612240 0.926941 0.846870 0.042362 -0.022878 -98852.000000 0 0 1
15.756933 21.642202 25.560317 37.013452 0.941482 0.808522 0.051769 -0.020114 -497545.000000 0 0 1
14.712333 20.728402 25.429267 35.955069 0.953545 0.785194 0.051889 -0.025458 -771853.000000 0 0 1
13.970633 20.635702 26.598707 36.448621 0.975665 0.752827 0.058929 -0.022034 -33579.100000 0 0 1
12.861033 19.555902 26.450107 35.319224 0.989059 0.724415 0.078084 -0.020392 41663.800000 0 0 1
13.353733 18.209702 26.341087 34.695364 0.938049 0.708697 0.064198 -0.025338 150476.000000 0 0 1
14.094533 17.809302 25.188597 33.915962 0.901313 0.733738 0.071470 -0.026388 93347.800000 0 0 1
13.328233 17.679702 23.819857 32.520751 0.924822 0.748881 0.082646 -0.022043 -487659.000000 0 0 1
13.018133 18.865802 23.013927 32.481242 0.966787 0.783384 0.078218 -0.020474 322388.000000 0 0 1
14.050633 19.493002 22.220727 32.728552 0.946244 0.824478 0.066347 -0.021185 472095.000000 0 0 1
14.644333 18.491302 21.156827 31.685897 0.900978 0.839675 0.070280 -0.019590 -540761.000000 0 0 1
13.668433 17.985502 20.295227 30.367755 0.920945 0.838855 0.067166 -0.017173 -153093.000000 0 0 1
14.130233 16.881702 19.518627 29.421627 0.873889 0.845428 0.054699 -0.016406 -201826.000000 0 0 1
12.988133 16.264402 18.719327 27.993491 0.896933 0.838334 0.038168 -0.006327 -97323.200000 0 0 1
12.517133 17.052302 17.624027 27.532997 0.937586 0.876161 0.046064 -0.003790 -167042.000000 0 0 1
11.383133 16.530302 16.993727 26.298543 0.967747 0.868221 0.034401 0.002048 -105815.000000 0 0 1
10.984133 17.154102 15.627627 25.673666 1.001255 0.916372 0.032777 0.012509 17800.100000 0 0 1
10.383133 18.414302 15.802327 26.393361 1.057373 0.928890 0.034300 0.000557 210862.000000 0 0 1
9.818833 18.871802 14.552827 25.774777 1.091048 0.970830 0.030537 0.010661 -388777.000000 0 0 1
8.829333 20.020802 14.684927 26.352167 1.155445 0.979718 0.036858 0.008471 -1095760.000000 0 0 1
7.616533 19.563602 15.189427 25.912637 1.199529 0.944463 0.023261 0.003099 -1211240.000000 0 0 1
6.667133 20.579402 15.127527 26.397055 1.257495 0.960541 0.023577 -0.007102 -771434.000000 0 0 1
5.447933 20.202202 15.934527 26.300534 1.307392 0.919946 0.029065 -0.013373 80083.200000 0 0 1
4.415033 19.478802 15.229527 25.116822 1.347904 0.919337 0.037222 -0.012055 473539.000000 0 0 1
3.179433 19.325402 15.887827 25.219100 1.407736 0.889254 0.033160 -0.015247 653014.000000 0 0 1
2.114133 18.576102 15.021827 23.983252 1.457475 0.893939 0.030266 -0.017823 407783.000000 0 1 0
1.380833 19.376402 14.100027 24.003383 1.499653 0.942931 0.030973 -0.021284 -49656.900000 0 1 0
0.393733 18.604102 13.440827 22.954813 1.549636 0.945258 0.025647 -0.026019 541275.000000 0 1 0
-0.596367 19.556702 12.672427 23.311170 -1.540312 0.996052 0.024597 -0.033131 691927.000000 0 1 0
-1.754567 20.134802 13.242227 24.162891 -1.483875 0.990777 0.016207 -0.031114 -182625.000000 0 1 0
-2.700567 20.523302 12.309127 24.083471 -1.439963 1.034329 0.012238 -0.025435 -68078.000000 0 1 0
-3.859267 21.312702 12.936327 25.228431 -1.391659 1.032391 0.008174 -0.015801 -368159.000000 0 0 1
-4.684567 20.691902 13.851427 25.336969 -1.348153 0.992392 0.013540 -0.018665 -220804.000000 0 0 1
-5.687667 21.622102 14.256827 26.516447 -1.313575 1.003137 0.007414 -0.007627 -51387.500000 0 0 1
-6.554467 21.041902 15.405727 26.889758 -1.268826 0.960730 0.013476 -0.010421 -1351220.000000 0 0 1
-7.259567 19.857202 15.126427 25.996511 -1.220302 0.949778 0.014436 -0.013201 -42358.700000 0 0 1
-7.978067 19.419802 16.266627 26.559017 -1.180996 0.911614 0.016817 0.002777 -102200.000000 0 0 1
-9.127567 20.314102 16.791927 27.891648 -1.148507 0.924741 0.016408 -0.001322 -173285.000000 0 0 1
-10.222767 20.541802 15.864327 27.895295 -1.109025 0.965860 0.015883 -0.014816 582897.000000 0 0 1
-11.326267 19.782602 16.328127 28.040032 -1.050815 0.949223 0.013940 -0.013833 10200.800000 0 0 1
-12.549567 19.770402 15.367227 28.009143 -1.005205 0.990047 0.024291 -0.022393 25985.700000 0 0 1
-13.298667 20.948002 15.272927 29.136500 -1.005151 1.019038 0.010029 -0.016292 872.093000 0 0 1
-14.149767 20.801102 14.137927 28.857975 -0.973455 1.058805 0.010127 -0.022122 284298.000000 0 0 1
-15.303867 21.862202 14.095527 30.180260 -0.960060 1.084851 0.018036 -0.021888 1021690.000000 0 0 1
-16.449767 21.604802 14.944027 30.994939 -0.920043 1.067696 0.026085 -0.021350 87834.200000 0 0 1
-17.404967 22.581402 14.621227 32.041112 -0.914137 1.096933 0.041953 -0.026040 315299.000000 0 0 1
-18.706467 22.368202 15.477627 33.012502 -0.874311 1.082818 0.066726 -0.021843 -456412.000000 0 0 1
-19.579467 21.351402 15.066627 32.653348 -0.828662 1.091211 0.060361 -0.017768 762417.000000 0 0 1
-20.702567 21.103802 15.956327 33.594212 -0.794995 1.075864 0.071815 -0.009888 1440870.000000 0 0 1
-21.733867 22.288102 16.107127 35.050820 -0.797987 1.093323 0.069367 -0.019065 -651888.000000 0 0 1
-22.643267 22.414402 15.021527 35.224554 -0.780319 1.130231 0.079283 -0.020397 242023.000000 0 0 1
-23.268167 23.676702 14.892727 36.383886 -0.794100 1.149085 0.087413 -0.026519 -160978.000000 0 0 1
-22.533867 24.692202 14.033027 36.254735 -0.831069 1.173347 0.076812 -0.020250 808074.000000 0 0 1
-21.317867 25.268802 14.578327 36.131585 -0.870004 1.155481 0.061668 -0.017856 941842.000000 0 0 1
-20.909867 26.363502 13.799127 36.368567 -0.900254 1.181622 0.035052 -0.006835 573722.000000 0 0 1
-19.415467 26.805902 14.033827 35.950870 -0.943948 1.169772 0.028900 -0.006113 929174.000000 0 0 1
-18.517867 25.999102 13.267227 34.567094 -0.951896 1.176877 0.035710 -0.006706 -474155.000000 0 0 1
-17.216267 26.465202 13.472627 34.326643 -0.994052 1.167467 0.012593 -0.003597 -604616.000000 0 0 1
-16.210267 25.977002 12.410627 33.039386 -1.012899 1.185718 0.019224 -0.012927 4854.290000 0 0 1
-14.961567 26.630402 12.533827 33.017020 -1.058921 1.181414 0.012662 -0.006067 223037.000000 0 0 1
-13.946067 26.073102 11.719727 31.806468 -1.079633 1.193434 0.011875 -0.006987 236918.000000 0 0 1
-12.545467 26.658702 12.065627 31.837941 -1.130948 1.182113 0.004318 0.003721 -496574.000000 0 0 1
-11.539767 25.888002 11.393927 30.547937 -1.151476 1.188572 0.002037 0.005161 131188.000000 0 0 1
-10.242467 26.371802 11.634727 30.589981 -1.200341 1.180628 0.012731 0.005841 -216222.000000 0 0 1
-9.858067 27.728702 11.026327 31.426776 -1.229214 1.212309 0.023934 -0.001990 -1366060.000000 0 0 1
-8.542367 28.051102 11.376327 31.452459 -1.275190 1.200707 0.030984 -0.002729 -123148.000000 0 0 1
-8.118167 29.359802 11.061227 32.407612 -1.301030 1.222480 0.034407 -0.006040 425224.000000 0 0 1
-6.702867 29.656302 11.636727 32.555154 -1.348513 1.205264 0.027506 -0.009229 1078630.000000 0 0 1
-5.542267 29.080702 11.015227 31.587009 -1.382472 1.214584 0.041483 -0.006950 55094.500000 0 0 1
-4.396667 29.508402 11.654727 32.029816 -1.422887 1.198376 0.042724 -0.018634 -165123.000000 0 0 1
-3.074067 29.316202 10.841727 31.407525 -1.466319 1.218350 0.055029 -0.024980 380398.000000 0 0 1
-3.082067 30.099002 9.679127 31.766878 -1.468754 1.261181 0.068058 -0.030032 -138098.000000 0 0 1
-2.020467 29.718802 8.853427 31.075274 -1.502915 1.281891 0.061703 -0.034605 -128106.000000 0 0 1
-1.952067 30.571302 7.547327 31.549599 -1.507030 1.329233 0.056198 -0.034873 174989.000000 0 0 1
-3.105567 30.386502 6.750427 31.281821 -1.468948 1.353291 0.061167 -0.025367 294835.000000 0 0 1
-2.880867 31.018902 5.537127 31.640661 -1.478187 1.394890 0.060443 -0.022305 185353.000000 0 0 1
10.630533 33.941802 -26.484151 44.344835 1.267275 2.210842 0.068637 -0.024144 -26280.000000 0 0 1
11.236833 -33.946934 -25.356331 43.836107 -1.251137 2.187605 0.048336 -0.018981 60902.300000 0 0 1
12.457633 -33.319034 -25.631251 43.844175 -1.213000 2.195182 0.053507 -0.019556 -118671.000000 0 0 1
13.357733 -33.104534 -24.370211 43.223216 -1.187275 2.169803 0.051432 -0.009748 -403381.000000 0 0 1
12.783733 -32.288134 -23.373411 41.860050 -1.193806 2.163216 0.049705 -0.004995 236134.000000 0 0 1
13.473933 -32.340134 -22.141711 41.444982 -1.176035 2.134409 0.043759 -0.005218 -272365.000000 0 0 1
14.951233 -31.970534 -21.957611 41.566707 -1.133357 2.127334 0.031948 -0.002953 -341791.000000 0 0 1
15.822533 -33.023134 -22.291611 42.869521 -1.123980 2.117633 0.045647 -0.013109 -167475.000000 0 0 1
17.128733 -32.781934 -21.830611 42.949089 -1.089307 2.103995 0.034955 -0.023102 -380556.000000 0 0 1
18.076933 -33.982134 -21.798511 44.235009 -1.081913 2.086088 0.025848 -0.014636 -10208.500000 0 0 1
19.447033 -33.632934 -21.693611 44.496900 -1.046550 2.080056 0.033114 -0.005256 502566.000000 0 0 1
20.248033 33.732902 -21.553611 44.860335 1.030196 2.071976 0.028204 0.000334 179290.000000 0 0 1
21.714433 33.934502 -21.120211 45.487694 1.001559 2.053647 0.053197 0.002958 597465.000000 0 0 1
22.601833 -34.075834 -22.146111 46.502210 -0.985142 2.067168 0.049923 0.002037 89721.100000 0 0 1
23.921133 -34.001834 -21.717811 46.904250 -0.957709 2.052201 0.047951 0.010722 -18772.600000 0 0 1
24.924633 -33.410034 -22.788711 47.505716 -0.929846 2.071114 0.063174 0.002402 418935.000000 0 0 1
24.827233 -31.988134 -23.052311 46.594434 -0.910775 2.088336 0.065230 -0.004649 -415738.000000 0 0 1
23.764533 -31.557334 -23.847711 46.144682 -0.925340 2.113909 0.050276 -0.006685 -475677.000000 0 0 1
23.633333 -30.055834 -23.949111 45.115934 -0.904456 2.130382 0.046955 -0.019200 -737745.000000 0 0 1
24.679433 -29.471434 -24.644711 45.661818 -0.873662 2.140904 0.047647 -0.015993 -480237.000000 0 0 1
24.734733 -28.089334 -24.320111 44.635025 -0.848818 2.147026 0.058199 -0.013698 262719.000000 0 0 1
25.104833 -27.250934 -25.534791 44.998795 -0.826366 2.174208 0.045406 -0.012626 -555943.000000 0 0 1
24.078133 -27.271534 -26.429921 44.967030 -0.847508 2.199086 0.036935 -0.016922 -1089870.000000 0 0 1
24.617233 -26.883634 -27.675991 45.767875 -0.829377 2.220190 0.028525 -0.014771 -527451.000000 0 0 1
23.702333 -26.296034 -28.745651 45.602571 -0.837227 2.252802 0.031256 -0.015115 -52152.500000 0 0 1
23.046333 -25.048534 -28.498811 44.393071 -0.827004 2.267855 0.037467 -0.012474 -191851.000000 0 0 1
21.890333 -25.210634 -27.713011 43.390941 -0.855775 2.263580 0.028482 -0.010743 -575953.000000 0 0 1
21.157333 -23.883334 -27.412621 42.065403 -0.845848 2.280576 0.027887 -0.007491 -189245.000000 0 0 1
20.603533 -23.350534 -28.564181 42.257135 -0.847814 2.313064 0.032533 -0.007222 34186.100000 0 0 1
19.942233 -22.121434 -28.285861 41.074815 -0.837159 2.330411 0.023805 0.004626 -166200.000000 0 0 1
19.092333 -21.577434 -29.455721 41.203669 -0.846427 2.367250 0.035150 -0.003954 -445952.000000 0 0 1
17.930433 -22.336934 -29.509951 41.125129 -0.894396 2.371096 0.046107 -0.012404 -215629.000000 0 0 1
16.917733 -21.825134 -30.376671 41.052263 -0.911393 2.403794 0.038662 -0.021386 892940.000000 0 0 1
15.535433 -22.534934 -30.184191 40.746268 -0.967224 2.405033 0.050522 -0.021525 287235.000000 0 0 1
15.631533 -23.721734 -30.864781 41.948781 -0.988152 2.397604 0.046984 -0.014056 143532.000000 0 0 1
14.798733 -24.709934 -30.326561 41.824438 -1.031187 2.381964 0.056092 -0.024186 -244237.000000 0 0 1
15.092533 -26.107834 -30.861041 43.148666 -1.046647 2.367744 0.073717 -0.024488 101452.000000 0 0 1
14.147133 -27.078934 -30.466711 43.146617 -1.089358 2.354801 0.075784 -0.026087 245149.000000 0 0 1
14.646833 -28.354834 -30.839791 44.380390 -1.093993 2.339073 0.111806 -0.028566 129129.000000 0 0 1
13.842333 -29.438234 -30.146171 44.351003 -1.131258 2.318174 0.111884 -0.034521 -423647.000000 0 0 1
14.176033 -29.722534 -28.822411 43.762088 -1.125762 2.289774 0.122631 -0.037748 -236076.000000 0 0 1
13.773233 -28.727034 -27.911271 42.355442 -1.123722 2.290254 0.108625 -0.026978 -864963.000000 0 0 1
14.700733 -28.468834 -26.754191 41.741739 -1.094131 2.266526 0.090673 -0.014080 -573387.000000 0 0 1
14.810733 -29.487634 -25.765521 41.865743 -1.105335 2.233730 0.075786 -0.017254 -273472.000000 0 0 1
15.781333 -29.261634 -24.783111 41.466809 -1.076191 2.211377 0.070404 -0.020768 -836045.000000 0 0 1
15.517633 -28.147834 -23.659311 39.910656 -1.066963 2.205336 0.057205 -0.013916 977859.000000 0 0 1
14.417333 -28.401834 -22.755711 39.145192 -1.101071 2.191141 0.051830 -0.010587 1091340.000000 0 0 1
13.103533 -28.400334 -23.318611 39.013320 -1.138514 2.211437 0.055924 -0.005832 -114437.000000 0 0 1
12.002633 -28.120434 -22.300111 37.843321 -1.167377 2.200957 0.033847 0.006937 -228266.000000 0 0 1
11.868433 -26.812634 -21.877211 36.584005 -1.154077 2.211799 0.028740 0.007333 357961.000000 0 0 1
10.582733 -26.591934 -21.299111 35.676005 -1.192043 2.210571 0.035238 0.006035 516833.000000 0 0 1
10.194633 -25.089234 -21.029811 34.287799 -1.184841 2.231069 0.040210 0.003765 -60758.600000 0 0 1
10.850833 -24.587734 -19.911511 33.447952 -1.155192 2.208433 0.040314 0.001729 -90554.500000 0 0 1
10.626333 -23.206034 -19.764811 32.281368 -1.141382 2.229721 0.044664 0.001017 -46074.900000 0 0 1
11.159833 -22.475434 -18.481011 31.164640 -1.109925 2.205591 0.037341 -0.007068 -218727.000000 0 0 1
10.446433 -22.715434 -17.299111 30.403588 -1.139754 2.176064 0.057267 -0.011061 126736.000000 0 0 1
10.893233 -21.966534 -16.155611 29.363156 -1.110433 2.153400 0.048205 -0.014297 111530.000000 0 0 1
9.981033 -22.294534 -14.925511 28.625830 -1.149865 2.119287 0.056006 -0.018775 279603.000000 0 0 1
10.535533 -23.359334 -14.183011 29.288457 -1.147094 2.076305 0.059469 -0.016643 -246729.000000 0 0 1
9.787633 -23.803534 -13.082311 28.871315 -1.180686 2.041064 0.066447 -0.019992 -333683.000000 0 0 1
9.740933 -25.347334 -13.010011 30.110355 -1.203899 2.017592 0.062733 -0.013736 259255.000000 0 0 1
10.973333 -25.902134 -12.567611 30.810379 -1.170073 1.990951 0.043535 -0.019547 71464.500000 0 0 1
11.276833 -27.200534 -12.995211 32.185579 -1.177783 1.986418 0.045913 -0.021571 668338.000000 0 0 1
12.636833 -27.841234 -12.471411 33.020599 -1.144713 1.958092 0.034226 -0.013888 1571290.000000 0 0 1
13.885533 -27.560634 -13.093711 33.523750 -1.104099 1.972058 0.036639 -0.009730 519256.000000 0 0 1
14.024433 -27.985934 -14.421811 34.465720 -1.106250 2.002523 0.035582 -0.013121 -874948.000000 0 0 1
15.382433 -27.449134 -14.917211 34.822369 -1.060005 2.013496 0.028908 -0.000927 -460643.000000 0 0 1
16.462333 -28.255934 -14.518511 35.779790 -1.043258 1.988622 0.039246 0.001652 -940116.000000 0 0 1
17.535433 -27.705234 -15.212111 36.145259 -1.006516 2.005190 0.048275 0.002550 180949.000000 0 0 1
18.921233 -28.424134 -15.004411 37.297142 -0.983481 1.984817 0.049162 0.000917 851860.000000 0 0 1
19.010833 -29.638734 -15.746611 38.572297 -1.000477 1.991318 0.040545 0.007580 -290562.000000 0 0 1
20.331233 -30.082734 -15.927311 39.648571 -0.976467 1.984182 0.040350 0.008896 -108572.000000 0 0 1
20.455733 -31.220034 -16.927111 40.983590 -0.990766 1.996566 0.032441 0.002876 -252236.000000 0 0 1
19.971733 -32.449734 -16.473411 41.511789 -1.019082 1.978865 0.028648 0.013463 -81500.500000 0 0 1
20.205233 -33.386634 -17.508911 42.772430 -1.026570 1.992538 0.026352 0.004485 29510.100000 0 0 1
19.965433 33.644202 -17.228311 42.747696 1.035223 1.985614 0.019077 0.007797 317396.000000 0 0 1
20.939733 33.041602 -16.382111 42.409827 1.005938 1.967393 0.043300 0.006531 508689.000000 0 0 1
20.544433 31.681002 -16.176011 41.078254 0.995492 1.975542 0.045202 0.001556 -199033.000000 0 0 1
21.396733 31.051002 -15.092111 40.617197 0.967435 1.951495 0.064642 -0.000274 299629.000000 0 0 1
22.795133 31.011302 -15.385111 41.449012 0.936926 1.951078 0.059173 0.000670 889323.000000 0 0 1
23.721133 30.685202 -14.348611 41.354037 0.912707 1.925135 0.053414 -0.000108 475974.000000 0 0 1
23.563533 29.385602 -13.541611 40.026602 0.894914 1.915922 0.062021 -0.002510 -1011780.000000 0 0 1
23.865133 28.191202 -14.292411 39.605068 0.868311 1.940000 0.062962 0.001598 78091.200000 0 0 1
23.589933 26.998702 -13.568811 38.334416 0.852679 1.932597 0.043720 -0.001973 823812.000000 0 0 1
22.094833 26.814902 -13.126211 37.141863 0.881606 1.932007 0.061453 -0.009156 358527.000000 0 0 1
21.156833 26.776602 -14.160511 36.947504 0.902106 1.964120 0.065054 -0.013624 101971.000000 0 0 1
19.789433 26.554802 -13.865611 35.903124 0.930355 1.967299 0.064865 -0.014475 443853.000000 0 0 1
18.932433 27.882102 -13.884211 36.450239 0.974292 1.961575 0.048740 -0.010220 8834.840000 0 0 1
18.967833 28.697202 -15.062011 37.552260 0.986752 1.983508 0.042709 -0.004759 153156.000000 0 0 1
18.350233 28.034102 -16.172711 37.204818 0.991216 2.020495 0.026437 -0.001201 -257629.000000 0 0 1
18.517933 28.861702 -17.504611 38.500949 1.000342 2.042780 0.024187 0.001444 63161.700000 0 0 1
17.661933 29.999202 -17.669411 39.039775 1.038692 2.040476 0.018612 0.003856 152809.000000 0 0 1
17.827133 30.618102 -18.923411 40.166781 1.043537 2.061357 0.011787 0.005292 -473996.000000 0 0 1
16.758233 31.653302 -19.212511 40.643455 1.083882 2.063158 0.005957 0.002406 -369021.000000 0 0 1
16.941033 32.913502 -18.609311 41.431916 1.095447 2.036615 0.012320 0.011640 628892.000000 0 0 1
15.872933 33.840302 -18.926811 41.896780 1.132210 2.039521 0.014780 0.009670 510966.000000 0 0 1
15.973233 -33.398034 -18.141511 41.227264 -1.124684 2.026436 0.013208 0.007894 -116322.000000 0 0 1
15.017833 -32.437134 -18.517911 40.256875 -1.137199 2.048784 0.009664 0.007394 -132410.000000 0 0 1
14.712233 -31.638534 -17.443011 39.009041 -1.135530 2.034376 0.014684 0.000866 -142835.000000 0 0 1
13.644133 -30.545234 -17.601111 37.801756 -1.150702 2.055127 0.022922 0.003220 287470.000000 0 0 1
12.308433 -30.983034 -17.463111 37.635172 -1.192651 2.053313 0.029143 0.006147 -95301.400000 0 0 1
11.316933 -29.982334 -17.587911 36.556093 -1.209876 2.072730 0.017573 0.005838 995900.000000 0 0 1
9.943733 -30.691834 -17.895811 36.893449 -1.257482 2.077237 0.038740 0.004473 -678159.000000 0 0 1
9.331633 -31.431134 -16.839011 36.858484 -1.282194 2.045254 0.044872 0.000728 760329.000000 0 0 1
8.194133 -32.131334 -17.364011 37.430941 -1.321099 2.053183 0.064219 0.001441 1115740.000000 0 0 1
6.913233 -31.417934 -17.909311 36.818783 -1.354207 2.078781 0.066030 0.006943 -121865.000000 0 0 1
7.198833 -30.897034 -19.271611 37.119333 -1.341886 2.116687 0.045362 0.010390 210034.000000 0 0 1
6.901433 -31.865834 -20.293711 38.404373 -1.357513 2.127537 0.040178 0.004603 -1541650.000000 0 0 1
7.128533 -31.278334 -21.669811 38.713446 -1.346717 2.164879 0.029483 0.005761 438236.000000 0 0 1
8.477433 -30.989534 -22.062511 38.973997 -1.303771 2.172543 0.033924 0.002990 1032340.000000 0 0 1
9.483333 -32.002834 -21.997311 39.974951 -1.282712 2.153493 0.029492 0.001735 -243561.000000 0 0 1
9.256233 -33.239734 -22.930611 41.429104 -1.299208 2.157346 0.033880 -0.014742 -981703.000000 0 0 1
8.302533 -34.157434 -22.531811 41.753381 -1.332354 2.140806 0.032521 -0.012049 -556478.000000 0 0 1
8.006633 33.491102 -23.600211 41.746018 1.336133 2.171628 0.032440 -0.021901 -707230.000000 0 0 1
6.826633 32.543002 -23.436511 40.680707 1.364022 2.184756 0.045465 -0.032106 294734.000000 0 0 1
5.482333 32.964602 -23.609311 40.916018 1.405995 2.185870 0.051616 -0.034607 463251.000000 0 0 1
4.976333 33.879702 -22.632911 41.046885 1.424957 2.154828 0.037739 -0.028992 -862185.000000 0 0 1
3.670833 -34.013434 -23.114211 41.287473 -1.463289 2.164984 0.043850 -0.025520 69480.700000 0 0 1
2.570933 33.597802 -23.068411 40.835935 1.494424 2.171114 0.054395 -0.031028 1088040.000000 0 0 1
1.331833 -34.227234 -23.239311 41.392547 -1.531904 2.166918 0.059840 -0.030054 631852.000000 0 0 1
0.036533 33.617002 -22.753111 40.593204 1.569710 2.165804 0.059086 -0.034307 36452.200000 0 0 1
-0.185267 33.797702 -21.381111 39.993385 -1.565315 2.134850 0.050626 -0.027667 194757.000000 0 0 1
-1.357667 33.167302 -20.857211 39.203781 -1.529885 2.131781 0.050172 -0.028570 602178.000000 0 0 1
-1.607867 33.415102 -19.360811 38.652235 -1.522715 2.095432 0.059529 -0.024087 426548.000000 0 0 1
-0.507167 32.891102 -18.630211 37.804319 -1.555378 2.086108 0.064938 -0.034570 189719.000000 0 0 1
-0.857367 32.866302 -17.271111 37.137853 -1.544716 2.054492 0.053071 -0.029469 429494.000000 0 0 1
-0.036967 31.823402 -16.417511 35.808727 -1.569635 2.047078 0.030015 -0.030986 1092840.000000 0 0 1
1.108533 32.362302 -15.744211 36.005938 1.536556 2.023354 0.044970 -0.025497 319545.000000 0 0 1
1.774133 31.398002 -14.949111 34.820367 1.514352 2.014537 0.054895 -0.015919 148400.000000 0 0 1
2.771333 31.971302 -13.940011 34.988117 1.484331 1.980591 0.058771 -0.019874 -374969.000000 0 0 1
3.977633 32.397002 -14.506411 35.718668 1.448630 1.989011 0.052403 -0.018595 -606184.000000 0 0 1
4.757533 33.038802 -13.528711 36.016976 1.427781 1.955862 0.054019 -0.018745 -240374.000000 0 0 1
6.149233 33.426602 -14.046911 36.775895 1.388868 1.962712 0.063308 -0.026612 -233308.000000 0 0 1
6.841133 32.337002 -14.573311 36.122904 1.362313 1.986066 0.050225 -0.014265 -449918.000000 0 0 1
8.063633 32.736902 -15.181211 36.975615 1.329288 1.993879 0.027861 0.002153 626134.000000 0 0 1
9.042133 31.510902 -15.195211 36.132970 1.291352 2.004832 0.012093 -0.006173 262062.000000 0 0 1
9.556833 31.084802 -13.930911 35.378924 1.272524 1.975518 0.012056 -0.009530 168873.000000 0 0 1
10.437033 29.955002 -14.027911 34.684522 1.235526 1.987166 0.017791 -0.010100 616516.000000 0 0 1
9.685533 28.575202 -13.991711 33.258378 1.244000 2.005010 0.015907 -0.010581 148826.000000 0 0 1
9.163933 27.930202 -15.147111 33.068245 1.253762 2.046603 0.024181 -0.013860 -9595.390000 0 0 1
8.458533 26.761802 -14.774811 31.718068 1.264665 2.055354 0.015746 -0.009290 -427281.000000 0 0 1
7.879533 26.010502 -15.967711 31.521438 1.276648 2.101994 0.020239 -0.006678 4681.220000 0 0 1
8.775933 25.379402 -16.848611 31.701841 1.237877 2.131133 0.028370 -0.001297 -58832.600000 0 0 1
7.947633 24.657502 -17.779711 31.420939 1.258989 2.172267 0.028149 -0.003717 952727.000000 0 0 1
8.793333 23.654802 -18.623811 31.364290 1.214891 2.206558 0.031987 -0.003566 489913.000000 0 0 1
7.997033 22.686002 -19.294111 30.836179 1.231888 2.246821 0.053844 -0.011927 285578.000000 0 0 1
8.888133 21.684502 -19.772211 30.661977 1.181798 2.271616 0.040561 -0.006565 -48110.100000 0 0 1
8.346533 20.848202 -20.926711 30.695918 1.189990 2.320938 0.035246 -0.013882 -126695.000000 0 0 1
7.300933 20.019602 -20.461211 29.542330 1.221096 2.335893 0.042443 -0.010704 -95191.000000 0 0 1
6.796433 19.186302 -21.498411 29.605529 1.230355 2.383519 0.037509 -0.001954 137901.000000 0 0 1
25.395233 -12.439198 -9.112511 29.710089 -0.455474 1.882535 0.058113 0.001931 -247205.000000 0 0 1
25.925933 -12.026398 -7.891611 29.649043 -0.434332 1.840211 0.063147 -0.007473 197844.000000 0 0 1
24.841033 -11.894998 -7.010111 28.420231 -0.446581 1.820028 0.061279 -0.002231 -345925.000000 0 0 1
25.239333 -11.280298 -5.625711 28.212013 -0.420301 1.771550 0.049142 -0.010486 -268985.000000 0 0 1
25.513733 -9.911098 -5.425211 27.903644 -0.370520 1.766469 0.062622 -0.019383 979349.000000 0 0 1
26.469733 -9.260298 -6.294011 28.740467 -0.336537 1.791580 0.055329 -0.018370 -470833.000000 0 0 1
26.774733 -7.740098 -5.907111 28.490163 -0.281411 1.779650 0.094091 -0.020620 326426.000000 0 0 1
27.473733 -7.484098 -4.660911 28.853801 -0.265956 1.733043 0.100199 -0.022184 1246420.000000 0 0 1
28.747033 -8.131198 -4.494511 30.211073 -0.275653 1.720121 0.091713 -0.024240 214288.000000 0 0 1
29.289933 -7.849598 -3.074511 30.478992 -0.261843 1.671841 0.102989 -0.021945 -266234.000000 0 0 1
29.700533 -6.527898 -2.871911 30.544770 -0.216351 1.664958 0.110518 -0.024439 84730.800000 0 0 1
30.351933 -6.405798 -1.652211 31.064512 -0.207998 1.624008 0.111377 -0.021844 -183528.000000 0 0 1
30.507733 -4.963998 -1.116511 30.929107 -0.161299 1.606903 0.109585 -0.029469 841100.000000 0 0 1
29.355133 -4.431298 -0.415811 29.690624 -0.149824 1.584802 0.118555 -0.026015 691186.000000 0 0 1
29.492833 -3.044698 -0.055211 29.649628 -0.102871 1.572658 0.104313 -0.020596 -181604.000000 0 0 1
30.181433 -2.875898 1.310689 30.346459 -0.095000 1.527592 0.100407 -0.019934 -380380.000000 0 0 1
29.349633 -3.219798 2.381289 29.621590 -0.109268 1.490319 0.106543 -0.028938 122544.000000 0 0 1
29.910333 -2.999598 3.660289 30.282393 -0.099952 1.449628 0.087576 -0.026861 -32901.100000 0 0 1
29.326333 -4.005698 4.702189 29.969818 -0.135750 1.413248 0.087345 -0.032348 -168830.000000 0 0 1
29.720933 -5.314898 4.428989 30.515536 -0.176956 1.425143 0.084738 -0.034273 80144.400000 0 0 1
29.561233 -6.183098 5.546689 30.706073 -0.206190 1.389161 0.079995 -0.031838 266960.000000 0 0 1
30.538333 -7.421098 5.536589 31.911068 -0.238388 1.396413 0.082305 -0.039386 923907.000000 0 0 1
31.883733 -7.116098 5.880389 33.193226 -0.219590 1.392700 0.085265 -0.038721 806810.000000 0 0 1
32.856833 -8.120098 5.558689 34.298782 -0.242281 1.408012 0.093065 -0.035092 213639.000000 0 0 1
34.320933 -7.745098 5.719689 35.645867 -0.221949 1.409641 0.108992 -0.033591 -404810.000000 0 0 1
35.023233 -7.481798 4.538289 36.099864 -0.210460 1.444748 0.113496 -0.035439 -393259.000000 0 0 1
-36.191556 -7.293398 4.789289 37.228479 0.198859 1.441793 0.112337 -0.028413 -40014.200000 0 0 1
-35.338356 -7.107898 3.515989 36.217175 0.198490 1.473562 0.094637 -0.021432 -124932.000000 0 0 1
-35.223256 -8.276298 2.768789 36.288305 0.230781 1.494422 0.101009 -0.024359 433176.000000 0 0 1
-34.326056 -7.998698 1.693489 35.286332 0.228936 1.522785 0.085351 -0.020232 -22811.900000 0 0 1
-33.986256 -9.211798 0.779789 35.221171 0.264685 1.548655 0.077503 -0.014630 122052.000000 0 0 1
-33.168056 -10.180798 1.445189 34.725454 0.297817 1.529167 0.066501 -0.013340 500023.000000 0 0 1
-33.438656 -11.445998 0.903289 35.354922 0.329797 1.545244 0.066190 -0.016425 -763282.000000 0 0 1
-33.248356 -12.646398 1.895689 35.622720 0.363463 1.517555 0.051151 -0.025829 332998.000000 0 0 1
-31.939456 -12.969498 2.318889 34.550166 0.385724 1.503629 0.041216 -0.018849 88103.600000 0 0 1
-31.057656 -13.408398 1.310089 33.853795 0.407554 1.532088 0.051359 -0.012983 207730.000000 0 0 1
-29.635756 -13.815298 1.845389 32.749747 0.436219 1.514418 0.055214 -0.006603 291515.000000 0 0 1
-28.985356 -12.776498 2.462489 31.771900 0.415170 1.493213 0.063837 -0.004903 -654927.000000 0 0 1
-27.679156 -13.122298 2.809689 30.760766 0.442702 1.479329 0.067186 -0.004638 -493709.000000 0 0 1
-26.981456 -11.958598 3.532489 29.723484 0.417198 1.451670 0.073630 -0.000370 801780.000000 0 0 1
-25.683956 -12.331098 4.064389 28.779174 0.447609 1.429096 0.078739 0.004829 1050480.000000 0 0 1
-25.043856 -11.251598 4.691989 27.853329 0.422252 1.401536 0.071274 0.007438 155976.000000 0 0 1
-23.580056 -11.540598 5.112389 26.745859 0.455149 1.378466 0.073423 0.012481 233022.000000 0 0 1
-23.501556 -12.645498 6.067289 27.368664 0.493638 1.347252 0.068306 0.014469 516795.000000 0 0 1
-22.198056 -12.765498 6.652489 26.456894 0.521889 1.316622 0.067914 0.014496 653415.000000 0 0 1
-21.855756 -12.126498 8.023289 26.250699 0.506553 1.260185 0.075007 0.008193 -440762.000000 0 0 1
-21.709056 -10.702998 7.968989 25.482191 0.458048 1.252733 0.078035 0.007234 643159.000000 0 0 1
-22.728056 -9.971198 8.656289 26.285370 0.413432 1.235213 0.076398 0.004484 -496523.000000 0 0 1
-22.779156 -10.193698 10.229089 26.971016 0.420774 1.181797 0.081226 0.015055 -574423.000000 0 0 1
-23.374656 -11.376798 10.677189 28.103531 0.452963 1.181083 0.070984 0.011496 1467170.000000 0 0 1
-24.788356 -11.550898 10.404889 29.259999 0.436064 1.207239 0.066158 0.010779 1305830.000000 0 0 1
-25.818656 -10.989098 11.444289 30.304043 0.402401 1.183540 0.069097 0.002615 69673.600000 0 0 1
-26.149056 -11.846998 12.541789 31.327639 0.425393 1.158906 0.076970 -0.003160 258623.000000 0 0 1
-27.108656 -11.284398 13.411689 32.281423 0.394449 1.142346 0.073245 -0.010282 6053.720000 0 0 1
-27.087956 -12.053798 14.743989 33.112484 0.418678 1.109321 0.078950 -0.017134 -18811.500000 0 0 1
-27.339356 -13.451598 14.736689 33.846061 0.457246 1.120310 0.076209 -0.012679 319065.000000 0 0 1
-26.850356 -14.071498 15.911589 34.236345 0.482719 1.087436 0.078829 -0.018019 -466199.000000 0 0 1
-26.685256 -15.596998 15.853189 34.737485 0.528930 1.096884 0.068221 -0.003957 -4015.610000 0 0 1
-27.862756 -16.377798 15.976989 36.053150 0.531402 1.111686 0.071509 -0.009944 30605.200000 0 0 1
-27.469756 -17.725798 15.890689 36.349765 0.573053 1.118357 0.053544 -0.008894 370506.000000 0 0 1
-28.533456 -18.776398 16.381889 37.882417 0.582012 1.123599 0.036127 0.004950 347554.000000 0 0 1
-28.859656 -18.636498 17.721389 38.655484 0.573391 1.094552 0.062963 0.002400 -2746.230000 0 0 1
-29.535456 -19.778998 18.226889 39.947108 0.590079 1.096991 0.067937 0.004340 889723.000000 0 0 1
-28.542156 -20.979098 18.645989 40.030615 0.633846 1.086266 0.038702 0.006322 1496990.000000 0 0 1
-27.441256 -20.615398 19.506989 39.478346 0.644304 1.053975 0.047337 0.002548 886520.000000 0 0 1
-26.643356 -21.752598 19.795489 39.685077 0.684683 1.048566 0.038590 0.004247 446761.000000 0 0 1
-25.235656 -21.511798 20.424389 38.945493 0.705907 1.018745 0.051284 0.005412 741963.000000 0 0 1
-24.253456 -21.149598 19.462089 37.607294 0.717142 1.026860 0.056326 -0.000167 1217080.000000 0 0 1
-22.916956 -21.250798 20.012289 37.111656 0.747693 1.001256 0.061930 -0.002416 1584480.000000 0 0 1
-21.711856 -21.031798 19.048889 35.729559 0.769489 1.008488 0.057484 -0.008155 351211.000000 0 0 1
-21.576956 -21.996698 17.996089 35.683035 0.795031 1.042188 0.047566 -0.009092 28791.500000 0 0 1
-20.340456 -21.948798 17.327589 34.579318 0.823412 1.045931 0.045942 -0.002812 -173159.000000 0 0 1
-20.006656 -23.055598 16.332489 34.620472 0.856083 1.079513 0.041048 0.010067 -358849.000000 0 0 1
-19.822356 -24.426098 16.837489 35.679982 0.889068 1.079348 0.041692 0.003733 232542.000000 0 0 1
-18.585956 -24.740398 17.438689 35.519473 0.926503 1.057603 0.055090 -0.006664 653955.000000 0 0 1
-17.238456 -24.827798 16.638889 34.502704 0.963892 1.067576 0.054150 -0.008574 744705.000000 0 0 1
-16.706456 -23.546298 16.288789 33.149034 0.953713 1.057122 0.052428 -0.011159 628267.000000 0 0 1
-15.491556 -23.741298 15.527989 32.322685 0.992655 1.069680 0.051353 -0.008203 611475.000000 0 0 1
-14.712056 -22.433198 15.182089 30.825133 0.990343 1.055810 0.051215 0.000452 -108850.000000 0 0 1
-15.392856 -21.346598 14.536289 30.065278 0.946055 1.066158 0.055713 -0.000875 55733.200000 0 0 1
-16.346256 -20.658898 15.343489 30.486272 0.901416 1.043392 0.044080 -0.000851 242153.000000 0 0 1
-15.713656 -19.570598 16.303389 29.928712 0.894276 0.994716 0.044894 -0.006473 -201851.000000 0 0 1
-15.326056 -18.393198 15.581189 28.565209 0.876110 0.993858 0.039667 -0.007466 1703.080000 0 0 1
-15.141156 -17.332198 16.459789 28.294599 0.852768 0.949944 0.021828 -0.005227 -578596.000000 0 0 1
-14.502256 -16.133498 15.692889 26.774465 0.838594 0.944542 0.027498 -0.004503 552856.000000 0 0 1
-15.315056 -15.457398 14.684589 26.251081 0.790024 0.977147 0.026063 -0.014502 479697.000000 0 0 1
-15.471456 -16.164698 13.478589 26.121558 0.807308 1.028628 0.048270 -0.019083 115153.000000 0 0 1
-16.176856 -15.257498 12.378789 25.450272 0.756160 1.062842 0.038600 -0.017334 250575.000000 0 0 1
-17.581156 -15.291598 12.537989 26.459992 0.715861 1.077142 0.023887 -0.014694 40430.200000 0 0 1
-18.289156 -14.405398 11.678489 26.046033 0.667163 1.105846 0.035264 -0.015042 328877.000000 0 0 1
-19.824556 -14.458598 12.016289 27.321334 0.630139 1.115405 0.040126 -0.007365 1115380.000000 0 0 1
-20.591356 -15.552898 11.452989 28.232385 0.646892 1.153086 0.046517 -0.005859 438696.000000 0 0 1
-20.670356 -15.614198 10.058289 27.789134 0.646942 1.200437 0.054305 -0.001794 -440010.000000 0 0 1
-21.488856 -16.843398 9.511589 28.912650 0.664797 1.235577 0.053631 0.006276 16644.900000 0 0 1
-20.852256 -18.082998 9.604789 29.224363 0.714393 1.235915 0.054459 0.009194 -436452.000000 0 0 1
-21.494956 -19.160798 8.956389 30.156031 0.728048 1.269245 0.063860 -0.006260 -15634.800000 0 0 1
-20.743556 -20.531098 9.035289 30.552538 0.780251 1.270577 0.059486 -0.000618 394438.000000 0 0 1
-19.590756 -20.682798 8.217689 29.649726 0.812507 1.289960 0.079271 -0.001245 -136791.000000 0 0 1
-19.214256 -22.049998 8.304989 30.403337 0.854012 1.294119 0.058065 -0.001194 67655.800000 0 0 1
-17.880356 -22.336498 7.567389 29.595467 0.895751 1.312231 0.052333 -0.004488 -246317.000000 0 0 1
-16.788056 -21.941798 8.338889 28.858593 0.917690 1.277659 0.040407 -0.009037 -431431.000000 0 0 1
-15.602556 -21.949998 7.562089 27.971903 0.952844 1.297044 0.056750 -0.007206 1334750.000000 0 0 1
-14.251956 -21.531098 8.304289 27.123194 0.986084 1.259630 0.001868 -0.005374 1286720.000000 0 0 1
-13.091756 -21.949498 7.604489 26.664636 1.032992 1.281592 0.024357 0.004988 111167.000000 0 0 1
-11.954556 -21.606698 8.402789 26.083859 1.065438 1.242802 0.027226 0.000662 1221730.000000 0 0 1
-10.621856 -22.250698 7.839089 25.872161 1.125415 1.262964 0.023768 -0.000577 630105.000000 0 0 1
-10.577956 -23.688898 8.011089 27.152064 1.150826 1.271293 0.021034 0.006124 -21333.800000 0 0 1
-9.499856 -24.156098 7.217689 26.941778 1.196106 1.299584 0.035821 0.001240 166783.000000 0 0 1
-9.415556 -25.703368 7.234589 28.313515 1.219661 1.312414 0.025033 0.002214 -33155.300000 0 0 1
-10.226256 -26.255548 6.183089 28.847196 1.199384 1.354781 0.023807 -0.009521 52287.200000 0 0 1
-10.226956 -27.691298 6.199589 30.163447 1.217014 1.363788 0.043139 -0.003040 173782.000000 0 0 1
-9.021256 -28.370208 5.527989 30.278878 1.262924 1.387197 0.042948 -0.009061 -375022.000000 0 0 1
-7.749556 -28.102678 6.026189 29.767954 1.301725 1.366949 0.040971 -0.010135 -45352.400000 0 0 1
-6.682356 -29.014598 5.673389 30.309869 1.344433 1.382506 0.042199 -0.003392 1035340.000000 0 0 1
-6.725356 -30.454528 6.254089 31.809155 1.353452 1.372894 0.051097 -0.008087 -441645.000000 0 0 1
-6.795356 -30.434208 7.620589 32.101266 1.351119 1.331116 0.050900 -0.007863 108749.000000 0 0 1
-6.725356 -31.746448 8.131389 33.454251 1.362037 1.325277 0.076718 -0.014429 -72831.700000 0 0 1
-6.911356 -31.762878 9.691089 33.919972 1.356544 1.281055 0.057718 -0.011799 127752.000000 0 0 1
-5.807356 -31.342418 10.489889 33.557567 1.387587 1.252874 0.041917 -0.008489 283178.000000 0 0 1
-5.977356 -31.554048 11.868189 34.238000 1.383582 1.216812 0.038093 -0.012245 151722.000000 0 0 1
-5.104356 -30.612688 12.851089 33.590797 1.405576 1.178212 0.041089 -0.016172 400625.000000 0 0 1
-5.639356 -29.338928 13.196789 32.660837 1.380898 1.154850 0.038324 -0.006022 187522.000000 0 0 1
-4.896356 -28.498518 14.097189 32.169404 1.400647 1.117182 0.025420 -0.016589 -314056.000000 0 0 1
-5.846356 -27.857038 15.136489 32.238296 1.363929 1.082051 0.031848 -0.012520 223858.000000 0 0 1
-6.521356 -28.810138 15.955489 33.572753 1.348191 1.075547 0.019524 -0.017682 138822.000000 0 0 1
-5.662356 -29.491538 16.839489 34.429370 1.381105 1.059736 0.006530 -0.015119 17232.700000 0 0 1
-6.283356 -30.878748 17.045789 35.826479 1.370052 1.074937 0.011987 -0.016768 -117368.000000 0 0 1
-6.210356 -31.765638 15.930689 36.075077 1.377726 1.113417 0.021590 -0.010202 195804.000000 0 0 1
-6.512356 -33.034648 16.476489 37.485643 1.376155 1.115708 0.025648 -0.011959 -318214.000000 0 0 1
-5.772356 -34.089044 15.681389 37.964312 1.403056 1.144989 0.024180 -0.014510 -438286.000000 0 0 1
-6.208356 34.199321 14.356689 37.606539 -1.391217 1.179096 0.040743 -0.018999 123384.000000 0 0 1
-5.545356 33.095438 13.750489 36.264789 -1.404782 1.181898 0.032818 -0.017627 55377.400000 0 0 1
-4.243356 33.480664 13.012389 36.170198 -1.444728 1.202792 0.040577 -0.025035 -99044.200000 0 0 1
-4.508356 34.146894 11.777889 36.401296 -1.439527 1.241310 0.044501 -0.023771 406947.000000 0 0 1
-3.319356 -34.147963 11.027389 36.037547 1.473896 1.259811 0.059897 -0.031613 -280337.000000 0 0 1
-3.675356 -33.896618 9.514489 35.397944 1.462790 1.298663 0.054555 -0.031144 -422909.000000 0 0 1
-3.980356 33.559090 8.649689 34.883705 -1.452740 1.320225 0.062765 -0.032716 584201.000000 0 0 1
-4.925356 32.538622 9.028389 34.125253 -1.420567 1.303042 0.069336 -0.033182 75396.200000 0 0 1
-6.377356 32.893850 9.360189 34.789211 -1.379295 1.298385 0.072347 -0.024707 -579029.000000 0 0 1
-7.174356 33.264753 8.291189 35.025120 -1.358376 1.331807 0.075624 -0.013645 288806.000000 0 0 1
-8.574256 33.416631 8.603589 35.555743 -1.319628 1.326396 0.061511 -0.015573 1094560.000000 0 0 1
-9.426456 33.648796 7.324689 35.703650 -1.297656 1.364177 0.071337 -0.022726 -42850.700000 0 0 1
-9.373856 -33.562518 6.841289 35.512182 1.298441 1.376938 0.084031 -0.018995 49271.900000 0 0 1
-10.072256 -33.492058 5.619989 35.422487 1.278665 1.411467 0.072823 -0.014646 -622126.000000 0 0 1
-10.013656 -32.126518 4.860589 34.000174 1.268646 1.427347 0.060329 -0.017668 388094.000000 0 0 1
-10.942256 -31.083108 5.210589 33.362296 1.232312 1.413972 0.078934 -0.020693 734426.000000 0 0 1
-12.287256 -31.367158 4.805289 34.028901 1.197445 1.429111 0.081507 -0.017524 762544.000000 0 0 1
-13.301456 -30.362558 5.484489 33.599007 1.157893 1.406829 0.067329 -0.018249 220393.000000 0 0 1
-13.693356 -30.730358 6.804489 34.324393 1.151610 1.371234 0.070405 -0.012625 -727117.000000 0 0 1
-14.789356 -30.029538 7.248389 34.249633 1.113172 1.357550 0.062520 -0.010969 -699868.000000 0 0 1
33.337021 -13.013998 -12.735011 37.985545 -0.372183 1.912677 0.053221 -0.018159 -144292.000000 0 0 1
32.223591 -13.067098 -11.867211 36.741524 -0.385250 1.899685 0.069518 -0.016088 189870.000000 0 0 1
31.907511 -14.353198 -11.427311 36.806073 -0.422719 1.886487 0.075481 -0.022498 298198.000000 0 0 1
32.878851 -14.938298 -10.336911 37.563591 -0.426460 1.849578 0.073989 -0.023883 2326820.000000 0 0 1
34.265201 -15.201798 -10.752211 38.997548 -0.417562 1.850130 0.080604 -0.023894 1489060.000000 0 0 1
35.064001 -15.672998 -9.703311 39.614156 -0.420342 1.818260 0.079987 -0.025163 -569847.000000 0 0 1
-36.076887 -15.909298 -10.140411 40.712105 0.415330 1.822522 0.066618 -0.030053 -655550.000000 0 0 1
-35.470596 -14.657798 -10.396311 39.763017 0.391866 1.835328 0.055629 -0.023322 1125890.000000 0 0 1
-34.075345 -14.842898 -10.727611 38.684912 0.410807 1.851787 0.046165 -0.031363 1081990.000000 0 0 1
-33.291387 -13.664498 -11.336711 37.730041 0.389484 1.875981 0.059219 -0.034648 -31918.500000 0 0 1
-33.013657 -12.627398 -10.393511 36.842609 0.365321 1.856785 0.059264 -0.030019 90422.400000 0 0 1
-32.520137 -11.527598 -11.033911 36.224191 0.340656 1.880315 0.063517 -0.022902 -646077.000000 0 0 1
-32.943747 -10.270298 -10.339811 36.023342 0.302204 1.861922 0.059478 -0.015036 -46038.800000 0 0 1
-32.343317 -10.077898 -9.061011 35.067879 0.302057 1.832146 0.062347 -0.014411 329540.000000 0 0 1
-33.045637 -9.053998 -8.409211 35.280361 0.267422 1.811467 0.068998 -0.015906 -135964.000000 0 0 1
-32.634797 -8.835598 -6.945911 34.515844 0.264403 1.773418 0.061339 -0.012048 -49465.900000 0 0 1
-31.509647 -7.968098 -6.740011 33.193014 0.247686 1.775273 0.078579 -0.010584 634211.000000 0 0 1
-31.328767 -7.657198 -5.363711 32.693940 0.239715 1.735600 0.067582 -0.005075 -71587.600000 0 0 1
-30.724517 -8.722098 -4.369611 32.236074 0.276604 1.706765 0.060946 0.001405 -563856.000000 0 0 1
-31.462057 -9.880098 -4.125311 33.233952 0.304280 1.695247 0.049709 0.001870 14083.500000 0 0 1
-31.292747 -10.428398 -2.846011 33.107209 0.321678 1.656866 0.054894 -0.005345 -252848.000000 0 0 1
-31.640467 -11.924398 -2.747511 33.924317 0.360411 1.651875 0.054143 -0.009995 -207460.000000 0 0 1
-32.967397 -12.190698 -3.162811 35.291157 0.354187 1.660537 0.054743 -0.013733 327870.000000 0 0 1
-33.301297 -13.491098 -2.762911 36.036368 0.384914 1.647542 0.062808 -0.014428 -853416.000000 0 0 1
-34.810850 -13.671798 -2.666111 37.494286 0.374237 1.641964 0.039537 -0.013702 -720244.000000 0 0 1
-35.315704 -12.992098 -1.502011 37.659655 0.352518 1.610691 0.056580 -0.015022 40697.100000 0 0 1
35.908321 -13.328698 -1.372011 38.326807 -0.355423 1.606602 0.108647 -0.022905 -47873.600000 0 0 1
35.070391 -12.274798 -0.547111 37.160495 -0.336679 1.585520 0.109532 -0.030839 -34719.800000 0 0 1
35.323441 -12.320798 0.832289 37.419785 -0.335605 1.548553 0.116046 -0.021825 119998.000000 0 0 1
34.885531 -11.189198 1.539689 36.668367 -0.310374 1.528794 0.129328 -0.027999 -246836.000000 0 0 1
35.423641 -11.053998 2.952289 37.225546 -0.302476 1.491405 0.123221 -0.035451 -5763.820000 0 0 1
34.554591 -11.604898 3.901989 36.659500 -0.324007 1.464156 0.133660 -0.041606 214096.000000 0 0 1
35.297011 -11.708498 5.124789 37.539731 -0.320292 1.433852 0.111140 -0.040444 -38765.200000 0 0 1
34.503081 -12.120498 6.338089 37.115232 -0.337821 1.399187 0.111350 -0.036545 -231166.000000 0 0 1
33.817901 -11.024098 6.915089 36.235337 -0.315122 1.378780 0.117296 -0.040563 -14090.000000 0 0 1
33.223011 -11.288998 8.150789 36.022845 -0.327554 1.342553 0.084506 -0.022287 250761.000000 0 0 1
32.152131 -10.224498 8.542689 34.803412 -0.307891 1.322807 0.079381 -0.027792 769171.000000 0 0 1
30.831091 -10.235698 7.983689 33.452429 -0.320544 1.329813 0.084693 -0.022175 1043440.000000 0 0 1
30.008071 -9.288198 8.692589 32.593191 -0.300171 1.300829 0.080597 -0.015704 290158.000000 0 0 1
28.507251 -9.422798 8.359089 31.166117 -0.319235 1.299261 0.072936 -0.022844 -117791.000000 0 0 1
28.073661 -8.854498 7.180889 30.300128 -0.305527 1.331528 0.090738 -0.032393 12582.800000 0 0 1
27.042721 -9.630498 6.578289 29.450453 -0.342118 1.345528 0.095993 -0.043319 115651.000000 0 0 1
26.275621 -8.740098 5.558689 28.243524 -0.321119 1.372690 0.095187 -0.042696 156083.000000 0 0 1
25.546721 -7.630798 6.137289 27.359283 -0.290263 1.344549 0.095539 -0.039499 457574.000000 0 0 1
24.691421 -6.936898 5.279289 26.185067 -0.273884 1.367790 0.116505 -0.044941 -609328.000000 0 0 1
25.339021 -5.841698 4.434589 26.379102 -0.226583 1.401884 0.113275 -0.041830 -465668.000000 0 0 1
25.968421 -6.323698 3.263289 26.925771 -0.238866 1.449302 0.102996 -0.041746 89511.600000 0 0 1
26.667321 -5.345998 2.569889 27.319042 -0.197847 1.476588 0.114434 -0.028736 -340925.000000 0 0 1
26.945821 -5.727598 1.160389 27.572254 -0.209443 1.528699 0.105676 -0.027990 -5472.560000 0 0 1
25.796921 -5.851598 0.336589 26.454407 -0.223059 1.558073 0.106683 -0.028302 -71149.500000 0 0 1
26.185821 -5.987398 -0.986911 26.879735 -0.224786 1.607520 0.111795 -0.029928 -156884.000000 0 0 1
25.049521 -6.030698 -2.011811 25.843669 -0.236255 1.648721 0.095204 -0.024769 458118.000000 0 0 1
24.262021 -4.828298 -2.270111 24.841730 -0.196440 1.662307 0.102653 -0.019302 814347.000000 0 1 0
23.511921 -4.758498 -3.478111 24.239452 -0.199689 1.714783 0.078686 -0.017807 125047.000000 0 1 0
22.438621 -3.637298 -3.452411 22.992190 -0.160702 1.721522 0.070194 -0.015467 -238378.000000 0 1 0
22.970021 -2.334198 -3.578211 23.363946 -0.101272 1.724552 0.072827 -0.016729 302693.000000 0 1 0
23.364521 -1.943098 -4.853411 23.942266 -0.082974 1.774924 0.075961 -0.014689 451098.000000 0 1 0
22.272621 -1.078698 -5.628411 22.998093 -0.048394 1.818041 0.054271 -0.005172 506269.000000 0 1 0
22.111021 0.095702 -4.938411 22.656000 0.004328 1.790534 0.046645 0.001092 683507.000000 0 1 0
21.145321 0.955302 -5.566911 21.886702 0.045147 1.827973 0.041437 0.002385 -298878.000000 0 1 0
21.065821 2.289602 -4.816211 21.730324 0.108263 1.794288 0.052377 0.006697 -1305600.000000 0 1 0
22.188321 3.054502 -4.987711 22.946217 0.136803 1.789911 0.067897 0.003878 -492966.000000 0 1 0
23.160521 2.883402 -3.983511 23.676827 0.123859 1.739845 0.094662 0.004070 -214050.000000 0 1 0
24.274921 3.950102 -4.036011 24.923172 0.161310 1.733451 0.079980 -0.003437 -386938.000000 0 1 0
23.798521 5.230202 -3.732611 24.650700 0.216331 1.722801 0.076730 0.006632 208702.000000 0 1 0
24.665321 6.052302 -2.996811 25.573215 0.240623 1.688252 0.072530 -0.004021 -504210.000000 0 0 1
24.163921 7.492802 -2.824611 25.456151 0.300681 1.681985 0.067810 -0.012539 -213018.000000 0 0 1
23.086721 7.686602 -1.930711 24.409183 0.321401 1.649977 0.076647 -0.013862 529357.000000 0 1 0
22.396321 8.844802 -2.374911 24.196403 0.376121 1.669106 0.067172 -0.008744 -817343.000000 0 1 0
21.326021 9.301702 -1.441111 23.310891 0.411291 1.632657 0.046936 -0.007486 -798062.000000 0 1 0
21.958621 9.847402 -0.291111 24.067346 0.421566 1.582892 0.042524 -0.008002 1720050.000000 0 1 0
20.945321 10.199702 0.695589 23.307172 0.453168 1.540947 0.027754 -0.007939 925217.000000 0 1 0
21.607121 10.782502 1.980289 24.229147 0.462868 1.488973 0.055206 -0.006638 -26360.500000 0 1 0
22.437221 11.928902 1.884289 25.480937 0.488651 1.496780 0.067172 -0.016031 566688.000000 0 0 1
21.803421 13.149102 1.562889 25.509423 0.542678 1.509491 0.070610 -0.013417 -190047.000000 0 0 1
20.787521 13.817002 2.575989 25.093152 0.586624 1.467958 0.064177 -0.002438 315763.000000 0 0 1
19.496321 13.258902 2.413789 23.700873 0.597226 1.468776 0.076898 -0.003099 1967560.000000 0 1 0
18.366521 13.866502 3.190389 23.233329 0.646686 1.433042 0.064620 -0.007022 1744880.000000 0 1 0
18.368121 13.793302 4.739289 23.454294 0.644101 1.367331 0.063184 -0.008727 -609254.000000 0 1 0
18.008821 12.519002 5.226489 22.546823 0.607470 1.336862 0.042522 -0.005965 521022.000000 0 1 0
18.192521 12.437102 6.596189 23.003457 0.599660 1.279966 0.049480 -0.013739 -206299.000000 0 1 0
18.076721 11.014302 7.170389 22.349433 0.547236 1.244190 0.006629 -0.008820 6910.690000 0 1 0
19.071621 10.179902 6.596089 22.602335 0.490299 1.274654 -0.003566 -0.014680 613297.000000 0 1 0
19.095221 8.979102 7.341989 22.341812 0.439547 1.235953 -0.003824 -0.008468 -405263.000000 0 1 0
20.043421 7.974402 6.692389 22.585790 0.378657 1.269970 0.003172 -0.012170 37650.800000 0 1 0
19.605421 7.618602 5.366289 21.707434 0.370637 1.320997 -0.014794 -0.014540 698576.000000 0 1 0
20.739521 7.203302 4.665989 22.445195 0.334287 1.361385 0.010261 -0.014295 -186248.000000 0 1 0
20.298421 6.811002 3.195589 21.647805 0.323738 1.422638 0.008394 -0.005182 -76184.700000 0 1 0
21.257921 6.057202 2.485889 22.243394 0.277582 1.458804 0.004928 -0.010843 601684.000000 0 1 0
20.971821 6.182302 1.127689 21.893146 0.286671 1.519265 0.005790 0.003490 -1264000.000000 0 1 0
21.986021 5.426202 0.358789 22.648566 0.241967 1.554954 0.037857 0.003258 -739188.000000 0 1 0
21.938921 4.058902 0.586389 22.318934 0.182941 1.544520 0.029552 0.000671 771679.000000 0 1 0
23.103421 3.464202 0.035089 23.361721 0.148834 1.569294 0.047027 -0.009691 230081.000000 0 1 0
23.128221 1.914702 0.173889 23.207993 0.082598 1.563304 0.069339 -0.011624 507243.000000 0 1 0
22.198721 1.280902 -0.754111 22.248430 0.057638 1.604698 0.048207 -0.004387 1270180.000000 0 1 0
22.595221 0.003302 -1.212711 22.627742 0.000146 1.624416 0.076522 -0.006087 -766593.000000 0 1 0
22.357021 -1.245198 -0.284011 22.393472 -0.055639 1.583479 0.083725 -0.005276 381365.000000 0 1 0
23.277921 -1.375498 0.804789 23.332409 -0.059022 1.536297 0.088800 -0.008909 458642.000000 0 1 0
24.563621 -1.851298 0.488989 24.638139 -0.075225 1.550948 0.094307 -0.014871 291718.000000 0 1 0
25.607821 -1.641398 1.672489 25.714819 -0.064010 1.505711 0.099578 -0.019141 460372.000000 0 0 1
25.739221 -0.304198 1.963189 25.815774 -0.011818 1.494677 0.090586 -0.016465 431323.000000 0 0 1
26.577821 -0.081898 3.100589 26.758194 -0.003081 1.454661 0.090087 -0.019931 77859.400000 0 0 1
26.381021 1.287102 3.869789 26.694385 0.048750 1.425317 0.087121 -0.015217 -200343.000000 0 0 1
26.477421 2.479402 3.106689 26.774107 0.093370 1.454501 0.092682 -0.011573 805636.000000 0 0 1
27.713271 2.651002 2.376989 27.941068 0.095368 1.485622 0.107960 -0.017049 563838.000000 0 0 1
27.728781 3.823102 1.371989 28.024699 0.137011 1.521820 0.110755 -0.021686 -109394.000000 0 0 1
26.972721 3.611402 0.179589 27.214007 0.133099 1.564197 0.097210 -0.011926 487748.000000 0 0 1
27.412721 4.490302 -0.838511 27.790704 0.162362 1.600973 0.102313 -0.013462 825207.000000 0 0 1
28.751951 4.125602 -1.615311 29.091314 0.142517 1.626350 0.110838 -0.015549 1349360.000000 0 0 1
29.896021 4.272102 -0.765611 30.209421 0.141938 1.596142 0.125421 -0.018931 646640.000000 0 0 1
31.136571 4.120002 -1.453911 31.441602 0.131556 1.617054 0.105434 -0.012966 571964.000000 0 0 1
32.371961 4.349902 -0.557211 32.667660 0.133572 1.587854 0.078497 -0.017821 76244.700000 0 0 1
32.675991 3.492302 0.526689 32.866305 0.106473 1.554770 0.076156 -0.018071 172008.000000 0 0 1
31.998001 4.037002 1.621789 32.292409 0.125501 1.520553 0.085907 -0.005322 -56065.900000 0 0 1
31.960181 3.042302 2.809189 32.227323 0.094904 1.483518 0.083999 -0.002084 -111545.000000 0 0 1
31.180231 1.883902 2.639389 31.348402 0.060346 1.486501 0.092599 -0.011926 50565.400000 0 0 1
31.368171 0.911202 3.683789 31.596879 0.029040 1.453943 0.083203 -0.014750 -52054.200000 0 0 1
32.603481 -0.024998 3.544189 32.795562 -0.000767 1.462516 0.090718 -0.017295 133287.000000 0 0 1
33.765021 0.710002 3.886889 33.995421 0.021025 1.456210 0.082477 -0.010661 182284.000000 0 0 1
34.918591 -0.116198 3.841389 35.129443 -0.003328 1.461228 0.072273 -0.010796 380238.000000 0 0 1
-36.276027 0.508302 4.236989 36.526163 -0.014011 1.454536 0.077107 -0.013479 979892.000000 0 0 1
-35.851070 1.640602 3.458389 36.054837 -0.045730 1.474728 0.073455 -0.014990 247380.000000 0 0 1
-35.690810 1.344002 2.083689 35.776837 -0.037639 1.512522 0.079655 -0.015283 -1561190.000000 0 0 1
-35.621726 2.678302 1.195989 35.742287 -0.075046 1.537329 0.069254 -0.019526 -32408.600000 0 0 1
-34.505574 3.515902 1.312989 34.709079 -0.101543 1.532959 0.092508 -0.031217 -249129.000000 0 0 1
-33.298467 2.889602 0.972589 33.437758 -0.086562 1.541706 0.115091 -0.036573 -153741.000000 0 0 1
-31.991027 3.690902 1.395689 32.233469 -0.114865 1.527483 0.118904 -0.033525 712504.000000 0 0 1
-31.555107 3.410502 2.692189 31.852852 -0.107663 1.486176 0.121380 -0.037660 -81919.500000 0 0 1
-30.727917 4.471802 3.103389 31.206296 -0.144514 1.471184 0.128391 -0.040333 -785220.000000 0 0 1
-30.839657 4.693602 4.603089 31.532567 -0.151035 1.424294 0.126242 -0.036810 46987.700000 0 0 1
-32.090357 5.224602 4.987389 32.893184 -0.161393 1.418585 0.110313 -0.021974 413786.000000 0 0 1
-33.240247 4.395602 4.988089 33.898619 -0.131475 1.423113 0.109767 -0.019333 -474414.000000 0 0 1
-33.378977 3.404902 6.171589 34.115070 -0.101656 1.388890 0.094638 -0.007618 -684367.000000 0 0 1
-33.777457 4.045902 7.372689 34.808655 -0.119213 1.357374 0.093433 -0.008556 293104.000000 0 0 1
-34.099939 3.205102 8.434489 35.273491 -0.093716 1.329340 0.092461 -0.009073 373344.000000 0 0 1
-35.283188 2.153602 8.481689 36.352172 -0.060962 1.335306 0.078583 -0.004808 23941.500000 0 0 1
-34.962505 0.928702 7.773589 35.828311 -0.026557 1.352089 0.071120 -0.007505 724684.000000 0 0 1
-35.827961 -0.235398 7.975589 36.705698 0.006570 1.351764 0.073901 -0.002217 392455.000000 0 0 1
-35.728303 -0.882798 9.354689 36.943216 0.024704 1.314791 0.069171 -0.001090 -835782.000000 0 0 1
-34.484964 -1.407198 9.629389 35.831803 0.040784 1.298713 0.075254 -0.016077 -650423.000000 0 0 1
-34.566815 -2.264298 10.809389 36.288216 0.065412 1.268329 0.076873 -0.017191 282496.000000 0 0 1
-33.250597 -3.062298 11.014189 35.160948 0.091838 1.252182 0.069061 -0.019922 152281.000000 0 0 1
-32.811037 -3.863998 9.935189 34.499313 0.117225 1.278677 0.085471 -0.019822 -319537.000000 0 0 1
-31.714857 -4.642098 10.296689 33.666052 0.145338 1.259968 0.090060 -0.017004 -268095.000000 0 0 1
-31.368567 -5.705798 9.194589 33.182580 0.179928 1.290031 0.074761 -0.017375 -451379.000000 0 0 1
-32.414617 -6.590798 9.014889 34.284315 0.200593 1.304723 0.074237 -0.015961 -550406.000000 0 0 1
-32.169527 -7.673098 8.165289 34.065039 0.234146 1.328743 0.062668 -0.010396 -76123.200000 0 0 1
-33.239827 -8.740198 8.385189 35.377798 0.257123 1.331501 0.068048 -0.013191 310500.000000 0 0 1
-34.562448 -8.439798 7.967589 36.459231 0.239503 1.350484 0.082326 -0.025856 195066.000000 0 0 1
-35.298975 -9.648298 7.934289 37.444095 0.266814 1.357281 0.094943 -0.026346 -14910.600000 0 0 1
7.438633 -23.663198 10.827389 27.064969 -1.266223 1.159223 0.086474 -0.025868 73153.600000 0 0 1
6.768033 -24.141598 9.673189 26.873660 -1.297466 1.202581 0.067956 -0.022697 239522.000000 0 0 1
5.599933 -24.911198 9.956189 27.405342 -1.349676 1.198996 0.062346 -0.023141 631717.000000 0 0 1
5.173833 -26.020718 8.931689 27.993238 -1.374521 1.246053 0.054065 -0.012107 -242431.000000 0 0 1
4.728733 -25.516628 7.673989 27.061954 -1.387556 1.283280 0.058293 -0.011129 -202638.000000 0 0 1
4.592433 -26.495958 6.690589 27.710832 -1.399176 1.326944 0.051792 -0.007724 -443232.000000 0 0 1
4.129933 -26.057958 5.262689 26.902963 -1.413613 1.373909 0.044980 -0.006104 1393580.000000 0 0 1
2.718333 -25.772588 5.108289 26.414206 -1.465711 1.376178 0.037703 -0.013559 885414.000000 0 0 1
1.915633 -26.933858 5.007389 27.462271 -1.499792 1.387434 0.036985 -0.010073 856716.000000 0 0 1
0.357333 -26.639448 4.937589 27.095529 -1.557383 1.387543 0.051060 -0.017753 788651.000000 0 0 1
-0.049967 -26.229088 6.187789 26.949143 1.568891 1.339120 0.036006 -0.015925 476930.000000 0 0 1
-1.439167 -26.359768 6.551889 27.199923 1.516253 1.327525 0.019921 -0.018576 1169930.000000 0 0 1
-2.052467 -27.754498 6.634389 28.610137 1.496980 1.336777 0.023030 -0.011273 -496395.000000 0 0 1
-1.639467 -28.470738 7.765189 29.556200 1.513276 1.304950 0.014363 -0.012988 280706.000000 0 0 1
-2.252967 -29.768828 7.692389 30.829075 1.495258 1.318615 0.031272 -0.010399 64629.700000 0 0 1
-2.168067 -30.544928 9.033489 31.926432 1.499936 1.283931 0.031754 -0.012334 219149.000000 0 0 1
-0.943567 -31.216518 9.267989 32.576939 1.540579 1.282316 0.030909 -0.007301 -133537.000000 0 0 1
-0.685667 -31.228488 10.651489 33.002164 1.548843 1.242161 0.027349 -0.009451 -435122.000000 0 0 1
0.727033 -31.469878 11.174089 33.402726 -1.547698 1.229694 0.017868 -0.012108 -525174.000000 0 0 1
1.136833 -32.804438 11.037289 34.630121 -1.536155 1.246418 0.022308 -0.012612 -982357.000000 0 0 1
2.514533 -32.937578 11.052989 34.833540 -1.494602 1.247906 0.031685 -0.009990 -784385.000000 0 0 1
3.125133 -33.450138 12.344389 35.791928 -1.477640 1.218671 0.037013 -0.013586 -627223.000000 0 0 1
2.863433 -32.614428 13.437389 35.390162 -1.483224 1.181332 0.026749 -0.012607 64120.000000 0 0 1
3.439733 -33.090368 14.647289 36.350341 -1.467219 1.156061 0.030658 -0.007554 -233970.000000 0 0 1
2.987533 -32.329308 15.946489 36.171813 -1.478649 1.114246 0.033470 -0.007934 -70696.900000 0 0 1
3.337833 -30.960178 16.034889 35.025582 -1.463401 1.095272 0.039383 -0.012919 169154.000000 0 0 1
4.696233 -30.732358 16.365989 35.133717 -1.419159 1.086235 0.034065 0.002158 158017.000000 0 0 1
5.296333 -29.507268 15.595089 33.792556 -1.393195 1.091117 0.047107 -0.005515 -34416.300000 0 0 1
5.487833 -29.586968 14.151789 33.253242 -1.387399 1.131198 0.045245 -0.005921 300820.000000 0 0 1
4.246933 -29.480018 13.467489 32.687630 -1.427719 1.146142 0.036671 0.001754 -426388.000000 0 0 1
4.424133 -29.341918 11.931789 31.982631 -1.421145 1.188480 0.029071 0.004941 151549.000000 0 0 1
4.930133 -30.525878 11.306589 32.923767 -1.410672 1.220243 0.033333 0.002891 -96592.500000 0 0 1
6.288233 -30.805838 11.506289 33.480386 -1.369438 1.219971 0.035261 0.004401 -875231.000000 0 0 1
6.794933 -32.082528 10.830689 34.536409 -1.362085 1.251812 0.024967 0.005920 -203466.000000 0 0 1
6.445933 -33.213838 11.506089 35.736525 -1.379106 1.242987 0.010444 -0.000397 76175.700000 0 0 1
6.826233 34.153703 10.763489 36.454432 1.373528 1.271070 0.023717 -0.002747 20451.900000 0 0 1
6.569633 32.843494 11.567289 35.435256 1.373373 1.238267 0.027612 -0.001246 -81215.000000 0 0 1
5.228133 32.581832 11.902689 35.079669 1.411691 1.224619 0.021947 -0.006880 -188726.000000 0 0 1
5.180033 31.358727 12.614089 34.195289 1.407088 1.192988 0.034628 -0.005860 57960.800000 0 0 1
3.936533 31.220387 13.515489 34.247296 1.445370 1.165116 0.025987 -0.011119 -3796.810000 0 0 1
3.988633 31.821527 14.748489 35.299245 1.446103 1.139759 0.046383 -0.013382 -610671.000000 0 0 1
2.912533 31.477357 15.528889 35.220069 1.478531 1.114184 0.045032 -0.011383 -720751.000000 0 0 1
3.275433 31.480557 17.047989 35.949797 1.467123 1.076722 0.046572 -0.007547 43858.400000 0 0 1
3.489233 32.797658 17.447289 37.313121 1.464808 1.084233 0.048950 -0.007698 169978.000000 0 0 1
3.995033 32.838836 18.771889 38.035947 1.449735 1.054652 0.041035 -0.004682 20037.500000 0 0 1
4.461933 34.241587 19.103489 39.463128 1.441219 1.065480 0.040471 -0.002576 225242.000000 0 0 1
3.339033 -33.452088 19.372389 38.800526 -1.471310 1.048027 0.036432 -0.008547 252812.000000 0 0 1
3.675633 -32.448498 20.267989 38.434447 -1.458001 1.015330 0.045803 -0.007719 -40664.400000 0 0 1
2.476733 -31.659558 20.830589 37.978616 -1.492725 0.990249 0.029449 -0.011467 59929.900000 0 0 1
1.584933 -32.471758 21.566889 39.013559 -1.522025 0.985070 0.036392 -0.007450 -579446.000000 0 0 1
0.682033 -31.731448 22.316489 38.799171 -1.549306 0.957973 0.034865 -0.003874 -325413.000000 0 0 1
-0.425967 -32.662678 22.867689 39.874343 1.557756 0.960032 0.032958 -0.005303 -711123.000000 0 0 1
-1.457767 -32.951488 21.976089 39.634255 1.526585 0.983068 0.023351 -0.008105 -310393.000000 0 0 1
-2.283667 -34.019808 22.411689 40.802528 1.503769 0.989303 0.024635 -0.009336 351863.000000 0 0 1
-3.593267 -33.645658 23.173889 41.011840 1.464402 0.970298 0.037624 -0.006338 872360.000000 0 0 1
-4.618867 -33.252048 22.223289 40.260492 1.432775 0.986050 0.029623 -0.016905 387722.000000 0 0 1
-5.813667 -32.843568 22.874589 40.444351 1.395600 0.969658 0.031928 -0.017197 525659.000000 0 0 1
-6.935967 -32.429928 21.877389 39.729435 1.360095 0.987642 0.036370 -0.018382 123270.000000 0 0 1
-7.650767 -33.459288 21.233689 40.359977 1.346002 1.016779 0.028454 -0.008657 -474414.000000 0 0 1
-8.663967 -32.823338 20.502789 39.658545 1.312725 1.027474 0.039239 -0.023069 -383513.000000 0 0 1
-9.889967 -33.781188 20.402989 40.684912 1.285990 1.045479 0.051346 -0.018643 -4242.300000 0 0 1
-10.394767 -33.979708 21.712489 41.642574 1.273925 1.022304 0.071703 -0.027878 -204932.000000 0 0 1
-11.786567 -34.222971 21.618989 42.160593 1.239114 1.032380 0.073185 -0.026572 129202.000000 0 0 1
-12.465167 33.966020 22.944189 42.842814 -1.219067 1.005645 0.078915 -0.025871 -170192.000000 0 0 1
-12.486767 -33.521408 23.927989 43.036645 1.214218 0.981242 0.080447 -0.024614 -250490.000000 0 0 1
-11.245167 -33.187558 24.501289 42.757233 1.244101 0.960595 0.062960 -0.017868 -311013.000000 0 0 1
-11.194967 -31.894898 25.395589 42.279401 1.233235 0.926469 0.056262 -0.021343 -403390.000000 0 0 1
-11.810567 -32.114458 26.672889 43.385146 1.218384 0.908673 0.082530 -0.018811 -131923.000000 0 0 1
-12.939267 -31.296718 26.746889 43.154435 1.178759 0.902315 0.078190 -0.023577 -473472.000000 0 0 1
-13.496567 -31.065808 28.175689 44.058044 1.160948 0.876932 0.063032 -0.021860 220015.000000 0 0 1
-12.627767 -30.444968 29.096589 43.965533 1.177619 0.847573 0.045058 -0.010082 193312.000000 0 0 1
-13.487167 -30.111508 30.150289 44.695039 1.149684 0.830403 0.043149 -0.012572 186599.000000 0 0 1
-12.878567 -29.374748 31.298489 44.814381 1.157611 0.797633 0.024471 -0.011572 -6318.640000 0 0 1
-13.944767 -29.132428 32.230289 45.628351 1.124359 0.786446 0.028812 -0.011185 930761.000000 0 0 1
-13.559067 -28.610598 33.544589 46.126501 1.128231 0.756518 0.019833 -0.006185 -415054.000000 0 0 1
-12.970267 -29.708878 -34.053049 47.015481 1.159159 2.380807 0.025007 0.001534 32598.700000 0 0 1
-11.565867 -29.856748 34.252589 46.887467 1.201218 0.751702 0.023152 0.002928 338735.000000 0 0 1
-11.105167 -30.881958 -33.373949 46.806416 1.225594 2.364594 0.033963 0.008877 -87932.300000 0 0 1
-9.676967 -31.361378 -33.613049 46.978898 1.271502 2.368125 0.035007 0.006831 -49254.200000 0 0 1
-8.614967 -30.471078 -33.326249 45.971112 1.295262 2.381742 0.047510 -0.004189 447950.000000 0 0 1
-7.381967 -31.171898 -33.190349 46.127866 1.338265 2.373921 0.059897 -0.010468 544836.000000 0 0 1
-6.315767 -30.442058 -32.346249 44.865217 1.366230 2.375990 0.078498 -0.013660 151753.000000 0 0 1
-6.729667 -30.291778 -31.002349 43.863720 1.352185 2.355744 0.079532 -0.029074 -240669.000000 0 0 1
-5.619067 -29.958028 -30.227149 42.927124 1.385386 2.352022 0.074692 -0.028388 -355650.000000 0 0 1
-5.826167 -29.851328 -28.716549 41.829251 1.378047 2.327486 0.057865 -0.028118 -609853.000000 0 0 1
-5.807667 -31.058138 -28.010749 42.224863 1.385938 2.296111 0.059664 -0.025651 57094.000000 0 0 1
-6.926967 -31.057128 -27.155849 41.832622 1.351349 2.277269 0.072825 -0.026866 -335873.000000 0 0 1
-6.862767 -32.230278 -26.132449 42.057025 1.361000 2.241270 0.073078 -0.031205 -767729.000000 0 0 1
-5.856867 -32.055278 -25.232949 41.213414 1.390078 2.229701 0.050352 -0.026828 -830241.000000 0 0 1
-5.379567 -33.317918 -24.819349 41.893001 1.410716 2.204888 0.047802 -0.039132 -359048.000000 0 0 1
-4.488467 -33.354718 -23.599049 41.104728 1.437032 2.182325 0.059952 -0.038941 -373065.000000 0 0 1
-5.124367 -32.966708 -22.412449 40.191801 1.416590 2.162333 0.057815 -0.036484 -66442.300000 0 0 1
-5.111867 -31.572658 -22.224449 38.947273 1.410281 2.178068 0.041865 -0.015545 -126580.000000 0 0 1
-5.566167 -31.060758 -20.832549 37.812009 1.393476 2.154299 0.057445 -0.016435 -712355.000000 0 0 1
-6.949067 -30.961178 -20.698149 37.885320 1.350011 2.148781 0.073726 -0.023851 -515039.000000 0 0 1
-7.423367 -29.627748 -20.431049 36.746940 1.325296 2.160354 0.068930 -0.021781 -107806.000000 0 0 1
-7.546467 -28.672428 -21.630049 36.700359 1.313437 2.201074 0.076953 -0.037847 -82026.500000 0 0 1
-6.306867 -28.407318 -22.279849 36.648929 1.352324 2.224243 0.071851 -0.019361 -73361.200000 0 0 1
-6.492067 -27.507508 -23.352349 36.662545 1.339027 2.261337 0.097395 -0.038101 -918430.000000 0 0 1
-5.415567 -27.830458 -24.440349 37.432519 1.378607 2.282226 0.091286 -0.034429 1004640.000000 0 0 1
-4.133267 -27.264458 -24.159149 36.661957 1.420343 2.290246 0.092392 -0.027646 319168.000000 0 0 1
-3.462467 -27.808098 -23.049749 36.284569 1.446921 2.259128 0.062041 -0.023253 -325691.000000 0 0 1
-1.927967 -27.390088 -22.922249 35.768191 1.500523 2.266409 0.069631 -0.024835 1378830.000000 0 0 1
-1.546467 -25.986608 -23.019749 34.750600 1.511356 2.294851 0.067535 -0.023076 60437.500000 0 0 1
-2.079667 -25.086908 -22.063049 33.473215 1.488087 2.290452 0.079718 -0.024383 -1277110.000000 0 0 1
-1.947267 -23.618898 -22.484349 32.667877 1.488537 2.329899 0.071845 -0.018617 159563.000000 0 0 1
-2.812767 -23.366198 -23.582049 33.316722 1.450995 2.357195 0.068098 -0.028977 99068.500000 0 0 1
-4.167867 -23.348898 -23.180749 33.164579 1.394153 2.344740 0.079858 -0.029801 -838732.000000 0 0 1
-5.170667 -23.437498 -24.381849 34.212961 1.353659 2.364064 0.068469 -0.033361 191088.000000 0 0 1
-5.173867 -22.280598 -25.148949 33.995053 1.342626 2.403544 0.081012 -0.037010 440.086000 0 0 1
-5.762567 -22.530498 -26.414449 35.193091 1.320397 2.419702 0.079795 -0.040018 93308.000000 0 0 1
-5.612467 -21.281898 -27.300449 35.067557 1.312947 2.463085 0.084528 -0.027401 91835.000000 0 0 1
-6.008967 -21.502498 -28.674949 36.341682 1.298294 2.480037 0.090775 -0.033316 444850.000000 0 0 1
-4.942667 -21.924798 -29.530849 37.110616 1.349066 2.491045 0.084439 -0.031609 352227.000000 0 0 1
-5.462067 -22.184598 -30.962249 38.479234 1.329388 2.505879 0.105782 -0.036918 134859.000000 0 0 1
-5.779067 -20.985598 -31.739049 38.485844 1.302075 2.540457 0.108571 -0.034911 713329.000000 0 0 1
-6.924967 -21.155898 -32.606649 39.480638 1.254458 2.542575 0.101693 -0.030799 857750.000000 0 0 1
-6.662367 -20.511298 -34.003749 40.266058 1.256732 2.576384 0.080282 -0.020324 289732.000000 0 0 1
-5.643067 -21.063698 33.712889 40.150747 1.309038 0.574143 0.090314 -0.012824 -170509.000000 0 0 1
-5.842067 -20.530598 32.455389 38.845688 1.293570 0.581763 0.084722 -0.010201 -719661.000000 0 0 1
-4.641567 -20.643498 31.584889 38.017146 1.349630 0.590241 0.071824 -0.005870 -2575960.000000 0 0 1
-4.490367 -21.975298 31.074989 38.324040 1.369234 0.625196 0.081394 -0.006759 825653.000000 0 0 1
-3.270167 -22.294098 30.358689 37.807021 1.425152 0.638500 0.077463 -0.006610 1567730.000000 0 0 1
-1.946667 -21.954998 31.142989 38.153600 1.482361 0.615902 0.048037 -0.005283 -913301.000000 0 0 1
-1.597367 -20.612098 31.086389 37.333279 1.493454 0.586880 0.042189 -0.007582 -231329.000000 0 0 1
-0.488267 -20.242798 31.872989 37.761047 1.546680 0.565967 0.047994 -0.006709 -76160.100000 0 0 1
-0.800167 -19.983398 33.401489 38.931169 1.530776 0.539506 0.045114 -0.007071 -5438.530000 0 0 1
-1.706767 -18.919498 33.623989 38.619077 1.480828 0.514259 0.045809 -0.002573 -124583.000000 0 0 1
-2.094867 -18.746798 -33.584749 38.519687 1.459513 2.629835 0.050115 -0.009858 -145322.000000 0 0 1
-3.210567 -17.720998 -33.417449 37.961394 1.391567 2.647292 0.056157 -0.020980 -102250.000000 0 0 1
-2.799767 -16.371098 -33.667349 37.541204 1.401416 2.683303 0.061123 -0.025088 -391463.000000 0 0 1
-3.867467 -15.495398 -33.519949 37.130199 1.326205 2.696958 0.067178 -0.028822 -117075.000000 0 0 1
-3.434367 -14.002198 -33.882949 36.822693 1.330271 2.739298 0.066382 -0.029816 344960.000000 0 0 1
-2.561367 -13.338798 -32.948849 35.638614 1.381082 2.750588 0.061230 -0.028189 172814.000000 0 0 1
-2.404767 -11.959498 -33.207549 35.377307 1.372366 2.789544 0.055146 -0.023235 248985.000000 0 0 1
-1.541367 -11.429598 34.124989 36.021194 1.436748 0.325914 0.050414 -0.023898 -186481.000000 0 0 1
-2.233267 -11.553298 32.900889 34.941876 1.379850 0.343478 0.055098 -0.018364 184146.000000 0 0 1
-1.605167 -10.996798 31.737189 33.626705 1.425853 0.336824 0.046640 -0.012103 290792.000000 0 0 1
-0.641867 -11.976398 30.999189 33.238469 1.517253 0.369163 0.041086 -0.012931 173788.000000 0 0 1
-1.348367 -12.817698 30.152189 32.791248 1.465986 0.403940 0.055281 -0.015964 194909.000000 0 0 1
-0.509267 -13.941398 29.850389 32.949471 1.534283 0.437191 0.052635 -0.019991 204890.000000 0 0 1
-0.997067 -15.317198 30.319789 33.983824 1.505793 0.468641 0.055525 -0.018070 67962.400000 0 0 1
-2.052767 -15.931398 29.596189 33.674288 1.442652 0.497254 0.059373 -0.023492 366149.000000 0 0 1
-2.548567 -17.008398 30.390589 34.919460 1.422061 0.514975 0.059924 -0.014721 -94425.900000 0 0 1
-3.207867 -18.104998 29.537089 34.792542 1.395435 0.556803 0.053663 -0.007017 1008130.000000 0 0 1
-4.394967 -17.627298 28.821889 34.069615 1.326451 0.562414 0.056266 -0.006482 1075040.000000 0 0 1
-4.941667 -18.592698 27.881589 33.874644 1.311017 0.603981 0.054995 -0.001409 -297316.000000 0 0 1
-4.096767 -19.094398 26.688289 33.070293 1.359447 0.631713 0.051572 -0.011268 -739046.000000 0 0 1
-4.595667 -20.025098 25.808089 32.987606 1.345207 0.672355 0.072794 -0.007396 -414374.000000 0 0 1
-4.709367 -21.325698 26.422289 34.279745 1.353454 0.690725 0.055358 -0.011784 -122618.000000 0 0 1
-29.143087 -34.263934 -0.913011 44.990780 0.865985 1.591091 0.033057 -0.009939 -57654.300000 0 0 1
-28.699387 -32.974434 -0.663511 43.719657 0.854605 1.585973 0.042645 -0.003917 -317154.000000 0 0 1
-29.216467 -32.527234 0.562589 43.725729 0.838968 1.557930 0.016831 0.008089 -246025.000000 0 0 1
-28.614577 -31.296634 1.212889 42.423395 0.830135 1.542202 0.034395 -0.005229 -500773.000000 0 0 1
-27.251547 -31.259134 1.542089 41.498895 0.853785 1.533628 0.037603 -0.015630 -537981.000000 0 0 1
-26.863857 -29.928434 1.877689 40.260448 0.839307 1.524141 0.044346 -0.015498 -574267.000000 0 0 1
-25.360047 -29.822234 2.009989 39.198695 0.866085 1.519497 0.065510 -0.011885 -1006400.000000 0 0 1
-24.786567 -30.696534 2.897189 39.560647 0.891516 1.497497 0.044737 -0.009540 -824109.000000 0 0 1
-23.438967 -30.351034 3.044289 38.468664 0.913199 1.491577 0.053941 -0.004974 -709200.000000 0 0 1
-22.838067 -31.157534 4.200689 38.858912 0.938273 1.462484 0.040856 -0.017447 -694757.000000 0 0 1
-23.245567 -30.714234 5.467489 38.905192 0.922936 1.429796 0.017057 -0.008213 -61389.200000 0 0 1
-22.585667 -31.418834 6.510989 39.238355 0.947526 1.404091 0.002094 -0.002746 -50966.300000 0 0 1
-22.897567 -30.957234 7.938689 39.315031 0.933951 1.367473 0.003939 0.017973 -411725.000000 0 0 1
-22.297367 -29.798234 8.357089 38.143784 0.928398 1.349910 0.012281 0.008507 -217320.000000 0 0 1
-22.823567 -29.454534 9.616589 38.483290 0.911565 1.318230 -0.004750 0.007528 -147687.000000 0 0 1
-22.306067 -28.085434 10.155989 37.275949 0.899589 1.294854 0.003299 0.009910 192125.000000 0 0 1
-20.971467 -28.122734 10.606589 36.649561 0.930045 1.277191 0.007527 0.002313 -436102.000000 0 0 1
-20.721867 -26.990434 11.389189 35.883045 0.916033 1.247813 0.021756 0.005871 320412.000000 0 0 1
-19.347367 -27.072534 12.090289 35.403641 0.950306 1.222286 0.025698 0.007228 -32020.700000 0 0 1
-19.278967 -28.081734 13.094189 36.492741 0.969168 1.203797 0.034840 0.017459 146795.000000 0 0 1
-17.997067 -28.219434 13.707489 36.168026 1.003078 1.182087 0.044307 0.004004 458838.000000 0 0 1
-17.902767 -29.285634 14.861689 37.403572 1.022098 1.162187 0.063632 -0.015033 57934.100000 0 0 1
-17.718767 -30.620534 14.407989 38.198978 1.046219 1.184044 0.072211 -0.012866 -57592.400000 0 0 1
-17.616067 -31.603334 15.431189 39.334694 1.062281 1.167660 0.086456 -0.015191 147605.000000 0 0 1
-17.395667 -33.000134 14.863089 40.156313 1.085674 1.191646 0.076644 -0.021558 87838.700000 0 0 1
-17.361167 -33.935634 15.880589 41.294436 1.097919 1.176055 0.088618 -0.014018 111282.000000 0 0 1
-17.490567 33.280102 15.403189 40.629341 -1.086913 1.181957 0.065548 -0.010789 -206588.000000 0 0 1
-17.360467 32.126602 16.468489 40.058900 -1.075371 1.147128 0.067422 -0.013114 -344589.000000 0 0 1
-18.456067 32.097802 17.328689 40.880053 -1.048966 1.133059 0.074144 -0.013621 -144154.000000 0 0 1
-18.505167 30.962502 18.148189 40.379134 -1.032096 1.104653 0.053087 -0.004420 646653.000000 0 0 1
-19.430067 31.068002 19.434889 41.478466 -1.011906 1.083143 0.058075 -0.014568 1058870.000000 0 0 1
-18.688567 31.791802 20.443189 42.165213 -1.039364 1.064621 0.067635 -0.013926 842255.000000 0 0 1
-19.559167 32.105702 21.516389 43.316187 -1.023631 1.050971 0.058797 -0.001443 79156.000000 0 0 1
-19.061767 33.288602 22.289289 44.365464 -1.050751 1.044422 0.056438 0.002732 280177.000000 0 0 1
-17.820067 33.081402 22.957189 44.033697 -1.076691 1.022358 0.050853 -0.007407 274055.000000 0 0 1
-17.673367 33.846202 24.140089 45.173634 -1.089573 1.007017 0.046103 -0.010242 74010.100000 0 0 1
-18.391167 33.138502 25.340089 45.590738 -1.064139 0.981451 0.036256 -0.016681 1624180.000000 0 0 1
-19.836567 33.326202 25.286089 46.298071 -1.033896 0.993025 0.026351 -0.017764 1333510.000000 0 0 1
-20.512667 32.220502 25.826189 46.107725 -1.003875 0.976257 -0.000950 -0.004996 970672.000000 0 0 1
-22.068367 32.257902 25.551489 46.695435 -0.970806 0.991788 0.005544 -0.011659 582699.000000 0 0 1
-22.372467 31.960002 24.214689 45.916448 -0.960061 1.015301 0.000489 0.006666 -20390.200000 0 0 1
-23.679167 32.376702 23.936089 46.710707 -0.939329 1.032781 -0.016469 0.005275 -260362.000000 0 0 1
-24.275667 31.948602 22.586889 46.045507 -0.921030 1.058094 -0.020753 0.009788 -24425.200000 0 0 1
-23.671367 32.779602 21.606689 45.844137 -0.945367 1.080024 -0.019703 0.004463 341327.000000 0 0 1
-23.476267 32.109802 20.350389 44.680117 -0.939485 1.097898 -0.027809 0.016962 -91382.700000 0 0 1
-23.039567 33.130602 19.236489 44.704596 -0.963153 1.125969 -0.004064 0.011038 274347.000000 0 0 1
-21.808367 33.744402 19.602689 44.705200 -0.997040 1.116881 0.032899 -0.000485 180947.000000 0 0 1
-21.416967 -33.899134 18.607189 44.204810 1.007333 1.136325 0.046341 -0.001752 727418.000000 0 0 1
-20.035067 -33.183834 18.864489 43.109624 1.027617 1.117876 0.067491 -0.012772 798706.000000 0 0 1
-20.230167 -32.154934 19.816389 42.847272 1.009221 1.089996 0.059351 -0.015482 673277.000000 0 0 1
-19.002667 -31.674534 20.370689 42.182253 1.030424 1.066809 0.065757 -0.033669 216484.000000 0 0 1
-19.177567 -30.594934 21.475589 42.012260 1.010888 1.034246 0.063900 -0.020396 39973.000000 0 0 1
-19.729567 -29.416234 20.878689 41.115572 0.980004 1.038162 0.070373 -0.021995 301687.000000 0 0 1
-20.150467 -28.437234 21.815189 41.117151 0.954326 1.011533 0.077995 -0.015149 -403579.000000 0 0 1
-20.922667 -27.283134 21.195689 40.390403 0.916584 1.018351 0.068616 -0.028311 -644439.000000 0 0 1
-20.136567 -26.336134 20.524389 38.991330 0.918017 1.016455 0.067205 -0.016255 -56408.800000 0 0 1
-20.683467 -25.062034 20.399089 38.367098 0.880823 1.010211 0.060020 -0.000394 -649121.000000 0 0 1
-21.882767 -24.765834 19.441989 38.343095 0.847124 1.039034 0.047343 0.005300 658339.000000 0 0 1
-23.155867 -25.289534 19.805489 39.598133 0.829412 1.047010 0.041225 0.000622 551508.000000 0 0 1
-24.084467 -25.167034 18.738789 39.554815 0.807375 1.077261 0.033408 0.009584 -251463.000000 0 0 1
-25.562487 -25.315134 19.136889 40.749445 0.780536 1.081932 0.028781 0.001415 -128326.000000 0 0 1
-26.051987 -26.580934 19.483689 42.010311 0.795448 1.088535 0.011566 0.002131 -81835.900000 0 0 1
-26.079197 -27.566634 18.452889 42.196599 0.813118 1.118194 0.006734 0.001376 -384511.000000 0 0 1
-26.882757 -28.869534 18.806189 43.701320 0.821019 1.125933 0.017326 -0.006267 924626.000000 0 0 1
-28.255837 -28.551734 19.057789 44.461142 0.790607 1.127810 0.020597 -0.009830 895146.000000 0 0 1
-29.162077 -29.252434 18.179289 45.128906 0.786945 1.156189 0.022306 -0.004704 28983.700000 0 0 1
-30.643367 -28.914534 18.223189 45.903713 0.756379 1.162564 0.032474 -0.006552 -277751.000000 0 0 1
-30.973797 -27.667934 17.671089 45.134887 0.729084 1.168516 0.046646 -0.003816 232841.000000 0 0 1
-32.343337 -27.373434 17.934089 46.011171 0.702365 1.170407 0.049048 0.011715 234789.000000 0 0 1
-32.866307 -26.099534 17.164789 45.343244 0.671140 1.182565 0.068510 -0.006508 -159274.000000 0 0 1
-33.080867 -26.323034 15.814189 45.136842 0.672124 1.212840 0.094293 -0.025684 195354.000000 0 0 1
-33.601137 -25.197334 15.135589 44.643343 0.643434 1.224907 0.101996 -0.025982 -143235.000000 0 0 1
-32.634057 -24.021534 14.847789 43.156374 0.634538 1.219573 0.090356 -0.019704 200439.000000 0 0 1
-32.029707 -23.351234 15.958289 42.729957 0.629957 1.188051 0.074407 -0.014008 -16664.800000 0 0 1
-31.643297 -22.027834 15.767189 41.654867 0.608124 1.182600 0.073513 -0.009382 -709377.000000 0 0 1
-32.689357 -20.941934 15.867389 41.939632 0.569763 1.182795 0.092730 -0.014295 -529645.000000 0 0 1
-33.172617 -20.774734 17.199289 42.753101 0.559506 1.156776 0.093412 -0.013797 300459.000000 0 0 1
-34.117261 -19.727234 17.320189 43.048115 0.524250 1.156720 0.102403 -0.023005 70665.400000 0 0 1
-34.504931 -19.492334 18.818089 43.870968 0.514222 1.127475 0.079258 -0.013398 883401.000000 0 0 1
-35.730404 -20.151834 19.231589 45.305764 0.513526 1.132404 0.075036 -0.004756 1158930.000000 0 0 1
-36.094877 -19.742634 20.544589 45.985779 0.500510 1.107656 0.070431 -0.001011 -1035020.000000 0 0 1
35.112181 -20.188234 20.956889 45.602865 -0.521807 1.093306 0.063629 0.007993 -1069290.000000 0 0 1
34.936531 -21.598734 21.285189 46.261494 -0.553715 1.092682 0.054788 -0.004519 74376.500000 0 0 1
35.719931 -22.065734 22.377189 47.576766 -0.553364 1.081122 0.044309 0.007840 -101763.000000 0 0 1
35.172181 -23.404634 23.013089 48.108851 -0.587146 1.072016 0.031165 0.018142 -187621.000000 0 0 1
34.124401 -23.144334 23.899489 47.658373 -0.595968 1.045493 0.034842 0.005236 -171881.000000 0 0 1
33.663791 -24.414034 24.418089 48.223842 -0.627460 1.039851 0.037590 -0.004289 -256923.000000 0 0 1
32.908571 -24.197834 25.754389 48.288692 -0.634030 1.008250 0.048030 -0.002024 763277.000000 0 0 1
31.509021 -23.949534 25.545989 47.106222 -0.649924 0.997617 0.052933 0.002513 634078.000000 0 0 1
30.831521 -24.061234 26.793089 47.406701 -0.662681 0.970151 0.044985 0.001170 872225.000000 0 0 1
29.395991 -24.717934 26.732289 46.794400 -0.699164 0.962743 0.046460 -0.004395 408443.000000 0 0 1
28.508651 -23.896634 26.087189 45.434940 -0.697618 0.959211 0.053964 -0.008880 -684520.000000 0 0 1
27.327321 -24.546434 25.676189 44.817146 -0.731841 0.960744 0.046558 -0.004629 665380.000000 0 0 1
26.173021 -23.679034 25.063289 43.288476 -0.735412 0.953316 0.038447 -0.004328 352814.000000 0 0 1
26.346421 -23.222234 23.737989 42.389836 -0.722454 0.976420 0.034383 -0.003384 -513067.000000 0 0 1
27.416721 -22.353234 23.545989 42.494203 -0.684009 0.983516 0.041783 0.001128 -326440.000000 0 0 1
27.475921 -21.574934 22.194689 41.388504 -0.665670 1.004805 0.040788 0.002805 23074.200000 0 0 1
26.518921 -20.538234 22.043289 40.137001 -0.658982 0.989388 0.036629 0.003752 -123495.000000 0 0 1
26.530321 -20.067334 20.701589 39.180501 -0.647580 1.014123 0.026584 0.005473 -565411.000000 0 0 1
25.774121 -18.765334 20.615089 37.966103 -0.629317 0.996807 0.024982 0.010687 -504730.000000 0 0 1
26.176321 -17.696134 21.408389 38.166374 -0.594461 0.975296 0.019378 0.007120 -234705.000000 0 0 1
25.760521 -17.723534 22.767789 38.679456 -0.602635 0.941436 0.018699 0.006022 -575197.000000 0 0 1
25.870421 -16.434334 23.547289 38.650237 -0.565940 0.915694 0.029298 0.002158 -57298.500000 0 0 1
24.807021 -15.537434 23.284789 37.402962 -0.559557 0.898814 0.033478 0.004830 14736.700000 0 0 1
24.915821 -14.441634 24.191789 37.611190 -0.525297 0.872117 0.039249 0.003038 393137.000000 0 0 1
23.646221 -13.522634 24.230189 36.456926 -0.519481 0.843804 0.036444 -0.000360 403368.000000 0 0 1
22.561521 -14.122434 24.908189 36.453851 -0.559284 0.818551 0.050729 0.002031 -498512.000000 0 0 1
21.443221 -13.330634 24.596489 35.249182 -0.556202 0.798490 0.039514 -0.003652 -171795.000000 0 0 1
20.088221 -13.991134 24.932989 34.941986 -0.608363 0.776239 0.049985 0.002811 230200.000000 0 0 1
19.414921 -14.829934 24.009089 34.253503 -0.652301 0.794105 0.066581 -0.004429 2052260.000000 0 0 1
18.093421 -15.313434 24.474689 34.071741 -0.702373 0.769400 0.064691 -0.009869 1759780.000000 0 0 1
17.581221 -16.449034 23.565489 33.689796 -0.752140 0.796120 0.071485 -0.011433 -375406.000000 0 0 1
18.301021 -17.651734 23.689089 34.751749 -0.767341 0.820759 0.061532 -0.007830 86573.000000 0 0 1
17.773621 -18.706334 22.902489 34.501486 -0.810960 0.844893 0.069601 -0.009829 -292460.000000 0 0 1
18.286321 -20.094034 23.243089 35.754733 -0.832463 0.863119 0.052250 -0.006763 -273849.000000 0 0 1
17.614921 -20.783334 24.302189 36.507928 -0.867726 0.842407 0.041798 -0.011263 307686.000000 0 0 1
17.963021 -22.162134 24.554789 37.639978 -0.889669 0.860103 0.050666 -0.012182 -296365.000000 0 0 1
17.564121 -23.213734 23.415089 37.358295 -0.923068 0.893394 0.041200 -0.008452 117719.000000 0 0 1
18.361521 -23.242634 22.243889 37.042625 -0.902187 0.926677 0.052390 -0.009374 258391.000000 0 0 1
19.516721 -24.076834 22.361789 38.218398 -0.889624 0.945786 0.059546 -0.014018 9014.070000 0 0 1
20.370821 -24.113934 21.114489 37.977280 -0.869344 0.981259 0.063456 -0.017054 -656935.000000 0 0 1
19.724521 -24.695934 20.035689 37.421581 -0.896852 1.005810 0.066996 -0.023138 239019.000000 0 0 1
20.640321 -25.377134 19.151689 37.905263 -0.887972 1.041123 0.065174 -0.016971 278172.000000 0 0 1
19.963321 -26.214034 18.057389 37.573649 -0.919944 1.069473 0.063236 -0.022945 81548.000000 0 0 1
19.015821 -27.076434 18.670289 37.990978 -0.958527 1.057054 0.082719 -0.034848 40408.300000 0 0 1
18.462121 -27.873634 17.673089 37.817026 -0.985788 1.084526 0.090082 -0.035197 -257984.000000 0 0 1
17.686021 -29.087234 18.203589 38.603538 -1.024491 1.079746 0.085335 -0.025937 -572226.000000 0 0 1
16.512121 -28.755334 18.846589 38.140704 -1.049542 1.053959 0.080880 -0.026866 -572348.000000 0 0 1
15.727021 -29.883034 19.241189 38.865901 -1.086342 1.052885 0.084355 -0.024212 -283701.000000 0 0 1
14.573221 -29.386834 20.078789 38.459362 -1.110426 1.021511 0.076484 -0.018860 -295261.000000 0 0 1
13.645221 -28.528434 19.433289 37.117601 -1.124657 1.019772 0.075830 -0.019677 -125590.000000 0 0 1
12.471221 -28.269834 20.146689 36.886365 -1.155327 0.992996 0.038647 -0.013350 -623888.000000 0 0 1
11.265921 -27.961834 19.294289 35.791825 -1.187789 1.001464 0.047345 -0.017068 -701757.000000 0 0 1
11.107121 -28.962634 18.302689 36.016534 -1.204596 1.037732 0.038394 -0.018069 12958.900000 0 0 1
10.385921 -28.424034 17.205889 34.811430 -1.220475 1.053813 0.059267 -0.017918 -278199.000000 0 0 1
10.339221 -29.229834 15.913289 34.849899 -1.230810 1.096600 0.048767 -0.009933 607910.000000 0 0 1
9.316721 -30.253334 15.882789 35.416500 -1.272056 1.105758 0.045742 -0.006940 664052.000000 0 0 1
9.371421 -30.880334 14.613389 35.425552 -1.276154 1.145589 0.037356 0.003888 201273.000000 0 0 1
8.212521 -31.891534 14.420789 35.951003 -1.318758 1.158053 0.032329 0.001884 -81175.000000 0 0 1
8.316721 -33.019934 15.282689 37.323511 -1.324059 1.148928 0.027492 -0.002041 -351200.000000 0 0 1
7.479021 -34.052534 14.881289 37.907303 -1.354597 1.167372 0.008644 -0.005234 -460722.000000 0 0 1
7.323421 33.351702 15.908289 37.670176 1.354645 1.134810 0.042315 -0.010909 -471378.000000 0 0 1
8.440721 32.541102 15.935289 37.203528 1.317003 1.128155 0.025315 -0.006664 -865886.000000 0 0 1
8.346621 31.540002 16.959589 36.770443 1.312091 1.091417 0.045452 -0.009565 -671867.000000 0 0 1
9.533921 30.624802 17.137189 36.365607 1.268993 1.080092 0.020069 -0.014554 -936348.000000 0 0 1
9.768521 29.836502 16.044789 35.257284 1.254394 1.098337 0.036495 -0.013807 468005.000000 0 0 1
10.844121 28.931902 16.397689 34.979052 1.212188 1.082880 0.025512 -0.014621 948268.000000 0 0 1
11.728521 28.444102 15.169589 34.303667 1.179701 1.112730 0.029874 -0.012279 258202.000000 0 0 1
11.158121 27.529102 14.299589 32.967156 1.185711 1.122143 0.047777 -0.014365 -541687.000000 0 0 1
12.107021 27.151702 13.375189 32.598935 1.151355 1.148019 0.065679 -0.009955 -460319.000000 0 0 1
-9.350767 -9.153298 18.985227 23.057722 0.774727 0.603458 0.044155 -0.016846 -197213.000000 0 1 0
-9.569967 -9.286898 17.612127 22.091124 0.770388 0.648072 0.039990 -0.021832 -8284.430000 0 1 0
-9.277467 -10.548898 17.043727 22.087084 0.849439 0.689349 0.034135 -0.030048 -59911.400000 0 1 0
-9.878367 -10.797098 15.582627 21.377038 0.829805 0.754021 0.044286 -0.028797 18453.400000 0 1 0
-11.280867 -10.662298 15.520927 21.950894 0.757216 0.785443 0.041154 -0.026015 174421.000000 0 1 0
-11.978167 -11.288698 14.451427 21.903309 0.755774 0.850267 0.059064 -0.026369 184660.000000 0 1 0
-11.838767 -12.837498 14.246627 22.537173 0.825849 0.886486 0.034834 -0.024279 -308102.000000 0 1 0
-10.640567 -13.182798 13.536027 21.684830 0.891708 0.896668 0.047873 -0.029918 693041.000000 0 1 0
-10.277567 -14.564198 13.655127 22.454549 0.956273 0.917102 0.043936 -0.025787 40755.500000 0 1 0
-9.816167 -15.122498 15.013427 23.461673 0.995047 0.876411 0.047862 -0.027329 39304.100000 0 1 0
-10.876667 -15.285498 15.963327 24.632827 0.952349 0.865774 0.048072 -0.007944 4883.200000 0 1 0
-10.388867 -15.344798 17.257327 25.322060 0.975654 0.820967 0.048625 -0.008809 -349666.000000 0 0 1
-11.357067 -14.918198 18.381027 26.256385 0.920109 0.795316 0.030589 0.000887 -613568.000000 0 0 1
-11.717567 -13.542498 18.441727 25.705990 0.857519 0.770719 0.032476 -0.003020 -52623.900000 0 0 1
-12.894667 -13.157998 17.782127 25.604871 0.795505 0.803096 0.029041 -0.012171 -478521.000000 0 0 1
-14.197067 -13.481998 18.510927 26.943931 0.759570 0.813421 0.005980 -0.003470 -886483.000000 0 0 1
-14.558067 -14.818998 18.690427 27.944089 0.794280 0.838134 0.010983 0.006030 -185449.000000 0 0 1
-15.657867 -14.790298 19.582827 29.110288 0.756913 0.832929 0.017120 0.002614 -115840.000000 0 0 1
-16.166067 -16.176798 20.004127 30.384135 0.785730 0.852140 0.028697 -0.000160 -52412.900000 0 0 1
-17.035167 -16.771598 19.056127 30.571546 0.777602 0.897804 0.028699 0.004037 -35083.400000 0 0 1
-17.278367 -18.126998 19.349227 31.646842 0.809363 0.912954 0.014181 -0.005846 550312.000000 0 0 1
-18.646667 -18.635098 18.740427 32.344531 0.785088 0.952804 0.030096 -0.003783 565008.000000 0 0 1
-18.732167 -18.728398 17.351927 31.666013 0.785298 0.990865 0.038927 -0.003272 19990.200000 0 0 1
-18.895867 -17.525198 16.628827 30.670903 0.747782 0.997779 0.041807 -0.005527 -578751.000000 0 0 1
-18.836367 -17.673698 15.056127 29.897413 0.753564 1.043044 0.038998 -0.013940 94862.800000 0 0 1
-19.949767 -18.399998 14.558227 30.797648 0.745009 1.078438 0.041290 -0.015260 152529.000000 0 0 1
-19.839567 -18.331598 13.142927 30.039848 0.745913 1.117961 0.053055 -0.016812 5148.700000 0 0 1
-19.818967 -19.771998 12.564727 30.685432 0.784212 1.148925 0.040933 -0.012659 -95144.900000 0 0 1
-18.851867 -20.645298 13.107827 30.877765 0.830774 1.132379 0.046952 -0.002294 -21155.300000 0 0 1
-18.518267 -21.702298 12.185627 31.022661 0.864398 1.167125 0.041056 -0.003271 -55742.400000 0 0 1
-17.966167 -23.016798 12.866027 31.907535 0.908017 1.155754 0.040055 -0.003423 -115644.000000 0 0 1
-17.932967 -24.129298 11.970227 32.358935 0.931660 1.191873 0.040085 -0.005480 -41107.300000 0 0 1
-16.807067 -24.184898 11.125527 31.482760 0.963474 1.209609 0.044900 -0.008866 -476185.000000 0 0 1
-16.896267 -25.298788 10.069227 32.045310 0.981962 1.251163 0.045273 -0.004747 -239646.000000 0 0 1
-18.142567 -25.321798 9.406327 32.539594 0.949095 1.277538 0.034658 0.001958 -257373.000000 0 0 1
-18.100167 -26.291808 8.378327 33.001085 0.967875 1.314106 0.047882 -0.001389 178377.000000 0 0 1
-19.279667 -26.300948 7.378027 33.434723 0.938238 1.348295 0.033943 -0.006083 130351.000000 0 0 1
-19.415167 -25.183618 6.628527 32.482314 0.914025 1.365287 0.047797 -0.009947 258266.000000 0 0 1
-20.628167 -25.104848 5.879527 33.020350 0.882975 1.391784 0.059671 -0.012754 385307.000000 0 0 1
-20.804967 -23.741598 5.244827 32.000287 0.851226 1.406154 0.069551 -0.010451 290514.000000 0 0 1
-21.591867 -23.869898 4.028727 32.437808 0.835465 1.446276 0.075595 -0.015373 432023.000000 0 0 1
-21.562667 -22.682798 3.239227 31.463480 0.810709 1.467662 0.065435 -0.012511 325278.000000 0 0 1
-22.184967 -22.814698 1.786327 31.872781 0.799391 1.514721 0.066860 -0.008926 497865.000000 0 0 1
-21.325767 -23.515698 0.877827 31.757629 0.834197 1.543151 0.068090 -0.019287 357087.000000 0 0 1
-21.846167 -23.349598 -0.402373 31.978441 0.818651 1.583379 0.059191 -0.009604 -229813.000000 0 0 1
-21.153467 -24.240098 -1.467773 32.205681 0.853291 1.616387 0.063965 -0.011000 -220994.000000 0 0 1
-19.867967 -23.706498 -1.768473 30.981635 0.873263 1.627909 0.063889 -0.005903 306124.000000 0 0 1
-19.272167 -24.210298 -2.947873 31.084481 0.898480 1.665773 0.056341 -0.000636 119198.000000 0 0 1
-18.818167 -25.696708 -3.010773 31.992327 0.938708 1.665045 0.071116 -0.010349 5111.540000 0 0 1
-19.916267 -26.587758 -3.186373 33.372437 0.927886 1.666421 0.096441 -0.018838 423103.000000 0 0 1
-19.407167 -27.877448 -3.480873 34.145377 0.962652 1.672916 0.096659 -0.017549 146913.000000 0 0 1
-20.442267 -28.747288 -4.228473 35.527072 0.952658 1.690100 0.101750 -0.027776 74327.000000 0 0 1
-20.796967 -28.324748 -5.516773 35.570212 0.937463 1.726520 0.084958 -0.010994 -206886.000000 0 0 1
-21.673967 -29.280288 -6.056973 36.929434 0.933581 1.735556 0.085063 -0.032916 -163896.000000 0 0 1
-22.455667 -28.739918 -7.244173 37.184915 0.907537 1.766865 0.069133 0.000112 147415.000000 0 0 1
-21.529967 -28.554938 -8.320673 36.717266 0.924750 1.799397 0.094388 -0.001945 606464.000000 0 0 1
-22.138367 -28.714668 -9.586773 37.503942 0.914004 1.829286 0.092729 -0.001553 395781.000000 0 0 1
-23.058467 -27.500068 -10.021173 37.260845 0.873024 1.843095 0.068649 0.003355 152397.000000 0 0 1
-22.416267 -26.291808 -10.402173 36.082592 0.864798 1.863235 0.056516 0.007451 115485.000000 0 0 1
-21.938567 -25.456168 -9.353573 34.882755 0.859482 1.842261 0.036506 0.009048 213373.000000 0 0 1
-21.372367 -24.081298 -9.766873 33.646379 0.844925 1.865316 0.024891 0.012628 320246.000000 0 0 1
-22.419967 -23.210498 -10.163173 33.833005 0.802721 1.875900 0.020498 0.015307 619511.000000 0 0 1
-21.921767 -21.901298 -10.448273 32.701638 0.784931 1.896001 0.022708 0.015544 -531021.000000 0 0 1
-23.110667 -21.003598 -10.588273 32.975227 0.737671 1.897685 0.018949 0.013583 -865092.000000 0 0 1
-23.702867 -21.236698 -11.837873 33.955243 0.730576 1.926907 0.012285 0.014945 684207.000000 0 0 1
-24.978567 -20.613198 -12.101773 34.572904 0.689940 1.928406 0.015867 0.003328 764734.000000 0 0 1
-25.054057 -19.041998 -12.094473 33.713199 0.649894 1.937720 0.025572 -0.012226 -851257.000000 0 0 1
-24.353867 -18.494298 -13.199773 33.307415 0.649489 1.978281 0.038687 -0.010375 331113.000000 0 0 1
-24.228967 -17.067898 -13.171273 32.432059 0.613701 1.988999 0.033627 -0.015638 -203269.000000 0 0 1
-23.380667 -16.404598 -12.068173 31.006568 0.611820 1.970574 0.031770 -0.014566 -585197.000000 0 0 1
-24.003467 -16.349598 -10.790373 30.982381 0.597952 1.926526 0.046872 -0.014982 352128.000000 0 0 1
-23.096667 -16.472698 -9.697273 29.980709 0.619535 1.900170 0.045186 -0.015795 47626.900000 0 0 1
-23.795967 -16.825398 -8.369673 30.321502 0.615455 1.850458 0.034462 -0.013978 54228.300000 0 0 1
-24.090167 -18.240098 -8.310373 31.338469 0.648067 1.839188 0.028839 -0.002489 -36874.000000 0 0 1
-25.109487 -18.538198 -7.404573 32.077700 0.635967 1.803729 0.033600 0.003670 -170624.000000 0 0 1
-25.151137 -20.030598 -6.949873 32.895369 0.672548 1.783673 0.035100 0.012166 -121947.000000 0 0 1
-25.703327 -20.824398 -7.968573 34.026677 0.680919 1.807178 0.029084 -0.004990 56635.700000 0 0 1
-25.875907 -22.179598 -7.598573 34.917552 0.708632 1.790166 0.041293 0.005604 63721.900000 0 0 1
-25.960217 -23.189998 -8.804073 35.905718 0.729095 1.818522 0.021245 0.017739 326672.000000 0 0 1
-26.355837 -24.472198 -8.283273 36.907062 0.748356 1.797161 0.043025 0.017204 -269438.000000 0 0 1
-26.116617 -25.450828 -9.243673 37.620046 0.772488 1.819050 0.036004 0.020526 60873.800000 0 0 1
-26.575027 -26.857208 -8.786373 38.791005 0.790679 1.799285 0.052177 0.001262 335195.000000 0 0 1
-25.901527 -27.285088 -7.573973 38.376167 0.811406 1.769462 0.074567 -0.009209 327858.000000 0 0 1
-26.454097 -28.490218 -7.148473 39.529893 0.822439 1.752634 0.077492 -0.010916 -109560.000000 0 0 1
-26.164807 -28.813798 -5.723373 39.339409 0.833543 1.716802 0.095383 -0.018206 -445855.000000 0 0 1
-26.751907 -27.927418 -4.840473 38.974805 0.806893 1.695313 0.075168 -0.016576 -228155.000000 0 0 1
-26.447677 -28.099488 -3.493673 38.746182 0.815671 1.661087 0.072404 -0.022708 -109957.000000 0 0 1
-26.775857 -29.384428 -2.685673 39.844749 0.831813 1.638251 0.072223 -0.019628 -186553.000000 0 0 1
-25.962967 -30.470448 -3.095073 40.151007 0.865102 1.647959 0.114202 -0.036119 -31081.800000 0 0 1
-26.131447 -31.686398 -2.372373 41.140108 0.881181 1.628494 0.092340 -0.037289 180185.000000 0 0 1
-25.161117 -31.756078 -1.133773 40.531664 0.900753 1.598772 0.102912 -0.046816 131789.000000 0 0 1
-23.830867 -31.958158 -1.537373 39.894832 0.930060 1.609342 0.106728 -0.055226 -837719.000000 0 0 1
-22.915867 -31.964218 -0.505773 39.333243 0.948803 1.583655 0.102671 -0.046003 -111501.000000 0 0 1
-21.831567 -30.865668 -0.415473 37.808457 0.955182 1.581785 0.102308 -0.039907 44762.000000 0 0 1
-22.270467 -29.532458 -0.155073 36.988699 0.924676 1.574989 0.093195 -0.035748 55163.000000 0 0 1
-22.832167 -28.825388 -1.313373 36.795867 0.900900 1.606497 0.114069 -0.039567 8368.940000 0 0 1
-23.366867 -27.443798 -0.981373 36.057394 0.865464 1.598017 0.077184 -0.021627 249058.000000 0 0 1
-24.637967 -27.592528 -0.349273 36.993230 0.841906 1.580238 0.082661 -0.023865 296248.000000 0 0 1
-25.286927 -26.343868 -0.035673 36.516152 0.805866 1.571773 0.075615 -0.025541 303631.000000 0 0 1
-24.851667 -25.514918 1.206327 35.638065 0.798566 1.536940 0.074109 -0.016325 -328117.000000 0 0 1
-25.042157 -26.166668 2.462727 36.302468 0.807354 1.502905 0.055057 -0.016884 -77772.100000 0 0 1
-24.634067 -25.444038 3.616727 35.599397 0.801571 1.469026 0.064122 -0.018302 8248.460000 0 0 1
-25.578437 -24.309398 4.086327 35.523251 0.759966 1.455509 0.077778 -0.018571 -74196.200000 0 0 1
-25.649257 -23.202998 3.238127 34.738293 0.735365 1.477446 0.069853 -0.018954 -175309.000000 0 0 1
-26.706527 -22.310698 3.481027 34.973181 0.695958 1.471097 0.061371 -0.014209 -324308.000000 0 0 1
-26.711677 -21.150098 2.414127 34.156527 0.669716 1.500059 0.054616 -0.011036 211338.000000 0 0 1
-25.570197 -20.321398 2.569827 32.762757 0.671519 1.492278 0.068464 -0.010477 164847.000000 0 0 1
-25.513337 -19.586398 1.342027 32.192521 0.654729 1.529097 0.058076 -0.009963 280179.000000 0 0 1
-24.310067 -18.611398 1.368127 30.646946 0.653400 1.526140 0.066665 -0.009422 1630680.000000 0 0 1
-23.001567 -19.261498 1.309327 30.029848 0.697133 1.527182 0.070753 -0.014949 1209430.000000 0 0 1
-21.946067 -18.327198 1.302327 28.621882 0.695781 1.525280 0.074676 -0.014348 344834.000000 0 0 1
-20.545767 -18.992898 1.480827 28.018772 0.746144 1.517920 0.069091 -0.014377 143775.000000 0 0 1
-20.109967 -19.385098 0.203427 27.932673 0.767047 1.563513 0.034841 -0.005211 12897.200000 0 0 1
-19.064967 -20.336898 0.361227 27.878180 0.817668 1.557839 0.047413 0.003986 8327.970000 0 0 1
-18.566667 -20.916298 -0.941673 27.983913 0.844838 1.604453 0.052793 0.005250 -57676.400000 0 0 1
-18.057667 -19.916398 -1.802773 26.944243 0.834307 1.637754 0.049732 -0.001597 144366.000000 0 0 1
-17.574867 -20.516698 -3.016573 27.182910 0.862476 1.681999 0.040445 0.007715 -37093.600000 0 0 1
-17.133667 -19.615898 -4.140473 26.372136 0.852840 1.728450 0.051758 0.011810 281569.000000 0 0 1
-15.732867 -19.382598 -4.102773 25.299031 0.888961 1.733687 0.072719 0.000400 169346.000000 0 0 1
-15.351467 -18.556598 -5.186673 24.635675 0.879642 1.782919 0.083263 -0.004049 -25762.200000 0 1 0
-13.839867 -18.241698 -5.296973 23.502328 0.921754 1.798130 0.093842 -0.015091 -58720.900000 0 1 0
-13.137567 -19.392998 -5.758473 24.121444 0.975373 1.811852 0.075781 -0.014245 -91599.700000 0 1 0
-11.818167 -18.936698 -6.057173 23.129137 1.012853 1.835771 0.071886 -0.027678 415314.000000 0 1 0
-10.843367 -20.147698 -6.064373 23.670340 1.077063 1.829887 0.067698 -0.026085 150956.000000 0 1 0
-11.105967 -21.045398 -7.102573 24.833402 1.085224 1.860855 0.058177 -0.017789 -431604.000000 0 1 0
-10.032067 -21.943498 -7.272173 25.200079 1.141990 1.863537 0.061457 -0.007814 196724.000000 0 0 1
-10.381067 -23.040398 -8.316373 26.604296 1.147477 1.888720 0.049628 -0.003375 -18828.700000 0 0 1
-10.446767 -22.674098 -9.646573 26.763895 1.139051 1.939528 0.049878 -0.010272 -74018.100000 0 0 1
-10.907567 -23.748998 -10.444873 28.144010 1.140248 1.951014 0.050413 -0.008980 124159.000000 0 0 1
-11.678567 -23.234398 -11.692773 28.512228 1.105038 1.993357 0.063327 -0.009665 -5443.730000 0 0 1
-10.856967 -22.604198 -12.664573 28.092969 1.123026 2.038468 0.049604 -0.003617 -433560.000000 0 0 1
-11.632767 -21.933498 -13.581373 28.299352 1.083153 2.071358 0.053851 -0.008311 -687914.000000 0 0 1
-10.914467 -20.854498 -14.424273 27.606074 1.088634 2.120581 0.042694 0.000746 -118237.000000 0 0 1
-10.782867 -19.662798 -13.598773 26.226370 1.069191 2.115910 0.045900 -0.000035 -371045.000000 0 0 1
-10.522267 -18.474998 -14.308873 25.627866 1.053074 2.163171 0.033321 0.015910 11864.700000 0 0 1
-10.222167 -17.276198 -13.385273 24.127272 1.036509 2.158892 0.042302 -0.003485 -468019.000000 0 1 0
-11.297467 -16.933398 -12.542873 23.910174 0.982445 2.123022 0.054668 -0.012737 -431968.000000 0 1 0
-11.135967 -15.937898 -11.577573 22.628888 0.960937 2.107875 0.068691 -0.023512 -172333.000000 0 1 0
-10.971667 -14.495898 -12.079273 21.826988 0.922906 2.157249 0.068964 -0.015593 295022.000000 0 1 0
-12.092367 -13.921398 -12.747373 22.417096 0.855593 2.175654 0.065144 -0.003375 333862.000000 0 1 0
-11.788867 -13.729098 -14.111773 22.947934 0.861286 2.233116 0.053186 -0.002364 203958.000000 0 1 0
-12.972367 -13.026698 -14.820873 23.614306 0.787488 2.249292 0.055612 0.001293 -7902.350000 0 1 0
-13.001967 -11.667098 -14.423973 22.654433 0.731340 2.261001 0.043254 -0.003615 -1010010.000000 0 1 0
-14.163067 -11.102998 -14.875773 23.348612 0.664871 2.261547 0.038602 -0.009510 -963732.000000 0 1 0
-14.417167 -9.772798 -14.137773 22.432987 0.595711 2.252636 0.045351 -0.016918 216280.000000 0 1 0
-13.468867 -8.746798 -14.446973 21.601664 0.575959 2.303376 0.041152 -0.013055 345431.000000 0 1 0
-13.369767 -8.206098 -15.781773 22.252080 0.550490 2.359197 0.035733 -0.005383 -488688.000000 0 1 0
-12.139667 -7.320798 -15.920973 21.317668 0.542657 2.414100 0.026158 0.004475 627219.000000 0 1 0
-10.868567 -8.003098 -15.885173 20.845001 0.634709 2.437287 0.020699 0.005206 135661.000000 0 1 0
-9.830967 -7.102898 -15.760973 19.887367 0.625669 2.485713 0.011443 0.011772 -325103.000000 0 1 0
11.183633 22.081602 16.205827 29.585463 1.101987 0.991108 0.066694 -0.012313 -364109.000000 0 0 1
12.054833 22.199902 17.327527 30.633280 1.073333 0.969582 0.074979 -0.030879 -28861.900000 0 0 1
12.584333 20.960402 17.659627 30.159017 1.030093 0.945237 0.062352 -0.019018 98664.700000 0 0 1
13.760533 21.102502 18.676327 31.360374 0.992960 0.932860 0.066140 -0.034349 127066.000000 0 0 1
14.986533 21.547802 18.164127 31.919264 0.963096 0.965428 0.064433 -0.022491 -634085.000000 0 0 1
16.020433 21.297002 19.061027 32.764910 0.925864 0.949916 0.065661 -0.027372 704269.000000 0 0 1
17.464333 21.455202 18.422127 33.237078 0.887583 0.983317 0.060841 -0.013294 119095.000000 0 0 1
17.834133 22.814702 18.362827 34.289362 0.907317 1.005666 0.061230 -0.018018 701451.000000 0 0 1
19.150433 23.133402 17.872127 34.947193 0.879317 1.033979 0.048260 -0.013340 1427550.000000 0 0 1
20.377033 22.598102 18.669527 35.699424 0.837035 1.020471 0.051571 -0.010386 -392052.000000 0 0 1
20.633833 21.192902 18.505927 34.890736 0.798764 1.011728 0.044476 -0.006341 -77973.400000 0 0 1
21.889633 20.993102 19.127027 35.856792 0.764495 1.008148 0.059223 -0.005769 25855.200000 0 0 1
22.265133 19.433502 18.871527 35.064678 0.717595 1.002506 0.046883 -0.006255 -180686.000000 0 0 1
22.438833 19.232402 17.483527 34.337446 0.708604 1.036579 0.023110 -0.011927 34318.600000 0 0 1
21.857233 18.076602 16.931327 33.032893 0.691007 1.032633 0.025418 -0.010666 -243927.000000 0 0 1
22.595833 16.759402 17.270827 33.011069 0.638170 1.020215 0.033810 -0.024083 -243988.000000 0 0 1
23.899833 16.862602 16.744827 33.703688 0.614443 1.050860 0.043505 -0.040121 -474776.000000 0 0 1
24.561733 15.665802 17.111627 33.786149 0.567760 1.039712 0.026066 -0.027804 -458260.000000 0 0 1
25.995333 15.721202 16.506927 34.574444 0.543920 1.073067 0.097049 -0.049625 24561.900000 0 0 1
26.814233 16.699902 17.206127 35.971386 0.557016 1.072046 0.074724 -0.044412 482696.000000 0 0 1
27.776333 16.255302 18.134727 36.940869 0.529482 1.057660 0.059843 -0.046289 428630.000000 0 0 1
29.014233 15.465702 17.568027 37.277999 0.489728 1.080065 0.058669 -0.059309 -34743.900000 0 0 1
29.903333 16.248502 16.752327 37.932355 0.497737 1.113374 0.098675 -0.039179 84290.400000 0 0 1
30.782933 15.454102 15.986327 37.973423 0.465274 1.136263 0.096006 -0.040965 -213138.000000 0 0 1
30.321933 14.865802 14.704427 36.832484 0.455830 1.160126 0.061198 -0.028045 -719995.000000 0 0 1
30.315133 15.782302 13.604227 36.785368 0.479998 1.191973 0.065592 0.000444 -376442.000000 0 0 1
29.693133 15.306902 12.445027 35.649152 0.475973 1.214189 0.048791 -0.005971 95562.400000 0 0 1
28.195133 15.724802 12.384027 34.577435 0.508746 1.204507 0.045174 -0.013242 -41926.300000 0 0 1
27.841433 17.042802 11.925327 34.753646 0.549297 1.220540 0.027847 0.003501 183192.000000 0 0 1
28.337833 18.131302 12.714127 35.964231 0.569190 1.209463 0.043575 -0.012324 -418355.000000 0 0 1
27.802033 18.363602 14.163327 36.204623 0.583730 1.168859 0.053211 -0.016663 212287.000000 0 0 1
26.559833 19.051602 14.268927 35.664976 0.622248 1.159190 0.049742 0.002612 307642.000000 0 0 1
26.074233 19.095902 15.571627 35.874708 0.632120 1.121806 0.038763 -0.013383 -73985.500000 0 0 1
26.806933 20.100702 16.519227 37.356856 0.643394 1.112746 0.040275 -0.031946 129857.000000 0 0 1
26.510133 21.496302 16.288027 37.817694 0.681335 1.125530 0.031691 -0.015493 -626880.000000 0 0 1
25.214433 21.877502 16.599927 37.282037 0.714656 1.109340 0.024752 -0.007670 -800101.000000 0 0 1
24.959033 23.377102 16.441427 37.944205 0.752682 1.122639 0.034978 -0.000317 -78926.300000 0 0 1
24.904233 23.784302 15.133827 37.615775 0.762400 1.156740 0.060003 -0.011900 19824.500000 0 0 1
24.725433 25.164802 14.999327 38.335285 0.794205 1.168789 0.070482 -0.016397 -269024.000000 0 0 1
24.456233 25.691302 13.589127 37.984400 0.810022 1.204933 0.060898 -0.010832 95070.000000 0 0 1
23.260333 25.135202 13.083127 36.660465 0.824119 1.205878 0.059766 -0.010248 55506.800000 0 0 1
23.296833 25.521902 11.685427 36.478200 0.830945 1.244708 0.056955 -0.018338 -162233.000000 0 0 1
22.631133 24.480102 10.808027 35.046498 0.824625 1.257295 0.068400 -0.021067 31904.900000 0 0 1
21.204533 24.514602 10.980127 34.222231 0.857672 1.244172 0.066446 -0.019400 490823.000000 0 0 1
20.613133 23.235402 11.040427 32.964772 0.845130 1.229280 0.078870 -0.015653 -44917.300000 0 0 1
20.611133 22.409102 9.702327 31.954996 0.827167 1.262302 0.098255 -0.021610 24722.300000 0 0 1
19.508333 22.821602 8.839627 31.297597 0.863511 1.284462 0.109902 -0.028019 1019140.000000 0 0 1
19.818033 23.792402 7.865727 31.948434 0.876281 1.322038 0.090505 -0.021071 463594.000000 0 0 1
18.538633 24.082002 6.994127 31.185598 0.914735 1.344598 0.073219 -0.017782 -830285.000000 0 0 1
18.208433 22.978902 6.175027 29.961774 0.900708 1.363212 0.083246 -0.011803 340973.000000 0 0 1
17.291333 23.219102 5.135927 29.402289 0.930694 1.395218 0.096596 -0.018661 -18357.900000 0 0 1
15.968733 23.944702 5.465727 29.295449 0.982632 1.383124 0.084989 -0.022456 -1236570.000000 0 0 1
16.056233 25.352402 5.545027 30.517113 1.006235 1.388079 0.086969 -0.030337 422390.000000 0 0 1
14.847033 25.914102 6.047727 30.472119 1.050517 1.371002 0.080877 -0.032657 237323.000000 0 0 1
14.668733 27.372502 5.575127 31.551666 1.078848 1.393165 0.070150 -0.028374 -170145.000000 0 0 1
14.230833 27.510702 4.220127 31.259635 1.093418 1.435380 0.061566 -0.012342 428028.000000 0 0 1
14.203933 28.831902 3.733727 32.356931 1.113049 1.455147 0.063562 -0.016233 26220.100000 0 0 1
13.431033 29.094602 2.419327 32.136298 1.138310 1.495442 0.063516 -0.015149 -354191.000000 0 0 1
14.147033 28.582202 1.332027 31.919509 1.111189 1.529053 0.083011 -0.016045 -132908.000000 0 0 1
13.663633 27.376302 0.789727 30.606869 1.107865 1.544991 0.064793 -0.008721 157047.000000 0 0 1
14.661233 26.706302 -0.223073 30.466835 1.068736 1.578118 0.056480 -0.014136 415028.000000 0 0 1
14.899033 27.410402 -1.416873 31.230095 1.072916 1.616181 0.046879 -0.003966 101222.000000 0 0 1
15.825033 26.660602 -2.217573 31.082744 1.035115 1.642201 0.048250 -0.001650 250638.000000 0 0 1
15.990733 27.276202 -3.628273 31.825447 1.040547 1.685050 0.052698 -0.013437 -373880.000000 0 0 1
14.964333 26.938402 -4.517373 31.145070 1.063739 1.716353 0.070450 -0.020642 -520553.000000 0 0 1
15.277133 27.362302 -5.822373 31.874541 1.061582 1.754493 0.070967 -0.022110 690172.000000 0 0 1
14.053933 27.245302 -6.794773 31.400453 1.094565 1.788913 0.073030 -0.037423 848719.000000 0 0 1
13.668333 25.915502 -7.158173 30.160835 1.085455 1.810416 0.051840 -0.023266 -558097.000000 0 0 1
12.386333 25.840302 -7.704873 29.673347 1.123812 1.833463 0.037927 -0.034279 -308620.000000 0 0 1
12.046333 24.408602 -8.106273 28.400803 1.112340 1.860245 0.037051 -0.014082 -103248.000000 0 0 1
12.770633 23.812602 -9.182673 28.538580 1.078534 1.898388 0.036653 -0.015219 -87605.000000 0 0 1
12.285933 22.536802 -9.528073 27.379477 1.071685 1.926234 0.043236 -0.009340 -500741.000000 0 0 1
12.939433 21.768702 -10.665273 27.478234 1.034501 1.969404 0.045861 -0.008952 -97431.700000 0 0 1
12.091933 20.753402 -11.228173 26.513966 1.043233 2.008081 0.050915 -0.010073 -110388.000000 0 0 1
12.282933 20.464102 -12.607973 26.992793 1.030216 2.056789 0.045866 -0.012661 -283542.000000 0 0 1
13.619533 19.946002 -13.147173 27.498778 0.971694 2.069287 0.046083 0.004905 119270.000000 0 0 1
14.658033 20.919802 -13.294773 28.796649 0.959616 2.050682 0.032775 -0.004685 -622047.000000 0 0 1
15.778333 20.290302 -13.807073 29.176830 0.909846 2.063739 0.032054 0.006024 -574251.000000 0 0 1
17.057233 21.138302 -13.650973 30.399442 0.891841 2.036502 0.036364 0.002389 -305595.000000 0 0 1
17.231633 22.357202 -14.420973 31.697604 0.914152 2.043118 0.039990 -0.005867 -190723.000000 0 0 1
16.225633 23.341402 -14.330773 31.834937 0.963337 2.037739 0.038299 -0.005620 185025.000000 0 0 1
16.811033 24.713102 -14.878573 33.387425 0.973450 2.032679 0.039073 -0.004588 308656.000000 0 0 1
17.017033 24.881102 -16.264773 34.251883 0.970934 2.065599 0.030450 -0.010646 255455.000000 0 0 1
15.762933 24.907402 -16.949173 34.001811 1.006564 2.092639 0.029757 -0.006176 498227.000000 0 0 1
15.837433 24.685602 -18.445373 34.647294 1.000373 2.132201 0.018630 -0.001854 123748.000000 0 0 1
16.232433 23.444402 -18.937773 34.231142 0.965203 2.157036 0.027440 0.000537 -243796.000000 0 0 1
16.037433 23.461802 -20.367873 34.964348 0.971193 2.192637 0.031368 -0.000366 -13579.500000 0 0 1
16.409933 22.149802 -20.968273 34.634781 0.933170 2.221078 0.031335 0.004212 273457.000000 0 0 1
15.439633 21.157802 -20.689273 33.377850 0.940390 2.239348 0.030192 0.003826 271368.000000 0 0 1
15.922933 20.025002 -21.381873 33.342540 0.899018 2.266960 0.029062 0.005310 4390.430000 0 0 1
14.925533 18.894702 -21.672273 32.395504 0.902225 2.303646 0.027791 0.014098 -375809.000000 0 0 1
14.533033 18.125602 -20.517773 30.995572 0.894961 2.294225 0.033606 0.012259 478594.000000 0 0 1
13.660933 17.062602 -20.885973 30.232058 0.895668 2.333468 0.026366 0.009373 1866670.000000 0 0 1
12.089333 17.250902 -21.103773 29.818028 0.959538 2.357108 0.034768 0.005818 1570130.000000 0 0 1
11.357833 17.285702 -19.876573 28.685780 0.989470 2.336309 0.028850 0.007102 632842.000000 0 0 1
9.974233 17.528002 -20.137273 28.499578 1.053448 2.355452 0.028637 0.001986 549864.000000 0 0 1
8.906533 16.959302 -19.213373 27.131125 1.087215 2.357695 0.036951 -0.010576 -305899.000000 0 0 1
8.798833 15.562902 -19.178073 26.218731 1.056228 2.391264 0.048676 -0.021868 128095.000000 0 0 1
7.532433 15.142302 -18.686573 25.203469 1.109196 2.405993 0.052559 -0.023121 330867.000000 0 0 1
7.149833 15.306302 -17.158473 24.079372 1.133799 2.363965 0.052106 -0.034441 -96044.000000 0 1 0
7.013233 16.703702 -16.857073 24.745909 1.173287 2.320206 0.064100 -0.028645 -321435.000000 0 1 0
6.450933 16.771302 -15.554173 23.766013 1.203600 2.284279 0.056134 -0.039685 -112108.000000 0 1 0
6.181933 18.198202 -15.166173 24.482721 1.243327 2.238857 0.058007 -0.031491 -941796.000000 0 1 0
7.278233 19.019502 -14.969873 25.274715 1.205316 2.204690 0.048468 -0.024449 -759685.000000 0 0 1
7.691233 19.705802 -16.156273 26.617641 1.198677 2.223046 0.058963 -0.018423 -306701.000000 0 0 1
8.907533 20.637902 -16.031573 27.609391 1.163340 2.190331 0.042685 -0.005792 -80990.100000 0 0 1
8.822733 21.893402 -15.365473 28.164861 1.187719 2.147847 0.038396 -0.013240 -203452.000000 0 0 1
8.736733 21.685502 -13.986673 27.243687 1.187807 2.109928 0.029209 -0.015255 -212298.000000 0 0 1
8.561633 23.001302 -13.174173 27.855345 1.214462 2.063432 0.031319 -0.013186 564074.000000 0 0 1
7.179833 23.355002 -13.386773 27.860578 1.272545 2.072011 0.028345 -0.013511 664525.000000 0 0 1
6.673333 24.314502 -12.504673 28.144186 1.302933 2.031197 0.009356 -0.010427 16200.000000 0 0 1
6.197733 23.826902 -11.104173 27.008069 1.316321 1.994504 -0.005817 -0.003159 -537055.000000 0 0 1
7.282733 23.529002 -10.250373 26.678123 1.270627 1.965163 -0.002654 -0.001978 -292408.000000 0 0 1
6.869933 23.011702 -9.032473 25.657747 1.280679 1.930543 0.006243 -0.013832 -55880.000000 0 0 1
7.860233 23.123102 -7.855273 25.654754 1.243121 1.881986 0.008344 -0.017275 -27101.100000 0 0 1
7.844033 24.408302 -7.160273 26.618857 1.259853 1.843143 0.010099 -0.018603 -229438.000000 0 0 1
8.804133 24.486002 -6.139073 26.735094 1.225632 1.802490 0.018074 -0.019193 -207038.000000 0 0 1
8.844733 25.861202 -5.488173 27.877430 1.241259 1.768959 0.013072 -0.017230 -178415.000000 0 0 1
9.257033 26.794802 -6.423073 29.067334 1.238155 1.793608 0.026827 -0.025581 -79390.000000 0 0 1
9.379433 28.027202 -5.771573 30.113267 1.247857 1.763652 0.022656 -0.026197 -38923.600000 0 0 1
9.805433 29.199502 -6.672273 31.516292 1.246820 1.784119 0.024694 -0.017892 285455.000000 0 0 1
11.125333 29.194202 -7.175173 32.055538 1.206706 1.796545 0.030162 -0.023577 -240886.000000 0 0 1
11.331233 30.359402 -7.913773 33.357427 1.213573 1.810322 0.025752 -0.016919 -150117.000000 0 0 1
12.669533 30.541802 -8.631573 34.173422 1.177575 1.826144 0.053937 -0.025033 -187691.000000 0 0 1
13.754633 30.754602 -7.778073 34.576493 1.150241 1.797691 0.050779 -0.023542 -742149.000000 0 0 1
14.946433 31.013502 -8.483273 35.457003 1.121706 1.812395 0.055736 -0.019732 486216.000000 0 0 1
16.150233 31.317602 -7.529473 36.032141 1.094674 1.781313 0.055730 -0.023592 147673.000000 0 0 1
16.843133 30.164102 -7.124273 35.274912 1.061540 1.774159 0.053520 -0.024473 -552655.000000 0 0 1
17.935633 30.571502 -6.343973 36.007633 1.040230 1.747905 0.047930 -0.014651 -674247.000000 0 0 1
19.014733 29.550202 -6.154573 35.674266 0.999024 1.744185 0.046765 -0.014780 -1074320.000000 0 0 1
18.616733 28.478002 -5.292573 34.432407 0.991808 1.725117 0.052511 -0.016489 -520193.000000 0 0 1
19.562933 27.534602 -4.930473 34.134619 0.953068 1.715745 0.051851 -0.014606 -833504.000000 0 0 1
19.612533 26.399102 -5.967973 33.424253 0.931839 1.750311 0.047311 -0.003587 -18268.300000 0 0 1
20.149933 26.749102 -7.247473 34.264560 0.925191 1.783921 0.045827 0.001228 404159.000000 0 0 1
19.995733 25.680802 -8.210173 33.566946 0.909225 1.817894 0.040231 -0.001433 -1295050.000000 0 0 1
20.622633 25.958302 -9.573073 34.507537 0.899447 1.851904 0.037687 -0.007173 1576550.000000 0 0 1
22.074733 26.015102 -9.679173 35.464993 0.867153 1.847225 0.047409 -0.007100 1458020.000000 0 0 1
22.734833 24.837602 -9.314073 34.936099 0.829571 1.840663 0.054402 -0.009840 -1293210.000000 0 0 1
24.253233 24.991902 -9.145273 36.006256 0.800397 1.827601 0.041229 -0.006998 -312209.000000 0 0 1
24.858333 25.193502 -10.382473 36.884210 0.792094 1.856141 0.047976 -0.001312 -478368.000000 0 0 1
26.253233 25.239802 -10.219673 37.824880 0.765720 1.844380 0.041075 0.002835 -289857.000000 0 0 1
27.124933 25.096702 -11.461073 38.690601 0.746579 1.871533 0.036776 0.006665 -147414.000000 0 0 1
27.294533 26.235002 -12.262473 39.794913 0.765607 1.884035 0.041268 0.006950 -348650.000000 0 0 1
28.566833 26.284502 -12.854973 40.892411 0.743813 1.890580 0.054638 -0.001389 -89729.200000 0 0 1
28.587733 26.982202 -14.208373 41.799229 0.756514 1.917628 0.069465 -0.003116 -87018.900000 0 0 1
28.487033 28.382902 -14.030273 42.590477 0.783567 1.906488 0.046546 0.001949 -14254.900000 0 0 1
28.369233 28.997802 -15.296173 43.355032 0.796355 1.931371 0.049449 0.004424 -477693.000000 0 0 1
28.234033 30.516602 -15.245173 44.281360 0.824230 1.922268 0.041601 0.004434 413458.000000 0 0 1
29.325633 31.179402 -14.602273 45.225813 0.816027 1.899562 0.029761 -0.001319 257803.000000 0 0 1
29.448233 32.508702 -15.062973 46.377875 0.834755 1.901584 0.013205 -0.005976 72471.500000 0 0 1
15.566333 -32.198034 -27.524521 45.128964 -1.120471 2.226741 0.072608 -0.042288 1035420.000000 0 0 1
16.716133 -33.045734 -27.177751 45.935605 -1.102481 2.203899 0.058045 -0.026554 1279480.000000 0 0 1
17.220833 -32.763334 -25.912761 45.182567 -1.086869 2.181583 0.062378 -0.030574 -467447.000000 0 0 1
18.492333 -33.542134 -25.499711 46.013872 -1.066943 2.158167 0.030769 -0.031497 63735.800000 0 0 1
19.692133 -33.100234 -26.103071 46.527152 -1.034117 2.166424 0.056006 -0.029657 249822.000000 0 0 1
19.963133 -33.541634 -27.415281 47.698695 -1.033932 2.183107 0.067205 -0.024990 -191460.000000 0 0 1
21.476633 -33.279934 -27.684491 48.324226 -0.997709 2.180824 0.075540 -0.018799 382288.000000 0 0 1
21.753633 -31.961534 -28.112721 47.802566 -0.973196 2.199505 0.071428 -0.027719 -1217140.000000 0 0 1
23.111133 -31.813634 -28.157101 48.363769 -0.942536 2.192221 0.044462 -0.017513 -1523350.000000 0 0 1
23.508933 -30.483734 -28.740191 48.040884 -0.913867 2.212105 0.027213 -0.009560 -198143.000000 0 0 1
23.970633 -30.616134 -30.048731 49.141277 -0.906544 2.228721 0.028306 -0.016484 -171154.000000 0 0 1
24.387133 -29.403434 -30.591601 48.940170 -0.878385 2.246032 0.036358 -0.026230 143071.000000 0 0 1
24.823233 -29.559534 -32.085191 50.193809 -0.872271 2.264288 0.040759 -0.012647 567640.000000 0 0 1
25.993833 -30.348134 -32.294201 51.377077 -0.862528 2.250512 0.045848 -0.021211 88748.900000 0 0 1
26.183733 -30.549334 -33.689371 52.476884 -0.862197 2.267881 0.036331 -0.017612 1008450.000000 0 0 1
27.519033 -31.361834 -34.038711 53.846965 -0.850570 2.255106 0.030626 -0.018992 1351650.000000 0 0 1
28.650333 -30.566634 -33.682671 53.755772 -0.817748 2.247963 0.039561 -0.022652 -402435.000000 0 0 1
29.803633 -31.276834 -34.090664 55.033356 -0.809513 2.238844 0.033458 -0.013241 -344570.000000 0 0 1
31.059133 -30.427634 -33.976091 55.180480 -0.775128 2.234104 0.039671 -0.019082 -493319.000000 0 0 1
30.951733 -29.298134 33.677893 54.319342 -0.757959 0.902056 0.046722 -0.021724 258005.000000 0 0 1
32.250333 -28.961834 33.202214 54.600905 -0.731727 0.917145 0.049378 -0.022443 315086.000000 0 0 1
32.380533 -27.793134 32.168947 53.439670 -0.709309 0.924834 0.050254 -0.023813 290512.000000 0 0 1
33.664033 -27.583834 31.558657 53.759500 -0.686450 0.943406 0.018027 -0.020044 688712.000000 0 0 1
33.647633 -26.489934 30.687437 52.683950 -0.666933 0.949018 0.046619 -0.014821 -271376.000000 0 0 1
34.211733 -26.815634 29.283617 52.412318 -0.664793 0.977959 0.030671 -0.005468 20168.400000 0 0 1
33.406133 -27.732134 28.566477 51.971960 -0.692857 0.988849 0.028088 -0.007905 9924.090000 0 0 1
32.180133 -27.288234 28.073977 50.678959 -0.703322 0.983686 0.035394 -0.000522 -615125.000000 0 0 1
31.519833 -28.297734 27.121407 50.297439 -0.731585 1.001285 0.030150 -0.007782 347224.000000 0 0 1
30.273533 -27.837634 26.584837 48.971157 -0.743505 0.996949 0.036370 0.006210 471923.000000 0 0 1
29.876733 -28.711634 25.535147 48.672588 -0.765515 1.018515 0.031099 0.008977 584806.000000 0 0 1
28.485633 -28.317834 24.936197 47.277319 -0.782444 1.015206 0.035251 0.011073 1113440.000000 0 0 1
27.364833 -28.365334 25.825617 47.121001 -0.803349 0.990741 0.044759 0.007246 418319.000000 0 0 1
26.145433 -28.142934 25.148087 45.913339 -0.822176 0.991148 0.040209 0.006276 226700.000000 0 0 1
24.929833 -27.992034 26.085587 45.667367 -0.843196 0.962819 0.044315 0.002914 -196590.000000 0 0 1
25.035433 -26.977034 27.072247 45.688509 -0.822710 0.936589 0.039343 0.000326 -481048.000000 0 0 1
23.865933 -26.970334 27.811867 45.502545 -0.846389 0.913201 0.042241 -0.010767 -650895.000000 0 0 1
23.823833 -25.846134 28.809177 45.448502 -0.826090 0.884229 0.045371 -0.002237 -639209.000000 0 0 1
22.535033 -25.767534 29.345477 45.088253 -0.852220 0.862099 0.053675 -0.001348 -293061.000000 0 0 1
22.293933 -24.751734 30.282997 45.019192 -0.837594 0.832987 0.053398 -0.002630 -272855.000000 0 0 1
21.938033 -23.386934 29.712597 43.715722 -0.817354 0.823473 0.056628 -0.007454 -1064040.000000 0 0 1
22.996633 -22.800434 29.054097 43.506844 -0.781114 0.839540 0.064304 -0.007562 -572725.000000 0 0 1
22.771333 -21.444734 28.691457 42.445376 -0.755405 0.828527 0.080013 -0.003394 -286918.000000 0 0 1
23.418133 -20.377434 29.545517 42.855412 -0.716080 0.810104 0.073356 -0.004324 -431226.000000 0 0 1
22.905133 -20.318734 30.854887 43.468611 -0.725632 0.781554 0.072532 -0.000284 82748.400000 0 0 1
23.606533 -19.302134 31.512567 43.850686 -0.685417 0.768961 0.062817 -0.002821 -116684.000000 0 0 1
23.153933 -18.957034 32.980779 44.533196 -0.686063 0.736850 0.083412 -0.009972 -211357.000000 0 0 1
23.207533 -20.067934 33.826437 45.667706 -0.712976 0.736673 0.055022 -0.004470 366766.000000 0 0 1
22.369933 -19.860934 -33.563691 44.959893 -0.726056 2.413620 0.056820 -0.007623 -97730.400000 0 0 1
22.327033 -20.993034 -32.487691 44.661549 -0.754614 2.385350 0.039010 -0.000581 145515.000000 0 0 1
23.533633 -21.189234 -31.768371 44.855824 -0.733026 2.357788 0.032081 0.002047 76424.500000 0 0 1
23.292733 -22.247334 -30.894261 44.631274 -0.762447 2.335345 0.024891 0.001523 540119.000000 0 0 1
24.436033 -22.747234 -29.933671 44.839503 -0.749621 2.301742 0.016700 0.000456 66805.700000 0 0 1
25.553233 -23.305734 -30.539511 46.138776 -0.739431 2.294154 0.032527 0.000208 -332015.000000 0 0 1
26.445233 -23.826934 -29.544101 46.259345 -0.733363 2.263555 0.027134 -0.011934 -81336.000000 0 0 1
27.738233 -24.511334 -29.927551 47.601191 -0.723717 2.250695 0.028144 -0.004688 -224817.000000 0 0 1
28.679033 -23.742634 -30.674421 48.240229 -0.691508 2.259929 0.038916 -0.002904 201693.000000 0 0 1
28.539933 -23.751634 -32.113141 49.090953 -0.694084 2.283863 0.041582 -0.008885 -168526.000000 0 0 1
28.890333 -25.022134 -32.941151 50.456694 -0.713771 2.282150 0.049163 -0.020867 -274534.000000 0 0 1
28.137533 -26.112034 -32.490761 50.291238 -0.748079 2.273197 0.060527 -0.021298 -151012.000000 0 0 1
28.230233 -27.343334 -33.211531 51.454929 -0.769441 2.272407 0.055516 -0.023065 -106737.000000 0 0 1
27.914033 -27.378734 33.801445 51.684872 -0.775717 0.857948 0.048719 -0.016727 -109694.000000 0 0 1
28.861833 -26.711434 33.001468 51.338124 -0.746723 0.872615 0.035106 -0.018012 -107011.000000 0 0 1
28.536733 -26.805634 31.616897 50.324103 -0.754129 0.891475 0.030568 -0.011599 -523581.000000 0 0 1
29.463033 -26.099034 30.637477 49.878702 -0.724927 0.909374 0.034764 -0.017946 -589756.000000 0 0 1
29.350433 -24.720434 30.423197 48.970590 -0.699978 0.900454 0.029565 -0.010526 -16074.700000 0 0 1
29.696333 -23.869934 31.506627 49.439999 -0.677054 0.879846 0.032264 -0.009488 -1165830.000000 0 0 1
30.463033 -22.595334 31.024207 49.000479 -0.638187 0.885192 0.029384 -0.001566 764846.000000 0 0 1
31.753333 -22.740734 30.425307 49.508731 -0.621495 0.908988 0.030217 0.000080 320205.000000 0 0 1
32.695733 -23.137434 31.396397 50.892883 -0.615848 0.905984 0.033826 -0.005547 -937320.000000 0 0 1
34.136133 -22.741834 30.966617 51.394532 -0.587686 0.924132 0.026782 -0.016090 24180.700000 0 0 1
34.641833 -23.294234 29.774457 51.275688 -0.591983 0.951240 0.024117 -0.014756 648335.000000 0 0 1
35.901433 -22.640134 29.539327 51.711318 -0.562630 0.962786 0.010162 -0.021388 619621.000000 0 0 1
-36.235156 -22.709734 28.052547 51.143562 0.559844 0.990220 0.025007 -0.019126 -149692.000000 0 0 1
-35.817756 -23.994934 27.642257 51.212917 0.590250 1.000654 0.020333 -0.010269 115541.000000 0 0 1
-35.540856 -24.019834 26.256817 50.294386 0.594325 1.021529 0.009884 -0.000328 -112529.000000 0 0 1
-35.384056 -25.420434 25.626347 50.546410 0.622978 1.039111 0.006658 -0.014395 -720963.000000 0 0 1
36.019333 -26.127034 25.822907 51.447418 -0.627545 1.044970 0.015067 -0.006912 -487752.000000 0 0 1
36.003033 -27.504534 25.519637 51.999708 -0.652370 1.057829 0.022892 0.004549 256441.000000 0 0 1
-35.754656 -28.399834 26.530267 52.809100 0.671254 1.044446 0.040796 -0.009928 -182892.000000 0 0 1
-35.757256 -29.733034 26.028837 53.292917 0.693670 1.060529 0.054831 -0.008377 384417.000000 0 0 1
-34.759956 -30.613034 26.526237 53.376527 0.722048 1.050699 0.061675 -0.020154 -935913.000000 0 0 1
-33.311656 -30.347334 26.266307 52.158853 0.738866 1.043055 0.064128 -0.015739 -1951170.000000 0 0 1
-32.887556 -30.363134 24.980917 51.259706 0.745508 1.061755 0.054117 -0.008858 563012.000000 0 0 1
-31.610856 -29.691934 24.992487 50.054786 0.754106 1.048003 0.030728 -0.013990 303677.000000 0 0 1
-30.964156 -29.446234 23.675767 48.850810 0.760277 1.064828 0.022072 -0.004727 -452114.000000 0 0 1
-30.550456 -30.696934 23.203727 49.132933 0.787790 1.078939 0.022738 -0.000943 385459.000000 0 0 1
-29.831556 -30.601434 21.982127 48.058125 0.798137 1.095719 0.020211 0.000480 -182364.000000 0 0 1
-29.670456 -31.982134 21.204127 48.505751 0.822876 1.118373 0.025730 0.002989 26187.800000 0 0 1
-28.847856 -33.018834 21.717627 48.929516 0.852715 1.110900 0.013649 -0.002423 83577.600000 0 0 1
-27.501356 -32.837234 21.312927 47.841921 0.873601 1.109079 0.021214 0.000049 220787.000000 0 0 1
-26.694756 -34.176234 21.169827 48.257502 0.907692 1.116662 0.000517 0.016083 -409987.000000 0 0 1
-27.001156 33.615402 20.013927 47.535407 -0.894084 1.136214 -0.014642 0.017216 704773.000000 0 0 1
-28.232256 32.861602 20.085927 47.753425 -0.861028 1.136670 -0.004594 0.012651 818426.000000 0 0 1
-28.350456 31.772002 21.213827 47.573468 -0.842246 1.108598 0.001146 0.012388 -450409.000000 0 0 1
-27.476656 30.714302 20.913927 46.213930 -0.840979 1.101178 -0.014655 0.013682 -193860.000000 0 0 1
-27.474656 29.665502 21.880527 45.974517 -0.823721 1.074778 -0.010425 0.009108 -141541.000000 0 0 1
-26.591956 28.428502 21.630027 44.532796 -0.818765 1.063621 -0.003340 0.006365 429521.000000 0 0 1
-25.197056 28.653302 21.822527 43.955955 -0.849493 1.051276 -0.003328 0.013398 179076.000000 0 0 1
-24.478456 27.482902 21.582127 42.664891 -0.843155 1.040427 0.001973 0.005379 587532.000000 0 0 1
-22.925356 27.681702 21.664327 41.966554 -0.879109 1.028355 0.004734 0.023032 631745.000000 0 0 1
-22.469756 28.107402 22.930527 42.669955 -0.896406 1.003454 0.014650 0.016628 -431938.000000 0 0 1
-21.192356 28.654102 22.890627 42.357459 -0.933989 0.999865 0.057210 0.007096 -744973.000000 0 0 1
-20.618056 28.827902 24.284367 42.963736 -0.949934 0.970085 0.049421 0.013781 -616336.000000 0 0 1
-20.176556 27.576902 24.858757 42.255612 -0.939145 0.941848 0.055920 0.000514 509742.000000 0 0 1
-19.816556 27.630302 26.264097 42.964314 -0.948617 0.913094 0.051535 -0.000860 -702159.000000 0 0 1
-18.352556 27.954602 26.497627 42.666149 -0.989856 0.900720 0.060306 -0.003420 -995886.000000 0 0 1
-18.106556 29.372502 26.613787 43.576196 -1.018372 0.913800 0.039546 -0.002857 -524965.000000 0 0 1
-16.792656 29.645002 26.959337 43.446810 -1.055405 0.901399 0.044509 -0.005208 -685578.000000 0 0 1
-16.546156 29.896002 28.461637 44.470338 -1.065303 0.876280 0.036641 -0.001648 -276887.000000 0 0 1
-16.745056 28.758702 29.182797 44.261670 -1.043523 0.850877 0.035553 -0.000378 282084.000000 0 0 1
-16.838556 29.090102 30.592497 45.449663 -1.046080 0.832394 0.032289 0.001655 -145281.000000 0 0 1
-16.796256 27.856602 31.469237 45.259445 -1.028207 0.801948 0.023254 0.006794 1336780.000000 0 0 1
-15.406356 27.430002 31.645877 44.623114 -1.059045 0.782460 0.019274 0.013617 1678500.000000 0 0 1
-15.158456 26.280202 32.392867 44.381591 -1.047609 0.752662 0.023171 0.008569 -331053.000000 0 0 1
-15.407556 26.388002 33.918241 45.652672 -1.042310 0.733310 0.024819 0.009905 176315.000000 0 0 1
-16.749356 26.072502 -34.255375 46.192499 -0.999772 2.406217 0.025732 0.004193 315506.000000 0 0 1
-17.429256 27.001502 -33.407771 46.356652 -0.997597 2.375562 0.027837 -0.003863 -452128.000000 0 0 1
-18.769356 26.623802 -32.820491 46.241758 -0.956733 2.359952 0.011489 -0.002077 -249125.000000 0 0 1
-19.710356 26.442402 -33.907511 47.301354 -0.930241 2.370056 0.015899 -0.005313 -126071.000000 0 0 1
-20.787056 25.698702 -33.422331 47.006140 -0.890667 2.361745 0.030019 -0.007674 202250.000000 0 0 1
-22.117956 25.720302 34.249398 48.205385 -0.860559 0.780603 0.053635 -0.022647 423421.000000 0 0 1
-22.092156 24.997802 33.035489 46.949941 -0.847024 0.790300 0.059281 -0.020897 14604.500000 0 0 1
-22.265156 23.589002 33.303360 46.489697 -0.814261 0.772225 0.055424 -0.018543 -231692.000000 0 0 1
-22.348856 22.671602 32.129467 45.230250 -0.792567 0.780796 0.049408 -0.016990 671211.000000 0 0 1
-23.694356 22.501602 31.660297 45.498560 -0.759584 0.801190 0.060473 -0.019402 443649.000000 0 0 1
-23.733756 22.146702 30.290057 44.398819 -0.750821 0.819993 0.080314 -0.019552 723682.000000 0 0 1
-25.192656 21.937402 29.778717 44.751441 -0.716438 0.842734 0.075670 -0.024146 773866.000000 0 0 1
-25.867256 20.813202 30.292347 44.943638 -0.677549 0.831176 0.093300 -0.025411 158117.000000 0 0 1
-27.228656 20.696102 29.913977 45.437587 -0.649925 0.852168 0.085601 -0.027856 418446.000000 0 0 1
-27.855156 19.324202 30.366227 45.513099 -0.606511 0.840356 0.108778 -0.027561 -190467.000000 0 0 1
-28.117256 19.242402 31.763627 46.580877 -0.600154 0.820436 0.102828 -0.029724 -90490.700000 0 0 1
-28.392856 17.952802 32.335907 46.626905 -0.563832 0.804456 0.083981 -0.019634 243827.000000 0 0 1
-29.434656 16.954002 31.719297 46.475272 -0.522576 0.819621 0.058427 -0.017724 -85083.200000 0 0 1
-30.771456 17.390502 31.786797 47.536434 -0.514401 0.838360 0.056065 -0.020371 -428432.000000 0 0 1
-31.496056 16.305702 31.242417 47.264850 -0.477712 0.848636 0.057139 -0.009461 -687047.000000 0 0 1
-33.015656 16.450202 31.261707 48.352218 -0.462250 0.867754 0.066757 -0.018041 -783661.000000 0 0 1
-33.548556 16.274202 32.528183 49.481693 -0.451652 0.853462 0.060223 -0.012797 -66337.600000 0 0 1
-34.922556 16.568202 32.525963 50.517606 -0.442981 0.871272 0.071347 -0.016733 -322376.000000 0 0 1
-35.426656 16.779502 33.995370 51.887232 -0.442339 0.856378 0.065811 -0.006939 -1250370.000000 0 0 1
35.811133 17.073502 34.007894 52.253981 0.444888 0.862133 0.059365 -0.014172 -919422.000000 0 0 1
35.373533 17.532202 -33.215271 51.593790 0.460146 2.270230 0.046201 -0.014786 527140.000000 0 0 1
33.845933 17.718502 -32.987091 50.474158 0.482274 2.283054 0.049025 -0.017174 481065.000000 0 0 1
33.136733 16.511702 -32.914421 49.538253 0.462279 2.297520 0.056328 -0.017384 -227526.000000 0 0 1
31.865833 16.614702 -32.333551 48.341888 0.480617 2.303459 0.050060 -0.018954 -421562.000000 0 0 1
31.092733 15.308002 -32.315541 47.385516 0.457496 2.321250 0.059893 -0.022387 -355329.000000 0 0 1
30.577833 14.929302 -33.579571 47.806647 0.454195 2.349565 0.058769 -0.025224 -98630.400000 0 0 1
29.766033 13.787902 -33.558311 46.928490 0.433784 2.367556 0.057954 -0.019865 -32766.100000 0 0 1
30.499333 12.460302 -33.926631 47.291487 0.387850 2.370851 0.064381 -0.018100 133591.000000 0 0 1
31.465333 12.076702 -32.952801 47.135984 0.366472 2.344935 0.073338 -0.007379 20916.100000 0 0 1
32.202033 11.084102 -33.641501 47.870438 0.331503 2.350068 0.076926 -0.008063 -215120.000000 0 0 1
17.502533 -21.104898 10.277089 29.280948 -0.878436 1.212177 0.016249 -0.000185 -220941.000000 0 0 1
17.402333 -22.216498 11.103789 30.326690 -0.906317 1.195940 0.025142 -0.005597 95438.000000 0 0 1
18.506133 -23.107098 11.216589 31.657966 -0.895516 1.208625 0.021377 -0.004715 -343131.000000 0 0 1
18.181933 -24.355398 12.040189 32.691501 -0.929522 1.193619 0.031885 -0.014845 -92629.400000 0 0 1
17.447333 -25.267508 11.242689 32.699456 -0.966472 1.219816 0.038699 -0.004428 730618.000000 0 0 1
16.042533 -25.239128 11.554989 32.060790 -1.004596 1.202090 0.049426 -0.008028 561250.000000 0 0 1
15.249433 -26.246968 10.677389 32.178489 -1.044466 1.232567 0.055258 0.008589 -74234.600000 0 0 1
15.043833 -25.713168 9.403689 31.239611 -1.041432 1.265036 0.046603 0.001019 307517.000000 0 0 1
14.319033 -26.628148 8.572189 31.425712 -1.077414 1.294519 0.051272 0.008913 49617.500000 0 0 1
14.135333 -25.916588 7.187589 30.383196 -1.071479 1.331968 0.054689 0.003427 -339811.000000 0 0 1
13.106833 -24.970898 7.232389 29.114297 -1.087440 1.319754 0.062041 -0.009372 -115994.000000 0 0 1
12.898733 -24.351598 5.963589 28.194717 -1.083682 1.357672 0.065220 0.005774 20682.500000 0 0 1
12.071133 -23.060398 6.006689 26.712816 -1.088559 1.343995 0.070636 0.002359 -198881.000000 0 0 1
11.681033 -22.528198 4.774889 25.821809 -1.092453 1.384809 0.075979 -0.003662 -103662.000000 0 0 1
11.119933 -21.268998 4.948689 24.505361 -1.089057 1.367455 0.077251 -0.007134 -51649.600000 0 1 0
10.353633 -20.622598 3.785289 23.384133 -1.105508 1.408207 0.057501 -0.011066 -136997.000000 0 1 0
11.164733 -20.125298 2.779889 23.182033 -1.064305 1.450591 0.056732 -0.003138 201778.000000 0 1 0
10.306533 -19.631498 1.743189 22.240932 -1.087349 1.492338 0.036735 0.009545 542719.000000 0 1 0
11.149533 -19.023198 0.605389 22.058120 -1.040659 1.543348 0.043031 0.003655 -240412.000000 0 1 0
11.863733 -17.878798 0.968589 21.478774 -0.984945 1.525686 0.046140 0.002054 -628025.000000 0 1 0
12.527833 -17.667998 -0.236011 21.660112 -0.954010 1.581693 0.052123 -0.005238 -105687.000000 0 1 0
13.752433 -16.699598 -0.167011 21.634091 -0.881878 1.578516 0.051226 -0.003487 134937.000000 0 1 0
14.800033 -17.190898 0.614589 22.692414 -0.859995 1.543710 0.058383 -0.011235 -117382.000000 0 1 0
16.007233 -16.455798 0.423589 22.960928 -0.799215 1.552347 0.051860 -0.017924 288981.000000 0 1 0
17.162433 -17.063098 1.231889 24.232540 -0.782496 1.519938 0.035650 -0.008646 -360256.000000 0 1 0
17.714533 -18.171798 0.622389 25.385159 -0.798140 1.546276 0.030732 -0.003566 223839.000000 0 0 1
18.934933 -18.653298 1.178389 26.605748 -0.777906 1.526491 0.014547 0.006365 472023.000000 0 0 1
19.331633 -19.996398 0.643489 27.820533 -0.802300 1.547664 0.002954 0.002870 63906.600000 0 0 1
18.537233 -21.066298 1.200289 28.086627 -0.849171 1.528048 0.018937 0.007662 316632.000000 0 0 1
18.843133 -22.292998 0.544389 29.194825 -0.869067 1.552148 0.029947 0.000005 -670791.000000 0 0 1
17.761933 -23.346098 0.456789 29.338289 -0.920413 1.555226 0.038039 0.007220 -732391.000000 0 0 1
17.643433 -24.051198 1.646989 29.874126 -0.937888 1.515637 0.021812 0.015428 410483.000000 0 0 1
16.569533 -24.988198 1.531389 30.021736 -0.985271 1.519765 0.038946 0.011969 -110951.000000 0 0 1
16.332833 -25.950458 2.684589 30.779778 -1.009050 1.483466 0.041998 0.017375 566110.000000 0 0 1
17.254633 -27.037618 2.866189 32.202022 -1.002782 1.481672 0.045417 0.007928 490312.000000 0 0 1
18.592433 -26.725058 3.194889 32.712606 -0.962967 1.472975 0.034859 0.019966 4591.500000 0 0 1
19.560533 -27.927898 3.400489 34.265803 -0.959806 1.471394 0.041732 0.014683 -36040.400000 0 0 1
20.048133 -28.551458 2.232489 34.958510 -0.958612 1.506892 0.048911 0.010037 1876650.000000 0 0 1
21.332433 -29.217238 2.566089 36.267127 -0.940133 1.499982 0.063874 0.006183 2127910.000000 0 0 1
21.002433 -30.711998 3.071289 37.333120 -0.970991 1.488436 0.064657 -0.004361 -119362.000000 0 0 1
20.574833 -30.859248 4.399789 37.349365 -0.982749 1.452721 0.062925 -0.000353 -321313.000000 0 0 1
19.756933 -31.982798 4.436189 37.853871 -1.017437 1.453334 0.064487 -0.020054 -539479.000000 0 0 1
19.489233 -32.334348 5.899789 38.211880 -1.028364 1.415780 0.070609 -0.024902 -932223.000000 0 0 1
20.526933 -32.961078 6.542189 39.377505 -1.013807 1.403882 0.060432 -0.025349 -351295.000000 0 0 1
20.081233 -33.476598 7.764789 39.802393 -1.030481 1.374454 0.057628 -0.025031 233860.000000 0 0 1
21.202933 34.241260 8.456189 41.152587 1.016363 1.363838 0.048761 -0.027198 516853.000000 0 0 1
22.296233 -33.558118 8.997989 41.282358 -0.984360 1.351070 0.052485 -0.022724 584940.000000 0 0 1
23.275133 34.101603 9.567889 42.381549 0.971896 1.343077 0.067363 -0.030589 194808.000000 0 0 1
24.081233 -33.687828 10.646089 42.756459 -0.950183 1.319155 0.073129 -0.026522 -727811.000000 0 0 1
24.912033 -32.723658 10.130389 42.356487 -0.920112 1.329286 0.062027 -0.021887 -758587.000000 0 0 1
25.741333 -32.097598 11.038289 42.599482 -0.894855 1.308688 0.057349 -0.016830 -628200.000000 0 0 1
26.600133 -31.112668 10.248189 42.197045 -0.863429 1.325478 0.056180 -0.021941 -651656.000000 0 0 1
25.971733 -29.921908 9.890289 40.837107 -0.855954 1.326175 0.045901 -0.020669 -280812.000000 0 0 1
26.416633 -29.377738 8.718989 40.458754 -0.838420 1.353589 0.055058 -0.016436 -264317.000000 0 0 1
25.984533 -27.916398 8.579689 39.091333 -0.821224 1.349517 0.049985 -0.005698 5261.320000 0 0 1
26.537133 -27.125808 9.592889 39.141441 -0.796368 1.323191 0.042093 -0.026229 -77778.200000 0 0 1
26.076733 -25.829878 9.525389 37.919805 -0.780642 1.316878 0.045826 -0.012847 29124.900000 0 0 1
26.724433 -24.976998 10.688489 38.108917 -0.751612 1.286510 0.042578 -0.029706 73055.800000 0 0 1
28.064033 -24.765598 10.341289 38.831264 -0.723044 1.301230 0.050866 -0.025851 -771370.000000 0 0 1
28.814733 -23.918398 11.189689 39.084367 -0.692812 1.280438 0.039343 -0.033138 -375235.000000 0 0 1
30.211233 -23.741698 10.623289 39.865287 -0.666057 1.301058 0.051110 -0.035985 -300838.000000 0 0 1
30.082333 -23.061598 9.375189 39.047128 -0.654051 1.328328 0.068847 -0.034933 -106429.000000 0 0 1
31.378333 -22.728898 8.911489 39.756977 -0.626882 1.344727 0.076513 -0.034335 307499.000000 0 0 1
31.513233 -22.163298 7.505689 39.250873 -0.612938 1.378388 0.083150 -0.012558 -286864.000000 0 0 1
30.958133 -20.880098 7.529589 38.093033 -0.593380 1.371823 0.082849 -0.003819 -14622.600000 0 0 1
31.230033 -20.210998 6.275289 37.725040 -0.574380 1.403677 0.078191 -0.000584 -276640.000000 0 0 1
31.041133 -18.678498 6.204889 36.755120 -0.541693 1.401167 0.094416 -0.005999 115059.000000 0 0 1
31.741833 -17.927198 7.185389 37.155864 -0.514121 1.376185 0.092388 -0.005609 129287.000000 0 0 1
31.458133 -16.555498 6.945089 36.220614 -0.484443 1.377857 0.098633 -0.006423 283594.000000 0 0 1
32.039133 -15.759998 8.149789 36.623799 -0.457145 1.346390 0.094497 -0.030592 -300067.000000 0 0 1
33.431233 -15.759498 8.247589 37.868613 -0.440507 1.351242 0.093789 -0.022169 -498634.000000 0 0 1
33.897833 -15.074398 9.412789 38.274027 -0.418439 1.322316 0.083910 -0.028969 739788.000000 0 0 1
35.455433 -15.090998 9.516189 39.691105 -0.402407 1.328682 0.065326 -0.035323 401267.000000 0 0 1
36.120433 -14.119298 8.768789 39.760934 -0.372633 1.348431 0.070862 -0.019336 43109.600000 0 0 1
-35.062456 -14.318898 8.880089 38.900677 0.387712 1.340490 0.058852 -0.025418 586517.000000 0 0 1
-34.187356 -13.337198 8.035389 37.566257 0.371961 1.355232 0.061311 -0.021729 22388.500000 0 0 1
-34.472756 -13.338498 6.625589 37.552428 0.369187 1.393432 0.084596 -0.024597 262695.000000 0 0 1
-33.485056 -12.730398 5.793789 36.288841 0.363306 1.410453 0.060186 -0.016696 611265.000000 0 0 1
-32.357956 -13.696598 5.276289 35.531301 0.400416 1.421748 0.017364 -0.010037 69839.500000 0 0 1
-31.554956 -14.169698 6.301689 35.159734 0.422062 1.390592 0.035480 -0.007387 -1479400.000000 0 0 1
-30.607856 -15.000098 5.855789 34.585171 0.455675 1.400662 0.036984 -0.000739 -1165790.000000 0 0 1
-30.047056 -15.780298 7.044289 34.662161 0.483593 1.366144 0.033479 -0.007237 -194793.000000 0 0 1
-31.044256 -16.530398 7.719589 36.008220 0.489292 1.354735 0.038801 -0.014678 -286627.000000 0 0 1
-30.913656 -16.690698 9.128689 36.298299 0.495066 1.316576 0.030997 -0.015600 -610511.000000 0 0 1
-31.973056 -17.446698 9.902989 37.745632 0.499512 1.305328 0.017737 -0.022749 -696075.000000 0 0 1
-33.245356 -16.796798 9.984089 38.562523 0.467829 1.308906 0.042161 -0.018108 1284940.000000 0 0 1
-34.258456 -17.390698 10.843589 39.920691 0.469735 1.295712 0.066239 -0.032094 670813.000000 0 0 1
-34.731156 -18.795998 10.459389 40.852681 0.496051 1.311886 0.074603 -0.035508 -1275160.000000 0 0 1
-33.799956 -19.839298 10.538989 40.584542 0.530778 1.308106 0.075494 -0.029447 -555096.000000 0 0 1
-33.442356 -20.216398 11.892889 40.847702 0.543733 1.275366 0.079636 -0.040158 -266356.000000 0 0 1
-34.547456 -20.836098 12.794789 42.324654 0.542707 1.263691 0.105735 -0.051158 -102368.000000 0 0 1
-34.856056 -22.099598 12.304089 43.066547 0.565063 1.281060 0.121262 -0.048202 -362029.000000 0 0 1
-36.206856 -22.325398 12.008589 44.199163 0.552541 1.295645 0.106599 -0.044981 -348337.000000 0 0 1
35.988733 -23.814898 11.919889 44.770772 -0.584579 1.301303 0.103498 -0.038987 -126353.000000 0 0 1
36.196733 -24.470598 13.162789 45.631926 -0.594467 1.278183 0.126951 -0.037305 -1638.440000 0 0 1
35.607233 -25.715188 13.188589 45.859403 -0.625464 1.279089 0.103637 -0.028704 -600197.000000 0 0 1
34.341133 -25.686478 14.047889 45.127062 -0.642207 1.254239 0.098454 -0.029833 246221.000000 0 0 1
33.288433 -24.903498 13.436789 43.690403 -0.642292 1.258184 0.083515 -0.037361 -279342.000000 0 0 1
32.221333 -24.700898 14.281189 43.038367 -0.654041 1.232559 0.053866 -0.021238 -1040900.000000 0 0 1
31.864333 -23.221098 14.630589 42.054836 -0.629761 1.215473 0.064342 -0.022836 43918.300000 0 0 1
32.831933 -22.595298 15.448589 42.745084 -0.602770 1.201014 0.082260 -0.026600 -526389.000000 0 0 1
33.967933 -22.162598 14.775889 43.166284 -0.578100 1.221431 0.079482 -0.035565 -541705.000000 0 0 1
34.995733 -21.436598 15.704389 43.941517 -0.549596 1.205321 0.081645 -0.037196 66967.200000 0 0 1
34.636533 -20.162698 16.216189 43.234114 -0.527170 1.186315 0.099513 -0.030289 -274421.000000 0 0 1
33.453533 -20.017398 16.940789 42.506769 -0.539216 1.160868 0.081031 -0.028492 -351946.000000 0 0 1
33.516633 -18.667498 17.694589 42.248534 -0.508173 1.138649 0.092143 -0.010828 -233246.000000 0 0 1
33.355333 -17.448798 16.962089 41.288633 -0.481971 1.147446 0.062607 -0.015827 104951.000000 0 0 1
33.435833 -16.284598 17.754089 41.211051 -0.453226 1.125407 0.049216 -0.004541 -332673.000000 0 0 1
34.831433 -15.824598 18.194989 42.363950 -0.426440 1.126866 0.054216 -0.014577 -600264.000000 0 0 1
35.297733 -16.449798 19.345789 43.483162 -0.436104 1.109730 0.047712 -0.007373 -130785.000000 0 0 1
-36.220256 -15.702898 19.884589 44.202769 0.409081 1.104200 0.060700 -0.008397 -183588.000000 0 0 1
-35.951056 -16.017098 21.389189 44.794232 0.419126 1.072991 0.056885 -0.002211 -420887.000000 0 0 1
-35.033556 -17.027898 21.644989 44.562371 0.452422 1.063606 0.068910 -0.002385 -290231.000000 0 0 1
-34.714456 -17.018998 23.026989 44.999800 0.455823 1.033619 0.065799 -0.004376 123784.000000 0 0 1
-33.642856 -18.060398 23.398689 44.783014 0.492673 1.021027 0.060356 -0.000421 -689692.000000 0 0 1
-34.198456 -19.376798 23.278589 45.682463 0.515498 1.036107 0.049194 -0.001531 885392.000000 0 0 1
-33.253856 -20.392498 23.582289 45.582862 0.550096 1.027045 0.035172 -0.001618 655087.000000 0 0 1
-31.871256 -20.584098 22.903489 44.317625 0.573453 1.027684 0.033569 0.010442 270759.000000 0 0 1
-30.895256 -19.571598 22.962589 43.183849 0.564676 1.010142 0.046772 0.017190 -80978.000000 0 0 1
-29.767456 -20.003598 22.234589 42.197421 0.591683 1.015826 0.050537 0.001877 254314.000000 0 0 1
-28.542856 -19.042598 22.263389 40.902001 0.588343 0.995229 0.070545 0.005027 126304.000000 0 0 1
-27.854556 -18.936698 23.468389 41.051676 0.597069 0.962245 0.055771 0.008391 319685.000000 0 0 1
-26.863056 -17.904298 23.423989 39.885723 0.587889 0.943105 0.075876 0.004234 -1029.720000 0 0 1
-26.276056 -17.678798 24.811789 40.231777 0.592244 0.906226 0.060771 -0.014865 -730295.000000 0 0 1
-25.501256 -16.487798 24.910489 39.277143 0.573945 0.883793 0.065276 -0.018931 347600.000000 0 0 1
-24.968056 -16.271998 26.221089 39.695431 0.577578 0.849236 0.066428 -0.023173 76274.400000 0 0 1
-24.009156 -17.253898 26.920189 39.985412 0.623126 0.832201 0.049563 -0.015031 -494429.000000 0 0 1
-24.575756 -18.529898 27.234689 41.098092 0.646050 0.846411 0.057170 -0.008901 206934.000000 0 0 1
-23.706156 -19.244698 28.131089 41.517447 0.681896 0.826339 0.059610 -0.015858 241833.000000 0 0 1
-24.381956 -20.476098 28.807189 42.937216 0.698546 0.835355 0.062100 -0.007486 -326533.000000 0 0 1
-25.286456 -20.178398 29.827289 44.002725 0.673516 0.825961 0.048857 -0.007091 -94268.900000 0 0 1
-25.604956 -21.353498 30.564089 45.229959 0.695108 0.828816 0.035857 -0.001972 -440702.000000 0 0 1
-26.832456 -21.090798 31.450789 46.410716 0.666157 0.826217 0.028022 -0.003248 -801920.000000 0 0 1
-26.635356 -20.217198 32.533189 46.653892 0.649259 0.799130 0.040686 -0.013214 168873.000000 0 0 1
-27.651556 -20.337198 33.519389 47.976657 0.634144 0.797273 0.041685 -0.011285 -106733.000000 0 0 1
-28.915456 -19.511998 33.213389 48.165868 0.593609 0.809911 0.034534 -0.018675 -1042310.000000 0 0 1
-29.729656 -20.140698 32.316589 48.310062 0.595439 0.838013 0.031040 -0.013654 -1580980.000000 0 0 1
-30.984356 -19.593898 32.318889 48.871891 0.563889 0.848248 0.030501 -0.022229 -1169520.000000 0 0 1
-31.985256 -20.269498 31.369289 49.172568 0.564841 0.878972 0.029936 0.003253 -409383.000000 0 0 1
-32.027556 -19.732498 30.029489 48.134250 0.552181 0.897112 0.031862 -0.013481 265646.000000 0 0 1
-33.032556 -20.334598 29.246289 48.579739 0.551806 0.924760 0.030378 -0.016138 -86848.100000 0 0 1
-33.382256 -19.568498 27.984289 47.753760 0.530207 0.944668 0.023666 -0.008941 -207991.000000 0 0 1
-34.608456 -19.963598 27.419989 48.457675 0.523217 0.969327 0.004651 -0.009671 -29662.000000 0 0 1
-35.280456 -18.910798 26.786189 48.164601 0.492042 0.981064 0.030629 -0.002886 -990159.000000 0 0 1
36.182633 -19.445298 25.958889 48.591835 -0.493134 1.007208 0.016679 -0.003839 -1138440.000000 0 0 1
35.062833 -19.823098 26.711489 48.330747 -0.514559 0.985218 0.015160 -0.002576 -112984.000000 0 0 1
34.047433 -20.408798 25.921089 47.409383 -0.539995 0.992318 0.040325 0.000292 -94772.000000 0 0 1
32.684833 -20.558998 26.587689 46.881509 -0.561476 0.967785 0.036800 -0.004349 220716.000000 0 0 1
31.951933 -19.384198 27.050789 46.134784 -0.545308 0.944260 0.032406 -0.014678 620589.000000 0 0 1
30.800733 -19.705398 27.787689 45.925413 -0.569150 0.920953 0.033316 -0.008574 -118403.000000 0 0 1
-31.293847 -6.037498 33.948162 46.564299 0.190588 0.753849 0.018072 0.004697 -314937.000000 0 0 1
-31.569087 -5.961298 32.606242 45.774571 0.186636 0.777995 0.011750 0.008831 201524.000000 0 0 1
-30.817687 -4.934898 31.933207 44.652131 0.158784 0.773950 0.033812 0.008224 167314.000000 0 0 1
-31.343987 -4.592498 30.488437 43.966821 0.145484 0.804541 0.025980 0.001590 -14485.600000 0 0 1
-31.067987 -5.587898 29.506227 43.209511 0.177958 0.819120 0.018957 -0.000781 87714.000000 0 0 1
-29.718937 -5.576798 29.068957 41.944251 0.185494 0.805102 0.037739 -0.010305 188465.000000 0 0 1
-29.364197 -6.664998 28.030507 41.138639 0.223195 0.821168 0.047720 -0.021772 126034.000000 0 0 1
-30.054037 -6.485898 26.808497 40.792249 0.212548 0.853704 0.029026 -0.020583 212634.000000 0 0 1
-29.577277 -7.459098 25.888127 40.008107 0.247039 0.867058 0.039852 -0.018853 -28621.300000 0 0 1
-30.250657 -7.215498 24.591967 39.647579 0.234149 0.901717 0.023918 -0.017340 -314244.000000 0 0 1
-29.814217 -5.995598 23.996237 38.738277 0.198452 0.902761 0.047162 -0.011930 115581.000000 0 0 1
-30.712447 -5.488598 23.027127 38.776639 0.176842 0.934973 0.053609 -0.015229 -34789.100000 0 0 1
-30.219637 -4.148298 22.504127 37.906076 0.136419 0.935170 0.069179 -0.018630 142991.000000 0 0 1
-29.100807 -4.198898 21.637427 36.505698 0.143299 0.936372 0.091956 -0.012821 45355.900000 0 0 1
-28.728177 -2.901798 21.183127 35.811360 0.100667 0.937854 0.096974 -0.012554 -293223.000000 0 0 1
-27.266027 -2.761598 20.760427 34.381070 0.100939 0.922495 0.091347 -0.008642 -210788.000000 0 0 1
-26.907317 -3.507498 19.590427 33.467762 0.129624 0.945482 0.101912 -0.008051 -953070.000000 0 0 1
-25.642257 -3.218898 19.133127 32.155298 0.124878 0.933503 0.080103 -0.007372 -1097010.000000 0 0 1
-25.409837 -3.704598 17.675127 31.173611 0.144774 0.967949 0.086118 -0.017326 89410.100000 0 0 1
-26.170567 -3.101098 16.610227 31.151485 0.117946 1.008408 0.103023 -0.013139 712090.000000 0 0 1
-25.658657 -3.587598 15.334027 30.105978 0.138920 1.036385 0.107683 -0.018734 208160.000000 0 0 1
-26.762297 -3.807798 14.267627 30.566077 0.141334 1.085150 0.109813 -0.023438 56573.200000 0 0 1
-27.281837 -2.572198 13.826727 30.693537 0.094005 1.103497 0.123850 -0.026973 -788552.000000 0 0 1
-28.565797 -2.780598 13.373127 31.663497 0.097034 1.134758 0.111913 -0.027389 -554422.000000 0 0 1
-29.235847 -1.613398 12.575627 31.866663 0.055130 1.165128 0.120127 -0.020490 -70328.500000 0 0 1
-28.449177 -1.394298 11.431627 30.691723 0.048971 1.189131 0.138375 -0.025252 225922.000000 0 0 1
-28.903787 -0.305298 10.657327 30.807479 0.010562 1.217563 0.133231 -0.024564 -463057.000000 0 0 1
-30.214977 -0.524598 9.910927 31.803247 0.017360 1.253886 0.114292 -0.020998 -403325.000000 0 0 1
-30.085127 -1.328298 8.787627 31.370394 0.044123 1.286872 0.104738 -0.019777 552450.000000 0 0 1
-31.361377 -1.495098 8.154527 32.438675 0.047637 1.316688 0.092888 -0.015491 651223.000000 0 0 1
-31.276417 -2.445398 6.948627 32.132190 0.078028 1.352823 0.087180 -0.018842 -217208.000000 0 0 1
-30.817087 -1.732498 5.745527 31.395947 0.056160 1.386757 0.092115 -0.023253 323077.000000 0 0 1
-31.767217 -0.918098 5.085227 32.184756 0.028893 1.412130 0.093907 -0.019733 -428165.000000 0 0 1
-31.273257 -0.291198 3.765327 31.500462 0.009311 1.450977 0.102525 -0.025261 -438017.000000 0 0 1
-31.853797 -0.808098 2.617327 31.971359 0.025364 1.488840 0.092357 -0.026185 32404.100000 0 0 1
-31.277027 -0.292498 1.472827 31.313052 0.009352 1.523743 0.086044 -0.034254 -276912.000000 0 0 1
-31.885377 -0.911698 0.162227 31.898821 0.028585 1.565711 0.071700 -0.024761 468853.000000 0 0 1
-33.207847 -0.396398 0.017527 33.210218 0.011936 1.570269 0.081513 -0.023055 590664.000000 0 0 1
-33.816247 -0.915598 -1.169673 33.848856 0.027069 1.605359 0.084280 -0.028249 220170.000000 0 0 1
-35.360323 -0.842198 -1.222673 35.391478 0.023813 1.605350 0.095388 -0.029304 68505.400000 0 0 1
-36.070207 -1.740598 -0.405873 36.114461 0.048218 1.582035 0.087695 -0.024590 -340309.000000 0 0 1
35.159101 -1.396298 -0.312473 35.188204 -0.039693 1.579676 0.089781 -0.020569 -414782.000000 0 0 1
34.362801 -2.535998 0.371427 34.458255 -0.073667 1.560017 0.091620 -0.027594 -332256.000000 0 0 1
34.647501 -2.683098 1.746727 34.795106 -0.077286 1.520575 0.086040 -0.029499 184873.000000 0 0 1
34.083791 -3.885598 2.235627 34.377329 -0.113511 1.505718 0.079766 -0.022749 -88078.500000 0 0 1
34.226471 -4.117098 3.770227 34.678761 -0.119715 1.461862 0.082357 -0.024975 209711.000000 0 0 1
33.455481 -3.243598 4.597927 33.925375 -0.096651 1.434847 0.078586 -0.021415 266276.000000 0 0 1
33.323881 -3.675098 5.908827 34.042645 -0.109840 1.396341 0.077752 -0.024064 63616.200000 0 0 1
32.699841 -2.563398 6.801227 33.497871 -0.078232 1.366340 0.077373 -0.017698 -188458.000000 0 0 1
31.344131 -2.316198 6.537827 32.102376 -0.073762 1.365706 0.067211 -0.018565 -338370.000000 0 0 1
30.940621 -1.203998 7.311027 31.815449 -0.038894 1.338929 0.073757 -0.018743 1106210.000000 0 0 1
29.403561 -1.268498 7.691627 30.419396 -0.043114 1.315169 0.069816 -0.008900 616714.000000 0 0 1
28.514051 -0.957098 6.636627 29.291842 -0.033553 1.342243 0.074604 -0.019431 786815.000000 0 0 1
27.139521 -1.077598 7.027627 28.055345 -0.039685 1.317608 0.075750 -0.008235 708111.000000 0 0 1
26.518521 -2.494698 7.055927 27.554339 -0.093798 1.311839 0.089928 -0.021210 -1326750.000000 0 0 1
26.979321 -3.416798 8.046327 28.360213 -0.125974 1.283126 0.077177 -0.020795 443624.000000 0 0 1
26.400821 -4.704898 7.855027 27.943530 -0.176359 1.285852 0.091867 -0.035074 -329840.000000 0 0 1
26.773621 -5.732898 8.916227 28.795695 -0.210940 1.255985 0.087532 -0.032098 -272096.000000 0 0 1
25.942621 -5.614498 10.069627 28.389075 -0.213133 1.208202 0.090731 -0.026795 503681.000000 0 0 1
26.270821 -6.506498 11.112527 29.257116 -0.242785 1.181191 0.086678 -0.023454 -702307.000000 0 0 1
25.388821 -6.528198 12.342427 28.974905 -0.251677 1.130763 0.092096 -0.028158 -564989.000000 0 0 1
24.152921 -7.111298 12.018927 27.899620 -0.286337 1.125426 0.099858 -0.033157 -706778.000000 0 0 1
23.181621 -6.782298 12.964927 27.413071 -0.284628 1.078164 0.113401 -0.035163 -439108.000000 0 0 1
21.965121 -7.688598 12.874927 26.595956 -0.336708 1.065470 0.104063 -0.045425 -523713.000000 0 0 1
22.280721 -9.018698 13.268727 27.455903 -0.384617 1.066406 0.092630 -0.041635 134560.000000 0 0 1
21.173221 -9.891098 13.459327 26.968363 -0.437025 1.048261 0.118156 -0.062758 -190885.000000 0 0 1
21.540221 -11.129598 14.326327 28.161902 -0.476910 1.037107 0.112182 -0.052736 -573975.000000 0 0 1
21.845421 -10.760098 15.659127 28.951864 -0.457675 0.999328 0.105677 -0.041309 212061.000000 0 0 1
22.184021 -11.870598 16.495727 30.085726 -0.491329 0.990477 0.099107 -0.029064 -150742.000000 0 0 1
21.937621 -11.598698 18.010627 30.662220 -0.486353 0.942968 0.096019 -0.022047 295428.000000 0 0 1
20.562621 -11.695798 18.354227 29.941455 -0.517154 0.910939 0.087509 -0.016615 169922.000000 0 0 1
20.376321 -12.038298 19.747627 30.823431 -0.533626 0.875427 0.089669 -0.003654 189677.000000 0 0 1
20.735021 -11.002398 20.867427 31.407696 -0.487842 0.844099 0.072087 0.000014 228224.000000 0 0 1
19.814221 -9.913998 21.072727 30.576961 -0.463926 0.810453 0.056167 0.000672 323558.000000 0 0 1
20.188721 -8.723798 20.310527 29.936711 -0.407880 0.825147 0.071243 0.000474 -1334600.000000 0 0 1
21.235421 -7.704998 20.896927 30.773230 -0.348065 0.824312 0.066150 0.006156 1524960.000000 0 0 1
22.595021 -8.173598 21.013127 31.920122 -0.347098 0.852234 0.062190 0.003744 863927.000000 0 0 1
23.160221 -8.415998 19.756427 31.583877 -0.348546 0.894995 0.073377 -0.008202 -1337220.000000 0 0 1
24.584921 -9.017198 19.870927 32.872207 -0.351543 0.921671 0.078003 -0.009723 93857.400000 0 0 1
24.495321 -10.399598 20.198527 33.408875 -0.401493 0.921551 0.060839 -0.004770 521692.000000 0 0 1
25.768521 -11.014898 20.046227 34.455709 -0.403949 0.949860 0.058380 -0.010680 392131.000000 0 0 1
25.610121 -12.518498 20.359427 35.029950 -0.454656 0.950593 0.025102 -0.000196 -111862.000000 0 0 1
24.798621 -13.124698 19.373427 34.096320 -0.486774 0.966483 0.062113 -0.011032 175691.000000 0 0 1
24.729721 -14.487998 19.641327 34.745402 -0.529953 0.970008 0.042157 -0.003008 -97268.500000 0 0 1
23.732121 -15.127798 18.670927 33.773768 -0.567495 0.985048 0.073229 -0.004396 -268008.000000 0 0 1
24.219521 -15.146098 17.331627 33.412196 -0.558863 1.025441 0.052232 -0.003396 573199.000000 0 0 1
23.307921 -15.693398 16.362727 32.515854 -0.592586 1.043472 0.045666 -0.008584 101021.000000 0 0 1
23.056621 -17.185398 16.425827 33.117269 -0.640523 1.051822 0.037864 -0.013733 199311.000000 0 0 1
24.260921 -17.921398 16.243227 34.258010 -0.636226 1.076805 0.028447 -0.005614 506911.000000 0 0 1
24.038521 -19.263798 16.667627 35.025051 -0.675577 1.074835 0.034204 0.000367 -384072.000000 0 0 1
25.232421 -20.127398 16.320527 36.168313 -0.673325 1.102644 0.018891 0.004801 -457302.000000 0 0 1
25.266821 -20.355698 14.916027 35.710707 -0.678164 1.139894 0.017372 -0.008082 107793.000000 0 0 1
25.981121 -21.547598 14.649427 36.795698 -0.692386 1.161320 0.010530 -0.019273 -237516.000000 0 0 1
26.451621 -21.539698 13.203027 36.578229 -0.683403 1.201507 0.009192 -0.030070 97116.000000 0 0 1
25.389221 -21.801098 12.287927 35.649595 -0.709509 1.218892 0.013760 -0.017412 598984.000000 0 0 1
25.850321 -21.622498 10.941127 35.432751 -0.696575 1.256880 0.031438 -0.015926 -172822.000000 0 0 1
24.728221 -21.705498 9.901127 34.360528 -0.720392 1.278498 0.014614 -0.010891 -115101.000000 0 0 1
24.094121 -22.966698 9.880927 34.722164 -0.761446 1.282237 0.017991 -0.011023 283016.000000 0 0 1
22.671521 -22.891098 9.855427 33.691686 -0.790217 1.273937 0.006005 0.008778 410928.000000 0 0 1
22.212921 -23.832698 8.750927 33.734109 -0.820561 1.308386 0.013635 0.013796 -836732.000000 0 0 1
22.506021 -25.179398 8.993727 34.948680 -0.841402 1.310527 0.019439 0.013052 42100.100000 0 0 1
22.109021 -26.040628 7.946627 35.072383 -0.866871 1.342234 0.030727 0.017371 -267274.000000 0 0 1
20.609421 -26.315978 7.746827 34.311693 -0.906413 1.343055 0.027029 0.031178 -361907.000000 0 0 1
19.859521 -25.171078 7.424127 32.910507 -0.902810 1.343253 0.020283 0.028400 -386740.000000 0 0 1
18.501921 -25.432938 7.730127 32.386885 -0.941865 1.329789 0.036101 0.014110 -68927.300000 0 0 1
17.612721 -24.202298 7.728027 30.914100 -0.941701 1.318133 0.032062 0.008066 -251838.000000 0 0 1
17.292021 -23.624998 6.450627 29.979412 -0.938956 1.353932 0.039781 0.016743 -138271.000000 0 0 1
16.435721 -22.541698 6.535527 28.652648 -0.940789 1.340676 0.043248 0.003891 -321879.000000 0 0 1
16.066221 -21.868498 5.133727 27.617202 -0.937176 1.383820 0.045841 0.011904 -172585.000000 0 0 1
15.235421 -20.745898 5.195527 26.258406 -0.937366 1.371621 0.066359 0.002858 -86128.900000 0 0 1
15.113321 -20.173498 3.923927 25.510385 -0.927828 1.416366 0.068366 0.003720 442733.000000 0 0 1
14.419221 -18.785898 3.973027 24.012681 -0.916154 1.404577 0.089486 -0.003079 659147.000000 0 1 0
15.378321 -17.827298 4.392427 23.949922 -0.859017 1.386352 0.064795 -0.001019 373234.000000 0 1 0
14.718721 -16.615698 4.620927 22.673226 -0.845864 1.365553 0.054705 -0.000874 -419689.000000 0 1 0
15.630121 -15.427698 4.698227 22.458582 -0.778881 1.360044 0.040391 -0.002376 -1134380.000000 0 1 0
16.420621 -15.465398 5.861127 23.305968 -0.755450 1.316581 0.067036 -0.010952 -315513.000000 0 1 0
17.410021 -14.494898 5.845227 23.396102 -0.694282 1.318284 0.055374 -0.014867 -1317610.000000 0 1 0
18.756721 -14.809298 5.282527 24.475192 -0.668334 1.353253 0.069050 -0.019225 -1613840.000000 0 1 0
19.660621 -13.743498 5.512227 24.613176 -0.610079 1.344926 0.070797 -0.024652 -4496.810000 0 1 0
20.962521 -14.265698 5.277427 25.899589 -0.597541 1.365594 0.065599 -0.015095 426660.000000 0 0 1
21.971121 -13.046898 5.383127 26.113785 -0.535863 1.363167 0.068342 -0.022800 -27008.100000 0 0 1
21.908921 -12.230598 6.564127 25.936001 -0.509153 1.314924 0.088029 -0.033898 122874.000000 0 0 1
22.863421 -11.205398 6.636927 26.312465 -0.455698 1.315807 0.085435 -0.034619 -186752.000000 0 0 1
22.810621 -10.514998 8.077327 26.384330 -0.431939 1.259660 0.097542 -0.041159 23682.000000 0 0 1
23.533021 -11.296798 9.032727 27.622652 -0.447553 1.237664 0.094147 -0.042713 557299.000000 0 0 1
23.539921 -10.643398 10.287527 27.807248 -0.424634 1.191832 0.113803 -0.046428 -283652.000000 0 0 1
24.068621 -11.615898 11.301327 29.016334 -0.449644 1.170728 0.088407 -0.037893 -632426.000000 0 0 1
23.314221 -12.768098 11.490827 28.958874 -0.501039 1.162770 0.088848 -0.042582 -164854.000000 0 0 1
23.758321 -13.515598 12.499027 30.055863 -0.517222 1.141908 0.082664 -0.039477 -881719.000000 0 0 1
22.806721 -14.647598 12.760527 29.958801 -0.570907 1.130800 0.056271 -0.031571 381957.000000 0 0 1
21.570421 -14.200098 13.351127 29.071953 -0.582197 1.093652 0.063500 -0.039669 1158110.000000 0 0 1
20.583321 -15.251398 13.434027 28.926655 -0.637690 1.087820 0.054718 -0.028766 1285290.000000 0 0 1
19.183221 -14.735198 13.943227 27.920165 -0.655003 1.047895 0.057623 -0.031456 274871.000000 0 0 1
19.220121 -14.162498 15.228727 28.317902 -0.635037 1.002998 0.063440 -0.035270 -98786.300000 0 0 1
18.740421 -12.901498 15.361227 27.452128 -0.602920 0.976937 0.076085 -0.046037 -659242.000000 0 0 1
17.210521 -12.742398 15.442627 26.401619 -0.637319 0.946025 0.071869 -0.043999 -418846.000000 0 0 1
16.520021 -12.831198 14.211527 25.288698 -0.660375 0.974029 0.073022 -0.055428 1437320.000000 0 0 1
15.073021 -12.891998 14.324027 24.465840 -0.707565 0.945336 0.084268 -0.045785 1309900.000000 0 1 0
14.370921 -11.552398 14.150127 23.242362 -0.677098 0.916240 0.059708 -0.045511 -664300.000000 0 1 0
14.633221 -10.702098 15.193727 23.654078 -0.631462 0.873262 0.046930 -0.030829 169703.000000 0 1 0
14.475121 -9.387898 14.824827 22.747248 -0.575358 0.860947 0.039835 -0.032988 -694322.000000 0 1 0
14.877421 -8.390098 15.902627 23.337201 -0.513489 0.821084 0.041053 -0.026746 -167822.000000 0 1 0
16.269321 -8.251898 16.021827 24.279283 -0.469396 0.850115 0.041235 -0.037181 -439511.000000 0 1 0
16.886221 -9.053698 16.961027 25.588872 -0.492155 0.846207 0.065477 -0.031853 145434.000000 0 0 1
18.430021 -9.050498 16.698127 26.465159 -0.456481 0.888022 0.081506 -0.035125 595586.000000 0 0 1
19.022921 -7.798398 17.027327 26.694876 -0.389052 0.879093 0.068631 -0.031179 1300460.000000 0 0 1
20.414221 -7.750398 16.616427 27.439292 -0.362847 0.920314 0.067174 -0.028621 1241580.000000 0 0 1
21.071021 -6.364798 16.878527 27.737759 -0.293349 0.916623 0.054411 -0.015111 -88471.700000 0 0 1
21.624421 -6.215998 18.163127 28.916318 -0.279906 0.891652 0.073142 -0.015463 162645.000000 0 0 1
21.695621 -4.811898 18.462727 28.891636 -0.218258 0.877555 0.081453 -0.020372 63711.900000 0 0 1
-5.501167 -33.065834 -6.619011 34.167580 1.405936 1.765751 0.036690 -0.012066 -162578.000000 0 0 1
-5.877967 -31.681234 -6.553111 32.881520 1.387348 1.771434 0.026128 -0.019447 209519.000000 0 0 1
-5.811967 -31.185934 -5.210011 32.147872 1.386545 1.733578 0.018481 -0.010444 -532391.000000 0 0 1
-6.459267 -29.733234 -5.187411 30.865783 1.356879 1.739661 0.022362 -0.006328 1174800.000000 0 0 1
-7.860167 -29.704434 -4.885411 31.112744 1.312113 1.728472 0.023733 -0.004758 674375.000000 0 0 1
-8.708467 -30.114834 -5.933711 31.905322 1.289300 1.757864 0.022094 -0.012532 -551993.000000 0 0 1
-10.208067 -29.913234 -5.667811 32.111217 1.241933 1.748232 0.028384 -0.008156 -408896.000000 0 0 1
-11.037667 -30.548934 -6.552411 33.136107 1.224081 1.769851 0.025799 -0.014851 -677047.000000 0 0 1
-12.397067 -30.437134 -6.180411 33.441051 1.184012 1.756680 0.033518 -0.013101 -241579.000000 0 0 1
-13.324467 -30.908734 -7.271511 34.434955 1.163778 1.783565 0.042968 -0.015666 -372854.000000 0 0 1
-13.355767 -30.085134 -8.407911 33.973295 1.153000 1.820881 0.057918 -0.022475 28558.300000 0 0 1
-14.303267 -30.614434 -9.308711 35.049667 1.133726 1.839608 0.063541 -0.024501 63718.700000 0 0 1
-14.403967 -29.708934 -10.569911 34.667248 1.119353 1.880626 0.083921 -0.026492 -392149.000000 0 0 1
-14.896267 -28.405134 -10.461411 33.737094 1.087803 1.886080 0.082652 -0.027184 -115153.000000 0 0 1
-13.951667 -27.463434 -10.023211 32.393734 1.100762 1.885377 0.072809 -0.022358 -141185.000000 0 0 1
-14.536567 -26.039834 -9.751411 31.376341 1.061646 1.886819 0.066359 -0.006501 2563.220000 0 0 1
-14.895467 -25.329534 -10.870611 31.330982 1.039197 1.925125 0.078156 -0.016466 -105030.000000 0 0 1
-15.361967 -24.084934 -10.480811 30.428958 1.003028 1.922434 0.062670 0.000429 -397311.000000 0 0 1
-16.138967 -23.326134 -11.585811 30.639938 0.965538 1.958569 0.063762 -0.000021 -151423.000000 0 0 1
-17.330167 -24.029234 -11.903411 31.928514 0.945976 1.952837 0.067248 -0.015021 -232062.000000 0 0 1
-17.841267 -23.445234 -13.059111 32.226235 0.920307 1.988029 0.071095 -0.012583 -53581.300000 0 0 1
-19.331867 -23.789734 -13.405911 33.457301 0.888411 1.983063 0.062012 -0.002448 593746.000000 0 0 1
-19.586967 -25.094634 -13.816311 34.702743 0.908044 1.980277 0.090434 -0.006832 -48120.700000 0 0 1
-19.522867 -26.007134 -12.759311 34.932984 0.926864 1.944699 0.104797 -0.010580 -1486630.000000 0 0 1
-19.565967 -27.501734 -13.225911 36.250478 0.952430 1.944266 0.110732 -0.020546 368191.000000 0 0 1
-18.500767 -28.062534 -13.996811 36.410094 0.987932 1.965377 0.118675 -0.024529 -310287.000000 0 0 1
-17.202067 -27.763534 -13.586411 35.373938 1.016095 1.965007 0.114633 -0.030375 -1352790.000000 0 0 1
-16.288267 -28.879034 -14.071511 36.018241 1.057255 1.972164 0.100986 -0.026837 -556914.000000 0 0 1
-16.358467 -29.065234 -15.460611 36.761635 1.058165 2.004863 0.104232 -0.036343 -74990.500000 0 0 1
-15.586267 -30.125834 -16.020211 37.511928 1.093348 2.012046 0.094221 -0.030028 83610.900000 0 0 1
-16.099167 -31.579934 -15.812711 38.813880 1.099347 1.990400 0.091679 -0.027804 -142845.000000 0 0 1
-16.128767 -31.906234 -14.415911 38.548196 1.102754 1.954083 0.090915 -0.025909 87214.100000 0 0 1
-16.537467 -33.253934 -14.158011 39.746210 1.109304 1.935005 0.071080 -0.015934 -1218220.000000 0 0 1
-16.877367 -33.371134 -12.695611 39.492489 1.102561 1.898077 0.086856 -0.019277 -80629.900000 0 0 1
-18.174467 -33.007334 -12.241211 39.618715 1.067478 1.884912 0.105257 -0.019957 433212.000000 0 0 1
-18.643367 -31.666534 -12.424111 38.790502 1.038697 1.896829 0.117147 -0.026654 -500315.000000 0 0 1
-18.208467 -30.657134 -11.399911 37.434825 1.034845 1.880238 0.115827 -0.029582 -414735.000000 0 0 1
-18.642967 -30.911734 -10.071311 37.477017 1.028098 1.842874 0.121937 -0.033828 106230.000000 0 0 1
-18.171367 -29.940234 -9.225311 36.217711 1.025303 1.828353 0.112238 -0.031094 -166484.000000 0 0 1
-18.392667 -30.257134 -7.675511 36.231172 1.024604 1.784262 0.128224 -0.037167 -7851.160000 0 0 1
-17.552567 -31.273734 -7.187811 36.575999 1.059352 1.768601 0.110410 -0.036317 46594.400000 0 0 1
-17.680567 -31.300334 -5.771211 36.409068 1.056610 1.729978 0.112448 -0.045481 -98347.100000 0 0 1
-17.044267 -32.510934 -5.025711 37.050312 1.087928 1.706861 0.097278 -0.034352 620281.000000 0 0 1
-15.689167 -32.381934 -4.598811 36.275180 1.119622 1.697914 0.089506 -0.028573 472287.000000 0 0 1
-15.563167 -31.818834 -3.308511 35.575225 1.115892 1.663931 0.074719 -0.032292 1434.600000 0 0 1
-14.165167 -31.235834 -3.012111 34.429669 1.145043 1.658394 0.071797 -0.031563 729836.000000 0 0 1
-13.048267 -32.122334 -2.867811 34.789739 1.184952 1.653323 0.024660 -0.021415 410536.000000 0 0 1
-11.899667 -31.430434 -2.366111 33.690841 1.208870 1.641084 0.029857 -0.019882 952854.000000 0 0 1
-10.597767 -32.250634 -2.597811 34.046508 1.253306 1.647172 0.039712 -0.023194 -684904.000000 0 0 1
-10.787967 -33.476134 -1.875011 35.221406 1.259046 1.624056 0.040963 -0.017269 150322.000000 0 0 1
-9.648667 34.215102 -1.650811 35.587851 -1.295934 1.617200 0.057045 -0.021570 -134149.000000 0 0 1
-8.501967 -33.613634 -0.929611 34.684637 1.323060 1.597601 0.053162 -0.017919 -1314530.000000 0 0 1
-8.980667 -33.079334 0.297289 34.278026 1.305697 1.562123 0.061121 -0.018349 129659.000000 0 0 1
-8.003667 -32.528534 1.188489 33.519796 1.329538 1.535333 0.057437 -0.015713 243229.000000 0 0 1
-7.006967 -33.521634 1.791889 34.292979 1.364735 1.518520 0.067059 -0.010996 -306102.000000 0 0 1
-7.630667 34.002102 2.641089 34.947752 -1.350036 1.495152 0.085693 -0.022498 72470.700000 0 0 1
-6.778567 33.040102 3.237689 33.883328 -1.368442 1.475096 0.078599 -0.021984 -55758.100000 0 0 1
-6.074467 33.490402 4.545089 34.338957 -1.391368 1.438047 0.075440 -0.020225 -393535.000000 0 0 1
-4.975467 -34.223734 4.378089 34.859531 1.426427 1.444871 0.068403 -0.014168 -569794.000000 0 0 1
-4.435567 -33.683034 5.565889 34.426736 1.439864 1.408410 0.058866 -0.017756 -4709.570000 0 0 1
-3.367267 -32.587534 5.378189 33.199560 1.467832 1.408084 0.052158 -0.009293 -219576.000000 0 0 1
-3.707067 -31.372634 4.727689 31.942692 1.453179 1.422245 0.043641 -0.004059 1370.270000 0 0 1
-3.832067 -31.535834 3.298289 31.938570 1.449874 1.467342 0.039058 -0.009360 -157601.000000 0 0 1
-4.265867 -30.191734 2.649389 30.606497 1.430433 1.484125 0.046318 -0.010370 -188079.000000 0 0 1
-3.332567 -29.179234 2.877189 29.509522 1.457079 1.473141 0.041904 -0.007658 -256053.000000 0 0 1
-3.572367 -28.046334 2.076389 28.349075 1.444105 1.497487 0.039559 -0.010014 174747.000000 0 0 1
-2.936367 -26.698434 2.521489 26.977519 1.461254 1.477193 0.043686 -0.017313 -44966.300000 0 0 1
-3.325767 -25.570234 1.740089 25.844255 1.441458 1.503416 0.047319 -0.024089 -255295.000000 0 0 1
-3.135267 -24.348134 2.423689 24.668518 1.442733 1.472387 0.036961 -0.021138 667390.000000 0 1 0
-4.289667 -24.034834 3.466089 24.659446 1.394179 1.429771 0.029609 -0.020423 446973.000000 0 1 0
-4.279067 -24.888734 4.588789 25.667421 1.400533 1.391051 0.041580 -0.020150 207784.000000 0 0 1
-5.106167 -24.190834 5.542589 25.337515 1.362771 1.350263 0.018476 -0.015450 -94030.000000 0 0 1
-5.890267 -25.130034 6.405589 26.594086 1.340561 1.327539 0.020682 -0.015865 -1195810.000000 0 0 1
-5.079067 -25.790434 7.312689 27.284040 1.376349 1.299458 0.030854 -0.017345 -67203.800000 0 0 1
-5.750467 -26.681334 8.258889 28.516148 1.358519 1.276965 0.027343 -0.018058 413709.000000 0 0 1
-4.811267 -27.161834 9.419989 29.148751 1.395481 1.241719 0.019350 -0.015584 300962.000000 0 0 1
-4.448067 -26.163834 10.410789 28.508175 1.402398 1.196964 0.021410 -0.017128 467131.000000 0 0 1
-5.542667 -25.551534 11.135489 28.418324 1.357185 1.168164 0.025188 -0.014752 595080.000000 0 0 1
-5.077167 -24.654334 12.312489 28.021620 1.367702 1.115874 0.022945 -0.013108 186712.000000 0 0 1
-4.351967 -25.381434 13.281289 28.974980 1.400985 1.094635 0.027719 -0.016035 -396674.000000 0 0 1
-3.656367 -24.510434 14.099589 28.511906 1.422712 1.053519 0.021094 -0.017576 -63687.100000 0 0 1
-2.556767 -25.137034 14.996989 29.382260 1.469432 1.035135 0.027532 -0.026929 82906.300000 0 0 1
-3.014867 -25.826834 16.125689 30.596611 1.454588 1.015681 0.022496 -0.021436 45434.100000 0 0 1
-1.983167 -26.545834 16.762889 31.458047 1.496228 1.008814 0.023291 -0.007358 23009.400000 0 0 1
-2.529867 -26.926734 18.101689 32.544130 1.477118 0.980966 0.035923 -0.018185 -20878.400000 0 0 1
-2.590767 -25.725834 18.875189 32.012550 1.470428 0.940210 0.036889 -0.019683 -133167.000000 0 0 1
-2.780467 -26.054034 20.222189 33.098045 1.464479 0.913500 0.055071 -0.021654 -31119.900000 0 0 1
-2.661667 -24.864434 21.187689 32.775642 1.464155 0.867879 0.047644 -0.027808 89874.600000 0 0 1
-2.857067 -25.156434 22.540289 33.897989 1.457709 0.843377 0.051447 -0.027910 -105074.000000 0 0 1
-2.959767 -24.045734 23.434089 33.706291 1.448323 0.802037 0.047740 -0.027156 80149.300000 0 0 1
-1.956967 -22.873034 23.403889 32.783341 1.485446 0.775750 0.040371 -0.019037 -46797.800000 0 0 1
-2.339567 -21.865234 22.503989 31.464131 1.464202 0.773848 0.050507 -0.012411 311745.000000 0 0 1
-1.279267 -20.956534 22.098789 30.482279 1.509828 0.759803 0.043404 -0.006532 254945.000000 0 0 1
-1.852067 -19.772634 21.243189 29.080239 1.477401 0.751739 0.041522 0.004795 -1027390.000000 0 0 1
-2.654367 -18.889334 21.996389 29.115180 1.431188 0.714386 0.051230 -0.013085 377316.000000 0 0 1
-3.992567 -19.345534 22.202089 29.717386 1.367272 0.727096 0.061605 -0.014447 -445581.000000 0 0 1
-4.945367 -19.186434 21.024289 28.889386 1.318534 0.755759 0.055066 -0.013283 -1124140.000000 0 0 1
-4.825867 -20.098934 19.978989 28.747454 1.335151 0.802400 0.055828 -0.014550 -241452.000000 0 0 1
-5.171067 -21.460834 20.253889 29.958761 1.334350 0.828395 0.050264 -0.011185 -62280.100000 0 0 1
-5.169967 -22.338534 19.019089 29.790341 1.343363 0.878338 0.040403 -0.011131 -94226.700000 0 0 1
-5.672867 -23.675034 19.205989 31.009009 1.335616 0.902859 0.043561 -0.017187 -16466.000000 0 0 1
-5.801767 -24.359934 17.990389 30.833764 1.336984 0.947809 0.038750 -0.019679 98506.300000 0 0 1
-6.547967 -25.711034 18.080889 32.106879 1.321422 0.972607 0.032912 -0.025953 -329654.000000 0 0 1
-7.923167 -25.580934 18.243389 32.403426 1.270438 0.972775 0.042923 -0.028504 -1016680.000000 0 0 1
-8.548767 -26.845434 18.012789 33.439786 1.262505 1.001946 0.048329 -0.031502 137575.000000 0 0 1
-10.068867 -26.855634 18.267289 34.004426 1.212091 1.003679 0.057620 -0.030239 -750921.000000 0 0 1
-10.755067 -26.297634 17.211689 33.218658 1.182577 1.026129 0.067889 -0.023897 -381285.000000 0 0 1
-12.160667 -26.367134 17.328289 33.813861 1.138663 1.032748 0.050193 -0.016697 337130.000000 0 0 1
-12.786867 -25.226234 18.202289 33.633171 1.101654 0.998932 0.060199 -0.023032 -938782.000000 0 0 1
-12.833667 -23.910034 17.663489 32.378875 1.078184 0.993781 0.049835 -0.016682 3865.610000 0 0 1
-12.943467 -22.857634 18.644589 32.212194 1.055552 0.953533 0.045925 -0.010026 -163151.000000 0 0 1
-11.616667 -22.502834 19.336489 31.862585 1.094248 0.918678 0.033720 -0.011564 -72458.000000 0 0 1
-11.070567 -23.577234 20.127189 32.917277 1.131808 0.912908 0.041423 -0.012695 486975.000000 0 0 1
-9.675767 -23.279934 20.280389 32.355370 1.176891 0.893355 0.055470 -0.023387 788756.000000 0 0 1
-8.919067 -24.342834 21.112889 33.434674 1.219592 0.887353 0.052934 -0.029240 157555.000000 0 0 1
-9.057967 -24.225434 22.536989 34.305018 1.212988 0.854018 0.047864 -0.023391 163387.000000 0 0 1
-7.948667 -24.832934 23.165589 34.878366 1.261016 0.844397 0.053210 -0.021862 172984.000000 0 0 1
-7.891567 -24.504434 24.729889 35.697500 1.259238 0.805484 0.056224 -0.026125 877717.000000 0 0 1
-6.626167 -24.953634 25.256789 36.117798 1.311247 0.796394 0.065829 -0.028269 724160.000000 0 0 1
-6.443867 -24.522134 26.595289 36.744630 1.313828 0.761521 0.061681 -0.024386 -132973.000000 0 0 1
-5.159467 -25.089434 27.210589 37.369987 1.367981 0.755192 0.078766 -0.025739 48673.900000 0 0 1
-3.924667 -24.590634 26.720589 36.525226 1.412531 0.750181 0.074905 -0.018099 -454203.000000 0 0 1
-3.005267 -24.588434 27.751889 37.199329 1.449177 0.728713 0.063939 -0.017311 -1417360.000000 0 0 1
-1.736867 -23.963434 27.273589 36.347098 1.498443 0.722182 0.053270 -0.014693 -1702280.000000 0 0 1
-1.950867 -22.496634 27.167589 35.326793 1.484295 0.693464 0.052026 -0.013129 509085.000000 0 0 1
-0.753167 -21.760034 26.891889 34.601156 1.536198 0.680599 0.050766 -0.015617 538216.000000 0 0 1
0.316733 -21.669434 27.984489 35.394863 -1.556181 0.658948 0.045061 -0.009388 -485503.000000 0 0 1
0.903833 -22.881234 28.356289 36.447865 -1.531316 0.679327 0.053724 -0.010469 -336559.000000 0 0 1
1.623833 -22.684734 29.537189 37.278405 -1.499336 0.656161 0.047658 -0.013757 -326751.000000 0 0 1
2.252833 -23.967334 30.085389 38.531013 -1.477076 0.674836 0.063044 -0.023796 258084.000000 0 0 1
3.264933 -24.555534 29.193589 38.287069 -1.438610 0.703640 0.053196 -0.032356 1182320.000000 0 0 1
4.005433 -25.549334 29.906489 39.537451 -1.415290 0.712991 0.039862 -0.021890 -837749.000000 0 0 1
5.248233 -25.047934 30.669089 39.944160 -1.364257 0.695398 0.033407 -0.023463 -258187.000000 0 0 1
6.417033 -24.717234 29.944289 39.354547 -1.316786 0.706120 0.038846 -0.028670 303000.000000 0 0 1
7.010533 -25.763434 29.218189 39.580357 -1.305117 0.740399 0.038277 -0.026073 -1112170.000000 0 0 1
8.247133 -25.186634 28.488289 38.909695 -1.254358 0.749302 0.042916 -0.025653 -102055.000000 0 0 1
7.963433 -24.371034 27.373989 37.505984 -1.254975 0.752684 0.057983 -0.027713 518070.000000 0 0 1
9.201333 -24.025934 26.774189 37.131755 -1.205052 0.765467 0.043442 -0.019953 302173.000000 0 0 1
8.881233 -22.840734 25.823189 35.600737 -1.199954 0.759246 0.057821 -0.016889 95323.800000 0 0 1
8.319933 -23.098134 24.562789 34.728600 -1.225064 0.785155 0.066267 -0.011649 27241.900000 0 0 1
7.963633 -21.917034 23.902589 33.393256 -1.222275 0.773040 0.059668 -0.007818 -108344.000000 0 0 1
7.165233 -22.266634 22.639089 32.552602 -1.259468 0.801734 0.062556 -0.005623 74238.900000 0 0 1
7.974333 -22.993634 21.696189 32.604015 -1.236970 0.842706 0.060784 -0.004368 393013.000000 0 0 1
7.423533 -23.190334 20.369889 31.746382 -1.260991 0.874156 0.069943 -0.008011 -14059.800000 0 0 1
8.327233 -24.035434 19.453989 32.023469 -1.237282 0.917897 0.084252 -0.027057 227429.000000 0 0 1
9.519133 -23.382134 19.086289 31.648452 -1.184175 0.923450 0.076720 -0.027241 -254428.000000 0 0 1
10.401533 -24.166134 18.318589 32.058768 -1.164346 0.962578 0.088913 -0.028546 403027.000000 0 0 1
11.531133 -23.407334 17.618889 31.484846 -1.113063 0.976894 0.075976 -0.030015 187496.000000 0 0 1
10.962933 -22.628734 16.572489 30.114662 -1.119650 0.988057 0.081927 -0.022636 218609.000000 0 0 1
11.973533 -21.905534 15.892389 29.593681 -1.070568 1.003896 0.076184 -0.036899 307854.000000 0 0 1
-11.999967 22.520602 11.509189 27.993537 -1.081220 1.147095 0.009675 -0.012475 -414268.000000 0 0 1
-13.048567 21.615902 11.390589 27.699419 -1.027693 1.147003 0.009285 -0.017447 -255710.000000 0 0 1
-12.587067 20.393402 10.826389 26.297068 -1.017816 1.146482 0.024229 -0.017175 -552220.000000 0 0 1
-13.585967 19.809502 9.857989 25.964876 -0.969643 1.181361 0.039962 -0.021527 -751837.000000 0 0 1
-13.654067 20.554802 8.647689 26.147963 -0.984450 1.233729 0.045157 -0.031029 -9208.820000 0 0 1
-14.231767 19.791002 7.604989 25.535520 -0.947364 1.268388 0.044632 -0.030343 822265.000000 0 0 1
-15.803067 19.931402 7.497689 26.518164 -0.900416 1.284149 0.045295 -0.022872 593740.000000 0 0 1
-16.377567 19.009202 8.409789 26.463163 -0.859629 1.247396 0.039119 -0.029684 70323.300000 0 0 1
-17.769367 18.987602 8.171989 27.259142 -0.818529 1.266325 0.044375 -0.025242 -330896.000000 0 0 1
-18.643867 18.082702 9.008189 27.490459 -0.770120 1.236945 0.043610 -0.020374 -327658.000000 0 0 1
-18.380167 16.717902 8.738889 26.337938 -0.738073 1.232587 0.039017 -0.029445 235345.000000 0 0 1
-19.082567 15.845902 9.625289 26.606074 -0.692996 1.200630 0.052098 -0.031239 178897.000000 0 0 1
-18.194767 15.040002 10.632689 25.890254 -0.690758 1.147593 0.054767 -0.026346 299322.000000 0 0 1
-17.336667 14.080302 10.066889 24.498106 -0.682117 1.147328 0.038243 -0.014448 142903.000000 0 1 0
-16.572467 13.260702 10.949589 23.882763 -0.674841 1.094521 0.031577 -0.013473 20929.100000 0 1 0
-17.318967 12.177202 11.743889 24.210531 -0.612813 1.064349 0.039863 -0.011619 -320934.000000 0 1 0
-18.017967 11.289102 10.914589 23.900193 -0.559711 1.096544 0.025957 -0.012535 -577858.000000 0 1 0
-19.064167 10.706102 11.598089 24.750328 -0.511692 1.083087 0.049601 -0.012229 -32598.100000 0 1 0
-20.075167 9.829202 10.721489 24.790641 -0.455309 1.123553 0.058782 -0.016471 194762.000000 0 1 0
-19.488467 8.814402 9.975589 23.600983 -0.424755 1.134399 0.049318 -0.015817 102533.000000 0 1 0
-18.978267 9.147002 8.692889 22.790537 -0.449122 1.179459 0.061304 -0.017469 -855.756000 0 1 0
-20.042867 9.321502 7.541189 23.355437 -0.435322 1.242017 0.075844 -0.027786 490464.000000 0 1 0
-20.858367 8.190202 7.280589 23.561788 -0.374161 1.256655 0.080542 -0.028984 517905.000000 0 1 0
-21.447467 8.340202 5.997589 23.780746 -0.370872 1.315840 0.080998 -0.032850 -53265.100000 0 1 0
-21.703567 7.027602 5.287889 23.417809 -0.313146 1.343026 0.094895 -0.030169 -383576.000000 0 1 0
-22.542467 6.243202 6.084289 24.169381 -0.270181 1.316323 0.106728 -0.029146 150070.000000 0 1 0
-22.335467 4.880902 5.780989 23.582115 -0.215145 1.323129 0.118022 -0.036151 -977208.000000 0 1 0
-23.519967 4.003802 6.055889 24.614895 -0.168614 1.322219 0.150876 -0.034353 -91475.400000 0 1 0
-24.613067 4.179202 5.110489 25.483051 -0.168192 1.368883 0.151791 -0.039758 609598.000000 0 0 1
-25.365187 3.009802 5.116189 26.050471 -0.118107 1.373116 0.147373 -0.040061 -1107420.000000 0 0 1
-26.485377 3.068802 4.107589 26.977121 -0.115353 1.417940 0.148332 -0.036114 -1068930.000000 0 0 1
-26.081527 3.054102 2.760989 26.404482 -0.116567 1.466040 0.145650 -0.034181 400253.000000 0 0 1
-27.163157 2.881302 1.853789 27.378377 -0.105679 1.503035 0.143018 -0.028148 26723.200000 0 0 1
-26.759557 2.967802 0.370089 26.926172 -0.110455 1.557051 0.149664 -0.028422 -226917.000000 0 0 1
-26.441907 4.247602 -0.084711 26.781033 -0.159278 1.573959 0.151241 -0.031479 187198.000000 0 0 1
-26.378177 4.357402 -1.495911 26.777471 -0.163711 1.626690 0.176182 -0.024614 -441343.000000 0 0 1
-27.631177 4.890802 -2.174911 28.144842 -0.175188 1.648149 0.152794 -0.035444 -232021.000000 0 0 1
-28.749987 4.049502 -2.094111 29.109200 -0.139932 1.642798 0.133017 -0.036481 177575.000000 0 0 1
-30.010157 4.693902 -2.203711 30.454862 -0.155153 1.643220 0.115095 -0.025390 278817.000000 0 0 1
-31.168757 3.695202 -2.323111 31.472890 -0.118004 1.644677 0.097018 -0.018378 -382084.000000 0 0 1
-30.951567 2.942802 -3.486711 31.286047 -0.094793 1.682475 0.092075 -0.024406 354515.000000 0 0 1
-31.914727 1.932902 -3.687011 32.185089 -0.060491 1.685605 0.098180 -0.025130 -110306.000000 0 0 1
-31.922327 1.445202 -5.163511 32.369514 -0.045242 1.730998 0.099880 -0.034816 158234.000000 0 0 1
-30.692487 0.851402 -5.612511 31.213041 -0.027733 1.751593 0.109689 -0.032636 689051.000000 0 0 1
-30.692217 0.059602 -6.841211 31.445475 -0.001942 1.790108 0.120564 -0.031620 -334336.000000 0 0 1
-31.065277 0.795702 -8.156011 32.127949 -0.025608 1.827466 0.124494 -0.029454 -223542.000000 0 0 1
-32.467487 0.926002 -8.259111 33.514297 -0.028513 1.819797 0.120098 -0.026913 356807.000000 0 0 1
-32.985307 1.710102 -9.355411 34.328977 -0.051798 1.846810 0.119484 -0.024965 484000.000000 0 0 1
-34.534825 1.844102 -9.258411 35.801858 -0.053348 1.832370 0.117146 -0.025819 537716.000000 0 0 1
-34.871501 2.841902 -8.254911 35.947762 -0.081317 1.802500 0.096096 -0.020059 -188927.000000 0 0 1
-36.264407 2.868902 -8.140011 37.277307 -0.078946 1.790934 0.084621 -0.011870 -609662.000000 0 0 1
35.755371 3.828102 -7.067511 36.647656 0.106657 1.764862 0.096312 -0.013772 -953377.000000 0 0 1
34.470381 3.408102 -6.773011 35.294419 0.098550 1.763894 0.110012 -0.015349 -691502.000000 0 0 1
33.840511 4.185902 -5.802611 34.588615 0.123070 1.739354 0.099123 -0.023528 -235061.000000 0 0 1
32.459311 3.653202 -5.402311 33.107971 0.112075 1.734702 0.103055 -0.026305 -479911.000000 0 0 1
32.485111 2.460402 -4.594511 32.900541 0.075595 1.710903 0.111063 -0.024084 -568409.000000 0 0 1
31.286701 1.760202 -4.560611 31.666310 0.056201 1.715320 0.108482 -0.027655 -681895.000000 0 0 1
31.376781 0.459502 -3.827711 31.612734 0.014644 1.692175 0.125009 -0.022064 -202732.000000 0 0 1
32.273471 -0.505398 -4.300011 32.562593 -0.015659 1.703237 0.100836 -0.022063 -12299.600000 0 0 1
32.189571 -1.651298 -3.476111 32.418801 -0.051254 1.678228 0.106115 -0.017920 -75292.300000 0 0 1
33.542781 -2.374598 -3.453511 33.803604 -0.070675 1.673139 0.093525 -0.010690 -46849.800000 0 0 1
33.432661 -3.636698 -2.790111 33.745417 -0.108351 1.653572 0.085453 -0.011056 -364301.000000 0 0 1
34.581581 -4.378198 -3.070311 34.992588 -0.125935 1.658651 0.096796 -0.015632 -226744.000000 0 0 1
34.595141 -5.825998 -2.472811 35.169317 -0.166840 1.641166 0.086344 -0.011800 -63027.200000 0 0 1
34.508711 -5.853098 -1.025311 35.016584 -0.168013 1.600081 0.101535 -0.024575 -106764.000000 0 0 1
34.470061 -7.186398 -0.530011 35.215201 -0.205538 1.585848 0.096748 -0.020025 -185020.000000 0 0 1
33.923981 -7.360698 0.881689 34.724541 -0.213664 1.545403 0.095041 -0.018120 -1173680.000000 0 0 1
32.561321 -7.146298 0.807289 33.346078 -0.216047 1.546585 0.091348 -0.024482 -1128440.000000 0 0 1
31.845721 -7.585798 1.930589 32.793620 -0.233847 1.511891 0.091544 -0.034864 -601595.000000 0 0 1
31.678771 -9.127298 2.314989 33.048620 -0.280523 1.500691 0.107683 -0.035715 -150519.000000 0 0 1
30.580571 -9.853998 1.775389 32.178015 -0.311725 1.515594 0.109201 -0.042649 1671390.000000 0 0 1
29.265281 -9.413298 2.223389 30.822238 -0.311203 1.498598 0.106707 -0.044359 -138611.000000 0 0 1
28.163391 -10.454498 2.152589 30.118214 -0.355443 1.499264 0.102976 -0.042069 379176.000000 0 0 1
26.837521 -10.120498 2.630589 28.802726 -0.360613 1.479338 0.103685 -0.043700 1714060.000000 0 0 1
26.087621 -9.143898 1.926289 27.710746 -0.337127 1.501226 0.111233 -0.041080 -601762.000000 0 0 1
25.489721 -9.510198 0.523389 27.211095 -0.357103 1.551561 0.101236 -0.033748 -359241.000000 0 0 1
26.495821 -9.818898 -0.434811 28.260014 -0.354893 1.586183 0.098528 -0.036471 700234.000000 0 0 1
25.936421 -9.968398 -1.744011 27.840770 -0.366934 1.633480 0.093715 -0.021893 -115819.000000 0 0 1
25.144121 -11.269098 -1.925111 27.621106 -0.421340 1.640550 0.079703 -0.018207 -259123.000000 0 0 1
23.869821 -11.301898 -1.348711 26.444665 -0.442208 1.621820 0.084618 -0.011411 -45685.900000 0 0 1
23.203321 -12.570998 -1.447011 26.429490 -0.496507 1.625574 0.060414 -0.000053 -749006.000000 0 0 1
21.705521 -12.439398 -1.304711 25.051359 -0.520404 1.622901 0.062442 -0.008214 -1249730.000000 0 0 1
21.022521 -11.939298 -2.443711 24.299485 -0.516504 1.671533 0.070550 -0.011166 -1269260.000000 0 1 0
19.706221 -11.984098 -2.092011 23.158806 -0.546382 1.661253 0.081840 -0.019796 -1975700.000000 0 1 0
18.748321 -11.517998 -3.156811 22.229019 -0.550903 1.713291 0.080908 -0.018041 -512181.000000 0 1 0
18.648621 -12.381498 -4.251011 22.784725 -0.586110 1.758469 0.074047 -0.023423 444873.000000 0 1 0
17.717121 -11.865098 -5.183511 21.944150 -0.590097 1.809264 0.067104 -0.021042 -285929.000000 0 1 0
17.885521 -12.534798 -6.543011 22.799650 -0.611286 1.861868 0.069429 -0.024131 27253.300000 0 1 0
17.075521 -13.700998 -6.622711 22.872496 -0.676188 1.864552 0.067990 -0.031428 446036.000000 0 1 0
17.210221 -14.134998 -7.961111 23.650987 -0.687603 1.914109 0.065811 -0.035300 -343346.000000 0 1 0
16.310421 -15.333698 -8.299911 23.875525 -0.754542 1.925841 0.060002 -0.034025 222240.000000 0 1 0
14.912921 -15.056998 -8.345311 22.776142 -0.790206 1.945940 0.073439 -0.029621 1029130.000000 0 1 0
14.109821 -16.002898 -9.082911 23.187908 -0.848182 1.973285 0.067454 -0.030240 386499.000000 0 1 0
14.118221 -15.798198 -10.675711 23.725051 -0.841495 2.037535 0.068037 -0.034423 236250.000000 0 1 0
13.296921 -14.756698 -11.328711 22.867181 -0.837387 2.089107 0.058856 -0.028803 730929.000000 0 1 0
13.679321 -13.471398 -10.967411 22.110778 -0.777740 2.089807 0.063858 -0.018230 -212904.000000 0 1 0
13.673821 -12.555698 -12.228011 22.229332 -0.742796 2.153262 0.072613 -0.014610 -580019.000000 0 1 0
14.730521 -12.714698 -13.113611 23.465264 -0.712081 2.163797 0.062456 -0.014156 -374845.000000 0 1 0
14.540221 -11.968798 -14.286411 23.638353 -0.688699 2.219777 0.073480 -0.015029 -756724.000000 0 1 0
15.858321 -11.755098 -15.002311 24.793911 -0.637882 2.220663 0.069386 -0.023145 -244881.000000 0 1 0
16.501521 -12.970298 -15.420511 26.044597 -0.666150 2.204435 0.062477 -0.020699 345480.000000 0 0 1
17.715121 -12.765498 -16.128311 27.146011 -0.624417 2.206982 0.063076 -0.015283 -201753.000000 0 0 1
18.641221 -13.971098 -16.145611 28.343738 -0.643164 2.176859 0.065676 -0.020427 -791497.000000 0 0 1
19.414221 -14.007398 -14.994711 28.248196 -0.625012 2.130364 0.050766 -0.028225 -112092.000000 0 0 1
20.520321 -14.876898 -15.143811 29.525255 -0.627297 2.109368 0.042197 -0.026336 -228263.000000 0 0 1
21.593321 -14.815698 -14.077111 29.731154 -0.601352 2.064034 0.030552 -0.020876 -468444.000000 0 0 1
22.265821 -13.582998 -14.084411 29.641783 -0.547768 2.065935 0.047477 -0.011938 111441.000000 0 0 1
23.333421 -13.518998 -13.144111 29.999659 -0.525122 2.024327 0.038514 -0.008466 163462.000000 0 0 1
23.970821 -12.118198 -13.166711 29.913430 -0.468069 2.026574 0.047186 -0.001508 -449256.000000 0 0 1
23.133221 -11.066398 -12.723211 28.626757 -0.446200 2.031358 0.049744 0.000396 188751.000000 0 0 1
23.610921 -9.744098 -12.980511 28.651645 -0.391402 2.040975 0.063336 -0.003576 -34103.900000 0 0 1
24.747821 -9.208498 -12.082011 29.038356 -0.356220 1.999916 0.070376 -0.003746 73482.700000 0 0 1
25.974921 -9.877698 -12.261511 30.374498 -0.363390 1.986330 0.052978 -0.000215 -170596.000000 0 0 1
26.898721 -9.524598 -11.255211 30.674728 -0.340315 1.946494 0.055532 -0.001974 -91012.300000 0 0 1
28.256291 -10.235098 -11.501711 32.178636 -0.347523 1.936314 0.058831 -0.001801 419365.000000 0 0 1
28.997141 -9.651398 -12.601111 33.057098 -0.321306 1.961882 0.046856 -0.003451 654422.000000 0 0 1
30.279091 -10.224098 -12.805011 34.428533 -0.325641 1.951884 0.047127 -0.004588 489911.000000 0 0 1
30.976091 -9.821198 -14.151711 35.443548 -0.307031 1.981522 0.032612 0.001657 -98402.500000 0 0 1
30.226641 -10.222698 -15.279911 35.378371 -0.326126 2.017394 0.025603 -0.003030 309887.000000 0 0 1
30.991331 -10.067998 -16.479311 36.515680 -0.314110 2.039011 0.021711 -0.003502 -183882.000000 0 0 1
30.536931 -10.769598 -17.827111 36.963419 -0.339055 2.074064 0.001725 -0.000487 188180.000000 0 0 1
29.320621 -10.429398 -18.481511 36.194439 -0.341745 2.106699 0.009443 -0.002972 507202.000000 0 0 1
29.292821 -9.030998 -18.934111 36.029556 -0.299055 2.124118 -0.001893 0.003944 -348356.000000 0 0 1
27.879951 -8.622998 -19.399711 35.042782 -0.299958 2.157478 -0.027912 -0.000751 -81792.200000 0 0 1
27.411821 -9.313298 -20.520711 35.485843 -0.327519 2.187414 -0.018259 0.003404 -345689.000000 0 0 1
26.040621 -9.143098 -20.686411 34.491127 -0.337663 2.213998 0.015164 0.008919 -573995.000000 0 0 1
25.340021 -9.623598 -21.972311 34.892876 -0.362954 2.251973 0.023023 0.007917 -124176.000000 0 0 1
25.384421 -10.989498 -22.199511 35.467679 -0.408562 2.247092 0.030380 0.009214 162930.000000 0 0 1
24.521821 -11.406898 -23.246811 35.663024 -0.435400 2.280813 0.034808 0.000633 -542919.000000 0 0 1
24.717621 -12.892398 -23.644611 36.554649 -0.480768 2.274216 0.026640 0.012167 661523.000000 0 0 1
25.921221 -13.256798 -24.317011 37.933751 -0.472747 2.266647 0.019045 0.016166 459775.000000 0 0 1
27.115721 -13.209198 -23.542111 38.261943 -0.453308 2.233547 0.019391 0.020075 -133994.000000 0 0 1
28.225411 -14.056298 -24.215711 39.757440 -0.462048 2.225704 0.006607 0.024514 -273336.000000 0 0 1
28.705181 -13.361598 -25.293781 40.525240 -0.435650 2.244838 0.014326 0.014558 -956220.000000 0 0 1
29.996271 -13.803498 -25.536681 41.742484 -0.431282 2.229089 -0.004229 0.011569 -764642.000000 0 0 1
30.638411 -13.270698 -26.810121 42.820629 -0.408744 2.247342 0.003397 0.017314 -19166.200000 0 0 1
30.343521 -14.077598 -27.944541 43.586758 -0.434386 2.266759 0.013976 0.004696 35766.700000 0 0 1
31.159321 -13.676898 -29.004621 44.712738 -0.413614 2.276656 0.021257 -0.001405 70129.200000 0 0 1
30.905051 -14.510298 -30.271881 45.629571 -0.438961 2.296186 0.023746 -0.008560 212212.000000 0 0 1
31.425961 -15.827498 -30.044411 46.268428 -0.466559 2.277526 0.017934 -0.005213 8853.800000 0 0 1
31.884191 -16.537698 -31.170651 47.557403 -0.478480 2.285551 0.026186 -0.008849 729084.000000 0 0 1
30.748431 -17.204298 -32.058631 47.636223 -0.510121 2.309038 0.007654 -0.001967 843580.000000 0 0 1
30.118971 -16.281498 -32.930931 47.504588 -0.495577 2.336738 -0.012397 0.004191 -194397.000000 0 0 1
29.067551 -16.840098 -33.662151 47.556828 -0.525092 2.357218 0.004698 -0.001257 -148301.000000 0 0 1
28.323921 -15.821098 33.940064 46.951886 -0.509405 0.762851 0.023247 -0.005988 174131.000000 0 0 1
27.580071 -14.793398 -33.905681 46.142174 -0.492326 2.396181 0.022022 -0.012464 154842.000000 0 0 1
28.360441 -13.629498 -33.704381 46.109253 -0.447992 2.390535 0.025184 -0.011451 -250076.000000 0 0 1
27.511221 -12.416198 -33.341971 44.974619 -0.423946 2.405877 0.044623 -0.005959 126308.000000 0 0 1
26.819121 -11.839098 34.046429 44.928709 -0.415715 0.710880 0.059041 -0.023822 48054.300000 0 0 1
26.045721 -10.774698 -33.954361 44.129042 -0.392247 2.448750 0.043934 -0.024871 -230990.000000 0 0 1
20.693633 -29.795734 9.325789 37.456409 -0.963760 1.319172 0.043813 -0.000769 140261.000000 0 0 1
21.252333 -29.258634 8.116789 37.062266 -0.942597 1.350003 0.046915 -0.000743 85517.800000 0 0 1
22.411433 -30.006034 7.838289 38.263209 -0.929284 1.364484 0.059684 -0.005249 -259688.000000 0 0 1
22.940233 -29.764334 6.432489 38.125408 -0.914160 1.401266 0.049476 -0.004024 -218315.000000 0 0 1
23.434933 -28.472734 6.242789 37.401405 -0.882148 1.403098 0.054996 0.012047 59645.600000 0 0 1
24.257533 -28.295434 5.124689 37.620764 -0.862082 1.434152 0.048936 0.005336 -20446.700000 0 0 1
24.220533 -26.803634 4.730389 36.434127 -0.835980 1.440595 0.048141 0.000727 -155393.000000 0 0 1
24.986133 -25.982934 5.558789 36.473550 -0.804953 1.417794 0.045097 0.004657 -55638.800000 0 0 1
24.634133 -24.600834 5.453589 35.238944 -0.784722 1.415412 0.037754 0.011427 10742.000000 0 0 1
25.574633 -23.664734 6.250389 35.399842 -0.746630 1.393300 0.031426 0.010293 690747.000000 0 0 1
26.910233 -23.618734 5.721089 36.259290 -0.720349 1.412351 0.039758 0.001663 886958.000000 0 0 1
27.848633 -22.833034 6.459989 36.587228 -0.686757 1.393302 0.045191 -0.005432 358706.000000 0 0 1
27.581833 -21.267234 6.487789 35.428014 -0.656844 1.386631 0.047045 0.003096 -478546.000000 0 0 1
27.630033 -20.521234 5.352189 34.830815 -0.638822 1.416523 0.056079 0.016218 173712.000000 0 0 1
27.114533 -19.219734 5.650689 33.712406 -0.616631 1.402387 0.059457 0.005255 153942.000000 0 0 1
26.940833 -18.384934 4.337089 32.903261 -0.598829 1.438598 0.056937 0.013003 245822.000000 0 0 1
28.196533 -17.955334 3.841689 33.648136 -0.567034 1.456374 0.111820 0.002358 133886.000000 0 0 1
28.091333 -17.233934 2.627589 33.061090 -0.550284 1.491236 0.104925 0.012772 274173.000000 0 0 1
29.225933 -16.242134 2.198689 33.508153 -0.507242 1.505133 0.108668 -0.013952 416207.000000 0 0 1
29.063833 -15.022734 2.841389 32.839951 -0.477066 1.484166 0.108984 -0.021021 440296.000000 0 0 1
30.308833 -14.354234 2.941989 33.664888 -0.442305 1.483294 0.127348 -0.031249 437772.000000 0 0 1
30.100233 -13.267234 3.998589 33.136569 -0.415151 1.449832 0.129037 -0.034698 236401.000000 0 0 1
29.943933 -13.703434 5.352189 33.362691 -0.429186 1.409676 0.115896 -0.022941 7269.120000 0 0 1
29.871433 -12.634934 6.241389 33.028760 -0.400156 1.380685 0.096376 -0.028362 -283201.000000 0 0 1
29.317233 -13.007634 7.568989 32.954336 -0.417590 1.339046 0.093158 -0.025510 10558.800000 0 0 1
27.924533 -13.326734 7.596889 31.860541 -0.445275 1.330035 0.076001 -0.017263 324509.000000 0 0 1
27.356733 -13.371734 8.878489 31.717845 -0.454641 1.287085 0.070962 -0.012576 149665.000000 0 0 1
27.783833 -14.560534 9.823489 32.870221 -0.482714 1.267302 0.066319 -0.013872 -278113.000000 0 0 1
28.923833 -14.363934 10.619689 33.995419 -0.460934 1.253093 0.061391 -0.003339 -198207.000000 0 0 1
29.386233 -15.630234 10.996789 35.054019 -0.488833 1.251699 0.050291 -0.008019 242196.000000 0 0 1
30.138933 -15.674834 12.378489 36.156364 -0.479587 1.221369 0.041738 -0.001132 380669.000000 0 0 1
31.495533 -15.289034 12.439389 37.154563 -0.451928 1.229402 0.040397 -0.000176 136193.000000 0 0 1
32.001633 -15.226734 13.781489 38.024826 -0.444110 1.199918 0.036850 -0.000691 -614172.000000 0 0 1
33.492833 -15.020534 13.887389 39.245966 -0.421581 1.209107 0.040745 -0.010151 -970437.000000 0 0 1
33.974733 -13.752334 13.541889 39.074185 -0.384621 1.216886 0.041099 -0.006741 -288956.000000 0 0 1
35.375833 -13.766234 13.463089 40.276712 -0.371111 1.229971 0.051559 -0.004831 -404327.000000 0 0 1
35.950633 -12.330134 13.360689 40.286328 -0.330402 1.232751 0.051466 -0.010440 -283443.000000 0 0 1
-35.336656 -12.383134 12.802389 39.571738 0.337061 1.241345 0.068570 -0.014574 260265.000000 0 0 1
-34.634356 -11.135834 12.886589 38.595461 0.311086 1.230370 0.068503 -0.017172 1087760.000000 0 0 1
-33.454156 -10.994934 11.816189 37.144198 0.317536 1.247054 0.066132 -0.018909 1114980.000000 0 0 1
-32.274156 -11.747534 11.954289 36.366615 0.349085 1.235853 0.059385 -0.012045 181583.000000 0 0 1
-32.467456 -13.122434 11.590989 36.887464 0.384098 1.251155 0.048052 -0.013690 -785646.000000 0 0 1
-31.352456 -14.101534 11.896789 36.378061 0.422666 1.237635 0.039448 -0.010530 -237744.000000 0 0 1
-30.113756 -13.864434 11.277789 35.017843 0.431470 1.242893 0.051558 -0.007527 -143514.000000 0 0 1
-29.140056 -14.823434 11.602789 34.691523 0.470580 1.229768 0.055300 -0.004734 8408.360000 0 0 1
-27.736756 -14.653934 10.981089 33.236271 0.486048 1.234075 0.063458 0.004141 162384.000000 0 0 1
-27.796156 -14.731034 9.548589 32.875602 0.487332 1.276103 0.050868 0.004889 690795.000000 0 0 1
-26.454956 -14.655834 9.055289 31.569866 0.505903 1.279877 0.060803 0.009322 600120.000000 0 0 1
-26.295056 -14.598934 7.516889 31.001007 0.506824 1.325883 0.073271 0.007884 -137807.000000 0 0 1
-26.458456 -15.868534 6.897689 31.613895 0.540238 1.350842 0.073177 0.012755 199549.000000 0 0 1
-26.229256 -15.677634 5.540289 31.055706 0.538738 1.391438 0.075382 0.008362 -302789.000000 0 0 1
-26.561756 -16.903234 4.699389 31.832852 0.566737 1.422628 0.070462 0.007244 -146038.000000 0 0 1
-27.965856 -16.995134 4.678689 33.057734 0.546069 1.428789 0.044522 -0.002148 -217758.000000 0 0 1
-28.475256 -17.722734 3.586089 33.731225 0.556721 1.464281 0.044967 -0.005142 434409.000000 0 0 1
-29.989056 -18.059634 3.733789 35.205611 0.542041 1.464540 0.053062 -0.008333 325711.000000 0 0 1
-30.868056 -17.133534 3.149889 35.444558 0.506718 1.481811 0.052386 -0.010296 -323185.000000 0 0 1
-32.186056 -17.441134 3.556289 36.780192 0.496591 1.473955 0.058843 -0.007914 -324847.000000 0 0 1
-33.225256 -16.515034 2.935989 37.219404 0.461295 1.491831 0.059805 -0.018892 -250746.000000 0 0 1
-33.495756 -16.899634 1.592689 37.551298 0.467266 1.528370 0.060249 -0.017258 -208225.000000 0 0 1
-34.480156 -16.114534 0.969289 38.072285 0.437194 1.545334 0.081710 -0.025705 -166322.000000 0 0 1
-34.900556 -16.916034 -0.269711 38.784968 0.451327 1.577750 0.074274 -0.020656 -555049.000000 0 0 1
-33.979556 -16.791934 -1.310111 37.924869 0.458979 1.605348 0.058116 -0.017079 214222.000000 0 0 1
-34.330356 -17.695634 -2.371111 38.695361 0.475932 1.632111 0.049924 -0.007794 -91001.300000 0 0 1
-33.125756 -18.083234 -3.250011 37.879831 0.499687 1.656700 0.042221 -0.008269 -331489.000000 0 0 1
-33.396556 -19.015534 -4.269311 38.667137 0.517605 1.681434 0.049722 -0.011004 -72367.300000 0 0 1
-32.246656 -19.700034 -4.695211 38.078644 0.548408 1.694414 0.047138 -0.009582 -418308.000000 0 0 1
-32.604456 -20.786234 -5.721311 39.087741 0.567557 1.717695 0.051672 -0.011953 -198791.000000 0 0 1
-33.208956 -21.880934 -5.066611 40.090904 0.582597 1.697513 0.045920 -0.009807 243711.000000 0 0 1
-33.858456 -22.746734 -6.013111 41.230649 0.591561 1.717159 0.051391 -0.007345 381792.000000 0 0 1
-34.662156 -23.882834 -5.335311 42.430182 0.603317 1.696873 0.040349 -0.004248 -93407.100000 0 0 1
-33.827856 -24.944834 -4.918211 42.317341 0.635392 1.687282 0.051810 0.002643 142851.000000 0 0 1
-34.573556 -26.143834 -4.690811 43.598561 0.647445 1.678596 0.028920 0.014047 684566.000000 0 0 1
-33.605856 -27.261334 -4.128911 43.469320 0.681538 1.665924 0.031692 0.010541 980507.000000 0 0 1
-32.553756 -27.750734 -4.995311 43.067428 0.705920 1.687046 0.015264 0.008358 907397.000000 0 0 1
-31.795956 -28.844634 -4.516411 43.167044 0.736767 1.675615 0.018688 0.004465 232408.000000 0 0 1
-30.694856 -28.545334 -3.456611 42.058987 0.749129 1.653074 0.041799 -0.002742 -480882.000000 0 0 1
-31.153656 -28.342934 -2.135211 42.171451 0.738192 1.621450 0.031549 0.000232 -764.713000 0 0 1
-30.160056 -28.356834 -1.116111 41.412374 0.754593 1.597751 0.045835 -0.007254 -153657.000000 0 0 1
-30.724756 -28.238834 0.315689 41.731787 0.743263 1.563232 0.035464 -0.000586 -162394.000000 0 0 1
-31.216856 -29.496234 0.726289 42.954015 0.757066 1.553887 0.034105 -0.003515 -124146.000000 0 0 1
-31.877556 -29.387534 1.958789 43.400951 0.744777 1.525649 0.035394 0.002088 -288047.000000 0 0 1
-32.290056 -30.745134 2.532189 44.657843 0.760894 1.514064 0.032016 -0.000448 -552784.000000 0 0 1
-33.203856 -30.469334 3.579189 45.207156 0.742478 1.491540 0.034262 0.003338 168365.000000 0 0 1
-33.878256 -31.548534 4.149289 46.478628 0.749805 1.481404 0.029890 0.003723 164240.000000 0 0 1
-35.001256 -32.242834 3.298689 47.702931 0.744400 1.501590 0.026712 0.005445 -156575.000000 0 0 1
-35.479956 -33.421034 3.820089 48.891572 0.755525 1.492583 0.042153 0.000700 -830694.000000 0 0 1
35.938133 -33.768034 3.180089 49.416014 -0.754276 1.506398 0.058568 -0.007498 -1606260.000000 0 0 1
34.930733 33.822602 3.875289 48.776453 0.769282 1.491263 0.062830 -0.010041 114836.000000 0 0 1
33.994033 -34.128234 4.793289 48.407708 -0.787368 1.471615 0.047599 -0.008342 871078.000000 0 0 1
33.195233 -32.999634 4.413889 47.014697 -0.782443 1.476775 0.054409 -0.009750 -35966.700000 0 0 1
32.006633 -33.265334 3.446889 46.291339 -0.804680 1.496267 0.056873 -0.001517 -344438.000000 0 0 1
32.455333 -33.681034 2.174389 46.824018 -0.803929 1.524342 0.065932 -0.004522 -148734.000000 0 0 1
31.628933 -33.290834 1.101889 45.933465 -0.810992 1.546805 0.051907 -0.001578 -558684.000000 0 0 1
32.137433 -33.955334 -0.247611 46.752974 -0.812897 1.576093 0.050659 0.004843 1048770.000000 0 0 1
33.192133 -33.305434 -0.990611 47.031382 -0.787102 1.591861 0.033603 0.018951 558044.000000 0 0 1
34.457433 -33.500534 -0.376611 48.059778 -0.771318 1.578633 0.035864 0.016078 84033.900000 0 0 1
35.734733 -33.204734 -1.212611 48.795450 -0.748716 1.595650 0.014081 0.022928 181820.000000 0 0 1
36.020033 34.206802 -2.002111 49.714751 0.759584 1.611079 0.023352 0.008831 176001.000000 0 0 1
-35.630556 -34.003134 -3.006611 49.343585 0.762031 1.631766 0.009007 0.007585 -470127.000000 0 0 1
-35.077256 33.440802 -3.972111 48.625906 -0.761519 1.652575 0.005920 0.006951 361654.000000 0 0 1
-34.040056 32.648502 -3.388811 47.287780 -0.764535 1.642521 0.011722 0.002562 189983.000000 0 0 1
-33.478956 31.698402 -4.251211 46.300129 -0.758086 1.662744 0.028251 -0.012238 -178480.000000 0 0 1
-32.166256 31.118002 -3.702711 44.907773 -0.768835 1.653341 0.045214 -0.017931 -1152380.000000 0 0 1
-31.088656 31.983002 -3.786711 44.763334 -0.799577 1.655492 0.036426 -0.014120 -134142.000000 0 0 1
-29.825456 31.306202 -3.737911 43.400554 -0.809616 1.657029 0.061970 -0.019063 966684.000000 0 0 1
-29.229356 31.009802 -2.362711 42.679567 -0.814946 1.626184 0.050526 -0.016664 -157141.000000 0 0 1
-30.115656 30.143002 -1.675111 42.642224 -0.785852 1.610089 0.046584 -0.012611 -56702.900000 0 0 1
-29.670656 29.993002 -0.310511 42.190335 -0.790801 1.578156 0.048763 -0.013964 -352207.000000 0 0 1
-30.743856 29.450402 0.647589 42.578518 -0.763913 1.555586 0.045452 -0.011463 -104284.000000 0 0 1
-31.253856 28.205702 0.287589 42.100449 -0.734179 1.563965 0.047652 -0.020092 513568.000000 0 0 1
-32.354356 28.264502 -0.668711 42.966657 -0.718032 1.586360 0.057889 -0.017079 421132.000000 0 0 1
-32.664156 26.866902 -1.283911 42.313425 -0.688322 1.601144 0.055945 -0.015330 148736.000000 0 0 1
-33.086656 25.869002 -0.352911 42.000674 -0.663579 1.579199 0.062867 -0.014466 -98551.900000 0 0 1
-33.372856 24.677002 -1.038611 41.518437 -0.636704 1.595815 0.055455 -0.009992 -138984.000000 0 0 1
-33.694156 23.525102 -0.100311 41.094241 -0.609514 1.573237 0.075760 -0.012012 236723.000000 0 0 1
-32.604656 22.952702 0.618089 39.878216 -0.613385 1.555296 0.083812 -0.024381 191916.000000 0 0 1
-32.115256 23.658302 1.768889 39.927858 -0.634914 1.526480 0.076922 -0.026893 -969242.000000 0 0 1
-30.632256 23.343102 2.099289 38.569969 -0.651164 1.516341 0.049303 -0.031596 188847.000000 0 0 1
-29.705956 23.984102 1.258189 38.200314 -0.679227 1.537854 0.052187 -0.025711 -136481.000000 0 0 1
-29.586156 25.348402 1.671789 38.995858 -0.708409 1.527912 0.026772 -0.018410 -879410.000000 0 0 1
-28.888656 26.360002 0.736889 39.114539 -0.739661 1.551956 0.022917 -0.011764 -1307980.000000 0 0 1
-27.533656 26.245502 0.591489 38.043113 -0.761450 1.555248 0.018522 -0.010745 -1562290.000000 0 0 1
-27.044156 27.162802 -0.342411 38.331728 -0.787587 1.579729 0.031751 -0.016020 422531.000000 0 0 1
-25.799756 26.586702 -1.093911 37.063145 -0.800419 1.600315 0.032280 -0.013766 29948.600000 0 0 1
-26.089456 25.534502 -1.926511 36.556558 -0.774649 1.623520 0.050480 -0.019260 -411762.000000 0 0 1
-24.993556 25.018402 -2.634211 35.461773 -0.785895 1.645148 0.046200 -0.008633 -172646.000000 0 0 1
-24.130556 23.947802 -1.991211 34.055042 -0.781597 1.629300 0.039855 -0.013285 366435.000000 0 0 1
-24.803056 22.658502 -1.922811 33.649613 -0.740244 1.627970 0.030588 -0.015349 90268.000000 0 0 1
-23.978156 21.776502 -1.211811 32.413523 -0.737317 1.608191 0.033039 -0.025835 -685057.000000 0 0 1
-24.494256 20.332202 -1.014011 31.849572 -0.692815 1.602639 0.044043 -0.023320 -618744.000000 0 0 1
-25.257256 20.092702 0.158989 32.274927 -0.672004 1.565870 0.034698 -0.020725 -521118.000000 0 0 1
-26.558956 20.560402 0.157289 33.587691 -0.658774 1.566113 0.026403 -0.019951 -1102660.000000 0 0 1
-27.613156 20.072102 -0.828611 34.147654 -0.628555 1.595064 0.033930 -0.026205 -1020340.000000 0 0 1
-27.953556 18.691702 -0.745511 33.635350 -0.589388 1.592963 0.038523 -0.026331 -22337.700000 0 0 1
-29.019856 18.455702 -1.619211 34.429447 -0.566448 1.617844 0.043759 -0.023614 -278219.000000 0 0 1
-29.539556 16.969302 -1.642511 34.106310 -0.521429 1.618974 0.046328 -0.022712 -98457.500000 0 0 1
-30.147056 16.551902 -0.424011 34.394625 -0.502105 1.583124 0.051033 -0.024739 235300.000000 0 0 1
-30.217156 15.131702 -0.329311 33.795759 -0.464260 1.580541 0.057378 -0.028380 1037070.000000 0 0 1
-28.956256 14.388702 0.332689 32.335896 -0.461174 1.560508 0.066696 -0.022238 763362.000000 0 0 1
-28.736856 14.600502 1.723689 32.279291 -0.470087 1.517372 0.071418 -0.022194 132061.000000 0 0 1
-27.451356 14.200002 2.150689 30.981324 -0.477375 1.501322 0.080461 -0.022644 95940.000000 0 0 1
-27.130856 12.663502 2.259289 30.025856 -0.436701 1.495480 0.099021 -0.019363 -340763.000000 0 0 1
-26.965156 12.112002 0.971189 29.576400 -0.422165 1.537954 0.093701 -0.021124 270382.000000 0 0 1
-26.557856 10.780202 1.151189 28.685496 -0.385594 1.530654 0.123725 -0.020678 45239.900000 0 0 1
-26.309656 10.097502 -0.227311 28.181718 -0.366459 1.578862 0.113388 -0.020451 -90263.500000 0 0 1
-27.556956 9.749002 -0.771311 29.240790 -0.340035 1.597177 0.104891 -0.019662 47073.500000 0 0 1
-27.423356 9.119002 -2.047511 28.972210 -0.321025 1.641527 0.104911 -0.021583 146550.000000 0 0 1
-28.781956 8.821202 -2.736111 30.227486 -0.297395 1.661438 0.098458 -0.025813 134331.000000 0 0 1
-28.669356 8.446602 -4.113811 30.169529 -0.286515 1.707579 0.110777 -0.024222 -900943.000000 0 0 1
-29.877356 8.575502 -4.739811 31.442987 -0.279510 1.722116 0.094360 -0.028091 -1021710.000000 0 0 1
-10.768367 17.724802 -19.755811 28.642947 -1.024858 2.331908 0.068742 -0.004764 398114.000000 0 0 1
-11.491967 16.812702 -20.610111 28.974280 -0.971211 2.362177 0.056631 -0.008053 166711.000000 0 0 1
-11.067667 16.897202 -21.978611 29.850763 -0.990914 2.398357 0.050441 -0.008817 233311.000000 0 0 1
-11.499667 15.711202 -22.852311 30.021864 -0.938954 2.435941 0.046305 -0.004931 197772.000000 0 0 1
-10.717767 14.568202 -22.522511 28.885404 -0.936513 2.465014 0.040265 -0.009151 54036.200000 0 0 1
-10.883367 13.560402 -23.452911 29.195397 -0.894482 2.503626 0.041302 -0.010159 -94832.400000 0 0 1
-10.023367 12.295502 -23.177411 28.086289 -0.886852 2.541391 0.012516 -0.006672 -1434730.000000 0 0 1
-8.680267 12.494302 -23.274411 27.805626 -0.963611 2.562646 0.031239 -0.008473 -1629500.000000 0 0 1
-8.077267 11.314902 -22.759211 26.669288 -0.950828 2.593244 0.013194 -0.007131 -1053090.000000 0 0 1
-6.625167 11.387102 -22.375711 25.965966 -1.043857 2.609470 0.035189 -0.005878 -982165.000000 0 0 1
-5.841167 11.231602 -23.563211 26.748701 -1.091226 2.648579 0.027848 -0.011785 658977.000000 0 0 1
-4.475467 11.046102 -23.089611 25.984155 -1.185847 2.665088 0.026352 -0.013920 1069690.000000 0 0 1
-3.448667 11.092302 -24.220911 26.862334 -1.269364 2.694408 0.044931 -0.022680 -227712.000000 0 0 1
-3.347667 9.848702 -24.973811 27.053559 -1.243139 2.746926 0.033286 -0.019343 213339.000000 0 0 1
-2.565167 9.945502 -26.195211 28.136847 -1.318375 2.767920 0.032807 -0.018286 -165494.000000 0 0 1
-2.406467 8.658102 -27.049111 28.502776 -1.299695 2.820843 0.029267 -0.011525 366478.000000 0 0 1
-1.477567 7.663402 -26.580441 27.702541 -1.380325 2.855999 0.039092 -0.011921 697783.000000 0 0 1
-1.929067 7.016702 -25.377961 26.400688 -1.302500 2.862339 0.045074 -0.022823 50945.800000 0 0 1
-0.745667 6.206202 -24.800311 25.575934 -1.451221 2.894689 -0.014142 -0.015081 220317.000000 0 0 1
0.137933 6.967402 -24.015711 25.006361 1.551002 2.859174 0.019394 -0.007894 327302.000000 0 0 1
1.184533 6.197902 -23.416711 24.251999 1.381955 2.878376 0.017336 0.004195 223788.000000 0 1 0
1.343933 6.760402 -21.979611 23.035028 1.374560 2.837711 0.023779 0.002347 508140.000000 0 1 0
2.342833 7.797702 -21.859911 23.326996 1.278925 2.785046 0.037112 -0.018976 597101.000000 0 1 0
2.206233 8.419302 -20.557811 22.324330 1.314514 2.741103 0.041934 -0.020335 239771.000000 0 1 0
2.995333 9.773402 -20.590911 22.988628 1.273407 2.680799 0.047489 -0.026305 16140.200000 0 1 0
2.757233 10.547402 -19.439711 22.287943 1.315105 2.630494 0.041619 -0.028795 6287.340000 0 1 0
3.365033 11.790902 -19.602011 23.121152 1.292794 2.582611 0.049583 -0.028664 51339.900000 0 1 0
4.643633 12.028802 -18.756611 22.761060 1.202380 2.539347 0.043302 -0.021913 235230.000000 0 1 0
5.709233 11.198602 -19.188211 22.938864 1.099326 2.561649 0.053919 -0.022674 -171053.000000 0 1 0
6.568033 10.839402 -18.134711 22.124634 1.026020 2.531616 0.049619 -0.026057 198501.000000 0 1 0
7.613233 9.682102 -18.375211 22.121320 0.904453 2.551082 0.072314 -0.040961 210404.000000 0 1 0
7.226733 8.329702 -18.653711 21.669576 0.856181 2.607685 0.073014 -0.033342 -345570.000000 0 1 0
6.618633 8.218802 -19.922711 22.544831 0.892830 2.654491 0.062978 -0.024617 -63601.700000 0 1 0
6.660833 6.753302 -20.425411 22.520462 0.792291 2.706833 0.074477 -0.015834 47103.400000 0 1 0
7.975033 6.298902 -20.682111 23.044024 0.668507 2.684874 0.076009 -0.007811 103433.000000 0 1 0
7.991633 4.969702 -21.170211 23.167692 0.556340 2.723295 0.067666 0.010932 -545054.000000 0 1 0
7.816733 4.806902 -22.711111 24.494942 0.551340 2.757598 0.076320 0.006471 -652401.000000 0 1 0
6.557333 5.149402 -23.207511 24.659755 0.665706 2.796691 0.090993 -0.004340 -490858.000000 0 1 0
6.399333 4.786302 -24.578111 25.844607 0.642180 2.827237 0.086394 -0.010951 -186046.000000 0 0 1
4.958333 5.189302 -24.976311 25.987113 0.808155 2.861767 0.066652 -0.017983 124110.000000 0 0 1
4.799833 6.582302 -25.274841 26.555276 0.940739 2.829791 0.087070 -0.025385 175866.000000 0 0 1
4.649533 7.392102 -24.110311 25.643097 1.009335 2.794090 0.075833 -0.031644 -1486950.000000 0 0 1
4.783333 8.911102 -24.381811 26.396226 1.078157 2.748387 0.090623 -0.034334 -249363.000000 0 0 1
3.800833 9.581302 -25.091731 27.126420 1.193144 2.751812 0.086210 -0.036272 -174288.000000 0 0 1
2.490733 9.485602 -24.545911 26.432596 1.314013 2.761480 0.077941 -0.028723 184964.000000 0 0 1
1.347833 10.009602 -25.488181 27.416348 1.436947 2.764315 0.061689 -0.015083 370997.000000 0 0 1
1.326333 11.389802 -25.575981 28.028870 1.454869 2.720119 0.082531 -0.030029 86870.800000 0 0 1
0.324733 11.761902 -26.513671 29.007284 1.543194 2.723919 0.087395 -0.027440 -203918.000000 0 0 1
0.258033 13.311402 -26.812511 29.936111 1.551414 2.680704 0.086340 -0.028956 16060.800000 0 0 1
-0.240767 13.993302 -25.646971 29.217077 -1.553592 2.642062 0.088713 -0.031173 811.723000 0 0 1
-0.493467 15.351002 -25.905541 30.116338 -1.538662 2.606423 0.088527 -0.037441 -213237.000000 0 0 1
-0.977967 16.114302 -24.625811 29.445844 -1.510181 2.561312 0.096694 -0.027084 746955.000000 0 0 1
-2.268667 15.542202 -24.356011 28.981411 -1.425852 2.568819 0.080269 -0.026152 117687.000000 0 0 1
-2.666467 15.964102 -23.106911 28.211557 -1.405295 2.530564 0.074480 -0.030672 117335.000000 0 0 1
-3.892167 15.191502 -22.505611 27.430516 -1.319984 2.533010 0.070215 -0.025231 2038450.000000 0 0 1
-5.217967 15.452902 -23.066711 28.250531 -1.245149 2.526128 0.071024 -0.021222 1132000.000000 0 0 1
-5.449067 14.916202 -24.355911 29.075691 -1.220546 2.563804 0.061335 -0.018359 -147671.000000 0 0 1
-6.959867 14.977402 -24.690811 29.705193 -1.135793 2.552050 0.034678 -0.013479 254560.000000 0 0 1
-7.468967 16.277402 -24.887311 30.661336 -1.140603 2.517826 0.038452 -0.009338 -1111210.000000 0 0 1
-8.794367 16.140502 -25.254751 31.235543 -1.071905 2.512439 0.039968 -0.007389 -788655.000000 0 0 1
-9.471667 17.437602 -25.835181 32.576664 -1.073208 2.486609 0.049638 -0.014559 268126.000000 0 0 1
-9.883867 18.378602 -24.882211 32.474425 -1.077374 2.443718 0.054532 -0.016197 -498395.000000 0 0 1
-10.774867 19.285702 -25.413501 33.673166 -1.061300 2.426009 0.050194 -0.011027 -117419.000000 0 0 1
-11.304467 20.369102 -24.402611 33.736904 -1.064137 2.379396 0.042019 -0.006155 276215.000000 0 0 1
-10.387467 21.438802 -24.164611 33.933024 -1.119612 2.363319 0.053748 -0.005861 375408.000000 0 0 1
-10.846367 22.757002 -24.601011 35.224062 -1.126030 2.343977 0.038552 -0.010381 -109224.000000 0 0 1
-10.790467 23.036402 -26.152811 36.483962 -1.132739 2.370042 0.028593 -0.014126 -320191.000000 0 0 1
-11.647967 22.302702 -26.975261 36.888350 -1.089494 2.390975 0.022278 -0.012171 -115774.000000 0 0 1
-11.596467 22.847202 -28.315701 38.187061 -1.101114 2.406099 0.045128 -0.015162 -19349.300000 0 0 1
-12.231667 21.864302 -29.362031 38.597801 -1.060738 2.435214 0.034302 -0.015064 48272.600000 0 0 1
-11.457667 20.792902 -29.856211 38.144675 -1.067157 2.469804 0.046664 -0.018543 -323466.000000 0 0 1
-11.284967 19.709502 -29.024031 36.853892 -1.050794 2.477608 0.053235 -0.013113 566808.000000 0 0 1
-10.127867 18.806402 -29.610231 36.510550 -1.076800 2.516664 0.039093 -0.012974 155208.000000 0 0 1
-8.848767 19.410802 -29.597531 36.484158 -1.143073 2.517072 0.035332 -0.011010 -81942.500000 0 0 1
-7.832367 18.706002 -30.274201 36.438822 -1.174266 2.551381 0.035165 -0.004128 546688.000000 0 0 1
-7.302567 17.405102 -29.475151 35.000708 -1.173538 2.572017 0.051772 -0.017336 -503684.000000 0 0 1
-8.213167 16.309002 -29.544471 34.732052 -1.104275 2.587998 0.045770 -0.016112 107781.000000 0 0 1
-7.843667 15.156502 -28.785631 33.464238 -1.093238 2.606440 0.030904 -0.010644 -280745.000000 0 0 1
-8.920467 14.063302 -28.761261 33.234941 -1.005531 2.616729 0.030370 -0.013792 189188.000000 0 0 1
-10.008267 14.326602 -27.882041 32.906309 -0.961024 2.581707 0.035225 -0.011137 20552.300000 0 0 1
-11.187067 13.699102 -28.341451 33.407390 -0.885998 2.583674 0.057938 -0.018587 200807.000000 0 0 1
-12.371267 13.937502 -27.368301 33.110816 -0.844861 2.543777 0.046220 -0.010934 156708.000000 0 0 1
-12.852967 15.290402 -27.335641 33.856055 -0.871790 2.510541 0.041195 -0.012671 -405392.000000 0 0 1
-13.468167 15.619002 -26.128421 33.287222 -0.859208 2.473393 0.025888 -0.012335 623602.000000 0 0 1
-14.522267 16.792302 -26.186601 34.330973 -0.857763 2.438381 0.006070 -0.015595 644715.000000 0 0 1
-13.947167 18.052002 -26.339681 34.845043 -0.912981 2.427838 0.005350 -0.004727 97768.000000 0 0 1
-15.005367 19.006202 -26.389621 35.816321 -0.902492 2.399128 -0.013415 0.000619 72455.700000 0 0 1
-14.554567 20.469902 -26.615311 36.595452 -0.952711 2.385154 -0.010475 -0.005174 -32531.700000 0 0 1
-15.687367 21.308302 -26.764511 37.636103 -0.936180 2.361914 -0.038170 0.001583 180875.000000 0 0 1
-15.369267 22.721002 -26.838891 38.376873 -0.976062 2.345285 -0.023981 -0.002311 291049.000000 0 0 1
-14.628467 23.463602 -25.652031 37.716831 -1.013310 2.318725 -0.041882 -0.002724 280743.000000 0 0 1
-14.407067 24.859602 -25.854281 38.652390 -1.045559 2.303514 -0.017883 -0.013903 -218285.000000 0 0 1
-13.762667 25.461302 -24.786811 38.106101 -1.075251 2.278997 0.007073 -0.016481 -194241.000000 0 0 1
-13.324767 26.904802 -25.161411 39.172878 -1.110951 2.268314 0.028598 -0.017185 -85301.100000 0 0 1
-14.398367 27.757902 -25.459291 40.323561 -1.092291 2.254121 0.041821 -0.014590 -216653.000000 0 0 1
-14.819067 28.680702 -24.445511 40.494079 -1.093885 2.218907 0.054246 -0.021855 -222308.000000 0 0 1
-16.035167 29.501602 -24.912311 41.810218 -1.072930 2.209111 0.045479 -0.024056 -794779.000000 0 0 1
-17.153067 28.710202 -24.877811 41.682237 -1.032250 2.210359 0.026128 -0.017419 -1559140.000000 0 0 1
-18.309967 29.386102 -25.279221 42.870000 -1.013577 2.201448 0.031339 -0.021186 98590.200000 0 0 1
-19.553067 28.449602 -25.378481 42.845882 -0.968653 2.204732 0.043441 0.003452 73511.800000 0 0 1
-20.095467 28.171602 -24.124311 42.183520 -0.951184 2.179604 0.049682 -0.008759 -575308.000000 0 0 1
-21.062367 27.184202 -24.322911 42.121350 -0.911610 2.186396 0.046685 -0.025557 -326063.000000 0 0 1
-21.847367 26.833802 -23.035611 41.569216 -0.887473 2.158139 0.045906 -0.018772 -213076.000000 0 0 1
-22.648067 27.887302 -22.565011 42.424242 -0.888704 2.131627 0.045637 -0.005359 -386088.000000 0 0 1
-23.105867 27.615402 -21.312411 41.841491 -0.874073 2.105238 0.027334 -0.003445 -141226.000000 0 0 1
-24.416367 28.302702 -20.836311 42.794319 -0.858983 2.079327 0.019590 0.009808 695360.000000 0 0 1
-25.570637 27.606502 -21.299211 43.239251 -0.823664 2.085859 -0.001816 0.006573 433382.000000 0 0 1
-26.810327 28.228502 -21.000911 44.234378 -0.811159 2.065493 0.006821 0.006279 980640.000000 0 0 1
-28.089107 27.473902 -21.476411 44.777779 -0.774326 2.071020 0.000312 0.003555 490293.000000 0 0 1
-28.090717 27.238302 -22.877111 45.325221 -0.769993 2.099868 -0.001743 0.010251 -60091.000000 0 0 1
-29.392507 26.877002 -23.278711 46.132322 -0.740723 2.099723 0.002079 0.000386 30134.900000 0 0 1
-29.332727 26.496302 -24.781511 46.653898 -0.734636 2.130786 0.006410 0.008932 214282.000000 0 0 1
-29.041477 25.115402 -25.013211 45.824137 -0.713030 2.148202 0.011833 0.008172 -177924.000000 0 0 1
-29.224187 24.958502 -26.412731 46.632738 -0.706832 2.172926 0.029562 -0.001809 -57466.400000 0 0 1
-29.073427 23.495002 -27.008081 46.116328 -0.679676 2.196479 0.035138 -0.008217 170817.000000 0 0 1
-27.783107 22.907902 -26.929161 44.965017 -0.689518 2.212912 0.038621 -0.027832 10273.900000 0 0 1
-27.793437 21.661902 -27.577171 44.746100 -0.662046 2.234836 0.060434 -0.035240 -355413.000000 0 0 1
-26.498207 20.885402 -27.413311 43.472343 -0.667493 2.253112 0.060118 -0.031544 -459287.000000 0 0 1
-26.267497 20.352102 -26.109161 42.259647 -0.659186 2.236773 0.062249 -0.031528 -205757.000000 0 0 1
-25.834617 19.022602 -26.173391 41.404507 -0.634690 2.255107 0.029232 -0.036586 359996.000000 0 0 1
-26.909977 17.897302 -25.884941 41.406406 -0.586904 2.246112 0.034406 -0.017587 692271.000000 0 0 1
-27.993017 17.794602 -26.796841 42.641852 -0.566242 2.250312 0.041832 -0.023593 252412.000000 0 0 1
-28.524437 16.466502 -26.689571 42.392481 -0.523544 2.251812 0.030583 -0.019411 -197512.000000 0 0 1
-29.314127 15.902202 -27.848721 43.448238 -0.497048 2.266549 0.031682 -0.017527 183451.000000 0 0 1
-30.607707 16.480802 -27.980821 44.624824 -0.493934 2.248523 0.028892 -0.015967 159758.000000 0 0 1
-31.315607 15.723002 -28.970491 45.466135 -0.465312 2.261641 0.032807 -0.005959 -57165.300000 0 0 1
-32.616237 16.395802 -29.399871 46.872099 -0.465796 2.248796 0.034906 -0.013040 -35550.800000 0 0 1
-33.746817 16.292802 -28.550611 47.110938 -0.449789 2.221856 0.026020 -0.009358 389508.000000 0 0 1
-34.898828 16.731602 -29.282271 48.531702 -0.447058 2.218509 0.032208 -0.009968 1519220.000000 0 0 1
-36.268917 16.450702 -28.524571 48.986846 -0.425824 2.192339 0.035521 -0.008373 942384.000000 0 0 1
35.955451 17.501202 -27.609601 48.593998 0.452989 2.175075 0.039467 -0.016622 158469.000000 0 0 1
34.783711 17.126602 -26.898651 47.188606 0.457528 2.177332 0.052261 -0.018002 72806.100000 0 0 1
34.417001 18.067702 -25.768321 46.636662 0.483419 2.156197 0.070159 -0.015175 167756.000000 0 0 1
33.530971 19.072002 -26.288981 46.681665 0.517153 2.168994 0.075818 -0.024734 310801.000000 0 0 1
33.323091 20.136702 -25.356591 46.463662 0.543566 2.148056 0.089039 -0.019031 -698843.000000 0 0 1
32.623381 21.358202 -25.973071 46.851448 0.579665 2.158403 0.079166 -0.022725 -597766.000000 0 0 1
31.286301 21.288602 -26.315321 46.092660 0.597481 2.178425 0.068866 -0.021466 -776738.000000 0 0 1
30.369811 21.348102 -25.218111 44.877834 0.612695 2.167511 0.085574 -0.015293 109435.000000 0 0 1
28.921311 21.161502 -25.752361 44.129758 0.631681 2.193902 0.044892 -0.019400 287323.000000 0 0 1
28.569441 19.887802 -26.188121 43.560938 0.608118 2.215778 0.050343 -0.031166 -500086.000000 0 0 1
27.318821 19.855802 -26.818701 43.125556 0.628499 2.241931 0.043881 -0.032678 -313779.000000 0 0 1
26.729321 18.439702 -27.174581 42.343088 0.603894 2.267602 0.069505 -0.033416 -271443.000000 0 0 1
27.517421 17.561202 -27.978731 42.993182 0.568024 2.279396 0.075314 -0.042708 -131901.000000 0 0 1
28.530301 17.006202 -27.157621 42.903676 0.537529 2.256206 0.084844 -0.035879 -590503.000000 0 0 1
29.379251 15.987402 -27.901231 43.557045 0.498359 2.266034 0.072976 -0.026945 -602191.000000 0 0 1
28.831091 14.797002 -28.374101 43.072877 0.474176 2.289948 0.085720 -0.032079 -195385.000000 0 0 1
28.021421 13.971302 -27.539751 41.699343 0.462522 2.292196 0.100492 -0.037225 2451.380000 0 0 1
28.712151 13.024302 -26.522521 41.200294 0.425857 2.270180 0.104116 -0.030749 -79631.400000 0 0 1
29.536571 13.649302 -25.574461 41.385572 0.432883 2.236937 0.096226 -0.026146 324722.000000 0 0 1
30.285271 12.738802 -24.743311 41.130356 0.398161 2.216277 0.091372 -0.018921 435742.000000 0 0 1
-14.675767 -31.235134 -23.603511 41.810734 1.131560 2.170663 0.093820 -0.006591 169721.000000 0 0 1
-13.785967 -30.344634 -24.280811 41.235998 1.144361 2.200401 0.085826 -0.028294 371326.000000 0 0 1
-14.218267 -30.096934 -25.588451 41.985157 1.129459 2.226181 0.062276 -0.013776 -81647.900000 0 0 1
-13.404667 -28.996234 -26.321341 41.391783 1.137769 2.259980 0.063226 -0.017540 -67460.400000 0 0 1
-13.847267 -27.733834 -25.886541 40.385955 1.107716 2.266569 0.067183 -0.012977 68336.600000 0 0 1
-13.151667 -26.672834 -26.514391 39.842432 1.112705 2.298935 0.060874 -0.015994 -333006.000000 0 0 1
-13.491767 -25.268234 -26.122841 38.767438 1.080365 2.310183 0.044128 -0.011999 -240063.000000 0 0 1
-13.124167 -24.851334 -24.843111 37.510168 1.084917 2.294685 0.051284 -0.025460 219463.000000 0 0 1
-13.581767 -23.500634 -24.749411 36.732514 1.046761 2.310101 0.052158 -0.018967 16076.000000 0 0 1
-13.220067 -22.878934 -23.384411 35.285216 1.046840 2.295249 0.053380 -0.010871 881214.000000 0 0 1
-11.799067 -22.728034 -23.253211 34.590365 1.091953 2.308034 0.065270 -0.026752 517263.000000 0 0 1
-11.408767 -22.158334 -22.015811 33.254288 1.095320 2.294339 0.048591 -0.014567 -58625.400000 0 0 1
-9.888667 -22.003734 -21.890711 32.575348 1.148434 2.307706 0.049413 -0.018923 -49670.300000 0 0 1
-9.271767 -21.176334 -22.873911 32.521049 1.158104 2.350906 0.054985 -0.025948 756180.000000 0 0 1
-7.841167 -21.169834 -22.775011 32.067848 1.216070 2.360597 0.064746 -0.020033 711289.000000 0 0 1
-7.198867 -20.058334 -23.639311 31.827307 1.226218 2.407945 0.049353 -0.008724 -116517.000000 0 0 1
-7.323367 -18.833834 -22.984711 30.604607 1.199947 2.420404 0.046414 -0.009189 66888.000000 0 0 1
-7.768567 -17.673934 -23.787411 30.635919 1.156667 2.459817 0.031441 -0.014731 -508844.000000 0 0 1
-6.845767 -16.908334 -24.744411 30.741538 1.186094 2.506333 0.049273 -0.016238 -232347.000000 0 0 1
-6.467567 -17.639034 -25.884151 31.983656 1.219355 2.513744 0.067478 -0.031383 322454.000000 0 0 1
-5.358567 -17.067134 -26.557281 32.020158 1.266573 2.548816 0.045319 -0.024810 41790.400000 0 0 1
-5.307467 -17.729434 -27.924531 33.500470 1.279928 2.556311 0.057039 -0.020209 12213.000000 0 0 1
-6.328267 -17.350734 -28.856481 34.260640 1.221063 2.572265 0.083383 -0.024629 412314.000000 0 0 1
-6.173067 -18.117734 -30.044211 35.623218 1.242413 2.574355 0.081080 -0.031790 -128642.000000 0 0 1
-7.271267 -17.737834 -31.066291 36.505021 1.181759 2.588710 0.092646 -0.030655 80835.900000 0 0 1
-7.167667 -16.550534 -31.790611 36.550494 1.162104 2.625537 0.077344 -0.025205 -171945.000000 0 0 1
-7.256367 -15.317834 -31.083571 35.404510 1.128393 2.642370 0.060654 -0.024589 -143703.000000 0 0 1
-7.658067 -14.148434 -32.056031 35.866604 1.074683 2.676449 0.042918 -0.024625 -364310.000000 0 0 1
-6.680967 -13.727234 -32.985291 36.346963 1.117850 2.708118 0.064228 -0.021521 -93451.200000 0 0 1
-7.262567 -13.048534 -34.122057 37.246797 1.062915 2.729057 0.061449 -0.023510 97951.900000 0 0 1
-7.524167 -11.559834 -34.052021 36.739393 0.993796 2.756738 0.041422 -0.024180 2024260.000000 0 0 1
-6.241167 -10.819534 -33.986441 36.209014 1.047578 2.789399 0.043600 -0.022399 1679420.000000 0 0 1
-5.907967 -10.285034 33.290671 35.340554 1.049395 0.342267 0.039329 -0.021492 -364789.000000 0 0 1
-4.837467 -9.225734 33.408277 34.994688 1.087863 0.302257 0.047538 -0.019961 -373539.000000 0 0 1
-4.745467 -8.564534 32.155187 33.612896 1.064823 0.295583 0.041999 -0.015932 332250.000000 0 0 1
-3.640267 -7.655734 32.153167 33.251887 1.126944 0.257782 0.029543 -0.021281 -357669.000000 0 0 1
-3.691967 -6.667334 30.922277 31.847624 1.065087 0.241650 0.021090 -0.015212 222875.000000 0 0 1
-4.810367 -5.802834 30.856277 31.763538 0.878639 0.239583 0.030878 -0.012353 -35095.400000 0 0 1
-6.025967 -6.431734 30.500377 31.748267 0.817958 0.281304 0.027155 -0.012628 -891099.000000 0 0 1
-7.154767 -5.436334 30.323667 31.627033 0.649756 0.288086 0.023322 -0.014108 -819466.000000 0 0 1
-8.347367 -6.027134 29.905157 31.627888 0.625365 0.331574 0.038171 -0.010351 -1202210.000000 0 0 1
-9.312467 -5.045834 29.721867 31.552684 0.496554 0.342328 0.036187 -0.016926 401979.000000 0 0 1
-10.601767 -5.627234 29.035607 31.418620 0.487969 0.391984 0.044137 -0.017921 334424.000000 0 0 1
-10.314767 -5.694634 27.698397 30.100241 0.504443 0.402192 0.043338 -0.012822 554278.000000 0 0 1
-11.260567 -6.394034 26.875017 29.832040 0.516426 0.449009 0.048360 -0.020226 121960.000000 0 0 1
-11.076267 -6.143634 25.376767 28.362092 0.506419 0.462942 0.046471 -0.020354 155925.000000 0 0 1
-9.878267 -6.730534 24.887277 27.608999 0.598098 0.447760 0.042423 -0.014652 210399.000000 0 0 1
-9.558567 -6.373734 23.555627 26.207981 0.588101 0.453781 0.045034 -0.017151 478901.000000 0 0 1
-10.571567 -6.837734 22.387527 25.684898 0.574125 0.512294 0.058530 -0.022684 1465550.000000 0 0 1
-11.660967 -5.875034 22.308827 25.849138 0.466699 0.529540 0.059133 -0.019381 227125.000000 0 0 1
-12.424167 -6.044734 21.151827 25.264571 0.452814 0.578629 0.056057 -0.019202 -97466.000000 0 0 1
-13.594967 -5.024734 21.152627 25.641855 0.354030 0.600725 0.044021 -0.012809 329664.000000 0 0 1
-13.122467 -3.675034 20.887227 24.939552 0.273061 0.578079 0.035748 -0.009252 -297305.000000 0 1 0
-14.201867 -2.821834 20.736827 25.291733 0.196140 0.609551 0.031808 -0.006539 -257745.000000 0 0 1
-13.825467 -1.431834 20.199327 24.519513 0.103197 0.602703 0.021038 -0.003885 -286494.000000 0 1 0
-13.020967 -0.604834 20.989427 24.707640 0.046417 0.555737 0.025554 -0.002267 -73023.200000 0 1 0
-13.092367 0.777166 20.698727 24.504109 -0.059291 0.564784 0.018879 -0.002893 -330876.000000 0 1 0
-12.557467 1.277166 19.282427 23.046326 -0.101357 0.579601 0.029874 -0.012605 -207737.000000 0 1 0
-13.366267 0.989166 18.194927 22.598472 -0.073870 0.634885 0.032969 -0.010156 -199282.000000 0 1 0
-14.597867 1.679166 18.123727 23.332098 -0.114525 0.681272 0.016950 -0.007193 -302029.000000 0 1 0
-15.717667 0.947166 17.412127 23.476038 -0.060188 0.735198 0.034534 -0.003705 -522195.000000 0 1 0
-16.050067 -0.312834 17.908427 24.050245 0.019489 0.730823 0.018179 -0.002248 291565.000000 0 1 0
-16.913367 -1.061834 17.071027 24.054302 0.062698 0.781742 0.014680 0.005040 -54761.300000 0 1 0
-16.915267 -2.566834 17.357127 24.371803 0.150598 0.778197 0.017462 0.003354 -103402.000000 0 1 0
-17.690867 -2.902834 18.501127 25.762083 0.162637 0.769651 0.027279 0.007160 150995.000000 0 0 1
-17.717667 -4.303134 18.730727 26.139488 0.238259 0.771926 0.029479 -0.002457 -217775.000000 0 0 1
-18.504467 -4.801134 19.969427 27.644967 0.253860 0.763597 0.019891 -0.001136 -505309.000000 0 0 1
-18.028467 -4.448734 21.258927 28.226917 0.241928 0.717968 0.029527 -0.001612 -296636.000000 0 0 1
-18.927867 -4.569934 22.326427 29.624615 0.236906 0.717207 0.036053 -0.013322 -718811.000000 0 0 1
-19.189167 -6.057034 22.825727 30.429026 0.305751 0.722538 0.032607 -0.016379 210652.000000 0 0 1
-18.051267 -6.705334 23.370827 30.282096 0.355664 0.689176 0.059359 -0.021829 1113980.000000 0 0 1
-17.007867 -7.082134 22.406427 29.008139 0.394567 0.688156 0.033296 -0.010987 50149.900000 0 0 1
-15.740167 -7.511434 23.139827 28.976302 0.445254 0.645868 0.036128 -0.015430 -642494.000000 0 0 1
-15.778067 -8.730934 23.795057 29.856010 0.505418 0.648495 0.043316 -0.022806 -130054.000000 0 0 1
-14.699767 -8.924834 24.680177 30.080674 0.545654 0.608570 0.065962 -0.016100 -152294.000000 0 0 1
-14.990667 -9.761334 25.925867 31.498481 0.577191 0.603978 0.047752 -0.012732 -17449.500000 0 0 1
-15.120567 -11.102234 25.599837 31.737089 0.633343 0.632382 0.037928 -0.014325 25272.900000 0 0 1
-14.717767 -11.873634 26.750937 32.759861 0.678846 0.615341 0.044328 -0.013029 80872.100000 0 0 1
-14.622367 -13.410634 26.579787 33.168416 0.742200 0.641234 0.040915 -0.014781 322737.000000 0 0 1
-15.928167 -13.989934 26.691287 34.085915 0.720704 0.671227 0.039156 -0.011229 558830.000000 0 0 1
-16.062467 -15.386034 26.588567 34.665326 0.763892 0.696632 0.047672 -0.009568 -191534.000000 0 0 1
-15.275667 -16.303934 27.581197 35.494883 0.817948 0.680835 0.046191 -0.005692 402219.000000 0 0 1
-13.901167 -16.340234 27.222997 34.660313 0.865877 0.667418 0.042416 -0.011696 32327.800000 0 0 1
-13.175167 -17.257934 27.989907 35.423950 0.918757 0.659758 0.043411 -0.004781 -206637.000000 0 0 1
-11.760767 -17.394334 27.379257 34.503655 0.976273 0.654229 0.041342 -0.011512 73260.600000 0 0 1
-10.873867 -18.159734 28.181797 35.245292 1.031267 0.644183 0.052117 -0.013225 838251.000000 0 0 1
-9.724467 -18.630334 27.450917 34.571773 1.089728 0.653391 0.043907 -0.009346 362675.000000 0 0 1
-8.634367 -19.281134 28.285667 35.304297 1.149762 0.641505 0.067869 -0.017024 -487692.000000 0 0 1
-8.968767 -20.595134 28.709977 36.453547 1.160083 0.663929 0.062800 -0.008774 -60246.200000 0 0 1
-7.989067 -21.208634 29.509857 37.208373 1.210545 0.654919 0.072056 -0.007400 -335495.000000 0 0 1
-8.394167 -22.552134 30.082317 38.522806 1.214472 0.674697 0.071420 -0.011616 -114868.000000 0 0 1
-8.387967 -23.626634 29.183417 38.473987 1.229655 0.709752 0.072090 -0.022075 65746.700000 0 0 1
-8.588267 -24.853534 29.862807 39.789995 1.238087 0.721962 0.068702 -0.026327 -142985.000000 0 0 1
-8.692867 -26.090334 29.034857 39.991179 1.249181 0.758263 0.062399 -0.026982 -96597.200000 0 0 1
-9.896467 -26.113234 28.285147 39.747838 1.208538 0.779002 0.056588 -0.023648 297527.000000 0 0 1
-10.065667 -27.381934 27.629147 40.180315 1.218527 0.812578 0.056510 -0.023964 -516675.000000 0 0 1
-11.433967 -27.483434 26.945537 40.151422 1.176547 0.835108 0.053454 -0.025582 -290831.000000 0 0 1
-11.567467 -26.777534 25.710977 38.883119 1.163025 0.848329 0.063796 -0.029732 223289.000000 0 0 1
-11.711767 -25.390334 25.792177 38.040386 1.138611 0.825730 0.048018 -0.013351 -483524.000000 0 0 1
-11.935967 -24.889434 24.374387 36.824747 1.123634 0.847443 0.058202 -0.031327 813410.000000 0 0 1
-13.193467 -25.266934 23.761627 37.109304 1.089576 0.875889 0.047424 -0.026937 1064290.000000 0 0 1
-13.084667 -25.092634 22.359327 36.066443 1.090133 0.902120 0.048730 -0.027022 -154506.000000 0 0 1
-14.419667 -25.205434 21.612627 36.198707 1.051155 0.930971 0.047660 -0.030294 -221166.000000 0 0 1
-14.866767 -26.549634 21.430027 37.217602 1.060337 0.957210 0.052219 -0.026665 587754.000000 0 0 1
-16.149667 -26.485934 20.794427 37.346012 1.023242 0.980263 0.049826 -0.021477 625158.000000 0 0 1
-16.530667 -27.834934 20.182727 38.149561 1.034887 1.013325 0.053455 -0.029356 -209536.000000 0 0 1
-15.488567 -28.233934 19.352227 37.570726 1.069044 1.029686 0.047011 -0.018956 -257507.000000 0 0 1
-15.737067 -29.486434 18.774127 38.335009 1.080549 1.059007 0.066433 -0.013588 23219.500000 0 0 1
-14.636467 -29.912834 17.797527 37.759181 1.115742 1.079983 0.062215 -0.020375 -216826.000000 0 0 1
-14.705567 -29.230634 16.566327 36.675971 1.104682 1.102133 0.067555 -0.018190 -352206.000000 0 0 1
-13.683267 -29.502134 15.637827 36.085307 1.136521 1.122582 0.055627 -0.023812 -640827.000000 0 0 1
-13.896767 -29.000334 14.193527 35.151042 1.123932 1.155144 0.048900 -0.012170 -197796.000000 0 0 1
-13.841867 -27.590134 14.039427 33.910445 1.105793 1.143936 0.046264 -0.008747 -46955.300000 0 0 1
-14.393167 -27.130034 12.811527 33.276677 1.083028 1.175588 0.050251 -0.005519 -88957.600000 0 0 1
-13.414367 -26.922134 11.625627 32.247508 1.108537 1.201979 0.037959 -0.004830 102648.000000 0 0 1
-13.968767 -26.369834 10.428027 31.610732 1.083652 1.234611 0.033131 -0.004462 410664.000000 0 0 1
-12.994167 -26.419534 9.343827 30.889274 1.113699 1.263488 0.038166 -0.007080 709932.000000 0 0 1
-13.486067 -25.723334 8.055327 30.140541 1.087919 1.300249 0.044183 -0.009497 771083.000000 0 0 1
-14.557367 -26.461834 7.409527 31.097374 1.067856 1.330214 0.052947 -0.009842 611355.000000 0 0 1
-14.963167 -25.689734 6.281527 30.386122 1.043376 1.362571 0.059212 -0.007659 -43752.000000 0 0 1
-15.843667 -26.377134 5.236827 31.212167 1.029892 1.402217 0.059066 -0.008518 99227.700000 0 0 1
-15.138667 -27.440634 4.585827 31.673292 1.066658 1.425500 0.066895 -0.009550 285235.000000 0 0 1
-15.871367 -27.979434 3.469627 32.354093 1.054805 1.463351 0.082690 -0.004625 36423.100000 0 0 1
-15.131667 -29.108734 2.767227 32.923294 1.091409 1.486646 0.077819 -0.011962 -341101.000000 0 0 1
-13.971767 -28.735234 2.070327 32.018904 1.118230 1.506092 0.061079 -0.001336 -223056.000000 0 0 1
-13.547067 -29.719534 1.108927 32.680322 1.143104 1.536857 0.052926 -0.012826 -147730.000000 0 0 1
-12.103667 -29.538234 0.604627 31.927599 1.181902 1.551858 0.040236 -0.014545 -65760.800000 0 0 1
-11.870667 -28.658934 -0.484173 31.023889 1.178105 1.586403 0.042539 -0.014182 -160059.000000 0 0 1
-11.880467 -27.265234 -0.126973 29.741463 1.159867 1.575066 0.039850 -0.012766 -528032.000000 0 0 1
-11.540867 -26.435834 -1.351673 28.876841 1.159174 1.617622 0.035988 -0.001140 572204.000000 0 0 1
-10.230367 -26.704234 -1.857773 28.657073 1.204944 1.635670 0.030670 -0.009351 97999.500000 0 0 1
-10.079167 -26.202534 -3.155773 28.251041 1.203580 1.682735 0.039018 -0.007963 -509284.000000 0 0 1
-8.726267 -26.548434 -3.718973 28.192159 1.253228 1.703097 0.028328 -0.005403 -577335.000000 0 0 1
-8.350567 -25.706234 -4.789773 27.449670 1.256704 1.746187 0.035059 -0.004670 -17175.600000 0 0 1
-7.051667 -26.057134 -5.252473 27.500704 1.306504 1.762971 0.034027 0.002580 474683.000000 0 0 1
-6.413567 -24.915734 -6.081273 26.436897 1.318855 1.802905 0.035901 -0.004052 10539.800000 0 0 1
-6.965767 -24.709134 -7.397073 26.716660 1.296017 1.851333 0.035197 -0.001705 -189766.000000 0 0 1
-6.387167 -23.605934 -7.958473 25.717179 1.306549 1.885423 0.039694 -0.000248 -218233.000000 0 0 1
-6.554067 -23.475034 -9.455473 26.142666 1.298536 1.940874 0.035560 -0.005541 235922.000000 0 0 1
-5.755267 -24.425034 -10.181973 27.080952 1.339388 1.956254 0.031738 -0.012830 124849.000000 0 0 1
-6.042667 -24.484434 -11.541773 27.734705 1.328835 2.000003 0.027737 -0.007501 762677.000000 0 0 1
-7.337167 -25.241834 -12.054473 28.918757 1.287916 2.000762 0.024428 -0.013014 951089.000000 0 0 1
-7.480467 -25.243434 -13.468173 29.573299 1.282707 2.043636 0.037361 -0.010563 722952.000000 0 0 1
-8.667667 -26.026734 -13.758073 30.688824 1.249319 2.035669 0.037857 -0.013192 137068.000000 0 0 1
-8.980967 -26.258234 -15.258373 31.669711 1.241244 2.073501 0.044712 -0.010464 715799.000000 0 0 1
-7.904067 -26.981234 -15.893773 32.296645 1.285823 2.085318 0.048970 -0.011538 1392300.000000 0 0 1
-6.608867 -26.356934 -15.943173 31.504759 1.325117 2.101402 0.052231 -0.014604 349872.000000 0 0 1
-5.604467 -27.291134 -16.693873 32.479246 1.368254 2.110621 0.047121 -0.010620 -75949.800000 0 0 1
-5.738767 -27.046034 -18.086473 33.038491 1.361712 2.150094 0.071376 -0.011457 89682.200000 0 0 1
-4.754267 -27.642034 -18.905373 33.824521 1.400469 2.163885 0.062949 -0.016733 -46558.800000 0 0 1
-25.603877 14.397502 -5.144111 29.821275 -0.512251 1.744161 0.079467 -0.027465 -191415.000000 0 0 1
-25.675807 13.026402 -4.800011 29.188599 -0.469504 1.735995 0.072821 -0.016593 554423.000000 0 0 1
-24.402367 12.428202 -4.531811 27.757396 -0.471062 1.734795 0.093378 -0.014326 129198.000000 0 0 1
-24.385967 10.908102 -4.310711 27.060013 -0.420615 1.730780 0.095416 -0.028350 -6527.540000 0 0 1
-24.681267 10.068702 -5.446411 27.206747 -0.387340 1.772344 0.081715 -0.027987 316263.000000 0 0 1
-26.059007 10.136302 -5.783611 28.552874 -0.370966 1.774766 0.073446 -0.026186 -52381.900000 0 0 1
-26.403977 9.449502 -7.138511 28.938235 -0.343679 1.820050 0.088784 -0.024177 -135871.000000 0 0 1
-26.129937 10.351902 -8.200811 29.277787 -0.377200 1.854698 0.113305 -0.015601 -127891.000000 0 0 1
-26.258767 9.640702 -9.410111 29.512983 -0.351864 1.895309 0.113756 -0.017140 -452309.000000 0 0 1
-26.558957 10.651302 -10.564111 30.502932 -0.381406 1.924454 0.096760 -0.017087 -361944.000000 0 0 1
-25.548867 11.526002 -10.904411 30.074898 -0.423798 1.941826 0.098283 -0.013647 -324756.000000 0 0 1
-26.063947 12.254502 -11.987711 31.196272 -0.439501 1.965211 0.097902 -0.011412 -56895.800000 0 0 1
-25.239487 13.453702 -12.435011 31.187550 -0.489730 1.980914 0.083543 -0.004750 -210693.000000 0 0 1
-25.154577 14.525302 -11.508011 31.243743 -0.523667 1.948009 0.084222 -0.001740 -107172.000000 0 0 1
-24.629967 15.577002 -12.251711 31.613015 -0.563932 1.968772 0.074459 0.000185 29136.800000 0 0 1
-24.527467 16.966102 -11.570211 31.989296 -0.605146 1.940876 0.089548 -0.005923 -196542.000000 0 0 1
-23.443567 17.090402 -10.703511 30.923257 -0.629926 1.924241 0.077991 0.003097 -456240.000000 0 0 1
-23.543167 18.316302 -9.956811 31.446871 -0.661174 1.892964 0.049267 0.010361 838414.000000 0 0 1
-22.365067 18.677002 -8.936011 30.477515 -0.695778 1.868369 0.042750 0.008450 777717.000000 0 0 1
-22.360967 17.966802 -7.729211 29.707903 -0.676865 1.833998 0.059885 -0.005764 -200286.000000 0 0 1
-23.265967 18.507302 -6.830511 30.503792 -0.671971 1.796635 0.054199 -0.011763 -905784.000000 0 0 1
-23.366367 17.708802 -5.498711 29.829928 -0.648523 1.756192 0.056104 -0.006516 254272.000000 0 0 1
-22.272167 17.886802 -4.614511 28.935805 -0.676629 1.730954 0.055332 -0.019073 466773.000000 0 0 1
-22.662567 17.417102 -3.312811 28.773636 -0.655262 1.686186 0.055742 -0.016424 900812.000000 0 0 1
-21.429867 17.426202 -2.317511 27.717911 -0.682722 1.654505 0.058040 -0.026027 612678.000000 0 0 1
-21.113467 18.745702 -1.871711 28.296345 -0.726065 1.636991 0.064939 -0.032206 -343915.000000 0 0 1
-19.900567 18.589902 -1.204011 27.259249 -0.751360 1.614980 0.092320 -0.031266 -480361.000000 0 0 1
-19.502067 19.853902 -0.509511 27.834648 -0.794338 1.589102 0.079326 -0.040386 -158103.000000 0 0 1
-20.357667 20.106502 0.604389 28.619422 -0.779191 1.549677 0.066394 -0.026631 344458.000000 0 0 1
-20.417967 21.511602 0.744689 29.668113 -0.811475 1.545693 0.073201 -0.027196 -348931.000000 0 0 1
-21.492967 21.939502 1.725289 30.761437 -0.795679 1.514681 0.042620 -0.027864 -421632.000000 0 0 1
-21.203967 21.683002 3.090389 30.484607 -0.796567 1.469246 0.079513 -0.024546 407152.000000 0 0 1
-22.297867 22.025502 3.915789 31.585614 -0.779253 1.446503 0.051748 -0.019808 7078.590000 0 0 1
-21.908967 21.561102 5.307489 31.193804 -0.777396 1.399819 0.060273 -0.022076 -256234.000000 0 0 1
-21.115767 22.521102 5.939689 31.438123 -0.817592 1.380721 0.058506 -0.011928 -276417.000000 0 0 1
-20.473367 21.935302 7.069289 30.826791 -0.819857 1.339414 0.060161 -0.015409 -378290.000000 0 0 1
-21.216867 21.758802 8.394589 31.528876 -0.798008 1.301295 0.041170 -0.030305 -987934.000000 0 0 1
-22.172867 20.731802 8.336189 31.479131 -0.751823 1.302783 0.055691 -0.025973 437355.000000 0 0 1
-22.666267 20.210402 9.591589 31.846799 -0.728183 1.264867 0.069965 -0.023890 157626.000000 0 0 1
-23.332967 21.196202 10.585489 33.252953 -0.737449 1.246827 0.080165 -0.023808 -667290.000000 0 0 1
-24.366767 22.034902 10.119689 34.375636 -0.735186 1.271984 0.080515 -0.021062 290322.000000 0 0 1
-24.923667 22.676602 11.292789 35.537931 -0.738226 1.247423 0.079288 -0.017222 -573722.000000 0 0 1
-25.975107 23.639702 10.807289 36.746962 -0.738362 1.272282 0.068752 -0.025588 -379885.000000 0 0 1
-26.869807 23.916802 11.888589 37.885861 -0.727318 1.251604 0.063151 -0.020242 180841.000000 0 0 1
-27.308957 25.244502 11.891589 39.044512 -0.746135 1.261315 0.058611 -0.016989 10669.600000 0 0 1
-27.886767 25.665602 13.267089 40.154832 -0.743945 1.234071 0.055805 -0.012978 -230765.000000 0 0 1
-26.858547 25.740302 14.203989 39.820824 -0.764141 1.206066 0.041855 -0.014741 -215080.000000 0 0 1
-27.284867 26.267502 15.452489 40.905073 -0.766403 1.183416 0.021421 -0.016934 194101.000000 0 0 1
-26.159087 26.384902 16.525889 40.664061 -0.789696 1.152285 0.021866 -0.015911 403159.000000 0 0 1
-25.743207 25.094402 17.060989 39.793455 -0.772637 1.127700 0.032936 -0.020281 410706.000000 0 0 1
-24.761367 25.215902 18.088589 39.700933 -0.794493 1.097726 0.034484 -0.012531 51249.900000 0 0 1
-24.212567 23.904302 18.568289 38.761391 -0.778992 1.071235 0.048164 -0.010957 -971427.000000 0 0 1
-23.084467 24.088302 19.347289 38.567557 -0.806675 1.045295 0.053362 -0.012982 -387459.000000 0 0 1
-22.604167 22.802502 19.704589 37.671916 -0.789766 1.020362 0.063052 -0.015549 -668112.000000 0 0 1
-21.169567 22.748002 20.250889 37.090708 -0.821324 0.993235 0.076758 -0.013449 -1252670.000000 0 0 1
-20.303067 22.912902 19.191789 36.132262 -0.845715 1.010835 0.068683 -0.016466 383941.000000 0 0 1
-18.944567 22.493402 19.441289 35.253560 -0.870832 0.986671 0.069321 -0.015411 917898.000000 0 0 1
-18.602367 21.004802 19.537989 34.190390 -0.845980 0.962529 0.073815 -0.004557 -704644.000000 0 0 1
-18.952567 20.267902 20.726989 34.635180 -0.818923 0.929247 0.082573 0.001720 27583.100000 0 0 1
-18.245667 20.645102 21.870489 35.177306 -0.847017 0.899858 0.096951 -0.000393 -164045.000000 0 0 1
-19.097067 20.300802 23.118289 36.211542 -0.815942 0.878348 0.081195 0.002534 636373.000000 0 0 1
-20.369567 20.959002 23.115489 37.262915 -0.799659 0.901627 0.068185 0.010411 474393.000000 0 0 1
-20.939167 20.773402 24.381389 38.267938 -0.781424 0.880036 0.069521 0.007462 742904.000000 0 0 1
-22.194067 21.624802 24.807389 39.694020 -0.772408 0.895709 0.068708 -0.006585 154752.000000 0 0 1
-21.800067 22.963102 25.078089 40.391305 -0.811374 0.900934 0.071766 -0.007642 676344.000000 0 0 1
-22.886167 23.889302 25.230089 41.605682 -0.806841 0.919259 0.069816 -0.020647 371390.000000 0 0 1
-23.598767 24.239802 23.901189 41.421451 -0.798797 0.955716 0.043336 -0.014636 -319635.000000 0 0 1
-24.611467 23.380702 23.473989 41.272384 -0.759759 0.965802 0.041642 -0.021829 -98593.700000 0 0 1
-25.103607 23.768802 22.171089 41.069505 -0.758093 1.000546 0.026266 -0.013352 -44388.700000 0 0 1
-26.239727 22.825202 21.711289 40.998697 -0.715918 1.012714 0.029720 -0.017028 -491453.000000 0 0 1
-27.455507 23.114002 22.320189 42.264084 -0.699756 1.014420 0.027065 -0.030436 -768243.000000 0 0 1
-28.413557 22.117202 22.052689 42.223476 -0.661433 1.021268 0.029261 -0.028131 250331.000000 0 0 1
-29.814567 22.562602 22.568189 43.672675 -0.647816 1.027737 0.037158 -0.019369 -423627.000000 0 0 1
-30.362637 23.645302 21.802489 44.230516 -0.661657 1.055344 0.040395 -0.024908 186632.000000 0 0 1
-31.767467 23.835602 21.837789 45.323249 -0.643703 1.068062 0.057291 -0.018567 473106.000000 0 0 1
-32.540107 22.743102 21.015389 44.919415 -0.610004 1.083944 0.064573 -0.019559 -1105700.000000 0 0 1
-32.579797 21.415602 21.543489 44.544282 -0.581509 1.065985 0.049692 -0.015482 281737.000000 0 0 1
-33.312817 20.516702 20.742089 44.282198 -0.552014 1.083310 0.050435 -0.007558 -40917.500000 0 0 1
-34.847494 20.597702 20.640089 45.438161 -0.533836 1.099271 0.071887 -0.003929 -338297.000000 0 0 1
-35.271066 19.817002 19.548889 44.932402 -0.511895 1.120677 0.070017 -0.003108 185502.000000 0 0 1
35.976221 20.069202 19.131189 45.420962 0.508847 1.136031 0.105078 -0.011490 524883.000000 0 0 1
35.564361 19.239202 17.860889 44.203869 0.495883 1.154848 0.092217 -0.009256 -31833.300000 0 0 1
35.649181 17.881702 18.160289 43.822545 0.464928 1.143507 0.097906 -0.026598 339686.000000 0 0 1
35.073511 17.089702 17.123789 42.607901 0.453399 1.157214 0.101826 -0.038069 83870.500000 0 0 1
35.183231 15.529602 17.311889 42.174990 0.415673 1.147819 0.104875 -0.046207 -342862.000000 0 0 1
34.331041 14.809102 16.488989 40.863390 0.407247 1.155441 0.113387 -0.054586 -173537.000000 0 0 1
34.724271 13.474902 16.292989 40.654760 0.370166 1.158445 0.103369 -0.054802 -288553.000000 0 0 1
33.753511 12.697802 15.414289 39.219052 0.359815 1.166871 0.097593 -0.054358 -297079.000000 0 0 1
33.799641 13.148702 14.080989 38.904734 0.371004 1.200453 0.104970 -0.047547 4112.100000 0 0 1
32.946051 12.404602 13.269289 37.621676 0.360096 1.210338 0.104293 -0.040026 -404724.000000 0 0 1
33.038311 12.853302 11.780089 37.356497 0.371025 1.249979 0.105265 -0.030276 -206723.000000 0 0 1
34.272501 12.435102 11.251989 38.155515 0.348059 1.271447 0.099030 -0.023186 193214.000000 0 0 1
34.182411 12.382402 9.833389 37.662404 0.347541 1.306642 0.097067 -0.013676 993193.000000 0 0 1
35.660061 12.428802 9.256689 38.881890 0.335370 1.330416 0.077033 -0.000242 1069200.000000 0 0 1
-36.240217 11.161402 9.309989 39.046205 -0.298765 1.330042 0.115353 -0.014774 -183767.000000 0 0 1
-34.990511 11.220502 8.684189 37.757789 -0.310313 1.338721 0.116733 -0.016466 -405345.000000 0 0 1
-34.845698 11.212502 7.141689 37.295396 -0.311313 1.378116 0.111755 -0.024721 -711550.000000 0 0 1
-35.359039 12.294502 6.482789 37.992670 -0.334628 1.399325 0.099466 -0.024766 -199687.000000 0 0 1
-35.224251 12.147802 5.069189 37.603373 -0.332098 1.435578 0.094896 -0.036011 -168081.000000 0 0 1
-36.036937 13.150602 4.241489 38.595199 -0.349904 1.460677 0.091882 -0.036305 432316.000000 0 0 1
35.159951 12.775302 4.173289 37.641026 0.348516 1.459697 0.090351 -0.033196 762312.000000 0 0 1
34.269691 13.888102 4.156389 37.209766 0.385032 1.458861 0.097579 -0.030395 59721.500000 0 0 1
33.927951 14.450802 5.580989 37.297171 0.402655 1.420596 0.065430 -0.010670 -1161400.000000 0 0 1
33.442401 15.778902 5.556789 37.393126 0.440853 1.421639 0.032683 -0.007259 -75733.000000 0 0 1
33.193651 16.280802 6.879089 37.605915 0.456002 1.386835 0.012382 -0.002115 601746.000000 0 0 1
31.934041 15.697002 7.630889 36.392435 0.456860 1.359545 0.037170 0.002642 293677.000000 0 0 1
32.041741 14.307402 7.897089 35.968583 0.419959 1.349438 0.065188 0.002750 -728563.000000 0 0 1
30.828631 13.718102 8.226089 34.731245 0.418671 1.331674 0.074664 -0.003076 -661004.000000 0 0 1
30.715631 12.382002 7.452589 33.945619 0.383191 1.349448 0.098724 0.000550 -125543.000000 0 0 1
30.487701 12.457802 6.037089 33.483477 0.387913 1.389504 0.078051 -0.008285 230994.000000 0 0 1
30.801771 11.231202 5.495889 33.242951 0.349647 1.404709 0.105847 -0.021961 -101524.000000 0 0 1
30.442521 11.106902 3.979889 32.648888 0.349841 1.448593 0.086824 -0.025326 1187540.000000 0 0 1
29.014181 11.131502 3.745489 31.301146 0.366339 1.450849 0.066701 -0.014487 1283310.000000 0 0 1
28.739691 11.389102 2.366389 31.004537 0.377299 1.494398 0.085875 -0.024950 -297014.000000 0 0 1
27.258721 11.240602 1.999689 29.553135 0.391122 1.503080 0.092102 -0.011090 -342297.000000 0 0 1
26.870721 9.934702 1.807189 28.705398 0.354136 1.507798 0.084001 -0.017446 -253900.000000 0 0 1
25.464521 9.894202 1.757989 27.375675 0.370596 1.506535 0.070767 -0.015725 -288020.000000 0 0 1
25.032821 8.500602 1.294689 26.468445 0.327360 1.521862 0.073811 -0.017809 -183742.000000 0 0 1
25.107021 7.502502 2.253389 26.300719 0.290375 1.485013 0.073371 -0.007262 -19962.000000 0 0 1
26.386121 6.939702 2.315089 27.381499 0.257181 1.486146 0.106170 -0.015022 -531532.000000 0 0 1
26.805921 6.544902 3.740689 27.845752 0.239474 1.436053 0.104433 -0.019180 558960.000000 0 0 1
28.211341 6.270102 3.883589 29.159496 0.218700 1.437215 0.133783 -0.025915 1213820.000000 0 0 1
28.601941 5.905802 5.215989 29.667425 0.203621 1.394062 0.113406 -0.011301 -501195.000000 0 0 1
30.092861 5.665902 5.468289 31.106027 0.186102 1.394083 0.115764 -0.017056 -289657.000000 0 0 1
30.642401 6.909702 5.885389 31.958388 0.221785 1.385581 0.131727 -0.018404 695801.000000 0 0 1
32.053871 6.804202 6.155689 33.341271 0.209169 1.385104 0.110295 -0.009519 1145720.000000 0 0 1
32.611651 7.986202 7.004489 34.298135 0.240162 1.365126 0.096170 -0.011719 130090.000000 0 0 1
32.164711 7.957102 8.323289 34.163742 0.242517 1.324690 0.096021 -0.015306 66803.500000 0 0 1
32.786141 9.022202 9.020489 35.180967 0.268537 1.311498 0.105516 -0.019509 132185.000000 0 0 1
32.372301 9.127302 10.505889 35.237015 0.274814 1.268043 0.089111 -0.019464 1698060.000000 0 0 1
30.963321 9.495902 10.726189 34.116720 0.297576 1.250975 0.085088 -0.026283 1721520.000000 0 0 1
30.662691 9.220002 12.041189 34.208176 0.292091 1.211092 0.085824 -0.028013 -225892.000000 0 0 1
29.214381 9.594602 12.467189 33.180827 0.317323 1.185607 0.069287 -0.031227 -31088.100000 0 0 1
29.004321 10.983602 12.635189 33.489374 0.362000 1.183929 0.085867 -0.043965 215895.000000 0 0 1
29.062711 11.756102 11.446189 33.374577 0.384387 1.220729 0.086831 -0.034114 -619039.000000 0 0 1
27.777211 11.715802 10.587489 31.951970 0.399138 1.233056 0.073745 -0.022057 -347017.000000 0 0 1
27.897661 12.610702 9.530789 32.064704 0.424544 1.269000 0.055002 0.006336 85182.200000 0 0 1
26.858421 12.614102 8.584989 30.890005 0.439076 1.289167 0.060681 -0.000114 -323230.000000 0 0 1
26.963221 13.787602 7.579489 31.217974 0.472685 1.325553 0.057165 0.006506 -171741.000000 0 0 1
26.927321 15.017902 8.265589 31.920808 0.508751 1.308871 0.060164 0.020953 265319.000000 0 0 1
27.272421 16.092602 7.421089 32.524289 0.533085 1.340598 0.057897 0.020946 -1069760.000000 0 0 1
26.894421 17.435702 8.055589 33.048542 0.575180 1.324566 0.054193 0.005742 110969.000000 0 0 1
25.574221 17.898102 7.882089 32.194878 0.610625 1.323458 0.075516 0.008318 337445.000000 0 0 1
24.561121 17.121802 8.519489 31.128548 0.608784 1.293572 0.097732 0.008255 -392451.000000 0 0 1
23.243421 17.892202 8.758489 30.612067 0.656037 1.280629 0.100939 -0.006446 32701.600000 0 0 1
22.624521 18.378802 7.600189 30.123283 0.682220 1.315737 0.112267 -0.011626 -183276.000000 0 0 1
21.583421 19.278002 7.848189 29.984654 0.729037 1.305972 0.156736 -0.027629 -133347.000000 0 0 1
21.001721 19.927802 6.582689 29.690426 0.759166 1.347228 0.131993 -0.022786 -57578.500000 0 0 1
21.827421 20.995702 6.141489 30.902649 0.765978 1.370728 0.077075 -0.004683 125871.000000 0 0 1
21.389821 21.636002 4.984689 30.829988 0.791120 1.408400 0.098694 -0.013723 -344989.000000 0 0 1
18.906933 17.291902 33.411639 42.104865 0.740812 0.654202 0.067267 -0.021060 -290642.000000 0 0 1
18.042433 17.911602 32.480213 41.247050 0.781759 0.664127 0.074090 -0.026829 16932.400000 0 0 1
17.282833 16.910202 31.847117 39.986124 0.774501 0.649388 0.077065 -0.031481 -133638.000000 0 0 1
16.475333 17.492002 30.669237 38.961633 0.815320 0.664597 0.074219 -0.032056 -245796.000000 0 0 1
17.325633 17.953602 29.652517 38.752821 0.803196 0.699490 0.070289 -0.016139 -445987.000000 0 0 1
16.693833 18.210202 28.456777 37.683997 0.828815 0.714925 0.074685 -0.022562 -1197770.000000 0 0 1
17.593733 18.484002 27.314737 37.380377 0.810070 0.751415 0.065230 -0.014600 -741151.000000 0 0 1
18.226133 19.751802 27.472367 38.432493 0.825549 0.774428 0.061493 -0.023281 -149694.000000 0 0 1
19.089033 19.969402 26.383617 38.200307 0.807934 0.808388 0.066826 -0.012286 -149751.000000 0 0 1
19.927133 21.276702 26.587167 39.454608 0.818140 0.831366 0.079434 -0.012314 226909.000000 0 0 1
19.130933 22.461502 26.383647 39.580405 0.865304 0.841180 0.067176 -0.016104 304390.000000 0 0 1
19.737433 23.653502 26.773327 40.815015 0.875405 0.855332 0.074879 -0.017648 -80613.300000 0 0 1
18.806733 24.878502 26.565557 40.967815 0.923502 0.865250 0.089470 -0.017437 211544.000000 0 0 1
18.741133 25.199202 25.197247 40.263272 0.931327 0.894624 0.094940 -0.019752 -231226.000000 0 0 1
17.854033 26.249702 25.120627 40.482826 0.973509 0.901384 0.084279 -0.022947 -586274.000000 0 0 1
17.865633 27.052302 23.748217 40.186884 0.987137 0.938567 0.067489 -0.023178 -177959.000000 0 0 1
18.996233 27.871802 23.610417 41.172151 0.972555 0.960078 0.092536 -0.028941 -229056.000000 0 0 1
19.002633 28.551902 22.378527 40.952529 0.983569 0.992676 0.093266 -0.032377 -567583.000000 0 0 1
20.073533 29.624102 22.350627 42.191049 0.975257 1.012493 0.095983 -0.032593 -406559.000000 0 0 1
21.329233 29.046302 22.012427 42.227607 0.937407 1.022446 0.109374 -0.035991 -373322.000000 0 0 1
22.289633 30.029302 21.782227 43.278772 0.932265 1.043382 0.116146 -0.043197 -571083.000000 0 0 1
22.539833 30.414602 20.317127 42.963679 0.933025 1.078228 0.121778 -0.041883 -577509.000000 0 0 1
21.461033 30.976602 19.630927 42.491165 0.964909 1.090547 0.087040 -0.030873 -166148.000000 0 0 1
21.708333 30.818702 18.249927 41.882024 0.957131 1.119929 0.087571 -0.016586 -324725.000000 0 0 1
21.496533 32.156202 17.491027 42.450657 0.981523 1.146113 0.092876 -0.025452 -223492.000000 0 0 1
22.488333 33.125302 17.798927 43.815665 0.974381 1.152480 0.094111 -0.025198 269700.000000 0 0 1
22.742333 34.049602 16.734127 44.233699 0.981928 1.182825 0.090981 -0.023957 -270952.000000 0 0 1
23.678933 33.640702 15.598627 43.996657 0.957473 1.208373 0.072919 -0.023517 -410733.000000 0 0 1
23.168933 32.706102 14.643127 42.672119 0.954456 1.220523 0.089701 -0.032106 187728.000000 0 0 1
22.220733 33.201302 13.703127 42.235803 0.980992 1.240373 0.060627 -0.026236 157324.000000 0 0 1
21.852633 32.074002 12.683727 40.830823 0.972718 1.254929 0.044728 -0.027540 -502883.000000 0 0 1
22.939433 31.652302 11.928127 40.870111 0.943664 1.274631 0.068782 -0.040186 -521517.000000 0 0 1
22.611433 30.475702 11.225927 39.573561 0.932467 1.283175 0.063461 -0.038874 53430.000000 0 0 1
23.786233 29.722602 10.445227 39.475571 0.895888 1.303007 0.067556 -0.036677 670419.000000 0 0 1
24.696933 28.952402 11.151427 39.655194 0.864553 1.285742 0.077018 -0.035763 -19441.900000 0 0 1
25.505633 29.649702 12.075927 40.932507 0.860392 1.271319 0.083262 -0.042991 -1061090.000000 0 0 1
26.890933 29.148402 12.480227 41.575325 0.825660 1.265911 0.094546 -0.036455 -25888.900000 0 0 1
26.884533 27.990202 13.262127 41.013577 0.805544 1.241519 0.091637 -0.034700 -97802.200000 0 0 1
28.211833 27.862502 13.711527 41.955125 0.779168 1.237866 0.075902 -0.024577 -164499.000000 0 0 1
28.513733 26.756202 14.713327 41.778096 0.753610 1.210899 0.059459 -0.021377 285248.000000 0 0 1
29.843533 27.028702 15.148027 43.019180 0.735945 1.210958 0.061184 -0.030341 216766.000000 0 0 1
30.248933 26.031702 16.020027 43.003357 0.710606 1.189063 0.068008 -0.025605 174866.000000 0 0 1
31.462833 26.424802 16.909527 44.430981 0.698586 1.180373 0.085592 -0.031366 164577.000000 0 0 1
32.670733 26.500802 16.201527 45.079471 0.681502 1.203172 0.095187 -0.026349 196636.000000 0 0 1
33.805733 26.531502 17.097427 46.250083 0.665418 1.192139 0.088481 -0.023953 486544.000000 0 0 1
35.150433 26.623402 16.395127 47.044220 0.648229 1.214821 0.090114 -0.031997 -496750.000000 0 0 1
35.391333 27.834102 15.734727 47.695548 0.666434 1.234599 0.102989 -0.025726 -1160270.000000 0 0 1
-35.912356 28.109202 15.322827 48.110431 -0.664113 1.246657 0.100201 -0.027598 -752501.000000 0 0 1
-35.920956 29.279302 14.371927 48.519531 -0.683883 1.270075 0.088985 -0.025721 29017.300000 0 0 1
36.076033 30.466002 14.834627 49.494682 0.701289 1.266395 0.097252 -0.029221 30449.800000 0 0 1
36.285633 31.602602 14.058927 50.130081 0.716526 1.286535 0.080056 -0.017026 -266789.000000 0 0 1
35.077533 32.523002 14.284927 49.922321 0.747628 1.280597 0.078058 -0.020656 -806723.000000 0 0 1
35.015633 33.727402 13.546027 50.469070 0.766661 1.299062 0.049423 -0.023004 73654.500000 0 0 1
33.938833 -33.930234 13.819127 49.940699 -0.785271 1.290427 0.046235 -0.016684 105115.000000 0 0 1
32.527333 34.151302 13.391827 49.027337 0.809749 1.294130 0.067429 -0.019065 -538655.000000 0 0 1
31.938433 33.191302 14.193927 48.199518 0.804632 1.271882 0.064337 -0.026881 -268125.000000 0 0 1
30.906933 32.545202 13.471827 46.860631 0.811211 1.279194 0.076291 -0.024904 -166346.000000 0 0 1
30.206033 31.392902 14.222027 45.827773 0.804663 1.255249 0.094787 -0.036804 -152996.000000 0 0 1
29.401233 31.787102 15.317427 45.929031 0.824371 1.230780 0.097202 -0.028929 88347.600000 0 0 1
28.988133 30.694202 16.009827 45.152635 0.813976 1.208341 0.093579 -0.043389 -37281.300000 0 0 1
28.160333 31.167502 17.251327 45.409534 0.836042 1.181102 0.087252 -0.038754 104629.000000 0 0 1
27.892833 30.200702 18.234927 44.973382 0.825104 1.153314 0.072397 -0.036027 222030.000000 0 0 1
28.828133 30.246102 19.316427 46.032730 0.809397 1.137766 0.076248 -0.036441 257617.000000 0 0 1
28.887533 28.980402 20.158227 45.614771 0.787003 1.113055 0.068780 -0.030591 46015.200000 0 0 1
27.672633 28.797402 20.860127 45.057850 0.805314 1.089461 0.083445 -0.038139 179632.000000 0 0 1
27.873433 28.031402 22.048127 45.263756 0.788224 1.062026 0.067010 -0.026511 40797.100000 0 0 1
26.649433 28.027002 22.990727 44.991984 0.810588 1.034453 0.082619 -0.029217 -479021.000000 0 0 1
25.529433 27.427302 22.459327 43.685583 0.821221 1.030823 0.125710 -0.024628 61644.700000 0 0 1
24.324333 27.364102 23.243327 43.367263 0.844140 1.005146 0.133563 -0.031831 917218.000000 0 0 1
24.199033 26.221902 24.260007 43.147761 0.825496 0.973687 0.090822 -0.031368 -264100.000000 0 0 1
25.017333 26.411102 25.390917 44.363407 0.812493 0.961441 0.074537 -0.025646 164220.000000 0 0 1
24.546533 25.481302 26.381897 44.134267 0.804081 0.930087 0.091688 -0.022021 414824.000000 0 0 1
25.556033 25.207402 27.599917 45.280010 0.778531 0.915318 0.088271 -0.015216 779310.000000 0 0 1
25.984233 26.368502 28.337777 46.620895 0.792738 0.917466 0.092256 -0.027322 902471.000000 0 0 1
26.946733 27.165302 27.598037 47.177661 0.789437 0.945940 0.067611 -0.015827 -154862.000000 0 0 1
27.274833 28.568102 28.255097 48.563396 0.808553 0.949833 0.041037 -0.008573 -357813.000000 0 0 1
28.085233 28.464902 29.389527 49.626356 0.792112 0.936990 0.051461 -0.010131 -147390.000000 0 0 1
28.400233 29.717502 29.958837 50.864870 0.808060 0.940989 0.060122 -0.005566 -881025.000000 0 0 1
29.877633 29.828802 30.235547 51.928977 0.784580 0.949305 0.053325 -0.002613 -787992.000000 0 0 1
30.654033 29.770802 29.036827 51.663408 0.770782 0.973948 0.036611 -0.005903 -260842.000000 0 0 1
32.022333 29.980502 29.321397 52.763667 0.752479 0.981577 0.068606 -0.020712 -163711.000000 0 0 1
32.597633 30.395602 27.983517 52.626756 0.750456 1.010148 0.059318 -0.013262 -591367.000000 0 0 1
32.278733 31.732602 27.635807 53.034069 0.776867 1.022663 0.052971 -0.014306 212924.000000 0 0 1
32.744033 32.036102 26.332487 52.838276 0.774470 1.049090 0.058142 -0.016023 -79136.000000 0 0 1
32.595633 33.499102 25.858807 53.416692 0.799067 1.065467 0.055799 -0.012462 -366927.000000 0 0 1
33.352933 -34.134934 26.636057 54.654290 -0.796985 1.061738 0.063917 -0.009441 120084.000000 0 0 1
33.081233 -32.792834 26.455927 53.569152 -0.781020 1.054267 0.054628 -0.005691 -192897.000000 0 0 1
34.044833 -31.806134 27.168307 53.933271 -0.751415 1.042874 0.048331 -0.004807 72848.100000 0 0 1
33.761533 -31.743234 28.543807 54.426307 -0.754596 1.018729 0.052823 -0.008045 380216.000000 0 0 1
34.698333 -30.877134 29.131777 54.827294 -0.727192 1.010618 0.047611 -0.010913 -352343.000000 0 0 1
34.486433 -30.580634 30.636707 55.345253 -0.725443 0.984168 0.048529 -0.011530 -292021.000000 0 0 1
34.522933 -31.673134 31.502107 56.457090 -0.742374 0.978843 0.058164 -0.012234 -57296.200000 0 0 1
33.313133 -32.363234 31.557977 56.152023 -0.770936 0.973983 0.052730 -0.014413 -522427.000000 0 0 1
33.407233 -33.280434 32.758281 57.417205 -0.783497 0.963644 0.065002 -0.014143 -79250.900000 0 0 1
33.380533 -32.587134 33.980226 57.713404 -0.773372 0.941254 0.045777 -0.014496 112130.000000 0 0 1
33.842633 -33.324334 -33.366171 58.044262 -0.777682 2.183205 0.042976 -0.010536 -187354.000000 0 0 1
33.134533 33.917502 -32.886201 57.704388 0.797075 2.177190 0.041822 -0.005555 -170697.000000 0 0 1
33.318733 32.841502 -33.791831 57.711264 0.778185 2.196333 0.050053 -0.010697 -299307.000000 0 0 1
32.609333 31.704602 -33.526601 56.502950 0.771332 2.206023 0.060779 -0.007250 -343969.000000 0 0 1
32.631633 30.716102 33.855910 56.165158 0.755169 0.923801 0.057307 0.004926 824825.000000 0 0 1
33.948433 30.204002 33.617793 56.523746 0.727097 0.933835 0.051176 -0.006318 588972.000000 0 0 1
33.874533 29.327202 32.534552 55.372067 0.713572 0.942753 0.055981 -0.008722 -285004.000000 0 0 1
35.170633 28.615902 32.151857 55.584037 0.682997 0.953985 0.064024 -0.009784 -349847.000000 0 0 1
35.500933 27.573802 33.028691 55.781047 0.660375 0.937118 0.062160 -0.006374 47220.700000 0 0 1
-35.762356 27.100402 32.891062 55.634520 -0.648469 0.938252 0.032893 -0.001759 82875.800000 0 0 1
-35.495856 25.797902 33.694569 55.324601 -0.628478 0.915954 0.031211 -0.003046 58403.600000 0 0 1
-35.980056 24.628202 33.099247 54.741875 -0.600245 0.921480 0.045452 -0.009266 2320.930000 0 0 1
-36.223256 23.579602 34.030809 55.011070 -0.577044 0.903814 0.038779 -0.010899 94699.500000 0 0 1
35.884833 22.277802 33.301020 53.786426 0.555583 0.903157 0.044261 -0.019875 386624.000000 0 0 1
-35.635056 21.587702 32.611365 52.909236 -0.544673 0.906679 0.051243 -0.016226 503174.000000 0 0 1
-36.116856 20.551502 31.738507 52.288855 -0.517335 0.918536 0.038232 -0.010303 -704408.000000 0 0 1
-35.138056 19.866402 30.853737 50.806594 -0.514576 0.918166 0.027056 -0.026612 -719779.000000 0 0 1
-34.625056 20.649802 29.765447 50.112779 -0.537756 0.934813 0.028950 -0.019762 306143.000000 0 0 1
-33.635956 19.895702 29.008547 48.669418 -0.534147 0.932246 0.074304 -0.029454 259024.000000 0 0 1
-34.066556 18.885002 27.957897 47.945986 -0.506181 0.948242 0.069576 -0.024400 -1150900.000000 0 0 1
-34.715456 17.807702 28.475467 48.302478 -0.473963 0.940327 0.066445 -0.026297 -251108.000000 0 0 1
-35.307956 17.087902 27.432437 47.866342 -0.450740 0.960507 0.065026 -0.028399 312612.000000 0 0 1
-36.092556 15.786902 27.847767 48.243103 -0.412327 0.955454 0.057476 -0.035082 -83578.700000 0 0 1
-35.204456 14.827002 28.292517 47.535883 -0.398621 0.933304 0.067281 -0.032256 -36417.700000 0 0 1
-35.722756 14.239002 29.477597 48.454032 -0.379297 0.916801 0.092713 -0.037349 -137093.000000 0 0 1
-34.871856 13.037402 29.946467 47.778772 -0.357776 0.893391 0.078972 -0.028047 -263291.000000 0 0 1
-33.560856 13.458402 30.231287 47.131628 -0.381381 0.874445 0.076428 -0.022153 -241463.000000 0 0 1
-32.870056 12.383302 30.792707 46.711642 -0.360291 0.851031 0.065184 -0.005420 -371532.000000 0 0 1
-31.347956 12.495602 30.605297 45.557860 -0.379307 0.834174 0.063450 -0.003536 -725934.000000 0 0 1
-30.785156 12.284102 29.330107 44.259238 -0.379667 0.846393 0.049053 -0.008069 -95210.000000 0 0 1
-29.422756 12.614502 29.242757 43.358541 -0.405028 0.830590 0.042193 -0.013389 799934.000000 0 0 1
-28.335756 11.604902 29.835957 42.752464 -0.388712 0.798367 0.050371 -0.014192 342212.000000 0 0 1
-28.129656 10.539802 28.939767 41.711810 -0.358496 0.804040 0.047425 -0.021726 29826.200000 0 0 1
-27.087556 9.708702 29.440317 41.167060 -0.344155 0.773968 0.044706 -0.021378 152368.000000 0 0 1
-26.676256 8.511302 28.537347 39.980559 -0.308849 0.775915 0.039921 -0.021789 484832.000000 0 0 1
-27.555556 7.369602 28.589527 40.385403 -0.261329 0.784251 0.042480 -0.021006 459334.000000 0 0 1
-28.825056 7.511802 27.972047 40.862531 -0.254930 0.816823 0.049393 -0.014756 -129757.000000 0 0 1
-29.712156 6.295202 28.098507 41.375933 -0.208785 0.824257 0.057683 -0.017599 -556994.000000 0 0 1
-30.324556 6.116102 29.352527 42.644533 -0.199018 0.811644 0.068118 -0.018702 -71574.600000 0 0 1
-30.822956 4.841502 29.395587 42.867182 -0.155802 0.815181 0.071189 -0.013840 -385185.000000 0 0 1
-31.450056 4.342702 30.714227 44.173848 -0.137215 0.801954 0.056722 -0.019682 755287.000000 0 0 1
-32.719256 4.965702 31.010307 45.352476 -0.150618 0.817890 0.061970 -0.021098 353223.000000 0 0 1
-33.324356 4.259702 32.036417 46.421867 -0.127136 0.809149 0.057049 -0.024161 -183545.000000 0 0 1
-34.823856 4.584602 32.157007 47.621346 -0.130898 0.829473 0.045215 -0.022469 -114121.000000 0 0 1
-35.132956 5.971702 32.450950 48.198029 -0.168365 0.832155 0.048639 -0.013087 -649146.000000 0 0 1
36.093233 6.287002 32.408877 48.914038 0.172458 0.846554 0.052890 -0.005171 -319816.000000 0 0 1
35.824833 7.778402 32.597478 49.056271 0.213805 0.843983 0.044437 -0.012465 -120866.000000 0 0 1
36.199433 8.163202 33.909459 50.268163 0.221796 0.830413 0.044522 -0.006216 214606.000000 0 0 1
36.068133 9.611702 34.007472 50.495576 0.260435 0.831898 0.046966 -0.010158 72216.600000 0 0 1
36.243133 10.027302 -33.038271 50.056356 0.269916 2.291644 0.046907 -0.012218 957655.000000 0 0 1
34.993333 9.708202 -32.373661 48.650143 0.270624 2.298877 0.066934 -0.007165 1027430.000000 0 0 1
34.948533 10.057602 -31.071441 47.832936 0.280211 2.277832 0.058756 -0.001370 145017.000000 0 0 1
33.656133 9.585202 -30.350631 46.322480 0.277452 2.285248 0.061652 0.004409 437038.000000 0 0 1
33.798733 8.320402 -29.767451 45.800487 0.241375 2.278298 0.055018 -0.004686 360901.000000 0 0 1
32.486233 7.871302 -29.500301 44.582289 0.237715 2.293886 0.066972 -0.009980 106753.000000 0 0 1
35.269001 5.960802 -21.045111 41.500968 0.167427 2.102612 0.048800 0.001262 151540.000000 0 0 1
34.517401 6.510402 -19.934711 40.388477 0.186422 2.086991 0.036524 -0.018406 583326.000000 0 0 1
34.896261 7.862002 -19.672411 40.823570 0.221597 2.073605 0.030392 -0.004604 -1397030.000000 0 0 1
36.058901 8.068202 -18.691811 41.409227 0.220125 2.039121 0.032716 -0.013752 833828.000000 0 0 1
-35.224204 7.755202 -19.247711 40.882296 -0.216709 2.061003 0.037500 -0.011991 821534.000000 0 0 1
-34.788565 8.709102 -20.193511 41.156659 -0.245302 2.083632 0.037865 -0.006862 -1150880.000000 0 0 1
-33.586887 8.204302 -21.029711 40.467744 -0.239579 2.117256 0.042446 -0.003367 -71193.500000 0 0 1
-33.750627 7.106002 -21.915511 40.864284 -0.207513 2.136843 0.034691 0.010590 -127313.000000 0 0 1
-34.510519 7.317402 -23.069311 42.151079 -0.208939 2.149932 0.029608 0.011558 -208503.000000 0 0 1
-34.472121 6.080302 -23.994211 42.438419 -0.174587 2.171701 0.042736 0.010942 -582946.000000 0 0 1
-33.321857 5.904702 -24.735611 41.917325 -0.175381 2.201985 0.038047 0.002225 -723649.000000 0 0 1
-33.352187 4.670502 -25.415541 42.191607 -0.139131 2.217281 0.031619 0.001681 -630493.000000 0 0 1
-32.040057 4.446802 -26.116701 41.574288 -0.137908 2.250026 0.036128 0.002475 -335736.000000 0 0 1
-30.870307 4.367502 -25.285431 40.142296 -0.140546 2.252214 0.031572 0.003754 549294.000000 0 0 1
-29.810617 4.062802 -26.197151 39.893232 -0.135453 2.287207 0.030630 0.003895 115943.000000 0 0 1
-28.389747 4.373302 -25.692551 38.538431 -0.152844 2.300533 0.027845 0.001154 -61171.700000 0 0 1
-28.175817 5.733302 -25.572711 38.480008 -0.200742 2.297716 0.027593 0.002460 159042.000000 0 0 1
-26.894167 5.996602 -25.011511 37.213320 -0.219382 2.307853 0.039667 0.001498 298925.000000 0 0 1
-26.439497 7.421302 -25.286701 37.330148 -0.273648 2.314992 0.032221 -0.003458 -358717.000000 0 0 1
-27.179247 8.332302 -24.535611 37.551764 -0.297472 2.282838 0.032995 -0.009234 -560404.000000 0 0 1
-26.891287 9.665402 -24.748611 37.802845 -0.345046 2.284550 0.012695 -0.009906 -7454.120000 0 0 1
-25.506187 10.169702 -24.254111 36.636735 -0.379398 2.294302 0.031861 -0.007192 273064.000000 0 0 1
-25.417197 10.206702 -22.845511 35.666904 -0.381856 2.265977 0.021350 -0.004589 -139463.000000 0 0 1
-24.090567 10.469202 -22.459211 34.559742 -0.409954 2.278205 0.056434 -0.009356 -489239.000000 0 0 1
-23.865467 10.920102 -20.965311 33.590972 -0.429131 2.244821 0.072933 -0.018609 -861600.000000 0 0 1
-24.334967 12.257502 -20.626811 34.174586 -0.466603 2.218770 0.062665 -0.019871 950827.000000 0 0 1
-25.721387 12.563302 -20.788911 35.378032 -0.454355 2.198913 0.054941 -0.009543 30922.900000 0 0 1
-26.676217 11.787002 -19.905311 35.309707 -0.416059 2.169697 0.058890 -0.003696 -1212520.000000 0 0 1
-26.544247 12.076902 -18.553611 34.564217 -0.426981 2.137420 0.070888 -0.005974 192700.000000 0 0 1
-27.406717 11.245002 -17.797511 34.559074 -0.389355 2.111790 0.078363 -0.004175 -270245.000000 0 0 1
-26.861057 10.937802 -16.366111 33.301674 -0.386697 2.084550 0.093734 -0.009837 57985.400000 0 0 1
-25.947177 9.905902 -16.211311 32.158817 -0.364694 2.099138 0.103763 -0.012705 1135310.000000 0 0 1
-24.568167 10.166802 -16.566411 31.327379 -0.392363 2.128001 0.098920 -0.010679 351768.000000 0 0 1
-23.740667 8.883602 -16.622211 30.312301 -0.358063 2.151204 0.085290 -0.016390 -206026.000000 0 0 1
-22.371567 9.220702 -16.466411 29.268602 -0.390946 2.168319 0.071429 -0.011481 97292.200000 0 0 1
-21.654367 8.103102 -15.954611 28.091306 -0.358071 2.174816 0.065209 -0.011628 -291824.000000 0 0 1
-20.212467 8.551102 -15.653611 26.957387 -0.400227 2.190360 0.071657 -0.009391 -369896.000000 0 0 1
-19.424267 8.624502 -16.815211 27.100471 -0.417859 2.240147 0.073957 -0.015314 -148280.000000 0 0 1
-18.065467 8.802102 -16.487511 25.993771 -0.453382 2.257882 0.072040 -0.018440 231557.000000 0 0 1
-17.209467 9.423102 -17.695811 26.421626 -0.500963 2.304665 0.053766 -0.017933 302324.000000 0 0 1
-17.146167 8.636402 -18.880811 26.927003 -0.466598 2.347855 0.072272 -0.028281 -93271.200000 0 0 1
-16.043767 7.775402 -18.901611 25.983268 -0.451282 2.385399 0.066279 -0.016490 -862894.000000 0 0 1
-15.747367 7.034602 -20.252311 26.601152 -0.420120 2.436162 0.049889 -0.006940 -54618.400000 0 0 1
-16.590767 6.068702 -20.843511 27.322786 -0.350670 2.438524 0.045819 -0.006482 183551.000000 0 0 1
-17.857467 6.537202 -21.296711 28.551253 -0.350925 2.412699 0.059044 -0.012180 477324.000000 0 0 1
-18.804767 5.523802 -22.009811 29.471400 -0.285708 2.414063 0.069075 -0.008042 355932.000000 0 0 1
-19.485167 4.617402 -21.143611 29.121202 -0.232678 2.383365 0.104866 -0.018680 355639.000000 0 0 1
-20.221867 3.604902 -21.778211 29.936762 -0.176414 2.385429 0.082699 -0.005233 129567.000000 0 0 1
-21.197367 2.881302 -20.794411 29.833501 -0.135099 2.342023 0.090738 -0.006680 107970.000000 0 0 1
-22.052367 1.885702 -21.316411 30.728686 -0.085303 2.337406 0.084533 -0.002363 128577.000000 0 0 1
-22.744667 1.344302 -20.255211 30.486072 -0.059035 2.297499 0.086217 -0.010711 -450897.000000 0 0 1
-23.601567 0.088802 -20.539511 31.287591 -0.003763 2.286932 0.079508 -0.005691 -11194.200000 0 0 1
-22.838767 -1.113798 -20.758411 30.883029 0.048729 2.307922 0.094287 -0.015575 282189.000000 0 0 1
-23.577667 -2.307898 -21.002111 31.659461 0.097574 2.296117 0.094035 -0.016270 -569063.000000 0 0 1
-23.991067 -2.423598 -22.534911 33.004051 0.100679 2.322374 0.073827 -0.020924 782786.000000 0 0 1
-22.969967 -2.466698 -23.585311 33.014707 0.106978 2.366545 0.060478 -0.019370 1027200.000000 0 0 1
-22.040167 -3.557998 -23.477711 32.398013 0.160052 2.381345 0.060529 -0.028826 204412.000000 0 0 1
-20.973867 -3.599698 -24.577711 32.510380 0.169972 2.427970 0.053509 -0.019001 -272683.000000 0 0 1
-21.533267 -3.840098 -25.851571 33.863427 0.176478 2.439368 0.043051 -0.020824 -323543.000000 0 0 1
-20.628867 -3.877298 -26.909911 34.128096 0.185787 2.479158 0.046726 -0.024451 -809618.000000 0 0 1
-21.197167 -3.970398 -28.315101 35.592540 0.185162 2.490686 0.045006 -0.026936 -484910.000000 0 0 1
-22.019467 -5.089298 -28.392661 36.289132 0.227139 2.469309 0.050818 -0.021982 -405408.000000 0 0 1
-22.568467 -5.193698 -29.670471 37.638372 0.226193 2.478844 0.011423 -0.016769 -569203.000000 0 0 1
-22.094467 -6.454398 -30.419771 38.146916 0.284219 2.493832 0.026969 -0.015058 -1392080.000000 0 0 1
-20.857767 -6.306698 -30.956381 37.856551 0.293627 2.528250 0.030426 -0.015898 -1405790.000000 0 0 1
-20.467867 -7.488998 -31.633721 38.414984 0.350760 2.538303 0.032643 -0.016469 34473.400000 0 0 1
-19.124367 -7.400998 -32.411981 38.354305 0.369243 2.577488 0.039241 -0.019621 30380.400000 0 0 1
-19.173567 -6.785998 -33.646211 39.315938 0.340167 2.597874 0.041706 -0.026368 161596.000000 0 0 1
-19.465167 -7.753998 33.875953 39.832115 0.379085 0.553921 0.043198 -0.022281 -599159.000000 0 0 1
-19.313567 -7.258598 32.445408 38.450041 0.359497 0.566410 0.051294 -0.023907 -244864.000000 0 0 1
-17.997067 -6.995698 32.040317 37.408771 0.370739 0.542362 0.058691 -0.028758 -349856.000000 0 0 1
-17.465167 -5.787198 32.448656 37.301997 0.319970 0.515816 0.053840 -0.031507 -528729.000000 0 0 1
-16.097867 -5.573798 31.765677 36.045344 0.333325 0.492254 0.052444 -0.030392 -113747.000000 0 0 1
-16.179767 -5.362098 30.384197 34.838720 0.320016 0.511240 0.051730 -0.026702 450430.000000 0 0 1
-14.962067 -4.911298 29.769927 33.678374 0.317169 0.486557 0.050950 -0.025627 571149.000000 0 0 1
-15.073967 -4.865198 28.212427 32.354840 0.312200 0.511586 0.052117 -0.018800 106156.000000 0 0 1
-16.109367 -3.980198 27.846907 32.416106 0.242222 0.537394 0.039963 -0.023027 -33316.400000 0 0 1
-16.627167 -4.127398 26.499197 31.554802 0.243314 0.573912 0.048589 -0.022124 -63571.300000 0 0 1
-15.703667 -3.897798 25.291877 30.024607 0.243293 0.569127 0.052060 -0.020261 -181843.000000 0 0 1
-15.570267 -2.501498 25.142197 29.678625 0.159297 0.560201 0.050643 -0.013699 94853.000000 0 0 1
-14.376367 -2.168298 24.458497 28.453463 0.149696 0.536317 0.046044 -0.004364 66956.700000 0 0 1
-14.214667 -0.671398 24.489307 28.323730 0.047198 0.526400 0.043450 -0.002629 -401961.000000 0 0 1
-15.210567 -0.076698 23.719427 28.177623 0.005042 0.570220 0.032794 -0.006012 -279260.000000 0 0 1
-15.246767 1.283602 24.026157 28.484518 -0.083990 0.567065 0.018768 -0.000601 -348716.000000 0 0 1
-15.918367 2.141202 22.948127 28.010635 -0.133709 0.610669 0.020593 -0.004696 -45520.800000 0 0 1
-15.039167 3.025702 22.261427 27.035210 -0.198538 0.603378 0.003616 0.009022 315751.000000 0 0 1
-15.788967 3.965402 21.496927 26.965418 -0.246061 0.648147 0.005297 0.009840 -12430.000000 0 0 1
-15.025867 4.879002 20.512427 25.890944 -0.313967 0.656288 0.014724 0.015934 79107.900000 0 0 1
-14.170467 5.919002 21.036227 26.045337 -0.395671 0.630594 0.001502 0.015726 427839.000000 0 0 1
-13.249967 6.285102 20.038827 24.831809 -0.442917 0.631772 0.003600 0.024134 297120.000000 0 1 0
-12.181267 7.331002 20.508327 24.954325 -0.541761 0.606173 -0.003687 0.022247 602129.000000 0 1 0
-12.716867 8.684702 20.503127 25.642172 -0.599176 0.644190 -0.002848 0.023796 26714.000000 0 0 1
-11.735867 9.630002 20.785527 25.739185 -0.687153 0.630820 0.002808 0.027393 -303529.000000 0 0 1
-12.252567 11.102302 20.794427 26.566797 -0.736186 0.671768 0.002780 0.028406 -347894.000000 0 0 1
-12.456067 11.570502 19.512527 25.879892 -0.748557 0.716720 0.001809 0.020288 312773.000000 0 0 1
-13.103167 12.822102 19.462027 26.737049 -0.774557 0.755535 -0.000551 0.011520 -479758.000000 0 0 1
-13.390367 13.411302 18.019227 26.150669 -0.786179 0.810613 0.004620 0.006565 -447192.000000 0 0 1
-12.371867 14.114502 17.346827 25.557673 -0.851097 0.824761 0.004321 0.004454 -49954.700000 0 0 1
-12.074867 15.450602 17.772327 26.464677 -0.907429 0.834499 0.019982 -0.000439 -632302.000000 0 0 1
-13.111067 16.455202 17.267727 27.218526 -0.898026 0.883550 0.020183 -0.006203 -256966.000000 0 0 1
-13.055067 16.773802 15.883927 26.534776 -0.909427 0.929034 0.019106 -0.027349 159475.000000 0 0 1
-13.791167 15.856202 15.061827 25.854865 -0.854939 0.948930 0.039919 -0.012091 -75831.700000 0 0 1
-14.082267 16.556902 13.666627 25.675240 -0.865990 1.009495 0.033729 -0.025286 -763943.000000 0 0 1
-15.126467 17.441002 13.648327 26.819310 -0.856348 1.036891 0.024743 -0.028546 -778795.000000 0 0 1
-15.553467 17.799602 12.373927 26.680522 -0.852641 1.088538 0.023770 -0.024516 -318067.000000 0 0 1
-16.778967 18.718102 12.230027 27.954868 -0.839972 1.117989 0.038933 -0.020415 -433860.000000 0 0 1
-17.930367 18.031102 12.649527 28.401219 -0.788199 1.109190 0.053057 -0.024848 -200232.000000 0 0 1
-19.039367 18.926702 12.724827 29.709237 -0.782431 1.128172 0.063300 -0.027802 695036.000000 0 0 1
-20.371667 18.210002 13.097127 30.300887 -0.729428 1.123826 0.066236 -0.010999 402793.000000 0 0 1
-20.882267 17.376002 12.075827 29.729112 -0.694006 1.152510 0.061494 -0.018194 -973204.000000 0 0 1
-22.161667 16.981002 12.432827 30.562544 -0.653810 1.151849 0.078521 -0.021262 -385789.000000 0 0 1
-22.926067 16.362602 11.228927 30.322073 -0.619869 1.191441 0.070451 -0.021158 119376.000000 0 0 1
-22.320467 15.159502 10.802727 29.063941 -0.596612 1.189969 0.063999 -0.016830 124181.000000 0 0 1
-23.107967 14.649002 9.751527 29.045889 -0.565000 1.228418 0.059438 -0.019876 -2883.210000 0 0 1
-22.504967 13.467802 8.966227 27.717295 -0.539269 1.241382 0.086447 -0.011063 -583996.000000 0 0 1
-22.523367 12.171202 9.588427 27.338218 -0.495428 1.212442 0.076982 -0.013928 2064690.000000 0 0 1
-23.829367 11.576002 9.994027 28.314716 -0.452213 1.210061 0.081358 -0.017478 2022300.000000 0 0 1
-24.878567 11.257002 8.918727 28.726414 -0.424913 1.255108 0.096520 -0.017659 -414361.000000 0 0 1
-25.507367 12.388602 8.431927 29.583790 -0.452132 1.281771 0.116276 -0.019453 960751.000000 0 0 1
-26.624757 12.160102 7.511427 30.218658 -0.428430 1.319594 0.112030 -0.018547 615098.000000 0 0 1
-26.619397 13.183702 6.358227 30.378106 -0.459854 1.359934 0.097082 -0.016198 -361099.000000 0 0 1
-25.611557 13.070002 5.337827 29.244986 -0.471867 1.387246 0.090440 -0.019697 1079670.000000 0 0 1
-24.299267 13.485702 5.702327 28.369615 -0.506662 1.368416 0.092259 -0.025247 -126220.000000 0 0 1
-24.184267 15.040502 5.909127 29.086307 -0.556376 1.366214 0.084217 -0.030430 -343829.000000 0 0 1
-22.849267 15.404602 6.294427 28.266775 -0.593189 1.346234 0.064979 -0.027803 1024100.000000 0 0 1
-22.785067 16.799802 6.416827 29.027027 -0.635334 1.347891 0.058773 -0.035408 107198.000000 0 0 1
-21.326867 17.333002 6.408127 28.219360 -0.682456 1.341715 0.057206 -0.031269 167663.000000 0 0 1
-20.861867 17.620702 5.087827 27.777556 -0.701372 1.386593 0.058276 -0.038963 679656.000000 0 0 1
-19.503867 18.042002 5.177327 27.068790 -0.746482 1.378345 0.060517 -0.029133 306437.000000 0 0 1
-18.861267 18.699602 3.895127 26.843892 -0.781094 1.425179 0.064476 -0.026527 -330417.000000 0 0 1
-17.524167 19.025602 4.149727 26.197141 -0.826454 1.411722 0.052768 -0.027192 -257625.000000 0 0 1
-17.077067 20.198002 3.455427 26.674435 -0.868930 1.440890 0.061855 -0.021387 175313.000000 0 0 1
-17.527267 21.559702 4.065227 28.081166 -0.888200 1.425519 0.059748 -0.023651 5091.820000 0 0 1
-16.705567 21.860802 5.167527 27.994177 -0.918282 1.385139 0.070186 -0.024379 170086.000000 0 0 1
-16.996767 23.193602 5.533127 29.282226 -0.938380 1.380695 0.058778 -0.019922 48680.800000 0 0 1
-16.167267 23.787302 6.715427 29.534949 -0.973852 1.341418 0.046387 -0.011787 31887.200000 0 0 1
-16.385867 23.134502 7.943527 29.441492 -0.954530 1.297604 0.053452 -0.021376 226303.000000 0 0 1
-15.454267 23.532502 8.921727 29.533205 -0.989711 1.263911 0.045841 -0.019383 -112404.000000 0 0 1
-15.844967 22.904102 10.276427 29.686122 -0.965598 1.217311 0.032297 -0.010460 625567.000000 0 0 1
-17.046167 23.468102 10.804527 30.952567 -0.942601 1.214221 0.037270 -0.016113 478093.000000 0 0 1
-18.156567 22.603002 10.926727 30.983060 -0.894058 1.210376 0.034522 -0.023383 865774.000000 0 0 1
-19.431967 23.282202 11.557027 32.453461 -0.875295 1.206694 0.051965 -0.024418 852601.000000 0 0 1
-20.349667 23.967802 10.690627 33.209245 -0.866859 1.243043 0.069345 -0.017965 446900.000000 0 0 1
-19.942267 25.272002 10.218027 33.775378 -0.902734 1.263452 0.029780 -0.016498 -290020.000000 0 0 1
-21.180867 25.973202 9.654627 34.877617 -0.886682 1.290319 0.031146 -0.012143 90882.300000 0 0 1
-22.145567 26.193702 10.658127 35.918405 -0.868947 1.269528 0.042143 -0.015867 429949.000000 0 0 1
-23.284267 26.954102 10.240427 37.061396 -0.858317 1.290844 0.038798 -0.011759 698881.000000 0 0 1
-24.214167 27.281502 11.468927 38.237972 -0.844893 1.266171 0.035380 -0.024874 -38128.500000 0 0 1
-23.590167 28.125602 12.408727 38.749477 -0.872874 1.244825 0.030349 -0.013954 208243.000000 0 0 1
-24.490567 28.631202 13.354827 39.973554 -0.863187 1.230155 0.030006 -0.012823 -173563.000000 0 0 1
8.705733 -32.605034 27.974267 43.834206 -1.309877 0.878660 0.052965 -0.021632 -643771.000000 0 0 1
10.093833 -32.623734 27.844767 44.062734 -1.270737 0.886749 0.058961 -0.023078 -272666.000000 0 0 1
10.409533 -32.536334 26.475827 43.219681 -1.261152 0.911466 0.056715 -0.016543 390454.000000 0 0 1
11.923733 -32.641334 26.122377 43.474253 -1.220561 0.926207 0.028564 -0.009600 283464.000000 0 0 1
12.507233 -33.920834 26.206337 44.652278 -1.217544 0.943574 0.030327 -0.019579 308415.000000 0 0 1
13.914233 -33.816334 26.051097 44.897773 -1.180446 0.951784 0.036188 -0.015665 447231.000000 0 0 1
14.662133 33.387402 25.752427 44.641732 1.157000 0.955906 0.059002 -0.010782 109729.000000 0 0 1
14.403033 32.858702 24.456897 43.419828 1.157687 0.972464 0.035589 -0.010034 994585.000000 0 0 1
15.375833 31.798302 24.211407 42.822196 1.120401 0.969886 0.039825 -0.006778 357551.000000 0 0 1
15.352533 31.335702 22.711627 41.634655 1.115231 0.993813 0.039722 -0.022441 539804.000000 0 0 1
14.256233 30.470902 22.302727 40.362454 1.133187 0.985362 0.037064 -0.013635 638231.000000 0 0 1
14.238633 29.098802 22.568727 39.481975 1.115729 0.962316 0.039332 -0.014533 -279627.000000 0 0 1
13.961533 28.600802 23.989237 39.854909 1.116672 0.924900 0.037390 -0.017799 266271.000000 0 0 1
15.112333 28.689602 24.836117 40.844933 1.085976 0.917183 0.050860 -0.017359 569883.000000 0 0 1
14.822533 28.212302 26.141357 41.219073 1.087042 0.883816 0.043332 -0.018549 -235164.000000 0 0 1
15.853633 28.640602 27.218847 42.573318 1.065242 0.877156 0.058315 -0.020252 116012.000000 0 0 1
15.770633 29.977502 27.702167 43.758125 1.086501 0.885277 0.055695 -0.023477 416711.000000 0 0 1
16.816433 30.230702 28.645847 44.914054 1.063152 0.879168 0.060857 -0.022922 356319.000000 0 0 1
16.894033 31.699302 29.247757 46.321543 1.081140 0.887430 0.063891 -0.027212 -62864.300000 0 0 1
17.376933 32.611202 28.276837 46.529859 1.081214 0.917618 0.057455 -0.019240 -44090.100000 0 0 1
17.314133 33.947502 28.772967 47.750348 1.099160 0.924078 0.073574 -0.009173 216759.000000 0 0 1
18.069233 -33.607334 27.816857 47.219992 -1.077479 0.940863 0.054756 -0.010528 -348886.000000 0 0 1
17.383433 -33.375034 26.625717 46.097781 -1.090607 0.955020 0.060870 -0.008571 -208169.000000 0 0 1
17.587233 -32.040034 26.168827 44.951997 -1.068787 0.949425 0.067122 -0.014176 39735.400000 0 0 1
19.014233 -31.462634 25.930767 44.987143 -1.027189 0.956475 0.066090 -0.010044 236645.000000 0 0 1
19.580033 -30.902634 27.119737 45.539330 -1.006034 0.932879 0.056635 -0.006923 222112.000000 0 0 1
20.328233 -29.716634 26.808907 44.889118 -0.970842 0.930759 0.048632 -0.006308 20371.000000 0 0 1
20.711933 -29.073634 28.141877 45.455754 -0.951799 0.903194 0.053837 -0.004117 -137965.000000 0 0 1
19.623033 -28.362634 28.719867 44.881323 -0.965553 0.876419 0.063600 -0.010426 266640.000000 0 0 1
19.945433 -27.481334 29.780867 45.165740 -0.942976 0.850818 0.073737 -0.011376 -166769.000000 0 0 1
18.656933 -26.886834 30.416767 44.678437 -0.964172 0.821952 0.072410 -0.016389 399170.000000 0 0 1
17.937233 -26.135834 29.460047 43.274941 -0.969319 0.821990 0.083911 -0.015113 596160.000000 0 0 1
16.582233 -25.901434 29.839927 42.851791 -1.001338 0.800494 0.077312 -0.017450 335561.000000 0 0 1
15.682733 -25.180734 28.836317 41.370891 -1.013776 0.799564 0.058513 -0.011316 -913822.000000 0 0 1
15.330433 -25.926434 27.726967 40.938818 -1.036795 0.826740 0.056881 -0.013059 526130.000000 0 0 1
14.605633 -25.167534 26.720927 39.506167 -1.044961 0.827968 0.054561 -0.016869 42210.600000 0 0 1
13.120233 -24.826934 27.065117 39.000484 -1.084635 0.803810 0.033134 -0.015425 54768.500000 0 0 1
12.262233 -25.947034 27.269207 39.588137 -1.129319 0.810933 0.032184 -0.015423 291202.000000 0 0 1
11.893833 -26.556934 26.042767 39.050733 -1.149722 0.840761 0.028325 -0.025055 -590595.000000 0 0 1
11.139333 -27.932834 26.202227 39.885895 -1.191334 0.854057 0.036583 -0.028078 1119070.000000 0 0 1
9.749633 -27.773734 26.566197 39.650958 -1.233197 0.836586 0.034393 -0.029832 884193.000000 0 0 1
9.084433 -29.034534 26.567517 40.390148 -1.267562 0.852939 0.034056 -0.025874 -190396.000000 0 0 1
7.628133 -28.866734 27.054667 40.291832 -1.312448 0.834609 0.029948 -0.024827 -253505.000000 0 0 1
6.616433 -28.432034 26.198557 39.223999 -1.342155 0.839384 0.043060 -0.026189 -279757.000000 0 0 1
6.761933 -27.192034 25.541397 37.914290 -1.327067 0.831644 0.064960 -0.030884 -1008900.000000 0 0 1
5.584833 -26.724534 24.643287 36.778835 -1.364783 0.836534 0.071343 -0.033333 -174254.000000 0 0 1
5.245833 -27.462734 23.472277 36.505730 -1.382054 0.872420 0.055100 -0.026270 9918.890000 0 0 1
4.704733 -28.756234 23.729217 37.578335 -1.408626 0.887362 0.045339 -0.022806 -170713.000000 0 0 1
3.199633 -28.926434 24.059467 37.760220 -1.460631 0.879983 0.046708 -0.016639 -175352.000000 0 0 1
2.297033 -28.648634 22.994427 36.807122 -1.490788 0.896014 0.044963 -0.014324 1118870.000000 0 0 1
0.960633 -28.306834 23.418627 36.750942 -1.536873 0.879904 0.042720 -0.020466 1123560.000000 0 0 1
0.806933 -26.834434 23.839547 35.903509 -1.540735 0.844655 0.046821 -0.023848 -431726.000000 0 0 1
1.498633 -26.628834 25.043087 36.585474 -1.514577 0.816866 0.044401 -0.025362 -230883.000000 0 0 1
1.365633 -25.316034 25.490797 35.952013 -1.516905 0.782685 0.045073 -0.020396 -613432.000000 0 0 1
2.442333 -24.753034 26.411817 36.280322 -1.472447 0.755407 0.057247 -0.019005 577633.000000 0 0 1
3.674133 -24.485634 25.665437 35.661747 -1.421855 0.767439 0.059983 -0.019585 750748.000000 0 0 1
4.558433 -23.558534 26.212457 35.536977 -1.379664 0.741271 0.069562 -0.017075 -180707.000000 0 0 1
4.164433 -22.082234 26.317547 34.606081 -1.384398 0.706730 0.058041 -0.007373 -506604.000000 0 0 1
4.060733 -21.433234 25.077397 33.237763 -1.383556 0.715927 0.058882 -0.013786 392747.000000 0 0 1
3.316033 -20.209334 25.213557 32.482868 -1.408161 0.682163 0.064789 -0.015761 189632.000000 0 0 1
3.299533 -19.368234 23.929967 30.962215 -1.402058 0.687435 0.069748 -0.017878 124757.000000 0 0 1
4.464833 -18.613334 23.636797 30.415278 -1.335372 0.680695 0.079872 -0.014751 -115605.000000 0 0 1
4.574933 -18.365134 22.258427 29.217216 -1.326656 0.704669 0.080587 -0.020483 -1091500.000000 0 0 1
5.782733 -17.565434 21.926427 28.683666 -1.252761 0.700652 0.067097 -0.010875 -925494.000000 0 0 1
6.977733 -18.280334 22.213227 29.602142 -1.206158 0.722141 0.059264 -0.014469 -74033.200000 0 0 1
8.039733 -17.400434 21.801227 29.029397 -1.137973 0.721213 0.041846 -0.010490 -350644.000000 0 0 1
9.353133 -17.778034 22.450527 30.125832 -1.086483 0.729924 0.047538 -0.002369 -699195.000000 0 0 1
9.365933 -17.378034 23.832307 30.946658 -1.076475 0.691784 0.054116 -0.004421 -56287.000000 0 0 1
10.662433 -17.458334 24.376527 31.822884 -1.022520 0.698191 0.060767 -0.003399 -130841.000000 0 0 1
10.746733 -16.657434 25.696717 32.454332 -0.997830 0.657077 0.071156 -0.019786 -81003.800000 0 0 1
10.633233 -15.292734 25.374897 31.477274 -0.963223 0.633207 0.081346 -0.022096 15918.500000 0 0 1
10.413633 -14.530834 26.592487 32.042928 -0.948978 0.591864 0.081062 -0.014572 5143.660000 0 0 1
10.853533 -13.040434 26.610357 31.558885 -0.876669 0.567594 0.072518 -0.013872 8854.690000 0 0 1
10.011733 -12.177834 25.869287 30.294462 -0.882708 0.547309 0.073518 -0.015768 66601.500000 0 0 1
10.481533 -10.852134 25.829387 29.913017 -0.802768 0.528661 0.067558 -0.009218 -30394.400000 0 0 1
9.571833 -9.925434 24.962967 28.518134 -0.803532 0.504665 0.068571 -0.011773 947686.000000 0 0 1
8.295133 -9.666034 25.587497 28.582537 -0.861576 0.461884 0.052740 -0.008180 1181370.000000 0 0 1
7.366133 -9.122934 24.591407 27.243809 -0.891541 0.444927 0.045051 -0.011282 1331820.000000 0 0 1
5.877233 -9.332634 25.029997 27.352160 -1.008788 0.415037 0.030235 -0.010152 -672620.000000 0 0 1
5.474833 -8.440734 26.049067 27.924428 -0.995392 0.368575 0.028751 -0.003010 479183.000000 0 0 1
4.121233 -8.599134 26.487387 28.151578 -1.123877 0.345564 0.017114 0.002026 1210280.000000 0 0 1
2.997033 -8.420234 25.422577 26.947912 -1.228846 0.338069 0.014626 -0.001890 -775771.000000 0 0 1
2.914833 -7.153434 24.987817 26.154519 -1.183864 0.299812 0.021504 -0.008005 126548.000000 0 0 1
1.885133 -7.009034 24.003957 25.077285 -1.308056 0.293631 0.035687 -0.014491 367002.000000 0 0 1
1.959233 -5.666934 23.189927 23.952567 -1.237930 0.253022 0.029037 -0.022154 -228139.000000 0 1 0
1.756833 -4.531434 23.959637 24.447588 -1.200939 0.200129 0.030531 -0.013890 112687.000000 0 1 0
2.281333 -3.307834 23.387127 23.729812 -0.967033 0.170153 0.039395 -0.022976 -618831.000000 0 1 0
1.371733 -2.622834 22.293927 22.489555 -1.088921 0.131994 0.029566 -0.027034 570588.000000 0 1 0
0.264033 -1.899834 22.799127 22.879670 -1.432704 0.083932 0.028066 -0.026774 454379.000000 0 1 0
-0.802867 -2.665834 23.373727 23.538955 1.278267 0.118554 0.027909 -0.022348 -594863.000000 0 1 0
-1.927367 -1.786834 23.913067 24.057063 0.747579 0.109468 0.034438 -0.031139 -248123.000000 0 1 0
-1.592867 -0.983834 25.068417 25.138232 0.553296 0.074545 0.032387 -0.023879 380766.000000 0 0 1
-2.475967 0.155166 25.138827 25.260941 -0.062587 0.098366 0.031400 -0.026161 398050.000000 0 0 1
-2.081367 1.034166 26.407707 26.509783 -0.461139 0.087783 0.055669 -0.019942 -567531.000000 0 0 1
-2.261067 0.486166 27.720947 27.817255 -0.211792 0.083237 0.069215 -0.014394 200719.000000 0 0 1
-1.330467 -0.503834 28.169347 28.205250 0.362001 0.050461 0.060748 -0.015752 722390.000000 0 0 1
0.178533 -0.060834 28.390027 28.390654 -0.328405 0.006644 0.064741 -0.013645 1112510.000000 0 0 1
0.898433 0.272166 27.163337 27.179554 0.294147 0.034546 0.050574 -0.014407 184636.000000 0 0 1
1.304133 -0.854834 26.409217 26.455212 -0.580218 0.058976 0.040785 -0.011102 -363029.000000 0 0 1
2.540533 -1.672834 26.865897 27.037550 -0.582298 0.112742 0.043465 -0.010574 21077.500000 0 0 1
2.103533 -2.715834 27.774457 27.986087 -0.911771 0.123057 0.029917 -0.004027 39422.200000 0 0 1
3.144733 -3.521834 28.254467 28.646249 -0.841904 0.165577 0.037445 0.006617 -322592.000000 0 0 1
3.805533 -4.532734 27.299667 27.933843 -0.872391 0.213491 0.035507 -0.001289 -454529.000000 0 0 1
4.773833 -3.876634 26.539327 27.242497 -0.682051 0.227699 0.040715 -0.005484 -704557.000000 0 0 1
5.252833 -4.671834 25.493617 26.445090 -0.726924 0.269061 0.034266 -0.003498 -967839.000000 0 0 1
6.546133 -4.093934 24.942417 26.110081 -0.558885 0.300194 0.030844 -0.009158 -715698.000000 0 0 1
7.670233 -4.223534 25.784207 27.230425 -0.503334 0.327375 0.042743 -0.013891 -160817.000000 0 0 1
8.426833 -5.391034 25.681897 27.561469 -0.569133 0.371444 0.054402 -0.013274 -313808.000000 0 0 1
9.492033 -5.429834 24.570577 26.894145 -0.519608 0.418737 0.049027 -0.014375 -909720.000000 0 0 1
8.973133 -5.711134 23.302227 25.614995 -0.566805 0.428210 0.037767 -0.018207 -87031.200000 0 0 1
9.807033 -5.524934 22.146427 24.842846 -0.513046 0.470237 0.062516 -0.016721 92218.700000 0 1 0
9.640033 -4.091834 21.515527 23.928879 -0.401415 0.452985 0.056637 -0.012879 382032.000000 0 1 0
8.312833 -3.864434 21.074027 22.981550 -0.435155 0.410309 0.037159 -0.017802 -195651.000000 0 1 0
8.209033 -2.793834 20.137027 21.924725 -0.328040 0.406622 0.021083 -0.023537 310078.000000 0 1 0
6.851433 -2.004834 20.026627 21.260933 -0.284668 0.342420 0.016457 -0.015923 513225.000000 0 1 0
6.501633 -1.358834 21.161127 22.179066 -0.206033 0.304144 0.023363 -0.015212 -185300.000000 0 1 0
5.270833 -0.696834 20.970827 21.634298 -0.131443 0.248297 0.018652 -0.016135 -306586.000000 0 1 0
4.587933 -0.421834 22.300427 22.771388 -0.091686 0.203734 0.021188 -0.023457 -23911.300000 0 1 0
3.399033 0.354166 22.202727 22.464193 0.103821 0.152721 0.021319 -0.023040 107466.000000 0 1 0
2.826933 0.697166 23.442617 23.622741 0.241791 0.123570 0.032702 -0.021838 361680.000000 0 1 0
1.329433 1.091166 23.271427 23.334896 0.687281 0.073772 0.029111 -0.030304 269544.000000 0 1 0
1.182233 2.515166 22.962927 23.130494 1.131401 0.120442 0.029913 -0.023608 739502.000000 0 1 0
-0.204767 2.805166 23.164827 23.334954 -1.497929 0.120827 0.014420 -0.015192 607923.000000 0 1 0
-0.709467 4.172166 22.625727 23.018120 -1.402360 0.184910 0.024759 -0.015974 -235947.000000 0 1 0
-0.503767 5.225166 23.535937 24.114238 -1.474682 0.219446 0.032526 -0.009363 -221809.000000 0 1 0
-1.486567 6.184166 23.214727 24.070258 -1.334889 0.267416 0.025462 -0.008454 -112142.000000 0 1 0
-1.277467 7.558166 23.791547 24.995910 -1.403361 0.311687 0.029490 -0.006342 -133781.000000 0 1 0
-0.512267 8.416166 22.996927 24.493936 -1.510004 0.351427 0.025958 -0.011441 -257573.000000 0 1 0
-0.521967 9.684166 23.548357 25.467246 -1.516949 0.390674 0.037536 -0.004719 -578168.000000 0 0 1
0.313533 10.830166 22.953127 25.381821 1.541854 0.441027 0.048798 -0.010310 1654740.000000 0 0 1
1.766633 10.742166 22.996227 25.442908 1.407798 0.442144 0.049273 -0.017882 1398030.000000 0 0 1
2.342933 10.910166 24.300747 26.740370 1.359261 0.430478 0.068233 -0.010347 -579553.000000 0 0 1
3.729133 11.586166 24.284297 27.163813 1.259406 0.464614 0.061253 -0.017002 -214395.000000 0 0 1
4.820733 10.886166 23.776267 26.590580 1.153920 0.464242 0.060618 -0.007565 -462300.000000 0 0 1
4.824833 10.595166 22.384227 25.230739 1.143477 0.479597 0.060332 -0.015202 -1429520.000000 0 0 1
6.086033 10.111166 21.681327 24.685125 1.028972 0.498469 0.065042 -0.011587 -544993.000000 0 1 0
7.042833 11.130166 21.481727 25.198148 1.006629 0.550024 0.064127 -0.021839 -1074250.000000 0 0 1
8.115533 10.567166 20.860427 24.752460 0.915877 0.568403 0.068700 -0.019145 -935598.000000 0 1 0
9.209433 11.568166 20.437927 25.225879 0.898437 0.626309 0.069765 -0.031265 -237288.000000 0 0 1
8.808433 12.356166 19.309427 24.558447 0.951480 0.666057 0.059607 -0.035139 1044210.000000 0 1 0
9.765333 13.410166 18.970227 25.200472 0.941391 0.718532 0.071142 -0.027020 1303370.000000 0 0 1
11.184033 13.090166 18.397527 25.197302 0.863762 0.752271 0.059151 -0.023857 1131410.000000 0 0 1
12.208333 12.908166 19.422427 26.322895 0.813254 0.740912 0.069271 -0.025726 331867.000000 0 0 1
13.410133 12.527166 18.818327 26.284805 0.751369 0.772828 0.065233 -0.019954 -785639.000000 0 0 1
14.535933 12.357166 19.807627 27.501545 0.704559 0.766653 0.066519 -0.011205 -506098.000000 0 0 1
15.028533 13.556166 20.358227 28.706861 0.733935 0.782467 0.064606 -0.012486 483966.000000 0 0 1
16.167033 13.312166 21.201827 29.801077 0.688856 0.779244 0.064177 -0.015308 804638.000000 0 0 1
16.840633 14.598166 21.762227 31.149766 0.714191 0.797312 0.065395 -0.013142 18515.900000 0 0 1
16.061733 15.273166 22.697527 31.724227 0.760238 0.773509 0.065996 -0.011228 -54599.700000 0 0 1
16.826033 16.325166 23.208427 32.988748 0.770291 0.790450 0.062143 -0.006461 -437075.000000 0 0 1
-21.439967 12.701902 -24.690811 35.080574 -0.534842 2.351573 0.028750 -0.003288 46475.000000 0 0 1
-21.024467 12.764602 -26.047331 35.824946 -0.545646 2.384845 0.021819 -0.016824 -307133.000000 0 0 1
-21.890667 13.504102 -26.822861 37.162184 -0.552745 2.377165 0.006274 -0.022968 -513248.000000 0 0 1
-21.536267 13.313802 -28.347871 38.008814 -0.553697 2.412567 0.010003 -0.020429 1064220.000000 0 0 1
-20.329367 13.990802 -28.803491 37.929761 -0.602767 2.433172 0.018732 -0.018309 920458.000000 0 0 1
-20.425767 14.126102 -30.213311 39.110138 -0.605054 2.453594 0.011364 -0.017772 290722.000000 0 0 1
-19.050567 14.681502 -30.648651 38.959086 -0.656593 2.476222 0.002162 -0.015252 729199.000000 0 0 1
-18.017267 13.663302 -30.827001 38.231031 -0.648820 2.508725 0.001018 -0.021459 652193.000000 0 0 1
-16.759367 14.318202 -30.756451 37.839749 -0.707008 2.519753 0.013085 -0.016121 232110.000000 0 0 1
-15.864467 14.084402 -29.530501 36.360723 -0.726031 2.518631 0.046346 -0.007562 -284291.000000 0 0 1
-16.385567 14.502102 -28.262291 35.742900 -0.724496 2.482765 0.033674 -0.016139 -149416.000000 0 0 1
-16.779867 13.331302 -27.539621 34.895820 -0.671367 2.480294 0.043857 -0.012364 -285670.000000 0 0 1
-17.490567 13.766102 -26.246481 34.413708 -0.666800 2.438236 0.027953 -0.018053 409745.000000 0 0 1
-16.610767 14.223702 -25.193861 33.361084 -0.708137 2.426736 0.066002 -0.026036 553777.000000 0 0 1
-17.392667 14.478602 -24.051311 33.024239 -0.694219 2.386623 0.055121 -0.020171 120075.000000 0 0 1
-16.613567 15.189802 -22.937211 32.138082 -0.740660 2.365574 0.055414 -0.013641 -58391.800000 0 0 1
-16.122367 16.460302 -23.200111 32.697361 -0.795769 2.359643 0.036147 -0.016465 775.875000 0 0 1
-15.499067 17.032902 -22.052411 31.884944 -0.832512 2.334532 0.034248 -0.008704 -233368.000000 0 0 1
-15.051767 18.528702 -22.369511 32.714882 -0.888571 2.323715 0.037994 -0.012301 74813.600000 0 0 1
-16.070967 19.503102 -22.492711 33.831480 -0.881579 2.298083 0.011375 -0.012961 158700.000000 0 0 1
-16.976667 19.271302 -23.557611 34.850414 -0.848618 2.313068 -0.000643 -0.012789 -515282.000000 0 0 1
-18.232967 20.133002 -23.514411 35.926402 -0.834882 2.284339 -0.010992 -0.018409 -535038.000000 0 0 1
-17.892667 21.455002 -23.883911 36.754671 -0.875687 2.278144 -0.017965 -0.014472 643989.000000 0 0 1
-19.076267 22.263102 -23.963211 37.865356 -0.862336 2.256029 0.004861 -0.031125 454714.000000 0 0 1
-18.799567 23.751702 -24.216411 38.781460 -0.901257 2.245201 0.001953 -0.026997 -2301.700000 0 0 1
-18.351667 24.369102 -23.027811 38.221943 -0.925333 2.217396 0.002887 -0.024452 -209535.000000 0 0 1
-17.573367 25.542602 -23.167011 38.703464 -0.968168 2.212520 -0.000530 -0.005327 196073.000000 0 0 1
-16.500067 25.672802 -22.007211 37.625288 -0.999566 2.195559 0.013510 -0.020587 145945.000000 0 0 1
-15.443067 24.747302 -22.023611 36.550742 -1.012895 2.217487 0.026476 -0.033961 -76620.200000 0 0 1
-15.814967 23.374702 -21.859511 35.697732 -0.975959 2.229826 0.016426 -0.014618 -587060.000000 0 0 1
-14.558267 22.430602 -21.842711 34.527946 -0.995099 2.255714 0.052837 -0.016351 458530.000000 0 0 1
-13.764567 22.710302 -20.747311 33.699733 -1.025908 2.234010 0.082699 -0.030483 -436492.000000 0 0 1
-12.785767 21.730002 -20.467911 32.474670 -1.038956 2.252701 0.074752 -0.023547 27182.900000 0 0 1
-11.997767 21.953902 -19.143511 31.502289 -1.070646 2.223940 0.072185 -0.018847 185263.000000 0 0 1
-12.688167 21.700102 -17.929611 30.876447 -1.041699 2.190371 0.087180 -0.017743 -288987.000000 0 0 1
-13.569567 22.727902 -17.563311 31.767288 -1.032553 2.156606 0.085993 -0.029810 -67507.100000 0 0 1
-14.158767 22.541902 -16.132211 31.126456 -1.009965 2.115635 0.097281 -0.022223 492198.000000 0 0 1
-13.179567 22.879902 -15.175511 30.454672 -1.048186 2.092431 0.098266 -0.022979 28999.900000 0 0 1
-13.837167 23.047802 -13.940211 30.281972 -1.030106 2.049182 0.098813 -0.026727 89141.500000 0 0 1
-12.942067 23.570002 -12.801211 29.781086 -1.068652 2.015116 0.126848 -0.027227 -271865.000000 0 0 1
-12.470067 24.897202 -12.937411 30.704232 -1.106459 2.005736 0.116866 -0.025982 229162.000000 0 0 1
-11.791667 25.237002 -11.743111 30.229957 -1.133701 1.969755 0.074947 -0.017076 -82766.600000 0 0 1
-11.565567 26.792302 -11.622211 31.411233 -1.163285 1.949807 0.083549 -0.020005 -84434.300000 0 0 1
-10.775967 27.217502 -12.713211 31.914567 -1.193812 1.980515 0.083745 -0.021762 139448.000000 0 0 1
-10.759167 28.606002 -12.824011 33.143903 -1.211048 1.968085 0.064126 -0.014061 -807525.000000 0 0 1
-10.239867 29.052102 -14.216011 33.926015 -1.231927 2.003173 0.084837 -0.027252 1491200.000000 0 0 1
-8.825267 28.981402 -14.543111 33.605194 -1.275203 2.018353 0.079764 -0.031000 1458840.000000 0 0 1
-8.133067 27.757902 -14.276911 32.256442 -1.285774 2.029300 0.085721 -0.030884 789984.000000 0 0 1
-6.675267 27.637002 -14.906611 32.102494 -1.333802 2.053690 0.100474 -0.036365 1259340.000000 0 0 1
-5.734167 28.486402 -14.289911 32.381435 -1.372156 2.027843 0.096416 -0.037965 -1189600.000000 0 0 1
-4.574767 28.411702 -15.041411 32.471485 -1.411150 2.052420 0.105928 -0.041817 112019.000000 0 0 1
-3.305167 29.169802 -14.499511 32.741980 -1.457970 2.029562 0.092547 -0.037142 520922.000000 0 0 1
-3.395467 30.614702 -14.486911 34.039092 -1.460338 2.010417 0.083648 -0.032856 80861.700000 0 0 1
-4.388467 31.170602 -13.631211 34.302696 -1.430927 1.979456 0.071623 -0.030638 186265.000000 0 0 1
-4.589767 32.690402 -13.874111 35.808090 -1.431307 1.968668 0.064656 -0.033193 11550.600000 0 0 1
-3.460267 33.402602 -13.440211 36.171073 -1.467572 1.951500 0.054701 -0.034659 -171162.000000 0 0 1
-3.641167 -33.770834 -13.689411 36.621405 1.463391 1.953909 0.051810 -0.029585 484943.000000 0 0 1
-2.647267 -32.831434 -12.946411 35.390968 1.490338 1.945301 0.054773 -0.030414 146971.000000 0 0 1
-3.026667 -32.710134 -11.628711 34.847389 1.478529 1.911026 0.050754 -0.032416 124587.000000 0 0 1
-2.092967 -31.956634 -10.883311 33.823859 1.505396 1.898389 0.045453 -0.033661 -38329.000000 0 0 1
-2.475467 -31.952234 -9.377411 33.391751 1.493477 1.855455 0.030004 -0.024933 -41745.700000 0 0 1
-1.611967 -31.116234 -8.611111 32.325991 1.519038 1.840435 0.033407 -0.022372 75131.100000 0 0 1
-1.782867 -31.285534 -7.242711 32.162402 1.513871 1.797936 0.019292 -0.026936 113918.000000 0 0 1
-0.608067 -30.704334 -6.432411 31.376771 1.550995 1.777266 0.026023 -0.021445 -23087.600000 0 0 1
-0.835667 -30.890434 -5.037211 31.309595 1.543750 1.732383 0.034229 -0.009660 96931.600000 0 0 1
0.205933 -30.275334 -4.296811 30.579419 -1.563994 1.711776 0.037417 -0.004564 111857.000000 0 0 1
-0.019467 -30.452934 -2.771011 30.578752 1.570157 1.661540 0.040989 -0.002247 -426459.000000 0 0 1
0.012333 -31.788234 -2.277711 31.869734 -1.570408 1.642327 0.038186 -0.001761 -445297.000000 0 0 1
1.115133 -32.639934 -2.385511 32.745984 -1.536645 1.643710 0.032949 -0.004145 407103.000000 0 0 1
2.436833 -32.167234 -1.656611 32.301911 -1.495186 1.622104 0.040274 -0.007159 127994.000000 0 0 1
2.481133 -32.331734 -0.246811 32.427734 -1.494207 1.578408 0.031279 -0.005848 975727.000000 0 0 1
3.851333 -32.241534 0.201189 32.471368 -1.451907 1.564600 0.033797 -0.009331 1101360.000000 0 0 1
4.453833 -30.844434 0.451789 31.167609 -1.427391 1.556300 0.023445 -0.011447 -608641.000000 0 0 1
4.819833 -30.094834 -0.673011 30.485780 -1.411990 1.592874 0.014135 -0.014781 115948.000000 0 0 1
4.516733 -28.736134 -0.452811 29.092461 -1.414892 1.586362 0.045453 -0.014207 -174632.000000 0 0 1
4.121233 -27.910634 -1.708011 28.264914 -1.424197 1.631262 0.044485 -0.020404 -681620.000000 0 0 1
2.912433 -28.317634 -2.254811 28.556170 -1.468308 1.649839 0.047904 -0.010717 -646804.000000 0 0 1
2.348533 -27.331534 -3.066411 27.603102 -1.485079 1.682115 0.044048 -0.006765 -14750.800000 0 0 1
2.848533 -27.256734 -4.551711 27.780600 -1.466667 1.735383 0.040692 -0.016760 -204355.000000 0 0 1
2.215433 -28.176134 -5.398411 28.774042 -1.492330 1.759529 0.037805 -0.016450 -64646.000000 0 0 1
2.791133 -28.029734 -6.698911 28.953960 -1.471546 1.804276 0.042968 -0.022521 -94669.000000 0 0 1
2.152333 -28.836834 -7.857711 29.965633 -1.496296 1.836123 0.031586 -0.019171 -266991.000000 0 0 1
0.920533 -28.256734 -8.225411 29.443977 -1.538230 1.853922 0.028303 -0.018747 -324731.000000 0 0 1
0.520533 -28.621134 -9.534411 30.171928 -1.552611 1.892310 0.045202 -0.018111 -249746.000000 0 0 1
-0.858067 -28.038934 -9.851311 29.731573 1.540203 1.908522 0.041399 -0.025143 -1135180.000000 0 0 1
-0.930067 -26.628534 -9.739011 28.368859 1.535883 1.921224 0.036596 -0.016014 257822.000000 0 0 1
-2.230467 -26.050734 -9.839211 27.936102 1.485385 1.930721 0.045361 -0.016212 892376.000000 0 0 1
-3.362067 -26.454334 -8.855611 28.099059 1.444385 1.891418 0.043376 -0.017197 -616638.000000 0 0 1
-3.154367 -26.262534 -7.481411 27.488948 1.451260 1.846434 0.043154 -0.013627 -405525.000000 0 0 1
-2.476667 -27.352834 -6.908311 28.320243 1.480497 1.817218 0.045610 -0.008600 -82092.500000 0 0 1
-1.928967 -27.163434 -5.488011 27.779333 1.499902 1.769662 0.036324 0.000039 586334.000000 0 0 1
-2.872467 -27.327234 -4.403711 27.828429 1.466067 1.729709 0.034497 -0.008470 68433.900000 0 0 1
-2.347767 -26.850034 -3.210011 27.142964 1.483578 1.689337 0.039411 -0.000996 -171915.000000 0 0 1
-3.212867 -26.946534 -1.933211 27.206167 1.452125 1.641914 0.034420 -0.003974 456312.000000 0 0 1
-4.482467 -26.299334 -2.037911 26.756318 1.401978 1.647036 0.038400 0.000383 136595.000000 0 0 1
-5.139867 -26.394734 -0.792911 26.902210 1.378472 1.600274 0.038993 -0.004704 108980.000000 0 0 1
-6.183167 -25.267634 -0.532311 26.018613 1.330805 1.591257 0.029445 -0.003523 386528.000000 0 0 1
-5.590067 -23.990534 -0.456711 24.637434 1.341870 1.589335 0.013660 0.000176 175566.000000 0 1 0
-6.524167 -23.117134 0.177089 24.020783 1.295728 1.563424 0.034437 -0.005765 253615.000000 0 1 0
-5.988767 -21.684634 0.283289 22.498198 1.301337 1.558204 0.020143 -0.013088 285247.000000 0 1 0
-5.085167 -21.554834 1.367389 22.188726 1.339115 1.509132 0.016276 -0.019887 -50896.600000 0 1 0
-4.190667 -20.476534 1.351289 20.944596 1.368927 1.506234 0.003664 -0.011272 206617.000000 0 1 0
-3.251667 -20.552734 2.627889 20.973650 1.413886 1.445171 0.009894 -0.002675 66509.000000 0 1 0
-3.849567 -20.117934 3.840289 20.839824 1.381732 1.385461 0.002140 -0.007199 -116964.000000 0 1 0
-2.946867 -20.009534 4.903389 20.811264 1.424574 1.332948 0.017821 -0.013100 -13287.500000 0 1 0
-2.160767 -21.202134 5.541489 22.020615 1.469234 1.316412 0.019102 -0.020358 897370.000000 0 1 0
-1.218767 -21.707234 4.555989 22.213654 1.514710 1.364232 0.030861 -0.020525 262233.000000 0 1 0
-0.515267 -22.846634 5.071689 23.408465 1.548247 1.352404 0.033994 -0.021424 -286516.000000 0 1 0
0.416133 -23.411534 3.913689 23.740052 -1.553024 1.405184 0.038575 -0.021664 439355.000000 0 1 0
1.523433 -22.579634 3.699789 22.931401 -1.503429 1.408746 0.030705 -0.025454 24014.300000 0 1 0
2.630633 -22.821334 4.552589 23.419214 -1.456032 1.375155 0.039172 -0.027890 69016.100000 0 1 0
3.856233 -21.875834 4.493489 22.663056 -1.396311 1.371200 0.046772 -0.026955 439836.000000 0 1 0
4.680333 -21.799934 3.340789 22.545587 -1.359312 1.422069 0.030825 -0.016383 42486.800000 0 1 0
5.911033 -21.225634 3.789189 22.356784 -1.299193 1.400487 0.044929 -0.007389 437089.000000 0 1 0
6.719733 -20.816134 2.549689 22.021970 -1.258543 1.454757 0.051396 -0.001223 -435679.000000 0 1 0
7.226033 -21.856434 1.800589 23.090287 -1.251496 1.492737 0.045689 -0.001113 -343760.000000 0 1 0
6.763733 -21.887234 0.472589 22.913368 -1.271079 1.550170 0.041867 -0.008602 320768.000000 0 1 0
7.788333 -22.659034 -0.405911 23.963612 -1.239728 1.587736 0.045828 -0.004593 1511290.000000 0 1 0
9.115533 -22.096634 -0.549811 23.909338 -1.179535 1.593794 0.044885 0.000884 251530.000000 0 1 0
9.849633 -22.893834 -1.389811 24.961460 -1.164503 1.626503 0.051958 -0.004739 640052.000000 0 1 0
11.198533 -22.197434 -1.842211 24.930442 -1.103558 1.644758 0.058987 -0.003128 1094030.000000 0 1 0
11.018233 -21.040534 -2.705611 23.904515 -1.088395 1.684223 0.063752 -0.004514 -16735.600000 0 1 0
12.274133 -20.818934 -3.328311 24.395901 -1.038084 1.707652 0.066162 -0.011424 370722.000000 0 1 0
12.487133 -19.569034 -4.300211 23.608630 -1.002827 1.753965 0.064918 -0.026277 -128739.000000 0 1 0
12.886333 -18.391434 -3.667111 22.754123 -0.959621 1.732665 0.081250 -0.020460 94795.100000 0 1 0
13.014133 -17.303534 -4.581311 22.130711 -0.925947 1.779316 0.081878 -0.025133 -815285.000000 0 1 0
13.460233 -15.983434 -3.879711 21.253239 -0.870885 1.754372 0.094578 -0.022359 668576.000000 0 1 0
14.814833 -15.965934 -3.427411 22.048525 -0.822778 1.726878 0.082454 -0.021357 367990.000000 0 1 0
15.722033 -15.802834 -4.473411 22.735947 -0.787961 1.768843 0.076820 -0.026841 -960238.000000 0 1 0
17.197233 -15.597334 -4.059411 23.569057 -0.736651 1.743894 0.074283 -0.022081 -233569.000000 0 1 0
17.877433 -16.695234 -3.603511 24.724861 -0.751217 1.717062 0.071191 -0.017958 325906.000000 0 1 0
19.254933 -16.325234 -3.489411 25.484146 -0.703243 1.708153 0.037971 -0.002681 572698.000000 0 0 1
20.075633 -17.321934 -2.585611 26.641430 -0.711898 1.668002 0.036303 -0.017872 -553671.000000 0 0 1
21.448733 -17.128234 -2.605811 27.571993 -0.673866 1.665447 0.017755 -0.005994 -643869.000000 0 0 1
22.048933 -17.825334 -1.529311 28.394309 -0.679869 1.624682 0.010827 0.003301 -471711.000000 0 0 1
23.576633 -17.779434 -1.535911 29.568986 -0.646128 1.622763 0.023201 -0.004399 -433707.000000 0 0 1
24.051433 -16.540934 -1.035811 29.208677 -0.602445 1.606266 0.030450 -0.007147 -307492.000000 0 0 1
25.316033 -16.687834 -0.440911 30.324573 -0.582802 1.585337 0.058861 -0.009555 -140542.000000 0 0 1
25.923033 -15.325734 -0.004811 30.114478 -0.533925 1.570956 0.058528 -0.005997 441007.000000 0 0 1
25.135533 -14.650834 1.021489 29.111602 -0.527731 1.535700 0.034509 -0.001667 653733.000000 0 0 1
25.914133 -13.636434 1.618689 29.327713 -0.484400 1.515575 0.043955 -0.013170 80743.200000 0 0 1
25.203333 -12.960834 2.800589 28.478667 -0.474983 1.472297 0.043598 -0.013838 -266839.000000 0 0 1
24.878833 -13.685634 3.980489 28.672237 -0.502913 1.431519 0.048752 -0.006557 388619.000000 0 0 1
25.949233 -14.334534 4.684889 30.013159 -0.504689 1.414061 0.086269 -0.010068 334441.000000 0 0 1
25.502733 -14.957334 6.020089 30.172051 -0.530433 1.369923 0.057810 0.004051 -285469.000000 0 0 1
24.764433 -16.105534 5.796689 30.104268 -0.576621 1.377032 0.048138 0.008407 -125400.000000 0 0 1
24.064033 -16.440534 7.016089 29.976563 -0.599361 1.334552 0.027402 0.017292 -33461.000000 0 0 1
23.167833 -17.681634 6.854989 29.939598 -0.651894 1.339787 0.028413 0.015121 -70024.000000 0 0 1
23.863733 -18.909334 6.613589 31.157346 -0.670082 1.356905 0.053718 0.012758 -114755.000000 0 0 1
22.983033 -19.992634 6.475589 31.142551 -0.715927 1.361334 0.033260 0.021418 -289562.000000 0 0 1
1.976433 23.161302 -3.043411 23.443859 1.485669 1.700981 0.025115 -0.012879 172069.000000 0 1 0
2.575933 24.389402 -2.654611 24.668306 1.465570 1.678617 0.024823 -0.008977 227609.000000 0 1 0
3.291533 25.059402 -3.688711 25.542404 1.440195 1.715718 0.027114 -0.004981 726447.000000 0 0 1
4.378633 26.135902 -3.272411 26.701432 1.404805 1.693661 0.015277 -0.002605 1010500.000000 0 0 1
5.540033 25.537002 -2.680411 26.268137 1.357165 1.673015 0.010222 -0.002225 153616.000000 0 0 1
6.326733 26.512002 -2.041411 27.332785 1.336541 1.645553 0.011313 -0.005365 -552263.000000 0 0 1
7.573633 25.976302 -1.360711 27.092060 1.287101 1.621043 0.002768 -0.014117 -610898.000000 0 0 1
8.445033 25.403902 -2.312811 26.870540 1.249859 1.656975 0.005491 -0.018354 -604859.000000 0 0 1
9.345033 24.513602 -1.704311 26.289751 1.206585 1.635670 0.008452 -0.004590 206524.000000 0 0 1
10.513633 24.102102 -2.676911 26.431300 1.159467 1.672248 0.031938 -0.005186 -443568.000000 0 0 1
11.429433 25.202802 -2.757311 27.810356 1.145037 1.670106 0.030842 -0.005035 51646.100000 0 0 1
12.500433 25.066102 -3.651011 28.247127 1.108190 1.700411 0.039516 -0.008211 171188.000000 0 0 1
13.449533 23.825702 -3.603411 27.595988 1.056891 1.701748 0.046803 -0.005527 -935606.000000 0 0 1
12.939333 22.530902 -3.959211 26.281994 1.049494 1.722015 0.048915 -0.007541 -259162.000000 0 0 1
12.651133 22.270902 -5.295811 26.155111 1.054196 1.774683 0.053477 -0.019107 -681024.000000 0 0 1
11.684433 21.113102 -5.450811 24.738641 1.065330 1.792955 0.049894 -0.022202 -450756.000000 0 1 0
10.402933 21.490302 -5.022411 24.398334 1.119969 1.778129 0.038945 -0.022951 -253642.000000 0 1 0
9.468333 20.418302 -5.071711 23.071164 1.136593 1.792436 0.016593 -0.012111 -211512.000000 0 1 0
8.010133 20.748602 -4.819011 22.757187 1.202368 1.784169 0.004481 -0.009635 -538969.000000 0 1 0
7.665733 21.179902 -3.539211 22.800827 1.223529 1.726649 0.003663 -0.006278 -495161.000000 0 1 0
6.398733 21.775002 -3.550911 22.971797 1.284985 1.725996 0.008623 0.006423 -64803.200000 0 1 0
5.994333 22.305702 -2.170111 23.198830 1.308263 1.664477 0.014217 -0.000750 111649.000000 0 1 0
5.460633 21.368602 -1.252211 22.090805 1.320606 1.627511 0.009271 -0.007059 134792.000000 0 1 0
4.848133 22.072002 -0.160411 22.598747 1.354579 1.577895 0.016094 -0.001317 407622.000000 0 1 0
4.370533 21.202002 1.028689 21.672209 1.367506 1.523313 0.012712 -0.001907 33472.500000 0 1 0
3.586633 21.874102 1.996989 22.255971 1.408275 1.480947 0.019420 0.000832 341091.000000 0 1 0
3.248633 20.981102 3.061889 21.450767 1.417180 1.427567 0.023847 -0.000785 12534.900000 0 1 0
2.209033 21.439602 4.110889 21.941644 1.468123 1.382327 0.021629 -0.009748 296489.000000 0 1 0
0.884833 21.525902 3.588489 21.840893 1.529714 1.405747 0.021136 -0.012950 -41757.300000 0 1 0
0.068833 22.021802 4.616189 22.500526 1.567671 1.364170 0.016007 -0.020448 -1415800.000000 0 1 0
-1.292767 22.329102 4.114189 22.741736 -1.512965 1.388886 0.014020 -0.012161 -1285370.000000 0 1 0
-2.314767 22.541402 5.093689 23.225387 -1.468465 1.349683 0.024319 -0.019184 -91954.000000 0 1 0
-3.519967 22.501502 4.366289 23.189916 -1.415621 1.381382 0.024662 -0.028218 311943.000000 0 1 0
-4.768467 22.819702 5.288789 23.904986 -1.364798 1.347708 0.033058 -0.033731 314212.000000 0 1 0
-4.863467 24.178302 5.648889 25.301256 -1.372295 1.345633 0.048718 -0.024514 -809623.000000 0 0 1
-6.002267 24.430202 6.369689 25.950624 -1.329878 1.322808 0.049610 -0.023850 -715178.000000 0 0 1
-6.284667 25.962802 6.583689 27.511981 -1.333300 1.329149 0.061115 -0.022818 -481351.000000 0 0 1
-5.302867 26.620802 7.317289 28.112812 -1.374170 1.307481 0.056812 -0.030290 -209706.000000 0 0 1
-5.778267 27.810402 7.920589 29.488007 -1.365937 1.298853 0.066875 -0.022757 131140.000000 0 0 1
-6.236367 29.062002 7.087489 30.556909 -1.359414 1.336721 0.075049 -0.025620 1439330.000000 0 0 1
-7.433967 28.839302 6.277189 30.436365 -1.318516 1.363066 0.069090 -0.028584 597777.000000 0 0 1
-7.486567 29.963602 5.431689 31.358721 -1.325954 1.396707 0.085853 -0.025806 486069.000000 0 0 1
-8.956267 30.386602 5.056889 32.080094 -1.284169 1.412503 0.086445 -0.029351 1157740.000000 0 0 1
-9.767767 30.872102 6.128789 32.955394 -1.264367 1.383735 0.075890 -0.018725 81597.400000 0 0 1
-10.287267 29.847502 6.968189 32.330433 -1.238886 1.353561 0.061070 -0.015873 -484234.000000 0 0 1
-11.282167 30.399502 8.034689 33.406185 -1.215423 1.327900 0.051266 -0.013896 307604.000000 0 0 1
-10.635767 31.118802 9.122189 34.127902 -1.241464 1.300212 0.058127 -0.011171 179597.000000 0 0 1
-11.556367 31.461202 10.140289 35.016886 -1.218775 1.277005 0.055474 -0.001379 203327.000000 0 0 1
-10.786667 31.898502 11.440289 35.563279 -1.244712 1.243284 0.047769 -0.003694 112886.000000 0 0 1
-10.486667 33.294602 11.456989 36.739125 -1.265666 1.253660 0.050057 -0.005848 -9349.760000 0 0 1
-9.726967 33.529902 12.606889 37.118753 -1.288448 1.224266 0.046885 -0.011803 104328.000000 0 0 1
-9.202167 -33.512334 12.629389 36.976450 1.302811 1.222228 0.043445 -0.015615 246246.000000 0 0 1
-10.137567 -32.644534 13.204789 36.644267 1.269694 1.202152 0.041203 -0.010868 -114307.000000 0 0 1
-9.473867 -31.428334 13.446389 35.472520 1.278016 1.182011 0.046455 -0.004537 474136.000000 0 0 1
-10.342567 -30.297334 14.080689 34.973746 1.241831 1.156433 0.038816 0.000364 -25141.200000 0 0 1
-10.823367 -30.415334 15.416289 35.775687 1.228917 1.125290 0.031726 -0.017299 -438165.000000 0 0 1
-9.824567 -30.433734 16.390789 35.935946 1.258539 1.097176 0.051811 -0.019834 -177483.000000 0 0 1
-10.440467 -30.987234 17.756589 37.208984 1.245814 1.073316 0.066987 -0.036271 194540.000000 0 0 1
-10.993567 -30.003134 18.594289 36.970179 1.219574 1.043784 0.060883 -0.040146 129322.000000 0 0 1
-11.469867 -30.573634 19.783789 38.179880 1.211889 1.026083 0.057198 -0.046431 -369608.000000 0 0 1
-11.559567 -29.690134 21.009789 38.164629 1.199513 0.987828 0.059967 -0.046965 75541.000000 0 0 1
-10.345267 -29.371734 21.668489 37.937405 1.232147 0.962873 0.057314 -0.044287 227719.000000 0 0 1
-10.583067 -28.621034 22.821189 38.104745 1.216623 0.928661 0.053759 -0.039764 632464.000000 0 0 1
-9.287467 -28.524134 23.696889 38.228599 1.256022 0.902215 0.062009 -0.045659 645300.000000 0 0 1
-8.998167 -29.754134 24.385589 39.508638 1.277123 0.905590 0.060455 -0.032830 190587.000000 0 0 1
-7.780867 -29.714034 25.116589 39.677560 1.314688 0.885351 0.064476 -0.026643 188412.000000 0 0 1
-7.645267 -30.993634 26.036189 41.193914 1.328952 0.886614 0.069157 -0.021160 -313246.000000 0 0 1
-7.524867 -32.242734 25.399089 41.729261 1.341518 0.916421 0.076700 -0.013689 263628.000000 0 0 1
-7.702967 -33.293734 26.302289 43.123298 1.343433 0.914821 0.064460 -0.012938 -376402.000000 0 0 1
-7.592967 33.802902 25.688489 43.129894 -1.349839 0.932775 0.052836 -0.014368 151494.000000 0 0 1
-6.249867 33.510202 25.313389 42.458946 -1.386408 0.932055 0.054377 -0.007695 424690.000000 0 0 1
-6.034567 32.349302 24.510689 41.032514 -1.386372 0.930606 0.043116 -0.007689 3200.690000 0 0 1
-6.918267 32.040402 23.228689 40.174890 -1.358138 0.954289 0.046165 -0.004708 91809.100000 0 0 1
-8.228667 31.659002 23.582489 40.325391 -1.316507 0.946157 0.051978 -0.013842 -314595.000000 0 0 1
-8.986367 31.557902 22.408789 39.734239 -1.293381 0.971615 0.044683 -0.007880 205027.000000 0 0 1
-9.986267 30.373502 22.523989 39.110168 -1.253147 0.957078 0.046830 -0.019511 628137.000000 0 0 1
-9.180067 29.188502 22.409889 37.926843 -1.266082 0.938658 0.039260 -0.013298 572466.000000 0 0 1
-9.883667 28.026302 22.809389 37.462364 -1.231757 0.916172 0.032894 -0.009547 -322904.000000 0 0 1
-9.207967 26.721402 22.356689 36.036669 -1.238948 0.901560 0.029894 -0.012869 1051060.000000 0 0 1
-7.977967 26.440502 23.105689 36.008623 -1.277751 0.874121 0.009970 -0.009899 1157080.000000 0 0 1
-7.428467 25.185502 22.737889 34.734755 -1.283979 0.857123 0.014307 -0.009952 -831179.000000 0 0 1
-6.044567 25.049302 23.325989 34.757820 -1.334016 0.835104 0.006854 -0.009643 -690761.000000 0 0 1
-5.031967 25.695402 22.555089 34.558738 -1.377412 0.859707 0.012851 -0.002480 -334533.000000 0 0 1
-3.814367 25.521902 23.241289 34.728581 -1.422440 0.837629 0.024763 -0.005402 -716644.000000 0 0 1
-2.684067 25.810402 22.270389 34.195779 -1.467177 0.861551 0.028107 0.002256 -602497.000000 0 0 1
-2.319567 24.724402 21.380289 32.768784 -1.477253 0.859972 0.024040 0.006082 202637.000000 0 0 1
-1.671367 25.196302 20.191489 32.331769 -1.504560 0.896293 0.034111 0.006998 145099.000000 0 0 1
-1.274267 24.110302 19.190689 30.841740 -1.517994 0.899207 0.029153 -0.002781 5705.560000 0 0 1
-0.226567 23.297802 19.714389 30.520420 -1.561072 0.868541 0.036877 -0.001250 181580.000000 0 0 1
0.065733 22.201102 18.827489 29.109579 1.567836 0.867442 0.028546 -0.003639 -473317.000000 0 0 1
1.238933 21.402102 19.344589 28.875561 1.512972 0.836683 0.026365 -0.004990 -436060.000000 0 0 1
2.513533 21.902102 19.113189 29.177627 1.456534 0.856530 0.024970 -0.008017 -313867.000000 0 0 1
3.638833 21.157402 19.530489 29.022694 1.400474 0.832622 0.029102 -0.007962 718664.000000 0 0 1
5.041233 21.709402 19.188089 29.409096 1.342626 0.859978 0.036616 -0.014319 984878.000000 0 0 1
6.069133 20.708102 19.367889 28.996120 1.285700 0.839349 0.052832 -0.021109 610662.000000 0 0 1
7.339133 21.084602 18.857489 29.223761 1.235833 0.869407 0.045941 -0.023069 53730.400000 0 0 1
8.360833 19.951802 18.758789 28.633373 1.173975 0.856432 0.050398 -0.016416 -46286.100000 0 0 1
8.868533 19.466702 20.030589 29.305765 1.143316 0.818245 0.060125 -0.018079 -71072.200000 0 0 1
9.875233 18.521802 19.785289 28.845017 1.080968 0.814933 0.057564 -0.019544 3848.810000 0 0 1
10.425533 17.839302 21.004289 29.463750 1.041916 0.777192 0.067526 -0.020582 -230268.000000 0 0 1
9.479833 16.878602 21.390789 28.849961 1.059054 0.735568 0.072413 -0.017065 -78232.100000 0 0 1
9.967433 16.091202 22.434589 29.352807 1.016210 0.700829 0.085554 -0.018885 -177665.000000 0 0 1
8.961433 15.035102 22.918989 28.838197 1.033298 0.652210 0.071743 -0.016858 -483482.000000 0 0 1
7.865433 15.634102 23.536889 29.330450 1.104676 0.639368 0.074085 -0.009818 -263069.000000 0 0 1
6.728433 14.838802 23.840389 28.876045 1.145089 0.599512 0.063953 -0.007388 482725.000000 0 0 1
6.905033 13.624902 24.824489 29.147430 1.101727 0.551600 0.071893 -0.001648 -573959.000000 0 0 1
7.352333 14.033802 26.103789 30.535425 1.088211 0.545498 0.072688 -0.007802 58579.900000 0 0 1
7.693833 12.913102 26.920189 30.832448 1.033459 0.509246 0.075914 -0.008230 -265103.000000 0 0 1
8.571033 13.323302 28.145989 32.298137 0.999137 0.512660 0.059350 -0.003098 7894.330000 0 0 1
9.905933 13.736002 27.977289 32.703730 0.946006 0.544325 0.080204 -0.001187 -16013.400000 0 0 1
10.124533 14.901502 27.227189 32.647829 0.974009 0.584539 0.073391 -0.005092 -955616.000000 0 0 1
11.497033 14.967002 26.547689 32.572576 0.915775 0.618012 0.080262 -0.012402 -120251.000000 0 0 1
11.471233 14.225902 25.365889 31.263298 0.892188 0.624316 0.088023 -0.017731 1052820.000000 0 0 1
12.770833 13.750102 24.931689 31.204945 0.822306 0.645223 0.094359 -0.024111 227566.000000 0 0 1
12.654633 12.740202 23.806489 29.819480 0.788768 0.646240 0.087699 -0.023323 233585.000000 0 0 1
12.174233 11.425102 24.230689 29.425689 0.753665 0.603325 0.084811 -0.016035 -956493.000000 0 0 1
10.808933 11.321802 24.307689 28.911589 0.808569 0.572112 0.090200 -0.011157 -1360900.000000 0 0 1
10.340833 9.953902 24.946389 28.780815 0.766335 0.522105 0.081011 -0.005881 28308.100000 0 0 1
10.242933 8.915902 24.017089 27.590425 0.716244 0.514607 0.086104 -0.003859 216675.000000 0 0 1
9.899133 7.665502 24.664989 27.660702 0.658911 0.469714 0.080506 -0.003347 74571.500000 0 0 1
10.192233 6.497802 23.701789 26.605974 0.567555 0.471595 0.081726 -0.004207 -20591.900000 0 0 1
11.586833 6.310902 23.537889 26.983595 0.498735 0.510902 0.083747 -0.000254 296860.000000 0 0 1
11.902033 5.348402 22.590089 26.087850 0.422329 0.523802 0.087240 -0.009687 -92227.600000 0 0 1
11.720533 3.889402 23.038789 26.139704 0.320411 0.492039 0.076918 -0.010746 -768663.000000 0 0 1
12.777233 3.415802 23.794989 27.223645 0.261226 0.507307 0.081389 -0.008159 -380675.000000 0 0 1
12.511133 2.102702 24.208489 27.331314 0.166510 0.482707 0.066272 -0.010177 -452907.000000 0 0 1
13.545833 1.417602 25.136689 28.589374 0.104273 0.496549 0.047710 -0.006526 -959293.000000 0 0 1
14.505833 0.808302 24.366989 28.369397 0.055665 0.537643 0.074497 -0.012430 -233894.000000 0 0 1
15.817633 1.300102 24.695889 29.355999 0.082009 0.571195 0.065911 -0.016175 265538.000000 0 0 1
16.803433 0.643902 23.707089 29.065375 0.038301 0.616950 0.061577 -0.022482 -448311.000000 0 0 1
17.164133 -0.721198 24.042989 29.549837 -0.041993 0.620407 0.059403 -0.024549 350193.000000 0 0 1
18.179033 -1.236898 23.194489 29.495618 -0.067935 0.665885 0.046666 -0.011954 44836.300000 0 0 1
18.506733 -2.677498 23.561689 30.080248 -0.143680 0.670849 0.044409 -0.008077 -275537.000000 0 0 1
17.511833 -3.636898 23.208489 29.300602 -0.204771 0.656584 0.041188 -0.001400 316141.000000 0 0 1
17.818233 -5.003198 23.480489 29.897404 -0.273742 0.667505 0.043549 0.002655 27822.700000 0 0 1
16.711133 -5.903498 22.888189 28.947926 -0.339583 0.658898 0.043664 -0.000697 18171.100000 0 0 1
16.769133 -6.035398 21.483989 27.914004 -0.345477 0.692505 0.029297 0.000943 4727.940000 0 0 1
16.163533 -7.174398 20.899689 27.377523 -0.417739 0.702253 0.037936 0.000764 -305586.000000 0 0 1
16.788933 -8.586798 21.195989 28.370254 -0.472770 0.727077 0.047877 -0.002436 -337039.000000 0 0 1
16.498033 -9.142898 22.469889 29.337239 -0.506048 0.698330 0.037277 0.001052 -25032.400000 0 0 1
17.060033 -10.433198 22.464389 30.075656 -0.548875 0.727365 0.041242 -0.000605 -246566.000000 0 0 1
16.858733 -11.314698 23.712989 31.217705 -0.591098 0.708097 0.052813 -0.008071 103425.000000 0 0 1
15.647833 -12.046898 23.596389 30.769660 -0.656101 0.696843 0.065420 -0.014427 237971.000000 0 0 1
15.419433 -12.797898 24.732489 31.831448 -0.692759 0.680938 0.066215 -0.006029 -201208.000000 0 0 1
14.254733 -13.782098 24.559889 31.564724 -0.768542 0.679192 0.071641 -0.014415 -324594.000000 0 0 1
14.552733 -14.850998 23.611889 31.461969 -0.795542 0.721993 0.075586 -0.025063 855103.000000 0 0 1
13.419933 -15.636798 23.167689 31.005578 -0.861545 0.726942 0.077993 -0.023183 232184.000000 0 0 1
13.716633 -16.343998 21.818789 30.517730 -0.872579 0.774237 0.071350 -0.020523 -52316.000000 0 0 1
14.753833 -17.298898 21.857689 31.538643 -0.864634 0.805092 0.086971 -0.018529 -3233.110000 0 0 1
14.892533 -18.013298 20.643489 31.183651 -0.879955 0.847316 0.077832 -0.006095 73495.500000 0 0 1
-24.312067 -32.219634 26.698537 48.394145 0.924375 0.986408 0.002643 -0.016674 -627950.000000 0 0 1
-23.903967 -33.573634 26.656257 49.083038 0.952071 0.996690 0.010239 -0.007859 -9340.450000 0 0 1
-24.929667 34.042902 26.944607 50.064152 -0.938719 1.002494 0.016371 -0.013223 -443768.000000 0 0 1
-25.445527 33.987202 28.385417 51.071877 -0.928141 0.981479 0.004583 -0.003157 1210.500000 0 0 1
-26.279367 -33.458634 28.777437 51.363666 0.905004 0.976087 0.042462 -0.009335 13412.400000 0 0 1
-26.249267 -33.328034 30.155927 52.049609 0.903660 0.952842 0.022237 -0.014081 480281.000000 0 0 1
-27.577687 -32.674234 30.711407 52.643375 0.869785 0.947905 0.013926 -0.018091 469842.000000 0 0 1
-27.639127 -31.315934 30.423307 51.673849 0.847684 0.941277 0.009435 -0.014257 75096.300000 0 0 1
-28.441387 -30.678734 31.414067 52.315780 0.823224 0.926707 0.007149 -0.002931 -219053.000000 0 0 1
-28.805317 -29.259734 30.970017 51.429761 0.793224 0.924566 0.004863 -0.003643 -561921.000000 0 0 1
-29.889407 -29.372334 30.097977 51.594563 0.776673 0.947942 0.017060 0.002274 -263731.000000 0 0 1
-30.320427 -28.039234 29.804367 50.929630 0.746330 0.945661 0.020463 0.010723 214989.000000 0 0 1
-30.856417 -27.853634 28.333057 50.306118 0.734297 0.972527 0.014788 -0.008301 292064.000000 0 0 1
-29.796247 -27.702734 27.399937 49.051140 0.749005 0.978100 0.017913 -0.006434 353321.000000 0 0 1
-29.415477 -26.352934 27.209067 47.959157 0.730538 0.967526 0.003581 0.001238 261214.000000 0 0 1
-28.385917 -26.197834 26.038487 46.584221 0.745333 0.977671 0.018816 0.007473 196780.000000 0 0 1
-28.951897 -26.448634 24.749997 46.371381 0.740244 1.007786 0.005726 -0.005015 609028.000000 0 0 1
-27.982387 -26.197834 23.684987 45.059062 0.752473 1.017325 0.029295 0.011807 356214.000000 0 0 1
-28.385887 -26.339534 22.205827 44.638866 0.748022 1.050134 0.005344 0.018898 -388079.000000 0 0 1
-29.095627 -25.271134 21.636127 44.196241 0.715168 1.059226 0.008505 0.007995 9037.890000 0 0 1
-29.492897 -25.635634 20.314127 44.041804 0.715543 1.091397 0.011354 0.018047 -357302.000000 0 0 1
-30.208157 -24.525734 19.621127 43.577896 0.681950 1.103746 0.026962 0.011169 -930353.000000 0 0 1
-31.493997 -24.288834 20.077227 44.552378 0.656945 1.103311 0.049320 0.001892 -753986.000000 0 0 1
-32.106927 -23.158234 19.487627 44.123986 0.624869 1.113353 0.076111 -0.002107 441335.000000 0 0 1
-33.608587 -22.985334 19.877727 45.309897 0.599847 1.116638 0.063072 0.004428 383545.000000 0 0 1
-34.429812 -23.919834 19.224627 46.121109 0.607188 1.140842 0.054568 -0.008028 -476300.000000 0 0 1
-35.765953 -23.513234 19.205027 46.913843 0.581573 1.149035 0.045217 -0.010539 -184333.000000 0 0 1
35.883701 -24.275734 18.236527 47.005555 -0.594787 1.172373 0.056092 -0.012708 111492.000000 0 0 1
35.646601 -25.600734 18.650027 47.685441 -0.622824 1.168964 0.042635 -0.009712 -362306.000000 0 0 1
34.763711 -26.223134 17.773727 47.032688 -0.646263 1.183268 0.051175 -0.007142 -112193.000000 0 0 1
34.474411 -27.725134 18.107227 47.802090 -0.677311 1.182302 0.050793 0.009692 -47323.400000 0 0 1
33.613571 -27.987034 19.229027 47.779721 -0.694312 1.156603 0.038421 0.003592 127064.000000 0 0 1
33.971951 -27.519134 20.498927 48.286667 -0.680842 1.132358 0.038548 0.003711 -949125.000000 0 0 1
32.747341 -27.606534 21.396127 47.878005 -0.700426 1.107512 0.030414 -0.001698 -584435.000000 0 0 1
31.822721 -26.665534 20.905427 46.484118 -0.697451 1.104330 0.025427 -0.003243 -713864.000000 0 0 1
30.739811 -26.542334 21.798127 46.093273 -0.712252 1.078202 0.033756 0.004663 -97715.400000 0 0 1
29.678341 -25.472434 21.393727 44.579596 -0.709284 1.070256 0.028799 0.007133 -20676.400000 0 0 1
30.029621 -24.099734 21.082727 43.898254 -0.676283 1.069841 0.007873 0.008575 79768.300000 0 0 1
31.032261 -23.450934 21.881327 44.628915 -0.647136 1.058368 0.022585 0.000747 280981.000000 0 0 1
31.618711 -22.207234 21.237627 44.090146 -0.612298 1.068218 0.013501 0.008780 23219.000000 0 0 1
30.720781 -21.087334 21.169727 42.855565 -0.601553 1.054137 0.009153 0.000702 140270.000000 0 0 1
31.245111 -19.940834 20.466327 42.341049 -0.568040 1.066298 0.008093 -0.000341 -734719.000000 0 0 1
30.341211 -18.738434 20.484427 41.125780 -0.553253 1.049399 -0.010695 0.004348 -368851.000000 0 0 1
30.231801 -18.113534 21.751427 41.414810 -0.539798 1.017836 0.002571 0.006250 -248385.000000 0 0 1
29.189351 -18.604034 22.559827 41.316753 -0.567436 0.993189 0.016538 0.002535 -1186450.000000 0 0 1
29.309681 -18.289334 24.091937 42.118625 -0.557882 0.961852 0.011558 0.003293 -123502.000000 0 0 1
29.133401 -16.915734 24.365887 41.576359 -0.526055 0.944619 0.009569 -0.002154 15991.200000 0 0 1
29.236061 -16.645234 25.781647 42.385191 -0.517570 0.916917 0.005164 0.000745 -47521.200000 0 0 1
29.114761 -15.185434 26.145727 41.974585 -0.480756 0.898359 0.008055 -0.005244 624663.000000 0 0 1
27.770211 -14.731034 26.357487 41.023227 -0.487719 0.873038 0.020552 -0.004276 764502.000000 0 0 1
27.753151 -13.355334 26.809487 40.833209 -0.448510 0.854546 0.013510 -0.007816 -20509.800000 0 0 1
28.227771 -12.275734 25.779717 40.150897 -0.410210 0.873600 0.025990 -0.013868 208685.000000 0 0 1
27.282721 -11.870934 24.752377 38.703309 -0.410401 0.876894 0.020679 -0.005052 368042.000000 0 0 1
27.764111 -10.971834 23.765897 38.158156 -0.376345 0.898446 0.031910 0.001281 36264.200000 0 0 1
28.817091 -11.532734 22.760927 38.490109 -0.380683 0.938071 0.050103 -0.003282 78912.700000 0 0 1
28.334561 -12.559534 21.880327 37.938608 -0.417234 0.956076 0.035301 -0.006246 -64123.900000 0 0 1
28.826831 -13.820734 22.274627 38.963546 -0.447065 0.962246 0.019218 -0.013070 -150565.000000 0 0 1
28.608991 -14.940734 21.237727 38.636006 -0.481280 0.988806 0.007358 0.003311 -7171.790000 0 0 1
29.298181 -14.766934 20.024327 38.437214 -0.466860 1.022819 0.002630 0.004983 -393187.000000 0 0 1
28.752411 -15.676634 19.102927 37.912793 -0.499172 1.042729 -0.002247 0.004386 -105530.000000 0 0 1
29.239281 -15.513034 17.644227 37.508780 -0.487791 1.081049 0.006458 0.000363 241373.000000 0 0 1
28.678951 -16.357034 16.592427 36.950554 -0.518333 1.105101 0.002114 -0.008406 814628.000000 0 0 1
27.278421 -16.146934 16.337027 35.661383 -0.534465 1.094923 0.027512 -0.002003 537656.000000 0 0 1
27.079721 -15.454334 14.942327 34.574859 -0.518595 1.123895 0.033583 -0.010559 -84063.300000 0 0 1
27.086121 -16.237434 13.717527 34.430841 -0.540033 1.161016 0.039974 -0.009777 206119.000000 0 0 1
25.996321 -17.142534 13.734727 34.034070 -0.582970 1.155394 0.041218 -0.017412 -149839.000000 0 0 1
25.983221 -17.814134 12.339727 33.834007 -0.600997 1.197471 0.033429 -0.003491 -189108.000000 0 0 1
25.417521 -17.056234 11.303727 32.630350 -0.591026 1.217047 0.052193 -0.010783 -147509.000000 0 0 1
25.378721 -17.740234 10.024627 32.546713 -0.610068 1.257698 0.040064 -0.010060 -67740.200000 0 0 1
26.737021 -17.976834 9.322027 33.540052 -0.591932 1.289150 0.047565 0.000214 60670.200000 0 0 1
27.531621 -18.980934 9.919127 34.880584 -0.603592 1.282443 0.043450 0.006265 -882200.000000 0 0 1
28.847441 -18.828634 9.486327 35.730697 -0.578269 1.302079 0.056512 0.000526 -518618.000000 0 0 1
29.893491 -19.518934 10.367727 37.176597 -0.578446 1.288171 0.067924 -0.027352 -197073.000000 0 0 1
30.044271 -18.937434 11.634727 37.371801 -0.562414 1.254211 0.050182 -0.031879 22529.200000 0 0 1
30.095341 -19.954834 12.624627 38.253185 -0.585497 1.234463 0.029357 -0.029498 -17627.800000 0 0 1
29.736031 -19.393534 14.012827 38.166740 -0.577913 1.194856 0.027990 -0.023321 132365.000000 0 0 1
29.684211 -20.436234 14.935127 39.010897 -0.602935 1.177922 0.017595 -0.021290 -58447.300000 0 0 1
29.461831 -19.881934 16.201827 39.061362 -0.593638 1.143097 0.012664 -0.018619 4165.380000 0 0 1
29.351051 -20.985134 17.256427 39.995554 -0.620703 1.124687 -0.004261 -0.011817 214671.000000 0 0 1
28.179871 -21.779234 17.176427 39.540736 -0.657975 1.121426 -0.028584 0.000153 -13342.700000 0 0 1
28.085941 -22.514234 18.372527 40.413619 -0.675728 1.098859 0.002374 -0.002282 -231255.000000 0 0 1
26.804321 -23.354234 18.454527 40.055729 -0.716723 1.091989 0.007857 -0.001798 127271.000000 0 0 1
25.667521 -22.500834 18.674127 38.907997 -0.719751 1.070192 0.017891 0.004056 303923.000000 0 0 1
24.504721 -23.333734 18.703827 38.662355 -0.760925 1.065835 0.036769 -0.009814 -133011.000000 0 0 1
23.353521 -22.635834 19.414427 37.877274 -0.769794 1.032631 0.038850 -0.005918 -827585.000000 0 0 1
22.810621 -21.567734 18.639227 36.509073 -0.757399 1.034987 0.043493 -0.002617 204312.000000 0 0 1
21.667421 -20.930534 19.204127 35.726221 -0.768101 1.003284 0.050751 -0.004544 423133.000000 0 0 1
21.864221 -20.257134 20.604527 36.234544 -0.747263 0.965941 0.041561 -0.001858 -290048.000000 0 0 1
21.986621 -21.235334 21.647227 37.456019 -0.768018 0.954598 0.053950 -0.006299 -279080.000000 0 0 1
22.387321 -20.665434 22.870627 38.096167 -0.745425 0.926871 0.043475 0.001597 -36241.700000 0 0 1
22.641021 -21.704834 23.970887 39.475551 -0.764290 0.918222 0.042899 -0.002982 253634.000000 0 0 1
21.544921 -22.514034 24.390667 39.572339 -0.807390 0.906689 0.057389 -0.006022 184446.000000 0 0 1
21.988621 -23.462234 25.344357 40.942793 -0.817809 0.903304 0.054756 -0.012765 -697937.000000 0 0 1
20.881821 -24.144134 26.086547 41.224963 -0.857726 0.885651 0.057788 -0.011518 -882980.000000 0 0 1
20.197221 -25.173834 25.441457 41.096440 -0.894648 0.903242 0.064405 -0.010794 -71343.600000 0 0 1
19.204821 -25.672734 26.321077 41.481484 -0.928536 0.883401 0.065578 -0.011110 109097.000000 0 0 1
18.454021 -26.863334 25.580277 41.431150 -0.968876 0.905342 0.069447 -0.010658 -249927.000000 0 0 1
17.670421 -26.367234 24.534687 40.117648 -0.980375 0.912755 0.063875 -0.016849 -223261.000000 0 0 1
17.126221 -27.490434 23.885357 40.243530 -1.013645 0.935370 0.067275 -0.023857 -369457.000000 0 0 1
16.183721 -26.953134 22.762027 38.813582 -1.030054 0.944134 0.064328 -0.030190 -889312.000000 0 0 1
14.895121 -26.731534 23.193927 38.397888 -1.062433 0.922233 0.046320 -0.030911 -794919.000000 0 0 1
14.290221 -25.739334 22.376227 36.978633 -1.063977 0.920889 0.029830 -0.025458 69623.700000 0 0 1
12.876221 -25.224834 22.660127 36.270797 -1.098817 0.895987 0.024526 -0.021932 -415018.000000 0 0 1
11.775521 -26.057734 22.526127 36.401852 -1.146362 0.903559 0.028865 -0.025485 -437719.000000 0 0 1
10.620221 -25.243134 22.440627 35.406026 -1.172559 0.884330 0.036171 -0.019720 475697.000000 0 0 1
9.247621 -25.970434 22.493827 35.580250 -1.228713 0.886407 0.047176 -0.020238 317785.000000 0 0 1
9.058821 -26.880734 21.362527 35.510473 -1.245749 0.925314 0.043916 -0.021364 -275508.000000 0 0 1
7.781121 -27.447434 21.426927 35.679415 -1.294553 0.926620 0.043597 -0.020129 -336228.000000 0 0 1
7.406221 -28.265134 20.170827 35.505382 -1.314531 0.966594 0.050125 -0.013146 -23436.900000 0 0 1
8.092421 -29.490734 20.085527 36.587144 -1.302983 0.989656 0.050744 -0.017698 104560.000000 0 0 1
7.611321 -30.179934 18.967127 36.448766 -1.323750 1.023503 0.040888 -0.009953 -200533.000000 0 0 1
8.173721 -31.609934 18.748527 37.649766 -1.317758 1.049538 0.032366 -0.000772 -172545.000000 0 0 1
7.638821 -32.672434 19.530027 38.823466 -1.341122 1.043676 0.034733 -0.004913 187947.000000 0 0 1
8.420321 -33.832034 19.386727 39.891773 -1.326866 1.063309 0.033545 -0.005130 -254133.000000 0 0 1
8.156521 33.706302 20.508127 40.289290 1.333372 1.036748 0.045615 -0.023478 484840.000000 0 0 1
7.186721 32.683202 20.213527 39.095106 1.354351 1.027413 0.046047 -0.022600 362738.000000 0 0 1
7.258821 31.768402 21.239827 38.897970 1.346161 0.993167 0.046211 -0.028311 -495928.000000 0 0 1
6.336421 30.614902 20.971427 37.646025 1.366706 0.979944 0.045963 -0.024594 -481192.000000 0 0 1
4.962021 30.839602 21.157227 37.727059 1.411266 0.975448 0.051683 -0.024638 -125677.000000 0 0 1
4.292121 29.578002 20.900727 36.470822 1.426690 0.960536 0.050165 -0.018126 363593.000000 0 0 1
2.829821 29.432702 21.375027 36.485389 1.474945 0.944866 0.049080 -0.009937 212932.000000 0 0 1
2.759821 29.174002 22.777727 37.115547 1.476478 0.910061 0.040617 -0.016800 -1099190.000000 0 0 1
1.424221 29.048602 23.099227 37.140597 1.521807 0.899578 0.041976 -0.008680 -898543.000000 0 0 1
1.082521 28.487202 24.484887 37.579279 1.532814 0.861167 0.043795 -0.005590 -121363.000000 0 0 1
1.326221 29.425502 25.565387 39.002667 1.525756 0.855981 0.044367 -0.013979 208003.000000 0 0 1
1.122021 28.846702 26.853137 39.426921 1.531920 0.821551 0.043767 -0.016208 619609.000000 0 0 1
2.390421 28.170802 27.523217 39.456757 1.486145 0.798818 0.032691 -0.011280 490468.000000 0 0 1
2.843921 26.993002 26.851107 38.179733 1.465826 0.790793 0.036371 -0.007469 329019.000000 0 0 1
3.741821 26.255902 27.646787 38.310814 1.429236 0.764621 0.023820 0.002204 53118.000000 0 0 1
4.288421 24.874502 27.173657 37.088260 1.400072 0.748552 0.016027 0.009547 -238628.000000 0 0 1
3.301821 23.885602 27.192677 36.343716 1.433432 0.725439 0.024899 0.013496 -124520.000000 0 0 1
3.808921 22.531402 27.108137 35.454521 1.403330 0.700393 0.034665 0.019323 255392.000000 0 0 1
2.650321 21.579102 26.683777 34.419555 1.448589 0.683685 0.025807 0.016462 100606.000000 0 0 1
2.882921 20.197502 26.711177 33.611565 1.429017 0.652280 0.036929 0.015668 -302068.000000 0 0 1
3.541121 19.767002 25.555937 32.501997 1.393534 0.666018 0.044102 0.010976 -190613.000000 0 0 1
4.021621 18.313802 25.657217 31.778319 1.354632 0.631096 0.043208 0.001406 -214909.000000 0 0 1
5.013321 18.175102 26.653337 32.647635 1.301654 0.615657 0.048176 -0.000264 -222064.000000 0 0 1
6.198221 17.691402 26.056907 32.099315 1.233808 0.623639 0.061231 0.005605 -308662.000000 0 0 1
7.386621 17.577002 27.099187 33.134259 1.172961 0.613114 0.043410 -0.001342 438667.000000 0 0 1
7.923221 18.743702 27.626887 34.312515 1.170864 0.634860 0.052269 -0.002287 234995.000000 0 0 1
8.584521 19.546102 26.602797 34.109426 1.156965 0.676250 0.042215 -0.012228 -176274.000000 0 0 1
9.254921 20.863002 27.171697 35.485483 1.153274 0.698647 0.039444 -0.004269 571285.000000 0 0 1
10.279121 20.603902 28.138087 36.358397 1.108036 0.685806 0.047648 -0.027319 262215.000000 0 0 1
10.378221 21.806302 28.910307 37.669990 1.126591 0.695923 0.055036 -0.028117 -203838.000000 0 0 1
11.241621 21.745402 30.168407 38.850603 1.093669 0.681667 0.082982 -0.031418 648186.000000 0 0 1
12.599021 21.401002 29.875447 38.849460 1.038718 0.693512 0.069927 -0.035609 293863.000000 0 0 1
13.486421 21.367202 30.967567 39.967876 1.007770 0.684380 0.073860 -0.027364 -410646.000000 0 0 1
14.892921 21.063802 30.489167 39.938354 0.955362 0.702227 0.043810 -0.031506 -490982.000000 0 0 1
15.450621 22.066002 29.657497 40.064913 0.959936 0.737375 0.033189 -0.034790 -718670.000000 0 0 1
16.754921 21.802702 29.254387 40.148529 0.915573 0.754442 0.089333 -0.021404 -517977.000000 0 0 1
-8.683167 16.722902 4.350389 19.338529 -1.091877 1.343895 0.017354 -0.017891 -101427.000000 0 1 0
-8.324467 18.066202 4.773089 20.456460 -1.139018 1.335296 0.017167 -0.020294 -236073.000000 0 1 0
-6.985867 18.331402 5.057389 20.258821 -1.206699 1.318489 0.013942 -0.016069 -886434.000000 0 1 0
-6.768067 19.743402 5.648989 21.622204 -1.240549 1.306470 0.013586 -0.019543 -546606.000000 0 1 0
-6.959367 20.798202 4.666189 22.422562 -1.247894 1.361162 0.019438 -0.025994 651997.000000 0 1 0
-8.340767 21.148902 4.535689 23.182254 -1.195142 1.373873 0.018826 -0.025847 562863.000000 0 1 0
-8.518867 22.293002 3.491689 24.119306 -1.205788 1.425518 0.051945 -0.031178 136310.000000 0 1 0
-7.934867 22.093202 2.191489 23.576987 -1.225990 1.477712 0.035535 -0.032487 193923.000000 0 1 0
-8.511467 21.057102 1.345789 22.752093 -1.186667 1.511612 0.053634 -0.030240 -730323.000000 0 1 0
-8.080967 21.176502 -0.123411 22.666307 -1.206251 1.576241 0.037429 -0.014214 757117.000000 0 1 0
-6.752767 20.737302 -0.440011 21.813509 -1.255991 1.590969 0.030978 -0.009728 554443.000000 0 1 0
-5.697067 21.553402 0.003889 22.293625 -1.312383 1.570622 0.026315 -0.014976 -153955.000000 0 1 0
-4.245267 21.252502 -0.432111 21.676666 -1.373638 1.590732 0.024270 -0.011707 389180.000000 0 1 0
-3.954867 21.648402 -1.771611 22.077882 -1.390103 1.651126 0.018686 -0.008882 -75242.900000 0 1 0
-2.598767 21.458502 -2.120111 21.719018 -1.450277 1.668567 0.013107 -0.005659 24070.300000 0 1 0
-2.443367 21.515002 -3.659811 21.960409 -1.457715 1.738233 0.022978 -0.012398 -586348.000000 0 1 0
-1.213067 21.899502 -4.166111 22.325237 -1.515460 1.758507 0.028234 -0.007963 -633510.000000 0 1 0
-1.303167 22.178802 -5.543211 22.898137 -1.512106 1.815307 0.028495 -0.019391 202328.000000 0 1 0
-0.006167 22.833802 -6.084511 23.630569 -1.570526 1.831215 0.025991 -0.016735 523965.000000 0 1 0
1.170933 22.060102 -5.877911 22.859768 1.517767 1.830847 0.024736 -0.008765 -198271.000000 0 1 0
2.192433 22.538002 -6.697411 23.614055 1.473824 1.858363 0.021524 -0.006290 -146645.000000 0 1 0
3.434533 21.675002 -6.931711 23.014133 1.413647 1.876741 0.021366 0.000867 180359.000000 0 1 0
3.100033 20.678902 -7.843811 22.332769 1.421992 1.929675 0.021142 -0.006489 702793.000000 0 1 0
4.164333 19.715502 -7.907411 21.646474 1.362635 1.944749 0.023056 -0.006985 932006.000000 0 1 0
3.724533 18.684202 -8.992011 21.067221 1.374034 2.011775 0.019119 -0.011661 197526.000000 0 1 0
3.878033 19.235402 -10.289411 22.156529 1.371854 2.053749 0.023772 -0.013755 -62511.900000 0 1 0
3.037033 18.648602 -11.251111 21.990485 1.409358 2.107883 0.021642 -0.015872 -52348.800000 0 1 0
3.439533 19.003502 -12.715211 23.122285 1.391740 2.153055 0.024013 -0.017460 175220.000000 0 1 0
3.423333 20.419802 -12.913511 24.401768 1.404693 2.128458 0.041419 -0.020719 -56676.200000 0 1 0
4.074333 20.753402 -14.127411 25.433985 1.376941 2.159705 0.064327 -0.020594 -26698.300000 0 0 1
4.380933 22.232702 -14.452711 26.876876 1.376240 2.138548 0.056267 -0.018817 -183245.000000 0 0 1
3.353833 23.086802 -14.881811 27.671590 1.426535 2.138623 0.074395 -0.018018 -630610.000000 0 0 1
3.887333 24.389502 -15.096011 28.945616 1.412740 2.119440 0.061597 -0.023499 56498.400000 0 0 1
2.937833 25.560402 -15.507311 30.040667 1.456362 2.113217 0.074268 -0.020317 -201437.000000 0 0 1
2.089133 25.939102 -14.469311 29.775198 1.490430 2.078248 0.095728 -0.025499 -219465.000000 0 0 1
1.595033 27.269602 -14.702211 31.021449 1.512372 2.064553 0.068990 -0.020871 -777527.000000 0 0 1
0.791633 27.839902 -13.470911 30.937877 1.542369 2.021299 0.080496 -0.019412 217160.000000 0 0 1
-0.593767 27.614302 -13.399411 30.699290 -1.549297 2.022471 0.080804 -0.029925 -266844.000000 0 0 1
-0.975867 26.227802 -13.441211 29.487558 -1.533606 2.044097 0.063480 -0.026712 -885612.000000 0 0 1
-0.727267 25.289002 -12.254911 28.111303 -1.542046 2.021882 0.080883 -0.024090 -406151.000000 0 0 1
-1.585867 25.555002 -11.158911 27.930170 -1.508819 1.981799 0.077238 -0.023271 -31143.600000 0 0 1
-1.669267 24.343102 -10.456411 26.546367 -1.502331 1.975659 0.069306 -0.015156 -104485.000000 0 0 1
-2.745867 24.354302 -9.356311 26.233802 -1.458524 1.935477 0.064014 -0.017845 -38093.900000 0 0 1
-2.312967 24.870202 -8.085111 26.253491 -1.478062 1.883848 0.070403 -0.020975 -127151.000000 0 0 1
-2.131667 26.252602 -7.962311 27.516204 -1.489776 1.864363 0.075410 -0.022479 -36202.300000 0 0 1
-1.892367 26.584402 -6.508811 27.434943 -1.499733 1.810326 0.065626 -0.019558 53657.500000 0 0 1
-0.745767 25.946802 -5.983011 26.638114 -1.542062 1.797332 0.046678 -0.017605 -51564.300000 0 0 1
-0.546467 26.072502 -4.539411 26.470365 -1.549840 1.743139 0.045762 -0.015076 167649.000000 0 0 1
-1.612667 25.398302 -3.613511 25.704706 -1.507386 1.711841 0.047541 -0.021840 767359.000000 0 0 1
-2.934567 25.942302 -3.631211 26.359067 -1.458156 1.708995 0.047889 -0.019432 563182.000000 0 0 1
-3.719767 25.322202 -2.610511 25.726744 -1.424942 1.672442 0.041302 -0.016512 603129.000000 0 0 1
-4.912167 24.426902 -3.122011 25.110752 -1.372347 1.695449 0.050373 -0.021778 1180750.000000 0 0 1
-6.050667 25.240502 -3.528811 26.194389 -1.335516 1.705923 0.054413 -0.023500 1117480.000000 0 0 1
-7.134767 24.413402 -4.018511 25.750097 -1.286467 1.727495 0.044650 -0.022780 587403.000000 0 0 1
-8.423567 25.204402 -4.234711 26.910056 -1.248257 1.728819 0.053464 -0.017975 -131579.000000 0 0 1
-9.100267 25.537402 -3.008211 27.276787 -1.228475 1.681306 0.056145 -0.026095 629830.000000 0 0 1
-10.408267 26.096002 -3.257711 28.283317 -1.191286 1.686234 0.064941 -0.024466 1162100.000000 0 0 1
-11.135667 26.325402 -1.854611 28.643838 -1.170620 1.635589 0.065567 -0.030979 -4410.380000 0 0 1
-11.598867 25.186702 -1.190911 27.754674 -1.139232 1.613718 0.063287 -0.030949 132029.000000 0 0 1
-10.599267 24.307702 -0.704411 26.527439 -1.159607 1.597354 0.073891 -0.035419 58015.100000 0 0 1
-11.204167 22.941902 -0.282511 25.533195 -1.116495 1.581861 0.068239 -0.030649 -55765.800000 0 0 1
-12.170567 22.961702 0.750189 25.998562 -1.083408 1.541937 0.084224 -0.030973 160668.000000 0 0 1
-12.857967 21.735802 0.949889 25.272014 -1.036608 1.533201 0.086976 -0.032775 140340.000000 0 0 1
-13.837867 21.889302 2.151989 25.985749 -1.007054 1.487887 0.094315 -0.031093 331569.000000 0 0 1
-13.227267 21.927002 3.494689 25.845055 -1.027997 1.435164 0.083631 -0.030721 489377.000000 0 0 1
-12.612767 23.152102 3.891189 26.650386 -1.071971 1.424264 0.081897 -0.024995 120254.000000 0 0 1
-12.349567 23.265502 5.437789 26.895444 -1.082805 1.367210 0.065990 -0.021109 -270829.000000 0 0 1
-11.258067 22.578702 6.006089 25.934821 -1.108258 1.337091 0.047574 -0.024638 25516.400000 0 0 1
-11.396667 22.402702 7.409689 26.204361 -1.100198 1.284120 0.038400 -0.017209 -263996.000000 0 0 1
-10.133867 21.923902 8.152189 25.491389 -1.137819 1.245276 0.027656 -0.018320 46805.100000 0 0 1
-9.121567 22.937602 8.321189 26.049544 -1.192301 1.245661 0.027004 -0.019622 1052550.000000 0 0 1
-7.919867 22.401002 8.890289 25.368611 -1.230963 1.212751 0.024856 -0.016533 139736.000000 0 0 1
-7.908967 22.195502 10.426889 25.766491 -1.228492 1.154180 0.028163 -0.018003 -733421.000000 0 0 1
-8.765767 21.165402 10.824189 25.337245 -1.178147 1.129397 0.029372 -0.014002 -235388.000000 0 0 1
-8.449567 20.596202 12.071889 25.324478 -1.181486 1.073912 0.020082 -0.014005 -213336.000000 0 0 1
-9.508667 19.622102 12.644089 25.205448 -1.119553 1.045302 0.019741 -0.020454 -183731.000000 0 0 1
-9.751167 18.528702 11.768989 24.018891 -1.086351 1.058719 0.027856 -0.027210 -352944.000000 0 1 0
-10.460267 17.557102 12.451189 23.931175 -1.033481 1.023604 0.034886 -0.030744 -397835.000000 0 1 0
-10.836267 16.316502 11.583589 22.755932 -0.984552 1.036732 0.040887 -0.033596 -84632.000000 0 1 0
-11.206667 15.191302 12.364489 22.566471 -0.935212 0.990928 0.029838 -0.023685 -19723.500000 0 1 0
-11.656567 14.255202 11.423789 21.670009 -0.885352 1.015529 0.024248 -0.012168 -31801.600000 0 1 0
-11.980167 12.907402 12.092389 21.362380 -0.822638 0.969078 0.021231 -0.013127 163435.000000 0 1 0
-13.033967 13.091102 13.024589 22.603123 -0.787585 0.956688 0.033290 -0.003291 31227.400000 0 1 0
-13.542967 11.804002 13.342089 22.377617 -0.716899 0.932006 0.025218 0.004494 188464.000000 0 1 0
-14.475867 11.882502 14.597189 23.744947 -0.687325 0.908728 0.030468 -0.000053 154380.000000 0 1 0
-15.566167 12.752102 14.476989 24.789209 -0.686351 0.947144 0.045773 -0.006597 -413286.000000 0 1 0
-16.162667 13.037902 15.749389 26.062654 -0.678793 0.921922 0.038468 0.000853 -431569.000000 0 0 1
-17.388067 13.915402 15.466189 27.114319 -0.674914 0.963795 0.048891 -0.004035 -1378300.000000 0 0 1
-18.363267 13.230302 14.822889 27.054916 -0.624337 0.990967 0.052160 -0.006515 -935191.000000 0 0 1
-19.419967 14.159902 14.621889 28.132500 -0.630017 1.024237 0.077373 -0.016909 53243.000000 0 0 1
-20.622167 13.686302 13.786289 28.331085 -0.585925 1.062587 0.060728 -0.016004 63854.200000 0 0 1
-21.474767 12.703202 14.368589 28.792244 -0.534176 1.048301 0.061179 -0.003534 -539971.000000 0 0 1
-22.584667 12.606502 13.545589 29.197158 -0.509108 1.088364 0.052026 -0.007540 -1177150.000000 0 0 1
-23.592667 11.692802 14.194389 29.913479 -0.460131 1.076384 0.064913 -0.006028 -553620.000000 0 0 1
-24.296267 12.233002 15.299089 31.209246 -0.466438 1.058465 0.066467 -0.006973 57834.700000 0 0 1
-25.096607 11.308002 15.987189 31.832386 -0.423335 1.044620 0.062943 -0.002929 -315704.000000 0 0 1
-25.857167 11.963002 17.134589 33.246062 -0.433330 1.029337 0.052743 -0.006770 -649258.000000 0 0 1
-26.834667 12.878102 16.731189 34.144949 -0.447443 1.058701 0.045667 -0.001689 -100112.000000 0 0 1
-27.538737 13.321902 17.888189 35.437867 -0.450564 1.041674 0.031580 0.002984 478645.000000 0 0 1
-28.644757 14.416202 17.664389 36.611195 -0.466264 1.067306 0.018412 0.002010 365494.000000 0 0 1
-28.212877 15.674402 17.263389 36.601611 -0.507114 1.079628 0.027693 0.002284 578946.000000 0 0 1
-29.334587 16.551702 16.991489 37.725158 -0.513709 1.103581 0.027116 0.002684 939323.000000 0 0 1
-28.736427 18.041802 17.035989 37.967272 -0.560637 1.105484 0.036111 -0.001771 258437.000000 0 0 1
-28.220247 18.469402 18.324389 38.383387 -0.579514 1.073098 0.032764 -0.002035 -481644.000000 0 0 1
-29.133647 18.678802 19.327289 39.638506 -0.570123 1.061471 0.029428 -0.011872 -1306010.000000 0 0 1
-28.396297 18.938902 20.671789 39.904317 -0.588199 1.026246 0.038869 -0.024962 509265.000000 0 0 1
-27.823327 17.844602 21.376189 39.363801 -0.570273 0.996741 0.033259 -0.022157 -145213.000000 0 0 1
-26.858637 17.138202 20.642589 37.963414 -0.567956 0.995898 0.045213 -0.007892 -815004.000000 0 0 1
-26.366327 15.822402 21.246089 37.375499 -0.540492 0.966176 0.050276 -0.010998 184492.000000 0 0 1
-27.425257 14.885202 21.219689 37.735781 -0.497264 0.973604 0.016196 -0.011970 360949.000000 0 0 1
-27.026337 13.654002 21.783989 37.301432 -0.467808 0.947150 0.024286 -0.003369 498405.000000 0 0 1
-28.267097 12.715302 22.016789 38.019030 -0.422710 0.953173 0.027910 -0.009713 674985.000000 0 0 1
-28.978917 12.412802 20.829789 37.785386 -0.404695 0.986916 0.033494 -0.010524 59385.800000 0 0 1
-30.108877 11.594802 21.013289 38.503795 -0.367592 0.993517 0.045106 -0.011468 82695.200000 0 0 1
-31.048447 11.420402 19.782989 38.546054 -0.352466 1.031852 0.053696 -0.008240 -97988.000000 0 0 1
-30.438117 10.867002 18.596589 37.288119 -0.342915 1.048667 0.063047 -0.011484 242921.000000 0 0 1
-29.988147 9.558902 18.731889 36.627111 -0.308574 1.033958 0.074720 -0.009550 -350014.000000 0 0 1
-29.193177 9.039102 17.523589 35.228158 -0.300269 1.050161 0.086095 -0.012484 -221596.000000 0 0 1
-29.857687 8.826602 16.265289 35.127625 -0.287436 1.089381 0.084332 -0.003390 191936.000000 0 0 1
-30.243867 9.982402 15.531789 35.434112 -0.318805 1.117058 0.077668 -0.004204 -514341.000000 0 0 1
-29.151907 10.892002 14.946889 34.523599 -0.357568 1.123037 0.069046 -0.003720 -397318.000000 0 0 1
-28.701827 10.459702 13.693289 33.476953 -0.349469 1.149399 0.067412 -0.011152 139887.000000 0 0 1
-27.656257 11.314602 13.280989 32.699747 -0.388340 1.152560 0.051790 -0.005219 -256160.000000 0 0 1
-27.415537 11.281302 11.751789 31.890186 -0.390375 1.193393 0.072688 -0.008087 -329994.000000 0 0 1
-26.882687 10.068602 11.232989 30.825893 -0.358366 1.197807 0.086140 -0.003457 672253.000000 0 0 1
-27.838857 9.051602 11.026489 31.281255 -0.314361 1.210560 0.085987 -0.011440 -347670.000000 0 0 1
-27.122307 7.861802 10.402089 30.093702 -0.282133 1.217858 0.098022 -0.024082 -246088.000000 0 0 1
-26.665947 8.177102 9.130889 29.348098 -0.297546 1.254421 0.093888 -0.020525 434007.000000 0 0 1
-26.039907 7.110802 8.369589 28.261109 -0.266574 1.270135 0.119361 -0.039560 104104.000000 0 0 1
-25.566677 7.616902 7.017289 27.584679 -0.289550 1.313579 0.114357 -0.029635 264365.000000 0 0 1
-26.663457 7.966002 6.192389 28.508645 -0.290320 1.351840 0.112651 -0.032066 469391.000000 0 0 1
-26.045267 8.412002 5.034489 27.829190 -0.312400 1.388888 0.127948 -0.030598 -69417.100000 0 0 1
-27.004027 8.622502 3.874289 28.610752 -0.309072 1.434965 0.117527 -0.028658 -401631.000000 0 0 1
-27.668317 7.488602 3.338689 28.857612 -0.264323 1.454841 0.123652 -0.032884 292305.000000 0 0 1
-26.822907 6.515102 2.793289 27.743781 -0.238279 1.469944 0.141010 -0.031592 -230563.000000 0 0 1
-25.868177 6.790002 1.595389 26.792013 -0.256694 1.511214 0.158521 -0.029242 188443.000000 0 0 1
-24.738967 7.563102 1.983889 25.945189 -0.296693 1.494257 0.140244 -0.021810 -715738.000000 0 0 1
-23.734367 7.323902 1.100589 24.863045 -0.299308 1.526516 0.145530 -0.013321 -1076170.000000 0 1 0
-22.474067 8.123202 1.528789 23.945924 -0.346837 1.506909 0.128580 -0.013433 -156292.000000 0 1 0
-22.594167 9.517602 1.343889 24.553761 -0.398683 1.516036 0.103755 -0.015189 -82194.100000 0 1 0
-21.494167 10.187802 1.836889 23.857173 -0.442616 1.493725 0.110094 -0.014889 -679123.000000 0 1 0
-21.901567 11.545902 2.411089 24.875688 -0.485148 1.473718 0.106924 -0.024312 156717.000000 0 1 0
-20.793167 12.417502 2.587989 24.356680 -0.538352 1.464342 0.102829 -0.022434 342562.000000 0 1 0
-21.191167 13.539502 3.371289 25.372214 -0.568548 1.437529 0.100156 -0.036417 -380151.000000 0 0 1
-20.085867 14.349702 4.082089 25.020381 -0.620337 1.406913 0.069876 -0.026695 -314833.000000 0 0 1
-19.568567 13.590402 5.119489 24.368771 -0.607026 1.359135 0.064332 -0.028274 -315117.000000 0 1 0
-18.842267 14.319102 6.041289 24.424678 -0.649836 1.320859 0.064423 -0.030059 -367705.000000 0 1 0
-18.258967 13.421702 7.185789 23.773252 -0.633880 1.263730 0.047997 -0.027355 -40457.400000 0 1 0
-17.257967 12.552802 6.718689 22.372998 -0.628855 1.265786 0.049361 -0.019956 235654.000000 0 1 0
-16.693767 11.695002 7.671289 21.778512 -0.611102 1.210832 0.032929 -0.017974 -258997.000000 0 1 0
10.801333 -32.615134 -14.167911 37.163765 -1.250989 1.961922 0.024607 0.004673 -997775.000000 0 0 1
11.952833 -32.643834 -13.425111 37.265584 -1.219799 1.939338 0.018404 0.005911 -506497.000000 0 0 1
12.825933 -31.597034 -13.859511 36.809824 -1.185195 1.956830 0.026343 -0.005773 620949.000000 0 0 1
14.255633 -31.526434 -13.238511 37.045881 -1.146131 1.936230 0.049710 -0.005890 820438.000000 0 0 1
15.192833 -32.316934 -13.976311 38.347668 -1.131337 1.943853 0.038480 0.000952 420502.000000 0 0 1
16.511133 -31.767534 -13.972611 38.432117 -1.091475 1.942889 0.048966 -0.005567 423706.000000 0 0 1
17.546933 -32.853234 -14.268911 39.885231 -1.080242 1.936653 0.050242 0.002571 -299324.000000 0 0 1
17.534733 -33.901434 -13.310111 40.421939 -1.093462 1.906337 0.048530 -0.004527 -259373.000000 0 0 1
18.218233 33.445802 -13.677911 40.467406 1.072024 1.915585 0.051115 -0.001454 -82337.300000 0 0 1
18.140033 32.181202 -12.798311 39.095873 1.057508 1.904302 0.047368 -0.009045 133789.000000 0 0 1
19.014233 32.133902 -11.657711 39.115610 1.036488 1.873427 0.049727 -0.012553 1968.850000 0 0 1
18.844433 30.988702 -10.844511 37.855194 1.024437 1.861340 0.041659 -0.017583 54610.000000 0 0 1
19.893533 30.688702 -9.751811 37.850322 0.995662 1.831377 0.044056 -0.012303 851069.000000 0 0 1
21.153833 30.125402 -10.125411 38.177852 0.958600 1.839225 0.054060 -0.010501 1573690.000000 0 0 1
22.157633 30.054502 -9.070611 38.425379 0.935506 1.809103 0.046183 -0.008341 1264070.000000 0 0 1
23.448733 29.257002 -9.404511 38.655660 0.895157 1.816552 0.037866 -0.002307 422980.000000 0 0 1
24.367433 29.816802 -10.293411 39.859350 0.885632 1.832000 0.044173 -0.005937 -698814.000000 0 0 1
25.643733 29.296302 -10.192811 40.246338 0.851783 1.826846 0.038720 0.002084 -336074.000000 0 0 1
26.686833 29.753402 -11.244111 41.519658 0.839678 1.845035 0.042617 0.000285 12741.500000 0 0 1
26.982933 31.103502 -10.936111 42.604049 0.856218 1.830394 0.028581 -0.002986 682591.000000 0 0 1
28.139433 31.462002 -11.724611 43.808124 0.841087 1.841735 0.027506 0.004699 726454.000000 0 0 1
28.731833 32.867302 -11.538911 45.154448 0.852433 1.829206 0.018057 0.004757 10313.300000 0 0 1
27.865433 33.866502 -12.059411 45.484631 0.882305 1.839137 0.033036 0.001434 203775.000000 0 0 1
28.275333 -33.420934 -11.573111 45.281234 -0.868608 1.829247 0.039183 0.005977 26832.400000 0 0 1
27.111233 -32.425134 -11.695111 43.854120 -0.874417 1.840745 0.024928 -0.004354 -581535.000000 0 0 1
26.118833 -32.668234 -10.720611 43.177986 -0.896350 1.821710 0.032419 -0.008134 -604239.000000 0 0 1
24.992733 -31.850434 -10.929711 41.935014 -0.905460 1.834476 0.033120 -0.016885 -167294.000000 0 0 1
25.194133 -30.372634 -10.556011 40.849365 -0.878324 1.832175 0.026733 -0.017732 -759820.000000 0 0 1
25.989033 -29.694134 -11.511711 41.105850 -0.851839 1.854643 0.016661 -0.013184 -13076.300000 0 0 1
26.337933 -28.394534 -11.032811 40.269830 -0.822956 1.848317 0.016309 -0.019462 -321552.000000 0 0 1
27.004133 -27.444634 -12.056611 40.345917 -0.793488 1.874264 0.025418 -0.021098 385060.000000 0 0 1
28.320633 -27.844334 -12.442811 41.619571 -0.776918 1.874405 0.018136 -0.015610 228428.000000 0 0 1
28.365133 -28.772834 -13.495011 42.597794 -0.792533 1.893151 0.028578 -0.018784 -485045.000000 0 0 1
29.723533 -29.270934 -14.023911 44.010749 -0.777726 1.895098 0.022985 -0.010513 224497.000000 0 0 1
30.380233 -30.185834 -13.112411 44.789267 -0.782188 1.867906 0.036475 -0.022903 48473.400000 0 0 1
31.336533 -31.037834 -13.651111 46.170101 -0.780609 1.870953 0.028871 -0.013424 -487752.000000 0 0 1
32.122833 -31.858634 -12.638311 46.974204 -0.781269 1.843201 0.022512 -0.010015 20257.800000 0 0 1
32.944733 -32.794034 -13.319011 48.354939 -0.783106 1.849846 0.021580 0.001676 -76647.500000 0 0 1
33.833233 -33.564734 -12.519711 49.274965 -0.781414 1.827691 0.019553 0.003085 96545.400000 0 0 1
33.317233 33.614402 -11.857111 48.790953 0.789838 1.816273 -0.000021 0.008521 231868.000000 0 0 1
32.518833 34.022702 -10.726411 48.270846 0.807995 1.794880 -0.000636 0.013055 28020.100000 0 0 1
32.066733 32.977202 -9.964911 47.064537 0.799395 1.784140 -0.003989 0.013949 -438464.000000 0 0 1
31.472033 33.346302 -8.606311 46.653331 0.814306 1.756333 -0.013391 0.013281 972013.000000 0 0 1
30.278433 34.153502 -8.796711 46.482548 0.845468 1.761192 -0.000560 0.004175 792353.000000 0 0 1
29.678833 -33.842634 -7.606711 45.651057 -0.850854 1.738204 0.006214 0.005663 698885.000000 0 0 1
28.602233 -32.760134 -7.794411 44.182202 -0.853055 1.748140 0.007246 -0.007422 123974.000000 0 0 1
29.232433 -31.518934 -8.061911 43.737544 -0.823017 1.756181 0.002991 -0.005854 725546.000000 0 0 1
28.348033 -30.420334 -8.450211 42.431283 -0.820646 1.771287 0.006392 -0.013297 850130.000000 0 0 1
27.379733 -29.870334 -7.331711 41.178157 -0.828875 1.749799 0.021876 -0.018850 806623.000000 0 0 1
26.397433 -28.998134 -7.904411 40.002449 -0.832312 1.769704 0.016550 -0.023458 116249.000000 0 0 1
25.398833 -28.660634 -6.972811 38.924963 -0.845662 1.750903 0.031089 -0.030817 -39346.500000 0 0 1
24.301633 -27.776934 -7.616911 37.684808 -0.852031 1.774320 0.062372 -0.032759 -225566.000000 0 0 1
23.484633 -28.530134 -8.486311 37.914562 -0.882097 1.796536 0.080336 -0.037864 -532253.000000 0 0 1
22.619933 -27.715934 -9.181911 36.934291 -0.886294 1.822032 0.091971 -0.036515 -436609.000000 0 0 1
21.450533 -28.525534 -9.780411 37.006592 -0.926031 1.838262 0.080452 -0.025770 -187172.000000 0 0 1
21.865333 -29.290034 -10.904311 38.143189 -0.929532 1.860719 0.072202 -0.020510 -276914.000000 0 0 1
20.948033 -30.167734 -11.496311 38.484769 -0.963849 1.874151 0.062897 -0.014803 -201375.000000 0 0 1
20.665033 -31.510534 -10.731911 39.180751 -0.990345 1.848250 0.060440 -0.021597 526714.000000 0 0 1
21.704133 -32.496834 -10.836611 40.552999 -0.981951 1.841304 0.048143 -0.018191 313134.000000 0 0 1
21.226933 -33.745234 -10.464911 41.216961 -1.009301 1.827505 0.037133 -0.014691 -111031.000000 0 0 1
22.348133 33.759702 -10.532811 41.834156 0.986048 1.825311 0.035147 -0.010571 -519362.000000 0 0 1
23.324233 33.905502 -9.566011 42.250579 0.968225 1.799188 0.045937 -0.013255 -800076.000000 0 0 1
24.424233 33.065402 -9.811511 42.262628 0.934590 1.805090 0.044570 -0.004513 -263243.000000 0 0 1
25.641133 33.466502 -8.943711 43.098311 0.917025 1.779834 0.035448 -0.007758 -296330.000000 0 0 1
25.557733 33.354902 -7.533511 42.690760 0.916985 1.748192 0.030926 -0.024641 32772.600000 0 0 1
25.853633 32.026402 -7.148511 41.775614 0.891644 1.742759 0.020452 -0.007052 -260792.000000 0 0 1
25.809933 31.831802 -5.585511 41.359572 0.889491 1.706258 0.021909 0.000115 -476560.000000 0 0 1
26.823733 32.484702 -4.846311 42.405839 0.880560 1.685331 0.014676 -0.001398 -4754.150000 0 0 1
27.952833 31.713902 -4.490811 42.512349 0.848349 1.676629 0.025946 0.000420 17389.900000 0 0 1
27.744633 30.484302 -3.575511 41.374407 0.832413 1.657323 0.046136 0.005591 -962086.000000 0 0 1
27.124333 30.820802 -2.341211 41.123382 0.849104 1.627759 0.042535 -0.007958 37977.100000 0 0 1
26.760333 29.642202 -1.654111 39.968883 0.836448 1.612193 0.038061 -0.006597 489562.000000 0 0 1
25.272833 29.185502 -1.803911 38.649239 0.857122 1.617487 0.029288 0.003737 783241.000000 0 0 1
24.283733 29.881202 -1.010411 38.517617 0.888374 1.597032 0.028773 -0.000395 744672.000000 0 0 1
23.028733 29.379702 -1.501211 37.359645 0.905992 1.610990 0.044767 0.005824 1109990.000000 0 0 1
21.753533 29.863002 -0.722511 36.953174 0.941234 1.590350 0.053401 -0.001006 637122.000000 0 0 1
21.568933 29.179002 0.468289 36.288460 0.934247 1.557891 0.059237 -0.013536 -873183.000000 0 0 1
20.453833 29.686002 1.071989 36.066149 0.967487 1.541069 0.052246 -0.018135 -1186170.000000 0 0 1
19.827233 28.993802 2.238089 35.196147 0.970996 1.507164 0.047021 -0.027474 -586218.000000 0 0 1
19.060133 27.893802 1.876089 33.835965 0.971359 1.515321 0.062868 -0.017444 102693.000000 0 0 1
18.419033 27.270102 2.998489 33.044064 0.976752 1.479929 0.080910 -0.027405 -247775.000000 0 0 1
17.939233 25.822402 2.626089 31.551685 0.963626 1.487469 0.077545 -0.005439 -201950.000000 0 0 1
18.902333 24.972702 2.050989 31.386949 0.922881 1.505404 0.081089 -0.004927 -481739.000000 0 0 1
19.938533 24.662602 2.934689 31.849669 0.890923 1.478524 0.077830 -0.004749 -698819.000000 0 0 1
21.211933 24.138002 2.238889 32.211828 0.849831 1.501235 0.067936 0.000426 -271939.000000 0 0 1
20.917833 22.972802 1.514689 31.106263 0.832184 1.522083 0.073130 0.005319 661073.000000 0 0 1
22.065033 22.322602 0.928389 31.401053 0.791201 1.541226 0.035598 0.006763 397073.000000 0 0 1
21.842733 21.192502 -0.120411 30.434218 0.770290 1.574753 0.057802 0.003810 -425405.000000 0 0 1
21.597833 21.628302 -1.382311 30.596742 0.786103 1.615990 0.045552 0.007358 295149.000000 0 0 1
21.989633 20.643302 -2.303911 30.248932 0.753829 1.647035 0.063602 0.001094 56278.600000 0 0 1
21.749133 21.127502 -3.746811 30.552164 0.770901 1.693742 0.045303 -0.001618 108588.000000 0 0 1
22.576833 22.245902 -4.024011 31.949745 0.778015 1.697080 0.047145 0.004865 283370.000000 0 0 1
22.243833 22.860502 -5.178911 32.314266 0.799069 1.731757 0.048569 -0.001656 -362937.000000 0 0 1
23.232633 24.017402 -5.388911 33.847174 0.802005 1.730690 0.049171 0.003765 -109273.000000 0 0 1
23.140933 25.182802 -4.538011 34.500287 0.827627 1.702714 0.037154 0.004047 -63957.300000 0 0 1
23.503533 25.074702 -3.197811 34.516412 0.817730 1.663575 0.049070 0.002320 218788.000000 0 0 1
22.312733 24.834202 -2.201411 33.458061 0.838828 1.636640 0.045204 0.001470 -379643.000000 0 0 1
21.327533 25.892602 -2.171011 33.615529 0.881775 1.635425 0.051605 -0.003969 943820.000000 0 0 1
20.292233 25.672702 -1.216011 32.746618 0.901924 1.607939 0.059719 0.005150 608977.000000 0 0 1
19.359533 24.438902 -1.560611 31.216773 0.900854 1.620810 0.069151 -0.003461 -876799.000000 0 0 1
18.650133 24.617002 -2.797111 31.010451 0.922441 1.661118 0.052588 -0.002859 119643.000000 0 0 1
17.978633 23.516302 -3.273611 29.781944 0.918068 1.680938 0.063356 -0.007687 -167248.000000 0 0 1
17.332733 23.897402 -4.626711 29.881698 0.943293 1.726256 0.060074 -0.012866 -327280.000000 0 0 1
16.696333 22.856002 -5.318611 28.800208 0.939892 1.756535 0.067391 -0.016796 25278.600000 0 0 1
16.382633 23.309302 -6.616611 29.248825 0.958169 1.798990 0.064550 -0.019078 -321568.000000 0 0 1
15.667333 22.253302 -7.468711 28.221559 0.957361 1.838633 0.070123 -0.021941 -720479.000000 0 0 1
16.400233 21.168002 -7.950211 27.933095 0.911633 1.859402 0.056701 -0.016154 -272392.000000 0 0 1
15.610033 20.192702 -8.565811 26.921951 0.912704 1.894597 0.069711 -0.015861 -384988.000000 0 0 1
16.388633 18.905002 -8.860511 26.542325 0.856576 1.911156 0.071339 -0.015325 28974.700000 0 0 1
17.299733 18.970502 -9.938511 27.530614 0.831430 1.940135 0.066255 -0.012480 -38623.100000 0 0 1
18.136633 17.869202 -9.965811 27.341602 0.777971 1.943884 0.065151 -0.016077 -468551.000000 0 0 1
19.562733 18.093402 -10.480511 28.634120 0.746398 1.945519 0.047567 -0.014131 -417724.000000 0 0 1
19.614933 18.505802 -11.828911 29.447129 0.756311 1.984169 0.045463 -0.012515 5328.740000 0 0 1
20.898433 18.934802 -12.216311 30.732873 0.736142 1.979587 0.042504 -0.009828 -161097.000000 0 0 1
21.006033 19.286702 -13.685611 31.631096 0.742753 2.018241 0.041023 -0.010990 -161312.000000 0 0 1
20.991733 18.148702 -14.550111 31.332634 0.712889 2.053726 0.030296 -0.002528 270748.000000 0 0 1
21.044333 18.517202 -15.907511 32.230414 0.721606 2.086970 0.032075 -0.006656 -62181.100000 0 0 1
20.906233 17.240702 -16.785911 31.875997 0.689602 2.125393 0.031081 -0.000767 -1267150.000000 0 0 1
21.898933 16.275102 -16.658711 31.968029 0.639129 2.118942 0.045977 -0.001089 -382390.000000 0 0 1
22.015133 15.454602 -17.792111 32.250116 0.612066 2.155187 0.061179 -0.012667 -188588.000000 0 0 1
22.798433 16.192102 -18.918611 33.761910 0.617558 2.165609 0.068043 -0.014200 -138452.000000 0 0 1
24.190633 16.338102 -18.634611 34.631907 0.594017 2.138950 0.094950 -0.017206 343745.000000 0 0 1
24.865333 16.619902 -19.816111 35.877349 0.589199 2.155952 0.125122 -0.017225 887636.000000 0 0 1
26.395833 16.948402 -19.527911 36.950340 0.570792 2.127618 0.124037 -0.020935 1222010.000000 0 0 1
26.574433 18.178302 -18.880411 37.324537 0.599942 2.101157 0.101241 -0.019377 -944432.000000 0 0 1
27.935533 18.297802 -18.677411 38.262896 0.579883 2.080746 0.087922 -0.021738 -947918.000000 0 0 1
28.250933 19.275702 -17.524311 38.428757 0.598750 2.044315 0.083388 -0.022605 -273112.000000 0 0 1
27.703033 18.960102 -16.299711 37.317879 0.600183 2.022813 0.080617 -0.025868 363967.000000 0 0 1
26.445333 19.642002 -16.152611 36.688836 0.638838 2.026684 0.082723 -0.022777 319012.000000 0 0 1
25.552833 19.088202 -15.024111 35.256639 0.641584 2.011013 0.068392 -0.016475 -112437.000000 0 0 1
26.077233 19.272402 -13.724411 35.210893 0.636457 1.971186 0.066335 -0.023399 -62037.900000 0 0 1
25.102133 19.066302 -12.744611 34.000971 0.649585 1.955011 0.061252 -0.026903 -235343.000000 0 0 1
25.567133 19.521902 -11.345311 34.110101 0.652120 1.909865 0.060514 -0.027551 -135478.000000 0 0 1
25.477433 20.926402 -11.193111 34.818093 0.687636 1.898082 0.060297 -0.022404 203634.000000 0 0 1
26.058433 21.482102 -10.002011 35.221625 0.689432 1.858732 0.057732 -0.020731 150225.000000 0 0 1
25.214233 21.331002 -8.717611 34.157955 0.702162 1.828866 0.057052 -0.020161 -363028.000000 0 0 1
25.212633 20.040102 -8.111111 33.212538 0.671589 1.817510 0.068542 -0.023886 209360.000000 0 0 1
24.377033 19.944002 -6.969511 32.257976 0.685709 1.788569 0.064069 -0.022303 1358990.000000 0 0 1
22.843333 19.636602 -7.275511 30.989467 0.710053 1.807782 0.057605 -0.024256 1374940.000000 0 0 1
22.060133 20.811502 -7.587011 31.262290 0.756282 1.815933 0.055033 -0.016220 -42031.100000 0 0 1
20.743733 20.407302 -7.830511 30.134321 0.777223 1.833667 0.059983 -0.017638 -451536.000000 0 0 1
19.780233 21.579102 -8.100411 30.373210 0.828864 1.840759 0.044781 -0.012153 -439761.000000 0 0 1
20.204433 22.432002 -9.207111 31.562394 0.837596 1.866812 0.050050 -0.014223 354397.000000 0 0 1
19.604233 22.290802 -10.535111 31.499117 0.849437 1.911826 0.046065 -0.002805 245635.000000 0 0 1
18.114233 22.720002 -10.608411 30.933191 0.897715 1.920848 0.050322 -0.011559 -28839.000000 0 0 1
17.866233 24.059302 -10.214611 31.660552 0.932054 1.899302 0.057745 -0.021558 -443.626000 0 0 1
16.565933 24.456802 -10.601811 31.384131 0.975431 1.915383 0.050459 -0.015786 125951.000000 0 0 1
16.144633 25.871402 -10.195111 32.154609 1.012892 1.893430 0.067493 -0.017931 -166697.000000 0 0 1
16.926333 26.867902 -10.776511 33.533835 1.008621 1.897964 0.071914 -0.013100 -177379.000000 0 0 1
16.880533 28.056602 -9.994811 34.234800 1.029157 1.867060 0.082361 -0.027698 78179.200000 0 0 1
20.335833 28.826602 33.551108 48.684658 0.956420 0.810479 0.027293 0.002418 243540.000000 0 0 1
18.975833 29.196102 33.604230 48.391516 0.994460 0.803177 0.046037 -0.015913 379602.000000 0 0 1
18.096633 28.037102 33.652761 47.392779 0.997624 0.781182 0.044944 -0.019799 1303870.000000 0 0 1
16.566833 28.364802 33.562429 46.962310 1.042178 0.774648 0.066084 -0.031190 667184.000000 0 0 1
16.124733 28.808802 32.290237 46.180228 1.060525 0.796487 0.063180 -0.032520 -113920.000000 0 0 1
14.772833 29.196602 32.396517 46.045765 1.102378 0.790384 0.096598 -0.038848 -56634.100000 0 0 1
13.900133 29.107902 31.132597 44.829926 1.125279 0.803127 0.095266 -0.034664 25582.900000 0 0 1
13.509633 27.780502 30.867647 43.670105 1.118169 0.785780 0.084599 -0.039813 -121473.000000 0 0 1
12.109733 27.650802 30.854267 43.164780 1.158006 0.774456 0.088079 -0.028826 -331657.000000 0 0 1
11.545933 26.196602 30.822407 42.066510 1.155668 0.748506 0.063939 -0.023544 4299.530000 0 0 1
11.852033 25.412602 29.669567 40.823452 1.134401 0.757178 0.058237 -0.018429 836743.000000 0 0 1
13.242033 25.125502 29.456407 40.918482 1.085755 0.767167 0.037150 -0.015541 372282.000000 0 0 1
13.520933 24.299402 28.215307 39.615402 1.063029 0.778125 0.037325 -0.018071 -506517.000000 0 0 1
13.248533 25.062902 27.032297 39.171645 1.084523 0.809171 0.025711 -0.016962 295352.000000 0 0 1
13.073833 24.237802 25.921047 37.819265 1.076129 0.815654 0.032871 -0.017892 -274493.000000 0 0 1
11.655233 23.710202 25.646637 36.820756 1.113915 0.800251 0.040022 -0.014748 -742272.000000 0 0 1
11.645533 23.341302 24.285877 35.640407 1.108010 0.821103 0.050694 -0.016204 294563.000000 0 0 1
10.729333 22.271402 24.072447 34.505313 1.121852 0.798692 0.059319 -0.020140 121832.000000 0 0 1
10.776933 21.814802 22.523127 33.155981 1.111945 0.823977 0.070756 -0.026274 17049.400000 0 0 1
10.276133 22.887002 21.713027 33.179350 1.148779 0.857389 0.070863 -0.033218 217003.000000 0 0 1
10.450333 22.596502 20.344227 32.151188 1.137616 0.885674 0.070496 -0.030674 -740883.000000 0 0 1
10.029733 23.729302 19.434527 32.270360 1.170898 0.924491 0.054397 -0.033939 460813.000000 0 0 1
8.652333 24.092102 19.354527 32.091898 1.226006 0.923418 0.050045 -0.032647 469034.000000 0 0 1
8.052633 24.752202 20.472627 33.115628 1.256266 0.904325 0.041709 -0.023302 -593058.000000 0 0 1
6.777133 25.463002 20.055127 33.113473 1.310671 0.920216 0.043140 -0.020128 -446214.000000 0 0 1
7.087033 26.545202 19.240227 33.541916 1.309902 0.959881 0.041296 -0.029248 -262790.000000 0 0 1
5.930233 27.228202 18.854127 33.645516 1.356348 0.975957 0.040532 -0.026614 -350388.000000 0 0 1
6.143533 28.236402 17.688727 33.881093 1.356560 1.021505 0.050435 -0.024071 -10020.800000 0 0 1
6.549933 27.683002 16.480727 32.876505 1.338464 1.045705 0.047171 -0.018400 -94865.100000 0 0 1
6.728333 28.655602 15.440827 33.239030 1.340174 1.087682 0.036930 -0.015905 50514.500000 0 0 1
7.239233 28.028502 14.110227 32.204067 1.318039 1.117256 0.035825 -0.016145 161607.000000 0 0 1
6.222233 27.815402 13.169027 31.398026 1.350722 1.137988 0.032718 -0.018169 -207481.000000 0 0 1
6.617233 26.727102 12.361627 30.181709 1.328092 1.148810 0.021390 -0.016130 223850.000000 0 0 1
5.963533 26.769702 10.947127 29.529989 1.351604 1.191021 0.011866 -0.013143 -26493.300000 0 0 1
6.569133 27.716502 10.047127 30.204350 1.338079 1.231696 0.011882 -0.010488 208319.000000 0 0 1
6.475733 29.088802 10.219127 31.504350 1.351749 1.240449 0.016539 -0.011144 -165486.000000 0 0 1
6.839533 29.937902 8.939727 31.983994 1.346194 1.287516 0.011028 0.001708 -694220.000000 0 0 1
5.880233 29.843602 7.955827 31.440625 1.376253 1.314972 -0.003412 -0.004574 -509061.000000 0 0 1
6.026933 28.664602 7.126427 30.145800 1.363558 1.332139 -0.004958 0.003466 1277170.000000 0 0 1
4.614233 28.196702 6.551927 29.313357 1.408590 1.345379 -0.003482 0.005292 1168920.000000 0 0 1
3.968433 29.100702 5.733327 29.924410 1.435263 1.378011 -0.009489 0.003460 -1690240.000000 0 0 1
2.622333 28.881702 5.644627 29.544731 1.480249 1.378561 0.011221 -0.005964 -1179230.000000 0 0 1
1.991133 29.987202 4.754327 30.426970 1.504494 1.413900 0.023293 -0.010033 -655011.000000 0 0 1
2.347133 29.818602 3.358327 30.098777 1.492245 1.458987 -0.001813 -0.008829 -336810.000000 0 0 1
1.608633 30.455602 2.394927 30.591944 1.518026 1.492430 0.003356 -0.010944 -306530.000000 0 0 1
0.231133 29.865302 2.053927 29.936738 1.563057 1.502133 0.038377 -0.013943 -262980.000000 0 0 1
0.415933 28.664502 1.278827 28.696029 1.556287 1.526217 0.033318 -0.008490 -550532.000000 0 0 1
-0.715667 27.881102 1.035027 27.909484 -1.545133 1.533703 0.044235 -0.017909 -335448.000000 0 0 1
-0.966267 27.870102 -0.542573 27.892125 -1.536140 1.590250 0.038118 -0.016759 248714.000000 0 0 1
-1.626867 29.073702 -0.949673 29.134665 -1.514898 1.603398 0.045477 -0.016185 231228.000000 0 0 1
-1.233667 29.347102 -2.250473 29.459106 -1.528784 1.647264 0.039563 -0.013267 -454208.000000 0 0 1
-2.167167 30.427002 -2.800473 30.632364 -1.499691 1.662346 0.045156 -0.015412 124339.000000 0 0 1
-3.438067 30.026402 -3.274673 30.399483 -1.456791 1.678727 0.060587 -0.016548 88252.600000 0 0 1
-3.468267 29.220602 -4.471573 29.763525 -1.452657 1.721604 0.046743 -0.016656 -1033610.000000 0 0 1
-4.834267 28.947002 -5.076773 29.783765 -1.405319 1.742087 0.063103 -0.012446 -352232.000000 0 0 1
-5.454967 30.062702 -5.716073 31.083697 -1.391296 1.755742 0.060597 -0.014754 -121334.000000 0 0 1
-6.557667 29.723002 -6.511073 31.126418 -1.353649 1.781534 0.069384 -0.015171 -296255.000000 0 0 1
-7.254267 30.987402 -7.026373 32.591615 -1.340834 1.788091 0.061885 -0.014798 -272418.000000 0 0 1
-8.013967 31.647202 -6.045573 33.201175 -1.322782 1.753907 0.056936 -0.010971 -124504.000000 0 0 1
-8.331867 32.924402 -6.591373 34.595989 -1.322939 1.762492 0.047633 -0.019246 -711302.000000 0 0 1
-9.430867 33.670402 -5.875073 35.456363 -1.297701 1.737263 0.036587 -0.020974 -122139.000000 0 0 1
-10.725267 33.209202 -6.268473 35.456680 -1.258410 1.748523 0.045310 -0.016584 -202387.000000 0 0 1
-11.641467 34.154502 -5.807173 36.548283 -1.242299 1.730363 0.046167 -0.015411 305336.000000 0 0 1
-13.158667 33.820202 -5.984773 36.780077 -1.199742 1.734241 0.050120 -0.018877 603267.000000 0 0 1
-13.630067 34.228302 -7.229573 37.544934 -1.191834 1.764564 0.044467 -0.012638 -138877.000000 0 0 1
-14.834867 33.553702 -7.532573 37.452154 -1.154512 1.773303 0.060491 -0.014056 -320855.000000 0 0 1
-15.557967 34.072702 -8.741473 38.463134 -1.142458 1.800069 0.082092 -0.012643 -748297.000000 0 0 1
-16.829967 33.533802 -8.901373 38.561614 -1.105645 1.803732 0.115693 -0.015187 -480249.000000 0 0 1
-17.761667 -33.970134 -9.135673 39.406945 1.089027 1.804754 0.116404 -0.032094 -481131.000000 0 0 1
-19.245867 34.118302 -9.189673 40.235706 -1.057198 1.801226 0.122509 -0.025949 183265.000000 0 0 1
-19.764967 33.411902 -8.054173 39.646927 -1.036610 1.775368 0.107470 -0.023355 136703.000000 0 0 1
-19.866467 34.217802 -6.877673 40.160140 -1.044772 1.742901 0.093228 -0.025046 -520090.000000 0 0 1
-20.443067 33.500302 -5.663073 39.651729 -1.022885 1.714107 0.087134 -0.019551 -992346.000000 0 0 1
-20.221367 34.170202 -4.434673 39.952130 -1.036440 1.682025 0.077328 -0.033580 223758.000000 0 0 1
-21.275767 33.871002 -3.548373 40.155871 -1.009941 1.659277 0.080824 -0.026846 -663143.000000 0 0 1
-22.520867 -33.843934 -3.748973 40.824700 0.983648 1.662757 0.103036 -0.037184 -1247790.000000 0 0 1
-23.059867 -33.848134 -5.060873 41.268221 0.972749 1.693739 0.110353 -0.043142 -35989.700000 0 0 1
-24.125267 -32.899334 -5.207473 41.128001 0.938065 1.697753 0.117792 -0.055458 372139.000000 0 0 1
-24.644867 -32.833434 -6.657973 41.590053 0.926910 1.731574 0.142388 -0.041921 -377723.000000 0 0 1
-23.719567 -32.248334 -7.534173 40.734956 0.936622 1.756823 0.147236 -0.035975 -220535.000000 0 0 1
-23.806667 -32.497334 -8.918773 41.259891 0.938542 1.788677 0.106329 -0.034411 313279.000000 0 0 1
-25.050157 -31.871234 -9.642773 41.668561 0.904663 1.804329 0.093249 -0.027944 214521.000000 0 0 1
-26.292237 -32.517834 -9.302473 42.839553 0.890865 1.789687 0.098324 -0.023515 1627960.000000 0 0 1
-27.514277 -32.096634 -9.953773 43.431635 0.862118 1.802034 0.035034 -0.016435 1059060.000000 0 0 1
-27.816727 -30.595434 -9.757373 42.485965 0.832933 1.802526 0.021087 -0.002091 -1343080.000000 0 0 1
-27.025547 -29.684934 -10.510173 41.497461 0.832258 1.826858 0.035740 0.003788 -114660.000000 0 0 1
-27.348517 -29.571534 -11.863173 41.989902 0.824433 1.857221 0.013986 0.001845 -194572.000000 0 0 1
-26.232237 -28.760334 -12.564573 40.904224 0.831337 1.883015 0.054977 0.005802 985653.000000 0 0 1
-25.045247 -29.511234 -12.877873 40.792364 0.867076 1.891983 0.063707 -0.008587 803357.000000 0 0 1
-24.003867 -28.743034 -13.489573 39.803470 0.875005 1.916549 0.063684 -0.006948 828401.000000 0 0 1
-22.657667 -29.528534 -13.588573 39.622639 0.916306 1.920852 0.092686 -0.020207 180065.000000 0 0 1
-22.685867 -30.714934 -14.415873 40.815109 0.934635 1.931785 0.097225 -0.019221 -29521.000000 0 0 1
-23.333467 -31.841134 -13.823173 41.825693 0.938389 1.907624 0.076332 -0.016484 -45000.700000 0 0 1
-23.164367 -33.115834 -14.659173 42.989972 0.960409 1.918767 0.072847 -0.014015 -33810.200000 0 0 1
-23.639367 -34.210134 -13.954373 43.862028 0.966133 1.894566 0.060748 -0.018919 -225537.000000 0 0 1
-23.471067 33.100302 -14.626473 43.132988 -0.953996 1.916758 0.053644 -0.010373 141651.000000 0 0 1
-24.006367 32.003802 -13.605973 42.257206 -0.927225 1.898616 0.043579 -0.013552 76873.200000 0 0 1
-23.277567 31.806902 -12.396473 41.318237 -0.939019 1.875514 0.036882 -0.008570 225483.000000 0 0 1
-23.456867 32.852802 -11.471773 41.965852 -0.950737 1.847680 0.089819 -0.015728 -153574.000000 0 0 1
-22.781067 32.591602 -10.136973 41.035932 -0.960751 1.820407 0.094763 -0.014954 278094.000000 0 0 1
-23.524267 31.634902 -9.349773 40.516372 -0.931393 1.803660 0.089871 -0.007099 786282.000000 0 0 1
-22.732567 31.198802 -8.241573 39.472248 -0.941109 1.781138 0.075472 -0.010852 393203.000000 0 0 1
-23.485967 30.113202 -7.420573 38.903219 -0.908418 1.762717 0.073745 -0.005300 57509.600000 0 0 1
-23.586567 28.864402 -8.123273 38.150588 -0.885685 1.785366 0.076987 0.008428 381491.000000 0 0 1
-24.238967 27.765502 -7.468673 37.606272 -0.853107 1.770727 0.069409 0.006705 -198983.000000 0 0 1
-23.242167 26.851102 -6.738073 36.146668 -0.857318 1.758302 0.064036 0.011524 -129618.000000 0 0 1
-22.919067 27.472402 -5.547973 36.204924 -0.875513 1.724641 0.067555 0.005558 418290.000000 0 0 1
-21.994567 26.656202 -4.800773 34.890708 -0.880925 1.708829 0.055071 0.006100 549361.000000 0 0 1
-20.611867 27.325102 -4.559573 34.529697 -0.924536 1.703231 0.052764 -0.006848 345012.000000 0 0 1
-19.723767 27.239602 -5.676473 34.106381 -0.944089 1.738009 0.055576 -0.002580 766433.000000 0 0 1
-18.486267 27.926502 -5.366273 33.917967 -0.986058 1.729677 0.047911 -0.006363 801692.000000 0 0 1
-17.573667 27.748602 -6.639173 33.509660 -1.006238 1.770243 0.062639 -0.009525 -254841.000000 0 0 1
-17.967867 28.327202 -7.905273 34.464009 -1.005539 1.802235 0.072915 -0.005902 166955.000000 0 0 1
-18.146667 29.749302 -7.803573 35.710198 -1.023066 1.791099 0.089031 -0.008862 -80.562100 0 0 1
-18.218867 30.354802 -9.260773 36.593757 -1.030232 1.826648 0.085119 -0.009057 1283370.000000 0 0 1
-16.901467 30.382102 -9.892173 36.146740 -1.063132 1.848000 0.078133 -0.012129 1394230.000000 0 0 1
-16.955467 30.957702 -11.162973 37.019983 -1.069722 1.877103 0.077633 -0.011787 -383919.000000 0 0 1
-15.574967 31.274002 -11.759773 36.863736 -1.108737 1.895477 0.071521 -0.018341 -110495.000000 0 0 1
-15.554567 32.043602 -12.942573 37.897852 -1.118882 1.919322 0.066974 -0.016752 -74029.900000 0 0 1
-15.883167 31.231102 -14.111773 37.772991 -1.100317 1.953677 0.070483 -0.020213 -98009.100000 0 0 1
-15.424867 32.034402 -15.321273 38.715253 -1.122050 1.977673 0.097721 -0.025408 1309170.000000 0 0 1
-13.983267 32.128602 -15.434173 38.288282 -1.160294 1.985703 0.094530 -0.029034 1067310.000000 0 0 1
-13.660967 32.522002 -16.772173 39.059037 -1.173123 2.014631 0.067475 -0.036053 804029.000000 0 0 1
-12.110167 32.528502 -17.011873 38.654410 -1.214400 2.026508 0.098909 -0.042093 647788.000000 0 0 1
-11.555267 31.211802 -17.117673 37.426134 -1.216222 2.045834 0.111626 -0.051872 48377.700000 0 0 1
-10.178267 31.164202 -17.420273 37.125066 -1.255117 2.059217 0.111151 -0.047863 3320.480000 0 0 1
-9.741467 31.323002 -18.859973 37.838145 -1.269278 2.092593 0.104599 -0.058654 -533004.000000 0 0 1
-10.097167 30.280602 -19.745373 37.533284 -1.248938 2.124777 0.100773 -0.053555 273906.000000 0 0 1
-9.675567 30.450002 -21.135073 38.308100 -1.263133 2.155213 0.078052 -0.053816 -1320830.000000 0 0 1
-10.501167 29.455002 -21.998073 38.233321 -1.228329 2.183845 0.076734 -0.048104 1675510.000000 0 0 1
-11.797967 29.918702 -22.484973 39.241493 -1.195184 2.180946 0.097803 -0.049980 1170650.000000 0 0 1
-12.751067 30.158102 -21.488073 39.164245 -1.170784 2.151564 0.098586 -0.051905 -1310800.000000 0 0 1
-13.502667 31.455802 -21.720373 40.540894 -1.165324 2.136209 0.107566 -0.056369 228081.000000 0 0 1
-14.402167 31.509202 -22.861673 41.507931 -1.142072 2.154093 0.088256 -0.044838 757780.000000 0 0 1
-14.995067 32.831202 -22.800273 42.691829 -1.142358 2.134199 0.091116 -0.046083 278614.000000 0 0 1
-15.728267 33.379802 -24.048173 44.044343 -1.130460 2.148378 0.103545 -0.033427 233589.000000 0 0 1
-14.792667 33.653902 -25.100873 44.513615 -1.156664 2.169887 0.095482 -0.032967 588245.000000 0 0 1
-15.331367 33.512402 -26.429573 45.350350 -1.141737 2.192950 0.096564 -0.020961 86786.600000 0 0 1
-15.907767 -33.784234 -27.117473 46.149636 1.130728 2.198884 0.076583 -0.007363 -371701.000000 0 0 1
-17.230467 -33.466934 -26.802773 46.209450 1.095339 2.189559 0.071322 -0.010037 -457745.000000 0 0 1
-17.722167 -32.531134 -27.779473 46.303877 1.071973 2.214220 0.055203 0.004140 1505220.000000 0 0 1
-19.276267 -32.261434 -27.608773 46.632810 1.032216 2.204392 0.059610 -0.006795 1887930.000000 0 0 1
-20.230167 -33.271734 -27.953473 47.933961 1.024494 2.193417 0.066898 -0.005488 698825.000000 0 0 1
-21.547967 -32.920034 -27.508773 48.008084 0.991226 2.180962 0.061131 0.000476 1054730.000000 0 0 1
-22.623967 -34.020334 -27.653573 49.335050 0.983939 2.165817 0.043616 0.008917 45090.700000 0 0 1
-22.577267 33.566302 -26.639573 48.436520 -0.978686 2.153148 0.077959 0.003859 -139102.000000 0 0 1
-23.644967 32.636402 -26.783673 48.389920 -0.943818 2.157354 0.049739 0.000363 350027.000000 0 0 1
-23.449967 31.327402 -27.631673 47.904242 -0.928227 2.185615 0.061884 -0.002199 -364160.000000 0 0 1
-22.767667 30.303702 -26.972173 46.520739 -0.926453 2.189265 0.080971 -0.026058 -304317.000000 0 0 1
-23.441767 29.629502 -25.893473 45.802792 -0.901467 2.171624 0.050695 -0.016505 24206.600000 0 0 1
31.706251 9.823602 -26.661431 42.574892 0.300452 2.247497 0.050658 -0.006981 -61750.100000 0 0 1
31.329151 8.512602 -26.318191 41.792670 0.265310 2.252005 0.047976 -0.001361 78782.200000 0 0 1
29.911921 8.410602 -26.321041 40.721720 0.274102 2.273605 0.054326 -0.004846 493738.000000 0 0 1
29.402621 6.957202 -25.941941 39.823374 0.232345 2.280257 0.045752 0.007015 76037.100000 0 0 1
29.398741 6.714102 -24.547811 38.883932 0.224530 2.254037 0.034847 0.002579 -8583.310000 0 0 1
28.915011 5.445502 -24.204411 38.099671 0.186148 2.259183 0.021908 0.005727 73006.600000 0 0 1
28.843661 5.155102 -22.713911 37.073625 0.176858 2.230231 0.024407 0.003183 823008.000000 0 0 1
30.141051 4.733702 -22.246611 37.759802 0.155779 2.200817 0.039353 0.005783 940126.000000 0 0 1
30.188161 4.706202 -20.841611 36.984405 0.154651 2.169442 0.031522 0.001685 -186752.000000 0 0 1
31.533101 4.272102 -20.236211 37.710630 0.134660 2.137221 0.028929 0.005055 -173149.000000 0 0 1
31.989051 2.938002 -20.301011 38.000820 0.091587 2.134388 0.043470 0.002647 -379523.000000 0 0 1
32.892701 2.723202 -19.287311 38.227556 0.082602 2.099645 0.049007 -0.003632 -562250.000000 0 0 1
33.454741 1.268902 -19.217811 38.602514 0.037911 2.091901 0.062233 -0.007846 -28078.100000 0 0 1
32.422601 0.384902 -18.902811 37.532513 0.011871 2.098601 0.056446 -0.007206 -353375.000000 0 0 1
32.911811 -0.952598 -18.836911 37.933152 -0.028936 2.090453 0.059743 -0.001230 -153404.000000 0 0 1
31.937961 -2.026098 -18.339411 36.884583 -0.063354 2.091177 0.047371 -0.001703 -45272.400000 0 0 1
31.701271 -2.086498 -16.963411 36.015016 -0.065723 2.061231 0.052215 -0.007450 -996475.000000 0 0 1
30.395721 -1.728498 -16.686211 34.717679 -0.056805 2.072164 0.045943 -0.010692 -1086590.000000 0 0 1
29.951901 -1.954098 -15.224211 33.655780 -0.065149 2.040196 0.052880 -0.014841 -485482.000000 0 0 1
29.769071 -3.357398 -14.986511 33.497243 -0.112307 2.034647 0.035168 -0.016004 656622.000000 0 0 1
28.950361 -3.752398 -13.874811 32.322041 -0.128896 2.014478 0.038779 -0.024042 -58258.400000 0 0 1
29.051971 -5.295898 -13.572111 32.500243 -0.180311 2.001599 0.043404 -0.019831 -176793.000000 0 0 1
28.465101 -5.990198 -14.635511 32.562903 -0.207414 2.036950 0.036082 -0.018008 413477.000000 0 0 1
28.099881 -7.276298 -14.218011 32.321815 -0.253379 2.026271 0.036352 -0.016295 -252523.000000 0 0 1
27.416421 -8.169298 -15.299711 32.441929 -0.289594 2.061904 0.024783 -0.006853 467709.000000 0 0 1
26.088821 -7.805998 -15.690311 31.428428 -0.290731 2.093517 0.039633 -0.016164 357604.000000 0 0 1
25.583121 -8.824198 -16.519511 31.705785 -0.332144 2.118848 0.034740 -0.005137 524816.000000 0 0 1
24.108521 -8.474298 -16.912511 30.644209 -0.338016 2.155436 0.040283 -0.010475 272068.000000 0 0 1
24.010621 -7.342398 -17.766211 30.758072 -0.296767 2.186596 0.033681 -0.011349 131845.000000 0 0 1
22.751021 -7.116298 -18.384611 30.103897 -0.303149 2.227747 0.055627 -0.013214 338373.000000 0 0 1
22.609621 -7.642098 -19.839211 31.035318 -0.325946 2.264314 0.037607 -0.007395 -16743.500000 0 0 1
23.144521 -6.699998 -20.816611 31.841642 -0.281783 2.283332 0.039858 -0.010035 419145.000000 0 0 1
22.946221 -6.995498 -22.189011 32.677489 -0.295914 2.317237 0.050555 -0.014311 -348534.000000 0 0 1
23.574121 -5.915298 -23.092511 33.526020 -0.245848 2.330620 0.049355 -0.010056 -51967.000000 0 0 1
23.411321 -6.278298 -24.436311 34.418604 -0.262009 2.360257 0.048630 -0.008665 142203.000000 0 0 1
23.741421 -5.249598 -25.398771 35.161214 -0.217614 2.377994 0.055725 -0.024302 -79688.300000 0 0 1
23.450921 -5.745298 -26.828781 36.093457 -0.240260 2.408808 0.072400 -0.026325 -797632.000000 0 0 1
22.163621 -6.191798 -27.051851 35.515731 -0.272422 2.436708 0.082303 -0.027898 -930810.000000 0 0 1
21.918221 -6.475598 -28.424671 36.473329 -0.287271 2.464388 0.079007 -0.022710 232770.000000 0 0 1
20.721121 -7.431998 -28.654301 36.134034 -0.344376 2.486515 0.087152 -0.036165 229206.000000 0 0 1
20.997321 -8.791898 -28.356781 36.363333 -0.396535 2.465171 0.069984 -0.022115 472712.000000 0 0 1
20.113221 -9.578298 -29.165001 36.699901 -0.444442 2.489291 0.079841 -0.028028 184016.000000 0 0 1
20.208321 -11.092098 -28.936021 36.996003 -0.501989 2.468888 0.087026 -0.034051 -689163.000000 0 0 1
19.441421 -11.509198 -27.865581 35.873683 -0.534512 2.460316 0.084140 -0.025690 -210777.000000 0 0 1
19.561321 -12.897498 -27.462841 36.099839 -0.582911 2.435259 0.084833 -0.018972 -371089.000000 0 0 1
19.275421 -13.995698 -28.465871 37.117749 -0.628023 2.444804 0.077318 -0.023231 -894213.000000 0 0 1
17.967921 -14.132498 -28.891151 36.841177 -0.666480 2.472215 0.072416 -0.028915 -568422.000000 0 0 1
17.867021 -15.004598 -29.993561 37.999765 -0.698538 2.480479 0.070582 -0.024218 566398.000000 0 0 1
16.485021 -14.955998 -30.769381 37.976211 -0.736805 2.515337 0.067570 -0.030050 1365830.000000 0 0 1
15.368121 -15.539098 -30.095791 37.194077 -0.790930 2.513510 0.054604 -0.032799 1170190.000000 0 0 1
14.239121 -15.790198 -30.959881 37.557918 -0.837004 2.539803 0.052178 -0.033547 438076.000000 0 0 1
13.126821 -16.564398 -30.234071 36.888911 -0.900663 2.531505 0.057969 -0.031283 -456473.000000 0 0 1
13.465521 -17.865198 -29.809081 37.270188 -0.924913 2.497775 0.054361 -0.031974 -199544.000000 0 0 1
12.554221 -18.304798 -28.863551 36.411244 -0.969635 2.486038 0.057497 -0.029504 -420413.000000 0 0 1
13.032121 -19.614298 -28.177371 36.722216 -0.984351 2.445434 0.061382 -0.025829 456185.000000 0 0 1
14.177221 -19.447798 -27.338791 36.422795 -0.940879 2.419759 0.049990 -0.020850 330215.000000 0 0 1
14.230521 -20.503198 -26.393301 36.324857 -0.964066 2.384143 0.039305 -0.006805 264326.000000 0 0 1
15.331721 -20.301298 -25.318071 35.891630 -0.923970 2.353788 0.039525 0.003497 1296900.000000 0 0 1
16.700721 -20.541198 -25.710361 36.903626 -0.888157 2.341568 0.051278 -0.007495 1400780.000000 0 0 1
17.602521 -20.355798 -24.619311 36.473521 -0.857806 2.311749 0.048895 -0.008876 739339.000000 0 0 1
19.060921 -20.877498 -24.852611 37.640948 -0.830851 2.291954 0.030064 -0.000653 522879.000000 0 0 1
19.257321 -22.315098 -24.920711 38.598574 -0.858819 2.272655 0.031445 0.003877 73411.100000 0 0 1
18.995021 -22.990798 -23.684311 38.083254 -0.880282 2.241974 0.027364 0.005440 -453456.000000 0 0 1
19.301921 -24.455598 -23.768411 39.186450 -0.902636 2.222506 0.025979 -0.001067 -4625.550000 0 0 1
20.683021 -24.753698 -23.652211 39.999501 -0.874750 2.203482 0.037861 -0.001733 129004.000000 0 0 1
20.795021 -26.158988 -23.605311 40.913767 -0.899144 2.185789 0.036196 -0.016071 36497.400000 0 0 1
20.982921 -26.685758 -22.123011 40.519629 -0.904467 2.148358 0.051725 -0.015642 -609408.000000 0 0 1
19.848221 -26.604318 -21.321411 39.450529 -0.929826 2.141779 0.042788 -0.004358 -367138.000000 0 0 1
20.169821 -26.802348 -19.973211 39.039938 -0.925672 2.107854 0.039030 -0.005395 -638177.000000 0 0 1
18.942421 -27.117878 -19.127011 38.210433 -0.961063 2.095054 0.046440 -0.002572 -761858.000000 0 0 1
18.578421 -28.462518 -19.487611 39.179582 -0.992502 2.091386 0.042100 -0.003445 807128.000000 0 0 1
17.291021 -28.932718 -19.067211 38.725188 -1.032122 2.085610 0.029576 0.005855 1178730.000000 0 0 1
15.997021 -28.297158 -19.649611 37.983432 -1.056265 2.114513 0.029212 0.006518 -45563.500000 0 0 1
15.514321 -27.191458 -18.939711 36.589373 -1.052306 2.114874 0.023671 0.010803 398886.000000 0 0 1
14.245921 -26.758008 -19.481611 36.034296 -1.081567 2.141995 0.030104 0.018668 1041710.000000 0 0 1
13.440521 -25.993898 -18.391411 34.562615 -1.093591 2.131897 0.030808 0.006748 -237393.000000 0 0 1
12.841621 -26.822578 -17.355211 34.431981 -1.124283 2.099070 0.031134 -0.000682 592044.000000 0 0 1
11.956121 -26.055648 -16.500211 33.077222 -1.140592 2.093055 0.037912 -0.010946 481021.000000 0 0 1
10.482921 -25.954788 -16.947411 32.722430 -1.186940 2.115207 0.050687 -0.000790 -396249.000000 0 0 1
9.741921 -27.127748 -16.695111 33.309856 -1.226026 2.095789 0.059485 -0.002005 -1204850.000000 0 0 1
8.391621 -26.852698 -16.598011 32.664670 -1.267906 2.103813 0.059517 0.010023 -1030790.000000 0 0 1
7.614421 -27.646098 -17.599911 33.645847 -1.302035 2.121272 0.063187 0.016994 -600619.000000 0 0 1
7.584321 -27.091668 -18.936911 33.912933 -1.297834 2.163250 0.061260 0.017350 -115416.000000 0 0 1
6.784021 -27.798488 -19.859711 34.830834 -1.331432 2.177517 0.052055 0.019168 -118973.000000 0 0 1
6.724721 -27.384508 -21.324711 35.353592 -1.329995 2.218283 0.046020 0.006025 -158063.000000 0 0 1
6.027721 -26.159648 -21.423711 34.345830 -1.344329 2.244346 0.059392 -0.002572 -22231.000000 0 0 1
6.062821 -25.791588 -22.779711 34.941080 -1.339918 2.280945 0.042200 -0.008230 215731.000000 0 0 1
4.832421 -25.058528 -23.391511 34.618563 -1.380290 2.312700 0.038110 -0.006689 -122764.000000 0 0 1
3.618021 -25.734228 -23.310811 34.910378 -1.431120 2.301956 0.029088 -0.000010 -250519.000000 0 0 1
2.621921 -25.133548 -24.133211 34.942547 -1.466853 2.333189 0.035607 -0.005416 193360.000000 0 0 1
1.544821 -26.100078 -24.590411 35.892741 -1.511677 2.325549 0.032757 -0.019098 -242340.000000 0 0 1
1.979021 -26.888978 -25.663851 37.223204 -1.497329 2.331537 0.028273 -0.014612 -242986.000000 0 0 1
0.947421 -27.595848 -26.229741 38.084482 -1.536478 2.330526 0.029604 -0.024854 -352590.000000 0 0 1
1.612821 -28.509288 -27.285321 39.495183 -1.514285 2.333463 0.025446 -0.019579 -133253.000000 0 0 1
2.150121 -27.903848 -28.402581 39.874232 -1.493894 2.363572 0.026553 -0.021680 -11948.000000 0 0 1
2.618821 -28.873238 -29.300921 41.219729 -1.480343 2.361498 0.023534 -0.027107 753051.000000 0 0 1
4.144021 -29.256618 -29.263691 41.587092 -1.430088 2.351349 0.022416 -0.028047 529254.000000 0 0 1
4.624421 -30.032968 -28.157551 41.427191 -1.418018 2.318133 0.014731 -0.034578 -477210.000000 0 0 1
5.799921 -30.680028 -28.517791 42.286731 -1.383956 2.310936 0.016863 -0.026826 -308534.000000 0 0 1
6.315021 -31.927058 -27.749051 42.769456 -1.375522 2.276810 0.034267 -0.030429 -61456.700000 0 0 1
5.481421 -33.051178 -27.907861 43.603613 -1.406446 2.265341 0.036983 -0.034871 168590.000000 0 0 1
5.930721 -34.116270 -27.095031 43.968558 -1.398678 2.234751 0.055182 -0.043913 -362382.000000 0 0 1
4.762521 33.545020 -26.653111 43.108448 1.429765 2.237349 0.054568 -0.044336 -644622.000000 0 0 1
4.294421 32.643891 -27.612681 42.971221 1.439994 2.268664 0.056221 -0.045630 -54914.000000 0 0 1
3.016121 32.259737 -27.173821 42.287164 1.477572 2.268686 0.057681 -0.044431 -213550.000000 0 0 1
1.823521 32.524365 -28.103031 43.022551 1.514789 2.282621 0.060097 -0.038589 -395953.000000 0 0 1
1.757521 31.628677 -29.189751 43.075558 1.515286 2.315346 0.066907 -0.044967 -121073.000000 0 0 1
0.683021 31.995777 -30.006551 43.870142 1.549452 2.324009 0.067006 -0.043730 -47455.000000 0 0 1
0.139921 30.935447 -31.013281 43.804624 1.566273 2.357446 0.056557 -0.033600 -25490.300000 0 0 1
1.078021 30.655407 -32.034321 44.352157 1.535645 2.377878 0.062333 -0.035174 -142997.000000 0 0 1
0.644521 29.783587 -32.989981 44.450156 1.549160 2.407112 0.068938 -0.030046 -767032.000000 0 0 1
1.732021 29.323267 -33.962171 44.903040 1.511798 2.428503 0.056310 -0.022975 -133866.000000 0 0 1
2.172521 30.399277 33.763681 45.484306 1.499451 0.734278 0.047377 -0.021806 165111.000000 0 0 1
3.085921 30.098957 32.690400 44.543601 1.468627 0.746755 0.041194 -0.022659 150212.000000 0 0 1
2.505021 29.216337 31.520587 43.051329 1.485265 0.749304 0.034416 -0.013079 111065.000000 0 0 1
2.179621 27.886097 31.725967 42.295652 1.492793 0.722583 0.047117 -0.016439 142135.000000 0 0 1
3.356021 27.086587 31.803037 41.909179 1.447525 0.709241 0.039986 -0.009950 171156.000000 0 0 1
3.108521 25.584467 32.018587 41.102528 1.449889 0.677738 0.050800 -0.014989 -489584.000000 0 0 1
2.420821 25.018397 30.948127 39.869376 1.474335 0.682120 0.059894 -0.004108 -13924.500000 0 0 1
2.430221 23.591537 30.943837 38.987019 1.468146 0.653936 0.050678 0.002184 98714.900000 0 0 1
1.547221 22.918737 29.830897 37.650297 1.503390 0.656202 0.039358 0.011019 -41697.600000 0 0 1
0.226221 22.662637 30.231467 37.783434 1.560815 0.643293 0.014698 0.008781 -527719.000000 0 0 1
-0.551479 22.172737 29.176887 36.650036 -1.545930 0.649983 0.030371 0.016627 -4612.510000 0 0 1
-1.952879 21.664337 29.615487 36.745535 -1.480897 0.633498 0.035803 0.013041 14219.100000 0 0 1
-2.621379 22.827137 30.096557 37.864925 -1.456461 0.652052 0.047175 0.006649 59827.700000 0 0 1
-4.017379 22.549337 30.118167 37.838022 -1.394487 0.650178 0.026875 0.002248 521354.000000 0 0 1
-4.937479 23.750387 30.447957 38.929907 -1.365825 0.672732 0.003015 -0.004974 -37038.800000 0 0 1
-5.273979 23.813327 31.828797 40.099398 -1.352843 0.653851 0.003541 -0.002896 90763.800000 0 0 1
-4.996779 25.173867 32.222337 41.194301 -1.374852 0.672601 0.008807 -0.013921 -60283.400000 0 0 1
-5.255179 25.596807 33.712282 42.653621 -1.368304 0.659378 0.023411 -0.011814 705610.000000 0 0 1
-6.622279 25.620737 34.157910 43.209253 -1.317859 0.659134 0.022420 -0.007630 816700.000000 0 0 1
-6.557179 26.179907 -33.055421 42.673704 -1.325379 2.456892 0.034947 -0.008671 36003.200000 0 0 1
-7.888579 26.679737 -32.466221 42.756211 -1.283311 2.433084 0.047914 -0.007050 -401757.000000 0 0 1
-8.450379 27.848687 -33.014081 44.010088 -1.276187 2.419082 0.044076 -0.011725 -622758.000000 0 0 1
-9.645079 28.206627 -32.398061 44.025853 -1.241317 2.397772 0.038922 -0.009886 -453643.000000 0 0 1
-9.687679 28.692367 -30.950241 43.301507 -1.245175 2.367079 0.038439 -0.006813 -529145.000000 0 0 1
-9.125179 29.997097 -30.770881 43.931104 -1.275489 2.346803 0.043919 -0.001823 217430.000000 0 0 1
-9.103679 30.362197 -29.401751 43.234280 -1.279490 2.318636 0.057492 -0.006184 12974.600000 0 0 1
-8.515479 31.787397 -29.001641 43.863962 -1.309054 2.293177 0.053453 -0.014596 521702.000000 0 0 1
-7.097779 31.795757 -29.102461 43.684115 -1.351167 2.299901 0.050842 -0.020012 -10945.100000 0 0 1
-6.625379 32.973760 -28.462061 44.059658 -1.372508 2.273115 0.057010 -0.011351 350802.000000 0 0 1
-5.104379 32.784241 -28.135071 43.502223 -1.416340 2.274112 0.062204 -0.017806 422932.000000 0 0 1
-4.340179 33.942263 -27.835501 44.110424 -1.443617 2.253691 0.070817 -0.025572 112116.000000 0 0 1
-4.116679 -33.598948 -28.881091 44.496672 1.448880 2.277147 0.074108 -0.033457 -597172.000000 0 0 1
-3.153179 -34.039358 -30.010861 45.489254 1.478427 2.291263 0.077707 -0.038925 -458091.000000 0 0 1
-3.682879 33.725778 -31.038301 45.982256 -1.462027 2.311769 0.071433 -0.037739 -300842.000000 0 0 1
-4.489079 -34.235624 -32.054151 47.113675 1.440417 2.319047 0.070424 -0.030894 -84363.700000 0 0 1
-3.838579 -33.495058 -33.236431 47.342518 1.456693 2.349057 0.048685 -0.020859 -460364.000000 0 0 1
-3.400479 -32.259918 -32.865461 46.177961 1.465775 2.362730 0.066213 -0.024946 -231658.000000 0 0 1
-2.459979 -31.713518 -33.744421 46.373319 1.493383 2.385714 0.060952 -0.023261 4027.570000 0 0 1
31.910061 19.279402 12.534727 39.332769 0.543487 1.246455 0.076904 -0.015811 251478.000000 0 0 1
33.101311 18.713502 13.069627 40.208297 0.514544 1.239734 0.070160 -0.022011 462423.000000 0 0 1
32.918961 17.322902 13.061427 39.425142 0.484410 1.233119 0.071275 -0.016570 -34333.600000 0 0 1
34.143361 16.494002 13.525327 40.258610 0.450021 1.228171 0.093269 -0.034501 -2611.820000 0 0 1
35.127321 16.142902 12.597027 40.659649 0.430771 1.255796 0.098590 -0.017400 87869.000000 0 0 1
35.984771 15.140802 13.126527 41.188025 0.398270 1.246441 0.098567 -0.020025 -267893.000000 0 0 1
-35.606272 14.532602 12.128427 40.324954 -0.387510 1.265299 0.101717 -0.016961 299540.000000 0 0 1
-34.650882 13.643702 12.714127 39.350772 -0.375105 1.241796 0.083508 -0.014805 419005.000000 0 0 1
-35.206259 12.321902 13.068527 39.523365 -0.336668 1.233801 0.083622 -0.018883 235883.000000 0 0 1
-34.523737 11.636402 14.288627 39.133862 -0.325096 1.197033 0.084320 -0.026069 -32952.700000 0 0 1
-34.710894 12.286302 15.517027 39.957196 -0.340199 1.171965 0.088616 -0.022767 -147441.000000 0 0 1
-33.818897 11.753702 16.435427 39.395312 -0.334489 1.140442 0.068143 -0.019347 -382465.000000 0 0 1
-33.788607 12.455602 17.817627 40.178101 -0.353177 1.111334 0.068449 -0.017157 -425898.000000 0 0 1
-34.967272 12.439802 18.587827 41.508627 -0.341793 1.106486 0.077140 -0.021167 -315044.000000 0 0 1
-34.967644 13.303502 19.749827 42.305732 -0.363542 1.085087 0.069263 -0.021145 358868.000000 0 0 1
-36.244607 13.395102 20.672327 43.822887 -0.354006 1.079551 0.077192 -0.034311 502021.000000 0 0 1
35.987091 12.144102 21.152227 43.473747 0.325457 1.062658 0.065952 -0.015217 -19374.700000 0 0 1
34.947261 12.195402 22.101427 43.110463 0.335753 1.032505 0.067542 -0.028967 12247.000000 0 0 1
34.875211 10.899802 22.838827 43.089419 0.302919 1.012156 0.052273 -0.019903 -308243.000000 0 0 1
35.933531 10.652702 23.712667 44.350753 0.288202 1.006688 0.057576 -0.010854 -373576.000000 0 0 1
35.636551 11.139302 25.038277 44.955124 0.302958 0.980073 0.060571 -0.016382 -1414280.000000 0 0 1
-35.727722 11.147902 25.954667 45.545478 -0.302451 0.964458 0.059103 -0.022293 -382885.000000 0 0 1
-34.897641 12.191102 25.538167 44.929570 -0.336086 0.966231 0.051918 -0.027827 -163594.000000 0 0 1
-33.975077 11.980202 24.490267 43.561500 -0.339005 0.973753 0.053374 -0.028805 -787489.000000 0 0 1
-33.073907 13.212102 24.168287 43.041248 -0.380051 0.974581 0.048904 -0.030671 378620.000000 0 0 1
-32.159547 13.679002 25.148637 43.055842 -0.402165 0.947034 0.031157 -0.029689 357493.000000 0 0 1
-32.787467 14.248202 26.307937 44.386223 -0.409942 0.936383 0.034572 -0.029302 -642185.000000 0 0 1
-31.742257 14.871902 27.211077 44.375523 -0.438148 0.910691 0.035982 -0.025217 -408110.000000 0 0 1
-31.347727 16.108502 26.687687 44.208557 -0.474678 0.922691 0.059902 -0.033924 -686702.000000 0 0 1
-30.701117 16.875002 27.657207 44.634576 -0.502578 0.902517 0.067832 -0.034706 -322906.000000 0 0 1
-30.235067 18.283602 27.263607 44.629067 -0.543879 0.913608 0.074760 -0.026985 -667592.000000 0 0 1
-31.214497 19.115602 26.700057 45.306116 -0.549484 0.940572 0.050573 -0.046067 -234123.000000 0 0 1
-30.643427 20.264802 26.053217 45.038339 -0.584285 0.953948 0.056347 -0.050331 84130.600000 0 0 1
-31.716817 21.099802 25.300317 45.730342 -0.587025 0.984535 0.072008 -0.030153 174994.000000 0 0 1
-32.761377 21.507702 26.173347 47.126778 -0.580928 0.981975 0.062273 -0.033091 368500.000000 0 0 1
-33.716057 22.398002 25.627297 47.908260 -0.586371 1.006378 0.063454 -0.024398 -231272.000000 0 0 1
-33.304397 23.909302 25.552327 48.308995 -0.622640 1.013451 0.061527 -0.024605 -357121.000000 0 0 1
-34.117981 24.663502 24.700807 48.810397 -0.625923 1.040190 0.075482 -0.022707 -32019.900000 0 0 1
-33.652447 25.976802 24.592887 49.113048 -0.657379 1.046342 0.073816 -0.019505 -60776.800000 0 0 1
-34.412704 26.697702 23.484407 49.482511 -0.659816 1.076287 0.080172 -0.013537 -258463.000000 0 0 1
-34.186579 26.154102 22.148527 48.407814 -0.653057 1.095569 0.086112 -0.018801 102119.000000 0 0 1
-35.022561 26.801202 21.206527 48.934660 -0.653193 1.122574 0.089713 -0.019808 282573.000000 0 0 1
-34.590272 26.402802 19.730327 47.779501 -0.651960 1.145111 0.094015 -0.040891 232345.000000 0 0 1
-34.878770 25.056202 19.339627 47.099501 -0.622955 1.147671 0.107165 -0.035277 10407.600000 0 0 1
-34.371555 24.736502 18.039127 46.029430 -0.623812 1.168096 0.108286 -0.031268 -196655.000000 0 0 1
-34.829582 23.495602 17.336027 45.449763 -0.593466 1.179451 0.085557 -0.022089 1207650.000000 0 0 1
-36.202167 23.517702 16.861427 46.346380 -0.576109 1.198438 0.106994 -0.030089 972377.000000 0 0 1
-36.208797 22.639802 15.772427 45.523698 -0.558784 1.216995 0.084308 -0.024176 45965.600000 0 0 1
34.975911 22.439702 15.167227 44.236855 0.570430 1.220832 0.094090 -0.015881 121009.000000 0 0 1
34.053951 21.692502 15.961527 43.416663 0.567185 1.194331 0.097698 -0.029090 233850.000000 0 0 1
32.863471 21.541902 15.199427 42.131744 0.580230 1.201714 0.083758 -0.028132 -471317.000000 0 0 1
31.741311 20.761202 15.915827 41.132127 0.579235 1.173481 0.082004 -0.030372 292300.000000 0 0 1
31.058841 21.419802 16.985927 41.376095 0.603747 1.147766 0.079631 -0.024887 146122.000000 0 0 1
30.230881 22.503202 16.631227 41.193422 0.639893 1.155201 0.067001 -0.011630 -305521.000000 0 0 1
29.218571 23.030902 17.656827 41.181439 0.667522 1.127680 0.058724 -0.007590 -503920.000000 0 0 1
29.839941 23.687402 18.676627 42.430313 0.670958 1.115006 0.041142 -0.001670 -528852.000000 0 0 1
29.054031 24.340102 19.678427 42.706180 0.697341 1.091915 0.028286 0.008168 405679.000000 0 0 1
29.981721 24.949002 20.788527 44.198633 0.694034 1.081117 0.041382 0.003636 655835.000000 0 0 1
30.700151 26.113402 20.397727 45.171632 0.704840 1.102283 0.071757 -0.007977 -193974.000000 0 0 1
31.699151 26.412102 21.316927 46.441864 0.694666 1.093924 0.076238 -0.010828 -775934.000000 0 0 1
32.632171 27.553302 20.924527 47.559214 0.701211 1.115233 0.090697 -0.017885 -1345010.000000 0 0 1
33.657431 27.728002 21.773927 48.741857 0.689103 1.107701 0.087763 -0.009577 -985306.000000 0 0 1
33.357321 28.700702 22.857727 49.587467 0.710502 1.091722 0.067836 -0.010653 -479367.000000 0 0 1
34.479881 28.923602 23.853427 50.935478 0.697988 1.083423 0.062485 -0.016397 124602.000000 0 0 1
35.639451 29.611202 23.380727 51.900406 0.693274 1.103480 0.087311 -0.018007 261101.000000 0 0 1
-36.067777 29.778502 24.454757 52.779531 -0.690173 1.089038 0.089530 -0.009877 -150800.000000 0 0 1
-34.812845 30.659702 24.297857 52.367331 -0.722050 1.088304 0.098307 -0.010095 -21122.800000 0 0 1
-33.716257 30.019102 23.696607 50.984916 -0.727455 1.087414 0.080014 -0.010495 4621.420000 0 0 1
-32.552857 30.807602 23.893717 50.790812 -0.757860 1.081014 0.080919 -0.009802 197928.000000 0 0 1
-31.192337 30.225902 23.464357 49.367429 -0.769664 1.075491 0.068328 -0.012314 -184383.000000 0 0 1
-31.020167 29.853002 22.115527 48.399887 -0.766227 1.096252 0.042418 -0.006567 -167733.000000 0 0 1
-31.529947 28.616802 21.688127 47.785288 -0.737002 1.099697 0.054561 -0.003783 -433966.000000 0 0 1
-31.012307 27.383002 22.476827 47.082903 -0.723327 1.073116 0.048879 -0.008608 -637966.000000 0 0 1
-29.650807 27.058802 22.259227 45.900134 -0.739723 1.064491 -0.000542 -0.007783 204788.000000 0 0 1
-29.185047 26.071202 23.206627 45.497495 -0.729105 1.035537 0.005576 -0.008026 30844.500000 0 0 1
-28.915157 26.482702 24.712207 46.347740 -0.741518 1.008428 0.022629 -0.009448 394004.000000 0 0 1
-30.092767 27.004002 25.347217 47.720773 -0.731354 1.010831 0.026581 -0.003644 774632.000000 0 0 1
-29.710907 27.330402 26.666437 48.381688 -0.743689 0.987033 0.043565 -0.008476 -156034.000000 0 0 1
-30.943847 27.539902 27.566057 49.757968 -0.727260 0.983632 0.052520 -0.014360 -320146.000000 0 0 1
-31.434037 26.314402 27.951177 49.616678 -0.696975 0.972371 0.035912 -0.016231 143564.000000 0 0 1
-32.521747 26.660902 28.837467 50.990854 -0.686690 0.969706 0.039860 -0.008146 600405.000000 0 0 1
-33.229097 25.399202 29.408647 51.128865 -0.652632 0.957964 0.038409 -0.011977 316027.000000 0 0 1
-32.344187 24.660202 30.229307 50.676257 -0.651409 0.931640 0.030192 -0.015011 58770.800000 0 0 1
-32.995317 23.506402 30.661857 50.807395 -0.619011 0.922923 0.031499 -0.020557 -178122.000000 0 0 1
-32.266607 22.804502 31.796757 50.716989 -0.615243 0.893171 0.039683 -0.027757 -306165.000000 0 0 1
-31.131627 22.112902 31.304297 49.377299 -0.617608 0.884105 0.049034 -0.020970 90065.600000 0 0 1
-30.478887 21.199502 32.170277 49.125433 -0.607731 0.856799 0.051286 -0.018528 250542.000000 0 0 1
-29.655777 21.707702 33.394902 49.657919 -0.631874 0.833216 0.042617 -0.017959 -206404.000000 0 0 1
-30.524677 22.393802 -34.245462 51.048898 -0.632941 2.306132 0.056143 -0.023856 90643.600000 0 0 1
-30.288867 22.198102 -32.869401 49.905598 -0.632454 2.289795 0.046371 -0.013296 297376.000000 0 0 1
-28.941447 22.704002 -32.253531 48.922074 -0.665206 2.290662 0.063628 -0.028704 383262.000000 0 0 1
-29.012177 24.053402 -31.869961 49.355516 -0.692223 2.272765 0.047861 -0.025807 83041.700000 0 0 1
-28.063767 24.228502 -30.834501 48.222005 -0.712186 2.264550 0.081244 -0.028418 -35242.600000 0 0 1
-28.202907 25.577802 -30.094231 48.531337 -0.736626 2.239665 0.051786 -0.021641 -76031.200000 0 0 1
-28.118037 26.808002 -30.804601 49.580404 -0.761552 2.241205 0.046532 -0.016133 2054.460000 0 0 1
-29.257437 27.101502 -31.571161 50.864794 -0.747163 2.240416 0.028574 -0.008432 -300530.000000 0 0 1
-29.124227 28.538502 -32.106781 51.899057 -0.775241 2.237806 0.036978 -0.005090 -125104.000000 0 0 1
-29.398107 29.594702 -31.204631 52.094377 -0.788731 2.213050 0.019989 -0.008928 35629.900000 0 0 1
-29.248207 30.848902 -31.867831 53.128815 -0.812027 2.214075 0.044047 -0.021829 -374872.000000 0 0 1
-29.497457 32.063502 -30.966091 53.451538 -0.827057 2.188703 0.031460 -0.007458 42373.600000 0 0 1
-28.524527 32.157202 -29.943071 52.386275 -0.845191 2.179229 0.021976 -0.004601 144423.000000 0 0 1
-28.864987 33.222402 -29.082611 52.751433 -0.855465 2.154735 0.009927 -0.001738 -533639.000000 0 0 1
-27.928887 33.428802 -27.936121 51.748762 -0.874796 2.141045 0.002450 -0.005280 1440650.000000 0 0 1
-26.519437 33.814402 -28.046731 51.315821 -0.905724 2.149037 0.020773 -0.004239 1851070.000000 0 0 1
-26.276477 -33.298434 -28.133801 50.899408 0.902725 2.156437 0.023923 0.013727 -416777.000000 0 0 1
-26.644377 -32.294834 -26.952861 49.792930 0.880975 2.142778 0.014244 0.014346 343961.000000 0 0 1
-28.043097 -32.052034 -26.913751 50.379541 0.852009 2.134381 -0.007947 0.010187 69355.000000 0 0 1
-28.374787 -31.271934 -25.759871 49.463455 0.833932 2.118568 -0.014653 0.011730 21852.400000 0 0 1
-29.874687 -30.962034 -25.590521 50.060156 0.803269 2.107371 -0.019481 0.010995 -60933.900000 0 0 1
-30.360137 -30.068234 -26.590761 50.327976 0.780568 2.127452 -0.004546 0.008320 -343405.000000 0 0 1
-31.704627 -29.853934 -26.269731 50.858033 0.755343 2.113591 -0.002546 -0.001473 -631027.000000 0 0 1
-32.467667 -29.087734 -27.381801 51.478235 0.730544 2.131651 0.012379 -0.005041 1247700.000000 0 0 1
-33.909547 -29.154534 -27.242711 52.364201 0.710141 2.117945 0.012815 -0.010269 980658.000000 0 0 1
-34.541679 -28.592034 -28.363691 53.057808 0.691437 2.134808 0.031135 -0.011164 686714.000000 0 0 1
-36.090047 -28.746134 -28.369541 54.163296 0.672610 2.122076 0.039297 -0.019081 843715.000000 0 0 1
35.741011 -27.994334 -27.431791 53.043433 -0.664447 2.114322 0.029235 -0.015958 731568.000000 0 0 1
34.317981 -28.122734 -27.574801 52.239656 -0.686504 2.126866 0.038389 -0.025560 948729.000000 0 0 1
33.421341 -27.480534 -26.524731 50.751622 -0.688159 2.120739 0.047971 -0.018934 -40947.700000 0 0 1
33.465851 -28.175334 -25.289651 50.530972 -0.699780 2.094947 0.032757 -0.011247 248679.000000 0 0 1
32.496101 -27.574334 -24.447511 49.132691 -0.703647 2.091605 0.037315 -0.008137 207255.000000 0 0 1
32.309501 -28.253034 -23.116511 48.749471 -0.718518 2.064840 0.025549 0.002068 -383692.000000 0 0 1
31.694711 -29.507034 -23.245411 49.148438 -0.749668 2.063447 0.049877 -0.002444 -179718.000000 0 0 1
31.416111 -30.308234 -22.089911 48.923668 -0.767451 2.039262 0.058486 -0.011491 -7367.050000 0 0 1
32.511091 -30.507534 -20.976211 49.271514 -0.753616 2.010561 0.048845 -0.001784 -597291.000000 0 0 1
33.566581 -31.316534 -21.495211 50.690086 -0.750734 2.008711 0.034409 -0.003838 237108.000000 0 0 1
34.786621 -31.194434 -20.801411 51.145874 -0.731009 1.989643 0.030083 -0.003046 219688.000000 0 0 1
35.579351 -29.911234 -20.966011 50.991625 -0.699065 1.994529 0.020460 -0.000633 -816360.000000 0 0 1
34.893431 -28.818934 -20.345511 49.618770 -0.690343 1.993291 0.024505 -0.000814 67286.100000 0 0 1
35.386081 -27.549134 -20.828211 49.446374 -0.661512 2.005596 0.009810 -0.003295 224572.000000 0 0 1
34.725821 -26.358334 -20.046611 47.984488 -0.649262 2.001789 0.013860 -0.003011 1716590.000000 0 0 1
33.464811 -26.055534 -20.724311 47.204677 -0.661552 2.025316 0.029008 -0.000165 915199.000000 0 0 1
32.517631 -25.299934 -20.012911 45.803926 -0.661205 2.022974 0.052023 -0.010733 -434816.000000 0 0 1
31.276181 -25.135534 -20.887611 45.235903 -0.676971 2.050762 0.051493 -0.008640 -676056.000000 0 0 1
30.581581 -26.328434 -21.059011 45.518145 -0.710802 2.051779 0.064223 -0.006379 165741.000000 0 0 1
29.435011 -26.069334 -21.895911 45.005122 -0.724834 2.078899 0.059962 -0.014076 602285.000000 0 0 1
28.751981 -27.389934 -22.338911 45.562176 -0.761142 2.083225 0.063285 -0.013312 -60793.700000 0 0 1
28.063751 -28.071034 -21.302211 45.048211 -0.785528 2.063348 0.064453 -0.013930 -129169.000000 0 0 1
27.651031 -29.313534 -21.892311 45.859962 -0.814575 2.068459 0.069271 -0.013426 -244678.000000 0 0 1
26.982421 -30.184734 -20.846111 45.538221 -0.841356 2.046284 0.073820 -0.004217 -243313.000000 0 0 1
27.842981 -30.680434 -19.854411 45.942554 -0.833844 2.017680 0.072410 -0.008125 -152605.000000 0 0 1
28.421441 -31.916934 -20.199711 47.270470 -0.843265 2.012325 0.077548 -0.004499 396872.000000 0 0 1
29.269051 -32.656534 -19.091811 47.829111 -0.840046 1.981405 0.058360 0.001351 222256.000000 0 0 1
28.513021 -33.121434 -17.974811 47.255853 -0.860029 1.960995 0.062826 -0.001522 36405.700000 0 0 1
28.265281 -32.123834 -17.013211 46.046891 -0.849206 1.949241 0.049623 -0.002728 191857.000000 0 0 1
27.589861 -32.757734 -15.729011 45.625337 -0.870825 1.922761 0.043421 -0.000789 130749.000000 0 0 1
26.253821 -33.173634 -15.884011 45.189102 -0.901317 1.929970 0.042780 0.003380 143099.000000 0 0 1
25.770721 -33.757634 -14.613411 44.913915 -0.918772 1.902194 0.034498 0.001372 562144.000000 0 0 1
24.261321 -34.083434 -14.376311 44.237659 -0.952180 1.901786 0.039915 0.004825 789426.000000 0 0 1
23.506421 -32.889434 -14.259511 42.867241 -0.950266 1.909902 0.040390 0.013501 386948.000000 0 0 1
22.101721 -33.101434 -14.213911 42.263770 -0.982081 1.913797 0.041461 0.005087 343504.000000 0 0 1
-0.611067 -7.050398 -28.918121 29.771450 1.484341 2.901590 0.039946 -0.012650 148337.000000 0 0 1
-0.315767 -8.410898 -28.818511 30.022483 1.533271 2.857433 0.047682 -0.007481 59275.000000 0 0 1
-0.342367 -9.023698 -30.085531 31.411519 1.532874 2.849998 0.036387 -0.013024 -183742.000000 0 0 1
-0.122967 -10.567798 -29.999121 31.806301 1.559161 2.802876 0.058116 -0.008227 173669.000000 0 0 1
1.181633 -10.940398 -29.603571 31.582590 -1.463207 2.785707 0.031284 -0.011218 -7627.400000 0 0 1
1.319533 -12.303898 -29.330581 31.834102 -1.463960 2.742354 0.036835 -0.009914 -80279.000000 0 0 1
2.656733 -12.727698 -28.673361 31.483554 -1.365015 2.715871 0.041160 -0.009876 -250992.000000 0 0 1
3.683333 -12.515598 -29.651121 32.394384 -1.284578 2.727090 0.042179 -0.011529 1205690.000000 0 0 1
5.057833 -12.771798 -29.281451 32.343529 -1.193729 2.702944 0.053633 -0.020453 1492830.000000 0 0 1
5.355033 -14.285798 -28.968161 32.740110 -1.212157 2.656842 0.063758 -0.027428 -1150360.000000 0 0 1
4.777033 -14.716598 -27.774601 31.793502 -1.256925 2.633335 0.064560 -0.021269 34730.800000 0 0 1
5.624233 -15.613498 -27.050101 31.735174 -1.225049 2.591297 0.072382 -0.016569 135258.000000 0 0 1
5.312433 -17.118498 -27.194661 32.570148 -1.269887 2.558850 0.063332 -0.020037 -329744.000000 0 0 1
5.500333 -17.546598 -28.557041 33.965297 -1.267028 2.569502 0.057302 -0.031315 258403.000000 0 0 1
5.343733 -18.939698 -28.821501 34.899091 -1.295800 2.542509 0.052943 -0.029522 -490407.000000 0 0 1
5.632533 -19.365398 -30.262251 36.366852 -1.287750 2.553749 0.061529 -0.030599 209426.000000 0 0 1
7.003933 -19.366798 -30.634841 36.913703 -1.223784 2.549732 0.061947 -0.029162 357472.000000 0 0 1
7.144533 -20.069298 -31.848721 38.316604 -1.228792 2.552057 0.058204 -0.030953 -1166930.000000 0 0 1
8.512633 -20.063098 -32.455771 39.094372 -1.169525 2.550245 0.062162 -0.024705 -1065240.000000 0 0 1
8.905233 -18.796098 -32.873781 38.900925 -1.128343 2.577482 0.062474 -0.023822 200427.000000 0 0 1
10.056933 -18.832198 -33.705161 39.897763 -1.080298 2.576966 0.058490 -0.022937 11339.200000 0 0 1
10.429233 -17.403598 -34.247561 39.806401 -1.030923 2.606758 0.056547 -0.016519 121341.000000 0 0 1
9.555133 -17.045598 33.206616 38.529629 -1.059879 0.531898 0.070251 -0.014033 306490.000000 0 0 1
9.811833 -15.726698 32.758630 37.639460 -1.012991 0.514931 0.057641 -0.010559 128193.000000 0 0 1
8.772833 -15.322198 31.692397 36.278649 -1.050800 0.508281 0.064864 -0.017874 134755.000000 0 0 1
8.862733 -15.987598 30.480777 35.541934 -1.064619 0.540211 0.061550 -0.015717 -927100.000000 0 0 1
7.831533 -15.550898 29.693217 34.421657 -1.104268 0.530347 0.064037 -0.011921 -970219.000000 0 0 1
7.624433 -16.293398 28.367577 33.590568 -1.133119 0.565146 0.064954 -0.007900 -314372.000000 0 0 1
7.140633 -17.604798 28.572337 34.311747 -1.185466 0.586781 0.070370 -0.013567 141275.000000 0 0 1
7.464833 -18.352298 27.466547 33.866529 -1.184483 0.624897 0.059892 -0.015452 120598.000000 0 0 1
6.999333 -19.838098 27.743097 34.816953 -1.231609 0.648771 0.059039 -0.015896 51415.700000 0 0 1
7.797433 -20.386698 28.763227 36.107349 -1.205487 0.649141 0.067350 -0.014757 506878.000000 0 0 1
7.202233 -21.548998 29.254487 37.041281 -1.248243 0.660345 0.051917 -0.011677 -308106.000000 0 0 1
7.563833 -21.632098 30.717977 38.324318 -1.234426 0.640952 0.056259 -0.018891 -297222.000000 0 0 1
6.941033 -20.906598 31.756357 38.648803 -1.250244 0.606471 0.061891 -0.022711 147041.000000 0 0 1
7.199133 -19.484798 31.673137 37.877071 -1.216879 0.580463 0.060675 -0.019208 -98116.000000 0 0 1
6.506333 -18.698398 32.816395 38.325947 -1.235938 0.542840 0.063802 -0.019540 -277802.000000 0 0 1
5.114133 -18.651798 32.707908 37.998042 -1.303184 0.533999 0.067808 -0.019081 -533243.000000 0 0 1
4.549833 -17.756598 33.666475 38.333136 -1.319960 0.498584 0.064989 -0.020865 40745.000000 0 0 1
3.071933 -18.001598 34.010057 38.602828 -1.401777 0.492772 0.068101 -0.021748 -97433.900000 0 0 1
3.016933 -19.032698 -33.516491 38.661359 -1.413591 2.619796 0.059366 -0.024207 153743.000000 0 0 1
2.248933 -18.586498 -32.404941 37.424535 -1.450383 2.617692 0.052108 -0.038633 -4680.490000 0 0 1
1.684433 -19.694098 -31.505841 37.192914 -1.485474 2.581287 0.038101 -0.022567 -6992.210000 0 0 1
0.560033 -20.433898 -32.016831 37.985988 -1.543396 2.573370 0.033858 -0.016287 663020.000000 0 0 1
0.007733 -21.382798 -31.113031 37.752415 -1.570435 2.539467 0.038734 -0.020777 111194.000000 0 0 1
-0.834367 -20.769298 -29.979351 36.480425 1.530645 2.535347 0.040251 -0.016905 -1244830.000000 0 0 1
-1.992867 -20.148298 -30.449481 36.566328 1.472207 2.554797 0.051584 -0.025946 -496777.000000 0 0 1
-2.517567 -19.053598 -29.724891 35.396990 1.439427 2.567633 0.060241 -0.016512 43532.300000 0 0 1
-1.819967 -17.647098 -29.957911 34.816789 1.468028 2.606938 0.039098 -0.015024 -117386.000000 0 0 1
-2.504167 -16.656298 -29.266061 33.766929 1.421570 2.619360 0.046255 -0.017538 -413229.000000 0 0 1
-2.142767 -15.390898 -29.810841 33.617815 1.432463 2.661078 0.053689 -0.020667 41167.600000 0 0 1
-2.991267 -14.163898 -29.418871 32.787706 1.362665 2.684304 0.046171 -0.003188 50362.600000 0 0 1
-2.887967 -13.851098 -28.043601 31.410776 1.365240 2.674324 0.039687 -0.009755 -509767.000000 0 0 1
-3.743567 -12.828098 -27.751291 30.801113 1.286856 2.692827 0.028093 -0.014210 -577867.000000 0 0 1
-3.954067 -12.614398 -26.279761 29.417402 1.267040 2.675521 0.025514 -0.008840 -320202.000000 0 0 1
-4.547167 -13.755798 -25.674971 29.480551 1.251541 2.627852 0.028850 -0.009067 257131.000000 0 0 1
-4.703867 -13.608298 -24.243311 28.196636 1.237992 2.605663 0.013915 -0.003900 74848.200000 0 0 1
-5.682667 -12.499898 -23.689111 27.380909 1.144109 2.616283 0.019227 -0.008376 -276390.000000 0 0 1
-7.019867 -12.829798 -23.864611 27.989318 1.070141 2.591800 0.023451 -0.008897 -706935.000000 0 0 1
-7.992367 -11.936398 -23.390511 27.449436 0.980780 2.590840 0.011636 -0.007910 -346411.000000 0 0 1
-9.414567 -12.236798 -23.807611 28.375617 0.915016 2.566269 0.041731 -0.012258 -519152.000000 0 0 1
-10.039767 -13.397598 -23.290611 28.683534 0.927698 2.518342 0.028835 -0.014035 -264750.000000 0 0 1
-10.145467 -14.360098 -24.302511 29.995916 0.955719 2.515279 0.035242 -0.017286 379195.000000 0 0 1
-11.113367 -15.554798 -23.937411 30.634267 0.950428 2.467692 0.026836 -0.027087 307120.000000 0 0 1
-10.505967 -16.480798 -22.994311 30.178310 1.003282 2.437112 0.028267 -0.015091 -310921.000000 0 0 1
-11.328467 -17.508698 -22.492911 30.672785 0.996519 2.393986 0.034031 -0.018230 -54480.600000 0 0 1
-12.114167 -18.453598 -23.489211 32.234010 0.989889 2.387231 0.029072 -0.004029 -429223.000000 0 0 1
-13.275267 -17.833598 -23.905811 32.645945 0.930891 2.392453 0.030102 0.000219 -821635.000000 0 0 1
-14.147867 -18.823298 -24.437611 33.936345 0.926263 2.374745 0.020983 -0.009203 -77447.900000 0 0 1
-15.248067 -18.236198 -25.345111 34.748196 0.874402 2.388231 0.041406 -0.013446 -296436.000000 0 0 1
-16.193567 -17.527298 -24.589811 34.265093 0.824930 2.371196 0.037437 -0.003219 -508762.000000 0 0 1
-17.266367 -17.209098 -25.446741 35.239426 0.783737 2.377644 0.017196 -0.001301 -12425.700000 0 0 1
-17.913767 -15.886298 -24.946611 34.577607 0.725486 2.376715 0.028906 -0.000164 35189.200000 0 0 1
-18.610067 -15.988398 -23.705811 34.116403 0.709769 2.339009 0.029108 0.001281 137264.000000 0 0 1
-19.344367 -14.830298 -23.450811 33.824294 0.654070 2.336872 0.047699 -0.005013 148499.000000 0 0 1
-20.179267 -14.753998 -22.162611 33.407553 0.631325 2.296151 0.038366 -0.012303 356811.000000 0 0 1
-19.294967 -14.404098 -21.094511 32.011751 0.641271 2.290234 0.053544 -0.006167 610647.000000 0 0 1
-19.835167 -14.469998 -19.783811 31.531157 0.630260 2.249053 0.038120 -0.013066 -19132.600000 0 0 1
-20.529767 -13.247598 -19.152011 31.044641 0.573055 2.235618 0.037189 -0.024092 696815.000000 0 0 1
-21.792467 -12.806298 -19.688511 32.039825 0.531288 2.232550 0.045566 -0.027429 717041.000000 0 0 1
-22.483967 -11.889498 -18.872111 31.670894 0.486420 2.209160 0.048688 -0.028821 674880.000000 0 0 1
-23.952267 -11.676298 -19.360111 32.937227 0.453583 2.199118 0.052301 -0.027156 312408.000000 0 0 1
-24.108867 -10.944498 -20.565011 33.525203 0.426143 2.231179 0.048331 -0.032318 -262591.000000 0 0 1
-25.457727 -10.543698 -20.618611 34.415005 0.392658 2.213194 0.054443 -0.026763 -288585.000000 0 0 1
-25.826007 -9.573198 -21.778611 35.113198 0.354978 2.239845 0.068052 -0.027115 -114664.000000 0 0 1
-25.799137 -10.172298 -23.052711 36.062427 0.375573 2.264312 0.040188 -0.024961 346598.000000 0 0 1
-26.494487 -9.242498 -23.887011 36.850657 0.335646 2.276029 0.032112 -0.024254 -242280.000000 0 0 1
-26.741387 -9.759598 -25.313311 38.093507 0.349942 2.297627 0.023073 -0.014339 582017.000000 0 0 1
-25.578397 -9.716698 -26.162931 37.857200 0.363041 2.333800 0.013387 -0.021053 322185.000000 0 0 1
-24.791367 -10.887098 -26.109621 37.614533 0.413793 2.338016 0.021951 -0.016739 -472586.000000 0 0 1
-23.767267 -10.892998 -27.250751 37.764320 0.429751 2.376908 0.029340 -0.013131 -327786.000000 0 0 1
-24.283467 -11.055098 -28.568471 39.090402 0.427213 2.390335 0.025359 -0.006312 588191.000000 0 0 1
-23.271867 -10.989398 -29.622161 39.240529 0.441176 2.426278 0.027726 -0.003510 941392.000000 0 0 1
-23.830167 -11.465498 -31.013991 40.757848 0.448441 2.435546 0.029091 -0.010024 413163.000000 0 0 1
-24.744867 -10.554498 -31.618881 41.514570 0.403168 2.436626 0.035639 -0.009976 153194.000000 0 0 1
-24.068967 -9.529098 -32.312141 41.402818 0.376974 2.466155 0.036061 -0.012584 -314817.000000 0 0 1
-24.945967 -8.365098 -32.841121 42.081057 0.323545 2.466142 0.037195 -0.004565 255313.000000 0 0 1
-25.929067 -8.613498 -33.885251 43.528371 0.320725 2.463011 0.062865 -0.007055 1650130.000000 0 0 1
-27.180287 -9.246198 -33.618361 44.209212 0.327900 2.434784 0.057911 -0.008091 512458.000000 0 0 1
-28.129057 -8.407298 -32.708861 43.952203 0.290432 2.410120 0.038132 0.004953 350674.000000 0 0 1
-29.492757 -8.877098 -32.612331 44.857438 0.292367 2.384771 0.023926 0.003370 1034810.000000 0 0 1
-30.098707 -8.486498 -31.404881 44.319515 0.274821 2.358311 0.019270 0.004154 34713.200000 0 0 1
-31.584537 -8.902198 -31.374781 45.400540 0.274726 2.333760 0.012549 -0.001903 -42174.600000 0 0 1
-31.771807 -10.315798 -31.326351 45.795237 0.313946 2.324100 0.014710 -0.005760 1016190.000000 0 0 1
-33.152077 -10.728298 -31.410251 46.912264 0.312973 2.304403 0.006301 -0.006644 818669.000000 0 0 1
-33.342167 -12.251198 -31.457061 47.448274 0.352125 2.295583 0.017140 -0.010561 -1435660.000000 0 0 1
-34.671593 -12.576198 -31.422081 48.452320 0.347964 2.276429 0.019125 -0.005998 -1244310.000000 0 0 1
-34.822210 -13.968598 -31.486551 48.980720 0.381489 2.268991 0.022908 -0.014839 644434.000000 0 0 1
-36.263957 -14.295698 -30.990501 49.798120 0.375507 2.242503 0.032268 -0.025686 498584.000000 0 0 1
-36.251637 -14.573198 -29.595811 49.015011 0.382230 2.219070 0.037723 -0.023108 3740.060000 0 0 1
36.164881 -15.931398 -29.225651 49.151264 -0.414943 2.207572 0.044808 -0.018288 -110488.000000 0 0 1
36.187981 -16.269898 -27.733251 48.408809 -0.422516 2.180832 0.063512 -0.016263 355566.000000 0 0 1
-35.083817 -16.078798 -27.216631 47.224432 0.429732 2.185021 0.059070 -0.026033 226569.000000 0 0 1
-35.040943 -16.152398 -25.823471 46.428648 0.431929 2.160599 0.077674 -0.025679 -402591.000000 0 0 1
-33.716887 -15.647398 -25.237561 44.928878 0.434503 2.167263 0.085229 -0.023593 444051.000000 0 0 1
-32.655137 -16.540798 -25.644651 44.694565 0.468858 2.181905 0.082777 -0.025552 1011820.000000 0 0 1
-31.403987 -16.198598 -25.042211 43.309553 0.476218 2.187335 0.083678 -0.015092 630575.000000 0 0 1
-30.171367 -17.090398 -25.199791 42.865168 0.515381 2.199238 0.067569 -0.015482 -92187.100000 0 0 1
-30.088947 -18.267798 -24.405911 42.833465 0.545643 2.177042 0.066049 -0.032151 154202.000000 0 0 1
-30.875507 -19.406698 -24.778211 44.089416 0.561146 2.167597 0.062356 -0.033730 -279682.000000 0 0 1
-30.632617 -20.705598 -23.965011 44.061330 0.594390 2.145875 0.054343 -0.034870 55560.700000 0 0 1
-29.296167 -21.174998 -24.006511 43.393070 0.625859 2.157038 0.052659 -0.024555 154805.000000 0 0 1
-29.123197 -22.415698 -23.431911 43.585303 0.655981 2.138397 0.034627 -0.022431 -153646.000000 0 0 1
-27.735397 -23.123098 -23.525911 43.097546 0.694957 2.148230 0.036207 -0.018916 814346.000000 0 0 1
-26.607297 -22.442598 -22.963411 41.700560 0.700694 2.153968 0.029376 -0.017246 287217.000000 0 0 1
-26.500117 -22.178798 -21.574911 40.738582 0.696858 2.128918 0.024940 -0.016010 -459372.000000 0 0 1
-26.563057 -23.403898 -20.604811 40.962137 0.722257 2.097887 0.021801 -0.005554 -73420.500000 0 0 1
-26.540747 -22.981098 -19.249411 40.038506 0.713641 2.072332 0.020950 -0.004558 1800.420000 0 0 1
-26.756237 -24.141598 -18.484611 40.501776 0.734073 2.044730 0.018125 0.015733 -83720.900000 0 0 1
-26.631107 -23.876698 -16.953911 39.582164 0.730918 2.013431 0.012771 0.013995 655343.000000 0 0 1
-27.732437 -23.083198 -16.454411 39.656901 0.694160 1.998650 0.014885 0.005857 358720.000000 0 0 1
-27.355147 -21.991598 -15.684211 38.443842 0.677132 1.991034 0.017759 -0.000144 -380257.000000 0 0 1
-28.550727 -21.228198 -15.130911 38.661672 0.639345 1.972913 0.034902 -0.002493 -308889.000000 0 0 1
-29.365077 -20.578798 -16.079811 39.298283 0.611257 1.992344 0.050627 -0.006174 -990340.000000 0 0 1
-30.467517 -20.129398 -15.388211 39.626498 0.583849 1.969616 0.062803 -0.010937 -407148.000000 0 0 1
-31.574897 -19.539398 -16.348411 40.571329 0.554148 1.985539 0.079090 -0.033923 425822.000000 0 0 1
-32.291787 -20.557798 -17.073011 41.915037 0.566916 1.990319 0.051911 -0.021824 -96833.100000 0 0 1
-33.059797 -19.877498 -18.053311 42.590928 0.541345 2.008518 0.050904 -0.022648 -144742.000000 0 0 1
-33.770867 -20.826598 -19.028311 44.003355 0.552611 2.017981 0.041499 -0.017581 271277.000000 0 0 1
-34.863533 -21.625998 -18.608311 45.049073 0.555215 1.996616 0.042900 -0.016873 92452.100000 0 0 1
-34.533539 -22.672098 -17.647411 44.922383 0.580948 1.974517 0.037112 -0.014620 -474607.000000 0 0 1
-35.601163 -23.757198 -17.575911 46.268347 0.588451 1.960451 0.034690 0.000249 -1130320.000000 0 0 1
35.729831 -23.321298 -17.205611 46.005835 -0.578280 1.954101 0.032430 -0.008964 -982777.000000 0 0 1
34.957621 -24.477698 -16.975011 45.927595 -0.610867 1.949379 0.047011 -0.009472 189886.000000 0 0 1
33.623251 -24.270098 -16.208311 44.522692 -0.625224 1.943405 0.042926 -0.018183 806277.000000 0 0 1
32.444311 -24.105898 -17.010211 43.852879 -0.639002 1.969141 0.050093 -0.017210 1352900.000000 0 0 1
31.291031 -24.008998 -16.105511 42.602208 -0.654469 1.958479 0.059078 -0.020397 1727630.000000 0 0 1
29.935021 -24.218198 -16.879611 42.042216 -0.680220 1.983942 0.057682 -0.025890 618565.000000 0 0 1
29.517611 -23.231298 -17.760211 41.550063 -0.666783 2.012457 0.052180 -0.027052 -181925.000000 0 0 1
28.283161 -23.488398 -18.366111 41.096911 -0.693048 2.034091 0.077859 -0.029337 -138922.000000 0 0 1
34.713441 29.547402 -18.259411 49.106803 0.705179 1.951777 0.029043 -0.011677 -699514.000000 0 0 1
33.839781 29.771102 -19.281211 49.022591 0.721523 1.975028 0.029774 -0.017687 -724818.000000 0 0 1
34.283581 29.036302 -20.408111 49.345332 0.702718 1.997176 0.042143 -0.018653 407893.000000 0 0 1
33.291191 29.050702 -21.616311 49.188531 0.717483 2.025792 0.036719 -0.015213 -2884.920000 0 0 1
32.091421 28.308902 -21.545211 47.910848 0.722856 2.037219 0.044072 -0.015082 601425.000000 0 0 1
31.318541 28.398602 -22.779311 48.023209 0.736541 2.065010 0.054505 -0.003850 932331.000000 0 0 1
30.336051 29.596602 -22.981711 48.211968 0.773061 2.067671 0.050355 0.001680 333675.000000 0 0 1
31.102151 30.809002 -23.027811 49.465326 0.780663 2.055035 0.048681 -0.011589 -31032.700000 0 0 1
30.241081 31.890702 -22.984811 49.596788 0.811942 2.052662 0.056591 -0.000995 -409154.000000 0 0 1
30.848431 33.217402 -22.465911 50.593860 0.822358 2.030904 0.053477 -0.001459 -73510.700000 0 0 1
31.101631 33.257302 -21.079311 50.176657 0.818880 2.004354 0.058519 -0.001513 513098.000000 0 0 1
32.526421 33.252002 -20.948211 51.014618 0.796428 1.993943 0.060284 -0.003064 240552.000000 0 0 1
32.878691 33.464202 -19.444911 50.783518 0.794223 1.963728 0.046747 -0.007205 -325472.000000 0 0 1
32.451541 -33.771234 -19.015011 50.548684 -0.805324 1.956458 0.049156 -0.001439 173243.000000 0 0 1
32.468301 -33.674234 -17.588711 49.975068 -0.803628 1.930450 0.037617 -0.010772 -683843.000000 0 0 1
32.503211 -32.157234 -17.122611 48.823460 -0.780048 1.929120 0.040221 0.015401 570102.000000 0 0 1
33.750481 -31.487834 -17.349811 49.311202 -0.750729 1.930336 0.057274 -0.005133 973511.000000 0 0 1
34.789201 -31.872934 -16.428911 49.960800 -0.741679 1.905867 0.056718 -0.003530 -248137.000000 0 0 1
36.158791 -31.294934 -16.738111 50.665525 -0.713416 1.907486 0.048797 0.000139 -319484.000000 0 0 1
-35.697543 -32.013334 -17.722511 51.120011 0.731041 1.924830 0.045018 -0.001759 -218605.000000 0 0 1
-34.407143 -31.435234 -17.831211 49.899675 0.740292 1.936216 0.021762 0.007403 646181.000000 0 0 1
-33.419057 -32.165934 -18.794711 50.047196 0.766294 1.955775 0.002078 -0.001128 -1003630.000000 0 0 1
-32.816507 -33.331334 -18.249911 50.209165 0.793181 1.942795 0.021414 -0.007775 583372.000000 0 0 1
-31.692967 -33.909234 -18.931611 50.126702 0.819169 1.958081 -0.000535 -0.002196 1261170.000000 0 0 1
-30.491747 -32.913734 -19.180511 48.795005 0.823578 1.974779 -0.000309 -0.005907 -1066250.000000 0 0 1
-30.724137 -31.946934 -20.236011 48.724484 0.804907 1.999085 -0.010896 0.000797 871330.000000 0 0 1
-29.535737 -31.491634 -20.957411 47.992665 0.817437 2.022701 -0.001600 0.000626 1100860.000000 0 0 1
-28.720427 -32.498734 -21.814011 48.547726 0.847038 2.036813 -0.002017 0.007475 201096.000000 0 0 1
-29.507337 -33.093534 -22.857911 49.883354 0.842622 2.046796 -0.003967 0.017659 -274445.000000 0 0 1
-28.924577 -34.237334 -23.284611 50.507418 0.869314 2.049934 -0.005274 0.015295 -342726.000000 0 0 1
-29.665027 33.570002 -24.419811 51.022407 -0.847073 2.069867 -0.017164 0.009007 -611532.000000 0 0 1
-30.798537 32.824502 -24.024011 51.021083 -0.817231 2.061067 -0.020417 0.000248 -78189.800000 0 0 1
-31.312127 32.109702 -25.163031 51.426262 -0.797973 2.082087 -0.019895 0.006815 504148.000000 0 0 1
-32.244187 32.962802 -26.103631 52.987107 -0.796418 2.085919 -0.018157 -0.002987 -401228.000000 0 0 1
-31.566457 33.784402 -27.020251 53.552974 -0.819324 2.099659 -0.023830 -0.004032 211444.000000 0 0 1
-32.508437 -33.881034 -27.678681 54.505342 0.806070 2.103444 -0.026982 -0.006015 733091.000000 0 0 1
-31.863437 -33.179634 -28.916551 54.335381 0.805631 2.131977 -0.011378 -0.007451 14288.900000 0 0 1
-31.668447 -33.902634 -30.094591 55.298857 0.819458 2.146252 -0.002769 -0.005097 59354.200000 0 0 1
-32.829517 -34.007134 -30.891341 56.467135 0.803016 2.149653 -0.001028 -0.002644 -184053.000000 0 0 1
-32.540357 33.716602 -32.195791 56.852907 -0.803149 2.172806 0.015032 0.000846 -234608.000000 0 0 1
-31.776327 -34.105234 -33.128681 57.187511 0.820733 2.188665 0.026010 -0.014049 -281310.000000 0 0 1
-31.830127 33.828002 34.094867 57.619013 -0.815817 0.937594 0.017796 -0.024001 -213363.000000 0 0 1
-30.701017 34.183402 33.074066 56.612289 -0.839017 0.946877 0.027680 -0.022163 755284.000000 0 0 1
-29.372947 33.776902 33.353913 55.822331 -0.855024 0.930415 0.026366 -0.021659 198190.000000 0 0 1
-29.149787 32.439902 32.879418 54.617886 -0.838767 0.924805 0.030086 -0.025657 115613.000000 0 0 1
-27.701897 31.937302 33.145320 53.721491 -0.856296 0.905891 0.034469 -0.020901 232.448000 0 0 1
-27.480377 31.710602 -34.035531 54.029166 -0.856744 2.252282 0.040672 -0.024585 -18809.300000 0 0 1
-26.179887 31.202202 -33.783681 52.917870 -0.872700 2.263236 0.053397 -0.021808 -150059.000000 0 0 1
-25.761667 29.747602 34.247040 52.167452 -0.857082 0.854650 0.051807 -0.019506 -382100.000000 0 0 1
-26.144397 28.753802 -33.353661 51.213058 -0.832894 2.280057 0.057380 -0.017527 18022.200000 0 0 1
-25.695937 27.504802 -33.775111 50.572260 -0.819386 2.302124 0.052851 -0.012197 -281779.000000 0 0 1
-25.361437 26.517302 -32.722911 49.164608 -0.807675 2.299065 0.065453 -0.024403 -204620.000000 0 0 1
-24.181867 26.661402 -31.946711 48.126764 -0.834128 2.296689 0.065063 -0.026493 5874.150000 0 0 1
-24.248167 27.583402 -30.906601 48.000371 -0.849657 2.270358 0.056692 -0.025279 398819.000000 0 0 1
-22.957567 27.592302 -30.027221 46.797639 -0.876829 2.267430 0.092718 -0.024207 -113428.000000 0 0 1
-21.775267 27.876802 -30.705901 46.841549 -0.907671 2.285677 0.087295 -0.024885 51934.500000 0 0 1
-20.604367 28.060402 -29.908831 45.896234 -0.937428 2.280570 0.054001 -0.020538 613580.000000 0 0 1
-20.540567 29.428802 -29.279451 46.316903 -0.961431 2.255127 0.040236 -0.007409 -836741.000000 0 0 1
-20.079467 30.434302 -30.142781 47.307705 -0.987587 2.261610 0.038282 0.001942 157444.000000 0 0 1
-19.805567 31.593002 -29.340411 47.447213 -1.010834 2.237476 0.050103 -0.008779 -75352.300000 0 0 1
-19.368767 32.950002 -30.044001 48.615777 -1.039379 2.236978 0.050397 0.000965 832600.000000 0 0 1
-18.034767 32.876102 -30.556301 48.371256 -1.069053 2.254545 0.049434 0.002711 254703.000000 0 0 1
-17.639167 34.026202 -31.290001 49.477134 -1.092538 2.255461 0.050640 0.002845 787554.000000 0 0 1
-16.103767 34.112002 -31.606291 49.212982 -1.129729 2.268207 0.041493 0.011697 385206.000000 0 0 1
-15.370067 -33.838534 -30.521401 48.092008 1.144440 2.258347 0.054515 0.002078 786381.000000 0 0 1
-13.943767 -33.835334 -30.647791 47.734113 1.179897 2.267968 0.058165 0.006895 1077350.000000 0 0 1
-13.233267 33.317402 -30.636921 47.157073 -1.192717 2.277957 0.056316 0.005021 -790706.000000 0 0 1
-13.245967 32.662202 -29.421871 45.912107 -1.185520 2.266376 0.068334 -0.010819 20616.500000 0 0 1
-12.959967 31.288402 -29.476881 44.897788 -1.178100 2.287010 0.052585 -0.009275 -135811.000000 0 0 1
-12.974467 30.603702 -28.098181 43.525063 -1.169815 2.272557 0.052230 -0.017233 -929604.000000 0 0 1
-11.879567 31.040002 -27.411921 43.081542 -1.205276 2.260463 0.055196 -0.014355 -827490.000000 0 0 1
-11.793767 30.498902 -26.090581 41.832934 -1.201812 2.244245 0.045564 -0.022618 256153.000000 0 0 1
-10.479967 30.906502 -25.357011 41.328193 -1.243877 2.231348 0.052845 -0.024471 1036030.000000 0 0 1
-9.337267 30.178602 -25.816901 40.797610 -1.270738 2.255966 0.053867 -0.013342 -402413.000000 0 0 1
-8.148367 30.601202 -25.236291 40.493207 -1.310559 2.243653 0.059198 -0.017851 52274.600000 0 0 1
-6.886967 29.903602 -25.821341 40.104830 -1.344438 2.270311 0.065829 -0.025060 234463.000000 0 0 1
-6.748667 28.548502 -25.486371 38.860218 -1.338665 2.286101 0.058148 -0.028590 -517790.000000 0 0 1
-5.488367 28.128602 -25.960021 38.668632 -1.378100 2.306819 0.061572 -0.037655 36924.700000 0 0 1
-4.974967 26.853402 -25.236201 37.184961 -1.387609 2.316742 0.068243 -0.033653 -221613.000000 0 0 1
-5.729167 25.704502 -25.477831 36.642389 -1.351495 2.339648 0.081627 -0.029517 -350358.000000 0 0 1
-5.241367 24.665002 -24.739511 35.325312 -1.361409 2.346661 0.083923 -0.040123 -419727.000000 0 0 1
-6.145667 23.423502 -24.668011 34.567910 -1.314208 2.365434 0.084995 -0.038071 -43303.500000 0 0 1
-6.005467 22.464602 -25.727891 34.679221 -1.309575 2.406669 0.090147 -0.038835 -215126.000000 0 0 1
-7.101767 21.595102 -25.715901 34.323332 -1.253077 2.417688 0.078192 -0.035436 -343369.000000 0 0 1
-7.112867 20.639802 -26.948961 34.681995 -1.238923 2.460730 0.061306 -0.030813 1439880.000000 0 0 1
-5.783167 20.059202 -27.126661 34.229700 -1.290103 2.485676 0.081739 -0.034785 1063130.000000 0 0 1
-5.559367 18.930502 -26.262321 32.847831 -1.285155 2.497283 0.088451 -0.029556 -382067.000000 0 0 1
-4.355167 18.085302 -26.656411 32.505536 -1.334483 2.532308 0.080457 -0.032536 -305737.000000 0 0 1
-4.466767 17.472202 -27.918061 33.236245 -1.320507 2.568058 0.073422 -0.029125 -837472.000000 0 0 1
-3.540967 16.480902 -28.090861 32.760572 -1.359161 2.601108 0.071973 -0.028322 -592522.000000 0 0 1
-3.021967 16.253302 -29.557161 33.866324 -1.386966 2.631624 0.062776 -0.021348 158613.000000 0 0 1
-2.155867 17.287702 -29.987171 34.680583 -1.446732 2.615284 0.072557 -0.029097 85658.700000 0 0 1
-2.011167 17.329902 -31.394211 35.916108 -1.455261 2.634373 0.066647 -0.026718 -79464.600000 0 0 1
-1.362067 18.642102 -31.862901 36.940867 -1.497862 2.611061 0.074122 -0.014615 890278.000000 0 0 1
0.070933 18.735302 -31.744111 36.860618 1.567010 2.608409 0.078534 -0.021289 675514.000000 0 0 1
0.561533 19.973902 -32.191401 37.888763 1.542690 2.586078 0.085398 -0.009351 265685.000000 0 0 1
0.326133 21.174002 -31.172421 37.685071 1.555395 2.544871 0.085114 -0.012559 553479.000000 0 0 1
1.451433 21.303902 -30.277011 37.049430 1.502772 2.527343 0.092089 -0.032213 335917.000000 0 0 1
1.132633 22.107702 -29.174131 36.621896 1.519609 2.492497 0.092704 -0.036399 579135.000000 0 0 1
2.275433 22.164402 -28.095981 35.858367 1.468493 2.471118 0.097912 -0.034993 843872.000000 0 0 1
3.223933 23.197802 -28.295981 36.731380 1.432705 2.450185 0.078272 -0.037418 396804.000000 0 0 1
4.257633 23.160102 -27.277401 36.035737 1.388991 2.429436 0.073284 -0.040199 876359.000000 0 0 1
5.008133 24.522102 -27.091141 36.882852 1.369337 2.395753 0.075836 -0.033702 75654.400000 0 0 1
5.846133 24.908202 -28.138341 38.031067 1.340262 2.403685 0.068101 -0.040835 -282926.000000 0 0 1
6.210033 26.247602 -28.121941 38.965943 1.338474 2.377060 0.066713 -0.040406 -92916.800000 0 0 1
6.899933 26.610802 -29.438881 40.278922 1.317093 2.390400 0.071352 -0.034776 601755.000000 0 0 1
8.261333 26.164702 -29.495281 40.284151 1.264959 2.392315 0.065164 -0.035768 394862.000000 0 0 1
8.996533 26.933202 -30.406331 41.603845 1.248418 2.390368 0.072190 -0.029420 91812.900000 0 0 1
10.499533 27.036202 -30.043301 41.758788 1.200372 2.373804 0.068469 -0.031128 309653.000000 0 0 1
11.224433 28.013402 -30.782561 43.108058 1.189703 2.366104 0.072195 -0.026868 41268.700000 0 0 1
12.499533 28.279402 -30.241921 43.249701 1.154614 2.345130 0.066073 -0.023961 285619.000000 0 0 1
13.388633 29.201102 -31.158911 44.753073 1.140898 2.340943 0.065616 -0.022167 -292535.000000 0 0 1
12.908933 30.539702 -31.261741 45.569841 1.170881 2.326799 0.070215 -0.024495 356724.000000 0 0 1
13.722033 31.314002 -32.125021 46.913515 1.157792 2.325086 0.094070 -0.027777 -74382.000000 0 0 1
13.312533 32.803802 -32.147741 47.820395 1.185280 2.308054 0.094518 -0.032461 1002760.000000 0 0 1
12.081633 32.941902 -32.895021 48.095916 1.219273 2.323955 0.087052 -0.032745 1195870.000000 0 0 1
11.304333 34.108802 -32.565991 48.494763 1.250769 2.307076 0.071232 -0.028705 389523.000000 0 0 1
10.089233 -34.150434 -33.476281 48.874392 -1.283533 2.325325 0.053042 -0.024952 36022.900000 0 0 1
10.383633 -33.388034 33.878282 48.685918 -1.269280 0.801188 0.055643 -0.012832 40294.600000 0 0 1
9.251833 -33.342234 33.047925 47.848368 -1.300125 0.808367 0.063519 -0.022440 91229.000000 0 0 1
9.474333 -32.419834 31.832067 46.412166 -1.286475 0.815017 0.062706 -0.019925 35078.200000 0 0 1
9.218533 -31.038034 32.124607 45.610649 -1.282087 0.789328 0.045075 -0.022038 -2600.180000 0 0 1
9.397933 -30.161834 31.007287 44.266344 -1.268747 0.794739 0.071312 -0.024228 -547081.000000 0 0 1
8.893533 -28.712134 31.135797 43.277239 -1.270420 0.767787 0.059251 -0.033604 -110493.000000 0 0 1
7.483333 -28.525934 31.179877 42.917525 -1.314243 0.757572 0.037970 -0.024091 259988.000000 0 0 1
6.875533 -28.681234 32.441326 43.844336 -1.335514 0.737844 0.024694 -0.013116 -906622.000000 0 0 1
5.353833 -28.635934 32.315497 43.508293 -1.385968 0.733638 0.026099 -0.004726 -510283.000000 0 0 1
4.722333 -29.787734 31.758627 43.797488 -1.413572 0.759581 0.037256 -0.011645 6051.550000 0 0 1
4.852533 -30.170334 30.400447 43.104331 -1.411324 0.787984 0.050206 -0.016194 -589771.000000 0 0 1
4.216333 -29.325134 29.280187 41.654175 -1.427996 0.791280 0.034551 -0.023898 150497.000000 0 0 1
2.863833 -29.661634 29.000217 41.581566 -1.474545 0.798992 0.048224 -0.029280 355855.000000 0 0 1
2.370033 -28.719834 28.044037 40.210868 -1.488460 0.798999 0.054504 -0.027303 362408.000000 0 0 1
0.970333 -29.093134 27.444717 40.007055 -1.537456 0.814823 0.051148 -0.024740 430266.000000 0 0 1
0.817133 -30.311434 26.766347 40.446113 -1.543845 0.847608 0.062544 -0.029267 -26877.700000 0 0 1
0.667533 -31.449834 27.615617 41.858810 -1.549574 0.850334 0.079362 -0.030890 -632416.000000 0 0 1
1.067233 -32.729834 26.885877 42.370171 -1.538201 0.883374 0.079061 -0.032189 998142.000000 0 0 1
2.484233 -32.962934 26.699787 42.492412 -1.495574 0.891376 0.072257 -0.024801 1281910.000000 0 0 1
3.055733 -32.267334 25.602447 41.303797 -1.476377 0.902236 0.066908 -0.028947 257847.000000 0 0 1
4.613433 -32.383334 25.564057 41.514878 -1.429285 0.907420 0.076439 -0.022837 546005.000000 0 0 1
5.218133 -31.998834 24.344487 40.543906 -1.409147 0.926736 0.070024 -0.032492 833812.000000 0 0 1
6.617733 -31.789834 24.609087 40.743037 -1.365556 0.922277 0.062817 -0.026066 671383.000000 0 0 1
7.535333 -31.579534 23.377427 40.006903 -1.336562 0.946736 0.050995 -0.020634 294991.000000 0 0 1
8.790933 -31.026134 23.749237 40.049067 -1.294693 0.936012 0.037712 -0.015560 199681.000000 0 0 1
9.636233 -30.924434 22.645327 39.521999 -1.268726 0.960659 0.029079 -0.015834 51545.300000 0 0 1
10.835633 -29.943834 22.814327 39.173175 -1.223590 0.949122 0.018759 -0.010557 -212593.000000 0 0 1
11.834333 -30.425834 23.651117 40.313250 -1.199846 0.943839 0.035812 -0.012016 -598891.000000 0 0 1
12.917633 -29.530134 23.595007 39.945193 -1.158437 0.938889 0.048888 -0.014913 -363026.000000 0 0 1
14.091333 -29.922934 24.502217 41.161952 -1.130681 0.933203 0.061843 -0.014266 -543898.000000 0 0 1
13.824733 -29.850334 25.900647 41.868953 -1.137073 0.903821 0.049110 -0.016120 499079.000000 0 0 1
14.955433 -29.508534 26.712017 42.520000 -1.101710 0.891530 0.059116 -0.020073 196937.000000 0 0 1
-10.908567 -13.893298 26.109287 31.523252 0.905165 0.594810 0.051232 -0.022058 123986.000000 0 0 1
-9.517767 -13.821698 25.846447 30.816652 0.967755 0.575874 0.040159 -0.024423 228860.000000 0 0 1
-8.776067 -14.264598 26.996757 31.769844 1.019251 0.555266 0.043603 -0.023851 -338496.000000 0 0 1
-7.249767 -14.221998 26.907607 31.286478 1.099373 0.535449 0.065067 -0.022998 -431525.000000 0 0 1
-6.690167 -15.154398 26.011477 30.838467 1.155061 0.567076 0.064368 -0.025078 -34479.000000 0 0 1
-6.823967 -14.885698 24.618727 29.567419 1.140959 0.586956 0.062733 -0.019240 -487807.000000 0 0 1
-6.160767 -15.991498 23.699437 29.246306 1.203067 0.626065 0.061026 -0.015116 -59170.200000 0 0 1
-6.872367 -17.150298 23.469857 29.869656 1.189674 0.666901 0.068245 -0.009698 -639361.000000 0 0 1
-7.111167 -17.978798 24.600547 31.288861 1.194149 0.666096 0.069480 -0.011551 -48653.900000 0 0 1
-7.637067 -19.355298 24.192087 31.909394 1.194978 0.710326 0.068614 -0.009370 -111965.000000 0 0 1
-8.975367 -19.437298 23.787727 32.003465 1.138206 0.732827 0.043877 -0.005732 -501631.000000 0 0 1
-9.412667 -20.789298 23.686017 32.891042 1.145645 0.766798 0.044596 -0.011929 -312516.000000 0 0 1
-10.917567 -21.048098 23.691317 33.518565 1.092304 0.785815 0.030329 -0.004782 -621194.000000 0 0 1
-11.394467 -20.900998 25.007237 34.526041 1.071674 0.760777 0.030276 -0.008109 -85737.000000 0 0 1
-12.812867 -20.867198 24.965747 34.969959 1.020132 0.775716 0.035722 -0.007158 449091.000000 0 0 1
-13.438367 -20.808698 26.438407 36.229560 0.997376 0.752845 0.041198 -0.012453 49407.800000 0 0 1
-13.198267 -21.995998 27.207047 37.393069 1.030354 0.755985 0.042866 -0.007519 954758.000000 0 0 1
-12.139967 -21.834798 28.202847 37.676754 1.063365 0.724927 0.050923 -0.009372 732072.000000 0 0 1
-11.935167 -23.206798 28.807327 38.869857 1.095777 0.736056 0.044310 -0.009155 162154.000000 0 0 1
-13.091567 -23.772198 29.440547 40.040634 1.067409 0.744736 0.034320 -0.007393 367254.000000 0 0 1
-12.818867 -25.000598 30.025877 41.120634 1.097007 0.752196 0.025566 -0.007867 230604.000000 0 0 1
-13.971667 -25.474288 30.972977 42.467307 1.069135 0.753444 0.017054 -0.013470 309429.000000 0 0 1
-13.916567 -24.911298 32.291837 43.092997 1.061340 0.723713 0.039602 -0.009300 -160562.000000 0 0 1
-14.997367 -25.325098 33.098990 44.292491 1.036136 0.726834 0.036562 -0.012288 -198542.000000 0 0 1
-14.904367 -24.673998 -34.060801 44.621570 1.027403 2.439242 0.032009 -0.014499 -82811.700000 0 0 1
-14.868867 -23.282898 -33.956061 43.774315 1.002464 2.458632 0.038092 -0.017430 -536205.000000 0 0 1
-15.959067 -22.573098 34.059327 43.866552 0.955391 0.681815 0.032174 -0.021962 -926134.000000 0 0 1
-15.987867 -21.112798 -34.060611 43.144958 0.922665 2.480702 0.024896 -0.017353 -160562.000000 0 0 1
-16.105667 -20.874798 -32.675791 41.986391 0.913654 2.462666 0.022931 -0.013536 71028.100000 0 0 1
-16.313967 -19.500398 -32.430971 41.208967 0.874135 2.476708 0.014501 -0.016609 -313729.000000 0 0 1
-16.451467 -19.297898 -30.931851 39.997988 0.864852 2.454881 0.012554 -0.004835 -258003.000000 0 0 1
-17.638567 -19.705898 -30.301921 40.219994 0.840700 2.424021 0.018298 -0.002992 -273159.000000 0 0 1
-17.634567 -19.649798 -28.837761 39.098708 0.839396 2.400251 0.015040 0.004610 -30248.300000 0 0 1
-16.729167 -20.609998 -27.999891 38.582781 0.888961 2.382861 0.006260 -0.000874 204824.000000 0 0 1
-15.333567 -20.372498 -28.054711 37.910734 0.925595 2.403897 0.016290 -0.007531 -82322.000000 0 0 1
-14.692967 -21.514898 -27.577061 37.937692 0.971625 2.384599 0.021488 -0.014181 912705.000000 0 0 1
-13.117567 -21.419998 -27.673551 37.372615 1.021310 2.404576 0.072273 -0.023157 827416.000000 0 0 1
-12.546967 -20.531498 -26.713741 35.952646 1.022249 2.408376 0.069902 -0.029298 86276.000000 0 0 1
-11.149367 -20.461798 -26.869831 35.566577 1.071887 2.427182 0.045872 -0.043170 -47062.600000 0 0 1
-10.252367 -21.412898 -26.070211 35.260164 1.124257 2.402926 0.069415 -0.046324 -476332.000000 0 0 1
-10.269767 -22.751898 -26.548251 36.440728 1.146795 2.386973 0.070905 -0.044790 125845.000000 0 0 1
-9.497967 -23.484598 -25.644981 36.047230 1.186473 2.362323 0.093484 -0.042211 -192880.000000 0 0 1
-9.582667 -25.005298 -25.892411 37.249287 1.204834 2.339371 0.085628 -0.038268 250457.000000 0 0 1
-8.677367 -25.431318 -26.942611 38.051977 1.241975 2.357526 0.083339 -0.039577 650603.000000 0 0 1
-9.091367 -26.590608 -27.605451 39.392567 1.241354 2.347284 0.075452 -0.033024 -133457.000000 0 0 1
-8.789467 -27.836448 -26.778041 39.612953 1.264950 2.313106 0.075928 -0.029257 36359.600000 0 0 1
-9.770467 -28.103758 -25.787121 39.373327 1.236210 2.284898 0.068310 -0.030195 424109.000000 0 0 1
-9.438567 -29.312578 -25.172331 39.773861 1.259283 2.256072 0.091269 -0.026045 279063.000000 0 0 1
-10.448867 -29.561178 -23.981811 39.473654 1.231037 2.223756 0.088940 -0.031038 491298.000000 0 0 1
-10.503167 -28.568678 -22.932911 38.110423 1.218488 2.216486 0.074368 -0.032765 605318.000000 0 0 1
-11.555467 -27.602618 -23.217511 37.874611 1.174328 2.230661 0.072869 -0.028611 506859.000000 0 0 1
-11.603667 -26.373888 -22.306011 36.438787 1.156316 2.229573 0.074894 -0.024828 -72343.900000 0 0 1
-11.939067 -26.759028 -20.953011 36.022432 1.151132 2.191571 0.061448 -0.024711 308875.000000 0 0 1
-12.056967 -25.664338 -20.076811 34.743446 1.131604 2.186899 0.049102 -0.014806 -213992.000000 0 0 1
-12.539567 -25.999058 -18.692211 34.388814 1.121402 2.145463 0.062534 -0.013476 -357349.000000 0 0 1
-13.850367 -26.499878 -18.627211 35.228528 1.089187 2.127928 0.077789 -0.018757 -250532.000000 0 0 1
-14.307667 -26.512398 -17.295311 34.738227 1.075927 2.091944 0.078588 -0.016913 -559976.000000 0 0 1
-15.822567 -26.622258 -17.139811 35.395923 1.034552 2.076281 0.087930 -0.024407 -1506270.000000 0 0 1
-16.409567 -25.362568 -17.410911 34.866511 0.996533 2.093655 0.077132 -0.015159 268858.000000 0 0 1
-17.824767 -25.303898 -17.268611 35.443117 0.957105 2.079700 0.089950 -0.015036 654372.000000 0 0 1
-18.689267 -26.145068 -18.270211 36.968283 0.950187 2.087726 0.087856 -0.015990 -1031310.000000 0 0 1
-18.535367 -27.554038 -18.460911 37.994606 0.978634 2.078169 0.095807 -0.017064 -208096.000000 0 0 1
-18.954267 -28.425308 -17.382011 38.332711 0.982695 2.041430 0.099072 -0.026167 348080.000000 0 0 1
-20.492767 -28.620808 -17.141711 39.152809 0.949406 2.023964 0.096297 -0.019079 755883.000000 0 0 1
-21.136367 -29.374128 -18.183111 40.499518 0.947065 2.036410 0.085514 -0.024456 -862363.000000 0 0 1
-22.238067 -29.943958 -17.598111 41.241554 0.932012 2.011646 0.085321 -0.014059 -927707.000000 0 0 1
-22.972167 -30.898058 -18.514511 42.722331 0.931479 2.019023 0.057492 -0.021040 -316875.000000 0 0 1
-22.237167 -32.098478 -18.569811 43.239355 0.964933 2.014697 0.057820 -0.023990 80430.500000 0 0 1
-22.584567 -32.921808 -19.652711 44.498733 0.969524 2.028229 0.037500 0.002724 61756.000000 0 0 1
-21.920067 34.199656 -19.729611 45.159311 -1.000814 2.022934 0.042075 -0.003949 154155.000000 0 0 1
-22.625467 33.339578 -18.882711 44.497146 -0.974552 2.009049 0.032638 0.003818 230128.000000 0 0 1
-21.930967 32.100317 -18.903211 43.228799 -0.971434 2.023371 0.024524 -0.002273 29077.300000 0 0 1
-22.783867 30.892277 -18.409211 42.571545 -0.935326 2.017982 0.020407 0.000990 87800.100000 0 0 1
-23.053967 30.897427 -17.003911 42.133946 -0.929767 1.986209 0.017157 -0.003694 -173014.000000 0 0 1
-23.907967 29.837187 -16.652911 41.703334 -0.895275 1.981570 0.020877 -0.005323 -272338.000000 0 0 1
-23.207967 28.531337 -16.381211 40.261533 -0.887926 1.989821 0.023345 -0.012300 -344119.000000 0 0 1
-22.514367 28.055957 -17.495511 40.001580 -0.894545 2.023469 0.018179 -0.011038 40579.700000 0 0 1
-22.116167 26.676547 -17.287611 38.724986 -0.878592 2.033557 0.015103 -0.012880 193789.000000 0 0 1
-21.371467 26.045647 -18.499211 38.436131 -0.883657 2.072931 0.026426 -0.009159 -626711.000000 0 0 1
-21.128967 24.623807 -18.409011 37.304917 -0.861635 2.086876 0.033900 -0.022693 38836.300000 0 0 1
-20.406367 24.096757 -19.506511 37.115731 -0.868133 2.124169 0.022989 -0.017408 -131078.000000 0 0 1
-18.906667 24.426567 -19.515111 36.537088 -0.912098 2.134260 0.024236 -0.020480 -1266150.000000 0 0 1
-18.127867 23.790697 -18.516711 35.177911 -0.919676 2.125126 0.039262 -0.025060 770170.000000 0 0 1
-16.940667 24.579067 -18.240111 34.983116 -0.967334 2.119284 0.057771 -0.039704 546000.000000 0 0 1
-17.049267 25.792017 -17.271111 35.414643 -0.986707 2.080230 0.058984 -0.029027 -196927.000000 0 0 1
-17.857267 26.771607 -17.893811 36.821046 -0.982547 2.078266 0.046177 -0.020985 310282.000000 0 0 1
-17.467667 27.980717 -17.197311 37.199294 -1.012718 2.051386 0.061917 -0.027632 508206.000000 0 0 1
-18.445267 29.200697 -17.473911 38.707185 -1.007413 2.039173 0.047774 -0.020309 478000.000000 0 0 1
-18.429967 29.680287 -18.832111 39.689187 -1.015115 2.065181 0.041788 -0.023770 -367968.000000 0 0 1
-19.459167 29.127767 -19.586411 40.133696 -0.981828 2.080627 0.043107 -0.018307 -661674.000000 0 0 1
-19.542067 29.590687 -21.078711 41.253039 -0.987136 2.107099 0.051054 -0.023075 -160382.000000 0 0 1
-20.133767 30.857917 -21.182311 42.500235 -0.992689 2.092554 0.056666 -0.017859 29337.500000 0 0 1
-20.528867 31.040117 -22.518811 43.497358 -0.986473 2.114963 0.058726 -0.023319 337416.000000 0 0 1
-21.349367 32.299357 -22.892911 44.979210 -0.986738 2.104780 0.061299 -0.025720 149289.000000 0 0 1
-20.455467 33.405762 -22.835911 45.341481 -1.021357 2.098607 0.044288 -0.020490 332157.000000 0 0 1
-20.258767 34.104940 -24.106811 46.418778 -1.034791 2.116867 0.049986 -0.011997 -183760.000000 0 0 1
-19.002367 -33.536348 -24.133311 45.477394 1.055283 2.130183 0.072369 -0.012204 -393610.000000 0 0 1
-19.048767 -32.364418 -23.258411 44.173123 1.038823 2.125308 0.066507 -0.020166 130598.000000 0 0 1
-18.756267 -32.756508 -21.906711 43.642759 1.050770 2.096654 0.078788 -0.028328 -389160.000000 0 0 1
-18.477367 -31.613968 -20.942111 42.183268 1.041875 2.090307 0.086713 -0.039932 -283355.000000 0 0 1
-17.183867 -31.078348 -21.068711 41.292125 1.065713 2.106255 0.078426 -0.040489 -1240.620000 0 0 1
-16.941367 -30.328148 -19.900311 40.035345 1.061373 2.091013 0.081727 -0.034145 127267.000000 0 0 1
-15.617567 -29.500948 -19.951111 38.887803 1.083913 2.109522 0.097273 -0.031720 -476942.000000 0 0 1
-14.541967 -30.352218 -19.944911 39.121931 1.124002 2.105765 0.102794 -0.041140 -894776.000000 0 0 1
-13.437967 -29.627288 -20.457811 38.430160 1.144980 2.132156 0.087677 -0.032973 -492651.000000 0 0 1
-12.060667 -30.313168 -20.522211 38.542302 1.192128 2.132300 0.085852 -0.034358 325045.000000 0 0 1
-11.446867 -30.630708 -19.233311 37.936675 1.213161 2.102479 0.084481 -0.033629 470639.000000 0 0 1
-10.819267 -29.520118 -18.568711 36.514257 1.219494 2.104277 0.069288 -0.026800 -286660.000000 0 0 1
-10.125267 -30.035068 -17.263811 36.092458 1.245646 2.069539 0.061524 -0.017937 68522.100000 0 0 1
-10.984667 -30.627948 -16.288211 36.387360 1.226438 2.034914 0.073034 -0.029679 78609.300000 0 0 1
-11.303367 -31.980638 -16.649311 37.785274 1.231057 2.027096 0.080112 -0.033459 118775.000000 0 0 1
-12.386167 -32.450338 -15.627611 38.087581 1.206168 1.993587 0.082354 -0.036756 401606.000000 0 0 1
-11.854967 -32.736018 -14.299611 37.638624 1.223349 1.960505 0.079146 -0.031778 -638338.000000 0 0 1
-12.950467 -33.032968 -13.527311 37.972092 1.197165 1.935041 0.074724 -0.018361 -1000080.000000 0 0 1
-12.677167 -33.669808 -12.143511 37.971455 1.210699 1.896321 0.053225 -0.020790 -544965.000000 0 0 1
-12.058467 -32.820088 -11.276411 36.738567 1.218695 1.882769 0.044260 -0.015688 -228584.000000 0 0 1
-11.725967 -33.531238 -10.126811 36.937712 1.234386 1.848512 0.049879 -0.015979 -815836.000000 0 0 1
-10.571367 -32.939278 -9.347911 35.834806 1.260245 1.834711 0.037296 -0.018738 8007.080000 0 0 1
-9.326067 -33.422408 -9.862911 36.073674 1.298681 1.847733 0.035526 -0.020211 -178179.000000 0 0 1
-8.232467 -32.696138 -9.379711 34.996999 1.324136 1.842128 0.021374 -0.022981 -565151.000000 0 0 1
-6.939167 -33.167958 -10.019711 35.336385 1.364558 1.858293 0.033415 -0.029228 -577733.000000 0 0 1
-6.514667 34.036247 -9.739411 35.996710 -1.381680 1.844775 0.035064 -0.018506 -230965.000000 0 0 1
-5.257167 33.818174 -10.328211 35.748828 -1.416577 1.863885 0.053958 -0.020395 -163151.000000 0 0 1
-4.404167 32.730530 -9.645411 34.405207 -1.437041 1.854952 0.065722 -0.024897 -141309.000000 0 0 1
-4.022667 33.185348 -8.355011 34.456573 -1.450167 1.815717 0.068794 -0.026545 -440287.000000 0 0 1
-3.307067 32.180517 -7.743111 33.263766 -1.468390 1.805731 0.063908 -0.020807 -265554.000000 0 0 1
-2.816367 32.694059 -6.346111 33.423144 -1.484865 1.761828 0.059443 -0.015864 -545368.000000 0 0 1
-1.877267 33.735641 -6.511611 34.409573 -1.515207 1.761183 0.041354 -0.009448 -74244.900000 0 0 1
-1.471967 34.259394 -5.232511 34.687922 -1.527857 1.722220 0.036442 -0.011621 -228934.000000 0 0 1
-0.489667 33.427047 -4.414711 33.720868 -1.556149 1.702092 0.035775 -0.009615 -643948.000000 0 0 1
0.793233 33.415802 -5.019211 33.799963 1.547063 1.719845 0.034563 -0.010403 279838.000000 0 0 1
1.729133 32.700940 -4.203411 33.015300 1.517968 1.698460 0.031987 -0.009813 1685060.000000 0 0 1
3.269633 32.916658 -4.513011 33.385089 1.471790 1.706392 0.027407 -0.002067 1296170.000000 0 0 1
3.809733 34.139640 -4.080911 34.593105 1.459663 1.689041 0.025768 -0.003528 -128903.000000 0 0 1
5.203433 34.199896 -4.298811 34.859552 1.419807 1.694429 0.039384 -0.005808 293225.000000 0 0 1
5.927833 -33.077018 -3.810611 33.819360 -1.393466 1.683712 0.035874 -0.001338 19761.500000 0 0 1
5.631733 -32.005758 -4.675511 32.832079 -1.396619 1.713689 0.035171 -0.006432 -26237.300000 0 0 1
5.974333 -30.787168 -4.007211 31.616453 -1.379126 1.697883 0.037783 -0.009166 84688.400000 0 0 1
5.811133 -29.621918 -4.879311 30.578342 -1.377080 1.731049 0.038729 -0.012501 -548390.000000 0 0 1
6.808233 -29.406428 -5.828611 30.741873 -1.343283 1.761549 0.046154 -0.014446 -433343.000000 0 0 1
6.611333 -28.261828 -6.704411 29.789088 -1.340997 1.797804 0.049946 -0.016296 2420.080000 0 0 1
6.931833 -26.908768 -5.987711 28.425073 -1.318673 1.783035 0.046416 -0.022718 -211587.000000 0 0 1
6.057133 -26.600798 -4.982611 27.732972 -1.346909 1.751441 0.041067 -0.019931 -998743.000000 0 0 1
6.629133 -25.606948 -4.198411 26.782230 -1.317477 1.728207 0.038703 -0.027585 -511717.000000 0 0 1
5.748933 -25.011998 -3.123811 25.853597 -1.344873 1.691919 0.042113 -0.027446 -550774.000000 0 0 1
4.858233 -24.129698 -3.737211 24.896014 -1.372114 1.721479 0.043847 -0.030819 -542156.000000 0 1 0
3.921533 -23.554998 -2.851011 24.048797 -1.405825 1.689627 0.032227 -0.026989 670605.000000 0 1 0
2.650233 -22.916398 -3.510011 23.334636 -1.455660 1.721790 0.036887 -0.021772 591247.000000 0 1 0
1.806433 -23.852798 -4.129511 24.274926 -1.495208 1.741742 0.036674 -0.019098 -1188410.000000 0 1 0
0.521433 -23.333798 -4.141411 23.704205 -1.548453 1.746410 0.027588 -0.014115 -633717.000000 0 1 0
-15.356667 23.180202 17.990327 33.117984 -0.985690 0.996530 0.012451 -0.013093 -230.252000 0 0 1
-15.433467 22.688002 19.358427 33.581037 -0.973450 0.956396 0.033654 -0.008079 289941.000000 0 0 1
-15.071267 23.714702 20.270927 34.647376 -1.004665 0.945838 0.037841 -0.001320 -586035.000000 0 0 1
-14.955567 23.228602 21.760727 35.167686 -0.998762 0.903620 0.061712 -0.003563 -156607.000000 0 0 1
-13.857867 22.354302 22.014227 34.298418 -1.015859 0.873896 0.056106 -0.003594 2072050.000000 0 0 1
-12.543267 23.027102 22.116327 34.303249 -1.072018 0.870127 0.026021 -0.012852 1393530.000000 0 0 1
-12.257567 24.036902 23.237127 35.608772 -1.099222 0.859828 0.038442 0.002487 -749742.000000 0 0 1
-11.692167 23.492102 24.389597 35.825104 -1.108985 0.821947 0.022271 0.014722 133257.000000 0 0 1
-11.805267 24.454502 25.449337 37.216337 -1.121048 0.817809 0.042171 0.005696 -98460.900000 0 0 1
-11.517767 23.804202 26.811777 37.658603 -1.120148 0.778497 0.029357 0.005889 1489020.000000 0 0 1
-10.074467 23.584602 26.828347 37.114533 -1.167095 0.762874 -0.001313 0.008103 1170250.000000 0 0 1
-9.768867 22.855702 28.017057 37.453563 -1.166882 0.725681 -0.009673 0.006665 490973.000000 0 0 1
-8.230367 22.541002 28.125957 36.971681 -1.220708 0.706339 -0.002158 -0.004142 1430100.000000 0 0 1
-7.310567 23.623802 28.304277 37.585376 -1.270685 0.718086 0.001793 -0.004658 270957.000000 0 0 1
-7.136867 24.528702 27.212737 37.324592 -1.287654 0.753815 0.003625 0.000003 -1202840.000000 0 0 1
-6.113267 25.575002 27.585937 38.110847 -1.336166 0.761453 0.006581 -0.010569 -619825.000000 0 0 1
-4.806667 25.061602 27.463667 37.489211 -1.381303 0.748699 0.009827 -0.012786 -79264.900000 0 0 1
-3.860967 26.074202 27.853597 38.348324 -1.423788 0.757827 0.017653 -0.009015 905011.000000 0 0 1
-2.365167 25.631202 27.829037 37.907886 -1.478780 0.746423 0.024095 -0.003874 252240.000000 0 0 1
-1.793867 25.571202 26.560507 36.912936 -1.500759 0.767650 0.017799 -0.008069 248345.000000 0 0 1
-0.417067 25.238602 26.723277 36.759958 -1.554273 0.756902 0.029386 0.003416 582938.000000 0 0 1
0.430133 24.770302 25.542787 35.583519 1.553433 0.770121 0.023451 -0.004111 -197316.000000 0 0 1
-0.071067 23.635802 24.970297 34.382727 -1.567790 0.757952 0.021873 0.001039 -244846.000000 0 0 1
0.346033 23.530802 23.644507 33.359872 1.556092 0.783042 0.033738 0.005824 -160981.000000 0 0 1
-0.135767 22.230902 22.974727 31.969822 -1.564689 0.768955 0.015382 0.004116 286260.000000 0 0 1
0.448133 21.000402 23.494517 31.515235 1.549460 0.729516 0.028636 0.004541 14428.200000 0 0 1
0.010933 19.903202 22.706527 30.194767 1.570247 0.719702 0.032162 0.001692 -4101.520000 0 0 1
0.891233 18.626302 22.680027 29.361830 1.522985 0.688134 0.037555 0.003327 -643044.000000 0 0 1
2.139633 18.868902 22.136327 29.165570 1.457884 0.709038 0.047359 -0.004291 -775542.000000 0 0 1
2.927433 17.669602 22.127827 28.467972 1.406611 0.680452 0.044482 -0.010458 507130.000000 0 0 1
4.401433 17.894102 21.673927 28.448736 1.329613 0.704618 0.042856 -0.009263 641681.000000 0 0 1
5.309133 18.365802 22.675127 29.658910 1.289390 0.700484 0.036607 -0.005593 -368213.000000 0 0 1
6.522833 18.688802 22.025127 29.612917 1.234992 0.732107 0.049616 -0.013601 -256211.000000 0 0 1
7.482733 19.352402 23.026027 30.995236 1.201846 0.733420 0.061223 -0.019941 -328115.000000 0 0 1
6.995833 20.601202 23.585067 32.087483 1.243431 0.745094 0.043431 -0.011180 233163.000000 0 0 1
6.829733 21.734602 22.680827 32.147443 1.266333 0.787633 0.041799 -0.018098 -770823.000000 0 0 1
5.713233 22.604602 23.162327 32.864912 1.323234 0.788692 0.020792 -0.005052 -622033.000000 0 0 1
5.410733 23.797102 22.476527 33.177889 1.347228 0.826499 0.012636 -0.007796 262838.000000 0 0 1
4.208033 24.326802 23.013527 33.750900 1.399512 0.820488 0.004816 0.000496 -84795.400000 0 0 1
3.768333 25.770602 22.551327 34.451221 1.425599 0.857160 0.016007 -0.001920 114409.000000 0 0 1
3.508833 25.938302 21.155727 33.655196 1.436336 0.891042 0.017441 -0.005563 65471.800000 0 0 1
2.674933 25.014502 20.477027 32.437466 1.464266 0.887598 0.026182 -0.005076 -322226.000000 0 0 1
2.427633 25.558602 19.055227 31.972444 1.476097 0.932300 0.031509 -0.013253 -514304.000000 0 0 1
1.536733 26.618202 19.134427 32.817930 1.513128 0.948321 0.033382 -0.010207 -140407.000000 0 0 1
1.240533 27.043802 17.795727 32.397439 1.524957 0.989277 0.043817 -0.009139 -257158.000000 0 0 1
0.223033 28.190702 17.737127 33.307223 1.562885 1.009208 0.031009 0.002894 -302651.000000 0 0 1
0.522033 29.446902 18.302227 34.675122 1.553070 1.014764 0.039621 0.003493 -148370.000000 0 0 1
-0.645567 30.188902 18.504227 35.414587 -1.549415 1.021012 0.024564 0.000535 -51086.500000 0 0 1
-0.253067 31.604302 19.107627 36.932335 -1.562789 1.027023 0.029404 0.006614 210069.000000 0 0 1
0.307833 31.538102 20.405727 37.565148 1.561036 0.996542 0.035568 0.004693 78101.300000 0 0 1
0.661933 32.883102 20.774427 38.901328 1.550669 1.007438 0.031731 -0.003904 287832.000000 0 0 1
1.384033 32.863802 22.179527 39.672111 1.528707 0.977531 0.040705 -0.009751 371626.000000 0 0 1
0.411133 32.681402 23.206927 40.084966 1.558217 0.953364 0.033812 -0.004133 315850.000000 0 0 1
0.926033 32.741702 24.514127 40.912333 1.542521 0.928311 0.055500 -0.020351 -724464.000000 0 0 1
-0.163067 32.483802 25.523937 41.312169 -1.565776 0.904815 0.048950 -0.016917 -551117.000000 0 0 1
-1.139167 33.533802 25.521547 42.156410 -1.536839 0.920526 0.049476 -0.011942 121746.000000 0 0 1
-2.075567 33.289002 26.565927 42.640522 -1.508527 0.898198 0.038856 -0.010553 -49863.300000 0 0 1
-1.703867 33.699102 28.045457 43.875737 -1.520278 0.877336 0.054767 -0.017584 -626159.000000 0 0 1
-0.862167 32.793702 28.728397 43.606089 -1.544512 0.851552 0.062932 -0.019564 178775.000000 0 0 1
-0.336667 33.431702 29.907957 44.858421 -1.560726 0.840999 0.055212 -0.020154 240779.000000 0 0 1
0.863333 32.616802 30.554737 44.701153 1.544334 0.818204 0.050680 -0.016314 2408090.000000 0 0 1
2.225033 32.700702 30.028557 44.452232 1.502859 0.829121 0.048686 -0.015353 1578110.000000 0 0 1
2.290233 32.182302 28.720787 43.195246 1.499752 0.843428 0.052513 -0.020286 -1364890.000000 0 0 1
3.642633 31.654802 28.297167 42.614844 1.456227 0.844612 0.045419 -0.019644 -382186.000000 0 0 1
4.217733 30.510002 29.020217 42.318110 1.433426 0.815144 0.045085 -0.019720 164860.000000 0 0 1
5.548033 30.304702 28.607447 42.042141 1.389727 0.822424 0.057931 -0.025729 -156976.000000 0 0 1
6.155933 29.073302 29.343607 41.763616 1.362140 0.791735 0.070415 -0.026903 -89574.600000 0 0 1
6.415133 29.437102 30.659467 42.984879 1.356224 0.776655 0.075204 -0.029288 41213.700000 0 0 1
7.036033 28.342702 31.301077 42.808550 1.327467 0.750735 0.068916 -0.026019 -1061.750000 0 0 1
7.272733 28.422802 32.837922 44.034957 1.320294 0.729176 0.092454 -0.036197 320729.000000 0 0 1
6.040733 28.607602 33.544726 44.498696 1.362695 0.716915 0.080698 -0.032760 385614.000000 0 0 1
6.098633 28.382402 -33.575151 44.385187 1.359141 2.428664 0.099458 -0.034192 111732.000000 0 0 1
6.012933 26.849102 -33.170061 43.096201 1.350479 2.449128 0.089567 -0.027466 565987.000000 0 0 1
7.278733 26.326702 -33.592981 43.296230 1.301057 2.458916 0.078808 -0.029649 599805.000000 0 0 1
7.273533 24.929402 -33.475911 42.367629 1.286911 2.481816 0.073516 -0.025580 -129356.000000 0 0 1
8.659133 24.259702 -33.460941 42.227341 1.227957 2.485530 0.079005 -0.026385 -554460.000000 0 0 1
9.157933 24.165202 33.728077 42.490092 1.208548 0.653786 0.060591 -0.014001 686450.000000 0 0 1
10.470633 23.591402 33.676640 42.429995 1.153083 0.653931 0.066832 -0.032460 370348.000000 0 0 1
10.567333 22.068102 33.901946 41.809228 1.124211 0.625155 0.064060 -0.031189 -740445.000000 0 0 1
9.964533 21.166402 32.980199 40.435158 1.130804 0.616976 0.065729 -0.023702 231646.000000 0 0 1
9.626033 19.858402 33.471824 40.092139 1.119436 0.582895 0.056453 -0.018646 -1122640.000000 0 0 1
8.360333 19.571302 34.206435 40.286613 1.167087 0.556561 0.067319 -0.021156 -1234290.000000 0 0 1
8.193033 20.152902 -33.072451 39.586011 1.184662 2.559762 0.068731 -0.021264 5406.520000 0 0 1
7.078033 21.033102 -33.102561 39.853099 1.246182 2.551007 0.073662 -0.020377 -534083.000000 0 0 1
6.761233 21.409402 -31.609561 38.771653 1.264902 2.524000 0.080710 -0.032971 -15121.900000 0 0 1
7.738133 22.177402 -30.895331 38.810274 1.235084 2.491554 0.084904 -0.029209 382328.000000 0 0 1
7.330433 22.429102 -29.574071 37.834185 1.254913 2.468145 0.070268 -0.026344 -355982.000000 0 0 1
8.509833 22.957002 -28.780251 37.785500 1.215813 2.436690 0.069488 -0.036708 439911.000000 0 0 1
9.542733 22.051402 -28.357071 37.167883 1.162380 2.438654 0.072939 -0.021427 389338.000000 0 0 1
10.838633 22.465502 -28.747601 38.060469 1.121282 2.426929 0.080075 -0.030209 764763.000000 0 0 1
11.869733 21.270702 -28.756271 37.686290 1.061807 2.438805 0.078091 -0.040678 330015.000000 0 0 1
11.749233 20.331802 -29.817171 37.953792 1.046804 2.474490 0.074707 -0.036887 198591.000000 0 0 1
10.516333 19.662102 -30.125821 37.480083 1.079657 2.504422 0.072022 -0.029922 349637.000000 0 0 1
10.579833 18.666102 -31.328401 37.971370 1.055151 2.541093 0.079260 -0.024295 -266164.000000 0 0 1
11.334633 17.515602 -31.029621 37.391277 0.996451 2.549658 0.077071 -0.020184 -35159.200000 0 0 1
11.086233 16.522202 -31.927821 37.620121 0.979807 2.584300 0.070223 -0.010773 8053.060000 0 0 1
12.304933 16.327802 -32.864581 38.705157 0.924983 2.585077 0.062348 0.000523 48579.000000 0 0 1
12.652133 17.435402 -33.684811 39.984199 0.943057 2.572617 0.063413 -0.010201 -16859.800000 0 0 1
13.410233 17.170302 33.698887 40.128152 0.907740 0.573915 0.060792 -0.011979 -277061.000000 0 0 1
12.547433 16.866302 32.460211 38.672671 0.931188 0.574695 0.066481 -0.018557 -756974.000000 0 0 1
13.064833 17.381102 31.243977 38.065452 0.926228 0.607993 0.056627 -0.022803 141995.000000 0 0 1
12.239033 17.311402 30.068667 36.791348 0.955393 0.614129 0.068006 -0.020132 925762.000000 0 0 1
10.758033 17.843802 30.166167 36.662435 1.028247 0.604461 0.058496 -0.012851 975297.000000 0 0 1
9.922533 16.796002 30.716657 36.387846 1.037193 0.565826 0.057733 -0.010628 -83337.400000 0 0 1
8.567133 17.164402 30.764157 36.255287 1.107851 0.557571 0.052721 -0.011365 135251.000000 0 0 1
7.649633 16.268202 31.632817 36.384150 1.131255 0.516785 0.060329 -0.003473 104779.000000 0 0 1
7.970333 16.201302 32.977893 37.597205 1.113604 0.500929 0.070574 -0.002097 -68175.600000 0 0 1
7.190933 15.232202 33.618812 37.602580 1.129727 0.464477 0.073686 -0.009439 -228092.000000 0 0 1
7.241133 15.416102 -33.408531 37.499602 1.131671 2.670127 0.069291 -0.010019 -227811.000000 0 0 1
6.380833 16.448902 -33.010441 37.429542 1.200748 2.650749 0.070031 -0.013014 -70084.100000 0 0 1
6.552433 16.837802 -31.649781 36.443855 1.199678 2.622870 0.069420 -0.018628 -354543.000000 0 0 1
5.354333 17.656202 -31.175381 36.225885 1.276356 2.607210 0.063563 -0.020999 -881155.000000 0 0 1
5.435033 18.112702 -29.847321 35.333725 1.279278 2.576850 0.057967 -0.035930 -218819.000000 0 0 1
4.567533 19.118202 -29.359431 35.331915 1.336282 2.551629 0.066721 -0.040781 -191599.000000 0 0 1
3.066233 18.820102 -29.393921 35.037132 1.409292 2.566122 0.085363 -0.042261 -1649980.000000 0 0 1
2.656133 17.796102 -28.480751 33.688417 1.422636 2.578141 0.100985 -0.033855 254238.000000 0 0 1
1.244233 17.638502 -28.500851 33.540474 1.500372 2.586298 0.104964 -0.029895 1085490.000000 0 0 1
0.300833 18.807202 -27.976331 33.711666 1.554802 2.549673 0.106296 -0.040261 -196109.000000 0 0 1
0.214333 19.024402 -26.559451 32.670755 1.559531 2.519984 0.116650 -0.045902 -23436.200000 0 0 1
-0.791667 20.012602 -26.426971 33.158947 -1.531259 2.493073 0.117774 -0.048940 3688.760000 0 0 1
-1.270767 20.372502 -24.988411 32.265684 -1.508500 2.456654 0.103236 -0.046143 401974.000000 0 0 1
-2.232467 19.494702 -24.400311 31.311380 -1.456776 2.464311 0.105136 -0.042192 -1998.890000 0 0 1
-2.664767 20.017302 -23.207211 30.763095 -1.438451 2.425513 0.096999 -0.035941 -266625.000000 0 0 1
-3.638967 19.130002 -22.395111 29.677265 -1.382819 2.425874 0.082298 -0.027354 -201989.000000 0 0 1
-4.934867 19.321902 -22.923511 30.383814 -1.320739 2.425634 0.082841 -0.017429 -685850.000000 0 0 1
-5.780367 18.484202 -22.147411 29.420846 -1.267712 2.423071 0.077070 -0.022875 -1165850.000000 0 0 1
-7.251867 18.776202 -22.125711 29.911242 -1.202220 2.403439 0.079996 -0.009257 -912182.000000 0 0 1
-7.644167 19.925402 -21.336411 30.177763 -1.204473 2.356078 0.052840 -0.006726 70596.300000 0 0 1
-7.340867 21.212902 -21.884511 31.349758 -1.237639 2.343503 0.062305 -0.011963 -256971.000000 0 0 1
-7.742267 22.345402 -20.907711 31.565679 -1.237260 2.294755 0.059770 -0.014159 -35761.200000 0 0 1
-7.035267 22.405202 -19.703511 30.654794 -1.266544 2.268885 0.069167 -0.015254 -33279.500000 0 0 1
-7.340967 23.636802 -19.063911 31.241333 -1.269667 2.227128 0.074971 -0.018583 -206350.000000 0 0 1
-6.727667 23.725102 -17.693511 30.351315 -1.294483 2.193160 0.099444 -0.021484 815030.000000 0 0 1
-5.307567 23.953802 -17.777311 30.298311 -1.352744 2.197827 0.093853 -0.024881 524977.000000 0 0 1
-4.752767 24.045402 -16.462711 29.526107 -1.375654 2.162245 0.090042 -0.019167 -244573.000000 0 0 1
-3.231467 24.175802 -16.407911 29.396111 -1.437919 2.162970 0.087937 -0.027435 -320385.000000 0 0 1
-2.911767 25.527402 -16.580811 30.578586 -1.457223 2.143892 0.081141 -0.034145 -422074.000000 0 0 1
-1.595167 25.672902 -17.044211 30.856889 -1.508742 2.155993 0.075296 -0.041441 -51551.000000 0 0 1
-1.221367 27.164202 -17.092511 32.117589 -1.525864 2.131976 0.073223 -0.055512 22086.200000 0 0 1
-2.141967 27.846502 -17.946911 33.198001 -1.494027 2.141949 0.071698 -0.059153 85722.300000 0 0 1
-1.579867 28.905702 -18.669811 34.447023 -1.516195 2.143595 0.072072 -0.045966 -740850.000000 0 0 1
-2.532767 29.696202 -19.601211 35.671933 -1.485713 2.152545 0.098925 -0.042109 317992.000000 0 0 1
-3.359167 30.693202 -19.002411 36.255320 -1.461787 2.122487 0.082972 -0.038241 58341.700000 0 0 1
-4.460867 30.239102 -18.249011 35.599565 -1.424333 2.109029 0.063844 -0.040339 -679819.000000 0 0 1
-5.169767 31.317002 -17.480611 36.236071 -1.407193 2.074199 0.075191 -0.026194 -106008.000000 0 0 1
-5.826967 32.247002 -18.332411 37.548635 -1.392027 2.080858 0.088988 -0.026846 78616.800000 0 0 1
-6.247667 33.358802 -17.549811 38.207838 -1.385654 2.048031 0.085272 -0.038254 -35259.500000 0 0 1
-6.915767 -34.029934 -18.372611 39.286347 1.370301 2.057437 0.078821 -0.024463 685082.000000 0 0 1
-8.317367 34.241802 -18.518911 39.807407 -1.332510 2.054671 0.087697 -0.034374 711046.000000 0 0 1
-8.975067 -33.150134 -19.104311 39.299592 1.306395 2.078440 0.108993 -0.045154 -5485.980000 0 0 1
29.616733 -20.924298 -26.140251 44.702235 -0.615077 2.195385 0.051983 -0.000406 212677.000000 0 0 1
28.838933 -21.991098 -25.638691 44.414355 -0.651484 2.186167 0.056172 -0.010838 -673599.000000 0 0 1
27.522833 -22.026898 -26.090311 43.856526 -0.674932 2.207939 0.045464 -0.006202 -437845.000000 0 0 1
26.783133 -23.315198 -25.686061 43.825887 -0.716286 2.197025 0.045763 -0.010577 -112940.000000 0 0 1
27.254833 -24.531998 -26.208811 45.072682 -0.732869 2.191342 0.049465 -0.003345 944851.000000 0 0 1
28.616933 -24.949898 -25.905881 45.962386 -0.717048 2.169573 0.048315 -0.001696 1302110.000000 0 0 1
28.967233 -26.374868 -26.444261 47.265560 -0.738590 2.164558 0.043969 -0.001806 -62938.600000 0 0 1
28.654933 -27.515968 -25.631421 47.277938 -0.765124 2.143782 0.063402 -0.015520 -260028.000000 0 0 1
28.843233 -28.805878 -26.199711 48.457565 -0.784750 2.142034 0.048084 -0.011463 -57542.600000 0 0 1
27.823933 -29.176248 -27.282251 48.680036 -0.809118 2.165714 0.058181 -0.013560 -446730.000000 0 0 1
27.732033 -28.529648 -28.564221 48.978783 -0.799574 2.193454 0.035836 -0.015573 256788.000000 0 0 1
28.821133 -28.682138 -29.488591 50.228476 -0.782981 2.198255 0.023653 -0.022314 72493.000000 0 0 1
29.091333 -29.987778 -30.287291 51.603222 -0.800571 2.198054 0.032803 -0.016622 -765150.000000 0 0 1
29.593133 -31.122448 -29.631781 52.176649 -0.810581 2.174764 0.050498 -0.015892 468891.000000 0 0 1
30.887633 -31.046548 -29.020331 52.536784 -0.787964 2.156014 0.038771 -0.016503 703569.000000 0 0 1
32.115333 -30.876538 -29.946951 53.680305 -0.765735 2.162621 0.027498 -0.013193 -550663.000000 0 0 1
32.154833 -29.597018 -30.539221 53.315671 -0.744001 2.180714 0.037847 -0.026358 -203546.000000 0 0 1
33.323133 -29.298148 -31.282301 54.289917 -0.721211 2.184878 0.038449 -0.022369 82655.600000 0 0 1
33.333433 -27.796758 -31.803541 53.807460 -0.695073 2.203171 0.034941 -0.015009 77318.100000 0 0 1
33.149133 -26.709168 -30.964531 52.640734 -0.678224 2.199657 0.030900 -0.007588 253349.000000 0 0 1
31.810033 -26.489088 -30.512021 51.425027 -0.694381 2.205986 0.045886 -0.012399 460899.000000 0 0 1
31.609633 -25.204808 -29.738591 50.187997 -0.673140 2.205010 0.042645 -0.018637 -550290.000000 0 0 1
32.386833 -25.123168 -28.617421 49.990372 -0.659761 2.180298 0.046799 -0.004288 -421429.000000 0 0 1
32.167733 -23.970398 -27.883301 48.855107 -0.640402 2.178197 0.039099 -0.006050 -209794.000000 0 0 1
33.223333 -23.800298 -26.782991 48.862794 -0.621630 2.150919 0.029696 -0.014155 -394334.000000 0 0 1
32.881233 -24.481898 -25.570661 48.315603 -0.640007 2.128504 0.039441 -0.017649 -52814.400000 0 0 1
32.148433 -23.744898 -24.616111 46.939268 -0.636166 2.122836 0.045785 -0.004116 -314589.000000 0 0 1
32.730833 -22.508698 -23.883611 46.350575 -0.602417 2.112133 0.052298 -0.006964 -306827.000000 0 0 1
32.936533 -21.329398 -24.605511 46.316192 -0.574680 2.130873 0.054274 -0.011102 -35205.300000 0 0 1
33.125033 -20.193398 -23.737411 45.480829 -0.547457 2.119898 0.046455 -0.015228 49877.000000 0 0 1
33.204333 -18.937698 -24.641411 45.479262 -0.518324 2.143393 0.036228 -0.018404 45881.900000 0 0 1
31.956633 -18.624398 -25.201901 44.757462 -0.527678 2.168901 0.051417 -0.010233 80385.800000 0 0 1
32.081433 -17.408698 -25.938751 44.778342 -0.497176 2.188629 0.043154 -0.006500 739066.000000 0 0 1
30.961133 -17.287298 -27.060921 44.606456 -0.509235 2.222648 0.030360 0.007128 1797450.000000 0 0 1
29.601333 -17.239198 -26.561741 43.346914 -0.527362 2.230359 0.022607 0.007562 813765.000000 0 0 1
28.713233 -17.289198 -27.639551 43.443192 -0.541987 2.260389 0.009907 0.003303 443478.000000 0 0 1
27.247133 -16.910898 -27.201151 42.051009 -0.555464 2.274257 0.003014 0.008720 936742.000000 0 0 1
26.590733 -17.980398 -26.514351 41.633792 -0.594567 2.261198 0.018326 0.011043 78337.100000 0 0 1
26.656033 -17.768298 -25.094771 40.694030 -0.587941 2.235301 0.026816 0.018440 -112114.000000 0 0 1
26.107233 -18.877098 -24.196911 40.291723 -0.626035 2.214976 0.040696 0.018274 -86908.700000 0 0 1
26.107933 -18.415498 -22.825011 39.264945 -0.614314 2.191131 0.050819 0.023032 -13944.200000 0 0 1
25.329433 -19.240698 -22.000111 38.675438 -0.649628 2.175890 0.060984 0.011789 -73533.800000 0 0 1
25.113833 -18.577898 -20.598711 37.418576 -0.636907 2.153752 0.063443 0.003098 57669.700000 0 0 1
24.197633 -17.474298 -20.557311 36.241959 -0.625437 2.173928 0.056352 -0.005965 241037.000000 0 0 1
24.524233 -16.255698 -21.166011 36.244803 -0.585350 2.194412 0.056156 0.000829 -178329.000000 0 0 1
25.806133 -15.491998 -20.735511 36.550238 -0.540656 2.174038 0.044778 -0.001967 164696.000000 0 0 1
25.770633 -14.861498 -19.491711 35.565664 -0.523099 2.150826 0.045240 -0.014724 464910.000000 0 0 1
26.842033 -13.913898 -19.415111 35.931015 -0.478229 2.141642 0.030979 -0.001580 252413.000000 0 0 1
26.859633 -13.046298 -18.160911 34.949456 -0.452160 2.117218 0.036222 -0.005902 -369041.000000 0 0 1
27.153933 -13.661998 -16.906411 34.782366 -0.466150 2.078375 0.029395 -0.004727 278402.000000 0 0 1
26.995133 -12.684598 -15.857211 33.779985 -0.439266 2.059437 0.014418 0.004685 -160686.000000 0 0 1
27.664933 -13.073498 -14.551811 33.882445 -0.441460 2.014713 0.027811 -0.006448 -369445.000000 0 0 1
27.106933 -14.217898 -13.945411 33.636423 -0.483064 1.998291 0.053644 -0.014855 210871.000000 0 0 1
27.571833 -14.300798 -12.659511 33.540752 -0.478475 1.957823 0.057143 -0.014568 -47438.500000 0 0 1
26.914933 -15.511098 -11.857111 33.250547 -0.522811 1.935421 0.058524 -0.029557 265459.000000 0 0 1
25.515133 -15.397398 -11.702811 32.016522 -0.542961 1.944992 0.040245 -0.024125 185673.000000 0 0 1
25.013333 -16.553998 -11.033811 31.960079 -0.584631 1.923288 0.032531 -0.026761 863683.000000 0 0 1
23.527833 -16.399198 -10.529311 30.550925 -0.608718 1.922660 0.045736 -0.030754 599239.000000 0 0 1
23.405233 -15.627798 -9.338211 29.651900 -0.588721 1.891177 0.039295 -0.025444 -377133.000000 0 0 1
22.083733 -15.636298 -8.919911 28.491225 -0.616106 1.889226 0.045744 -0.026612 -941626.000000 0 0 1
21.810333 -15.307298 -7.401311 27.654718 -0.611958 1.841732 0.046674 -0.023915 -336768.000000 0 0 1
21.981933 -13.929598 -7.008111 26.950931 -0.564820 1.833852 0.054169 -0.013940 388990.000000 0 0 1
21.756733 -13.693898 -5.644711 26.319974 -0.561764 1.786940 0.052803 -0.014247 -189012.000000 0 0 1
22.641533 -14.484198 -4.643111 27.276171 -0.569113 1.741855 0.045010 -0.011033 743099.000000 0 0 1
24.052633 -14.285298 -4.784611 28.381180 -0.535936 1.740189 0.049730 -0.006398 986217.000000 0 0 1
24.899033 -14.954498 -3.884511 29.303383 -0.540865 1.703750 0.047275 -0.011830 -39784.200000 0 0 1
26.397333 -14.816998 -4.216911 30.563785 -0.511482 1.709209 0.066296 -0.014742 -154032.000000 0 0 1
26.927433 -13.543998 -3.964911 30.401432 -0.466030 1.701587 0.069345 -0.012579 1075710.000000 0 0 1
28.274633 -13.308398 -4.433811 31.563064 -0.439920 1.711737 0.091450 -0.019650 1018190.000000 0 0 1
28.940833 -12.114298 -3.683311 31.589473 -0.396427 1.687661 0.110209 -0.027054 -473946.000000 0 0 1
29.419233 -12.387698 -2.375311 32.009193 -0.398541 1.645072 0.117621 -0.040485 688332.000000 0 0 1
30.004733 -11.336898 -1.592911 32.114586 -0.361256 1.620418 0.125217 -0.042802 1708670.000000 0 0 1
31.485733 -10.821198 -1.940011 33.349863 -0.331039 1.629001 0.123495 -0.032974 1284450.000000 0 0 1
31.500733 -10.118698 -3.117711 33.232580 -0.310810 1.664749 0.120658 -0.024305 67520.700000 0 0 1
32.514133 -10.644298 -3.933211 34.437481 -0.316378 1.685259 0.108444 -0.018788 -413761.000000 0 0 1
32.313833 -10.367198 -5.413211 34.365178 -0.310454 1.728975 0.104191 -0.018407 142591.000000 0 0 1
31.252233 -11.137898 -5.977111 33.711729 -0.342354 1.749039 0.099017 -0.025089 436987.000000 0 0 1
31.256933 -11.133598 -7.381311 33.991714 -0.342184 1.789690 0.083287 -0.017926 741240.000000 0 0 1
29.994933 -11.817398 -8.057811 33.230637 -0.375306 1.815719 0.081848 -0.016704 810159.000000 0 0 1
29.889533 -13.210398 -7.903511 33.620891 -0.416160 1.808095 0.083551 -0.012437 -534026.000000 0 0 1
28.661633 -13.717098 -8.294211 32.839639 -0.446371 1.826129 0.077166 -0.014805 -916291.000000 0 0 1
28.606933 -15.265198 -8.146411 33.432722 -0.490180 1.816940 0.084292 -0.025537 -51132.900000 0 0 1
29.156433 -15.948098 -9.246211 34.495389 -0.500525 1.842156 0.085739 -0.033522 355446.000000 0 0 1
29.456133 -17.334898 -9.066311 35.360436 -0.531920 1.830089 0.076261 -0.036519 -196159.000000 0 0 1
29.760033 -18.106798 -10.330111 36.334927 -0.546593 1.859075 0.070771 -0.042629 -147945.000000 0 0 1
30.906033 -17.675098 -11.038611 37.275232 -0.519500 1.871443 0.088115 -0.036249 271812.000000 0 0 1
30.947133 -18.235298 -12.342211 37.981328 -0.532470 1.901760 0.070739 -0.025806 -106122.000000 0 0 1
30.318433 -17.408798 -13.506011 37.479140 -0.521232 1.939451 0.069642 -0.030012 233327.000000 0 0 1
31.138333 -16.335898 -13.962411 37.833930 -0.483152 1.948777 0.061752 -0.021914 215840.000000 0 0 1
30.482333 -15.642198 -15.018111 37.408484 -0.474117 1.983910 0.048767 -0.021737 -1017800.000000 0 0 1
31.267033 -14.393898 -15.530011 37.762321 -0.431431 1.994629 0.042803 -0.011710 444454.000000 0 0 1
32.312033 -14.794998 -16.435611 39.154677 -0.429387 2.003978 0.029603 -0.012159 712904.000000 0 0 1
33.475133 -15.209298 -15.716211 39.986330 -0.426462 1.974731 0.046556 -0.013340 -796550.000000 0 0 1
34.643733 -15.412798 -16.694911 41.430214 -0.418600 1.985550 0.056611 -0.010853 -723518.000000 0 0 1
35.953533 -15.599598 -16.273711 42.436278 -0.409370 1.964364 0.074572 -0.013029 -37909.000000 0 0 1
-35.822156 -16.085698 -17.368511 42.937649 0.422058 1.987234 0.082028 -0.012453 63008.700000 0 0 1
-34.307856 -16.081598 -17.125311 41.580321 0.438332 1.995292 0.099594 -0.013347 59418.100000 0 0 1
-33.683156 -16.916798 -16.125811 40.997254 0.465433 1.975057 0.091796 -0.025085 446617.000000 0 0 1
-34.009956 -16.552198 -14.772111 40.606251 0.452940 1.943129 0.090372 -0.032113 -232871.000000 0 0 1
-33.323256 -17.537498 -13.788211 40.101347 0.484453 1.921793 0.090588 -0.033124 324260.000000 0 0 1
-31.912056 -17.448698 -13.693411 38.863169 0.500363 1.930877 0.085534 -0.030993 -12912.700000 0 0 1
-31.471456 -17.864498 -12.428911 38.263176 0.516286 1.901625 0.081009 -0.019093 -593129.000000 0 0 1
-29.954656 -17.895098 -12.299511 36.997215 0.538510 1.909690 0.096051 -0.022754 -509992.000000 0 0 1
-29.401856 -16.561798 -12.240311 35.896901 0.512990 1.918761 0.092871 -0.026667 743942.000000 0 0 1
-28.114856 -16.461398 -11.613811 34.587619 0.529693 1.913229 0.079337 -0.020692 463777.000000 0 0 1
-28.148056 -16.326898 -10.069011 34.062672 0.525611 1.870882 0.078423 -0.021206 -377879.000000 0 0 1
-28.693056 -17.385198 -9.391311 34.838675 0.544748 1.843738 0.077903 -0.017221 -227801.000000 0 0 1
-29.120356 -17.098598 -8.059811 34.717686 0.530932 1.805087 0.077230 -0.014123 -40238.500000 0 0 1
-29.720356 -18.363998 -7.318211 35.694428 0.553472 1.777284 0.075724 -0.011198 207091.000000 0 0 1
-30.928156 -18.942598 -7.757211 37.088370 0.549539 1.781507 0.061598 -0.009676 -20421.200000 0 0 1
-30.899956 -19.447998 -9.103211 37.628452 0.561747 1.815144 0.063742 -0.010169 8148.180000 0 0 1
-32.174456 -20.251698 -9.500811 39.186634 0.561781 1.815687 0.057795 -0.009547 334274.000000 0 0 1
-33.356256 -19.589298 -9.859011 39.919676 0.531010 1.820350 0.068089 -0.013459 72319.800000 0 0 1
-34.378256 -20.497998 -10.189211 41.301966 0.537657 1.820070 0.072877 -0.022782 1158840.000000 0 0 1
-35.808956 -19.884998 -10.506011 42.285586 0.506909 1.821880 0.073077 -0.030584 1003750.000000 0 0 1
-35.885956 -19.362398 -11.789811 42.446483 0.494788 1.852255 0.076578 -0.032248 -521208.000000 0 0 1
35.419233 -18.869298 -12.012711 41.891260 -0.489497 1.861639 0.081068 -0.039253 -516841.000000 0 0 1
35.000333 -18.791198 -13.497811 41.956207 -0.492719 1.898333 0.070322 -0.039709 -72376.400000 0 0 1
35.066633 -20.046898 -14.188411 42.811889 -0.519336 1.908597 0.060547 -0.035050 47804.300000 0 0 1
34.604933 -20.010398 -15.525811 42.883193 -0.524275 1.941261 0.050531 -0.035406 80589.400000 0 0 1
33.181433 -20.593498 -15.679811 42.082730 -0.555453 1.952600 0.069884 -0.040330 -581900.000000 0 0 1
32.244933 -19.882998 -14.911911 40.711600 -0.552553 1.945806 0.083026 -0.044029 699438.000000 0 0 1
31.015433 -20.655398 -14.748811 40.076552 -0.587521 1.947671 0.094272 -0.047293 1841570.000000 0 0 1
29.948133 -20.541398 -15.925611 39.654316 -0.601199 1.984072 0.097287 -0.040232 -152082.000000 0 0 1
29.232533 -19.333998 -15.840811 38.461354 -0.584338 1.995294 0.078537 -0.040965 85610.100000 0 0 1
28.415833 -19.185898 -17.002311 38.270574 -0.593876 2.031151 0.077793 -0.040213 -38595.500000 0 0 1
27.682333 -17.821498 -16.952511 37.031135 -0.571994 2.046305 0.073128 -0.035380 -80344.300000 0 0 1
26.597133 -17.930198 -16.050011 35.867846 -0.593159 2.034738 0.076296 -0.049455 228679.000000 0 0 1
25.902933 -16.699598 -15.928111 34.692121 -0.572640 2.047809 0.050873 -0.027013 -1176500.000000 0 0 1
24.520433 -16.717498 -15.294911 33.386534 -0.598392 2.046671 0.035349 -0.024030 -315264.000000 0 0 1
23.517633 -17.391298 -16.043711 33.360710 -0.636747 2.072496 0.034143 -0.029509 471248.000000 0 0 1
23.095033 -16.800698 -17.307311 33.394416 -0.628918 2.115623 0.045507 -0.019493 -1010040.000000 0 0 1
21.857233 -17.492898 -17.853511 33.203734 -0.674939 2.138498 0.040153 -0.015811 295635.000000 0 0 1
20.600033 -17.196498 -17.233611 31.891664 -0.695592 2.141685 0.030079 -0.018729 1133470.000000 0 0 1
19.533133 -17.850498 -17.956411 31.978372 -0.740419 2.167015 0.024400 -0.022612 1882010.000000 0 0 1
18.049533 -17.701398 -17.427211 30.705583 -0.775661 2.174334 0.031052 -0.017476 1335050.000000 0 0 1
17.410133 -16.449898 -17.644211 29.749455 -0.757047 2.205692 0.034344 -0.019202 404291.000000 0 0 1
16.026933 -16.548998 -17.348911 28.839498 -0.801423 2.216259 0.033428 -0.018725 152610.000000 0 0 1
15.148433 -15.263298 -17.300311 27.599711 -0.789175 2.248274 0.037684 -0.018144 -6385.170000 0 0 1
14.786833 -14.960198 -18.661211 28.119366 -0.791226 2.296474 0.035448 -0.008705 1089790.000000 0 0 1
13.373433 -14.691698 -18.753611 27.320187 -0.832335 2.327375 0.035612 -0.002790 979698.000000 0 0 1
12.845233 -14.252298 -20.114811 27.798087 -0.837278 2.379806 0.043928 0.002236 171932.000000 0 0 1
13.419033 -12.992998 -20.469411 27.710742 -0.769269 2.401908 0.046526 -0.002793 258243.000000 0 0 1
12.806833 -12.471598 -21.637811 28.066895 -0.772137 2.451108 0.038477 -0.004574 1682.210000 0 0 1
13.281533 -11.079798 -22.145511 28.099550 -0.695265 2.478527 0.048275 -0.008456 -14564.600000 0 0 1
14.537933 -11.088598 -22.806311 29.230743 -0.651602 2.465808 0.053311 -0.006136 167635.000000 0 0 1
14.793833 -9.798798 -23.271411 29.264868 -0.585013 2.490133 0.061591 -0.012442 190604.000000 0 0 1
16.008133 -9.764098 -24.235011 30.642025 -0.547701 2.483087 0.060364 -0.012149 77726.200000 0 0 1
15.785433 -10.245198 -25.525921 31.713036 -0.575692 2.506309 0.066298 -0.012496 318891.000000 0 0 1
16.939033 -10.244598 -26.366851 32.971100 -0.543936 2.497585 0.065921 -0.015161 35830.500000 0 0 1
22.382033 5.642302 -7.238511 24.190639 0.246945 1.874680 0.106252 0.032991 -382691.000000 0 1 0
21.949933 7.017202 -7.284811 24.168350 0.309423 1.876977 0.073576 0.023960 788701.000000 0 1 0
21.489833 7.464302 -6.028011 23.534350 0.334304 1.829820 0.070301 0.018932 -284996.000000 0 1 0
21.092533 8.957002 -5.941211 23.673209 0.401576 1.824476 0.061266 0.015579 1264400.000000 0 1 0
19.835633 9.122802 -6.714211 22.842033 0.431073 1.869144 0.007382 -0.000076 1872590.000000 0 1 0
19.538333 10.513902 -6.936111 23.246467 0.493674 1.873784 0.023298 0.004011 180771.000000 0 1 0
18.994333 11.449302 -5.816211 22.928138 0.542457 1.827270 0.035881 0.005348 -388188.000000 0 1 0
20.027633 11.646502 -4.876911 23.675543 0.526722 1.778271 0.058244 0.004846 74713.100000 0 1 0
19.709833 12.616302 -3.948811 23.732713 0.569385 1.737961 0.075732 -0.008305 277033.000000 0 1 0
20.830333 12.779202 -2.864811 24.605241 0.550280 1.687492 0.079819 -0.023111 -505802.000000 0 1 0
22.019333 13.262002 -3.388411 25.927071 0.542101 1.701861 0.083073 -0.031975 409115.000000 0 0 1
23.054933 13.446902 -2.395711 26.797174 0.528016 1.660317 0.077754 -0.036135 815638.000000 0 0 1
23.907433 12.232502 -1.871011 26.920255 0.472933 1.640354 0.075932 -0.035860 -895445.000000 0 0 1
24.987933 11.941702 -2.706811 27.826747 0.445811 1.668224 0.068270 -0.029210 -15470.500000 0 0 1
25.743833 10.942502 -2.014411 28.045340 0.401916 1.642685 0.081341 -0.028337 -258009.000000 0 0 1
27.160033 10.646502 -2.553611 29.283721 0.373583 1.658110 0.091296 -0.027511 -104891.000000 0 0 1
27.919533 11.842002 -2.291711 30.413570 0.401148 1.646219 0.078179 -0.032351 259937.000000 0 0 1
29.293133 11.453302 -2.367511 31.541573 0.372714 1.645927 0.083573 -0.027499 75868.700000 0 0 1
30.217433 12.581102 -1.946611 32.789734 0.394523 1.630198 0.065675 -0.020115 -828505.000000 0 0 1
30.133133 12.821302 -0.580411 32.752532 0.402284 1.588518 0.085903 -0.021462 745123.000000 0 0 1
31.072733 13.802502 -0.088011 34.000464 0.418020 1.573385 0.079133 -0.017649 -322738.000000 0 0 1
32.502333 13.304302 0.136589 35.120147 0.388527 1.566907 0.086282 -0.023048 -479853.000000 0 0 1
33.470933 14.285502 0.516389 36.395680 0.403397 1.556608 0.083471 -0.025957 325700.000000 0 0 1
34.300033 14.518702 -0.627111 37.251553 0.400417 1.587632 0.082224 -0.017494 -503301.000000 0 0 1
33.913633 15.649702 -1.614611 37.385219 0.432341 1.613998 0.063772 0.003019 254411.000000 0 0 1
32.779733 15.284002 -2.423611 36.248938 0.436296 1.637706 0.067666 0.002585 362308.000000 0 0 1
32.546733 16.265202 -3.419011 36.544989 0.463447 1.664490 0.058774 0.010162 -99873.400000 0 0 1
31.167633 16.150502 -4.079811 35.339849 0.478087 1.686499 0.067546 -0.001949 -416269.000000 0 0 1
31.214633 15.056202 -4.959811 35.009174 0.449424 1.712946 0.050185 -0.006771 343508.000000 0 0 1
30.084333 14.929202 -5.803511 34.082677 0.460639 1.741908 0.047837 -0.023511 254859.000000 0 0 1
28.875233 14.143802 -5.277611 32.583422 0.455474 1.733485 0.046113 -0.021295 76434.500000 0 0 1
27.745033 13.957402 -6.102911 31.651879 0.466092 1.764825 0.070685 -0.035623 1147600.000000 0 0 1
26.658633 13.256602 -5.450511 30.267611 0.461463 1.751861 0.066306 -0.019277 1282280.000000 0 0 1
25.366533 13.081702 -6.299111 29.227910 0.476134 1.788018 0.057957 -0.022137 155301.000000 0 0 1
25.769733 12.286102 -7.403711 29.493090 0.444887 1.824543 0.052943 -0.009149 178840.000000 0 0 1
24.857333 12.014302 -8.434211 28.868085 0.450223 1.867285 0.051612 -0.003522 -491665.000000 0 0 1
24.530833 13.181702 -9.421811 29.398802 0.493081 1.897035 0.058001 -0.004304 -394446.000000 0 0 1
23.764933 14.149702 -8.810811 29.027857 0.537032 1.879191 0.068961 -0.022147 -346442.000000 0 0 1
23.680333 15.304102 -9.594311 29.782956 0.573755 1.898786 0.060621 -0.025173 -693174.000000 0 0 1
22.798033 16.364602 -8.877211 29.433915 0.622578 1.877165 0.062426 -0.026133 762255.000000 0 0 1
21.404633 16.139902 -8.683511 28.179036 0.646080 1.884049 0.077587 -0.027152 788128.000000 0 0 1
21.123433 15.106502 -7.759211 27.103711 0.620824 1.861137 0.093023 -0.031757 -836609.000000 0 0 1
19.714733 14.481302 -7.894111 25.704003 0.633534 1.882957 0.112104 -0.029464 85797.100000 0 0 1
18.648933 15.148402 -7.225311 25.089079 0.682192 1.862920 0.115627 -0.046800 -534370.000000 0 0 1
17.515033 14.507302 -7.697611 24.010235 0.691747 1.897156 0.112607 -0.056898 609215.000000 0 1 0
16.204533 14.676702 -6.763511 22.885313 0.735964 1.870816 0.096860 -0.038698 1464540.000000 0 1 0
16.363533 13.983202 -5.564111 22.231835 0.707121 1.823762 0.076067 -0.033698 384670.000000 0 1 0
16.130433 14.790302 -4.441111 22.330861 0.742084 1.771009 0.081282 -0.022261 -200729.000000 0 1 0
15.645233 13.972502 -3.199111 21.218822 0.728981 1.722141 0.049340 -0.003463 -319504.000000 0 1 0
16.610933 13.129602 -2.575611 21.329400 0.668872 1.691846 0.036701 -0.012989 551354.000000 0 1 0
16.155933 12.591802 -1.365311 20.528802 0.662048 1.637353 0.016148 -0.008693 -58120.300000 0 1 0
16.288933 13.543702 -0.120811 21.184329 0.693636 1.576499 0.023968 -0.009818 -322422.000000 0 1 0
15.377933 14.620302 -0.126811 21.219098 0.760148 1.576773 0.038422 -0.010972 252096.000000 0 1 0
15.377033 15.249202 1.115689 21.684927 0.781224 1.519324 0.036383 -0.006690 -657497.000000 0 1 0
14.293533 16.279802 1.347089 21.706028 0.850274 1.508696 0.048775 0.004698 -596094.000000 0 1 0
14.515233 17.484302 0.695789 22.734927 0.877918 1.540187 0.062694 0.007283 458743.000000 0 1 0
13.473733 18.372202 1.115289 22.810593 0.938020 1.521883 0.051959 0.002873 494567.000000 0 1 0
13.291033 19.531202 0.199689 23.625395 0.973276 1.562344 0.038345 0.003750 -437997.000000 0 1 0
12.846533 19.200702 -1.085611 23.127449 0.981135 1.617754 0.041445 -0.011362 -132779.000000 0 1 0
12.401733 20.340302 -1.799511 23.890774 1.023266 1.646190 0.039759 -0.011175 321370.000000 0 1 0
10.904233 20.678302 -1.562311 23.429368 1.085527 1.637528 0.034599 -0.008820 82167.100000 0 1 0
10.457133 20.880302 -0.227911 23.353599 1.106498 1.580556 0.032550 0.004738 346656.000000 0 1 0
9.080433 20.515102 -0.080211 22.435019 1.154095 1.574372 0.026000 -0.007646 783411.000000 0 1 0
8.696533 20.361902 1.378189 22.184141 1.167150 1.508631 0.029347 -0.009365 54869.500000 0 1 0
8.642733 21.563302 2.171189 23.332100 1.189594 1.477606 0.034874 0.002979 1045910.000000 0 1 0
7.445033 21.631502 3.001489 23.072913 1.239320 1.440339 0.018793 -0.005423 1049380.000000 0 1 0
7.124433 23.095702 3.504489 24.422334 1.271583 1.426804 0.019915 0.004653 136866.000000 0 1 0
7.491833 23.220902 4.865389 24.879908 1.258707 1.373973 0.018022 0.002635 132991.000000 0 1 0
7.038833 24.455402 5.365989 26.007800 1.290548 1.362981 0.017275 0.002695 -56557.200000 0 0 1
7.728733 24.891602 6.678889 26.905997 1.269739 1.319943 0.008648 0.004437 -268566.000000 0 0 1
7.240033 24.141002 7.797689 26.382001 1.279426 1.270746 0.017000 -0.015035 181440.000000 0 0 1
7.911933 24.401102 9.000789 27.185044 1.257248 1.233334 0.021227 -0.019265 -150792.000000 0 0 1
7.401033 23.431302 10.133089 26.579704 1.264852 1.179666 0.027446 -0.013135 719585.000000 0 0 1
6.030233 23.623402 10.485489 26.540051 1.320868 1.164640 0.019324 -0.014080 446933.000000 0 0 1
5.478633 22.568902 11.253789 25.807334 1.332651 1.119570 0.028586 -0.011211 197147.000000 0 0 1
4.177033 23.122102 11.876189 26.327230 1.392073 1.102800 0.032442 -0.017947 298545.000000 0 0 1
3.097233 23.414802 10.993789 26.052048 1.439283 1.135154 0.018636 -0.012591 -194516.000000 0 0 1
1.975433 23.788802 11.726189 26.595355 1.487946 1.114183 0.022452 -0.013701 -842414.000000 0 0 1
0.756333 24.044202 10.844889 26.387635 1.539351 1.147263 0.032121 -0.008280 -675235.000000 0 0 1
0.946033 25.258202 10.085689 27.213836 1.533359 1.191132 0.028003 -0.008204 -238832.000000 0 0 1
0.173833 25.375102 8.946989 26.906776 1.563946 1.231824 0.026817 -0.008645 -254136.000000 0 0 1
-1.258867 25.914302 9.098289 27.493902 -1.522256 1.233518 0.030798 -0.012614 258152.000000 0 0 1
-2.140867 25.079102 9.846189 27.027617 -1.485638 1.197914 0.025814 -0.011194 -612199.000000 0 0 1
-3.447967 25.526102 9.789389 27.555444 -1.436533 1.207603 0.037230 -0.013925 -1105070.000000 0 0 1
-4.477867 24.597302 10.439689 27.093646 -1.390721 1.175243 0.031351 -0.014929 -151763.000000 0 0 1
-4.819167 24.705702 11.816389 27.806890 -1.378152 1.131896 0.023763 -0.006923 568239.000000 0 0 1
-5.853167 25.664202 12.062189 28.955262 -1.346564 1.141116 0.025786 -0.002730 261762.000000 0 0 1
-6.510067 25.713602 13.480589 29.753934 -1.322831 1.100591 0.027093 -0.004188 -548912.000000 0 0 1
-7.307267 24.667902 13.801489 29.195593 -1.282806 1.078416 0.020864 -0.013504 -635567.000000 0 0 1
-7.578567 24.750002 15.146289 29.990121 -1.273657 1.041365 0.015586 0.001442 712451.000000 0 0 1
-8.923467 24.100402 15.650289 30.089685 -1.216186 1.023803 0.016342 -0.009448 45334.600000 0 0 1
-10.094767 24.751002 15.365189 30.831890 -1.183539 1.049097 0.018847 -0.007755 -806870.000000 0 0 1
-11.226467 23.921302 15.485789 30.627959 -1.132002 1.040708 0.009835 -0.014536 677505.000000 0 0 1
-12.594567 24.554202 15.078689 31.446761 -1.096859 1.070713 0.010710 -0.006146 338000.000000 0 0 1
-13.273467 25.154102 16.130889 32.697390 -1.085246 1.054872 0.011621 -0.009307 -13108.000000 0 0 1
-14.074267 26.252802 15.747389 33.693840 -1.078683 1.084486 0.007803 0.000089 -426742.000000 0 0 1
-14.723867 27.026402 16.934189 35.128128 -1.071958 1.067781 0.024267 -0.000270 -190285.000000 0 0 1
-15.943967 26.486102 17.376889 35.463783 -1.028926 1.058718 0.026557 -0.004861 -224861.000000 0 0 1
-16.360367 27.178402 18.525889 36.736027 -1.028935 1.042228 0.048554 -0.008889 503802.000000 0 0 1
-17.786867 26.794902 19.033189 37.371134 -0.984770 1.036423 0.037840 -0.006509 43760.900000 0 0 1
-18.861167 27.332002 18.358089 37.944715 -0.966762 1.065792 0.035211 -0.001468 -121108.000000 0 0 1
-20.058567 26.581502 18.610389 38.147987 -0.924354 1.061174 0.053855 0.002457 512334.000000 0 0 1
-21.176867 26.932302 17.615589 38.524246 -0.904465 1.095885 0.048494 -0.004074 -386655.000000 0 0 1
-21.649167 28.255402 17.687789 39.748107 -0.917010 1.109625 0.035879 -0.006267 -88427.300000 0 0 1
-22.259067 28.578002 16.480889 39.796833 -0.909062 1.143814 0.030011 -0.001150 -480810.000000 0 0 1
-23.195867 29.803302 16.612889 41.258613 -0.909429 1.156383 0.011729 -0.005172 426180.000000 0 0 1
-24.407367 29.490802 17.295489 42.006677 -0.879436 1.146443 0.002493 -0.003623 218847.000000 0 0 1
-25.312787 30.524902 17.479989 43.336553 -0.878472 1.155617 -0.011136 -0.001089 -844918.000000 0 0 1
-26.657037 30.126502 18.014689 44.076442 -0.846422 1.149751 -0.005859 -0.001810 -487135.000000 0 0 1
-27.508027 29.247502 17.223089 43.689160 -0.816037 1.165579 0.014255 -0.003772 816519.000000 0 0 1
-28.817237 29.197902 17.790489 44.715234 -0.791960 1.161611 0.027705 -0.012230 80815.400000 0 0 1
-29.091967 28.072602 18.871889 44.615711 -0.767568 1.134057 0.017637 -0.015470 -716582.000000 0 0 1
-29.072457 26.759002 18.321389 43.553705 -0.743985 1.136621 0.020860 -0.017118 70226.200000 0 0 1
-29.243887 25.712202 19.269089 43.446749 -0.721223 1.111285 0.023685 -0.015655 -2530.120000 0 0 1
-29.287017 24.321802 18.650389 42.392410 -0.693042 1.115257 0.025071 -0.021472 -154900.000000 0 0 1
-30.453677 24.220402 17.880589 42.822538 -0.671880 1.140048 0.033579 -0.023177 -127979.000000 0 0 1
-30.264387 23.236302 16.872089 41.719614 -0.654782 1.154456 0.041751 -0.021084 -158840.000000 0 0 1
-30.749207 21.785302 17.218589 41.431786 -0.616397 1.142206 0.034357 -0.012226 360758.000000 0 0 1
-32.066137 21.412102 16.829289 42.070657 -0.588751 1.159253 0.041101 -0.011418 226429.000000 0 0 1
-32.233757 19.975402 16.708689 41.439257 -0.554782 1.155775 0.040936 -0.010866 1254820.000000 0 0 1
-33.664917 19.609402 16.113889 42.160559 -0.527443 1.178617 0.065990 -0.022260 1029550.000000 0 0 1
-33.848777 20.003902 14.740589 41.990246 -0.533760 1.212106 0.064027 -0.024795 23712.600000 0 0 1
-35.090664 19.595902 14.199489 42.626043 -0.509297 1.231188 0.076117 -0.024976 191277.000000 0 0 1
-35.395873 20.072202 12.797989 42.656179 -0.515860 1.266076 0.076164 -0.020870 9487.960000 0 0 1
-35.556867 21.467902 12.695289 43.431923 -0.543181 1.274162 0.062639 -0.027890 -113593.000000 0 0 1
-35.885352 21.995502 11.396989 43.605641 -0.549879 1.306360 0.061305 -0.020957 -632556.000000 0 0 1
-34.858311 21.893902 10.269789 42.425386 -0.560813 1.326301 0.071721 -0.022083 -349969.000000 0 0 1
-34.610197 20.545502 9.828489 41.431662 -0.535719 1.331291 0.083091 -0.021502 438185.000000 0 0 1
-33.305397 20.291502 9.307789 40.095255 -0.547197 1.336517 0.108427 -0.013691 319295.000000 0 0 1
-32.635257 19.081402 9.933389 39.087493 -0.529084 1.313846 0.093643 -0.018675 -131628.000000 0 0 1
-32.058947 19.355102 11.204389 39.088801 -0.543161 1.280079 0.084805 -0.022365 -29190.800000 0 0 1
-31.469117 18.209502 11.715989 38.198896 -0.524571 1.259062 0.074818 -0.016277 19064.300000 0 0 1
-30.971817 18.483302 13.198089 38.406711 -0.538047 1.220006 0.052489 -0.011125 -36185.400000 0 0 1
-29.904707 19.358702 13.421589 38.068227 -0.574507 1.210484 0.048725 -0.005665 -222720.000000 0 0 1
-30.290497 20.733602 13.342889 39.056743 -0.600242 1.222147 0.051363 -0.005997 186276.000000 0 0 1
-29.072397 21.702802 13.390389 38.671933 -0.641263 1.217219 0.041815 -0.012685 390555.000000 0 0 1
-28.493107 21.563702 14.658489 38.622813 -0.647842 1.181509 0.038122 -0.005026 -911126.000000 0 0 1
-27.303277 22.258502 14.811989 38.213935 -0.683960 1.172762 0.060367 -0.016039 -737331.000000 0 0 1
-26.739047 22.096502 16.231389 38.297389 -0.690618 1.133132 0.053426 -0.016440 -346180.000000 0 0 1
-26.377587 20.726802 16.534289 37.400002 -0.666006 1.112865 0.081752 -0.016651 233412.000000 0 0 1
-25.838647 20.556302 17.846389 37.532530 -0.672030 1.075274 0.064017 -0.007745 -16479.800000 0 0 1
-24.911667 19.320802 17.977789 36.291672 -0.659668 1.052536 0.062213 -0.010335 331008.000000 0 0 1
-24.019667 19.447002 19.086089 36.323671 -0.680584 1.017558 0.064005 -0.014127 545849.000000 0 0 1
-23.257167 18.233302 19.276989 35.283869 -0.664900 0.992808 0.065893 -0.010096 610288.000000 0 0 1
-22.586167 18.170602 20.702989 35.621896 -0.677480 0.950610 0.066966 -0.008082 734437.000000 0 0 1
-23.494767 17.668602 21.687989 36.531527 -0.644794 0.935174 0.076517 -0.007032 539976.000000 0 0 1
-22.875467 17.819802 22.943589 36.976217 -0.661799 0.901421 0.104873 -0.002813 537150.000000 0 0 1
-23.737667 17.142002 24.079389 37.909656 -0.625433 0.882557 0.101689 -0.009973 402416.000000 0 0 1
-23.618967 15.757502 24.029789 37.196575 -0.588340 0.868436 0.109183 -0.023541 620043.000000 0 0 1
-24.466767 15.127902 25.043689 38.140037 -0.553770 0.854462 0.093059 -0.028712 627393.000000 0 0 1
20.830233 24.373102 33.857780 46.629346 0.863615 0.758157 0.063357 -0.019497 -235850.000000 0 0 1
21.816633 23.494502 33.384283 46.286795 0.822411 0.765193 0.076288 -0.029629 -303824.000000 0 0 1
21.713333 22.139902 33.794744 45.866423 0.795125 0.742459 0.076437 -0.033810 178443.000000 0 0 1
20.604333 21.219002 33.164233 44.437044 0.800094 0.728281 0.070841 -0.041993 179807.000000 0 0 1
20.830633 20.989102 31.811437 43.432996 0.789187 0.748919 0.082714 -0.037185 97888.500000 0 0 1
19.858533 20.192402 31.141527 42.093813 0.793734 0.738005 0.087581 -0.040420 -179524.000000 0 0 1
20.352033 19.683402 29.813297 41.115377 0.768699 0.759598 0.083501 -0.026813 175622.000000 0 0 1
21.505433 18.838102 29.870217 41.347159 0.719379 0.763493 0.087039 -0.020998 54073.100000 0 0 1
21.683633 18.135402 28.635317 40.237471 0.696524 0.778941 0.068980 -0.014086 -174563.000000 0 0 1
22.893533 17.201002 28.501197 40.401814 0.644363 0.787748 0.071727 -0.008693 -40968.200000 0 0 1
24.157033 17.813202 28.579517 41.444676 0.635383 0.809884 0.061671 -0.004308 -328632.000000 0 0 1
25.111533 16.926902 29.103057 42.001155 0.593110 0.805278 0.045945 0.011954 700345.000000 0 0 1
26.560433 17.535302 29.134887 43.148407 0.583515 0.829527 0.030905 0.000343 582587.000000 0 0 1
27.307933 17.564202 27.955857 42.845704 0.571573 0.859947 0.036857 0.010135 415059.000000 0 0 1
28.645133 17.970102 28.238267 44.055282 0.560277 0.875030 0.016170 0.015100 390284.000000 0 0 1
29.611833 17.979602 27.045337 43.949710 0.545679 0.907941 0.028785 0.025000 -290989.000000 0 0 1
29.442233 18.918702 26.025987 43.613236 0.571134 0.931358 0.035250 0.025268 -37513.800000 0 0 1
30.411433 18.744302 25.018027 43.613138 0.552360 0.959859 0.039980 0.034501 -48686.700000 0 0 1
30.488433 19.935602 24.018077 43.633024 0.579094 0.987886 0.047168 0.027031 -153481.000000 0 0 1
29.293333 20.135302 23.293627 42.498503 0.602198 0.990700 0.035548 0.028875 -53280.300000 0 0 1
29.426133 20.815902 21.997427 42.226601 0.615672 1.022847 0.032348 0.020421 -270154.000000 0 0 1
30.312333 20.250302 20.846927 41.994126 0.588963 1.051321 0.066664 0.017161 -11736.800000 0 0 1
29.835233 19.073502 20.170927 40.752986 0.568813 1.053012 0.067504 -0.009188 524334.000000 0 0 1
30.640433 18.641602 19.050427 40.611134 0.546572 1.082532 0.071941 -0.012901 235708.000000 0 0 1
31.690733 17.536702 19.320327 41.050134 0.505427 1.080767 0.085858 -0.020852 -18756.600000 0 0 1
31.171733 16.266202 19.685127 40.296035 0.480955 1.060412 0.091114 -0.026467 -56792.800000 0 0 1
32.217833 15.384202 20.018727 40.931795 0.445491 1.059767 0.089100 -0.031245 -645142.000000 0 0 1
31.724033 13.975302 20.392627 40.219181 0.414949 1.039052 0.095289 -0.037962 16434.900000 0 0 1
31.198533 13.724902 21.665127 40.386868 0.414441 1.004583 0.076017 -0.042722 -122221.000000 0 0 1
30.086433 14.474002 22.050427 40.011392 0.448398 0.987110 0.061202 -0.029856 -1057160.000000 0 0 1
29.366033 13.908402 23.259727 39.960261 0.442323 0.949522 0.047337 -0.020800 -475382.000000 0 0 1
28.689433 12.761402 22.982427 38.911809 0.418531 0.938959 0.045769 -0.018977 -429541.000000 0 0 1
27.808033 12.383402 24.002787 38.765566 0.418953 0.903101 0.034502 -0.004719 -26388.400000 0 0 1
27.136333 10.984002 23.764277 37.706362 0.384613 0.888927 0.042406 -0.005445 -553680.000000 0 0 1
26.127433 10.998102 22.831027 36.398582 0.398427 0.892779 0.036467 0.005025 -587675.000000 0 0 1
25.780533 9.728302 22.443227 35.538348 0.360830 0.887282 0.031387 0.003318 -506513.000000 0 0 1
24.509033 9.620402 21.579027 34.042609 0.374046 0.884233 0.034570 0.000853 248833.000000 0 0 1
23.354933 9.562302 22.452927 33.779053 0.388613 0.843705 0.027514 0.006494 797465.000000 0 0 1
22.244333 9.206702 21.637127 32.368796 0.392423 0.838665 0.017961 0.019486 -125964.000000 0 0 1
20.853133 9.235902 22.287127 31.888416 0.416936 0.796924 0.020903 0.007998 -144164.000000 0 0 1
20.641433 8.260102 23.267627 32.181990 0.380654 0.762659 0.024854 0.017694 830356.000000 0 0 1
19.279233 8.337002 23.709407 31.675391 0.408151 0.724981 0.050053 0.012072 601726.000000 0 0 1
18.896133 7.535702 24.957377 32.198157 0.379468 0.683894 0.063173 0.009399 -293248.000000 0 0 1
18.905433 6.126102 24.799427 31.779806 0.313363 0.675568 0.057549 0.004386 289568.000000 0 0 1
18.610633 5.375102 25.980787 32.407540 0.281168 0.640680 0.068072 -0.011601 -171993.000000 0 0 1
18.957833 3.891002 25.781897 32.237331 0.202434 0.643913 0.064952 -0.014105 -329473.000000 0 0 1
20.327133 3.606502 25.834257 33.069745 0.175596 0.674202 0.067200 -0.008348 -315768.000000 0 0 1
20.585533 2.215202 25.623437 32.942857 0.107197 0.679615 0.056654 -0.014256 -280950.000000 0 0 1
22.035733 1.805102 25.309497 33.606585 0.081735 0.718018 0.042983 -0.010942 -355775.000000 0 0 1
22.847833 2.119102 26.416757 34.990843 0.092484 0.715200 0.051568 -0.017981 -1091000.000000 0 0 1
24.164833 2.039102 26.003447 35.556664 0.084184 0.750535 0.055006 -0.012644 -883042.000000 0 0 1
25.184833 2.584302 27.020177 37.027617 0.102256 0.752869 0.032509 -0.014936 -466061.000000 0 0 1
25.411333 1.748002 28.166947 37.975890 0.068680 0.735186 0.034756 -0.020832 82753.400000 0 0 1
26.061233 2.316202 29.272357 39.260967 0.088642 0.729385 0.029068 -0.009453 532259.000000 0 0 1
27.563933 2.719502 29.172917 40.227170 0.098343 0.759465 0.025169 0.000138 -157956.000000 0 0 1
27.804733 3.880502 28.381787 39.921013 0.138667 0.779950 0.023707 0.010781 120661.000000 0 0 1
29.111033 4.110602 27.890427 40.524378 0.140277 0.811738 0.028243 0.009619 209875.000000 0 0 1
29.676533 3.095602 26.831237 40.127231 0.103936 0.838399 0.040820 0.003231 -671991.000000 0 0 1
29.077533 3.147802 25.601707 38.869769 0.107836 0.851769 0.031644 0.013989 -342699.000000 0 0 1
29.457733 2.144102 24.751377 38.535514 0.072658 0.873300 0.049503 0.017448 -272595.000000 0 0 1
29.061833 2.461702 23.305327 37.333475 0.084504 0.896628 0.044375 0.015923 506515.000000 0 0 1
29.852533 3.475602 22.642827 37.629126 0.115904 0.925123 0.053616 0.012421 992057.000000 0 0 1
31.163933 3.043602 22.193727 38.379887 0.097355 0.954196 0.059252 0.003496 1233990.000000 0 0 1
32.013733 4.231102 21.650927 38.878580 0.131404 0.980165 0.062971 -0.004386 -125097.000000 0 0 1
31.562033 4.623402 20.357927 37.841551 0.145452 1.002760 0.061045 -0.007032 65671.900000 0 0 1
32.081033 5.890702 20.019727 38.271171 0.181597 1.020310 0.060391 -0.003674 30034.600000 0 0 1
33.575133 6.245002 19.859627 39.505625 0.183899 1.044073 0.046511 0.002600 130269.000000 0 0 1
34.448233 6.249502 20.990427 40.820767 0.179465 1.030711 0.051864 -0.001400 572427.000000 0 0 1
34.198633 7.268502 21.959727 41.286889 0.209422 1.009976 0.055844 -0.013582 -585022.000000 0 0 1
34.956933 6.963802 23.289727 42.578082 0.196637 0.992034 0.065494 -0.005027 120091.000000 0 0 1
34.368533 5.859102 23.972477 42.310812 0.168855 0.968446 0.065523 0.002317 92684.900000 0 0 1
35.107633 5.487402 25.081387 43.494062 0.155048 0.956159 0.068521 -0.001564 -277823.000000 0 0 1
34.371133 4.481702 25.954817 43.302574 0.129660 0.928067 0.064241 0.002626 -59235.800000 0 0 1
34.410933 3.195902 25.403757 42.891456 0.092609 0.936911 0.064513 -0.003733 237778.000000 0 0 1
33.591833 2.276702 26.129287 42.618473 0.067672 0.910821 0.059298 -0.005044 174533.000000 0 0 1
33.579433 0.853702 25.484097 42.163329 0.025418 0.921767 0.059284 -0.007433 -328091.000000 0 0 1
32.787133 0.686102 24.316447 40.825928 0.020923 0.932768 0.071810 -0.009185 -25.853700 0 0 1
32.765333 -0.692898 23.936407 40.583232 -0.021144 0.939972 0.069341 -0.010782 -409723.000000 0 0 1
31.565133 -1.137498 23.106427 39.135131 -0.036021 0.939209 0.069905 -0.009165 -1204900.000000 0 0 1
30.387533 -1.191198 23.815077 38.626144 -0.039180 0.906439 0.058315 -0.001197 -1106680.000000 0 0 1
29.555933 -2.151798 23.166327 37.614653 -0.072676 0.907287 0.072998 -0.007986 370901.000000 0 0 1
28.040733 -1.969498 23.450317 36.607089 -0.070122 0.875523 0.036540 0.005053 208073.000000 0 0 1
27.541333 -0.739898 22.891127 35.820052 -0.026859 0.877522 0.048439 0.006200 -925145.000000 0 0 1
26.165733 -0.860298 22.876327 34.766536 -0.032867 0.852639 0.036849 0.010582 -734598.000000 0 0 1
25.292733 0.423402 22.809927 34.061626 0.016738 0.837037 0.038432 0.009797 67259.200000 0 0 1
25.300733 1.011902 21.506527 33.221706 0.039974 0.866676 0.030146 0.007276 239390.000000 0 0 1
24.496133 2.179302 21.466727 32.643993 0.088732 0.853166 0.020390 0.010255 -176125.000000 0 0 1
24.731633 3.174202 20.241827 32.116363 0.127648 0.888902 0.018317 0.005576 -67937.200000 0 0 1
24.357533 2.629402 18.991527 30.998085 0.107534 0.911365 0.034564 -0.003816 213366.000000 0 0 1
23.788933 3.639402 18.179827 30.160648 0.151810 0.923833 0.022785 -0.000789 -104526.000000 0 0 1
23.489833 3.163502 16.722127 29.007060 0.133870 0.956376 0.037363 -0.008544 206374.000000 0 0 1
24.662333 2.955002 15.927027 29.506489 0.119250 1.000620 0.036370 -0.008301 498868.000000 0 0 1
24.453733 2.693202 14.560027 28.587283 0.109692 1.036404 0.033692 -0.026033 -612710.000000 0 0 1
23.752733 1.405802 14.144627 27.681024 0.059116 1.034464 0.040101 -0.005301 183976.000000 0 0 1
22.360833 1.477202 14.451727 26.665359 0.065966 0.998021 0.040952 -0.005630 478935.000000 0 0 1
21.708833 0.351102 13.947427 25.805569 0.016172 0.999787 0.046476 -0.005802 -589840.000000 0 0 1
20.168633 0.382502 13.949427 24.525631 0.018963 0.965787 0.052195 -0.026721 273604.000000 0 1 0
19.409033 1.134802 12.958127 23.364747 0.058401 0.982912 0.065620 -0.024509 834819.000000 0 1 0
19.735033 0.889802 11.566227 22.891939 0.045057 1.041121 0.086092 -0.021926 -883271.000000 0 1 0
19.378233 -0.559098 11.073927 22.326226 -0.028844 1.051804 0.080381 -0.014745 -99982.100000 0 1 0
20.330333 -1.559298 11.407927 23.364388 -0.076548 1.060700 0.087250 -0.023119 -23184.500000 0 1 0
21.483733 -1.517698 10.619927 24.013268 -0.070527 1.112688 0.079508 -0.018759 -143874.000000 0 1 0
22.599633 -2.466398 11.223527 25.353384 -0.108704 1.112207 0.088421 -0.024906 439369.000000 0 0 1
23.101833 -2.027998 12.494627 26.342421 -0.087561 1.076610 0.082832 -0.032731 351948.000000 0 0 1
23.858233 -3.066998 13.128727 27.404110 -0.127850 1.071191 0.075244 -0.024252 3949.810000 0 0 1
24.231733 -2.572198 14.495727 28.353469 -0.105754 1.034157 0.120247 -0.026286 -18352.600000 0 0 1
25.401633 -1.780098 14.466527 29.286381 -0.069964 1.054149 0.077456 -0.018632 61693.800000 0 0 1
25.725233 -1.353898 15.784127 30.211907 -0.052581 1.021078 0.067383 -0.027651 321522.000000 0 0 1
26.961433 -0.399898 15.847427 31.276504 -0.014831 1.039458 0.079983 -0.022592 518265.000000 0 0 1
28.178333 -1.086698 15.641627 32.246858 -0.038546 1.064366 0.090851 -0.023493 -217398.000000 0 0 1
29.292033 -0.276398 15.825927 33.295038 -0.009436 1.075464 0.071647 -0.017571 -619431.000000 0 0 1
30.652033 -0.902298 16.096827 34.633352 -0.029428 1.087412 0.063394 -0.009699 -149891.000000 0 0 1
31.169733 -1.579098 14.950627 34.605882 -0.050618 1.124059 0.062025 -0.000068 332084.000000 0 0 1
32.510433 -1.993598 15.163127 35.928027 -0.061245 1.135100 0.054012 -0.005410 346218.000000 0 0 1
33.231533 -2.442398 13.856727 36.087518 -0.073365 1.176698 0.051418 -0.011681 49328.200000 0 0 1
33.229833 -1.417898 12.860827 35.659965 -0.042644 1.201830 0.053250 -0.013751 148.575000 0 0 1
33.416533 -1.883298 11.505627 35.391961 -0.056299 1.239688 0.052873 -0.015228 -323076.000000 0 0 1
32.848333 -0.887198 10.527927 34.505613 -0.027002 1.260745 0.061350 -0.001780 -33863.300000 0 0 1
33.648533 0.245802 10.133127 35.142061 0.007305 1.278296 0.065120 0.000716 262486.000000 0 0 1
32.795033 1.150902 9.506827 34.164580 0.035079 1.288808 0.058140 -0.001683 -366558.000000 0 0 1
33.410633 2.479402 9.060827 34.706144 0.074074 1.306663 0.065275 0.000256 -295088.000000 0 0 1
33.847533 2.461802 7.744127 34.809301 0.072604 1.346446 0.078485 -0.005611 49948.900000 0 0 1
34.220433 3.712702 7.302227 35.187280 0.108071 1.361753 0.079888 -0.001916 -226266.000000 0 0 1
34.680833 3.770602 5.798227 35.363781 0.108298 1.406093 0.076809 -0.000199 36784.300000 0 0 1
35.230033 5.009102 5.459227 36.000687 0.141236 1.418567 0.080759 0.001738 276428.000000 0 0 1
35.666133 5.084302 4.085727 36.257638 0.141599 1.457871 0.086951 -0.012422 28622.600000 0 0 1
36.093833 6.502002 3.686227 36.859586 0.178230 1.470622 0.090526 -0.024965 63552.700000 0 0 1
34.970433 7.344302 3.556127 35.909831 0.207006 1.471604 0.099963 -0.026523 118991.000000 0 0 1
35.394533 8.648202 3.221227 36.577871 0.239642 1.482617 0.099296 -0.032602 -626893.000000 0 0 1
34.230933 9.660702 3.034127 35.697225 0.275067 1.485697 0.123164 -0.029642 460047.000000 0 0 1
33.350133 9.409502 1.934527 34.706087 0.274995 1.515027 0.138983 -0.035547 186208.000000 0 0 1
32.502833 8.313602 2.059527 33.612375 0.250412 1.509485 0.134381 -0.025572 -1415610.000000 0 0 1
31.267233 8.332202 1.157027 32.379070 0.260431 1.535055 0.153512 -0.030904 -209813.000000 0 0 1
31.533533 8.196602 -0.189373 32.581956 0.254305 1.576609 0.153090 -0.027078 -125251.000000 0 0 1
30.358233 7.874102 -0.887673 31.375336 0.253781 1.599092 0.154925 -0.027105 -395821.000000 0 0 1
30.570933 7.642802 -2.417773 31.604430 0.244981 1.647372 0.122426 -0.018059 -407486.000000 0 0 1
29.596333 6.923602 -3.154273 30.558609 0.229802 1.674201 0.124462 -0.026727 316492.000000 0 0 1
30.025133 6.611502 -4.456073 31.065691 0.216740 1.714733 0.118933 -0.025619 -255698.000000 0 0 1
29.003533 5.802702 -5.310673 30.051281 0.197462 1.748450 0.115405 -0.014114 -290617.000000 0 0 1
28.987833 4.443902 -5.020973 29.753200 0.152118 1.740362 0.118528 -0.021534 1002200.000000 0 0 1
27.888833 3.852202 -5.719973 28.728810 0.137259 1.771238 0.105668 -0.013538 30663.000000 0 0 1
27.605233 2.346402 -5.490573 28.243599 0.084795 1.766443 0.114487 -0.004504 -273146.000000 0 0 1
26.993533 2.012702 -4.222873 27.395884 0.074425 1.725556 0.103484 -0.020445 627319.000000 0 0 1
26.756933 0.627902 -4.116373 27.079000 0.023463 1.723401 0.096236 -0.018904 -96693.500000 0 0 1
26.850233 0.186402 -2.635573 26.979918 0.006942 1.668639 0.099076 -0.014067 -228221.000000 0 0 1
28.105333 0.534502 -2.122373 28.190422 0.019016 1.646155 0.116595 -0.016151 -32923.100000 0 0 1
28.065333 0.310902 -0.731573 28.076587 0.011077 1.596856 0.114020 -0.010786 133498.000000 0 0 1
29.453633 0.648002 -0.144273 29.461113 0.021997 1.575693 0.123910 -0.010383 370243.000000 0 0 1
30.515033 -0.254598 -0.480273 30.519874 -0.008343 1.586533 0.113789 -0.011169 497931.000000 0 0 1
31.697733 0.260802 0.114227 31.699011 0.008228 1.567193 0.097657 -0.016270 -144726.000000 0 0 1
-3.016167 -21.337498 -8.638911 23.216737 1.430371 1.952065 0.018887 0.007937 321894.000000 0 1 0
-3.345067 -21.851598 -7.378811 23.305121 1.418894 1.892958 0.022678 -0.000016 -283851.000000 0 1 0
-2.476267 -22.910798 -7.068311 24.103892 1.463131 1.868414 0.027612 -0.000064 189687.000000 0 1 0
-2.879067 -23.581398 -5.751211 24.442745 1.449307 1.808317 0.026965 0.003257 -119347.000000 0 1 0
-2.961567 -22.687898 -4.613711 23.340907 1.440995 1.769773 0.026415 -0.004240 64144.100000 0 1 0
-3.509267 -23.445098 -3.533611 23.968187 1.422219 1.718765 0.028517 -0.002875 -98138.500000 0 1 0
-3.143667 -22.818798 -2.183611 23.137596 1.433892 1.665312 0.025112 -0.006610 593753.000000 0 1 0
-1.755867 -22.922198 -1.854411 23.064021 1.494344 1.651286 0.035973 -0.008945 -130441.000000 0 1 0
-1.507767 -22.489798 -0.554111 22.547094 1.503854 1.595375 0.039514 -0.018789 -723050.000000 0 1 0
-0.082167 -22.561198 -0.055511 22.561416 1.567154 1.573257 0.038011 -0.020400 -776952.000000 0 1 0
0.792233 -21.711998 -0.745811 21.739244 -1.534324 1.605110 0.019689 -0.016653 446935.000000 0 1 0
2.041433 -21.585298 -0.026911 21.681635 -1.476502 1.572038 0.020709 -0.015202 1402300.000000 0 1 0
3.007833 -20.434098 -0.478111 20.659817 -1.424649 1.593940 0.019671 -0.007681 705829.000000 0 1 0
3.700133 -20.605398 -1.675511 21.001923 -1.393119 1.650660 0.015443 -0.009763 188649.000000 0 1 0
4.705233 -19.636498 -2.040711 20.295216 -1.335614 1.671518 0.022523 -0.008265 555450.000000 0 1 0
5.493133 -20.077598 -3.313811 21.077614 -1.303737 1.728671 0.023699 -0.006091 -661459.000000 0 1 0
6.370533 -21.118798 -2.954311 22.255680 -1.277824 1.703933 0.031552 -0.009856 -126211.000000 0 1 0
7.092633 -21.725898 -4.027911 23.206554 -1.255245 1.745248 0.036015 -0.012999 182664.000000 0 1 0
8.295633 -21.021098 -4.662011 23.074628 -1.194925 1.774237 0.057126 -0.011943 -548891.000000 0 1 0
7.974533 -19.948298 -5.490711 22.173761 -1.190497 1.821021 0.037436 -0.005379 -1134570.000000 0 1 0
9.132933 -19.504398 -6.052111 22.370965 -1.132870 1.844744 0.054850 -0.003688 -1200690.000000 0 1 0
8.999033 -18.097098 -6.654111 21.278270 -1.109340 1.888850 0.039832 -0.009816 8039.270000 0 1 0
9.829033 -17.916198 -7.786611 21.868502 -1.069020 1.934850 0.049945 -0.003261 256174.000000 0 1 0
9.706933 -16.583798 -8.313511 20.937081 -1.041236 1.979120 0.046115 -0.006966 -25113.400000 0 1 0
10.114033 -16.455998 -9.781311 21.651041 -1.019703 2.039546 0.048252 -0.013842 -322209.000000 0 1 0
9.255433 -16.985198 -10.752111 22.130700 -1.071868 2.078127 0.045044 -0.019873 -142260.000000 0 1 0
9.220933 -16.306398 -11.985311 22.238973 -1.056146 2.139966 0.045338 -0.020538 258570.000000 0 1 0
8.457033 -17.229498 -13.033711 23.200316 -1.114499 2.167345 0.054189 -0.022831 58184.700000 0 1 0
7.098733 -17.419598 -12.732511 22.714560 -1.183829 2.165839 0.047037 -0.028032 -295592.000000 0 1 0
6.488733 -17.778298 -13.946611 23.509137 -1.220839 2.205877 0.054391 -0.021397 -333109.000000 0 1 0
5.331133 -18.767198 -13.809011 23.902249 -1.294021 2.186739 0.059973 -0.012761 -184734.000000 0 1 0
5.737733 -20.062998 -13.506311 24.856909 -1.292246 2.145234 0.064045 -0.012954 -38913.400000 0 1 0
4.585833 -20.795998 -13.140311 25.023413 -1.353755 2.123653 0.081689 -0.016809 304164.000000 0 0 1
4.902033 -22.171198 -12.497511 25.918714 -1.353198 2.073939 0.069356 -0.014222 252614.000000 0 0 1
5.464633 -23.104998 -13.451411 27.288159 -1.338551 2.086261 0.081494 -0.019603 -4483.670000 0 0 1
5.189333 -24.467098 -13.156111 28.260420 -1.361799 2.055031 0.070055 -0.023496 663268.000000 0 0 1
3.795133 -25.014398 -13.630711 28.738814 -1.420227 2.064961 0.070785 -0.013440 994363.000000 0 0 1
2.699633 -24.510298 -12.827711 27.795556 -1.461096 2.050484 0.077623 -0.016044 486740.000000 0 0 1
1.413433 -24.886898 -13.279511 28.243600 -1.514063 2.060288 0.065420 -0.021002 224045.000000 0 0 1
0.962833 -26.243118 -12.790311 29.209936 -1.534124 2.024030 0.053129 -0.010091 -701650.000000 0 0 1
1.384633 -27.291758 -13.684311 30.561702 -1.520105 2.035055 0.056150 -0.004161 276061.000000 0 0 1
0.925833 -28.604658 -13.283711 31.552189 -1.538441 2.005352 0.058081 -0.007772 565321.000000 0 0 1
-0.498767 -29.041638 -13.746311 32.134508 1.553624 2.012825 0.051092 -0.012902 1709300.000000 0 0 1
-1.651767 -28.380158 -13.166111 31.329031 1.512660 2.004520 0.043442 -0.017065 888428.000000 0 0 1
-2.908667 -28.862618 -13.568611 32.025276 1.470359 2.008305 0.041696 -0.017106 -430162.000000 0 0 1
-4.089567 -28.042308 -13.039311 31.194859 1.425982 2.002034 0.028232 -0.023889 -199036.000000 0 0 1
-4.306967 -28.099418 -11.611011 30.707375 1.418704 1.958559 0.028134 -0.022359 -134523.000000 0 0 1
-4.887667 -29.303028 -11.252411 31.767491 1.405521 1.932867 0.017610 -0.028016 -1126750.000000 0 0 1
-5.255467 -29.544198 -9.768611 31.557968 1.394753 1.885511 0.028291 -0.028050 498687.000000 0 0 1
-6.521267 -29.097988 -9.253711 31.222604 1.350325 1.871695 0.027833 -0.018649 425040.000000 0 0 1
-6.790367 -27.733128 -9.313511 30.032932 1.330674 1.886105 0.025704 -0.016070 -1401590.000000 0 0 1
-8.251867 -27.365338 -8.999811 29.965841 1.277923 1.875841 0.020356 -0.013184 561033.000000 0 0 1
-9.259467 -27.583058 -10.008311 30.768964 1.246923 1.902097 0.035034 -0.017231 439036.000000 0 0 1
-9.334267 -28.893128 -10.538711 32.140408 1.258318 1.904872 0.033888 -0.023805 -535241.000000 0 0 1
-10.747967 -29.170348 -11.165811 33.031854 1.217776 1.915621 0.043860 -0.023587 319879.000000 0 0 1
-10.935567 -28.413588 -12.302411 32.836991 1.203400 1.954817 0.051607 -0.027090 410425.000000 0 0 1
-11.819767 -29.028978 -13.257211 34.031487 1.184123 1.970947 0.053124 -0.030689 -23508.800000 0 0 1
-11.938767 -28.129308 -14.521911 33.833091 1.169413 2.014428 0.057595 -0.026477 -868671.000000 0 0 1
-12.959267 -27.199928 -14.631411 33.494132 1.126170 2.022874 0.046366 -0.031884 -449801.000000 0 0 1
-12.975967 -26.141038 -13.661311 32.223610 1.110046 2.008602 0.057801 -0.020039 245544.000000 0 0 1
-13.943967 -24.924498 -13.969811 31.793403 1.060728 2.025720 0.083001 -0.016589 201676.000000 0 0 1
-13.605867 -24.094498 -15.050011 31.498687 1.056747 2.068943 0.067556 -0.013604 -57040.300000 0 0 1
-14.661267 -23.192998 -15.286911 31.409514 1.007078 2.079101 0.075102 -0.011207 -263974.000000 0 0 1
-14.550467 -22.419198 -16.585311 31.454874 0.995112 2.126185 0.066492 -0.006364 60523.100000 0 0 1
-13.770967 -21.231298 -16.540511 30.232368 0.995394 2.149707 0.049626 0.002265 319827.000000 0 0 1
-13.441167 -20.717898 -17.844611 30.468450 0.995286 2.196509 0.035426 0.008476 -123669.000000 0 0 1
-13.331167 -19.149198 -17.912711 29.415592 0.962643 2.225536 0.037802 0.005017 689920.000000 0 0 1
-12.143967 -18.466398 -17.448611 28.159152 0.989079 2.239084 0.031701 0.012390 699965.000000 0 0 1
-12.202667 -17.128098 -17.823311 27.567141 0.951773 2.273839 0.031714 0.009637 -976831.000000 0 0 1
-10.882667 -16.449398 -18.004711 26.705520 0.986320 2.310670 0.025576 0.007011 -986638.000000 0 0 1
-10.324867 -16.064898 -16.734911 25.391752 0.999572 2.290376 0.026752 0.014209 -361067.000000 0 0 1
-9.094567 -15.441598 -16.963911 24.676474 1.038530 2.328772 0.017324 0.008720 -723527.000000 0 1 0
-8.394867 -14.811098 -15.723811 23.175001 1.055150 2.316490 0.011772 0.011713 100230.000000 0 1 0
-7.940467 -15.699998 -14.697211 22.924855 1.102550 2.266732 0.020928 0.013030 111939.000000 0 1 0
-6.719867 -16.358098 -14.995711 23.186534 1.181016 2.274102 0.015066 0.006989 -555456.000000 0 1 0
-6.196567 -17.215298 -13.882811 22.967289 1.225289 2.219884 0.019094 0.008723 -857829.000000 0 1 0
-5.675767 -16.442098 -12.855211 21.628994 1.238407 2.207255 0.019739 -0.002114 -72069.900000 0 1 0
-5.527767 -17.270098 -11.653511 21.554972 1.261023 2.141996 0.020897 -0.008311 282460.000000 0 1 0
-4.430667 -18.394398 -11.656811 22.223095 1.334428 2.122966 0.026662 -0.006965 260718.000000 0 1 0
-3.122767 -17.844098 -11.677811 21.553069 1.397548 2.143393 0.028961 -0.004012 -462569.000000 0 1 0
-2.188967 -18.898998 -11.574211 22.269398 1.455486 2.117338 0.016472 0.003795 -400524.000000 0 1 0
-0.838267 -18.585798 -12.184011 22.239261 1.525724 2.150601 0.019261 0.011842 -1169530.000000 0 1 0
-0.991467 -18.302298 -13.566711 22.803789 1.516677 2.207978 0.026272 0.010666 771474.000000 0 1 0
0.174333 -17.562298 -14.064511 22.500560 -1.560870 2.246022 0.021432 -0.000953 784756.000000 0 1 0
1.491133 -18.327298 -14.206511 23.236572 -1.489614 2.228607 0.034247 -0.006181 -883650.000000 0 1 0
1.612233 -19.402198 -15.140111 24.663081 -1.487891 2.231760 0.057900 -0.004982 23484.300000 0 1 0
0.828733 -20.526698 -14.766611 25.299900 -1.530445 2.194029 0.054620 -0.003970 -580410.000000 0 0 1
0.868133 -21.560098 -15.929211 26.820352 -1.530552 2.206722 0.063190 -0.006030 1702440.000000 0 0 1
2.123833 -22.264898 -16.231311 27.634975 -1.475695 2.198573 0.092437 -0.006182 1702440.000000 0 0 1
3.256833 -21.529198 -16.663111 27.418472 -1.420660 2.223999 0.091799 -0.008816 97260.700000 0 0 1
4.578733 -22.298398 -16.777411 28.278347 -1.368272 2.205943 0.091233 -0.012385 -1646.990000 0 0 1
4.710333 -22.870298 -18.049011 29.512787 -1.367678 2.228834 0.067696 0.002751 -239069.000000 0 0 1
5.944833 -23.531798 -18.110011 30.282983 -1.323344 2.211832 0.070000 0.000720 -228280.000000 0 0 1
6.464533 -23.488998 -19.536211 31.227981 -1.302230 2.246696 0.068990 0.002564 -181060.000000 0 0 1
6.726233 -22.184998 -19.888711 30.544675 -1.276417 2.279875 0.084582 -0.012923 -27777.600000 0 0 1
7.136633 -22.092798 -21.261511 31.481346 -1.258347 2.312261 0.063513 -0.005063 141373.000000 0 0 1
7.342533 -20.624598 -21.817611 30.907847 -1.228779 2.354478 0.059833 -0.008892 8203.310000 0 0 1
6.178933 -19.874998 -22.093011 30.352857 -1.269379 2.386011 0.084435 -0.015406 -188588.000000 0 0 1
6.425833 -18.555798 -22.414111 29.799352 -1.237423 2.422142 0.089272 -0.013660 378516.000000 0 0 1
5.113933 -17.820598 -22.816711 29.399462 -1.291338 2.459243 0.085695 -0.013843 -144469.000000 0 0 1
4.326933 -18.371798 -23.853611 30.417759 -1.339491 2.472202 0.081979 -0.014657 319791.000000 0 0 1
3.199533 -17.667298 -24.327311 30.235550 -1.391639 2.505786 0.091096 -0.005923 1050860.000000 0 0 1
2.006433 -17.446798 -23.314011 29.188348 -1.456296 2.496001 0.079174 0.001062 187786.000000 0 0 1
2.301833 -16.430398 -22.411211 27.884024 -1.431606 2.504333 0.091719 -0.011825 -5087.760000 0 0 1
1.060733 -16.003498 -21.897811 27.143162 -1.504612 2.509432 0.079390 -0.006035 331378.000000 0 0 1
1.239133 -15.152798 -20.613011 25.613258 -1.489202 2.506099 0.082593 -0.014941 -372322.000000 0 0 1
2.130533 -14.083198 -20.702811 25.129306 -1.420653 2.538969 0.087443 -0.016712 -317774.000000 0 0 1
2.219233 -13.257998 -19.545811 23.722105 -1.404946 2.539142 0.086970 -0.022696 140526.000000 0 1 0
3.487433 -12.373698 -19.588111 23.429996 -1.296080 2.560798 0.085544 -0.016735 -754188.000000 0 1 0
4.664333 -13.069998 -19.326411 23.792667 -1.228012 2.518854 0.074757 -0.011826 816170.000000 0 1 0
5.889733 -12.253098 -19.362411 23.658621 -1.122730 2.529432 0.067939 -0.012333 1567120.000000 0 1 0
6.058933 -10.985898 -18.411311 22.279520 -1.066788 2.543442 0.061654 -0.008340 -843724.000000 0 1 0
5.207633 -9.893898 -18.647311 21.742375 -1.086293 2.601475 0.046108 0.005350 -209974.000000 0 1 0
5.588033 -9.043098 -19.707811 22.391998 -1.017295 2.646927 0.058262 0.006156 248534.000000 0 1 0
4.652733 -9.135198 -20.972311 23.343899 -1.099721 2.686924 0.066926 -0.015748 1001180.000000 0 1 0
3.262233 -8.895798 -20.759211 22.819339 -1.219308 2.713406 0.059950 -0.017868 179506.000000 0 1 0
2.475333 -9.155498 -21.896511 23.862264 -1.306744 2.732849 0.065337 -0.022931 414167.000000 0 1 0
0.974133 -8.870498 -21.652311 23.419164 -1.461417 2.750663 0.044619 -0.031606 190411.000000 0 1 0
0.693033 -7.460498 -21.475711 22.745230 -1.478169 2.805909 0.043248 -0.029771 746608.000000 0 1 0
-0.713667 -7.180698 -21.643111 22.814382 1.471735 2.819771 0.036297 -0.025594 1159800.000000 0 1 0
-1.126867 -6.261898 -22.819211 23.689609 1.392746 2.869677 0.036955 -0.022651 189620.000000 0 1 0
-0.481067 -6.682598 -24.027911 24.944520 1.498932 2.869662 0.034820 -0.021676 -141448.000000 0 1 0
-0.982867 -6.118798 -25.221741 25.971945 1.411526 2.900656 0.033468 -0.019747 65805.600000 0 0 1
-0.670467 -4.611498 -25.506571 25.928760 1.426418 2.960888 0.048061 -0.024714 -16563.200000 0 0 1
-1.033267 -4.102298 -26.791331 27.123273 1.324054 2.984983 0.029418 -0.017864 -216444.000000 0 0 1
-0.588167 -2.814398 -27.205911 27.357419 1.364776 3.036301 0.019969 -0.012273 -606188.000000 0 0 1
-1.067967 -1.550698 -26.434731 26.501702 0.967694 3.070485 0.025806 -0.017211 77821.200000 0 0 1
-2.467467 -1.373898 -26.439901 26.590306 0.508053 3.035181 0.017310 -0.012975 -189315.000000 0 0 1
-3.064667 -0.827798 -27.572741 27.754882 0.263815 3.026966 0.025623 -0.012883 -963462.000000 0 0 1
-4.578067 -0.954198 -27.539461 27.933691 0.205486 2.973388 0.039534 -0.014252 -640182.000000 0 0 1
-5.192667 0.096602 -26.841741 27.339572 -0.018601 2.950466 0.045633 -0.020025 -361541.000000 0 0 1
-6.498767 -0.246498 -26.458991 27.246522 0.037912 2.900577 0.051170 -0.022914 -548913.000000 0 0 1
-7.277667 0.864002 -25.705121 26.729463 -0.118167 2.863852 0.049295 -0.018842 -712831.000000 0 0 1
-7.613767 2.058002 -26.430251 27.581932 -0.263991 2.851597 0.052531 -0.024501 253784.000000 0 0 1
-8.561467 1.942802 -27.478331 28.846696 -0.223145 2.832350 0.070854 -0.031445 189328.000000 0 0 1
-9.974367 1.415602 -27.123101 28.933623 -0.140982 2.785956 0.074187 -0.021031 -576015.000000 0 0 1
-11.004467 1.858102 -27.958181 30.103334 -0.167272 2.761797 0.080686 -0.036170 436573.000000 0 0 1
-12.335867 1.547302 -27.575391 30.248470 -0.124779 2.718027 0.054526 -0.021756 -234694.000000 0 0 1
-13.355167 1.991902 -28.570831 31.600958 -0.148057 2.700095 0.047114 -0.019079 -935601.000000 0 0 1
-14.643367 1.629902 -28.114071 31.740916 -0.110850 2.658873 0.040549 -0.012436 -229427.000000 0 0 1
-15.719567 2.110302 -28.866751 32.937023 -0.133449 2.639178 0.031056 -0.011230 -61804.200000 0 0 1
-16.322867 3.429102 -28.275361 32.828201 -0.207068 2.608645 0.014075 0.004589 -517300.000000 0 0 1
-15.597867 4.635402 -28.444801 32.770217 -0.288869 2.621972 0.023953 -0.002974 -34951.400000 0 0 1
-15.594167 5.134202 -29.827571 34.047351 -0.318061 2.638429 0.018907 -0.011499 81912.600000 0 0 1
-16.939967 5.631702 -30.443271 35.291236 -0.320956 2.611242 -0.005499 0.001044 430517.000000 0 0 1
-17.516067 6.742602 -29.722451 35.152516 -0.367455 2.578350 -0.005844 0.011516 171671.000000 0 0 1
-18.161267 7.611602 -30.617871 36.403601 -0.396873 2.570049 -0.004401 0.005058 -47058.700000 0 0 1
-18.893567 8.793002 -29.890791 36.438210 -0.435584 2.532757 -0.006786 0.008766 -66638.600000 0 0 1
-17.975167 9.792702 -29.557661 35.953567 -0.498835 2.535897 -0.005760 0.009470 235778.000000 0 0 1
-18.691267 10.826502 -28.937011 36.109932 -0.525006 2.500360 0.011924 -0.003201 -128134.000000 0 0 1
-8.732467 24.768102 31.337367 40.886983 -1.231835 0.697518 0.010901 -0.002292 302266.000000 0 0 1
-9.641267 25.851402 30.964537 41.473504 -1.213825 0.727845 0.015721 -0.006553 646514.000000 0 0 1
-9.535467 26.992102 31.863757 42.834539 -1.231212 0.731939 0.036039 -0.013756 152100.000000 0 0 1
-8.212267 27.814202 31.939067 43.141339 -1.283699 0.737227 0.030508 -0.017278 107984.000000 0 0 1
-8.004567 28.704402 30.917167 42.940505 -1.298843 0.766994 0.039227 -0.004907 270530.000000 0 0 1
-6.707367 28.555002 30.363167 42.217281 -1.340086 0.768129 0.031981 -0.002772 172530.000000 0 0 1
-6.349067 29.675202 29.363337 42.227169 -1.360022 0.801867 0.051558 -0.012687 -158025.000000 0 0 1
-6.239467 30.962602 29.964237 43.536986 -1.371943 0.811725 0.057351 -0.007458 270587.000000 0 0 1
-5.759667 31.927002 29.082837 43.569698 -1.392315 0.839948 0.070137 0.001027 -141189.000000 0 0 1
-6.160367 33.269502 29.630477 44.975271 -1.387704 0.851551 0.058883 -0.004718 145780.000000 0 0 1
-5.461867 33.505902 30.890937 45.899101 -1.409206 0.832514 0.066933 -0.011766 482758.000000 0 0 1
-6.100867 -34.017834 31.735027 46.920630 1.393340 0.827993 0.070701 -0.004430 942265.000000 0 0 1
-7.369167 33.946202 32.487984 47.561732 -1.357029 0.818839 0.048096 -0.006281 584577.000000 0 0 1
-7.155467 33.308802 33.703710 47.923033 -1.359190 0.790784 0.053008 -0.005281 -29573.200000 0 0 1
-7.290667 31.908002 33.392998 46.758601 -1.346162 0.775377 0.060954 0.000039 -104903.000000 0 0 1
-7.039467 30.998402 -33.891971 46.466340 -1.347492 2.388223 0.054406 -0.003277 108881.000000 0 0 1
-5.686967 30.976002 -33.468351 45.956336 -1.389226 2.386582 0.053451 -0.006224 67031.900000 0 0 1
-5.627867 30.467202 -32.130121 44.634829 -1.388136 2.374374 0.065132 -0.011603 417583.000000 0 0 1
-4.185367 30.169002 -31.567651 43.865733 -1.432945 2.374084 0.063612 -0.017897 1044460.000000 0 0 1
-3.578567 28.952902 -31.959281 43.272073 -1.447820 2.401737 0.062522 -0.012610 27403.000000 0 0 1
-3.095467 28.953102 -33.262191 44.206757 -1.464288 2.422530 0.053803 -0.014292 -797344.000000 0 0 1
-2.581867 27.568602 -33.686331 43.605765 -1.477416 2.453597 0.052017 -0.019725 -627760.000000 0 0 1
-1.341967 27.264902 -33.072011 42.882790 -1.521616 2.451550 0.076150 -0.014978 227602.000000 0 0 1
-0.739667 26.004902 -33.292741 42.251729 -1.542361 2.478288 0.082959 -0.012628 164351.000000 0 0 1
-0.250867 25.679902 33.822935 42.467767 -1.561028 0.649415 0.064533 -0.006388 -179771.000000 0 0 1
-1.351267 25.352702 32.959753 41.604456 -1.517548 0.656363 0.066566 -0.002228 581876.000000 0 0 1
-1.014067 25.134702 31.622747 40.407669 -1.530473 0.671977 0.072739 -0.002725 -445860.000000 0 0 1
-0.637167 26.485002 30.871697 40.680745 -1.546743 0.709209 0.047556 -0.006095 -352740.000000 0 0 1
-1.647067 27.435402 30.730817 41.228597 -1.510834 0.729697 0.040805 -0.010785 -447753.000000 0 0 1
-1.104567 28.561302 30.181357 41.567804 -1.532142 0.758199 0.036546 -0.016510 270821.000000 0 0 1
-2.076467 29.805902 30.225047 42.500082 -1.501242 0.779626 0.045926 -0.007930 490886.000000 0 0 1
-2.246967 30.263202 31.563757 43.785625 -1.496685 0.765739 0.056133 -0.013781 -87358.900000 0 0 1
-3.086067 31.398202 31.609417 44.660118 -1.472823 0.784449 0.049762 -0.009129 -104326.000000 0 0 1
-2.891667 32.119002 32.961199 46.113259 -1.481009 0.774476 0.063020 -0.002906 338080.000000 0 0 1
-1.536367 32.523002 32.942115 46.317265 -1.523592 0.779553 0.071604 -0.022133 -262030.000000 0 0 1
-1.130267 32.912902 34.224478 47.495805 -1.536469 0.766159 0.054701 -0.019090 822698.000000 0 0 1
0.372233 33.382002 -34.195977 47.789763 1.559646 2.368208 0.059041 -0.021937 999684.000000 0 0 1
0.479933 -33.812134 33.825837 47.829677 -1.556603 0.785246 0.071286 -0.015435 -88050.700000 0 0 1
1.806833 -33.418734 33.574611 47.406022 -1.516782 0.783801 0.051441 -0.010031 -220866.000000 0 0 1
2.026233 -31.974634 33.190580 46.131307 -1.507511 0.767742 0.061716 -0.014903 5727.550000 0 0 1
1.641233 -31.104434 -34.248381 46.293964 -1.518080 2.403573 0.063004 -0.011851 319290.000000 0 0 1
1.874133 -29.782534 33.827254 45.108700 -1.507952 0.722877 0.046560 -0.010325 -197750.000000 0 0 1
1.571533 -28.718034 -33.646991 44.264153 -1.516128 2.434326 0.053021 -0.010159 -663131.000000 0 0 1
0.197933 -28.790134 -33.464871 44.145312 -1.563921 2.431132 0.047348 -0.013130 -859139.000000 0 0 1
-0.315667 -27.929534 -32.508181 42.859542 1.559495 2.431777 0.051546 -0.015645 -239265.000000 0 0 1
-1.854867 -27.901834 -32.496051 42.871275 1.504416 2.431024 0.072448 -0.010051 -172839.000000 0 0 1
-2.277767 -27.211034 -31.364111 41.585287 1.487284 2.425249 0.069085 -0.017678 -486917.000000 0 0 1
-3.465867 -26.503534 -31.528431 41.333903 1.440764 2.438389 0.082620 -0.022212 -482052.000000 0 0 1
-3.960167 -25.866834 -30.207351 39.965736 1.418878 2.427719 0.076112 -0.029214 -181806.000000 0 0 1
-4.561067 -26.780934 -29.283501 39.944276 1.402105 2.393678 0.078018 -0.032257 100068.000000 0 0 1
-4.746967 -26.304334 -27.949141 38.673068 1.392255 2.378501 0.076598 -0.033311 228017.000000 0 0 1
-3.443067 -25.977234 -27.169131 37.746961 1.439023 2.374267 0.075747 -0.034759 256032.000000 0 0 1
-2.858167 -24.720534 -27.547391 37.123209 1.455688 2.406924 0.067348 -0.030724 -201285.000000 0 0 1
-1.637567 -24.555534 -26.897181 36.457019 1.504207 2.400569 0.054502 -0.026985 -1225540.000000 0 0 1
-0.782467 -23.329134 -27.364731 35.967892 1.537269 2.435357 0.057912 -0.021780 456254.000000 0 0 1
-0.096567 -23.550834 -28.595431 37.045240 1.566696 2.452630 0.041805 -0.025365 890346.000000 0 0 1
0.885733 -24.627834 -28.602731 37.754880 -1.534847 2.430410 0.048209 -0.022351 608487.000000 0 0 1
1.967533 -24.722234 -29.754551 38.734911 -1.491378 2.446756 0.020182 -0.022152 499427.000000 0 0 1
3.020933 -23.795534 -29.712051 38.185854 -1.444518 2.462417 0.027283 -0.022750 112029.000000 0 0 1
3.759033 -23.981534 -30.933531 39.320830 -1.415314 2.476235 0.035059 -0.015577 -1716090.000000 0 0 1
4.791333 -22.889834 -31.076741 38.892997 -1.364454 2.496480 0.042236 -0.022208 -384331.000000 0 0 1
6.004333 -23.041134 -30.278861 38.519544 -1.315874 2.475213 0.037164 -0.027052 1527650.000000 0 0 1
6.832733 -24.174534 -30.533201 39.539483 -1.295340 2.453125 0.046188 -0.016454 -814991.000000 0 0 1
7.378633 -24.289534 -31.924281 40.787074 -1.275877 2.469798 0.043566 -0.015744 -1040990.000000 0 0 1
6.446333 -25.036534 -32.706521 41.690524 -1.318793 2.472698 0.014387 -0.016602 323113.000000 0 0 1
6.640333 -24.910434 -34.086207 42.737492 -1.310286 2.494055 0.027455 -0.014872 -128711.000000 0 0 1
6.202133 -23.580534 33.792644 41.670743 -1.313602 0.625032 0.036858 -0.011856 -953558.000000 0 0 1
4.828133 -23.447134 33.905609 41.505051 -1.367719 0.614775 0.045502 -0.012924 -806643.000000 0 0 1
4.312633 -22.376534 33.125077 40.206701 -1.380401 0.602592 0.064655 -0.021683 785043.000000 0 0 1
2.851333 -21.973434 33.588645 40.238775 -1.441755 0.583148 0.044923 -0.015966 1116990.000000 0 0 1
1.786233 -22.846434 33.293047 40.417535 -1.492771 0.602842 0.051249 -0.016151 54787.900000 0 0 1
1.689233 -24.045734 34.015226 41.690364 -1.500661 0.616510 0.042689 -0.009809 -438843.000000 0 0 1
0.423633 -24.865134 33.681746 41.867820 -1.553761 0.636000 0.051770 -0.007067 58844.900000 0 0 1
0.416533 -25.462634 32.398707 41.209167 -1.554439 0.666158 0.050808 -0.009445 126457.000000 0 0 1
-0.879267 -25.911834 32.042147 41.217659 1.536876 0.680292 0.055194 -0.018178 141352.000000 0 0 1
-0.972967 -26.566634 30.665777 40.584758 1.534189 0.714229 0.053121 -0.038509 -1393700.000000 0 0 1
-2.245167 -26.809234 30.255027 40.486324 1.487245 0.726822 0.067439 -0.036723 -1275660.000000 0 0 1
-2.371867 -27.990834 29.474037 40.716476 1.486261 0.761380 0.063875 -0.037472 219511.000000 0 0 1
-3.774767 -28.104334 28.807417 40.422391 1.437283 0.777514 0.070362 -0.024819 302386.000000 0 0 1
-4.833667 -28.326834 29.724357 41.343818 1.401785 0.768498 0.071782 -0.018039 244933.000000 0 0 1
-5.925167 -28.874734 29.010737 41.357959 1.368403 0.793360 0.048802 -0.016824 -8482.190000 0 0 1
-7.124567 -29.388634 29.846777 42.488603 1.332959 0.791941 0.047740 -0.011458 78402.700000 0 0 1
-8.224967 -29.842234 29.050527 42.451645 1.301858 0.817125 0.062548 -0.014495 1563160.000000 0 0 1
-9.393667 -30.222534 29.845847 43.501921 1.269446 0.814708 0.059143 -0.014181 901769.000000 0 0 1
-9.196967 -31.489134 30.746907 44.961340 1.286632 0.817767 0.036821 0.001383 -784756.000000 0 0 1
-9.066667 -32.774634 30.133997 45.436097 1.300909 0.845687 0.047797 -0.003945 -134756.000000 0 0 1
-10.131267 -33.228934 29.357657 45.482707 1.274857 0.869160 0.044372 -0.002937 -600723.000000 0 0 1
-9.979667 33.868202 28.973647 45.674074 -1.284244 0.883620 0.050816 -0.004636 -358389.000000 0 0 1
-10.202667 33.019902 30.090017 45.823765 -1.271117 0.854433 0.052968 0.001291 299483.000000 0 0 1
-10.017767 31.651202 29.737737 44.570026 -1.264267 0.840334 0.052061 -0.005217 -212118.000000 0 0 1
-10.707967 30.702102 30.701347 44.719708 -1.235218 0.814093 0.048948 0.004872 -257387.000000 0 0 1
-12.116167 30.691402 30.576977 44.985722 -1.194803 0.823437 0.043252 0.015698 14689.500000 0 0 1
-12.719467 29.539902 31.115377 44.749942 -1.164204 0.801936 0.037787 0.009228 -72020.600000 0 0 1
-12.763967 29.383402 32.669071 45.755561 -1.160996 0.775614 0.041187 -0.004065 -441357.000000 0 0 1
-13.633467 30.327702 33.289511 47.051381 -1.148326 0.784822 0.041203 -0.000630 393189.000000 0 0 1
-13.673167 30.103502 -33.855511 47.322003 -1.144451 2.368034 0.037881 -0.005879 -644162.000000 0 0 1
-15.013267 30.350602 -33.184451 47.410600 -1.111429 2.346106 0.036714 -0.003182 -582320.000000 0 0 1
-15.080167 30.012902 -31.788991 46.246358 -1.105186 2.328677 0.025032 -0.002937 498179.000000 0 0 1
-16.396767 30.237202 -31.258531 46.478362 -1.073906 2.308431 0.036607 -0.002588 717406.000000 0 0 1
-16.556667 29.865302 -29.777981 45.307700 -1.064598 2.287946 0.049305 -0.011130 -346663.000000 0 0 1
-16.562867 28.448102 -29.615471 44.279783 -1.043558 2.303425 0.029182 -0.012715 162612.000000 0 0 1
-16.549567 28.163302 -28.229091 43.173387 -1.039523 2.283463 0.023588 -0.012186 -195160.000000 0 0 1
-16.875367 26.691302 -27.883861 42.127346 -1.007006 2.294140 0.000250 -0.017392 979984.000000 0 0 1
-18.274767 26.396302 -28.063271 42.641283 -0.965241 2.289121 0.010579 -0.011657 707899.000000 0 0 1
-18.509267 25.057402 -27.794181 41.749046 -0.934583 2.299287 0.000037 -0.017185 -948032.000000 0 0 1
-19.949167 24.710202 -28.055481 42.375386 -0.891605 2.294374 0.006359 -0.017598 -741739.000000 0 0 1
-20.898167 25.188902 -27.094051 42.488843 -0.878231 2.262272 0.012160 -0.019239 412857.000000 0 0 1
-22.094367 24.442902 -27.283951 42.778856 -0.835821 2.262423 0.044082 -0.030371 -669530.000000 0 0 1
-23.183767 24.722002 -26.323001 42.913457 -0.817497 2.231151 0.082292 -0.043664 -1537400.000000 0 0 1
-23.914567 25.888402 -26.587411 44.147551 -0.825010 2.217100 0.054096 -0.018341 -329154.000000 0 0 1
-25.126907 25.939602 -25.854981 44.415138 -0.801311 2.192131 0.049331 -0.022378 245521.000000 0 0 1
-25.196517 25.705902 -24.287411 43.422761 -0.795405 2.164367 0.032162 -0.001010 -1117310.000000 0 0 1
-24.946367 24.438202 -23.768611 42.243269 -0.775109 2.168397 0.024889 -0.013984 327626.000000 0 0 1
-26.095337 23.578002 -23.618911 42.364392 -0.734764 2.162189 0.028186 -0.009780 873098.000000 0 0 1
-26.962747 23.709902 -22.286911 42.259385 -0.721293 2.126315 0.016305 -0.004295 466092.000000 0 0 1
-26.257057 23.316602 -21.098011 40.966121 -0.726153 2.111817 0.002234 -0.002126 1013610.000000 0 0 1
-25.170877 24.196002 -20.717511 40.598458 -0.765653 2.106333 0.007685 0.005678 433471.000000 0 0 1
-24.344767 23.774602 -19.510111 39.224276 -0.773550 2.091394 0.005804 -0.001370 -212219.000000 0 0 1
-24.982867 23.797602 -18.227511 39.021938 -0.761105 2.056815 0.002426 -0.002893 436303.000000 0 0 1
-24.008367 23.557802 -17.199711 37.778324 -0.775926 2.043483 0.022455 -0.010241 231171.000000 0 0 1
-24.642967 23.536202 -15.814011 37.567427 -0.762430 2.005289 0.018131 -0.008324 -115355.000000 0 0 1
-24.817667 24.897302 -15.312111 38.343878 -0.787000 1.981589 0.024345 -0.016248 59346.900000 0 0 1
-25.686017 24.792502 -14.193011 38.417199 -0.767699 1.949207 0.010497 -0.011901 -82588.700000 0 0 1
-25.839367 26.075902 -13.357411 39.064638 -0.789954 1.919767 0.011445 -0.012754 -497796.000000 0 0 1
-24.622367 26.392502 -12.766611 38.285917 -0.820083 1.910762 0.034451 -0.019765 -748163.000000 0 0 1
-24.622067 27.410502 -11.805811 38.690554 -0.838937 1.880876 0.038276 -0.020164 101609.000000 0 0 1
-23.225667 28.032502 -11.535911 38.188087 -0.878902 1.877672 0.049366 -0.016364 -24682.600000 0 0 1
-22.363467 27.187602 -10.851211 36.838012 -0.882449 1.869797 0.059369 -0.015248 15859.800000 0 0 1
-21.274667 27.877202 -10.223111 36.527549 -0.918928 1.854459 0.055620 -0.006387 414828.000000 0 0 1
-20.301067 26.793002 -9.668011 34.978118 -0.922385 1.850844 0.081078 -0.011139 148752.000000 0 0 1
-19.671667 26.008902 -10.712511 34.324850 -0.923248 1.888191 0.069705 -0.016295 352038.000000 0 0 1
-18.788667 25.048102 -10.163211 32.919785 -0.927229 1.884650 0.069506 -0.014887 -126655.000000 0 0 1
-18.395067 24.159602 -11.411011 32.438804 -0.920040 1.930258 0.069624 -0.023084 -128456.000000 0 0 1
-18.031067 22.867302 -10.878311 31.086501 -0.903102 1.928300 0.048936 -0.019610 65543.000000 0 0 1
-17.274767 22.164902 -11.820811 30.486588 -0.908759 1.968973 0.077752 -0.015235 -40792.800000 0 0 1
-16.906167 20.724902 -11.383411 29.067544 -0.886530 1.973187 0.066837 -0.000106 -82561.500000 0 0 1
-18.025267 19.946902 -11.069411 29.074405 -0.835961 1.961379 0.056762 0.003170 -71105.900000 0 0 1
-17.518467 18.639202 -10.894611 27.803041 -0.816384 1.973437 0.082225 -0.011863 20018.400000 0 0 1
-18.618867 17.572902 -10.636411 27.723678 -0.756506 1.964551 0.065446 0.000149 827926.000000 0 0 1
-19.389767 17.076602 -11.749811 28.383648 -0.722050 1.997601 0.039281 0.010564 391751.000000 0 0 1
-20.273267 17.923502 -12.444011 29.784403 -0.723958 2.001822 0.038746 0.014202 -583689.000000 0 0 1
-20.860367 17.361702 -13.699511 30.401648 -0.694117 2.038253 0.050790 0.011756 -924683.000000 0 0 1
-20.010867 17.210602 -14.753711 30.237586 -0.710307 2.080509 0.064749 0.007000 -553731.000000 0 0 1
-20.615867 16.652902 -15.923011 30.917235 -0.679461 2.111828 0.055955 0.017022 206947.000000 0 0 1
-19.566767 16.595902 -17.048111 30.804552 -0.703429 2.157271 0.063412 -0.001901 -159364.000000 0 0 1
-19.306967 17.804802 -17.732611 31.689359 -0.744943 2.164671 0.044300 -0.012596 545626.000000 0 0 1
-18.567867 17.592202 -18.971611 31.846087 -0.758423 2.208968 0.039621 -0.003954 203104.000000 0 0 1
-17.810767 18.812202 -19.539011 32.448348 -0.812736 2.216997 0.025081 -0.000409 419830.000000 0 0 1
-16.866267 19.372202 -18.584111 31.703665 -0.854439 2.197134 0.039109 0.003464 1052940.000000 0 0 1
-15.916567 20.270602 -19.151211 32.109240 -0.905142 2.209854 0.061190 -0.011765 183501.000000 0 0 1
32.998751 31.071402 1.517289 45.350323 0.755325 1.537333 0.087012 -0.020222 -226873.000000 0 0 1
34.309131 30.713802 1.173889 46.063349 0.730161 1.545309 0.099935 -0.019923 -334339.000000 0 0 1
34.676171 31.204302 -0.113611 46.649311 0.732747 1.573232 0.078546 -0.014963 -433432.000000 0 0 1
36.159281 30.929002 -0.354111 47.583844 0.707594 1.578238 0.059063 -0.010200 -674735.000000 0 0 1
-35.569106 31.777502 0.386689 47.698223 -0.729158 1.562689 0.048322 -0.007790 -364713.000000 0 0 1
-34.426532 31.932802 -0.413311 46.958075 -0.747837 1.579598 0.051588 -0.002105 -455589.000000 0 0 1
-33.504497 33.066802 0.107989 47.074158 -0.778823 1.568502 0.031201 -0.006541 8660.050000 0 0 1
-32.780277 32.690502 1.262489 46.312086 -0.784027 1.543532 0.028993 -0.003900 32090.200000 0 0 1
-32.097517 33.831202 1.774789 46.668519 -0.811688 1.532757 0.016858 0.002592 -169746.000000 0 0 1
-31.474777 33.608002 3.142489 46.152298 -0.818164 1.502654 0.024329 0.003319 -374106.000000 0 0 1
-31.024897 -33.687134 3.607589 45.938894 0.826515 1.492185 0.022076 0.011283 -223774.000000 0 0 1
-30.569737 -33.818234 4.902489 45.849931 0.835807 1.463667 0.038424 -0.000973 -514213.000000 0 0 1
-30.433727 -32.447134 5.615889 44.839341 0.817407 1.445222 0.043726 -0.000495 596920.000000 0 0 1
-31.611087 -31.812434 6.170389 45.269918 0.788573 1.434069 0.047809 -0.004698 615155.000000 0 0 1
-32.083687 -32.445334 7.373289 46.221511 0.791003 1.410591 0.042531 -0.012918 -1006840.000000 0 0 1
-33.212097 -31.731434 8.146289 46.650716 0.762603 1.395273 0.057523 -0.016637 -11654.500000 0 0 1
-34.501354 -31.697134 7.592989 47.462672 0.743063 1.410128 0.052038 -0.016437 -225024.000000 0 0 1
-35.163509 -32.931934 7.629389 48.776964 0.752639 1.413738 0.045553 -0.016610 -916567.000000 0 0 1
35.900731 -32.872234 7.340589 49.227335 -0.741390 1.421122 0.048552 -0.014560 -175746.000000 0 0 1
35.159431 -32.638034 8.500989 48.720567 -0.748225 1.395414 0.039443 -0.012831 -654194.000000 0 0 1
33.850041 -32.285234 8.164489 47.484950 -0.761742 1.397999 0.044804 -0.004269 -608632.000000 0 0 1
32.976781 -32.529434 9.428789 47.270860 -0.778569 1.369986 0.062633 -0.021681 17322.800000 0 0 1
31.584721 -32.516134 9.111689 46.237609 -0.799928 1.372436 0.056306 -0.025661 153073.000000 0 0 1
30.660141 -32.508934 10.127489 45.819658 -0.814657 1.347927 0.060356 -0.029025 -269562.000000 0 0 1
30.623431 -31.369134 11.123589 45.227772 -0.797426 1.322301 0.060570 -0.021011 -872128.000000 0 0 1
30.061111 -30.164734 10.677189 43.904259 -0.787119 1.325140 0.054065 -0.021166 17995.400000 0 0 1
30.789271 -29.445234 9.697889 43.692678 -0.763088 1.346975 0.062623 -0.022802 -43531.000000 0 0 1
30.144811 -28.067334 9.360589 42.238673 -0.749725 1.347329 0.054547 -0.023157 148320.000000 0 0 1
30.583391 -27.559934 8.129189 41.964002 -0.733445 1.375846 0.056471 -0.025462 -246657.000000 0 0 1
29.845191 -26.417734 7.827389 40.618963 -0.724555 1.376880 0.053356 -0.025527 -50110.800000 0 0 1
30.015761 -25.894534 6.408889 40.156527 -0.711820 1.410513 0.042091 -0.016364 501865.000000 0 0 1
31.369421 -25.553834 6.130889 40.922205 -0.683586 1.420412 0.043918 -0.017229 79516.400000 0 0 1
31.440001 -24.918434 4.880489 40.413132 -0.670195 1.449736 0.047128 -0.010959 -353808.000000 0 0 1
32.884091 -24.548734 4.563289 41.289556 -0.641272 1.460051 0.057089 -0.015954 -314813.000000 0 0 1
33.723171 -25.697834 4.459989 42.632411 -0.651152 1.465990 0.044332 -0.017390 -24499.000000 0 0 1
35.044111 -25.243934 4.161989 43.389723 -0.624252 1.474728 0.049047 -0.015796 368132.000000 0 0 1
35.967321 -26.474134 4.008589 44.839678 -0.634520 1.481279 0.042517 -0.010903 -384686.000000 0 0 1
36.153451 -27.103334 5.249789 45.488713 -0.643293 1.455130 0.036145 -0.007172 -149806.000000 0 0 1
-36.176267 -28.490234 4.989989 46.317553 0.667097 1.462853 0.032995 -0.008120 -664734.000000 0 0 1
35.798971 -29.518534 5.942689 46.778475 -0.689540 1.443413 0.043495 -0.013575 631446.000000 0 0 1
34.440151 -29.912734 5.840389 45.989193 -0.715161 1.443458 0.033782 -0.011174 540893.000000 0 0 1
33.415581 -28.971034 6.091489 44.643344 -0.714276 1.433921 0.040944 -0.013570 -19384.000000 0 0 1
31.947131 -29.408634 5.930689 43.825335 -0.744048 1.435054 0.047814 -0.014623 -111852.000000 0 0 1
31.532491 -29.849834 4.625789 43.665874 -0.757992 1.464661 0.028846 -0.012285 -208838.000000 0 0 1
30.302971 -29.272434 4.256889 42.346978 -0.768102 1.470102 0.033143 -0.011567 -348520.000000 0 0 1
29.130511 -30.229534 4.411589 42.212244 -0.803911 1.466095 0.040826 -0.018308 -564705.000000 0 0 1
29.146031 -31.377834 3.648289 42.981038 -0.822256 1.485813 0.046952 -0.006995 -246977.000000 0 0 1
27.905051 -32.053934 3.713189 42.660689 -0.854483 1.483646 0.050880 -0.006605 -153074.000000 0 0 1
27.862761 -33.362834 2.890989 43.563402 -0.874991 1.504385 0.049509 -0.004170 -358291.000000 0 0 1
27.823471 -33.133634 1.500189 43.292422 -0.872292 1.536137 0.042863 -0.008821 214672.000000 0 0 1
27.948281 34.172802 0.772389 44.152955 0.885265 1.553302 0.044966 -0.008185 -384068.000000 0 0 1
27.665661 -34.147234 -0.718111 43.953818 -0.889874 1.587135 0.037809 -0.006286 -682373.000000 0 0 1
28.651801 -33.597034 -1.539011 44.182066 -0.864675 1.605637 0.039785 -0.003151 -242787.000000 0 0 1
28.311841 -33.670934 -2.915411 44.088454 -0.871645 1.636971 0.037461 -0.001267 -310239.000000 0 0 1
29.421321 -33.124634 -3.805711 44.467280 -0.844539 1.656486 0.031166 0.007582 -77479.700000 0 0 1
29.487741 -31.716134 -3.781511 43.471138 -0.821791 1.657895 0.017918 0.013323 260868.000000 0 0 1
30.686241 -31.243134 -4.387411 44.011683 -0.794390 1.670650 0.001538 0.015414 164308.000000 0 0 1
30.962971 -29.712134 -4.358511 43.133666 -0.764786 1.672016 -0.004608 0.017492 -690543.000000 0 0 1
30.012981 -28.906134 -4.999711 41.968330 -0.766614 1.690210 0.001998 0.001200 -140838.000000 0 0 1
30.281141 -27.521334 -4.963811 41.219058 -0.737689 1.691514 0.000556 -0.009816 366284.000000 0 0 1
31.463351 -26.997234 -5.863911 41.870975 -0.709151 1.711305 0.007700 -0.012994 470792.000000 0 0 1
32.748291 -27.487734 -5.550911 43.114252 -0.698287 1.699904 -0.007227 0.008177 -108085.000000 0 0 1
33.791331 -27.050334 -6.405111 43.756144 -0.675052 1.717706 -0.001087 -0.004724 24684.700000 0 0 1
33.923901 -27.825734 -7.752011 44.555541 -0.686961 1.745672 0.000846 -0.010341 -341107.000000 0 0 1
32.782151 -27.915334 -8.625311 43.912769 -0.705388 1.768501 0.008963 -0.017545 185784.000000 0 0 1
32.795361 -28.924434 -9.640611 44.778343 -0.722762 1.787792 0.002825 -0.010039 77215.400000 0 0 1
32.466631 -30.323134 -9.062511 45.339869 -0.751274 1.772031 -0.004107 -0.004876 147775.000000 0 0 1
33.619381 -30.952334 -8.540011 46.489155 -0.744118 1.755544 -0.006247 0.005610 -559976.000000 0 0 1
33.269021 -32.047834 -7.691311 46.829987 -0.766704 1.735783 -0.003099 0.011946 -342392.000000 0 0 1
34.353961 -32.935034 -7.106911 48.118804 -0.764314 1.719034 -0.005541 0.014501 -855548.000000 0 0 1
33.937071 -34.107734 -6.425711 48.542271 -0.787906 1.703560 -0.001553 0.013783 -230174.000000 0 0 1
33.618541 -33.932834 -5.087411 48.036708 -0.790051 1.676902 0.004043 0.015003 -28047.800000 0 0 1
33.368211 33.195702 -4.310511 47.264920 0.782807 1.662122 0.001939 0.014492 88699.500000 0 0 1
32.288141 32.448402 -4.820411 46.028895 0.787874 1.675714 0.013739 0.008722 -47781.800000 0 0 1
32.431841 31.088802 -4.512611 45.151983 0.764258 1.670906 0.012963 0.007648 593029.000000 0 0 1
31.345991 30.181702 -5.202611 43.824348 0.766477 1.689792 0.027462 -0.004056 408477.000000 0 0 1
31.539441 30.040602 -6.593611 44.052807 0.761063 1.721036 0.015470 0.008034 562841.000000 0 0 1
30.327771 29.581002 -7.223511 42.976604 0.772934 1.739678 0.006259 0.003834 740910.000000 0 0 1
30.361131 29.349402 -8.731711 43.121091 0.768456 1.774699 0.004208 0.005928 40188.500000 0 0 1
30.893551 28.058802 -9.204211 42.736698 0.737350 1.787867 0.000303 0.000619 355905.000000 0 0 1
31.241371 28.000602 -10.620811 43.276537 0.730749 1.818746 -0.002019 0.005248 205237.000000 0 0 1
32.408091 28.856902 -11.178211 44.810240 0.727499 1.822915 -0.001860 0.000644 -131448.000000 0 0 1
33.667931 28.377802 -10.730111 45.320685 0.700342 1.809826 -0.000577 -0.006159 134251.000000 0 0 1
34.777961 29.182802 -11.010411 46.715861 0.698142 1.808724 -0.000879 -0.002649 -133929.000000 0 0 1
34.893921 30.457802 -10.078511 47.400842 0.717621 1.785055 -0.007592 0.000924 -823877.000000 0 0 1
35.297951 30.046702 -8.746211 47.172512 0.705208 1.757284 -0.014936 0.004151 134912.000000 0 0 1
35.124781 31.192802 -7.957011 47.645096 0.726177 1.738588 -0.016378 0.007864 -639087.000000 0 0 1
36.185331 31.214102 -6.837511 48.274734 0.711774 1.712912 -0.010599 0.007774 458670.000000 0 0 1
-35.081845 31.547402 -7.236311 47.731945 -0.732401 1.722986 0.001389 0.002774 94553.700000 0 0 1
-34.328333 30.534002 -7.886511 46.614984 -0.726967 1.740798 0.017576 -0.001699 -1042020.000000 0 0 1
-33.001717 31.094102 -8.374211 46.109477 -0.755645 1.753426 0.060177 -0.011776 -763514.000000 0 0 1
-32.178067 31.774102 -7.474511 45.835465 -0.779082 1.734601 0.057556 -0.016498 -95581.900000 0 0 1
-30.940477 32.123002 -8.065011 45.323777 -0.804147 1.749691 0.072495 -0.033024 62516.900000 0 0 1
-30.898397 33.468002 -8.933911 46.418023 -0.825298 1.764471 0.045462 -0.025943 -405122.000000 0 0 1
-30.991507 -33.894834 -8.143611 46.643882 0.830113 1.746287 0.029834 -0.014842 145675.000000 0 0 1
-29.948737 -33.639934 -7.203811 45.612136 0.843381 1.729397 0.065730 -0.025194 68281.000000 0 0 1
-30.020527 -32.282234 -6.384811 44.543692 0.821684 1.714630 0.041171 -0.022222 288655.000000 0 0 1
-31.038447 -32.308634 -5.394211 45.125719 0.805447 1.690620 0.028691 -0.018205 553936.000000 0 0 1
-30.572087 -33.051434 -4.262511 45.224095 0.824347 1.665190 0.040277 -0.015889 599971.000000 0 0 1
-31.732587 -33.135934 -3.229211 45.993206 0.807028 1.641065 0.029133 -0.007655 176432.000000 0 0 1
-31.961947 -31.935634 -2.530911 45.253246 0.784986 1.626753 0.030735 -0.002040 -199953.000000 0 0 1
-33.082737 -31.997434 -1.690411 46.056061 0.768723 1.607508 0.022730 0.001808 -289546.000000 0 0 1
-33.688367 -30.676634 -1.223311 45.579145 0.738641 1.597639 0.027256 0.006261 -157480.000000 0 0 1
-34.744266 -30.664334 -0.317611 46.341842 0.723103 1.577650 0.010221 0.011899 -432169.000000 0 0 1
-35.235929 -29.381134 -0.058311 45.878373 0.695037 1.572067 0.025443 0.006704 -108193.000000 0 0 1
-36.278927 -29.238534 1.059289 46.606593 0.678351 1.548066 0.028263 0.010621 -173435.000000 0 0 1
35.151611 -30.045834 0.805989 46.249730 -0.707245 1.553369 0.018677 0.011861 1048640.000000 0 0 1
34.034401 -29.963534 1.720089 45.377445 -0.721874 1.532881 0.031276 0.005577 1228420.000000 0 0 1
33.355621 -28.546534 1.783589 43.939541 -0.707865 1.530193 0.017545 0.016239 -828734.000000 0 0 1
32.541341 -28.267734 0.641889 43.109346 -0.715234 1.555906 0.011074 0.011888 -51392.100000 0 0 1
31.844181 -27.053334 0.880089 41.793652 -0.704235 1.549737 0.003455 0.013569 -402199.000000 0 0 1
30.473121 -27.141334 0.218689 40.808222 -0.727633 1.565437 0.004290 -0.007823 -851731.000000 0 0 1
29.523881 -28.015234 0.751689 40.707222 -0.759185 1.552330 0.009788 0.005354 -133768.000000 0 0 1
29.546491 -29.385734 0.339389 41.672913 -0.782670 1.562652 0.012056 0.007730 -425562.000000 0 0 1
29.110471 -29.666634 -1.114311 41.578485 -0.794860 1.597600 0.014989 0.003492 -113486.000000 0 0 1
27.738881 -29.388034 -1.311811 40.432944 -0.814258 1.603246 0.021979 0.005142 -6025.260000 0 0 1
27.539121 -29.518434 -2.693111 40.459783 -0.820074 1.637408 0.025241 0.004163 -6734.770000 0 0 1
26.205921 -30.151634 -3.187011 40.075284 -0.855296 1.650406 0.049688 -0.008321 370560.000000 0 0 1
25.092921 -29.304934 -3.107611 38.705182 -0.862674 1.651172 0.061408 -0.013793 -785299.000000 0 0 1
23.894621 -29.916334 -3.481411 38.445548 -0.896839 1.661475 0.043090 -0.014224 -186881.000000 0 0 1
22.737721 -28.890534 -3.405611 36.922420 -0.904014 1.663165 0.047721 -0.012950 -113800.000000 0 0 1
22.633421 -28.048834 -4.526011 36.324835 -0.891845 1.695719 0.057379 -0.019535 167978.000000 0 0 1
21.890221 -26.888634 -4.141311 34.918919 -0.887513 1.689674 0.054865 -0.018061 -203087.000000 0 0 1
21.580921 -25.988234 -5.301011 34.193935 -0.877785 1.726452 0.058994 -0.027738 -372745.000000 0 0 1
20.687921 -26.541934 -6.221911 34.222457 -0.908717 1.753621 0.072159 -0.027357 -161550.000000 0 0 1
20.102221 -25.601434 -7.099511 33.315699 -0.905146 1.785541 0.082865 -0.028940 -508555.000000 0 0 1
18.635721 -25.798534 -7.458111 32.687580 -0.945223 1.800987 0.073165 -0.027849 -250576.000000 0 0 1
17.813021 -25.150134 -6.477311 31.492674 -0.954543 1.777952 0.072873 -0.023563 69790.800000 0 0 1
16.438821 -25.301534 -6.754111 30.919581 -0.994621 1.791013 0.066864 -0.026081 -245702.000000 0 0 1
15.568821 -24.446834 -5.851611 29.568180 -1.003725 1.770014 0.062460 -0.019204 -373893.000000 0 0 1
15.473721 -24.847234 -4.489511 29.613794 -1.013814 1.722985 0.056599 -0.010475 108963.000000 0 0 1
14.816521 -23.890934 -3.700411 28.354877 -1.015675 1.701673 0.063354 -0.015409 -79095.600000 0 0 1
14.661221 -24.490234 -2.252111 28.632062 -1.031366 1.649535 0.053498 -0.004456 -54860.700000 0 0 1
13.824821 -25.615934 -2.292411 29.198577 -1.075898 1.649388 0.061175 -0.005191 237681.000000 0 0 1
14.501821 -26.737934 -1.743911 30.467379 -1.073831 1.628066 0.055969 -0.001931 29087.600000 0 0 1
13.713121 -28.065834 -1.833211 31.290596 -1.116306 1.629417 0.054027 -0.002098 679181.000000 0 0 1
12.680621 -28.294934 -0.834911 31.017713 -1.149475 1.597717 0.058869 -0.010820 961038.000000 0 0 1
11.828521 -29.402634 -1.075511 31.710969 -1.188313 1.604719 0.052970 -0.011807 79593.400000 0 0 1
12.502221 -30.766334 -0.733511 33.217629 -1.184819 1.592880 0.056472 -0.008392 -453247.000000 0 0 1
13.677821 -31.032834 -1.444311 33.944154 -1.155659 1.613359 0.055482 -0.002508 -247846.000000 0 0 1
14.202721 -32.316634 -1.061311 35.315839 -1.156720 1.600853 0.050888 -0.010559 -299566.000000 0 0 1
15.628221 -32.687534 -1.499611 36.262446 -1.124814 1.612163 0.050751 -0.008507 -530617.000000 0 0 1
16.566921 -31.867734 -0.899711 35.928051 -1.091383 1.595841 0.055111 -0.007324 236799.000000 0 0 1
17.886921 -32.129534 -1.413111 36.800079 -1.062814 1.609205 0.063199 -0.020747 798524.000000 0 0 1
18.982521 -31.154634 -0.908411 36.493459 -1.023567 1.595691 0.057653 -0.014610 -157536.000000 0 0 1
18.893721 -29.861534 -1.494811 35.368325 -1.006671 1.613073 0.048704 -0.008070 141123.000000 0 0 1
18.997021 -28.813834 -0.608511 34.518026 -0.987910 1.588426 0.053942 -0.001626 -161734.000000 0 0 1
18.528021 -27.501734 -1.289911 33.185792 -0.977938 1.609676 0.046552 0.006539 -81373.000000 0 0 1
19.320921 -26.983434 -2.289311 33.266269 -0.949393 1.639669 0.060989 -0.012015 400926.000000 0 0 1
18.381421 -26.287034 -3.115811 32.227210 -0.960568 1.667630 0.070465 -0.006185 299429.000000 0 0 1
32.303771 -29.159934 13.845189 45.667545 -0.734293 1.262775 0.052658 -0.028399 -223491.000000 0 0 1
33.171691 -29.630034 14.819089 46.881824 -0.729064 1.249186 0.064650 -0.018451 6401.280000 0 0 1
32.524981 -30.598634 15.653489 47.320001 -0.754891 1.233644 0.060755 -0.013732 685879.000000 0 0 1
33.357561 -30.888634 16.988989 48.533085 -0.746988 1.213172 0.055961 -0.009951 282312.000000 0 0 1
32.591161 -31.462434 18.020189 48.752392 -0.767778 1.192189 0.041814 -0.013438 207416.000000 0 0 1
33.347281 -31.751234 19.178589 49.879859 -0.760886 1.176135 0.039146 -0.010185 325468.000000 0 0 1
34.364171 -32.936434 19.259589 51.348191 -0.764187 1.186315 0.044676 -0.007190 683300.000000 0 0 1
35.426341 -32.885834 18.292389 51.682833 -0.748226 1.209021 0.053284 -0.004585 373066.000000 0 0 1
35.922391 -34.182034 18.055889 52.771629 -0.760578 1.221591 0.069598 -0.002443 289571.000000 0 0 1
-35.426146 -34.128034 17.087389 52.074114 0.766737 1.236467 0.059661 -0.003666 -55383.200000 0 0 1
-34.308778 -33.524034 17.669189 51.119012 0.773830 1.217867 0.056147 -0.003928 -683627.000000 0 0 1
-33.305307 -33.475034 16.702289 50.087801 0.787940 1.230825 0.070541 0.004406 -442339.000000 0 0 1
-31.976177 -32.880534 17.255189 49.003540 0.799341 1.210960 0.051190 -0.002092 1088470.000000 0 0 1
-30.860197 -32.720034 16.351189 47.857223 0.814642 1.222107 0.045082 -0.005353 624202.000000 0 0 1
-31.025637 -31.679934 15.383589 46.934669 0.795832 1.236858 0.059635 -0.006045 -814834.000000 0 0 1
-29.918767 -31.488034 14.369389 45.750500 0.810948 1.251307 0.056153 -0.006724 477580.000000 0 0 1
-28.639597 -31.155034 14.926989 44.874020 0.827441 1.231692 0.038410 -0.007267 208053.000000 0 0 1
-27.663637 -30.907034 13.960589 43.765507 0.840717 1.246137 0.032548 0.000477 600602.000000 0 0 1
-26.278077 -30.555234 14.598489 42.863452 0.860514 1.223261 0.025608 -0.000369 1068410.000000 0 0 1
-25.120017 -30.596834 13.763489 41.911993 0.883381 1.236198 0.021271 0.002141 -850716.000000 0 0 1
-24.037567 -30.457034 14.573489 41.446618 0.902658 1.211495 0.013741 0.008654 -843300.000000 0 0 1
-22.674167 -30.524034 13.824989 40.459422 0.931900 1.222071 0.013230 0.012807 343729.000000 0 0 1
-22.228767 -31.780134 13.334889 41.011148 0.960436 1.239623 0.015787 -0.009169 -218568.000000 0 0 1
-21.308067 -31.552234 12.300489 40.010989 0.976822 1.258308 0.022410 -0.011612 -360663.000000 0 0 1
-20.795167 -32.889934 11.796189 40.661245 1.006990 1.276456 0.014964 -0.006186 211207.000000 0 0 1
-21.749667 -33.638434 11.015789 41.544432 0.996835 1.302430 0.004991 -0.003211 483360.000000 0 0 1
-21.503367 33.517502 11.031689 41.322099 -1.000380 1.300551 0.017574 0.002654 -115517.000000 0 0 1
-22.365567 32.751402 10.035189 40.909387 -0.971647 1.322964 0.010631 0.006672 -540178.000000 0 0 1
-22.039667 33.059002 8.707689 40.675157 -0.982787 1.355048 -0.002618 0.005552 -21320.700000 0 0 1
-23.143867 32.782402 7.887589 40.896681 -0.956065 1.376714 0.006461 0.000255 -423598.000000 0 0 1
-22.879467 33.382302 6.472889 40.984709 -0.969952 1.412198 0.008386 0.001071 -87876.400000 0 0 1
-22.130267 32.602002 5.519489 39.788239 -0.974440 1.431626 0.002978 -0.001582 237512.000000 0 0 1
-20.739767 32.456502 5.716689 38.938965 -1.002192 1.423452 0.000738 -0.005477 -115376.000000 0 0 1
-19.834467 33.704002 5.477089 39.488787 -1.038883 1.431648 0.017418 -0.009856 -693565.000000 0 0 1
-19.958867 -33.610234 6.248089 39.585892 1.034924 1.412297 0.016564 -0.009176 -73154.600000 0 0 1
-19.411367 -33.822434 7.524089 39.716119 1.049774 1.380198 0.012211 -0.009444 -338717.000000 0 0 1
-19.593667 -32.606034 8.452189 38.967996 1.029700 1.352158 0.012519 -0.009369 -550396.000000 0 0 1
-18.763067 -31.556734 8.022589 37.579809 1.034370 1.355659 0.025832 -0.017151 -291578.000000 0 0 1
-18.785067 -30.375434 8.816189 36.786831 1.016936 1.328785 0.031367 -0.015185 25164.100000 0 0 1
-18.115567 -30.488234 10.200889 36.902091 1.034666 1.290718 0.019379 -0.003540 -37091.400000 0 0 1
-16.750467 -30.815334 10.062089 36.488472 1.072899 1.291415 0.033720 -0.014885 -445011.000000 0 0 1
-16.050167 -30.745434 11.276289 36.469772 1.089677 1.256449 0.047636 -0.014152 361027.000000 0 0 1
-14.612767 -31.333734 11.210189 36.345621 1.134422 1.257251 0.048727 -0.018395 753055.000000 0 0 1
-13.656267 -30.494334 10.551289 35.038946 1.149749 1.264919 0.051358 -0.016555 69914.200000 0 0 1
-12.670167 -31.275634 9.890689 35.164245 1.185890 1.285678 0.055258 -0.006932 -93711.000000 0 0 1
-11.634267 -30.344334 9.251889 33.789528 1.204675 1.293445 0.066310 -0.001691 -345065.000000 0 0 1
-10.904667 -29.628834 10.218089 33.184167 1.218139 1.257790 0.054155 -0.002612 -562952.000000 0 0 1
-9.778367 -29.018334 9.644589 32.104490 1.245775 1.265671 0.054871 -0.003269 167728.000000 0 0 1
-8.758967 -28.554234 10.707589 31.728792 1.273160 1.226566 0.045970 0.001098 127499.000000 0 0 1
-9.282967 -27.492534 11.471889 31.202839 1.245162 1.194310 0.031063 -0.004780 -458321.000000 0 0 1
-8.645067 -27.344534 12.687189 31.359616 1.264587 1.154287 0.032189 -0.006787 -323632.000000 0 0 1
-9.026667 -26.079234 13.454489 30.702287 1.237578 1.117174 0.039581 -0.009464 100398.000000 0 0 1
-8.674367 -24.763134 12.904789 29.240230 1.233860 1.113708 0.027543 -0.008717 109366.000000 0 0 1
-9.484067 -24.392634 11.811589 28.713442 1.199975 1.146850 0.030496 -0.006434 13111.300000 0 0 1
-9.064667 -23.001434 11.257689 27.165598 1.195394 1.143502 0.022112 -0.004220 -598886.000000 0 0 1
-7.920067 -23.046234 10.498189 26.534286 1.239781 1.164025 0.014342 -0.006791 -757607.000000 0 0 1
-7.461167 -21.767634 10.010489 25.093999 1.240582 1.160458 0.014703 -0.001710 561255.000000 0 0 1
-6.209067 -21.911634 9.060289 24.510427 1.294667 1.192164 0.016131 -0.011681 990415.000000 0 1 0
-5.066067 -22.356334 9.791589 24.926811 1.347954 1.167107 0.014225 -0.015332 -531004.000000 0 1 0
-3.954267 -22.329134 8.949189 24.378565 1.395523 1.194915 0.015083 -0.018403 90433.200000 0 1 0
-2.742267 -23.163734 9.469889 25.174539 1.452959 1.185138 0.027834 -0.022582 108461.000000 0 0 1
-1.889167 -22.508234 10.365789 24.852347 1.487060 1.140550 0.028507 -0.021138 -330444.000000 0 1 0
-1.033567 -23.512134 10.908789 25.940131 1.526866 1.136759 0.031101 -0.022114 -152030.000000 0 0 1
-0.081667 -23.016434 11.950389 25.934045 1.567248 1.091901 0.031306 -0.018947 -1006940.000000 0 0 1
-0.741367 -22.699534 13.126589 26.232152 1.538148 1.046735 0.038746 -0.016767 -176225.000000 0 0 1
0.022033 -22.291434 14.281089 26.473723 -1.569808 1.001020 0.042759 -0.022150 187291.000000 0 0 1
0.816233 -20.952934 14.141089 25.291542 -1.531860 0.977468 0.039566 -0.024342 -660344.000000 0 0 1
1.877533 -20.935434 13.282289 24.864367 -1.481354 1.007247 0.040379 -0.028648 -1068190.000000 0 1 0
2.428133 -19.664634 13.147689 23.779306 -1.447941 0.984950 0.035699 -0.022591 -844710.000000 0 1 0
3.859133 -19.620134 12.672689 23.673606 -1.376583 1.005923 0.044725 -0.019594 -751625.000000 0 1 0
4.048733 -19.980934 11.334889 23.326158 -1.370873 1.063369 0.044229 -0.022096 -564869.000000 0 1 0
5.445633 -20.068134 11.228489 23.631840 -1.305820 1.075670 0.058552 -0.022826 -528063.000000 0 1 0
5.949133 -20.713034 9.942789 23.733542 -1.291108 1.138525 0.055094 -0.035109 -996463.000000 0 1 0
5.712833 -20.087834 8.717089 22.630625 -1.293719 1.175383 0.047015 -0.029596 -340255.000000 0 1 0
6.006033 -20.937134 7.618289 23.075405 -1.291437 1.234336 0.044676 -0.030420 341270.000000 0 1 0
7.455033 -21.554034 7.503189 24.009409 -1.237800 1.252962 0.049157 -0.015866 651469.000000 0 1 0
8.436733 -20.634834 6.995789 23.364843 -1.182676 1.266717 0.061691 -0.022537 280446.000000 0 1 0
8.928333 -19.629234 7.884689 22.960624 -1.143917 1.220261 0.069075 -0.016526 37967.400000 0 1 0
9.844833 -20.055334 9.076389 24.114684 -1.114468 1.184906 0.061234 -0.016924 -51593.600000 0 1 0
9.086433 -20.463034 10.188389 24.598827 -1.152909 1.143753 0.072159 -0.019988 -578805.000000 0 1 0
9.705833 -19.962834 11.324889 24.919290 -1.118253 1.099027 0.071250 -0.019430 271880.000000 0 1 0
8.770533 -20.054434 12.575189 25.243572 -1.158523 1.049328 0.076359 -0.021780 5515.410000 0 0 1
8.648433 -21.398134 12.984689 26.481648 -1.186702 1.058330 0.064382 -0.033539 -59055.900000 0 0 1
7.884033 -21.545934 14.180889 26.971890 -1.220012 1.017182 0.078304 -0.026449 138086.000000 0 0 1
8.012833 -23.018334 14.689989 28.457775 -1.235809 1.028385 0.080129 -0.030531 121976.000000 0 0 1
7.556033 -23.992234 13.775989 28.679240 -1.265693 1.069746 0.077595 -0.031632 -158209.000000 0 0 1
7.481433 -25.260234 14.423689 30.034881 -1.282853 1.069878 0.084886 -0.029961 328706.000000 0 0 1
7.417733 -26.540934 13.479289 30.677926 -1.298267 1.115887 0.073778 -0.035406 -370929.000000 0 0 1
8.721833 -26.711734 13.028389 30.972988 -1.255193 1.136649 0.084477 -0.024731 -462438.000000 0 0 1
8.777333 -27.784534 12.091189 31.547088 -1.264810 1.177458 0.066058 -0.017597 -397809.000000 0 0 1
10.206733 -27.961534 11.575689 31.937773 -1.220797 1.199906 0.064842 -0.014020 -814943.000000 0 0 1
10.998633 -28.600834 12.500489 33.094408 -1.203674 1.183461 0.061433 -0.010715 -286644.000000 0 0 1
12.215433 -28.951934 11.872489 33.591476 -1.171536 1.209553 0.077057 -0.005183 -228154.000000 0 0 1
13.249433 -29.790034 12.607289 34.956220 -1.152308 1.201822 0.056419 -0.004889 -971443.000000 0 0 1
13.661333 -29.145734 13.827989 35.033114 -1.132480 1.165042 0.056191 -0.005247 423873.000000 0 0 1
14.617433 -29.878834 14.603789 36.327465 -1.115807 1.157092 0.057175 -0.002935 1646260.000000 0 0 1
16.066233 -29.889734 13.937889 36.684939 -1.077588 1.181070 0.062795 0.002506 299225.000000 0 0 1
16.683733 -28.619734 13.778989 35.878916 -1.043012 1.176627 0.057952 -0.007350 -241818.000000 0 0 1
18.004033 -28.812834 13.382689 36.516037 -1.012297 1.195565 0.051877 -0.002715 -949428.000000 0 0 1
18.985633 -27.713634 13.732989 36.291800 -0.970165 1.182724 0.042977 -0.008469 926998.000000 0 0 1
20.255733 -27.924634 13.035289 36.878160 -0.943245 1.209519 0.032766 -0.007395 1723480.000000 0 0 1
21.112233 -26.760934 13.050589 36.499203 -0.902848 1.205144 0.029575 -0.019865 -272751.000000 0 0 1
22.446833 -26.918234 12.354889 37.163085 -0.875730 1.231896 0.037515 -0.012809 -230365.000000 0 0 1
23.424833 -27.580434 13.159689 38.504292 -0.866693 1.221995 0.038554 -0.018927 -34968.000000 0 0 1
24.528533 -27.981834 12.409889 39.225467 -0.851068 1.248892 0.026931 -0.021938 -1483830.000000 0 0 1
25.524133 -28.875534 13.139489 40.717613 -0.846927 1.242218 0.039030 -0.019680 28685.400000 0 0 1
26.607533 -28.157634 13.760589 41.111640 -0.813695 1.229496 0.023917 -0.019997 626886.000000 0 0 1
27.649033 -27.999634 12.796089 41.378598 -0.791698 1.256398 0.009246 -0.022886 -611354.000000 0 0 1
28.918633 -27.395434 13.463189 42.048241 -0.758356 1.244872 0.032657 -0.033081 -85599.800000 0 0 1
28.865933 -25.992234 13.565189 41.144291 -0.733062 1.234813 0.033759 -0.032812 120430.000000 0 0 1
28.192733 -25.502334 14.718489 40.765588 -0.735335 1.201401 0.031934 -0.031493 -644362.000000 0 0 1
28.993433 -25.365434 16.026089 41.723613 -0.718755 1.176562 0.018973 -0.024432 -363430.000000 0 0 1
29.231633 -26.678134 16.568189 42.903567 -0.739758 1.174317 0.030550 -0.024418 4417.240000 0 0 1
30.057433 -26.630734 17.709189 43.889186 -0.725023 1.155460 0.042023 -0.007412 173018.000000 0 0 1
30.407233 -28.008834 18.423489 45.260574 -0.744364 1.151570 0.034396 0.007204 20312.200000 0 0 1
29.260633 -28.597334 19.002189 45.111809 -0.773934 1.136002 0.014407 0.002814 31793.600000 0 0 1
29.624333 -29.511934 20.003789 46.354147 -0.783497 1.124594 0.037421 0.000630 94670.300000 0 0 1
28.435133 -30.313334 20.594589 46.385257 -0.817357 1.110750 0.038270 0.001356 -742498.000000 0 0 1
27.494033 -29.539834 21.355689 45.657300 -0.821253 1.084066 0.041074 0.005318 465482.000000 0 0 1
26.443133 -30.337534 21.842389 45.789684 -0.853878 1.073541 0.049280 0.001314 378777.000000 0 0 1
25.378833 -30.901434 20.827889 45.086414 -0.883212 1.090598 0.072227 -0.007545 -919128.000000 0 0 1
25.836333 -31.835734 19.872289 45.562462 -0.889051 1.119475 0.061482 -0.000125 -666365.000000 0 0 1
25.209433 -31.784034 18.641589 44.645819 -0.900248 1.140056 0.075116 -0.005498 -678664.000000 0 0 1
25.746833 -30.774234 17.568289 43.801800 -0.874112 1.158094 0.065680 -0.001070 677138.000000 0 0 1
27.046633 -31.209734 17.114789 44.704405 -0.856739 1.177924 0.047264 -0.009292 823831.000000 0 0 1
27.510333 -30.298034 16.172989 44.004032 -0.833584 1.194440 0.049477 -0.023565 366787.000000 0 0 1
28.584533 -30.868634 15.151989 44.716114 -0.823798 1.225104 0.058550 -0.027769 244000.000000 0 0 1
28.112033 -31.844534 14.277389 44.812995 -0.847571 1.246545 0.073700 -0.018730 240948.000000 0 0 1
28.057133 -33.192434 14.753689 45.897840 -0.869045 1.243540 0.047570 -0.025342 -245868.000000 0 0 1
27.280233 -34.183034 13.875089 45.882557 -0.897237 1.263582 0.078958 -0.031236 -123874.000000 0 0 1
27.860233 34.047602 12.633289 45.771517 0.885012 1.291158 0.089943 -0.029532 460998.000000 0 0 1
27.030533 33.068202 12.023189 44.370178 0.885525 1.296391 0.095471 -0.029559 52355.200000 0 0 1
27.632433 32.573902 10.669389 44.027790 0.867290 1.326026 0.096100 -0.028919 -250424.000000 0 0 1
28.888533 32.019902 10.959189 44.496351 0.836764 1.321942 0.084958 -0.031763 -184663.000000 0 0 1
29.408633 31.357602 9.806689 44.094648 0.817460 1.346520 0.090630 -0.032136 -200522.000000 0 0 1
30.945633 31.278902 9.847989 45.088632 0.790754 1.350607 0.071902 -0.030393 -112338.000000 0 0 1
31.403533 30.450102 10.910789 45.082545 0.769985 1.326351 0.064338 -0.021409 744420.000000 0 0 1
32.819733 30.257602 11.007989 45.976441 0.744802 1.329021 0.074578 -0.021053 711848.000000 0 0 1
33.086133 29.324102 12.244389 45.875050 0.725192 1.300614 0.064088 -0.008755 -38211.100000 0 0 1
32.741633 27.951402 11.921289 44.670040 0.706636 1.300648 0.061440 -0.017610 319491.000000 0 0 1
32.839033 27.097902 13.068789 44.536407 0.689903 1.272972 0.068340 -0.021494 30469.600000 0 0 1
32.642333 25.603402 12.727489 43.394067 0.665133 1.273119 0.061418 -0.026124 -124652.000000 0 0 1
33.738833 25.031102 12.052389 43.704976 0.638302 1.291409 0.053093 -0.015617 -276496.000000 0 0 1
33.642933 23.669302 11.698289 42.766023 0.613101 1.293723 0.050980 -0.018052 -473634.000000 0 0 1
32.467033 23.070002 10.856789 41.281994 0.617783 1.304675 0.043760 -0.007681 -433671.000000 0 0 1
31.319533 23.084002 11.624689 40.606867 0.635160 1.280461 0.044877 -0.014099 -985498.000000 0 0 1
30.163533 22.866702 10.835389 39.371696 0.648659 1.291991 0.039008 -0.005872 -361368.000000 0 0 1
29.004933 22.456302 11.735089 38.513425 0.658825 1.261172 0.039896 -0.000254 -747851.000000 0 0 1
28.406833 23.386102 12.529189 38.869506 0.688762 1.242596 0.053820 -0.001188 -600355.000000 0 0 1
27.445833 22.837002 13.369889 38.125534 0.693995 1.212498 0.063566 -0.000805 -311680.000000 0 0 1
24.276233 9.100302 25.637717 36.461535 0.358652 0.790986 0.025433 0.001106 -178701.000000 0 0 1
23.894833 7.959902 26.396347 36.484109 0.321561 0.761934 0.028881 -0.007607 -654956.000000 0 0 1
22.518633 7.917702 26.528267 35.686521 0.338105 0.732703 0.040787 -0.002369 -946806.000000 0 0 1
21.978233 6.666702 27.319497 35.690931 0.294511 0.699061 0.050276 -0.011406 -128656.000000 0 0 1
22.333633 6.544202 28.694677 36.945936 0.285041 0.681440 0.059811 -0.016178 982690.000000 0 0 1
23.701833 6.117402 28.881287 37.859321 0.252586 0.703074 0.048875 -0.017053 736376.000000 0 0 1
24.024833 5.957902 30.365957 39.176275 0.243085 0.683906 0.055225 -0.017638 -303913.000000 0 0 1
24.041733 7.146202 31.150687 39.992980 0.288924 0.677880 0.062234 -0.011958 157539.000000 0 0 1
24.212133 6.964502 32.477792 41.103998 0.280084 0.659764 0.060461 -0.005305 -162919.000000 0 0 1
24.200633 8.160902 33.455440 42.089635 0.325243 0.652017 0.091710 0.001663 253784.000000 0 0 1
25.290033 9.067202 33.265351 42.759601 0.344252 0.679380 0.067563 -0.001982 201974.000000 0 0 1
25.460333 9.760402 -34.073471 43.640525 0.366077 2.466703 0.085065 -0.001679 470751.000000 0 0 1
26.568133 10.852902 -34.069771 44.546610 0.387807 2.441545 0.059470 0.000375 311257.000000 0 0 1
26.054233 12.037802 33.848577 44.378575 0.432812 0.703283 0.036042 0.001720 506661.000000 0 0 1
25.819033 13.047502 -33.741511 44.444902 0.467914 2.432843 0.041276 -0.002304 -414390.000000 0 0 1
25.482033 14.402002 34.145398 44.973991 0.514425 0.708674 0.037901 -0.003763 -330362.000000 0 0 1
26.606133 15.060502 33.566298 45.402658 0.515085 0.738762 0.024098 -0.007624 408758.000000 0 0 1
26.423433 16.442302 33.327993 45.599366 0.556628 0.751175 0.024921 -0.013411 -420205.000000 0 0 1
27.119533 17.396602 -34.210271 46.994185 0.570361 2.386150 0.023143 -0.019746 -266529.000000 0 0 1
26.667533 17.340702 -32.854011 45.730114 0.576555 2.372343 0.038147 -0.025845 -166700.000000 0 0 1
27.456633 16.507402 -32.080171 45.337604 0.541314 2.356870 0.039590 -0.027416 -595533.000000 0 0 1
26.711433 16.031202 -30.828021 43.827696 0.540539 2.350954 0.055283 -0.023924 1028720.000000 0 0 1
25.633933 15.059802 -30.970501 42.930969 0.531174 2.376622 0.056253 -0.017987 1216960.000000 0 0 1
24.955733 14.666102 -29.740541 41.501601 0.531315 2.369729 0.075039 -0.031452 331090.000000 0 0 1
23.947233 13.555202 -30.011301 40.717216 0.515078 2.399516 0.063475 -0.016409 -1192010.000000 0 0 1
22.842333 13.827902 -30.831441 40.786772 0.544354 2.427851 0.069647 -0.015033 13618.000000 0 0 1
22.281133 12.599302 -31.255651 40.399344 0.514642 2.455405 0.059757 0.006382 -16341.900000 0 0 1
21.446333 11.819102 -30.195091 38.876470 0.503688 2.460195 0.063688 0.015649 -1597490.000000 0 0 1
20.180933 12.346302 -30.020601 38.222215 0.549037 2.474175 0.067413 0.014028 -941338.000000 0 0 1
19.558733 11.673702 -28.960421 36.844611 0.538103 2.475133 0.057248 0.025858 -282998.000000 0 0 1
18.234733 12.366602 -28.599441 36.102165 0.595937 2.485170 0.041814 0.019512 6366.730000 0 0 1
17.239733 12.210302 -29.600091 36.365715 0.616252 2.521726 0.028316 0.020564 429866.000000 0 0 1
16.019133 12.849302 -29.251071 35.739926 0.676034 2.529491 0.030641 0.002537 -351949.000000 0 0 1
15.064033 13.162202 -30.384431 36.378322 0.718122 2.559356 0.044943 0.003180 -101305.000000 0 0 1
14.391933 12.043702 -30.942321 36.188475 0.696802 2.596410 0.038187 0.016794 -858147.000000 0 0 1
13.170333 11.774702 -30.357751 35.123985 0.729508 2.614558 0.039569 0.003845 -479837.000000 0 0 1
12.187233 10.899002 -31.266221 35.283048 0.729655 2.659775 0.042813 0.013801 720414.000000 0 0 1
11.914933 11.769102 -32.388641 36.462329 0.779241 2.664376 0.043893 0.015530 -1558970.000000 0 0 1
10.868933 11.306902 -33.077741 36.607604 0.805145 2.698840 0.043493 0.018517 -1378000.000000 0 0 1
10.361733 12.288202 -34.116145 37.713085 0.870248 2.701292 0.055673 0.007678 142258.000000 0 0 1
11.277933 12.540102 33.334094 37.357834 0.838341 0.468400 0.046830 0.012159 145025.000000 0 0 1
10.671333 13.132802 32.216727 36.390457 0.888437 0.483642 0.064587 0.004195 -88375.000000 0 0 1
11.488933 13.021102 30.877777 35.425722 0.847829 0.512298 0.069394 0.006149 -63713.100000 0 0 1
11.609433 11.680002 30.457357 34.624442 0.788428 0.495673 0.053404 0.005964 160652.000000 0 0 1
11.822033 11.641002 29.092917 33.491360 0.777683 0.518286 0.059600 0.002031 -567774.000000 0 0 1
12.355433 10.243202 28.621847 32.814479 0.692202 0.511048 0.056487 0.006902 91254.100000 0 0 1
11.545333 9.076702 28.681917 32.223184 0.666257 0.473228 0.054033 0.000354 695374.000000 0 0 1
12.424633 7.951702 28.488477 32.081060 0.569310 0.477785 0.031430 -0.003147 678785.000000 0 0 1
11.619833 6.611402 28.531327 31.508218 0.517295 0.438192 0.035174 -0.002539 383231.000000 0 0 1
10.705733 6.398102 27.459697 30.159300 0.538677 0.426332 0.050317 -0.001014 62145.800000 0 0 1
9.813733 5.332102 27.744047 29.907738 0.497708 0.382714 0.029467 -0.006667 -25265.100000 0 0 1
10.158733 3.926602 27.247787 29.343823 0.368836 0.380256 0.022668 -0.006535 -100099.000000 0 0 1
10.934333 3.219402 28.212777 30.428358 0.286339 0.383964 0.022924 -0.006249 479008.000000 0 0 1
11.378533 1.946602 27.752547 30.057680 0.169436 0.394186 -0.000425 -0.000392 -245924.000000 0 0 1
11.799833 0.947402 28.795747 31.134044 0.080118 0.390035 0.007661 0.002305 842909.000000 0 0 1
10.617333 0.530002 29.510187 31.366539 0.049877 0.345762 0.017679 -0.002243 662362.000000 0 0 1
10.876033 -0.544498 30.360617 32.254482 -0.050022 0.344384 0.027985 -0.009423 174589.000000 0 0 1
9.749133 -0.703298 31.401557 32.887657 -0.072015 0.301767 0.048120 -0.006788 21239.100000 0 0 1
9.751133 0.418002 32.237687 33.682752 0.042841 0.293981 0.034853 -0.011951 621617.000000 0 0 1
8.487333 0.673002 32.857775 33.942910 0.079129 0.253540 0.049960 -0.014695 150687.000000 0 0 1
8.674433 1.834102 33.872710 35.013857 0.208369 0.256007 0.041847 -0.018973 51011.800000 0 0 1
8.821233 3.191702 33.381912 34.674964 0.347166 0.273952 0.036305 -0.015983 119407.000000 0 0 1
9.956633 3.361802 32.572699 34.225969 0.325626 0.312085 0.024510 -0.011139 -532238.000000 0 0 1
10.021033 4.782302 31.909957 33.786637 0.445263 0.334864 0.023079 -0.004864 51113.100000 0 0 1
10.098833 5.872402 32.795674 34.814189 0.526700 0.342195 0.024332 -0.000672 188785.000000 0 0 1
10.470433 7.069302 32.090167 34.487444 0.593865 0.375052 0.027703 0.000161 -163468.000000 0 0 1
10.515033 8.333202 32.979056 35.603740 0.670153 0.386376 0.046184 0.000372 -226318.000000 0 0 1
9.253733 8.872902 33.248778 35.634831 0.764392 0.368020 0.052102 -0.004754 -417833.000000 0 0 1
8.660833 8.299502 -34.128524 36.175239 0.764097 2.803600 0.047456 -0.008019 -495563.000000 0 0 1
7.256133 8.777102 -33.726311 35.597093 0.879979 2.815951 0.053995 -0.004505 -138115.000000 0 0 1
6.862633 8.010402 -32.628591 34.291212 0.862417 2.828919 0.056937 -0.002373 264748.000000 0 0 1
5.484333 8.263902 -32.341201 33.827848 0.984886 2.844025 0.051317 -0.003704 771904.000000 0 0 1
4.894533 7.546402 -31.083291 32.358548 0.995412 2.859913 0.056654 -0.007600 -89748.400000 0 0 1
5.428833 8.210702 -29.939481 31.516034 0.986595 2.823956 0.069763 -0.014976 135886.000000 0 0 1
5.112433 7.516802 -28.694031 30.099613 0.973528 2.834784 0.061063 -0.015399 722917.000000 0 0 1
3.615833 7.604002 -28.217691 29.447125 1.126926 2.851612 0.047743 -0.012105 633910.000000 0 0 1
2.734333 6.855502 -29.031061 29.954582 1.191280 2.892633 0.034298 -0.008794 -1002860.000000 0 0 1
1.471333 6.866302 -28.445251 29.299202 1.359705 2.899566 0.047516 -0.002710 -127754.000000 0 0 1
0.382233 6.384902 -29.479031 30.164985 1.511003 2.927926 0.034431 -0.010550 244483.000000 0 0 1
0.152733 7.290202 -30.553001 31.411085 1.549849 2.907314 0.041962 -0.011892 -89904.600000 0 0 1
-0.499167 6.643202 -31.602561 32.297108 -1.495798 2.933831 0.056356 -0.015802 -548952.000000 0 0 1
-0.323567 7.438802 -32.903341 33.735298 -1.527327 2.919047 0.058269 -0.023955 339376.000000 0 0 1
1.020633 7.684102 -33.317501 34.207353 1.438745 2.913001 0.048325 -0.015693 350913.000000 0 0 1
1.802833 6.645902 -33.835391 34.529001 1.305901 2.940817 0.045698 -0.021336 -294990.000000 0 0 1
1.787933 6.405102 33.177057 33.836949 1.298583 0.197817 0.062975 -0.029090 -28755.100000 0 0 1
0.535233 5.826202 32.844559 33.361597 1.479187 0.176285 0.056799 -0.029829 -145283.000000 0 0 1
0.293333 5.494102 31.500497 31.977375 1.517456 0.172917 0.068539 -0.017190 -224078.000000 0 0 1
1.225133 4.565902 30.700367 31.062211 1.308649 0.152785 0.079881 -0.010786 -96382.800000 0 0 1
0.784333 4.477602 29.379777 29.729369 1.397388 0.153507 0.066873 -0.012858 -35365.100000 0 0 1
1.598233 3.639702 28.588077 28.863124 1.157035 0.138163 0.059630 -0.010874 -64601.000000 0 0 1
1.389833 3.780202 27.052717 27.350888 1.218475 0.147794 0.053405 -0.005784 58400.900000 0 0 1
2.037433 4.915502 26.523127 27.051609 1.177860 0.197990 0.067876 -0.004110 65671.000000 0 0 1
2.023233 5.016702 25.098787 25.675083 1.187449 0.212274 0.052989 -0.006822 -751662.000000 0 0 1
2.453733 6.439202 24.628217 25.574073 1.206722 0.272819 0.049466 -0.001549 -253878.000000 0 0 1
3.791033 6.791402 24.861237 26.049495 1.061671 0.303204 0.049573 0.010910 -544397.000000 0 0 1
4.485333 6.751902 23.647497 24.998210 0.984429 0.330231 0.041914 -0.003834 379436.000000 0 1 0
6.053433 6.879402 23.782147 25.486481 0.849178 0.367780 0.049650 -0.000243 1041980.000000 0 0 1
6.797633 5.874802 24.461947 26.059700 0.712705 0.351989 0.049986 -0.001792 106495.000000 0 0 1
6.589933 4.489402 24.246767 25.524256 0.598032 0.317721 0.049568 -0.009514 -942887.000000 0 0 1
6.794233 3.886902 22.790227 24.096972 0.519643 0.330835 0.038082 -0.012774 42860.900000 0 1 0
5.812633 4.201802 21.843027 22.990426 0.625913 0.317265 0.025924 -0.023299 72945.100000 0 1 0
4.537533 3.568402 21.996327 22.741176 0.666405 0.256646 0.020655 -0.022922 664497.000000 0 1 0
3.575733 4.007102 20.822727 21.504155 0.842224 0.252416 0.010657 -0.029963 264974.000000 0 1 0
3.246533 5.365902 20.815627 21.739899 1.026686 0.292642 0.010658 -0.036149 547057.000000 0 1 0
1.843133 5.577702 20.621127 21.441520 1.251646 0.277519 0.011181 -0.016230 406139.000000 0 1 0
1.547533 7.035302 20.782127 21.995162 1.354278 0.333660 0.018639 -0.006597 -82837.000000 0 1 0
2.148333 7.755502 19.721027 21.299813 1.300565 0.387444 0.017042 -0.025669 -132481.000000 0 1 0
1.744633 9.124202 19.818127 21.887279 1.381867 0.438326 0.030810 -0.029971 238415.000000 0 1 0
2.788433 10.185902 19.388927 22.078461 1.303589 0.498746 0.043424 -0.035179 -328132.000000 0 1 0
2.890433 10.262502 17.981827 20.905015 1.296258 0.535197 0.036187 -0.037373 -281246.000000 0 1 0
3.700633 11.312402 17.490627 21.156256 1.254639 0.597516 0.038345 -0.037579 2137430.000000 0 1 0
5.315433 11.232802 17.592127 21.538630 1.128812 0.615004 0.047772 -0.029055 2050780.000000 0 1 0
5.752533 10.065002 17.049627 20.617606 1.051568 0.597144 0.039042 -0.026172 -335870.000000 0 1 0
7.065233 9.714002 17.435727 21.172716 0.941966 0.603244 0.037577 -0.013852 80302.300000 0 1 0
7.189233 8.177802 17.904127 20.955173 0.849640 0.546399 0.042458 -0.017164 -418389.000000 0 1 0
6.577933 8.004902 19.129527 21.755148 0.882940 0.496384 0.047313 -0.020487 -281875.000000 0 1 0
6.641333 6.685202 19.636027 21.780101 0.788690 0.447439 0.040271 -0.026086 -695281.000000 0 1 0
8.003933 6.127502 20.047827 22.439354 0.653386 0.465889 0.063881 -0.019224 -285635.000000 0 1 0
8.895933 6.036902 18.947127 21.784752 0.596228 0.516116 0.055106 -0.016296 -320612.000000 0 1 0
10.183033 5.540102 19.230827 22.454656 0.498265 0.542483 0.062333 -0.016238 39111.600000 0 1 0
10.366033 3.960002 19.254427 22.223168 0.364908 0.522824 0.057543 -0.009350 -130622.000000 0 1 0
9.686033 3.281502 20.309327 22.738871 0.326651 0.466485 0.059851 -0.011396 295914.000000 0 1 0
10.020833 1.939102 20.241027 22.668842 0.191145 0.467049 0.048590 -0.018167 413592.000000 0 1 0
9.076333 1.045502 21.132327 23.022774 0.114684 0.408071 0.040653 -0.016918 342499.000000 0 1 0
9.408033 1.077502 22.509927 24.420666 0.114033 0.398208 0.041484 -0.011839 -64332.600000 0 1 0
8.780733 0.055802 23.181127 24.788486 0.006355 0.362094 0.042417 -0.022453 -1035880.000000 0 1 0
9.051433 0.000102 24.705477 26.311386 0.000011 0.351186 0.049149 -0.013321 -530262.000000 0 0 1
10.362433 -0.393798 24.980867 27.047714 -0.037984 0.393468 0.041080 -0.016301 -238677.000000 0 0 1
10.582433 -1.771498 24.780777 27.003944 -0.165862 0.408614 0.041342 -0.020472 -517578.000000 0 0 1
11.897333 -2.277798 25.401167 28.141680 -0.189165 0.444985 0.042853 -0.015722 7392.830000 0 0 1
12.081433 -3.643398 24.993467 27.998371 -0.292897 0.467549 0.048966 -0.011822 -394989.000000 0 0 1
13.346533 -4.140598 25.321057 28.921107 -0.300823 0.504282 0.047670 -0.007966 -457136.000000 0 0 1
13.449033 -5.685798 25.298397 29.209822 -0.399977 0.523465 0.051985 -0.007722 -136695.000000 0 0 1
13.404633 -6.340998 24.062087 28.264403 -0.441852 0.552298 0.053967 -0.013217 239092.000000 0 0 1
13.181633 -7.716298 24.337957 28.733828 -0.529602 0.560454 0.066367 -0.016008 76974.500000 0 0 1
13.111033 -8.657598 23.110927 27.945807 -0.583602 0.597062 0.077642 -0.018579 -55978.300000 0 0 1
12.419333 -9.820598 23.400127 28.253317 -0.669076 0.594862 0.065768 -0.014895 -340380.000000 0 0 1
12.630933 -10.723998 22.326627 27.803289 -0.703929 0.638449 0.060179 -0.014477 -275437.000000 0 0 1
11.867933 -12.026798 22.508427 28.144644 -0.792047 0.643933 0.070555 -0.013003 -749090.000000 0 0 1
10.522633 -11.752498 22.272927 27.293411 -0.840555 0.616244 0.086733 -0.015893 -450834.000000 0 0 1
9.700833 -12.947898 22.332727 27.577254 -0.927794 0.626944 0.077576 -0.018130 953087.000000 0 0 1
8.182633 -12.698998 22.550827 27.143320 -0.998401 0.590242 0.051108 -0.019880 569772.000000 0 0 1
7.419233 -12.179198 21.475027 25.778958 -1.023660 0.586207 0.043493 -0.020590 382305.000000 0 0 1
6.051833 -12.037198 21.866127 25.683581 -1.104942 0.552213 0.032444 -0.022905 911216.000000 0 0 1
5.278433 -10.901298 21.136727 24.361063 -1.119867 0.520353 0.023023 -0.018218 351839.000000 0 1 0
5.636233 -9.650498 21.738927 24.443408 -1.042198 0.474858 0.026560 -0.012671 -244600.000000 0 1 0
4.859633 -8.633198 21.194927 23.396006 -1.058103 0.437247 0.022785 -0.006289 17297.000000 0 1 0
5.243333 -7.275998 21.839027 23.608808 -0.946356 0.389663 0.022792 -0.008939 302054.000000 0 1 0
4.537233 -6.216298 21.213327 22.566216 -0.940288 0.348025 0.007765 -0.012466 51412.600000 0 1 0
5.262033 -5.012098 21.460327 22.657355 -0.761076 0.326508 0.031887 -0.033582 236284.000000 0 1 0
-8.571267 -15.591498 -20.799511 27.371173 1.068153 2.433964 0.008644 0.009727 1213.570000 0 0 1
-8.071667 -14.888698 -19.649411 25.940788 1.074012 2.430228 0.005007 0.007894 223459.000000 0 0 1
-7.268267 -13.741398 -19.909711 25.259658 1.084272 2.478678 0.004580 -0.001357 234701.000000 0 0 1
-6.442567 -13.217698 -18.729911 23.812261 1.117263 2.476024 -0.008464 -0.004979 -111928.000000 0 1 0
-5.548567 -14.138198 -18.168711 23.680737 1.196814 2.445317 0.003039 -0.001024 69788.700000 0 1 0
-4.898967 -13.596998 -17.013011 22.323100 1.224977 2.437387 0.032132 -0.011304 547438.000000 0 1 0
-3.769067 -14.478798 -16.354211 22.165326 1.316132 2.400644 0.025145 -0.006583 447776.000000 0 1 0
-2.571067 -14.450698 -17.104811 22.539025 1.394719 2.432415 0.019116 -0.013635 -303540.000000 0 1 0
-1.645667 -15.353698 -16.527611 22.618714 1.464020 2.390151 0.029199 -0.003122 -445312.000000 0 1 0
-0.424967 -15.538298 -17.426311 23.351566 1.543453 2.413220 0.034004 0.004920 -527021.000000 0 1 0
-0.481267 -16.336198 -18.572911 24.739766 1.541345 2.419964 0.068091 -0.015183 -533287.000000 0 1 0
-0.531167 -17.701198 -18.309211 25.472373 1.540798 2.372852 0.059513 -0.005532 -318075.000000 0 0 1
-0.898267 -18.452598 -19.559611 26.905086 1.522155 2.384718 0.074268 -0.019018 127923.000000 0 0 1
-2.277867 -18.458898 -19.890011 27.231088 1.448015 2.389727 0.057953 -0.009184 -186402.000000 0 0 1
-2.555667 -18.837698 -21.220711 28.490505 1.435952 2.411083 0.041753 -0.008190 165524.000000 0 0 1
-3.589767 -17.911898 -21.923311 28.536890 1.373004 2.446891 0.043462 -0.003760 141135.000000 0 0 1
-3.277367 -16.505298 -21.934111 27.645456 1.374781 2.487183 0.044982 0.003252 -224601.000000 0 0 1
-3.606367 -15.780998 -20.748811 26.316515 1.346128 2.479054 0.014309 0.001857 -23987.100000 0 0 1
-2.621067 -14.627398 -20.406211 25.243697 1.393489 2.512172 0.024046 -0.007991 117511.000000 0 0 1
-2.884367 -13.460098 -21.204411 25.280840 1.359699 2.565788 0.015294 -0.017903 405903.000000 0 0 1
-1.882767 -12.473498 -20.952211 24.456658 1.420986 2.599649 0.032162 -0.017283 467895.000000 0 1 0
-1.593567 -11.610398 -22.191111 25.095542 1.434395 2.655714 0.036933 -0.015407 -626335.000000 0 0 1
-2.653367 -10.775598 -22.442711 25.036556 1.329361 2.682371 0.013459 -0.011888 -595566.000000 0 0 1
-2.525767 -10.065998 -23.695711 25.868718 1.324951 2.728787 0.019117 -0.008185 -234522.000000 0 0 1
-3.491667 -8.877898 -23.791911 25.633257 1.196080 2.760250 0.012677 -0.009204 352928.000000 0 0 1
-4.862667 -9.273398 -23.834911 26.033525 1.087845 2.727662 0.040190 -0.013837 1098720.000000 0 0 1
-5.728367 -8.143298 -24.071111 26.048913 0.957762 2.749401 0.029177 -0.014333 620109.000000 0 0 1
-7.265167 -8.441198 -24.037811 26.492506 0.860135 2.707718 0.015838 -0.012099 866739.000000 0 0 1
-7.824467 -8.942298 -25.265671 27.920264 0.851969 2.701994 0.036414 -0.018104 204106.000000 0 0 1
-8.201967 -7.906798 -26.136371 28.511395 0.767077 2.730536 0.045796 -0.019205 -875028.000000 0 0 1
-9.112667 -8.343698 -27.227841 29.900056 0.741376 2.715599 0.039549 -0.019342 -476389.000000 0 0 1
-9.774367 -7.228698 -27.827001 30.366665 0.636784 2.729705 0.043822 -0.018127 -36526.400000 0 0 1
-10.466567 -7.715598 -28.949351 31.735539 0.635237 2.719433 0.050288 -0.020799 119968.000000 0 0 1
-11.385867 -6.698098 -29.730411 32.533058 0.531759 2.723469 0.069279 -0.027808 664048.000000 0 0 1
-10.607867 -5.669698 -30.341271 32.638399 0.490850 2.764174 0.042813 -0.014497 457773.000000 0 0 1
-11.430967 -4.976398 -31.296311 33.688138 0.410599 2.762500 0.081864 -0.027062 484770.000000 0 0 1
-10.673467 -3.848798 -32.074451 34.022148 0.346082 2.801585 0.061854 -0.032977 255182.000000 0 0 1
-9.698667 -4.367298 -32.961311 34.635032 0.423102 2.829443 0.052557 -0.031721 245538.000000 0 0 1
-9.074067 -3.359598 -33.774571 35.133278 0.354593 2.862577 0.052184 -0.034237 -2374.750000 0 0 1
-8.001267 -3.948898 33.810077 34.967633 0.458462 0.258023 0.041509 -0.026526 442795.000000 0 0 1
-6.748767 -4.121998 -34.057731 34.963778 0.548307 2.913441 0.031653 -0.025888 1214460.000000 0 0 1
-5.666067 -4.519698 33.548539 34.322536 0.673324 0.212772 0.027304 -0.023935 1063130.000000 0 0 1
-4.225467 -4.222698 33.971593 34.492824 0.785070 0.174066 0.032677 -0.026348 -55307.500000 0 0 1
-3.976367 -2.824198 34.011428 34.359349 0.617569 0.142429 0.042178 -0.029865 -31132.000000 0 0 1
-2.601267 -2.607698 -34.251999 34.449472 0.786633 3.034469 0.042424 -0.032515 272256.000000 0 0 1
-2.312467 -1.083798 -34.046561 34.142209 0.438276 3.066723 0.057428 -0.034001 39005.000000 0 0 1
-2.602167 -0.699098 -32.705601 32.816404 0.262462 3.059394 0.037717 -0.039284 83696.800000 0 0 1
-3.176767 0.565102 -32.480251 32.640127 -0.176044 3.042576 0.059732 -0.041218 -490719.000000 0 0 1
-3.627267 0.644002 -31.002291 31.220408 -0.175714 3.023318 0.088640 -0.043007 900703.000000 0 0 1
-4.880567 -0.002198 -30.697661 31.083216 0.000450 2.983924 0.060995 -0.040219 943686.000000 0 0 1
-6.009667 0.871302 -30.744721 31.338684 -0.143980 2.946589 0.065586 -0.039654 -433731.000000 0 0 1
-7.308467 0.095202 -30.818011 31.672900 -0.013025 2.908726 0.057621 -0.042063 -785007.000000 0 0 1
-7.646767 -0.470198 -29.597451 30.572917 0.061412 2.888305 0.045311 -0.027760 -178499.000000 0 0 1
-8.531867 -1.565198 -29.743091 30.982157 0.181436 2.857824 0.059511 -0.017351 63554.400000 0 0 1
-8.768267 -2.356398 -28.419951 29.835025 0.262539 2.832369 0.052286 -0.009209 -550349.000000 0 0 1
-9.639367 -1.834698 -27.499481 29.197688 0.188084 2.798853 0.053219 -0.006878 -349253.000000 0 0 1
-9.600067 -2.511998 -26.291841 28.102177 0.255927 2.780695 0.036852 -0.003175 -91208.800000 0 0 1
-10.621167 -1.999798 -25.267691 27.482078 0.186105 2.737410 0.042758 0.004525 111231.000000 0 0 1
-10.236567 -0.709198 -24.719311 26.764428 0.069170 2.748133 0.035324 -0.000157 626023.000000 0 0 1
-11.220767 -0.196898 -23.805211 26.317911 0.017546 2.701061 0.044791 -0.009160 433292.000000 0 0 1
-10.789067 1.178102 -23.246511 25.655256 -0.108763 2.704795 0.052748 -0.014443 241807.000000 0 0 1
-10.872967 2.249402 -24.186211 26.613043 -0.204002 2.711220 0.039729 -0.019704 103304.000000 0 0 1
-10.081767 3.315802 -23.693411 25.961785 -0.317747 2.720460 0.038401 -0.016355 -269477.000000 0 0 1
-9.914467 4.560602 -24.597211 26.909451 -0.431134 2.724013 0.040921 -0.021220 230303.000000 0 0 1
-11.034767 5.436802 -24.782611 27.667720 -0.457789 2.680851 0.045729 -0.021561 756879.000000 0 0 1
-11.892367 4.948702 -25.853161 28.884321 -0.394329 2.679359 0.041004 -0.023399 -125960.000000 0 0 1
-13.221067 5.651302 -26.072251 29.774085 -0.403941 2.637616 0.031753 -0.012546 -536783.000000 0 0 1
-13.151267 6.957902 -26.618771 30.494708 -0.486630 2.631907 0.029985 -0.016966 -69178.800000 0 0 1
-14.423767 7.516102 -26.847921 31.390249 -0.480378 2.596916 0.027354 -0.010219 -263743.000000 0 0 1
-14.356367 9.090902 -27.015311 31.915150 -0.564497 2.580122 0.039715 -0.012588 -94614.400000 0 0 1
-14.188367 9.748402 -25.775001 30.995028 -0.601995 2.552752 0.056712 -0.023785 157562.000000 0 0 1
-14.631567 11.084102 -25.804971 31.667596 -0.648314 2.523301 0.050629 -0.023440 -153034.000000 0 0 1
-14.218167 11.835702 -24.503711 30.702964 -0.694208 2.494914 0.047099 -0.016232 -65161.900000 0 0 1
-15.050567 11.505702 -23.431911 30.132295 -0.652698 2.461691 0.057643 -0.015495 -25037.200000 0 0 1
-14.467167 11.962802 -22.222711 29.090487 -0.690925 2.440157 0.048013 -0.009381 -542421.000000 0 0 1
-15.318267 11.808202 -20.971911 28.529003 -0.656717 2.396623 0.046521 -0.006399 110428.000000 0 0 1
-16.577667 12.447102 -21.174311 29.632766 -0.644036 2.366787 0.035618 -0.009955 295755.000000 0 0 1
-17.263067 12.741502 -19.977311 29.316417 -0.635828 2.320522 0.034978 -0.000793 344091.000000 0 0 1
-18.771467 13.080602 -20.093511 30.450276 -0.608598 2.291455 0.044417 -0.004963 253777.000000 0 0 1
-19.121467 14.320202 -20.702011 31.611263 -0.642801 2.284838 0.047491 -0.010134 -297850.000000 0 0 1
-20.504667 14.404302 -20.899111 32.629712 -0.612394 2.265937 0.034862 -0.011352 -333380.000000 0 0 1
-21.004367 15.710402 -21.517411 33.926378 -0.642193 2.257819 0.025343 -0.017870 -185184.000000 0 0 1
-20.835967 15.853802 -22.906611 34.787834 -0.650432 2.289575 0.024880 -0.019245 141764.000000 0 0 1
-20.943167 17.208602 -23.311811 35.751822 -0.687822 2.281075 0.002737 -0.005169 -165608.000000 0 0 1
-21.028767 17.390702 -24.845711 36.904673 -0.690986 2.309379 -0.002896 -0.009522 -306178.000000 0 0 1
-19.829967 17.434902 -25.568321 36.755169 -0.721215 2.340105 0.003614 -0.015333 -348890.000000 0 0 1
-19.836867 16.669302 -26.803351 37.279841 -0.698847 2.373126 -0.000685 -0.021246 -123655.000000 0 0 1
-18.776767 17.354102 -27.693301 37.691521 -0.746043 2.396073 -0.022048 -0.009288 81080.600000 0 0 1
-19.176467 18.656202 -28.110031 38.806760 -0.771647 2.380901 -0.037228 -0.024014 362061.000000 0 0 1
-18.435067 19.695102 -27.466321 38.498669 -0.818432 2.365185 -0.051961 -0.024210 -1182600.000000 0 0 1
-19.143267 21.071502 -27.533601 39.605202 -0.833310 2.339497 -0.005207 -0.023426 -111026.000000 0 0 1
-20.275167 21.398902 -26.800831 39.840682 -0.812356 2.308648 0.014732 -0.018888 6121.560000 0 0 1
-21.409667 20.553202 -26.995811 40.119593 -0.764991 2.308896 0.050098 -0.038052 -395461.000000 0 0 1
-22.568167 20.952102 -26.046361 40.332687 -0.748282 2.272851 0.049222 -0.022991 -85612.000000 0 0 1
-22.370567 20.621802 -24.671111 39.170968 -0.744744 2.252133 0.013072 -0.012664 -622599.000000 0 0 1
-23.280167 21.304602 -23.890011 39.580107 -0.741117 2.218788 0.013459 -0.022899 -717890.000000 0 0 1
-23.040767 21.295702 -22.378911 38.538287 -0.746059 2.190376 0.000771 -0.011310 -54249.400000 0 0 1
-21.817167 21.780302 -21.853911 37.788408 -0.784553 2.187468 -0.000721 -0.006009 231752.000000 0 0 1
-20.879667 20.833002 -21.350211 36.411619 -0.784279 2.197351 0.000228 -0.006628 -200902.000000 0 0 1
-21.294267 20.033102 -20.066011 35.460059 -0.754891 2.172292 0.022542 -0.018992 -615806.000000 0 0 1
-22.150867 18.891202 -20.326111 35.506186 -0.706142 2.180308 0.038611 -0.021623 860864.000000 0 0 1
-22.767267 18.402702 -19.118111 34.964411 -0.679779 2.149319 0.032502 -0.007889 -102626.000000 0 0 1
-23.825067 19.185702 -18.353311 35.673085 -0.677948 2.111205 0.009663 -0.003863 -520865.000000 0 0 1
-25.101597 19.227102 -18.977611 36.877111 -0.653645 2.111358 0.007567 -0.000173 19880.200000 0 0 1
-25.807207 20.366302 -18.556011 37.750811 -0.668103 2.084653 0.005646 -0.002772 -980891.000000 0 0 1
-27.218857 20.325902 -19.158611 39.000780 -0.641423 2.084305 -0.007087 0.008564 101882.000000 0 0 1
-28.034667 19.198902 -18.762311 38.814491 -0.600470 2.075313 0.002720 0.009179 564016.000000 0 0 1
-28.550517 19.252402 -17.408411 38.585487 -0.593288 2.038866 -0.003245 0.006350 -579922.000000 0 0 1
-29.366487 18.021402 -16.996811 38.419436 -0.550412 2.029071 -0.004661 0.004539 -334529.000000 0 0 1
-28.598327 16.943402 -16.615811 37.162190 -0.534858 2.034335 0.016904 -0.000854 -631367.000000 0 0 1
-29.467197 15.897202 -16.396011 37.280905 -0.494737 2.026168 0.017649 0.001678 49898.400000 0 0 1
-28.934457 14.739602 -15.474911 35.971260 -0.471150 2.015513 0.053796 -0.004192 -27634.100000 0 0 1
-28.547717 15.067302 -14.139811 35.241027 -0.485634 1.983657 0.064402 -0.000446 217844.000000 0 0 1
-29.569917 15.568402 -13.266011 35.954724 -0.484618 1.948691 0.036964 0.005346 246036.000000 0 0 1
-29.043487 16.018602 -11.874111 35.229452 -0.504024 1.914579 0.051942 -0.000351 272219.000000 0 0 1
-28.306727 17.247402 -11.943011 35.233211 -0.547233 1.916618 0.041782 0.003580 -34333.900000 0 0 1
-29.114977 18.374202 -12.046311 36.474742 -0.562967 1.907380 0.010378 0.003926 -405894.000000 0 0 1
-28.244147 19.583302 -12.382911 36.531822 -0.606254 1.916610 0.027872 -0.007291 285688.000000 0 0 1
-27.479537 20.087102 -11.298111 35.864522 -0.631219 1.891276 0.027788 -0.017236 195394.000000 0 0 1
-26.582697 21.103402 -11.754211 35.918725 -0.670996 1.904183 0.018845 -0.014760 542429.000000 0 0 1
-26.074867 22.059602 -10.588311 35.758035 -0.702173 1.871414 0.029035 -0.011348 -20928.000000 0 0 1
-26.839257 23.167602 -10.296511 36.920206 -0.712107 1.853430 0.041953 -0.019484 -534402.000000 0 0 1
-26.007937 24.248102 -10.082811 36.960064 -0.750395 1.847102 0.048803 -0.016676 89002.400000 0 0 1
-26.741697 25.203502 -9.098711 37.856590 -0.755795 1.813519 0.073321 0.003394 353659.000000 0 0 1
-26.580697 24.641702 -7.822611 37.080186 -0.747562 1.783358 0.068122 0.002592 441636.000000 0 0 1
-27.696617 24.894402 -6.977911 37.888324 -0.732165 1.756024 0.083678 -0.008392 253051.000000 0 0 1
-27.462697 24.196002 -5.634811 37.032382 -0.722246 1.723549 0.085123 -0.007066 -188061.000000 0 0 1
-27.492957 22.755802 -5.738011 36.147116 -0.691402 1.730211 0.088358 -0.009984 -41613.800000 0 0 1
-27.222617 22.200702 -4.451511 35.408445 -0.684135 1.696849 0.082732 -0.012603 66777.200000 0 0 1
-27.329017 20.642102 -4.600111 34.556223 -0.646896 1.704312 0.074966 -0.013175 816502.000000 0 0 1
-26.255907 20.044802 -5.380711 33.468176 -0.652047 1.732268 0.067623 -0.020615 585607.000000 0 0 1
-26.200097 20.198402 -6.786211 33.770893 -0.656761 1.773122 0.052484 -0.010489 -808903.000000 0 0 1
-27.196637 19.360702 -7.649011 34.249105 -0.618654 1.796030 0.050898 -0.010559 -63071.700000 0 0 1
-27.038867 17.923802 -7.577011 33.313272 -0.585384 1.800252 0.045136 -0.005951 212442.000000 0 0 1
-27.125897 17.263802 -8.819711 33.341273 -0.566778 1.838511 0.020262 -0.005885 -338444.000000 0 0 1
-26.901837 15.746202 -8.710911 32.365594 -0.529556 1.843297 0.052703 -0.000075 294079.000000 0 0 1
-27.933517 14.932102 -8.148011 32.705338 -0.490911 1.822582 0.028304 -0.000408 267166.000000 0 0 1
-27.610367 13.608402 -8.496811 31.933004 -0.457930 1.840123 0.048676 -0.014678 200163.000000 0 0 1
-28.429687 12.571702 -7.704111 32.025742 -0.416351 1.813739 0.041068 -0.019012 609833.000000 0 0 1
-29.842937 12.710902 -7.888811 33.382649 -0.402655 1.809368 0.039037 -0.015083 695499.000000 0 0 1
-30.687727 11.693202 -7.346211 33.651662 -0.364054 1.790870 0.049761 -0.024081 346512.000000 0 0 1
-30.934067 10.448702 -8.272011 33.682608 -0.325741 1.818922 0.053597 -0.021905 263928.000000 0 0 1
-29.793547 9.597402 -8.396911 32.407926 -0.311634 1.832887 0.060707 -0.013315 592636.000000 0 0 1
-30.274697 8.345302 -8.838911 32.624036 -0.268973 1.845158 0.061715 -0.009646 32235.000000 0 0 1
-29.153117 7.374102 -9.284711 31.472011 -0.247747 1.870267 0.094096 -0.010799 -176537.000000 0 0 1
-28.685127 7.722302 -10.585611 31.536100 -0.262975 1.913109 0.099298 -0.018543 -19402.500000 0 0 1
-27.755627 6.743102 -10.963211 30.594710 -0.238328 1.937282 0.112498 -0.028028 -162258.000000 0 0 1
-27.032187 7.010702 -12.339611 30.531215 -0.253756 1.986861 0.098003 -0.027742 -165826.000000 0 0 1
-26.170807 8.099302 -12.291111 30.026343 -0.300130 1.992532 0.116175 -0.026049 -194817.000000 0 0 1
-25.362737 8.165902 -13.409211 29.828800 -0.311484 2.037046 0.108965 -0.018796 -593954.000000 0 0 1
-30.881497 25.678802 33.872221 52.539462 -0.693671 0.870165 0.005422 0.014186 49661.200000 0 0 1
-31.246487 27.073602 33.731662 53.358672 -0.713968 0.886448 -0.001812 0.002876 376134.000000 0 0 1
-31.701547 27.474702 32.464603 53.045243 -0.714091 0.912188 0.015416 -0.005000 -92175.600000 0 0 1
-31.979167 28.960302 32.298837 53.894166 -0.735900 0.928168 0.019889 -0.012829 224387.000000 0 0 1
-32.820287 29.202602 31.174677 53.868578 -0.727136 0.953641 0.043507 -0.011644 250405.000000 0 0 1
-32.923487 30.609402 31.076277 54.650036 -0.748991 0.965943 0.055880 -0.015233 -57727.400000 0 0 1
-32.444967 31.153202 29.700647 53.901079 -0.765090 0.987209 0.070704 -0.020790 -173352.000000 0 0 1
-31.047767 31.140402 29.542487 52.975910 -0.786888 0.979234 0.050128 -0.017305 -239556.000000 0 0 1
-30.707897 31.962802 28.446237 52.666726 -0.805419 1.000219 0.050553 -0.004592 -67737.900000 0 0 1
-29.238057 31.716302 28.059687 51.460022 -0.826033 0.994083 0.048688 -0.005486 -558587.000000 0 0 1
-28.954297 30.491302 27.489477 50.236861 -0.811248 0.991784 0.056719 -0.006523 820154.000000 0 0 1
-27.772907 30.441502 26.649557 49.073601 -0.831207 0.996728 0.023838 0.005299 621378.000000 0 0 1
-27.823477 31.349502 25.330467 48.975195 -0.844916 1.027208 0.019763 0.000316 -376416.000000 0 0 1
-27.723337 32.761402 25.662067 50.004345 -0.868501 1.031891 0.014282 -0.000012 31123.100000 0 0 1
-28.178197 33.613302 24.658857 50.318228 -0.873131 1.058640 0.020194 0.000392 -110744.000000 0 0 1
-28.264437 -33.513934 25.203987 50.569785 0.870168 1.049044 0.041105 -0.003940 290513.000000 0 0 1
-29.172687 -33.499234 26.309947 51.628071 0.854324 1.036070 0.053867 -0.016903 435793.000000 0 0 1
-29.326317 -32.242634 26.896677 51.215736 0.832729 1.017888 0.042684 -0.015821 -2929.410000 0 0 1
-30.049867 -32.299934 28.274487 52.399684 0.821470 1.000843 0.050461 -0.022669 -102703.000000 0 0 1
-31.406717 -32.693634 28.261787 53.422694 0.805472 1.013349 0.064269 -0.028348 74438.700000 0 0 1
-31.794127 -33.008434 29.568427 54.540949 0.804135 0.997823 0.057365 -0.023205 -38425.300000 0 0 1
-33.303197 -33.165834 29.833927 55.669908 0.783332 1.005214 0.072163 -0.028598 43582.000000 0 0 1
-33.612927 -33.710534 31.111717 56.869745 0.786848 0.991937 0.050113 -0.024445 953431.000000 0 0 1
-35.016100 -33.905234 31.396837 57.978043 0.769282 0.998541 0.055017 -0.027513 970137.000000 0 0 1
-35.296537 34.148302 32.814455 59.065561 -0.768865 0.981760 0.057027 -0.018804 -212623.000000 0 0 1
-34.859945 32.838802 33.098525 58.216106 -0.755552 0.966059 0.023871 -0.006168 -36914.000000 0 0 1
-35.600040 32.235302 34.156377 58.933315 -0.735837 0.952587 0.035727 -0.001375 120763.000000 0 0 1
-35.092068 30.855602 -33.919271 57.741132 -0.721246 2.198684 0.014601 0.004819 785191.000000 0 0 1
-34.029717 30.928002 -32.936501 56.563027 -0.737685 2.192348 0.011483 0.003714 216134.000000 0 0 1
-33.618587 29.593402 -32.672881 55.439120 -0.721806 2.201047 0.002683 0.003211 244785.000000 0 0 1
-32.926337 29.441702 -31.309971 54.141221 -0.729584 2.187442 -0.003608 0.001584 594815.000000 0 0 1
-33.814107 29.748302 -30.187871 54.218658 -0.721520 2.161301 0.000193 -0.000132 301659.000000 0 0 1
-33.958297 31.142702 -29.863221 54.907611 -0.742175 2.145852 -0.011884 0.011351 -8302.730000 0 0 1
-34.967822 31.408302 -28.752891 55.099535 -0.731823 2.119798 -0.011616 0.010271 88870.900000 0 0 1
-34.513690 30.991502 -27.487741 53.918864 -0.731680 2.105747 -0.027140 -0.001074 -596420.000000 0 0 1
-35.586125 31.022702 -26.616971 54.196342 -0.716994 2.084173 0.008226 -0.007433 -565567.000000 0 0 1
-35.239079 30.557602 -25.190941 53.010784 -0.714367 2.065992 0.014499 -0.021197 -138767.000000 0 0 1
-34.687903 31.574702 -24.381511 52.864643 -0.738450 2.050151 0.006796 -0.013063 -7741.050000 0 0 1
-34.395930 31.336102 -22.994511 51.901626 -0.738882 2.029783 0.006734 -0.020349 54472.300000 0 0 1
-35.688616 31.056502 -22.178311 52.249987 -0.716109 2.009168 0.007961 -0.017791 362932.000000 0 0 1
35.971861 32.133202 -21.951311 52.994127 0.729094 1.997884 0.018263 -0.020740 -190025.000000 0 0 1
-36.264227 33.355402 -21.312011 53.683133 -0.743641 1.979038 0.031374 -0.027721 -676489.000000 0 0 1
-36.060247 33.250302 -19.764711 52.882585 -0.744879 1.953842 0.029368 -0.026238 -565243.000000 0 0 1
-34.955466 32.449902 -19.517711 51.534666 -0.748244 1.959220 0.025849 -0.025648 -709022.000000 0 0 1
-34.738306 32.274402 -18.119611 50.761277 -0.748647 1.935805 0.039688 -0.013532 259329.000000 0 0 1
-33.504337 31.365802 -17.854011 49.245506 -0.752444 1.941800 0.041877 -0.009528 161324.000000 0 0 1
-33.382607 31.180002 -16.440311 48.547655 -0.751296 1.916270 0.035902 -0.004943 -516247.000000 0 0 1
-32.431007 30.215902 -16.157411 47.178733 -0.750054 1.920343 0.028839 -0.005457 -483149.000000 0 0 1
-32.068517 30.178302 -14.622011 46.399600 -0.755041 1.891392 0.042941 -0.011632 -252733.000000 0 0 1
-33.093047 29.561002 -13.908511 46.502143 -0.729084 1.874539 0.032891 -0.006654 -121798.000000 0 0 1
-32.839257 29.540102 -12.533711 45.914359 -0.732559 1.847286 0.044918 -0.003863 -10381.300000 0 0 1
-33.851937 28.570002 -11.867511 45.858876 -0.700983 1.832559 0.037041 -0.006176 275256.000000 0 0 1
-33.467527 28.365102 -10.553711 45.122447 -0.703065 1.806874 0.038425 -0.004015 -151416.000000 0 0 1
-34.357477 27.494602 -9.954211 45.116246 -0.674894 1.793262 0.047058 -0.012962 -119486.000000 0 0 1
-33.654537 26.584902 -8.890611 43.799861 -0.668574 1.775199 0.044377 -0.004032 78869.300000 0 0 1
-33.222667 27.444802 -7.857611 43.803023 -0.690446 1.751158 0.064049 -0.011882 81406.200000 0 0 1
-32.187037 26.778402 -7.139811 42.474287 -0.693929 1.739695 0.058793 -0.020803 -208527.000000 0 0 1
-31.530577 27.645202 -6.057711 42.368979 -0.719834 1.714263 0.077239 -0.021074 128636.000000 0 0 1
-30.549617 26.803502 -5.423311 41.001453 -0.720174 1.703456 0.090939 -0.018357 470099.000000 0 0 1
-30.297427 27.303602 -4.153711 40.996025 -0.733470 1.672290 0.085042 -0.018690 216378.000000 0 0 1
-29.353717 26.358002 -3.306411 39.589359 -0.731678 1.654411 0.086372 -0.020227 9274.500000 0 0 1
-29.922777 25.124802 -3.041311 39.190277 -0.698457 1.648478 0.069272 -0.014398 -454114.000000 0 0 1
-29.161707 24.293702 -2.217511 38.019817 -0.694582 1.629155 0.056066 -0.012387 -209075.000000 0 0 1
-29.987887 23.135202 -1.596011 37.908550 -0.657110 1.612910 0.053024 -0.018707 -52005.000000 0 0 1
-30.464217 22.315002 -2.605911 37.852590 -0.632206 1.639694 0.039178 -0.008115 -1150680.000000 0 0 1
-31.486097 21.499502 -2.280111 38.194264 -0.599106 1.630530 0.046485 -0.011229 -1028520.000000 0 0 1
-31.912907 20.610702 -3.459711 38.147140 -0.573447 1.661615 0.053308 -0.009454 232596.000000 0 0 1
-30.889527 19.680302 -3.802311 36.823019 -0.567267 1.674240 0.040056 -0.014786 160229.000000 0 0 1
-31.232077 19.008002 -5.006811 36.902777 -0.546723 1.706892 0.042711 -0.006495 192833.000000 0 0 1
-30.163477 18.023602 -5.581811 35.578676 -0.538602 1.728334 0.042570 -0.013295 128091.000000 0 0 1
-29.918327 16.874602 -4.793911 34.681985 -0.513545 1.709465 0.042495 -0.007641 -28193.200000 0 0 1
-29.549447 15.797202 -5.582711 33.968928 -0.490945 1.735893 0.037510 -0.021225 -913755.000000 0 0 1
-29.284207 14.488102 -4.798611 33.022667 -0.459432 1.716625 0.044642 -0.017299 208596.000000 0 0 1
-30.395757 13.791802 -4.216511 33.643645 -0.425961 1.696455 0.044239 -0.015754 475905.000000 0 0 1
-29.899387 12.668102 -3.531011 32.663775 -0.400761 1.679110 0.053304 -0.025871 344263.000000 0 0 1
-31.002707 11.777702 -2.873411 33.288716 -0.363053 1.657222 0.055633 -0.030597 -126733.000000 0 0 1
-31.996277 11.345202 -3.751511 34.154783 -0.340748 1.680857 0.057654 -0.019075 -440564.000000 0 0 1
-32.897337 10.533102 -3.078711 34.679381 -0.309867 1.659690 0.063109 -0.016114 -488325.000000 0 0 1
-33.950257 9.912102 -4.011911 35.594454 -0.284064 1.683748 0.056250 -0.008521 -419760.000000 0 0 1
-33.379167 9.172002 -4.992311 34.974528 -0.268164 1.714027 0.050487 -0.015208 -139314.000000 0 0 1
-34.337382 8.734402 -5.924711 35.922803 -0.249087 1.736482 0.053736 -0.007969 -173753.000000 0 0 1
-33.726047 7.909802 -7.069011 35.355087 -0.230367 1.772096 0.060019 -0.015496 -337439.000000 0 0 1
-33.297167 6.688502 -6.479511 34.574868 -0.198235 1.759316 0.055456 -0.014572 255923.000000 0 0 1
-32.901887 5.752802 -7.470411 34.226247 -0.173097 1.790833 0.072103 -0.013289 5338.840000 0 0 1
-31.813967 4.720202 -7.014511 32.918265 -0.147294 1.785532 0.090767 -0.018466 1494550.000000 0 0 1
-30.471527 5.281402 -6.966611 31.700802 -0.171618 1.792366 0.097048 -0.025908 1488540.000000 0 0 1
-29.547097 4.322502 -6.487911 30.558272 -0.145262 1.784737 0.096736 -0.028179 777620.000000 0 0 1
-28.081357 4.823302 -6.220311 29.163661 -0.170102 1.785737 0.122890 -0.025976 912347.000000 0 0 1
-27.323857 5.090302 -7.406711 28.763931 -0.184184 1.831230 0.119162 -0.024267 -524119.000000 0 0 1
-25.979527 4.957502 -7.066911 27.376156 -0.188557 1.831894 0.138730 -0.028035 -852089.000000 0 0 1
-25.087847 5.333102 -8.254511 26.943998 -0.209459 1.882161 0.126812 -0.030328 -322362.000000 0 0 1
-25.129067 4.372002 -9.331811 27.160028 -0.172258 1.921529 0.123371 -0.041372 69057.200000 0 0 1
-24.263267 4.696102 -10.370311 26.801173 -0.191184 1.968102 0.115817 -0.042463 -357814.000000 0 0 1
-24.366967 3.764102 -11.574411 27.237558 -0.153264 2.009695 0.113167 -0.053735 -388396.000000 0 0 1
-25.502377 4.117302 -12.298211 28.610652 -0.160067 2.015120 0.117378 -0.033830 -155381.000000 0 0 1
-25.868197 3.168602 -13.286111 29.252768 -0.121883 2.042251 0.119037 -0.034475 615156.000000 0 0 1
-26.803067 3.975002 -14.302711 30.639396 -0.147231 2.056474 0.104124 -0.028325 539506.000000 0 0 1
-26.042847 4.929402 -15.076411 30.493066 -0.187067 2.087965 0.087105 -0.020963 890743.000000 0 0 1
-26.842157 5.809702 -15.892011 31.730270 -0.213152 2.095373 0.111942 -0.032552 187840.000000 0 0 1
-27.885827 5.350202 -16.885511 33.035806 -0.189557 2.107292 0.077448 -0.003574 232667.000000 0 0 1
-29.106267 4.698902 -16.570611 33.820698 -0.160059 2.082834 0.089940 -0.023535 387883.000000 0 0 1
-29.761587 4.152502 -17.710211 34.880466 -0.138631 2.103356 0.078930 -0.006256 175846.000000 0 0 1
-31.055167 3.389402 -17.344711 35.731645 -0.108711 2.077635 0.076296 -0.006926 -75028.500000 0 0 1
-30.921047 2.207202 -16.617211 35.172640 -0.071261 2.062862 0.086670 -0.018672 116390.000000 0 0 1
-30.687027 1.035702 -17.351211 35.267986 -0.033738 2.085161 0.088429 -0.021872 -57585.300000 0 0 1
-31.109707 -0.172298 -16.499611 35.214780 0.005538 2.058436 0.091233 -0.021983 -276329.000000 0 0 1
-30.868867 -1.445098 -17.071311 35.304461 0.046780 2.075497 0.088861 -0.011893 158968.000000 0 0 1
-31.014307 -2.455598 -16.126111 35.042384 0.079011 2.049004 0.095114 -0.016466 7189.310000 0 0 1
-30.874107 -3.805798 -16.813511 35.360836 0.122650 2.066310 0.080325 -0.013914 373504.000000 0 0 1
-31.930807 -3.926898 -17.781611 36.758437 0.122367 2.075722 0.083211 -0.014201 511607.000000 0 0 1
-31.931917 -5.151998 -18.512911 37.268194 0.159965 2.090644 0.075555 -0.012839 -125276.000000 0 0 1
-32.810077 -5.254098 -19.765511 38.662413 0.158789 2.107415 0.084044 -0.017986 -150204.000000 0 0 1
-32.673997 -6.483098 -20.471511 39.098637 0.195874 2.121851 0.097087 -0.015845 -206594.000000 0 0 1
-33.466927 -6.493298 -21.607411 40.361843 0.191640 2.135710 0.104351 -0.014271 -457154.000000 0 0 1
-33.280637 -7.694398 -22.532911 40.921103 0.227205 2.153930 0.108254 -0.012624 -272070.000000 0 0 1
-31.985897 -7.672998 -23.068311 40.176106 0.235438 2.182398 0.090125 -0.013039 -235161.000000 0 0 1
-31.841757 -8.654998 -24.109311 40.866433 0.265401 2.201798 0.073939 -0.014336 790745.000000 0 0 1
-30.349997 -8.616498 -24.614811 40.015688 0.276626 2.233346 0.058422 -0.013008 607184.000000 0 0 1
-29.961547 -7.372998 -25.174491 39.822235 0.241288 2.255149 0.055457 -0.016335 -61045.300000 0 0 1
-29.883667 -7.276498 -26.583051 40.652670 0.238846 2.283533 0.031435 -0.008611 434358.000000 0 0 1
-31.212577 -7.084198 -27.411861 42.140491 0.223185 2.279022 0.039125 -0.014928 273617.000000 0 0 1
-32.027797 -8.191598 -27.318491 42.885686 0.250397 2.261406 0.047355 -0.015816 -69377.900000 0 0 1
-33.269377 -8.112298 -28.041741 44.260593 0.239170 2.256942 0.049874 -0.015003 892998.000000 0 0 1
-34.221378 -9.240298 -27.566881 44.904552 0.263726 2.231787 0.060909 -0.019756 -441698.000000 0 0 1
-33.736797 -10.575998 -27.746111 44.942963 0.303782 2.236182 0.055515 -0.010410 273399.000000 0 0 1
-34.636564 -11.637498 -27.348741 45.640734 0.324139 2.213320 0.050778 -0.008493 297973.000000 0 0 1
-35.885564 -11.899198 -28.233121 47.185525 0.320178 2.212228 0.033644 0.000323 -747736.000000 0 0 1
35.738461 -10.975998 -27.925401 46.664100 -0.297976 2.212342 0.026686 -0.003792 -1007710.000000 0 0 1
34.967091 -10.613998 -29.043941 46.678742 -0.294704 2.242358 0.024909 -0.001389 242836.000000 0 0 1
33.949961 -9.442298 -28.740041 45.472484 -0.271268 2.254968 0.032124 -0.000622 488039.000000 0 0 1
32.906321 -9.909898 -27.900061 44.265624 -0.292516 2.252720 0.017583 0.005810 34797.900000 0 0 1
31.987751 -8.877998 -27.575461 43.156009 -0.270730 2.263957 0.009993 0.008202 -44080.800000 0 0 1
30.834881 -9.289798 -26.663821 41.809683 -0.292627 2.262360 0.007371 0.014638 -397069.000000 0 0 1
31.172221 -9.665098 -25.325251 41.309682 -0.300656 2.230722 -0.000538 0.012968 819223.000000 0 0 1
29.998311 -10.064798 -24.577211 40.065424 -0.323710 2.231189 -0.012674 0.018265 855711.000000 0 0 1
30.383201 -10.173198 -23.114411 39.508340 -0.323097 2.195740 -0.021503 0.016508 176176.000000 0 0 1
30.967681 -11.441698 -22.793911 40.118227 -0.353916 2.175075 -0.023991 0.018592 197984.000000 0 0 1
31.358761 -11.512298 -21.423811 39.684816 -0.351841 2.141054 -0.005686 0.013356 -40004.600000 0 0 1
32.386711 -12.617598 -21.113311 40.667859 -0.371502 2.116669 0.024659 0.011871 -153282.000000 0 0 1
33.701881 -12.366598 -21.541411 41.866239 -0.351686 2.111255 0.029215 0.010197 144607.000000 0 0 1
34.610051 -13.315798 -20.937311 42.585645 -0.367281 2.084782 0.059510 0.014025 1142950.000000 0 0 1
36.082821 -13.269198 -21.504511 44.050944 -0.352393 2.080792 0.077022 -0.001750 929561.000000 0 0 1
-35.819925 -12.012598 -21.167811 43.306417 0.323574 2.081500 0.085817 0.004031 581462.000000 0 0 1
-36.170357 -10.813298 -21.886411 43.637566 0.290498 2.096186 0.081164 0.002951 -822696.000000 0 0 1
-35.770335 -10.857898 -23.398411 44.100981 0.294706 2.130063 0.069249 -0.006122 145084.000000 0 0 1
36.176581 -11.765998 -24.291211 45.135869 -0.314447 2.139072 0.074177 -0.003445 234794.000000 0 0 1
34.781291 -11.636698 -24.515511 44.115318 -0.322861 2.160018 0.089814 0.003118 98944.700000 0 0 1
34.399881 -12.684398 -25.565941 44.697462 -0.353266 2.179711 0.046385 -0.004302 -340013.000000 0 0 1
34.589731 -14.044098 -25.166421 45.022605 -0.385685 2.163943 0.053370 -0.001752 333024.000000 0 0 1
33.591601 -14.554698 -24.300611 43.940353 -0.408866 2.156801 0.042762 -0.007470 -256547.000000 0 0 1
-29.194157 8.677802 -19.608811 36.223039 -0.288927 2.142821 0.052636 -0.006185 -53406.700000 0 0 1
-28.044397 7.881002 -19.589011 35.104526 -0.273953 2.162794 0.051363 -0.002532 -857542.000000 0 0 1
-27.258877 8.099202 -20.673411 35.157266 -0.288814 2.199413 0.065606 -0.016153 -907506.000000 0 0 1
-26.077337 7.158002 -20.825611 34.131665 -0.267893 2.227053 0.063457 -0.015937 270625.000000 0 0 1
-24.929667 7.588602 -20.051011 32.880362 -0.295489 2.226626 0.071753 -0.015145 696805.000000 0 0 1
-23.960667 6.542002 -20.087711 31.944131 -0.266535 2.250855 0.079098 -0.020347 544761.000000 0 0 1
-22.525267 6.985702 -19.675011 30.713088 -0.300722 2.266085 0.073811 -0.018852 476713.000000 0 0 1
-22.042067 7.980702 -20.577011 31.192270 -0.347384 2.291193 0.071949 -0.017425 -302813.000000 0 0 1
-20.850267 8.543302 -20.094611 30.191307 -0.388879 2.299062 0.061225 -0.014411 -354803.000000 0 0 1
-20.257767 9.701302 -20.845211 30.643355 -0.446620 2.318903 0.054885 -0.008330 -119194.000000 0 0 1
-19.640767 9.253302 -22.078211 30.964992 -0.440284 2.364572 0.058230 -0.016188 100681.000000 0 0 1
-19.325267 10.297402 -22.992111 31.751214 -0.489578 2.380573 0.040404 -0.011694 841829.000000 0 0 1
-18.185667 9.749502 -23.953211 31.615306 -0.492116 2.430495 0.062346 -0.010510 805137.000000 0 0 1
-18.757267 8.662602 -24.670511 32.179339 -0.432645 2.444414 0.058167 -0.008663 -25975.700000 0 0 1
-17.853967 7.934802 -25.448261 32.083317 -0.418211 2.486831 0.048940 -0.001440 -482240.000000 0 0 1
-18.556667 6.840702 -26.292911 32.900794 -0.353182 2.496688 0.029427 0.005426 -90509.900000 0 0 1
-19.010067 5.755002 -25.551081 32.362949 -0.293964 2.480817 0.051848 0.001884 5076.070000 0 0 1
-19.619167 4.840802 -26.439611 33.277592 -0.241907 2.489008 0.048649 0.000727 -670606.000000 0 0 1
-19.843867 3.436902 -25.806971 32.735166 -0.171496 2.478929 0.062504 0.000100 364609.000000 0 0 1
-18.770267 2.519802 -25.538511 31.794463 -0.133446 2.503507 0.061951 0.001545 847641.000000 0 0 1
-17.697767 3.068602 -24.735411 30.569067 -0.171682 2.513526 0.056321 0.000416 55869.100000 0 0 1
-16.904467 1.931202 -24.064411 29.471791 -0.113749 2.526160 0.066223 -0.003890 129849.000000 0 0 1
-17.638667 1.213802 -23.058811 29.056921 -0.068707 2.487456 0.064992 -0.003705 853561.000000 0 0 1
-18.792867 0.448002 -23.440111 30.046820 -0.023834 2.465653 0.067364 -0.001715 520317.000000 0 0 1
-19.339467 -0.433498 -22.267811 29.496751 0.022411 2.426335 0.088174 -0.010942 2196.080000 0 0 1
-18.553467 -1.551898 -21.962611 28.792288 0.083450 2.438421 0.086537 -0.011236 24319.700000 0 0 1
-19.144567 -2.282098 -20.908811 28.441182 0.118644 2.396699 0.083761 -0.009292 -78627.900000 0 0 1
-18.665967 -3.712498 -20.705611 28.123359 0.196329 2.398297 0.069524 -0.016025 -39985.100000 0 0 1
-19.021467 -4.608898 -21.756211 29.264157 0.237718 2.408999 0.071567 -0.019659 265502.000000 0 0 1
-18.833167 -5.936598 -21.240211 29.001344 0.305361 2.392618 0.079525 -0.014153 -183443.000000 0 0 1
-18.692967 -6.967098 -22.332011 29.944719 0.356763 2.412493 0.049379 -0.019278 700491.000000 0 0 1
-17.477667 -6.903298 -23.105411 29.782283 0.376170 2.458795 0.057494 -0.008992 510724.000000 0 0 1
-17.617467 -7.586198 -24.379111 31.020423 0.406610 2.474955 0.079860 -0.019536 118182.000000 0 0 1
-16.305067 -7.706298 -25.171031 30.964868 0.441515 2.519893 0.070574 -0.012192 -931447.000000 0 0 1
-16.488867 -8.520398 -26.356571 32.235831 0.476947 2.528057 0.083468 -0.043563 648469.000000 0 0 1
-15.258867 -8.795398 -27.051791 32.279893 0.522895 2.564474 0.087590 -0.040835 1077990.000000 0 0 1
-14.196567 -9.665098 -26.276391 31.391167 0.597727 2.562689 0.072288 -0.032216 -487411.000000 0 0 1
-13.478867 -8.903698 -25.318921 30.033373 0.583768 2.573681 0.072830 -0.017049 70373.700000 0 0 1
-12.652867 -9.872198 -24.655711 29.418692 0.662572 2.564581 0.036763 -0.008536 237542.000000 0 0 1
-11.901767 -9.188698 -23.429611 27.839377 0.657461 2.571035 0.050175 -0.007414 50477.700000 0 0 1
-12.636267 -9.059598 -22.261111 27.153428 0.622013 2.531905 0.053232 0.003930 -260742.000000 0 0 1
-11.759067 -8.833998 -21.199011 25.801420 0.644301 2.535047 0.041370 0.003160 -583690.000000 0 0 1
-12.339567 -8.812198 -19.726911 24.881133 0.620154 2.486262 0.036132 0.006507 -115283.000000 0 1 0
-12.992967 -7.637598 -19.343911 24.522174 0.531420 2.479705 0.031937 0.009264 725782.000000 0 1 0
-14.333567 -7.410598 -19.775411 25.523225 0.477163 2.457196 0.035675 -0.005506 347340.000000 0 0 1
-14.828667 -5.941598 -19.404411 25.134103 0.381095 2.452833 0.055875 -0.006786 -154140.000000 0 0 1
-14.745467 -5.569098 -18.082011 23.987555 0.361120 2.424635 0.042706 -0.003234 437446.000000 0 1 0
-14.923867 -4.174998 -17.889011 23.667893 0.272780 2.427724 0.042469 -0.007115 -897936.000000 0 1 0
-14.898467 -3.663298 -16.456011 22.498542 0.241101 2.391207 0.046167 -0.009842 815901.000000 0 1 0
-16.088867 -3.921398 -15.667311 22.796790 0.239072 2.328506 0.069733 -0.011093 866491.000000 0 1 0
-17.035267 -2.876298 -15.810411 23.418850 0.167266 2.311917 0.065555 -0.012658 86411.900000 0 1 0
-18.223367 -3.068598 -14.830011 23.694654 0.166823 2.247056 0.076078 -0.020147 159767.000000 0 1 0
-17.766267 -2.796798 -13.503111 22.489916 0.156140 2.214807 0.072759 -0.024717 510521.000000 0 1 0
-18.679667 -2.039598 -12.768711 22.718493 0.108757 2.167647 0.067488 -0.020841 -369846.000000 0 1 0
-18.027067 -0.897998 -11.968711 21.657137 0.049773 2.156331 0.051668 -0.019206 -105753.000000 0 1 0
-17.781767 0.260402 -12.726411 21.868255 -0.014643 2.191931 0.069984 -0.027765 713408.000000 0 1 0
-16.606967 0.939302 -12.292811 20.683009 -0.056501 2.207245 0.045386 -0.015644 -252621.000000 0 1 0
-16.080767 1.946802 -13.341811 20.985353 -0.120478 2.259799 0.042964 -0.010790 14104.100000 0 1 0
-15.509667 1.361402 -14.492511 21.270545 -0.087553 2.320391 0.048304 -0.014613 642010.000000 0 1 0
-14.124667 1.086502 -14.283011 20.116936 -0.076771 2.360294 0.039256 -0.014406 -493627.000000 0 1 0
-13.445367 0.147402 -15.275711 20.350601 -0.010963 2.419807 0.029518 -0.009794 -438912.000000 0 1 0
-13.208967 0.803602 -16.464411 21.123433 -0.060763 2.464565 0.036875 -0.013202 80260.200000 0 1 0
-12.856467 -0.135398 -17.458811 21.682186 0.010531 2.506834 0.021881 -0.001787 -259986.000000 0 1 0
-12.276867 0.440702 -18.737911 22.405914 -0.035882 2.561283 0.031642 -0.008344 -647671.000000 0 1 0
-11.121867 1.167302 -18.406811 21.537623 -0.104573 2.595644 0.022307 -0.006441 -449808.000000 0 1 0
-10.894167 2.084802 -19.412711 22.358055 -0.189083 2.622490 0.035955 -0.005510 779497.000000 0 1 0
-9.432967 2.659702 -19.323011 21.666417 -0.274824 2.672196 0.021330 -0.004058 315124.000000 0 1 0
-8.448367 1.789202 -19.791011 21.593061 -0.208697 2.730150 0.019659 0.004440 469685.000000 0 1 0
-7.101867 2.188702 -19.463811 20.834272 -0.298951 2.776865 0.015583 0.005580 1163060.000000 0 1 0
-6.426867 3.283302 -20.337811 21.580344 -0.472307 2.800599 0.018894 0.006990 -475395.000000 0 1 0
-6.212967 2.786902 -21.681711 22.725853 -0.421658 2.837286 0.015151 0.006886 155371.000000 0 1 0
-5.835367 3.849602 -22.533611 23.593104 -0.583165 2.840770 0.003364 0.003691 -341525.000000 0 1 0
-5.266967 3.509302 -23.933711 24.756386 -0.587738 2.883072 0.010172 -0.003885 206620.000000 0 1 0
-4.052667 2.788502 -23.750511 24.254621 -0.602671 2.937355 0.028248 -0.011205 146191.000000 0 1 0
-3.464367 2.414302 -24.987411 25.341693 -0.608639 2.974184 0.042306 -0.015878 -770555.000000 0 0 1
-2.085667 1.815002 -24.970811 25.123408 -0.716120 3.031320 0.032160 -0.020399 -1484350.000000 0 0 1
-1.083367 2.753402 -24.625711 24.802834 -1.195936 3.022012 0.020921 -0.020696 143031.000000 0 1 0
0.249933 2.296302 -24.713011 24.820725 1.462382 3.048396 0.029548 -0.018981 157723.000000 0 1 0
0.660933 1.321002 -23.601311 23.647490 1.106887 3.079088 0.036628 -0.021986 -1231720.000000 0 1 0
0.142733 0.028002 -23.742611 23.743057 0.193722 3.135466 0.034039 -0.020320 -183931.000000 0 1 0
0.802433 -0.801198 -22.825311 22.853460 -0.784628 3.091954 0.037896 -0.017298 -1049510.000000 0 1 0
0.400933 -2.226498 -22.871111 22.982728 -1.392632 3.042998 0.039769 -0.023141 310882.000000 0 1 0
-0.814467 -2.488398 -22.153211 22.307403 1.254480 3.023948 0.032318 -0.021143 665860.000000 0 1 0
-1.995667 -2.414698 -22.961011 23.173724 0.880124 3.005997 0.038428 -0.023304 39435.800000 0 1 0
-2.770667 -1.089098 -22.793311 22.986904 0.374528 3.011718 0.039874 -0.024791 -1717150.000000 0 1 0
-3.463567 -1.139698 -21.567711 21.873760 0.317894 2.974115 0.034616 -0.020991 -125051.000000 0 1 0
-4.417567 -0.114598 -21.501211 21.950629 0.025936 2.938890 0.021407 -0.019129 309387.000000 0 1 0
-5.743867 -0.279898 -22.288811 23.018720 0.048691 2.889092 0.027412 -0.010367 -490922.000000 0 1 0
-6.474967 -1.402398 -21.874411 22.855673 0.213293 2.847505 0.030197 0.004781 -293249.000000 0 1 0
-7.863767 -1.282398 -22.036311 23.432507 0.161654 2.794649 0.028941 0.009970 388294.000000 0 1 0
-8.692467 -2.544498 -21.499911 23.329801 0.284769 2.742887 0.030268 0.005931 310092.000000 0 1 0
-8.826567 -3.591598 -22.476211 24.412864 0.386447 2.740592 0.061389 0.002277 -32442.300000 0 1 0
-9.398567 -4.753598 -21.895811 24.297249 0.468260 2.693244 0.039227 0.004140 120799.000000 0 1 0
-10.369967 -5.465798 -22.921011 25.744590 0.485076 2.668851 0.041432 0.003676 519216.000000 0 0 1
-11.712267 -5.029598 -22.890211 26.199920 0.405617 2.633502 0.038289 0.008259 234026.000000 0 0 1
-12.473467 -5.641998 -23.949511 27.586203 0.424782 2.622299 0.044887 -0.003963 980877.000000 0 0 1
-14.016467 -5.362298 -23.893011 28.215095 0.365392 2.580768 0.053912 -0.005120 559811.000000 0 0 1
-14.387767 -4.006398 -23.998111 28.266029 0.271579 2.584903 0.068632 -0.010523 1348.820000 0 0 1
-15.792067 -3.902398 -24.130411 29.101458 0.242258 2.548439 0.088012 -0.012731 180367.000000 0 0 1
-16.284867 -2.535198 -24.550111 29.569107 0.154438 2.550374 0.076980 -0.014348 -646709.000000 0 0 1
-15.851767 -2.108198 -25.796831 30.351269 0.132219 2.586672 0.073690 -0.011325 -45072.200000 0 0 1
-16.494367 -0.946898 -26.262321 31.026928 0.057344 2.580053 0.062838 -0.014967 79410.800000 0 0 1
-17.945467 -1.186798 -26.755731 32.238447 0.066037 2.549783 0.068822 -0.015451 -347113.000000 0 0 1
-18.237967 -1.809398 -27.962141 33.433198 0.098887 2.561403 0.077052 -0.025359 48677.600000 0 0 1
-17.967467 -1.020598 -29.181031 34.284167 0.056742 2.588972 0.058270 -0.022792 -134653.000000 0 0 1
-17.935267 -1.899398 -30.419491 35.364205 0.105510 2.606414 0.047468 -0.023336 -228847.000000 0 0 1
-19.251967 -2.282898 -30.682741 36.294359 0.118029 2.578084 0.033191 -0.024520 -292078.000000 0 0 1
-19.322967 -3.019098 -31.842841 37.369219 0.154991 2.590808 0.034103 -0.030421 372284.000000 0 0 1
-20.818267 -3.320998 -32.202121 38.489036 0.158190 2.561947 0.010423 -0.022544 532266.000000 0 0 1
-21.697067 -2.285598 -32.518681 39.159307 0.104954 2.550658 0.000405 -0.022753 -67116.100000 0 0 1
-22.396367 -1.841898 -31.391431 38.605852 0.082056 2.520299 -0.001428 -0.009866 417926.000000 0 0 1
-23.515267 -0.734798 -31.713541 39.487421 0.031238 2.503327 0.001983 -0.012908 228666.000000 0 0 1
-22.994267 0.478902 -32.112181 39.498834 -0.020824 2.520066 0.011680 -0.021255 -488581.000000 0 0 1
-23.991367 1.347802 -32.475841 40.399041 -0.056120 2.504581 0.015572 -0.021750 -608530.000000 0 0 1
-23.444667 2.473502 -33.408101 40.888530 -0.105115 2.527078 0.019658 -0.018812 -678480.000000 0 0 1
-22.730967 3.537102 -32.830311 40.087870 -0.154369 2.530390 0.012948 -0.019533 343794.000000 0 0 1
-23.485267 4.478202 -32.050021 39.985196 -0.188419 2.500675 0.017484 -0.018954 141480.000000 0 0 1
-24.638067 5.250702 -32.811591 41.366711 -0.209972 2.486823 0.015280 -0.019532 219174.000000 0 0 1
-25.732537 4.373702 -33.003531 42.077616 -0.168359 2.472442 0.024581 -0.030294 -858357.000000 0 0 1
-26.513957 4.915102 -34.009221 43.402480 -0.183297 2.471200 0.042353 -0.037215 -949938.000000 0 0 1
-27.823757 4.143302 -34.175328 44.263772 -0.147826 2.452909 0.045406 -0.035677 -565449.000000 0 0 1
-27.794777 2.769902 33.965417 43.975806 -0.099328 0.688239 0.046943 -0.030040 188973.000000 0 0 1
-29.027977 2.418602 33.361124 44.288122 -0.083128 0.717769 0.051596 -0.025820 216247.000000 0 0 1
-29.204477 0.883502 33.048218 44.111980 -0.030243 0.723959 0.053086 -0.004588 -59750.300000 0 0 1
-29.400177 0.076702 34.224828 45.118900 -0.002609 0.709715 0.039231 -0.003393 186135.000000 0 0 1
-29.693677 -1.298498 34.029176 45.181693 0.043702 0.717939 0.029868 -0.000062 -496873.000000 0 0 1
-29.341807 -2.090198 -33.171621 44.335844 0.071116 2.416126 0.002795 0.001500 703671.000000 0 0 1
-27.934417 -2.258798 -32.958921 43.263429 0.080685 2.436913 0.009826 -0.006541 1616480.000000 0 0 1
-27.102767 -1.095998 -32.607711 42.414903 0.040417 2.447727 0.005093 -0.009145 -173251.000000 0 0 1
-27.173307 -0.588698 -31.125131 41.322016 0.021661 2.423761 0.012729 -0.005755 -743263.000000 0 0 1
-26.417007 -1.284898 -30.166641 40.119016 0.048601 2.421779 0.007341 -0.010020 152401.000000 0 0 1
-26.560037 -0.779998 -28.873511 39.239312 0.029359 2.397690 0.002360 -0.014943 -175284.000000 0 0 1
-25.626897 -1.377698 -27.798291 37.833595 0.053708 2.396097 0.013638 -0.013564 -4101.820000 0 0 1
-25.855907 -2.709898 -27.538701 37.871514 0.104426 2.384974 -0.004340 -0.008382 522176.000000 0 0 1
-24.812067 -3.125898 -26.650971 36.547013 0.125323 2.387984 0.026971 -0.014412 370597.000000 0 0 1
-25.071597 -4.505698 -25.962781 36.372411 0.177815 2.365712 0.031975 -0.018146 502943.000000 0 0 1
-26.166987 -4.424598 -25.042511 36.488569 0.167506 2.327201 0.030700 -0.009213 287314.000000 0 0 1
-26.409817 -5.649498 -24.405411 36.400816 0.210740 2.305629 0.025675 -0.010246 608555.000000 0 0 1
-27.543617 -5.546098 -23.321311 36.514293 0.198700 2.263591 0.034578 -0.008484 543012.000000 0 0 1
-27.775877 -6.626898 -22.468411 36.335171 0.234206 2.237457 0.044559 -0.013812 1599520.000000 0 0 1
-29.055647 -6.492098 -21.737311 36.863107 0.219826 2.201455 0.064457 -0.012871 1827040.000000 0 0 1
-29.320217 -7.760198 -20.908811 36.838488 0.258738 2.174361 0.068510 -0.015716 312462.000000 0 0 1
-28.294177 -7.899098 -19.918511 35.492299 0.272246 2.166639 0.067245 -0.021285 570620.000000 0 0 1
-28.576437 -8.905498 -18.913811 35.406961 0.302099 2.134338 0.097078 -0.019239 182557.000000 0 0 1
-29.393277 -8.378798 -17.702211 35.320494 0.277693 2.095768 0.094051 -0.017243 44120.600000 0 0 1
-28.611017 -7.608498 -16.825611 34.052617 0.259914 2.087603 0.087774 -0.020732 238233.000000 0 0 1
-29.349797 -6.961198 -15.785411 34.044795 0.232877 2.052925 0.087259 -0.016389 -359660.000000 0 0 1
-28.501597 -6.144898 -14.827711 32.710271 0.212348 2.041265 0.097572 -0.015399 -267936.000000 0 0 1
-27.994357 -4.988698 -15.484011 32.377859 0.176352 2.069433 0.087067 -0.015641 -253754.000000 0 0 1
-26.951227 -4.467398 -14.738911 31.041292 0.164265 2.065552 0.095854 -0.023538 -633830.000000 0 0 1
-14.165867 20.969602 -4.934411 25.782638 -0.976674 1.763369 0.060017 -0.028715 27750.500000 0 0 1
-14.099767 20.524802 -6.268911 25.678204 -0.968874 1.817422 0.081158 -0.031616 -137908.000000 0 0 1
-14.949667 19.423902 -6.449111 25.345050 -0.914835 1.828078 0.064314 -0.043595 -342063.000000 0 0 1
-14.993367 18.847802 -7.916411 25.351731 -0.898807 1.888371 0.075771 -0.043750 -1049370.000000 0 0 1
-13.837067 18.255302 -8.389611 24.394795 -0.922211 1.921874 0.081675 -0.038135 -906147.000000 0 1 0
-13.973967 17.199402 -9.288811 24.028591 -0.888499 1.967709 0.064932 -0.040227 -68168.100000 0 1 0
-14.597567 15.850702 -8.748711 23.256691 -0.826531 1.956467 0.070438 -0.043081 690376.000000 0 1 0
-15.955667 15.962402 -8.321511 24.054711 -0.785609 1.924038 0.071758 -0.033074 115941.000000 0 1 0
-16.290067 14.884002 -7.473711 23.297128 -0.740325 1.897370 0.083197 -0.031231 87193.200000 0 1 0
-17.733067 15.000202 -6.941111 24.241426 -0.702102 1.861193 0.111163 -0.032489 259456.000000 0 1 0
-18.784067 14.677802 -7.825011 25.090035 -0.663294 1.887965 0.112467 -0.028219 330393.000000 0 0 1
-20.061767 15.054402 -7.321611 26.128825 -0.643759 1.854811 0.087920 -0.026318 983783.000000 0 0 1
-21.277467 14.580702 -8.194311 27.064261 -0.600768 1.878397 0.088491 -0.009727 423398.000000 0 0 1
-21.650467 13.242902 -7.937911 26.591871 -0.548955 1.873926 0.114825 -0.019666 74920.400000 0 0 1
-22.569767 12.751002 -8.902411 27.408673 -0.514256 1.901599 0.118880 -0.018300 85773.800000 0 0 1
-23.090367 11.380702 -8.547011 27.124469 -0.457933 1.891362 0.092862 -0.014732 -132294.000000 0 0 1
-22.069067 10.400502 -8.352611 25.787211 -0.440401 1.900651 0.103564 -0.016352 -116965.000000 0 0 1
-22.607467 9.205302 -7.911911 25.659959 -0.386680 1.884241 0.106244 -0.025246 -586255.000000 0 0 1
-21.622467 8.212002 -7.303211 24.254999 -0.362964 1.876644 0.123877 -0.013184 -256098.000000 0 1 0
-20.944367 7.390102 -8.205611 23.677250 -0.339207 1.924699 0.079454 -0.013398 869761.000000 0 1 0
-20.041767 6.409002 -7.624211 22.380267 -0.309505 1.918422 0.087265 -0.011583 601840.000000 0 1 0
-19.434067 5.374002 -8.675311 21.950487 -0.269783 1.977106 0.048808 -0.017841 -522965.000000 0 1 0
-20.382867 4.467102 -9.160211 22.788720 -0.215749 1.984455 0.056404 -0.009028 -89116.700000 0 1 0
-19.963067 3.415202 -9.996311 22.585701 -0.169436 2.029286 0.035398 -0.008554 -612493.000000 0 1 0
-20.747067 2.104902 -9.823511 23.051524 -0.101109 2.011034 0.030492 -0.014599 -101472.000000 0 1 0
-20.620067 1.372502 -8.591111 22.380307 -0.066463 1.964779 0.052027 -0.023299 206150.000000 0 1 0
-21.639967 0.392502 -8.457311 23.237219 -0.018136 1.943307 0.068839 -0.019314 114082.000000 0 1 0
-21.631567 -0.935798 -9.272211 23.553648 0.043234 1.975410 0.054816 -0.024875 -536922.000000 0 1 0
-20.567067 -1.720698 -8.832511 22.449461 0.083468 1.975166 0.050664 -0.010612 36325.100000 0 1 0
-20.607567 -3.012998 -9.302311 22.809712 0.145180 1.990864 0.047214 -0.007956 394119.000000 0 1 0
-21.579567 -3.996798 -8.514811 23.540478 0.183137 1.940897 0.056304 -0.007214 455147.000000 0 1 0
-21.254567 -4.086498 -7.153811 22.795462 0.189947 1.890016 0.052273 -0.012160 506996.000000 0 1 0
-22.189767 -4.825098 -6.340511 23.576883 0.214114 1.843077 0.065412 -0.012608 -58855.400000 0 1 0
-22.337967 -6.374998 -6.619511 24.154571 0.277998 1.848396 0.068872 -0.010451 -919197.000000 0 1 0
-21.275167 -7.119498 -6.197511 23.275076 0.322925 1.840320 0.065294 -0.017916 -244945.000000 0 1 0
-21.515967 -8.534498 -6.442711 24.026715 0.377623 1.842266 0.071528 -0.015500 273014.000000 0 1 0
-20.422467 -9.365798 -5.700411 23.179518 0.429985 1.819270 0.060199 -0.020529 -669715.000000 0 1 0
-19.225567 -9.475398 -6.366311 22.359238 0.457915 1.859519 0.049736 -0.013265 -579069.000000 0 1 0
-18.316867 -10.198798 -5.541611 21.684846 0.508048 1.829215 0.052076 -0.009853 -293702.000000 0 1 0
-17.612067 -11.391398 -6.191211 21.869613 0.574119 1.857817 0.040963 -0.012143 278790.000000 0 1 0
-16.544867 -11.002598 -7.102811 21.100704 0.586859 1.914116 0.044217 -0.020785 1003560.000000 0 1 0
-16.967467 -10.627898 -8.391811 21.708746 0.559583 1.967699 0.051109 -0.023826 -432289.000000 0 1 0
-15.925867 -10.756898 -9.522911 21.448309 0.594049 2.030847 0.050366 -0.021258 84381.600000 0 1 0
-15.887267 -12.099598 -9.788011 22.239845 0.650878 2.026519 0.053623 -0.030150 684673.000000 0 1 0
-14.871967 -12.396498 -10.763111 22.151595 0.694865 2.078171 0.049339 -0.020262 506520.000000 0 1 0
-15.044567 -13.775398 -11.464211 23.399332 0.741389 2.082814 0.060230 -0.018700 -24850.600000 0 1 0
-15.970967 -13.824298 -12.541611 24.565729 0.713475 2.106601 0.058908 -0.013700 145168.000000 0 1 0
-15.952567 -15.090298 -13.201111 25.621687 0.757629 2.112075 0.040449 -0.007885 -180487.000000 0 0 1
-16.214867 -15.021398 -14.691311 26.540515 0.747209 2.157409 0.050739 -0.008030 -131511.000000 0 0 1
-16.379667 -16.276898 -15.336811 27.720907 0.782251 2.157067 0.047207 0.002104 134290.000000 0 0 1
-16.571767 -16.123798 -16.778111 28.567558 0.771698 2.198532 0.050718 0.004702 -43646.400000 0 0 1
-17.095567 -17.327298 -17.580611 30.026181 0.792130 2.196305 0.052949 -0.005347 -187201.000000 0 0 1
-18.369267 -17.714798 -17.150711 30.747210 0.767263 2.162526 0.024296 -0.000675 -174032.000000 0 0 1
-19.332867 -17.981798 -18.186111 32.059935 0.749207 2.173963 0.019975 0.003001 929281.000000 0 0 1
-20.820367 -17.850498 -17.769411 32.678433 0.708750 2.145714 0.010473 0.000178 229986.000000 0 0 1
-21.172467 -16.596298 -17.252811 31.958879 0.664823 2.141048 0.009172 -0.004045 182578.000000 0 0 1
-20.933367 -16.495398 -15.800211 30.983071 0.667378 2.105938 0.013697 -0.001649 -207439.000000 0 0 1
-21.071567 -15.096598 -15.320511 30.110402 0.621677 2.104600 0.021274 -0.014613 -544196.000000 0 0 1
-22.398767 -14.689598 -15.263811 30.829742 0.580457 2.088746 0.032965 -0.016006 -414350.000000 0 0 1
-22.438667 -13.557198 -14.390611 29.906205 0.543494 2.072810 0.038709 -0.017059 -245575.000000 0 0 1
-23.793567 -12.864598 -14.140211 30.521751 0.495656 2.052493 0.053783 -0.022145 -629553.000000 0 0 1
-24.572767 -13.486898 -13.207911 30.986549 0.501964 2.011136 0.055263 -0.019959 -755392.000000 0 0 1
-25.658727 -12.691498 -12.902711 31.399433 0.459340 1.994261 0.067163 -0.027369 -776919.000000 0 0 1
-26.453297 -13.102198 -11.641711 31.732853 0.459877 1.946434 0.076997 -0.027075 -93750.000000 0 0 1
-27.575137 -12.265198 -11.442311 32.276149 0.418514 1.933189 0.086038 -0.029755 28222.400000 0 0 1
-28.266487 -12.673598 -10.291411 32.642419 0.421490 1.891545 0.084048 -0.025654 -20243.500000 0 0 1
-29.047467 -11.504798 -9.630911 32.693580 0.377113 1.869813 0.077907 -0.022727 219162.000000 0 0 1
-28.184137 -10.559198 -8.993311 31.412130 0.358464 1.861160 0.076316 -0.023426 481265.000000 0 0 1
-28.950347 -9.593498 -8.318811 31.612663 0.319989 1.837080 0.078038 -0.020382 -342394.000000 0 0 1
-28.088807 -8.431198 -7.846811 30.358502 0.291606 1.832236 0.090294 -0.011970 -447917.000000 0 0 1
-27.404247 -8.864898 -6.720711 29.576125 0.312862 1.800033 0.089549 -0.012614 28380.800000 0 0 1
-26.584807 -7.825898 -6.098811 28.375908 0.286288 1.787416 0.087082 -0.014533 142666.000000 0 0 1
-27.106707 -6.473398 -5.576911 28.421478 0.234421 1.768300 0.095789 -0.017910 -256892.000000 0 0 1
-28.071517 -6.470998 -4.502711 29.157474 0.226561 1.725844 0.091567 -0.013919 747570.000000 0 0 1
-27.630147 -6.666898 -3.164811 28.598752 0.236765 1.681686 0.086386 -0.009497 -113248.000000 0 0 1
-26.808657 -5.560398 -2.432011 27.487030 0.204511 1.659391 0.091017 -0.007920 688780.000000 0 0 1
-27.676377 -4.506298 -2.020211 28.113517 0.161405 1.642717 0.092588 -0.006885 561066.000000 0 0 1
-26.965567 -3.746798 -1.107311 27.247137 0.138064 1.611447 0.090656 -0.018572 -633782.000000 0 0 1
-27.855757 -2.685298 -0.482011 27.989040 0.096103 1.588019 0.091918 -0.024099 -152697.000000 0 0 1
-28.746677 -3.059598 0.557489 28.914415 0.106034 1.551514 0.079267 -0.014809 235037.000000 0 0 1
-28.153537 -3.289298 1.850889 28.405403 0.116307 1.505590 0.078358 -0.012566 -475816.000000 0 0 1
-29.136617 -3.627298 2.949489 29.509308 0.123856 1.470678 0.065384 -0.012175 -201550.000000 0 0 1
-29.630157 -4.982698 2.893989 30.185239 0.166604 1.474775 0.065969 -0.012261 252676.000000 0 0 1
-30.563027 -5.292598 3.920989 31.264747 0.171469 1.445053 0.075393 -0.020782 101124.000000 0 0 1
-31.330767 -6.618298 3.717389 32.237212 0.208179 1.455226 0.058601 -0.010356 -442606.000000 0 0 1
-30.514487 -7.753598 3.682089 31.698738 0.248830 1.454375 0.050021 -0.001551 -114295.000000 0 0 1
-31.264407 -8.973798 3.646489 32.730553 0.279515 1.459155 0.059469 -0.002923 -196945.000000 0 0 1
-30.589217 -10.131298 4.400089 32.522365 0.319834 1.435086 0.054479 0.000689 -132634.000000 0 0 1
-30.423707 -9.980798 5.793789 32.538996 0.316997 1.391785 0.040541 0.001972 253832.000000 0 0 1
-29.679917 -11.069098 6.305589 32.298342 0.356971 1.374305 0.038701 0.003666 -191036.000000 0 0 1
-29.890097 -11.313498 7.818789 32.902076 0.361838 1.330863 0.044377 0.003614 -103483.000000 0 0 1
-29.566127 -10.188798 8.687889 32.456847 0.331865 1.299817 0.055488 0.006731 571040.000000 0 0 1
-29.532437 -10.556898 10.061789 32.937100 0.343312 1.260349 0.063620 0.004049 -260081.000000 0 0 1
-29.597007 -9.300198 11.005789 32.918140 0.304458 1.229893 0.068737 0.003074 102169.000000 0 0 1
-28.474267 -8.444298 10.881389 31.630597 0.288297 1.219607 0.074772 0.003206 538836.000000 0 0 1
-28.704677 -7.379498 11.744589 31.880258 0.251634 1.193512 0.098396 -0.012257 19327.200000 0 0 1
-27.726847 -6.200598 11.582489 30.681909 0.220012 1.183699 0.094967 -0.010839 -54614.900000 0 0 1
-27.891567 -5.572598 10.315989 30.255793 0.197199 1.222859 0.094749 -0.016664 753007.000000 0 0 1
-27.151217 -4.343898 10.405189 29.399422 0.158645 1.209032 0.100724 -0.018636 103731.000000 0 0 1
-27.314227 -3.639798 8.972489 28.979660 0.132476 1.256010 0.103581 -0.024511 -225534.000000 0 0 1
-26.696787 -4.383498 7.991789 28.209966 0.162744 1.283566 0.086992 -0.012892 -61567.300000 0 0 1
-26.907637 -3.871698 6.710689 28.000792 0.142908 1.328780 0.079694 -0.020829 -1224.060000 0 0 1
-25.953627 -4.425498 5.580289 26.913109 0.168891 1.361937 0.076437 -0.012452 -363101.000000 0 0 1
-24.695167 -3.822398 5.632589 25.616168 0.153565 1.349101 0.101640 -0.019430 -297235.000000 0 0 1
-23.902667 -4.340798 4.565689 24.718931 0.179645 1.385026 0.104998 -0.013662 432669.000000 0 1 0
-22.456767 -3.749298 4.678489 23.243319 0.165430 1.368129 0.116136 -0.018253 357438.000000 0 1 0
-22.283267 -2.426698 4.490589 22.860408 0.108475 1.373075 0.102617 -0.019378 665523.000000 0 1 0
-20.894167 -2.168398 4.271189 21.436213 0.103410 1.370203 0.088634 -0.016908 308447.000000 0 1 0
-20.422367 -0.717398 4.603489 20.947073 0.035114 1.349220 0.065872 -0.027293 -585402.000000 0 1 0
-20.783967 0.275402 3.649989 21.103828 -0.013250 1.396968 0.083009 -0.022948 942132.000000 0 1 0
-22.125067 0.757102 3.633789 22.434264 -0.034206 1.408105 0.086508 -0.037483 232865.000000 0 1 0
-22.217567 1.889102 2.602289 22.449074 -0.084823 1.454615 0.108481 -0.025966 -47325.400000 0 1 0
-21.650167 3.100502 3.167489 22.099227 -0.142242 1.426971 0.091318 -0.035236 461206.000000 0 1 0
-21.733667 4.217502 2.303389 22.258599 -0.191672 1.467128 0.098963 -0.023247 784105.000000 0 1 0
-20.480567 4.301102 1.337489 20.970026 -0.207001 1.506972 0.068118 -0.010422 299110.000000 0 1 0
-20.621667 5.156502 0.233189 21.257870 -0.245028 1.559827 0.073571 -0.009091 1099880.000000 0 1 0
-21.650467 4.698302 -0.698611 22.165397 -0.213694 1.602320 0.100964 -0.013711 672356.000000 0 1 0
-21.252367 3.556802 -1.734211 21.617619 -0.165823 1.651105 0.098920 -0.008843 -320446.000000 0 1 0
-20.798367 2.427802 -1.050611 20.965927 -0.116205 1.620928 0.050554 -0.007856 374692.000000 0 1 0
-20.606567 1.348402 -1.919411 20.739647 -0.065342 1.663477 0.061146 -0.007443 -632547.000000 0 1 0
-19.830567 0.234102 -1.315311 19.875519 -0.011805 1.637022 0.058383 -0.011160 -475070.000000 0 1 0
-20.628067 -0.595898 -0.462811 20.641861 0.028880 1.593219 0.075118 -0.016049 829333.000000 0 1 0
-19.940967 -1.247998 0.618189 19.989543 0.062503 1.539866 0.066914 -0.015044 -218818.000000 0 1 0
-19.082567 -2.443798 0.252289 19.240067 0.127371 1.557683 0.039470 -0.013710 -24821.200000 0 1 0
-18.351267 -3.023498 1.351589 18.647717 0.163290 1.498253 0.043633 -0.013301 640103.000000 0 1 0
-17.568767 -4.156798 1.011289 18.082125 0.232329 1.514840 0.027159 -0.009930 -348626.000000 0 1 0
-18.296167 -5.432598 0.588689 19.094748 0.288634 1.539962 0.017409 -0.012500 -697991.000000 0 1 0
-19.171367 -5.845098 1.600889 20.106450 0.295934 1.491091 0.055572 -0.016411 289752.000000 0 1 0
-19.964567 -6.930398 1.110089 21.162388 0.334120 1.518316 0.045895 -0.012519 -316349.000000 0 1 0
-20.865667 -7.376798 2.242189 22.244564 0.339823 1.469828 0.067889 -0.010743 -578677.000000 0 1 0
-20.120767 -8.055198 3.210589 21.909801 0.380802 1.423730 0.062493 -0.009894 479220.000000 0 1 0
-20.948867 -8.604198 4.215489 23.036007 0.389717 1.386764 0.070280 -0.014498 -170847.000000 0 1 0
-20.145467 -9.297498 5.302789 22.812341 0.432391 1.336198 0.063289 -0.004635 -260393.000000 0 1 0
-19.626167 -10.548798 4.849489 22.803095 0.493185 1.356492 0.058169 -0.002898 140255.000000 0 1 0
-18.695667 -10.991598 5.811989 22.452671 0.531491 1.308960 0.059496 -0.007686 -393113.000000 0 1 0
-18.061667 -12.306798 5.431589 22.520730 0.598117 1.327213 0.043403 -0.007070 197834.000000 0 1 0
-18.937667 -13.444198 5.486389 23.863826 0.617352 1.338817 0.053630 -0.006319 449572.000000 0 1 0
-18.141667 -14.518098 5.085089 23.785571 0.674901 1.355345 0.039714 -0.010106 200625.000000 0 1 0
-18.880267 -15.891898 5.161289 25.212216 0.699667 1.364625 0.055068 -0.011444 94885.300000 0 0 1
-18.016467 -16.910798 4.760089 25.163995 0.753752 1.380487 0.054015 -0.021672 353856.000000 0 0 1
-18.758367 -18.136298 4.923889 26.552709 0.768539 1.384278 0.061197 -0.018538 761088.000000 0 0 1
-17.937367 -19.492898 4.737389 26.910315 0.826932 1.393831 0.060605 -0.016476 -241834.000000 0 0 1
-17.700167 -19.915798 3.348089 26.854136 0.844232 1.445794 0.060513 -0.015854 769206.000000 0 0 1
-16.865767 -21.117898 3.275489 27.224044 0.896880 1.450188 0.050479 -0.006406 908189.000000 0 0 1
-15.361767 -20.987698 3.644289 26.263058 0.938953 1.431586 0.051611 -0.004473 -288017.000000 0 0 1
-14.790567 -22.226898 3.769789 26.963071 0.983647 1.430524 0.049597 -0.008125 -962071.000000 0 0 1
-13.456267 -22.194198 4.162989 26.286575 1.025760 1.411757 0.045254 -0.007019 -478540.000000 0 0 1
-12.802367 -23.596598 4.210389 27.174021 1.073690 1.415228 0.046555 -0.002726 -213990.000000 0 0 1
-12.609067 -24.219098 2.980489 27.467010 1.090785 1.462071 0.052253 -0.007605 98084.700000 0 0 1
-12.022367 -25.472288 3.230489 28.351558 1.129816 1.456604 0.061979 -0.008346 -56093.800000 0 0 1
18.598433 19.185802 -24.058611 35.955715 0.800942 2.303817 0.062344 -0.004687 -279866.000000 0 0 1
17.719333 19.469602 -25.133461 36.396854 0.832428 2.333031 0.056237 -0.011532 -111662.000000 0 0 1
18.380333 19.469202 -26.381521 37.588178 0.814159 2.348797 0.058684 -0.013812 -719084.000000 0 0 1
17.483433 19.715702 -27.542301 38.117682 0.845335 2.378294 0.057010 -0.017647 -359295.000000 0 0 1
17.160133 21.112902 -27.821161 38.913260 0.888311 2.367354 0.050210 -0.013211 327705.000000 0 0 1
16.451233 21.153902 -29.062041 39.531416 0.909806 2.396704 0.041599 -0.014325 83385.000000 0 0 1
16.028833 22.603302 -29.565451 40.520965 0.953965 2.388582 0.056252 -0.017235 -654051.000000 0 0 1
15.076733 23.182502 -28.751491 39.892161 0.994175 2.375652 0.054902 -0.017176 -164295.000000 0 0 1
14.841233 24.608702 -28.927091 40.775323 1.028109 2.359480 0.054335 -0.012236 -41334.700000 0 0 1
14.075933 25.268202 -27.781291 40.105038 1.062548 2.336041 0.044909 -0.013751 -273502.000000 0 0 1
12.707833 24.983302 -27.689351 39.399931 1.100250 2.350089 0.051422 -0.025950 -621391.000000 0 0 1
12.123333 25.730302 -26.681231 38.998868 1.130478 2.324239 0.045026 -0.022233 -494888.000000 0 0 1
10.613633 25.418802 -26.473951 38.205167 1.175252 2.336357 0.057096 -0.024765 504196.000000 0 0 1
9.911533 26.277502 -25.600121 38.001471 1.210110 2.309948 0.044632 -0.023229 -12454.700000 0 0 1
9.731333 27.563902 -26.114581 39.197434 1.231410 2.299941 0.050311 -0.026134 -1103320.000000 0 0 1
9.126133 28.473902 -25.082031 39.027653 1.260632 2.268779 0.047888 -0.018208 -116250.000000 0 0 1
9.968333 28.778802 -23.962511 38.752923 1.237352 2.237426 0.035335 -0.014696 37580.300000 0 0 1
9.363733 29.642002 -23.084011 38.719495 1.264822 2.209538 0.053584 -0.017438 -264298.000000 0 0 1
10.342433 30.084602 -21.948711 38.649645 1.239675 2.174735 0.035603 -0.016667 110126.000000 0 0 1
11.409933 30.827002 -22.499211 39.833467 1.216304 2.171026 0.022126 -0.018623 -27330.100000 0 0 1
12.238733 31.225102 -21.411811 39.790190 1.197247 2.138999 0.007859 -0.009424 -113441.000000 0 0 1
13.449133 32.084202 -21.846711 41.079849 1.173864 2.131534 0.014571 -0.007517 621508.000000 0 0 1
14.494333 31.204502 -22.329311 41.017127 1.135954 2.146458 0.016794 -0.016717 778682.000000 0 0 1
15.529133 31.967302 -22.988911 42.326734 1.118588 2.144956 0.026014 -0.010166 353195.000000 0 0 1
16.755533 31.161102 -23.418811 42.428797 1.077440 2.155504 0.021842 -0.009579 -155942.000000 0 0 1
17.624533 30.810502 -22.370111 41.956323 1.051197 2.133147 0.018748 -0.003307 -48746.300000 0 0 1
18.788933 30.222202 -22.929111 42.333788 1.014579 2.143167 0.021953 -0.006817 -41162.800000 0 0 1
19.763333 29.568802 -21.937511 41.787052 0.981605 2.123492 0.023372 -0.001307 402809.000000 0 0 1
20.626833 30.429302 -21.180311 42.426574 0.975084 2.093498 0.030666 0.005220 770948.000000 0 0 1
21.579933 29.743202 -20.372011 42.016311 0.943133 2.076999 0.044882 0.009241 679117.000000 0 0 1
22.263833 30.575202 -19.213711 42.422729 0.941416 2.040824 0.056829 0.008484 -176066.000000 0 0 1
23.220033 31.536702 -19.506411 43.751955 0.936130 2.032910 0.063899 0.006582 -70513.100000 0 0 1
23.771333 32.038702 -18.303311 43.892663 0.932463 2.000940 0.063843 0.004613 378655.000000 0 0 1
25.176933 32.734502 -18.378911 45.201880 0.915167 1.989522 0.067419 0.003862 288303.000000 0 0 1
26.168833 31.817102 -18.743811 45.259985 0.882499 1.997790 0.074123 0.006611 -840343.000000 0 0 1
27.326033 32.588602 -18.917811 46.546886 0.873008 1.989334 0.067906 0.005115 -439598.000000 0 0 1
28.599333 31.909902 -19.405811 47.039868 0.840055 1.996037 0.067068 0.003328 19534.000000 0 0 1
29.202133 30.974202 -18.546311 46.434162 0.814838 1.981671 0.072166 0.016649 -735855.000000 0 0 1
30.428133 30.494002 -18.975711 47.072636 0.786479 1.985715 0.049593 0.010582 -508120.000000 0 0 1
30.915333 29.210702 -18.228411 46.274160 0.757055 1.975691 0.037073 -0.000867 -465350.000000 0 0 1
31.258733 29.444802 -16.886511 46.143894 0.755525 1.945453 0.036883 0.004910 -102726.000000 0 0 1
31.774133 28.301802 -16.270711 45.555719 0.727663 1.936023 0.044013 -0.003682 -459966.000000 0 0 1
32.137633 28.531902 -14.774711 45.444350 0.726036 1.901931 0.033240 0.003761 165111.000000 0 0 1
33.297333 29.302402 -14.459211 46.652030 0.721668 1.885924 -0.009641 0.012287 224498.000000 0 0 1
33.137233 30.713702 -14.618811 47.488075 0.747460 1.883720 0.010191 0.008772 -518475.000000 0 0 1
34.490733 31.357502 -14.894011 48.936031 0.737851 1.880059 0.011273 -0.001380 -338290.000000 0 0 1
35.262733 31.338202 -13.720311 49.130338 0.726540 1.853823 0.010223 -0.000053 -229051.000000 0 0 1
-35.992056 31.772002 -14.012011 50.012245 -0.723203 1.854769 0.035682 -0.013915 229598.000000 0 0 1
-35.368656 31.920202 -12.630011 49.288521 -0.734194 1.829933 0.028158 -0.005300 -810430.000000 0 0 1
-35.938756 32.973102 -11.859011 50.194180 -0.742389 1.809314 0.034603 -0.006431 168535.000000 0 0 1
-35.084056 33.411502 -10.844011 49.646873 -0.760985 1.790994 0.021651 -0.001199 -99578.800000 0 0 1
-35.738456 -33.884934 -10.175911 50.288917 0.758782 1.774552 0.019310 0.005240 107314.000000 0 0 1
-34.943456 -33.193134 -9.230011 49.071604 0.759715 1.760016 0.016484 0.002722 -113265.000000 0 0 1
-34.778756 -33.803234 -7.964511 49.149302 0.771175 1.733561 -0.013629 0.005795 -34906.800000 0 0 1
-34.197556 -32.880034 -6.898411 47.939102 0.765759 1.715197 -0.006374 0.007147 -15907.000000 0 0 1
-35.160256 -31.925934 -6.529811 47.938995 0.737224 1.707432 -0.014095 0.015641 -83839.500000 0 0 1
-34.645456 -30.998834 -5.522311 46.815929 0.729904 1.689030 0.016108 0.010069 342750.000000 0 0 1
-35.704756 -30.061734 -4.829811 46.924029 0.699804 1.673907 0.003487 0.017932 9084.430000 0 0 1
36.058233 -30.879834 -4.004311 47.642364 -0.708191 1.654945 -0.012633 0.020741 -131941.000000 0 0 1
34.784133 -30.309334 -3.821811 46.294685 -0.716762 1.653444 -0.011559 0.025927 -258746.000000 0 0 1
34.588033 -29.362834 -2.639411 45.447492 -0.703873 1.628905 -0.004719 0.017239 -407923.000000 0 0 1
35.218833 -28.099134 -2.833111 45.143704 -0.673425 1.633595 0.006414 0.013110 640997.000000 0 0 1
34.348433 -27.033834 -2.401611 43.776829 -0.666793 1.625684 0.013671 0.013591 356816.000000 0 0 1
34.974233 -25.616134 -2.526211 43.425396 -0.632160 1.629003 0.011802 -0.000966 -242973.000000 0 0 1
34.980133 -25.182734 -3.868811 43.275253 -0.623967 1.660316 0.005132 -0.004259 161831.000000 0 0 1
34.339033 -23.930634 -4.048811 42.050414 -0.608638 1.667230 0.029907 -0.012015 -467529.000000 0 0 1
33.873033 -23.629534 -5.483011 41.662941 -0.609108 1.702783 0.031610 -0.017745 -432198.000000 0 0 1
34.880533 -23.656534 -6.472611 42.640097 -0.595956 1.723182 0.033948 -0.018776 170850.000000 0 0 1
34.360333 -23.470534 -7.788411 42.333885 -0.599273 1.755826 0.029692 -0.033598 -112594.000000 0 0 1
35.506633 -23.398734 -8.806611 43.425547 -0.582673 1.775011 0.035071 -0.038210 66255.700000 0 0 1
36.250533 -24.577934 -8.952311 44.702571 -0.595809 1.772424 0.015594 -0.017044 100637.000000 0 0 1
-35.118956 -24.354834 -9.657611 43.815162 0.606347 1.793038 0.026083 -0.016337 519113.000000 0 0 1
-34.595556 -25.613434 -10.432511 44.291509 0.637308 1.808573 0.016079 -0.005883 -316837.000000 0 0 1
-34.001456 -26.626234 -9.716111 44.265767 0.664345 1.792093 0.027504 -0.001524 -147570.000000 0 0 1
-34.866256 -27.549634 -9.074211 45.353935 0.668707 1.772231 0.015422 -0.003069 -78393.700000 0 0 1
-34.075356 -28.763634 -8.540211 45.402772 0.701070 1.760022 0.004788 0.005693 43454.200000 0 0 1
-33.469156 -29.430334 -9.636811 45.598214 0.721275 1.783744 0.020279 0.003826 -41765.100000 0 0 1
-32.706756 -30.481234 -9.062111 45.617534 0.750192 1.770781 0.022734 -0.002365 -155018.000000 0 0 1
-32.188756 -31.470234 -10.119611 46.139984 0.774112 1.791918 0.031124 -0.006020 -136078.000000 0 0 1
-31.021756 -31.035834 -10.781911 45.186524 0.785625 1.811730 0.014567 0.008248 32543.800000 0 0 1
-30.595456 -31.906334 -11.823011 45.758930 0.806369 1.832137 0.000679 0.000219 -321795.000000 0 0 1
-30.753656 -31.304134 -13.199511 45.825356 0.794268 1.862975 -0.005068 0.015019 -160621.000000 0 0 1
-29.931956 -30.155034 -13.447811 44.565589 0.789111 1.877327 -0.016824 0.014385 -222858.000000 0 0 1
-30.405656 -29.420134 -14.523811 44.732419 0.768926 1.901472 -0.025706 0.028521 -203750.000000 0 0 1
-29.455856 -28.338134 -15.082411 43.568066 0.766061 1.924293 -0.023005 0.013728 1002070.000000 0 0 1
-28.224656 -28.918834 -15.601011 43.316529 0.797546 1.939239 -0.013523 0.008840 743626.000000 0 0 1
-27.350456 -27.971434 -16.180011 42.334871 0.796623 1.962963 0.020887 0.014860 508962.000000 0 0 1
-26.021256 -28.652234 -16.633411 42.127505 0.833483 1.976685 0.029298 0.004602 191369.000000 0 0 1
-26.248056 -29.406134 -17.852311 43.271078 0.842082 1.996069 0.011379 0.001942 57164.500000 0 0 1
-26.397356 -28.687034 -19.084111 43.404719 0.826941 2.026037 0.014329 0.002270 614727.000000 0 0 1
-25.072356 -28.058134 -19.682811 42.465221 0.841536 2.052742 0.039070 0.002153 768866.000000 0 0 1
-24.746456 -26.895134 -18.995011 41.189146 0.826982 2.050105 0.034227 0.000454 -816233.000000 0 0 1
-23.423956 -26.539234 -19.223911 40.281155 0.847669 2.068311 0.062555 -0.009297 -532296.000000 0 0 1
-23.017156 -25.251934 -18.497811 38.853811 0.831663 2.066997 0.050756 -0.004541 -149130.000000 0 0 1
-22.946556 -25.553334 -17.102411 38.366780 0.839095 2.032820 0.061417 -0.001308 123761.000000 0 0 1
-22.450456 -24.488434 -16.349611 37.027235 0.828789 2.028129 0.054306 -0.001615 -81540.800000 0 0 1
-22.840456 -24.618834 -14.852811 36.720286 0.822852 1.987212 0.049704 -0.001387 -215555.000000 0 0 1
-24.205956 -24.485534 -14.564511 37.384417 0.791140 1.970980 0.023485 0.016940 -351717.000000 0 0 1
-24.402556 -24.467234 -13.164711 36.978911 0.786722 1.934787 0.018167 0.017986 -212963.000000 0 0 1
-25.861056 -24.250234 -12.731711 37.669146 0.753264 1.915574 0.011982 0.029839 -574658.000000 0 0 1
-26.671656 -25.318634 -13.143811 39.053428 0.759380 1.914057 0.019249 0.021821 -241861.000000 0 0 1
-27.914456 -25.393134 -12.488811 39.749195 0.738136 1.890400 0.011048 0.025208 -366963.000000 0 0 1
-29.088056 -24.639734 -13.117911 40.315147 0.702793 1.902214 0.017628 0.016361 -1109300.000000 0 0 1
-29.191856 -23.275734 -12.697111 39.435274 0.673115 1.898610 0.026004 0.015053 132305.000000 0 0 1
-29.629456 -22.958334 -11.382111 39.173233 0.659215 1.865607 0.053298 0.012135 391845.000000 0 0 1
-31.116356 -23.380034 -11.058611 40.461667 0.644380 1.847630 0.034558 0.011577 1272300.000000 0 0 1
-32.199956 -22.577434 -11.568011 40.992640 0.611506 1.856880 0.062668 -0.003769 656612.000000 0 0 1
-32.476656 -22.798734 -12.934811 41.735174 0.612069 1.885911 0.060854 -0.002300 99624.600000 0 0 1
-33.916656 -22.320934 -13.379811 42.750240 0.582056 1.889121 0.033188 -0.012671 772684.000000 0 0 1
-34.879856 -23.227734 -12.889111 43.843599 0.587496 1.869184 0.037614 -0.010180 -114520.000000 0 0 1
-36.174056 -22.864334 -13.378011 44.836495 0.563663 1.873784 0.063007 -0.025572 12494.900000 0 0 1
35.430133 -23.849234 -12.741011 44.569201 -0.592467 1.860711 0.055902 -0.019863 -788446.000000 0 0 1
35.378633 -25.105834 -13.398011 45.403274 -0.617162 1.870345 0.035713 -0.004541 370895.000000 0 0 1
34.453733 -26.012634 -12.785111 45.024170 -0.646695 1.858719 0.037642 -0.012993 279110.000000 0 0 1
34.207133 -27.265334 -13.704311 45.840315 -0.672949 1.874396 0.039907 -0.022239 255106.000000 0 0 1
33.462333 -26.997734 -14.872211 45.494923 -0.678879 1.903816 0.047994 -0.027135 -180110.000000 0 0 1
33.430333 -28.148734 -15.739511 46.450733 -0.699838 1.916483 0.047491 -0.001158 143965.000000 0 0 1
32.556933 -28.092234 -17.028111 46.250233 -0.711916 1.947840 0.047872 -0.011423 847786.000000 0 0 1
31.136733 -28.144534 -16.892511 45.243429 -0.734966 1.953435 0.056442 -0.010051 431263.000000 0 0 1
30.446633 -27.697334 -18.052811 44.944897 -0.738149 1.984131 0.060380 -0.016796 -29529.500000 0 0 1
28.964533 -28.045734 -17.824411 44.081935 -0.769283 1.987061 0.056369 -0.015158 -347439.000000 0 0 1
28.359633 -27.179634 -16.937311 42.777024 -0.764155 1.977892 0.054062 -0.019963 283821.000000 0 0 1
26.935733 -27.319634 -16.865911 41.908890 -0.792474 1.984980 0.060833 -0.015784 783842.000000 0 0 1
26.316533 -26.382234 -15.789111 40.470708 -0.786645 1.971576 0.057958 -0.024109 -350711.000000 0 0 1
26.203233 -25.016034 -16.157711 39.667153 -0.762224 1.990327 0.078310 -0.033756 103101.000000 0 0 1
26.058933 -24.138534 -15.051511 38.578294 -0.747160 1.971596 0.068263 -0.031322 -310170.000000 0 0 1
25.861833 -22.631034 -15.358811 37.641615 -0.718872 1.991089 0.068206 -0.035642 549287.000000 0 0 1
24.504633 -22.363734 -15.723911 36.713145 -0.739751 2.013397 0.068778 -0.030639 544025.000000 0 0 1
24.345733 -21.035334 -16.104111 35.979750 -0.712580 2.034863 0.070248 -0.033261 1557780.000000 0 0 1
22.817733 -20.554134 -16.150711 34.698225 -0.733255 2.054953 0.049293 -0.028452 1506000.000000 0 0 1
22.207433 -20.400334 -14.883111 33.628124 -0.743011 2.029269 0.046046 -0.028875 33062.000000 0 0 1
20.907933 -19.867634 -14.993311 32.506367 -0.759891 2.050191 0.031768 -0.033153 -18695.000000 0 0 1
20.735033 -18.591134 -14.168411 31.246051 -0.730936 2.041425 0.023597 -0.025562 -182217.000000 0 0 1
20.514333 -18.811234 -12.802611 30.636697 -0.742118 2.001912 0.033418 -0.035087 196364.000000 0 0 1
20.331633 -17.629334 -12.020411 29.473021 -0.714332 1.990888 0.036084 -0.040306 230997.000000 0 0 1
19.424133 -17.734234 -10.723211 28.404001 -0.739951 1.957918 0.039031 -0.030312 182997.000000 0 0 1
20.040733 -18.496034 -9.749811 28.961924 -0.745336 1.914145 0.043655 -0.031972 291010.000000 0 0 1
19.202033 -18.493734 -8.580811 28.006545 -0.766610 1.882190 0.041850 -0.042573 91239.500000 0 0 1
19.783833 -19.191834 -7.345411 28.525105 -0.770210 1.831238 0.048119 -0.039754 -647191.000000 0 0 1
20.759333 -18.366034 -6.806611 28.541042 -0.724304 1.811602 0.048602 -0.037701 -317879.000000 0 0 1
21.534833 -19.067434 -5.837711 29.349530 -0.724703 1.771035 0.052632 -0.026985 -241024.000000 0 0 1
22.931933 -18.490234 -5.588411 29.983206 -0.678576 1.758277 0.051453 -0.025636 -383408.000000 0 0 1
23.762133 -18.670134 -6.737211 30.961312 -0.665966 1.790152 0.037123 -0.033888 770261.000000 0 0 1
24.907233 -17.801134 -6.618911 31.321887 -0.620522 1.783721 0.037375 -0.019774 231390.000000 0 0 1
25.879133 -17.929634 -7.809511 32.437475 -0.605892 1.813941 0.041484 -0.035956 -266918.000000 0 0 1
26.802833 -18.990034 -7.624511 33.721601 -0.616414 1.798870 0.061030 -0.043839 92748.000000 0 0 1
26.489433 -20.170434 -8.326011 34.319949 -0.650790 1.815841 0.068289 -0.049193 -799426.000000 0 0 1
27.337333 -21.415634 -8.049711 35.647679 -0.664527 1.798574 0.068083 -0.054460 -240388.000000 0 0 1
28.660533 -21.161734 -8.470111 36.619502 -0.636009 1.804211 0.054255 -0.031180 126143.000000 0 0 1
29.519533 -22.268334 -8.145911 37.863404 -0.646285 1.787631 0.062332 -0.042882 353183.000000 0 0 1
-29.403917 29.822602 4.165089 42.087123 -0.792467 1.471671 0.034902 -0.009845 334184.000000 0 0 1
-28.709947 30.703002 3.284889 42.163087 -0.818931 1.492808 0.026785 -0.007697 -71449.200000 0 0 1
-27.981877 31.714702 3.926089 42.476134 -0.847847 1.478234 0.025986 0.005208 -72537.100000 0 0 1
-27.594617 32.812602 2.893089 42.970917 -0.871564 1.503419 0.028383 0.003703 -437649.000000 0 0 1
-26.455667 32.502902 2.135589 41.963099 -0.887608 1.519882 0.030071 -0.003471 -162656.000000 0 0 1
-25.959557 33.643102 1.433389 42.518367 -0.913604 1.537078 0.047969 -0.020549 79871.900000 0 0 1
-24.714067 34.261802 2.122689 42.298487 -0.945898 1.520592 0.039420 -0.021837 -311165.000000 0 0 1
-23.509667 33.741902 1.617889 41.156263 -0.962255 1.531475 0.040888 -0.025061 -565696.000000 0 0 1
-22.409567 -34.177934 2.280889 40.933145 0.990443 1.515045 0.041440 -0.023760 62103.300000 0 0 1
-21.074667 33.840702 1.734589 39.904179 -1.013809 1.527314 0.045440 -0.027734 -232219.000000 0 0 1
-20.615567 -34.005334 0.562789 39.770354 1.025797 1.556645 0.059046 -0.042307 -774603.000000 0 0 1
-19.340267 34.052702 0.287589 39.162675 -1.054276 1.563453 0.058193 -0.037281 -1116950.000000 0 0 1
-18.760267 -33.779734 -0.981011 38.652043 1.063839 1.596180 0.068685 -0.037989 -171109.000000 0 0 1
-18.492067 -32.393034 -0.952011 37.311815 1.052075 1.596314 0.079578 -0.044976 485955.000000 0 0 1
-17.659667 -31.922834 0.108689 36.482091 1.065501 1.567817 0.081573 -0.040857 -228422.000000 0 0 1
-17.500367 -30.407134 0.167489 35.083966 1.048560 1.566022 0.089127 -0.044391 -586788.000000 0 0 1
-16.624767 -29.942434 -0.806811 34.257600 1.063951 1.594350 0.077775 -0.033099 -211465.000000 0 0 1
-16.616467 -28.522134 -0.949311 33.023027 1.043283 1.599547 0.071409 -0.024573 -488857.000000 0 0 1
-15.654867 -28.060934 -2.032211 32.196596 1.061917 1.633957 0.059832 -0.016816 -431045.000000 0 0 1
-15.909867 -28.483034 -3.332211 32.794980 1.061395 1.672579 0.062237 -0.020381 -12236.600000 0 0 1
-15.148767 -27.725434 -4.270811 31.881416 1.070733 1.705160 0.045343 -0.009826 -112311.000000 0 0 1
-15.779467 -27.671334 -5.639311 32.349593 1.052542 1.746016 0.071210 -0.020180 -281039.000000 0 0 1
-16.955567 -26.899034 -5.658911 32.296634 1.008365 1.746922 0.075507 -0.009693 -456743.000000 0 0 1
-17.511967 -26.961534 -6.956611 32.893582 0.994761 1.783894 0.083437 -0.009329 79920.200000 0 0 1
-18.284967 -25.716734 -7.309011 32.390000 0.952716 1.798413 0.066590 -0.002343 -248669.000000 0 0 1
-17.399567 -24.644034 -7.446811 31.072952 0.956031 1.812808 0.039105 0.008961 -69903.200000 0 0 1
-18.049567 -23.401334 -7.571011 30.507860 0.913799 1.821583 0.020561 0.019941 110812.000000 0 0 1
-17.097567 -22.198034 -7.349411 28.967108 0.914474 1.827316 0.024892 0.016859 165191.000000 0 0 1
-16.020567 -22.144734 -8.238911 28.546935 0.944506 1.863570 0.038787 0.004305 -485316.000000 0 0 1
-14.942867 -21.410134 -7.714011 27.224788 0.961458 1.858077 0.064299 -0.003270 134650.000000 0 0 1
-13.762267 -21.139134 -8.648811 26.665801 0.993695 1.901111 0.063148 -0.004012 -430331.000000 0 0 1
-14.072767 -20.195534 -9.601311 26.421346 0.962204 1.942703 0.062176 -0.005418 298994.000000 0 0 1
-13.008067 -20.023034 -10.568511 26.111781 0.994664 1.987492 0.054478 -0.005091 566251.000000 0 0 1
-13.369467 -19.212434 -11.739711 26.185513 0.962844 2.035691 0.057890 -0.008126 -52783.000000 0 0 1
-14.315167 -19.820734 -12.622211 27.515554 0.945305 2.047362 0.046038 0.008707 -80111.000000 0 0 1
-14.690667 -19.002134 -13.668511 27.635575 0.912671 2.088169 0.045628 -0.000273 468553.000000 0 0 1
-15.856367 -19.548734 -14.569111 29.083266 0.889312 2.095486 0.048462 -0.000331 675526.000000 0 0 1
-17.116967 -19.518134 -13.927611 29.460592 0.850847 2.063210 0.043982 -0.002061 256019.000000 0 0 1
-18.169267 -19.941534 -14.806211 30.773543 0.831868 2.072745 0.035493 0.004007 463353.000000 0 0 1
-19.581067 -19.788934 -14.221211 31.261205 0.790678 2.043074 0.022047 0.012628 34576.900000 0 0 1
-20.598767 -20.441334 -14.921311 32.631317 0.781562 2.045719 0.020595 0.007532 3527.280000 0 0 1
-21.915967 -20.189034 -14.480111 33.129750 0.744406 2.023138 0.017228 0.011024 318037.000000 0 0 1
-23.060467 -20.673834 -15.409911 34.592744 0.730881 2.032492 0.020013 0.005675 -100968.000000 0 0 1
-23.142067 -20.162034 -16.754811 34.968365 0.716690 2.070473 0.016535 -0.005713 377046.000000 0 0 1
-24.089867 -20.795434 -17.614711 36.373752 0.712133 2.076325 0.027175 -0.011190 123303.000000 0 0 1
-24.173467 -20.010034 -18.975611 36.671948 0.691445 2.114655 0.026220 -0.008560 -252845.000000 0 0 1
-22.975067 -19.957134 -19.693211 36.248634 0.715218 2.145137 0.008729 -0.005881 -184990.000000 0 0 1
-23.248367 -19.577634 -21.031211 36.960549 0.699894 2.176107 0.016593 -0.005236 -154893.000000 0 0 1
-22.099267 -18.883634 -21.800211 36.334810 0.707096 2.214274 0.002517 0.008484 240786.000000 0 0 1
-20.987567 -19.721934 -22.046311 36.269443 0.754319 2.224144 -0.009423 0.007025 -373465.000000 0 0 1
-20.073667 -19.214734 -22.946011 36.037169 0.763539 2.261049 -0.004022 0.003787 -156612.000000 0 0 1
-18.728267 -19.972434 -22.997611 35.756625 0.817536 2.269428 0.014180 0.006888 -335388.000000 0 0 1
-18.792567 -21.160034 -23.700311 36.913580 0.844586 2.267964 0.001053 0.008358 -750012.000000 0 0 1
-17.560467 -21.777734 -23.779011 36.716224 0.892196 2.275283 0.009394 0.007164 -866752.000000 0 0 1
-17.589167 -23.250534 -24.234211 37.911253 0.923144 2.264300 0.010846 0.004127 -278786.000000 0 0 1
-17.765767 -23.212734 -25.594601 38.852762 0.917546 2.289964 0.013472 0.007434 157670.000000 0 0 1
-17.819867 -24.565434 -26.066401 40.005818 0.943223 2.280442 0.024435 -0.002465 -51690.300000 0 0 1
-17.956967 -24.554534 -27.574881 41.057909 0.939365 2.307175 0.028077 0.002660 493140.000000 0 0 1
-16.813567 -23.947134 -28.198301 40.636258 0.958654 2.337715 0.035346 -0.001362 485986.000000 0 0 1
-16.911667 -23.906734 -29.589881 41.630487 0.955120 2.361395 0.040099 -0.003075 -567570.000000 0 0 1
-15.593767 -23.745534 -30.335761 41.560490 0.989723 2.388999 0.028432 -0.009697 -1007520.000000 0 0 1
-14.751067 -24.794834 -30.131531 41.716747 1.034117 2.377902 0.031164 -0.008372 -892094.000000 0 0 1
-13.498167 -24.557234 -30.714031 41.576556 1.068213 2.401987 0.031421 -0.009478 -133370.000000 0 0 1
-12.438067 -25.580634 -30.262991 41.532192 1.118225 2.387165 0.048705 -0.009333 -517763.000000 0 0 1
-12.556967 -26.760534 -31.068311 42.884071 1.132063 2.381065 0.043206 0.001849 375812.000000 0 0 1
-11.691167 -27.846234 -30.777511 43.120196 1.173298 2.365650 0.035134 0.003270 -560404.000000 0 0 1
-10.274267 -27.850434 -31.333071 43.162120 1.217377 2.383195 0.046855 -0.006096 -885117.000000 0 0 1
-9.605467 -26.798034 -30.744031 41.899822 1.226623 2.394623 0.066614 -0.026805 -436944.000000 0 0 1
-8.482967 -26.482434 -31.564271 42.066415 1.260799 2.419378 0.066016 -0.019814 448487.000000 0 0 1
-7.564467 -25.272234 -31.086491 40.771030 1.279964 2.437911 0.092584 -0.031217 168131.000000 0 0 1
-8.139967 -23.969534 -31.028881 40.044839 1.243420 2.457280 0.096442 -0.025618 101349.000000 0 0 1
-8.847767 -23.736134 -29.811111 39.120192 1.213995 2.437252 0.083751 -0.015898 73682.500000 0 0 1
-9.247467 -22.257634 -29.587511 38.162006 1.177022 2.458007 0.093942 -0.035436 -308599.000000 0 0 1
-10.146567 -21.702934 -30.496501 38.781526 1.133468 2.475702 0.078785 -0.031601 -168817.000000 0 0 1
-10.344967 -20.287134 -30.506231 38.068574 1.099238 2.500344 0.092269 -0.036357 -29480.200000 0 0 1
-11.168067 -19.779134 -31.677701 38.979695 1.056784 2.519519 0.064841 -0.025927 -84337.800000 0 0 1
-11.817767 -18.536834 -31.581211 38.479173 1.003238 2.533493 0.058271 -0.028461 458330.000000 0 0 1
-12.543967 -18.259234 -32.792551 39.574009 0.968853 2.547468 0.049529 -0.011163 -289914.000000 0 0 1
-13.367767 -16.952734 -32.720821 39.201333 0.903088 2.558360 0.059022 -0.017136 190046.000000 0 0 1
-12.665867 -15.664034 -32.807031 38.497889 0.890836 2.590929 0.065788 -0.018508 811307.000000 0 0 1
-11.691567 -15.353434 -31.757101 37.160922 0.919979 2.595544 0.057066 -0.017154 731523.000000 0 0 1
-11.282567 -13.894134 -31.958321 36.628917 0.888758 2.631069 0.048524 -0.017434 -171694.000000 0 0 1
-10.526667 -13.551434 -33.137751 37.317056 0.910367 2.663786 0.045652 -0.027320 163146.000000 0 0 1
-11.189767 -13.716434 34.139996 38.456349 0.886500 0.478341 0.056560 -0.023008 -275357.000000 0 0 1
-11.872367 -12.523134 33.458027 37.646003 0.812068 0.476177 0.055461 -0.016270 -601898.000000 0 0 1
-12.962867 -11.910534 34.025985 38.310108 0.743116 0.477444 0.043091 -0.010586 -913055.000000 0 0 1
-13.539667 -11.097834 32.998468 37.354831 0.686610 0.487773 0.053753 -0.016754 596181.000000 0 0 1
-14.707767 -10.191934 33.508269 37.986814 0.605987 0.490489 0.068029 -0.023250 515320.000000 0 0 1
-14.218967 -9.218334 -34.125028 38.100843 0.575188 2.680687 0.068166 -0.025267 335396.000000 0 0 1
-15.215667 -8.851534 -33.170501 37.551942 0.526883 2.653701 0.070785 -0.031210 555785.000000 0 0 1
-14.601567 -7.805734 -32.205051 36.211884 0.490929 2.666719 0.072061 -0.041100 -321226.000000 0 0 1
-14.371567 -6.510434 -32.747191 36.349776 0.425353 2.692615 0.077227 -0.044226 61673.400000 0 0 1
-15.503667 -5.684134 -32.882461 36.795779 0.351414 2.676205 0.068923 -0.038204 -65948.100000 0 0 1
-16.076767 -5.076934 -31.586621 35.804362 0.305882 2.651311 0.080825 -0.042100 -282402.000000 0 0 1
-16.512867 -5.966234 -30.607091 35.285475 0.346713 2.620776 0.083834 -0.044172 -218706.000000 0 0 1
-16.852467 -5.383634 -29.350151 34.269820 0.309210 2.599136 0.096641 -0.043857 788974.000000 0 0 1
-15.643167 -4.744734 -28.534851 32.885543 0.294491 2.621357 0.089696 -0.041022 1034960.000000 0 0 1
-15.086167 -3.609134 -29.258181 33.115849 0.234821 2.654100 0.087185 -0.038571 355904.000000 0 0 1
-13.864267 -3.190834 -28.653771 31.991216 0.226209 2.680746 0.083064 -0.026282 550626.000000 0 0 1
-13.285067 -1.893834 -29.301101 32.227847 0.141600 2.712121 0.058710 -0.011661 165041.000000 0 0 1
-13.044067 -1.994834 -30.670641 33.388850 0.151755 2.735292 0.064429 -0.023195 180265.000000 0 0 1
-13.206767 -0.686834 -31.231941 33.916435 0.051959 2.741051 0.063305 -0.028041 -169022.000000 0 0 1
-13.664567 -0.651834 -32.692491 35.439304 0.047666 2.745285 0.062611 -0.035476 -238864.000000 0 0 1
-14.964167 -1.199834 -32.846911 36.114893 0.080009 2.712904 0.047055 -0.038523 194644.000000 0 0 1
-15.153567 -1.502834 -34.224503 37.459388 0.098850 2.722953 0.041480 -0.031964 11817.000000 0 0 1
-16.559867 -1.790834 33.711793 37.602145 0.107724 0.458903 0.025289 -0.031348 184346.000000 0 0 1
-16.426767 -1.961834 32.321727 36.309524 0.118866 0.473073 0.038419 -0.031883 152059.000000 0 0 1
-17.657367 -1.805834 31.643377 36.281496 0.101917 0.511190 0.027338 -0.023391 -30054.400000 0 0 1
-17.621067 -1.924834 30.102587 34.933834 0.108803 0.532180 0.041037 -0.017116 -175832.000000 0 0 1
-17.016567 -0.725834 29.619657 34.167448 0.042629 0.521853 0.041037 -0.011250 88203.200000 0 0 1
-16.954167 -0.709834 28.212867 32.922842 0.041843 0.541495 0.039088 -0.013838 -291030.000000 0 0 1
-16.447267 0.656166 27.690677 32.213611 -0.039874 0.536319 0.032305 -0.010847 -295324.000000 0 0 1
-17.034767 1.838166 28.155787 32.959225 -0.107491 0.546668 0.036312 -0.007233 -1142600.000000 0 0 1
-18.301167 2.088166 27.664017 33.235388 -0.113609 0.587433 0.046155 -0.012280 -974139.000000 0 0 1
-18.394567 2.877166 26.305407 32.227514 -0.155157 0.615923 0.047887 -0.009944 -567596.000000 0 0 1
-18.176167 4.245166 26.455747 32.377477 -0.229444 0.614428 0.039974 -0.003061 89425.900000 0 0 1
-18.307167 4.919166 25.240147 31.566051 -0.262501 0.644171 0.045221 -0.005283 -650247.000000 0 0 1
-18.196767 6.466166 25.379077 31.890926 -0.341430 0.650454 0.047333 -0.001237 314886.000000 0 0 1
-16.900167 7.042166 25.360777 31.279015 -0.394813 0.625292 0.037804 0.002623 -17028.800000 0 0 1
-16.246967 6.945166 24.130107 29.907547 -0.403965 0.632041 0.030378 0.002722 -494916.000000 0 0 1
-15.180567 8.050166 24.031867 29.542942 -0.487588 0.620728 0.010907 0.011649 629851.000000 0 0 1
-14.008467 7.880166 24.844157 29.589970 -0.512411 0.574224 0.003363 0.011591 380656.000000 0 0 1
-12.843667 8.230166 24.145087 28.560123 -0.569877 0.563459 0.006252 0.023391 -464749.000000 0 0 1
-11.505367 7.935166 24.806377 28.472736 -0.603775 0.513088 -0.002444 0.023732 -352451.000000 0 0 1
-10.463467 8.653166 24.175607 27.727629 -0.690982 0.511736 -0.012449 0.019860 34064.600000 0 0 1
-9.251467 8.645166 24.907707 27.941410 -0.751533 0.470313 -0.002048 0.004228 47863.200000 0 0 1
-8.928167 9.988166 25.608817 28.901335 -0.841376 0.481983 -0.004947 -0.008723 -324815.000000 0 0 1
-9.793867 10.301166 26.703797 30.251060 -0.810638 0.489136 -0.005488 -0.006359 390067.000000 0 0 1
-9.886867 11.705166 27.029737 31.070368 -0.869412 0.515691 -0.008836 -0.010181 -579416.000000 0 0 1
-10.627867 12.702166 26.120017 30.928173 -0.874076 0.565095 -0.016516 -0.016510 -452263.000000 0 0 1
-12.019867 12.516166 26.120037 31.359017 -0.805623 0.586405 -0.000167 -0.018345 -246768.000000 0 0 1
-12.338067 11.922166 24.882747 30.224445 -0.768257 0.603656 -0.003528 -0.007260 156829.000000 0 0 1
-13.867767 11.723166 24.601837 30.577737 -0.701790 0.635850 0.015305 -0.011908 613693.000000 0 0 1
-14.544967 12.948166 24.303677 31.142893 -0.727383 0.675503 0.007594 -0.010065 -136346.000000 0 0 1
-15.843367 12.878166 23.780107 31.342510 -0.682523 0.709454 0.029969 0.001700 -94966.000000 0 0 1
-15.966867 12.430166 22.292227 30.106366 -0.661491 0.737058 0.025854 0.006613 -376742.000000 0 0 1
-15.984567 11.009166 22.207227 29.493543 -0.603127 0.718260 0.032169 0.003312 62722.700000 0 0 1
-16.002467 10.534166 20.872127 28.331842 -0.582177 0.742616 0.022729 0.000740 -154348.000000 0 0 1
-16.203967 9.042166 20.745227 27.833321 -0.508981 0.729755 0.013062 0.005520 -265421.000000 0 0 1
-17.529467 8.766166 21.080027 28.783597 -0.463713 0.749011 0.038090 0.000794 -617981.000000 0 0 1
-17.927167 7.409166 20.893527 28.509973 -0.391913 0.748295 0.026767 0.002876 -131559.000000 0 0 1
-19.391067 7.188166 21.301827 29.689241 -0.354991 0.770600 0.051122 -0.010285 -258980.000000 0 0 1
-19.715867 7.441166 22.610027 30.907923 -0.360891 0.750235 0.052894 -0.015673 -55583.500000 0 0 1
-21.116567 7.606166 22.711027 31.930454 -0.345732 0.779500 0.049041 -0.014831 -105188.000000 0 0 1
-21.553267 8.486166 23.881877 33.270143 -0.375089 0.770134 0.070184 -0.024618 -688526.000000 0 0 1
-21.405767 9.912166 23.837807 33.536532 -0.433662 0.780160 0.074967 -0.015004 1661550.000000 0 0 1
-20.102667 10.546166 23.575107 32.728039 -0.483145 0.766513 0.069307 -0.008945 1843830.000000 0 0 1
-18.971867 10.338166 24.615337 32.752469 -0.498935 0.720378 0.079976 -0.017667 -29023.400000 0 0 1
-19.247467 11.056166 25.875557 34.091762 -0.521400 0.709025 0.092523 -0.020902 209280.000000 0 0 1
-19.388167 10.191166 26.955057 34.732348 -0.483947 0.682372 0.068198 -0.016683 -135374.000000 0 0 1
-31.018607 -13.985698 20.509027 39.728755 0.423586 1.028357 0.093668 -0.018746 -373887.000000 0 0 1
-30.111707 -15.032698 20.632427 39.476499 0.463032 1.020839 0.097788 -0.022106 -228793.000000 0 0 1
-30.316097 -16.089298 19.676727 39.561406 0.487919 1.050230 0.093265 -0.010524 8040.910000 0 0 1
-30.039337 -15.683198 18.208327 38.469048 0.481162 1.077736 0.096960 -0.004027 -202774.000000 0 0 1
-30.967747 -14.803098 17.588527 38.567984 0.445907 1.097256 0.105242 -0.017533 -347820.000000 0 0 1
-30.527017 -14.420798 16.358627 37.516168 0.441320 1.119600 0.098114 -0.015674 -530439.000000 0 0 1
-31.548047 -13.507598 15.574327 37.686790 0.404544 1.144769 0.080127 -0.013480 463684.000000 0 0 1
-32.831147 -14.020098 15.223227 38.809716 0.403594 1.167717 0.083601 -0.016657 776304.000000 0 0 1
-33.751097 -14.189398 16.302527 40.078024 0.397979 1.151881 0.091764 -0.015489 -437965.000000 0 0 1
-34.368498 -12.877298 16.827327 40.375456 0.358493 1.140906 0.075438 -0.018105 -481403.000000 0 0 1
-35.383777 -13.119298 17.802827 41.726111 0.355058 1.130001 0.060872 -0.012978 31840.100000 0 0 1
-35.829038 -11.909898 18.308127 41.961330 0.320919 1.119303 0.057098 -0.007979 -278524.000000 0 0 1
35.690391 -12.096398 19.387527 42.379277 -0.326775 1.095641 0.055734 -0.006835 -493016.000000 0 0 1
36.155451 -12.587498 20.591327 43.470272 -0.335025 1.077323 0.046143 -0.003257 -266036.000000 0 0 1
35.458881 -12.057398 21.695227 43.282745 -0.327773 1.045760 0.032230 -0.003814 -1297550.000000 0 0 1
36.195601 -12.400698 22.989127 44.636295 -0.330069 1.029751 0.028696 -0.004240 -214964.000000 0 0 1
-35.175601 -11.714998 23.110327 43.688114 0.321490 1.013393 0.033045 -0.008755 -549128.000000 0 0 1
-34.086198 -12.367798 22.510627 42.679734 0.348066 1.015222 0.048431 -0.012288 -498683.000000 0 0 1
-32.796437 -11.474298 22.498427 41.393780 0.336554 0.996169 0.060997 -0.013854 214447.000000 0 0 1
-32.817977 -10.400998 21.564827 40.623173 0.306916 1.011193 0.064266 -0.017655 -204345.000000 0 0 1
-31.550947 -9.807498 21.486627 39.412237 0.301378 0.994197 0.066068 -0.025017 -549664.000000 0 0 1
-31.635557 -8.412898 20.788527 38.778192 0.259916 1.005000 0.054555 -0.016757 62591.600000 0 0 1
-31.989897 -8.383198 19.401027 38.340988 0.256294 1.040241 0.056119 -0.015269 -308783.000000 0 0 1
-33.363117 -8.549498 19.204827 39.433703 0.250858 1.062127 0.049206 -0.018063 -934712.000000 0 0 1
-33.674767 -8.397698 17.738827 38.976625 0.244392 1.098296 0.057940 -0.019217 176600.000000 0 0 1
-35.066962 -8.522798 17.463927 40.091379 0.238421 1.120088 0.016968 -0.014909 497561.000000 0 0 1
-35.352757 -8.479198 16.069327 39.748428 0.235399 1.154609 0.029092 -0.009385 262289.000000 0 0 1
35.718581 -8.588498 15.740227 39.966663 -0.235970 1.165997 0.031848 -0.011068 402488.000000 0 0 1
35.164601 -9.858998 16.035727 39.886007 -0.273349 1.157054 0.031362 0.002761 1339740.000000 0 0 1
33.741731 -9.917098 15.763627 38.540177 -0.285862 1.149419 0.035791 0.008764 1362100.000000 0 0 1
33.011221 -11.252498 16.047327 38.391095 -0.328517 1.139558 0.025047 0.011142 87862.800000 0 0 1
32.976941 -11.668598 17.382527 39.061325 -0.340093 1.109615 0.018357 0.001433 -269992.000000 0 0 1
31.809571 -12.359098 17.721527 38.453201 -0.370583 1.091833 0.022436 -0.001075 -176701.000000 0 0 1
31.591061 -12.726998 19.229427 39.111923 -0.382976 1.056811 0.016662 0.000220 -70839.100000 0 0 1
32.420901 -13.811498 19.580927 40.314824 -0.402722 1.063632 0.012074 0.007933 -219186.000000 0 0 1
32.364551 -14.025598 20.993527 41.047653 -0.408933 1.033933 0.006660 0.009619 -177378.000000 0 0 1
32.706161 -15.490998 21.380427 42.033162 -0.442339 1.037173 0.004086 0.009291 74769.200000 0 0 1
32.822581 -15.571598 22.773327 42.876811 -0.442973 1.010858 -0.002891 0.003440 -275422.000000 0 0 1
33.141331 -16.893598 23.178127 43.828839 -0.471412 1.013572 0.007594 0.002963 40062.600000 0 0 1
33.724931 -16.853598 24.617867 45.027260 -0.463437 0.992339 0.015608 0.003834 -488210.000000 0 0 1
34.828781 -16.021498 24.618227 45.560833 -0.431145 0.999958 0.029689 0.010607 -693738.000000 0 0 1
35.339281 -15.907098 25.932727 46.630536 -0.422958 0.981072 0.020741 0.016124 -256983.000000 0 0 1
-36.167567 -14.818198 26.147397 47.025082 0.388849 0.981194 0.021314 0.008997 -15188.200000 0 0 1
-34.938342 -15.208498 25.568517 45.888291 0.410558 0.979798 0.010484 0.003671 -368758.000000 0 0 1
-33.979617 -14.191698 25.772497 44.947083 0.395631 0.960151 0.016506 -0.003823 -565057.000000 0 0 1
-32.591657 -14.766498 25.533727 43.957216 0.425409 0.950991 0.048761 -0.014523 -1403930.000000 0 0 1
-32.261107 -15.036498 24.241087 43.063971 0.436151 0.972895 0.049649 -0.011660 815787.000000 0 0 1
-30.899247 -15.456498 23.995827 42.065027 0.463826 0.963748 0.068833 -0.021262 980917.000000 0 0 1
-30.504077 -16.815698 24.566417 42.623647 0.503811 0.956533 0.068916 -0.016568 -997370.000000 0 0 1
-30.492037 -16.914598 25.996177 43.493324 0.506461 0.930161 0.069704 -0.017976 -35401.200000 0 0 1
-30.030547 -18.139698 26.457657 43.941894 0.543386 0.924661 0.067984 -0.026557 -178932.000000 0 0 1
-29.847837 -18.169598 27.979927 44.764986 0.546822 0.895613 0.043473 -0.026845 -664975.000000 0 0 1
-28.740787 -17.400898 28.322537 43.943034 0.544412 0.870390 0.048489 -0.026538 -476746.000000 0 0 1
-28.447797 -17.735698 29.656517 44.758699 0.557482 0.846529 0.038004 -0.023734 -759142.000000 0 0 1
-27.106257 -17.254098 30.130307 44.048706 0.566852 0.817533 0.056072 -0.025424 -888008.000000 0 0 1
-27.194637 -15.866698 30.350147 43.731360 0.528161 0.803748 0.070053 -0.033638 -587250.000000 0 0 1
-25.991067 -15.247298 30.065507 42.567011 0.530535 0.786524 0.060054 -0.030508 -854761.000000 0 0 1
-25.809177 -13.886398 30.750467 42.479841 0.493615 0.761381 0.068108 -0.028228 -58741.100000 0 0 1
-25.287907 -13.922898 32.086167 43.160717 0.503285 0.732640 0.067284 -0.027770 180377.000000 0 0 1
-25.081717 -12.650298 32.635165 43.060151 0.467132 0.710713 0.067924 -0.024932 1812.600000 0 0 1
-24.260067 -12.708398 33.962696 43.629336 0.482537 0.678624 0.067468 -0.019966 180272.000000 0 0 1
-22.893167 -13.061798 33.814780 42.873617 0.518487 0.662091 0.044638 -0.015722 254835.000000 0 0 1
-22.577367 -14.447698 34.113280 43.384206 0.569256 0.665989 0.041045 -0.019416 -115237.000000 0 0 1
-22.471667 -14.768698 -32.886291 42.480565 0.581430 2.456166 0.030930 -0.015506 -955611.000000 0 0 1
-21.345467 -14.430598 -32.153651 41.203500 0.594471 2.466041 0.019500 -0.005877 -579848.000000 0 0 1
-21.306567 -15.216498 -30.982851 40.564131 0.620172 2.439975 0.029322 -0.011468 -254393.000000 0 0 1
-19.979467 -15.170998 -30.222971 39.278064 0.649445 2.448794 0.039687 -0.008371 -366969.000000 0 0 1
-19.715167 -14.087598 -29.322961 38.039247 0.620429 2.450988 0.033352 -0.010231 125588.000000 0 0 1
-20.529867 -13.906498 -28.155171 37.517727 0.595382 2.419539 0.039560 -0.003125 -24676.600000 0 0 1
-20.100467 -12.737498 -27.215751 36.152037 0.564825 2.423123 0.046685 -0.007911 -216427.000000 0 0 1
-18.862767 -12.960098 -26.585381 35.079205 0.601997 2.430834 0.044747 -0.008306 -258734.000000 0 0 1
-18.426667 -11.777498 -25.964041 33.946767 0.568714 2.441598 0.061880 -0.017944 551610.000000 0 0 1
-16.993167 -11.875098 -25.353931 32.750687 0.609931 2.456167 0.068682 -0.020245 -602752.000000 0 0 1
-16.995967 -12.745998 -24.214311 32.212672 0.643464 2.421434 0.078201 -0.021401 435007.000000 0 0 1
-15.741067 -12.982898 -23.551111 31.160739 0.689668 2.427663 0.079252 -0.025929 755808.000000 0 0 1
-14.708167 -13.683798 -24.463311 31.654859 0.749334 2.454059 0.055450 -0.013674 -615976.000000 0 0 1
-13.959367 -12.913898 -25.406681 31.735345 0.746514 2.499059 0.064133 -0.027113 141202.000000 0 0 1
-13.262167 -13.747898 -26.297391 32.502962 0.803380 2.513376 0.065772 -0.021768 -100140.000000 0 0 1
-12.278067 -13.070198 -27.271021 32.638775 0.816638 2.559912 0.061599 -0.026965 513698.000000 0 0 1
-13.038767 -12.267498 -28.205001 33.406931 0.754930 2.576028 0.073718 -0.032749 389074.000000 0 0 1
-12.209367 -11.416398 -28.948111 33.427473 0.751847 2.617938 0.074315 -0.037937 -439270.000000 0 0 1
-13.021867 -10.510698 -29.865691 34.234534 0.679090 2.630857 0.049421 -0.037590 -395421.000000 0 0 1
-12.371367 -9.488698 -30.600341 34.343369 0.654285 2.670365 0.046774 -0.031305 -166794.000000 0 0 1
-11.706567 -10.047998 -31.741841 35.292357 0.709305 2.689185 0.060286 -0.023656 -404226.000000 0 0 1
-10.911867 -9.084798 -32.578761 35.538403 0.694282 2.730588 0.051283 -0.024281 -585767.000000 0 0 1
-9.629467 -8.829698 -32.083441 34.641556 0.742099 2.754882 0.031325 -0.018466 -481826.000000 0 0 1
-9.062767 -7.662798 -32.637731 34.728572 0.701890 2.792826 0.027265 -0.016657 371884.000000 0 0 1
-7.522367 -7.422798 -32.500371 34.175402 0.778736 2.827209 0.031776 -0.016278 576613.000000 0 0 1
-7.002267 -7.280798 -31.171411 32.767341 0.804896 2.828206 0.023841 -0.013683 -264063.000000 0 0 1
-7.389967 -6.085598 -30.503991 31.970918 0.688904 2.837493 0.031536 -0.014633 -735834.000000 0 0 1
-6.768967 -4.769098 -30.901801 31.991945 0.613775 2.879788 0.021387 -0.016595 -689740.000000 0 0 1
-5.504567 -4.521698 -30.370421 31.194687 0.687681 2.911200 0.019653 -0.017154 -596681.000000 0 0 1
-4.948267 -3.401198 -30.982241 31.558719 0.602186 2.950163 0.027976 -0.022228 -717734.000000 0 0 1
-3.497367 -3.211898 -30.609841 30.975962 0.742875 2.987691 0.025026 -0.014344 -2151880.000000 0 0 1
-2.464467 -4.018098 -31.110491 31.465559 1.020624 2.991222 0.016714 -0.018692 -758814.000000 0 0 1
-1.260667 -3.674398 -30.536331 30.782430 1.240286 3.015058 0.022216 -0.015918 -676072.000000 0 0 1
-0.642567 -2.236898 -30.758261 30.846187 1.291070 3.066070 0.015427 -0.015573 -675294.000000 0 0 1
0.616433 -2.130598 -30.045281 30.127037 -1.289163 3.067905 0.030078 -0.021416 1099430.000000 0 0 1
1.287433 -0.909498 -30.468441 30.509188 -0.615037 3.089904 0.001249 -0.010703 31995.100000 0 0 1
1.197533 0.214902 -29.361051 29.386248 0.177564 3.100178 0.012500 -0.015560 -652045.000000 0 0 1
-0.050267 0.722402 -29.015071 29.024106 -1.501325 3.116640 0.023098 -0.021623 -889171.000000 0 0 1
0.112033 2.090502 -28.815171 28.891120 1.517256 3.069067 0.038073 -0.027889 -170421.000000 0 0 1
-1.094167 2.891502 -28.281461 28.449939 -1.209041 3.032710 0.029488 -0.029195 -343267.000000 0 0 1
-1.990767 3.315902 -29.251121 29.505702 -1.030105 3.010134 0.024368 -0.035381 -344688.000000 0 0 1
-3.016167 4.138802 -28.690411 29.143895 -0.941032 2.964953 0.064340 -0.040692 464724.000000 0 0 1
-4.237967 4.119902 -29.660701 30.243861 -0.771273 2.944899 0.080317 -0.043713 -193323.000000 0 0 1
-3.927167 4.631602 -30.923411 31.513993 -0.867519 2.947690 0.078231 -0.044512 -325318.000000 0 0 1
-5.045367 4.490902 -31.724961 32.436046 -0.727321 2.931815 0.092414 -0.043333 -1088580.000000 0 0 1
-4.860367 5.440102 -32.929981 33.728349 -0.841621 2.923581 0.091429 -0.034836 -13053.100000 0 0 1
-4.228867 4.949702 -34.062701 34.679251 -0.863772 2.952746 0.095513 -0.032291 -1199130.000000 0 0 1
-2.946967 4.500802 -33.908121 34.332237 -0.991079 2.984247 0.080332 -0.031157 -1773240.000000 0 0 1
-2.395167 3.701402 33.399556 33.689280 -0.996464 0.131242 0.056443 -0.027288 -82935.700000 0 0 1
-3.147167 2.521402 33.122927 33.367506 -0.675451 0.121151 0.055483 -0.033984 58700.400000 0 0 1
-2.786167 1.825402 31.953137 32.126279 -0.579998 0.103868 0.059218 -0.020858 -236801.000000 0 0 1
-2.652767 2.660202 30.637767 30.867242 -0.786797 0.122012 0.054403 -0.017640 236397.000000 0 0 1
-3.794467 3.484802 30.380907 30.814629 -0.742883 0.167978 0.045769 -0.017184 310133.000000 0 0 1
-3.619467 4.328302 29.297357 29.835715 -0.874349 0.190256 0.043560 -0.018891 -315171.000000 0 0 1
-4.812167 5.236902 29.034897 29.893266 -0.827639 0.240220 0.042912 -0.014053 -369854.000000 0 0 1
-4.843767 5.838302 27.774377 28.791733 -0.878234 0.266627 0.037732 -0.004116 -338115.000000 0 0 1
-5.912967 6.728202 27.565987 28.984746 -0.849799 0.314175 0.023558 -0.000839 -483097.000000 0 0 1
-5.875667 7.367602 26.151317 27.797417 -0.897581 0.345866 0.018593 -0.001031 -69397.200000 0 0 1
-5.042767 8.512802 26.173947 27.981651 -1.036003 0.361417 0.019369 -0.004901 27568.300000 0 0 1
-5.076567 9.207402 24.955417 27.079893 -1.066912 0.398748 0.022101 -0.006419 4131.230000 0 0 1
-4.855767 10.705202 25.116687 27.731350 -1.144961 0.437734 0.030053 -0.010316 -387549.000000 0 0 1
-4.863867 11.356302 23.844307 26.854679 -1.166137 0.478033 0.038656 -0.017788 200137.000000 0 0 1
-4.412667 12.731202 23.849017 27.392166 -1.237151 0.514272 0.042692 -0.016355 1034740.000000 0 0 1
-2.825867 12.878702 23.910147 27.304608 -1.354798 0.503950 0.038447 -0.008149 1302120.000000 0 0 1
-2.067467 12.439002 25.030147 28.026977 -1.406094 0.466666 0.044455 -0.009825 165607.000000 0 0 1
-2.256467 13.270202 26.184447 29.441725 -1.402367 0.474841 0.041059 -0.009458 -997377.000000 0 0 1
-1.532167 12.820102 27.422087 30.309626 -1.451848 0.440046 0.039808 -0.004423 -322101.000000 0 0 1
-0.149467 13.014502 27.290827 30.235556 -1.559312 0.445008 0.042952 -0.003024 -600591.000000 0 0 1
0.549533 12.341702 28.345347 30.920516 1.526299 0.411013 0.044427 -0.005644 1309370.000000 0 0 1
2.122833 12.431002 28.216697 30.906605 1.401659 0.420300 0.048741 0.000618 1062580.000000 0 0 1
2.490733 13.734102 28.378917 31.625816 1.391392 0.457105 0.041409 -0.004525 94439.100000 0 0 1
3.885133 13.867002 28.117727 31.591052 1.297629 0.473334 0.048894 -0.001985 582080.000000 0 0 1
4.468333 15.321702 28.307197 32.496430 1.287032 0.513386 0.054734 -0.005136 -153251.000000 0 0 1
4.433733 15.716302 29.685697 33.880684 1.295832 0.502910 0.062642 0.003455 -25433.700000 0 0 1
3.318833 16.437102 30.139047 34.489928 1.371564 0.507729 0.046382 0.001386 -222830.000000 0 0 1
3.426633 17.951102 29.718277 34.887818 1.382178 0.551339 0.046383 0.005814 393036.000000 0 0 1
4.531433 18.679302 30.270247 35.857190 1.332803 0.565746 0.066579 0.011381 435721.000000 0 0 1
4.785933 19.810502 29.431637 35.799195 1.333753 0.605652 0.047923 0.010646 670231.000000 0 0 1
5.994933 20.699902 29.925077 36.877302 1.288897 0.624121 0.059198 0.006912 483450.000000 0 0 1
5.736733 21.519702 31.038497 38.202041 1.310274 0.622398 0.059701 -0.008232 859502.000000 0 0 1
6.909433 22.185102 31.580087 39.207409 1.268873 0.634341 0.059252 -0.011586 798814.000000 0 0 1
7.104133 23.604902 31.024997 39.625882 1.278459 0.671406 0.059957 -0.003986 -199412.000000 0 0 1
7.511833 23.683602 29.689917 38.714749 1.263659 0.696817 0.036766 -0.000386 147446.000000 0 0 1
7.737333 25.012302 29.290137 39.286049 1.270792 0.729420 0.037120 -0.002772 -441.609000 0 0 1
8.469533 25.096302 27.921697 38.486082 1.245317 0.759034 0.043733 -0.009116 47604.700000 0 0 1
7.642533 24.756902 26.796527 37.274205 1.271374 0.768574 0.036897 -0.004650 476475.000000 0 0 1
8.302033 24.849802 25.564207 36.605533 1.248366 0.797679 0.043609 -0.013510 -563017.000000 0 0 1
28.089761 2.586102 6.434989 28.933228 0.091807 1.346512 0.075392 -0.010983 -213703.000000 0 0 1
28.626571 3.146102 7.594589 29.783491 0.109462 1.312956 0.067053 -0.005898 229661.000000 0 0 1
27.790801 2.872402 8.694789 29.260531 0.102992 1.269089 0.053502 -0.004108 -300278.000000 0 0 1
28.233281 3.725302 9.939689 30.162783 0.131189 1.234985 0.053978 -0.003636 188755.000000 0 0 1
27.941431 5.130602 9.907889 30.086757 0.181597 1.235223 0.053827 -0.007774 359144.000000 0 0 1
29.001441 5.841202 9.284389 31.006501 0.198752 1.266697 0.078856 -0.016936 72295.900000 0 0 1
28.694641 7.356202 9.162089 31.007096 0.250957 1.270835 0.101133 -0.016668 316895.000000 0 0 1
27.769361 7.619102 8.116189 29.917565 0.267781 1.296068 0.086671 -0.014556 308326.000000 0 0 1
28.055631 8.930602 7.631489 30.415682 0.308176 1.317180 0.097616 -0.027098 581960.000000 0 0 1
27.097721 9.215202 6.429389 29.335022 0.327804 1.349831 0.089233 -0.013876 453350.000000 0 0 1
25.724621 9.443802 6.647089 28.197967 0.351837 1.332827 0.083345 -0.010442 354667.000000 0 0 1
25.036921 9.586202 5.394489 27.346722 0.365663 1.372231 0.094301 -0.019015 -48536.100000 0 0 1
23.594521 10.088802 5.516389 26.247208 0.404063 1.359047 0.050140 -0.014546 -330163.000000 0 0 1
23.516721 11.474802 5.792689 26.800420 0.453955 1.352935 0.045637 -0.001456 388253.000000 0 0 1
22.175621 11.925802 5.840189 25.847451 0.493420 1.342880 0.045544 -0.009941 -1892.660000 0 0 1
21.955821 13.422102 6.107289 26.448249 0.548704 1.337779 0.046470 -0.001691 -297545.000000 0 0 1
22.448621 14.312402 5.108989 27.108803 0.567582 1.381200 0.065336 -0.007492 383824.000000 0 0 1
22.475521 15.654902 5.587089 27.954259 0.608394 1.369576 0.097831 -0.001197 -161560.000000 0 0 1
22.242321 16.665402 4.464489 28.149390 0.643031 1.411524 0.098075 -0.011555 -445203.000000 0 0 1
20.931421 16.592202 3.975289 27.004231 0.670270 1.423050 0.115489 -0.013380 16648.000000 0 0 1
20.566921 17.770302 3.254889 27.374736 0.712579 1.451613 0.101225 -0.013193 -700473.000000 0 0 1
19.118921 17.963802 2.859189 26.389511 0.754258 1.462238 0.105302 -0.006884 -477805.000000 0 0 1
18.207921 17.983602 3.972089 25.898182 0.779200 1.416815 0.103110 -0.018659 680066.000000 0 0 1
16.835121 17.952002 3.645689 24.879444 0.817493 1.423733 0.089711 -0.022732 24885.300000 0 1 0
16.057021 19.242402 3.979289 25.375829 0.875393 1.413332 0.093637 -0.024025 -461995.000000 0 0 1
14.679921 18.969502 4.053389 24.326365 0.912193 1.403390 0.083834 -0.027401 -161771.000000 0 1 0
13.932621 20.099702 4.446389 24.857319 0.964665 1.390952 0.071641 -0.024492 -1564960.000000 0 1 0
12.471021 19.932102 4.347289 23.910541 1.011712 1.387965 0.061846 -0.015067 -1931350.000000 0 1 0
11.751821 19.203802 5.313689 23.132803 1.021634 1.339023 0.044872 -0.022167 -170760.000000 0 1 0
10.416521 19.595102 5.049989 22.759049 1.082199 1.347045 0.036866 -0.000353 206808.000000 0 1 0
9.367921 19.005202 6.048989 22.035106 1.112834 1.292710 0.027236 -0.004209 -143592.000000 0 1 0
9.522521 19.469402 7.356589 22.887888 1.115905 1.243569 0.040425 -0.008982 -474224.000000 0 1 0
8.787521 18.725002 8.248989 22.268634 1.132014 1.191324 0.038434 -0.010004 -608242.000000 0 1 0
7.649421 19.489302 8.955289 22.771555 1.196778 1.166615 0.029699 -0.013965 -3922.290000 0 1 0
6.570221 19.709902 8.076589 22.290790 1.249034 1.200031 0.031267 -0.020109 -461095.000000 0 1 0
6.517521 20.968302 7.447889 23.186608 1.269436 1.243784 0.028459 -0.012840 -1110620.000000 0 1 0
5.358821 21.152302 6.476989 22.761551 1.322672 1.282251 0.024428 -0.009155 70139.300000 0 1 0
4.037621 21.335702 6.968589 22.805170 1.383766 1.260259 0.027143 -0.016884 398983.000000 0 1 0
3.710521 22.406702 7.833089 24.024686 1.406687 1.238681 0.018021 -0.013853 -812054.000000 0 1 0
3.784221 23.858602 7.370789 25.256321 1.413496 1.274647 0.019446 -0.006405 189314.000000 0 0 1
2.693921 24.103602 6.480289 25.104481 1.459494 1.309707 0.019766 -0.008512 517715.000000 0 0 1
2.955021 25.131902 5.586089 25.914263 1.453753 1.353531 0.026826 -0.003436 -730180.000000 0 0 1
1.831621 25.280802 4.576989 25.756991 1.498472 1.392149 0.029010 -0.009050 -516899.000000 0 0 1
0.746821 25.943102 5.200889 26.469823 1.542017 1.373026 0.041948 -0.017120 441625.000000 0 0 1
-0.352479 26.132002 4.289989 26.484142 -1.557309 1.408096 0.051290 -0.014530 -5523.460000 0 0 1
-1.614279 26.702602 4.896889 27.195852 -1.510416 1.389749 0.045006 -0.017219 335637.000000 0 0 1
-2.615379 27.022202 3.886589 27.425265 -1.474311 1.428602 0.073812 -0.025971 987375.000000 0 0 1
-3.815479 27.563302 4.458189 28.181003 -1.433244 1.411931 0.065017 -0.022293 305682.000000 0 0 1
-4.734379 27.988002 3.302989 28.577129 -1.403225 1.454956 0.069899 -0.027253 -89003.500000 0 0 1
-4.152479 29.126302 2.681589 29.542773 -1.429183 1.479902 0.068183 -0.023442 335519.000000 0 0 1
-4.942279 29.506402 1.577489 29.959011 -1.404838 1.518117 0.081340 -0.030154 92514.000000 0 0 1
-4.165179 30.363802 0.482289 30.651946 -1.434471 1.555061 0.075247 -0.018339 28740.100000 0 0 1
-4.011979 31.747602 0.887489 32.012401 -1.445092 1.543069 0.069726 -0.009903 604742.000000 0 0 1
-2.833679 31.918602 1.687689 32.088552 -1.482250 1.518177 0.069480 -0.009992 129524.000000 0 0 1
-2.238179 33.384902 1.612589 33.498680 -1.503855 1.522639 0.057335 -0.010294 -989761.000000 0 0 1
-1.490279 33.558902 0.468789 33.595246 -1.526418 1.556842 0.038021 0.000248 86967.600000 0 0 1
-0.484379 -33.983534 0.629389 33.992813 1.556544 1.552280 0.025309 0.001998 1312250.000000 0 0 1
0.765921 -34.161134 1.619089 34.208057 -1.548379 1.523448 0.015122 0.001412 234847.000000 0 0 1
0.510421 -34.143234 3.048089 34.282821 -1.555848 1.481769 0.019752 -0.001505 -305141.000000 0 0 1
1.677121 34.137002 3.769689 34.385435 1.521707 1.460945 0.014319 -0.005685 -220550.000000 0 0 1
1.428121 -34.228634 5.303789 34.666541 -1.529098 1.417199 0.014407 -0.006384 682223.000000 0 0 1
0.364921 33.463802 5.814689 33.967187 1.559892 1.398764 0.031426 -0.014301 574398.000000 0 0 1
-0.232879 33.885702 7.005889 34.603143 -1.563924 1.366923 0.035583 -0.021158 383928.000000 0 0 1
0.672021 33.689402 8.303989 34.704231 1.550851 1.329173 0.026141 -0.014045 348515.000000 0 0 1
1.069921 32.345502 8.442989 33.446379 1.537730 1.315602 0.022543 -0.023327 -79798.300000 0 0 1
2.366221 32.259902 8.990789 33.572824 1.497579 1.299688 0.025501 -0.016554 -272668.000000 0 0 1
2.944121 30.872002 9.029289 32.299789 1.475718 1.287475 0.015891 -0.020336 -306619.000000 0 0 1
2.402221 30.098102 10.090289 31.835206 1.491152 1.248280 0.037401 -0.026306 172464.000000 0 0 1
2.700121 28.701502 10.012589 30.517516 1.476996 1.236512 0.027829 -0.024770 -386492.000000 0 0 1
2.177821 27.939302 11.209089 30.182630 1.493005 1.190306 0.031230 -0.022932 -580906.000000 0 0 1
2.689721 28.285302 12.486389 31.035509 1.475989 1.156740 0.037629 -0.020373 -175525.000000 0 0 1
2.599221 27.296802 13.482889 30.555844 1.475862 1.113801 0.037437 -0.015945 224096.000000 0 0 1
1.137921 26.796302 13.823789 30.173395 1.528356 1.094889 0.030873 -0.012692 1136800.000000 0 0 1
0.383521 27.742602 14.629189 31.365781 1.556973 1.085573 0.031305 -0.018722 363927.000000 0 0 1
-0.217579 28.731702 13.839389 31.891797 -1.563224 1.121926 0.038825 -0.024571 -803610.000000 0 0 1
-0.910179 29.920302 14.540789 33.278934 -1.540386 1.118606 0.029249 -0.018720 -527044.000000 0 0 1
-2.081379 29.583902 15.197189 33.324074 -1.500557 1.097253 0.025221 -0.007959 -648181.000000 0 0 1
-2.781879 30.776602 15.446389 34.547489 -1.480652 1.107269 0.018119 -0.003474 -407400.000000 0 0 1
-4.190779 30.689502 16.049189 34.885306 -1.435082 1.092738 0.008271 0.010769 -390168.000000 0 0 1
-5.100379 30.093302 15.169589 34.084265 -1.402906 1.109554 0.023544 -0.001984 568768.000000 0 0 1
-6.250179 29.628102 15.903189 34.202347 -1.362890 1.087192 0.026237 -0.000923 1096150.000000 0 0 1
-7.545879 29.288002 15.076189 33.793769 -1.318636 1.108367 0.022159 -0.007586 785100.000000 0 0 1
-8.717779 29.055502 15.815789 34.210540 -1.279304 1.090201 0.025262 -0.005341 515589.000000 0 0 1
-9.792979 28.484302 15.039289 33.666572 -1.239653 1.107709 0.030611 0.000479 338938.000000 0 0 1
-10.894479 27.925602 15.928089 33.944556 -1.198832 1.082368 0.034216 0.001154 -623564.000000 0 0 1
-11.765279 28.878902 16.535889 35.296577 -1.183927 1.083222 0.032488 -0.006469 456106.000000 0 0 1
-11.245879 29.623702 17.626689 36.259256 -1.207978 1.063141 0.038500 -0.017720 -524568.000000 0 0 1
-12.265379 30.693802 18.042389 37.657360 -1.190631 1.071145 0.052282 -0.014071 -376817.000000 0 0 1
-13.250779 30.232702 18.918489 38.046138 -1.157721 1.050369 0.059503 -0.013138 -559669.000000 0 0 1
-14.141879 31.286702 19.052389 39.266321 -1.146273 1.064194 0.070004 -0.014145 -109535.000000 0 0 1
-15.119079 31.183302 20.279589 40.152790 -1.119346 1.041344 0.070934 -0.010254 508761.000000 0 0 1
-14.472979 31.246302 21.530489 40.612319 -1.137028 1.012023 0.070229 -0.010513 -283337.000000 0 0 1
-15.340279 30.721202 22.478789 41.041593 -1.107678 0.991175 0.072764 -0.004216 -253909.000000 0 0 1
-14.772079 30.609102 23.914789 41.557773 -1.121162 0.957631 0.068301 0.000352 794145.000000 0 0 1
-13.518779 29.852102 23.899089 40.559485 -1.145568 0.940684 0.055599 -0.004435 1299000.000000 0 0 1
-12.956079 29.547102 25.130789 40.895571 -1.157556 0.909030 0.051765 0.001000 55004.600000 0 0 1
-12.423179 30.667402 26.100389 42.143270 -1.185906 0.902913 0.047994 -0.000944 -388301.000000 0 0 1
-13.483679 31.366802 26.721489 43.355782 -1.164807 0.906722 0.052621 -0.000351 77533.800000 0 0 1
-13.160479 32.595802 27.282289 44.497278 -1.187063 0.910789 0.055187 -0.002818 -506274.000000 0 0 1
-14.368579 33.443302 27.717689 45.751292 -1.165002 0.919983 0.072101 -0.008450 10196.400000 0 0 1
-15.211079 33.006102 28.771889 46.353007 -1.138951 0.901145 0.046414 -0.011896 109653.000000 0 0 1
-14.643079 33.159602 30.049189 47.084315 -1.154955 0.878639 0.055167 -0.003114 -395657.000000 0 0 1
-15.272179 32.397202 31.245789 47.530174 -1.130286 0.853448 0.034061 -0.004733 57873.000000 0 0 1
-16.399979 33.088302 31.770689 48.715210 -1.110641 0.860350 0.043076 -0.006594 -63993.200000 0 0 1
-17.019579 32.384802 32.835789 49.159236 -1.086924 0.839349 0.030184 -0.005818 559355.000000 0 0 1
-18.495479 32.871502 33.003289 50.118214 -1.058285 0.851961 0.028445 -0.006299 536533.000000 0 0 1
-18.631079 34.070802 33.748189 51.447807 -1.070387 0.855330 0.039585 -0.016045 -471374.000000 0 0 1
-19.975079 -34.079334 33.800989 51.989534 1.040634 0.863015 0.031876 -0.019630 -337245.000000 0 0 1
-20.127079 -32.530934 33.908689 51.119078 1.016736 0.845540 0.038740 -0.011072 -212738.000000 0 0 1
-19.647079 -31.805434 -33.554149 50.234194 1.017444 2.302253 0.047402 -0.002659 -296881.000000 0 0 1
-20.342579 -32.115534 -32.341049 49.911637 1.006166 2.275707 0.050389 -0.004763 162867.000000 0 0 1
-20.079379 -31.198534 -31.165649 48.454387 0.998933 2.269461 0.068236 -0.004997 -150097.000000 0 0 1
-20.554179 -29.954934 -31.435549 48.041296 0.969413 2.284112 0.064391 -0.002756 -108424.000000 0 0 1
-20.030179 -29.013134 -30.491749 46.612410 0.966554 2.283861 0.060505 -0.001472 114734.000000 0 0 1
-20.409879 -27.558834 -30.800949 46.095021 0.933343 2.302591 0.053405 -0.009960 87945.800000 0 0 1
-21.790579 -27.343834 -30.616549 46.474592 0.897942 2.289993 0.058478 -0.006525 -213784.000000 0 0 1
-22.102779 -25.970834 -30.558949 45.791554 0.865686 2.301440 0.060419 -0.005811 729080.000000 0 0 1
-23.388279 -25.782134 -29.661549 45.733330 0.834045 2.276509 0.055194 -0.011301 389609.000000 0 0 1
-23.383279 -26.017634 -28.281449 44.983723 0.838674 2.250682 0.055310 -0.007644 531895.000000 0 0 1
-22.336579 -25.365734 -27.518849 43.584748 0.848814 2.254137 0.063737 -0.017467 498120.000000 0 0 1
-22.314279 -25.917834 -26.076949 43.007772 0.859972 2.222235 0.061192 -0.008853 -284022.000000 0 0 1
-23.398179 -25.478934 -25.319249 42.868581 0.827944 2.202629 0.053115 -0.010733 -33687.800000 0 0 1
-23.242779 -26.093734 -24.022249 42.404931 0.843120 2.173045 0.055540 -0.006966 -483129.000000 0 0 1
-24.507679 -25.853034 -23.132749 42.475049 0.812106 2.146732 0.046538 -0.006333 1137690.000000 0 0 1
-25.668779 -26.612234 -23.512349 43.816980 0.803442 2.137203 0.032040 0.002535 506338.000000 0 0 1
-25.464479 -28.023034 -23.422849 44.523701 0.833196 2.124776 0.045854 0.000245 -659122.000000 0 0 1
-26.815479 -28.829134 -23.596849 45.902071 0.821570 2.110719 0.005186 0.009808 798785.000000 0 0 1
-27.657079 -28.721234 -22.494749 45.780313 0.804271 2.084450 -0.003512 0.015334 111654.000000 0 0 1
-28.644179 -27.687734 -22.661949 45.832996 0.768421 2.087994 -0.004034 0.013960 122359.000000 0 0 1
-29.205379 -27.054734 -21.369049 45.183504 0.747190 2.063420 -0.003004 0.013353 -47566.400000 0 0 1
-29.882379 -27.990734 -20.574549 45.823027 0.752724 2.036442 -0.007254 0.016693 277381.000000 0 0 1
-30.231879 -27.493234 -19.259049 45.174721 0.737991 2.011221 -0.012683 0.017314 -805353.000000 0 0 1
-30.900679 -28.484834 -18.314249 45.843750 0.744740 1.981760 -0.018114 0.020197 -182678.000000 0 0 1
-32.186279 -28.966134 -18.653649 47.148193 0.732789 1.977560 -0.007560 0.017682 776788.000000 0 0 1
-33.316279 -28.089534 -18.647049 47.399460 0.700485 1.975126 -0.005837 0.022852 119556.000000 0 0 1
-33.816779 -27.584634 -17.259949 46.929654 0.684246 1.947421 0.009367 0.024567 -243547.000000 0 0 1
-32.994579 -26.579634 -16.588749 45.500613 0.678132 1.943981 0.002277 0.023491 587567.000000 0 0 1
-33.544679 -26.045234 -15.377749 45.167188 0.660205 1.918205 0.010859 0.018595 51077.400000 0 0 1
-33.432379 -26.918734 -14.110249 45.182312 0.677885 1.888405 0.018148 0.021864 82499.500000 0 0 1
-34.355279 -27.979134 -14.152349 46.512429 0.683463 1.879969 0.029708 0.013359 325593.000000 0 0 1
-34.169979 -28.642434 -12.900849 46.415605 0.697623 1.852447 0.015784 0.001525 251548.000000 0 0 1
-34.821979 -30.049334 -12.940749 47.780704 0.711960 1.845058 0.035593 0.003497 54261.800000 0 0 1
-34.036679 -30.970334 -13.645749 47.998579 0.738264 1.859067 0.029834 -0.000525 36530.300000 0 0 1
-34.467979 -32.308734 -13.437849 49.116918 0.753074 1.847919 0.026017 -0.008133 -359618.000000 0 0 1
-33.930779 -33.406534 -14.421149 49.752023 0.777613 1.864877 0.029265 0.012592 -768076.000000 0 0 1
-32.611679 -33.639334 -14.035849 48.909421 0.800908 1.861865 0.012316 0.000657 -740324.000000 0 0 1
-32.069679 34.040002 -15.044749 49.127696 -0.815193 1.882035 0.032131 -0.017550 -988098.000000 0 0 1
-30.569479 33.902502 -15.075249 48.074274 -0.837049 1.889760 0.029422 -0.016490 -788905.000000 0 0 1
-30.250179 33.071002 -16.231149 47.667753 -0.829917 1.918251 0.045978 -0.013622 -317297.000000 0 0 1
-28.877679 32.735802 -16.217449 46.567786 -0.847935 1.926505 0.027348 -0.012617 -81624.300000 0 0 1
9.616133 19.727702 -9.176611 23.787863 1.117245 1.966837 0.032847 -0.019386 37411.400000 0 1 0
8.219233 19.849102 -9.420011 23.458031 1.178206 1.984025 0.026513 -0.017895 211807.000000 0 1 0
7.875133 20.191502 -10.760511 24.197170 1.198921 2.031637 0.030589 -0.012078 295749.000000 0 1 0
7.873733 18.870102 -11.627311 23.521708 1.175500 2.087852 0.033212 -0.005459 543108.000000 0 1 0
9.215833 18.411602 -11.820711 23.741269 1.106713 2.091969 0.046390 -0.016358 527566.000000 0 1 0
9.059233 17.289602 -12.609111 23.237679 1.088157 2.144343 0.048851 -0.021850 588498.000000 0 1 0
10.386933 16.682802 -13.150111 23.645923 1.013915 2.160513 0.070464 -0.025873 631729.000000 0 1 0
10.060833 15.495902 -13.816311 23.070192 0.994943 2.212900 0.071350 -0.038359 272828.000000 0 1 0
11.149033 15.151602 -14.662311 23.850688 0.936425 2.232871 0.079473 -0.035032 -119559.000000 0 1 0
10.938633 13.777602 -15.433611 23.402400 0.899759 2.290934 0.070404 -0.036253 -410422.000000 0 1 0
10.959233 12.564802 -14.664111 22.203945 0.853545 2.292185 0.074277 -0.042035 -197735.000000 0 1 0
12.201333 12.218502 -14.124411 22.308368 0.786101 2.256405 0.093975 -0.037874 -516380.000000 0 1 0
13.193933 11.542602 -15.098811 23.136240 0.718740 2.281813 0.097233 -0.038772 -218219.000000 0 1 0
13.846133 12.411002 -16.038811 24.555892 0.730796 2.282540 0.080175 -0.023158 669734.000000 0 1 0
14.811733 11.671102 -16.796811 25.253414 0.667358 2.298465 0.079192 -0.027585 238456.000000 0 0 1
15.424733 12.581302 -17.869711 26.749544 0.684216 2.302365 0.049791 -0.022656 -219827.000000 0 0 1
16.346733 13.529502 -17.394611 27.437850 0.691379 2.257465 0.026746 -0.007970 -209027.000000 0 0 1
17.007033 14.081502 -18.511511 28.813259 0.691571 2.268507 0.018095 -0.003683 -275505.000000 0 0 1
18.214333 14.955102 -18.058511 29.690517 0.687453 2.224619 0.009515 0.012247 -456209.000000 0 0 1
18.043633 16.269902 -17.555111 29.974394 0.733752 2.196503 0.007913 0.004499 -432852.000000 0 0 1
17.335733 17.171502 -18.322911 30.514213 0.780639 2.214887 0.015118 0.008645 -448020.000000 0 0 1
17.149133 18.533902 -17.591011 30.774047 0.824186 2.179273 0.023712 0.016412 257950.000000 0 0 1
18.196533 19.505802 -17.720311 32.024983 0.820111 2.157150 0.022373 0.006390 617333.000000 0 0 1
17.747233 20.828902 -17.368611 32.411049 0.865114 2.136353 0.009424 0.008942 29860.200000 0 0 1
18.799633 21.879402 -17.847911 33.921709 0.860963 2.124863 0.027044 -0.001896 669314.000000 0 0 1
20.011033 21.798802 -17.100711 34.176944 0.828132 2.094809 0.030362 -0.006651 -23392.000000 0 0 1
20.077233 22.927502 -16.275611 34.549401 0.851579 2.061314 0.036550 -0.008676 -327429.000000 0 0 1
21.326833 23.223902 -15.442711 35.109268 0.827955 2.026225 0.054258 -0.013817 -968821.000000 0 0 1
21.486933 22.345902 -14.290711 34.135788 0.804992 2.002747 0.046654 -0.009993 -738233.000000 0 0 1
22.377033 22.659602 -13.301411 34.512558 0.791672 1.966446 0.056555 -0.010469 -14847.000000 0 0 1
23.885333 22.545002 -13.691611 35.584357 0.756539 1.965749 0.050190 -0.010711 174473.000000 0 0 1
24.287633 23.438502 -14.746811 36.833693 0.767608 1.982708 0.051656 -0.013687 -523375.000000 0 0 1
25.669333 23.649102 -14.732611 37.884621 0.744458 1.970213 0.063317 -0.016202 -325998.000000 0 0 1
26.343633 24.091302 -16.051911 39.141304 0.740770 1.993362 0.061931 -0.001513 -202423.000000 0 0 1
26.697333 23.049402 -16.961111 39.136962 0.712199 2.019034 0.066141 -0.014949 324382.000000 0 0 1
26.807733 23.625502 -18.261711 40.128655 0.722384 2.043257 0.050617 0.005642 -1109320.000000 0 0 1
27.305233 22.523502 -19.298511 40.315213 0.689728 2.069959 0.050614 -0.005881 -570315.000000 0 0 1
28.641133 22.655702 -19.670211 41.479061 0.669241 2.064874 0.045906 -0.005909 -728328.000000 0 0 1
29.011633 21.768002 -20.669111 41.746052 0.643706 2.088764 0.066740 -0.009515 -428449.000000 0 0 1
30.502633 21.793902 -20.975311 42.957519 0.620386 2.080914 0.084612 -0.013337 -544810.000000 0 0 1
30.820433 22.956802 -21.713811 44.140723 0.640201 2.085093 0.058767 -0.004667 -638136.000000 0 0 1
32.216033 23.041502 -21.718911 45.171835 0.620867 2.072371 0.099401 -0.012490 -458742.000000 0 0 1
32.665933 24.423602 -22.168011 46.421937 0.642013 2.068641 0.097992 -0.012184 -203765.000000 0 0 1
32.742533 24.584702 -23.556511 47.237593 0.644044 2.092873 0.080366 -0.009077 915235.000000 0 0 1
31.487133 24.924402 -24.204911 46.888624 0.669582 2.113229 0.059751 -0.008026 563243.000000 0 0 1
31.508433 25.290902 -25.722791 47.896482 0.676367 2.137732 0.061393 -0.017204 -529362.000000 0 0 1
31.738433 26.706302 -25.981181 48.944626 0.699509 2.130374 0.063244 -0.019721 -210761.000000 0 0 1
30.640733 27.456902 -26.482491 48.929115 0.730652 2.142710 0.054077 -0.014574 -57220.400000 0 0 1
30.201833 27.073302 -27.861631 49.207569 0.730830 2.172692 0.056142 -0.007270 -288068.000000 0 0 1
29.506133 25.853402 -27.843711 48.106990 0.719512 2.188037 0.054086 -0.015508 -253262.000000 0 0 1
29.432133 25.333502 -29.161711 48.563795 0.710698 2.214901 0.056092 -0.025163 -540068.000000 0 0 1
28.707933 24.014702 -29.259541 47.507600 0.696615 2.234314 0.050709 -0.029261 459527.000000 0 0 1
27.304433 24.182102 -29.000911 46.597843 0.724829 2.242558 0.052271 -0.025001 555745.000000 0 0 1
26.647133 22.977902 -29.346241 45.817633 0.711593 2.265947 0.061538 -0.032529 252797.000000 0 0 1
25.185333 22.878302 -28.831681 44.598021 0.737435 2.273757 0.051388 -0.017526 144080.000000 0 0 1
25.137533 22.596402 -27.433261 43.532479 0.732213 2.252580 0.038025 -0.002861 -1244630.000000 0 0 1
23.899733 22.644402 -26.897821 42.514220 0.758434 2.255803 0.038262 -0.008067 -1628220.000000 0 0 1
24.023733 22.753702 -25.355291 41.686466 0.758254 2.224635 0.032919 -0.004524 -164855.000000 0 0 1
24.545433 21.653002 -24.666611 40.985027 0.722871 2.216605 0.023609 -0.008059 254818.000000 0 0 1
24.799433 21.891102 -23.301311 40.462122 0.723189 2.184476 0.030775 -0.003633 -71658.500000 0 0 1
25.222833 20.610302 -22.567611 39.626669 0.685098 2.176701 0.049905 -0.000394 238658.000000 0 0 1
26.453033 20.009602 -22.929411 40.322512 0.647597 2.175661 0.039241 -0.001410 134956.000000 0 0 1
26.358933 18.592702 -22.789911 39.495088 0.614318 2.185886 0.081153 -0.003042 152707.000000 0 0 1
27.650633 17.883102 -23.230911 40.299355 0.574089 2.185184 0.095978 -0.010693 466527.000000 0 0 1
28.816833 17.916302 -22.435611 40.678746 0.556245 2.154995 0.123381 -0.024023 975840.000000 0 0 1
30.007133 17.554102 -23.180511 41.784095 0.529315 2.158881 0.117080 -0.019981 872979.000000 0 0 1
31.328833 17.599402 -22.423211 42.356052 0.511830 2.128687 0.124028 -0.023617 -183085.000000 0 0 1
31.969833 18.864902 -22.308311 43.308376 0.533097 2.111925 0.106091 -0.021364 -149391.000000 0 0 1
33.315333 18.623702 -21.970411 44.039217 0.509737 2.093106 0.106441 -0.021462 210549.000000 0 0 1
33.985533 19.623202 -20.976311 44.498226 0.523635 2.061670 0.098459 -0.031026 119029.000000 0 0 1
33.329033 19.696002 -19.734411 43.453468 0.533743 2.042215 0.115510 -0.027173 76733.600000 0 0 1
33.986633 20.589002 -18.812311 43.964773 0.544671 2.012959 0.098358 -0.017599 251937.000000 0 0 1
33.361233 20.693002 -17.378511 42.932328 0.555191 1.987544 0.095741 -0.023967 70963.000000 0 0 1
33.545333 19.527202 -16.639511 42.231200 0.527164 1.975787 0.095268 -0.032329 73791.100000 0 0 1
33.121533 19.638802 -15.311611 41.438676 0.535206 1.949268 0.089801 -0.028199 -251972.000000 0 0 1
33.470733 18.464302 -14.348911 40.830278 0.504113 1.929892 0.081494 -0.022324 -654561.000000 0 0 1
34.866433 18.327502 -14.292311 41.902692 0.483956 1.918865 0.060254 -0.023002 -420893.000000 0 0 1
35.342133 17.423302 -13.359011 41.606502 0.458024 1.897666 0.046765 -0.009549 -5415.340000 0 0 1
35.229633 17.819602 -11.876111 41.227506 0.468287 1.863000 0.057538 -0.019995 -927933.000000 0 0 1
36.059533 18.911602 -11.648011 42.351089 0.483020 1.849422 0.041110 -0.025841 -160303.000000 0 0 1
35.842733 19.605802 -10.433211 42.165636 0.500533 1.820827 0.040080 -0.021394 243125.000000 0 0 1
34.454233 20.278802 -10.220911 41.264888 0.531974 1.821092 0.040171 -0.027708 182689.000000 0 0 1
33.337833 19.434802 -10.210111 39.917026 0.527800 1.829454 0.067637 -0.036855 -1191900.000000 0 0 1
32.212433 20.211902 -9.992911 39.319462 0.560364 1.827762 0.059088 -0.028889 -713430.000000 0 0 1
30.841333 19.602202 -10.313411 37.971049 0.566173 1.845864 0.062326 -0.022811 -30364.400000 0 0 1
30.619033 19.565002 -11.731611 38.183048 0.568590 1.883095 0.075625 -0.031384 -601593.000000 0 0 1
29.448533 18.852402 -11.948511 36.951266 0.569442 1.900073 0.077852 -0.030891 -600306.000000 0 0 1
29.248233 18.393102 -13.416011 37.064197 0.561372 1.941173 0.109791 -0.028411 -127330.000000 0 0 1
30.181833 17.412202 -13.865111 37.501588 0.523269 1.949505 0.104871 -0.020407 -93950.000000 0 0 1
29.930733 16.774802 -15.083211 37.479941 0.510834 1.984971 0.088397 -0.005173 510028.000000 0 0 1
31.153833 15.969602 -15.695211 38.365729 0.473680 1.992258 0.107521 -0.017729 789906.000000 0 0 1
31.607433 14.838602 -14.913511 37.968760 0.438923 1.974453 0.085751 -0.013685 984728.000000 0 0 1
32.859833 14.296602 -15.393711 39.001638 0.410376 1.976531 0.094815 -0.015602 1239050.000000 0 0 1
33.571433 13.409802 -14.298811 38.875698 0.380024 1.947448 0.060192 -0.029880 97149.000000 0 0 1
34.325333 14.003402 -13.253011 39.369608 0.387351 1.914133 0.061414 -0.014763 -18009.900000 0 0 1
34.996333 13.061002 -12.499311 39.389921 0.357201 1.893701 0.052793 -0.009025 -417592.000000 0 0 1
36.022433 13.674502 -11.549911 40.224472 0.362807 1.862032 0.066246 -0.011738 -483402.000000 0 0 1
-35.350656 14.007102 -12.154711 39.919980 -0.377255 1.880186 0.035507 -0.015312 -747875.000000 0 0 1
-34.444456 14.531902 -11.231211 39.035072 -0.399237 1.862643 0.022240 -0.011928 -226541.000000 0 0 1
-33.016456 14.808602 -11.780411 38.054686 -0.421624 1.885532 0.042413 -0.021036 591708.000000 0 0 1
-32.254156 13.725502 -12.355911 37.167035 -0.402330 1.909689 0.046498 -0.014992 325757.000000 0 0 1
-31.870556 12.731202 -11.417511 36.168707 -0.380046 1.891963 0.060251 -0.008544 -654342.000000 0 0 1
-30.694356 11.793102 -11.751111 34.918610 -0.366821 1.914024 0.084483 -0.013684 -118485.000000 0 0 1
-30.949356 10.965802 -12.854511 35.261167 -0.340513 1.943947 0.073317 -0.002984 16205.700000 0 0 1
-30.232756 9.743202 -12.932411 34.295725 -0.311763 1.957443 0.092458 -0.010698 -348077.000000 0 0 1
-30.223056 9.034102 -14.345611 34.653206 -0.290460 1.997614 0.104621 -0.017780 -551983.000000 0 0 1
-31.426856 8.548102 -14.845911 35.792714 -0.265575 1.998491 0.084596 -0.008802 -374025.000000 0 0 1
-31.219556 7.604602 -15.853511 35.830496 -0.238932 2.029135 0.101486 -0.024449 655951.000000 0 0 1
-32.542256 7.054602 -16.507111 37.165179 -0.213480 2.031028 0.094101 -0.028385 981750.000000 0 0 1
-33.501656 6.425202 -15.666611 37.537806 -0.189487 2.001330 0.101330 -0.025062 474971.000000 0 0 1
-34.412956 5.607402 -16.403911 38.532879 -0.161525 2.010545 0.064626 -0.028202 633012.000000 0 0 1
-35.517756 5.010602 -15.454311 39.057046 -0.140148 1.977611 0.055237 -0.019773 -331358.000000 0 0 1
-36.260256 3.978002 -15.888411 39.787841 -0.109270 1.981580 0.061051 -0.020430 -626075.000000 0 0 1
35.360833 3.676502 -14.888711 38.543208 0.103599 1.967398 0.063749 -0.016725 620402.000000 0 0 1
34.282233 2.630302 -15.377211 37.664952 0.076575 1.991347 0.064518 -0.014349 8062.190000 0 0 1
34.782933 1.329502 -15.524311 38.113308 0.038204 1.990314 0.072085 -0.016289 344321.000000 0 0 1
33.869533 0.216502 -15.310111 37.169768 0.006392 1.995331 0.062578 -0.011651 653337.000000 0 0 1
33.184633 0.077602 -13.908511 35.981559 0.002338 1.967679 0.068994 -0.021380 -132585.000000 0 0 1
34.101633 -0.275298 -12.911911 36.465252 -0.008073 1.932735 0.083973 -0.020341 208893.000000 0 0 1
33.552733 -0.152398 -11.597511 35.500864 -0.004542 1.903588 0.091591 -0.010649 -60685.100000 0 0 1
33.675333 1.309502 -11.084111 35.476758 0.038866 1.888550 0.097287 -0.019855 176049.000000 0 0 1
32.878533 2.305402 -11.748811 34.990675 0.070004 1.913219 0.088127 -0.019273 605518.000000 0 0 1
33.334833 3.561702 -11.285411 35.373116 0.106442 1.895512 0.084576 -0.019360 -579315.000000 0 0 1
32.498333 4.708002 -11.699711 34.859578 0.143868 1.913064 0.076492 -0.016437 -592691.000000 0 0 1
32.570033 5.037502 -13.041111 35.443674 0.153451 1.947588 0.072288 -0.016740 525170.000000 0 0 1
31.375333 5.657902 -13.492911 34.619099 0.178412 1.971160 0.074695 -0.016255 95407.400000 0 0 1
31.543433 6.531202 -14.780011 35.441409 0.204169 2.000968 0.048928 -0.015858 -511882.000000 0 0 1
31.696633 5.662802 -15.864211 35.894527 0.176791 2.028587 0.045467 -0.003990 140822.000000 0 0 1
31.919733 6.329402 -17.083011 36.752686 0.195752 2.054216 0.037501 -0.001790 -248856.000000 0 0 1
30.771033 7.266502 -17.643811 36.207217 0.231899 2.079793 0.048784 -0.007102 358757.000000 0 0 1
29.618233 6.590302 -18.054411 35.307698 0.218942 2.107545 0.036020 -0.003562 78800.500000 0 0 1
28.699233 6.121702 -17.083611 33.955426 0.210156 2.098000 0.031469 0.002203 -827075.000000 0 0 1
27.288033 5.904302 -17.649211 33.030171 0.213085 2.134518 0.034822 0.001213 -359903.000000 0 0 1
27.190233 4.818402 -18.547811 33.264802 0.175390 2.162265 0.038895 -0.003855 331754.000000 0 0 1
26.262933 5.031902 -19.616411 33.164217 0.189303 2.203706 0.032031 -0.009524 164334.000000 0 0 1
25.910633 3.760902 -20.386911 33.183300 0.144142 2.232387 0.028714 0.008034 -376897.000000 0 0 1
25.041033 2.955002 -19.668411 31.978614 0.117463 2.233244 0.036939 -0.006606 -265340.000000 0 0 1
24.751633 1.804402 -20.407111 32.130194 0.072772 2.258984 0.043813 -0.009138 -456695.000000 0 0 1
23.753033 0.935002 -19.655611 30.845159 0.039343 2.261701 0.050335 -0.015333 -495407.000000 0 0 1
22.465133 1.490202 -19.691311 29.910711 0.066237 2.289403 0.050524 -0.020326 -445982.000000 0 0 1
21.530233 0.614002 -19.127411 28.806002 0.028510 2.296962 0.056435 -0.019920 -416128.000000 0 0 1
20.193833 1.299902 -18.834611 27.644587 0.064283 2.320351 0.051274 -0.025641 -731732.000000 0 0 1
19.367033 1.614502 -19.977211 27.870729 0.083171 2.369971 0.056543 -0.023391 1223780.000000 0 0 1
18.308933 2.575002 -19.734511 27.042533 0.139725 2.388765 0.035541 -0.015565 1376770.000000 0 0 1
17.178733 2.185702 -18.709611 25.493837 0.126553 2.394824 0.048763 -0.022277 -489191.000000 0 0 1
17.505033 2.362902 -17.311111 24.732247 0.134173 2.346111 0.058687 -0.023006 454182.000000 0 1 0
16.369133 2.111502 -16.467611 23.314999 0.128285 2.355068 0.039176 -0.011322 734756.000000 0 1 0
15.436133 3.345602 -16.285711 22.686816 0.213437 2.371504 0.050354 -0.016339 383128.000000 0 1 0
14.633633 3.589702 -17.449211 23.054373 0.240555 2.429310 0.039477 -0.009061 590694.000000 0 1 0
13.610633 4.570102 -17.366211 22.532653 0.323946 2.450756 0.045210 -0.014404 303562.000000 0 1 0
-19.975667 -21.769998 -17.726911 34.455819 0.828354 2.111200 0.041704 -0.003015 -63336.300000 0 0 1
-19.706267 -22.536598 -18.887011 35.397096 0.852300 2.133618 0.052804 -0.007388 -113183.000000 0 0 1
-20.610667 -22.353798 -19.939711 36.360473 0.825947 2.151234 0.045899 -0.000976 -400691.000000 0 0 1
-20.358167 -23.252498 -21.201811 37.478667 0.851668 2.172082 0.040443 -0.000542 -161206.000000 0 0 1
-20.673067 -24.643098 -21.053511 38.443573 0.872782 2.150346 0.046898 -0.006307 150103.000000 0 0 1
-19.944267 -25.421088 -21.953411 39.063510 0.905544 2.167589 0.047188 -0.014760 -182705.000000 0 0 1
-19.883967 -26.902798 -21.613311 39.827979 0.934305 2.144405 0.049572 -0.002905 246652.000000 0 0 1
-21.118767 -27.589528 -21.769611 41.001224 0.917472 2.130518 0.053880 0.012013 283677.000000 0 0 1
-20.940467 -28.951558 -21.501911 41.701656 0.944608 2.112519 0.092571 -0.020299 27274.300000 0 0 1
-22.187467 -29.830368 -21.781311 43.087818 0.931283 2.100769 0.078266 -0.014281 -259514.000000 0 0 1
-22.640567 -29.775028 -23.110511 43.968663 0.920680 2.124232 0.061818 -0.005960 78062.400000 0 0 1
-21.918567 -30.455778 -24.152911 44.624446 0.946981 2.142717 0.063870 -0.009813 -51555.600000 0 0 1
-22.262967 -29.832868 -25.536931 45.141717 0.929695 2.172085 0.058206 -0.000885 332115.000000 0 0 1
-23.636767 -29.992308 -25.864371 46.121589 0.903357 2.166132 0.048054 0.007991 604885.000000 0 0 1
-24.190767 -29.126478 -26.845081 46.413396 0.877708 2.187551 0.043501 0.010958 129431.000000 0 0 1
-23.618767 -29.379588 -28.288741 47.130237 0.893671 2.214579 0.051251 -0.002794 -197917.000000 0 0 1
-24.195467 -30.511898 -28.893901 48.489732 0.900348 2.209153 0.045060 0.005299 323347.000000 0 0 1
-23.799067 -30.596468 -30.277421 49.185991 0.909716 2.233905 0.060111 0.004264 -46253.700000 0 0 1
-24.346367 -31.840528 -31.013691 50.679521 0.917995 2.229329 0.037517 0.002475 65835.900000 0 0 1
-23.710867 -33.101108 -30.794221 51.050687 0.949203 2.218314 0.044080 -0.003872 565641.000000 0 0 1
-24.624267 -34.170102 -31.150601 52.386166 0.946353 2.207607 0.040422 -0.001909 528086.000000 0 0 1
-23.978167 32.960695 -31.076911 51.255579 -0.941866 2.222212 0.055701 -0.009947 363007.000000 0 0 1
-23.010767 32.605231 -32.052731 51.185682 -0.956229 2.247472 0.050023 -0.020920 2693.240000 0 0 1
-22.961267 31.220717 -32.061561 50.298078 -0.936673 2.261956 0.065530 -0.013027 202816.000000 0 0 1
-21.746767 30.523127 -32.775271 49.787565 -0.951751 2.289358 0.058847 -0.004845 380429.000000 0 0 1
-21.846567 30.541667 -34.188962 50.783374 -0.949873 2.309367 0.045549 -0.000402 -138135.000000 0 0 1
-21.015167 29.560257 33.827866 49.596074 -0.952775 0.820210 0.035049 0.002215 -486596.000000 0 0 1
-21.102667 29.513207 32.271317 48.557079 -0.950058 0.843830 0.023148 -0.001825 -219243.000000 0 0 1
-20.380867 30.526047 31.650527 48.466227 -0.982110 0.859201 0.021800 0.000282 174839.000000 0 0 1
-20.528067 30.401147 30.255737 47.550404 -0.976882 0.881120 0.027159 0.005863 -128636.000000 0 0 1
-19.929267 31.602347 29.530287 47.622704 -1.008161 0.901941 0.019285 -0.009864 -50665.500000 0 0 1
-20.808567 32.693678 29.711687 48.832954 -1.003991 0.916709 0.015874 -0.004630 203365.000000 0 0 1
-20.282467 33.907627 29.362027 49.226358 -1.031725 0.931701 0.014310 -0.019032 -306423.000000 0 0 1
-21.394167 -33.533608 29.280207 49.391738 1.002909 0.936245 0.019441 -0.024562 141412.000000 0 0 1
-21.704567 -33.183078 30.633497 50.106048 0.991554 0.913002 0.016498 -0.014086 -403215.000000 0 0 1
-22.755167 -32.274288 30.751067 50.050529 0.956685 0.909170 0.022185 -0.014807 -639820.000000 0 0 1
-22.447367 -30.794518 30.457597 48.783725 0.940910 0.896511 0.037800 -0.014514 -431519.000000 0 0 1
-22.140267 -30.585128 29.084007 47.660476 0.944216 0.914441 0.031822 -0.011966 39171.300000 0 0 1
-22.116667 -29.155508 28.740777 46.531956 0.921829 0.905037 0.046414 -0.020388 543442.000000 0 0 1
-23.480867 -28.550118 28.232557 46.513844 0.882519 0.918553 0.037061 -0.017388 1169750.000000 0 0 1
-24.590267 -28.492328 29.164097 47.613428 0.858775 0.911554 0.039344 -0.010022 1091140.000000 0 0 1
-25.527587 -29.561898 29.009937 48.653263 0.858500 0.931964 0.022671 -0.010260 68849.700000 0 0 1
-26.617287 -29.447358 27.869727 48.501016 0.835834 0.958655 0.008875 -0.005119 -339719.000000 0 0 1
-26.194097 -29.165728 26.547147 47.344709 0.839025 0.975541 0.008332 -0.006433 13985.800000 0 0 1
-27.112127 -29.609468 25.551407 47.588470 0.829398 1.004009 0.014038 -0.000040 182917.000000 0 0 1
-26.346527 -29.961958 24.242477 46.685717 0.849518 1.024800 0.010630 -0.001027 -317525.000000 0 0 1
-25.807757 -28.810928 23.601757 45.311730 0.840327 1.022920 -0.000602 -0.002320 451998.000000 0 0 1
-25.259447 -28.941658 22.274227 44.404960 0.853230 1.045331 0.014352 -0.002922 259822.000000 0 0 1
-24.070767 -29.904218 22.055127 44.272935 0.893057 1.049318 0.011952 -0.006831 -296026.000000 0 0 1
-24.522967 -31.231378 21.961527 45.377126 0.905143 1.065602 0.000371 -0.013014 1059310.000000 0 0 1
-23.370867 -32.071598 21.729327 45.243215 0.941061 1.069825 0.015473 0.004918 717837.000000 0 0 1
-22.674667 -32.664278 22.954727 45.913126 0.963992 1.047244 0.011031 -0.000156 -47524.000000 0 0 1
-21.892067 -31.720718 23.684227 45.237254 0.966711 1.019777 0.039254 -0.017529 470321.000000 0 0 1
-21.317167 -32.385388 24.830087 46.040941 0.988654 1.001185 0.049744 -0.027966 -463866.000000 0 0 1
-20.339567 -31.568468 25.660347 45.483179 0.998439 0.971366 0.059194 -0.021630 -780591.000000 0 0 1
-19.160667 -31.196458 24.988027 44.325519 1.020006 0.971891 0.069282 -0.030677 -64087.400000 0 0 1
-18.208467 -30.572288 25.803927 43.955156 1.033628 0.943385 0.083551 -0.032062 526770.000000 0 0 1
-17.213567 -31.534078 26.564427 44.680799 1.071128 0.934106 0.068451 -0.037666 131276.000000 0 0 1
-17.933467 -32.117428 27.662007 46.025266 1.061548 0.926022 0.060045 -0.029326 620985.000000 0 0 1
-17.089967 -32.790908 28.561357 46.723247 1.090349 0.913109 0.063552 -0.022720 -344061.000000 0 0 1
-17.491967 -32.258328 29.980517 47.385653 1.073925 0.885772 0.067952 -0.026294 63937.400000 0 0 1
-17.159767 -30.871908 30.281247 46.524040 1.063482 0.862062 0.060841 -0.020111 299789.000000 0 0 1
-17.753867 -30.401658 31.475347 47.224550 1.042242 0.841287 0.057301 -0.019646 -47498.700000 0 0 1
-17.463067 -28.865758 31.665187 46.269588 1.026727 0.817067 0.050910 -0.022075 406679.000000 0 0 1
-18.285967 -27.876328 30.983947 45.513418 0.990237 0.821990 0.071102 -0.020388 430547.000000 0 0 1
-18.385167 -27.944328 29.562157 44.641024 0.988873 0.847019 0.078594 -0.023322 -364423.000000 0 0 1
-17.086267 -27.653148 28.793947 43.424976 1.017335 0.845879 0.074445 -0.019750 -153779.000000 0 0 1
-16.747567 -26.256958 28.737367 42.376233 1.003022 0.825556 0.058097 -0.012408 456001.000000 0 0 1
-15.591367 -26.151888 27.903767 41.299300 1.033187 0.828954 0.045111 -0.011979 143001.000000 0 0 1
-15.422367 -24.800898 27.196897 39.907458 1.014467 0.820987 0.045877 -0.001622 317620.000000 0 0 1
-16.432167 -24.650698 26.177467 39.533945 0.982840 0.847110 0.067332 -0.017597 618841.000000 0 0 1
-16.101467 -23.539398 25.362847 38.165882 0.970875 0.843915 0.051227 -0.010389 169741.000000 0 0 1
-16.932467 -22.271998 25.724647 38.006681 0.920762 0.827328 0.055382 -0.008631 -239306.000000 0 0 1
-16.644867 -21.135098 24.942187 36.685919 0.903695 0.823191 0.043472 -0.000118 -156026.000000 0 0 1
-17.392967 -20.014598 25.257197 36.620014 0.855367 0.809708 0.047178 0.001279 -471079.000000 0 0 1
-17.071067 -18.866998 24.310747 35.190871 0.835330 0.808166 0.039003 -0.002267 869684.000000 0 0 1
-15.703967 -18.424098 24.383487 34.360099 0.864934 0.781802 0.033948 -0.003919 639689.000000 0 0 1
-15.443867 -17.382298 23.488267 33.050810 0.844381 0.780344 0.022376 -0.003962 73859.500000 0 0 1
-14.102067 -16.662198 23.736907 32.248068 0.868425 0.743547 0.046621 -0.006918 144546.000000 0 0 1
-12.884267 -17.420298 23.583687 32.025949 0.933977 0.743073 0.009996 0.004245 100557.000000 0 0 1
-11.763767 -16.615998 23.741817 31.275414 0.954736 0.708835 0.008177 -0.004197 -719012.000000 0 0 1
-11.368967 -15.846298 22.458227 29.744420 0.948453 0.715081 0.013269 -0.003717 -799742.000000 0 0 1
-10.748067 -16.604998 21.456627 29.182765 0.996336 0.744761 0.045852 0.005949 118822.000000 0 0 1
-9.359267 -16.838598 21.634727 28.968875 1.063494 0.727519 0.043488 0.009057 -234192.000000 0 0 1
-8.992967 -18.114898 20.803327 29.013814 1.110000 0.771286 0.043544 0.007369 -144208.000000 0 0 1
-8.874767 -18.015598 19.398927 27.922064 1.113074 0.802720 0.039712 0.002502 -85316.800000 0 0 1
-8.306167 -19.182098 18.854127 28.150016 1.162155 0.836893 0.041334 0.002067 131855.000000 0 0 1
-8.095167 -19.178198 17.311727 27.074544 1.171382 0.877066 0.039292 -0.011051 -58624.300000 0 0 1
-7.150167 -18.197098 16.872327 25.825079 1.196400 0.858820 0.048677 -0.007361 57193.200000 0 0 1
-7.109667 -17.972698 15.447427 24.742438 1.194105 0.896524 0.069825 -0.014505 344814.000000 0 1 0
-6.129267 -16.840998 14.998827 23.369894 1.221749 0.873952 0.047588 -0.012859 343879.000000 0 1 0
-6.475667 -15.547798 15.508427 22.894969 1.176147 0.826611 0.048075 -0.019168 -535608.000000 0 1 0
-5.402667 -14.669598 15.518927 22.027778 1.217921 0.789055 0.037865 -0.011221 -737747.000000 0 1 0
-5.468667 -13.613898 16.668527 22.205503 1.188828 0.721753 0.021300 0.001740 -16579.500000 0 1 0
-5.074067 -14.117198 17.966027 23.405546 1.225750 0.695713 0.026489 0.012028 1337010.000000 0 1 0
-6.184767 -14.773598 18.668527 24.597245 1.174328 0.709069 0.050773 -0.003180 1891910.000000 0 1 0
-7.382067 -13.967998 19.307827 24.947787 1.084611 0.685773 0.055256 -0.009125 694905.000000 0 1 0
-7.011267 -13.001498 20.275727 25.085891 1.076231 0.629618 0.050014 -0.012198 -438222.000000 0 0 1
-8.153767 -12.618198 20.984827 25.808251 0.997103 0.621329 0.050059 -0.004198 -35966.900000 0 0 1
-7.856467 -11.724798 22.223327 26.326246 0.980439 0.565817 0.054852 -0.000377 -641881.000000 0 0 1
-7.606667 -10.373098 21.909827 25.406753 0.938065 0.530879 0.053381 -0.000697 91793.900000 0 0 1
-7.115067 -9.569698 22.929727 25.845226 0.931468 0.479569 0.046553 -0.002628 180701.000000 0 0 1
-5.682167 -9.875898 23.441957 26.064262 1.048694 0.452422 0.051457 -0.001641 -57458.700000 0 0 1
-5.646167 -10.968298 24.307137 27.258387 1.095401 0.469642 0.060660 -0.004167 -74977.200000 0 0 1
-4.304667 -11.365198 24.504727 27.352871 1.208734 0.460402 0.059068 -0.004867 -216619.000000 0 0 1
-4.173167 -12.497098 25.544397 28.742112 1.248508 0.476197 0.059475 -0.008265 196730.000000 0 0 1
-2.842567 -12.999898 25.725687 28.963572 1.355524 0.477366 0.057414 -0.012127 767733.000000 0 0 1
-2.885467 -14.113798 26.599457 30.249898 1.369132 0.496356 0.055873 -0.012088 -43847.600000 0 0 1
-2.821167 -15.531498 25.968407 30.389876 1.391114 0.546192 0.055201 -0.025779 1428840.000000 0 0 1
-1.526667 -15.906498 25.364117 29.978089 1.475112 0.562192 0.047641 -0.021665 1472320.000000 0 0 1
-1.525067 -17.061998 24.504847 29.898581 1.481649 0.610086 0.040803 -0.016128 1000790.000000 0 0 1
-0.152667 -17.918498 24.519457 30.369387 1.562276 0.631108 0.043915 -0.018769 1564920.000000 0 0 1
0.299633 -18.421598 25.761117 31.671442 -1.554532 0.620847 0.056009 -0.022497 13566.300000 0 0 1
0.842133 -17.413498 26.602497 31.806162 -1.522473 0.580124 0.061343 -0.024219 -544459.000000 0 0 1
1.269933 -17.941998 27.984887 33.266829 -1.500134 0.571252 0.058770 -0.014713 -124837.000000 0 0 1
2.401633 -18.796198 27.949857 33.767728 -1.443713 0.595783 0.061889 -0.019774 454228.000000 0 0 1
3.146833 -19.062798 29.149427 34.971159 -1.407195 0.585334 0.062509 -0.017691 738408.000000 0 0 1
4.102633 -17.879098 29.527577 34.761639 -1.345236 0.555892 0.066328 -0.016658 -544548.000000 0 0 1
3.387033 -16.793798 30.043297 34.584727 -1.371782 0.518251 0.058781 -0.022714 56156.400000 0 0 1
4.260333 -15.751998 30.412657 34.513846 -1.306653 0.492460 0.062702 -0.030774 -74904.200000 0 0 1
3.523233 -14.614298 31.206857 34.638978 -1.334229 0.448918 0.067677 -0.025711 359999.000000 0 0 1
2.865833 -15.189698 32.338617 35.843076 -1.384319 0.445889 0.059343 -0.032017 386649.000000 0 0 1
1.725433 -14.390198 32.655004 35.726800 -1.451463 0.417711 0.055191 -0.021167 329378.000000 0 0 1
0.970433 -14.920098 33.923081 37.071910 -1.505846 0.415136 0.047330 -0.020564 331657.000000 0 0 1
1.668333 -14.613598 -33.402021 36.497063 -1.457125 2.726794 0.063684 -0.013046 -204754.000000 0 0 1
1.065333 -15.255798 -32.305391 35.742308 -1.501078 2.699461 0.043769 -0.024709 254652.000000 0 0 1
1.956933 -15.426998 -31.038061 34.715747 -1.444619 2.677131 0.046826 -0.018980 111224.000000 0 0 1
1.343333 -16.343598 -30.170811 34.339418 -1.488787 2.643731 0.038549 -0.018468 -48770.600000 0 0 1
1.942033 -16.396298 -28.878991 33.265691 -1.452902 2.622221 0.046968 -0.020118 -109960.000000 0 0 1
1.401133 -17.579898 -28.091261 33.168282 -1.491264 2.580984 0.056972 -0.021838 -129061.000000 0 0 1
1.973433 -18.810198 -28.469901 34.179720 -1.466266 2.555209 0.059845 -0.018547 73383.200000 0 0 1
1.523833 -19.905498 -27.658851 34.111039 -1.494392 2.516395 0.071365 -0.021713 -696671.000000 0 0 1
2.513133 -21.094698 -27.735221 34.936294 -1.452219 2.487960 0.062790 -0.024351 34830.600000 0 0 1
3.762633 -20.946798 -27.080981 34.442783 -1.393064 2.475529 0.049967 -0.026109 -125464.000000 0 0 1
3.803533 -20.965398 -25.706551 33.389243 -1.391329 2.449489 0.053183 -0.021460 144164.000000 0 0 1
5.257033 -21.428998 -25.212441 33.503814 -1.330224 2.422683 0.043278 -0.020132 1410300.000000 0 0 1
5.513033 -22.800698 -25.364301 34.548707 -1.333557 2.395226 0.053562 -0.021995 158066.000000 0 0 1
5.751133 -23.174898 -26.724051 35.837499 -1.327548 2.412382 0.037732 -0.023749 -919143.000000 0 0 1
5.297533 -24.594698 -27.057631 36.946968 -1.358644 2.392544 0.032248 -0.018365 15355.900000 0 0 1
5.922433 -25.645758 -26.321671 37.223789 -1.343843 2.356213 0.034590 -0.011654 -33668.000000 0 0 1
5.457033 -26.902288 -26.765651 38.339437 -1.370665 2.343569 0.032378 -0.008797 -108220.000000 0 0 1
5.887433 -28.076428 -25.910361 38.656106 -1.364098 2.305380 0.030675 -0.009881 916781.000000 0 0 1
7.323333 -28.217798 -25.865961 38.973366 -1.316870 2.296528 0.026952 -0.011202 744618.000000 0 0 1
7.644433 -29.529008 -25.310421 39.636058 -1.317479 2.263436 0.029175 -0.012524 80507.800000 0 0 1
9.024533 -30.123798 -25.660151 40.587298 -1.279724 2.255213 0.040321 -0.019561 -81941.700000 0 0 1
9.193133 -30.308318 -27.059021 41.656914 -1.276296 2.277813 0.040394 -0.016178 -321588.000000 0 0 1
10.463133 -30.662398 -27.534311 42.518209 -1.241950 2.275212 0.057107 -0.028317 -359526.000000 0 0 1
10.596733 -30.541558 -29.088531 43.488161 -1.236831 2.303503 0.059486 -0.018482 -342031.000000 0 0 1
9.751333 -31.396628 -29.808981 44.378059 -1.269657 2.307305 0.051777 -0.027759 85720.900000 0 0 1
9.970833 -31.161768 -31.182091 45.197302 -1.261121 2.332162 0.061209 -0.038126 -213821.000000 0 0 1
-34.934122 -4.528398 -5.504211 35.653830 0.128908 1.725795 0.102977 -0.021546 -155714.000000 0 0 1
-34.740787 -3.714798 -4.396711 35.214388 0.106524 1.695979 0.107882 -0.034419 279459.000000 0 0 1
-33.758677 -2.720098 -4.613111 34.180814 0.080401 1.706171 0.111804 -0.033589 -306323.000000 0 0 1
-34.192571 -1.464698 -5.355411 34.640406 0.042811 1.726019 0.133283 -0.026645 -567549.000000 0 0 1
-34.865705 -0.632598 -4.487411 35.158988 0.018142 1.698777 0.106440 -0.020018 -53643.700000 0 0 1
-35.658942 0.320002 -5.167511 36.032842 -0.008974 1.714704 0.095181 -0.027175 290267.000000 0 0 1
36.007371 1.145502 -4.202311 36.269855 0.031802 1.686919 0.110434 -0.025303 515725.000000 0 0 1
-35.857151 2.106602 -3.450411 36.084323 -0.058682 1.666563 0.097571 -0.022694 425710.000000 0 0 1
35.775361 2.917902 -2.772411 36.001068 0.081382 1.647882 0.097219 -0.025304 117180.000000 0 0 1
36.265811 4.346202 -2.352211 36.600976 0.119274 1.635107 0.077248 -0.027601 -222660.000000 0 0 1
-36.116957 5.283702 -3.433711 36.662549 -0.145264 1.664591 0.087401 -0.016247 586981.000000 0 0 1
-34.822898 5.124202 -4.022211 35.426965 -0.146102 1.684577 0.077123 -0.014846 404328.000000 0 0 1
-33.798207 6.176102 -3.466111 34.532260 -0.180740 1.671339 0.062464 -0.023900 -245513.000000 0 0 1
-33.508677 5.967502 -2.111111 34.101310 -0.176241 1.632743 0.066933 -0.028745 253966.000000 0 0 1
-33.190597 7.206702 -1.482911 33.996343 -0.213812 1.614430 0.068516 -0.042159 -200665.000000 0 0 1
-32.628447 7.265302 -0.042211 33.427563 -0.219093 1.572059 0.068419 -0.044966 -65790.900000 0 0 1
-31.251167 6.872702 -0.031311 31.997976 -0.216472 1.571775 0.078149 -0.040142 889045.000000 0 0 1
-30.510137 7.291202 1.114889 31.389060 -0.234577 1.535270 0.088626 -0.044717 210136.000000 0 0 1
-30.092687 8.773602 1.095889 31.364739 -0.283689 1.535849 0.087994 -0.041131 -1063600.000000 0 0 1
-31.203097 9.636202 1.117389 32.676264 -0.299531 1.536594 0.085076 -0.051157 14635.600000 0 0 1
-30.910987 10.953902 1.517489 32.829558 -0.340562 1.524557 0.092380 -0.036673 -746456.000000 0 0 1
-32.182477 11.765302 1.513189 34.299036 -0.350487 1.526664 0.089484 -0.044050 -1115430.000000 0 0 1
-32.713847 11.942002 0.191789 34.825910 -0.350014 1.565289 0.083947 -0.042146 523404.000000 0 0 1
-33.902067 12.710702 0.214789 36.207157 -0.358704 1.564864 0.078539 -0.026008 273887.000000 0 0 1
-35.239550 11.981102 0.472589 37.223595 -0.327730 1.558100 0.095034 -0.043669 -294456.000000 0 0 1
-35.761329 11.217202 -0.588011 37.483917 -0.303949 1.586484 0.087542 -0.047431 -1200840.000000 0 0 1
35.578671 10.769602 -0.244611 37.173728 0.293930 1.577377 0.104325 -0.046226 -1119440.000000 0 0 1
35.016391 9.664902 -1.131811 36.343349 0.269306 1.601944 0.103513 -0.041562 24763.500000 0 0 1
34.602191 9.959602 -2.436911 36.089387 0.280256 1.638372 0.096281 -0.035153 39633.500000 0 0 1
34.355301 8.769702 -3.208711 35.601829 0.249928 1.661046 0.090578 -0.045296 -143517.000000 0 0 1
33.657441 9.149302 -4.510011 35.169209 0.265422 1.699388 0.072269 -0.033816 -988017.000000 0 0 1
32.329111 9.506402 -4.385311 33.981967 0.285990 1.700205 0.092381 -0.034427 -651777.000000 0 0 1
31.864991 9.903902 -5.713011 33.854150 0.301343 1.740361 0.075631 -0.021178 29655.700000 0 0 1
30.431901 10.474102 -5.749611 32.693508 0.331482 1.747580 0.099122 -0.018831 -387482.000000 0 0 1
29.456891 9.505602 -5.600111 31.455145 0.312146 1.749785 0.090063 -0.014723 596241.000000 0 0 1
28.152271 9.963202 -5.991311 30.458358 0.340149 1.768792 0.108664 -0.004919 670283.000000 0 0 1
27.054921 8.876102 -6.009211 29.100938 0.317013 1.778788 0.116874 0.007251 -191319.000000 0 0 1
27.060221 8.049002 -7.149811 29.123218 0.289114 1.818834 0.106584 0.004299 -207856.000000 0 0 1
26.031721 7.123702 -7.177511 27.926946 0.267115 1.830724 0.109074 -0.004632 -753573.000000 0 0 1
26.019821 6.206902 -8.409811 28.040714 0.234169 1.875399 0.097491 -0.012276 417420.000000 0 0 1
27.096521 5.229402 -8.492011 28.873558 0.190648 1.869321 0.095914 -0.011947 1192500.000000 0 0 1
27.037121 4.373802 -9.598311 29.021779 0.160381 1.907871 0.086018 -0.011273 -28345.000000 0 0 1
28.048981 3.184802 -9.590011 29.813699 0.113060 1.898283 0.079920 -0.009328 -203719.000000 0 0 1
29.398641 3.556902 -9.626511 31.138423 0.120403 1.885098 0.108612 -0.008681 571728.000000 0 0 1
30.331081 3.014802 -8.681211 31.692696 0.099071 1.848261 0.088066 -0.018436 439570.000000 0 0 1
30.625231 1.486602 -8.636711 31.854475 0.048504 1.845363 0.093716 -0.019498 331877.000000 0 0 1
29.454261 0.734402 -8.216611 30.587670 0.024928 1.842762 0.108113 -0.025870 1390330.000000 0 0 1
29.874161 -0.363498 -7.399111 30.778962 -0.012167 1.813569 0.100028 -0.019489 -19900.000000 0 0 1
29.780721 -1.698098 -8.231111 30.943919 -0.056958 1.840038 0.085367 -0.016064 -743215.000000 0 0 1
30.670231 -1.834198 -9.289411 32.098607 -0.059733 1.864399 0.084754 -0.014353 -104685.000000 0 0 1
30.543771 -3.118198 -9.846211 32.242720 -0.101737 1.881131 0.065301 -0.014589 -191267.000000 0 0 1
31.508201 -3.312698 -11.032711 33.547898 -0.104753 1.905897 0.061174 -0.015802 -289885.000000 0 0 1
32.863271 -3.255598 -10.660811 34.702254 -0.098743 1.883054 0.079653 -0.014726 194588.000000 0 0 1
33.689181 -3.736098 -11.746811 35.873485 -0.110448 1.904401 0.071837 -0.026342 43835.800000 0 0 1
35.070781 -4.273098 -11.396011 37.122610 -0.121244 1.882818 0.088823 -0.013353 -561729.000000 0 0 1
34.971691 -5.394598 -10.601611 36.939343 -0.153050 1.861890 0.084902 -0.015563 1008490.000000 0 0 1
36.279691 -5.897198 -10.273511 38.164617 -0.161139 1.843348 0.084405 -0.003344 712366.000000 0 0 1
36.201801 -7.074498 -9.289611 38.038347 -0.192986 1.817508 0.085825 -0.013464 -169069.000000 0 0 1
35.832101 -6.796698 -7.910311 37.318998 -0.187455 1.784381 0.073455 -0.005878 559243.000000 0 0 1
35.593371 -7.991998 -7.180611 37.179582 -0.220873 1.765151 0.075291 -0.005168 -565039.000000 0 0 1
35.204341 -7.668698 -5.680411 36.474946 -0.214483 1.727167 0.076918 -0.006917 -348663.000000 0 0 1
36.161051 -7.508398 -4.627711 37.221142 -0.204729 1.695449 0.081774 -0.006117 201232.000000 0 0 1
-36.132327 -8.684198 -3.887911 37.364103 0.235870 1.675040 0.078554 -0.006123 203505.000000 0 0 1
-35.221845 -9.805498 -4.505011 36.837770 0.271517 1.693396 0.075873 -0.003221 -400472.000000 0 0 1
-35.803827 -10.352198 -5.636611 37.694210 0.281461 1.720894 0.073437 -0.006502 141473.000000 0 0 1
-35.141362 -11.498898 -6.081011 37.471572 0.316237 1.733801 0.061443 -0.005357 -308422.000000 0 0 1
-35.976399 -12.095698 -7.228211 38.637472 0.324339 1.758983 0.066940 -0.013836 84257.700000 0 0 1
-35.986749 -11.337898 -8.422911 38.659274 0.305213 1.790434 0.059173 -0.014268 288980.000000 0 0 1
35.732231 -11.917698 -9.380511 38.817752 -0.321926 1.814868 0.074753 -0.009624 64495.000000 0 0 1
35.909991 -11.255998 -10.761111 39.141110 -0.303750 1.849314 0.065439 -0.019333 -351513.000000 0 0 1
35.183711 -10.053898 -10.813511 38.156342 -0.278337 1.858134 0.061422 -0.015352 247858.000000 0 0 1
35.254541 -9.508798 -12.115711 38.471943 -0.263449 1.891172 0.057023 -0.020353 97103.900000 0 0 1
34.287501 -8.316998 -12.477711 37.423235 -0.237970 1.910727 0.055011 -0.018942 42553.300000 0 0 1
34.430271 -7.884398 -13.823111 37.930011 -0.225115 1.943825 0.062421 -0.014045 687381.000000 0 0 1
33.350441 -7.107498 -14.342511 36.992920 -0.209974 1.968942 0.046777 -0.016090 124941.000000 0 0 1
33.660751 -6.543998 -15.750211 37.735120 -0.192015 2.001366 0.046130 -0.014304 -295877.000000 0 0 1
34.718141 -5.612498 -15.775111 38.544826 -0.160272 1.992446 0.045822 -0.016738 209209.000000 0 0 1
34.313441 -4.228098 -15.814611 38.018298 -0.122602 1.999810 0.054440 -0.015091 -643960.000000 0 0 1
35.479301 -3.281598 -15.918511 39.024976 -0.092231 1.990955 0.065041 -0.017458 -1082400.000000 0 0 1
35.984751 -3.173598 -17.242511 40.028468 -0.087965 2.016127 0.068949 -0.015789 932701.000000 0 0 1
-35.200127 -2.848498 -17.364111 39.353211 0.080747 2.027773 0.083821 -0.013993 873367.000000 0 0 1
-34.775354 -1.449198 -16.863911 38.675793 0.041649 2.021982 0.074739 -0.009306 -719501.000000 0 0 1
-35.107309 -0.365098 -17.753411 39.342599 0.010399 2.038964 0.070813 -0.009592 299664.000000 0 0 1
-34.718675 0.931102 -17.223311 38.767200 -0.026812 2.031162 0.070196 -0.013388 73603.200000 0 0 1
-35.144681 2.004702 -18.234511 39.644228 -0.056980 2.048739 0.059157 -0.013243 -51830.200000 0 0 1
-34.245316 2.124902 -19.292911 39.363350 -0.061970 2.083028 0.051653 -0.007105 64042.100000 0 0 1
-34.479258 3.404202 -19.836411 39.923565 -0.098413 2.090773 0.054364 -0.003791 541752.000000 0 0 1
-33.503587 3.746502 -21.044311 39.741536 -0.111361 2.128842 0.045029 0.003789 625623.000000 0 0 1
-32.226747 4.226502 -20.661211 38.513792 -0.130405 2.137036 0.042598 0.004660 414524.000000 0 0 1
-31.461337 4.615002 -21.822411 38.565938 -0.145649 2.172256 0.032739 0.002211 -719764.000000 0 0 1
-30.035687 4.969402 -21.466111 37.250925 -0.163965 2.184938 0.049991 0.005204 -441731.000000 0 0 1
-29.387547 3.801402 -20.882611 36.251373 -0.128640 2.184685 0.040530 0.016123 800504.000000 0 0 1
-28.002917 3.707902 -21.236511 35.339798 -0.131645 2.215452 0.038705 0.013514 842591.000000 0 0 1
-27.206327 2.620302 -20.439811 34.129695 -0.096016 2.212906 0.064056 0.001617 92948.600000 0 0 1
-26.871407 3.042602 -19.148311 33.135899 -0.112748 2.186915 0.060138 0.005627 -509704.000000 0 0 1
-26.158597 2.019902 -18.593311 32.156857 -0.077065 2.187325 0.068945 0.006216 -298717.000000 0 0 1
-25.221067 2.462102 -17.420211 30.751064 -0.097312 2.173038 0.074041 -0.006099 722497.000000 0 0 1
-24.095967 3.274502 -17.795511 30.133341 -0.135067 2.202548 0.066080 -0.007269 481280.000000 0 0 1
-23.340967 3.598602 -16.652111 28.897119 -0.152971 2.184935 0.078083 -0.014563 462537.000000 0 0 1
-22.110767 4.547702 -16.901911 28.200039 -0.202849 2.213495 0.072827 -0.013404 861954.000000 0 0 1
-21.062067 3.891602 -17.622611 27.736468 -0.182708 2.259269 0.089647 -0.011996 579147.000000 0 0 1
-19.862467 4.669302 -17.557911 26.918399 -0.230889 2.281364 0.078444 -0.010553 49920.800000 0 0 1
-18.637467 3.876902 -18.005111 26.202473 -0.205092 2.328360 0.081109 -0.016541 -484118.000000 0 0 1
-18.435267 2.792902 -17.163311 25.342427 -0.150354 2.314823 0.102971 -0.021049 -555034.000000 0 0 1
-17.476867 1.949402 -17.690911 24.944125 -0.111083 2.359190 0.083949 -0.017046 -1594270.000000 0 1 0
-17.462667 0.531802 -17.108211 24.452371 -0.030444 2.345710 0.100348 -0.018385 54419.900000 0 1 0
-18.428367 -0.358498 -17.597911 25.483715 0.019451 2.333053 0.083879 -0.015905 -799555.000000 0 0 1
-19.742567 0.020402 -17.386611 26.307102 -0.001033 2.292826 0.092103 -0.025195 -1213750.000000 0 0 1
-20.824167 -1.021798 -17.856611 27.450839 0.049029 2.279031 0.095354 -0.029898 169731.000000 0 0 1
-20.919467 -2.164198 -17.016511 27.053087 0.103087 2.251068 0.094193 -0.019684 278814.000000 0 0 1
-21.728167 -3.146998 -17.606711 28.142728 0.143835 2.246725 0.091732 -0.010684 -126995.000000 0 0 1
-22.180467 -4.296398 -16.708011 28.099641 0.191332 2.207563 0.095500 -0.009505 102933.000000 0 0 1
-22.829467 -3.918098 -15.503111 27.872612 0.169969 2.160618 0.088535 -0.014250 374589.000000 0 0 1
-23.176567 -4.989098 -14.674211 27.881478 0.212029 2.125048 0.104220 -0.017338 -147463.000000 0 0 1
-23.213967 -4.463098 -13.222311 27.085735 0.189942 2.080782 0.089281 -0.015987 -232572.000000 0 0 1
-24.147567 -3.425398 -13.113611 27.691247 0.140913 2.064131 0.081124 -0.019726 238287.000000 0 0 1
-24.255067 -2.902698 -11.781411 27.120759 0.119107 2.020175 0.089338 -0.028112 -119662.000000 0 0 1
-25.125077 -1.613198 -11.639211 27.737036 0.064119 2.003831 0.104251 -0.037085 -91945.000000 0 0 1
-25.214897 -1.159698 -10.352511 27.282053 0.045960 1.960011 0.104974 -0.039154 404398.000000 0 0 1
-25.579207 0.194502 -10.317211 27.582214 -0.007604 1.954172 0.114693 -0.037949 -165355.000000 0 0 1
-26.160087 0.639002 -8.947711 27.655380 -0.024422 1.900268 0.136501 -0.038454 -96101.000000 0 0 1
-25.152887 0.672502 -7.937911 26.384284 -0.026730 1.876388 0.120424 -0.037817 712667.000000 0 0 1
-25.663507 0.942102 -6.673011 26.533606 -0.036693 1.825019 0.127415 -0.035689 -6966.580000 0 0 1
-24.474667 1.229702 -5.732411 25.167082 -0.050202 1.800587 0.096637 -0.028084 157362.000000 0 0 1
-23.955167 2.534302 -5.892611 24.799105 -0.105401 1.810705 0.109513 -0.026844 -814384.000000 0 1 0
-22.616067 2.623402 -5.593911 23.444841 -0.115481 1.811719 0.095749 -0.011552 -1093060.000000 0 1 0
-22.147767 4.094002 -5.490611 23.182564 -0.182786 1.809911 0.098398 -0.014119 -329299.000000 0 1 0
-22.588167 4.846902 -4.402511 23.518075 -0.211372 1.759104 0.097051 -0.014956 571429.000000 0 1 0
-21.995767 6.138302 -4.506011 23.276526 -0.272144 1.765612 0.071350 -0.019263 -165411.000000 0 1 0
-22.686067 7.239902 -3.656511 24.092403 -0.308917 1.723155 0.089920 -0.020431 -435259.000000 0 1 0
-22.243867 7.320402 -2.331811 23.533280 -0.317933 1.670045 0.088850 -0.017560 1402720.000000 0 1 0
-20.932367 7.843202 -1.991811 22.442084 -0.358501 1.659667 0.102035 -0.018609 859689.000000 0 1 0
-20.673367 9.325502 -2.333411 22.799077 -0.423758 1.673323 0.104381 -0.018465 -468202.000000 0 1 0
-20.642467 9.619902 -3.747711 23.080279 -0.436100 1.733896 0.093825 -0.019151 459337.000000 0 1 0
-20.232667 10.931602 -3.944311 23.332774 -0.495361 1.740658 0.115340 -0.012518 -286816.000000 0 1 0
-20.036367 11.352302 -5.431111 23.660679 -0.515487 1.802403 0.119225 -0.020003 -306741.000000 0 1 0
-18.790667 11.031702 -5.979511 22.595180 -0.530868 1.838623 0.088354 -0.015624 -91910.600000 0 1 0
-18.869767 11.354202 -7.343911 23.214630 -0.541679 1.892674 0.093712 -0.016542 86118.900000 0 1 0
-17.525267 11.228002 -8.099511 22.333945 -0.569792 1.941911 0.085201 -0.014708 214029.000000 0 1 0
-17.063367 9.884602 -8.270211 21.383644 -0.525051 1.967905 0.056530 -0.012305 578629.000000 0 1 0
-17.899967 9.069202 -9.120311 22.041763 -0.468962 1.997392 0.058708 -0.017781 106571.000000 0 1 0
-18.147367 9.505302 -10.593611 23.063007 -0.482493 2.048041 0.084051 -0.017867 518900.000000 0 1 0
-16.927267 9.528602 -11.336011 22.490704 -0.512704 2.099056 0.064943 -0.017589 471634.000000 0 1 0
-17.195567 10.255602 -12.514711 23.611076 -0.537775 2.129439 0.077417 -0.016652 -70415.100000 0 1 0
-16.011367 10.270302 -13.513211 23.333449 -0.570333 2.188463 0.041551 -0.007780 155573.000000 0 1 0
-15.840967 9.041302 -14.223811 23.130028 -0.518638 2.233119 0.029535 0.000620 168547.000000 0 1 0
-15.460867 7.901002 -13.407911 21.937099 -0.472434 2.228370 0.022101 -0.007043 -813680.000000 0 1 0
-15.673967 6.526502 -14.095511 22.066987 -0.394556 2.263682 0.041045 -0.013461 -524460.000000 0 1 0
-14.659367 6.239802 -15.009311 21.888618 -0.402424 2.326379 0.042314 -0.014213 455794.000000 0 1 0
-15.036067 5.074802 -15.718811 22.336471 -0.325504 2.351428 0.061960 -0.021435 236740.000000 0 1 0
32.651901 -16.119898 28.382837 46.169072 -0.458586 0.908716 0.012556 0.015778 -67681.900000 0 0 1
31.660341 -15.115698 28.506067 45.204617 -0.445432 0.888469 0.008092 0.016246 531325.000000 0 0 1
30.663761 -15.274798 29.540157 45.235015 -0.462157 0.859208 0.011299 0.010764 672554.000000 0 0 1
31.173431 -15.252798 31.020047 46.547546 -0.455042 0.841404 -0.001537 0.009427 -111373.000000 0 0 1
31.610701 -13.952298 31.359777 46.661962 -0.415662 0.833805 -0.011368 0.005175 -86425.900000 0 0 1
31.814321 -13.870398 32.770480 47.733043 -0.411134 0.814081 -0.017660 0.005446 -114392.000000 0 0 1
32.160041 -12.462998 33.262019 47.916140 -0.369711 0.803528 -0.010655 0.004487 -6028.200000 0 0 1
31.896011 -12.287198 -33.888391 48.132669 -0.367706 2.351898 -0.013808 -0.008203 141349.000000 0 0 1
32.048911 -10.944398 -33.426741 47.584237 -0.329074 2.349666 0.007215 0.000130 -102436.000000 0 0 1
31.606891 -10.809898 -31.950821 46.224501 -0.329540 2.333958 0.014240 0.002423 397172.000000 0 0 1
30.195951 -10.747598 -31.785321 45.139927 -0.341946 2.352023 0.060048 -0.004212 366602.000000 0 0 1
29.962011 -10.354098 -30.430061 43.942213 -0.332727 2.335748 0.046488 0.001400 859630.000000 0 0 1
28.494431 -10.731698 -29.989571 42.737295 -0.360194 2.348604 0.044166 0.015287 845468.000000 0 0 1
28.188441 -10.365998 -28.636651 41.498192 -0.352390 2.332382 0.036066 0.013419 -344172.000000 0 0 1
27.021121 -11.003998 -28.225741 40.594599 -0.386729 2.339644 0.040118 0.013187 -904245.000000 0 0 1
26.563221 -10.720098 -26.746751 39.190738 -0.383579 2.321942 0.033030 0.013299 -980200.000000 0 0 1
25.739521 -9.563498 -26.544001 38.191196 -0.355742 2.339257 0.026240 0.008389 1562240.000000 0 0 1
24.378121 -9.515898 -27.038911 37.629082 -0.372156 2.372532 0.036999 0.002553 1637860.000000 0 0 1
23.469021 -10.797498 -26.852381 37.261660 -0.431200 2.375527 0.035469 0.012346 -1028580.000000 0 0 1
23.941621 -11.816898 -27.694971 38.468841 -0.458491 2.374501 0.030753 0.011890 -313029.000000 0 0 1
23.336621 -13.083198 -27.469601 38.345104 -0.510967 2.369394 0.037100 -0.002882 20063.700000 0 0 1
24.132021 -14.298798 -28.072901 39.684983 -0.534904 2.356600 0.023705 0.009170 214127.000000 0 0 1
24.117921 -14.244798 -29.530391 40.701750 -0.533502 2.382602 0.024866 -0.004666 864781.000000 0 0 1
25.230121 -14.880298 -30.212201 42.080392 -0.532873 2.371669 0.020491 0.007699 575576.000000 0 0 1
25.284821 -14.888498 -31.778541 43.253500 -0.532167 2.396027 0.042953 -0.010422 -166667.000000 0 0 1
24.172121 -15.506298 -32.442751 43.327461 -0.570373 2.417016 0.055824 -0.017693 359308.000000 0 0 1
24.250921 -15.784598 -33.836561 44.521608 -0.576998 2.434114 0.067042 -0.013415 -67521.100000 0 0 1
24.443021 -14.560498 33.738587 44.133453 -0.537245 0.700582 0.057962 -0.026929 -495279.000000 0 0 1
23.323121 -13.740498 33.703625 43.228505 -0.532393 0.676670 0.074330 -0.028523 -413257.000000 0 0 1
23.441721 -12.690998 32.769252 42.242155 -0.496205 0.682897 0.073373 -0.025161 -287787.000000 0 0 1
22.318321 -11.638298 32.903174 41.426759 -0.480674 0.653025 0.088728 -0.031751 753476.000000 0 0 1
20.949221 -12.044498 32.804498 40.744017 -0.521787 0.634891 0.082916 -0.028065 859636.000000 0 0 1
20.453521 -12.353298 31.500077 39.537392 -0.543333 0.648954 0.066955 -0.020392 -941881.000000 0 0 1
18.954921 -12.614398 31.644937 38.984794 -0.587191 0.623696 0.073122 -0.014645 -499499.000000 0 0 1
18.203221 -11.414798 31.735297 38.324718 -0.560091 0.595152 0.073542 -0.021667 -30331.900000 0 0 1
17.158921 -11.552698 32.690124 38.685109 -0.592565 0.564173 0.058539 -0.011664 65817.400000 0 0 1
16.307121 -10.268098 32.816640 38.056378 -0.561950 0.530970 0.073383 -0.018265 264995.000000 0 0 1
15.363921 -10.109298 31.709087 36.656707 -0.581971 0.525590 0.080473 -0.016046 1370520.000000 0 0 1
14.442221 -8.990198 31.727517 36.000511 -0.556795 0.492174 0.086554 -0.012826 673702.000000 0 0 1
13.383321 -8.920598 32.839815 36.566977 -0.587919 0.455428 0.088758 -0.014985 -1536320.000000 0 0 1
12.451421 -9.936998 32.728115 36.399332 -0.673558 0.452995 0.081646 -0.009390 -188201.000000 0 0 1
11.282721 -9.822098 33.506752 36.694357 -0.716300 0.419897 0.076152 -0.010539 416790.000000 0 0 1
10.196221 -8.838498 32.999912 35.652155 -0.714190 0.388158 0.069523 -0.013706 -669202.000000 0 0 1
10.586521 -7.496698 33.230488 35.672682 -0.616166 0.372174 0.087347 -0.018934 1125960.000000 0 0 1
9.584221 -6.604198 32.648419 34.661102 -0.603353 0.342457 0.080967 -0.007837 892303.000000 0 0 1
10.085521 -5.144098 32.518979 34.433465 -0.471654 0.335030 0.088371 -0.013771 2558.070000 0 0 1
10.115421 -4.505198 33.781542 35.550122 -0.419005 0.316755 0.087075 -0.025713 299279.000000 0 0 1
10.683721 -3.221698 33.711562 35.510430 -0.292880 0.319659 0.070717 -0.025424 -384680.000000 0 0 1
10.412921 -2.424298 -33.523151 35.186756 -0.228742 2.832864 0.061575 -0.029610 -761398.000000 0 0 1
9.110721 -1.950098 -33.561411 34.830683 -0.210863 2.870799 0.059381 -0.018570 -649542.000000 0 0 1
8.764221 -1.464598 -32.269721 33.470756 -0.165581 2.872893 0.053286 -0.020083 -213928.000000 0 0 1
7.254521 -1.289898 -32.049161 32.885265 -0.175967 2.915613 0.044678 -0.015781 -324622.000000 0 0 1
6.719221 -0.121098 -32.631641 33.316461 -0.018021 2.938488 0.058353 -0.012157 -375009.000000 0 0 1
5.349621 0.049402 -32.400831 32.839530 0.009234 2.977954 0.065149 -0.013697 -580863.000000 0 0 1
4.643021 0.768302 -33.494651 33.823654 0.163989 3.002002 0.050351 -0.003044 -408372.000000 0 0 1
5.061921 2.130202 -33.518281 33.965217 0.398332 2.979188 0.051778 -0.006947 220549.000000 0 0 1
4.577621 2.788802 33.810355 34.232618 0.547175 0.157229 0.039345 -0.007423 106533.000000 0 0 1
5.308621 4.113402 33.856543 34.516185 0.659218 0.195818 0.042955 -0.011488 170918.000000 0 0 1
5.143521 4.837702 32.668332 33.422733 0.754768 0.212870 0.064653 -0.026162 425884.000000 0 0 1
6.086121 5.928802 32.635813 33.723699 0.772305 0.254691 0.065229 -0.022179 369702.000000 0 0 1
5.644321 7.187102 31.781027 33.068814 0.905058 0.279993 0.078112 -0.020348 -1118610.000000 0 0 1
4.640021 7.837302 32.449589 33.703545 1.036248 0.273637 0.074578 -0.021610 -591248.000000 0 0 1
4.195721 9.051602 31.783357 33.312420 1.136745 0.304159 0.072036 -0.017612 16771.000000 0 0 1
3.612721 9.085102 30.389687 31.923720 1.192315 0.311265 0.076173 -0.012471 -432204.000000 0 0 1
2.325021 8.565502 30.174387 31.452618 1.305743 0.286071 0.070689 -0.014786 -330664.000000 0 0 1
2.206721 8.003202 28.894097 30.063095 1.301752 0.279784 0.059050 0.006589 1610270.000000 0 0 1
0.692821 7.808302 28.403597 29.465470 1.482299 0.269282 0.055891 -0.006818 1417620.000000 0 0 1
-0.001779 9.027702 28.164117 29.575613 -1.570599 0.310192 0.049646 -0.005515 -89384.600000 0 0 1
-1.130179 8.786602 27.334867 28.734589 -1.442873 0.313410 0.037453 0.000248 1008110.000000 0 0 1
-2.497179 8.704102 28.108737 29.531312 -1.291404 0.311652 0.034548 -0.004855 230037.000000 0 0 1
-3.006779 10.012602 28.328687 30.196149 -1.279065 0.353532 0.032471 -0.004939 -295781.000000 0 0 1
-4.193279 9.936402 29.079237 31.014798 -1.171459 0.355156 0.021018 -0.001342 -327676.000000 0 0 1
-4.559579 11.298202 29.739377 32.138290 -1.187219 0.388821 0.016913 -0.001363 -59302.700000 0 0 1
-4.737179 12.465602 28.916207 31.843039 -1.207632 0.432106 0.011758 -0.006395 710051.000000 0 0 1
-5.916779 12.412802 28.082907 31.268764 -1.125988 0.455335 0.014127 -0.015441 574704.000000 0 0 1
-6.247079 13.772202 27.400857 31.297069 -1.144952 0.504309 0.013606 -0.007148 -615700.000000 0 0 1
-5.252779 14.255202 26.591277 30.625128 -1.217753 0.519066 0.009867 -0.012383 -725142.000000 0 0 1
-5.473679 15.628402 26.571597 31.309070 -1.233908 0.557299 -0.004020 -0.002760 179595.000000 0 0 1
-4.338879 16.448802 25.901587 30.988404 -1.312890 0.581121 0.030503 -0.009478 246146.000000 0 0 1
-4.310579 16.288102 24.501947 29.735984 -1.312082 0.602391 0.036274 0.002964 749653.000000 0 0 1
-3.112079 16.983602 24.072607 29.624621 -1.389567 0.622218 0.046395 -0.000512 879918.000000 0 0 1
-2.909579 16.739702 22.571127 28.251355 -1.398703 0.645266 0.047138 -0.006258 -96058.700000 0 0 1
-2.218179 15.575002 22.206027 27.214126 -1.429329 0.616384 0.054701 -0.015216 -190021.000000 0 0 1
-2.365879 15.307902 20.845327 25.970308 -1.417457 0.639055 0.051991 -0.016221 -73219.100000 0 0 1
-1.588879 14.132202 20.247727 24.742961 -1.458837 0.612310 0.048046 -0.018107 -527140.000000 0 1 0
-2.347479 12.984202 20.139827 24.077225 -1.391933 0.579990 0.043443 -0.013026 -148210.000000 0 1 0
-1.657679 12.012302 19.362527 22.846241 -1.433664 0.559511 0.039118 -0.014420 -216433.000000 0 1 0
-2.436079 10.645802 19.234527 22.118648 -1.345839 0.516391 0.036267 -0.013994 -249190.000000 0 1 0
-2.662579 9.923202 20.428327 22.866478 -1.308652 0.465996 0.052696 -0.018675 42048.000000 0 1 0
-3.590479 10.524902 21.329527 24.054393 -1.242035 0.480594 0.050325 -0.012842 -212787.000000 0 1 0
-5.076079 10.200202 21.022627 23.911536 -1.109035 0.496650 0.039804 -0.006654 -129240.000000 0 1 0
-5.502879 8.837302 21.307027 23.714320 -1.013862 0.454484 0.023664 0.000308 1135670.000000 0 1 0
-6.941679 8.784002 21.158527 23.938021 -0.902020 0.486686 0.018276 0.004725 1166720.000000 0 1 0
-7.413079 7.325302 21.183927 23.608739 -0.779443 0.457201 0.013476 0.012323 -89677.600000 0 1 0
-7.242579 6.728502 22.466227 24.545041 -0.748619 0.414529 0.015108 0.013189 80127.900000 0 1 0
-7.808079 5.456302 22.451327 24.388510 -0.609922 0.401259 0.017870 0.011698 -58237.100000 0 1 0
-7.751879 4.852002 23.890377 25.580924 -0.559256 0.365588 0.014770 0.006124 39267.000000 0 0 1
-8.548979 5.542102 24.852527 26.859785 -0.575163 0.389052 0.003476 0.009533 240126.000000 0 0 1
-8.880579 4.741102 25.971097 27.853915 -0.490377 0.369788 -0.000483 0.011298 134616.000000 0 0 1
-9.713379 5.548302 27.045107 29.267237 -0.518975 0.392189 0.014605 0.011259 113219.000000 0 0 1
-9.039079 6.628202 27.666157 29.850532 -0.632716 0.384935 0.004478 0.001323 -263241.000000 0 0 1
-9.803379 7.199702 28.710207 31.180409 -0.633449 0.400728 0.013512 0.000303 61753.600000 0 0 1
-9.044979 8.296602 29.494837 31.946684 -0.742270 0.394336 0.012659 -0.001447 -20139.500000 0 0 1
-8.047479 7.821202 30.353987 32.361978 -0.771140 0.354120 0.025539 -0.006202 -423480.000000 0 0 1
-7.558479 8.837302 31.206997 33.303231 -0.863238 0.356694 0.031811 -0.013220 -133365.000000 0 0 1
-6.517079 8.175802 32.115507 33.774574 -0.897815 0.314736 0.052694 -0.015514 -218822.000000 0 0 1
-5.249979 7.953502 31.543387 32.951566 -0.987365 0.293403 0.052130 -0.013688 -885929.000000 0 0 1
-4.461379 7.324202 32.505502 33.617785 -1.023692 0.257954 0.064664 -0.012516 -1379670.000000 0 0 1
-3.025179 7.366502 32.066737 33.040773 -1.181128 0.243417 0.051160 -0.011552 -1086740.000000 0 0 1
-2.603279 8.716102 32.145557 33.407848 -1.280556 0.275770 0.053327 -0.018048 -782449.000000 0 0 1
-1.266979 8.955902 31.793477 33.055084 -1.430260 0.277172 0.044563 -0.019339 -26914.700000 0 0 1
-1.030779 10.374902 31.280507 32.972279 -1.471768 0.321726 0.040651 -0.018277 -85890.800000 0 0 1
-1.158279 11.290702 32.325247 34.259935 -1.468567 0.337670 0.042624 -0.027162 -13640.000000 0 0 1
-1.499879 12.574502 31.832327 34.258791 -1.452078 0.378628 0.044085 -0.026896 -268786.000000 0 0 1
-1.649579 13.550102 32.961391 35.676038 -1.449653 0.392624 0.038598 -0.019058 -326491.000000 0 0 1
-0.419079 13.921802 33.559063 36.334596 -1.540703 0.393398 0.061134 -0.017759 -94926.000000 0 0 1
-0.641579 14.802502 -33.901551 36.997849 -1.527481 2.729567 0.064807 -0.018873 66248.700000 0 0 1
0.698621 15.221502 -33.263261 36.587248 1.524932 2.712033 0.044808 -0.013490 -65133.300000 0 0 1
1.384021 16.128802 -34.110612 37.756955 1.485195 2.698490 0.059729 -0.016826 -511172.000000 0 0 1
2.750921 15.993202 -33.834621 37.525080 1.400457 2.694374 0.069914 -0.014314 -321945.000000 0 0 1
3.617321 16.939602 33.839777 38.015334 1.360414 0.473097 0.076926 -0.006987 -123532.000000 0 0 1
3.296121 18.306202 34.157664 38.893797 1.392650 0.498650 0.068413 -0.001740 -189505.000000 0 0 1
4.167421 19.205302 33.521289 38.857275 1.357116 0.530257 0.059279 0.008285 -129458.000000 0 0 1
3.796721 20.714602 33.519796 39.586444 1.389521 0.560951 0.064711 -0.004952 -326105.000000 0 0 1
3.980821 21.268502 -33.723291 40.068148 1.385767 2.571125 0.076372 -0.015147 55814.500000 0 0 1
3.554621 22.614602 -33.661021 40.707737 1.414889 2.544360 0.069470 -0.014848 -189111.000000 0 0 1
3.561821 23.220402 -32.241711 39.892375 1.418591 2.511915 0.074382 -0.021105 -277145.000000 0 0 1
3.271521 24.579402 -32.303701 40.723199 1.438474 2.486925 0.073889 -0.026550 248777.000000 0 0 1
2.943221 25.003302 -30.996741 39.932764 1.453622 2.459449 0.074681 -0.027737 -95893.400000 0 0 1
2.524821 26.465002 -30.820221 40.702052 1.475682 2.429836 0.082823 -0.036291 -639598.000000 0 0 1
3.526721 27.421602 -30.890421 41.456002 1.442887 2.411537 0.080136 -0.037830 -532240.000000 0 0 1
3.226721 28.684602 -30.331161 41.871201 1.458778 2.380948 0.076303 -0.037741 -1052870.000000 0 0 1
4.377521 29.646202 -30.281311 42.603025 1.424197 2.361401 0.086361 -0.048008 -396850.000000 0 0 1
5.397421 29.467202 -29.314161 41.913818 1.389637 2.345342 0.067219 -0.050346 197243.000000 0 0 1
6.121621 30.650602 -29.066721 42.682642 1.373667 2.319919 0.069084 -0.051422 39109.700000 0 0 1
7.271821 30.550602 -27.971931 42.055292 1.337119 2.298455 0.067761 -0.042496 378595.000000 0 0 1
8.399121 29.836402 -28.440931 42.067121 1.296392 2.313232 0.066774 -0.035950 923003.000000 0 0 1
9.577721 30.582902 -28.833871 43.109613 1.267299 2.303457 0.069669 -0.035002 723315.000000 0 0 1
9.400621 31.846202 -29.713391 44.558252 1.283760 2.300762 0.080549 -0.042036 -1643110.000000 0 0 1
9.033821 32.972902 -28.962661 44.806896 1.303381 2.273638 0.077149 -0.037106 5029.950000 0 0 1
8.709221 34.141002 -29.638551 46.042396 1.321028 2.270150 0.051664 -0.027608 568865.000000 0 0 1
7.440021 34.241402 -30.588031 46.512957 1.356841 2.288457 0.052993 -0.032406 481271.000000 0 0 1
7.522921 33.280902 -31.638731 46.531947 1.348489 2.318471 0.047417 -0.029334 454505.000000 0 0 1
6.222621 32.884902 -32.086581 46.364711 1.383783 2.335118 0.059291 -0.028825 360063.000000 0 0 1
6.183221 32.099202 -33.407091 46.739969 1.380499 2.367054 0.072332 -0.042316 -56023.900000 0 0 1
6.006821 32.911402 33.971525 47.679207 1.390268 0.777739 0.066267 -0.029883 174097.000000 0 0 1
5.959421 32.049902 32.814569 46.254803 1.386954 0.782106 0.092512 -0.024786 -221233.000000 0 0 1
5.366221 32.877802 31.635847 45.940973 1.409006 0.811213 0.071918 -0.019602 164347.000000 0 0 1
6.336221 33.786002 31.142697 46.384364 1.385410 0.834693 0.069807 -0.016870 416008.000000 0 0 1
5.887921 -34.013734 29.972317 45.715878 -1.399391 0.855791 0.047469 -0.021437 111542.000000 0 0 1
18.031233 -22.268598 29.993307 41.480288 -0.890159 0.762555 0.070178 -0.003120 -604657.000000 0 0 1
17.112033 -21.214998 30.237927 40.709091 -0.892043 0.733582 0.062491 -0.002152 -9452.630000 0 0 1
15.769133 -21.612598 30.186007 40.335654 -0.940462 0.725195 0.058985 -0.001862 99731.600000 0 0 1
15.180533 -22.189098 31.533327 41.438574 -0.970792 0.705996 0.068057 -0.007191 -817894.000000 0 0 1
15.982133 -23.177598 32.043407 42.654537 -0.967118 0.720871 0.071204 -0.018155 -6656.670000 0 0 1
15.408133 -23.690998 33.288684 43.667041 -0.994155 0.703891 0.074585 -0.022682 371546.000000 0 0 1
16.212333 -24.808698 34.020008 45.118424 -0.991969 0.716642 0.082044 -0.027044 -101867.000000 0 0 1
16.187733 -26.059038 33.441950 45.381496 -1.014938 0.742313 0.090639 -0.031517 119661.000000 0 0 1
16.935833 -26.997788 34.226354 46.766936 -1.010542 0.749764 0.093081 -0.030385 213794.000000 0 0 1
16.624933 -28.481628 33.936819 47.321234 -1.042443 0.771080 0.089164 -0.024197 -14357.700000 0 0 1
17.259233 -28.831508 32.740513 46.915650 -1.031389 0.798392 0.084879 -0.027196 434416.000000 0 0 1
16.698333 -30.095148 32.265827 47.176645 -1.064236 0.817651 0.090497 -0.025679 378549.000000 0 0 1
17.446833 -30.729948 31.040077 47.034116 -1.054430 0.850047 0.084520 -0.021417 -181865.000000 0 0 1
18.617133 -31.376128 31.435817 48.158796 -1.035278 0.859583 0.079891 -0.024163 -395301.000000 0 0 1
19.400233 -31.647728 30.298227 47.915867 -1.020869 0.886250 0.050922 -0.020035 -585249.000000 0 0 1
20.817633 -32.199648 30.462577 48.971010 -0.996873 0.899434 0.044171 -0.011119 -319729.000000 0 0 1
21.712433 -31.197498 30.918807 48.996799 -0.962782 0.887907 0.037439 -0.010143 123885.000000 0 0 1
23.012833 -31.738768 31.023347 49.993879 -0.943442 0.901361 0.028401 -0.006760 -508293.000000 0 0 1
24.111833 -30.730998 31.279277 50.041662 -0.905511 0.895582 0.030863 -0.005161 -423511.000000 0 0 1
24.717733 -30.329928 30.069327 49.346077 -0.886999 0.915548 0.027846 -0.004176 -261807.000000 0 0 1
25.642733 -29.288048 30.259397 49.304874 -0.851663 0.910032 0.027054 -0.006428 276257.000000 0 0 1
26.886633 -29.361148 29.325117 49.446239 -0.829363 0.935929 0.030155 -0.003888 294321.000000 0 0 1
27.865833 -30.349198 29.631957 50.750678 -0.828031 0.947305 0.029611 0.004319 -321316.000000 0 0 1
28.738433 -30.440128 28.565217 50.680080 -0.814146 0.972013 0.028775 -0.005213 -382798.000000 0 0 1
29.849633 -31.471348 28.887357 52.114544 -0.811838 0.983269 0.031258 0.002723 7319.850000 0 0 1
29.335633 -32.789148 28.933457 52.657882 -0.840931 0.989077 0.037452 0.002499 258436.000000 0 0 1
30.345333 -33.792588 28.945467 53.857389 -0.839094 1.003390 0.046952 -0.003631 -264470.000000 0 0 1
29.709333 33.354186 29.240497 53.386823 0.843130 0.991172 0.037267 0.003991 3521.240000 0 0 1
29.104133 33.226978 30.537607 53.699423 0.851446 0.965900 0.031436 0.007065 623418.000000 0 0 1
28.086333 34.092125 31.058717 53.997769 0.881689 0.957966 0.011772 0.015421 285093.000000 0 0 1
26.665533 33.976946 30.439107 52.839595 0.905385 0.956888 0.026242 0.015074 -133628.000000 0 0 1
26.214433 32.714630 30.750137 51.990523 0.895259 0.937932 0.024326 0.016980 382180.000000 0 0 1
24.782033 32.655073 30.882787 51.324940 0.921622 0.925155 0.012081 0.009887 994290.000000 0 0 1
24.285833 31.206437 30.816107 50.132583 0.909471 0.908801 0.014390 0.000332 -425071.000000 0 0 1
24.163933 30.672597 29.551707 48.969452 0.903538 0.922948 0.022180 -0.001503 141793.000000 0 0 1
23.796633 29.255897 29.598997 47.940462 0.887940 0.905348 0.055009 -0.022124 -159873.000000 0 0 1
23.251533 28.889087 28.155417 46.561150 0.893102 0.921410 0.065709 -0.028619 132442.000000 0 0 1
22.090133 29.631877 27.800587 46.248187 0.930191 0.925898 0.075905 -0.027653 110464.000000 0 0 1
21.621833 29.146047 26.552047 44.966731 0.932535 0.939140 0.086734 -0.026539 123395.000000 0 0 1
20.259333 29.736417 26.120657 44.463286 0.972733 0.942873 0.083077 -0.026361 11145.900000 0 0 1
20.181133 31.100837 25.755627 45.143023 0.995199 0.963640 0.085656 -0.028774 -366073.000000 0 0 1
18.866033 31.551297 25.553067 44.770200 1.031887 0.963364 0.072382 -0.018038 -538275.000000 0 0 1
18.833733 32.986314 24.953897 45.447810 1.052007 0.989549 0.075940 -0.013641 -416462.000000 0 0 1
19.256033 33.180445 23.640897 45.062498 1.044956 1.018522 0.088277 -0.018863 -57873.500000 0 0 1
20.609133 33.568669 23.669097 45.954521 1.020190 1.029725 0.085325 -0.014444 -334300.000000 0 0 1
21.349933 33.777402 22.361327 45.790408 1.007124 1.060609 0.102447 -0.022800 -129816.000000 0 0 1
21.078533 -33.518238 21.742527 45.172053 -1.009421 1.068628 0.094693 -0.010699 549272.000000 0 0 1
21.816033 -33.394838 20.504127 44.850571 -0.992122 1.095991 0.124186 -0.015120 300335.000000 0 0 1
21.551133 -32.086998 19.726527 43.395422 -0.979354 1.098900 0.097290 -0.013262 -219787.000000 0 0 1
22.035533 -30.931748 20.430927 43.124941 -0.951802 1.077239 0.088344 -0.007772 171117.000000 0 0 1
21.711633 -29.696958 19.862327 41.806894 -0.939497 1.075722 0.095543 -0.018967 -362123.000000 0 0 1
22.376733 -29.187118 18.542127 41.187577 -0.916715 1.103821 0.074682 -0.018951 -333580.000000 0 0 1
21.957533 -29.881418 17.395727 40.959049 -0.937080 1.132155 0.062977 -0.019575 376181.000000 0 0 1
22.539333 -29.307718 16.239027 40.381554 -0.915209 1.156944 0.049075 -0.015073 -444812.000000 0 0 1
22.041333 -29.945808 15.011127 40.098700 -0.936289 1.187096 0.043315 -0.017862 -351936.000000 0 0 1
22.500333 -31.278188 14.828427 41.285255 -0.947194 1.203418 0.080808 -0.017526 -15640.700000 0 0 1
22.782533 -31.564948 13.483827 41.197128 -0.945611 1.237351 0.070867 -0.013319 101590.000000 0 0 1
21.593333 -31.644158 12.461427 40.285381 -0.971994 1.256309 0.059178 -0.011829 95008.200000 0 0 1
20.743133 -32.716698 12.683727 40.761953 -1.005735 1.254377 0.053510 -0.011874 -951926.000000 0 0 1
19.512133 -32.645338 12.080427 39.904613 -1.032069 1.263238 0.049551 -0.001553 -286913.000000 0 0 1
18.344533 -33.425398 12.771027 40.210425 -1.068859 1.247594 0.061076 0.000246 391298.000000 0 0 1
17.878133 -32.770908 13.967127 39.857756 -1.071377 1.212772 0.060575 0.007773 483294.000000 0 0 1
18.384033 -33.383358 15.178927 41.022203 -1.067420 1.191769 0.052810 -0.005090 -756813.000000 0 0 1
18.160833 -32.544538 16.477327 40.748805 -1.061809 1.154514 0.054553 -0.009397 831897.000000 0 0 1
16.800533 -32.205828 16.838627 40.037640 -1.089970 1.136723 0.058060 -0.008708 1244580.000000 0 0 1
15.931333 -33.304858 17.091627 40.683469 -1.124619 1.137227 0.063568 -0.008997 -753614.000000 0 0 1
16.113133 -33.976258 18.479427 41.898788 -1.127963 1.114029 0.054756 -0.009915 -995169.000000 0 0 1
17.061533 33.556395 18.343427 41.876113 1.100417 1.117379 0.056709 -0.009789 -342478.000000 0 0 1
17.295833 32.984171 19.623027 42.097085 1.087845 1.085877 0.053372 -0.013802 -9169.740000 0 0 1
18.095533 31.675557 19.599427 41.411674 1.051764 1.077783 0.069624 -0.019591 87241.900000 0 0 1
17.404733 30.501507 19.112727 39.982034 1.052261 1.072383 0.033233 -0.013695 -1026760.000000 0 0 1
18.285933 29.463697 18.925427 39.505146 1.015349 1.071210 0.044323 -0.021718 -1073490.000000 0 0 1
17.780633 28.101837 18.537527 38.072353 1.006664 1.062256 0.047885 -0.016924 -636408.000000 0 0 1
17.146033 27.513807 19.637327 37.902779 1.013507 1.026171 0.061208 -0.022043 -149455.000000 0 0 1
16.853033 26.132497 19.424127 36.663727 0.998010 1.012442 0.053758 -0.018925 -605745.000000 0 0 1
16.821833 25.257877 20.700027 36.734528 0.983253 0.972176 0.066956 -0.017475 194595.000000 0 0 1
15.693033 25.414277 21.550527 36.831807 1.017617 0.945785 0.067273 -0.018397 380651.000000 0 0 1
14.710333 24.396367 21.310827 35.577071 1.028194 0.928539 0.054770 -0.017498 -258554.000000 0 0 1
13.432933 24.686657 22.082427 35.742248 1.072465 0.904824 0.047672 -0.031389 -471860.000000 0 0 1
12.701633 25.782917 21.547627 35.922006 1.113056 0.927489 0.044600 -0.030432 442247.000000 0 0 1
11.468833 26.012997 22.232927 36.090348 1.155545 0.907097 0.036114 -0.029644 1041090.000000 0 0 1
10.511933 27.137397 21.634527 36.262816 1.201234 0.931534 0.010670 -0.022844 298348.000000 0 0 1
11.048533 28.431607 21.749127 37.462660 1.200156 0.951386 0.006122 -0.020114 -175347.000000 0 0 1
10.613933 29.210737 20.683027 37.332430 1.222272 0.983607 0.011830 -0.023087 -61385.900000 0 0 1
10.989933 30.708447 20.755027 38.659520 1.227119 1.004077 -0.007032 -0.017657 72785.500000 0 0 1
10.367733 31.488957 21.776427 39.664305 1.252725 0.989607 0.008745 -0.014406 -598702.000000 0 0 1
11.231933 31.624497 22.852927 40.601988 1.229527 0.972964 0.030584 -0.020015 -496281.000000 0 0 1
10.854733 32.574560 23.995887 41.889495 1.249141 0.960832 0.034943 -0.020353 661995.000000 0 0 1
9.732833 32.032987 24.740407 41.628452 1.275822 0.934383 0.018749 -0.009510 465010.000000 0 0 1
9.581233 32.456757 26.089167 42.730384 1.283749 0.914038 0.015039 -0.011221 -660720.000000 0 0 1
8.147233 32.269327 26.659297 42.642760 1.323489 0.895437 0.079737 -0.026222 245147.000000 0 0 1
7.234233 33.259555 26.135437 42.913788 1.356624 0.915969 0.079453 -0.020567 583925.000000 0 0 1
6.640133 32.951654 24.861767 41.809214 1.371948 0.933969 0.063163 -0.030605 -83551.300000 0 0 1
5.530333 31.862427 24.763427 40.731145 1.398939 0.917292 0.056011 -0.027320 -366769.000000 0 0 1
6.022033 30.577217 24.968757 39.933319 1.376340 0.895330 0.046171 -0.026337 -855271.000000 0 0 1
5.176633 29.486327 24.772687 38.857780 1.397007 0.879519 0.033605 -0.023926 -658295.000000 0 0 1
5.996633 28.126697 24.830657 37.995161 1.360741 0.858569 0.036368 -0.018694 620688.000000 0 0 1
7.018433 27.977607 23.861077 37.434689 1.325009 0.879670 0.027682 -0.016711 783720.000000 0 0 1
8.182433 28.806947 23.832227 38.272281 1.294042 0.898605 0.042870 -0.016291 -376849.000000 0 0 1
9.312433 28.407927 24.768637 38.822894 1.254024 0.878911 0.033235 -0.028855 -995682.000000 0 0 1
8.996733 28.554937 26.170767 39.764742 1.265574 0.852451 0.040423 -0.025438 1112460.000000 0 0 1
10.111633 28.053577 26.950177 40.194034 1.224851 0.835911 0.044206 -0.014435 413089.000000 0 0 1
11.316433 28.942227 27.156947 41.270013 1.198072 0.852595 0.049491 -0.014832 -950923.000000 0 0 1
11.173433 29.957167 28.113777 42.575368 1.213798 0.849539 0.064140 -0.021034 48870.200000 0 0 1
12.298933 30.807377 28.152297 43.507586 1.190962 0.867066 0.070338 -0.007187 -238320.000000 0 0 1
12.016233 32.119717 28.948067 44.878243 1.212808 0.869726 0.052175 -0.018097 -1711.920000 0 0 1
11.651333 31.986397 30.321477 45.588103 1.221476 0.843144 0.063033 -0.035766 817703.000000 0 0 1
10.260133 31.729527 30.552537 45.227102 1.258046 0.829105 0.093273 -0.034534 663603.000000 0 0 1
9.856533 31.506917 32.091287 46.040067 1.267604 0.799550 0.123198 -0.034787 133905.000000 0 0 1
10.354133 30.296507 32.599945 45.692919 1.241481 0.776376 0.102677 -0.039797 273431.000000 0 0 1
10.789233 30.434717 33.960256 46.861269 1.230115 0.760201 0.101895 -0.034625 -54903.400000 0 0 1
10.976633 29.118527 -33.831901 45.967082 1.210305 2.397943 0.085707 -0.034684 178868.000000 0 0 1
12.095133 28.360437 34.206738 46.051141 1.167674 0.733555 0.092710 -0.031268 481451.000000 0 0 1
12.180333 27.074297 -33.742901 44.943981 1.148038 2.420034 0.095967 -0.030635 298943.000000 0 0 1
13.398233 26.262147 34.203613 45.156397 1.099044 0.711401 0.105048 -0.029850 471456.000000 0 0 1
13.334133 24.903147 -34.010931 44.212094 1.079201 2.448490 0.079656 -0.030724 -152182.000000 0 0 1
13.553533 24.560057 -32.636171 43.035036 1.066532 2.431594 0.077671 -0.032504 -345546.000000 0 0 1
13.431333 23.042337 -32.316551 41.901187 1.043047 2.451609 0.064627 -0.046616 -241105.000000 0 0 1
14.521733 22.346337 -32.867401 42.314366 0.994528 2.460275 0.070662 -0.035661 -58417.800000 0 0 1
14.417833 20.937137 -32.758751 41.465328 0.967746 2.481650 0.071102 -0.036830 -239730.000000 0 0 1
15.659433 20.146037 -33.227781 41.894702 0.910053 2.486721 0.083541 -0.047522 541855.000000 0 0 1
16.800733 20.565637 -32.469841 41.946402 0.885816 2.456056 0.077664 -0.043399 -115168.000000 0 0 1
17.986833 19.947737 -32.908321 42.478182 0.837044 2.457054 0.084335 -0.041861 -718700.000000 0 0 1
19.100033 20.170237 -31.918471 42.313574 0.812644 2.425432 0.061319 -0.039088 -388304.000000 0 0 1
19.854033 21.374037 -32.163571 43.422660 0.822250 2.404922 0.053624 -0.033353 1068920.000000 0 0 1
20.955233 21.717337 -31.265781 43.454730 0.803256 2.373882 0.041516 -0.017998 1205420.000000 0 0 1
20.599733 22.139037 -29.787121 42.447127 0.821399 2.348642 0.039912 -0.023415 -208330.000000 0 0 1
19.759833 23.252937 -29.797101 42.649939 0.866431 2.344296 0.020777 -0.007793 -289033.000000 0 0 1
19.283933 23.653707 -28.542961 41.785985 0.886819 2.322761 0.036661 0.001937 -220549.000000 0 0 1
20.313333 24.297647 -27.547331 41.974547 0.874474 2.286683 0.018842 0.004521 111095.000000 0 0 1
20.964133 25.477167 -28.021541 43.287269 0.882271 2.274884 0.027981 0.002756 -518479.000000 0 0 1
20.192933 26.572007 -28.420831 43.835713 0.920969 2.276210 0.021178 0.007002 -922497.000000 0 0 1
20.960733 27.560577 -29.342691 45.386466 0.920588 2.273794 0.027358 0.003270 -198098.000000 0 0 1
21.162933 27.220837 -30.717151 46.177777 0.909955 2.298549 0.025153 0.007281 397778.000000 0 0 1
21.887733 26.028887 -31.088431 46.076744 0.871608 2.311368 0.032458 0.003684 1115190.000000 0 0 1
23.309733 25.732127 -30.459821 46.187517 0.834752 2.290925 0.048526 -0.005673 992630.000000 0 0 1
24.255133 26.767097 -30.767481 47.449203 0.834591 2.276316 0.045260 -0.009539 242549.000000 0 0 1
25.567033 26.403907 -30.398251 47.695840 0.801500 2.261832 0.056466 -0.017719 -147070.000000 0 0 1
26.691533 27.312127 -30.898261 49.123241 0.796889 2.251056 0.053514 -0.009012 -308579.000000 0 0 1
26.804333 28.495867 -30.098391 49.359901 0.815977 2.226572 0.041581 -0.006690 -17071.200000 0 0 1
27.927833 29.177267 -30.600291 50.672030 0.807274 2.219168 0.046141 -0.010730 74808.900000 0 0 1
28.256033 30.578527 -30.013311 51.324931 0.824853 2.195394 0.039128 -0.004785 76794.700000 0 0 1
28.796733 30.535397 -28.706691 50.850137 0.814694 2.170666 0.049623 -0.009576 -65805.700000 0 0 1
28.095233 31.389277 -27.873991 50.513248 0.840718 2.155336 0.048235 -0.002232 -370660.000000 0 0 1
28.570733 31.310637 -26.381581 49.926252 0.831122 2.127524 0.058596 0.003418 -46457.600000 0 0 1
28.516233 30.022537 -25.814311 48.794538 0.811124 2.128266 0.056040 0.006909 1234770.000000 0 0 1
27.184533 29.441687 -25.667531 47.588170 0.825238 2.140483 0.066975 0.004631 1214810.000000 0 0 1
26.542933 29.548357 -24.249211 46.536619 0.838928 2.118910 0.067153 0.009075 -107636.000000 0 0 1
26.198433 30.834107 -23.918511 47.002077 0.866501 2.104682 0.088046 0.004925 80228.900000 0 0 1
25.787533 30.943127 -22.539511 46.157378 0.876028 2.080958 0.069805 0.018188 270021.000000 0 0 1
3.139433 -26.674848 -19.960011 33.463497 -1.453643 2.209894 0.051710 -0.002426 -319611.000000 0 0 1
3.087733 -27.565658 -18.899411 33.564674 -1.459248 2.168898 0.053177 0.009423 96700.500000 0 0 1
3.390533 -26.849268 -17.727611 32.351926 -1.445181 2.150722 0.075477 0.005513 -112012.000000 0 0 1
3.346733 -27.665158 -16.408911 32.339047 -1.450408 2.102964 0.074882 -0.004548 -89200.700000 0 0 1
4.566833 -28.239868 -16.033211 32.793444 -1.410469 2.081642 0.069280 0.001102 -210834.000000 0 0 1
4.362733 -28.873728 -14.790611 32.733588 -1.420834 2.039632 0.066964 -0.012912 707211.000000 0 0 1
5.661133 -29.692768 -14.443011 33.500888 -1.382400 2.016534 0.090621 -0.004241 759453.000000 0 0 1
6.788633 -28.831918 -14.267611 32.877497 -1.339553 2.019683 0.069327 -0.004152 98567.100000 0 0 1
8.008533 -29.521328 -14.030411 33.652606 -1.305892 2.000849 0.067105 -0.000933 270041.000000 0 0 1
8.246433 -30.051048 -12.615311 33.618674 -1.302975 1.955460 0.052427 -0.003863 -1173970.000000 0 0 1
8.869533 -29.127978 -11.745011 32.635150 -1.275214 1.938945 0.056174 -0.015586 -12923.000000 0 0 1
8.931033 -29.616408 -10.415211 32.640031 -1.277912 1.895569 0.060551 -0.015879 -420995.000000 0 0 1
9.958333 -30.731198 -10.177811 33.869792 -1.257427 1.876011 0.056569 -0.005291 -560792.000000 0 0 1
11.238633 -30.267508 -9.829911 33.749905 -1.215265 1.866337 0.058395 -0.011015 170066.000000 0 0 1
12.044133 -31.390588 -9.411311 34.914223 -1.204432 1.843727 0.066983 -0.010894 58091.500000 0 0 1
13.177033 -31.023558 -8.451411 34.749413 -1.169144 1.816470 0.070717 -0.014694 364377.000000 0 0 1
14.252933 -30.279748 -9.058411 34.670796 -1.130855 1.835133 0.071310 -0.015475 857997.000000 0 0 1
15.335333 -30.060088 -8.172911 34.721432 -1.099057 1.808411 0.067192 -0.015733 784123.000000 0 0 1
16.634533 -29.429798 -8.820911 34.937504 -1.056337 1.826036 0.067042 -0.018217 793640.000000 0 0 1
16.609333 -28.020328 -9.088511 33.817300 -1.035717 1.842895 0.067902 -0.019087 363534.000000 0 0 1
15.877233 -27.737538 -10.303511 33.580052 -1.050911 1.882661 0.051469 -0.018382 220723.000000 0 0 1
15.556433 -26.194448 -10.512111 32.228190 -1.034887 1.903053 0.053455 -0.018835 -559780.000000 0 0 1
14.568833 -25.669998 -9.651711 31.054069 -1.054584 1.886835 0.044237 -0.023459 223362.000000 0 0 1
14.009233 -24.392798 -9.968111 29.843432 -1.049474 1.911355 0.032235 -0.019762 295000.000000 0 0 1
13.402733 -24.115098 -11.386311 29.846596 -1.063525 1.962209 0.019284 -0.019979 22944.800000 0 0 1
14.351333 -23.761998 -12.396411 30.401716 -1.027469 1.990789 0.011613 -0.012401 247191.000000 0 0 1
13.608133 -23.597898 -13.609311 30.450869 -1.047710 2.034123 0.022945 -0.012554 -34879.000000 0 0 1
14.386833 -23.127698 -14.846111 31.020613 -1.014313 2.069843 0.000892 -0.006664 -354890.000000 0 0 1
15.306933 -24.036898 -15.389611 32.386954 -1.003750 2.065964 0.005251 -0.001547 133382.000000 0 0 1
15.709433 -23.655298 -16.737311 32.962054 -0.984574 2.103397 0.000579 -0.003254 -453636.000000 0 0 1
16.854633 -24.475398 -17.388411 34.430809 -0.967738 2.100207 0.014411 -0.007626 424369.000000 0 0 1
18.134533 -24.468798 -16.792511 34.778899 -0.932997 2.074687 0.031836 -0.011997 169277.000000 0 0 1
18.897033 -23.273298 -16.925611 34.427033 -0.888804 2.084765 0.034289 -0.017268 -155833.000000 0 0 1
20.391033 -23.525898 -16.598111 35.281148 -0.856659 2.060600 0.035878 -0.014359 -11844.700000 0 0 1
21.043733 -24.447598 -17.394511 36.648230 -0.860083 2.065345 0.050550 -0.009538 -286589.000000 0 0 1
22.375033 -24.590898 -16.927511 37.308109 -0.832543 2.041734 0.061530 0.008714 357589.000000 0 0 1
23.097733 -25.787408 -17.637911 38.853463 -0.840363 2.042001 0.062271 -0.001449 -179138.000000 0 0 1
23.380533 -25.528348 -19.045211 39.510327 -0.829285 2.073768 0.073230 -0.004241 -41623.600000 0 0 1
23.826633 -26.724838 -19.602011 40.818675 -0.842667 2.071704 0.064754 -0.014891 -1248990.000000 0 0 1
25.150533 -26.614658 -20.302011 41.869571 -0.813675 2.077030 0.066563 -0.013742 -841123.000000 0 0 1
25.183933 -25.770628 -21.477511 41.948054 -0.796912 2.108311 0.069102 -0.022111 -356652.000000 0 0 1
25.743033 -24.477198 -21.304411 41.421189 -0.760198 2.111030 0.075948 -0.027046 -724915.000000 0 0 1
24.777333 -23.290298 -21.225511 40.085865 -0.754472 2.128809 0.089030 -0.018910 -139888.000000 0 0 1
24.431133 -22.626998 -22.439611 40.154669 -0.747079 2.163770 0.088173 -0.014088 -164523.000000 0 0 1
23.732233 -23.378098 -23.392711 40.705937 -0.777881 2.183004 0.056356 -0.012272 -565536.000000 0 0 1
22.984833 -22.454698 -24.372611 40.330388 -0.773732 2.219713 0.044865 -0.006949 -113517.000000 0 0 1
23.896233 -21.696098 -25.129901 40.905532 -0.737179 2.232345 0.036425 0.002275 -195382.000000 0 0 1
23.227933 -20.866898 -26.046681 40.661947 -0.731905 2.266032 0.021900 0.008942 117392.000000 0 0 1
24.044233 -20.191898 -27.214631 41.550861 -0.698532 2.284941 0.028516 0.010758 286269.000000 0 0 1
23.161033 -19.328198 -27.961231 41.132021 -0.695434 2.318276 0.018649 0.010607 412057.000000 0 0 1
23.620933 -18.772198 -29.171331 41.967969 -0.671518 2.339335 0.026569 0.003453 -330940.000000 0 0 1
22.575933 -17.888798 -29.880971 41.503666 -0.670079 2.374541 0.046857 -0.003170 56326.000000 0 0 1
21.454033 -18.562798 -30.439961 41.610627 -0.713273 2.391379 0.052473 -0.005088 299720.000000 0 0 1
20.490633 -17.601098 -30.787301 40.957571 -0.709686 2.421414 0.056716 -0.014581 -397482.000000 0 0 1
19.174933 -18.105198 -31.378361 40.988752 -0.756712 2.442670 0.053675 -0.013308 -183790.000000 0 0 1
19.334833 -18.496498 -32.749051 42.290147 -0.763242 2.456546 0.059886 -0.010932 475035.000000 0 0 1
18.178333 -19.249598 -33.107531 42.392304 -0.814012 2.467029 0.058889 -0.014934 283048.000000 0 0 1
18.372433 -20.131498 34.131758 43.678375 -0.831052 0.673836 0.079467 -0.011654 -365862.000000 0 0 1
19.172933 -21.213998 -34.099783 44.502026 -0.835893 2.443785 0.070361 -0.009012 -136293.000000 0 0 1
19.586433 -21.983898 33.244530 44.408546 -0.843007 0.724838 0.058776 -0.014114 -98595.800000 0 0 1
20.384433 -23.232298 33.689849 45.719479 -0.850599 0.742350 0.049974 -0.008640 13805.500000 0 0 1
19.734433 -24.282898 -34.074841 46.262315 -0.888366 2.398762 0.057657 -0.009716 37797.500000 0 0 1
19.547533 -23.953698 -32.697541 45.000166 -0.886342 2.384170 0.063410 -0.011366 52469.300000 0 0 1
18.723233 -25.059538 -31.904041 44.681179 -0.929122 2.366045 0.067314 -0.017621 81525.900000 0 0 1
19.247233 -26.410938 -31.952511 45.705105 -0.941028 2.344937 0.065743 -0.028695 185260.000000 0 0 1
20.408333 -26.628838 -31.177551 45.799943 -0.916882 2.319560 0.055527 -0.023550 98164.100000 0 0 1
20.670933 -28.166678 -30.996431 46.705760 -0.937693 2.296488 0.063496 -0.032376 -700865.000000 0 0 1
19.646833 -28.750758 -30.294871 46.156076 -0.971332 2.286776 0.067314 -0.034310 -579621.000000 0 0 1
19.655933 -30.143458 -30.565361 47.214670 -0.992961 2.274925 0.078048 -0.026765 -254734.000000 0 0 1
18.441533 -30.893598 -29.963701 46.822302 -1.032632 2.265223 0.098351 -0.029772 1374660.000000 0 0 1
17.211233 -30.768528 -30.740591 46.775130 -1.060782 2.287893 0.109214 -0.034472 992131.000000 0 0 1
17.123533 -31.662238 -31.848801 48.063072 -1.075029 2.295143 0.112765 -0.035036 195470.000000 0 0 1
15.674233 -31.850048 -32.403411 48.063377 -1.113468 2.310651 0.116904 -0.040969 513438.000000 0 0 1
15.003733 -30.834278 -33.060001 47.632220 -1.117932 2.337921 0.109644 -0.036336 -301277.000000 0 0 1
13.712333 -31.231938 -33.442741 47.769017 -1.157087 2.346324 0.080515 -0.027087 100851.000000 0 0 1
12.821233 -30.311808 34.206472 47.468647 -1.170639 0.766112 0.077184 -0.022726 188798.000000 0 0 1
12.042133 -29.460008 -33.499191 46.207152 -1.182759 2.381799 0.082626 -0.033857 223226.000000 0 0 1
10.981833 -28.919268 34.216421 46.126871 -1.207876 0.735062 0.061465 -0.032033 16696.900000 0 0 1
10.080333 -27.992178 -33.490441 44.797152 -1.225141 2.415240 0.063063 -0.034801 -588160.000000 0 0 1
9.174533 -28.732618 -32.748061 44.521578 -1.261722 2.397282 0.050388 -0.023907 -720433.000000 0 0 1
8.220433 -27.885498 -32.142811 43.339784 -1.284124 2.406318 0.018440 -0.022949 601181.000000 0 0 1
7.079733 -28.718878 -31.426501 43.156941 -1.329097 2.386475 0.015425 -0.021130 453535.000000 0 0 1
6.169733 -29.407768 -32.271501 44.094583 -1.363996 2.391858 0.023176 -0.017921 262858.000000 0 0 1
6.569533 -30.701948 -32.627061 45.280167 -1.359997 2.375405 0.023614 -0.011733 149989.000000 0 0 1
5.268233 -31.527798 -32.827251 45.819044 -1.405228 2.369503 0.026381 -0.017182 1097790.000000 0 0 1
4.527733 -31.860248 -31.598301 45.100204 -1.429629 2.347068 0.025811 -0.028613 986092.000000 0 0 1
3.646233 -33.001878 -31.736291 45.930504 -1.460757 2.333617 0.049950 -0.058984 -297840.000000 0 0 1
2.718533 -33.156848 -30.506421 45.137664 -1.488989 2.312918 0.043233 -0.061382 34943.900000 0 0 1
1.739133 -32.170338 -30.313581 44.236506 -1.516789 2.325759 0.049548 -0.051845 -142278.000000 0 0 1
0.561233 -32.333648 -31.072911 44.847582 -1.553441 2.336238 0.045610 -0.025975 166448.000000 0 0 1
-0.521167 -31.264138 -30.590981 43.743869 1.554128 2.345243 0.048386 -0.029369 402419.000000 0 0 1
-1.045567 -31.206888 -29.317471 42.830797 1.537304 2.324707 0.042011 -0.035967 -84040.300000 0 0 1
-1.797667 -30.033048 -29.109771 41.863999 1.511011 2.339691 0.063526 -0.028572 -158738.000000 0 0 1
-2.478067 -30.037848 -27.744051 40.965175 1.488485 2.314828 0.058221 -0.028162 -477607.000000 0 0 1
-1.543867 -30.007308 -26.660461 40.169668 1.519392 2.296546 0.044407 -0.025027 -130645.000000 0 0 1
-2.095167 -30.272408 -25.405181 39.575645 1.501696 2.267822 0.043964 -0.023708 106673.000000 0 0 1
-1.078567 -30.722188 -24.287211 39.177606 1.535704 2.239445 0.038827 -0.014310 285984.000000 0 0 1
-1.609867 -30.856398 -22.998711 38.518174 1.518671 2.210661 0.055422 -0.022363 381252.000000 0 0 1
-0.604267 -31.304088 -22.057511 38.299411 1.551496 2.184529 0.055053 -0.013508 983963.000000 0 0 1
-1.181967 -31.190738 -20.571411 37.382378 1.532920 2.153516 0.027759 -0.001976 410855.000000 0 0 1
-1.343667 -29.851298 -20.042311 35.980546 1.525815 2.161604 0.033256 0.001310 -96900.500000 0 0 1
-0.162167 -29.326588 -19.479811 35.207075 1.565267 2.157108 0.052406 -0.004617 -146594.000000 0 0 1
-0.238167 -27.887498 -18.950311 33.717704 1.562256 2.167633 0.044785 0.000562 361347.000000 0 0 1
-1.149267 -27.679558 -17.824711 32.942360 1.529300 2.142526 0.049362 -0.001780 712567.000000 0 0 1
-0.910967 -26.420978 -17.221111 31.550985 1.536331 2.148162 0.054456 -0.003349 346101.000000 0 0 1
-2.025467 -26.235348 -16.151311 30.874923 1.493745 2.121305 0.049722 -0.004409 46072.400000 0 0 1
-2.059967 -25.010598 -15.484711 29.488129 1.488618 2.123649 0.041616 -0.002744 -172163.000000 0 0 1
-2.994167 -24.838098 -14.450611 28.891458 1.450828 2.094590 0.042417 -0.006678 -117947.000000 0 0 1
-2.819567 -23.441498 -13.768711 27.331872 1.451090 2.098743 0.036865 -0.005782 734521.000000 0 0 1
-1.629467 -23.455798 -12.955111 26.845196 1.501438 2.074401 0.044047 -0.008204 450114.000000 0 0 1
-1.406367 -22.206998 -12.287811 25.418870 1.507551 2.075346 0.035938 -0.001999 -252283.000000 0 0 1
-0.302367 -22.439798 -11.278511 25.116544 1.557323 2.036495 0.032574 -0.005939 -313465.000000 0 0 1
0.162333 -21.217998 -10.736211 23.780161 -1.563146 2.039217 0.030024 -0.004076 -58424.300000 0 1 0
1.319933 -21.523098 -9.957111 23.751422 -1.509547 2.003384 0.020923 -0.005424 502258.000000 0 1 0
2.077733 -20.228898 -9.534911 22.459738 -1.468444 2.009243 0.022424 -0.001877 -962124.000000 0 1 0
2.520133 -19.571498 -10.729311 22.461361 -1.442736 2.068807 0.023664 0.007763 77420.600000 0 1 0
3.222433 -18.351398 -10.510911 21.392455 -1.396972 2.084421 0.008912 0.004269 213854.000000 0 1 0
4.632433 -18.427598 -9.889911 21.420695 -1.324514 2.050706 0.025491 -0.016433 -308237.000000 0 1 0
4.585633 -18.845098 -8.560911 21.200353 -1.332102 1.986474 0.024351 -0.018458 -168257.000000 0 1 0
5.647533 -19.751398 -8.346011 22.173594 -1.292297 1.956697 0.034071 -0.012073 -62577.200000 0 1 0
5.203033 -20.727398 -7.166611 22.540118 -1.324856 1.894362 0.035570 -0.020859 385630.000000 0 1 0
4.182733 -21.599198 -7.643311 23.290359 -1.379512 1.905167 0.028483 -0.026781 42358.500000 0 1 0
4.049133 -22.687798 -6.762511 24.017977 -1.394184 1.856216 0.043347 -0.025320 62755.200000 0 1 0
3.278133 -23.880298 -7.393011 25.212525 -1.434375 1.868398 0.042564 -0.020942 233624.000000 0 0 1
3.864633 -24.482198 -8.556211 26.220644 -1.414233 1.903200 0.058279 -0.022979 -68366.200000 0 0 1
3.025233 -25.482988 -9.089711 27.224209 -1.452634 1.911217 0.052033 -0.019010 -33911.800000 0 0 1
3.704733 -26.340958 -10.148711 28.470467 -1.431068 1.935277 0.052483 -0.016211 -13328.400000 0 0 1
4.717633 -27.175268 -9.597011 29.203662 -1.398909 1.905642 0.058437 -0.023456 291655.000000 0 0 1
5.443933 -27.857988 -10.638511 30.313064 -1.377811 1.929387 0.074608 -0.011354 236330.000000 0 0 1
5.235433 -29.399218 -10.594911 31.685579 -1.394563 1.911740 0.053726 -0.014130 -393307.000000 0 0 1
3.986333 -29.737648 -11.156311 32.010652 -1.437541 1.926787 0.056472 -0.011334 -109124.000000 0 0 1
3.871333 -31.081738 -11.434811 33.343914 -1.446881 1.920836 0.061891 -0.014204 -550456.000000 0 0 1
2.470933 -31.672168 -11.643011 33.834767 -1.492938 1.922091 0.060190 -0.020934 -418332.000000 0 0 1
2.075433 -31.537428 -12.972211 34.164237 -1.505083 1.960270 0.071474 -0.025443 40061.500000 0 0 1
1.491433 -32.716728 -13.398011 35.385242 -1.525242 1.959115 0.070532 -0.022084 -396188.000000 0 0 1
0.937933 -32.709978 -14.824611 35.924803 -1.542130 1.996165 0.080648 -0.021896 -187674.000000 0 0 1
-0.151267 -31.858638 -15.044511 35.232556 1.566048 2.011975 0.077401 -0.018569 -98856.400000 0 0 1
-0.685867 -31.973628 -16.322411 35.905493 1.549349 2.042712 0.047807 -0.011824 885415.000000 0 0 1
-1.944367 -31.118268 -16.780511 35.407806 1.508394 2.064535 0.054373 -0.002602 1147760.000000 0 0 1
-3.113067 -31.371888 -16.021411 35.363430 1.471889 2.040980 0.053164 -0.007980 1059950.000000 0 0 1
-4.310467 -30.860668 -16.655411 35.332191 1.432019 2.061668 0.053819 0.000653 1868580.000000 0 0 1
-5.686267 -30.956328 -15.910311 35.267065 1.389135 2.038836 0.044863 -0.014213 699427.000000 0 0 1
-5.819167 -30.058098 -14.830711 34.019141 1.379565 2.021892 0.027382 -0.015396 759839.000000 0 0 1
-7.184067 -29.926418 -14.386211 33.972995 1.335197 2.008058 0.043745 -0.016244 1105860.000000 0 0 1
-7.795967 -30.955928 -13.374911 34.611195 1.324086 1.967557 0.036045 -0.023698 75181.600000 0 0 1
-8.008867 -32.207158 -13.991411 36.016699 1.327072 1.969767 0.053011 -0.029381 -157717.000000 0 0 1
-8.851667 -33.008018 -13.194911 36.633140 1.308794 1.939268 0.041859 -0.027473 -138797.000000 0 0 1
-9.211267 34.093986 -13.682311 37.874173 -1.306923 1.940412 0.080311 -0.033209 -503253.000000 0 0 1
-8.074667 33.289449 -13.755411 36.913399 -1.332833 1.952649 0.081654 -0.029060 -178470.000000 0 0 1
-8.322167 32.060027 -14.439311 36.133053 -1.316821 1.981893 0.104867 -0.037720 -337409.000000 0 0 1
-7.637167 -22.614398 -3.491211 24.123140 1.245110 1.716031 0.047872 0.006915 224326.000000 0 1 0
-7.601067 -21.493898 -4.301511 23.200579 1.230884 1.757281 0.049569 0.002107 -394469.000000 0 1 0
-6.313967 -21.250998 -4.799011 22.682628 1.281989 1.783980 0.044945 -0.003737 -101864.000000 0 1 0
-6.280567 -20.093598 -5.843611 21.848250 1.267852 1.841556 0.052489 -0.015663 -152534.000000 0 1 0
-6.951067 -20.353198 -7.017911 22.623463 1.241694 1.886205 0.045106 -0.011359 -443657.000000 0 1 0
-6.878767 -19.225398 -7.929811 21.904686 1.227193 1.941224 0.031989 -0.015512 -344390.000000 0 1 0
-7.925867 -19.288798 -9.030411 22.724996 1.180924 1.979454 0.035113 -0.024485 54599.100000 0 1 0
-7.503967 -20.221398 -10.014911 23.780516 1.215458 2.005497 0.042204 -0.011578 -661918.000000 0 1 0
-8.441267 -20.271798 -11.004311 24.562078 1.176229 2.035346 0.051227 -0.006960 -443724.000000 0 1 0
-7.978467 -21.165698 -12.174111 25.687579 1.210315 2.064545 0.041922 -0.004179 -49179.200000 0 0 1
-6.986867 -20.573698 -12.980211 25.309667 1.243415 2.109304 0.040154 0.001369 -315936.000000 0 0 1
-6.668167 -21.448198 -14.054411 26.495587 1.269373 2.129920 0.030316 0.003807 286543.000000 0 0 1
-5.695367 -20.812198 -15.101111 26.336825 1.303681 2.181427 0.017920 0.013717 1119980.000000 0 0 1
-4.313867 -20.774398 -14.685811 25.804227 1.366053 2.176237 0.018735 0.011786 727318.000000 0 0 1
-3.415267 -20.170098 -15.590711 25.720948 1.403064 2.222005 0.025895 0.014168 -50633.900000 0 0 1
-3.327967 -18.628898 -15.656011 24.560576 1.394016 2.261974 0.038137 0.014024 -75025.000000 0 1 0
-4.363267 -17.876998 -16.355411 24.619599 1.331405 2.297386 0.022411 0.012046 486436.000000 0 1 0
-4.322767 -18.034198 -17.757611 25.675891 1.335537 2.334507 0.027525 0.004453 -294906.000000 0 0 1
-5.766267 -17.954598 -18.321311 26.292354 1.260043 2.341765 0.008336 0.018978 -329060.000000 0 0 1
-6.537267 -19.006698 -17.971711 26.962434 1.239525 2.300363 0.007178 0.018638 -818761.000000 0 0 1
-7.777267 -18.921198 -18.633611 27.671449 1.180814 2.309578 -0.000433 0.018038 -238448.000000 0 0 1
-8.845667 -19.895998 -18.104011 28.316988 1.152446 2.264428 0.029079 0.013367 -297651.000000 0 0 1
-8.545667 -21.269298 -18.252511 29.301291 1.188753 2.243273 0.036832 0.012518 178161.000000 0 0 1
-9.514467 -22.172198 -17.769711 29.964881 1.165444 2.205598 0.047760 0.009057 59983.100000 0 0 1
-9.044167 -23.636898 -18.075011 31.099935 1.205354 2.190988 0.053173 -0.000167 -557240.000000 0 0 1
-9.067067 -23.856498 -19.497211 32.116747 1.207591 2.223168 0.048118 -0.006933 716731.000000 0 0 1
-8.072667 -24.789298 -19.970211 32.840320 1.255975 2.224462 0.061933 -0.019105 1328220.000000 0 0 1
-6.560467 -24.404698 -19.785811 32.095286 1.308185 2.235049 0.063636 -0.012125 -228817.000000 0 0 1
-6.105067 -23.411198 -20.683911 31.830492 1.315702 2.278137 0.071007 -0.012952 95573.800000 0 0 1
-5.694767 -22.181398 -20.021711 30.418970 1.319488 2.289219 0.053400 -0.007415 -329538.000000 0 0 1
-4.494767 -22.119798 -19.099311 29.568093 1.370325 2.273055 0.042516 0.003493 101347.000000 0 0 1
-3.206967 -22.471498 -19.631911 30.011078 1.429041 2.283862 0.052300 -0.004235 815356.000000 0 0 1
-2.265367 -22.449798 -18.552311 29.211532 1.470229 2.258937 0.050914 0.000997 835495.000000 0 0 1
-0.895167 -23.098998 -18.931711 29.879336 1.532062 2.257001 0.068257 -0.002981 682550.000000 0 0 1
-0.094667 -22.437398 -19.892111 29.985695 1.566577 2.296132 0.076404 -0.007939 702526.000000 0 0 1
1.249933 -22.969098 -19.899611 30.416054 -1.516432 2.283983 0.068144 -0.012336 1968420.000000 0 0 1
2.275533 -22.153798 -20.808711 30.479030 -1.468440 2.322278 0.075925 -0.014730 801237.000000 0 0 1
1.936833 -22.283498 -22.124011 31.460729 -1.484096 2.350722 0.065038 -0.019804 -419430.000000 0 0 1
1.240233 -21.252798 -22.728811 31.141909 -1.512506 2.388894 0.071947 -0.020343 -227610.000000 0 0 1
0.704833 -21.641698 -24.197311 32.471060 -1.538240 2.411625 0.075736 -0.028938 -49163.400000 0 0 1
0.177333 -20.581098 -24.983111 32.369259 -1.562180 2.452489 0.066730 -0.034284 554318.000000 0 0 1
-1.155667 -20.197198 -24.610811 31.858349 1.513639 2.453577 0.049609 -0.024486 477234.000000 0 0 1
-1.730467 -18.974798 -25.324251 31.691563 1.479850 2.496568 0.043186 -0.011673 -15702.900000 0 0 1
-1.137767 -17.754098 -24.885911 30.591030 1.506799 2.520948 0.038369 -0.011433 -217837.000000 0 0 1
-1.775767 -16.605398 -25.328201 30.338266 1.464262 2.558675 0.046765 -0.008429 -379085.000000 0 0 1
-1.226667 -15.258098 -24.818911 29.159778 1.490574 2.588940 0.044731 -0.000725 1746600.000000 0 0 1
0.197133 -15.016898 -25.104941 29.254131 -1.557670 2.602486 0.050626 -0.019987 1442460.000000 0 0 1
0.682233 -13.736098 -24.724111 28.291828 -1.521170 2.633956 0.053675 -0.016490 280215.000000 0 0 1
0.210333 -12.516298 -25.565321 28.465551 -1.553993 2.686259 0.048156 -0.009258 -145806.000000 0 0 1
0.716033 -11.256298 -25.084711 27.503812 -1.507270 2.719039 0.054203 -0.009660 132302.000000 0 0 1
0.467333 -10.145298 -25.954351 27.870662 -1.524765 2.768605 0.041578 -0.007448 -778784.000000 0 0 1
1.427433 -8.965698 -25.619611 27.180614 -1.412911 2.801037 0.043861 -0.015950 1077970.000000 0 0 1
2.816333 -9.100598 -25.956811 27.649750 -1.270677 2.789845 0.063213 -0.022194 564616.000000 0 0 1
3.065533 -9.241398 -27.315711 28.999121 -1.250501 2.799187 0.051189 -0.016454 -1485580.000000 0 0 1
4.503233 -9.175998 -27.820831 29.639108 -1.114566 2.789499 0.052933 -0.015295 -472493.000000 0 0 1
4.968033 -7.837798 -27.931331 29.432494 -1.005854 2.820834 0.041291 -0.019732 320135.000000 0 0 1
6.081033 -7.569198 -28.783891 30.377362 -0.893991 2.816259 0.042824 -0.020732 -671119.000000 0 0 1
7.391733 -7.354998 -28.036801 29.913140 -0.782907 2.785522 0.047549 -0.025712 -160559.000000 0 0 1
8.058333 -8.560398 -27.525471 29.931066 -0.815600 2.737931 0.046217 -0.024939 757028.000000 0 0 1
8.674933 -9.349498 -28.522831 31.244511 -0.822806 2.721107 0.043431 -0.030554 -697795.000000 0 0 1
9.200333 -10.722098 -28.032841 31.391873 -0.861635 2.674757 0.050508 -0.036089 94635.800000 0 0 1
8.179333 -11.688898 -27.739251 31.192914 -0.960237 2.666566 0.048834 -0.029389 439711.000000 0 0 1
8.593833 -12.887998 -27.068451 31.187426 -0.982695 2.621812 0.053967 -0.026692 -609219.000000 0 0 1
9.327933 -13.902998 -27.914851 32.550616 -0.979848 2.601348 0.054522 -0.035142 -606588.000000 0 0 1
8.525933 -14.635798 -28.831901 33.439148 -1.043314 2.610432 0.057909 -0.036135 70345.600000 0 0 1
9.272933 -15.640598 -29.466941 34.625370 -1.035632 2.588724 0.059083 -0.032847 417700.000000 0 0 1
8.394033 -16.244898 -30.627771 35.670953 -1.093864 2.603367 0.062997 -0.036778 382887.000000 0 0 1
8.038733 -15.353298 -31.681791 36.112060 -1.088460 2.641043 0.056914 -0.035090 -149106.000000 0 0 1
7.172033 -16.000698 -32.534221 36.958571 -1.149413 2.647267 0.059109 -0.029505 -730771.000000 0 0 1
6.134833 -15.017298 -33.106261 36.867058 -1.182969 2.685977 0.067574 -0.027639 -242066.000000 0 0 1
6.732333 -14.136098 -34.002781 37.434512 -1.126328 2.710063 0.072573 -0.017488 -220597.000000 0 0 1
5.829033 -13.142398 34.093939 37.001310 -1.153337 0.399064 0.050976 -0.019678 -236883.000000 0 0 1
6.343033 -12.002198 33.195671 35.864180 -1.084618 0.388194 0.070641 -0.012331 -391686.000000 0 0 1
6.782933 -12.283698 31.920157 34.868236 -1.066273 0.414169 0.063418 -0.010564 107862.000000 0 0 1
6.850533 -11.151998 31.027647 33.675091 -1.019938 0.399173 0.067283 -0.005499 -605983.000000 0 0 1
7.323933 -11.514198 29.625367 32.617160 -1.004270 0.431653 0.052646 -0.002420 -251833.000000 0 0 1
6.462433 -12.235198 28.782677 31.935961 -1.084857 0.448122 0.050142 -0.002091 285963.000000 0 0 1
7.011533 -12.091598 27.462347 30.814750 -1.045311 0.470795 0.046842 -0.004164 368323.000000 0 0 1
6.212533 -12.874498 26.366927 29.992718 -1.121209 0.496803 0.037588 -0.019101 -148657.000000 0 0 1
6.575333 -14.219198 26.292277 30.605628 -1.137657 0.537353 0.041190 -0.015588 -42373.600000 0 0 1
5.884233 -14.926098 25.282097 29.943230 -1.195279 0.565475 0.029110 -0.017054 1203580.000000 0 0 1
4.331633 -15.171298 25.417597 29.916310 -1.292681 0.555525 0.031157 -0.023753 835472.000000 0 0 1
3.469433 -14.063198 25.215897 29.080096 -1.328923 0.521408 0.017605 -0.024715 -200342.000000 0 0 1
2.217533 -14.526098 24.770337 28.800948 -1.419307 0.535423 0.020341 -0.020282 18290.400000 0 0 1
1.158033 -13.412498 24.603707 28.046008 -1.484670 0.500667 0.027848 -0.015066 -340251.000000 0 0 1
1.320933 -12.636198 23.409727 26.635196 -1.466639 0.497241 0.013192 -0.012196 -309156.000000 0 0 1
0.490433 -11.509398 23.308027 25.999440 -1.528211 0.459032 0.025222 0.000400 111293.000000 0 0 1
-0.953867 -11.827898 22.855727 25.752540 1.490325 0.478876 0.026036 0.000915 -417271.000000 0 0 1
-0.995567 -12.451498 21.563927 24.920552 1.491010 0.525034 0.024590 -0.004707 -202112.000000 0 1 0
-2.265767 -12.998398 21.306327 25.060958 1.398219 0.554469 0.045149 -0.008613 779.640000 0 0 1
-2.329567 -13.715698 19.942427 24.315585 1.402555 0.609123 0.053056 -0.011613 -106501.000000 0 1 0
-1.337767 -14.688398 19.706227 24.614509 1.479970 0.642511 0.059776 -0.019554 -540606.000000 0 1 0
-1.425267 -15.495498 18.570327 24.228060 1.479075 0.697454 0.065936 -0.016005 -224541.000000 0 1 0
-2.562467 -16.518098 18.387127 24.849552 1.416892 0.737818 0.041306 -0.020752 9045.140000 0 1 0
-2.102267 -17.611598 17.629327 25.007621 1.451990 0.788432 0.025395 -0.013361 33421.400000 0 0 1
-3.065367 -18.703098 17.627827 25.883250 1.408344 0.821599 0.029913 -0.005598 534877.000000 0 0 1
-2.700567 -20.057898 16.916927 26.377922 1.436963 0.874567 0.029845 -0.008394 -641451.000000 0 0 1
-1.713567 -20.707698 17.619527 27.243216 1.488234 0.867482 0.035599 -0.017060 -891113.000000 0 0 1
-1.899167 -22.142298 17.691627 28.405666 1.485235 0.898454 0.033700 -0.023092 -574848.000000 0 0 1
-0.793067 -22.994398 18.379327 29.447767 1.536320 0.896775 0.047869 -0.013977 -277811.000000 0 0 1
0.312833 -22.962298 17.532027 28.891815 -1.557173 0.918747 0.060485 -0.021099 -677239.000000 0 0 1
1.288533 -23.942398 17.908127 29.926573 -1.517030 0.929291 0.063848 -0.011325 145812.000000 0 0 1
2.589933 -23.832798 17.109327 29.452319 -1.462550 0.950943 0.061495 -0.025517 -182569.000000 0 0 1
3.230833 -22.585398 17.336827 28.654914 -1.428711 0.921004 0.057702 -0.020904 -495317.000000 0 0 1
4.215833 -22.322698 16.372927 28.002658 -1.384136 0.946296 0.049979 -0.023617 -285463.000000 0 0 1
4.944633 -21.054798 16.797127 27.384255 -1.340130 0.910455 0.056570 -0.020862 -184728.000000 0 0 1
5.849733 -21.306198 17.897027 28.433731 -1.302843 0.889978 0.063899 -0.013380 438534.000000 0 0 1
6.514433 -20.181898 18.483027 28.131284 -1.258568 0.853927 0.070641 -0.009611 1311040.000000 0 0 1
7.649633 -19.440298 17.645227 27.345861 -1.195911 0.869431 0.081909 -0.003678 255363.000000 0 0 1
7.066133 -18.705498 16.602927 25.990057 -1.209611 0.877835 0.068593 -0.006695 -493961.000000 0 0 1
7.986033 -18.030998 15.852527 25.302099 -1.153858 0.893703 0.070482 -0.010165 -651589.000000 0 0 1
7.306533 -16.905298 15.047927 23.782654 -1.162840 0.885727 0.052711 0.000100 98146.700000 0 1 0
6.666733 -17.488198 13.914627 23.321648 -1.206590 0.931489 0.053960 -0.005950 45628.200000 0 1 0
6.047833 -16.527598 13.090427 21.933925 -1.220007 0.931274 0.048772 -0.004537 -6019.950000 0 1 0
6.356633 -16.696298 11.595927 21.298795 -1.207019 0.995074 0.044141 -0.009372 617134.000000 0 1 0
7.683433 -16.199698 11.399827 21.246680 -1.127924 1.004457 0.048795 -0.008302 214606.000000 0 1 0
8.230833 -16.575098 10.157327 21.110466 -1.109890 1.068829 0.052317 -0.008153 466361.000000 0 1 0
9.711933 -16.089598 10.149027 21.358829 -1.027723 1.075642 0.050306 -0.007602 213182.000000 0 1 0
10.427833 -16.516298 9.033227 21.520386 -1.007632 1.137624 0.058013 -0.007408 532021.000000 0 1 0
11.822933 -16.171898 9.268627 22.073049 -0.939515 1.137454 0.058131 0.004621 1446900.000000 0 1 0
12.676633 -17.021498 8.256627 22.772798 -0.930669 1.199777 0.060659 -0.010753 -10902.900000 0 1 0
12.637033 -18.346598 8.698927 23.915760 -0.967631 1.198525 0.053145 -0.019129 22272.900000 0 1 0
13.375433 -19.216998 7.868727 24.700447 -0.962746 1.246580 0.057186 -0.017508 209886.000000 0 1 0
14.079933 -20.427898 8.577127 26.250917 -0.967321 1.237948 0.063713 -0.012653 287701.000000 0 0 1
13.135733 -21.331098 9.177227 26.679294 -1.018839 1.219641 0.069468 -0.011039 423056.000000 0 0 1
13.719533 -22.503598 9.681127 28.077780 -1.023305 1.218774 0.067188 -0.013079 645815.000000 0 0 1
12.571333 -23.256098 10.451527 28.427433 -1.075229 1.194309 0.076160 -0.021031 831223.000000 0 0 1
12.289533 -22.618198 11.692827 28.272561 -1.073075 1.144419 0.077835 -0.034932 180262.000000 0 0 1
11.213533 -23.202998 12.460027 28.624722 -1.120614 1.120437 0.082739 -0.032738 442875.000000 0 0 1
11.420333 -24.608898 13.093927 30.124289 -1.136301 1.121132 0.074226 -0.021564 33427.100000 0 0 1
12.493333 -24.691498 14.021727 31.021965 -1.102378 1.101797 0.071463 -0.030971 49145.100000 0 0 1
12.622733 -25.998248 14.458127 32.315317 -1.118798 1.106932 0.060415 -0.029683 -153418.000000 0 0 1
13.907633 -26.039288 15.297527 33.248776 -1.080241 1.092696 0.058214 -0.023258 -236305.000000 0 0 1
13.897533 -25.341398 16.510827 33.285662 -1.069173 1.051771 0.053244 -0.026975 -163337.000000 0 0 1
14.935133 -25.853858 17.304227 34.509657 -1.046954 1.045544 0.061098 -0.022399 -405614.000000 0 0 1
14.818333 -25.607228 18.786327 35.046244 -1.046203 1.005052 0.066590 -0.023015 11.420100 0 0 1
15.124133 -24.224098 19.111927 34.362946 -1.012670 0.981016 0.039599 -0.022504 160429.000000 0 0 1
16.491033 -23.931398 19.348627 34.914687 -0.967426 0.983432 0.045233 -0.027351 64752.400000 0 0 1
16.905933 -22.454898 19.559927 34.243595 -0.925452 0.962830 0.036104 -0.023692 -110966.000000 0 0 1
16.838533 -21.622898 18.413127 33.017104 -0.909156 0.979203 0.027308 -0.019015 -69424.600000 0 0 1
15.601433 -20.986598 18.235827 31.880831 -0.931533 0.961855 0.047573 -0.013959 -595692.000000 0 0 1
15.789933 -19.844198 17.151127 30.614953 -0.898686 0.976144 0.039802 -0.011120 194555.000000 0 0 1
16.626433 -18.761698 17.533027 30.591610 -0.845664 0.960474 0.047550 -0.006657 1189160.000000 0 0 1
18.029633 -18.993898 17.257527 31.363324 -0.811437 0.988138 0.050699 -0.009893 934360.000000 0 0 1
18.851033 -17.706098 17.586027 31.275161 -0.754089 0.973632 0.064716 -0.004866 -143209.000000 0 0 1
18.935133 -17.417398 18.969127 31.964555 -0.743672 0.935467 0.059730 0.000088 332321.000000 0 0 1
19.710333 -16.262998 19.249727 31.992723 -0.689860 0.925180 0.073457 -0.001062 32714.700000 0 0 1
20.160033 -16.103998 20.725627 33.095578 -0.674014 0.894081 0.068878 -0.001311 384304.000000 0 0 1
21.289833 -16.939298 20.994127 34.364956 -0.672084 0.913578 0.066587 0.004564 224961.000000 0 0 1
21.785233 -16.805698 22.318227 35.427830 -0.657073 0.889291 0.062685 0.004252 284434.000000 0 0 1
33.678481 -1.439998 -7.998811 34.645269 -0.042731 1.803776 0.100413 -0.013326 -261390.000000 0 0 1
34.902661 -1.193698 -8.649011 35.978133 -0.034187 1.813570 0.094428 -0.011724 -210662.000000 0 0 1
35.859011 -2.145398 -8.325711 36.875316 -0.059757 1.798540 0.108811 -0.023474 270277.000000 0 0 1
-35.330405 -1.995498 -8.995011 36.512050 0.056421 1.819716 0.087969 -0.020816 317693.000000 0 0 1
-34.324036 -2.900398 -8.650711 35.516005 0.084300 1.816844 0.106880 -0.011893 528892.000000 0 0 1
-33.060747 -2.441298 -9.166011 34.394603 0.073709 1.840552 0.151326 -0.024413 891997.000000 0 0 1
-31.838007 -3.320198 -8.753211 33.185857 0.103909 1.837718 0.130996 -0.018487 -88996.700000 0 0 1
-31.510157 -3.121298 -7.430111 32.524438 0.098735 1.801279 0.126535 -0.019239 -85351.400000 0 0 1
-30.513397 -4.063698 -7.128311 31.597371 0.132398 1.798353 0.122013 -0.025539 -289433.000000 0 0 1
-30.160557 -3.920998 -5.671211 30.938586 0.129279 1.755144 0.110952 -0.037456 102022.000000 0 0 1
-29.573617 -2.594598 -5.380111 30.170787 0.087509 1.750077 0.108909 -0.034837 778978.000000 0 0 1
-29.560637 -2.426898 -3.992311 29.927574 0.081915 1.704594 0.093731 -0.031097 -467693.000000 0 0 1
-29.203847 -1.028098 -3.551711 29.436989 0.035190 1.691746 0.111719 -0.034044 205266.000000 0 0 1
-27.787487 -0.867198 -3.476311 28.017516 0.031198 1.695193 0.108116 -0.030236 695194.000000 0 0 1
-27.525237 0.447802 -3.095611 27.702383 -0.016267 1.682776 0.123682 -0.032072 -389999.000000 0 0 1
-26.089517 0.659202 -2.608411 26.227872 -0.025262 1.670413 0.131306 -0.024385 -356591.000000 0 0 1
-25.922297 -0.080698 -1.409811 25.960731 0.003113 1.625129 0.126098 -0.023822 -878993.000000 0 0 1
-24.595567 0.046902 -1.073511 24.619028 -0.001907 1.614415 0.119312 -0.025217 -1025680.000000 0 1 0
-24.329167 -0.752198 0.224589 24.341829 0.030908 1.561570 0.114273 -0.023778 -76460.000000 0 1 0
-24.240567 -2.147798 -0.046811 24.335577 0.088373 1.572720 0.108789 -0.021157 94943.300000 0 1 0
-23.633867 -2.949198 0.917389 23.834829 0.124145 1.532297 0.093080 -0.014905 -267701.000000 0 1 0
-24.005767 -4.443398 0.813589 24.427087 0.183026 1.537483 0.100337 -0.006139 -1051510.000000 0 1 0
-25.139137 -4.828998 1.488889 25.642001 0.189779 1.512699 0.085877 -0.009039 -683773.000000 0 0 1
-25.360897 -6.191998 1.199189 26.133389 0.239470 1.524893 0.085569 -0.000926 -142452.000000 0 0 1
-26.476387 -6.900098 1.983689 27.432562 0.254942 1.498422 0.076327 -0.001586 -371431.000000 0 0 1
-26.315207 -6.999998 3.378689 27.439126 0.259985 1.447349 0.072961 -0.002943 657292.000000 0 0 1
-27.411297 -7.757898 3.954289 28.761095 0.275805 1.432872 0.062349 0.007770 430171.000000 0 0 1
-27.383347 -7.837898 5.528389 29.014538 0.278775 1.379086 0.060766 0.009192 442996.000000 0 0 1
-26.384637 -8.801198 5.967789 28.446875 0.321966 1.359439 0.062885 0.016109 673083.000000 0 0 1
-26.318767 -8.815298 7.433489 28.734017 0.323199 1.309120 0.052997 0.012344 51154.800000 0 0 1
-25.739507 -7.570398 8.176389 28.047932 0.286050 1.274986 0.060513 0.012564 -924789.000000 0 0 1
-24.383767 -7.377598 7.963289 26.691029 0.293805 1.267832 0.074337 0.007554 -885522.000000 0 0 1
-24.010567 -6.151898 8.522789 26.210515 0.250821 1.239608 0.075337 -0.008625 400208.000000 0 0 1
-22.605667 -5.682898 8.034189 24.654811 0.246289 1.238868 0.090132 -0.015230 515242.000000 0 1 0
-21.481467 -6.401198 8.483989 23.966786 0.289609 1.208963 0.091823 -0.017468 230224.000000 0 1 0
-20.314367 -5.897898 7.851889 22.563486 0.282563 1.215369 0.088451 -0.017913 221191.000000 0 1 0
-18.991767 -6.116998 8.607889 21.730178 0.311595 1.163502 0.077203 -0.029265 -316164.000000 0 1 0
-18.979267 -5.346698 9.784489 22.012178 0.274596 1.110176 0.074459 -0.022593 318583.000000 0 1 0
-18.015767 -5.742698 10.747889 21.750025 0.308577 1.053933 0.070593 -0.023258 -11418.000000 0 1 0
-17.789167 -4.580498 11.737289 21.799068 0.252014 1.002223 0.059195 -0.021273 -459981.000000 0 1 0
-18.870667 -4.515798 12.597789 23.134364 0.234885 0.994945 0.067728 -0.017539 -164398.000000 0 1 0
-18.768167 -3.311798 13.341289 23.263751 0.174660 0.960049 0.058297 -0.012071 150728.000000 0 1 0
-19.983367 -3.132698 14.279089 24.759668 0.155500 0.956103 0.058248 -0.012557 -25762.800000 0 1 0
-20.069867 -4.112698 15.303789 25.571856 0.202121 0.929216 0.055461 -0.013919 283086.000000 0 0 1
-21.220067 -3.897398 16.096089 26.917746 0.181641 0.929826 0.040433 -0.001761 -47507.700000 0 0 1
-21.378867 -5.049398 17.074889 27.822728 0.231936 0.910054 0.042508 -0.000995 -736111.000000 0 0 1
-22.316567 -4.859398 18.071789 29.124431 0.214402 0.901413 0.039492 -0.001609 -121801.000000 0 0 1
-22.074867 -5.579198 19.304389 29.851074 0.247556 0.867560 0.047931 -0.003496 -819337.000000 0 0 1
-22.752667 -5.097898 20.561689 31.087867 0.220417 0.848105 0.042249 -0.001277 -598720.000000 0 0 1
-22.374867 -3.772698 20.890389 30.842767 0.167042 0.826684 0.041626 -0.002917 325504.000000 0 0 1
-22.719867 -3.531098 22.219889 31.974748 0.154185 0.802488 0.048399 -0.009241 -170379.000000 0 0 1
-22.831367 -2.071198 22.544089 32.152716 0.090470 0.793778 0.047638 -0.004021 502444.000000 0 0 1
-23.941367 -1.359998 21.970889 32.523201 0.056744 0.829093 0.061955 -0.007942 723400.000000 0 0 1
-23.770967 0.010602 22.237689 32.551095 -0.000446 0.818712 0.064945 -0.014688 108961.000000 0 0 1
-25.099817 0.618402 21.760889 33.225284 -0.024633 0.856680 0.094827 -0.019914 286770.000000 0 0 1
-26.163327 0.460002 22.679489 34.627886 -0.017580 0.856682 0.094465 -0.020889 51387.900000 0 0 1
-27.417537 0.901602 22.165489 35.268160 -0.032872 0.891193 0.085210 -0.020911 314665.000000 0 0 1
-28.417687 1.013202 23.318089 36.773969 -0.035639 0.883962 0.074260 -0.011809 -395456.000000 0 0 1
-28.044647 2.025902 24.245389 37.127421 -0.072113 0.859215 0.069552 -0.012237 190836.000000 0 0 1
-28.967477 2.067402 25.326989 38.533690 -0.071249 0.853607 0.055741 -0.008417 -85728.600000 0 0 1
-28.624407 3.053602 26.413589 39.068643 -0.106276 0.828365 0.070374 -0.006452 -407582.000000 0 0 1
-27.622127 2.565802 27.245089 38.882645 -0.092624 0.794417 0.057636 -0.008886 -146259.000000 0 0 1
-27.190887 3.486502 28.235289 39.353927 -0.127527 0.770632 0.052056 -0.011167 -472324.000000 0 0 1
-26.071537 3.056602 29.173189 39.244653 -0.116706 0.732706 0.060701 -0.012793 -262175.000000 0 0 1
-26.399577 2.121402 30.225089 40.186988 -0.080185 0.719536 0.054666 -0.011918 212395.000000 0 0 1
-25.203427 1.932102 30.943689 39.955696 -0.076511 0.684951 0.047311 -0.013969 236579.000000 0 0 1
-25.187067 0.694502 31.836989 40.601287 -0.027567 0.669491 0.040760 -0.013487 54124.900000 0 0 1
-25.459627 -0.466398 31.090689 40.187574 0.018317 0.686231 0.046757 -0.013532 -31968.200000 0 0 1
-25.744227 -1.577798 31.915089 41.034468 0.061211 0.679697 0.061155 -0.012385 -222523.000000 0 0 1
-26.498657 -2.742998 31.181789 41.012277 0.103147 0.707016 0.052306 -0.003256 687064.000000 0 0 1
-27.862357 -2.585598 30.799989 41.612926 0.092534 0.737496 0.043553 0.000928 558826.000000 0 0 1
-28.147737 -1.594498 29.770389 41.001385 0.056587 0.758189 0.049508 0.005879 157685.000000 0 0 1
-29.661027 -1.527098 29.384789 41.780072 0.051440 0.790738 0.042672 -0.002528 537169.000000 0 0 1
-30.461207 -0.868798 30.311789 42.981909 0.028514 0.788060 0.053844 0.002891 -932272.000000 0 0 1
-31.792087 -0.785598 29.885189 43.640331 0.024705 0.816458 0.037790 -0.001901 165477.000000 0 0 1
-32.763277 -0.442198 31.078589 45.160896 0.013496 0.811826 0.036366 -0.001054 192277.000000 0 0 1
-32.739687 -1.420298 32.063789 45.847475 0.043354 0.796298 0.032968 -0.001148 258461.000000 0 0 1
-33.583877 -1.004798 33.150889 47.200295 0.029910 0.792110 0.045458 -0.008683 166736.000000 0 0 1
-33.791907 -2.082198 34.198289 48.122256 0.061540 0.780369 0.045655 -0.007739 -244023.000000 0 0 1
-34.580788 -3.119698 33.697889 48.385030 0.089971 0.800354 0.018056 0.002108 -66456.800000 0 0 1
-34.523335 -4.343898 -34.086949 48.709858 0.125167 2.345908 0.004437 0.003396 203846.000000 0 0 1
-35.639873 -5.321498 33.899989 49.474520 0.148218 0.815917 -0.004258 0.001687 202996.000000 0 0 1
35.666981 -4.927698 -34.231549 49.681131 -0.137289 2.330939 0.006990 -0.008001 -906948.000000 0 0 1
34.656151 -5.478498 33.482789 48.499071 -0.156784 0.808782 0.007999 -0.007290 -521070.000000 0 0 1
33.233111 -5.155898 33.989689 47.815499 -0.153916 0.780089 0.037775 -0.009694 -425349.000000 0 0 1
32.792651 -6.015498 -33.464149 47.237628 -0.181423 2.358055 0.051937 -0.010313 89411.700000 0 0 1
32.321951 -7.271398 -33.879549 47.385711 -0.221284 2.367383 0.045382 -0.012109 -784552.000000 0 0 1
30.858051 -7.289598 34.199789 46.636715 -0.231977 0.747599 0.060814 -0.022884 -435200.000000 0 0 1
29.957131 -7.138898 -33.233649 45.308598 -0.233941 2.394247 0.073224 -0.026554 -962075.000000 0 0 1
28.642001 -7.281298 -33.630349 44.770324 -0.248944 2.420637 0.082209 -0.022212 -953093.000000 0 0 1
27.700211 -7.144298 -32.385849 43.210947 -0.252414 2.418076 0.092748 -0.024729 -460158.000000 0 0 1
26.390421 -7.318198 -32.841549 42.761872 -0.270508 2.446525 0.085817 -0.027438 -1232700.000000 0 0 1
25.474621 -6.932398 -31.879349 41.392118 -0.265696 2.449918 0.088681 -0.028087 -591627.000000 0 0 1
24.088321 -7.461398 -32.310449 40.986398 -0.300379 2.478872 0.079152 -0.034612 -334960.000000 0 0 1
23.999721 -8.896598 -32.310049 41.219842 -0.354992 2.471633 0.067434 -0.038245 232462.000000 0 0 1
23.793321 -9.612498 -31.086949 40.310305 -0.383950 2.451506 0.066100 -0.031075 -327897.000000 0 0 1
23.498321 -11.131498 -31.287149 40.681287 -0.442399 2.448196 0.076787 -0.030436 481143.000000 0 0 1
22.214821 -11.443898 -31.852149 40.484818 -0.475692 2.476351 0.086026 -0.043515 920971.000000 0 0 1
21.926421 -12.816598 -31.842049 40.730201 -0.528965 2.468311 0.079142 -0.030345 -800763.000000 0 0 1
20.675921 -13.226098 -32.621649 40.823956 -0.569090 2.496561 0.078721 -0.030453 585352.000000 0 0 1
19.430921 -12.858098 -31.997049 39.581594 -0.584580 2.512195 0.090845 -0.028213 720665.000000 0 0 1
18.949221 -11.593898 -32.379949 39.267704 -0.549080 2.540282 0.090085 -0.036541 -1588860.000000 0 0 1
17.579721 -11.224198 -31.928049 38.136984 -0.568230 2.562928 0.083804 -0.037820 -1048920.000000 0 0 1
16.480121 -11.769598 -32.623849 38.398351 -0.620172 2.586053 0.071877 -0.021779 378240.000000 0 0 1
15.269621 -11.629498 -31.878449 37.210779 -0.650890 2.599633 0.074293 -0.034651 476020.000000 0 0 1
13.990521 -11.824698 -32.713649 37.493213 -0.701697 2.631137 0.066804 -0.016898 -626358.000000 0 0 1
13.687121 -13.185998 -33.006449 38.087183 -0.766753 2.619149 0.066059 -0.015118 -806482.000000 0 0 1
12.527821 -13.355698 -33.699649 38.353453 -0.817372 2.643845 0.055065 -0.015031 -793985.000000 0 0 1
11.211321 -13.498898 -32.901449 37.288327 -0.877711 2.651634 0.042851 -0.009548 -375042.000000 0 0 1
10.936421 -12.281798 -32.261049 36.210816 -0.843278 2.670170 0.077302 -0.010219 -493272.000000 0 0 1
9.821821 -12.431198 -31.422449 35.190527 -0.902125 2.674594 0.064671 -0.023042 -867216.000000 0 0 1
8.633421 -11.639398 -31.876849 35.016355 -0.932602 2.714905 0.051256 -0.013730 -1108070.000000 0 0 1
8.828221 -10.228998 -31.801249 34.552704 -0.858770 2.739820 0.057491 -0.014358 76279.700000 0 0 1
7.729821 -9.517598 -32.298349 34.547333 -0.888684 2.778777 0.046189 -0.009898 -175670.000000 0 0 1
8.075821 -8.039098 -32.542349 34.479711 -0.783119 2.804776 0.065286 -0.013642 79826.900000 0 0 1
8.511121 -7.245198 -31.402649 33.332544 -0.705227 2.799640 0.058984 -0.023764 422176.000000 0 0 1
8.922221 -5.953698 -31.785249 33.546306 -0.588433 2.816133 0.063778 -0.023793 -117361.000000 0 0 1
9.227821 -5.050698 -30.576249 32.335264 -0.500794 2.810233 0.062292 -0.024938 348951.000000 0 0 1
8.034221 -4.585098 -29.933549 31.330324 -0.518594 2.841868 0.070031 -0.023733 314162.000000 0 0 1
8.220521 -3.608898 -28.984849 30.343411 -0.413678 2.841223 0.068145 -0.019723 -430141.000000 0 0 1
6.903721 -3.002498 -28.524349 29.501100 -0.410235 2.883549 0.055520 -0.017697 -1122040.000000 0 0 1
6.109521 -2.467798 -29.588649 30.313437 -0.383887 2.922478 0.052799 -0.014420 -238416.000000 0 0 1
4.865621 -2.008198 -29.158249 29.629557 -0.391434 2.962992 0.051650 -0.018196 -143782.000000 0 0 1
3.778121 -3.086498 -28.902449 29.311299 -0.684985 2.974374 0.031162 -0.019355 -756303.000000 0 0 1
4.022321 -3.836098 -27.769149 28.319964 -0.761705 2.944042 0.039197 -0.024460 -623561.000000 0 0 1
3.123421 -4.884998 -27.693349 28.293826 -1.001916 2.935203 0.064459 -0.023487 -178755.000000 0 0 1
3.190221 -5.705098 -26.371549 27.169547 -1.060927 2.898628 0.053363 -0.034929 -24802.600000 0 0 1
2.924421 -4.985198 -25.189349 25.843912 -1.040272 2.916048 0.060659 -0.037073 -27598.300000 0 0 1
2.974721 -5.891298 -24.089549 24.977245 -1.103209 2.874188 0.056248 -0.040330 -18465.700000 0 1 0
2.990321 -5.154398 -22.749649 23.517151 -1.045101 2.885410 0.063822 -0.045267 527201.000000 0 1 0
4.088221 -4.250498 -22.647149 23.402429 -0.804856 2.886843 0.061678 -0.037661 277574.000000 0 1 0
3.924821 -3.573198 -21.440649 22.087857 -0.738537 2.898917 0.059938 -0.035923 123761.000000 0 1 0
4.838521 -2.335898 -21.227749 21.897147 -0.449770 2.893693 0.071483 -0.032271 739593.000000 0 1 0
6.207321 -2.709898 -21.050149 22.112964 -0.411625 2.830295 0.073028 -0.027981 251318.000000 0 1 0
7.035821 -1.689698 -20.556949 21.793257 -0.235693 2.803145 0.085900 -0.019080 -286195.000000 0 1 0
8.488421 -2.132598 -20.456349 22.250023 -0.246142 2.737312 0.070694 -0.014263 -1773290.000000 0 1 0
9.211621 -2.269398 -21.660249 23.646787 -0.241552 2.728768 0.073987 -0.021586 419407.000000 0 1 0
10.473721 -2.930398 -21.610549 24.193014 -0.272810 2.675333 0.059976 -0.021550 822049.000000 0 1 0
11.530321 -2.247398 -20.690949 23.793161 -0.192499 2.625223 0.043151 -0.016926 -1372530.000000 0 1 0
11.364821 -2.422498 -19.289849 22.519457 -0.210015 2.599413 0.048287 -0.007790 791426.000000 0 1 0
12.550321 -2.056898 -18.548749 22.489942 -0.162448 2.540570 0.041692 -0.015603 719667.000000 0 1 0
12.886221 -0.539698 -18.304849 22.392264 -0.041857 2.527789 0.040652 -0.018537 -18843.400000 0 1 0
13.130821 0.077802 -19.567749 23.565257 0.005925 2.550558 0.030152 -0.017937 100490.000000 0 1 0
13.143121 1.509402 -19.478349 23.546253 0.114343 2.544970 0.049279 -0.032417 -77006.600000 0 1 0
13.468721 2.232202 -20.788749 24.870892 0.164239 2.560506 0.035823 -0.021213 -625977.000000 0 1 0
14.775721 2.290502 -21.270849 26.000334 0.153794 2.528894 0.031113 -0.012505 -482508.000000 0 0 1
14.867721 3.215202 -22.326749 27.016114 0.212974 2.543522 0.039643 -0.020194 -342228.000000 0 0 1
16.299321 3.580602 -22.838949 28.286148 0.216243 2.510571 0.046351 -0.021131 447765.000000 0 0 1
16.994821 2.739902 -23.697249 29.289770 0.159844 2.513351 0.033824 -0.020925 -14302.800000 0 0 1
17.284021 1.495902 -23.186749 28.958599 0.086333 2.499236 0.029225 -0.012961 -905759.000000 0 0 1
8.897833 26.707802 2.922789 28.302311 1.249206 1.467342 0.000605 0.010111 105826.000000 0 0 1
9.028533 27.226602 4.252689 28.998062 1.250600 1.423611 0.006420 0.007190 -565993.000000 0 0 1
10.373833 27.287802 4.588989 29.551639 1.207506 1.414878 0.024113 -0.002339 -584933.000000 0 0 1
10.527233 28.081302 5.902789 30.565095 1.212127 1.376453 0.031734 -0.006715 71343.800000 0 0 1
10.121833 27.362902 7.070789 30.019593 1.216495 1.333023 0.025961 -0.007395 144101.000000 0 0 1
10.275833 28.199302 8.235589 31.122633 1.221351 1.302989 0.037171 -0.010989 -484650.000000 0 0 1
10.330933 27.490602 9.601589 30.897441 1.211326 1.254807 0.038302 -0.016209 764943.000000 0 0 1
11.562633 26.927402 10.081489 30.990577 1.165205 1.239459 0.045513 -0.018601 499470.000000 0 0 1
12.165733 25.978302 9.294089 30.153894 1.132826 1.257473 0.052157 -0.018124 -85529.900000 0 0 1
13.371933 25.159602 9.905089 30.164962 1.082280 1.236225 0.062404 -0.021989 -77253.700000 0 0 1
14.515733 25.941302 9.973789 31.354969 1.060642 1.247079 0.063986 -0.025650 -989324.000000 0 0 1
15.583533 25.087202 10.243389 31.259258 1.014953 1.236937 0.067265 -0.016562 54116.500000 0 0 1
16.867133 25.770302 10.814089 32.642811 0.991251 1.233131 0.062196 -0.017018 501470.000000 0 0 1
17.665433 26.488902 9.817789 33.318439 0.982633 1.271691 0.041109 -0.013459 1292490.000000 0 0 1
19.067733 26.577202 10.084289 34.228920 0.948457 1.271746 0.046246 -0.025420 620148.000000 0 0 1
19.507633 27.400502 11.308589 35.485482 0.952099 1.246458 0.042829 -0.018343 -846744.000000 0 0 1
19.450533 28.848802 11.301589 36.582817 0.977580 1.256727 0.035399 -0.021207 34017.800000 0 0 1
18.181133 29.475802 11.204389 36.399379 1.018104 1.257897 0.037848 -0.010314 -11835.700000 0 0 1
18.081133 30.925102 11.708089 37.687778 1.041721 1.254909 0.039127 -0.009266 -459464.000000 0 0 1
18.680133 31.932002 10.835889 38.548886 1.041481 1.285862 0.053634 -0.021955 296626.000000 0 0 1
18.079333 32.164202 9.564189 38.116556 1.058715 1.317166 0.061833 -0.031942 720538.000000 0 0 1
16.631733 32.777602 9.558389 37.978264 1.101237 1.316380 0.062005 -0.020315 617185.000000 0 0 1
16.639833 34.120802 9.927789 39.238682 1.117058 1.315006 0.061889 -0.019164 -118084.000000 0 0 1
15.366533 -33.848634 9.749789 38.430700 -1.144639 1.314295 0.066449 -0.005215 -145894.000000 0 0 1
15.310533 -32.385934 9.900889 37.165693 -1.129183 1.301142 0.065757 -0.001789 -42735.600000 0 0 1
16.096633 -31.696034 8.930789 36.653774 -1.100893 1.324666 0.067533 -0.011165 342596.000000 0 0 1
15.872833 -30.261734 8.930189 35.319508 -1.087727 1.315182 0.069266 -0.006702 -193414.000000 0 0 1
16.501533 -29.638434 7.681489 34.781355 -1.062777 1.348110 0.061251 0.002245 -19207.900000 0 0 1
15.835533 -29.890634 6.469289 34.439306 -1.083608 1.381828 0.059595 0.008949 79907.300000 0 0 1
16.617233 -29.422034 5.378189 34.215690 -1.056670 1.412957 0.062061 0.007801 141129.000000 0 0 1
16.140733 -29.921634 3.998389 34.231777 -1.076102 1.453726 0.067940 -0.006762 -20088.800000 0 0 1
16.498233 -31.278734 3.750789 35.561486 -1.085424 1.465126 0.064426 -0.011687 60259.900000 0 0 1
16.434633 -31.584334 2.427489 35.686973 -1.091008 1.502722 0.061262 -0.013399 -280548.000000 0 0 1
16.774133 -33.027334 2.133089 37.104264 -1.100860 1.513276 0.056870 -0.018293 -131400.000000 0 0 1
18.154033 -33.339834 2.179989 38.024542 -1.072174 1.513434 0.068039 -0.008816 161564.000000 0 0 1
18.481233 33.956302 1.547389 38.690836 1.072367 1.530792 0.078649 -0.020559 204165.000000 0 0 1
19.950133 33.486802 1.735589 39.017765 1.033500 1.526300 0.093999 -0.026327 267854.000000 0 0 1
20.159233 33.121802 3.104689 38.898425 1.024049 1.490896 0.073928 -0.041835 347158.000000 0 0 1
21.521933 32.854602 3.395689 39.422698 0.990868 1.484554 0.049617 -0.030212 -2929.440000 0 0 1
21.905433 32.828102 4.873689 39.765376 0.982371 1.447926 0.046398 -0.014126 -251366.000000 0 0 1
21.287133 31.822702 5.705989 38.708974 0.981229 1.422850 0.056465 -0.024026 386095.000000 0 0 1
22.106033 30.663802 5.820189 38.246830 0.946170 1.418028 0.040670 -0.024306 117807.000000 0 0 1
21.483933 29.675902 6.819289 37.265550 0.944175 1.386768 0.049572 -0.032210 1361850.000000 0 0 1
20.214333 29.133802 6.358189 36.025327 0.964213 1.393375 0.062846 -0.031731 750315.000000 0 0 1
19.298333 28.880202 7.386489 35.511293 0.981719 1.361263 0.055310 -0.036766 6386.710000 0 0 1
17.865133 29.183502 6.877089 34.901778 1.021480 1.372457 0.075512 -0.033969 -191648.000000 0 0 1
17.545933 30.581702 6.622289 35.874154 1.049910 1.385134 0.077607 -0.039266 121572.000000 0 0 1
17.953133 31.109102 5.389989 36.320011 1.047384 1.421843 0.075950 -0.036998 -318182.000000 0 0 1
17.794433 32.610702 5.475389 37.551026 1.071289 1.424463 0.080331 -0.036583 -149405.000000 0 0 1
16.450733 33.010802 5.522189 37.293890 1.108474 1.422178 0.088021 -0.033658 -295181.000000 0 0 1
16.383533 -34.073934 5.535189 38.211143 -1.122608 1.425427 0.082083 -0.036019 345132.000000 0 0 1
14.953233 -33.447034 5.755489 37.086775 -1.150380 1.414977 0.073147 -0.034587 676601.000000 0 0 1
14.185733 -33.496434 4.566189 36.661917 -1.170197 1.445923 0.066419 -0.027791 23611.700000 0 0 1
13.100933 -32.569434 4.676589 35.415716 -1.188355 1.438361 0.057151 -0.020078 303368.000000 0 0 1
12.147633 -32.652634 3.452289 35.009681 -1.214635 1.472026 0.051546 -0.021691 -96189.800000 0 0 1
11.181533 -31.617734 3.479589 33.716692 -1.230876 1.467411 0.045511 -0.019474 216258.000000 0 0 1
10.569833 -31.558034 2.133189 33.349383 -1.247607 1.506788 0.044275 -0.013319 -837826.000000 0 0 1
9.560133 -30.459334 2.068389 31.991333 -1.266668 1.506097 0.043485 -0.010097 -532850.000000 0 0 1
9.019533 -30.043334 0.781889 31.377783 -1.279140 1.545875 0.053047 -0.009318 163384.000000 0 0 1
8.034333 -30.899534 0.263089 31.928058 -1.316415 1.562556 0.041371 -0.011562 -724074.000000 0 0 1
8.516833 -31.390034 -1.116811 32.544092 -1.305852 1.605120 0.052708 -0.010370 -276664.000000 0 0 1
9.610733 -32.261134 -1.068811 33.679212 -1.281263 1.602537 0.054728 -0.012754 -417595.000000 0 0 1
9.743833 -32.944134 -2.301811 34.431912 -1.283226 1.637697 0.049594 -0.004183 635315.000000 0 0 1
11.031133 -33.845134 -2.141211 35.661797 -1.255724 1.630875 0.040665 -0.011172 509249.000000 0 0 1
10.911133 33.655402 -1.177611 35.399515 1.257287 1.604069 0.035367 -0.010309 -678175.000000 0 0 1
12.038533 32.860802 -1.152311 35.015516 1.219631 1.603711 0.050550 -0.016164 -754491.000000 0 0 1
12.160533 32.013202 0.109289 34.245227 1.207772 1.567605 0.036381 -0.014746 -379022.000000 0 0 1
12.494733 32.613702 1.348089 34.951241 1.204932 1.532216 0.046052 -0.017936 955278.000000 0 0 1
13.808133 33.177302 1.546389 35.969281 1.176410 1.527791 0.052420 -0.017609 1180980.000000 0 0 1
15.090933 32.281502 1.563789 35.668993 1.133502 1.526941 0.060192 -0.021054 -40456.800000 0 0 1
15.512633 31.858002 0.276089 35.435156 1.117659 1.563005 0.056961 -0.023653 -59384.600000 0 0 1
16.252433 30.649502 0.406989 34.694368 1.083229 1.559065 0.069722 -0.016209 -32549.800000 0 0 1
16.896733 30.112602 -0.926511 34.541667 1.059457 1.597623 0.058756 -0.010212 523599.000000 0 0 1
17.984233 30.893902 -1.418411 35.775378 1.043621 1.610454 0.036154 -0.007705 662251.000000 0 0 1
17.529033 32.086702 -2.136311 36.624954 1.070797 1.629159 0.052931 -0.016369 228538.000000 0 0 1
18.763933 32.737602 -2.834411 37.840053 1.050345 1.645772 0.050469 -0.014344 660890.000000 0 0 1
19.611633 33.376902 -1.882411 38.757931 1.039559 1.619384 0.048797 -0.013318 252827.000000 0 0 1
20.655033 34.099002 -2.518411 39.946398 1.026169 1.633883 0.053029 -0.013962 -872315.000000 0 0 1
21.579033 -33.681734 -1.554611 40.031621 -1.001005 1.609641 0.059367 -0.014601 -759156.000000 0 0 1
22.511633 34.134402 -0.768611 40.896476 0.987772 1.589592 0.049831 -0.014751 1018540.000000 0 0 1
23.463233 33.248602 -1.402411 40.718050 0.956261 1.605245 0.040101 -0.008160 345418.000000 0 0 1
24.480133 33.817602 -2.427111 41.818632 0.944218 1.628868 0.032751 -0.001508 -915574.000000 0 0 1
23.813933 -34.241734 -3.585211 41.862316 -0.963120 1.656544 0.043247 -0.013120 -207772.000000 0 0 1
24.625633 -33.525834 -4.473711 41.837990 -0.937272 1.677931 0.033433 -0.012943 -287447.000000 0 0 1
23.860433 -33.068734 -5.771911 41.184662 -0.945759 1.711406 0.040779 -0.021520 -643209.000000 0 0 1
22.811733 -32.251334 -5.438911 39.876126 -0.955180 1.707618 0.053876 -0.024238 -627745.000000 0 0 1
22.357833 -31.676434 -6.697411 39.346213 -0.956176 1.741847 0.052211 -0.026237 -171111.000000 0 0 1
21.434433 -30.444834 -6.544411 37.804129 -0.957363 1.744787 0.064110 -0.029531 812907.000000 0 0 1
20.184133 -30.772534 -5.900911 37.271555 -0.990275 1.729787 0.065851 -0.022270 511851.000000 0 0 1
19.487333 -29.581434 -5.633211 35.868516 -0.988281 1.728501 0.072495 -0.027024 703796.000000 0 0 1
18.237333 -29.804834 -4.690911 35.255256 -1.021679 1.704248 0.062979 -0.015921 629433.000000 0 0 1
17.078433 -30.326134 -5.290611 35.204230 -1.057906 1.721651 0.066785 -0.020670 -825847.000000 0 0 1
16.092933 -30.369134 -4.319611 34.639946 -1.083507 1.695822 0.048120 -0.017165 -1053020.000000 0 0 1
14.858533 -31.123834 -4.728211 34.811277 -1.125391 1.707042 0.042055 -0.016558 -683772.000000 0 0 1
15.008833 -32.487334 -4.627911 36.084754 -1.138016 1.699402 0.030496 -0.006454 -38819.500000 0 0 1
13.834233 -33.135634 -5.059311 36.262279 -1.175293 1.710773 0.043142 -0.001787 -31806.000000 0 0 1
14.100033 33.914602 -5.308311 37.110501 1.176786 1.714329 0.036068 -0.003613 -92981.100000 0 0 1
14.223933 33.204602 -4.074311 36.351972 1.166073 1.683112 0.043216 -0.012487 124305.000000 0 0 1
14.673433 31.857502 -4.251411 35.331070 1.139166 1.691419 0.043688 -0.016706 182820.000000 0 0 1
13.551733 30.805702 -4.637611 33.972756 1.156365 1.707734 0.040249 -0.016482 366993.000000 0 0 1
12.663733 30.585202 -3.579211 33.296178 1.178239 1.678501 0.039372 -0.016282 -255870.000000 0 0 1
12.891833 29.331302 -2.969811 32.176768 1.156688 1.663225 0.043692 -0.018985 158039.000000 0 0 1
11.613433 28.641802 -2.391011 30.999057 1.185582 1.648005 0.037749 -0.013722 694901.000000 0 0 1
10.898233 29.339502 -1.363011 31.327873 1.215139 1.614318 0.026316 -0.014350 1962.790000 0 0 1
9.799733 28.572302 -0.897911 30.219488 1.240389 1.600514 0.014500 -0.002925 -325425.000000 0 0 1
8.797433 29.485902 -0.190711 30.770921 1.280844 1.576994 0.002066 0.005634 230126.000000 0 0 1
7.728933 28.756102 0.412389 29.779521 1.308226 1.556948 -0.002810 0.003499 409088.000000 0 0 1
6.653633 29.617402 0.788689 30.365825 1.349812 1.544820 0.002779 0.005828 885361.000000 0 0 1
5.491633 28.934102 1.609489 29.494588 1.383229 1.516200 -0.008473 0.009088 605576.000000 0 0 1
4.924733 27.884602 0.848889 28.328865 1.395988 1.540826 -0.003770 0.005144 431086.000000 0 0 1
3.857733 27.252302 1.586089 27.569652 1.430174 1.513234 0.004923 0.002003 872032.000000 0 0 1
3.268333 26.020402 0.778689 26.236419 1.445844 1.541112 0.007005 -0.001412 -524839.000000 0 0 1
2.029733 25.610502 1.221889 25.719849 1.491708 1.523271 0.023483 -0.001807 -763928.000000 0 0 1
1.517333 24.643202 0.317089 24.691906 1.509302 1.557954 0.021747 -0.003629 1088400.000000 0 1 0
0.133233 24.010302 0.763889 24.022820 1.565247 1.538992 0.025699 -0.006584 728652.000000 0 1 0
-1.018867 24.743902 0.502589 24.769969 -1.529643 1.550505 0.033139 -0.015206 187196.000000 0 1 0
-2.132067 24.110402 1.185089 24.233481 -1.482596 1.521874 0.029041 -0.016328 180824.000000 0 1 0
-3.402167 24.944502 1.305789 25.209284 -1.435243 1.518975 0.051475 -0.026916 -985414.000000 0 0 1
-4.449467 24.101502 1.762489 24.572068 -1.388238 1.499007 0.039650 -0.033158 -612996.000000 0 1 0
-5.542867 24.758402 2.298589 25.475191 -1.350550 1.480445 0.042209 -0.032056 -371013.000000 0 0 1
-6.606267 25.173502 1.247989 26.055814 -1.314154 1.522881 0.057882 -0.031018 -649033.000000 0 0 1
-6.165267 26.222402 0.397789 26.940362 -1.339876 1.556030 0.061942 -0.032559 -292595.000000 0 0 1
-7.077667 26.419802 -0.638111 27.358846 -1.309050 1.594122 0.066834 -0.030685 -380084.000000 0 0 1
-6.846767 27.647302 -1.516911 28.522842 -1.328034 1.624004 0.076846 -0.028508 -163765.000000 0 0 1
-7.226867 28.880002 -0.950611 29.785664 -1.325594 1.602717 0.084065 -0.037779 66891.400000 0 0 1
-7.115567 29.772002 -2.034511 30.678048 -1.336195 1.637163 0.083635 -0.027686 -9569.160000 0 0 1
-7.261267 31.243102 -1.609511 32.116163 -1.342438 1.620933 0.071346 -0.029359 -610581.000000 0 0 1
-7.271167 32.221802 -2.604611 33.134550 -1.348854 1.649485 0.070629 -0.019199 530685.000000 0 0 1
-6.111367 32.595202 -3.372111 33.334173 -1.385455 1.672130 0.066285 -0.015792 281075.000000 0 0 1
-4.859167 33.116302 -2.664811 33.576810 -1.425106 1.650245 0.065582 -0.012286 -604972.000000 0 0 1
-4.826167 -33.997234 -2.510011 34.429696 1.429781 1.643764 0.058114 -0.007169 296979.000000 0 0 1
-3.939667 -33.663034 -1.447411 33.923677 1.454294 1.613476 0.050894 -0.003543 58926.800000 0 0 1
-3.720167 -32.153034 -1.169411 32.388652 1.455607 1.606910 0.035584 -0.001963 -4962.870000 0 0 1
-4.895067 -31.514134 -0.728711 31.900366 1.416699 1.593642 0.033928 -0.001603 -42260.600000 0 0 1
-5.294467 -30.459234 -1.612211 30.957964 1.398694 1.622897 0.038360 0.001335 798923.000000 0 0 1
-6.721067 -29.855934 -1.326511 30.631833 1.349371 1.614115 0.046984 -0.007588 748703.000000 0 0 1
-6.965167 -29.303934 -0.036111 30.120349 1.337439 1.571995 0.038806 -0.008813 -410154.000000 0 0 1
-8.208567 -28.673534 0.094889 29.825511 1.291977 1.567615 0.019559 -0.010733 -301911.000000 0 0 1
-8.277967 -28.005634 1.518289 29.242871 1.283397 1.518853 0.027051 -0.010392 -16125.300000 0 0 1
-7.259867 -27.046134 1.653489 28.052327 1.308553 1.511819 0.042608 -0.010737 -350579.000000 0 0 1
-7.139967 -26.500534 2.929789 27.601469 1.307618 1.464450 0.045553 -0.009694 198511.000000 0 0 1
-8.214267 -25.443134 3.367989 26.947553 1.258512 1.445486 0.033896 -0.008210 276153.000000 0 0 1
-8.131267 -24.246034 2.587389 25.703740 1.247219 1.469964 0.031182 -0.015483 -556003.000000 0 0 1
-8.990167 -23.253234 3.093889 25.121866 1.201877 1.447328 0.034432 -0.018654 -168010.000000 0 0 1
-8.321167 -21.977134 3.724189 23.792978 1.208848 1.413625 0.014210 0.000986 246537.000000 0 1 0
-7.627867 -22.201934 4.916789 23.985100 1.239863 1.364339 0.008110 -0.001007 -246501.000000 0 1 0
-6.828167 -21.140934 5.424789 22.869003 1.258390 1.331302 0.001455 0.008910 -313029.000000 0 1 0
-7.537067 -19.887734 5.852889 22.058687 1.208540 1.302247 0.007298 -0.004001 -293266.000000 0 1 0
-8.356167 -20.170934 6.977189 22.921022 1.178051 1.261486 0.017827 -0.008771 -164483.000000 0 1 0
-8.928367 -19.039234 7.490289 22.322916 1.132299 1.228615 0.014197 -0.011673 -946486.000000 0 1 0
-27.071667 29.163002 -5.592011 40.182414 -0.822570 1.710415 0.106592 0.002408 -61025.000000 0 0 1
-26.387917 30.014402 -4.699611 40.240189 -0.849607 1.687852 0.087442 -0.007522 505966.000000 0 0 1
-25.272867 29.372202 -4.049811 38.959531 -0.860275 1.674934 0.077298 0.000532 142042.000000 0 0 1
-24.482067 30.347502 -3.238811 39.125853 -0.891969 1.653670 0.067031 -0.008806 -943651.000000 0 0 1
-25.102547 30.902002 -2.094411 39.868009 -0.888584 1.623354 0.048554 -0.016015 378043.000000 0 0 1
-24.325567 31.921302 -1.384211 40.157425 -0.919629 1.605273 0.050333 -0.023925 731867.000000 0 0 1
-23.119367 31.385502 -0.536911 38.985166 -0.935910 1.584569 0.038874 -0.022133 400677.000000 0 0 1
-22.086567 30.939002 -1.388211 38.038998 -0.950819 1.607299 0.045990 -0.021384 -446599.000000 0 0 1
-20.876367 30.803002 -0.688611 37.217225 -0.975168 1.589300 0.036626 -0.017340 -355497.000000 0 0 1
-19.790767 30.083202 -1.506911 36.040869 -0.988910 1.612620 0.039646 -0.019806 99601.600000 0 0 1
-18.505567 30.213502 -0.909011 35.442037 -1.021241 1.596447 0.037389 -0.021708 531409.000000 0 0 1
-17.530567 29.471202 -1.653511 34.330841 -1.034182 1.618979 0.037941 -0.021947 435340.000000 0 0 1
-16.067967 29.754802 -1.237311 33.838716 -1.075653 1.607369 0.043632 -0.029152 -64340.500000 0 0 1
-15.743067 29.031402 -0.087811 33.025356 -1.073902 1.573455 0.042030 -0.031841 195854.000000 0 0 1
-14.530467 29.552702 0.443489 32.934683 -1.113827 1.557330 0.055060 -0.037727 121620.000000 0 0 1
-14.109267 28.732102 1.634489 32.051157 -1.114324 1.519778 0.063793 -0.040642 -278439.000000 0 0 1
-14.949167 28.923502 2.776689 32.676544 -1.093758 1.485719 0.040149 -0.034346 85454.300000 0 0 1
-14.516667 28.266102 3.973189 32.023310 -1.096350 1.446404 0.045602 -0.036646 569703.000000 0 0 1
-13.253767 28.930502 4.609489 32.154061 -1.141207 1.426944 0.059262 -0.027713 493327.000000 0 0 1
-13.562467 30.147602 5.287489 33.477992 -1.148051 1.412193 0.045331 -0.019074 -120348.000000 0 0 1
-13.633867 31.312402 4.448189 34.440314 -1.160138 1.441278 0.047955 -0.025937 -171500.000000 0 0 1
-13.533467 32.524502 5.370689 35.634846 -1.176488 1.419505 0.053435 -0.017733 -360947.000000 0 0 1
-14.627067 32.887602 6.172989 36.519190 -1.152309 1.400947 0.060478 -0.017486 -558253.000000 0 0 1
-14.352167 33.938802 7.110389 37.528450 -1.170720 1.380177 0.067113 -0.020786 -497346.000000 0 0 1
-15.384467 -33.979334 8.051389 38.158902 1.145650 1.358202 0.052008 -0.014985 -376567.000000 0 0 1
-15.452867 33.856802 9.309889 38.363370 -1.142618 1.325672 0.035895 -0.013453 -411462.000000 0 0 1
-16.632567 34.220602 9.945589 39.326920 -1.118379 1.315125 0.045046 -0.015343 -1216290.000000 0 0 1
-16.876967 33.499902 11.264189 39.165768 -1.104120 1.279073 0.044152 -0.013350 287664.000000 0 0 1
-15.931267 33.823102 12.258089 39.345498 -1.130602 1.253973 0.050070 -0.015285 552008.000000 0 0 1
-14.603367 33.307202 12.138689 38.340263 -1.157593 1.248649 0.054795 -0.011517 -27689.600000 0 0 1
-13.858967 33.301402 13.451489 38.496713 -1.176430 1.213845 0.054583 -0.007333 -474279.000000 0 0 1
-14.366267 32.419102 14.455989 38.293125 -1.153660 1.183692 0.042913 -0.000285 805580.000000 0 0 1
-13.677367 31.107202 14.462189 36.930790 -1.156553 1.168424 0.036269 -0.000680 250573.000000 0 0 1
-14.425267 30.066002 13.630289 36.025513 -1.123450 1.182782 0.041460 -0.004489 13056.500000 0 0 1
-14.209567 30.281202 12.193389 35.602552 -1.132047 1.221234 0.036487 0.003243 717926.000000 0 0 1
-15.334867 29.818102 11.446389 35.430173 -1.095790 1.241826 0.014100 -0.002442 259562.000000 0 0 1
-15.082967 29.667502 9.918289 34.727928 -1.100451 1.281164 0.009194 0.000036 -15053.400000 0 0 1
-14.292267 28.526802 9.583589 33.315049 -1.106340 1.279008 0.004620 0.000341 312646.000000 0 0 1
-14.394667 28.306302 8.223989 32.803767 -1.100346 1.317390 0.014684 -0.002205 -229725.000000 0 0 1
-13.591667 27.105902 7.643589 31.271197 -1.106007 1.323865 0.032226 -0.005614 1506570.000000 0 0 1
-12.158567 27.332402 7.506189 30.842079 -1.152241 1.324952 0.035582 -0.004247 1239980.000000 0 0 1
-11.470767 26.098302 7.602689 29.504249 -1.156690 1.310175 0.045818 -0.010848 290075.000000 0 0 1
-10.301667 26.048702 6.557689 28.769124 -1.194195 1.340833 0.060999 -0.018713 -74692.300000 0 0 1
-10.699967 26.088902 5.218889 28.676766 -1.181584 1.387786 0.072398 -0.027981 109977.000000 0 0 1
-9.622967 25.870502 4.341589 27.941613 -1.214688 1.414783 0.077217 -0.018279 -133752.000000 0 0 1
-9.949667 26.360502 2.883389 28.322886 -1.209883 1.468815 0.081421 -0.033191 54499.700000 0 0 1
-9.952167 27.720902 2.761689 29.582443 -1.226115 1.477305 0.082936 -0.028537 105445.000000 0 0 1
-10.409467 28.149502 1.479089 30.048946 -1.216599 1.521554 0.091030 -0.039169 77863.300000 0 0 1
-9.932267 29.618102 1.129589 31.259524 -1.247237 1.534653 0.103470 -0.036866 -216465.000000 0 0 1
-10.694367 30.608902 1.688889 32.467317 -1.234667 1.518755 0.085820 -0.040805 -521371.000000 0 0 1
-10.177167 31.899602 1.521389 33.518263 -1.261967 1.525391 0.081619 -0.034574 -412515.000000 0 0 1
-10.852167 32.960902 2.441589 34.787238 -1.252731 1.500552 0.069356 -0.026248 464359.000000 0 0 1
-12.172667 33.398002 2.156189 35.612491 -1.221287 1.510213 0.069135 -0.027380 2378.070000 0 0 1
-12.261467 34.112802 0.941589 36.261735 -1.225738 1.544827 0.061950 -0.029091 -793126.000000 0 0 1
-13.671267 -33.868334 0.601989 36.528482 1.187139 1.554316 0.059334 -0.031315 -14803.200000 0 0 1
-14.496367 33.575902 0.309089 36.572960 -1.163223 1.562345 0.044963 -0.034213 -551018.000000 0 0 1
-14.941367 33.481102 -1.048511 36.678713 -1.151055 1.599387 0.048016 -0.035236 274421.000000 0 0 1
-13.855067 33.104502 -2.123211 35.949672 -1.174423 1.629891 0.051041 -0.030817 147744.000000 0 0 1
-13.416967 31.783402 -2.195911 34.569085 -1.171353 1.634362 0.052254 -0.028461 -918307.000000 0 0 1
-12.068567 31.836302 -2.502811 34.138900 -1.208452 1.644175 0.067016 -0.023396 -1137060.000000 0 0 1
-11.359667 30.474102 -2.537011 32.621302 -1.213987 1.648647 0.062602 -0.030959 8742.280000 0 0 1
-11.658567 29.771502 -3.716711 32.188172 -1.197551 1.686523 0.060161 -0.026558 23556.600000 0 0 1
-10.485367 29.557202 -4.489311 31.681619 -1.229898 1.712976 0.046498 -0.014818 195828.000000 0 0 1
-10.743767 29.077002 -5.875511 31.550312 -1.216862 1.758117 0.056197 -0.015506 -123208.000000 0 0 1
-11.064767 27.683102 -5.821611 30.375555 -1.190554 1.763644 0.050176 -0.009711 16726.200000 0 0 1
-10.769267 27.092202 -7.058911 29.996545 -1.192443 1.808348 0.046409 -0.006314 103601.000000 0 0 1
-11.337267 25.701402 -7.328211 29.030990 -1.155356 1.825984 0.059370 -0.010393 -144432.000000 0 0 1
-10.643867 24.758602 -6.574211 27.739872 -1.164778 1.810068 0.044274 -0.008513 7182.540000 0 0 1
-11.230667 23.469502 -6.702511 26.867621 -1.124478 1.822923 0.069539 -0.020343 -111096.000000 0 0 1
-10.510067 22.374702 -5.901911 25.414983 -1.131657 1.805158 0.064389 -0.029267 -17415.200000 0 0 1
-9.126567 22.178202 -6.137511 24.755523 -1.180406 1.821334 0.067639 -0.025192 324099.000000 0 1 0
-8.523267 21.024502 -5.550111 23.355502 -1.185646 1.810728 0.060727 -0.025951 -6156.850000 0 1 0
-8.308667 21.003602 -4.018111 22.941893 -1.194104 1.746847 0.050863 -0.028123 806230.000000 0 1 0
-9.509867 20.907002 -3.186211 23.188192 -1.143904 1.708639 0.055157 -0.030552 934982.000000 0 1 0
-10.034667 19.577602 -3.093511 22.215914 -1.097152 1.710498 0.047432 -0.031077 336661.000000 0 1 0
-11.484067 19.603302 -2.510911 22.857776 -1.040866 1.680868 0.050157 -0.028531 345526.000000 0 1 0
-11.481167 19.455102 -1.123211 22.618130 -1.037661 1.620477 0.051072 -0.026034 152577.000000 0 1 0
-11.195567 18.170002 -0.628111 21.351445 -1.018582 1.600218 0.047032 -0.027987 -469899.000000 0 1 0
-10.984667 18.169502 0.919689 21.251812 -1.027026 1.527507 0.043415 -0.022451 411948.000000 0 1 0
-12.165767 18.015502 1.718689 21.806377 -0.976844 1.491899 0.059973 -0.027505 313355.000000 0 1 0
-11.929067 18.244702 3.096089 22.017210 -0.991728 1.429707 0.051019 -0.023176 -219008.000000 0 1 0
-13.140867 18.220702 4.039189 22.825236 -0.945980 1.392898 0.059305 -0.021604 -332302.000000 0 1 0
-13.782367 16.994502 4.138489 22.268674 -0.889390 1.383866 0.041752 -0.021549 -490709.000000 0 1 0
-14.947967 17.204502 4.879289 23.307597 -0.855466 1.359893 0.055300 -0.021417 -555883.000000 0 1 0
-15.538567 15.855502 5.399189 22.847215 -0.795493 1.332222 0.039746 -0.021366 -409761.000000 0 1 0
-14.795667 15.294202 6.452789 22.236521 -0.801965 1.276372 0.037273 -0.019265 178921.000000 0 1 0
-15.178467 15.841402 7.705389 23.253148 -0.806766 1.233041 0.028520 -0.022933 -660683.000000 0 1 0
-14.073067 15.719402 8.796089 22.858740 -0.840602 1.175803 0.019360 -0.015089 1411570.000000 0 1 0
-12.886767 16.534602 8.660189 22.681726 -0.908755 1.179039 0.025682 -0.025236 1214320.000000 0 1 0
-12.059267 16.356802 7.488489 21.657524 -0.935497 1.217739 0.029032 -0.022615 -616647.000000 0 1 0
-10.922667 17.372002 7.446789 21.829928 -1.009504 1.222680 0.035747 -0.025976 123646.000000 0 1 0
-9.897367 17.238002 8.443289 21.596197 -1.049594 1.169120 0.035959 -0.022156 624688.000000 0 1 0
-9.041267 18.394302 8.277589 22.104600 -1.113951 1.186967 0.029659 -0.027457 33685.500000 0 1 0
-7.814467 18.336402 9.199489 21.952679 -1.167933 1.138387 0.024312 -0.022787 -459551.000000 0 1 0
-6.744867 17.525502 8.724889 20.706524 -1.203409 1.135853 0.012524 -0.021067 1279290.000000 0 1 0
-5.513167 17.722202 9.500989 20.850425 -1.269198 1.097668 0.014806 -0.017560 1426720.000000 0 1 0
-4.627267 18.797602 8.869489 21.293879 -1.329433 1.141174 0.007228 -0.018932 -1462790.000000 0 1 0
-5.089567 20.096302 9.145989 22.658644 -1.322753 1.155302 0.013535 -0.019612 -161097.000000 0 1 0
-4.620667 21.146702 8.351189 23.200774 -1.355672 1.202579 0.019268 -0.024046 -472117.000000 0 1 0
-3.208767 21.727802 8.578689 23.579386 -1.424176 1.198429 0.020081 -0.020225 438975.000000 0 1 0
-2.127367 20.842402 8.252989 22.517620 -1.469079 1.195538 0.011757 -0.010659 748364.000000 0 1 0
-0.879167 21.547302 8.272489 23.097472 -1.530017 1.204505 0.012992 -0.004641 1508010.000000 0 1 0
0.375733 20.592302 8.088589 22.127118 1.552552 1.196572 0.018233 -0.002105 897956.000000 0 1 0
0.695933 19.800102 9.205189 21.846369 1.535663 1.135852 0.021450 -0.013877 -572798.000000 0 1 0
2.077233 19.560002 9.214689 21.721396 1.464995 1.132694 0.015086 -0.008383 -38992.800000 0 1 0
2.624733 18.780002 10.480689 21.666161 1.431934 1.065879 0.007494 -0.025247 -82851.800000 0 1 0
4.006933 18.930102 10.671889 22.097363 1.362205 1.066777 0.030752 0.003194 -281124.000000 0 1 0
4.465733 18.218502 11.784389 22.152390 1.330415 1.009872 0.022665 -0.004376 593230.000000 0 1 0
5.969033 18.344602 12.176489 22.812730 1.256218 1.007757 0.026341 0.002076 651820.000000 0 1 0
6.892033 17.613002 11.402589 22.084768 1.197809 1.028260 0.019518 0.005627 -241039.000000 0 1 0
7.828533 16.973602 12.212289 22.327765 1.138653 0.992073 0.016954 0.011419 -210306.000000 0 1 0
8.983833 16.163502 11.540689 21.798063 1.063504 1.012860 0.019448 0.005787 359757.000000 0 1 0
10.031533 17.076602 11.249589 22.777077 1.039661 1.054227 0.028845 0.001872 27743.300000 0 1 0
11.076233 16.389602 10.548089 22.417943 0.976491 1.080916 0.028551 -0.001498 99740.400000 0 1 0
11.983733 17.439602 9.868889 23.348330 0.968742 1.134395 0.038427 -0.001243 -200295.000000 0 1 0
12.879533 16.869902 8.939589 23.030245 0.918735 1.172154 0.042238 -0.002396 -316989.000000 0 1 0
13.548833 17.909102 8.292589 23.938960 0.923127 1.217060 0.058805 -0.006755 454116.000000 0 1 0
14.691133 17.439802 7.310189 23.946084 0.870736 1.260567 0.075925 -0.017443 784740.000000 0 1 0
15.814933 16.866702 7.966789 24.455418 0.817569 1.238973 0.084631 -0.012618 291614.000000 0 1 0
16.787133 16.476602 7.000189 24.541574 0.776063 1.281542 0.090191 -0.014415 1930660.000000 0 1 0
18.309433 16.455102 7.520989 25.740454 0.732109 1.274285 0.092826 -0.008915 1651910.000000 0 0 1
18.562333 15.366702 8.322189 25.494206 0.691489 1.238267 0.095811 -0.004852 -52529.400000 0 0 1
19.602233 15.617202 9.226789 26.707268 0.672729 1.218048 0.102171 -0.004651 -365262.000000 0 0 1
19.882833 14.420002 10.130689 26.568672 0.627471 1.179592 0.087106 0.001084 -13878.600000 0 0 1
20.473133 13.299102 9.450789 26.178859 0.576086 1.201447 0.087243 -0.013806 425823.000000 0 0 1
20.414533 12.118502 10.190389 25.835155 0.535716 1.165339 0.077108 -0.019461 -276720.000000 0 0 1
21.355133 10.967502 9.721489 25.900485 0.474450 1.186033 0.066107 -0.014553 -842149.000000 0 0 1
22.629633 11.145202 10.266089 27.234324 0.457633 1.184291 0.066858 -0.019813 285944.000000 0 0 1
23.676833 10.441802 9.620089 27.607422 0.415356 1.214868 0.077688 -0.016620 -5326.480000 0 0 1
23.934333 8.984802 10.040289 27.466095 0.359116 1.196570 0.086924 -0.020715 -313257.000000 0 0 1
22.776233 8.158902 9.849889 26.121730 0.343979 1.184159 0.080582 -0.025077 1014860.000000 0 0 1
22.757633 6.797702 10.340389 25.904483 0.290264 1.160181 0.078126 -0.022092 -447222.000000 0 0 1
23.717533 5.879402 9.557389 26.237995 0.242994 1.197961 0.083139 -0.028448 134447.000000 0 0 1
23.326433 5.746502 8.173689 25.376248 0.241542 1.242849 0.064852 -0.020496 1327560.000000 0 0 1
24.462633 5.364302 7.344189 26.098530 0.215869 1.285541 0.064983 -0.016590 736032.000000 0 0 1
24.197633 5.175102 5.849789 25.426898 0.210694 1.338654 0.064246 -0.018985 -125426.000000 0 0 1
23.317133 4.059202 5.646389 24.332026 0.172359 1.336606 0.059260 -0.015227 793162.000000 0 1 0
23.149133 3.791402 4.291689 23.846922 0.162340 1.389842 0.067369 -0.016960 -103044.000000 0 1 0
22.212233 2.618502 3.999589 22.720839 0.117344 1.393843 0.061486 -0.007788 -73112.200000 0 1 0
22.902933 1.398402 4.266489 23.338869 0.060982 1.386956 0.081733 -0.013145 723773.000000 0 1 0
22.101533 0.255802 4.013589 22.464463 0.011573 1.391168 0.077365 -0.014400 -356690.000000 0 1 0
22.846333 -1.031898 4.272389 23.265275 -0.045136 1.386110 0.088132 -0.017386 -627529.000000 0 1 0
22.986933 -1.377898 5.632289 23.706969 -0.059871 1.330923 0.102001 -0.018934 475831.000000 0 1 0
23.242833 -2.752298 5.767989 24.105479 -0.117866 1.329171 0.102860 -0.019975 -513107.000000 0 1 0
22.888833 -3.321898 7.183589 24.218539 -0.144126 1.269650 0.114943 -0.023431 -363313.000000 0 1 0
22.741133 -4.685198 7.250089 24.324350 -0.203180 1.268138 0.096690 -0.028481 358879.000000 0 1 0
22.627233 -5.093698 8.567089 24.725138 -0.221423 1.216966 0.116584 -0.030295 -265843.000000 0 1 0
22.263133 -6.505998 8.890389 24.839769 -0.284315 1.204768 0.114351 -0.031864 765263.000000 0 1 0
20.850233 -6.716498 8.764389 23.593602 -0.311634 1.190201 0.107364 -0.034723 906597.000000 0 1 0
20.508033 -7.964698 9.249589 23.865681 -0.370440 1.172804 0.098881 -0.037366 -468504.000000 0 1 0
-26.544937 -32.715034 5.279089 42.459109 0.889143 1.446140 0.021799 -0.009623 -68821.600000 0 0 1
-26.970117 -33.905734 5.894989 43.723414 0.898840 1.435560 0.038168 -0.014095 82336.300000 0 0 1
-27.024817 -33.794534 7.272289 43.878212 0.896250 1.404290 0.040656 -0.004015 -55700.500000 0 0 1
-27.741777 33.533302 7.962789 44.243582 -0.879635 1.389834 0.045283 0.007398 395600.000000 0 0 1
-29.130247 33.512502 7.651189 45.057738 -0.855241 1.400161 0.053626 -0.008131 -62196.700000 0 0 1
-29.659477 32.254402 8.067089 44.554561 -0.827285 1.388731 0.068542 -0.006223 2130070.000000 0 0 1
-31.267547 32.314302 8.130889 45.694474 -0.801860 1.391903 0.076402 -0.012827 1960740.000000 0 0 1
-31.870067 32.454502 6.861989 46.000899 -0.794484 1.421067 0.059912 -0.007126 645485.000000 0 0 1
-33.303167 32.396402 6.926789 46.974548 -0.771597 1.422798 0.052265 -0.010338 812998.000000 0 0 1
-33.989847 32.378202 5.561089 47.271380 -0.761119 1.452881 0.045676 -0.004265 -304010.000000 0 0 1
-33.925357 31.093202 4.970289 46.286292 -0.741866 1.463207 0.053294 -0.010012 123219.000000 0 0 1
-34.479954 31.130402 3.686689 46.600009 -0.734390 1.491600 0.065736 -0.009058 -173737.000000 0 0 1
-34.014087 29.931602 2.837889 45.397274 -0.721642 1.508243 0.069060 -0.012502 230241.000000 0 0 1
-34.593880 28.719002 3.289589 45.081471 -0.692872 1.497762 0.089952 -0.015102 343045.000000 0 0 1
-34.039646 27.732002 2.467089 43.975538 -0.683639 1.514665 0.075704 -0.013685 -79190.500000 0 0 1
-34.396070 26.309102 2.987289 43.407170 -0.652961 1.501922 0.093457 -0.018434 954842.000000 0 0 1
-35.776584 25.934302 2.810389 44.276972 -0.627240 1.507281 0.095374 -0.017462 845550.000000 0 0 1
36.253531 25.130902 3.853189 44.280106 0.606147 1.483668 0.093331 -0.015633 1032100.000000 0 0 1
34.750881 24.701102 3.662789 42.792338 0.617941 1.485097 0.094759 -0.017792 520771.000000 0 0 1
34.361031 23.790202 2.610789 41.874460 0.605580 1.508408 0.086575 -0.023378 193118.000000 0 0 1
34.871201 22.475902 2.712089 41.575501 0.572528 1.505517 0.072778 -0.016273 -517405.000000 0 0 1
33.996801 21.557002 1.817489 40.296279 0.565109 1.525678 0.080647 -0.014678 991803.000000 0 0 1
32.641671 21.448102 2.304189 39.125555 0.581334 1.511870 0.067110 -0.020028 1014120.000000 0 0 1
32.314821 20.582502 3.443189 38.467423 0.567137 1.481167 0.037156 -0.008035 -489057.000000 0 0 1
32.602011 19.037202 3.238689 37.891890 0.528517 1.485220 0.052517 -0.016017 -580231.000000 0 0 1
32.000201 18.417902 2.105689 36.981968 0.522252 1.513827 0.040607 -0.017752 246558.000000 0 0 1
32.319351 17.041502 1.980889 36.590671 0.485236 1.516633 0.044378 -0.016778 -494759.000000 0 0 1
31.608331 16.026702 2.909589 35.558508 0.469264 1.488879 0.047473 -0.015224 -304818.000000 0 0 1
30.207101 15.952602 2.773889 34.273152 0.485880 1.489773 0.020501 -0.003339 91865.100000 0 0 1
29.654451 15.069102 3.778789 33.477508 0.470151 1.457680 0.024237 -0.004086 1210510.000000 0 0 1
28.085141 15.206202 3.896089 32.174264 0.496242 1.449405 0.016712 -0.000833 823170.000000 0 0 1
27.406221 14.879702 2.731789 31.304459 0.497400 1.483420 0.023554 -0.012629 -182606.000000 0 0 1
26.032121 15.184802 2.818989 30.268734 0.528057 1.477529 0.012968 -0.000801 287244.000000 0 0 1
25.167521 14.484402 1.697689 29.087526 0.522225 1.512398 0.036319 -0.013463 -160343.000000 0 0 1
25.382621 14.807702 0.292089 29.387596 0.528109 1.560857 0.041672 -0.011075 -77292.600000 0 0 1
26.597421 14.360102 -0.248311 30.227421 0.495060 1.579011 0.046498 -0.016120 -739908.000000 0 0 1
27.036321 15.098502 -1.595911 31.007650 0.509309 1.622287 0.061321 -0.013777 160743.000000 0 0 1
27.544221 16.430702 -1.443011 32.105052 0.537857 1.615758 0.028982 -0.003565 6931.650000 0 0 1
28.808491 16.489902 -0.844611 33.204810 0.519876 1.596235 0.041331 -0.009267 -746237.000000 0 0 1
29.297481 17.969902 -0.663811 34.375870 0.550185 1.590108 0.044685 0.000513 38772.600000 0 0 1
29.574291 18.624802 -1.903211 35.002059 0.562017 1.625197 0.059892 0.004470 363141.000000 0 0 1
30.246521 19.852102 -1.653611 36.217295 0.580822 1.616470 0.052217 0.018065 202741.000000 0 0 1
30.478521 20.746102 -2.889611 36.982305 0.597641 1.649011 0.051955 0.012614 -673310.000000 0 0 1
31.516631 21.649202 -2.747311 38.334498 0.601889 1.642525 0.038401 0.016722 -441680.000000 0 0 1
31.704321 22.569802 -3.758611 39.098428 0.618657 1.667077 0.036823 0.007092 42621.100000 0 0 1
32.775051 23.651702 -3.444511 40.564414 0.625101 1.655813 0.022593 0.008675 18694.200000 0 0 1
32.414461 24.516502 -2.367811 40.710720 0.647549 1.628991 0.049986 0.006489 -26344.500000 0 0 1
32.783861 24.034402 -1.100211 40.665028 0.632608 1.597855 0.063557 0.013114 -281468.000000 0 0 1
32.617951 25.092502 -0.029511 41.152950 0.655730 1.571513 0.073994 -0.012605 -97551.500000 0 0 1
33.318261 26.297402 -0.185211 42.446368 0.668169 1.575160 0.080200 -0.008604 356402.000000 0 0 1
34.602431 26.296902 0.477889 43.463590 0.649853 1.559801 0.097088 -0.015032 1051870.000000 0 0 1
35.499571 27.538002 0.139189 44.928615 0.659765 1.567698 0.086956 -0.015357 72665.600000 0 0 1
36.008551 27.516802 -1.188211 45.334336 0.652511 1.597009 0.063215 -0.018363 673094.000000 0 0 1
35.002671 27.649202 -2.232911 44.661519 0.668562 1.620813 0.054984 -0.018285 391709.000000 0 0 1
35.432781 27.279702 -3.692011 44.869757 0.656116 1.653172 0.052549 -0.013672 704878.000000 0 0 1
-36.023927 28.027402 -4.201711 45.835717 -0.661195 1.662594 0.039642 -0.009685 956507.000000 0 0 1
-35.437146 27.582002 -5.435411 45.233857 -0.661391 1.691250 0.037270 -0.008658 -387748.000000 0 0 1
36.274871 27.620302 -6.713511 46.084906 0.650768 1.716994 0.018901 0.001481 -1177400.000000 0 0 1
35.235161 26.727502 -6.572311 44.710974 0.648948 1.718326 0.014522 0.003330 -1446860.000000 0 0 1
34.284831 26.950202 -7.542711 44.256700 0.666188 1.742063 -0.008823 0.007618 -448714.000000 0 0 1
32.992821 26.137302 -7.286311 42.717387 0.669974 1.742205 -0.006920 0.007616 -200949.000000 0 0 1
33.060721 24.718302 -7.577811 41.969381 0.642004 1.752348 0.001587 0.000587 -70222.800000 0 0 1
33.974371 23.944702 -6.795611 42.116351 0.613932 1.732858 0.006887 0.001831 209934.000000 0 0 1
34.077911 22.430302 -7.139311 41.417294 0.582123 1.744037 0.019017 0.003193 -109858.000000 0 0 1
33.039631 21.751402 -6.488711 40.085460 0.582218 1.733384 0.026744 0.006269 17168.800000 0 0 1
33.240501 20.340602 -6.618411 39.528147 0.549140 1.739024 0.042607 -0.008774 1029470.000000 0 0 1
31.943611 19.555802 -6.162611 37.957891 0.549340 1.733872 0.052704 -0.001385 1528510.000000 0 0 1
30.746951 19.651802 -6.951511 37.146895 0.568707 1.759042 0.049983 -0.010553 609072.000000 0 0 1
29.710121 18.952602 -6.278711 35.795456 0.567834 1.747114 0.074637 -0.015690 806894.000000 0 0 1
28.405531 18.797502 -7.152111 34.804784 0.584594 1.777763 0.056091 -0.031059 665865.000000 0 0 1
28.541831 17.711102 -8.053711 34.542460 0.555379 1.806116 0.059405 -0.032629 -285222.000000 0 0 1
27.328821 17.425202 -8.679611 33.553506 0.567618 1.832451 0.064248 -0.031433 -431718.000000 0 0 1
27.465021 16.331302 -9.701611 33.394013 0.536456 1.865566 0.066726 -0.028613 -85933.700000 0 0 1
26.512521 16.423002 -10.741011 32.984816 0.554593 1.902480 0.052242 -0.026801 247558.000000 0 0 1
26.901121 15.463702 -11.683011 33.155530 0.521710 1.930899 0.056495 -0.024188 4504.320000 0 0 1
25.987521 15.502502 -12.933311 32.908196 0.537869 1.974701 0.056905 -0.015138 -491928.000000 0 0 1
24.663321 15.178602 -12.644311 31.599810 0.551689 1.982465 0.037909 -0.011633 -351064.000000 0 0 1
23.760621 15.162002 -13.737811 31.355715 0.567975 2.024311 0.041824 -0.012279 -117392.000000 0 0 1
23.631921 13.793002 -14.471011 30.953591 0.528318 2.057264 0.039057 -0.014370 -360109.000000 0 0 1
24.834721 13.307602 -15.043711 31.940083 0.491912 2.061218 0.057700 -0.014713 261593.000000 0 0 1
25.234421 13.892402 -16.292811 33.094268 0.503253 2.085544 0.082557 -0.020864 61613.700000 0 0 1
26.666321 13.439002 -16.686811 34.207443 0.466818 2.080378 0.111893 -0.022399 301597.000000 0 0 1
26.707121 12.092402 -17.020311 33.899668 0.425162 2.096797 0.122769 -0.026120 -362523.000000 0 0 1
28.011681 11.797202 -17.426211 35.035712 0.398608 2.091377 0.117204 -0.015803 -230260.000000 0 0 1
28.250421 10.432302 -18.117911 35.145098 0.353746 2.112408 0.089313 -0.010292 -88706.700000 0 0 1
27.652061 10.250302 -19.404811 35.302293 0.354985 2.152772 0.089759 -0.017239 5303.890000 0 0 1
27.794731 9.066602 -20.080011 35.467692 0.315316 2.172623 0.063593 -0.010832 -366488.000000 0 0 1
29.151591 8.887402 -20.777411 36.884983 0.295917 2.169174 0.059172 -0.011083 -844367.000000 0 0 1
29.570991 9.893902 -21.663411 37.968885 0.322873 2.177980 0.071530 -0.011838 276161.000000 0 0 1
30.256941 9.336002 -22.781311 39.008096 0.299289 2.194462 0.050605 -0.004217 -628040.000000 0 0 1
31.710961 8.907302 -22.667911 39.984488 0.273834 2.173556 0.041151 -0.003129 -1122270.000000 0 0 1
32.661271 9.925202 -22.694911 40.991795 0.295015 2.157532 0.047292 -0.003954 36696.800000 0 0 1
33.966601 9.380502 -22.727111 41.931437 0.269452 2.143619 0.026751 0.001520 182166.000000 0 0 1
35.171891 10.319202 -22.607811 43.065775 0.285385 2.123464 0.042902 -0.004638 -177431.000000 0 0 1
35.121611 10.962802 -21.325211 42.526171 0.302555 2.096083 0.035226 -0.007353 645939.000000 0 0 1
36.119581 11.953002 -21.013611 43.463436 0.319585 2.075420 0.014998 -0.001825 424083.000000 0 0 1
35.785701 12.508902 -19.596011 42.674263 0.336274 2.047890 0.013055 0.003079 -227589.000000 0 0 1
36.156961 11.574102 -18.571411 42.263258 0.309800 2.025752 0.019984 -0.000549 186601.000000 0 0 1
-36.266057 12.222202 -17.324711 42.008984 -0.325060 1.995889 0.028965 -0.002832 -230350.000000 0 0 1
-35.747871 11.197202 -16.291811 40.849856 -0.303547 1.981028 0.026935 -0.006165 -281478.000000 0 0 1
35.856361 10.230102 -15.966911 40.562001 0.277924 1.975387 0.019822 -0.003921 159798.000000 0 0 1
-36.283837 9.240702 -15.085811 40.366931 -0.249377 1.953810 0.022500 -0.006716 787416.000000 0 0 1
35.101511 8.217402 -14.923011 39.017151 0.229963 1.963268 0.057371 -0.002008 1134730.000000 0 0 1
34.061461 8.514702 -13.993111 37.795376 0.244960 1.950057 0.073193 -0.009631 576007.000000 0 0 1
34.401351 8.316402 -12.633011 37.579363 0.237196 1.913642 0.069954 -0.014515 -900918.000000 0 0 1
33.336161 8.892102 -11.730811 36.441474 0.260671 1.898541 0.077605 -0.015371 -578309.000000 0 0 1
33.278111 10.348102 -11.684611 36.756578 0.301480 1.894301 0.081056 -0.023665 543617.000000 0 0 1
32.424031 10.897602 -10.644411 35.824280 0.324235 1.872480 0.061111 -0.011590 60186.100000 0 0 1
32.878151 10.524402 -9.166911 35.717897 0.309797 1.830348 0.074380 -0.017351 371580.000000 0 0 1
34.077091 11.172502 -8.753311 36.914677 0.316816 1.810199 0.068102 -0.013846 322135.000000 0 0 1
33.997151 12.612502 -8.599011 37.266936 0.355248 1.803636 0.079696 -0.016886 -701513.000000 0 0 1
33.528781 12.966502 -7.149611 36.652780 0.369012 1.767118 0.067177 -0.017336 -992072.000000 0 0 1
34.599731 12.914202 -6.313111 37.466964 0.357232 1.740102 0.075654 -0.015821 -825551.000000 0 0 1
34.340921 13.334702 -4.971411 37.172948 0.370383 1.704936 0.077811 -0.017244 -691603.000000 0 0 1
35.475911 13.104402 -4.014111 38.031286 0.353842 1.676541 0.081492 -0.015653 -885186.000000 0 0 1
-36.052587 13.998402 -4.132711 38.895033 -0.370360 1.677250 0.068991 -0.002035 -581840.000000 0 0 1
-35.001702 13.629702 -3.274111 37.704213 -0.371336 1.657743 0.054428 -0.009092 272642.000000 0 0 1
-33.779177 14.580702 -3.292811 36.938764 -0.407488 1.660057 0.055421 -0.015692 235456.000000 0 0 1
-34.149199 15.707402 -2.592811 37.677751 -0.431109 1.639666 0.086456 -0.015334 -113197.000000 0 0 1
-33.207467 16.733002 -2.677711 37.281354 -0.466757 1.642683 0.070341 -0.012226 -378421.000000 0 0 1
-33.480497 17.871902 -1.667211 37.988527 -0.490321 1.614698 0.086347 -0.005711 -135035.000000 0 0 1
-34.721020 18.504902 -1.868311 39.388719 -0.489666 1.618247 0.060350 -0.000356 -42884.600000 0 0 1
-35.021082 19.279402 -0.717711 39.983579 -0.503234 1.588747 0.054214 0.004180 329964.000000 0 0 1
36.222961 20.073102 -0.877411 41.422243 0.506027 1.591980 0.064021 0.006630 437587.000000 0 0 1
-36.279497 21.247402 -1.634911 42.075253 -0.529808 1.609663 0.069375 0.007199 -26668.300000 0 0 1
-36.273727 20.996902 -3.018711 42.021016 -0.524720 1.642696 0.034274 0.012676 -163930.000000 0 0 1
-36.138077 22.292902 -3.817411 42.632226 -0.552740 1.660459 0.063445 -0.022960 676566.000000 0 0 1
-34.755817 22.642202 -3.974811 41.670556 -0.577404 1.666328 0.063003 -0.004132 553343.000000 0 0 1
-34.502190 23.784702 -4.751611 42.174530 -0.603555 1.683701 0.071523 -0.011480 -775036.000000 0 0 1
-33.021857 23.958002 -4.980711 41.100321 -0.627649 1.692279 0.061367 -0.018797 -634387.000000 0 0 1
-32.459547 23.015802 -5.878311 40.223176 -0.616781 1.717464 0.057108 -0.014928 -237335.000000 0 0 1
-31.139817 23.361002 -6.260411 39.428636 -0.643627 1.730249 0.069471 -0.003136 58094.400000 0 0 1
-30.665257 22.410202 -7.406411 38.696642 -0.631100 1.763381 0.069612 -0.021073 62889.000000 0 0 1
-31.384907 22.638502 -8.618811 39.645909 -0.624891 1.789941 0.059896 -0.030202 597327.000000 0 0 1
-30.548337 22.440402 -9.806811 39.152855 -0.633563 1.823967 0.034168 -0.020697 679574.000000 0 0 1
-31.444537 22.212502 -11.028511 40.047250 -0.615010 1.849789 0.019510 -0.008182 22442.800000 0 0 1
-31.999787 23.484402 -11.368811 41.288659 -0.633112 1.849750 0.020796 -0.011786 -174376.000000 0 0 1
-32.633347 23.364502 -12.621711 42.073066 -0.621364 1.875484 0.005280 -0.000975 -563367.000000 0 0 1
-33.240857 24.724402 -13.143511 43.462657 -0.639518 1.878016 0.029696 -0.004206 -283403.000000 0 0 1
-32.415657 25.834102 -13.301811 43.532905 -0.672887 1.881320 0.026386 -0.007336 -618171.000000 0 0 1
-31.554607 25.781902 -14.431411 43.228062 -0.685055 1.911174 0.015386 -0.013696 -227352.000000 0 0 1
-30.225147 26.529002 -14.253511 42.667435 -0.720364 1.911405 0.020704 -0.008473 -395234.000000 0 0 1
-29.289597 25.902202 -13.374711 41.324175 -0.724100 1.900385 0.031144 -0.008583 197500.000000 0 0 1
-29.618817 25.754102 -11.958611 41.031165 -0.715717 1.866541 0.045051 -0.010020 -811543.000000 0 0 1
-29.834037 27.007602 -11.065411 41.736359 -0.735714 1.839131 0.063392 -0.004904 150455.000000 0 0 1
-28.668817 27.764802 -10.813811 41.348807 -0.769380 1.835400 0.075514 -0.000161 -22101.700000 0 0 1
-28.965957 28.878202 -9.974411 42.100666 -0.783881 1.809989 0.056637 -0.004529 1415740.000000 0 0 1
-27.634977 29.677502 -9.581111 41.668258 -0.821021 1.802810 0.070970 -0.002959 1277550.000000 0 0 1
-27.889817 30.922102 -8.944311 42.591302 -0.836912 1.782375 0.060764 -0.018714 -524482.000000 0 0 1
-26.749427 31.702302 -8.709211 42.384173 -0.869931 1.777753 0.077970 -0.005707 -314675.000000 0 0 1
34.717481 -25.390408 -34.238809 54.975198 -0.631454 2.243119 0.028529 -0.007055 -20957.600000 0 0 1
34.331231 -24.051398 -34.037751 53.996960 -0.611108 2.252819 0.025215 -0.012600 833826.000000 0 0 1
33.208311 -23.946598 -33.110531 52.654903 -0.624749 2.250833 0.034463 -0.009889 960328.000000 0 0 1
32.730661 -22.518098 -32.829051 51.537438 -0.602614 2.261389 0.030590 -0.009671 -44971.100000 0 0 1
32.193071 -21.924798 -33.962701 51.677420 -0.597888 2.287902 0.022723 -0.007183 -172612.000000 0 0 1
31.715591 -20.638798 -33.699511 50.670463 -0.576900 2.298387 0.018812 0.000189 197717.000000 0 0 1
31.386631 -19.825598 33.547428 50.036036 -0.563372 0.835961 0.010252 0.004797 -97110.700000 0 0 1
32.544241 -19.401898 32.873182 50.161812 -0.537599 0.856160 0.029723 -0.006794 -18231.600000 0 0 1
32.291391 -18.774398 31.613317 48.934791 -0.526635 0.868425 0.023358 0.000570 168776.000000 0 0 1
33.566781 -18.814698 30.725937 49.242308 -0.510881 0.896978 0.012257 0.005673 308422.000000 0 0 1
34.649371 -18.030298 31.174387 49.975124 -0.479806 0.897204 -0.001200 0.005454 85914.500000 0 0 1
35.671441 -18.005898 30.204487 50.089671 -0.467457 0.923530 0.000118 0.004494 -128978.000000 0 0 1
-35.869830 -16.882398 30.409027 49.963677 0.439899 0.916473 -0.007570 -0.001423 -438963.000000 0 0 1
-35.003130 -16.770998 29.306357 48.634844 0.446811 0.924067 0.011326 -0.003432 139918.000000 0 0 1
-34.037992 -15.747698 29.349457 47.623162 0.433324 0.906779 0.014895 -0.006156 -28397.200000 0 0 1
-32.741657 -16.048898 30.123347 47.296927 0.455751 0.880328 0.041913 -0.015349 -696200.000000 0 0 1
-32.280227 -14.954798 30.909077 47.127806 0.433843 0.855480 0.040624 -0.015478 268174.000000 0 0 1
-31.157897 -15.477798 31.612617 47.007812 0.461047 0.833219 0.048909 -0.024864 807054.000000 0 0 1
-30.101567 -14.405498 32.132257 46.326069 0.446351 0.804307 0.054779 -0.023279 673443.000000 0 0 1
-30.520627 -13.681498 33.282727 47.185082 0.421415 0.787858 0.058888 -0.021419 259694.000000 0 0 1
-29.525067 -12.767098 33.675132 46.569764 0.408135 0.762500 0.061303 -0.023209 -43766.300000 0 0 1
-29.580277 -12.380298 -33.308071 46.235183 0.396380 2.375183 0.048588 -0.016368 -100438.000000 0 0 1
-29.462267 -13.516698 -32.464921 45.876981 0.430131 2.356965 0.062087 -0.017271 234539.000000 0 0 1
-29.729937 -13.023898 -31.157191 44.991795 0.412892 2.335757 0.061516 -0.014092 -322728.000000 0 0 1
-29.697357 -14.079698 -30.050261 44.533012 0.442719 2.311471 0.063699 -0.016260 -16303.600000 0 0 1
-30.852547 -14.882698 -30.137961 45.625334 0.449454 2.292352 0.057559 -0.018162 -217061.000000 0 0 1
-31.141017 -15.458598 -28.877811 45.195787 0.460769 2.263928 0.062417 -0.019953 337132.000000 0 0 1
-32.400497 -16.363298 -28.936031 46.420294 0.467665 2.243814 0.069757 -0.026806 -1707.700000 0 0 1
-32.261967 -17.467998 -29.807301 47.269871 0.496249 2.253093 0.062068 -0.029712 107089.000000 0 0 1
-33.443877 -18.227198 -29.875991 48.407629 0.499003 2.235944 0.065060 -0.029010 -109970.000000 0 0 1
-33.092147 -19.598598 -30.457091 49.059450 0.534696 2.240585 0.053998 -0.024273 -284614.000000 0 0 1
-34.205614 -20.427898 -30.524121 50.190089 0.538365 2.224550 0.041118 -0.025104 -581239.000000 0 0 1
-33.936397 -21.633298 -31.213391 50.930879 0.567513 2.230469 0.031344 -0.013354 583512.000000 0 0 1
-35.229405 -22.511798 -31.450481 52.316583 0.568608 2.215745 0.026968 -0.002564 836498.000000 0 0 1
-35.971776 -22.771298 -30.279511 52.243177 0.564355 2.189019 0.025663 -0.010642 -242666.000000 0 0 1
35.627541 -23.771798 -30.312701 52.471706 -0.588393 2.186700 0.040085 -0.013728 -179770.000000 0 0 1
36.127851 -25.207448 -30.371701 53.507732 -0.609200 2.174400 0.038711 -0.007719 -102484.000000 0 0 1
-35.699368 -25.490818 -31.535671 54.025228 0.620088 2.194101 0.037082 0.000111 -116757.000000 0 0 1
-35.152600 -26.820458 -31.369951 54.213616 0.651752 2.187852 0.013798 0.009486 252047.000000 0 0 1
-35.023245 -27.568098 -32.712231 55.287592 0.666848 2.203930 0.019387 0.003438 527960.000000 0 0 1
36.291251 -27.973058 -33.228341 56.600968 -0.656677 2.198223 0.038826 -0.003083 38146.700000 0 0 1
-36.206897 -29.107958 -34.080091 57.616536 0.677135 2.203712 0.024540 -0.007508 102174.000000 0 0 1
-35.628403 -30.361598 -33.425311 57.519225 0.705755 2.190895 0.021979 -0.012654 180561.000000 0 0 1
36.215711 -30.864058 -32.307021 57.514446 -0.705786 2.167260 0.026509 -0.013481 -260629.000000 0 0 1
-35.651240 -31.895648 -31.743251 57.410603 0.729856 2.156656 0.024760 -0.017017 -263072.000000 0 0 1
-36.188317 -32.306288 -30.360071 57.227830 0.728782 2.130001 0.016216 -0.014424 112225.000000 0 0 1
35.333441 -33.235108 -30.303971 57.195762 -0.754806 2.129195 0.027483 -0.012420 73597.700000 0 0 1
34.969381 -33.518188 -28.957631 56.434661 -0.764212 2.109610 0.024525 -0.012935 102306.000000 0 0 1
33.849521 33.921517 -28.820131 55.920116 0.786461 2.112248 0.021136 -0.017553 471241.000000 0 0 1
32.711891 -34.122917 -29.540261 55.741083 -0.806507 2.129344 0.032839 -0.018508 -315834.000000 0 0 1
31.571311 33.793617 -28.998171 54.586172 0.819384 2.130856 0.041862 -0.015272 670208.000000 0 0 1
30.200741 33.999279 -29.743881 54.339067 0.844497 2.150021 0.038004 -0.010015 629379.000000 0 0 1
30.172121 33.491668 -31.068201 54.747437 0.837493 2.174241 0.039666 -0.001535 -672091.000000 0 0 1
29.109681 33.910835 -31.850491 54.879615 0.861435 2.189979 0.034071 0.003243 -526343.000000 0 0 1
28.938941 33.243596 -33.261361 55.217001 0.854514 2.217270 0.026195 0.000910 52575.700000 0 0 1
28.678921 31.823547 -33.263601 54.237311 0.837327 2.231025 0.026219 0.004294 127467.000000 0 0 1
28.242001 31.393687 33.971058 54.196006 0.838198 0.893333 0.029297 0.011251 59704.300000 0 0 1
28.059421 29.909847 33.901967 53.209712 0.817308 0.880016 0.035167 -0.002213 -203108.000000 0 0 1
29.267211 29.214387 34.041041 53.561577 0.784495 0.882076 0.048684 -0.002471 -419975.000000 0 0 1
29.078741 27.846017 -34.113965 52.770603 0.763746 2.273729 0.054422 -0.006433 1228260.000000 0 0 1
30.443881 27.115667 -33.719981 52.906771 0.727640 2.261847 0.066579 -0.014667 1076090.000000 0 0 1
31.004021 27.528927 -32.525801 52.697428 0.726098 2.235998 0.070750 -0.011072 82549.700000 0 0 1
32.125761 26.672557 -32.247101 52.757610 0.692918 2.228412 0.067499 -0.016173 860849.000000 0 0 1
32.826211 27.005337 -30.847171 52.520438 0.688416 2.198560 0.075899 -0.020117 510735.000000 0 0 1
33.692201 28.159047 -30.753921 53.608768 0.696177 2.181780 0.047546 -0.011892 421626.000000 0 0 1
33.065311 29.447337 -30.898441 53.992353 0.727587 2.180073 0.063409 -0.012848 463411.000000 0 0 1
32.229311 29.874377 -29.615751 52.993393 0.747497 2.163804 0.056981 -0.002939 -73316.400000 0 0 1
32.975471 30.053837 -28.479861 52.931251 0.739078 2.138923 0.041578 -0.003160 -768998.000000 0 0 1
32.217701 30.412297 -27.347061 52.064862 0.756580 2.123805 0.048138 -0.005837 -99439.200000 0 0 1
33.031631 30.730517 -26.025701 52.084455 0.749325 2.094029 0.050414 -0.009886 30415.000000 0 0 1
33.512481 32.021377 -26.021601 53.156173 0.762649 2.082348 0.034295 -0.008894 -83317.200000 0 0 1
34.050281 32.419227 -24.766811 53.139655 0.760865 2.055640 0.023643 -0.016750 -134140.000000 0 0 1
34.329221 33.937972 -24.672711 54.212767 0.779667 2.043291 0.031886 -0.016367 837866.000000 0 0 1
33.092641 -33.833738 -24.619011 53.347357 -0.796471 2.050465 0.050520 -0.013236 948099.000000 0 0 1
33.137301 -32.426418 -24.512411 52.444367 -0.774556 2.057142 0.045084 -0.016972 -723423.000000 0 0 1
33.674301 -31.689608 -25.760531 52.931983 -0.755044 2.079073 0.032769 -0.017680 243788.000000 0 0 1
35.008901 -31.831428 -26.177331 54.075093 -0.737896 2.076122 0.033485 -0.020895 -742278.000000 0 0 1
36.000251 -31.173788 -25.484431 54.011845 -0.713671 2.062162 0.033420 -0.014631 -89977.900000 0 0 1
-35.155944 -31.677158 -25.883641 53.938350 0.733393 2.071308 0.005926 -0.008088 -82015.400000 0 0 1
-34.892035 -32.959898 -25.399221 54.304046 0.756930 2.057509 0.008502 -0.015996 -152681.000000 0 0 1
-34.445995 -33.218338 -24.037311 53.551628 0.767257 2.036288 0.016577 -0.019723 604431.000000 0 0 1
-33.043687 -32.587898 -23.729611 52.124378 0.778454 2.043449 0.004470 -0.008475 216393.000000 0 0 1
-32.911687 -31.179958 -23.619511 51.119960 0.758385 2.051091 0.016979 -0.007654 -210716.000000 0 0 1
-32.908007 -30.717278 -22.273411 50.225422 0.750980 2.030262 0.012711 -0.008701 -242108.000000 0 0 1
-32.867567 -29.159608 -22.066511 49.167984 0.725690 2.036217 0.012420 0.004866 133516.000000 0 0 1
-34.042118 -28.468388 -22.434911 49.725649 0.696469 2.038877 0.002155 -0.001351 -258215.000000 0 0 1
-33.981857 -28.027068 -23.795211 50.064910 0.689661 2.066087 0.005059 -0.003580 197804.000000 0 0 1
-35.269403 -27.254158 -24.180311 50.709046 0.657898 2.067857 0.013859 -0.010155 288437.000000 0 0 1
-35.319664 -25.970858 -23.641011 49.808248 0.634032 2.065352 0.012502 -0.005934 -560020.000000 0 0 1
36.210731 -25.243698 -24.201111 50.340393 -0.608799 2.072305 0.027442 -0.011140 -317761.000000 0 0 1
-36.159027 -24.624698 -25.553531 50.663932 0.597868 2.099452 0.029487 -0.008542 -272101.000000 0 0 1
-35.065896 -23.713798 -25.483271 49.410104 0.594617 2.112679 0.027146 -0.016091 103095.000000 0 0 1
-34.797823 -23.070398 -26.705451 49.561204 0.585449 2.139853 0.039138 -0.020073 -624294.000000 0 0 1
-33.477117 -22.332898 -26.794341 48.346794 0.588309 2.158212 0.038476 -0.027261 -860866.000000 0 0 1
-33.300467 -21.137398 -26.074081 47.281798 0.565578 2.154911 0.057743 -0.026081 390946.000000 0 0 1
-34.174744 -20.005498 -26.369281 47.575961 0.529606 2.158266 0.052062 -0.024362 66907.100000 0 0 1
-35.395011 -19.827398 -25.456531 47.895381 0.510621 2.131170 0.042193 -0.011436 -290954.000000 0 0 1
-35.188995 -19.550798 -24.104311 46.920325 0.507128 2.110321 0.042778 -0.021728 58110.400000 0 0 1
-34.567634 -20.592998 -23.262711 46.477378 0.537274 2.094992 0.027420 -0.025892 -185009.000000 0 0 1
-35.465221 -21.717498 -22.807711 47.430194 0.549459 2.072442 0.036799 -0.021742 -567246.000000 0 0 1
36.140741 -21.298798 -21.905511 47.324871 -0.532536 2.052032 0.031384 -0.013721 -212196.000000 0 0 1
35.486081 -22.490198 -21.394311 47.146448 -0.564885 2.041804 0.025911 -0.003207 -399151.000000 0 0 1
34.634011 -22.254498 -20.179611 45.847510 -0.571129 2.026558 0.030300 -0.009507 -1237860.000000 0 0 1
33.443341 -21.703498 -20.592311 44.872511 -0.575646 2.047561 0.049495 -0.012451 -1461550.000000 0 0 1
32.479811 -21.774598 -19.565511 43.725056 -0.590586 2.034727 0.064628 -0.014671 432806.000000 0 0 1
31.184981 -21.007998 -20.015511 42.596476 -0.592827 2.059959 0.065920 -0.006620 483751.000000 0 0 1
30.467571 -21.752598 -21.030411 42.938638 -0.620033 2.082632 0.060205 -0.008270 772930.000000 0 0 1
29.292231 -21.169098 -21.607511 42.107601 -0.625790 2.109647 0.067851 -0.003097 535582.000000 0 0 1
29.413181 -19.937598 -22.536911 42.077969 -0.595702 2.136013 0.051488 -0.002230 -499764.000000 0 0 1
29.783861 -18.806998 -21.760011 41.403861 -0.563224 2.124164 0.065329 0.000416 41728.400000 0 0 1
29.713031 -17.563198 -22.475111 41.188115 -0.533845 2.147985 0.049630 0.003932 114016.000000 0 0 1
30.402901 -16.424398 -21.665711 40.786031 -0.495307 2.130818 0.051841 -0.005676 -39660.200000 0 0 1
29.700221 -16.207198 -20.456611 39.537948 -0.499530 2.114597 0.044633 -0.002933 1115280.000000 0 0 1
30.639131 -15.786798 -19.422411 39.562728 -0.475773 2.083950 0.031190 -0.003493 928145.000000 0 0 1
31.701941 -16.810498 -18.954511 40.581762 -0.487567 2.056770 0.044218 -0.015698 -498317.000000 0 0 1
32.772331 -17.066398 -19.792011 41.916719 -0.480114 2.062552 0.049287 -0.011757 -1189290.000000 0 0 1
33.546511 -18.098898 -19.327911 42.737650 -0.494759 2.040078 0.057996 -0.014198 13264.700000 0 0 1
34.717711 -18.445098 -20.302011 44.246048 -0.488363 2.047489 0.049608 -0.013830 192696.000000 0 0 1
35.724561 -17.479898 -20.395111 44.696216 -0.455048 2.044635 0.050436 -0.014072 -320793.000000 0 0 1
-35.715308 -18.067898 -20.968911 45.185478 0.468346 2.053373 0.045566 -0.015405 48940.700000 0 0 1
-34.763326 -17.026798 -21.644411 44.349535 0.455448 2.080641 0.066944 -0.013972 -54200.300000 0 0 1
-33.962107 -16.414698 -20.680811 43.018171 0.450218 2.072302 0.085992 -0.019402 -248611.000000 0 0 1
-33.085427 -15.472798 -21.269811 42.266510 0.437444 2.098130 0.091216 -0.022207 -84325.600000 0 0 1
-31.793087 -15.100698 -20.494911 40.729263 0.443422 2.098093 0.087538 -0.012792 724209.000000 0 0 1
-30.735437 -16.083198 -20.570411 40.329619 0.482097 2.106048 0.084747 -0.025901 578003.000000 0 0 1
-30.973197 -17.379698 -19.994511 40.757494 0.511341 2.083543 0.081697 -0.028759 -1163470.000000 0 0 1
-29.758057 -18.275898 -19.912311 40.200131 0.550759 2.089010 0.063549 -0.037735 -550623.000000 0 0 1
-30.168037 -19.504598 -19.369011 40.812969 0.573933 2.065283 0.058374 -0.034495 221049.000000 0 0 1
-29.132957 -20.455698 -19.364011 40.523200 0.612167 2.069002 0.049201 -0.033303 119734.000000 0 0 1
-29.782387 -21.850498 -18.962211 41.521083 0.632969 2.045066 0.028519 -0.010612 -479062.000000 0 0 1
-30.778427 -22.195198 -19.850211 42.824868 0.624766 2.052761 0.021736 -0.011784 -536385.000000 0 0 1
-31.243697 -23.490898 -19.477011 43.673160 0.644691 2.033056 0.013237 -0.000548 213919.000000 0 0 1
-32.246187 -24.100198 -20.496311 45.174494 0.641823 2.041725 0.004561 -0.004377 581188.000000 0 0 1
-31.518837 -24.314298 -21.699611 45.337571 0.657070 2.069882 0.000485 -0.009010 700981.000000 0 0 1
-32.408337 -24.888898 -22.642411 46.716553 0.654908 2.076790 0.012229 -0.006538 78578.500000 0 0 1
-31.978957 -24.749098 -24.122411 47.085691 0.658634 2.108667 0.015197 0.000909 -187488.000000 0 0 1
-30.794347 -25.453128 -24.404811 46.816112 0.690723 2.119159 0.011755 -0.005264 -197021.000000 0 0 1
-30.623537 -25.569798 -25.803911 47.512708 0.695705 2.144915 0.016064 0.002735 -806802.000000 0 0 1
-29.241957 -26.025928 -26.230811 47.122144 0.727274 2.161151 0.018866 0.000422 -811495.000000 0 0 1
-28.416557 -24.890498 -26.298001 46.028497 0.719348 2.178936 0.025219 -0.006342 506875.000000 0 0 1
-27.028707 -25.304538 -26.323731 45.429170 0.752464 2.188845 0.023922 -0.002420 931333.000000 0 0 1
-26.109837 -24.143498 -26.698201 44.468259 0.746290 2.214782 0.032631 -0.004295 -360623.000000 0 0 1
-26.253527 -23.614198 -27.991991 45.060289 0.732521 2.241085 0.030576 -0.015393 -327940.000000 0 0 1
-25.399237 -22.529398 -28.011491 44.015210 0.725592 2.260625 0.036351 -0.018572 -173635.000000 0 0 1
-25.439827 -21.915898 -29.414781 44.639901 0.711121 2.290198 0.033091 -0.018679 21863.100000 0 0 1
-24.915167 -22.787698 -30.403591 45.435923 0.740829 2.303865 0.037113 -0.012674 169867.000000 0 0 1
-24.725067 -22.157398 -31.655761 45.873374 0.730685 2.332380 0.040352 -0.010029 -94646.800000 0 0 1
-24.153267 -23.019998 -32.844661 46.819573 0.761379 2.348318 0.039967 -0.018989 122278.000000 0 0 1
-25.022967 -24.069198 -33.190161 48.031885 0.765972 2.333672 0.014777 -0.007788 214484.000000 0 0 1
-24.332067 -25.027198 -33.998851 48.727118 0.799480 2.343034 0.050895 -0.007447 394447.000000 0 0 1
-19.624467 -14.896698 -11.925411 27.372372 0.649292 2.021582 0.028595 0.005580 60705.600000 0 0 1
-20.082167 -14.349798 -10.675211 26.891826 0.620427 1.979008 0.032569 -0.003161 411142.000000 0 0 1
-19.197767 -14.673798 -9.604811 26.002443 0.652622 1.949139 0.027127 -0.009437 328489.000000 0 0 1
-19.734467 -13.987098 -8.277011 25.565544 0.616584 1.900493 0.048487 -0.020892 515353.000000 0 0 1
-20.855767 -14.595898 -7.634411 26.576070 0.610625 1.862168 0.051941 -0.015125 748775.000000 0 0 1
-21.355167 -13.907598 -6.468511 26.292700 0.577255 1.819367 0.070800 -0.023196 215747.000000 0 0 1
-22.622667 -14.530098 -5.830811 27.511946 0.570929 1.784353 0.068264 -0.022275 -468241.000000 0 0 1
-22.475967 -15.846298 -5.257811 27.998551 0.614096 1.759707 0.056193 -0.019409 469109.000000 0 0 1
-21.632267 -15.969498 -4.111111 27.200755 0.635923 1.722517 0.062364 -0.024190 -92512.700000 0 0 1
-21.351867 -17.397798 -3.594211 27.775960 0.683709 1.700560 0.042104 -0.014540 -202294.000000 0 0 1
-22.431067 -18.029198 -2.954611 28.929820 0.677030 1.673105 0.053142 -0.012001 61925.300000 0 0 1
-22.013367 -19.313998 -2.466611 29.388825 0.720174 1.654825 0.042046 -0.005117 -564286.000000 0 0 1
-23.132567 -20.153898 -1.896911 30.739121 0.716694 1.632546 0.057239 -0.015124 -500108.000000 0 0 1
-23.888767 -20.725898 -2.945411 31.763367 0.714624 1.663660 0.027806 -0.004547 -268994.000000 0 0 1
-24.722667 -21.798698 -2.620511 33.064492 0.722629 1.650134 0.047280 -0.002663 -93418.100000 0 0 1
-24.790367 -22.860098 -3.740611 33.928433 0.744911 1.681271 0.044610 -0.006465 -363157.000000 0 0 1
-23.546567 -23.486798 -3.910611 33.486765 0.784127 1.687844 0.045857 -0.008466 -696659.000000 0 0 1
-23.450067 -24.489398 -4.893311 34.257565 0.807075 1.714125 0.043101 -0.006008 71082.100000 0 0 1
-22.063567 -24.451098 -5.588211 33.404870 0.836682 1.738874 0.035094 -0.000902 337174.000000 0 0 1
-21.683167 -23.244598 -6.290511 32.404346 0.820138 1.766162 0.011728 0.012378 164090.000000 0 0 1
-21.501367 -22.041298 -5.543811 31.286762 0.797798 1.748930 0.008726 0.014521 -609182.000000 0 0 1
-21.481867 -20.715898 -6.380511 30.517700 0.767248 1.781426 0.014569 0.015869 -99236.400000 0 0 1
-20.335867 -20.515498 -7.175511 29.764427 0.789795 1.814271 0.005210 0.018518 -8836.760000 0 0 1
-20.495767 -19.285198 -7.796811 29.202493 0.754977 1.841066 -0.002740 0.025890 -502244.000000 0 0 1
-19.288367 -18.877598 -8.586511 28.321953 0.774636 1.878819 0.004877 0.018934 -911235.000000 0 0 1
-19.184367 -19.467298 -9.886911 29.064870 0.792718 1.917891 -0.001442 0.017896 -436427.000000 0 0 1
-17.891467 -19.490198 -10.438411 28.441745 0.828140 1.946589 0.034526 0.010574 -400699.000000 0 0 1
-17.449367 -18.186498 -11.093011 27.536958 0.806080 1.985415 0.024090 0.009577 -214290.000000 0 0 1
-17.053367 -17.115698 -10.190111 26.222182 0.787222 1.969915 0.029887 0.003855 393342.000000 0 0 1
-15.829267 -17.352998 -9.505911 25.338796 0.831286 1.955358 0.056226 -0.000720 -274179.000000 0 0 1
-15.355467 -16.306898 -8.519611 23.964329 0.815438 1.934258 0.045227 -0.002604 -136675.000000 0 1 0
-16.094667 -16.402598 -7.339311 24.123620 0.794873 1.879934 0.025754 0.000242 117108.000000 0 1 0
-16.472167 -15.100998 -6.808811 23.360915 0.741997 1.866551 0.046406 -0.003815 -37893.400000 0 1 0
-17.234467 -15.319998 -5.473011 23.699854 0.726658 1.803830 0.050128 -0.013288 -39370.900000 0 1 0
-17.260167 -14.243798 -4.523311 22.831108 0.689943 1.770236 0.030087 -0.011678 162042.000000 0 1 0
-17.930367 -14.709498 -3.332611 23.430188 0.687038 1.713516 0.032827 -0.004995 85875.100000 0 1 0
-18.474167 -13.496798 -2.501111 23.015516 0.630954 1.679682 0.026034 -0.010920 664398.000000 0 1 0
-19.617867 -12.966398 -3.203711 23.732930 0.584033 1.706200 0.048534 -0.028281 1103000.000000 0 1 0
-20.422167 -12.060498 -2.467511 23.845527 0.533449 1.674461 0.062055 -0.024523 1042770.000000 0 1 0
-21.978467 -12.246998 -2.662511 25.300809 0.508375 1.676226 0.073780 -0.018544 1053540.000000 0 0 1
-22.470367 -11.666298 -3.868411 25.612195 0.478878 1.722414 0.085197 -0.022132 373819.000000 0 0 1
-23.885467 -11.712298 -3.879711 26.883929 0.455900 1.715615 0.094047 -0.017096 142268.000000 0 0 1
-24.587567 -11.189598 -5.163611 27.503063 0.427080 1.759664 0.096410 -0.023957 -65615.400000 0 0 1
-24.337267 -11.920498 -6.342311 27.832100 0.455458 1.800694 0.091168 -0.028080 -90514.600000 0 0 1
-24.761067 -11.230698 -7.450211 28.191216 0.425813 1.838248 0.100309 -0.029907 -558292.000000 0 0 1
-24.244167 -11.675198 -8.802911 28.312208 0.448793 1.886960 0.096871 -0.032327 -731229.000000 0 0 1
-22.962167 -11.128498 -8.838811 27.004244 0.451288 1.904254 0.092396 -0.029297 -632360.000000 0 0 1
-22.290867 -11.440598 -10.041111 26.992480 0.474185 1.951955 0.073748 -0.021466 -282427.000000 0 0 1
-20.934867 -10.713098 -9.988911 25.550293 0.472991 1.972461 0.081748 -0.019256 -477382.000000 0 0 1
-20.996267 -9.375598 -10.436111 25.251881 0.419970 1.996850 0.077553 -0.018773 5578.100000 0 0 1
-19.844867 -8.635798 -10.151911 23.905168 0.410449 2.009398 0.077171 -0.009082 -497759.000000 0 1 0
-19.515267 -7.398398 -11.028211 23.605156 0.362368 2.056912 0.053428 0.002171 -156140.000000 0 1 0
-18.972367 -7.675098 -12.310511 23.883185 0.384415 2.112325 0.063436 -0.002534 361401.000000 0 1 0
-18.732267 -6.524598 -13.073311 23.756677 0.335167 2.153520 0.070329 -0.003661 60185.500000 0 1 0
-18.005967 -6.762698 -14.432711 24.046873 0.359280 2.214536 0.070493 -0.002369 135579.000000 0 1 0
-18.879267 -7.250098 -15.435811 25.441205 0.366659 2.222730 0.084159 -0.015413 32801.200000 0 0 1
-18.353267 -7.098898 -16.687411 25.801288 0.369069 2.274134 0.090610 -0.024401 -397941.000000 0 0 1
-19.105967 -7.787998 -17.814111 27.258640 0.387059 2.283024 0.093280 -0.023980 -1315730.000000 0 0 1
-20.333567 -7.286098 -18.146811 28.210777 0.344075 2.269542 0.101186 -0.030037 -604368.000000 0 0 1
-20.949267 -8.049698 -19.198111 29.533657 0.366853 2.278436 0.102131 -0.029806 127537.000000 0 0 1
-22.414067 -7.613598 -19.469111 30.649691 0.327451 2.259082 0.087462 -0.031613 -543827.000000 0 0 1
-22.541867 -6.379298 -20.161211 30.908019 0.275786 2.281407 0.099010 -0.036189 139864.000000 0 0 1
-23.720367 -6.221798 -20.921811 32.234900 0.256519 2.277121 0.085189 -0.034740 -1179050.000000 0 0 1
-24.953467 -5.895598 -20.188511 32.634485 0.232009 2.237788 0.090282 -0.029765 -1764400.000000 0 0 1
-25.028367 -4.624198 -19.586211 32.115760 0.182698 2.226684 0.091766 -0.024998 -676967.000000 0 0 1
-26.163747 -4.455098 -18.816911 32.534070 0.168660 2.187532 0.094537 -0.019582 -1202280.000000 0 0 1
-26.336887 -3.035798 -18.227111 32.172586 0.114761 2.173099 0.077794 -0.012834 36647.400000 0 0 1
-26.669127 -2.012098 -19.125811 32.879896 0.075304 2.191598 0.074945 -0.013866 563951.000000 0 0 1
-27.963537 -2.215798 -19.709311 34.283030 0.079074 2.183278 0.068216 -0.005627 168153.000000 0 0 1
-28.479077 -1.091798 -20.636411 35.186806 0.038318 2.197504 0.057316 -0.006672 -163539.000000 0 0 1
-27.902287 -0.977098 -21.966011 35.524611 0.035004 2.237415 0.059951 0.001706 7076.820000 0 0 1
-28.179917 -1.912898 -22.966811 36.403864 0.067778 2.253495 0.049737 0.006860 -521462.000000 0 0 1
-27.480827 -1.545698 -24.254611 36.686117 0.056187 2.293132 0.045262 0.004141 -722028.000000 0 0 1
-27.889277 -0.419398 -25.055811 37.493751 0.015037 2.302672 0.016915 0.005777 -12337.700000 0 0 1
-27.520227 0.882302 -24.551911 36.890889 -0.032049 2.298997 0.047250 0.010818 8261.490000 0 0 1
-26.067277 1.212702 -24.123811 35.537752 -0.046488 2.316954 0.058340 -0.000117 127970.000000 0 0 1
-25.104257 1.057902 -25.152691 35.552788 -0.042115 2.356715 0.048631 -0.003847 718231.000000 0 0 1
-23.774267 1.031202 -24.585911 34.216168 -0.043348 2.372507 0.054736 -0.004203 1007020.000000 0 0 1
-22.760867 0.320702 -25.521841 34.198308 -0.014089 2.413266 0.058644 -0.011062 -72368.700000 0 0 1
-22.414667 1.084002 -26.644691 34.835785 -0.048324 2.441629 0.036490 -0.006447 141554.000000 0 0 1
-21.569467 0.292502 -27.472841 34.929708 -0.013560 2.475947 0.023049 -0.011354 90361.800000 0 0 1
-21.305667 0.808502 -28.873991 35.892792 -0.037930 2.505547 0.021113 -0.004139 -290207.000000 0 0 1
-20.460367 1.935202 -28.933041 35.489329 -0.094302 2.523975 0.028427 -0.004872 103506.000000 0 0 1
-20.443367 2.588002 -30.197611 36.558511 -0.125924 2.542784 0.007825 -0.001016 386506.000000 0 0 1
-19.666067 1.925402 -31.445981 37.139078 -0.097594 2.580565 -0.000150 0.000199 367695.000000 0 0 1
-18.268267 2.121602 -31.394321 36.384532 -0.115618 2.611674 -0.002616 0.001944 -67380.100000 0 0 1
-17.697867 1.694102 -32.630381 37.159471 -0.095433 2.642710 -0.000176 -0.000208 865971.000000 0 0 1
-16.132367 1.794902 -32.642241 36.455327 -0.110805 2.680134 0.017441 -0.016841 377206.000000 0 0 1
-15.569367 3.070502 -32.633871 36.287776 -0.194716 2.688980 0.018786 -0.010783 1011900.000000 0 0 1
-14.136167 3.029802 -32.836241 35.877983 -0.211135 2.726849 0.027421 -0.014931 1340860.000000 0 0 1
-13.500467 4.363602 -33.354041 36.246320 -0.312620 2.739400 0.033476 -0.014727 -110553.000000 0 0 1
-13.325167 5.297402 -32.258041 35.301611 -0.378391 2.723300 0.034171 -0.026871 179782.000000 0 0 1
-12.574267 6.405602 -32.708021 35.622445 -0.471156 2.734273 0.038862 -0.014307 -207481.000000 0 0 1
-12.478267 7.394902 -31.594251 34.764758 -0.534977 2.711198 0.045880 -0.018242 -978089.000000 0 0 1
-11.521967 7.104802 -30.641151 33.497971 -0.552558 2.725602 0.075626 -0.034863 -501617.000000 0 0 1
-11.770867 6.086002 -29.720001 32.540301 -0.477186 2.722182 0.060345 -0.036619 -136360.000000 0 0 1
-10.441767 5.365702 -29.316881 31.580069 -0.474681 2.760705 0.089458 -0.044150 332831.000000 0 0 1
-9.823867 4.688402 -30.434811 32.322859 -0.445279 2.798111 0.069499 -0.051666 298628.000000 0 0 1
-10.479667 3.496802 -30.828041 32.747812 -0.322058 2.797486 0.076656 -0.047498 -298010.000000 0 0 1
-9.825167 2.812802 -32.040011 33.630464 -0.278828 2.832822 0.076533 -0.040618 -373991.000000 0 0 1
-10.553367 1.668902 -32.372081 34.089741 -0.156840 2.822797 0.079724 -0.035663 54547.400000 0 0 1
-10.072167 0.812002 -33.364411 34.861036 -0.080444 2.847511 0.071010 -0.030175 -713530.000000 0 0 1
-10.620967 1.194602 33.745110 35.397238 -0.112005 0.306730 0.073738 -0.029351 529473.000000 0 0 1
-12.028067 0.998702 33.581360 35.684444 -0.082841 0.345033 0.049334 -0.022158 362444.000000 0 0 1
-12.342567 1.366102 32.266147 34.573248 -0.110233 0.367387 0.039236 -0.010933 -10357.600000 0 0 1
-13.764367 1.066802 31.750727 34.622313 -0.077350 0.410153 0.032843 -0.006190 551305.000000 0 0 1
-14.778967 2.054802 31.966557 35.277484 -0.138150 0.436715 0.027878 0.001438 488590.000000 0 0 1
-16.063967 1.547502 31.649867 35.526890 -0.096037 0.471538 0.028523 0.005558 394514.000000 0 0 1
-17.146767 2.663502 31.582367 36.035424 -0.154104 0.502408 0.034354 0.007649 -135739.000000 0 0 1
-17.343667 3.418402 32.771797 37.235453 -0.194604 0.494674 0.021922 -0.001675 -20552.500000 0 0 1
-16.669367 4.632202 32.835860 37.114940 -0.271048 0.484931 0.027562 0.002305 -611718.000000 0 0 1
-17.185867 5.493102 33.966566 38.461095 -0.309366 0.488280 0.014873 0.000322 57732.300000 0 0 1
-18.572167 5.748102 33.843987 39.030520 -0.300150 0.521414 0.012942 0.002164 -431181.000000 0 0 1
-19.232267 5.311002 -33.526421 39.014199 -0.269436 2.604772 0.001760 0.006129 254623.000000 0 0 1
-20.611167 6.045102 -33.443981 39.747495 -0.285292 2.570685 -0.003066 -0.004909 -39974.600000 0 0 1
-20.451567 7.424802 -33.077861 39.592161 -0.348247 2.559775 -0.003468 -0.010287 152084.000000 0 0 1
-20.236667 8.297402 -34.165995 40.567041 -0.389113 2.572167 -0.005036 -0.011629 -374574.000000 0 0 1
-20.178867 9.792102 -33.728801 40.505604 -0.451790 2.554753 -0.005135 -0.005135 -25775.100000 0 0 1
-19.040267 10.211802 -32.961301 39.411420 -0.492285 2.561367 -0.002870 0.000471 633118.000000 0 0 1
-18.960067 11.639402 -32.956521 39.762949 -0.550570 2.547800 -0.004715 -0.001956 186594.000000 0 0 1
-18.256167 12.330802 -34.178826 40.663601 -0.594046 2.569050 -0.005208 -0.010118 -259133.000000 0 0 1
-19.088267 12.300402 33.216149 40.236481 -0.572426 0.599668 0.014318 -0.016064 120833.000000 0 0 1
-18.368467 12.391902 32.002537 38.924571 -0.593495 0.605587 0.020950 -0.014535 -306629.000000 0 0 1
-19.029267 11.537602 30.936497 38.109003 -0.545045 0.623586 0.034551 -0.022811 -292308.000000 0 0 1
-18.955767 10.098502 30.987427 37.703070 -0.489496 0.606092 0.043992 -0.021584 367689.000000 0 0 1
-17.685767 9.512102 30.706017 36.689589 -0.493459 0.579177 0.048114 -0.019564 447968.000000 0 0 1
-17.690167 7.972902 30.857387 36.451166 -0.423433 0.561344 0.047252 -0.014832 301773.000000 0 0 1
-18.666067 7.459302 29.956267 36.075493 -0.380177 0.591012 0.047600 -0.006349 378351.000000 0 0 1
-18.756767 6.061202 30.037137 35.927484 -0.312555 0.580754 0.047234 -0.003738 -12822.000000 0 0 1
-19.673067 5.469702 28.949677 35.426417 -0.271181 0.614299 0.051279 -0.007098 1476170.000000 0 0 1
-21.080667 5.836802 28.957557 36.290535 -0.270113 0.646932 0.069620 -0.014504 1400130.000000 0 0 1
-21.853067 4.994402 28.122437 35.963482 -0.224686 0.672973 0.062208 -0.014361 774178.000000 0 0 1
-23.309167 5.448802 27.787417 36.676249 -0.229639 0.711106 0.057770 -0.013232 472163.000000 0 0 1
-23.436167 6.381002 26.795517 36.165880 -0.265828 0.736378 0.063599 -0.018545 -135106.000000 0 0 1
-24.773667 6.516202 26.387007 36.775938 -0.257203 0.770579 0.061251 -0.016835 -527564.000000 0 0 1
-25.052617 6.866002 24.896567 35.980754 -0.267495 0.806622 0.063410 -0.024063 -148026.000000 0 0 1
-24.925867 5.812602 23.990407 35.080263 -0.229101 0.817740 0.068747 -0.022834 961030.000000 0 0 1
-26.157067 5.061802 23.905337 35.794960 -0.191153 0.839492 0.068078 -0.015148 608190.000000 0 0 1
-26.470977 4.461802 22.522527 35.041183 -0.166985 0.872721 0.078865 -0.015052 85238.500000 0 0 1
-27.203177 5.288202 21.622227 35.149660 -0.192002 0.908223 0.079266 -0.011703 143182.000000 0 0 1
-27.254327 4.550102 20.374327 34.330962 -0.165424 0.935435 0.095631 -0.009934 -131217.000000 0 0 1
-28.009117 5.308902 19.267827 34.408491 -0.187320 0.976443 0.089581 -0.010382 -276428.000000 0 0 1
-29.382237 5.154002 19.472727 35.623962 -0.173646 0.992475 0.089752 -0.010666 -216647.000000 0 0 1
-30.237527 5.689802 18.450127 35.876024 -0.185995 1.030635 0.090923 -0.002994 642765.000000 0 0 1
-31.742567 5.802002 18.777527 37.334291 -0.180787 1.043780 0.090230 -0.003801 181255.000000 0 0 1
-32.144017 6.867002 19.599927 38.269449 -0.210469 1.033103 0.072020 -0.003783 702193.000000 0 0 1
-33.528577 6.714102 19.944927 39.585916 -0.197636 1.042759 0.070940 -0.001364 609471.000000 0 0 1
-34.033707 7.770502 20.902627 40.688988 -0.224470 1.031285 0.062876 0.000137 44074.100000 0 0 1
-33.467167 7.595302 22.196327 40.870733 -0.223168 0.996688 0.059248 -0.006004 -75633.100000 0 0 1
-34.153146 8.287002 23.160527 42.089450 -0.238042 0.988110 0.063732 -0.008828 -437596.000000 0 0 1
-0.457367 32.252202 11.435389 34.222534 -1.556616 1.230095 0.027891 -0.009388 -117736.000000 0 0 1
-0.644067 32.430102 12.834289 34.883310 -1.550939 1.194025 0.021852 -0.010402 152172.000000 0 0 1
-0.201867 33.746702 13.176789 36.228558 -1.564815 1.198546 0.015587 -0.016953 -330786.000000 0 0 1
-0.144867 33.934502 14.686389 36.976498 -1.566527 1.162352 0.015952 -0.008281 -245364.000000 0 0 1
-1.352767 34.034602 15.391889 37.377725 -1.531070 1.146375 0.014431 0.006339 -432236.000000 0 0 1
-1.088367 -34.190134 16.707889 38.069717 1.538974 1.116449 0.006332 -0.006162 513258.000000 0 0 1
-2.318267 -33.791634 17.606589 38.173824 1.502299 1.091425 0.013900 -0.000781 182010.000000 0 0 1
-3.087467 33.618402 17.969189 38.244230 -1.479215 1.081671 0.010604 0.000533 -434167.000000 0 0 1
-3.835067 33.962102 19.090189 39.148019 -1.458351 1.061410 0.020035 -0.004012 -224863.000000 0 0 1
-4.917467 32.942602 19.523089 38.607609 -1.422617 1.040627 0.012579 -0.006794 216308.000000 0 0 1
-6.032967 32.937902 18.659689 38.333876 -1.389642 1.062411 0.014956 -0.008839 -343167.000000 0 0 1
-7.094467 32.179902 19.163389 38.119719 -1.353805 1.044059 0.028022 -0.022478 -472707.000000 0 0 1
-8.200167 32.050202 18.122789 37.721263 -1.320316 1.069640 0.019713 -0.023987 -102449.000000 0 0 1
-9.046767 33.200702 17.892689 38.785035 -1.304768 1.091303 0.029507 -0.024432 290867.000000 0 0 1
-9.642167 33.097302 16.629189 38.274439 -1.287314 1.121344 0.031805 -0.011590 230066.000000 0 0 1
-10.725867 34.200302 16.321589 39.383996 -1.266892 1.143489 0.057900 -0.021609 59676.400000 0 0 1
-11.925867 34.040002 16.990189 39.869970 -1.233811 1.130575 0.060148 -0.015858 -200037.000000 0 0 1
-12.893667 -33.466034 16.730289 39.574293 1.203047 1.134311 0.048585 -0.018937 215159.000000 0 0 1
-14.252567 -33.684234 17.401689 40.504099 1.170517 1.126716 0.080246 -0.017760 -241614.000000 0 0 1
-14.277167 -33.343834 18.732289 40.823368 1.166235 1.094082 0.083455 -0.016270 1226460.000000 0 0 1
-15.564067 -33.621334 19.359489 41.802202 1.137248 1.089283 0.075334 -0.026168 1295880.000000 0 0 1
-15.519967 -33.199734 20.839189 42.158789 1.133508 1.053764 0.077321 -0.045329 -110866.000000 0 0 1
-15.369767 -31.791734 21.110389 41.141130 1.120475 1.031979 0.084579 -0.037295 225004.000000 0 0 1
-15.233367 -31.506734 22.476689 41.592443 1.120439 0.999880 0.081083 -0.029496 75114.700000 0 0 1
-15.140267 -30.027934 22.933989 40.704697 1.103790 0.972272 0.083186 -0.036975 -66105.400000 0 0 1
-15.251267 -29.781134 24.310789 41.358573 1.097506 0.942453 0.078833 -0.047503 -146841.000000 0 0 1
-15.077467 -28.419634 24.699389 40.559406 1.083024 0.916037 0.061372 -0.022411 -341228.000000 0 0 1
-16.201267 -27.447034 24.347489 40.107617 1.037559 0.918448 0.073229 -0.020771 -109275.000000 0 0 1
-17.378567 -27.546234 25.127589 41.136423 1.007975 0.913681 0.085268 -0.022656 -42946.800000 0 0 1
-18.341667 -26.608834 24.743789 40.702603 0.967283 0.917362 0.080092 -0.022869 -99870.000000 0 0 1
-19.477967 -26.431934 25.821489 41.770655 0.935725 0.904380 0.081522 -0.019622 724042.000000 0 0 1
-20.300067 -27.597834 26.159089 43.104885 0.936596 0.918679 0.087077 -0.017590 924476.000000 0 0 1
-21.185367 -28.133134 25.170489 43.287949 0.925353 0.950266 0.067974 -0.019269 648903.000000 0 0 1
-22.509667 -27.291034 24.963289 43.297245 0.881115 0.956289 0.050876 -0.009505 355138.000000 0 0 1
-22.373967 -26.018534 24.381389 42.095257 0.860569 0.953055 0.062078 -0.016967 168139.000000 0 0 1
-23.530067 -25.827834 23.580589 42.151930 0.831918 0.977112 0.056833 -0.013468 128931.000000 0 0 1
-23.846567 -24.387734 23.214089 41.259111 0.796617 0.973219 0.059373 -0.002403 -133347.000000 0 0 1
-24.395167 -23.650134 24.261289 41.750008 0.769893 0.950706 0.050260 -0.003743 103664.000000 0 0 1
-24.914467 -22.400634 23.821389 41.109338 0.732318 0.952725 0.045927 0.002203 215571.000000 0 0 1
-25.449187 -21.552634 25.013389 41.687490 0.702685 0.927268 0.048409 0.000052 1169880.000000 0 0 1
-26.641627 -22.073734 25.677489 43.085490 0.691905 0.932328 0.034885 0.009285 1133390.000000 0 0 1
-27.150277 -21.114734 26.545289 43.446771 0.660994 0.913493 0.023600 0.006564 -747462.000000 0 0 1
-28.165017 -21.739334 27.533589 44.988502 0.657343 0.912192 0.018645 0.009564 93983.400000 0 0 1
-29.542947 -21.826134 27.263589 45.743515 0.636290 0.932274 0.013976 0.004957 255653.000000 0 0 1
-29.961337 -22.501034 26.078789 45.651741 0.644142 0.962762 0.004299 0.008320 -1533120.000000 0 0 1
-31.459137 -22.708534 25.970289 46.688443 0.625235 0.980934 0.011509 0.007359 -484925.000000 0 0 1
-31.973047 -23.201934 24.691689 46.586318 0.627748 1.012172 0.009825 -0.001955 324911.000000 0 0 1
-31.511667 -24.522234 24.354689 46.770461 0.661303 1.023093 0.006703 -0.004222 -407651.000000 0 0 1
-32.116127 -25.159234 23.046789 46.857093 0.664526 1.056580 0.017511 -0.000023 -1179460.000000 0 0 1
-33.425757 -25.544034 22.983789 47.937808 0.652529 1.070768 0.015735 0.000742 -1257140.000000 0 0 1
-33.630637 -26.238934 21.760289 47.885401 0.662556 1.099071 0.018494 0.002732 354409.000000 0 0 1
-35.049723 -26.877634 21.665389 49.196335 0.654194 1.114767 0.030888 0.004786 175030.000000 0 0 1
-35.384066 -27.912934 22.605089 50.419779 0.667909 1.105892 0.036858 0.009386 242758.000000 0 0 1
-34.633577 -29.125434 22.548389 50.558930 0.699222 1.108525 0.024380 0.008245 -631832.000000 0 0 1
-34.868805 -30.106834 21.437089 50.811454 0.712240 1.135262 0.041795 0.002459 -374129.000000 0 0 1
-34.590229 -29.599134 20.157289 49.788643 0.707799 1.153974 0.030497 -0.003595 410419.000000 0 0 1
-35.052976 -30.567334 19.245789 50.333621 0.717147 1.178442 0.041267 0.000641 -151370.000000 0 0 1
-35.321730 -30.094134 17.831089 49.711460 0.705654 1.203930 0.059516 -0.002066 413332.000000 0 0 1
-34.126222 -29.921134 17.050589 48.482944 0.719836 1.211429 0.070057 -0.004645 941777.000000 0 0 1
-34.473258 -29.406334 15.784789 47.982263 0.706244 1.235582 0.084844 -0.002832 167449.000000 0 0 1
-35.172368 -30.306734 14.708689 48.702558 0.711226 1.263995 0.075823 -0.012912 96209.700000 0 0 1
-34.348676 -31.372834 14.271289 48.659593 0.740149 1.273132 0.080107 -0.014406 144417.000000 0 0 1
-34.726813 -32.101834 13.033489 49.054573 0.746139 1.301873 0.075302 -0.013478 46135.100000 0 0 1
-34.930269 -31.315634 11.731889 48.357314 0.730888 1.325743 0.073892 -0.017216 318537.000000 0 0 1
-36.156687 -30.610434 11.765789 48.813302 0.702520 1.327363 0.066951 -0.019069 269903.000000 0 0 1
-36.174527 -29.653634 10.692589 47.981933 0.686661 1.346063 0.049978 -0.009988 648623.000000 0 0 1
35.229171 -28.614634 10.851389 46.665238 -0.682161 1.336111 0.081086 0.000087 568913.000000 0 0 1
35.238101 -27.585434 9.921889 45.838017 -0.664183 1.352614 0.093073 -0.039208 162129.000000 0 0 1
33.972271 -27.024334 9.638289 44.467139 -0.671980 1.352311 0.078617 -0.033202 -17709.500000 0 0 1
34.034931 -25.988534 8.460189 43.650375 -0.652138 1.375745 0.068850 -0.031918 3500.680000 0 0 1
34.578631 -24.767934 8.851889 43.445233 -0.621568 1.365611 0.083350 -0.039165 -159982.000000 0 0 1
34.962841 -24.102534 7.680089 43.154562 -0.603560 1.391876 0.080974 -0.039201 -142810.000000 0 0 1
35.607001 -22.749334 7.973589 42.999638 -0.568533 1.384283 0.086814 -0.039174 -240437.000000 0 0 1
34.679061 -21.863134 8.554689 41.878594 -0.562503 1.365075 0.079126 -0.042833 -45720.200000 0 0 1
35.077631 -20.562234 8.260789 41.490798 -0.530205 1.370358 0.085231 -0.035992 263877.000000 0 0 1
34.220951 -19.527634 9.021989 40.420271 -0.518547 1.345696 0.096991 -0.031646 145080.000000 0 0 1
34.563681 -19.436934 10.379289 40.989903 -0.512277 1.314793 0.088329 -0.051006 371327.000000 0 0 1
33.705771 -18.525034 11.124389 40.037582 -0.502544 1.289242 0.081215 -0.033259 383793.000000 0 0 1
34.054871 -18.375334 12.622789 40.702850 -0.494808 1.255477 0.075014 -0.044529 -410324.000000 0 0 1
35.177321 -17.605534 12.905289 41.399822 -0.464031 1.253790 0.045103 -0.032108 -460269.000000 0 0 1
35.731031 -18.046534 14.080589 42.434031 -0.467692 1.232561 0.047829 -0.023811 -675942.000000 0 0 1
-35.651813 -17.336734 14.704489 42.282811 0.452611 1.215610 0.072290 -0.028332 343103.000000 0 0 1
-34.408857 -17.786834 14.164989 41.243034 0.477097 1.220207 0.078194 -0.029750 518983.000000 0 0 1
-33.264227 -17.210734 14.725889 40.243881 0.477466 1.196179 0.080992 -0.025913 416552.000000 0 0 1
-31.895227 -17.217334 13.994689 38.853487 0.494985 1.202323 0.089384 -0.023784 365148.000000 0 0 1
-31.341687 -18.487934 13.750189 38.899521 0.532947 1.209508 0.075909 -0.027168 244732.000000 0 0 1
-30.266107 -18.316734 12.834789 37.633387 0.544227 1.222765 0.046902 -0.020787 200310.000000 0 0 1
-29.433977 -19.610334 12.461689 37.499572 0.587713 1.232039 0.039836 -0.016346 10592.900000 0 0 1
-30.074407 -20.590034 11.722689 38.286302 0.600340 1.259613 0.055650 -0.017987 -675696.000000 0 0 1
-29.146897 -21.574334 11.301089 37.982998 0.637195 1.268692 0.047924 -0.017897 -1196590.000000 0 0 1
-29.383737 -22.459534 10.029089 38.319933 0.652624 1.305993 0.066815 -0.018587 -366260.000000 0 0 1
-30.290657 -23.479634 10.214189 39.662914 0.659400 1.310336 0.075915 -0.024667 -17457.300000 0 0 1
-31.635587 -23.045834 10.427089 40.504877 0.629584 1.310437 0.098001 -0.036091 -518830.000000 0 0 1
-32.570127 -24.227334 10.787989 42.001876 0.639554 1.311040 0.113261 -0.032265 3840.050000 0 0 1
-32.813387 -24.992334 9.598089 42.349244 0.650916 1.342168 0.108108 -0.023151 34958.900000 0 0 1
-33.538017 -26.206234 9.813189 43.679102 0.663289 1.344197 0.111726 -0.017700 204509.000000 0 0 1
-33.631517 -27.015134 8.502189 43.967984 0.676731 1.376198 0.096468 -0.018074 1007570.000000 0 0 1
-32.412487 -27.506234 7.880889 43.235063 0.703699 1.387491 0.088438 -0.017110 710724.000000 0 0 1
-32.687427 -28.273434 6.744689 43.741808 0.713117 1.415986 0.069928 -0.012947 141389.000000 0 0 1
-31.423557 -28.579034 5.898189 42.883444 0.738027 1.432819 0.052746 -0.007712 216159.000000 0 0 1
-30.862897 -27.425134 5.302489 41.626587 0.726488 1.443067 0.052560 -0.001246 478941.000000 0 0 1
-29.600397 -27.833234 4.738789 40.906339 0.754639 1.454691 0.046367 -0.005529 1104990.000000 0 0 1
-28.780477 -26.802334 3.873089 39.518120 0.749824 1.472631 0.042534 -0.005558 559377.000000 0 0 1
-29.452647 -26.416034 2.691189 39.654858 0.731099 1.502879 0.052861 -0.004853 6354.790000 0 0 1
-28.787997 -25.275934 2.178289 38.371429 0.720528 1.513997 0.056461 -0.007684 51180.600000 0 0 1
-29.276957 -24.731234 0.775289 38.332431 0.701429 1.550570 0.065041 -0.004330 -365874.000000 0 0 1
-28.863107 -25.488234 -0.365511 38.507955 0.723384 1.580288 0.059240 -0.006873 -83389.400000 0 0 1
-29.232877 -24.999834 -1.638511 38.499838 0.707503 1.613368 0.061787 -0.007917 1114370.000000 0 0 1
-30.774547 -24.765834 -1.925611 39.549049 0.677631 1.619505 0.065464 -0.005044 849492.000000 0 0 1
-31.315117 -23.625234 -1.333911 39.250065 0.646334 1.604788 0.049606 -0.002224 -544887.000000 0 0 1
-32.600467 -23.474234 -1.870011 40.216005 0.624061 1.617312 0.052011 -0.001728 -442336.000000 0 0 1
-33.169117 -22.054834 -1.717311 39.869226 0.586793 1.613883 0.054213 -0.004098 -194613.000000 0 0 1
-33.380417 -21.730634 -0.334511 39.831955 0.577078 1.579194 0.057542 -0.006923 387455.000000 0 0 1
-34.183489 -20.583734 -0.066411 39.902449 0.542002 1.572461 0.052790 -0.008769 -2760.560000 0 0 1
-34.349121 -20.330734 1.422789 39.940270 0.534431 1.535166 0.057008 -0.009708 -159723.000000 0 0 1
-35.010597 -21.324034 2.165289 41.050515 0.547065 1.518025 0.052842 -0.013415 116222.000000 0 0 1
-35.199971 -20.911034 3.486089 41.090901 0.536043 1.485856 0.064390 -0.018685 158391.000000 0 0 1
36.241971 -21.698434 4.242889 42.453559 -0.539470 1.470687 0.085962 -0.015825 1852220.000000 0 0 1
34.861651 -21.601234 3.856389 41.192472 -0.554727 1.477040 0.080462 -0.012310 994452.000000 0 0 1
34.228111 -20.341134 4.052689 40.021864 -0.536204 1.469361 0.092892 -0.022732 -195958.000000 0 0 1
32.994001 -20.149834 3.133689 38.787111 -0.548259 1.489916 0.089077 -0.013724 654055.000000 0 0 1
31.932161 -21.100234 3.386489 38.423315 -0.583918 1.482546 0.084944 -0.008755 65862.700000 0 0 1
30.767891 -20.627434 2.732889 37.143275 -0.590597 1.497153 0.088303 -0.017172 -365951.000000 0 0 1
29.652131 -21.629034 2.979189 36.823085 -0.630203 1.489802 0.070054 -0.000819 -664778.000000 0 0 1
29.580541 -22.907034 2.300989 37.483799 -0.658932 1.509371 0.049053 -0.003801 -375349.000000 0 0 1
28.362901 -23.536434 2.582689 36.947100 -0.692668 1.500837 0.042726 0.003788 -117910.000000 0 0 1
28.101881 -24.742834 1.644389 37.478362 -0.721919 1.526907 0.030022 0.008260 -145949.000000 0 0 1
27.835511 -24.412034 0.331089 37.025298 -0.719968 1.561854 0.024084 0.004610 4557.010000 0 0 1
26.983321 -25.284334 -0.366711 36.980152 -0.752904 1.580713 0.030889 -0.004743 -657234.000000 0 0 1
26.318321 -24.520834 -1.500411 36.002452 -0.750057 1.612484 0.030519 -0.012389 -312443.000000 0 0 1
27.122221 -24.054534 -2.582211 36.344234 -0.725527 1.641905 0.026691 -0.030686 485800.000000 0 0 1
27.817251 -25.000134 -3.424711 37.557088 -0.732112 1.662110 0.028686 -0.035648 -666805.000000 0 0 1
26.999621 -25.731634 -4.511111 37.569225 -0.761357 1.691161 0.034077 -0.038180 -247751.000000 0 0 1
26.491721 -24.813734 -5.516411 36.714622 -0.752704 1.721619 0.037718 -0.045346 482487.000000 0 0 1
25.169621 -24.442034 -5.178611 35.464643 -0.770734 1.717342 0.037607 -0.035517 -591092.000000 0 0 1
24.624421 -23.259834 -6.009411 34.401963 -0.756908 1.746379 0.054226 -0.046178 -153540.000000 0 0 1
24.225021 -23.620234 -7.370211 34.627837 -0.772758 1.785278 0.070377 -0.047342 364480.000000 0 0 1
22.997021 -22.973334 -7.653011 33.394695 -0.784883 1.802020 0.052060 -0.043244 -68722.800000 0 0 1
23.118821 -21.636634 -8.394211 32.758001 -0.752293 1.829936 0.054956 -0.041775 -551294.000000 0 0 1
23.468721 -21.717134 -9.707211 33.416235 -0.746653 1.865539 0.048747 -0.043756 182268.000000 0 0 1
23.056921 -20.550934 -10.370811 32.580918 -0.727995 1.894742 0.045115 -0.040329 -233450.000000 0 0 1
23.701121 -20.475034 -11.754511 33.453531 -0.712500 1.929829 0.035702 -0.039422 89135.900000 0 0 1
25.061221 -20.081134 -11.623111 34.152796 -0.675523 1.918061 0.059217 -0.039295 93034.300000 0 0 1
25.489221 -19.810834 -12.940611 34.779721 -0.660698 1.952038 0.060452 -0.046984 766430.000000 0 0 1
27.054921 -19.809334 -13.140911 36.014747 -0.632005 1.944296 0.053807 -0.047862 974632.000000 0 0 1
27.650131 -21.087234 -13.175211 37.185849 -0.651545 1.932969 0.035630 -0.043992 338110.000000 0 0 1
28.183401 -21.566234 -11.935011 37.441301 -0.653165 1.895224 0.047929 -0.059137 -219729.000000 0 0 1
28.504061 -23.039334 -11.989211 38.562075 -0.679771 1.886943 0.032430 -0.040336 219510.000000 0 0 1
29.681771 -23.364334 -12.731811 39.862246 -0.666863 1.895888 0.038611 -0.051592 578040.000000 0 0 1
29.539521 -24.741134 -13.107211 40.700197 -0.697228 1.898683 0.031267 -0.042959 -397089.000000 0 0 1
-4.130567 -8.776798 -27.571941 29.228509 1.130925 2.803303 0.025624 -0.002148 105981.000000 0 0 1
-3.986867 -7.534398 -26.967301 28.282461 1.084097 2.835436 0.009999 0.000906 60652.800000 0 0 1
-4.573667 -6.472198 -27.673091 28.785548 0.955612 2.862674 0.011125 0.001657 -66967.800000 0 0 1
-4.454967 -5.129198 -26.923381 27.767316 0.855631 2.894415 0.009793 -0.007966 -144220.000000 0 0 1
-5.212167 -5.198498 -25.753231 26.784697 0.784085 2.863171 0.009078 0.000006 88446.300000 0 0 1
-5.133767 -4.028298 -24.972511 25.811026 0.665321 2.885999 0.016150 -0.012308 254152.000000 0 0 1
-5.824767 -4.322498 -23.606311 24.695543 0.638419 2.843484 0.017754 -0.008451 337601.000000 0 1 0
-4.982267 -5.152498 -22.812611 23.912057 0.802193 2.837174 0.008130 -0.011871 675172.000000 0 1 0
-5.577567 -5.338198 -21.550011 22.891234 0.763473 2.797580 0.022274 -0.007369 -339883.000000 0 1 0
-4.765667 -6.252998 -20.670311 22.115002 0.919570 2.778136 0.019143 -0.016147 -719585.000000 0 1 0
-4.985767 -7.595898 -20.920211 22.808130 0.989952 2.731857 0.002603 -0.006043 608702.000000 0 1 0
-4.186467 -8.479598 -20.109111 22.221756 1.112193 2.702009 0.004701 -0.013604 -704274.000000 0 1 0
-4.842367 -9.876598 -20.012811 22.836557 1.114949 2.639027 0.000884 -0.011720 247211.000000 0 1 0
-6.088067 -9.941898 -19.312611 22.558432 1.021335 2.598501 0.002928 -0.008498 388124.000000 0 1 0
-7.207367 -9.534298 -20.087511 23.374283 0.923504 2.604862 0.003838 0.000972 -999556.000000 0 1 0
-8.414167 -9.503698 -19.154211 22.978301 0.846130 2.556350 0.008271 0.006725 -670985.000000 0 1 0
-8.904867 -10.755898 -18.725011 23.358340 0.879270 2.500832 0.008942 -0.000694 -204607.000000 0 1 0
-9.747667 -10.657198 -17.613111 22.777502 0.829943 2.454775 0.010246 0.005353 -140076.000000 0 1 0
-10.508967 -11.983698 -17.293311 23.518206 0.850869 2.396929 0.025724 0.002635 -441769.000000 0 1 0
-11.550367 -12.292798 -18.159611 24.784982 0.816526 2.393057 0.030573 -0.010794 -255839.000000 0 1 0
-11.124267 -12.826998 -19.416711 25.793214 0.856370 2.423077 0.040143 -0.005594 -1293840.000000 0 0 1
-12.112367 -12.701898 -20.583811 27.050711 0.809151 2.435548 0.047762 -0.014801 573972.000000 0 0 1
-13.305367 -13.470098 -20.700111 28.053002 0.791550 2.400739 0.046615 -0.005324 204861.000000 0 0 1
-14.223167 -13.317698 -19.644811 27.669083 0.752533 2.360282 0.039735 0.002412 -1178600.000000 0 0 1
-15.504867 -14.103498 -19.922011 28.917056 0.738103 2.330817 0.047148 0.005688 -333642.000000 0 0 1
-15.308967 -15.455298 -19.979211 29.536411 0.790155 2.313696 0.046345 0.005754 -632040.000000 0 0 1
-15.991767 -16.062098 -21.008811 30.904656 0.787592 2.318279 0.060894 0.001207 -229382.000000 0 0 1
-15.592167 -17.478998 -21.388511 31.719071 0.842390 2.310827 0.033495 0.003719 -93686.000000 0 0 1
-16.117067 -18.411698 -20.473911 31.905039 0.851756 2.267527 0.036519 0.012227 28752.200000 0 0 1
-15.831167 -19.702798 -20.904311 32.799639 0.893926 2.261829 0.032866 0.011278 -517160.000000 0 0 1
-16.541067 -20.857198 -20.231011 33.435362 0.900300 2.220661 0.025264 0.005703 -502022.000000 0 0 1
-16.129867 -22.040098 -20.793111 34.326258 0.939018 2.221504 0.031908 0.001486 -291689.000000 0 0 1
-16.743767 -23.137298 -20.221811 34.994428 0.944361 2.186898 0.044005 0.001771 -217170.000000 0 0 1
-16.028467 -24.519298 -20.544911 35.779898 0.991819 2.182426 0.052582 -0.004195 148377.000000 0 0 1
-16.352967 -24.965798 -21.820811 36.971048 0.990904 2.202120 0.043852 -0.006162 -14519.700000 0 0 1
-15.674967 -26.145818 -22.149711 37.681801 1.030729 2.199145 0.049732 -0.007775 -356453.000000 0 0 1
-15.755267 -26.653548 -23.608211 38.935687 1.036937 2.222244 0.053861 -0.010458 -658929.000000 0 0 1
-16.966867 -27.177198 -24.070711 40.073356 1.012697 2.215130 0.066596 -0.009978 -388130.000000 0 0 1
-17.104967 -28.555238 -23.796011 40.917376 1.031103 2.191444 0.071017 -0.013352 -344152.000000 0 0 1
-18.014867 -29.385638 -24.754211 42.436095 1.020836 2.193618 0.081050 -0.019036 -176472.000000 0 0 1
-17.693367 -29.565208 -26.148531 43.253930 1.031516 2.219979 0.068023 -0.007247 -1244.090000 0 0 1
-17.755067 -28.279288 -26.790781 42.810122 1.010152 2.246959 0.084610 -0.013172 -646414.000000 0 0 1
-16.688567 -28.023328 -27.832881 42.877552 1.033674 2.277230 0.090359 -0.010521 -854618.000000 0 0 1
-16.748067 -28.725218 -29.065001 44.163449 1.042938 2.289120 0.084318 -0.005948 711350.000000 0 0 1
-15.770867 -28.080348 -29.903141 43.947970 1.059065 2.319134 0.047854 -0.000229 399675.000000 0 0 1
-16.106967 -28.291248 -31.399491 45.230047 1.053236 2.338129 0.047884 -0.003414 23216.000000 0 0 1
-16.067467 -29.625538 -31.758541 46.308109 1.073844 2.326512 0.040169 -0.002211 192057.000000 0 0 1
-16.767367 -29.878748 -32.945471 47.531971 1.059410 2.336608 0.041539 -0.005144 -268181.000000 0 0 1
-16.587967 -31.335598 -33.443881 48.739856 1.083934 2.327009 0.042320 -0.008831 325760.000000 0 0 1
-15.318567 -31.521218 -34.087403 48.889639 1.118430 2.342325 0.044240 -0.005452 248025.000000 0 0 1
-15.391167 -32.647718 33.548850 49.277651 1.130263 0.821925 0.041730 -0.008568 27634.400000 0 0 1
-14.012767 -33.046938 32.983056 48.747715 1.169751 0.827651 0.028676 -0.007916 338128.000000 0 0 1
-13.232767 -33.856078 33.864883 49.680685 1.198200 0.820780 0.033836 -0.004300 463815.000000 0 0 1
-12.169367 33.965842 33.208940 49.036778 -1.226762 0.826812 0.042018 -0.007606 206760.000000 0 0 1
-11.356567 33.134023 34.169203 48.932296 -1.240598 0.797783 0.047738 -0.004725 -310735.000000 0 0 1
-10.597267 33.900724 -33.459171 48.796284 -1.267823 2.326349 0.053503 0.003322 210793.000000 0 0 1
-9.802267 33.127113 -32.521491 47.446153 -1.283106 2.326004 0.057761 -0.006197 455000.000000 0 0 1
-8.941367 33.975108 -31.542311 47.214123 -1.313457 2.302408 0.048589 -0.003306 -167308.000000 0 0 1
-9.668167 -33.829728 -30.584601 46.619114 1.292428 2.286373 0.056241 -0.004077 -5316.840000 0 0 1
-8.981367 -32.718318 -29.982111 45.277812 1.302890 2.294522 0.053334 -0.007628 -99999.000000 0 0 1
-9.963167 -31.956148 -29.081151 44.341555 1.268571 2.286097 0.055296 -0.004082 2089.340000 0 0 1
-9.999867 -32.296648 -27.718331 43.719295 1.270532 2.257520 0.071924 -0.015045 191029.000000 0 0 1
-10.695767 -33.518058 -27.348101 44.562073 1.261906 2.231545 0.077463 -0.014184 141440.000000 0 0 1
-10.868167 -33.798768 -25.811371 43.894199 1.259683 2.199425 0.072457 -0.026104 75228.400000 0 0 1
-9.651867 -33.984938 -25.127161 43.353302 1.294078 2.189022 0.084079 -0.036337 -280277.000000 0 0 1
-9.852467 -34.010548 -23.771411 42.648195 1.288826 2.162028 0.070190 -0.041770 -126575.000000 0 0 1
-8.529867 -34.227317 -23.041211 42.132711 1.326559 2.149420 0.085878 -0.043727 -443576.000000 0 0 1
-7.991767 33.037752 -23.000011 41.040979 -1.333457 2.165684 0.072051 -0.043090 63705.500000 0 0 1
-7.045267 32.932739 -21.928911 40.188036 -1.360044 2.147970 0.084980 -0.045097 97112.900000 0 0 1
-6.316867 31.569817 -21.758311 38.858465 -1.373312 2.165107 0.094658 -0.044280 -305431.000000 0 0 1
-5.239167 31.393407 -22.648111 39.063177 -1.405433 2.189257 0.083880 -0.047010 -173187.000000 0 0 1
-4.761567 30.082667 -22.551011 37.897065 -1.413816 2.208136 0.067716 -0.032722 -568786.000000 0 0 1
-3.386367 30.026757 -23.226911 38.112505 -1.458493 2.226138 0.071083 -0.040964 -479670.000000 0 0 1
-3.220267 30.367107 -24.629411 39.231865 -1.465147 2.249508 0.086594 -0.042530 -64518.300000 0 0 1
-2.350967 31.475927 -24.658211 40.053569 -1.496244 2.233983 0.070553 -0.049934 -73062.400000 0 0 1
-2.000867 31.832237 -26.122131 41.226939 -1.508022 2.257017 0.075251 -0.034066 321977.000000 0 0 1
-1.001667 32.823505 -26.399331 42.134434 -1.540289 2.247915 0.081472 -0.041534 179294.000000 0 0 1
-1.420767 34.112755 -26.182211 43.025653 -1.529171 2.224998 0.059579 -0.039126 -408026.000000 0 0 1
-0.536267 -33.399698 -26.949861 42.919954 1.554742 2.249661 0.036921 -0.027647 -893807.000000 0 0 1
0.715033 -33.376118 -26.367371 42.540743 -1.549376 2.239303 0.048022 -0.027169 -902379.000000 0 0 1
1.512133 -32.391678 -27.004881 42.199182 -1.524147 2.265215 0.041904 -0.017857 457316.000000 0 0 1
2.735333 -31.916068 -26.155391 41.354830 -1.485301 2.255525 0.032344 -0.012340 220949.000000 0 0 1
2.331333 -31.193598 -24.971911 40.025892 -1.496197 2.244512 0.033815 -0.015221 1218600.000000 0 0 1
3.437833 -30.358478 -24.553311 39.195931 -1.458035 2.247755 0.018036 -0.008592 540820.000000 0 0 1
3.223333 -29.842158 -23.156411 37.909942 -1.463201 2.227901 0.031040 -0.002795 -76361.200000 0 0 1
3.354033 -30.956668 -22.280411 38.288139 -1.462871 2.191877 0.038451 -0.008597 462383.000000 0 0 1
3.409433 -30.454768 -20.965711 37.130556 -1.459310 2.170804 0.047260 -0.003151 -425692.000000 0 0 1
3.356633 -31.576518 -20.006911 37.531587 -1.464892 2.133020 0.047707 0.000203 -1077500.000000 0 0 1
2.042833 -31.981168 -19.782111 37.660327 -1.507007 2.123837 0.064499 0.000464 -471284.000000 0 0 1
1.878733 -33.370698 -19.487411 38.689693 -1.514557 2.098655 0.057061 0.008464 -386630.000000 0 0 1
2.711633 -34.053510 -18.346811 38.776281 -1.491335 2.063654 0.040854 -0.010780 485542.000000 0 0 1
4.084633 -34.151544 -18.715311 39.157057 -1.451759 2.069121 0.039192 -0.002463 342965.000000 0 0 1
4.742033 33.444201 -17.816011 38.189157 1.429946 2.056149 0.047224 -0.017153 284910.000000 0 0 1
5.905833 32.695860 -18.487811 38.022326 1.392094 2.078573 0.049898 -0.008067 -34512.400000 0 0 1
7.022833 33.501447 -18.778411 39.042232 1.364161 2.072565 0.079833 -0.006777 -14699.500000 0 0 1
8.063533 32.746097 -19.412811 38.912526 1.329356 2.093106 0.051551 -0.014290 -260830.000000 0 0 1
9.357833 33.528764 -19.462111 39.881335 1.298624 2.080594 0.029400 -0.019222 -680685.000000 0 0 1
9.995233 33.465364 -18.184911 39.376722 1.280557 2.050841 0.027146 -0.006662 -159447.000000 0 0 1
11.149933 34.260778 -18.116111 40.327601 1.256164 2.036692 0.028727 0.004136 -105365.000000 0 0 1
12.035833 34.094428 -16.877311 39.901566 1.231438 2.007521 0.007762 0.010691 -357446.000000 0 0 1
12.884633 32.985823 -16.768311 39.182325 1.198410 2.013026 0.004703 0.005722 -339650.000000 0 0 1
13.780433 33.320314 -15.734211 39.340934 1.178643 1.982253 0.002479 0.004403 464230.000000 0 0 1
14.860233 32.186607 -15.496911 38.690547 1.138264 1.982897 0.019575 0.003935 518032.000000 0 0 1
14.267333 31.033927 -14.986311 37.299477 1.139878 1.984260 0.026056 -0.005833 -374620.000000 0 0 1
15.203733 30.016357 -14.781411 36.750855 1.101950 1.984721 0.027688 -0.000553 -82408.700000 0 0 1
14.644233 28.865537 -13.954911 35.247870 1.101305 1.977853 0.023886 -0.010517 -108911.000000 0 0 1
14.552233 29.257467 -12.586311 35.016883 1.109243 1.938459 0.031669 -0.015571 446727.000000 0 0 1
13.322833 28.967777 -11.897811 34.032160 1.139724 1.927946 0.063510 -0.016282 695849.000000 0 0 1
12.851833 27.511677 -11.647111 32.522564 1.133780 1.937054 0.050824 -0.022193 -746987.000000 0 0 1
12.160033 26.974507 -12.751411 32.219387 1.147280 1.977701 0.021318 -0.019479 87900.600000 0 0 1
11.501933 25.704517 -12.641911 30.868019 1.150051 1.992754 0.029034 -0.018831 624699.000000 0 0 1
10.634233 25.472807 -11.329111 29.837888 1.175318 1.960256 0.028431 -0.020042 -228104.000000 0 0 1
9.501733 26.326657 -11.314011 30.189115 1.224429 1.954946 0.016819 -0.011513 67217.700000 0 0 1
8.963733 26.552497 -10.039011 29.768530 1.245224 1.914775 -0.005399 -0.000131 214395.000000 0 0 1
8.035133 27.792947 -9.944011 30.592395 1.289363 1.901859 0.004574 0.002142 826723.000000 0 0 1
8.762433 28.987867 -10.253711 31.972101 1.277250 1.897273 0.011587 -0.012438 465327.000000 0 0 1
7.756533 29.966997 -10.472511 32.678100 1.317519 1.897027 0.003908 -0.005504 455932.000000 0 0 1
8.271033 31.373277 -10.955211 34.244841 1.313028 1.896429 0.032313 -0.006934 -208379.000000 0 0 1
9.037333 32.064857 -9.961611 34.771571 1.296077 1.861355 0.035281 -0.007928 -84540.600000 0 0 1
9.578233 33.273455 -10.447111 36.166386 1.290510 1.863835 0.038896 -0.008934 -194957.000000 0 0 1
10.745033 33.219633 -11.417711 36.733689 1.257963 1.886856 0.030404 -0.013019 -533848.000000 0 0 1
11.992733 32.712777 -10.930011 36.515977 1.219404 1.874778 0.036150 -0.007360 143645.000000 0 0 1
12.899233 32.930499 -11.985311 37.342411 1.197456 1.897536 0.039280 -0.002291 -182044.000000 0 0 1
14.395233 32.906821 -11.618811 37.750210 1.158424 1.883657 0.046217 -0.004074 111650.000000 0 0 1
14.729233 33.847762 -10.580011 38.399973 1.160351 1.849928 0.050971 -0.007195 517977.000000 0 0 1
16.123333 34.168421 -10.480711 39.208267 1.129898 1.841395 0.058120 -0.015582 756951.000000 0 0 1
16.464533 -33.322998 -9.402811 38.339482 -1.111889 1.818575 0.053658 -0.021165 -25374.100000 0 0 1
16.575733 -33.878198 -8.143311 38.584981 -1.115766 1.783444 0.056177 -0.018902 238944.000000 0 0 1
17.292933 -32.980798 -7.291411 37.946584 -1.087872 1.764148 0.054003 -0.017716 -648539.000000 0 0 1
17.756033 -33.614668 -5.956111 38.479837 -1.084826 1.726206 0.056488 -0.019218 613619.000000 0 0 1
18.711233 33.841889 -6.143111 39.155096 1.065728 1.728339 0.045005 -0.024180 798633.000000 0 0 1
20.037033 34.227722 -6.491311 40.189013 1.041179 1.733027 0.051895 -0.027964 -506169.000000 0 0 1
20.808733 33.114027 -7.247511 39.775226 1.009758 1.754032 0.039984 -0.018382 150819.000000 0 0 1
21.147533 31.933517 -6.474411 38.844378 0.985867 1.738253 0.045616 -0.010574 -154045.000000 0 0 1
21.933733 32.059427 -5.333711 39.208978 0.970781 1.707252 0.047833 -0.008997 -708217.000000 0 0 1
22.240333 30.584947 -4.817711 38.121933 0.942070 1.697512 0.037020 -0.012470 -399541.000000 0 0 1
22.858833 29.831907 -5.810711 38.029374 0.916973 1.724193 0.038944 -0.007482 -78886.000000 0 0 1
23.258033 28.583697 -5.301011 37.229888 0.887768 1.713668 0.041646 -0.006056 -410340.000000 0 0 1
24.329133 27.891517 -6.139111 37.517091 0.853511 1.735171 0.028817 0.006922 105459.000000 0 0 1
25.644433 28.463787 -5.972511 38.774928 0.837457 1.725442 0.035471 0.008704 459184.000000 0 0 1
26.518433 27.928327 -6.937811 39.132492 0.811287 1.749029 0.025229 0.006059 -115529.000000 0 0 1
27.325933 26.749797 -6.325611 38.759149 0.774744 1.734733 0.027464 0.007842 -938582.000000 0 0 1
28.271733 27.176497 -5.382411 39.583118 0.765648 1.707196 0.022040 0.007243 -368041.000000 0 0 1
28.975533 26.086307 -4.868511 39.290957 0.732974 1.695025 0.024526 0.010264 135191.000000 0 0 1
30.168833 26.506517 -3.961111 40.353988 0.720869 1.669114 0.031794 0.004651 308297.000000 0 0 1
29.759733 27.220847 -2.816511 40.429556 0.740871 1.640517 0.038791 -0.006800 793534.000000 0 0 1
30.945433 27.735477 -2.161711 41.611891 0.730751 1.622769 0.055534 -0.019511 931196.000000 0 0 1
30.580733 28.803667 -1.131611 42.025147 0.755482 1.597727 0.074419 -0.012864 9974.130000 0 0 1
30.303333 30.004617 -1.784711 42.682013 0.780445 1.612623 0.053870 -0.004510 -307546.000000 0 0 1
30.204133 31.084587 -0.881711 43.351109 0.799763 1.591137 0.052074 -0.006661 -246930.000000 0 0 1
33.166151 22.999202 19.359527 44.763246 0.606319 1.123547 0.107885 -0.007257 134101.000000 0 0 1
33.292331 22.732402 20.724227 45.328082 0.599097 1.095946 0.083233 0.001984 474312.000000 0 0 1
34.193781 23.682402 21.343327 46.750491 0.605738 1.096697 0.085072 0.004846 461752.000000 0 0 1
34.247371 23.761502 22.903527 47.561150 0.606566 1.068363 0.056905 0.012117 -130341.000000 0 0 1
33.128741 24.412002 23.455637 47.366932 0.635053 1.052743 0.045776 0.018332 -27927.300000 0 0 1
33.178241 24.567702 24.875167 48.198979 0.637378 1.028513 0.031890 0.019845 441762.000000 0 0 1
31.789441 25.067202 25.391167 47.787494 0.667713 1.010621 0.039728 0.009284 488113.000000 0 0 1
31.725321 26.440802 25.237317 48.399733 0.694795 1.022264 0.035472 -0.000020 60358.700000 0 0 1
30.601451 27.015202 25.862487 48.323268 0.723235 1.006055 0.030721 -0.002871 -158567.000000 0 0 1
30.467931 28.539202 25.656677 49.000469 0.752723 1.019725 0.028797 -0.010281 -248663.000000 0 0 1
30.094461 28.973202 24.393237 48.375128 0.766418 1.042281 0.040572 -0.023727 103346.000000 0 0 1
29.687001 30.306002 24.447147 48.963607 0.795716 1.048015 0.042406 -0.022667 -276381.000000 0 0 1
30.062661 31.208802 23.223227 49.163718 0.804102 1.078824 0.044115 -0.024871 173164.000000 0 0 1
31.439991 31.448402 22.989427 50.059852 0.785532 1.093658 0.037849 -0.023683 -4671.110000 0 0 1
31.682761 32.118902 21.757027 50.087817 0.792234 1.121449 0.034714 -0.014958 262874.000000 0 0 1
33.211641 32.365602 21.689627 51.195559 0.772497 1.133312 0.033094 -0.030789 229637.000000 0 0 1
33.630721 33.420902 22.553627 52.503792 0.782269 1.126789 0.037687 -0.007758 275141.000000 0 0 1
35.045481 33.541802 22.482427 53.466791 0.763478 1.136807 0.039269 -0.007161 294561.000000 0 0 1
35.464831 -33.692734 23.175327 54.129940 -0.759780 1.128360 0.045030 0.003032 -107496.000000 0 0 1
34.946371 -32.494334 22.576127 52.790265 -0.749056 1.128897 0.025141 0.006961 371790.000000 0 0 1
35.193421 -31.448934 23.496697 52.722928 -0.729269 1.108881 0.038722 0.005419 -856615.000000 0 0 1
34.168311 -30.303034 23.320627 51.279616 -0.725516 1.098678 0.021889 0.007149 603768.000000 0 0 1
32.820601 -30.569134 23.717787 50.736548 -0.749895 1.084370 0.024908 0.005934 613288.000000 0 0 1
32.042731 -31.061534 22.667227 50.053558 -0.769851 1.100826 0.029902 0.009480 -825210.000000 0 0 1
31.369051 -32.427834 22.891527 50.592527 -0.801993 1.101265 0.022611 0.006101 24367.100000 0 0 1
30.235601 -32.281934 23.750487 50.203590 -0.818119 1.078009 0.034308 0.000720 101761.000000 0 0 1
29.792591 -33.597834 23.921047 50.878576 -0.845355 1.081325 0.032984 -0.002574 -393297.000000 0 0 1
28.610431 -33.591834 24.904937 50.667781 -0.865312 1.056946 0.026017 -0.000696 -193755.000000 0 0 1
28.384501 33.585602 25.338077 50.751263 0.869131 1.048052 0.032188 -0.015687 401811.000000 0 0 1
27.433521 33.479302 26.401257 50.699981 0.884327 1.023085 0.021653 -0.009718 -517169.000000 0 0 1
27.119921 32.074802 26.891387 49.874139 0.868908 1.001327 0.019723 0.001686 256046.000000 0 0 1
26.449921 31.314202 25.880387 48.476510 0.869409 1.007620 0.036498 -0.007628 504721.000000 0 0 1
25.053321 31.569702 25.767857 47.836152 0.899978 1.001940 0.031552 -0.002435 41948.600000 0 0 1
24.534321 31.203902 24.278797 46.530381 0.904491 1.021856 0.074154 -0.027767 -67774.200000 0 0 1
24.793421 32.057102 23.188527 46.691319 0.912478 1.051079 0.092209 -0.031193 1958970.000000 0 0 1
26.179421 32.031302 22.679127 47.177423 0.885591 1.069321 0.064489 -0.027886 1640970.000000 0 0 1
26.441621 33.173502 21.626327 47.616579 0.897844 1.099349 0.071473 -0.023988 -206734.000000 0 0 1
27.765391 33.212502 21.153627 48.181565 0.874491 1.116267 0.073090 -0.023134 -147082.000000 0 0 1
27.883111 33.977802 19.912527 48.254198 0.883604 1.145425 0.060018 -0.023429 139208.000000 0 0 1
29.296731 -34.136634 19.433827 49.002876 -0.861550 1.163002 0.068958 -0.029247 499466.000000 0 0 1
30.149051 33.360602 18.950927 48.795827 0.835923 1.171932 0.084827 -0.035730 -151406.000000 0 0 1
31.230861 33.833602 18.203427 49.512060 0.825379 1.194309 0.078606 -0.026433 -637442.000000 0 0 1
32.016491 32.691102 17.571627 49.015568 0.795823 1.204146 0.064591 -0.025298 -190359.000000 0 0 1
32.881931 32.127102 18.545127 49.571099 0.773788 1.187358 0.055348 -0.025838 -303724.000000 0 0 1
33.584501 31.034802 18.074327 49.170712 0.745961 1.194387 0.083839 -0.034322 -199014.000000 0 0 1
34.567541 30.435702 19.086827 49.855329 0.721920 1.177923 0.086148 -0.043924 282406.000000 0 0 1
35.674831 31.293802 19.405927 51.269734 0.720072 1.182614 0.091497 -0.034079 834668.000000 0 0 1
-35.912383 30.491702 20.051527 51.200653 -0.703947 1.168398 0.084227 -0.028974 785408.000000 0 0 1
-34.693008 31.262602 20.674227 51.072289 -0.733434 1.154033 0.079261 -0.019626 530846.000000 0 0 1
-33.889297 31.827802 19.630327 50.466258 -0.754039 1.171273 0.077959 -0.019369 240389.000000 0 0 1
-32.739237 32.521602 20.090527 50.330324 -0.782063 1.160181 0.060299 -0.004612 177941.000000 0 0 1
-32.877377 33.836102 20.895427 51.598668 -0.799768 1.153861 0.054966 -0.000303 -552235.000000 0 0 1
-32.939587 33.692502 22.277827 52.120079 -0.796697 1.129145 0.074548 0.000561 194765.000000 0 0 1
-32.868497 -33.590734 22.927627 52.291028 0.796265 1.116910 0.070662 0.003457 -154754.000000 0 0 1
-32.927587 -33.840534 24.452357 53.172601 0.799071 1.092950 0.067793 -0.005132 18585.100000 0 0 1
-34.127450 34.116702 24.930077 54.315200 -0.785241 1.093939 0.071273 -0.006405 -3149.730000 0 0 1
-34.056593 33.935202 26.326327 54.813547 -0.783613 1.069813 0.082153 -0.005879 -338530.000000 0 0 1
-35.433478 33.672802 26.916197 55.802066 -0.759926 1.067459 0.067426 -0.011974 -433694.000000 0 0 1
-35.495053 32.993302 28.202197 56.069784 -0.748886 1.043749 0.085427 -0.019624 -136237.000000 0 0 1
35.765721 32.870302 28.693147 56.417553 0.743238 1.037255 0.084601 -0.020440 54262.100000 0 0 1
35.697061 31.819602 29.874607 56.384922 0.728032 1.012392 0.080263 -0.017264 -269130.000000 0 0 1
35.694411 30.414602 29.473497 55.387959 0.705702 1.009684 0.074145 -0.020963 -177474.000000 0 0 1
-35.804042 29.852102 28.796187 54.793228 -0.694992 1.017443 0.071617 -0.016195 -739304.000000 0 0 1
-36.047697 28.338702 28.503907 53.990659 -0.666235 1.014621 0.080183 -0.021841 -261672.000000 0 0 1
35.799851 28.031702 27.310737 53.040381 0.664296 1.029900 0.067439 -0.017005 375061.000000 0 0 1
35.606751 26.629802 27.132487 52.087992 0.642147 1.022895 0.067346 -0.010993 73759.000000 0 0 1
34.945001 25.759802 28.239277 51.789741 0.635228 0.994088 0.067292 -0.017241 -90904.000000 0 0 1
35.855071 25.399302 29.273617 52.798251 0.616333 0.983103 0.060909 -0.017190 77852.100000 0 0 1
35.500721 24.098802 29.825017 52.255001 0.596373 0.963366 0.062875 -0.007364 240453.000000 0 0 1
35.757891 22.820502 28.987247 51.377647 0.568032 0.971333 0.036643 0.014383 -73865.600000 0 0 1
34.929011 22.802502 27.848447 50.155019 0.578358 0.982136 0.050747 -0.000232 -89588.300000 0 0 1
35.412791 21.952902 26.799007 49.539706 0.554934 0.999218 0.049708 -0.000162 -147276.000000 0 0 1
35.109471 20.387602 26.892337 48.698327 0.526097 0.985768 0.047283 0.001232 -235581.000000 0 0 1
33.777731 20.030302 26.531747 47.392845 0.535259 0.976621 0.035574 0.012147 339787.000000 0 0 1
33.465081 18.947002 27.360507 47.196376 0.515175 0.952416 0.040933 0.009022 -347817.000000 0 0 1
33.163111 19.104902 28.901877 47.959438 0.522652 0.924002 0.033551 -0.011113 -118882.000000 0 0 1
32.010051 19.845302 29.291147 47.712165 0.554975 0.909787 0.037794 -0.005241 509293.000000 0 0 1
32.081021 21.223402 28.941337 48.137571 0.584456 0.925768 0.031705 -0.009523 -1485250.000000 0 0 1
31.155431 22.128002 29.747097 48.427256 0.617569 0.909344 0.037640 -0.015163 -1367420.000000 0 0 1
29.813471 22.003802 29.452717 47.333634 0.635808 0.899200 0.033923 -0.019036 -960333.000000 0 0 1
29.420761 22.732402 28.323907 46.739566 0.657850 0.919781 0.025896 -0.009108 -806689.000000 0 0 1
29.426711 24.260102 28.398087 47.549293 0.689458 0.930747 0.030186 -0.001378 -1053740.000000 0 0 1
30.704651 24.782602 28.571007 48.716069 0.679073 0.944090 0.039648 -0.005592 -645290.000000 0 0 1
30.672051 25.947002 29.363517 49.761810 0.702138 0.939637 0.035800 -0.006944 120836.000000 0 0 1
31.077641 25.863802 30.877377 50.874045 0.694088 0.918595 0.042750 -0.017111 -225391.000000 0 0 1
32.425991 25.552602 31.110997 51.694047 0.667398 0.925007 0.042556 -0.013294 -339982.000000 0 0 1
32.784131 25.339002 32.481503 52.648954 0.658000 0.905941 0.057241 -0.008733 28159.900000 0 0 1
32.341221 24.009202 33.091263 52.128956 0.638601 0.883052 0.057724 -0.007365 -254648.000000 0 0 1
32.809401 23.884502 -34.092942 53.002405 0.629257 2.269511 0.057064 -0.017709 250303.000000 0 0 1
32.453611 22.685802 -33.422991 51.816781 0.610070 2.271849 0.037369 -0.019029 -169181.000000 0 0 1
32.984281 22.631502 -31.961251 51.202239 0.601356 2.244924 0.045476 -0.021626 140062.000000 0 0 1
32.232171 23.514102 -31.104861 50.589903 0.630266 2.232984 0.032345 -0.021154 645238.000000 0 0 1
32.655281 23.372002 -29.738541 49.969978 0.621198 2.208221 0.059297 -0.032660 -614794.000000 0 0 1
33.992241 23.871402 -29.225661 50.788341 0.612241 2.183939 0.060818 -0.011257 -518118.000000 0 0 1
34.413141 23.158802 -28.078961 50.090143 0.592350 2.165869 0.059950 -0.016972 -158506.000000 0 0 1
35.502971 23.818402 -27.454131 50.808528 0.590917 2.141643 0.073158 -0.012055 163455.000000 0 0 1
-36.291107 22.989802 -26.437001 50.442943 -0.564676 2.122451 0.068987 -0.014211 348352.000000 0 0 1
-35.457606 21.918202 -26.968551 49.648285 -0.553660 2.145031 0.061143 -0.012432 603777.000000 0 0 1
-35.695157 20.713502 -26.311641 48.943803 -0.525800 2.138371 0.046452 -0.003950 -271226.000000 0 0 1
-34.532185 19.772402 -26.658431 47.896677 -0.520013 2.161062 0.056962 0.000392 1103010.000000 0 0 1
-33.220407 20.137602 -26.191681 46.852136 -0.544952 2.164010 0.059642 -0.004425 824016.000000 0 0 1
-32.201207 19.202002 -26.545111 45.937757 -0.537704 2.186888 0.032365 -0.008325 1321050.000000 0 0 1
-30.837257 19.535702 -25.829001 44.718200 -0.564695 2.186576 0.023609 -0.015723 607228.000000 0 0 1
-30.943327 19.568202 -24.417911 44.007254 -0.563895 2.158992 0.019316 -0.011572 255079.000000 0 0 1
-29.712617 19.671802 -23.705611 42.799245 -0.584813 2.157813 0.007554 -0.009870 452994.000000 0 0 1
-29.998997 19.943602 -22.246511 42.339040 -0.586715 2.124025 -0.002711 -0.001292 -151694.000000 0 0 1
-30.761087 19.009302 -21.565211 42.102926 -0.553525 2.108543 -0.004842 0.003218 -269708.000000 0 0 1
-31.015317 19.438402 -20.239811 41.826443 -0.559846 2.075902 -0.000889 0.006657 -1164820.000000 0 0 1
-31.956777 18.494702 -19.454411 41.734443 -0.524641 2.055728 0.000429 0.007909 -419528.000000 0 0 1
-32.645687 18.974202 -18.391611 42.000150 -0.526493 2.024051 0.004670 0.000958 -437799.000000 0 0 1
-33.629067 19.901602 -18.792511 43.360655 -0.534367 2.019059 0.001456 -0.002466 -1413280.000000 0 0 1
-34.777329 20.023502 -17.771911 43.888997 -0.522408 1.987697 0.026223 -0.010138 -550726.000000 0 0 1
-34.552652 20.690702 -16.565211 43.547642 -0.539549 1.961017 0.022787 -0.015837 -219621.000000 0 0 1
-35.504875 20.447202 -15.536411 43.818538 -0.522509 1.933242 0.033660 -0.007241 -641065.000000 0 0 1
-35.460456 21.303502 -14.248411 43.752718 -0.540984 1.902504 0.020689 -0.002887 -152598.000000 0 0 1
-35.792123 22.676602 -14.392211 44.748632 -0.564734 1.898240 0.021431 -0.009402 1505720.000000 0 0 1
35.409711 22.977002 -14.743311 44.711917 0.575594 1.906825 0.037324 -0.004688 1178320.000000 0 0 1
35.099381 24.457402 -15.096711 45.365645 0.608578 1.910045 0.024178 -0.009035 -12851.800000 0 0 1
35.471351 25.321002 -14.075011 45.798208 0.619957 1.883179 0.012787 -0.006926 -162656.000000 0 0 1
35.399891 26.730602 -14.282211 46.601062 0.646760 1.882287 0.008715 0.000127 184423.000000 0 0 1
-36.036347 27.474602 -15.052711 47.749934 -0.651399 1.891506 0.030769 -0.000024 428361.000000 0 0 1
-35.857234 27.087102 -16.411811 47.841403 -0.646958 1.920954 0.033558 -0.002411 -303602.000000 0 0 1
-34.752746 27.738702 -16.953711 47.587995 -0.673626 1.935059 0.041263 -0.010122 -1263140.000000 0 0 1
-34.433878 27.597602 -18.489811 47.845509 -0.675635 1.967574 0.035411 -0.011583 51867.300000 0 0 1
-33.847647 26.352202 -18.848511 46.854756 -0.661526 1.984797 0.034173 -0.010490 807209.000000 0 0 1
-32.531497 26.090902 -18.340711 45.556724 -0.675971 1.985142 0.021435 -0.005636 155626.000000 0 0 1
-31.945057 24.784902 -18.874611 44.620948 -0.659847 2.007549 0.018913 -0.005837 -399800.000000 0 0 1
-31.417297 24.948402 -20.171611 44.903933 -0.671132 2.036685 0.024409 -0.002035 108487.000000 0 0 1
-30.807577 23.775102 -20.633411 44.046565 -0.657263 2.058327 0.012259 0.005001 -173668.000000 0 0 1
-30.745937 23.763702 -22.139411 44.723369 -0.658000 2.088666 0.017114 0.000849 497465.000000 0 0 1
-32.008677 23.658802 -22.805511 45.873583 -0.636513 2.091094 0.046901 -0.005859 799894.000000 0 0 1
-31.708057 23.276502 -24.105711 46.133304 -0.633239 2.120604 0.053124 -0.007821 -23458.900000 0 0 1
-32.811567 23.719102 -25.077411 47.624272 -0.625923 2.125355 0.030996 0.002624 -242200.000000 0 0 1
-32.815947 25.100002 -25.206861 48.397131 -0.652951 2.118624 0.018720 0.005358 -425203.000000 0 0 1
-33.584007 25.675902 -26.214501 49.742713 -0.652734 2.125865 0.021230 -0.002876 -532019.000000 0 0 1
-33.276577 27.085002 -26.600251 50.482683 -0.683181 2.125767 -0.003050 0.010816 -393049.000000 0 0 1
-31.963757 27.277102 -27.031551 49.964255 -0.706451 2.142443 -0.010665 0.005256 -774974.000000 0 0 1
-31.707787 28.638102 -27.343861 50.726831 -0.734574 2.140095 -0.005464 -0.000840 293599.000000 0 0 1
-30.333097 28.799202 -28.040621 50.356402 -0.759464 2.161377 0.005646 0.000253 88464.400000 0 0 1
-29.280457 28.421602 -27.171701 49.024830 -0.770515 2.158250 -0.014240 0.004288 322365.000000 0 0 1
-27.993277 28.488302 -27.804331 48.665057 -0.794162 2.178935 0.027326 -0.000306 1123450.000000 0 0 1
-27.197527 29.827102 -27.655781 48.930601 -0.831478 2.171477 0.033268 -0.007919 27049.600000 0 0 1
-26.599357 30.163002 -26.373781 48.092711 -0.848098 2.151239 0.040667 -0.001145 789276.000000 0 0 1
-27.584587 30.398002 -25.349391 48.244581 -0.833882 2.124023 0.017615 0.005307 455693.000000 0 0 1
-26.885847 30.787002 -24.035411 47.417183 -0.852938 2.102372 0.002893 0.006016 282143.000000 0 0 1
-26.337167 32.109402 -24.149811 48.040331 -0.883840 2.097514 0.009093 0.005223 773816.000000 0 0 1
-25.345867 32.377202 -23.122311 47.173482 -0.906613 2.083064 0.033205 0.012627 684587.000000 0 0 1
-24.771367 33.832102 -23.135011 47.890087 -0.938794 2.074972 0.024655 0.022566 -43296.000000 0 0 1
-25.608197 -33.717134 -22.583311 47.985736 0.921242 2.060796 0.007542 0.005263 -20137.300000 0 0 1
-24.909367 -32.496934 -22.517811 46.728782 0.916810 2.073599 0.024954 0.010108 -61224.800000 0 0 1
16.939633 8.633102 -25.931111 32.154380 0.471329 2.508931 0.043749 -0.020909 303505.000000 0 0 1
15.788933 7.936502 -25.381001 30.926909 0.465775 2.533391 0.034685 -0.025699 784952.000000 0 0 1
15.872733 6.465802 -25.408441 30.648640 0.386829 2.548155 0.025748 -0.027060 -737437.000000 0 0 1
14.535233 5.752502 -25.358131 29.789244 0.376848 2.589161 0.046452 -0.030518 -894879.000000 0 0 1
13.856233 6.050202 -24.216911 28.549237 0.411689 2.583470 0.071531 -0.031801 -1072790.000000 0 0 1
12.542633 5.608702 -24.299111 27.914548 0.420499 2.626977 0.068151 -0.026766 -580643.000000 0 0 1
11.685633 5.819202 -23.037311 26.478951 0.462030 2.626046 0.071994 -0.039286 -202447.000000 0 0 1
12.204733 5.083202 -21.923111 25.601118 0.394644 2.598925 0.082698 -0.025885 458057.000000 0 0 1
11.476233 5.195602 -20.674511 24.210196 0.425119 2.594343 0.089923 -0.026230 -275630.000000 0 1 0
11.241233 6.614602 -20.044911 23.914781 0.531864 2.564735 0.057461 -0.032963 -102777.000000 0 1 0
11.040833 6.499602 -18.637611 22.616484 0.532060 2.539358 0.051230 -0.026358 -175448.000000 0 1 0
11.318833 7.774202 -17.984411 22.627267 0.601838 2.489493 0.048740 -0.030180 72721.100000 0 1 0
12.769433 8.170302 -17.653011 23.268886 0.569195 2.432039 0.043161 -0.030766 -251392.000000 0 1 0
13.198333 7.604502 -16.457511 22.424855 0.522714 2.394836 0.052646 -0.028950 -305976.000000 0 1 0
14.553633 7.911202 -16.293111 23.234905 0.497908 2.347924 0.038890 -0.024223 -484632.000000 0 1 0
15.083433 7.692602 -14.848911 22.520573 0.471618 2.290749 0.047123 -0.027764 -308740.000000 0 1 0
16.489233 7.631902 -14.761611 23.410380 0.433481 2.253069 0.040582 -0.030603 335493.000000 0 1 0
16.930833 7.547302 -13.424411 22.887326 0.419333 2.197581 0.031733 -0.029092 21973.100000 0 1 0
17.539133 8.873302 -12.889411 23.505182 0.468368 2.151204 0.055505 -0.034350 3461.840000 0 1 0
16.505533 9.847802 -12.837011 23.112781 0.537943 2.159649 0.059527 -0.035907 788420.000000 0 1 0
17.051633 11.158802 -12.614811 23.966862 0.579471 2.125091 0.084221 -0.044486 -362224.000000 0 1 0
16.070533 12.324102 -12.757111 23.935108 0.654214 2.132924 0.092180 -0.031264 120300.000000 0 1 0
15.020133 12.470802 -11.793511 22.808161 0.692929 2.114225 0.082933 -0.022415 573816.000000 0 1 0
15.380333 13.168002 -10.621711 22.864200 0.708059 2.053930 0.072744 -0.026900 -418021.000000 0 1 0
15.042233 14.648702 -10.489011 23.470675 0.772145 2.034092 0.075443 -0.024463 -276833.000000 0 1 0
13.653233 14.868402 -10.415011 22.714590 0.827978 2.047121 0.081462 -0.035648 -82007.800000 0 1 0
13.486733 16.262302 -10.534311 23.607756 0.878428 2.033336 0.077408 -0.032010 770428.000000 0 1 0
12.291033 16.805402 -9.656311 22.950716 0.939323 2.005059 0.064346 -0.029606 796231.000000 0 1 0
12.593933 16.772902 -8.237011 22.534101 0.926751 1.945004 0.062693 -0.026270 650693.000000 0 1 0
11.409733 17.016502 -7.488311 21.813256 0.980138 1.921216 0.047925 -0.023813 8277.640000 0 1 0
11.702533 16.925902 -6.014511 21.438511 0.965867 1.855160 0.041095 -0.015678 9565.630000 0 1 0
12.558533 17.929702 -5.549211 22.582841 0.959781 1.819066 0.037497 -0.014492 13745.800000 0 1 0
13.358133 17.438002 -4.487011 22.420011 0.917111 1.772291 0.065043 -0.020581 237282.000000 0 1 0
14.559433 18.370202 -4.121011 23.799667 0.900610 1.744828 0.072468 -0.020766 61779.800000 0 1 0
15.667333 18.368902 -4.985011 24.652225 0.864605 1.774414 0.082164 -0.029274 256326.000000 0 1 0
16.548233 19.411602 -4.531111 25.907243 0.864857 1.746598 0.069840 -0.020672 -293175.000000 0 0 1
17.850633 19.606202 -5.337711 27.046985 0.832233 1.769450 0.067282 -0.015328 -79278.600000 0 0 1
18.932633 18.869002 -4.804211 27.158134 0.783715 1.748630 0.072688 -0.030166 55219.100000 0 0 1
18.975233 17.473502 -5.040511 26.282874 0.744220 1.763771 0.078163 -0.043957 -690016.000000 0 0 1
20.204633 16.781502 -4.438311 26.637278 0.693109 1.738197 0.092432 -0.042678 629369.000000 0 0 1
21.504533 17.175702 -4.899711 27.954549 0.673949 1.746981 0.074884 -0.040698 638243.000000 0 0 1
22.490633 16.357502 -4.373211 28.151757 0.628816 1.726772 0.077446 -0.045038 224890.000000 0 0 1
23.975933 16.662602 -4.744911 29.580430 0.607343 1.731899 0.059699 -0.038018 729102.000000 0 0 1
24.553333 17.805002 -4.129911 30.609482 0.627411 1.706132 0.061339 -0.032421 860956.000000 0 0 1
25.969433 17.855602 -4.352411 31.814736 0.602330 1.708032 0.055097 -0.022377 674329.000000 0 0 1
26.664633 19.088802 -3.688911 32.999895 0.621307 1.682816 0.067537 -0.010410 -176708.000000 0 0 1
26.618433 20.333002 -4.361811 33.778652 0.652318 1.700287 0.066019 -0.018510 89719.300000 0 0 1
26.861833 21.453602 -3.481611 34.553389 0.673926 1.671728 0.065687 0.006611 -324255.000000 0 0 1
26.855133 22.849902 -4.156311 35.504804 0.704992 1.688129 0.051440 -0.000518 154810.000000 0 0 1
27.982233 23.094102 -4.985711 36.622400 0.689986 1.707359 0.044853 0.003992 316352.000000 0 0 1
28.176033 22.327902 -6.202611 36.481453 0.670116 1.741647 0.055522 -0.003755 -255534.000000 0 0 1
29.151133 22.997802 -7.181311 37.818761 0.667946 1.761844 0.042545 -0.003936 -284921.000000 0 0 1
28.603033 24.091802 -7.886511 38.219700 0.699996 1.778636 0.028844 -0.005453 605538.000000 0 0 1
29.576833 24.911802 -8.588711 39.612534 0.699992 1.789350 0.015242 -0.004550 550081.000000 0 0 1
30.594533 24.273802 -9.601911 40.217404 0.670706 1.811875 0.025236 -0.013124 69316.900000 0 0 1
29.963633 23.699502 -10.717711 39.678143 0.669193 1.844310 0.032965 -0.011768 268926.000000 0 0 1
30.913633 23.058002 -11.604411 40.273893 0.640862 1.863077 0.030460 -0.020046 285171.000000 0 0 1
30.356133 22.484802 -12.901711 39.918858 0.637523 1.899904 0.045059 -0.017885 -144777.000000 0 0 1
30.122833 23.437802 -13.879611 40.612304 0.661228 1.919584 0.046826 -0.012639 -21543.400000 0 0 1
30.018433 22.756802 -15.121711 40.591187 0.648661 1.952537 0.061364 -0.014267 27030.300000 0 0 1
30.078433 23.554102 -16.426311 41.585232 0.664344 1.976868 0.057367 -0.013061 -552978.000000 0 0 1
31.382233 23.956902 -16.709811 42.871849 0.652016 1.971169 0.060154 -0.010245 -603228.000000 0 0 1
31.496333 24.378302 -18.032511 43.720613 0.658688 1.995937 0.061718 -0.012679 1310460.000000 0 0 1
32.855133 25.115202 -18.470411 45.292264 0.652668 1.990845 0.052367 -0.015966 944693.000000 0 0 1
33.947133 24.263602 -18.425811 45.614041 0.620555 1.986628 0.074532 -0.007520 -976421.000000 0 0 1
35.124633 24.910002 -18.844011 47.003668 0.616866 1.983301 0.071987 -0.018037 -323084.000000 0 0 1
-36.218956 24.027802 -18.686211 47.310913 -0.585740 1.976827 0.056884 -0.018856 -474513.000000 0 0 1
-36.181956 22.977302 -19.608511 47.133683 -0.565793 1.999860 0.061462 -0.013055 -174615.000000 0 0 1
-35.105956 23.152402 -20.484311 46.776798 -0.583025 2.024076 0.072058 -0.008982 -340636.000000 0 0 1
-35.028656 22.228802 -21.734611 46.835026 -0.565465 2.053378 0.078637 -0.019287 4293.200000 0 0 1
-34.857556 20.847002 -21.485411 45.948554 -0.538994 2.057367 0.057725 -0.015277 182286.000000 0 0 1
-34.542756 20.202702 -22.724711 46.019166 -0.529213 2.087262 0.048322 -0.007018 -11455.900000 0 0 1
-34.316456 18.685902 -22.742911 45.210862 -0.498624 2.097910 0.032688 -0.004397 -34380.200000 0 0 1
-35.444456 17.865602 -22.554511 45.652986 -0.466878 2.087529 0.043210 -0.009880 69850.200000 0 0 1
-35.112056 16.496002 -22.761211 44.978298 -0.439205 2.101394 0.023084 -0.012318 204648.000000 0 0 1
36.185433 15.659202 -22.520311 45.406614 0.408416 2.089748 0.024465 -0.009271 -325493.000000 0 0 1
35.171933 15.864102 -23.424211 45.137880 0.423722 2.116416 0.078535 -0.015033 -440694.000000 0 0 1
34.055033 15.002902 -23.286311 43.898572 0.414967 2.129936 0.094618 -0.010895 -10931.600000 0 0 1
34.184633 13.615402 -23.932411 43.894517 0.379031 2.147454 0.054993 -0.014080 -482481.000000 0 0 1
34.440933 13.599902 -25.320981 44.858525 0.376081 2.170579 0.052395 -0.007432 175293.000000 0 0 1
34.763833 12.306702 -25.806461 45.010581 0.340242 2.181376 0.041844 -0.006010 -53203.000000 0 0 1
34.826933 12.334402 -27.349011 45.967610 0.340378 2.208016 0.061354 -0.003315 618610.000000 0 0 1
33.521433 12.547102 -27.908831 45.387433 0.358158 2.233058 0.053523 0.001344 673188.000000 0 0 1
33.243533 13.863902 -28.388211 45.860994 0.395110 2.238272 0.058310 -0.009243 -67965.700000 0 0 1
33.626333 14.026602 -29.858091 47.106066 0.395187 2.257315 0.049850 -0.014072 -394545.000000 0 0 1
34.987733 13.855702 -30.163571 48.228238 0.377067 2.246484 0.052803 -0.006934 -455590.000000 0 0 1
35.247733 13.997302 -31.604661 49.367821 0.378014 2.265539 0.049459 -0.009378 1582310.000000 0 0 1
-35.754156 14.004302 -31.885691 49.911696 -0.373316 2.263789 0.061894 -0.013902 1874630.000000 0 0 1
-34.975156 12.890302 -31.475711 48.786697 -0.353109 2.272042 0.054065 -0.007458 115044.000000 0 0 1
-34.853156 12.654602 -30.090901 47.752945 -0.348283 2.252526 0.041481 -0.003088 -756985.000000 0 0 1
-33.894256 11.507702 -29.677871 46.497568 -0.327306 2.263042 0.030902 -0.002487 120457.000000 0 0 1
-34.356856 10.265502 -30.113601 46.825239 -0.290347 2.269344 0.032896 -0.002667 103179.000000 0 0 1
-33.392256 9.239902 -29.947061 45.795688 -0.269953 2.283561 0.024879 0.001690 80284.200000 0 0 1
-33.761656 7.902602 -30.608641 46.251372 -0.229931 2.293999 0.024049 0.001904 -559779.000000 0 0 1
-33.774256 7.863102 -31.993211 47.181504 -0.228739 2.315954 0.029799 -0.004225 12166.400000 0 0 1
-33.989056 6.571502 -32.619921 47.565742 -0.190985 2.326479 0.034459 -0.010907 -583003.000000 0 0 1
-35.311356 5.869502 -32.329861 48.234457 -0.164715 2.305362 0.044957 -0.004073 -749881.000000 0 0 1
-35.234556 5.346602 -31.023941 47.249815 -0.150594 2.287090 0.042952 -0.001711 1301900.000000 0 0 1
36.084833 4.794702 -30.545271 47.519658 0.132099 2.268934 0.038858 0.005473 903746.000000 0 0 1
36.122833 4.163702 -29.139491 46.597268 0.114759 2.246373 0.046143 -0.003308 98575.300000 0 0 1
-35.556856 3.061602 -29.021211 45.998849 -0.085893 2.253524 0.044424 0.001744 231694.000000 0 0 1
-35.736856 2.223702 -27.908901 45.397957 -0.062144 2.232879 0.052212 0.008548 -710807.000000 0 0 1
-34.811056 1.039802 -27.884191 44.614111 -0.029861 2.245939 0.075617 -0.004127 -1560370.000000 0 0 1
-33.652456 1.355602 -27.258721 43.328551 -0.040261 2.251213 0.069091 -0.004330 -1225480.000000 0 0 1
-32.656056 0.351002 -27.246321 42.531203 -0.010748 2.266101 0.050879 -0.011399 107309.000000 0 0 1
-31.628856 0.568502 -26.131881 41.031487 -0.017972 2.261233 0.036657 -0.004320 -288427.000000 0 0 1
-32.118056 0.409402 -24.833511 40.600990 -0.012746 2.228938 0.041946 -0.005391 -492965.000000 0 0 1
-31.176656 0.850802 -23.939811 39.316947 -0.027283 2.225461 0.048082 0.008963 -601763.000000 0 0 1
-31.592956 0.533002 -22.461311 38.767376 -0.016869 2.188773 0.041038 0.015616 -434882.000000 0 0 1
-31.667356 -0.856298 -22.158711 38.659580 0.027034 2.181172 0.048314 0.001273 162604.000000 0 0 1
-32.272456 -1.157598 -20.918211 38.476265 0.035854 2.145594 0.064770 -0.003039 341665.000000 0 0 1
-33.808056 -0.966698 -20.729011 39.668767 0.028586 2.120638 0.064531 -0.006207 326330.000000 0 0 1
-34.589356 -2.123398 -21.069711 40.556936 0.061312 2.117073 0.067599 -0.009233 -545693.000000 0 0 1
-35.937656 -1.864398 -20.889411 41.609597 0.051832 2.096745 0.072380 -0.009276 -490000.000000 0 0 1
35.772233 -3.125398 -20.623311 41.409440 -0.087148 2.092127 0.060926 -0.013619 -129461.000000 0 0 1
35.172433 -3.808398 -21.679211 41.492073 -0.107858 2.120566 0.051791 -0.007785 206652.000000 0 0 1
36.097233 -4.446898 -22.566311 42.802144 -0.122575 2.126126 0.060510 -0.012584 -32284.400000 0 0 1
35.407233 -5.316898 -23.592111 42.878074 -0.149051 2.153417 0.052496 -0.011566 -1092020.000000 0 0 1
34.991433 -6.548898 -23.066811 42.418937 -0.185017 2.145738 0.053187 -0.010377 227348.000000 0 0 1
34.317333 -7.440898 -23.946811 42.502895 -0.213521 2.169311 0.061808 -0.008770 50831.700000 0 0 1
32.899333 -7.002898 -24.348911 41.524404 -0.209728 2.197374 0.034148 -0.002529 -860885.000000 0 0 1
32.811233 -5.938598 -25.278521 41.843131 -0.179054 2.219465 0.043543 -0.005808 -172003.000000 0 0 1
31.476233 -5.684398 -25.643691 40.995908 -0.178668 2.246592 0.021207 0.000820 -65572.500000 0 0 1
31.397633 -4.434898 -26.588601 41.381558 -0.140321 2.268583 0.048137 -0.022453 -126960.000000 0 0 1
31.900833 -4.665698 -27.892661 42.631355 -0.145227 2.284021 0.060783 -0.026743 330430.000000 0 0 1
31.685433 -3.597298 -28.795911 42.966402 -0.113048 2.305269 0.060828 -0.030924 -77825.200000 0 0 1
31.583633 -4.085198 -30.299081 43.957355 -0.128631 2.331296 0.072478 -0.019392 -70642.400000 0 0 1
31.158833 -3.071498 -31.119361 44.144327 -0.098258 2.353143 0.074387 -0.036277 -228673.000000 0 0 1
30.756333 -3.602398 -32.331601 44.768982 -0.116596 2.377756 0.072573 -0.040235 -991855.000000 0 0 1
30.226333 -2.506698 -33.290891 45.035521 -0.082742 2.402699 0.075480 -0.036034 -296302.000000 0 0 1
29.207533 -1.641698 -32.813571 43.960273 -0.056149 2.413488 0.078639 -0.035067 1171960.000000 0 0 1
27.959633 -2.207798 -32.334581 42.803511 -0.078800 2.427090 0.081668 -0.035173 307095.000000 0 0 1
26.981133 -2.595898 -33.420501 43.030804 -0.095916 2.460150 0.087545 -0.044160 -1057230.000000 0 0 1
27.427933 -3.708798 -34.180508 43.981289 -0.134405 2.460937 0.092038 -0.044437 -291653.000000 0 0 1
26.633433 -3.947698 33.226579 42.765987 -0.147152 0.681007 0.081931 -0.037747 -609122.000000 0 0 1
27.094133 -5.134198 32.303797 42.473372 -0.187274 0.706612 0.062796 -0.041563 1591870.000000 0 0 1
28.397233 -5.137198 31.613387 42.804204 -0.178969 0.739867 0.064778 -0.036237 1619020.000000 0 0 1
28.576733 -4.195398 30.611177 42.086520 -0.145770 0.756359 0.081848 -0.038040 -666410.000000 0 0 1
29.174633 -2.853998 30.979937 42.650451 -0.097514 0.757773 0.059162 -0.029613 434848.000000 0 0 1
30.530233 -2.981498 31.460237 43.940084 -0.097349 0.772769 0.061576 -0.028410 866600.000000 0 0 1
31.152133 -1.735498 31.685217 44.468194 -0.055653 0.777689 0.050891 -0.023705 743681.000000 0 0 1
32.627433 -1.771298 32.205637 45.879079 -0.054235 0.792640 0.039919 -0.024233 735809.000000 0 0 1
33.592933 -2.225198 31.288417 45.960871 -0.066143 0.821994 0.049486 -0.013290 -796450.000000 0 0 1
34.880433 -2.038298 31.777607 47.229393 -0.058370 0.832762 0.037372 -0.009853 -425719.000000 0 0 1
35.949533 -2.519498 30.763357 47.382496 -0.069970 0.864191 0.012840 -0.004361 -32330.900000 0 0 1
36.151633 -1.642398 29.710117 46.822314 -0.045400 0.883397 0.016899 0.001114 44373.600000 0 0 1
-35.537656 -2.241798 28.793487 45.793182 0.062999 0.890823 0.011070 0.000580 -16740.700000 0 0 1
-35.436056 -1.381298 27.482677 44.865572 0.038960 0.911506 0.029460 0.002360 -223512.000000 0 0 1
36.064933 -1.403598 26.599207 44.834889 -0.038899 0.935681 0.041934 -0.011636 -143658.000000 0 0 1
-36.030256 -0.968298 25.301207 44.037121 0.026868 0.958751 0.051138 -0.018555 -253175.000000 0 0 1
-26.663397 14.945902 12.154989 32.894688 -0.510899 1.192312 0.059561 -0.014323 221322.000000 0 0 1
-27.965187 14.433002 12.379389 33.817340 -0.476449 1.196018 0.033270 -0.003670 535755.000000 0 0 1
-28.701337 15.235502 13.316189 35.117064 -0.488006 1.181871 0.040668 -0.009703 -246610.000000 0 0 1
-30.048787 14.594102 13.610489 36.071635 -0.452126 1.183897 0.056366 -0.003653 357842.000000 0 0 1
-30.971087 15.425102 14.393989 37.474377 -0.462085 1.176561 0.051154 -0.011027 579280.000000 0 0 1
-32.139327 14.721402 14.777889 38.315036 -0.429528 1.174836 0.068210 -0.007144 339207.000000 0 0 1
-33.035027 15.611402 15.684589 39.762233 -0.441465 1.165317 0.059141 -0.009416 152938.000000 0 0 1
-32.374887 15.902302 16.898189 39.831712 -0.456577 1.132674 0.036953 0.000174 12503.300000 0 0 1
-33.305607 16.222902 17.884789 41.137716 -0.453268 1.121031 0.045772 -0.013767 -157374.000000 0 0 1
-32.535657 16.348002 19.172889 41.151255 -0.465617 1.086131 0.040386 -0.005546 -56606.000000 0 0 1
-31.952097 15.169202 19.647989 40.460903 -0.443243 1.063742 0.041860 -0.008431 23945.900000 0 0 1
-31.046837 15.338902 20.742389 40.366257 -0.458882 1.031124 0.028402 -0.007505 321820.000000 0 0 1
-31.599637 15.901602 22.083389 41.702207 -0.466221 1.012727 0.033503 -0.023297 -527530.000000 0 0 1
-32.012537 17.256602 22.033489 42.521377 -0.494403 1.026081 0.044123 -0.023226 71864.500000 0 0 1
-32.256657 17.895802 23.279989 43.620059 -0.506516 1.007828 0.054758 -0.031429 -155020.000000 0 0 1
-33.291487 17.204902 24.240489 44.631077 -0.476994 0.996636 0.038614 -0.025274 67672.700000 0 0 1
-34.540410 16.813202 23.738889 45.158150 -0.453007 1.017278 0.053948 -0.009316 157000.000000 0 0 1
-35.519506 17.829402 23.444089 46.142694 -0.465215 1.037844 0.057509 -0.005144 -373004.000000 0 0 1
35.698321 17.169402 23.329389 45.971936 0.448298 1.038550 0.041296 -0.011830 -524787.000000 0 0 1
35.108651 16.765502 24.556789 46.007992 0.445512 1.007767 0.054137 -0.008406 -793564.000000 0 0 1
34.069831 15.901002 24.335189 44.786122 0.436669 0.996357 0.073509 -0.013243 -485138.000000 0 0 1
33.629421 14.999302 25.585389 44.838925 0.419537 0.963552 0.063185 -0.016793 -206040.000000 0 0 1
33.016721 15.854702 26.551289 45.237666 0.447684 0.943536 0.060958 -0.011873 270267.000000 0 0 1
32.619861 15.311402 27.824189 45.526694 0.438860 0.913268 0.047562 -0.000104 395256.000000 0 0 1
31.641631 14.096602 27.859389 44.452813 0.419112 0.893462 0.045163 0.003261 28138.200000 0 0 1
32.280821 12.960402 27.336189 44.241278 0.381790 0.904742 0.045352 -0.013770 -22111.100000 0 0 1
31.371331 11.896002 27.211689 43.198973 0.362448 0.889352 0.041924 -0.006189 -210378.000000 0 0 1
32.010451 10.710402 26.502889 42.916021 0.322882 0.905169 0.047486 -0.005198 447755.000000 0 0 1
32.922601 10.151502 27.478389 44.068271 0.299095 0.897532 0.057993 -0.008712 299553.000000 0 0 1
33.418411 8.829402 27.228489 44.001581 0.258305 0.903573 0.047828 -0.005192 561968.000000 0 0 1
34.492161 8.247902 28.225189 45.325472 0.234716 0.898579 0.052785 -0.005576 670619.000000 0 0 1
35.752791 8.887802 28.166089 46.374386 0.243652 0.918059 0.065928 -0.012448 15821.800000 0 0 1
-35.840391 8.052002 28.756189 46.650689 -0.220993 0.906614 0.064326 -0.015475 842676.000000 0 0 1
-34.476081 8.800702 28.940789 45.865257 -0.249932 0.887960 0.075910 -0.018900 565887.000000 0 0 1
-33.687367 9.072202 27.805789 44.612839 -0.263065 0.897881 0.065810 -0.016041 -457037.000000 0 0 1
-32.567167 9.801802 28.188889 44.173625 -0.292348 0.878718 0.066040 -0.012134 -545915.000000 0 0 1
-31.793657 10.422902 27.024189 43.009072 -0.316789 0.891383 0.055878 -0.011978 -245636.000000 0 0 1
-31.134877 9.403102 26.299589 41.826634 -0.293301 0.890818 0.047489 -0.011651 -220504.000000 0 0 1
-30.530837 9.914102 25.165589 40.788826 -0.313982 0.905906 0.040597 -0.011373 -702348.000000 0 0 1
-29.755697 8.786802 24.554389 39.566746 -0.287138 0.901312 0.048327 -0.017157 -70063.500000 0 0 1
-28.893797 9.255702 23.514689 38.385676 -0.310007 0.911463 0.044260 -0.019646 -18843.500000 0 0 1
-28.163727 8.330702 22.803089 37.183020 -0.287595 0.910607 0.059284 -0.012272 -77980.300000 0 0 1
-27.087097 9.013102 21.919189 35.991633 -0.321221 0.915987 0.055798 -0.004765 -171071.000000 0 0 1
-26.005077 9.608602 22.643889 35.795740 -0.353931 0.885908 0.063683 -0.013940 656266.000000 0 0 1
-25.026067 10.290102 21.883989 34.800851 -0.390103 0.890742 0.057530 -0.006969 -26479.000000 0 0 1
-24.161167 9.577602 20.886689 33.342859 -0.377403 0.893842 0.058420 -0.003364 -1243600.000000 0 0 1
-24.729967 9.413602 19.586889 32.921625 -0.363720 0.933587 0.063174 -0.005089 -428.982000 0 0 1
-24.309467 8.331802 18.773689 31.824841 -0.330192 0.939853 0.072079 -0.010687 -299220.000000 0 0 1
-24.281967 6.901902 19.334389 31.797308 -0.276936 0.917193 0.073727 0.004319 -423357.000000 0 0 1
-23.129867 6.610002 20.101589 31.348951 -0.278358 0.874709 0.068584 0.005373 354422.000000 0 0 1
-23.084267 5.258802 20.587589 31.374945 -0.223986 0.855052 0.079482 -0.000004 -228843.000000 0 0 1
-22.781467 4.155702 19.544589 30.302740 -0.180432 0.869802 0.082573 -0.007155 -63381.000000 0 0 1
-23.970867 3.876702 18.795189 30.706521 -0.160337 0.912094 0.116720 -0.014894 732458.000000 0 0 1
-23.846467 3.303702 17.550789 29.792594 -0.137664 0.940853 0.097469 -0.007551 -240499.000000 0 0 1
-24.010267 1.782002 17.630789 29.841467 -0.074082 0.938728 0.096293 -0.002432 455497.000000 0 0 1
-22.736867 1.190802 17.928889 28.979789 -0.052325 0.903749 0.053723 -0.001923 1042800.000000 0 0 1
-22.889067 -0.156698 18.357089 29.341381 0.006846 0.894847 0.067222 -0.009434 -380843.000000 0 0 1
-21.580667 -0.919698 18.619089 28.517390 0.042591 0.859386 0.057896 0.000498 -423555.000000 0 0 1
-20.841067 -0.387598 19.659089 28.652750 0.018596 0.814661 0.037486 0.000215 -185656.000000 0 0 1
-19.818067 -1.269398 20.052189 28.221578 0.063965 0.780550 0.024157 0.001887 334410.000000 0 0 1
-18.800967 -0.837498 21.167089 28.323549 0.044516 0.726759 0.025262 0.000917 482220.000000 0 0 1
-19.302967 -0.983798 22.448489 29.622746 0.050922 0.710842 0.037002 -0.003852 -605015.000000 0 0 1
-18.291767 -0.965698 23.393289 29.711400 0.052745 0.664297 0.037394 -0.007133 -737951.000000 0 0 1
-18.772867 -0.924598 24.898289 31.196157 0.049212 0.646627 0.044146 -0.005836 315383.000000 0 0 1
-19.523367 0.200602 25.350089 31.997330 -0.010275 0.656298 0.045300 -0.010840 533445.000000 0 0 1
-20.935367 0.012902 25.265989 32.812497 -0.000616 0.691938 0.064766 -0.013368 763082.000000 0 0 1
-21.775067 1.151902 26.005789 33.937906 -0.052851 0.697772 0.059088 -0.017456 155222.000000 0 0 1
-21.546967 2.354302 25.380189 33.376167 -0.108832 0.706824 0.065058 -0.017958 -211844.000000 0 0 1
-22.583767 2.734802 24.541289 33.463122 -0.120509 0.747511 0.068709 -0.017411 -953215.000000 0 0 1
-22.121067 3.984702 23.701189 32.664443 -0.178220 0.758896 0.069638 -0.018392 468666.000000 0 0 1
-21.364367 3.726702 22.509689 31.257169 -0.172698 0.766785 0.079175 -0.016431 457916.000000 0 0 1
-20.064467 3.200302 22.675089 30.446419 -0.158169 0.730630 0.041007 -0.006517 -827426.000000 0 0 1
-19.510767 2.657602 21.383389 29.068578 -0.135379 0.744217 0.028019 -0.007340 -435403.000000 0 0 1
-19.077467 3.609102 20.426789 28.182070 -0.186972 0.760030 0.022604 -0.000630 343452.000000 0 0 1
-18.806267 2.917502 19.235089 27.058754 -0.153908 0.780071 0.008630 0.003971 -79232.000000 0 0 1
-18.497867 3.809002 17.978789 26.075207 -0.203077 0.810001 0.010523 0.000269 189842.000000 0 0 1
-17.190167 4.378802 17.929689 25.222004 -0.249423 0.780055 0.003156 -0.006443 510415.000000 0 0 1
-17.059467 4.926802 16.638889 24.334162 -0.281152 0.817884 0.011331 0.003323 -722632.000000 0 1 0
-15.604667 5.296002 16.397689 23.247311 -0.327188 0.787868 0.022324 0.000050 -575886.000000 0 1 0
-15.029167 6.389702 17.177289 23.701549 -0.402001 0.760150 0.014566 -0.001424 310584.000000 0 1 0
-15.604067 7.672102 17.062189 24.361165 -0.456964 0.794860 0.012849 -0.009553 -943837.000000 0 1 0
-15.110367 8.447802 15.861789 23.479457 -0.509783 0.829072 0.002246 -0.011608 -244183.000000 0 1 0
-15.624267 8.058502 14.601089 22.852767 -0.476183 0.877703 0.020166 -0.006681 1306910.000000 0 1 0
-17.056067 8.280802 14.507989 23.873895 -0.451984 0.917644 0.027581 -0.002875 569713.000000 0 1 0
-17.658067 7.606002 13.316789 23.387934 -0.406721 0.965036 0.035912 -0.007503 -453135.000000 0 1 0
-17.463667 6.268302 13.356789 22.862088 -0.344611 0.946862 0.035203 -0.006757 517562.000000 0 1 0
-18.153267 5.509502 12.338089 22.630160 -0.294664 0.994162 0.048866 -0.010791 420035.000000 0 1 0
-17.699167 4.034102 12.484789 22.031896 -0.224098 0.968339 0.040866 -0.009083 141312.000000 0 1 0
-18.106967 3.423002 13.698389 22.961382 -0.186838 0.931559 0.027629 0.001224 -4198.060000 0 1 0
-17.650967 2.163802 13.804089 22.512031 -0.121980 0.910707 0.018010 -0.004611 -702550.000000 0 1 0
-18.498867 1.280302 14.736289 23.685554 -0.069100 0.899293 0.020124 -0.000719 131153.000000 0 1 0
-19.763767 0.972302 14.171589 24.338977 -0.049157 0.949292 0.037767 -0.001464 241815.000000 0 1 0
-20.627867 0.348002 15.087289 25.558879 -0.016869 0.939372 0.044351 -0.005161 -22913.700000 0 0 1
-22.066667 0.177602 14.545989 26.430194 -0.008048 0.988007 0.063605 -0.005117 -101621.000000 0 0 1
-22.063667 -0.785998 13.485789 25.870634 0.035609 1.022449 0.069310 -0.016871 469882.000000 0 0 1
-23.353267 -1.093198 12.968889 26.735038 0.046777 1.064331 0.111564 -0.019173 153050.000000 0 0 1
-23.558967 -2.319398 12.006789 26.543691 0.098135 1.101408 0.103558 -0.025198 -198289.000000 0 0 1
-23.340367 -3.457298 12.676189 26.784537 0.147056 1.077803 0.087622 -0.016740 209062.000000 0 0 1
-23.379267 -4.502598 11.777689 26.562708 0.190260 1.111417 0.094802 -0.019468 54963.900000 0 0 1
-23.181067 -5.918098 12.519789 27.002424 0.249960 1.088681 0.085268 -0.017801 190474.000000 0 0 1
-24.362967 -6.271798 13.211989 28.415599 0.251961 1.087212 0.080406 -0.013994 409173.000000 0 0 1
-24.316867 -7.613698 13.722089 28.940873 0.303435 1.076807 0.079102 -0.018745 219258.000000 0 0 1
-25.378477 -7.923498 14.818889 30.437615 0.302624 1.062304 0.086541 -0.015349 2024070.000000 0 0 1
-26.775897 -7.575498 14.533489 31.393616 0.275716 1.089483 0.095223 -0.019836 1945160.000000 0 0 1
-27.603717 -7.887298 15.628989 32.687000 0.278317 1.072260 0.095670 -0.017033 -1009130.000000 0 0 1
-29.033227 -7.327298 15.642289 33.783114 0.247214 1.089396 0.100595 -0.023671 420729.000000 0 0 1
-30.010767 -7.931598 14.757089 34.370453 0.258384 1.127019 0.098844 -0.020748 1029210.000000 0 0 1
-30.189017 -9.378998 14.858589 34.930217 0.301222 1.131415 0.102144 -0.026325 -919964.000000 0 0 1
-30.589767 -10.057598 16.237589 36.063117 0.317656 1.103746 0.094909 -0.028549 -970116.000000 0 0 1
-29.518887 -10.147698 17.108389 35.595470 0.331114 1.069419 0.106865 -0.015850 -478352.000000 0 0 1
-29.704477 -10.917298 18.288189 36.551350 0.352206 1.046802 0.103935 -0.013960 91838.100000 0 0 1
-28.438157 -10.910598 19.195789 36.003448 0.366342 1.008459 0.110380 -0.010443 -172647.000000 0 0 1
-27.393137 -11.644498 18.696089 35.149994 0.401945 1.009960 0.108421 -0.011503 -563123.000000 0 0 1
-26.217077 -11.557998 19.498789 34.657254 0.415225 0.973247 0.100557 -0.021241 879830.000000 0 0 1
-25.137127 -12.564198 18.960989 33.900639 0.463509 0.977242 0.086963 -0.014082 214003.000000 0 0 1
-24.355167 -12.285198 17.837589 32.592635 0.467176 0.991675 0.073836 -0.003201 -9123.490000 0 0 1
-23.459767 -13.314398 17.528089 32.169361 0.516211 0.994563 0.061940 -0.005402 -138568.000000 0 0 1
-22.904667 -13.129998 16.096289 30.921047 0.520515 1.023289 0.068622 -0.000445 -285408.000000 0 0 1
-22.143867 -11.997998 15.865389 29.765977 0.496542 1.008649 0.063439 -0.010643 -192697.000000 0 0 1
-21.608367 -12.072698 14.535389 28.704514 0.509502 1.039815 0.096597 -0.004834 -12542.100000 0 0 1
-20.665667 -10.919098 14.124989 27.309555 0.486084 1.027199 0.057179 -0.003299 -825354.000000 0 0 1
-21.273567 -9.698498 13.857689 27.178320 0.427745 1.035751 0.049491 -0.007429 -148077.000000 0 0 1
-20.410967 -8.618298 13.520589 25.955519 0.399529 1.022875 0.054527 -0.011270 63909.200000 0 0 1
-19.894467 -8.636498 11.980189 24.777083 0.409566 1.066126 0.081448 -0.007533 -181866.000000 0 1 0
-19.126767 -9.765098 11.670289 24.441481 0.472049 1.073013 0.068993 -0.015476 141499.000000 0 1 0
-18.734667 -9.749698 10.331689 23.511448 0.479842 1.115830 0.076874 -0.014046 -269225.000000 0 1 0
-18.058267 -11.015898 9.723489 23.280835 0.547754 1.139927 0.054943 -0.016056 2145550.000000 0 1 0
-16.628167 -11.262398 9.925389 22.402029 0.595334 1.111790 0.062020 -0.020530 2084000.000000 0 1 0
-16.104767 -11.485598 11.221489 22.742126 0.619517 1.054775 0.064256 -0.015880 871386.000000 0 1 0
-14.605967 -11.983998 11.335889 22.032995 0.687108 1.030376 0.070995 -0.017640 1082710.000000 0 1 0
-14.308067 -13.264598 10.858689 22.328938 0.747572 1.062940 0.061380 -0.029900 44270.600000 0 1 0
-12.923067 -13.488898 10.702389 21.528984 0.806818 1.050525 0.067290 -0.034776 16763.300000 0 1 0
-12.501267 -14.972098 10.514789 22.158660 0.875092 1.076375 0.065273 -0.037618 -52258.900000 0 1 0
-12.930867 -15.569398 9.284989 22.267117 0.877714 1.140674 0.053210 -0.039731 8625.290000 0 1 0
-12.859967 -16.998398 9.536889 23.351157 0.923123 1.150083 0.042633 -0.026170 -8025.260000 0 1 0
-12.974367 -17.902198 8.257689 23.601109 0.943661 1.213347 0.031667 -0.013929 310923.000000 0 1 0
-11.998567 -17.569598 7.255089 22.478717 0.971628 1.242159 0.028219 -0.022432 292928.000000 0 1 0
-12.229867 -18.297998 6.051189 22.825496 0.981614 1.302482 0.007647 -0.015310 -307209.000000 0 1 0
-11.262267 -18.136898 4.859589 21.895236 1.015108 1.346985 0.015025 -0.016147 -401112.000000 0 1 0
-11.654867 -18.868798 3.758589 22.494321 1.017479 1.402918 0.025969 -0.013052 59010.700000 0 1 0
-10.691467 -18.848798 2.735489 21.841876 1.054826 1.445226 0.028299 -0.020035 -415563.000000 0 1 0
-11.092067 -19.642198 1.537089 22.610010 1.056733 1.502761 0.040060 -0.017460 -37008.400000 0 1 0
-11.126167 -21.059598 1.856889 23.890297 1.084752 1.492992 0.039921 -0.021533 -393716.000000 0 1 0
-11.590367 -21.936098 0.837589 24.823992 1.084711 1.537049 0.045804 -0.017315 -465582.000000 0 1 0
-10.836867 -22.212898 -0.463911 24.719744 1.116905 1.589564 0.059322 -0.011480 -419160.000000 0 1 0
-10.790367 -21.261098 -1.492811 23.889220 1.101153 1.633326 0.058372 -0.024765 278211.000000 0 1 0
-11.880367 -21.338198 -2.420111 24.542183 1.062774 1.669567 0.075452 -0.015758 -130038.000000 0 1 0
-12.928967 -20.280798 -2.277511 24.158974 1.003260 1.665208 0.078660 -0.016509 -683928.000000 0 1 0
-13.740567 -20.388698 -1.145511 24.613297 0.977782 1.617353 0.073852 -0.013372 -500190.000000 0 1 0
-14.614067 -19.322598 -1.045611 24.249269 0.923263 1.613929 0.071374 -0.008221 -273521.000000 0 1 0
26.240833 -20.067698 -4.254811 33.307615 -0.652875 1.698889 0.054960 -0.017315 -420719.000000 0 0 1
24.965933 -20.327198 -3.744511 32.411636 -0.683338 1.686585 0.031767 -0.013633 -394876.000000 0 0 1
24.921833 -21.411898 -2.864711 32.981415 -0.709789 1.657764 0.017360 -0.010457 -295010.000000 0 0 1
23.608433 -21.662798 -2.103011 32.110085 -0.742447 1.636337 0.021042 -0.011239 -441809.000000 0 0 1
22.559433 -22.077098 -2.929411 31.700280 -0.774593 1.663338 0.038029 -0.019944 -672202.000000 0 0 1
21.684033 -22.873898 -2.170511 31.593095 -0.812096 1.639553 0.022257 -0.012300 -431001.000000 0 0 1
20.553533 -23.355098 -3.111311 31.266413 -0.849116 1.670471 0.043990 -0.024103 -388886.000000 0 0 1
19.792533 -22.252698 -3.538311 29.990775 -0.843844 1.689052 0.047510 -0.033147 -756422.000000 0 0 1
19.171633 -22.581198 -4.700311 29.992582 -0.866878 1.728161 0.062721 -0.026832 -482470.000000 0 0 1
18.274133 -21.479798 -5.267511 28.689237 -0.865862 1.755450 0.054796 -0.026718 -1203200.000000 0 0 1
17.176833 -20.998198 -4.585011 27.513456 -0.885167 1.738224 0.064263 -0.020077 -450431.000000 0 0 1
17.460233 -20.148398 -3.516111 26.892020 -0.856754 1.701921 0.045941 -0.024127 -369545.000000 0 0 1
16.292133 -19.828098 -2.544311 25.788769 -0.882982 1.669617 0.049122 -0.012971 125595.000000 0 0 1
15.899333 -20.851798 -1.663811 26.274599 -0.919348 1.634163 0.049847 -0.011552 -63458.600000 0 0 1
15.066233 -20.329898 -0.673211 25.313027 -0.933024 1.597395 0.063873 -0.000099 -280572.000000 0 0 1
14.774333 -21.285298 0.527689 25.915696 -0.964035 1.550433 0.058966 0.002948 -675090.000000 0 0 1
13.853733 -22.276198 0.313989 26.234586 -1.014424 1.558828 0.057129 0.000524 -742590.000000 0 0 1
13.281833 -22.535798 1.552489 26.204570 -1.038233 1.511517 0.054139 0.004424 -376817.000000 0 0 1
12.297133 -23.704698 1.621889 26.753742 -1.092251 1.510136 0.056614 -0.002751 -103239.000000 0 0 1
12.823133 -25.001298 1.719989 28.150595 -1.096883 1.509659 0.045456 0.004118 483892.000000 0 0 1
11.716133 -25.900888 1.664789 28.476224 -1.145994 1.512301 0.053318 -0.000242 433640.000000 0 0 1
12.021833 -27.270478 2.308789 29.892038 -1.155589 1.493482 0.051052 -0.000703 24328.100000 0 0 1
11.888333 -27.185008 3.709889 29.901846 -1.158544 1.446407 0.057328 -0.005101 98684.700000 0 0 1
12.211033 -28.417418 4.251389 31.220719 -1.164949 1.434200 0.054856 -0.006393 -24607.900000 0 0 1
12.036233 -28.473638 5.771789 31.447298 -1.170863 1.386211 0.067400 -0.010027 -109526.000000 0 0 1
12.282533 -29.733028 6.295889 32.780357 -1.179053 1.377533 0.060480 -0.008667 -103747.000000 0 0 1
12.183633 -29.857988 7.692489 33.152900 -1.183367 1.336632 0.064594 -0.006230 -115830.000000 0 0 1
12.169433 -31.309278 8.136489 34.562530 -1.200083 1.333152 0.055611 -0.009337 -42820.300000 0 0 1
12.097633 -31.400428 9.566489 34.983672 -1.203053 1.293812 0.053415 -0.002724 -212087.000000 0 0 1
11.169833 -32.372548 9.946989 35.660758 -1.238547 1.288113 0.045612 -0.001301 -209003.000000 0 0 1
11.078633 -32.700198 11.442389 36.372618 -1.244139 1.250774 0.036242 0.003020 -396444.000000 0 0 1
12.152333 -33.431018 11.969689 37.531129 -1.222142 1.246199 0.028169 0.002101 -220099.000000 0 0 1
11.942033 -33.903588 13.286489 38.322268 -1.232132 1.216741 0.030959 0.004525 387929.000000 0 0 1
10.745533 33.667263 13.616289 37.872872 1.261848 1.203036 0.028965 0.002958 -42144.600000 0 0 1
10.813333 32.414337 12.955489 36.543975 1.248808 1.208398 0.034477 0.007093 -601136.000000 0 0 1
9.755833 31.537807 13.108389 35.519564 1.270795 1.192813 0.028545 0.008307 -811078.000000 0 0 1
9.745233 30.417357 12.024689 34.128849 1.260745 1.210735 0.033440 0.007346 -260555.000000 0 0 1
9.494733 30.785117 10.712689 33.950480 1.271633 1.249772 0.012977 0.002651 212305.000000 0 0 1
10.451933 31.621297 10.039389 34.784173 1.251567 1.278012 0.021489 0.001511 174084.000000 0 0 1
10.010533 31.985447 8.633689 34.609539 1.267482 1.318674 0.036692 -0.010759 440333.000000 0 0 1
8.795733 32.740127 8.596589 34.974022 1.308340 1.322452 0.025007 -0.004465 420453.000000 0 0 1
8.265533 32.971795 7.303189 34.767728 1.325173 1.359164 0.011861 -0.006564 -80055.200000 0 0 1
8.989733 34.174602 6.535289 35.936454 1.313571 1.387922 0.031065 -0.000700 175690.000000 0 0 1
8.427933 -33.118828 6.842889 34.852718 -1.321610 1.373175 0.033390 0.006454 166160.000000 0 0 1
8.988333 -32.052488 6.090589 33.841504 -1.297393 1.389836 0.049349 -0.011490 -37396.700000 0 0 1
8.322733 -30.750668 6.529989 32.519413 -1.306477 1.368619 0.044894 -0.008745 -12262.500000 0 0 1
8.491533 -30.454938 7.907689 32.590504 -1.298880 1.325712 0.048867 -0.005699 2821.210000 0 0 1
7.988633 -29.259548 8.439589 31.482790 -1.304266 1.299407 0.064683 -0.004642 -130067.000000 0 0 1
8.813633 -28.011318 8.022589 30.441354 -1.265958 1.304104 0.066063 -0.008356 -166302.000000 0 0 1
8.641533 -26.822838 8.818389 29.528033 -1.259126 1.267524 0.058843 -0.007130 -127206.000000 0 0 1
9.470933 -25.726498 8.529789 28.710775 -1.218054 1.269149 0.080702 -0.018280 -76659.400000 0 0 1
9.015833 -24.883598 7.304389 27.456016 -1.223188 1.301514 0.048279 -0.017994 78196.100000 0 0 1
9.009833 -25.549798 6.092689 27.768510 -1.231773 1.349587 0.051770 -0.009573 -215301.000000 0 0 1
8.621633 -24.662698 5.067389 26.613148 -1.234494 1.379217 0.053475 -0.005891 73867.300000 0 0 1
8.609433 -25.409928 3.686289 27.080907 -1.244114 1.434251 0.047116 -0.007111 496536.000000 0 0 1
7.592033 -26.410238 3.478889 27.699139 -1.290878 1.444868 0.052494 -0.011691 384480.000000 0 0 1
7.943133 -27.702718 3.963689 29.090287 -1.291560 1.434116 0.052280 -0.009416 436056.000000 0 0 1
6.768733 -28.621958 3.563989 29.626580 -1.338575 1.450207 0.043357 -0.009294 -64385.500000 0 0 1
5.536233 -28.494218 4.216189 29.331665 -1.378894 1.426555 0.028527 -0.002999 226606.000000 0 0 1
4.495533 -29.405368 3.773389 29.985396 -1.419090 1.444621 0.030438 0.005189 822306.000000 0 0 1
4.642033 -30.950838 4.101589 31.564630 -1.421925 1.440485 0.032890 0.002342 -345409.000000 0 0 1
5.704533 -31.518178 3.367089 32.206747 -1.391743 1.466059 0.033619 -0.003667 -59612.200000 0 0 1
5.781633 -32.918558 3.683789 33.624828 -1.396935 1.461020 0.025469 -0.002760 -306665.000000 0 0 1
6.985033 -33.663898 3.110489 34.521354 -1.366206 1.480571 0.016206 -0.005303 -384723.000000 0 0 1
6.875733 -33.925238 1.733689 34.658378 -1.370832 1.520753 0.022142 -0.005823 134832.000000 0 0 1
7.849133 33.709474 1.212589 34.632469 1.342026 1.535776 0.018376 -0.007678 -340998.000000 0 0 1
7.468533 33.278165 -0.182311 34.106429 1.350027 1.576142 0.038022 -0.005729 -57778.100000 0 0 1
6.413733 32.355317 -0.322211 32.986457 1.375105 1.580564 0.012452 -0.004169 -363413.000000 0 0 1
5.208133 33.077829 -0.532411 33.489564 1.414628 1.586695 0.022358 -0.006106 -515775.000000 0 0 1
3.978333 32.154937 -0.405611 32.402649 1.447698 1.583314 0.022597 -0.007010 -197670.000000 0 0 1
3.940633 31.167067 -1.391911 31.446019 1.445028 1.615074 0.023103 -0.008773 -16026.300000 0 0 1
2.803733 30.362547 -1.163711 30.513922 1.478716 1.608943 0.020075 -0.008038 198699.000000 0 0 1
2.713133 29.334457 -2.261111 29.546304 1.478569 1.647399 0.020818 -0.010567 31705.700000 0 0 1
2.202833 29.758707 -3.509611 30.045807 1.496908 1.687872 0.033745 -0.019694 48597.900000 0 0 1
2.235133 28.715917 -4.456211 29.145455 1.493117 1.724294 0.034795 -0.023672 -277691.000000 0 0 1
1.956833 29.236337 -5.851211 29.880249 1.503964 1.767892 0.044951 -0.019535 -610596.000000 0 0 1
0.585933 29.498877 -5.988711 30.106341 1.550936 1.771051 0.059400 -0.022121 -231244.000000 0 0 1
0.318933 30.462567 -6.974611 31.252439 1.560327 1.795862 0.058339 -0.022385 -103794.000000 0 0 1
0.484833 30.013457 -8.456011 31.185683 1.554644 1.845384 0.064579 -0.027200 -1077470.000000 0 0 1
-0.489667 29.101617 -8.822711 30.413552 -1.553972 1.865119 0.078820 -0.025352 -282267.000000 0 0 1
-0.673867 28.955427 -10.236111 30.718868 -1.547528 1.910512 0.083452 -0.027925 39537.200000 0 0 1
-1.145067 30.239277 -11.039011 32.211564 -1.532948 1.920589 0.080721 -0.030481 -2216.850000 0 0 1
-0.094167 31.149367 -11.356111 33.154988 -1.567773 1.920390 0.069641 -0.021234 157627.000000 0 0 1
-0.582367 32.451057 -11.667511 34.489724 -1.552852 1.915895 0.073013 -0.028861 89999.800000 0 0 1
-0.663467 33.353486 -10.419911 34.949532 -1.550907 1.873541 0.061591 -0.032596 75433.700000 0 0 1
0.613733 33.682644 -9.905511 35.114333 1.552577 1.856771 0.049552 -0.032723 138202.000000 0 0 1
0.462533 -34.235916 -8.686611 35.323776 -1.557287 1.819259 0.047450 -0.022114 572800.000000 0 0 1
1.834233 -34.046789 -7.948011 35.010272 -1.516974 1.799812 0.044743 -0.027382 701758.000000 0 0 1
2.701033 -33.076838 -8.498111 34.257710 -1.489318 1.821478 0.050268 -0.026643 323971.000000 0 0 1
3.596133 -32.562008 -7.467111 33.600213 -1.460803 1.794902 0.051699 -0.019965 -1007250.000000 0 0 1
4.877033 -31.904478 -8.077011 33.270397 -1.419107 1.816015 0.036520 -0.013082 671674.000000 0 0 1
5.732133 -32.906198 -8.671911 34.509090 -1.398331 1.824813 0.048015 -0.017252 330587.000000 0 0 1
6.264033 -33.798898 -7.701111 35.226563 -1.387543 1.791193 0.052619 -0.006347 -2245220.000000 0 0 1
6.561433 33.365875 -8.235611 34.987988 1.376623 1.808410 0.044131 -0.007645 -46303.900000 0 0 1
5.451933 32.515879 -8.453011 34.036148 1.404672 1.821777 0.035361 -0.008843 -278630.000000 0 0 1
4.756533 32.805618 -9.653911 34.525805 1.426808 1.854189 0.050533 -0.015338 8036.280000 0 0 1
3.842633 31.636837 -10.092011 33.429089 1.449928 1.877474 0.048051 -0.022816 124853.000000 0 0 1
4.531933 30.574887 -10.658611 32.695078 1.423644 1.902866 0.015033 -0.018570 11690.600000 0 0 1
3.639033 29.492557 -10.802011 31.618617 1.448029 1.919452 0.017968 -0.019850 580423.000000 0 0 1
4.373933 28.507407 -11.747211 31.141621 1.418552 1.957588 0.007308 -0.017044 242881.000000 0 0 1
4.355433 29.159887 -13.000911 32.222547 1.422529 1.986105 0.022727 -0.012669 273667.000000 0 0 1
5.479233 28.890977 -13.841811 32.500866 1.383370 2.010742 0.011640 -0.012318 177973.000000 0 0 1
5.399733 29.418507 -15.301011 33.596527 1.389268 2.043656 0.014487 -0.010242 -302842.000000 0 0 1
4.427633 28.649817 -15.941711 33.084046 1.417466 2.073567 0.037356 -0.015139 -196235.000000 0 0 1
4.121333 29.187017 -17.222611 34.139211 1.430519 2.099578 0.057253 -0.008591 610668.000000 0 0 1
3.040233 28.336887 -17.998911 33.707314 1.463916 2.134093 0.062676 -0.022401 483380.000000 0 0 1
3.516633 27.103507 -18.411211 32.953596 1.441769 2.163615 0.071796 -0.011924 136205.000000 0 0 1
2.527533 26.362257 -19.148011 32.680321 1.475212 2.196810 0.074530 -0.027571 377575.000000 0 0 1
3.139133 25.198287 -19.851511 32.231822 1.446858 2.234321 0.084569 -0.029945 48951.200000 0 0 1
3.327933 24.035207 -19.051811 30.850249 1.433210 2.236430 0.081319 -0.031630 10872.600000 0 0 1
4.423933 23.273537 -19.530811 30.703116 1.382953 2.260253 0.077311 -0.027020 248877.000000 0 0 1
4.772933 21.979737 -18.693211 29.245955 1.356965 2.264218 0.081913 -0.022090 263091.000000 0 0 1
3.765833 20.985337 -18.608011 28.298833 1.393236 2.288364 0.090088 -0.023233 -272758.000000 0 0 1
4.190333 20.008437 -17.709511 27.046686 1.364352 2.284682 0.065434 -0.022751 -18535.300000 0 0 1
3.232133 18.811337 -17.585811 25.953301 1.400639 2.315283 0.065885 -0.027696 -3263.620000 0 0 1
2.321033 18.904837 -16.503211 25.201906 1.448633 2.284767 0.065764 -0.026084 -234811.000000 0 0 1
1.480033 17.770637 -16.494211 24.290843 1.487703 2.317237 0.041594 -0.011505 204800.000000 0 1 0
2.086433 16.552137 -15.638611 22.866845 1.445405 2.323890 0.036764 -0.019138 403619.000000 0 1 0
3.242633 15.856837 -16.090111 22.822043 1.369083 2.353255 0.038749 -0.023930 -134030.000000 0 1 0
3.135233 14.851037 -17.077711 22.848002 1.362739 2.415010 0.043534 -0.026463 -469205.000000 0 1 0
3.063033 15.374537 -18.511911 24.257976 1.374144 2.438934 0.046374 -0.023472 463797.000000 0 1 0
4.261933 15.990137 -19.035911 25.223292 1.310317 2.425987 0.053424 -0.023305 297368.000000 0 0 1
4.169033 16.285137 -20.436211 26.461770 1.320176 2.453237 0.057671 -0.025342 -315159.000000 0 0 1
4.346033 15.072837 -21.415811 26.546476 1.290075 2.509392 0.052979 -0.033960 -383093.000000 0 0 1
3.362733 14.132437 -21.625311 26.051638 1.337196 2.550073 0.056834 -0.028986 -29188.200000 0 0 1
2.195433 14.519237 -22.386111 26.772489 1.420725 2.561042 0.071975 -0.031841 469477.000000 0 0 1
1.335933 13.365937 -22.791611 26.455444 1.471177 2.609031 0.078261 -0.030514 -416141.000000 0 0 1
0.726433 12.666737 -21.715311 25.150123 1.513509 2.612821 0.070971 -0.027670 342463.000000 0 0 1
-0.045267 11.560037 -22.202411 25.031651 -1.566881 2.661546 0.049666 -0.022741 -35246.000000 0 0 1
-0.613467 10.686837 -21.076911 23.639395 -1.513455 2.671665 0.029771 -0.018636 -775663.000000 0 1 0
-1.750467 11.301337 -20.519511 23.491162 -1.417127 2.633141 0.026622 -0.009790 -117577.000000 0 1 0
-2.321167 10.558137 -19.444811 22.247759 -1.354393 2.634195 0.018582 -0.001984 51491.900000 0 1 0
-3.313967 9.413437 -19.723011 22.104125 -1.232300 2.673161 0.018904 -0.008324 -490424.000000 0 1 0
-2.749967 8.331037 -20.451611 22.253919 -1.251970 2.736362 0.013361 -0.011312 -88184.800000 0 1 0
-3.800867 7.531537 -20.957611 22.591859 -1.103428 2.758899 0.016440 -0.001227 -388255.000000 0 1 0
-3.286167 6.367337 -21.789611 22.937503 -1.094354 2.823890 0.017869 -0.007275 319616.000000 0 1 0
-2.458767 5.429437 -21.040911 21.868797 -1.145568 2.865556 0.017906 -0.004862 514201.000000 0 1 0
-2.055767 4.394637 -21.886511 22.417814 -1.133247 2.923445 0.019192 -0.006025 -200508.000000 0 1 0
-1.256667 3.245537 -21.178111 21.462179 -1.201374 2.978712 0.016242 -0.001134 429701.000000 0 1 0
0.091033 3.589237 -20.902311 21.208430 1.545439 2.971483 0.025071 -0.004169 -169285.000000 0 1 0
0.707733 2.604537 -20.140311 20.320350 1.305472 3.008377 0.032598 -0.003999 -100948.000000 0 1 0
2.243033 2.565237 -20.102611 20.389375 0.852309 2.973679 0.033281 -0.010487 151873.000000 0 1 0
2.810833 2.198137 -21.363111 21.659065 0.663683 2.976091 0.047023 -0.006085 795441.000000 0 1 0
4.252533 2.214637 -21.352211 21.883911 0.480134 2.920706 0.068196 -0.002431 1031480.000000 0 1 0
4.880933 1.459437 -22.545111 23.113535 0.290546 2.919358 0.068343 -0.000153 -439553.000000 0 1 0
6.259433 1.316037 -22.391511 23.287169 0.207230 2.863346 0.064280 -0.007278 -455099.000000 0 1 0
6.913633 0.893437 -23.553511 24.563478 0.128516 2.853838 0.060570 -0.007671 -544132.000000 0 1 0
8.429433 0.790637 -23.436511 24.918878 0.093521 2.794931 0.055945 -0.019642 -433184.000000 0 1 0
9.027433 2.056637 -23.379211 25.145811 0.223998 2.764518 0.063897 -0.029119 -1818890.000000 0 0 1
10.377033 2.021637 -23.449611 25.722638 0.192408 2.718037 0.048459 -0.026136 -1916810.000000 0 0 1
14.176033 -21.052898 22.559127 33.957306 -0.978179 0.844189 0.068312 -0.002146 -551489.000000 0 0 1
13.198133 -21.924798 23.047427 34.439387 -1.028927 0.837642 0.066874 -0.003362 1713140.000000 0 0 1
11.784733 -21.531098 22.990527 33.630826 -1.070001 0.818092 0.058259 -0.018483 2134890.000000 0 0 1
11.197333 -21.498598 21.556727 32.438595 -1.090616 0.843919 0.065205 -0.016006 -747054.000000 0 0 1
11.454433 -20.239798 20.857127 31.238970 -1.055800 0.839730 0.061364 -0.014045 -34059.000000 0 0 1
10.994233 -20.228798 19.529127 30.190466 -1.072962 0.867331 0.082514 -0.023144 -73730.200000 0 0 1
11.185733 -18.889898 18.842227 28.930579 -1.036166 0.861512 0.077103 -0.019773 -36191.700000 0 0 1
10.450533 -17.800798 19.367827 28.305384 -1.039929 0.817228 0.084756 -0.015594 -14831.000000 0 0 1
10.774033 -16.636798 18.648227 27.214320 -0.996108 0.815869 0.084153 -0.011128 101857.000000 0 0 1
9.852933 -15.450998 19.007227 26.402430 -1.003124 0.767132 0.083173 -0.011332 1049100.000000 0 0 1
8.482333 -15.681798 18.622227 25.780925 -1.074964 0.763637 0.069477 -0.008426 269012.000000 0 0 1
7.639633 -14.684698 19.125027 25.293695 -1.091085 0.713435 0.047518 -0.006498 -811933.000000 0 0 1
6.208133 -15.037098 18.774727 24.842416 -1.179258 0.713993 0.030261 0.004769 -874767.000000 0 1 0
5.935833 -15.064498 17.368127 23.745001 -1.195449 0.750360 0.021918 0.008255 174274.000000 0 1 0
4.524133 -15.140198 17.184427 23.345190 -1.280426 0.743504 0.001058 0.014407 414962.000000 0 1 0
3.960433 -16.584898 17.016827 24.089755 -1.336389 0.786408 -0.004618 0.012791 505825.000000 0 1 0
2.600533 -16.494398 16.571127 23.525097 -1.414422 0.789216 -0.003198 0.013005 305149.000000 0 1 0
1.957133 -17.735898 16.437627 24.260833 -1.460892 0.826387 0.004143 -0.003296 291808.000000 0 1 0
0.467733 -17.587098 16.059727 23.820991 -1.544207 0.830937 0.023221 -0.000010 -334496.000000 0 1 0
0.175533 -17.173298 14.720627 22.619678 -1.560575 0.862174 0.023690 -0.008510 224681.000000 0 1 0
-1.173767 -17.480798 14.378327 22.664782 1.503751 0.883576 0.021074 -0.003111 215870.000000 0 1 0
-1.605067 -18.288898 13.189327 22.605716 1.483259 0.947825 0.020641 -0.004369 55291.800000 0 1 0
-3.007067 -18.493898 13.225227 22.934109 1.409609 0.956159 0.019754 -0.006744 -61424.300000 0 1 0
-3.335167 -19.511998 12.276227 23.292642 1.401503 1.015679 0.035613 -0.019450 926391.000000 0 1 0
-4.889967 -19.711998 12.083527 23.632314 1.327634 1.034084 0.035297 -0.022263 1036660.000000 0 1 0
-5.584367 -20.025798 13.272727 24.665422 1.298846 1.002602 0.032258 -0.020563 -150174.000000 0 1 0
-5.769667 -21.412298 13.328527 25.873253 1.307592 1.029617 0.001313 -0.007930 -558122.000000 0 0 1
-6.476967 -21.979898 14.532527 27.134137 1.284230 1.005601 0.017615 -0.006092 22752.000000 0 0 1
-7.860867 -21.673198 14.574427 27.275166 1.222853 1.007060 0.027234 -0.005308 72168.800000 0 0 1
-8.514467 -22.475898 15.552227 28.627503 1.208675 0.996479 0.018160 -0.002828 -128840.000000 0 0 1
-10.022467 -22.196298 15.597927 28.920941 1.146664 1.001155 0.033860 0.001806 -184193.000000 0 0 1
-10.229067 -20.989698 16.296927 28.474393 1.117330 0.961444 0.022830 -0.000081 -25882.900000 0 0 1
-11.470867 -20.357698 15.979527 28.308337 1.057673 0.970992 0.039827 -0.002096 402510.000000 0 0 1
-11.839267 -19.198998 16.930027 28.202759 1.018216 0.926924 0.034855 -0.000822 -309902.000000 0 0 1
-12.163667 -19.675498 18.184527 29.423750 1.017092 0.904572 0.029488 -0.000017 -27066.700000 0 0 1
-12.510267 -18.628298 19.084627 29.457482 0.979405 0.866011 0.018788 -0.001439 54670.500000 0 0 1
-12.874467 -19.160398 20.520227 30.886121 0.979158 0.844128 0.027261 -0.002242 -551662.000000 0 0 1
-14.043567 -19.906098 20.555027 31.874499 0.956395 0.869938 0.041049 -0.007133 -488482.000000 0 0 1
-14.258567 -20.696498 21.714027 33.213713 0.967534 0.858244 0.032309 0.009553 -1037550.000000 0 0 1
-15.658367 -21.237998 21.596927 34.097863 0.935485 0.884882 0.035397 -0.003630 -1520450.000000 0 0 1
-15.722567 -22.208798 20.595527 34.126318 0.954759 0.922902 0.034617 -0.004920 720675.000000 0 0 1
-16.993967 -22.380198 19.968927 34.473559 0.921350 0.952984 0.048643 -0.007918 1319470.000000 0 0 1
-18.236267 -22.919998 20.784127 35.914728 0.898714 0.953653 0.054558 -0.017388 -343116.000000 0 0 1
-18.756167 -22.078898 21.765227 36.235296 0.866589 0.926465 0.053196 -0.017044 -352341.000000 0 0 1
-19.535967 -22.767298 22.680127 37.608404 0.861635 0.923465 0.067127 -0.014357 -119719.000000 0 0 1
-20.201067 -21.838598 23.763437 38.075037 0.824331 0.896790 0.059392 -0.010693 -360895.000000 0 0 1
-21.183867 -20.974498 23.294427 37.832739 0.780432 0.907495 0.055266 -0.004305 -166387.000000 0 0 1
-21.555267 -20.020098 24.276097 38.141352 0.748490 0.880874 0.056236 -0.002156 156176.000000 0 0 1
-22.527567 -18.982798 23.652017 37.779040 0.700210 0.894304 0.068316 -0.005863 29426.600000 0 0 1
-21.902367 -18.308198 22.602327 36.411111 0.696251 0.901093 0.059725 0.001282 353322.000000 0 0 1
-22.780367 -17.350798 21.966827 36.090675 0.650919 0.916430 0.064850 -0.004816 271685.000000 0 0 1
-22.148167 -16.794898 20.676827 34.643053 0.648790 0.931223 0.058844 -0.002757 14740.400000 0 0 1
-21.107967 -15.849698 20.795527 33.603767 0.644069 0.903525 0.053683 -0.001779 -288734.000000 0 0 1
-20.644167 -15.528898 19.506327 32.370127 0.644919 0.924038 0.049375 0.000994 -81065.500000 0 0 1
-19.744367 -14.290098 19.397227 31.149629 0.626492 0.898593 0.027446 -0.005235 -86205.100000 0 0 1
-19.264467 -14.261398 18.072327 30.018597 0.637261 0.924746 0.036736 -0.007206 -82058.800000 0 0 1
-18.796467 -12.998298 17.710227 28.912196 0.605018 0.911511 0.029940 -0.015084 -260783.000000 0 0 1
-18.540567 -12.961598 16.166627 27.804954 0.610118 0.950311 0.026212 -0.017659 -257703.000000 0 0 1
-18.172767 -11.774298 15.515627 26.638661 0.574904 0.949060 0.030982 -0.015154 71426.800000 0 0 1
-16.931867 -11.158098 15.843527 25.733415 0.582676 0.907549 0.029509 -0.021853 236510.000000 0 0 1
-16.478567 -10.030498 14.838527 24.337953 0.546792 0.915131 0.037003 -0.030726 202333.000000 0 1 0
-17.181267 -8.825498 15.070527 24.499105 0.474524 0.908225 0.050647 -0.030157 244738.000000 0 1 0
-16.589767 -7.765998 14.352927 23.270961 0.437820 0.906158 0.040160 -0.025119 -274590.000000 0 1 0
-16.854567 -6.343198 14.995727 23.434684 0.359953 0.876435 0.050337 -0.021088 208038.000000 0 1 0
-16.359567 -6.159698 16.301827 23.902445 0.360102 0.820282 0.062982 -0.018352 -265593.000000 0 1 0
-14.973067 -5.949198 16.370927 22.969392 0.378200 0.777417 0.068300 -0.021561 -313736.000000 0 1 0
-14.364167 -6.023398 17.825827 23.672151 0.397063 0.718142 0.068164 -0.010852 -8434.190000 0 1 0
-14.316067 -7.299598 18.497327 24.502755 0.471527 0.715282 0.059868 -0.020463 226326.000000 0 1 0
-13.616167 -8.347598 17.827727 23.935544 0.549971 0.730528 0.060438 -0.022639 -412238.000000 0 1 0
-13.398067 -9.634898 18.657527 24.908689 0.623447 0.724189 0.038773 -0.020275 -526786.000000 0 1 0
-14.486367 -10.392298 19.049227 26.090760 0.622299 0.752308 0.035369 -0.020225 -744143.000000 0 0 1
-15.285967 -9.888898 20.113827 27.129636 0.574212 0.735647 0.031520 -0.016316 -790830.000000 0 0 1
-16.678867 -10.479298 20.384527 28.346591 0.560967 0.768265 0.019212 -0.014564 449189.000000 0 0 1
-17.777767 -10.283098 19.506027 28.324481 0.524404 0.811153 0.021014 -0.019489 627475.000000 0 0 1
-18.033467 -8.898498 19.156027 27.773055 0.458389 0.809674 0.029349 -0.018818 -852377.000000 0 0 1
-19.162567 -8.663498 18.120627 27.759995 0.424603 0.859574 0.041472 -0.021825 811723.000000 0 0 1
-20.469967 -8.966098 18.621027 29.088711 0.412840 0.876108 0.039033 -0.019284 638128.000000 0 0 1
-21.422267 -8.889698 17.590627 29.109628 0.393349 0.921923 0.061903 -0.013328 1497110.000000 0 0 1
-22.971767 -9.136098 17.880127 30.510151 0.378531 0.944635 0.068038 -0.005667 1469490.000000 0 0 1
-23.603367 -8.110098 18.575927 31.112019 0.330961 0.930958 0.070395 -0.005671 -1115860.000000 0 0 1
-24.929867 -8.368698 18.784027 32.316761 0.323870 0.950536 0.087991 -0.009947 -1323510.000000 0 0 1
-25.719237 -7.251698 19.489627 33.074338 0.274822 0.940645 0.082708 -0.012399 -256483.000000 0 0 1
-25.647787 -7.235198 20.923527 33.881427 0.274953 0.905170 0.076310 -0.011577 579487.000000 0 0 1
-26.464637 -6.226398 21.563527 34.700587 0.231070 0.900247 0.075590 -0.014195 -387588.000000 0 0 1
-26.427547 -6.322798 23.102727 35.666918 0.234836 0.866188 0.066522 -0.014704 -175573.000000 0 0 1
-25.293247 -5.952498 23.838967 35.262968 0.231134 0.828429 0.067035 -0.018158 -489508.000000 0 0 1
-24.220367 -6.843598 23.675927 34.554458 0.275377 0.815949 0.069604 -0.019659 -1019990.000000 0 0 1
-23.234267 -6.746198 24.823007 34.663007 0.282585 0.772563 0.070053 -0.020357 -159277.000000 0 0 1
-22.482867 -5.539398 24.835027 33.955012 0.241572 0.750409 0.058373 -0.016607 -74998.900000 0 0 1
-21.684467 -5.327598 25.945337 34.230979 0.240916 0.710633 0.065104 -0.025835 100118.000000 0 0 1
-21.039967 -3.865498 25.886957 33.582091 0.181695 0.690612 0.052551 -0.023344 934801.000000 0 0 1
-20.016467 -3.440198 26.816797 33.639776 0.170206 0.648194 0.044838 -0.019063 578515.000000 0 0 1
-20.404467 -3.385898 28.205407 34.976443 0.164441 0.632738 0.039585 -0.018720 50992.500000 0 0 1
-21.295667 -2.205598 28.695337 35.802129 0.103202 0.641000 0.045515 -0.020334 -562383.000000 0 0 1
-22.595267 -2.274698 28.262127 36.255595 0.100333 0.676890 0.058594 -0.019075 -1508180.000000 0 0 1
-23.396367 -1.198998 28.655517 37.013055 0.051202 0.685346 0.055825 -0.016147 53469.900000 0 0 1
-24.702367 -1.124498 27.845997 37.240717 0.045490 0.726160 0.066616 -0.014364 -761618.000000 0 0 1
-24.570567 -0.566598 26.570547 36.194306 0.023056 0.746443 0.060475 -0.015940 1136940.000000 0 0 1
-25.833097 -0.273998 25.908667 36.588017 0.010606 0.783966 0.073327 -0.016075 940020.000000 0 0 1
-26.663517 -1.497298 25.454827 36.893540 0.056096 0.809372 0.072729 -0.015825 -359770.000000 0 0 1
-27.358227 -2.175098 26.487827 38.141954 0.079337 0.803136 0.059034 -0.013737 -10812.900000 0 0 1
-27.693727 -3.534098 26.245447 38.317827 0.126928 0.816274 0.048466 -0.007271 -814119.000000 0 0 1
-26.597047 -4.546798 26.332007 37.702134 0.169315 0.797606 0.063016 -0.019095 -774478.000000 0 0 1
-26.107357 -4.612998 27.651407 38.307625 0.174888 0.764360 0.075677 -0.016883 332797.000000 0 0 1
-25.115607 -5.625598 27.868007 37.935035 0.220351 0.745683 0.088069 -0.022028 337382.000000 0 0 1
-25.078017 -6.079098 29.312327 39.052207 0.237820 0.721837 0.081488 -0.022472 -100961.000000 0 0 1
-26.240497 -6.792398 29.666737 40.184769 0.253292 0.740312 0.080697 -0.015800 14695.200000 0 0 1
-26.306117 -7.215598 30.978657 41.276553 0.267709 0.721956 0.086623 -0.008578 -724812.000000 0 0 1
-27.684757 -7.652398 31.452697 42.594332 0.269678 0.740065 0.044139 -0.010595 -711009.000000 0 0 1
-28.197247 -8.722898 30.719307 42.601051 0.300015 0.765418 0.050981 -0.016535 84540.000000 0 0 1
-29.514667 -8.956698 31.211247 43.880291 0.294634 0.779476 0.057710 -0.006085 289290.000000 0 0 1
-30.339327 -9.919298 30.310957 44.018421 0.315990 0.811244 0.037998 -0.013948 -401169.000000 0 0 1
-29.938297 -11.179798 30.141327 43.929365 0.357392 0.814638 0.054686 -0.020372 -348855.000000 0 0 1
-30.840287 -11.825098 29.278237 44.138095 0.366141 0.845533 0.022537 -0.011600 -69128.900000 0 0 1
-30.283717 -13.125998 28.638157 43.698277 0.408993 0.856136 0.039776 -0.020171 148156.000000 0 0 1
-29.269437 -12.805298 27.718677 42.296580 0.412408 0.856163 0.069374 -0.027016 -215941.000000 0 0 1
-28.362837 -13.809798 27.353687 41.753865 0.453111 0.856458 0.075087 -0.028054 552556.000000 0 0 1
-27.001667 -13.242098 26.794427 40.278835 0.455953 0.843003 0.093229 -0.029718 251533.000000 0 0 1
-26.160417 -12.637198 27.746317 40.173677 0.450009 0.808396 0.086019 -0.032947 -225187.000000 0 0 1
-26.496247 -11.405798 28.360097 40.452917 0.406493 0.793907 0.086768 -0.035450 -742512.000000 0 0 1
-26.593317 -10.117198 27.430277 39.521922 0.363533 0.803694 0.094806 -0.031792 775412.000000 0 0 1
-25.339507 -9.650198 26.892577 38.189366 0.363877 0.789514 0.082894 -0.032021 825421.000000 0 0 1
-24.748367 -10.402098 25.837977 37.259715 0.397895 0.804521 0.075667 -0.035419 -135153.000000 0 0 1
-25.417977 -10.159598 24.448247 36.701605 0.380249 0.841781 0.079455 -0.025522 -441034.000000 0 0 1
-26.629497 -10.853698 24.407527 37.718169 0.387025 0.867018 0.089584 -0.026515 -783189.000000 0 0 1
-27.125797 -10.820098 23.122927 37.249875 0.379546 0.901095 0.096932 -0.020451 606892.000000 0 0 1
-28.408657 -11.744398 23.074027 38.436876 0.392012 0.926908 0.099272 -0.032515 1207910.000000 0 0 1
-29.655717 -11.314598 23.611657 39.559980 0.364485 0.931218 0.079870 -0.023486 320822.000000 0 0 1
-29.822977 -11.375398 25.021127 40.556953 0.364397 0.905950 0.090334 -0.027766 -2392590.000000 0 0 1
-31.187607 -11.170698 25.489497 41.799112 0.343941 0.914976 0.042587 -0.018043 -2102600.000000 0 0 1
-31.640637 -9.821698 25.160847 41.601249 0.300983 0.921269 0.035899 -0.015423 -287659.000000 0 0 1
-32.953007 -9.461998 25.518427 42.738978 0.279614 0.930945 0.025581 -0.008619 -92898.100000 0 0 1
-33.476257 -9.447698 26.995777 44.030566 0.275067 0.910799 0.002694 0.001497 -291994.000000 0 0 1
-33.793427 -10.761698 27.471817 44.861014 0.308301 0.911734 0.002901 -0.005812 332593.000000 0 0 1
-34.489195 -10.647298 28.723597 46.129324 0.299432 0.898639 -0.005830 0.000806 -161196.000000 0 0 1
-35.182276 -11.978398 29.236637 47.286949 0.328157 0.904242 -0.005273 0.012478 670557.000000 0 0 1
36.234531 -12.451998 28.559287 47.787304 -0.331007 0.930250 -0.010505 0.010746 1027160.000000 0 0 1
35.041091 -11.810298 29.031647 47.012740 -0.325084 0.905201 -0.008494 0.017433 427451.000000 0 0 1
33.701651 -12.303398 28.445157 45.785389 -0.350035 0.900432 0.007898 0.011465 116923.000000 0 0 1
33.584361 -12.015798 27.081617 44.785073 -0.343589 0.921405 0.019324 0.011570 373316.000000 0 0 1
32.437001 -12.593898 26.426417 43.693488 -0.370342 0.921264 0.027033 0.012045 646130.000000 0 0 1
32.472451 -12.365798 24.930187 42.765492 -0.363854 0.948440 0.034550 0.005837 39158.900000 0 0 1
32.315151 -11.005998 24.602867 42.079711 -0.328261 0.946320 0.044088 -0.004352 72143.600000 0 0 1
32.380781 -10.622398 23.248327 41.253304 -0.316985 0.972119 0.041726 -0.013107 -325506.000000 0 0 1
32.126851 -9.081098 23.045527 40.567194 -0.275477 0.966622 0.061102 -0.004884 -106728.000000 0 0 1
30.779951 -8.793198 23.329227 39.610334 -0.278267 0.941015 0.072544 -0.018338 -429100.000000 0 0 1
30.581421 -7.396398 23.085227 39.023810 -0.237302 0.937794 0.082417 -0.011394 -1324220.000000 0 0 1
29.107221 -7.195098 23.133527 37.870303 -0.242335 0.913648 0.068379 -0.000516 -1438780.000000 0 0 1
28.501701 -7.714598 21.981527 36.810998 -0.264338 0.930858 0.068360 0.000823 -800878.000000 0 0 1
27.115221 -7.740898 22.024827 35.780578 -0.278085 0.907709 0.070657 -0.010108 -930070.000000 0 0 1
14.859633 -17.493298 25.825247 34.550941 -0.866623 0.726575 0.058708 -0.008868 -140319.000000 0 0 1
14.017733 -18.552898 26.201347 35.031664 -0.923750 0.725853 0.047629 -0.008236 217970.000000 0 0 1
14.789933 -19.749398 26.280187 36.047595 -0.928012 0.753876 0.053053 -0.006286 -459942.000000 0 0 1
14.092633 -21.152998 26.420507 36.661899 -0.983100 0.766053 0.029447 -0.011293 -69353.200000 0 0 1
13.373333 -21.365998 27.613097 37.387632 -1.011538 0.739861 0.034991 -0.008911 560143.000000 0 0 1
12.077833 -20.764098 27.626477 36.609344 -1.043965 0.715708 0.039207 -0.008978 -45433.600000 0 0 1
11.397033 -21.121098 29.000617 37.643445 -1.075970 0.691324 0.035037 -0.009276 -260526.000000 0 0 1
12.042433 -20.652098 30.122287 38.456229 -1.042889 0.670860 0.038203 -0.006328 -4145.800000 0 0 1
11.233533 -19.709298 30.824567 38.272740 -1.052757 0.634459 0.045996 -0.005558 425095.000000 0 0 1
11.026133 -18.306098 30.147107 36.953172 -1.028673 0.616652 0.044266 -0.005783 1275480.000000 0 0 1
12.299533 -17.612098 30.115057 36.991637 -0.961174 0.619611 0.044048 0.006740 910547.000000 0 0 1
12.163733 -16.410398 29.356257 35.763772 -0.932937 0.607920 0.046239 0.005590 545246.000000 0 0 1
13.248433 -15.362698 29.771347 36.025915 -0.859161 0.598135 0.044604 0.002228 393440.000000 0 0 1
13.031333 -14.151498 29.176757 34.948014 -0.826583 0.582915 0.061139 -0.004756 242586.000000 0 0 1
13.675633 -13.087898 29.915667 35.401457 -0.763441 0.564155 0.064217 -0.002174 -30976.400000 0 0 1
13.157433 -11.680798 29.618717 34.450363 -0.726018 0.536015 0.065750 -0.005488 -40865.500000 0 0 1
13.428033 -11.177498 28.250277 33.216362 -0.694187 0.553875 0.086583 -0.010687 1244140.000000 0 0 1
14.812133 -10.900098 27.928867 33.439992 -0.634409 0.582312 0.079118 -0.010827 552952.000000 0 0 1
14.928833 -9.689298 26.948967 32.295501 -0.575695 0.583663 0.076326 -0.005629 -127991.000000 0 0 1
14.999533 -8.380998 27.592137 32.504663 -0.509537 0.556958 0.076353 -0.008458 409739.000000 0 0 1
16.169433 -8.045598 28.341617 33.606985 -0.461710 0.567355 0.074108 -0.012917 -127414.000000 0 0 1
16.651333 -6.608998 28.021647 33.258960 -0.377835 0.568835 0.074791 -0.014869 -1300040.000000 0 0 1
17.998933 -6.508398 28.234357 34.110112 -0.346971 0.595726 0.064468 -0.022536 -1217800.000000 0 0 1
18.469633 -5.275998 27.640447 33.659439 -0.278248 0.607321 0.061057 -0.016275 176330.000000 0 0 1
20.015033 -5.130498 27.606067 34.482147 -0.250929 0.642517 0.049695 -0.015131 -209109.000000 0 0 1
20.472933 -6.189298 26.795747 34.284989 -0.293580 0.673635 0.043341 -0.005372 -686701.000000 0 0 1
21.768233 -6.120498 26.315187 34.695901 -0.274090 0.709861 0.041418 -0.000117 -305473.000000 0 0 1
22.992633 -6.366498 27.236287 36.207855 -0.270125 0.719371 0.039665 -0.008185 -180846.000000 0 0 1
23.380433 -5.204298 27.951817 36.810779 -0.219021 0.708501 0.047203 -0.010019 -191241.000000 0 0 1
24.401233 -5.438198 28.880317 38.197734 -0.219282 0.713503 0.064955 -0.027529 -371404.000000 0 0 1
24.905033 -4.101698 29.494897 38.820530 -0.163228 0.707828 0.064148 -0.025630 -694777.000000 0 0 1
25.811533 -3.383798 28.733677 38.772536 -0.130353 0.736114 0.047951 -0.014019 -219050.000000 0 0 1
25.907433 -2.050098 29.100947 39.016190 -0.078967 0.728959 0.037064 -0.017164 -257106.000000 0 0 1
26.836533 -1.338298 28.045677 38.840064 -0.049827 0.763990 0.035920 -0.016157 -54831.000000 0 0 1
28.172633 -1.746998 28.094967 39.825575 -0.061931 0.787738 0.049952 -0.013548 -336874.000000 0 0 1
28.887033 -1.062198 27.051077 39.589768 -0.036754 0.818545 0.048969 -0.007487 885560.000000 0 0 1
30.417433 -0.815898 27.249207 40.846116 -0.026817 0.840462 0.046402 -0.007404 596714.000000 0 0 1
30.689533 0.058602 28.334377 41.769460 0.001909 0.825280 0.032768 0.001674 -324343.000000 0 0 1
32.020333 0.075702 28.773957 43.049368 0.002364 0.838748 0.044753 -0.004975 -127933.000000 0 0 1
32.333733 1.234302 29.795787 43.986165 0.038155 0.826588 0.044272 -0.011356 21781.200000 0 0 1
32.453533 2.570302 29.281347 43.786248 0.079034 0.838292 0.036057 -0.006029 57214.800000 0 0 1
32.725533 3.524102 30.265217 44.714239 0.107273 0.827310 0.033007 -0.001731 -80913.800000 0 0 1
32.892433 4.907502 29.488257 44.447194 0.148106 0.845383 0.033804 0.002547 -24081.900000 0 0 1
32.964833 6.098602 30.257537 45.159625 0.182935 0.836570 0.041490 0.000581 668227.000000 0 0 1
31.708233 6.511002 30.817437 44.693619 0.202526 0.809961 0.031965 0.005322 293683.000000 0 0 1
31.836133 7.263402 32.147337 45.823003 0.224310 0.793220 0.026205 -0.002990 -191183.000000 0 0 1
32.257633 6.472102 33.307904 46.817299 0.198009 0.779245 0.031145 -0.002009 170121.000000 0 0 1
32.543033 7.314202 -34.120808 47.715575 0.221081 2.367546 0.032031 -0.005622 131266.000000 0 0 1
33.481533 6.656302 -33.054191 47.517354 0.196246 2.340084 0.045956 -0.000692 197383.000000 0 0 1
32.814533 5.751402 -32.160481 46.305170 0.173508 2.338567 0.031636 -0.004954 385951.000000 0 0 1
32.637933 4.453902 -32.727561 46.434525 0.135626 2.352953 0.052170 -0.009718 6629.200000 0 0 1
32.535333 3.440702 -31.637101 45.511454 0.105361 2.339419 0.048658 -0.012539 -86252.400000 0 0 1
32.520933 2.141202 -32.227481 45.834554 0.065746 2.350581 0.050438 -0.012860 337083.000000 0 0 1
32.911933 1.135602 -31.263651 45.408158 0.034491 2.330219 0.051839 -0.018147 156545.000000 0 0 1
32.809733 -0.305198 -31.721761 45.638162 -0.009302 2.339315 0.058311 -0.029599 88757.500000 0 0 1
33.763733 -0.462198 -32.806231 47.079211 -0.013688 2.341765 0.046458 -0.033606 930043.000000 0 0 1
34.511833 -1.698098 -32.759241 47.614263 -0.049164 2.329544 0.050368 -0.032362 525910.000000 0 0 1
35.501233 -2.084098 -31.653811 47.609293 -0.058638 2.298111 0.052230 -0.034664 -350020.000000 0 0 1
34.845333 -2.226898 -30.373871 46.278811 -0.063821 2.286732 0.067769 -0.031652 171214.000000 0 0 1
35.701533 -1.898698 -29.293721 46.220413 -0.053132 2.257231 0.073421 -0.035825 10917.300000 0 0 1
34.917033 -1.521798 -27.985801 44.774101 -0.043556 2.245985 0.082667 -0.036735 -93689.900000 0 0 1
34.393233 -0.230898 -28.037631 44.374053 -0.006713 2.254731 0.069587 -0.018894 655493.000000 0 0 1
33.569933 0.018202 -26.859321 42.992602 0.000542 2.245598 0.083938 -0.017823 444236.000000 0 0 1
32.962333 1.426002 -26.714891 42.452730 0.043235 2.251430 0.061340 -0.002947 237895.000000 0 0 1
31.952033 1.696602 -27.672441 42.303367 0.053049 2.283845 0.073451 -0.014153 270430.000000 0 0 1
31.283933 2.910702 -27.411991 41.696210 0.092774 2.288188 0.052275 0.007274 277161.000000 0 0 1
30.317233 3.349602 -28.548141 41.777396 0.110039 2.323123 0.060260 -0.004632 -72839.800000 0 0 1
29.645433 4.541602 -28.319111 41.248635 0.152015 2.327525 0.050644 -0.000754 60232.900000 0 0 1
28.899633 4.995302 -29.453151 41.564768 0.171159 2.358321 0.051411 -0.004081 178684.000000 0 0 1
27.666933 5.846702 -29.079531 40.561832 0.208260 2.370169 0.051724 -0.007396 120319.000000 0 0 1
26.530433 5.083702 -28.693081 39.408131 0.189323 2.386343 0.067807 -0.007079 770692.000000 0 0 1
25.516333 5.941902 -28.153811 38.458114 0.228789 2.392144 0.065579 -0.007097 1881900.000000 0 0 1
24.130733 5.233702 -27.710391 37.115356 0.213581 2.413736 0.068137 -0.006597 1790650.000000 0 0 1
23.328233 4.910702 -28.853101 37.427568 0.207475 2.451057 0.072349 -0.009406 -168681.000000 0 0 1
22.123833 4.345902 -28.460081 36.308774 0.193966 2.471614 0.078692 -0.006651 -607229.000000 0 0 1
21.142833 3.895002 -29.523521 36.521620 0.182181 2.512199 0.073464 -0.003176 12296.800000 0 0 1
21.689633 2.742702 -30.201611 37.284043 0.125785 2.515019 0.067132 -0.012341 823250.000000 0 0 1
20.905533 2.381002 -31.383371 37.783944 0.113405 2.550982 0.041953 -0.014849 244704.000000 0 0 1
21.047333 3.172402 -32.746431 39.056153 0.149601 2.565220 0.061092 -0.013846 -741378.000000 0 0 1
22.317733 3.096102 -33.280461 40.190249 0.137848 2.546458 0.064409 -0.024182 -937972.000000 0 0 1
22.382633 3.629402 33.891595 40.777384 0.160753 0.589647 0.062248 -0.029220 875539.000000 0 0 1
23.778733 3.253502 33.250565 41.007481 0.135980 0.625208 0.070838 -0.018721 937723.000000 0 0 1
24.042233 1.833002 33.245604 41.068955 0.076094 0.627484 0.084802 -0.032198 467144.000000 0 0 1
25.429433 1.610902 32.991526 41.685631 0.063263 0.657641 0.078222 -0.032675 163879.000000 0 0 1
25.677833 0.117102 32.837662 41.685451 0.004560 0.663651 0.057820 -0.030565 -789058.000000 0 0 1
25.187433 -0.362998 31.639787 40.442733 -0.014411 0.672390 0.052696 -0.031524 471233.000000 0 0 1
23.791933 -0.566298 31.463087 39.450001 -0.023798 0.647584 0.071631 -0.040837 12180.100000 0 0 1
23.047133 -1.582298 32.391177 39.785203 -0.068547 0.619530 0.072949 -0.043625 -515166.000000 0 0 1
23.094033 -2.944698 31.933587 39.519104 -0.126825 0.629954 0.071878 -0.048251 492842.000000 0 0 1
22.280933 -3.819798 32.734012 39.781231 -0.169787 0.604387 0.084614 -0.042221 152267.000000 0 0 1
22.202033 -5.305798 32.261337 39.520572 -0.234578 0.615790 0.079567 -0.047510 172889.000000 0 0 1
23.397933 -6.037798 32.502123 40.500695 -0.252539 0.639310 0.080592 -0.037421 491926.000000 0 0 1
23.129733 -7.401098 32.400197 40.491154 -0.309687 0.643202 0.087655 -0.042987 -792598.000000 0 0 1
24.429533 -8.127098 32.137777 41.178739 -0.321158 0.675418 0.072462 -0.034435 -168815.000000 0 0 1
25.087333 -7.783598 30.906737 40.560881 -0.300843 0.704425 0.078232 -0.036793 -19059.900000 0 0 1
26.300833 -8.470198 30.690667 41.296430 -0.311562 0.732986 0.070209 -0.034166 173004.000000 0 0 1
26.770033 -8.153698 29.228477 40.465063 -0.295656 0.763654 0.060516 -0.024114 -95581.200000 0 0 1
25.861733 -8.671498 28.286627 39.295768 -0.323522 0.767226 0.045794 -0.017937 -99072.200000 0 0 1
26.306933 -8.477698 26.941477 38.597529 -0.311753 0.798181 0.059722 -0.012702 78131.600000 0 0 1
25.492733 -9.297698 25.946437 37.543897 -0.349727 0.807792 0.031022 -0.007441 -600473.000000 0 0 1
24.193133 -8.903998 25.642297 36.360917 -0.352653 0.788069 0.044185 -0.011166 -506584.000000 0 0 1
23.566433 -9.819998 24.758677 35.564044 -0.394815 0.800746 0.053979 -0.009917 14632.300000 0 0 1
22.118333 -9.500898 24.337297 34.231444 -0.405717 0.779929 0.019176 0.001668 -162848.000000 0 0 1
21.233733 -9.690498 25.398887 34.494646 -0.428141 0.743190 0.020169 0.005899 -900228.000000 0 0 1
19.945233 -9.293598 25.055737 33.346263 -0.436043 0.720644 0.029955 0.005696 -390084.000000 0 0 1
18.986233 -9.226498 26.294087 33.719198 -0.452350 0.676457 0.040768 -0.014012 -134102.000000 0 0 1
18.349333 -10.431098 26.629077 33.979605 -0.516915 0.670231 0.048559 -0.010089 63170.000000 0 0 1
19.034233 -11.166798 27.585687 35.326612 -0.530560 0.674730 0.036940 -0.006242 -517379.000000 0 0 1
18.113133 -12.215498 28.167217 35.646824 -0.593337 0.659702 0.052380 -0.010671 -510628.000000 0 0 1
17.719033 -13.173098 27.188427 35.024352 -0.639292 0.682066 0.054409 -0.011786 136556.000000 0 0 1
16.830833 -14.146598 27.660147 35.333934 -0.698963 0.671610 0.057463 -0.010597 -89898.900000 0 0 1
17.563033 -15.291498 28.416617 36.739545 -0.716369 0.686512 0.063750 -0.004382 431475.000000 0 0 1
16.595933 -16.129998 29.077637 37.163299 -0.771162 0.672240 0.059311 -0.001779 668559.000000 0 0 1
17.155633 -17.235498 29.796187 38.460251 -0.787720 0.684513 0.062939 -0.001219 -43414.400000 0 0 1
17.611733 -18.450398 28.927117 38.566416 -0.808650 0.722644 0.058717 0.003141 392624.000000 0 0 1
18.688833 -18.111298 28.053597 38.266120 -0.769706 0.747900 0.065284 -0.004565 593717.000000 0 0 1
19.089633 -19.237298 27.251437 38.433430 -0.789251 0.782638 0.057969 0.003208 318672.000000 0 0 1
20.177633 -18.919198 26.159267 38.070726 -0.753222 0.813275 0.069165 -0.002270 224368.000000 0 0 1
21.441633 -18.702498 26.745097 39.049037 -0.717271 0.816315 0.082052 -0.008182 74215.100000 0 0 1
22.240033 -17.906398 25.860447 38.522992 -0.677869 0.834836 0.057878 -0.007038 -259557.000000 0 0 1
23.627433 -17.537798 26.359667 39.505215 -0.638532 0.840292 0.052557 -0.006582 10713.300000 0 0 1
24.555533 -18.646798 26.346347 40.556224 -0.649473 0.863705 0.047704 -0.010760 374902.000000 0 0 1
25.767333 -18.363798 26.995347 41.592467 -0.619184 0.864469 0.032351 -0.010157 111827.000000 0 0 1
26.731233 -19.571398 27.174157 42.848959 -0.631982 0.883843 0.029012 -0.000195 64482.600000 0 0 1
26.391233 -20.394898 28.300317 43.741936 -0.657928 0.867174 0.040528 -0.006378 254787.000000 0 0 1
27.221633 -21.532598 28.434807 44.868790 -0.669235 0.884428 0.046836 0.003383 196048.000000 0 0 1
26.446233 -22.635898 29.204117 45.438613 -0.707922 0.872758 0.051462 0.003018 76053.900000 0 0 1
26.047633 -22.262198 30.502207 45.874495 -0.707201 0.843429 0.055144 0.003459 -157176.000000 0 0 1
25.876933 -23.404498 31.288337 46.865192 -0.735270 0.839783 0.060115 0.000335 -344209.000000 0 0 1
25.127033 -23.348298 32.614709 47.331069 -0.748721 0.810583 0.056945 -0.004576 -227068.000000 0 0 1
25.019633 -24.571098 33.249208 48.324225 -0.776354 0.812006 0.050941 -0.008630 143270.000000 0 0 1
24.753333 -24.470998 -33.857581 48.558141 -0.779663 2.342362 0.048586 -0.006117 -415548.000000 0 0 1
24.607533 -25.807198 -33.119111 48.666392 -0.809190 2.319287 0.053673 -0.009166 241318.000000 0 0 1
23.363633 -26.470128 -33.261441 48.506190 -0.847655 2.326382 0.061307 -0.011495 -41412.700000 0 0 1
23.013833 -26.923188 33.960363 49.069347 -0.863525 0.806417 0.050507 -0.011300 -1043570.000000 0 0 1
21.739133 -27.711348 33.871584 48.865048 -0.905588 0.804924 0.074740 -0.017305 -721021.000000 0 0 1
21.815133 -29.049358 -34.212121 49.902249 -0.926676 2.326200 0.082107 -0.026288 -786158.000000 0 0 1
20.655533 -29.711418 33.984183 49.642161 -0.963296 0.816765 0.097109 -0.028184 -908223.000000 0 0 1
20.660933 -31.325068 34.134041 50.727377 -0.987726 0.832685 0.068570 -0.023440 -87904.500000 0 0 1
21.134833 -31.797788 -33.137111 50.555402 -0.984182 2.285590 0.055693 -0.024306 1127660.000000 0 0 1
22.471933 -32.315058 -33.303501 51.559422 -0.963163 2.273030 0.041694 -0.011487 569287.000000 0 0 1
23.113433 -33.005548 -32.102241 51.518452 -0.959876 2.243523 0.033766 -0.008790 347518.000000 0 0 1
24.376333 -33.644978 -32.428881 52.705052 -0.943805 2.233550 0.028887 -0.001632 1122580.000000 0 0 1
25.005333 -34.206263 -31.297671 52.677123 -0.939556 2.206994 0.028333 0.004495 -42978.100000 0 0 1
25.846433 -33.287758 -30.407031 51.968264 -0.910578 2.195809 0.031636 -0.012594 -660357.000000 0 0 1
26.280433 -33.891418 -29.219731 51.894914 -0.911217 2.168875 0.045216 -0.004828 181329.000000 0 0 1
26.977733 -32.858738 -28.464451 51.163656 -0.883368 2.160772 0.046388 -0.005961 183573.000000 0 0 1
27.461033 -33.165948 -27.021251 50.835386 -0.879221 2.131219 0.049710 -0.003109 156368.000000 0 0 1
28.716033 -33.800408 -27.030921 51.939858 -0.866548 2.118148 0.046527 0.002868 -24878.200000 0 0 1
29.558933 -33.438338 -25.932881 51.617510 -0.846901 2.097174 0.050073 -0.001151 519989.000000 0 0 1
-26.578067 -30.294534 9.543589 41.415366 0.850653 1.338271 0.035742 -0.000839 -174555.000000 0 0 1
-26.686927 -31.472434 10.342289 42.540206 0.867496 1.325217 0.041237 -0.005562 772265.000000 0 0 1
-25.367557 -31.904334 10.715489 42.145239 0.899042 1.313723 0.017903 -0.008122 767491.000000 0 0 1
-25.434517 -33.211134 11.550889 43.397202 0.917233 1.301382 0.010386 -0.004560 158453.000000 0 0 1
-25.572837 34.207502 10.678489 44.024463 -0.928846 1.325795 0.018802 0.000280 68718.000000 0 0 1
-26.162277 33.131102 11.404489 43.728675 -0.902393 1.306944 0.014416 -0.007805 76242.800000 0 0 1
-25.613637 31.780902 10.938289 42.257902 -0.892441 1.308969 0.023232 -0.004784 -364814.000000 0 0 1
-25.850177 31.453202 9.602589 41.829957 -0.882867 1.339168 0.035679 -0.007916 -50675.800000 0 0 1
-25.985607 30.080002 9.350589 40.834934 -0.858297 1.339761 0.047431 -0.003091 -56477.100000 0 0 1
-25.438717 29.762502 7.935589 39.948822 -0.863566 1.370822 0.034717 0.001758 -1243100.000000 0 0 1
-24.070267 29.697802 7.865789 39.028295 -0.889682 1.367866 0.014006 0.002245 -1192900.000000 0 0 1
-23.694667 29.507102 6.512089 38.399396 -0.894219 1.400384 0.004879 0.004271 135401.000000 0 0 1
-22.376967 28.682002 6.474589 36.950050 -0.908262 1.394662 0.025984 0.006334 -13698.700000 0 0 1
-22.499867 27.269802 6.783289 35.998599 -0.880947 1.381231 0.032234 -0.001582 237844.000000 0 0 1
-23.041667 26.526502 5.688789 35.594045 -0.855587 1.410284 0.017528 -0.002240 -392183.000000 0 0 1
-23.450167 25.064502 6.168889 34.873984 -0.818661 1.392970 0.038671 -0.001688 -210194.000000 0 0 1
-24.579367 25.011202 7.042689 35.767373 -0.794106 1.372599 0.037460 -0.010131 258511.000000 0 0 1
-24.931367 23.692902 7.383589 35.177323 -0.759934 1.359327 0.044682 -0.018507 -100945.000000 0 0 1
-25.469057 22.710302 6.331689 34.706209 -0.728201 1.387332 0.028246 -0.023640 -1610770.000000 0 0 1
-26.549517 23.259002 5.718089 35.756881 -0.719431 1.410191 0.032234 -0.028339 -971610.000000 0 0 1
-26.949817 22.581102 4.532289 35.450535 -0.697424 1.442597 0.023511 -0.024912 99595.300000 0 0 1
-26.650467 23.461102 3.267989 35.656002 -0.721839 1.479014 0.012026 -0.023505 419216.000000 0 0 1
-25.247387 23.592502 3.042789 34.688547 -0.751527 1.482966 0.017065 -0.021093 604753.000000 0 0 1
-24.939467 24.415602 1.923189 34.954217 -0.774784 1.515748 0.013666 -0.017131 438718.000000 0 0 1
-23.700367 25.331402 2.201789 34.759678 -0.818651 1.507411 0.028445 -0.009295 410878.000000 0 0 1
-23.335967 25.865902 0.959589 34.850151 -0.836772 1.543258 0.024108 -0.009004 -206586.000000 0 0 1
-22.051067 26.443702 0.969489 34.445012 -0.875731 1.542647 0.037310 -0.016598 -308475.000000 0 0 1
-21.517867 26.912902 -0.435111 34.460299 -0.896338 1.583423 0.047291 -0.011033 142595.000000 0 0 1
-21.273967 25.952102 -1.463711 33.589220 -0.884134 1.614387 0.047793 -0.014638 1212640.000000 0 0 1
-20.123467 25.102802 -1.158311 32.193886 -0.895055 1.606783 0.045154 -0.022571 1007330.000000 0 0 1
-19.513367 24.220202 -2.294311 31.187394 -0.892611 1.644428 0.053449 -0.027036 101305.000000 0 0 1
-20.421067 23.195102 -2.639611 31.016129 -0.848914 1.656004 0.049289 -0.022755 318674.000000 0 0 1
-19.945867 22.480202 -3.759111 30.287423 -0.845063 1.695232 0.055726 -0.025269 -185902.000000 0 0 1
-21.083167 21.775902 -4.541011 30.648175 -0.801560 1.719510 0.045876 -0.017708 8283.960000 0 0 1
-21.818267 22.696002 -5.303911 31.926114 -0.805114 1.737701 0.029912 -0.010462 -239152.000000 0 0 1
-22.970067 22.111302 -5.854411 32.416165 -0.766351 1.752394 0.037931 -0.003392 9750.670000 0 0 1
-23.283167 22.783102 -7.240111 33.370568 -0.774543 1.789497 0.039739 0.000630 -1797.220000 0 0 1
-22.607567 22.191602 -8.317111 32.752765 -0.776113 1.827544 0.030180 -0.004897 59408.200000 0 0 1
-22.485967 23.126302 -9.329411 33.578006 -0.799436 1.852344 0.037721 -0.005379 -185226.000000 0 0 1
-21.806967 22.525302 -10.590411 33.092142 -0.801600 1.896555 0.033873 -0.007431 183233.000000 0 0 1
-22.617767 21.615302 -11.340911 33.277634 -0.762739 1.918561 0.012990 -0.009425 249114.000000 0 0 1
-21.918567 21.259902 -12.518011 33.001630 -0.770145 1.959852 0.006220 -0.002553 -232626.000000 0 0 1
-22.758267 21.052902 -13.756811 33.917742 -0.746492 1.988424 -0.006651 -0.007144 -203334.000000 0 0 1
-23.513267 19.826902 -13.724511 33.679994 -0.700546 1.990508 0.009733 0.003580 415230.000000 0 0 1
-24.432367 19.859002 -14.811211 34.795007 -0.682506 2.010499 0.013930 -0.005198 140720.000000 0 0 1
-25.169967 18.550302 -15.127011 34.734240 -0.635130 2.021398 0.044968 -0.009202 335314.000000 0 0 1
-24.450467 17.573002 -15.859411 34.031701 -0.623179 2.055582 0.032506 -0.002878 -425944.000000 0 0 1
-25.380367 16.618302 -16.162211 34.373654 -0.579721 2.060304 0.066208 -0.010572 -156324.000000 0 0 1
-24.826867 15.680102 -17.299511 34.080963 -0.563316 2.103194 0.071767 0.001198 744232.000000 0 0 1
-23.799067 14.781902 -16.857211 32.696571 -0.555799 2.112463 0.073942 0.004287 322556.000000 0 0 1
-23.369667 13.998702 -17.956011 32.627034 -0.539692 2.153570 0.088163 -0.008768 -325491.000000 0 0 1
-22.367467 12.910802 -17.594111 31.249722 -0.523496 2.168828 0.093491 -0.004713 -318447.000000 0 0 1
-21.118267 13.427502 -17.175811 30.352718 -0.566345 2.172289 0.072847 -0.008391 -504405.000000 0 0 1
-20.386367 12.312202 -16.799611 29.144832 -0.543314 2.185135 0.074822 -0.012453 -729352.000000 0 0 1
-19.118767 12.707302 -16.034211 28.001762 -0.586606 2.180488 0.067397 -0.009426 -686107.000000 0 0 1
-18.310967 13.606902 -16.740711 28.296479 -0.639071 2.203861 0.054615 -0.000532 -225479.000000 0 0 1
-17.246967 13.865502 -15.825511 27.205823 -0.677138 2.191608 0.052392 0.012651 -157994.000000 0 0 1
-16.359367 15.013602 -16.352211 27.575930 -0.742529 2.205562 0.022195 0.014184 -448156.000000 0 0 1
-15.488867 14.577602 -17.369211 27.460899 -0.755099 2.255582 0.034279 0.006427 -137289.000000 0 0 1
-14.544467 15.610002 -17.632911 27.679112 -0.820719 2.261458 0.040409 0.005467 81317.100000 0 0 1
-13.607667 15.191302 -18.765811 27.714616 -0.840332 2.314623 0.037389 0.002532 46117.900000 0 0 1
-12.803267 14.062602 -18.501211 26.532532 -0.832239 2.342424 0.034543 0.004033 -468982.000000 0 0 1
-11.814467 13.851302 -19.452111 26.642538 -0.864592 2.389286 0.034067 0.000885 -114317.000000 0 0 1
-11.336767 12.401002 -19.405411 25.668602 -0.830201 2.427974 0.033135 -0.011737 -20069.700000 0 0 1
-12.132467 11.559402 -20.218111 26.260018 -0.761215 2.449512 0.036356 -0.003868 -26792.200000 0 0 1
-11.648067 10.207702 -20.158711 25.421414 -0.719590 2.486484 0.023522 0.005917 -102983.000000 0 0 1
-12.116567 9.255702 -21.230111 26.138034 -0.652330 2.518762 0.034904 0.000599 146092.000000 0 0 1
-11.460367 9.607202 -22.481211 27.000800 -0.697661 2.554605 0.029716 -0.004278 186278.000000 0 0 1
-11.730267 8.713102 -23.467111 27.644577 -0.638869 2.584672 0.025856 0.010082 -401692.000000 0 0 1
-11.112567 9.059202 -24.786111 28.634063 -0.683954 2.617176 0.029813 -0.016998 -1073510.000000 0 0 1
-9.723367 8.908302 -24.743211 28.037978 -0.741680 2.651925 0.028011 -0.016761 -712312.000000 0 0 1
-9.303367 8.117602 -25.847491 28.645085 -0.717438 2.695955 0.007788 -0.021330 -724583.000000 0 0 1
-9.229067 8.834402 -27.247191 30.093716 -0.763553 2.703144 0.046007 -0.022130 -558528.000000 0 0 1
-8.097967 9.653002 -27.425921 30.181760 -0.872778 2.710936 0.053970 -0.025683 -176562.000000 0 0 1
-8.003167 10.796302 -26.594721 29.797483 -0.932894 2.673689 0.029949 -0.017259 287145.000000 0 0 1
-6.558167 11.390902 -26.687201 29.748427 -1.048408 2.683949 0.027536 -0.012077 628761.000000 0 0 1
-6.137767 11.892702 -27.934131 30.974574 -1.094356 2.694807 0.045282 -0.016614 95508.300000 0 0 1
-4.812867 12.388602 -27.928071 30.929247 -1.200250 2.697420 0.057526 -0.013159 82298.100000 0 0 1
-4.242167 12.496402 -29.342281 32.173366 -1.243532 2.718943 0.059025 -0.016533 22378.200000 0 0 1
-2.834267 12.585202 -29.416221 32.120623 -1.349285 2.728304 0.072771 -0.023244 179917.000000 0 0 1
-2.351267 12.563902 -30.820701 33.366086 -1.385792 2.748460 0.073476 -0.017448 1171610.000000 0 0 1
-0.814267 12.252702 -30.880451 33.232424 -1.504438 2.763111 0.072767 -0.029188 71252.000000 0 0 1
-0.505067 11.023602 -30.325601 32.270993 -1.525011 2.792598 0.058041 -0.015798 1336320.000000 0 0 1
0.917833 10.691402 -30.302391 32.146281 1.485159 2.801251 0.055715 -0.021720 1760640.000000 0 0 1
1.540833 10.377902 -31.683811 33.375723 1.423401 2.821821 0.064911 -0.020278 -706896.000000 0 0 1
1.688433 11.470202 -32.555841 34.558633 1.424644 2.799476 0.062775 -0.020198 -7688.880000 0 0 1
1.760933 11.013402 -33.877191 35.665950 1.412248 2.823542 0.061566 -0.018549 -69395.700000 0 0 1
2.067033 12.021102 33.554365 35.702590 1.400511 0.348664 0.060593 -0.023118 -43710.600000 0 0 1
3.453233 12.128002 33.297824 35.605594 1.293405 0.362015 0.066484 -0.027635 -224607.000000 0 0 1
3.574133 12.876402 32.119187 34.788192 1.300040 0.394267 0.063745 -0.017320 235339.000000 0 0 1
5.025233 13.143902 31.636617 34.625000 1.205620 0.418516 0.065302 -0.017672 -140203.000000 0 0 1
5.631033 11.938202 31.369257 34.033211 1.130059 0.398292 0.077985 -0.017352 -1360060.000000 0 0 1
6.962933 12.069702 31.059247 34.041694 1.047540 0.421715 0.079158 -0.002090 -1062820.000000 0 0 1
7.728433 10.802102 30.692427 33.443073 0.949772 0.408415 0.052207 0.002220 -38936.300000 0 0 1
7.332033 10.272302 29.440477 32.031556 0.950890 0.404984 0.060381 -0.007646 -141506.000000 0 0 1
8.142033 9.204502 29.018177 31.513016 0.846571 0.400589 0.056495 -0.000290 18719.000000 0 0 1
7.448533 8.377802 27.919227 30.085735 0.844047 0.381818 0.047092 0.002693 -91753.800000 0 0 1
6.429333 7.557202 28.398567 30.081992 0.865864 0.336128 0.047270 -0.000288 -414122.000000 0 0 1
6.009333 6.700102 27.398707 28.839081 0.839696 0.317385 0.055029 -0.000453 24489.600000 0 0 1
5.221533 5.521602 28.001387 29.014310 0.813322 0.265014 0.071908 -0.015648 69768.500000 0 0 1
6.086033 4.626702 28.665287 29.667235 0.650008 0.260633 0.055654 -0.015457 212074.000000 0 0 1
5.370433 3.863302 29.612397 30.342391 0.623605 0.219798 0.068258 -0.021061 -287983.000000 0 0 1
6.168233 2.697102 30.249387 30.989464 0.412206 0.218985 0.085141 -0.016106 -23681.800000 0 0 1
6.284033 1.456502 29.575157 30.270454 0.227757 0.214746 0.082302 -0.007624 -7178.690000 0 0 1
7.381033 1.374302 28.686377 29.652598 0.184086 0.255981 0.072763 -0.009172 -88837.200000 0 0 1
7.463833 -0.009398 28.022667 28.999634 -0.001259 0.260307 0.059189 -0.010395 -14776.700000 0 0 1
7.706933 -1.088698 28.923547 29.952523 -0.140334 0.262877 0.037033 -0.016636 27767.400000 0 0 1
7.882233 -2.226398 28.186737 29.352659 -0.275286 0.282797 0.045165 -0.013108 -619173.000000 0 0 1
8.206433 -3.419798 29.121517 30.448371 -0.394838 0.296302 0.051768 -0.006603 -326297.000000 0 0 1
9.512833 -3.408598 29.619427 31.295734 -0.344064 0.328781 0.060258 -0.017353 -766457.000000 0 0 1
10.368033 -4.095298 28.784907 30.868081 -0.376182 0.369484 0.061701 -0.006818 -632351.000000 0 0 1
11.784833 -4.434498 29.323287 31.912415 -0.359900 0.405595 0.054663 -0.016922 441719.000000 0 0 1
12.413033 -5.405998 28.494827 31.547795 -0.410739 0.443566 0.062888 -0.014862 43760.400000 0 0 1
12.535733 -6.695998 29.084947 32.371517 -0.490595 0.454517 0.077481 -0.013557 423445.000000 0 0 1
11.467533 -7.765898 28.577847 31.756997 -0.595265 0.451276 0.079570 -0.004678 1361040.000000 0 0 1
10.112733 -7.360898 28.791707 31.391282 -0.629196 0.409831 0.074772 -0.000005 -27659.200000 0 0 1
9.242733 -8.430398 28.550847 31.171310 -0.739466 0.412969 0.056756 -0.002755 635591.000000 0 0 1
7.761533 -7.890598 28.506717 30.579991 -0.793644 0.370348 0.061207 -0.007419 654592.000000 0 0 1
7.292433 -7.411498 29.739447 31.504676 -0.793496 0.336339 0.059752 -0.000447 -111856.000000 0 0 1
5.890033 -7.289498 29.682987 31.127303 -0.891187 0.305822 0.033052 -0.008282 -41780.400000 0 0 1
5.250133 -6.765798 30.977467 32.139437 -0.910873 0.269718 0.030584 -0.003460 -138041.000000 0 0 1
5.350933 -7.721398 32.089567 33.436399 -0.964783 0.284794 0.031328 0.005997 224208.000000 0 0 1
4.778933 -7.280198 33.317982 34.437297 -0.989915 0.255658 0.037801 0.008120 261909.000000 0 0 1
5.539533 -6.043698 33.952858 34.928631 -0.828896 0.236927 0.040594 -0.000554 304525.000000 0 0 1
5.461933 -4.835898 33.200497 33.992523 -0.724680 0.216292 0.045911 0.003810 -372226.000000 0 0 1
6.165533 -3.804698 33.811780 34.579271 -0.552892 0.211082 0.058230 -0.001242 -172272.000000 0 0 1
6.359333 -2.692998 32.793929 33.513208 -0.400576 0.207556 0.055247 -0.005406 426329.000000 0 0 1
5.108633 -2.154098 32.370927 32.842277 -0.399037 0.169625 0.056756 -0.010424 289833.000000 0 0 1
5.307533 -0.995498 31.581607 32.039957 -0.185409 0.169351 0.061217 -0.011068 -340893.000000 0 0 1
3.991533 -0.367998 31.109967 31.367145 -0.091935 0.128142 0.051289 -0.005799 -96971.400000 0 0 1
3.276433 0.091002 32.240697 32.406880 0.027767 0.101315 0.039576 -0.005955 98238.500000 0 0 1
1.981233 0.584902 31.899637 31.966455 0.287067 0.064668 0.047835 -0.008906 691987.000000 0 0 1
1.012833 0.749702 33.098560 33.122539 0.637201 0.038053 0.037505 -0.011797 139908.000000 0 0 1
1.398133 1.812202 33.977812 34.054817 0.913670 0.067262 0.035089 -0.009344 563065.000000 0 0 1
0.521833 1.828002 -33.389291 33.443365 1.292726 3.084719 0.024592 -0.020950 570862.000000 0 0 1
0.948933 3.078402 -32.555951 32.714935 1.271783 3.042966 0.026276 -0.014979 901936.000000 0 0 1
2.042833 2.726602 -31.688381 31.871006 0.927793 3.034489 0.014009 -0.003918 -88454.500000 0 0 1
2.687233 3.779002 -31.132441 31.475879 0.952662 2.993734 0.019417 -0.002472 -130756.000000 0 0 1
3.782733 3.382502 -30.098071 30.522848 0.729599 2.974565 0.021432 0.002157 202015.000000 0 0 1
3.280933 2.744302 -28.955191 29.269418 0.696569 2.994930 0.023963 -0.011187 -383534.000000 0 0 1
4.327633 2.523402 -28.085151 28.528436 0.527893 2.965078 0.040530 -0.017480 -492917.000000 0 0 1
3.786433 1.809802 -26.854511 27.180457 0.445869 2.986570 0.032328 -0.020234 -15228.700000 0 0 1
3.672533 0.387602 -26.965781 27.217478 0.105151 3.005491 0.045614 -0.019709 226005.000000 0 0 1
3.220533 -0.200098 -25.708991 25.910695 -0.062052 3.016735 0.044891 -0.019208 -213134.000000 0 0 1
3.869133 -1.557398 -25.528401 25.866870 -0.382676 2.979644 0.051979 -0.025927 -853555.000000 0 0 1
5.239533 -1.532098 -25.372421 25.953030 -0.284480 2.929671 0.045063 -0.024512 -979228.000000 0 0 1
5.785933 -2.807998 -25.091551 25.902660 -0.451831 2.890680 0.053549 -0.024239 -1139130.000000 0 0 1
7.200433 -2.758998 -24.604811 25.784783 -0.365915 2.837896 0.060374 -0.021639 -942888.000000 0 0 1
8.087833 -2.520498 -25.666281 27.028206 -0.302102 2.822789 0.054423 -0.025352 -598138.000000 0 0 1
9.389233 -2.994198 -25.411081 27.255201 -0.308702 2.771624 0.043885 -0.016937 -40927.300000 0 0 1
-29.701317 -3.580098 17.564427 34.691417 0.119958 1.039902 0.104926 -0.024323 489826.000000 0 0 1
-31.116087 -3.619398 17.739427 35.999975 0.115799 1.055535 0.094762 -0.013702 263647.000000 0 0 1
-31.493467 -4.825398 18.254627 36.719945 0.152037 1.050507 0.074510 -0.021641 26421.300000 0 0 1
-32.933657 -4.887098 18.801327 38.236101 0.147317 1.056736 0.062036 -0.021015 -62500.900000 0 0 1
-33.960557 -5.002498 17.855927 38.693392 0.146251 1.091142 0.053140 -0.016137 -524110.000000 0 0 1
-35.207130 -4.944898 18.499527 40.077756 0.139539 1.091009 0.040593 -0.011641 -632645.000000 0 0 1
-36.274667 -4.984298 17.395927 40.537797 0.136549 1.127269 0.028425 -0.012668 512138.000000 0 0 1
34.943061 -4.966698 17.869127 39.559971 -0.141191 1.102130 0.035680 -0.010453 811068.000000 0 0 1
34.065131 -4.888798 16.749927 38.273928 -0.142540 1.117832 0.024755 -0.010020 -1463120.000000 0 0 1
32.719231 -5.367998 17.110327 37.311216 -0.162614 1.094395 0.033394 -0.008686 -1648420.000000 0 0 1
32.181971 -4.654198 18.222227 37.274528 -0.143625 1.060008 0.042980 -0.017029 -255246.000000 0 0 1
31.075311 -5.352598 18.702227 36.661950 -0.170572 1.035465 0.079660 -0.022035 -535622.000000 0 0 1
30.349271 -4.863598 19.975827 36.657421 -0.158903 0.994487 0.090089 -0.019050 79143.900000 0 0 1
29.412231 -3.814698 19.801927 35.661570 -0.128978 0.982104 0.087884 -0.020614 11577.300000 0 0 1
29.926971 -2.526498 19.525927 35.822739 -0.084222 0.994323 0.082276 -0.018792 -415648.000000 0 0 1
28.892171 -1.392498 19.736027 35.017244 -0.048159 0.972048 0.072432 -0.005696 -113886.000000 0 0 1
29.326371 -0.106498 19.436627 35.182807 -0.003631 0.985500 0.076451 -0.007431 -453313.000000 0 0 1
28.418161 0.831402 19.927927 34.718949 0.029248 0.959440 0.059813 -0.004044 -27942.900000 0 0 1
28.708751 2.318502 19.413727 34.734143 0.080585 0.977709 0.055987 -0.005898 63754.000000 0 0 1
28.394541 2.328002 18.009827 33.704947 0.081805 1.007072 0.054641 -0.006674 57881.500000 0 0 1
28.592961 3.595802 17.406027 33.666853 0.125102 1.027445 0.043025 -0.003624 100817.000000 0 0 1
28.092871 3.574802 15.942427 32.498456 0.126569 1.058065 0.044476 -0.008053 -12006.800000 0 0 1
28.188691 4.765402 15.155827 32.357541 0.167470 1.083333 0.036097 -0.005298 364968.000000 0 0 1
27.540121 4.643802 13.861027 31.179340 0.167048 1.110115 0.045094 -0.006948 89339.700000 0 0 1
27.081921 5.949902 13.205527 30.711850 0.216264 1.126324 0.044842 -0.001937 -103308.000000 0 0 1
25.931421 6.526702 13.772027 30.078317 0.246569 1.095196 0.047656 -0.006772 -156927.000000 0 0 1
25.431021 7.641302 13.002327 29.566651 0.291889 1.115461 0.070122 -0.021301 -547661.000000 0 0 1
24.207221 8.237202 13.721827 29.019469 0.327988 1.078275 0.075810 -0.025424 568036.000000 0 0 1
22.978921 7.486902 13.690527 27.776160 0.314970 1.055391 0.070107 -0.017061 1054520.000000 0 0 1
22.968921 6.189702 14.286927 27.748875 0.263229 1.029946 0.071393 -0.020025 -981442.000000 0 0 1
21.593321 5.462702 14.306027 26.472156 0.247782 0.999863 0.075532 -0.018207 -107995.000000 0 0 1
21.259421 5.338402 12.958527 25.463404 0.246021 1.036881 0.083574 -0.019093 859440.000000 0 0 1
20.054221 4.571302 12.794727 24.223411 0.224118 1.014321 0.073954 -0.015969 169618.000000 0 1 0
19.681221 4.458802 11.357127 23.156332 0.222790 1.058185 0.076354 -0.014188 -528682.000000 0 1 0
20.655021 3.929002 10.489527 23.496748 0.187974 1.108031 0.082256 -0.026443 291196.000000 0 1 0
20.215421 3.811602 9.140327 22.510823 0.186361 1.152678 0.084281 -0.024181 -262553.000000 0 1 0
21.239221 3.136302 8.211127 22.986159 0.146606 1.205506 0.078120 -0.017956 -834912.000000 0 1 0
21.483821 1.806502 8.513227 23.179583 0.083889 1.194721 0.075002 -0.016207 1255740.000000 0 1 0
22.398121 1.210702 7.550427 23.667501 0.054001 1.246100 0.071183 -0.011061 1744710.000000 0 1 0
23.958321 1.556902 7.475827 25.145837 0.064893 1.268934 0.069275 -0.015553 1390140.000000 0 0 1
24.746621 0.799702 8.411127 26.149223 0.032304 1.243315 0.065367 -0.002378 548582.000000 0 0 1
24.745721 1.356902 9.720727 26.621128 0.054779 1.197002 0.069729 -0.013575 -870653.000000 0 0 1
25.377721 0.447402 10.785227 27.578072 0.017628 1.168992 0.055246 -0.009505 616710.000000 0 0 1
26.805721 0.600302 10.800727 28.906103 0.022391 1.187857 0.066972 -0.018331 730518.000000 0 0 1
27.344921 -0.115298 11.879827 29.814230 -0.004216 1.160957 0.061784 -0.006395 -322598.000000 0 0 1
28.856431 0.135602 11.958927 31.236645 0.004699 1.177918 0.064213 -0.003246 -219001.000000 0 0 1
29.289181 1.368802 12.505527 31.876605 0.046700 1.167654 0.062672 -0.003304 842651.000000 0 0 1
30.718211 1.421702 12.623927 33.241439 0.046249 1.181254 0.047877 0.002326 881433.000000 0 0 1
31.253361 2.807502 13.096227 34.002439 0.089590 1.175420 0.053798 -0.001170 -285679.000000 0 0 1
31.069041 3.832602 12.109827 33.565192 0.122738 1.201687 0.057549 -0.005033 -82701.400000 0 0 1
31.657081 5.071902 12.341527 34.354160 0.158864 1.203339 0.066237 -0.005070 26901.500000 0 0 1
33.149031 5.177702 11.959027 35.618608 0.154943 1.228393 0.066610 -0.007479 25112.700000 0 0 1
34.021001 4.241602 12.581427 36.520022 0.124036 1.219082 0.047045 -0.004717 -520146.000000 0 0 1
35.328221 4.494302 12.192727 37.642324 0.126536 1.240937 0.043831 -0.003670 8662.400000 0 0 1
-36.136687 3.617702 12.894827 38.538610 -0.099779 1.229621 0.079853 -0.000322 265485.000000 0 0 1
-35.905291 2.303502 12.435527 38.067550 -0.064067 1.238018 0.074579 -0.001668 131533.000000 0 0 1
35.693461 1.285802 12.580427 37.867448 0.036008 1.232137 0.061217 0.006307 -185223.000000 0 0 1
35.474711 0.825602 14.062527 38.169247 0.023269 1.193481 0.054662 0.006066 -438598.000000 0 0 1
-36.113847 0.118102 14.712627 38.995965 -0.003270 1.183932 0.065933 0.000234 -186986.000000 0 0 1
35.955091 -0.167498 16.017327 39.361802 -0.004659 1.151710 0.064023 -0.005984 -131837.000000 0 0 1
-35.755345 -1.087798 16.866427 39.548760 0.030414 1.130208 0.063717 -0.012885 353524.000000 0 0 1
-34.530111 -0.413498 17.189327 38.574247 0.011974 1.108933 0.068254 -0.008024 690103.000000 0 0 1
-33.550977 -1.107698 17.942627 38.063538 0.033003 1.079934 0.067602 -0.011215 223178.000000 0 0 1
-33.623527 -0.991598 19.502627 38.882867 0.029483 1.045379 0.066081 -0.015983 158638.000000 0 0 1
-34.822863 -1.604598 19.996327 40.187805 0.046046 1.049999 0.054031 -0.024033 547831.000000 0 0 1
-34.842626 -1.470398 21.380227 40.905804 0.042176 1.020817 0.056284 -0.020867 65694.500000 0 0 1
-35.231088 -2.706198 22.213027 41.736934 0.076662 1.009581 0.037691 -0.018878 -852442.000000 0 0 1
-34.378773 -3.791298 22.079327 41.033775 0.109836 1.002642 0.048622 -0.023746 -325412.000000 0 0 1
-34.821589 -4.959098 22.732927 41.879848 0.141463 0.997013 0.041471 -0.016500 -201355.000000 0 0 1
-34.828026 -4.984598 24.303277 42.760810 0.142155 0.966292 0.041814 -0.019192 -177024.000000 0 0 1
-33.535647 -5.044598 24.845817 42.040483 0.149306 0.938502 0.043265 -0.020556 -362735.000000 0 0 1
-33.627137 -4.803398 26.219717 42.910728 0.141883 0.913436 0.032406 -0.016290 131866.000000 0 0 1
-32.425367 -4.007698 26.774937 42.241725 0.122974 0.884275 0.035100 -0.008868 -61258.600000 0 0 1
-32.480487 -2.587198 26.797157 42.187241 0.079486 0.882534 0.041509 -0.005452 -193680.000000 0 0 1
-31.856957 -2.103798 25.643917 40.949996 0.065943 0.894094 0.043146 -0.014330 -181395.000000 0 0 1
-31.820407 -0.588798 25.576097 40.829178 0.018502 0.893848 0.043639 -0.012896 -95689.100000 0 0 1
-33.073627 -0.011998 25.317927 41.651679 0.000363 0.917448 0.052195 -0.021049 -366031.000000 0 0 1
-32.881857 1.330502 24.881597 41.256280 -0.040441 0.923417 0.054373 -0.013215 -184771.000000 0 0 1
-34.194945 2.097102 24.614867 42.185113 -0.061251 0.947769 0.067968 -0.011730 -230121.000000 0 0 1
-34.828344 1.515502 23.503307 42.044212 -0.043486 0.977600 0.071607 -0.008466 3794.330000 0 0 1
-35.965132 2.254002 23.067527 42.786471 -0.062590 1.001391 0.068507 -0.002047 681509.000000 0 0 1
-35.471142 3.439802 22.149427 41.959877 -0.096672 1.014704 0.072299 0.000631 -167409.000000 0 0 1
-34.833859 3.065702 20.937327 40.757428 -0.087783 1.031298 0.065640 -0.012854 -922450.000000 0 0 1
-35.702986 2.806702 19.879627 40.960717 -0.078451 1.064051 0.082468 -0.010522 -9600.570000 0 0 1
-34.992630 2.331702 18.538027 39.668368 -0.066536 1.084534 0.088897 -0.005164 -4088.220000 0 0 1
-34.212134 3.252202 17.839727 38.720832 -0.094775 1.091982 0.087074 -0.006176 -142501.000000 0 0 1
-33.832707 2.641302 16.621027 37.787393 -0.077911 1.115358 0.101906 -0.001481 57325.700000 0 0 1
-32.899157 3.572302 15.753927 36.651086 -0.108160 1.126486 0.111874 -0.002933 384031.000000 0 0 1
-33.485127 4.794602 15.324527 37.136008 -0.142219 1.145424 0.106904 -0.011277 327669.000000 0 0 1
-32.607187 5.437902 14.404727 36.059612 -0.165249 1.159858 0.105214 -0.009766 185741.000000 0 0 1
-33.012237 6.900102 14.126127 36.564555 -0.206050 1.174143 0.110220 -0.023354 271886.000000 0 0 1
-32.163277 7.432202 13.106327 35.517458 -0.227091 1.192852 0.113395 -0.020241 220924.000000 0 0 1
-32.445787 8.779102 12.784327 35.961657 -0.264250 1.207349 0.110812 -0.020767 -381473.000000 0 0 1
-31.593217 9.439602 11.701927 34.988177 -0.290342 1.229771 0.112334 -0.022139 -285147.000000 0 0 1
-31.995037 10.757302 11.385927 35.623606 -0.324344 1.245471 0.095791 -0.009971 -704717.000000 0 0 1
-31.226577 11.288502 10.431427 34.804368 -0.346886 1.266401 0.079254 -0.019598 -698687.000000 0 0 1
-31.292087 12.836602 10.422527 35.392120 -0.389285 1.271877 0.083584 -0.013786 289027.000000 0 0 1
-30.454097 13.384502 9.417027 34.572783 -0.414086 1.294928 0.078805 -0.015640 78882.100000 0 0 1
-30.522327 14.752102 9.525827 35.213326 -0.450216 1.296866 0.071143 -0.007197 69715.800000 0 0 1
-29.714947 15.572602 8.486827 34.605061 -0.482715 1.323021 0.080340 -0.013879 413310.000000 0 0 1
-28.352357 15.730402 8.868527 33.614766 -0.506535 1.303807 0.088891 -0.009618 817060.000000 0 0 1
-27.592347 16.675602 8.036227 33.226409 -0.543616 1.326511 0.068803 -0.029663 1632730.000000 0 0 1
-26.078057 16.832702 8.478627 32.175954 -0.573187 1.304139 0.070782 -0.020276 663417.000000 0 0 1
-25.756997 17.408102 9.710127 32.569180 -0.594340 1.268054 0.064737 -0.016850 -65242.300000 0 0 1
-26.260497 18.680302 9.991627 33.740184 -0.618300 1.270153 0.058424 -0.023576 -538232.000000 0 0 1
-26.466237 18.796602 11.489727 34.435269 -0.617546 1.230611 0.068945 -0.009229 -231490.000000 0 0 1
-25.262397 18.883102 12.204827 33.818901 -0.641885 1.201577 0.067940 -0.005247 -122752.000000 0 0 1
-25.393697 19.338702 13.567127 34.682736 -0.650856 1.168885 0.068791 -0.008227 338826.000000 0 0 1
-26.013427 18.278402 14.577327 34.975661 -0.612504 1.140891 0.053167 -0.004094 455493.000000 0 0 1
-25.039607 17.284902 14.879227 33.869472 -0.604188 1.115965 0.064694 -0.005539 571147.000000 0 0 1
-25.478247 16.374402 15.898027 34.205400 -0.571213 1.087409 0.059658 -0.002273 -394603.000000 0 0 1
-24.354867 15.388202 16.130827 33.017569 -0.563498 1.060366 0.066229 -0.002751 -81090.400000 0 0 1
-23.173367 15.803902 16.801127 32.696271 -0.598533 1.031124 0.064301 -0.003097 -2242.490000 0 0 1
-22.212667 14.793002 16.940827 31.610554 -0.587521 1.005196 0.051190 -0.009710 -294543.000000 0 0 1
-22.529267 13.562902 17.783727 31.745569 -0.541898 0.976174 0.066241 -0.010638 -937059.000000 0 0 1
-22.598967 14.023802 19.086027 32.736169 -0.555393 0.948348 0.076990 -0.009434 315045.000000 0 0 1
-23.112867 13.068602 20.042427 33.266979 -0.514609 0.924201 0.082926 -0.015609 -241907.000000 0 0 1
-22.902667 13.486702 21.533127 34.206708 -0.532196 0.889887 0.077540 -0.007767 1720930.000000 0 0 1
-21.482667 13.526902 21.915527 33.537626 -0.561947 0.858649 0.080105 -0.003372 1765110.000000 0 0 1
-20.976867 14.832902 21.813427 33.702664 -0.615480 0.866849 0.082146 0.011922 177911.000000 0 0 1
-19.440867 14.928102 22.037927 32.961580 -0.654842 0.838479 0.090128 0.000211 1162840.000000 0 0 1
-18.451767 14.511002 21.083827 31.552570 -0.666411 0.838993 0.063750 -0.002379 552630.000000 0 0 1
-18.091867 15.428902 20.076527 31.119666 -0.706122 0.869590 0.071961 -0.005928 -719328.000000 0 0 1
-16.767867 15.044702 19.402027 29.731180 -0.731285 0.859810 0.049884 0.000281 113795.000000 0 0 1
-15.564667 14.939102 20.125027 29.503429 -0.764893 0.820132 0.040015 -0.000602 -45632.700000 0 0 1
-15.005367 16.173402 20.426227 30.066106 -0.822843 0.823883 0.024193 -0.006768 -321341.000000 0 0 1
-13.879767 16.044202 21.514727 30.215026 -0.857604 0.778377 0.002065 0.005227 1538630.000000 0 0 1
-12.603767 15.466702 21.125427 29.057830 -0.887038 0.756834 0.008891 0.006095 1212580.000000 0 0 1
-11.996167 14.796402 22.275627 29.309471 -0.889535 0.707461 0.017158 0.001972 -309366.000000 0 0 1
-10.747267 14.039402 21.907727 28.152390 -0.917444 0.679028 -0.002909 0.003408 -1638790.000000 0 0 1
-10.352767 13.052702 22.840227 28.270635 -0.900245 0.630194 0.007459 -0.000663 -205924.000000 0 0 1
-9.099967 12.477302 22.594827 27.368205 -0.940661 0.599555 0.006681 0.019055 667365.000000 0 0 1
-7.806567 13.360702 22.826627 27.577269 -1.042006 0.595740 -0.004986 0.023423 -104816.000000 0 0 1
-7.518067 14.193502 21.698327 26.996189 -1.083685 0.637216 -0.006946 0.020896 458072.000000 0 0 1
-6.540667 15.225202 21.977727 27.524672 -1.165040 0.646041 0.007065 0.013327 547694.000000 0 0 1
-7.134167 16.526202 22.639427 28.923266 -1.163274 0.671738 0.003291 -0.002763 201158.000000 0 0 1
-8.152867 17.169202 21.904627 29.001093 -1.127467 0.714679 -0.025315 -0.001274 -315278.000000 0 0 1
-7.682967 17.943202 20.805027 28.527804 -1.166233 0.753513 0.003810 0.004945 -1184290.000000 0 0 1
-8.652667 17.998602 19.599227 27.981208 -1.122674 0.794779 0.008049 0.001739 71298.300000 0 0 1
-9.732767 18.901502 19.615927 28.927117 -1.095284 0.825601 -0.005705 -0.001796 -129861.000000 0 0 1
-10.762467 18.471802 20.495027 29.615609 -1.043237 0.806492 -0.006532 0.001402 199716.000000 0 0 1
-12.119267 19.262002 20.312027 30.503767 -1.009197 0.842116 0.000409 -0.007204 856419.000000 0 0 1
-13.004167 18.903302 19.292027 29.977083 -0.968216 0.871657 0.014735 -0.007712 691139.000000 0 0 1
-14.237567 19.627502 19.381227 31.041571 -0.943233 0.896480 0.014922 -0.004655 650935.000000 0 0 1
-15.215567 19.644102 18.207827 30.804694 -0.911760 0.938408 0.043036 -0.005171 -180289.000000 0 0 1
-15.853667 18.424902 17.881427 30.175507 -0.860268 0.936537 0.050073 -0.005429 -251564.000000 0 0 1
-16.566167 18.715202 16.722127 30.072017 -0.846234 0.981147 0.057972 -0.017745 -1353550.000000 0 0 1
-17.284167 17.480602 16.212027 29.447304 -0.791048 0.987781 0.058832 -0.015540 124637.000000 0 0 1
-18.390667 16.962402 16.920527 30.203376 -0.745020 0.976145 0.065645 -0.020512 -311451.000000 0 0 1
-19.539367 17.767402 16.875927 31.341097 -0.737937 1.002188 0.075027 -0.020638 -721143.000000 0 0 1
34.417911 -9.449998 11.695089 37.558890 -0.267963 1.254151 0.048674 -0.004586 56165.300000 0 0 1
33.148451 -9.985298 11.377189 36.441274 -0.292585 1.253282 0.058040 -0.001854 260234.000000 0 0 1
32.653381 -10.985398 12.278289 36.574290 -0.324530 1.228439 0.051978 -0.001217 -168652.000000 0 0 1
31.296441 -11.531098 11.780689 35.372561 -0.353014 1.231264 0.055021 0.000146 736670.000000 0 0 1
30.221671 -10.540298 11.981889 34.176205 -0.335575 1.212594 0.056347 -0.004287 2120940.000000 0 0 1
28.880011 -11.073298 11.976489 33.167895 -0.366136 1.201363 0.055429 0.000954 1181160.000000 0 0 1
28.366881 -11.996298 13.104089 33.471007 -0.400089 1.168529 0.038864 0.006681 -765810.000000 0 0 1
28.337041 -11.217098 14.282189 33.656977 -0.376920 1.132557 0.046477 -0.004193 529384.000000 0 0 1
27.674291 -11.833498 15.415789 33.816337 -0.404070 1.097449 0.045986 -0.009354 -821391.000000 0 0 1
26.182421 -11.707598 15.505589 32.603839 -0.420485 1.075178 0.057777 -0.018004 -1292080.000000 0 0 1
25.797021 -10.520198 16.081089 32.167722 -0.387218 1.047297 0.061819 -0.015635 -99023.900000 0 0 1
25.036721 -9.662298 15.246289 30.864976 -0.368314 1.054150 0.084916 -0.023881 33774.900000 0 0 1
24.756821 -8.316198 15.979089 30.616836 -0.324073 1.021713 0.111531 -0.035513 578181.000000 0 0 1
25.954221 -7.530598 15.957889 31.384482 -0.282395 1.037396 0.092837 -0.028642 572555.000000 0 0 1
25.793821 -6.262298 16.489489 31.248054 -0.238175 1.014910 0.098314 -0.028574 234552.000000 0 0 1
27.114021 -5.474098 16.309189 32.111144 -0.199214 1.038053 0.095973 -0.027411 211439.000000 0 0 1
27.345921 -5.086398 14.995589 31.599661 -0.183901 1.076345 0.106452 -0.026551 128255.000000 0 0 1
28.581911 -4.428398 14.811289 32.494779 -0.153715 1.097520 0.091222 -0.022387 59139.200000 0 0 1
28.702551 -3.602598 13.513089 31.928338 -0.124862 1.133787 0.091682 -0.015744 -188155.000000 0 0 1
29.158951 -4.373498 12.472289 32.014527 -0.148878 1.170618 0.073992 -0.014159 140021.000000 0 0 1
29.369931 -3.668498 11.279789 31.674665 -0.124263 1.206690 0.072967 -0.016735 -2218.640000 0 0 1
30.053291 -4.393598 10.104189 32.009353 -0.145165 1.249640 0.072046 -0.017356 49688.000000 0 0 1
31.395081 -4.809898 10.274889 33.382025 -0.152023 1.257920 0.083387 -0.022756 256203.000000 0 0 1
31.722101 -5.570198 9.097589 33.467670 -0.173822 1.295500 0.078034 -0.024287 -225981.000000 0 0 1
33.067041 -6.322498 9.136689 34.883840 -0.188922 1.305788 0.067879 -0.022417 -354231.000000 0 0 1
34.158091 -5.453298 8.968689 35.734452 -0.158313 1.317102 0.066792 -0.021413 -1024390.000000 0 0 1
35.305201 -6.218198 8.873089 36.930407 -0.174339 1.328157 0.083405 -0.027407 -446957.000000 0 0 1
-35.944149 -5.523198 8.548589 37.357274 0.152468 1.339917 0.073181 -0.016943 154715.000000 0 0 1
-36.003929 -4.877298 7.275489 37.054064 0.134646 1.373164 0.083103 -0.020866 -1061320.000000 0 0 1
-34.833860 -4.237698 6.980089 35.778171 0.121060 1.374444 0.075820 0.001344 -1115400.000000 0 0 1
-34.854995 -3.298998 5.751789 35.480095 0.094368 1.407965 0.092932 -0.015056 -377194.000000 0 0 1
-34.551317 -3.973198 4.541589 35.074291 0.114491 1.440947 0.086496 -0.027302 186326.000000 0 0 1
-34.557776 -3.107498 3.435089 34.866836 0.089681 1.472116 0.084416 -0.026548 -315373.000000 0 0 1
-33.675637 -3.635398 2.293689 33.948868 0.107537 1.503182 0.093566 -0.027189 -248031.000000 0 0 1
-34.068793 -4.822798 1.621389 34.446639 0.140626 1.523709 0.091372 -0.017128 -442146.000000 0 0 1
-35.138593 -4.631098 0.739589 35.450173 0.131040 1.549932 0.091105 -0.020649 -555887.000000 0 0 1
-34.790529 -4.669298 -0.745011 35.110373 0.133415 1.592017 0.096979 -0.020210 -789963.000000 0 0 1
-34.467124 -5.951098 -1.231911 34.998798 0.170974 1.606002 0.085982 -0.015871 102383.000000 0 0 1
-33.602307 -6.018898 -2.344511 34.217524 0.177242 1.639368 0.077033 -0.009389 1335650.000000 0 0 1
-32.066817 -5.699898 -2.050911 32.633968 0.175913 1.633684 0.072262 -0.018866 794012.000000 0 0 1
-31.553047 -6.733398 -1.224311 32.286721 0.210246 1.608725 0.072411 -0.012540 -864787.000000 0 0 1
-30.375817 -6.222498 -0.711111 31.014762 0.202055 1.593726 0.071483 -0.021696 -1171750.000000 0 0 1
-29.785997 -7.119998 0.344789 30.627094 0.234636 1.559538 0.064149 -0.010382 -538569.000000 0 0 1
-29.389667 -8.332098 -0.244011 30.548911 0.276255 1.578784 0.070571 0.000031 411165.000000 0 0 1
-28.933647 -9.342898 0.659089 30.411841 0.312338 1.549123 0.070154 -0.000031 -199268.000000 0 0 1
-28.449427 -10.689798 0.048189 30.391512 0.359426 1.569211 0.062095 -0.002147 -18963.900000 0 0 1
-27.298937 -10.645698 -0.767711 29.311299 0.371828 1.596991 0.084147 -0.008801 -6987.810000 0 0 1
-26.739047 -11.837498 -1.158111 29.265068 0.416771 1.610380 0.079204 -0.004311 -264507.000000 0 0 1
-27.535847 -12.765698 -2.127511 30.425520 0.434108 1.640779 0.071521 -0.005971 168871.000000 0 0 1
-28.605197 -13.505498 -1.515911 31.669446 0.441108 1.618681 0.073857 -0.010047 642183.000000 0 0 1
-28.983857 -14.555698 -2.358711 32.519161 0.465406 1.643393 0.058797 -0.008587 -156920.000000 0 0 1
-30.017767 -15.475898 -1.653111 33.812757 0.476016 1.619706 0.062719 -0.013584 6109.180000 0 0 1
-29.465087 -16.254598 -0.599511 33.656541 0.504114 1.588610 0.047129 -0.007204 161229.000000 0 0 1
-30.410157 -17.033098 0.100589 34.855620 0.510574 1.567910 0.047020 -0.002869 -215114.000000 0 0 1
-30.484807 -18.526298 -0.357211 35.674568 0.546078 1.580810 0.047700 0.006996 953710.000000 0 0 1
-29.367967 -19.376598 0.055589 35.184274 0.583225 1.569216 0.065361 -0.004256 1411090.000000 0 0 1
-29.757787 -20.779598 -0.057911 36.294916 0.609578 1.572392 0.067513 -0.004408 112762.000000 0 0 1
-30.591007 -21.319098 1.139589 37.304321 0.608647 1.540243 0.059797 -0.005185 -307190.000000 0 0 1
-29.893327 -21.713498 2.303489 37.018821 0.628203 1.508531 0.075202 -0.012030 -37757.000000 0 0 1
-30.803577 -21.950598 3.391389 37.976185 0.619132 1.481374 0.063113 -0.012991 379411.000000 0 0 1
-30.157747 -22.269998 4.783889 37.793229 0.636068 1.443875 0.066887 -0.015117 -216747.000000 0 0 1
-29.469457 -21.150498 5.264489 36.653886 0.622513 1.426671 0.059789 -0.014044 -165203.000000 0 0 1
-28.919467 -21.335498 6.556889 36.531245 0.635619 1.390331 0.048348 -0.013815 151433.000000 0 0 1
-28.303007 -20.034198 7.091289 35.393724 0.615973 1.369077 0.048104 -0.007835 147115.000000 0 0 1
-27.416767 -20.263198 8.167889 35.056964 0.636476 1.335646 0.050694 -0.017624 -22117.900000 0 0 1
-26.782467 -19.042598 8.536889 33.952902 0.618077 1.316636 0.056615 -0.015889 160770.000000 0 0 1
-25.757917 -19.100498 9.655889 33.489334 0.638064 1.278317 0.056768 -0.012009 -101808.000000 0 0 1
-26.442477 -19.546498 10.814289 34.615301 0.636559 1.253064 0.051731 -0.014584 248401.000000 0 0 1
-25.590837 -19.764398 11.934089 34.466576 0.657636 1.217224 0.038773 -0.002726 18105.300000 0 0 1
-25.232447 -18.466198 12.703889 33.750047 0.631779 1.184877 0.048923 -0.006823 -321768.000000 0 0 1
-24.497567 -17.551598 11.909889 32.404241 0.621690 1.194433 0.046001 -0.002792 53136.200000 0 0 1
-24.030267 -16.383998 12.527289 31.667367 0.598411 1.164086 0.054144 0.001306 650379.000000 0 0 1
-23.045767 -16.413198 13.764889 31.463831 0.618867 1.117999 0.054042 0.001537 22078.800000 0 0 1
-23.644067 -17.019498 14.874689 32.710268 0.623905 1.098715 0.055943 -0.013103 -552509.000000 0 0 1
-22.795467 -17.047498 15.964189 32.635959 0.642121 1.059671 0.060883 -0.015582 -415760.000000 0 0 1
-23.412167 -17.646898 17.249589 34.016039 0.645896 1.038978 0.048289 0.000941 9852.680000 0 0 1
-24.392767 -16.866398 17.898989 34.638942 0.604965 1.027769 0.065271 -0.009001 -106591.000000 0 0 1
-25.160167 -17.713798 18.712789 36.013624 0.613433 1.024410 0.063766 0.001631 -222182.000000 0 0 1
-26.242757 -16.958798 19.496289 36.829179 0.573719 1.012938 0.090846 -0.002801 -15412.800000 0 0 1
-25.587877 -16.348798 20.596489 36.691116 0.568552 0.974782 0.099209 -0.014415 749160.000000 0 0 1
-26.393417 -15.360898 21.266589 37.213404 0.527077 0.962492 0.092237 -0.020914 277612.000000 0 0 1
-25.533457 -14.775698 22.389389 37.034625 0.524595 0.921592 0.084883 -0.019919 316483.000000 0 0 1
-24.490367 -13.939398 21.890589 35.683088 0.517449 0.910346 0.089034 -0.018145 265534.000000 0 0 1
-23.627267 -13.458498 22.898689 35.548965 0.517780 0.870891 0.093148 -0.018309 312302.000000 0 0 1
-22.529167 -12.536898 22.337789 34.113253 0.507800 0.856862 0.079119 -0.015683 139499.000000 0 0 1
-23.199567 -11.453298 21.743589 33.796178 0.458584 0.871899 0.076821 -0.014973 -10870.300000 0 0 1
-22.287767 -10.627898 21.125089 32.495633 0.444956 0.863093 0.058440 -0.012713 -764363.000000 0 0 1
-22.120967 -9.310998 21.939589 32.517341 0.398404 0.830232 0.059560 -0.011340 338135.000000 0 0 1
-21.375867 -9.480998 23.160089 32.912106 0.417467 0.790211 0.062395 -0.016077 985647.000000 0 0 1
-19.948067 -9.502898 23.067289 31.942609 0.444575 0.763894 0.043771 -0.011775 377315.000000 0 0 1
-19.280567 -9.779598 24.417589 32.612873 0.469411 0.724682 0.044144 -0.017133 152904.000000 0 0 1
-19.650567 -10.994198 25.026089 33.664853 0.510096 0.732673 0.043367 -0.014017 -91035.300000 0 0 1
-18.747667 -11.173398 26.067089 33.997250 0.537465 0.697047 0.051393 -0.015828 -693959.000000 0 0 1
-19.105567 -12.487698 26.730989 35.149837 0.578913 0.706734 0.049488 -0.025275 -144602.000000 0 0 1
-20.170167 -12.531198 27.647589 36.445243 0.555915 0.709625 0.064046 -0.021474 -345359.000000 0 0 1
-21.355167 -12.782498 26.899589 36.647282 0.539365 0.746584 0.049751 -0.016107 400233.000000 0 0 1
-22.609567 -13.075898 27.827389 38.164581 0.524337 0.753729 0.050132 -0.021271 805203.000000 0 0 1
-22.764367 -14.319398 28.497389 39.183705 0.561490 0.756451 0.047710 -0.018605 -256688.000000 0 0 1
-21.868267 -14.492898 29.590089 39.545399 0.585277 0.725367 0.046460 -0.018336 -41593.600000 0 0 1
-22.366867 -15.364898 30.756189 41.015851 0.601913 0.722944 0.039761 -0.019457 -612559.000000 0 0 1
-22.470767 -16.724998 30.376089 41.320306 0.639843 0.744927 0.040024 -0.017638 -126854.000000 0 0 1
-22.573767 -17.601098 31.535089 42.589147 0.662249 0.737058 0.047084 -0.016918 -116502.000000 0 0 1
-23.947967 -17.935698 32.146689 43.915874 0.642825 0.749534 0.041669 -0.014658 -183035.000000 0 0 1
-24.441367 -16.883598 32.972489 44.380416 0.604511 0.733327 0.052133 -0.019103 129209.000000 0 0 1
-25.781967 -17.126398 33.371589 45.515781 0.586347 0.747799 0.054548 -0.025485 21007.400000 0 0 1
-26.420267 -15.975098 34.152789 46.039627 0.543834 0.735027 0.058374 -0.026543 -175893.000000 0 0 1
-25.794887 -15.727998 -33.120249 44.829645 0.547546 2.402088 0.058964 -0.023579 85062.600000 0 0 1
-26.471687 -14.665798 -32.454049 44.374556 0.505923 2.391119 0.065787 -0.027077 -256466.000000 0 0 1
-25.883957 -14.317698 -31.071849 42.900298 0.505258 2.380787 0.058341 -0.020066 -287886.000000 0 0 1
-26.155997 -15.269998 -30.031149 42.651834 0.528426 2.351951 0.065490 -0.016846 244440.000000 0 0 1
-25.512097 -14.922498 -28.794949 41.263751 0.529256 2.343155 0.065130 -0.009115 102995.000000 0 0 1
-26.095197 -15.680198 -27.575649 41.076080 0.541070 2.306800 0.058037 -0.011274 747616.000000 0 0 1
-27.307527 -15.230198 -26.943549 41.274869 0.508758 2.282049 0.058304 -0.014821 694861.000000 0 0 1
-27.219827 -14.051698 -26.152949 40.278356 0.476547 2.277467 0.052387 -0.016572 -601676.000000 0 0 1
-26.305177 -14.133898 -24.916849 38.891886 0.493044 2.266166 0.042125 -0.021102 236840.000000 0 0 1
-24.940867 -13.881998 -25.258549 38.114971 0.507894 2.295206 0.029146 -0.023338 1263360.000000 0 0 1
-23.927967 -14.199798 -24.273149 36.923809 0.535582 2.288139 0.023208 -0.019554 818777.000000 0 0 1
-23.500267 -15.702098 -24.303349 37.275612 0.589040 2.281003 0.018721 -0.011919 -438304.000000 0 0 1
-22.828167 -16.029298 -25.523249 37.808728 0.612182 2.311846 0.030814 0.000660 355796.000000 0 0 1
-22.213967 -17.331198 -25.498349 37.999955 0.662547 2.306366 0.034199 0.001870 328871.000000 0 0 1
-21.376567 -17.631298 -26.799349 38.549000 0.689678 2.339497 0.021120 0.002784 320825.000000 0 0 1
-22.141967 -17.588798 -27.993349 39.790202 0.671295 2.351140 0.034067 0.001072 225934.000000 0 0 1
-22.985767 -18.713398 -28.194949 40.908336 0.683297 2.331212 0.034666 -0.002960 -378560.000000 0 0 1
-23.652867 -18.549198 -29.535849 42.141396 0.665048 2.347420 0.041702 -0.015259 -327644.000000 0 0 1
-22.767567 -18.690098 -30.609749 42.481039 0.687361 2.375393 0.033520 -0.013234 221268.000000 0 0 1
-23.483767 -18.374898 -31.791249 43.586784 0.663948 2.388209 0.039148 -0.017961 189950.000000 0 0 1
-22.642467 -18.665098 -33.098849 44.233483 0.689407 2.416256 0.040139 -0.019266 -753491.000000 0 0 1
-21.515667 -17.831298 -33.157249 43.362222 0.692032 2.441306 0.041457 -0.015200 163699.000000 0 0 1
-20.293267 -18.539698 -32.909049 42.878230 0.740272 2.445729 0.037841 -0.016852 335554.000000 0 0 1
-19.821267 -19.732498 -33.796449 43.868601 0.783154 2.450267 0.042722 -0.020928 -1231000.000000 0 0 1
-19.339867 -19.367498 33.443689 43.215863 0.786112 0.685859 0.037220 -0.020124 61102.600000 0 0 1
-19.224967 -20.448798 32.517989 42.955469 0.816236 0.712062 0.036500 -0.017888 121561.000000 0 0 1
-20.537267 -21.059298 31.909589 43.399254 0.797947 0.744751 0.044241 -0.017670 364376.000000 0 0 1
-21.257967 -21.792798 32.888389 44.815994 0.797821 0.746818 0.049733 -0.016146 24464.600000 0 0 1
-22.504367 -22.369298 32.543989 45.452649 0.782388 0.772744 0.059061 -0.008376 105933.000000 0 0 1
-22.447467 -23.463198 31.471789 45.220393 0.807519 0.801034 0.056577 -0.002821 -681950.000000 0 0 1
-22.098367 -24.677998 32.035089 46.082408 0.840491 0.802141 0.053467 -0.002367 -151074.000000 0 0 1
-22.230667 -25.723298 31.092489 46.072047 0.858103 0.830012 0.059071 -0.000291 -113711.000000 0 0 1
-21.764067 -27.032488 31.736089 47.027751 0.892949 0.830052 0.072540 -0.010993 -333544.000000 0 0 1
-22.536867 -27.590598 32.744189 48.387327 0.885876 0.827511 0.048339 -0.010622 -797268.000000 0 0 1
-21.864567 -28.604788 33.440989 49.138508 0.918163 0.822289 0.051199 -0.012148 -1330950.000000 0 0 1
-22.738067 -29.371478 -34.065349 50.399915 0.912015 2.312983 0.048887 -0.009373 -269593.000000 0 0 1
-23.760967 -30.189918 33.849089 51.203277 0.904002 0.848549 0.035561 -0.008020 690821.000000 0 0 1
-24.849967 -29.409898 33.344789 50.934644 0.869240 0.857066 0.024892 -0.003171 -554002.000000 0 0 1
-25.869357 -28.939088 -34.066949 51.645440 0.841348 2.291124 0.015882 -0.000541 -534894.000000 0 0 1
-26.858297 -28.081608 33.960289 51.606648 0.807661 0.852556 0.010192 0.000978 -180871.000000 0 0 1
-27.817997 -27.707898 -33.571849 51.658859 0.783415 2.278218 0.006266 0.012277 472942.000000 0 0 1
-28.894967 -26.811008 34.256689 52.223271 0.748006 0.855335 -0.008895 0.011761 -306178.000000 0 0 1
-29.862417 -27.477748 33.558089 52.658674 0.743834 0.879838 -0.007507 0.013847 -660374.000000 0 0 1
-30.940097 -26.661688 33.135789 52.593876 0.711259 0.889203 0.003680 0.010649 327023.000000 0 0 1
