# x y z rho theta phi s1 s2 stress_xx np intf bulk
-0.803857 -10.831744 -14.422065 18.054607 1.496719 2.496098 -0.002602 0.008938 -1455310.000000 1 0 0
2.147243 -13.595044 -13.092565 18.996082 -1.414147 2.331215 0.012502 0.016405 1072770.000000 1 0 0
2.084343 -11.208444 -14.800465 18.682277 -1.386935 2.485234 0.001100 0.016899 1386930.000000 1 0 0
-5.610357 -6.312444 -16.407465 18.453400 0.844216 2.666236 0.019152 -0.006951 -1272670.000000 1 0 0
4.561743 -14.240444 -11.478265 18.850738 -1.260788 2.225473 0.013317 0.008512 1894240.000000 1 0 0
13.966643 -10.572344 -7.922865 19.225331 -0.647948 1.995560 0.049213 -0.009476 -1057750.000000 1 0 0
7.012843 10.832456 -10.778465 16.813607 0.996257 2.266670 0.050406 -0.029718 -13144.400000 1 0 0
5.770743 -4.209044 -12.535265 14.427418 -0.630171 2.623671 0.001880 -0.001325 3344160.000000 1 0 0
13.690843 0.543056 -10.114965 17.030755 0.039645 2.206723 0.028050 -0.002379 1003270.000000 1 0 0
14.138543 5.107456 -10.469065 18.319002 0.346656 2.179113 0.029036 -0.004678 -1347800.000000 1 0 0
4.141943 4.273756 -13.504265 14.757569 0.801060 2.726487 0.005613 -0.004096 1446870.000000 1 0 0
10.350243 -4.968644 -13.745865 17.909879 -0.447561 2.445731 0.039312 -0.000597 -587424.000000 1 0 0
2.590843 -7.588444 -12.004065 14.435876 -1.241786 2.552678 -0.001962 0.005807 1692350.000000 1 0 0
-5.581957 -1.995644 -15.160465 16.278223 0.343356 2.768856 0.017476 -0.007650 1931610.000000 1 0 0
10.719543 0.026656 -9.705065 14.460207 0.002487 2.306564 0.013751 0.001342 1449480.000000 1 0 0
-1.685957 -9.459244 -16.891765 19.433257 1.394415 2.624418 0.005690 -0.005908 877313.000000 1 0 0
8.718543 1.548256 -17.786065 19.868422 0.175750 2.679660 0.042235 -0.010448 -1286650.000000 1 0 0
16.430243 -5.809044 -8.847565 19.544239 -0.339841 2.040581 0.093584 -0.016457 -1596090.000000 1 0 0
10.147643 7.577156 -10.014365 16.145447 0.641380 2.239870 0.041820 -0.014308 475085.000000 1 0 0
13.913343 -2.272344 -10.650965 17.668834 -0.161892 2.217816 0.052488 -0.008319 -550479.000000 1 0 0
7.278743 -1.858044 -13.606365 15.542381 -0.249932 2.637134 0.015775 -0.008641 1245080.000000 1 0 0
-2.721757 6.645356 -13.713265 15.479740 -1.182065 2.659194 0.003107 -0.012120 878479.000000 1 0 0
11.297643 1.883956 -13.945265 18.045954 0.165236 2.453981 0.036937 -0.008199 918571.000000 1 0 0
-2.332357 10.646856 -12.859065 16.856779 -1.355138 2.438494 0.006470 -0.009829 -840143.000000 1 0 0
2.909643 -1.061844 -15.189465 15.502044 -0.349922 2.940437 0.008356 -0.007705 1178430.000000 1 0 0
-9.077457 0.473156 -15.191165 17.702983 -0.052077 2.602380 0.016578 -0.001033 -1074150.000000 1 0 0
2.287843 -1.724244 -17.947265 18.174476 -0.645836 2.983303 0.022920 -0.019850 1447490.000000 1 0 0
0.986043 7.827756 -13.068965 15.265775 1.445489 2.598464 0.001728 -0.010011 -265504.000000 1 0 0
9.317043 -9.144344 -9.951765 16.415357 -0.776044 2.222130 0.021364 0.002556 -27189.400000 1 0 0
3.889343 7.258256 -13.492565 15.806916 1.078881 2.593627 0.002507 -0.007272 639313.000000 1 0 0
-2.764157 9.003956 -15.409465 18.059995 -1.272936 2.592958 0.002662 -0.011253 -1026490.000000 1 0 0
5.491843 -7.675344 -15.303065 17.979295 -0.949732 2.588967 0.009436 0.002922 -130643.000000 1 0 0
4.291443 7.223356 -16.322065 18.357646 1.034722 2.666205 0.010909 -0.005677 -486543.000000 1 0 0
-0.148057 5.086256 -13.484365 14.412495 -1.541695 2.780758 0.007600 -0.012222 1312720.000000 1 0 0
8.851643 4.274156 -16.582465 19.276881 0.449847 2.606508 0.034622 -0.006140 -1138930.000000 1 0 0
5.333243 0.337256 -14.301765 15.267538 0.063152 2.784004 0.004381 -0.004362 -76418.900000 1 0 0
6.193843 7.977356 -11.587365 15.371042 0.910595 2.424689 0.016275 -0.012961 221163.000000 1 0 0
2.674943 -8.393344 -15.004765 17.399613 -1.262275 2.610713 0.003535 0.002624 133463.000000 1 0 0
3.994943 11.435156 -13.853965 18.402573 1.234695 2.423144 0.026545 -0.021895 -362812.000000 1 0 0
0.625343 -4.561644 -13.678165 14.432320 -1.434558 2.816889 0.007993 -0.002306 2830450.000000 1 0 0
8.487943 -0.016844 -11.630865 14.398697 -0.001984 2.511159 0.004427 -0.004936 -663600.000000 1 0 0
-0.944157 -4.966444 -16.222665 16.992112 1.382931 2.839505 0.007601 -0.011067 -372534.000000 1 0 0
4.520043 0.908756 -11.647565 12.526867 0.198405 2.764684 0.003922 -0.005149 2214320.000000 1 0 0
-2.955557 -7.117144 -15.556365 17.360575 1.177193 2.681642 0.004546 -0.003960 3227590.000000 1 0 0
11.426343 -3.790344 -11.448865 16.613384 -0.320298 2.331091 0.033005 0.000433 843578.000000 1 0 0
6.543443 -7.058344 -12.571265 15.832674 -0.823236 2.488170 0.007533 0.003855 -216471.000000 1 0 0
3.480543 -3.971544 -14.645665 15.568649 -0.851191 2.795529 0.011361 -0.006188 2726860.000000 1 0 0
-0.591357 -1.475244 -18.280765 18.349725 1.189554 3.054869 0.031250 -0.020533 153071.000000 1 0 0
14.854843 3.009956 -8.526165 17.390275 0.199918 2.083211 0.012103 -0.002938 -1698080.000000 1 0 0
6.937043 4.325956 -14.302565 16.474217 0.557594 2.622317 0.009207 -0.002477 2905520.000000 1 0 0
10.089743 -9.840044 -14.080565 19.922141 -0.772870 2.355732 0.059406 -0.002239 535519.000000 1 0 0
8.909143 -3.289144 -15.584165 18.249863 -0.353665 2.594294 0.048313 -0.013506 -1359310.000000 1 0 0
-5.347457 -2.134144 -18.069065 18.964203 0.379726 2.833121 0.014369 0.002840 953691.000000 1 0 0
5.061443 -9.102144 -11.174965 15.275702 -1.063304 2.391391 -0.004106 0.006744 1264790.000000 1 0 0
-2.414857 3.933056 -17.021465 17.636064 -1.020153 2.876816 0.012787 -0.005539 1045870.000000 1 0 0
9.086143 9.584456 -14.471865 19.592209 0.812082 2.401868 0.082781 -0.026879 -2717660.000000 1 0 0
9.759243 10.076256 -11.560165 18.177216 0.801379 2.260061 0.060423 -0.031975 787419.000000 1 0 0
12.014943 -5.943244 -9.741865 16.570604 -0.459362 2.199257 0.036470 0.001793 -635224.000000 1 0 0
7.998143 7.038856 -13.731065 17.379814 0.721689 2.481700 0.024718 -0.010143 508928.000000 1 0 0
3.895843 -4.128244 -17.492565 18.390482 -0.814353 2.827817 0.028131 -0.019671 900040.000000 1 0 0
9.400043 -7.522544 -12.436565 17.309466 -0.674904 2.372416 0.032943 0.002832 749079.000000 1 0 0
11.985543 -8.700144 -8.839365 17.247612 -0.627889 2.108888 0.040559 -0.006548 1801540.000000 1 0 0
-2.923257 -2.389044 -13.910765 14.413964 0.685174 2.876581 0.009303 -0.007574 -2984530.000000 1 0 0
-0.427357 6.109056 -17.595365 18.630622 -1.500955 2.806660 0.019974 -0.006625 2977090.000000 1 0 0
1.023643 -8.330944 -17.500765 19.409514 -1.448537 2.694387 0.010246 -0.008960 1154160.000000 1 0 0
-0.004057 8.465156 -15.855965 17.974162 -1.570317 2.651211 0.007701 -0.009962 -1370930.000000 1 0 0
1.848043 3.333956 -14.997165 15.474026 1.064651 2.892689 0.016838 -0.006751 1691710.000000 1 0 0
-2.028857 -0.331144 -15.836965 15.969827 0.161790 3.012510 0.017896 -0.011720 2593090.000000 1 0 0
14.043543 -4.284644 -8.430865 16.931000 -0.296126 2.092035 0.050497 -0.006750 630458.000000 1 0 0
0.565543 0.644856 -14.502465 14.527807 0.850831 3.082519 0.011998 -0.008842 1496290.000000 1 0 0
8.873043 2.823656 -12.528265 15.609656 0.308095 2.502433 0.010887 -0.002646 2371770.000000 1 0 0
6.003143 0.947356 -16.959465 18.015512 0.156519 2.797498 0.021465 -0.006827 -507045.000000 1 0 0
15.349143 1.479356 -12.441965 19.813813 0.096084 2.249705 0.059758 -0.015335 72115.200000 1 0 0
8.727443 -11.343644 -12.004065 18.680045 -0.915014 2.268702 0.035219 0.004221 328471.000000 1 0 0
-4.698957 0.798256 -15.073465 15.809072 -0.168273 2.835338 0.015855 -0.007549 -104465.000000 1 0 0
2.412243 5.195156 -17.266565 18.191834 1.136093 2.821284 0.018916 -0.006364 1312160.000000 1 0 0
5.875643 -11.766844 -12.356365 18.046095 -1.107678 2.325004 0.007042 0.005615 1082620.000000 1 0 0
12.817743 7.236356 -8.817765 17.158449 0.513951 2.110524 0.023965 -0.010780 596872.000000 1 0 0
-5.014857 3.694156 -15.630765 16.826063 -0.634897 2.762394 0.008923 -0.006002 1520370.000000 1 0 0
-0.564157 -4.331744 -19.023065 19.518178 1.441287 2.915873 0.023304 -0.020743 -1885430.000000 1 0 0
9.854943 4.448656 -10.307365 14.938280 0.424029 2.332281 0.009954 -0.002608 1110050.000000 1 0 0
13.407643 3.640556 -12.993565 19.022389 0.265136 2.322750 0.056550 -0.009786 437929.000000 1 0 0
-6.159257 5.985556 -17.099965 19.135625 -0.771097 2.676142 0.007958 -0.002477 -1047870.000000 1 0 0
-10.051957 3.222456 -15.467465 18.726146 -0.310229 2.542739 0.016138 -0.000066 -539852.000000 1 0 0
10.756443 13.366656 -8.510765 19.152067 0.893183 2.031277 0.092800 -0.028401 573084.000000 1 0 0
7.320643 13.386056 -12.323365 19.612334 1.070347 2.250224 0.092678 -0.040798 -1143790.000000 1 0 0
5.262543 15.119656 -11.243565 19.563131 1.235851 2.183073 0.055104 -0.032732 -818852.000000 1 0 0
14.625043 9.479756 -9.739065 19.965146 0.575099 2.080368 0.109360 -0.025229 1130370.000000 1 0 0
8.361843 -17.148744 -2.182065 19.203157 -1.117112 1.684673 0.025397 -0.002575 324111.000000 1 0 0
0.746643 -16.027944 0.141535 16.045950 -1.524246 1.561976 0.023247 -0.018957 2226710.000000 1 0 0
-9.107357 -11.706644 7.687935 16.706101 0.909637 1.092590 0.031145 -0.007915 -992268.000000 1 0 0
2.012843 -15.961144 -2.448665 16.272849 -1.445350 1.721846 0.021163 -0.011741 3163290.000000 1 0 0
-1.312857 -11.117644 -9.411965 14.625686 1.453253 2.269888 0.000502 0.004070 1516330.000000 1 0 0
-4.751957 -12.551444 -12.983565 18.673318 1.208875 2.339634 0.016232 -0.000459 -127384.000000 1 0 0
-8.241757 -17.960044 -1.597665 19.825294 1.140571 1.651471 0.042665 -0.018543 -734833.000000 1 0 0
-11.416757 -7.104744 -8.861865 16.104421 0.556661 2.153490 0.022486 -0.005951 2574030.000000 1 0 0
-13.684457 -11.666944 -4.579465 18.556763 0.705984 1.820154 0.037256 -0.001176 -1394090.000000 1 0 0
-5.781157 -13.560444 9.786935 17.694392 1.167804 0.984704 0.029764 -0.007067 884973.000000 1 0 0
0.143643 -14.071744 -3.595565 14.524555 -1.560589 1.820948 0.013456 -0.005162 586338.000000 1 0 0
-14.745157 -11.489744 2.089435 18.809562 0.661942 1.459483 0.020817 -0.005540 150962.000000 1 0 0
-3.965957 -16.637244 -7.405865 18.637960 1.336785 1.979428 0.018069 -0.009013 257075.000000 1 0 0
0.503743 -15.358744 -9.273665 17.948416 -1.538010 2.113770 0.007468 0.008488 550041.000000 1 0 0
4.584743 -14.193344 -2.484765 15.121010 -1.258356 1.735870 0.020777 -0.004876 383411.000000 1 0 0
-3.435157 -18.136344 -2.294765 18.600893 1.383606 1.694480 0.030109 -0.026525 1313890.000000 1 0 0
-0.971457 -13.608544 0.729735 13.662676 1.499531 1.517360 0.016430 -0.009496 2629480.000000 1 0 0
-8.589557 -11.434744 -10.541465 17.766720 0.926540 2.205981 0.029124 -0.005936 1535590.000000 1 0 0
-3.771257 -14.133644 -0.373565 14.632902 1.310043 1.596328 0.008574 -0.006406 4826550.000000 1 0 0
-1.588857 -15.028344 -7.268765 16.769333 1.465464 2.019120 0.007159 0.004090 1346320.000000 1 0 0
-14.194357 -7.991144 -1.814365 16.389938 0.512754 1.681724 0.016105 0.001719 1840520.000000 1 0 0
-10.766257 -7.344744 -11.721165 17.528356 0.598680 2.303252 0.033471 -0.007922 320689.000000 1 0 0
-9.530757 -14.671644 6.889235 18.803032 0.994700 1.195671 0.027443 -0.008678 205849.000000 1 0 0
-2.435557 -14.253944 -12.321665 18.998165 1.401562 2.276502 0.016768 0.002399 -551611.000000 1 0 0
2.324243 -17.788944 -4.666665 18.537163 -1.440876 1.825281 0.036511 -0.016538 -791745.000000 1 0 0
-6.665757 -9.779444 -9.212965 14.998286 0.972520 2.232254 0.016120 -0.004353 -1280890.000000 1 0 0
-10.892057 -15.385644 0.430935 18.855786 0.954764 1.547940 0.032175 -0.010234 83512.900000 1 0 0
-12.690857 -10.976744 4.180935 17.292397 0.713100 1.326598 0.029257 -0.007313 2069600.000000 1 0 0
-17.014357 -8.937744 -1.643865 19.289218 0.483687 1.656122 0.021036 -0.004461 1116290.000000 1 0 0
-1.262457 -19.162944 -3.767765 19.570597 1.505011 1.764528 0.045058 -0.023670 -453857.000000 1 0 0
3.257043 -14.428144 -8.797865 17.209942 -1.348775 2.107386 0.016053 0.002469 702932.000000 1 0 0
-4.241157 -7.963644 -13.049265 15.864752 1.081437 2.536645 0.009774 -0.000243 262288.000000 1 0 0
5.594843 -16.601244 1.292435 17.566273 -1.245737 1.497155 0.024487 -0.012762 4095330.000000 1 0 0
-2.817357 -13.831444 -3.163865 14.465697 1.369853 1.791294 0.006366 -0.004578 -264826.000000 1 0 0
-0.419557 -14.014944 3.736735 14.510612 1.540869 1.310344 0.019929 -0.005894 -2320750.000000 1 0 0
1.220743 -16.172844 7.018935 17.672480 -1.495458 1.162368 0.027357 -0.007990 2422360.000000 1 0 0
-5.525457 -10.247344 -14.597765 18.671729 1.076276 2.468362 0.024233 -0.005273 -646283.000000 1 0 0
-0.267157 -17.325144 -5.858065 18.290678 1.555377 1.896817 0.029356 -0.010881 -351108.000000 1 0 0
-6.547057 -13.449144 -1.300165 15.014455 1.117764 1.657499 0.004729 -0.003243 1706200.000000 1 0 0
-1.719057 -17.736544 0.038835 17.819699 1.474176 1.568617 0.026207 -0.021651 2278830.000000 1 0 0
-9.538457 -9.832944 -4.799465 14.515641 0.800599 1.907779 0.013259 0.000276 1005560.000000 1 0 0
-0.831857 -16.688844 4.914935 17.417408 1.520992 1.284725 0.039703 -0.014173 2907750.000000 1 0 0
-6.876457 -10.000644 -6.280165 13.665249 0.968440 2.048310 0.012214 -0.001892 1641360.000000 1 0 0
-6.073057 -14.606544 -8.500965 17.958273 1.176764 2.063913 0.015766 -0.005203 -683407.000000 1 0 0
-5.772857 -12.310044 -10.250565 17.027541 1.132292 2.216799 0.019452 -0.002417 1339890.000000 1 0 0
-10.753957 -12.147744 -8.675965 18.398034 0.846183 2.061867 0.039419 -0.015238 -162684.000000 1 0 0
4.015243 -17.125344 6.552335 18.770527 -1.340494 1.214212 0.035378 -0.009111 1657600.000000 1 0 0
-6.603757 -14.529144 -4.028165 16.460005 1.144192 1.818032 0.019572 -0.010241 -136322.000000 1 0 0
-2.846157 -12.306544 -7.055165 14.468137 1.343520 2.080175 0.006887 0.000675 3101250.000000 1 0 0
-7.113457 -12.849144 4.528035 15.368958 1.065183 1.271736 0.010179 -0.003123 2092810.000000 1 0 0
2.663843 -16.353444 2.428935 16.746072 -1.409323 1.425238 0.027487 -0.017965 1297840.000000 1 0 0
-6.259057 -11.995444 7.290035 15.369160 1.089872 1.076595 0.014003 -0.004576 1016200.000000 1 0 0
-11.302357 -12.838344 -0.824265 17.124420 0.848939 1.618949 0.035002 -0.000433 1474400.000000 1 0 0
-14.287657 -8.692044 4.719235 17.376995 0.546544 1.295763 0.018012 -0.006880 1221330.000000 1 0 0
-8.123757 -15.586144 4.532135 18.151131 1.090320 1.318437 0.018905 0.003582 760119.000000 1 0 0
-16.561857 -9.165944 1.189135 18.966383 0.505478 1.508058 0.012444 -0.001179 988590.000000 1 0 0
-6.712357 -17.037644 2.474035 18.478580 1.195497 1.436506 0.018814 -0.008726 1057010.000000 1 0 0
-11.559157 -15.010944 -4.492865 19.471220 0.914587 1.803638 0.058152 -0.002952 219325.000000 1 0 0
-10.159457 -10.036144 -12.567165 19.022944 0.779292 2.292457 0.032901 -0.006467 -2004470.000000 1 0 0
-4.296157 -16.109844 -4.467165 17.260927 1.310182 1.832578 0.008337 -0.012956 -1684200.000000 1 0 0
-11.836057 -8.304044 0.016035 14.458550 0.611791 1.569687 -0.001063 0.002811 2168640.000000 1 0 0
-9.674757 -11.164544 3.641935 15.215507 0.856766 1.329093 0.013059 0.000158 2335040.000000 1 0 0
-14.252357 -13.059144 -0.383865 19.334381 0.741737 1.590652 0.033506 0.008198 -859791.000000 1 0 0
5.622143 -14.950744 -7.082065 17.472518 -1.211110 1.988132 0.018573 -0.010793 1138560.000000 1 0 0
-7.471257 -10.652644 -1.211365 13.067743 0.959163 1.663628 0.007035 0.000298 2342240.000000 1 0 0
-11.590857 -8.315544 -6.075265 15.505002 0.622324 1.973412 0.012853 -0.001180 104802.000000 1 0 0
-14.405557 -6.632644 -9.237265 18.353177 0.431487 2.098217 0.034262 -0.014442 2569860.000000 1 0 0
-3.980957 -16.468244 1.532435 17.011744 1.333611 1.480593 0.022244 -0.014145 88158.200000 1 0 0
-7.904757 -15.524344 0.206735 17.422204 1.099828 1.558930 0.027829 -0.008504 1227360.000000 1 0 0
1.039843 -18.522644 3.700035 18.917185 -1.514716 1.373936 0.034513 -0.021469 -57319.300000 1 0 0
-14.098857 -8.816744 -4.600665 17.253373 0.558852 1.840715 0.019794 -0.005127 -878274.000000 1 0 0
-3.335657 -14.545644 11.084535 18.589494 1.345371 0.931938 0.014796 -0.010687 1331200.000000 1 0 0
-10.928957 -12.156044 -3.681565 16.756057 0.838503 1.792319 0.030890 -0.008561 1610430.000000 1 0 0
-10.015857 -10.695044 0.669135 14.667962 0.818180 1.525162 0.008054 0.002881 1988300.000000 1 0 0
0.000843 -13.218544 -11.155565 17.296720 -1.570733 2.271758 0.009603 0.004203 495249.000000 1 0 0
-5.867457 -12.776044 -6.301765 15.406706 1.140273 1.992184 0.007383 -0.005661 1262810.000000 1 0 0
1.729843 -15.872044 9.892435 18.782290 -1.462238 1.016095 0.020344 -0.002328 493525.000000 1 0 0
-8.977157 -15.766844 -5.407065 18.931959 1.053204 1.860434 0.052839 -0.011702 -1411410.000000 1 0 0
-3.319857 -15.452444 5.914835 16.875567 1.359170 1.212695 0.017270 -0.009467 -769561.000000 1 0 0
-17.557957 -5.491144 -6.537765 19.523752 0.303107 1.912255 0.040283 -0.010444 1376790.000000 1 0 0
18.944543 5.530656 -2.925765 19.951039 0.284045 1.717974 0.029732 -0.001145 124345.000000 1 0 0
12.720943 -12.386444 -5.909465 18.712781 -0.772076 1.892094 0.032563 -0.005866 -176056.000000 1 0 0
11.024843 -13.446544 -1.592365 17.461166 -0.884038 1.662118 0.021921 -0.007179 2471420.000000 1 0 0
18.730943 -2.805344 4.532335 19.474605 -0.148666 1.335912 0.072310 -0.011910 -627738.000000 1 0 0
8.596143 -16.930544 5.102535 19.661456 -1.100984 1.308272 0.038420 -0.017525 -1250680.000000 1 0 0
18.085643 -0.985144 6.741235 19.326283 -0.054417 1.214493 0.101485 -0.021405 -1546840.000000 1 0 0
18.148843 -4.097844 -5.124265 19.298469 -0.222067 1.839547 0.111717 -0.018595 841277.000000 1 0 0
5.031243 -11.667144 14.964135 19.630614 -1.163659 0.703959 -0.002806 0.003450 -302822.000000 1 0 0
15.959243 -8.898444 -0.774965 18.288803 -0.508639 1.613183 0.049041 -0.011265 -725724.000000 1 0 0
13.859743 -12.513644 -1.318765 18.719586 -0.734402 1.641303 0.038056 -0.005941 153844.000000 1 0 0
11.325943 -1.955444 13.963035 18.084996 -0.170966 0.688691 0.028655 -0.004099 -1733660.000000 1 0 0
17.010443 -6.119744 -1.519565 18.141541 -0.345347 1.654656 0.068233 -0.015327 310324.000000 1 0 0
17.834043 3.554956 -1.101865 18.218257 0.196756 1.631315 0.022309 0.004344 781279.000000 1 0 0
9.754043 -11.071444 9.635435 17.622708 -0.848573 0.992304 0.032032 -0.005884 396372.000000 1 0 0
9.108743 -11.096544 4.369435 15.006480 -0.883463 1.275347 0.011057 -0.005252 -799216.000000 1 0 0
14.112243 -10.049844 6.960435 18.670898 -0.618825 1.188776 0.045289 -0.011444 576917.000000 1 0 0
16.276043 -0.542444 -4.768065 16.968744 -0.033315 1.855623 0.042797 -0.006066 -1279860.000000 1 0 0
15.803043 -0.456044 -1.740365 15.905125 -0.028850 1.680438 0.038886 -0.003022 -198681.000000 1 0 0
12.982243 -5.179544 -0.266565 13.979891 -0.379619 1.589865 0.013991 -0.004943 1407850.000000 1 0 0
14.395943 -7.481944 1.090335 16.260734 -0.479303 1.503693 0.038060 -0.008009 640574.000000 1 0 0
15.488543 2.419356 3.569535 16.077619 0.154951 1.346912 0.018741 -0.005730 1509960.000000 1 0 0
16.022343 -7.092844 5.005835 18.223125 -0.416754 1.292522 0.058683 -0.010767 -1296570.000000 1 0 0
13.740243 -12.067944 3.379135 18.596992 -0.720691 1.388078 0.034581 -0.009506 1277790.000000 1 0 0
13.930243 -0.994744 9.171235 16.707864 -0.071288 0.989728 0.049366 -0.013922 1760270.000000 1 0 0
14.200843 -2.778844 -1.643265 14.563181 -0.193240 1.683874 0.016243 -0.004887 -75994.200000 1 0 0
14.934943 1.747456 9.250835 17.654576 0.116475 1.019267 0.062193 -0.011637 -1863280.000000 1 0 0
14.267443 -10.070444 -2.983065 17.716446 -0.614631 1.739981 0.044192 -0.012936 847582.000000 1 0 0
7.344743 -12.658144 6.190935 15.890297 -1.045034 1.170594 0.004101 -0.003947 1442280.000000 1 0 0
12.416643 -4.644144 6.893435 14.941905 -0.357916 1.091281 0.014807 -0.005953 3392970.000000 1 0 0
14.926643 -8.985044 -5.677565 18.324040 -0.541850 1.885824 0.066795 -0.013083 856148.000000 1 0 0
14.429243 -4.532144 4.653335 15.823934 -0.304337 1.272315 0.024786 -0.007472 1426710.000000 1 0 0
17.129343 -4.236544 0.887835 17.667794 -0.242461 1.520524 0.045677 -0.009354 -1400840.000000 1 0 0
10.212743 -14.403344 1.163135 17.694895 -0.954020 1.505016 0.024740 -0.011082 -6829.910000 1 0 0
16.362043 -2.455944 8.578435 18.636997 -0.148988 1.092474 0.092433 -0.020197 688754.000000 1 0 0
16.061943 -2.585544 3.218335 16.583990 -0.159604 1.375494 0.030344 -0.003576 1879980.000000 1 0 0
7.810743 -15.298244 2.753935 17.396210 -1.098733 1.411821 0.013044 -0.009020 1390610.000000 1 0 0
16.731143 -6.933544 7.886535 19.753547 -0.392866 1.160101 0.082124 -0.016579 552484.000000 1 0 0
10.366543 -8.554744 5.257935 14.432420 -0.689935 1.197900 0.013767 -0.004640 2312620.000000 1 0 0
10.990743 -11.865544 2.251435 16.329621 -0.823653 1.432481 0.018889 -0.009173 -87699.700000 1 0 0
12.307843 -7.248344 12.111335 18.727144 -0.532233 0.867512 0.052555 -0.023046 280508.000000 1 0 0
15.221843 -9.811844 4.337035 18.622209 -0.572562 1.335742 0.040005 -0.011931 867372.000000 1 0 0
7.342043 -10.238144 7.897435 14.869252 -0.948668 1.010868 0.008941 0.000567 2667230.000000 1 0 0
15.308343 -3.300544 -4.369665 16.258319 -0.212354 1.842907 0.053545 -0.004582 1879220.000000 1 0 0
11.835443 -8.959244 9.927535 17.857819 -0.647956 0.981326 0.045846 -0.013197 -1541950.000000 1 0 0
17.055143 -6.673344 2.413135 18.472537 -0.372967 1.439788 0.059817 -0.007380 1335510.000000 1 0 0
17.598043 3.883856 1.983835 18.130390 0.217216 1.461156 0.030139 0.002207 212980.000000 1 0 0
14.681843 -4.962344 8.717835 17.781508 -0.325937 1.058391 0.060338 -0.019986 504269.000000 1 0 0
12.965043 -12.646344 6.174535 19.134974 -0.772955 1.242233 0.048670 -0.010861 -585024.000000 1 0 0
18.281643 0.636756 -0.929965 18.316352 0.034816 1.621591 0.050641 -0.001327 -621596.000000 1 0 0
11.656143 -2.121944 11.070435 16.214896 -0.180073 0.819301 0.019928 -0.006273 1562620.000000 1 0 0
5.829343 -12.364444 10.741435 17.385026 -1.130240 0.904784 0.003066 0.002404 -2150200.000000 1 0 0
10.713543 -4.997044 11.115935 16.226967 -0.436427 0.816153 0.023634 -0.010266 104393.000000 1 0 0
17.802943 1.300756 5.083535 18.560147 0.072935 1.293356 0.057224 -0.009804 -1105200.000000 1 0 0
12.262143 -7.716144 7.283235 16.215565 -0.561661 1.104982 0.027805 -0.010001 -810849.000000 1 0 0
10.570143 -7.790944 14.322935 19.431243 -0.635175 0.742015 0.062534 -0.022755 -571295.000000 1 0 0
14.126043 -0.287344 3.694735 14.604065 -0.020339 1.315023 0.003429 -0.001412 3297680.000000 1 0 0
11.790243 -7.653544 2.645335 14.303299 -0.575772 1.384780 0.012835 -0.002289 1679250.000000 1 0 0
9.347043 6.059356 3.538635 11.687812 0.575154 1.263206 0.004470 0.001988 2207900.000000 1 0 0
-4.006757 14.685456 -9.983865 18.204238 -1.304441 2.151289 0.009842 -0.004286 -45089.200000 1 0 0
8.834443 -6.396744 9.322735 14.348488 -0.626698 0.863559 0.011197 -0.005717 -1050060.000000 1 0 0
5.798343 -10.631844 -8.500565 14.795827 -1.071511 2.182819 -0.002328 0.002371 690772.000000 1 0 0
5.419243 1.067256 0.536935 5.549372 0.194450 1.473889 0.002551 0.001071 2500310.000000 1 0 0
-0.517157 9.980856 10.840335 14.744416 -1.519028 0.744811 0.005540 0.001775 -21185.600000 1 0 0
-6.357857 -5.258144 1.050335 8.317069 0.691007 1.444172 0.010622 -0.000264 2493920.000000 1 0 0
-1.009157 3.896956 -10.894465 11.614389 -1.317402 2.787653 0.010651 -0.010017 2633510.000000 1 0 0
10.986543 5.755256 1.203335 12.460943 0.482542 1.474077 0.002864 0.001879 521365.000000 1 0 0
-10.141257 -1.796744 -13.545765 17.016496 0.175352 2.491516 0.020851 -0.005167 465290.000000 1 0 0
7.569343 10.891756 -6.115065 14.605455 0.963460 2.002792 0.013634 -0.008668 317504.000000 1 0 0
-12.504257 -2.886044 -9.586565 16.018362 0.226833 2.212391 0.019314 -0.005127 -292916.000000 1 0 0
-3.994557 -8.696544 2.578835 9.911446 1.140213 1.307580 0.012468 -0.000531 132721.000000 1 0 0
8.021443 -6.649444 -5.974265 12.010433 -0.692151 2.091422 -0.001307 -0.001002 2416890.000000 1 0 0
14.382843 3.127356 -4.237665 15.316799 0.214104 1.851121 0.016132 0.004393 825724.000000 1 0 0
-2.558857 -4.947844 9.743735 11.223604 1.093510 0.519340 0.004886 -0.001409 2041430.000000 1 0 0
3.493043 -1.923044 -4.536165 6.039556 -0.503254 2.420487 0.003986 -0.001313 -3699480.000000 1 0 0
-3.989957 8.399256 -3.425065 9.909507 -1.127318 1.923711 0.003226 -0.002731 -63548.200000 1 0 0
5.813243 0.056856 11.675135 13.042461 0.009780 0.461999 0.004928 -0.002501 594108.000000 1 0 0
7.142243 4.836556 12.409635 15.113006 0.595243 0.607421 0.006263 0.002125 -672652.000000 1 0 0
1.211343 -14.408544 12.396735 19.046063 -1.486922 0.862051 -0.004677 0.004145 -227541.000000 1 0 0
2.935643 8.784256 -9.101565 12.985362 1.248272 2.347468 0.002650 -0.004316 875531.000000 1 0 0
-4.523157 -8.924944 -4.572265 11.000872 1.101724 1.999429 0.014925 -0.000674 1785970.000000 1 0 0
5.633043 -6.653144 -4.197465 9.675444 -0.868236 2.019532 0.000368 -0.001538 1194950.000000 1 0 0
-3.120257 3.410756 8.595835 9.760002 -0.829849 0.493415 -0.000705 0.001176 964466.000000 1 0 0
-3.788357 3.044856 -11.031865 12.055076 -0.677018 2.726607 0.007128 -0.012233 185769.000000 1 0 0
3.080043 -6.129644 8.635935 11.028988 -1.105164 0.671287 0.003244 -0.002543 -503902.000000 1 0 0
-5.116757 -8.696244 10.553435 14.600714 1.038960 0.762947 0.010636 -0.001563 2245880.000000 1 0 0
-13.312457 -2.549844 6.529835 15.045330 0.189246 1.121856 0.020961 -0.008086 580588.000000 1 0 0
3.981843 -6.000044 -8.324665 11.007073 -0.984895 2.428437 0.002613 -0.001325 1899960.000000 1 0 0
2.915643 -0.515344 12.308735 12.659838 -0.174945 0.236063 0.005191 -0.003879 2176750.000000 1 0 0
1.369743 -1.490044 -7.489665 7.758319 -0.827440 2.877663 0.008119 -0.004289 -1489040.000000 1 0 0
3.664743 -3.492144 3.371335 6.082048 -0.761286 0.983264 0.002609 -0.000202 3042950.000000 1 0 0
1.554043 0.396456 -11.790165 11.898749 0.249785 3.006393 0.010991 -0.010390 -105596.000000 1 0 0
4.109243 3.563656 -10.611665 11.924469 0.714412 2.667937 0.000510 -0.004247 531892.000000 1 0 0
2.897543 3.245556 3.393635 5.517803 0.841989 0.908368 -0.003331 0.002782 923781.000000 1 0 0
-5.418157 0.863056 2.484835 6.022931 -0.157962 1.145531 0.006514 -0.002956 366777.000000 1 0 0
-9.526557 -9.281244 5.810135 14.513940 0.772356 1.158937 0.014343 -0.002739 -2365890.000000 1 0 0
-3.010357 3.751256 -0.676865 4.857192 -0.894537 1.710604 0.003600 -0.006948 1049210.000000 1 0 0
-15.900057 -6.473444 5.003435 17.881601 0.386641 1.287201 0.037162 -0.016748 650425.000000 1 0 0
1.038443 6.706056 -8.115865 10.579074 1.417165 2.445202 0.004841 -0.004674 -898259.000000 1 0 0
-1.568057 6.399456 -9.401965 11.480801 -1.330501 2.530339 0.006073 -0.006475 -549056.000000 1 0 0
2.126343 -0.300644 5.245035 5.667637 -0.140459 0.388612 0.004022 -0.000503 3568090.000000 1 0 0
-3.462757 -0.627044 -6.372965 7.280011 0.179141 2.637071 0.011258 -0.008943 538934.000000 1 0 0
1.904443 -1.142444 -2.458765 3.313247 -0.540334 2.406996 0.006455 -0.000107 228890.000000 1 0 0
2.477743 -8.735744 -7.600265 11.841303 -1.294422 2.267696 0.000722 0.001789 2595680.000000 1 0 0
-2.543457 14.053856 -5.576365 15.332185 -1.391755 1.943037 0.008615 0.000791 2678870.000000 1 0 0
6.845443 -5.093844 -8.247565 11.867167 -0.639729 2.339203 0.002080 -0.002453 2749700.000000 1 0 0
-14.205857 -5.031944 -2.116865 15.218671 0.340426 1.710345 0.006225 -0.001096 -139308.000000 1 0 0
-2.682957 6.865556 -6.810565 10.035832 -1.198259 2.316685 0.006845 -0.006169 -2220380.000000 1 0 0
-5.748057 -1.098844 -8.146365 10.030498 0.188889 2.518640 0.013430 -0.009412 -786816.000000 1 0 0
-5.757257 -10.700544 3.536335 12.655170 1.077186 1.287588 0.006585 -0.000776 -3343160.000000 1 0 0
8.142343 -7.558044 6.751435 13.000140 -0.748200 1.024723 0.005862 -0.004610 1225040.000000 1 0 0
8.755543 -5.892544 13.186235 16.889594 -0.592379 0.674961 0.030719 -0.012446 1052450.000000 1 0 0
-4.709157 9.510056 -0.751665 10.638718 -1.111015 1.641509 0.003053 -0.000312 1366120.000000 1 0 0
2.765943 6.712556 11.953035 13.985131 1.179941 0.545831 0.006077 -0.001323 1972420.000000 1 0 0
5.995743 -2.757244 10.978635 12.809440 -0.431029 0.541234 0.006593 -0.004302 -623118.000000 1 0 0
-9.689557 -6.487044 -1.100765 11.712427 0.589953 1.664918 0.008811 0.000186 1011.950000 1 0 0
0.929843 -13.352444 6.283135 14.786147 -1.501270 1.131907 0.012973 -0.000631 1308120.000000 1 0 0
-0.517457 -3.235544 8.604235 9.207028 1.412210 0.363863 0.002685 -0.002974 982712.000000 1 0 0
4.263643 0.756356 3.404035 5.508010 0.175570 0.904581 -0.002505 0.003707 1209710.000000 1 0 0
-10.165357 5.589656 8.208935 14.211452 -0.502746 0.954976 0.003356 -0.006543 849993.000000 1 0 0
9.471043 7.958656 -0.113565 12.371489 0.698844 1.579976 0.000863 -0.000090 -171142.000000 1 0 0
4.258343 2.892156 8.202535 9.683988 0.596612 0.560442 -0.005635 -0.000416 3832800.000000 1 0 0
1.413843 2.645856 -9.749065 10.200185 1.080039 2.843074 0.009616 -0.008627 2483320.000000 1 0 0
-1.441457 -10.206944 3.013135 10.739576 1.430501 1.286415 0.015810 -0.005495 -727971.000000 1 0 0
-9.951957 9.589156 9.041335 16.514815 -0.766834 0.991461 0.013273 -0.005828 1714010.000000 1 0 0
9.854643 -2.005944 -7.681865 12.654993 -0.200810 2.223105 0.013703 0.000015 1149570.000000 1 0 0
-5.216057 -1.882844 6.660235 8.666665 0.346415 0.694320 0.005847 -0.002442 2537510.000000 1 0 0
3.086743 -7.917544 -4.892365 9.805647 -1.199061 2.093164 0.000867 -0.002056 2048440.000000 1 0 0
-5.094757 4.924656 -12.933265 14.747140 -0.768423 2.640382 0.003962 -0.014446 2529420.000000 1 0 0
-5.651657 9.661056 5.373635 12.415844 -1.041484 1.123195 0.002656 0.001545 1410470.000000 1 0 0
-0.526057 -1.852244 -9.355565 9.551656 1.294072 2.938614 0.010443 -0.007460 203766.000000 1 0 0
-16.936857 0.293456 6.332235 18.084260 -0.017325 1.213063 0.046381 -0.014714 963165.000000 1 0 0
-6.013057 -2.877244 4.012935 7.780684 0.446300 1.028906 0.004718 -0.001603 2078600.000000 1 0 0
0.964643 -5.736544 -5.155865 7.773121 -1.404197 2.296008 0.006057 -0.003049 1467820.000000 1 0 0
-7.035457 1.380756 -8.479765 11.104529 -0.193794 2.439715 0.008163 -0.008051 913584.000000 1 0 0
8.003743 1.990156 4.745935 9.515488 0.243711 1.048630 -0.000827 0.002948 873387.000000 1 0 0
0.492843 -8.170044 -0.498965 8.200090 -1.510546 1.631683 0.010456 -0.000413 2297030.000000 1 0 0
5.547943 5.524656 -3.460765 8.560280 0.783295 1.986990 0.004354 0.001223 -209605.000000 1 0 0
-0.738957 -0.252844 -1.243565 1.468483 0.329676 2.580805 0.007056 -0.003512 197124.000000 1 0 0
9.153143 6.462556 -6.380765 12.894139 0.614773 2.088468 0.007373 -0.004831 1882580.000000 1 0 0
-15.033357 -7.104744 2.509535 16.815974 0.441487 1.421002 0.005910 -0.008546 1965830.000000 1 0 0
-6.371857 6.846156 8.893735 12.906159 -0.821266 0.810539 0.004295 0.000447 -1612590.000000 1 0 0
-9.512157 -3.178244 -9.639565 13.910557 0.322462 2.336393 0.014474 -0.003424 2116700.000000 1 0 0
14.986643 3.465456 -1.281765 15.435406 0.227242 1.653933 0.006096 0.006010 1973950.000000 1 0 0
12.174643 1.661856 -5.835165 13.602678 0.135663 2.014151 0.011434 0.001810 510585.000000 1 0 0
1.569143 -9.354044 12.724235 15.870303 -1.404594 0.640556 -0.012053 -0.000809 -2102720.000000 1 0 0
-3.588957 6.354556 7.841535 10.712174 -1.056673 0.749513 -0.001127 0.001620 2039250.000000 1 0 0
-4.159957 12.972656 -12.366265 18.398901 -1.260485 2.307864 0.004005 -0.010465 577418.000000 1 0 0
-10.204557 7.840456 6.420535 14.381551 -0.655129 1.108011 0.005381 -0.007083 972276.000000 1 0 0
8.075643 -9.332744 -7.176565 14.276526 -0.857485 2.097496 0.000469 0.001376 467161.000000 1 0 0
5.885743 -3.891844 -0.325765 7.063607 -0.584231 1.616931 0.005835 0.000772 -374270.000000 1 0 0
-1.678257 -4.470244 4.127435 6.311525 1.211650 0.858000 0.007824 0.000845 3463140.000000 1 0 0
9.877143 -2.042544 -2.640365 10.425999 -0.203921 1.826833 0.007168 -0.002469 -1453180.000000 1 0 0
13.630843 6.923356 1.340535 15.346979 0.469962 1.483336 0.005446 0.001008 348872.000000 1 0 0
5.382843 -3.780844 -3.338365 7.376616 -0.612327 2.040431 0.005536 -0.001840 -2065920.000000 1 0 0
-12.277557 -5.976344 1.986235 13.798559 0.453008 1.426349 0.003114 -0.001837 828632.000000 1 0 0
3.828743 -5.755944 -0.291965 6.919206 -0.983823 1.613005 0.005200 0.000745 771883.000000 1 0 0
-5.220957 3.755356 -8.698165 10.817540 -0.623552 2.504922 0.009337 -0.011135 410122.000000 1 0 0
-1.726157 -9.252344 7.240835 11.874981 1.386352 0.915044 0.008073 -0.001393 1229150.000000 1 0 0
-7.482057 -7.515444 2.684235 10.939296 0.787624 1.322889 0.011490 -0.001898 -4138780.000000 1 0 0
-5.764557 13.055256 -8.476565 16.598855 -1.154991 2.106762 0.005092 -0.006005 1258560.000000 1 0 0
9.240243 -13.793444 -4.156365 17.114805 -0.980558 1.816101 0.019006 -0.005515 946744.000000 1 0 0
-6.571257 -5.205544 -6.701265 10.732477 0.669947 2.245148 0.011732 -0.001915 2335550.000000 1 0 0
3.361643 0.363056 -6.198365 7.060608 0.107583 2.642213 0.007425 -0.005309 1087140.000000 1 0 0
-3.614257 5.728056 4.931835 8.378334 -1.007912 0.941419 0.002766 0.002999 373338.000000 1 0 0
-2.691857 -10.831544 -2.848465 11.518776 1.327211 1.820678 0.013452 -0.001253 1352300.000000 1 0 0
-12.616357 -0.499044 1.720935 12.742964 0.039535 1.435333 0.010303 -0.004819 1618450.000000 1 0 0
8.453243 -12.037444 -6.169065 15.950384 -0.958565 1.967918 0.011913 -0.005802 832624.000000 1 0 0
6.218643 3.911056 0.931835 7.405146 0.561416 1.444626 0.001741 0.002019 -613902.000000 1 0 0
3.405543 -4.832144 -10.920565 12.417974 -0.956877 2.645430 0.002066 -0.000875 -399686.000000 1 0 0
-7.631757 4.254056 8.545335 12.221434 -0.508518 0.796506 0.002227 -0.000922 1135840.000000 1 0 0
8.191743 8.686856 4.088035 12.620545 0.814724 1.240927 0.006224 -0.000977 1404030.000000 1 0 0
0.253343 10.633256 -6.229465 12.326255 1.546975 2.100621 0.006118 -0.001658 891986.000000 1 0 0
5.401343 8.038856 3.229835 10.209287 0.979176 1.248904 0.004138 0.001911 3130900.000000 1 0 0
8.157843 6.682556 -3.882965 11.237632 0.686314 1.923602 0.003725 -0.000218 393332.000000 1 0 0
10.563743 2.503956 -8.295265 13.662865 0.232738 2.223252 0.006769 0.001125 556512.000000 1 0 0
3.354643 -12.420744 -0.246265 12.868145 -1.307006 1.589935 0.007948 -0.007743 -2603390.000000 1 0 0
0.614243 2.093556 5.246635 5.682205 1.285408 0.394094 0.004156 0.000429 -567962.000000 1 0 0
-4.790557 13.457156 1.390035 14.351888 -1.228799 1.473790 0.003653 -0.002789 2109170.000000 1 0 0
8.301743 4.132956 -8.083165 12.301944 0.461920 2.287714 0.000966 0.000289 2202790.000000 1 0 0
-13.971057 -0.674444 -3.552265 14.431351 0.048237 1.819501 0.006423 -0.002007 1232390.000000 1 0 0
-8.604557 0.009656 -0.447965 8.616216 -0.001122 1.622811 0.006476 -0.003301 -351543.000000 1 0 0
1.793743 -3.825944 -1.136965 4.375849 -1.132389 1.833640 0.005227 -0.000568 -534874.000000 1 0 0
8.109143 -5.648244 -0.212765 9.884641 -0.608392 1.592323 0.007119 -0.002707 993457.000000 1 0 0
-2.275257 -1.247044 7.385835 7.828312 0.501375 0.337826 0.006468 -0.001704 2281020.000000 1 0 0
-5.822157 8.800556 -11.647865 15.716872 -0.986333 2.405512 -0.000646 -0.010863 -1606090.000000 1 0 0
-6.169157 9.214356 -8.759065 14.130962 -0.980824 2.239347 0.002936 -0.002346 420126.000000 1 0 0
-1.598557 14.015756 -8.427265 16.432151 -1.457233 2.109300 0.013485 -0.001345 -38377.500000 1 0 0
-1.415757 7.272756 9.620435 12.142904 -1.378535 0.656279 -0.001428 0.001222 1010430.000000 1 0 0
10.143343 2.349356 -4.031765 11.165214 0.227602 1.940244 0.003400 0.001362 -1750790.000000 1 0 0
-2.997857 -7.507044 -6.933065 10.649425 1.190860 2.279733 0.011803 -0.000949 1328490.000000 1 0 0
-5.539657 -5.043144 -1.618665 7.664280 0.738516 1.783595 0.012069 0.000977 -156583.000000 1 0 0
5.699943 7.503756 -8.778965 12.878895 0.921172 2.320819 0.002462 -0.002549 -304902.000000 1 0 0
-9.554157 5.295956 -7.478365 13.238392 -0.506145 2.171108 0.001559 -0.001937 933892.000000 1 0 0
-0.378157 6.023756 -5.346265 8.062952 -1.508101 2.295703 0.007109 -0.004648 -1039360.000000 1 0 0
-8.296957 2.830256 -6.378165 10.841164 -0.328742 2.199786 0.005510 -0.005811 2361650.000000 1 0 0
3.730043 1.345656 -2.013965 4.447478 0.346230 2.040737 0.002194 -0.001099 3297040.000000 1 0 0
-6.843757 12.399856 -3.467565 14.581408 -1.066478 1.810904 0.009906 0.000777 772336.000000 1 0 0
-6.551857 3.148256 -2.353165 7.640402 -0.447937 1.883876 0.007198 -0.005179 -1445480.000000 1 0 0
12.129743 4.001156 -0.857865 12.801400 0.318624 1.637860 0.001947 0.000049 -1001380.000000 1 0 0
2.263043 12.460056 -5.444065 13.784491 1.391131 1.976800 0.011273 -0.005424 -693578.000000 1 0 0
-9.216857 -1.406944 -4.277865 10.258171 0.151480 2.000961 0.009326 -0.000886 439064.000000 1 0 0
-1.148957 5.790856 3.415435 6.820507 -1.374931 1.046320 0.002305 0.002306 617238.000000 1 0 0
11.427943 2.690856 12.098135 16.858335 0.231251 0.770396 0.037316 0.000521 -814757.000000 1 0 0
-7.119257 -2.322144 -5.786765 9.463764 0.315297 2.228708 0.012508 -0.004159 -116661.000000 1 0 0
7.472343 -7.294944 10.894735 15.091301 -0.773386 0.764221 0.009986 -0.004369 -1133710.000000 1 0 0
-5.533157 -1.968044 -10.956365 12.431048 0.341728 2.649553 0.015819 -0.006957 -183287.000000 1 0 0
0.811743 -6.197544 4.425135 7.658348 -1.440560 0.954743 0.007145 -0.000652 1640130.000000 1 0 0
-4.811257 -9.405244 7.453135 12.928884 1.097951 0.956392 0.008643 -0.002351 2051620.000000 1 0 0
-8.781257 9.335756 1.626035 12.919397 -0.815995 1.444602 0.009384 -0.004681 1907200.000000 1 0 0
-8.137257 7.205756 -9.045465 14.140662 -0.724761 2.264875 0.001917 -0.005897 -828139.000000 1 0 0
-1.276057 -10.766444 -0.056865 10.841950 1.452825 1.576041 0.014219 -0.002978 202519.000000 1 0 0
-3.928357 10.285956 7.704035 13.438193 -1.205977 0.960276 0.001303 0.002552 1951960.000000 1 0 0
-7.408757 12.060756 1.835035 14.273012 -1.019938 1.441873 0.005246 -0.007699 1726940.000000 1 0 0
-8.188857 -8.276244 -2.807565 11.976478 0.790706 1.807422 0.014784 0.001155 1345280.000000 1 0 0
5.436443 4.708556 -8.121765 10.848432 0.713773 2.416832 0.002990 -0.002120 1772010.000000 1 0 0
-9.097557 -0.118544 -10.127165 13.613929 0.013030 2.409658 0.011287 -0.008148 -1329150.000000 1 0 0
-15.260857 -2.320144 -1.497565 15.508692 0.150877 1.667510 0.010616 -0.006049 994031.000000 1 0 0
-7.211857 -5.786244 8.740435 12.723471 0.676156 0.813508 0.006339 -0.002702 -984345.000000 1 0 0
8.230343 3.512056 -1.042565 9.008886 0.403327 1.686783 0.002736 0.001814 65118.100000 1 0 0
11.953743 7.281356 -5.975165 15.218827 0.547104 1.974271 0.007564 -0.004230 174977.000000 1 0 0
3.722043 13.252856 -9.572365 16.766692 1.297001 2.178417 0.018601 -0.016502 1507360.000000 1 0 0
-9.728857 5.422156 -0.473065 11.147835 -0.508451 1.613245 0.006589 -0.004972 1762610.000000 1 0 0
11.313443 -1.250644 -5.198165 12.513154 -0.110098 1.999196 0.017521 -0.002643 -1389910.000000 1 0 0
10.651743 1.692456 -1.279565 10.861000 0.157573 1.688883 0.003159 0.000856 1454260.000000 1 0 0
14.657743 5.054056 4.774935 16.223221 0.332039 1.272045 0.016160 -0.006961 1510820.000000 1 0 0
0.743843 -0.868344 10.267335 10.330803 -0.862470 0.110904 0.005595 -0.004457 1722450.000000 1 0 0
-7.991057 1.402656 -12.507465 14.908425 -0.173758 2.566152 0.008573 -0.007365 -817171.000000 1 0 0
3.121943 -11.653944 -7.883365 14.412092 -1.309055 2.149569 -0.001115 0.002814 -549902.000000 1 0 0
2.937343 5.077056 -6.808665 8.986790 1.046296 2.430471 0.005951 -0.002820 -2010790.000000 1 0 0
6.592543 8.115456 0.516035 10.468454 0.888574 1.521482 0.004571 0.000500 307438.000000 1 0 0
-9.177557 -5.398044 6.833435 12.651572 0.531682 1.000210 0.003461 -0.001455 -216327.000000 1 0 0
-0.247257 -6.894044 -11.748965 13.624506 1.534946 2.610671 -0.000883 0.003825 2862410.000000 1 0 0
6.426743 -13.330444 -4.648865 15.511792 -1.121563 1.875173 0.007936 -0.004675 3025990.000000 1 0 0
-3.308757 -0.365944 10.022035 10.560444 0.110151 0.320695 0.003766 -0.000790 -1285120.000000 1 0 0
8.633743 8.553456 6.950035 14.000218 0.780727 1.051323 0.000589 -0.000654 165176.000000 1 0 0
-7.932857 5.683856 -2.720965 10.131145 -0.621711 1.842709 0.007220 -0.006636 1314300.000000 1 0 0
-5.328757 5.800356 -6.443665 10.176473 -0.827748 2.256467 0.005586 -0.006472 -488204.000000 1 0 0
3.326143 -13.617944 2.557835 14.249707 -1.331239 1.390317 0.013497 -0.009908 -2763030.000000 1 0 0
-11.341557 -7.027344 6.593335 14.882424 0.554714 1.111823 0.017307 -0.005010 -1580030.000000 1 0 0
-12.986857 -3.766844 -6.756765 15.116264 0.282304 2.034190 0.013781 -0.004149 -503522.000000 1 0 0
6.016943 0.320356 -7.285365 9.454246 0.053192 2.450566 0.005621 0.000376 1139330.000000 1 0 0
-1.395857 2.185756 -2.553265 3.639383 -1.002466 2.348388 0.005924 -0.005563 1738120.000000 1 0 0
7.640643 0.987256 -4.983165 9.175295 0.128499 2.144929 0.004055 0.001548 1357200.000000 1 0 0
3.593743 -4.393644 10.837235 12.233755 -0.885211 0.482480 0.003725 -0.004166 -136971.000000 1 0 0
6.079243 -2.573344 2.061035 6.915718 -0.400430 1.268177 0.004928 0.000125 -1014160.000000 1 0 0
-6.304257 7.716156 1.101935 10.024818 -0.885763 1.460653 0.002147 -0.002011 1914570.000000 1 0 0
6.088943 -3.434244 7.975535 10.605584 -0.513538 0.719686 0.003449 -0.003972 1372140.000000 1 0 0
6.784243 -2.255944 -7.870265 10.632794 -0.321025 2.404146 0.003096 -0.001004 2264090.000000 1 0 0
12.030543 -8.157144 -5.827865 15.660044 -0.595833 1.952119 0.032500 -0.009684 92665.700000 1 0 0
5.566443 -9.528344 10.105935 14.963440 -1.042077 0.829323 -0.003547 0.005196 1432780.000000 1 0 0
-6.576957 7.535256 -4.484665 10.961235 -0.853200 1.992306 0.003713 -0.005818 1875280.000000 1 0 0
-1.357857 -7.561644 9.746235 12.410130 1.393118 0.667543 0.004458 -0.002092 -327611.000000 1 0 0
10.137543 -9.275344 0.886335 13.769073 -0.741014 1.506380 0.010049 -0.002704 630357.000000 1 0 0
11.056543 6.124456 9.800135 15.993709 0.505849 0.911261 0.005551 -0.004769 72941.400000 1 0 0
-15.412157 -4.364044 -4.930665 16.759801 0.275933 1.869410 0.022679 -0.006855 1889380.000000 1 0 0
-4.774257 -4.609344 7.837535 10.269690 0.767825 0.702589 0.009132 -0.004482 -1536110.000000 1 0 0
2.910843 10.896556 -11.147365 15.857859 1.309757 2.350340 -0.000578 -0.008946 -1431120.000000 1 0 0
9.900443 -1.386544 1.427935 10.098528 -0.139144 1.428921 0.004175 -0.000762 -187512.000000 1 0 0
-1.575557 -2.583344 0.597835 3.084389 1.023136 1.375736 0.009704 -0.003894 199741.000000 1 0 0
1.678343 3.012156 0.863135 3.554563 1.062450 1.325520 -0.001190 -0.000944 -500472.000000 1 0 0
-8.980757 -2.472844 4.371535 10.289766 0.268691 1.132008 0.002154 -0.003741 4838490.000000 1 0 0
9.996943 4.873656 -2.776765 11.463063 0.453610 1.815466 0.001163 0.001256 1218400.000000 1 0 0
2.545543 8.432456 2.431735 9.137803 1.277621 1.301433 0.001376 0.002614 1297010.000000 1 0 0
-8.213357 -0.193544 2.536035 8.598149 0.023560 1.271392 0.003834 -0.003478 1699410.000000 1 0 0
6.876443 2.109456 13.722935 15.493683 0.297652 0.482772 0.011185 -0.004663 -701423.000000 1 0 0
6.851443 4.385056 3.754035 8.959005 0.569327 1.138427 -0.003124 0.002944 154357.000000 1 0 0
-0.369157 3.342756 7.759435 8.456898 -1.460807 0.408979 -0.000426 0.001004 -525414.000000 1 0 0
2.692643 -10.174544 9.208535 13.984591 -1.312082 0.852003 -0.002258 0.000288 2184840.000000 1 0 0
1.483743 -4.540744 6.781335 8.294959 -1.254972 0.613697 0.003297 -0.003025 56859.700000 1 0 0
-0.134057 10.803656 -2.014165 10.990624 -1.558388 1.755100 0.008237 -0.001909 2748090.000000 1 0 0
8.782143 5.557656 8.012835 13.123227 0.564214 0.913998 -0.000502 -0.000970 35544.700000 1 0 0
2.658043 11.420656 -2.863765 12.070531 1.342127 1.810333 0.011341 -0.005555 1280150.000000 1 0 0
1.520243 2.470456 -6.698665 7.299754 1.019152 2.732938 0.006896 -0.005800 2197050.000000 1 0 0
-13.664457 -2.214944 3.580535 14.298378 0.160698 1.317687 0.009359 -0.008148 1548200.000000 1 0 0
-0.971457 -10.665244 -5.253965 11.928760 1.479961 2.026891 0.007611 0.001450 1480540.000000 1 0 0
-5.635757 2.835856 0.401635 6.321800 -0.466196 1.507222 0.008215 -0.004737 -423209.000000 1 0 0
3.800343 7.306956 -5.066365 9.669657 1.091199 2.122272 0.007255 -0.003590 -2679460.000000 1 0 0
2.977643 9.802956 -6.490165 12.127924 1.275903 2.135472 0.006701 -0.003721 1480020.000000 1 0 0
-12.218157 1.640556 -2.514365 12.581607 -0.133474 1.771996 0.006735 -0.002880 1085010.000000 1 0 0
-2.413557 9.585356 -5.771465 11.446140 -1.324128 2.099284 0.001756 -0.001115 563889.000000 1 0 0
-1.249657 3.370256 1.705835 3.978711 -1.215722 1.127698 0.002278 -0.002954 -214747.000000 1 0 0
12.789343 3.734756 9.713035 16.488139 0.284121 0.940861 0.034477 -0.004411 1300420.000000 1 0 0
-2.521057 -9.508044 11.685435 15.274424 1.311611 0.699704 -0.000508 -0.003791 -315596.000000 1 0 0
-0.460457 -8.966344 -7.536965 11.722337 1.519487 2.269150 0.005890 0.001719 3563240.000000 1 0 0
2.426643 7.514356 -0.514565 7.913212 1.258434 1.635868 0.003617 -0.000095 1531110.000000 1 0 0
-11.902357 -1.328244 -5.570665 13.208431 0.111135 2.006172 0.009001 0.002434 -881235.000000 1 0 0
-6.191757 -7.264044 -10.982665 14.550709 0.864920 2.426124 0.015448 -0.002288 1271850.000000 1 0 0
-4.698457 -2.332644 -1.454265 5.443493 0.460820 1.841237 0.008465 -0.001723 -1679390.000000 1 0 0
-10.532657 3.727856 4.432235 12.019920 -0.340174 1.193142 0.009363 -0.008208 1806590.000000 1 0 0
6.837143 9.386756 -3.632165 12.167593 0.941275 1.873929 0.006027 -0.002682 3253880.000000 1 0 0
1.297443 -2.722744 -11.441765 11.832611 -1.126108 2.883854 0.009037 -0.006228 -619622.000000 1 0 0
1.344143 8.823356 7.495435 11.655036 1.419619 0.872248 -0.002027 0.003620 95663.000000 1 0 0
10.302343 0.404056 10.479835 14.701308 0.039200 0.777242 0.003457 0.001191 104907.000000 1 0 0
-5.243357 -0.875844 -3.934565 6.613675 0.165511 2.207954 0.011210 -0.005834 132833.000000 1 0 0
11.731443 5.673756 5.505435 14.146663 0.450471 1.171068 -0.000326 0.000220 3632320.000000 1 0 0
9.986043 -3.423944 3.629035 11.163079 -0.330312 1.239687 0.006354 -0.003969 -1140060.000000 1 0 0
7.269943 -1.675844 -3.480365 8.232464 -0.226559 2.007286 0.006505 -0.000405 -2475410.000000 1 0 0
2.365143 9.371656 10.418635 14.211608 1.323587 0.747917 0.002744 0.001531 2256670.000000 1 0 0
2.381343 -10.816544 6.402235 12.792851 -1.354096 1.046673 0.001133 0.001720 1280550.000000 1 0 0
5.989943 -7.590644 -1.380665 9.767473 -0.902724 1.712625 0.001742 -0.002751 1670680.000000 1 0 0
-0.254857 -5.760144 -2.362265 6.230932 1.526580 1.959640 0.009879 -0.001411 1690340.000000 1 0 0
7.716743 -5.076244 2.776235 9.644887 -0.581854 1.278820 0.005870 -0.003062 1707930.000000 1 0 0
-2.653157 -12.486044 4.702035 13.603296 1.361421 1.217861 0.012178 -0.002664 -303478.000000 1 0 0
4.933343 -10.292744 -1.129265 11.469686 -1.123843 1.669413 0.004453 -0.003877 1626510.000000 1 0 0
0.897743 0.215656 1.074535 1.416713 0.235753 0.709833 0.004321 -0.000964 -1580660.000000 1 0 0
-1.603557 8.603656 2.423035 9.081046 -1.386530 1.300701 -0.000203 0.004119 -456009.000000 1 0 0
-7.494257 0.628456 -3.034765 8.109787 -0.083663 1.954341 0.007989 -0.003192 -590009.000000 1 0 0
4.384543 -6.254744 12.840035 14.940299 -0.959403 0.536657 0.006194 -0.007080 -1245830.000000 1 0 0
-4.994457 13.053456 8.428635 16.321128 -1.205366 1.028126 0.008190 -0.006055 2107010.000000 1 0 0
0.647643 6.107656 8.105435 10.169611 1.465153 0.648443 -0.002639 0.002551 -900681.000000 1 0 0
7.954843 -0.488344 -0.818765 8.011765 -0.061313 1.673170 0.004003 -0.000669 3029020.000000 1 0 0
2.474643 -9.227044 -2.378065 9.844663 -1.308768 1.814768 0.003912 -0.000104 1437190.000000 1 0 0
-7.089757 12.188056 4.735635 14.874125 -1.043944 1.246775 0.006429 -0.003448 -107471.000000 1 0 0
-15.049457 0.269756 0.153335 15.052656 -0.017923 1.560610 0.017110 -0.008843 695521.000000 1 0 0
6.903743 -0.519144 3.919535 7.955748 -0.075056 1.055644 -0.000496 0.002355 1766940.000000 1 0 0
-4.227757 -5.046244 5.108835 8.332989 0.873426 0.910836 0.010142 -0.001707 416729.000000 1 0 0
2.949543 5.109756 6.805235 9.006699 1.047282 0.714265 -0.004714 0.002239 -697236.000000 1 0 0
2.112643 -7.183344 1.753635 7.690184 -1.284758 1.340737 0.005532 0.000551 2181900.000000 1 0 0
-2.454157 6.378656 -1.778165 7.062012 -1.203509 1.825329 0.003399 -0.001460 2276180.000000 1 0 0
2.625343 -3.861544 -6.552165 8.045795 -0.973709 2.522420 0.003959 -0.003937 -590727.000000 1 0 0
-5.204357 0.923256 -12.107965 13.211380 -0.175574 2.729988 0.010835 -0.006193 -16359.600000 1 0 0
-7.551557 6.339656 -11.836665 15.405320 -0.698376 2.447054 0.003267 -0.011787 2683430.000000 1 0 0
-1.042057 11.145856 -9.000765 14.364183 -1.477575 2.247994 0.003840 -0.001651 1010790.000000 1 0 0
4.771743 5.976156 -0.635365 7.673829 0.896993 1.653688 0.003217 0.000567 -52762.500000 1 0 0
-2.615557 13.482256 3.568535 14.189673 -1.379177 1.316579 0.005066 0.000841 2170010.000000 1 0 0
1.397143 -7.820744 10.237735 12.958675 -1.394015 0.659939 -0.003294 -0.003011 -1898100.000000 1 0 0
13.028443 -0.282944 -1.150665 13.082217 -0.021714 1.658867 0.008309 -0.003290 -72027.000000 1 0 0
-1.018157 3.059556 -5.456965 6.338454 -1.249544 2.607891 0.007145 -0.007223 245606.000000 1 0 0
6.569043 1.089656 7.291935 9.874816 0.164381 0.740046 -0.002622 0.002876 1348150.000000 1 0 0
5.469943 -6.245844 6.969635 10.840049 -0.851529 0.872450 0.002298 -0.001784 726363.000000 1 0 0
12.282643 -4.828244 2.662835 13.463504 -0.374540 1.371702 0.009863 -0.003276 -350293.000000 1 0 0
4.298243 -9.102444 13.899135 17.161449 -1.129629 0.626807 -0.004856 -0.002473 598870.000000 1 0 0
-2.738757 -4.410744 -1.368765 5.369262 1.015130 1.828568 0.012262 -0.001734 2249600.000000 1 0 0
-9.350757 -5.212444 -7.563965 13.108005 0.508534 2.185907 0.013676 -0.001298 458193.000000 1 0 0
-10.655857 -3.113144 7.894435 13.622080 0.284243 0.952642 0.004298 -0.002379 -738447.000000 1 0 0
12.092443 -0.607044 1.587835 12.211343 -0.050158 1.440398 0.005253 -0.002495 -1126720.000000 1 0 0
-7.586657 4.709856 4.350335 9.933052 -0.555579 1.117462 0.003953 -0.003109 2785870.000000 1 0 0
-1.029457 10.608656 6.867635 12.679423 -1.474060 0.998414 -0.000089 0.004668 2203220.000000 1 0 0
7.438543 -9.945044 1.964235 12.573545 -0.928599 1.413934 0.005416 -0.002960 3163540.000000 1 0 0
-4.345357 -1.679644 1.597635 4.925015 0.368847 1.240428 0.005726 -0.000563 2564300.000000 1 0 0
6.745543 -14.993544 -0.838465 16.462434 -1.148028 1.621750 0.024642 -0.011793 -1502810.000000 1 0 0
-10.460357 1.658456 2.340035 10.846442 -0.157238 1.353345 0.004505 -0.003221 -3651.690000 1 0 0
-2.994457 8.222156 -11.299765 14.291792 -1.221533 2.482662 0.000657 -0.005648 357508.000000 1 0 0
-1.368957 -5.220244 -6.813065 8.691539 1.314331 2.471676 0.004693 -0.001719 -479129.000000 1 0 0
12.832843 -0.417244 6.451035 14.369127 -0.032502 1.105205 0.010262 -0.005135 2262310.000000 1 0 0
5.954343 -13.328844 3.773735 15.078241 -1.150668 1.317830 0.008523 -0.004259 1953080.000000 1 0 0
-5.575757 3.440056 -4.978065 8.228255 -0.552802 2.220558 0.008931 -0.008725 2391790.000000 1 0 0
-4.351457 8.032956 3.362635 9.735033 -1.074347 1.218114 0.002212 0.001688 410708.000000 1 0 0
14.088143 6.117456 -4.076565 15.890797 0.409660 1.830233 0.015049 0.000550 975329.000000 1 0 0
-6.759957 -8.527544 5.395035 12.145881 0.900510 1.110530 0.011272 -0.002841 1228790.000000 1 0 0
1.742443 11.414156 2.637535 11.843802 1.419310 1.346220 0.002515 0.000507 1247830.000000 1 0 0
-7.323657 7.298156 5.985035 11.946534 -0.783654 1.046060 0.004679 -0.003888 -592503.000000 1 0 0
-17.420457 -4.003444 5.076035 18.581335 0.225891 1.294100 0.043743 -0.014786 545791.000000 1 0 0
7.510243 -13.089244 -8.571565 17.355223 -1.049885 2.087354 0.016523 -0.005893 -661084.000000 1 0 0
-2.354857 12.797256 -2.813865 13.312887 -1.388819 1.783767 0.005042 0.000965 639786.000000 1 0 0
-5.608957 13.898156 -5.718265 16.041125 -1.187211 1.935289 0.013959 0.002223 4136810.000000 1 0 0
-5.637957 2.452356 7.360135 9.590214 -0.410287 0.695922 0.000900 -0.001534 2067930.000000 1 0 0
-7.372457 5.026856 1.383735 9.029791 -0.598436 1.416949 0.008698 -0.003475 1012500.000000 1 0 0
10.660343 -5.704944 -4.937465 13.060163 -0.491375 1.958491 0.015738 -0.004680 946299.000000 1 0 0
-9.563057 -0.796644 6.808935 11.766406 0.083112 0.953692 0.001468 -0.004113 737632.000000 1 0 0
-11.337157 -4.603944 -2.537765 12.496707 0.385748 1.775293 0.005800 0.000441 200783.000000 1 0 0
6.461043 -4.260844 13.488335 15.551046 -0.583002 0.520926 0.013976 -0.012430 -1820670.000000 1 0 0
0.225843 10.174456 -11.628665 15.453039 1.548603 2.422671 0.000285 -0.005330 -1575140.000000 1 0 0
-11.833157 -3.267544 1.469035 12.363597 0.269421 1.451696 0.001448 -0.003918 2175440.000000 1 0 0
5.200043 5.939256 5.354835 9.538840 0.851662 0.974754 -0.001466 0.002744 -4837130.000000 1 0 0
-7.175457 0.005256 8.144335 10.854373 -0.000732 0.722239 0.000323 -0.002411 1472440.000000 1 0 0
1.669943 2.036456 9.620435 9.974399 0.883964 0.267205 -0.001432 -0.002002 2285280.000000 1 0 0
10.547543 -4.945144 -1.967565 11.814246 -0.438413 1.738118 0.007146 -0.002162 3032340.000000 1 0 0
-9.746457 -2.370544 -1.657765 10.166666 0.238588 1.734587 0.006984 -0.002003 -31105.700000 1 0 0
-2.064157 -5.231244 -9.922465 11.405348 1.194969 2.625965 0.010516 -0.004118 684340.000000 1 0 0
7.719443 -1.593344 6.580535 10.268008 -0.203548 0.875156 0.003471 -0.001556 1825590.000000 1 0 0
1.568543 -11.871144 -2.563265 12.245600 -1.439427 1.781677 0.008582 -0.002768 -4261260.000000 1 0 0
-0.734557 -1.532744 4.815035 5.106216 1.123892 0.339338 0.008248 -0.001066 4104240.000000 1 0 0
7.587343 1.503656 9.906735 12.568697 0.195644 0.662906 0.000450 0.001166 1413520.000000 1 0 0
-3.825157 10.683456 -7.973465 13.868821 -1.226973 2.183303 0.003164 -0.000178 1775060.000000 1 0 0
-9.461957 12.679956 6.309935 17.033062 -0.929723 1.191301 0.018074 -0.008578 825754.000000 1 0 0
-2.579557 -2.444144 -11.112765 11.667112 0.758450 2.832094 0.014702 -0.007615 -1348720.000000 1 0 0
1.161343 -11.837044 11.109235 16.275117 -1.472998 0.819495 -0.006768 0.007842 2006150.000000 1 0 0
1.443243 3.408056 -1.981265 4.198000 1.170214 2.062303 0.003067 -0.002116 2791280.000000 1 0 0
-1.906157 -9.449144 -12.044365 15.426811 1.371740 2.466649 0.001790 0.004305 1215090.000000 1 0 0
1.269443 -2.626644 1.563435 3.309845 -1.120602 1.078831 0.009019 -0.000276 2169580.000000 1 0 0
-1.151557 -2.293044 -6.584765 7.067055 1.105394 2.770014 0.008567 -0.007394 1453670.000000 1 0 0
1.781743 5.822956 3.990235 7.280343 1.273857 0.990725 -0.004314 0.004487 -1244190.000000 1 0 0
-10.995957 8.556356 3.556435 14.379518 -0.661267 1.320876 0.006993 -0.007937 3284840.000000 1 0 0
-16.473357 -1.454444 3.901435 16.991413 0.088062 1.339117 0.037556 -0.014381 386391.000000 1 0 0
-12.281357 0.216156 6.795835 14.037871 -0.017599 1.065454 0.006780 -0.004099 1077910.000000 1 0 0
-5.143357 3.010056 4.601035 7.528883 -0.529490 0.913324 0.002674 -0.000361 823872.000000 1 0 0
5.153543 -6.013944 4.086835 8.912281 -0.862291 1.094420 0.002972 -0.001762 2340200.000000 1 0 0
9.915443 3.439556 6.268735 12.224712 0.333900 1.032363 -0.006722 0.004945 1874740.000000 1 0 0
-12.252957 5.829956 3.167435 13.933987 -0.444101 1.341474 0.013932 -0.008384 693037.000000 1 0 0
-4.944157 12.294256 -1.339065 13.318653 -1.188436 1.671507 0.003965 0.000884 1667090.000000 1 0 0
-1.722857 -12.210944 10.354735 16.102668 1.430630 0.872329 0.009018 0.001408 1921030.000000 1 0 0
5.152643 6.497556 13.828235 16.124145 0.900331 0.540191 0.011382 -0.004470 1031610.000000 1 0 0
12.911843 -3.740444 -5.784265 14.634354 -0.281972 1.977139 0.013770 -0.006722 3035510.000000 1 0 0
3.604243 -2.500044 6.327235 7.699006 -0.606444 0.606190 0.001625 -0.001892 330121.000000 1 0 0
7.239143 -11.869644 -0.513765 13.912498 -1.023139 1.607733 0.006643 -0.003500 -975448.000000 1 0 0
-6.126657 -6.613144 -4.071165 9.891612 0.823566 1.994981 0.015122 -0.001037 -804932.000000 1 0 0
0.257443 -8.896744 5.036535 10.226682 -1.541868 1.055848 0.009178 -0.001985 2766370.000000 1 0 0
-10.252157 2.474656 -0.394265 10.553961 -0.236849 1.608162 0.006394 -0.003166 -2119100.000000 1 0 0
-1.802357 8.915556 -0.371165 9.103483 -1.371326 1.611579 0.004167 0.000533 907893.000000 1 0 0
-3.508457 2.290556 -6.656965 7.865819 -0.578388 2.579826 0.011754 -0.012271 -316230.000000 1 0 0
-12.631057 2.978156 6.366335 14.454869 -0.231551 1.114721 0.012824 -0.008460 285190.000000 1 0 0
11.289943 1.640756 8.014535 13.942297 0.144319 0.958393 0.003372 -0.002024 -1612020.000000 1 0 0
6.063743 2.650356 -3.232565 7.364974 0.412060 2.025182 0.003208 0.000857 1740180.000000 1 0 0
10.543643 -2.310544 6.367035 12.531806 -0.215731 1.037854 0.006784 -0.002051 2868860.000000 1 0 0
-0.900157 11.137356 3.972035 11.858670 -1.490148 1.229247 0.002195 0.003053 1415090.000000 1 0 0
-1.555057 -12.258044 7.459635 14.433433 1.444610 1.027652 0.012162 0.002844 -105647.000000 1 0 0
8.181943 8.655356 -7.878265 14.280281 0.813508 2.155184 0.017242 -0.007352 923633.000000 1 0 0
-4.714557 -6.024544 -8.735565 11.611730 0.906781 2.422350 0.013610 -0.003664 1077980.000000 1 0 0
-8.538257 -5.387544 -11.653465 15.418519 0.562894 2.427686 0.014723 -0.002543 2215620.000000 1 0 0
6.089043 -0.641744 -9.941965 11.676084 -0.105006 2.589600 0.004338 -0.000280 -709739.000000 1 0 0
-11.338957 -5.539244 -5.394865 13.724421 0.454417 1.974781 0.006432 -0.001000 -661930.000000 1 0 0
3.896243 8.898656 -2.770565 10.101624 1.158095 1.848626 0.010139 -0.004327 952104.000000 1 0 0
11.585143 -10.358544 -3.960865 16.037563 -0.729559 1.820353 0.022979 -0.007223 1968390.000000 1 0 0
4.031743 -11.258944 3.996835 12.609261 -1.226930 1.248257 0.003475 -0.002139 388896.000000 1 0 0
-0.988557 0.891056 3.202135 3.467693 -0.733572 0.393900 0.006880 -0.002109 -1700770.000000 1 0 0
-10.700057 -5.124144 4.573735 12.714839 0.446617 1.202832 0.007920 -0.005274 1841330.000000 1 0 0
4.611043 -8.618744 2.780535 10.162472 -1.079541 1.293654 0.003654 -0.000754 4815470.000000 1 0 0
-3.698757 -5.754644 2.625235 7.327250 0.999540 1.204367 0.010848 -0.000179 2251700.000000 1 0 0
9.969743 5.202456 12.294535 16.661840 0.480954 0.740864 0.010331 0.002096 -323708.000000 1 0 0
1.602343 -12.335544 -5.281365 13.513917 -1.441623 1.972307 0.006507 -0.000464 1601570.000000 1 0 0
9.864143 -10.758644 -1.613965 14.685184 -0.828745 1.680923 0.009182 -0.003880 -631858.000000 1 0 0
9.588243 -4.476344 -9.311265 14.095095 -0.436784 2.292418 0.016503 -0.001086 2046900.000000 1 0 0
-7.460057 -3.113844 -13.104065 15.396915 0.395418 2.588842 0.013251 -0.002563 1666730.000000 1 0 0
0.476643 6.169156 -2.550665 6.692650 1.493687 1.961798 0.004137 -0.001696 828885.000000 1 0 0
-6.051257 -9.600044 1.065835 11.398007 1.008369 1.477149 0.007266 -0.001175 1207990.000000 1 0 0
-9.042857 -4.068644 0.593135 9.933727 0.422795 1.511052 0.003777 -0.000607 4664780.000000 1 0 0
1.868943 3.890456 12.009335 12.761376 1.122958 0.345019 0.002183 -0.003015 946675.000000 1 0 0
6.638043 4.281256 9.599335 12.431412 0.572822 0.688525 -0.005482 0.001118 1534620.000000 1 0 0
-8.282657 9.848956 -3.629365 13.370738 -0.871569 1.845686 0.001556 -0.003014 2639650.000000 1 0 0
16.422843 2.160556 -6.042265 17.631980 0.130807 1.920573 0.038727 0.000491 -464302.000000 1 0 0
-10.968857 2.567656 -5.124665 12.376222 -0.229946 1.997721 0.004989 -0.001809 937818.000000 1 0 0
-13.785757 3.989756 1.457435 14.425303 -0.281714 1.469590 0.017417 -0.007042 428875.000000 1 0 0
-17.519157 10.416756 3.292635 20.646334 -0.536434 1.410635 0.063658 -0.023413 -1201370.000000 1 0 0
-14.337357 2.871256 -1.224265 14.673198 -0.197649 1.654329 0.016824 -0.007819 1565910.000000 1 0 0
-14.427057 5.083056 5.116735 16.129427 -0.338747 1.247989 0.016286 -0.009104 163778.000000 1 0 0
-17.655857 7.508756 3.020335 19.422490 -0.402111 1.414656 0.051366 -0.012597 -1726690.000000 1 0 0
-14.776857 12.496556 -3.411165 19.650839 -0.701983 1.745269 0.049264 -0.018113 -1139760.000000 1 0 0
-8.531457 12.431656 -9.562665 17.854310 -0.969346 2.136008 0.016041 -0.018586 1860220.000000 1 0 0
-12.428657 8.786256 -9.873265 18.142524 -0.615365 2.146238 0.014558 -0.005348 -2537610.000000 1 0 0
-13.956557 -3.534244 -12.257265 18.908118 0.248018 2.276086 0.030524 -0.000867 -1247390.000000 1 0 0
-14.743857 5.760356 -7.544065 17.534992 -0.372459 2.015543 0.033381 -0.000655 -886556.000000 1 0 0
-10.948857 13.519856 -8.339465 19.292762 -0.890087 2.017792 0.019116 -0.019633 1457490.000000 1 0 0
-10.903057 13.532456 3.899235 17.810336 -0.892591 1.350078 0.023278 -0.010698 -569634.000000 1 0 0
-15.171957 3.233056 3.080435 15.815499 -0.209954 1.374770 0.017725 -0.006692 1005340.000000 1 0 0
-11.147157 9.420456 -12.472865 19.198345 -0.701642 2.277966 0.019467 -0.016271 1647410.000000 1 0 0
-13.023457 11.506956 -8.933065 19.540218 -0.723655 2.045599 0.029550 -0.024314 -296765.000000 1 0 0
-8.913257 14.557456 -3.436865 17.411999 -1.021395 1.769486 0.015307 -0.009652 2203990.000000 1 0 0
-16.742257 8.027356 -3.951665 18.983079 -0.447087 1.780498 0.049570 -0.011332 -523546.000000 1 0 0
-17.104157 6.663556 0.204235 18.357475 -0.371497 1.559671 0.046152 -0.006778 -1879310.000000 1 0 0
-10.495457 2.824456 -12.587665 16.630739 -0.262884 2.429340 0.009488 -0.007355 582208.000000 1 0 0
-16.962957 0.991256 2.383335 17.158228 -0.058370 1.431442 0.038308 -0.013474 218615.000000 1 0 0
-12.801957 1.172056 -6.957765 14.617603 -0.091298 2.066880 0.009804 -0.003581 -327482.000000 1 0 0
-12.306157 8.938156 -5.369965 16.129745 -0.628170 1.910198 0.011175 -0.004684 -69407.400000 1 0 0
-9.619257 13.910356 1.199135 16.954823 -0.965786 1.500012 0.024976 -0.009641 297123.000000 1 0 0
-12.272357 11.098056 2.734835 16.770716 -0.735193 1.406993 0.020197 -0.011474 120080.000000 1 0 0
-12.528657 6.797456 -3.604965 14.702668 -0.497107 1.818513 0.003904 -0.000692 -993279.000000 1 0 0
-15.862757 3.765256 -9.349765 18.794210 -0.233052 2.091489 0.044933 -0.007378 -1422190.000000 1 0 0
-15.028957 5.764556 -4.602765 16.741718 -0.366257 1.849311 0.025299 -0.001109 348083.000000 1 0 0
-17.885357 5.251356 7.592935 20.127479 -0.285586 1.183980 0.023819 -0.012030 -458847.000000 1 0 0
-15.741357 10.029856 -2.027665 18.774977 -0.567300 1.679006 0.043817 -0.010370 -114221.000000 1 0 0
-8.831257 9.848756 -8.315565 15.624907 -0.839814 2.131993 0.003364 -0.008192 405204.000000 1 0 0
-17.119957 4.126156 -1.360865 17.662674 -0.236504 1.647920 0.037797 -0.008379 444124.000000 1 0 0
-10.219457 5.349556 -4.566865 12.406100 -0.482245 1.947777 0.005247 -0.002076 -1312830.000000 1 0 0
-18.408557 2.881956 6.055535 19.592094 -0.155295 1.256570 0.056707 -0.016631 -708587.000000 1 0 0
-10.362657 10.000256 -5.752365 15.507401 -0.767603 1.950821 0.001174 -0.007646 503168.000000 1 0 0
-15.447257 0.369056 -5.858765 16.525105 -0.023887 1.933215 0.026639 -0.005475 1200280.000000 1 0 0
-16.463957 -4.178444 -8.903665 19.178022 0.248546 2.053600 0.037711 -0.017978 -277308.000000 1 0 0
-9.978757 9.598956 -1.135065 13.892585 -0.766001 1.652590 0.001474 -0.002492 2357560.000000 1 0 0
-17.490057 -3.078144 -3.234365 18.050989 0.174210 1.750949 0.044575 -0.011620 251809.000000 1 0 0
-11.974557 5.045856 -11.569965 17.398700 -0.398802 2.298277 0.018601 -0.008321 -122140.000000 1 0 0
-16.463557 6.976556 5.730035 18.776431 -0.400818 1.260678 0.035700 -0.012253 920144.000000 1 0 0
-12.109057 6.062656 -8.768265 16.132809 -0.464184 2.145404 0.012272 -0.004134 1325810.000000 1 0 0
-14.637757 8.246156 0.002035 16.800685 -0.513034 1.570675 0.033775 -0.008160 1859300.000000 1 0 0
-14.965757 11.811456 3.737535 19.428164 -0.668141 1.377212 0.038550 -0.017444 1007550.000000 1 0 0
-17.143357 3.983356 -4.224565 18.099966 -0.228305 1.806371 0.028470 -0.004743 -1857760.000000 1 0 0
-13.854357 13.484256 -0.830165 19.350906 -0.771861 1.613710 0.045666 -0.007805 -537716.000000 1 0 0
-10.032057 6.787456 -13.143165 17.873291 -0.594832 2.396983 0.002591 -0.012951 521041.000000 1 0 0
-15.903557 -1.158444 -8.330165 17.990463 0.072713 2.052210 0.023960 -0.010516 -476612.000000 1 0 0
-11.451157 11.954256 -0.067765 16.554088 -0.806890 1.574890 0.025830 -0.008765 1663340.000000 1 0 0
-11.999057 7.342056 -0.871465 14.094063 -0.549113 1.632668 0.006797 -0.000569 1708540.000000 1 0 0
-11.546557 0.107056 -11.685465 16.428163 -0.009271 2.362152 0.017406 -0.007667 -632201.000000 1 0 0
-19.155557 -1.306144 -4.777165 19.785416 0.068081 1.814655 0.054170 -0.019617 -1087610.000000 1 0 0
-18.056457 1.364356 -5.146065 18.824960 -0.075417 1.847685 0.038697 -0.010707 -194247.000000 1 0 0
-13.451857 -0.084244 -9.501665 16.469402 0.006263 2.185759 0.021905 -0.006373 360867.000000 1 0 0
-6.189957 11.097656 -13.341565 18.424736 -1.062006 2.380542 -0.000398 -0.012620 -176762.000000 1 0 0
16.430443 5.689456 7.077935 18.773026 0.333353 1.184212 0.052589 -0.020103 1680670.000000 1 0 0
14.949143 10.099256 -5.458765 18.848606 0.594144 1.864617 0.059958 -0.020524 1354560.000000 1 0 0
2.522543 16.955956 4.313435 17.676917 1.423109 1.324292 0.021077 -0.009383 1159130.000000 1 0 0
-3.862257 18.192856 -5.841665 19.494155 -1.361607 1.875135 0.013825 -0.008133 2981820.000000 1 0 0
5.550843 14.611256 5.671335 16.627228 1.207735 1.222723 0.016001 -0.006265 -1177870.000000 1 0 0
10.079443 6.171556 15.006835 19.102051 0.549408 0.667109 0.026917 -0.004182 -1486790.000000 1 0 0
4.730743 12.732856 -1.116465 13.629088 1.215064 1.652806 0.007178 -0.005728 1752840.000000 1 0 0
3.537143 13.635056 12.837135 19.058283 1.316976 0.831765 0.034045 -0.019337 -1908840.000000 1 0 0
-0.694157 12.453456 9.114035 15.447849 -1.515114 0.939753 0.012036 0.002516 497268.000000 1 0 0
-7.706157 13.985856 8.303335 17.998178 -1.067188 1.091288 0.014518 -0.013647 1200190.000000 1 0 0
11.458943 12.867356 -4.203165 17.735355 0.843230 1.810066 0.054328 -0.012808 -594210.000000 1 0 0
-5.749857 16.200356 0.859735 17.211959 -1.229744 1.520826 0.012305 -0.003909 237279.000000 1 0 0
3.298843 10.656256 6.780035 13.054004 1.270584 1.024667 0.001320 0.005275 1638580.000000 1 0 0
-1.135957 15.647856 2.456535 15.880188 -1.498328 1.415481 0.006979 -0.004885 -1401020.000000 1 0 0
9.955143 8.854456 9.468835 16.345186 0.726948 0.952922 0.011453 -0.005574 1389490.000000 1 0 0
7.313643 12.256656 6.173135 15.550646 1.032801 1.162583 0.011054 -0.004984 -312780.000000 1 0 0
11.893743 13.966656 -1.616065 18.415761 0.865385 1.658664 0.038072 -0.005761 973854.000000 1 0 0
9.731143 15.866456 -1.170265 18.649640 1.020644 1.633588 0.029865 -0.004981 427292.000000 1 0 0
10.134043 13.624356 3.016635 17.245927 0.931263 1.394973 0.026453 -0.007478 2022260.000000 1 0 0
-5.968557 14.554956 6.190935 16.905564 -1.181639 1.195867 0.002568 -0.008174 -49203.100000 1 0 0
-0.887557 18.168556 -6.209365 19.220832 -1.521984 1.899751 0.029359 -0.006533 2781440.000000 1 0 0
-3.488157 15.776556 5.446835 17.050952 -1.353199 1.245653 0.002833 -0.004587 1504250.000000 1 0 0
7.171243 12.296756 10.617235 17.758452 1.042835 0.929956 0.016392 -0.004609 3439500.000000 1 0 0
1.588743 14.678456 6.175235 16.003584 1.462980 1.174650 0.010270 -0.002572 991569.000000 1 0 0
17.469043 7.622156 -1.621165 19.128327 0.411423 1.655650 0.029547 0.001307 1261790.000000 1 0 0
2.181943 16.234756 -3.472665 16.744778 1.437197 1.779700 0.011064 -0.009092 58113.200000 1 0 0
6.775343 11.263556 0.527435 13.154891 1.029254 1.530691 0.010890 -0.001215 906688.000000 1 0 0
12.743043 9.091056 3.080235 15.953692 0.619672 1.376503 0.015123 -0.002349 -1639390.000000 1 0 0
6.051843 14.239256 -3.500965 15.863101 1.168916 1.793327 0.014879 -0.007528 947026.000000 1 0 0
3.258343 16.489556 1.466235 16.872229 1.375709 1.483784 0.016324 -0.014684 -1505890.000000 1 0 0
2.694243 19.036956 -2.722165 19.418414 1.430203 1.711444 0.016843 -0.012160 -1191600.000000 1 0 0
4.065243 11.997356 10.497235 16.451586 1.244094 0.878810 0.019560 -0.005706 2511120.000000 1 0 0
8.033843 11.538356 3.322235 14.446921 0.962576 1.338758 0.005928 0.000088 394661.000000 1 0 0
0.712943 12.668556 0.107635 12.689058 1.514579 1.562314 0.008530 -0.003213 -1560970.000000 1 0 0
12.022543 9.954156 -4.749665 16.315210 0.691557 1.866192 0.033475 -0.007090 1627360.000000 1 0 0
-1.271957 16.527856 9.892035 19.303892 -1.493989 1.032776 0.018439 -0.005337 -1340770.000000 1 0 0
8.137743 14.732156 -8.169565 18.708316 1.066128 2.022702 0.056060 -0.016903 1350890.000000 1 0 0
14.496243 7.617756 -1.422265 16.437582 0.483838 1.657430 0.017471 0.002201 1468590.000000 1 0 0
12.592143 8.345856 5.924535 16.226999 0.585309 1.197052 0.012659 -0.004403 -442171.000000 1 0 0
-2.988357 14.289456 10.178235 17.796497 -1.364637 0.961948 0.014872 -0.010164 1695260.000000 1 0 0
-4.615457 17.115056 -3.047265 17.986479 -1.307390 1.741037 0.019732 -0.005583 -538154.000000 1 0 0
-7.174857 16.446756 -1.732665 18.027104 -1.159438 1.667059 0.017811 -0.006443 970337.000000 1 0 0
8.425643 11.253756 -1.902065 14.186484 0.928130 1.705277 0.011055 -0.003358 -983651.000000 1 0 0
8.657943 12.901056 -4.286465 16.117413 0.979728 1.839988 0.031951 -0.007196 2107310.000000 1 0 0
2.541243 14.822256 -7.306665 16.719586 1.400999 2.023071 0.011801 -0.011757 448521.000000 1 0 0
11.412043 11.390856 9.606535 18.768906 0.784469 1.033480 0.025521 -0.015922 -199813.000000 1 0 0
8.720543 15.711456 1.531935 18.034537 1.064089 1.485749 0.019911 -0.006041 396965.000000 1 0 0
6.080143 9.963356 7.776935 14.025595 1.022874 0.983056 0.004200 0.004124 774003.000000 1 0 0
14.464443 11.247756 2.612135 18.508251 0.660941 1.429190 0.028039 -0.004207 1776390.000000 1 0 0
12.186743 12.636856 1.102335 17.590394 0.803529 1.508088 0.028657 -0.002794 2767210.000000 1 0 0
5.352343 16.063956 8.166835 18.798815 1.249175 1.121387 0.025524 -0.002762 -836095.000000 1 0 0
11.734343 14.858156 5.158735 19.623255 0.902332 1.304781 0.036199 -0.011979 1501300.000000 1 0 0
6.132243 16.841156 1.786935 18.011720 1.221596 1.471423 0.017461 -0.016238 518800.000000 1 0 0
-0.612057 16.103156 -4.163565 16.643963 -1.532806 1.823636 0.017161 -0.006796 2386590.000000 1 0 0
16.135543 6.365256 2.511535 17.526552 0.375744 1.427002 0.010844 -0.000005 -1648800.000000 1 0 0
7.688743 16.685956 -3.236965 18.655183 1.139005 1.745195 0.032201 -0.010033 -729558.000000 1 0 0
14.873343 8.118156 7.486635 18.524861 0.499628 1.154758 0.040586 -0.016577 713603.000000 1 0 0
2.178443 12.992556 8.532235 15.695578 1.404673 0.996067 0.012127 0.001911 1173930.000000 1 0 0
16.031643 7.426656 -5.915465 18.632271 0.433818 1.893872 0.022627 -0.000866 -282317.000000 1 0 0
-2.919557 17.025156 0.663735 17.286419 -1.400963 1.532391 0.008214 -0.007481 -282563.000000 1 0 0
-2.845557 18.607656 4.573935 19.371705 -1.419048 1.332431 0.011008 -0.010585 933083.000000 1 0 0
-0.830857 19.074956 0.790535 19.109401 -1.527266 1.529416 0.016126 -0.015743 -1132470.000000 1 0 0
7.187043 16.677656 -6.098465 19.156959 1.163907 1.894776 0.041297 -0.011619 1397970.000000 1 0 0
11.110043 9.967256 0.685935 14.941544 0.731232 1.524872 0.014241 -0.001951 -1373780.000000 1 0 0
9.129343 8.746756 14.286135 19.077324 0.763999 0.724465 0.021601 -0.013286 -269394.000000 1 0 0
6.320743 12.383056 -8.361365 16.223572 1.098836 2.112252 0.032621 -0.020623 1653450.000000 1 0 0
6.319843 9.056956 13.347235 17.323901 0.961556 0.691246 0.021575 -0.014013 726021.000000 1 0 0
16.701243 9.381856 2.903435 19.374743 0.511816 1.420373 0.025947 -0.000218 -1111610.000000 1 0 0
2.675743 14.781956 -0.859465 15.046744 1.391721 1.627947 0.010216 -0.008647 -186866.000000 1 0 0
9.230843 12.886956 8.248335 17.869447 0.949219 1.091011 0.015469 -0.010727 1018990.000000 1 0 0
7.281643 9.327356 10.562635 15.861625 0.907950 0.842065 0.007583 -0.004473 694658.000000 1 0 0
4.440443 15.792856 -5.393165 17.268991 1.296705 1.888413 0.024058 -0.010276 2208030.000000 1 0 0
0.234643 16.322156 -8.132065 18.237278 1.556422 2.032980 0.019815 -0.006106 -35943.500000 1 0 0
-2.409157 15.619856 -1.951965 15.924638 -1.417765 1.693681 0.007559 -0.004148 209820.000000 1 0 0
13.416443 10.567656 7.616835 18.700066 0.667174 1.151283 0.037695 -0.015708 198320.000000 1 0 0
-0.908257 15.990156 7.040435 17.495078 -1.514056 1.156633 0.011155 -0.004967 3415970.000000 1 0 0
13.625543 13.325856 6.719935 20.208696 0.774279 1.231815 0.045515 -0.011656 -1152310.000000 1 0 0
5.443443 17.436256 4.525035 18.818343 1.268193 1.327958 0.018232 -0.014059 -102122.000000 1 0 0
10.857443 9.516056 -1.940865 14.567304 0.719653 1.704428 0.011615 0.000234 166948.000000 1 0 0
3.334443 12.765256 4.775235 14.031149 1.315293 1.223527 0.004396 0.001397 1633540.000000 1 0 0
-0.080657 18.122756 3.555335 18.468384 -1.566346 1.377078 0.011308 -0.010496 2654830.000000 1 0 0
-7.795257 15.857456 -5.758565 18.584564 -1.113905 1.885839 0.032704 -0.013668 451429.000000 1 0 0
-12.587057 -9.059644 8.360335 17.618353 0.623864 1.076373 0.034564 -0.009534 159262.000000 1 0 0
-13.355657 -11.646244 6.885635 19.011064 0.717133 1.200179 0.040712 -0.008410 -1331180.000000 1 0 0
-6.635757 -12.453944 12.387735 18.777379 1.081236 0.850356 0.039611 -0.005842 -1536670.000000 1 0 0
-1.848357 -10.694144 14.439535 18.063259 1.399649 0.644522 -0.000161 -0.000297 1407480.000000 1 0 0
-8.919757 2.929256 10.945435 14.420304 -0.317305 0.708975 0.007253 -0.003299 1516980.000000 1 0 0
0.495143 10.088256 15.073935 18.145016 1.521755 0.590346 0.017468 -0.013645 222185.000000 1 0 0
0.970843 -6.765244 16.547935 17.903777 -1.428265 0.391676 -0.001867 -0.013235 1745580.000000 1 0 0
6.039143 2.536856 17.732535 18.903695 0.397687 0.353849 0.029758 -0.013839 1609130.000000 1 0 0
-5.070157 -2.871044 17.586935 18.526998 0.515244 0.319922 0.024084 -0.013048 1349340.000000 1 0 0
-4.273657 8.168456 12.993735 15.931885 -1.088769 0.617065 0.001476 0.001427 1106660.000000 1 0 0
0.077143 -4.943144 18.614135 19.259456 -1.555192 0.259598 0.014361 -0.017226 -149213.000000 1 0 0
-11.673057 2.103756 11.117235 16.256659 -0.178309 0.817760 0.022748 -0.004926 2288190.000000 1 0 0
-3.427457 -5.988044 14.314935 15.890925 1.050931 0.449132 0.009097 -0.008962 364309.000000 1 0 0
-7.545057 -2.142844 14.556235 16.534922 0.276720 0.494233 0.019593 -0.005995 1790210.000000 1 0 0
-6.193757 -1.085244 10.614935 12.337635 0.173455 0.534800 0.004926 -0.004414 1097110.000000 1 0 0
-4.007357 2.445856 11.083535 12.036855 -0.547989 0.400670 0.000163 0.001144 1160000.000000 1 0 0
-6.414957 6.299556 13.535435 16.249433 -0.776322 0.586326 -0.004104 0.002934 218204.000000 1 0 0
-8.980157 5.472156 12.420935 16.274745 -0.547274 0.702541 0.008103 -0.005013 353568.000000 1 0 0
-12.336557 -2.209244 15.850435 20.206625 0.177203 0.669040 0.043727 0.002133 194271.000000 1 0 0
-3.425457 -7.566844 16.941835 18.868404 1.145705 0.455833 0.016279 -0.009320 -383027.000000 1 0 0
-0.579157 -5.348744 14.466735 15.434730 1.462937 0.356040 0.003864 -0.006580 2217320.000000 1 0 0
-14.361257 -2.136644 13.733035 19.985175 0.147695 0.813222 0.057640 -0.003493 -1562800.000000 1 0 0
-6.543857 1.540056 12.122135 13.861457 -0.231138 0.506349 0.004615 -0.002210 -668557.000000 1 0 0
2.172843 -2.094544 14.543035 14.852886 -0.767052 0.204618 0.004984 -0.003163 725551.000000 1 0 0
-12.560457 4.040656 9.075835 16.014455 -0.311241 0.968268 0.015811 -0.007340 -657853.000000 1 0 0
-9.165457 -2.921244 12.510035 15.781009 0.308544 0.655526 0.008775 -0.000439 982776.000000 1 0 0
-7.099657 -7.178644 15.278235 18.312906 0.790930 0.583957 0.030815 -0.009397 428751.000000 1 0 0
-3.281757 5.922156 19.441535 20.586771 -1.064773 0.335122 0.045843 -0.010952 -946356.000000 1 0 0
0.583743 5.498956 16.111235 17.033824 1.465037 0.330631 0.009304 -0.006180 2454140.000000 1 0 0
3.460443 1.609956 16.663935 17.095419 0.435460 0.225152 0.020616 -0.007389 1940560.000000 1 0 0
-11.665557 11.434956 7.795835 18.100234 -0.775416 1.125524 0.022115 -0.014304 293924.000000 1 0 0
0.502843 -9.482044 15.479835 18.160047 -1.517815 0.550216 -0.015515 0.002363 -280684.000000 1 0 0
-2.439957 -3.595644 18.813735 19.309031 0.974587 0.226986 0.020189 -0.017067 1815490.000000 1 0 0
-12.883857 2.554256 13.666235 18.954788 -0.195715 0.765565 0.025963 -0.013973 521804.000000 1 0 0
-5.371057 -0.548944 15.722135 16.623331 0.101850 0.330786 0.016423 -0.004127 455526.000000 1 0 0
-4.544057 -5.909044 11.612835 13.799391 0.915245 0.570656 0.009104 -0.001962 -52391.100000 1 0 0
2.368343 1.889356 13.920435 14.246306 0.673370 0.214298 0.008657 -0.004567 -459403.000000 1 0 0
0.088243 3.356356 14.212935 14.604124 1.544511 0.231977 0.005433 -0.004545 1488220.000000 1 0 0
-13.108357 7.080556 12.081435 19.181355 -0.495254 0.889432 0.035860 -0.011731 1962670.000000 1 0 0
0.873643 1.584656 18.183235 18.273052 1.066945 0.099190 0.013807 -0.003426 2323120.000000 1 0 0
-2.042557 6.477156 12.352035 14.096040 -1.265319 0.502717 -0.003772 0.002336 939757.000000 1 0 0
-13.559057 -2.616344 10.869835 17.574032 0.190616 0.903943 0.041897 -0.006331 1247930.000000 1 0 0
-2.640757 3.661756 13.371835 14.113399 -0.946002 0.325607 -0.000881 -0.001110 -11013.500000 1 0 0
3.500543 6.205856 16.288935 17.779085 1.057214 0.412341 0.015100 -0.008774 281514.000000 1 0 0
-3.775057 12.375356 12.307335 17.856959 -1.274716 0.810387 0.015856 -0.007626 1644670.000000 1 0 0
3.734043 -1.357444 16.931735 17.391647 -0.348679 0.230486 0.022524 -0.011239 -376301.000000 1 0 0
-15.898957 0.451356 9.046935 18.298295 -0.028381 1.053636 0.050664 -0.009442 322324.000000 1 0 0
-4.698957 4.635156 15.190235 16.562249 -0.778563 0.409901 0.007802 -0.000514 788151.000000 1 0 0
-8.015357 -8.175944 10.538135 15.560987 0.795316 0.826825 0.016966 -0.006387 3989380.000000 1 0 0
-2.678357 -0.406144 14.712135 14.959461 0.150493 0.182092 0.014673 -0.003522 2008730.000000 1 0 0
-1.841857 1.018956 17.195535 17.323889 -0.505314 0.121805 0.019580 -0.009444 2837290.000000 1 0 0
-0.671157 -2.431244 14.404935 14.624074 1.301449 0.173334 0.006696 -0.002700 -188065.000000 1 0 0
5.056843 -8.067744 16.531835 19.077781 -1.010905 0.522550 0.009204 -0.010173 512792.000000 1 0 0
-4.468157 9.984556 10.586635 15.222767 -1.150018 0.801754 0.001806 -0.002810 -871451.000000 1 0 0
-6.201657 2.180156 15.173335 16.536134 -0.338050 0.408830 0.010040 -0.000917 -542163.000000 1 0 0
-4.842057 6.914256 17.296535 19.246365 -0.959869 0.454021 0.016204 0.001126 -283637.000000 1 0 0
-3.911057 9.156756 15.761235 18.642936 -1.167129 0.563433 0.010654 -0.003995 -676343.000000 1 0 0
-4.552357 -9.911444 18.313035 21.314970 1.140233 0.537164 0.036998 -0.016001 -1401880.000000 1 0 0
-6.932957 -4.084344 11.114135 13.721216 0.532381 0.626650 0.008152 -0.002552 499731.000000 1 0 0
-2.188257 -0.786244 19.542435 19.680280 0.344937 0.118426 0.023976 -0.008623 863028.000000 1 0 0
-5.734857 -4.427144 15.256235 16.889076 0.657415 0.443350 0.016119 -0.006555 1561400.000000 1 0 0
-12.950057 0.039456 9.692735 16.175743 -0.003047 0.928277 0.024723 -0.003933 1962200.000000 1 0 0
-14.531857 8.864656 10.256335 19.873334 -0.547751 1.028522 0.038528 -0.015408 -1144770.000000 1 0 0
-8.367057 10.465256 12.919535 18.612996 -0.896355 0.803608 0.013260 -0.010141 -204098.000000 1 0 0
-10.486357 7.157856 10.715635 16.613953 -0.598944 0.869802 0.018719 -0.005812 613190.000000 1 0 0
-9.867357 -6.435144 14.754135 18.880157 0.577896 0.673790 0.038193 -0.011264 -268621.000000 1 0 0
-0.727457 -13.501744 14.426835 19.772705 1.516970 0.753010 -0.000373 -0.005045 725379.000000 1 0 0
3.786943 -5.534444 16.921135 18.201533 -0.970719 0.377323 0.015833 -0.013331 2685570.000000 1 0 0
-7.300757 9.312356 10.399835 15.753653 -0.905897 0.849773 0.005509 -0.002732 1877400.000000 1 0 0
-10.329557 -6.664644 11.818435 17.052643 0.572994 0.805077 0.035937 -0.012253 2351490.000000 1 0 0
-10.989657 -3.906044 10.686135 15.818446 0.341503 0.829087 0.022303 -0.000804 -765549.000000 1 0 0
-10.208657 -10.152844 9.838235 17.438113 0.782657 0.971357 0.039121 -0.014707 2139060.000000 1 0 0
-9.959157 -3.497744 15.222135 18.523834 0.337751 0.606305 0.031675 -0.008584 1878390.000000 1 0 0
5.586543 -3.288344 16.016035 17.278196 -0.532009 0.384594 0.023526 -0.015508 1031290.000000 1 0 0
-11.434257 0.572456 15.246135 19.066058 -0.050023 0.644088 0.026521 -0.008006 -990747.000000 1 0 0
-3.206357 3.040456 18.807435 19.319542 -0.758847 0.230760 0.033631 -0.010370 -217382.000000 1 0 0
0.518043 7.430856 13.798935 15.681090 1.501194 0.494991 0.006774 -0.008407 1991580.000000 1 0 0
-13.149757 -7.413844 12.294935 19.469120 0.513377 0.887298 0.038873 -0.014066 -150444.000000 1 0 0
-1.598457 -1.189444 12.100635 12.263572 0.639727 0.163192 0.007493 -0.004769 688852.000000 1 0 0
1.974743 -4.800744 13.140635 14.128802 -1.180552 0.376220 0.003866 -0.004757 831007.000000 1 0 0
-14.773357 -4.066044 8.588435 17.565478 0.268578 1.059924 0.045580 -0.013799 -2408640.000000 1 0 0
8.119843 1.147756 16.216935 18.172456 0.140422 0.468180 0.027417 -0.013307 389615.000000 1 0 0
-1.310157 11.403856 13.260535 17.538707 -1.456411 0.713505 0.016460 -0.008179 933838.000000 1 0 0
2.803543 -12.379044 -13.961465 18.868574 -1.348078 2.403766 0.008002 0.018612 159524.000000 1 0 0
0.704543 -10.823244 -14.067065 17.762920 -1.505793 2.484767 -0.000917 0.016627 -2567030.000000 1 0 0
3.279043 -14.517944 -12.411665 19.379687 -1.348662 2.265877 0.019225 0.011324 300223.000000 1 0 0
-5.081357 -10.319844 -16.132465 19.813526 1.113258 2.522172 0.018058 -0.010660 28849.300000 1 0 0
-1.169057 -12.233044 -15.089765 19.460603 1.475520 2.458146 0.010010 0.007618 -310319.000000 1 0 0
5.866943 -15.018244 -12.079265 20.146397 -1.198372 2.213766 0.022497 0.001670 1258540.000000 1 0 0
1.846343 -11.898644 -16.233065 20.211361 -1.416852 2.503386 0.008586 0.017981 -586373.000000 1 0 0
1.221943 -14.499744 -14.042765 20.222141 -1.486722 2.338417 0.025117 0.015971 -355290.000000 1 0 0
-1.094057 -10.607444 -15.977765 19.209472 1.468019 2.553076 -0.000971 0.001716 -418094.000000 1 0 0
-6.128657 -5.853244 -14.920165 17.159028 0.762416 2.625032 0.023581 -0.005894 91120.100000 1 0 0
-6.289757 -7.715944 -16.787565 19.517151 0.886877 2.606349 0.018874 0.003702 579088.000000 1 0 0
4.951943 -12.685244 -11.403265 17.761520 -1.198619 2.267927 0.004567 0.010039 371568.000000 1 0 0
-1.899757 -15.495044 -13.132465 20.400174 1.448801 2.270176 0.025416 0.001599 32522.100000 1 0 0
15.709543 -7.236744 -8.963765 19.480998 -0.431683 2.048936 0.069158 -0.007376 517411.000000 1 0 0
19.403943 -3.386444 -4.425565 20.188279 -0.172783 1.791806 0.110663 -0.025463 682300.000000 1 0 0
14.726843 -11.711044 -8.685765 20.723681 -0.671818 2.003275 0.050936 -0.014212 -330470.000000 1 0 0
18.014643 -3.597444 -6.638165 19.532900 -0.197103 1.917549 0.113076 -0.016145 540068.000000 1 0 0
9.519543 -9.457644 -15.558165 20.545686 -0.782136 2.429884 0.085736 -0.009752 184517.000000 1 0 0
1.321543 1.830256 -15.270165 15.436135 0.945422 2.994818 0.014773 -0.011761 67235.200000 1 0 0
4.885543 -4.365744 -13.922265 15.386933 -0.729271 2.701732 0.006385 -0.002331 1536610.000000 1 0 0
13.083743 -5.508544 -8.698965 16.649336 -0.398496 2.120555 0.040712 -0.001420 -1657440.000000 1 0 0
2.973543 0.980956 -12.165565 12.562054 0.318653 2.889680 0.008505 -0.008816 -992572.000000 1 0 0
0.658743 6.300856 -12.860565 14.336278 1.466627 2.683877 0.008085 -0.010707 -270925.000000 1 0 0
3.117043 -1.063344 -16.783665 17.103744 -0.328759 2.947827 0.017795 -0.011614 -453088.000000 1 0 0
13.307843 4.492256 -11.644065 18.244541 0.325554 2.262983 0.034050 -0.004091 546565.000000 1 0 0
-3.887957 9.387056 -16.470265 19.352071 -1.178123 2.588845 0.002411 -0.007616 -444928.000000 1 0 0
-0.227757 -5.076444 -17.668665 18.384882 1.525961 2.861548 0.012776 -0.012665 348279.000000 1 0 0
-0.553557 -8.578144 -17.576165 19.565596 1.506355 2.686727 0.007558 -0.006971 -1080670.000000 1 0 0
5.542843 -10.175444 -12.268865 16.875658 -1.072010 2.384762 -0.000485 0.007880 471471.000000 1 0 0
1.682043 -9.695044 -18.017465 20.529301 -1.399011 2.641726 0.023043 -0.008574 -451770.000000 1 0 0
10.480943 8.985256 -14.860965 20.283818 0.708714 2.393006 0.070910 -0.031679 -1957060.000000 1 0 0
10.937343 -3.739344 -12.957965 17.364245 -0.329430 2.413198 0.030913 -0.001383 564370.000000 1 0 0
4.880743 7.388156 -12.276365 15.136566 0.986994 2.516725 -0.005222 -0.007228 -583090.000000 1 0 0
9.833843 -6.048944 -12.650165 17.126613 -0.551459 2.401826 0.032239 0.004506 -904704.000000 1 0 0
-3.426157 0.464756 -15.953065 16.323444 -0.134826 2.928162 0.016647 -0.007060 -1107470.000000 1 0 0
-0.758557 10.703756 -12.733665 16.652088 -1.500046 2.441355 -0.000213 -0.009258 -1855040.000000 1 0 0
6.691243 -5.489344 -12.281065 15.024320 -0.687043 2.527701 0.005539 0.000373 534253.000000 1 0 0
17.785943 -6.019144 -8.050465 20.429876 -0.326323 1.975834 0.096727 -0.022072 -211593.000000 1 0 0
13.312443 4.549956 -14.235465 20.014287 0.329335 2.362093 0.072167 -0.010395 158996.000000 1 0 0
14.255543 0.739956 -11.581865 18.382264 0.051860 2.252422 0.036788 -0.005709 -439299.000000 1 0 0
15.101643 6.186456 -11.117465 19.746642 0.388801 2.168814 0.053714 -0.013089 -349938.000000 1 0 0
8.398643 1.556256 -11.654965 14.449822 0.183220 2.509143 0.001458 -0.000520 629791.000000 1 0 0
9.990543 1.198756 -8.960065 13.473334 0.119418 2.298320 0.003594 0.001691 278795.000000 1 0 0
-0.103957 -5.822744 -12.964265 14.212224 1.552945 2.719396 0.002827 -0.000866 400006.000000 1 0 0
10.575243 -5.706344 -9.103865 15.075758 -0.494819 2.219149 0.019246 -0.001494 -877537.000000 1 0 0
10.215343 8.570756 -11.271765 17.460349 0.698078 2.272557 0.058030 -0.029287 990787.000000 1 0 0
8.016843 8.438856 -14.478765 18.577371 0.811038 2.464466 0.048793 -0.023943 -317140.000000 1 0 0
8.595243 10.587256 -10.606265 17.276025 0.888873 2.231826 0.076691 -0.032308 -284141.000000 1 0 0
7.164543 1.708456 -17.629965 19.106678 0.234088 2.745854 0.032933 -0.013059 -3329530.000000 1 0 0
12.208143 2.604256 -12.899865 17.950694 0.210171 2.372623 0.037596 -0.010415 -1437780.000000 1 0 0
2.526543 -0.737744 -19.176565 19.356351 -0.284099 3.005191 0.032387 -0.023161 -811517.000000 1 0 0
10.198443 -2.394044 -15.786265 18.945866 -0.230571 2.555720 0.052734 -0.004618 -577405.000000 1 0 0
8.366043 -0.747744 -13.029365 15.502069 -0.089142 2.568987 0.011465 -0.008892 1461200.000000 1 0 0
0.629243 4.327456 -14.654065 15.292627 1.426401 2.851592 0.009153 -0.009573 -129275.000000 1 0 0
3.953943 -7.736944 -15.672165 17.919563 -1.098350 2.635374 0.013260 -0.002801 -1708590.000000 1 0 0
11.536343 -5.651944 -14.614165 19.457788 -0.455555 2.420478 0.077962 -0.000647 -120835.000000 1 0 0
-5.800857 4.457956 -16.787365 18.312262 -0.655236 2.730609 0.010508 -0.004818 224068.000000 1 0 0
11.441343 7.980956 -9.174565 16.696485 0.609083 2.152551 0.045080 -0.018436 -278680.000000 1 0 0
9.503543 6.402856 -13.578965 17.768010 0.592879 2.440653 0.032420 -0.005035 1004170.000000 1 0 0
12.111043 0.529856 -10.329565 15.926645 0.043722 2.276502 0.015806 0.002358 -1031440.000000 1 0 0
5.564343 -7.231044 -13.760465 16.510612 -0.914927 2.556085 0.004743 0.004309 -888987.000000 1 0 0
8.594343 -10.351944 -10.750765 17.222207 -0.877901 2.244953 0.017782 0.004324 102430.000000 1 0 0
10.118243 4.821156 -15.794665 19.367339 0.444656 2.524442 0.057905 -0.014905 -533783.000000 1 0 0
9.821143 -0.472144 -10.905065 14.683263 -0.048037 2.407870 0.007244 -0.000843 -1174660.000000 1 0 0
-1.614857 5.502356 -13.991865 15.121375 -1.285328 2.752632 0.006565 -0.011507 640100.000000 1 0 0
1.375543 -0.692344 -14.842865 14.922537 -0.466303 3.038212 0.014665 -0.010725 460095.000000 1 0 0
11.407043 -10.808044 -14.359465 21.286819 -0.758441 2.311179 0.101017 -0.010618 1645190.000000 1 0 0
9.319743 -7.845544 -10.885965 16.337515 -0.699726 2.300055 0.024534 0.002396 -328326.000000 1 0 0
14.042343 -0.961244 -9.682065 17.083728 -0.068347 2.173342 0.028707 -0.002690 758476.000000 1 0 0
4.009843 11.142156 -12.291565 17.067778 1.225347 2.374832 0.014730 -0.017740 -726902.000000 1 0 0
-1.210257 2.931856 -16.672365 16.971395 -1.179308 2.953595 0.016887 -0.013505 -224528.000000 1 0 0
5.984643 -0.592744 -17.494065 18.498908 -0.098722 2.810479 0.012013 -0.007948 72137.800000 1 0 0
6.173743 -6.588544 -16.247265 18.587567 -0.817889 2.634362 0.020937 -0.000788 -5083.870000 1 0 0
-1.806857 -5.088844 -19.716865 20.442990 1.229619 2.874266 0.023813 -0.026572 -388257.000000 1 0 0
-0.034957 -4.269044 -15.099965 15.691874 1.562608 2.866056 0.007133 -0.007375 -134156.000000 1 0 0
0.518743 0.777656 -12.905465 12.939276 0.982522 3.069285 0.011177 -0.011837 160574.000000 1 0 0
15.610543 0.589656 -13.712565 20.786322 0.037755 2.291205 0.083129 -0.024554 562976.000000 1 0 0
-0.142457 6.972056 -16.300565 17.729588 -1.550367 2.737346 0.012718 -0.007312 -54367.400000 1 0 0
-4.988457 -0.561544 -18.317765 18.993171 0.112097 2.874111 0.013905 -0.003197 -181039.000000 1 0 0
10.421543 -8.505044 -13.244065 18.877224 -0.684483 2.348422 0.043461 -0.002338 931209.000000 1 0 0
4.313643 8.463656 -17.281265 19.720119 1.099445 2.638979 0.030859 -0.017554 -23170.500000 1 0 0
9.351843 0.459356 -16.805165 19.237504 0.049080 2.633271 0.048187 -0.013154 33396.500000 1 0 0
3.377743 4.907556 -18.506265 19.441582 0.967984 2.830145 0.031043 -0.005665 -464594.000000 1 0 0
1.432643 -8.102444 -15.937565 17.936222 -1.395789 2.665012 0.001081 -0.002863 -35719.600000 1 0 0
4.539243 7.709256 -14.832365 17.321559 1.038650 2.598849 0.008027 -0.010059 170221.000000 1 0 0
-5.725357 -0.413444 -15.178565 16.227738 0.072088 2.780035 0.013779 -0.005191 -693993.000000 1 0 0
2.904443 3.308356 -13.789465 14.475163 0.850320 2.832564 0.011459 -0.007697 -352265.000000 1 0 0
-2.453857 -10.141844 -18.162165 20.946185 1.333405 2.620121 0.018029 -0.009095 40261.600000 1 0 0
6.169943 -9.134944 -15.417565 18.953013 -0.976757 2.520877 0.012572 0.000248 201064.000000 1 0 0
-1.858357 5.363956 -17.436465 18.337280 -1.237285 2.826847 0.011075 -0.001339 1321460.000000 1 0 0
9.923343 -12.381444 -11.739565 19.738041 -0.895160 2.207774 0.055212 -0.001473 -10155.200000 1 0 0
10.960743 3.560056 -9.468165 14.915027 0.314052 2.258555 0.011112 -0.002068 -27242.000000 1 0 0
4.875343 -0.490744 -10.977965 12.021876 -0.100320 2.721781 0.005584 -0.006237 404291.000000 1 0 0
6.312343 9.569256 -11.474565 16.219802 0.987668 2.356668 0.031720 -0.020399 68725.200000 1 0 0
10.796143 -9.587844 -9.519565 17.294669 -0.726191 2.153680 0.041891 -0.002052 264023.000000 1 0 0
3.333643 -2.399044 -14.443865 15.016452 -0.623790 2.864553 0.007879 -0.007717 -84069.100000 1 0 0
9.161143 -4.585044 -14.695765 17.914092 -0.464038 2.532813 0.035172 -0.009468 -380399.000000 1 0 0
-4.053057 -6.414844 -16.491265 18.153218 1.007304 2.710354 0.008506 -0.008996 -1964390.000000 1 0 0
5.981143 -7.805444 -11.255465 14.946054 -0.916958 2.423516 0.001907 0.004409 342326.000000 1 0 0
5.466143 6.234356 -16.780165 18.716833 0.850961 2.682665 0.021896 -0.013036 -1190270.000000 1 0 0
9.075243 1.168456 -19.314265 21.372088 0.128048 2.699164 0.064925 -0.019753 521034.000000 1 0 0
13.039943 5.795756 -9.536065 17.162967 0.418239 2.159903 0.012815 -0.006593 451779.000000 1 0 0
-1.670657 -0.773744 -17.314065 17.411681 0.433725 3.035653 0.023599 -0.011035 536931.000000 1 0 0
-0.375957 -0.439544 -19.529065 19.537628 0.863213 3.111984 0.034488 -0.019437 -599441.000000 1 0 0
2.882543 6.522256 -16.500365 17.975286 1.154653 2.733671 0.013237 -0.001224 -1089180.000000 1 0 0
7.674543 3.860856 -15.621165 17.827664 0.466103 2.638782 0.019032 -0.003128 -863763.000000 1 0 0
3.077443 -9.930344 -14.873465 18.146690 -1.270279 2.531551 0.006360 0.008897 1167370.000000 1 0 0
8.922143 -10.656344 -13.391465 19.300094 -0.873744 2.337625 0.046177 0.002554 -261190.000000 1 0 0
3.815943 0.146556 -14.736465 15.223216 0.038387 2.888034 0.006245 -0.006699 -2102010.000000 1 0 0
-1.132357 -2.856444 -18.823065 19.072212 1.193378 2.979779 0.028211 -0.015846 562944.000000 1 0 0
9.183443 10.218956 -13.029065 18.934604 0.838718 2.329676 0.085626 -0.038785 14902.200000 1 0 0
4.787343 2.124456 -10.651865 11.869886 0.417657 2.684605 -0.000671 -0.003810 220879.000000 1 0 0
-0.487857 7.032356 -18.891965 20.164285 -1.501534 2.784458 0.019750 -0.002346 206181.000000 1 0 0
0.747543 -1.653644 -17.476265 17.570236 -1.146232 3.038122 0.027858 -0.021502 -1738110.000000 1 0 0
-4.453657 -2.188444 -14.054965 14.905247 0.456729 2.802191 0.015333 -0.009266 -3536890.000000 1 0 0
10.130143 6.036556 -10.468365 15.768528 0.537400 2.296788 0.021722 -0.004159 -259042.000000 1 0 0
8.356943 5.405456 -17.583365 20.204756 0.574138 2.626524 0.060059 -0.012963 -253270.000000 1 0 0
11.342443 0.256456 -13.765765 17.838528 0.022606 2.452286 0.028705 0.000467 563757.000000 1 0 0
6.707543 11.996956 -11.777565 18.100528 1.060991 2.279270 0.066675 -0.038602 -355147.000000 1 0 0
-0.897057 0.576956 -15.116365 15.153946 -0.571555 3.071152 0.016057 -0.011404 33773.600000 1 0 0
-4.457657 -3.043644 -19.053665 19.803450 0.599082 2.865539 0.018654 -0.002939 -52413.700000 1 0 0
5.650143 -12.211644 -13.912465 19.354716 -1.137444 2.372893 0.012177 0.007164 -127505.000000 1 0 0
2.238343 -4.724444 -13.987365 14.932412 -1.128345 2.783913 0.007156 -0.003753 1444260.000000 1 0 0
11.825343 2.147256 -15.435765 19.563034 0.179624 2.480020 0.069799 -0.011433 195188.000000 1 0 0
9.739643 2.306856 -13.789665 17.039281 0.232567 2.513733 0.020681 -0.008791 979793.000000 1 0 0
-2.226457 -4.060744 -16.357965 17.000876 1.069268 2.865705 0.006212 -0.011659 -1812280.000000 1 0 0
-2.861557 10.051656 -14.222765 17.649684 -1.293448 2.507884 0.007860 -0.015472 275983.000000 1 0 0
3.523443 5.729556 -13.612365 15.183509 1.019450 2.682654 0.003471 -0.005125 -102771.000000 1 0 0
-5.025257 -2.601644 -16.532365 17.474005 0.477718 2.811808 0.013053 -0.005017 383905.000000 1 0 0
-4.216657 6.152556 -13.402965 15.338631 -0.969970 2.633768 0.001468 -0.011394 242673.000000 1 0 0
5.964143 -1.092644 -13.999265 15.255959 -0.181193 2.732862 0.008484 -0.006350 -1708640.000000 1 0 0
6.871843 -3.013744 -12.550365 14.622467 -0.413303 2.602731 0.009256 -0.004846 1617900.000000 1 0 0
2.781643 -3.221744 -18.217665 18.708300 -0.858576 2.912067 0.027340 -0.022584 275834.000000 1 0 0
7.409043 -12.202644 -12.084565 18.703881 -1.025124 2.273259 0.025419 0.006340 -1115290.000000 1 0 0
-6.259957 -5.258044 -17.421165 19.243988 0.698630 2.702831 0.039356 -0.014623 479335.000000 1 0 0
0.558243 8.635756 -11.788965 14.624213 1.506243 2.508373 0.002271 -0.007142 -223829.000000 1 0 0
0.136843 8.395156 -14.297265 16.580385 1.554498 2.610590 -0.003709 -0.011832 -731661.000000 1 0 0
7.756243 -2.365744 -15.040765 17.087442 -0.296048 2.647129 0.018364 -0.010903 -216867.000000 1 0 0
14.120543 1.654156 -8.998265 16.825419 0.116614 2.135070 0.010898 0.001401 333239.000000 1 0 0
2.659943 10.831256 -14.530165 18.317126 1.329982 2.486934 0.006253 -0.010915 197591.000000 1 0 0
6.214343 1.028656 -15.369065 16.609767 0.164042 2.752630 0.011691 -0.005648 139654.000000 1 0 0
16.763543 -5.295644 -10.296965 20.373701 -0.305982 2.100647 0.120296 -0.021203 245789.000000 1 0 0
4.878943 -4.270744 -11.167665 12.913562 -0.719024 2.615551 0.002655 -0.000776 -839955.000000 1 0 0
8.432443 -3.851544 -17.052365 19.409370 -0.428456 2.643643 0.034602 -0.015894 461058.000000 1 0 0
13.385243 -9.478644 -8.926465 18.673275 -0.616169 2.069212 0.068635 -0.009731 108303.000000 1 0 0
2.279743 -7.786744 -13.578365 15.817794 -1.285984 2.602984 -0.003103 0.005794 335516.000000 1 0 0
-6.924257 -2.336544 -18.466065 19.859515 0.325445 2.764760 0.025489 -0.003621 553579.000000 1 0 0
-1.503257 -6.355144 -15.694465 16.998937 1.338524 2.747282 -0.001221 -0.008105 1523490.000000 1 0 0
1.568543 -7.140544 -18.405065 19.803891 -1.354564 2.763488 0.024318 -0.018553 -261130.000000 1 0 0
5.324043 10.906456 -14.645965 19.021054 1.116669 2.449617 0.047383 -0.030297 805352.000000 1 0 0
5.285643 -3.340544 -17.207065 18.307931 -0.563620 2.793044 0.017933 -0.017328 -153441.000000 1 0 0
3.860643 13.026856 -14.067565 19.557605 1.282682 2.373574 0.037906 -0.028033 209330.000000 1 0 0
8.790443 10.863256 -15.398465 20.794108 0.890477 2.404641 0.094895 -0.036130 132779.000000 1 0 0
2.488043 3.855556 -16.365365 16.996495 0.997723 2.868225 0.018238 -0.005119 145918.000000 1 0 0
16.727443 1.772556 -11.606165 20.436545 0.105573 2.174764 0.079281 -0.016063 1022440.000000 1 0 0
10.090843 -3.633944 -10.582265 15.067017 -0.345664 2.349485 0.021198 -0.001141 28380.500000 1 0 0
14.927243 -2.213144 -11.929765 19.236421 -0.147190 2.239750 0.095111 -0.016291 527552.000000 1 0 0
-2.729957 -8.625044 -16.007965 18.387468 1.264258 2.627199 0.005119 -0.000209 -29173.900000 1 0 0
14.103343 8.119556 -9.052265 18.621895 0.522374 2.078428 0.061974 -0.014004 -59370.900000 1 0 0
-8.425857 -0.060444 -16.575265 18.594035 0.007174 2.671286 0.019722 -0.001027 -311586.000000 1 0 0
-3.414757 3.968756 -15.791165 16.636481 -0.860290 2.821445 0.009442 -0.009309 502011.000000 1 0 0
15.057843 4.008056 -9.756265 18.384446 0.260145 2.130199 0.016893 -0.004234 370194.000000 1 0 0
5.487043 1.122356 -12.911265 14.073666 0.201763 2.732309 0.000895 -0.004562 341259.000000 1 0 0
7.943843 -7.719544 -13.028065 17.100482 -0.771079 2.436966 0.025053 0.003632 -1513910.000000 1 0 0
3.219243 -6.107844 -11.819365 13.688195 -1.085730 2.612908 0.001550 0.002077 -632486.000000 1 0 0
-3.236557 3.354856 -18.293665 18.878256 -0.803344 2.892083 0.013722 -0.011256 -70005.300000 1 0 0
0.891043 5.171756 -17.767065 18.525917 1.400181 2.854384 0.022695 -0.014852 643997.000000 1 0 0
6.326843 7.278556 -10.225965 14.056197 0.855236 2.385476 0.005374 -0.005540 267730.000000 1 0 0
9.788543 3.861556 -11.733765 15.760978 0.375754 2.410555 0.020615 -0.001725 101997.000000 1 0 0
4.607843 1.645456 -17.385865 18.061230 0.342985 2.867263 0.020845 -0.006576 108351.000000 1 0 0
2.550943 8.125556 -13.334065 15.821797 1.266599 2.573197 -0.001327 -0.005277 337404.000000 1 0 0
14.399343 -3.459944 -9.733165 17.721365 -0.235814 2.152243 0.063643 -0.008722 364113.000000 1 0 0
-1.398857 9.122456 -16.188465 18.634441 -1.418639 2.623447 0.006637 -0.009142 -2293690.000000 1 0 0
-5.332557 2.139856 -15.611565 16.635387 -0.381611 2.788926 0.014301 -0.010547 288594.000000 1 0 0
4.584043 4.222056 -11.967765 13.493206 0.744315 2.661490 0.000029 -0.004778 516210.000000 1 0 0
9.319043 2.994456 -17.441665 20.000575 0.310906 2.630189 0.049306 -0.012301 673732.000000 1 0 0
-4.324457 14.210456 -13.341065 19.965520 -1.275385 2.302590 0.020886 -0.012956 -196346.000000 1 0 0
15.446243 -4.895144 -7.972665 18.058578 -0.306902 2.028054 0.063798 -0.008986 132581.000000 1 0 0
1.165043 9.187356 -16.656065 19.057527 1.444660 2.634147 0.008673 -0.007527 -342520.000000 1 0 0
0.529343 -3.281844 -12.714065 13.141467 -1.410879 2.885855 0.008859 -0.003144 437238.000000 1 0 0
7.550843 3.656356 -12.991365 15.464790 0.450953 2.568192 0.002378 -0.002033 746833.000000 1 0 0
-2.990657 7.494956 -15.021665 17.051945 -1.191133 2.648632 0.004808 -0.010471 305953.000000 1 0 0
12.145243 -5.188644 -11.088765 17.244989 -0.403746 2.269223 0.049718 0.001859 -749261.000000 1 0 0
0.594743 -4.430744 -20.100765 20.591891 -1.437363 2.922751 0.038102 -0.023084 -940675.000000 1 0 0
3.305343 -4.539644 -16.082765 17.034934 -0.941455 2.805665 0.017651 -0.015024 596664.000000 1 0 0
-5.593957 4.322256 -14.315265 15.965621 -0.657850 2.682897 0.003097 -0.005222 359132.000000 1 0 0
12.162343 -7.510044 -9.908965 17.392841 -0.553176 2.176956 0.029528 0.000094 30937.800000 1 0 0
-2.097257 -1.665444 -15.029365 15.266106 0.671137 2.965253 0.014908 -0.008071 203333.000000 1 0 0
6.966843 5.940756 -14.218265 16.911196 0.706070 2.569483 0.011660 -0.005945 -494559.000000 1 0 0
4.201843 -5.344244 -18.447665 19.660437 -0.904504 2.788518 0.035576 -0.020775 94634.300000 1 0 0
7.538743 7.428156 -12.262565 16.198168 0.778010 2.429558 0.022041 -0.016994 127695.000000 1 0 0
12.423743 -2.585344 -11.134165 16.882032 -0.205169 2.290986 0.031953 -0.000797 -511247.000000 1 0 0
7.475943 -0.679044 -10.651265 13.030743 -0.090582 2.527671 0.002753 -0.001575 -2901880.000000 1 0 0
5.376843 3.891756 -14.438065 15.890687 0.626521 2.710684 0.002492 -0.000838 487138.000000 1 0 0
14.832843 2.890756 -12.987865 19.926222 0.192476 2.280749 0.058954 -0.018378 614948.000000 1 0 0
-6.288757 6.899256 -15.770465 18.326368 -0.831657 2.607114 0.002076 -0.001854 510855.000000 1 0 0
-11.032557 3.858356 -16.570465 20.277686 -0.336429 2.527293 0.036417 -0.016258 137341.000000 1 0 0
-5.023857 6.622556 -18.010965 19.836639 -0.921815 2.709197 0.009801 0.010031 -306131.000000 1 0 0
-10.041557 1.639456 -15.587365 18.614152 -0.161839 2.563293 0.034840 -0.010280 -234206.000000 1 0 0
-7.606757 6.021056 -17.785365 20.259197 -0.669561 2.642236 0.015421 -0.008427 -49011.200000 1 0 0
-8.549357 3.778556 -15.501865 18.101846 -0.416156 2.598993 0.003604 -0.001369 -734068.000000 1 0 0
8.869643 13.425256 -12.033165 20.092415 0.986958 2.212912 0.135421 -0.051452 -2287980.000000 1 0 0
14.557743 9.271856 -11.289565 20.624002 0.567112 2.150050 0.112868 -0.024025 407550.000000 1 0 0
8.322543 15.921056 -9.256365 20.209528 1.089124 2.046563 0.081892 -0.024228 78300.800000 1 0 0
7.157143 13.415756 -13.901765 20.602579 1.080719 2.311434 0.104870 -0.044396 144809.000000 1 0 0
4.598343 15.713556 -12.602365 20.661079 1.286110 2.226802 0.074992 -0.044382 358520.000000 1 0 0
11.095243 11.012156 -11.446265 19.374957 0.781640 2.202817 0.116536 -0.040480 1314960.000000 1 0 0
16.164143 9.704156 -9.187365 20.972788 0.540677 2.024237 0.097836 -0.022433 1579460.000000 1 0 0
13.684643 10.660156 -9.270665 19.668594 0.661796 2.061610 0.129338 -0.031677 -322357.000000 1 0 0
10.560643 11.784656 -8.328965 17.882308 0.840121 2.055296 0.067078 -0.019005 224597.000000 1 0 0
5.219543 16.193456 -10.040565 19.755622 1.258986 2.103934 0.055915 -0.025827 -345099.000000 1 0 0
6.730843 14.643256 -11.541265 19.822462 1.139943 2.192267 0.069815 -0.025979 -1559450.000000 1 0 0
10.877243 13.770456 -10.088965 20.241716 0.902246 2.092577 0.119705 -0.032502 -404862.000000 1 0 0
8.303543 -18.567044 -1.441565 20.390244 -1.150257 1.641554 0.042548 -0.001350 -97064.300000 1 0 0
7.451843 -17.133944 -3.518565 19.012688 -1.160556 1.756933 0.036499 -0.013073 130040.000000 1 0 0
4.506543 -18.416344 5.696035 19.796855 -1.330809 1.278947 0.039499 -0.000092 409773.000000 1 0 0
9.894743 -16.836044 -2.629565 19.704642 -1.039461 1.704645 0.042312 -0.007711 303476.000000 1 0 0
-9.746957 -12.315944 -9.925665 18.579679 0.901315 2.134383 0.040857 -0.008782 80264.500000 1 0 0
-5.120857 -6.987344 -12.139565 14.913591 0.938345 2.521791 0.010956 -0.002430 141022.000000 1 0 0
-10.768857 -9.588344 -5.713865 15.509767 0.727473 1.948088 0.012470 -0.000485 -2126440.000000 1 0 0
-4.578557 -11.328344 -13.961865 18.553389 1.186702 2.422682 0.013665 -0.005339 157400.000000 1 0 0
-2.908657 -15.498444 7.486435 17.455909 1.385280 1.127547 0.017375 -0.000740 117211.000000 1 0 0
-4.795657 -11.950344 -11.481365 17.251979 1.189171 2.298973 0.014853 0.000448 808827.000000 1 0 0
-14.496157 -12.932344 -3.982765 19.830444 0.728446 1.773013 0.056352 -0.005505 96265.100000 1 0 0
-3.285057 -12.289944 -3.220365 13.122693 1.309606 1.818733 0.013804 -0.001491 981355.000000 1 0 0
-2.420457 -17.352744 -1.321265 17.570489 1.432205 1.646065 0.019314 -0.020471 -341538.000000 1 0 0
-5.886457 -12.234344 3.713935 14.075612 1.122349 1.303779 0.004954 -0.000843 325869.000000 1 0 0
-8.952057 -10.810944 -11.953865 18.436668 0.879181 2.276244 0.029627 -0.004544 -749087.000000 1 0 0
-9.860457 -12.018544 -7.375865 17.206900 0.883717 2.013803 0.032784 -0.006833 48392.000000 1 0 0
-10.989257 -14.968744 6.258735 19.595888 0.937519 1.245710 0.050935 -0.016162 -113103.000000 1 0 0
-9.375257 -15.586644 0.844235 18.208560 1.029280 1.524415 0.025811 -0.004701 -1479800.000000 1 0 0
-14.912357 -7.696744 -8.133665 18.648720 0.476470 2.022114 0.029132 -0.010612 391243.000000 1 0 0
-2.427357 -16.495744 5.097935 17.435325 1.424694 1.274070 0.027835 -0.012341 336766.000000 1 0 0
4.470043 -15.836444 5.676235 17.406720 -1.295690 1.238627 0.025933 -0.006136 -382085.000000 1 0 0
4.160743 -14.825244 -10.045565 18.385130 -1.297183 2.148852 0.014194 0.003626 187074.000000 1 0 0
-7.493557 -14.069744 -0.219565 15.942375 1.081409 1.584569 0.007259 -0.002780 281151.000000 1 0 0
2.985143 -14.878344 9.640735 17.978319 -1.372789 1.004817 0.019098 -0.003732 39845.400000 1 0 0
2.337643 -17.307344 10.359635 20.305929 -1.436542 1.035405 0.043346 -0.004870 -205109.000000 1 0 0
-8.315557 -17.184044 -5.744365 19.935837 1.120102 1.863083 0.059735 -0.013148 111529.000000 1 0 0
-6.536557 -9.262644 -7.680365 13.693472 0.956262 2.166242 0.014687 -0.003902 523464.000000 1 0 0
-6.007357 -13.222544 -4.761965 15.283989 1.144350 1.887637 0.007065 -0.006134 256998.000000 1 0 0
2.220343 -19.388744 -4.774565 20.091038 -1.456776 1.810739 0.037696 -0.017377 -143207.000000 1 0 0
-5.555557 -12.839644 8.363735 16.299470 1.162432 1.031970 0.021070 -0.005802 465304.000000 1 0 0
2.190843 -17.441044 3.504835 17.924109 -1.445837 1.373991 0.028185 -0.018043 -10751.900000 1 0 0
-17.599057 -10.087944 -2.647165 20.457295 0.520488 1.700560 0.043281 -0.011257 770710.000000 1 0 0
-3.722557 -15.389744 2.639335 16.052032 1.333469 1.405623 0.016378 -0.008908 -155182.000000 1 0 0
-10.346457 -10.318844 -14.164965 20.351264 0.784062 2.340641 0.043359 -0.015145 50798.800000 1 0 0
6.107943 -14.555044 -5.630065 16.758696 -1.173471 1.913409 0.011470 -0.010336 543388.000000 1 0 0
-7.303457 -12.357544 -10.726065 17.919203 1.037012 2.212523 0.024920 -0.007088 -707644.000000 1 0 0
-7.441457 -14.283044 3.990135 16.592221 1.090491 1.327934 0.013693 -0.000573 528991.000000 1 0 0
3.276143 -15.011944 -2.913965 15.639142 -1.355929 1.758217 0.018177 -0.008638 1064770.000000 1 0 0
-7.602657 -11.354044 7.926335 15.796883 0.980766 1.045157 0.018863 -0.010518 -2212220.000000 1 0 0
-12.872857 -12.440244 -0.854165 17.922046 0.768309 1.618474 0.032181 0.007474 -268863.000000 1 0 0
-1.919457 -13.664244 4.005835 14.368110 1.431237 1.288252 0.013644 -0.002654 -3166740.000000 1 0 0
-3.222357 -13.925944 5.267635 15.233630 1.343406 1.217716 0.011193 -0.003535 317232.000000 1 0 0
-14.508857 -10.348144 -4.384965 18.352628 0.619550 1.812059 0.029957 -0.005503 383809.000000 1 0 0
-6.333457 -8.759844 -10.443965 15.030767 0.944794 2.338993 0.018182 -0.002077 544415.000000 1 0 0
0.931543 -19.358044 2.314635 19.518176 -1.522712 1.451928 0.047182 -0.028920 66633.500000 1 0 0
6.433243 -14.133144 -8.140265 17.532720 -1.143636 2.053629 0.015800 -0.005000 -1985310.000000 1 0 0
-3.940557 -16.811544 -5.836965 18.227072 1.340557 1.896775 0.010914 -0.011607 -245561.000000 1 0 0
-3.533257 -13.532644 -13.181065 19.218659 1.315406 2.326564 0.022042 0.000007 -1554800.000000 1 0 0
-8.139957 -14.815344 -4.460965 17.482950 1.068393 1.828810 0.024630 -0.008444 36706.600000 1 0 0
-4.519457 -14.520244 10.013435 18.208016 1.269049 0.988496 0.027083 -0.002224 -519993.000000 1 0 0
-0.226457 -12.175844 -9.949365 15.725531 1.552200 2.255817 0.007277 0.004420 805149.000000 1 0 0
2.411843 -17.224144 6.761335 18.660219 -1.431674 1.200020 0.030005 -0.013447 290755.000000 1 0 0
-2.706757 -19.286844 -3.112465 19.722990 1.431365 1.729268 0.035542 -0.025011 -617578.000000 1 0 0
0.587343 -15.430644 -2.931465 15.717609 -1.532751 1.758403 0.015057 -0.008934 -32164.400000 1 0 0
6.018943 -17.909744 0.531435 18.901561 -1.246584 1.542677 0.023816 -0.014597 -629276.000000 1 0 0
-7.095057 -16.719844 3.985335 18.595051 1.169477 1.354798 0.016032 -0.004234 473082.000000 1 0 0
-5.296357 -13.639544 -9.526965 17.460001 1.200409 2.147955 0.011534 0.000578 -10825.600000 1 0 0
5.740043 -15.146244 -2.050165 16.326665 -1.208546 1.696700 0.022400 -0.007194 -1552470.000000 1 0 0
-8.882857 -10.313944 -0.455765 13.619483 0.859809 1.604267 0.004736 0.003108 1433880.000000 1 0 0
-7.328957 -18.190844 -2.900565 19.825078 1.187799 1.717631 0.043079 -0.033786 -117385.000000 1 0 0
7.920043 -16.083344 -1.067365 17.959407 -1.113217 1.630263 0.019768 -0.004419 41184.500000 1 0 0
-8.098557 -10.260444 -9.578065 16.205020 0.902615 2.203163 0.024335 -0.005634 -2067910.000000 1 0 0
-9.264357 -15.097944 -6.846365 18.990759 1.020424 1.939611 0.053187 -0.014357 -17095.500000 1 0 0
-11.497757 -10.617844 -11.952065 19.692356 0.745632 2.223000 0.043150 0.000101 -957102.000000 1 0 0
6.624843 -16.346544 2.491135 17.813023 -1.185751 1.430487 0.020846 -0.009893 -117335.000000 1 0 0
-2.287357 -11.226644 -6.015865 12.940640 1.369804 2.054297 0.010579 0.000642 570974.000000 1 0 0
-12.339057 -15.390644 -3.162865 19.978187 0.895005 1.729781 0.050152 -0.009715 -45675.200000 1 0 0
-0.097257 -19.212344 -2.668365 19.397005 1.565734 1.708800 0.055432 -0.037690 -611765.000000 1 0 0
-5.813357 -15.775044 -4.614065 17.433781 1.217722 1.838650 0.011476 -0.010305 -2926060.000000 1 0 0
1.964043 -16.026244 -0.891065 16.170713 -1.448853 1.625928 0.022502 -0.019176 771451.000000 1 0 0
-13.306957 -11.927744 5.292635 18.637547 0.730797 1.282857 0.038793 -0.006139 -104250.000000 1 0 0
2.052443 -15.421344 -8.934565 17.940369 -1.438483 2.092104 0.018418 0.007625 -1919520.000000 1 0 0
-11.465757 -16.781144 -0.101765 20.324388 0.971399 1.575803 0.063139 -0.017037 232177.000000 1 0 0
-7.661957 -16.663044 -0.891665 18.361854 1.139808 1.619376 0.034191 -0.010165 498295.000000 1 0 0
-2.977357 -14.496944 -1.744665 14.902010 1.368235 1.688141 0.007779 -0.007063 720299.000000 1 0 0
-1.827957 -10.410344 -13.240265 16.941703 1.396978 2.467893 0.003173 0.006119 119974.000000 1 0 0
1.418243 -19.467744 4.933035 20.133040 -1.498074 1.323254 0.048316 -0.023121 -106417.000000 1 0 0
-17.548557 -9.454944 2.434635 20.081715 0.494194 1.449261 0.037312 -0.009731 170962.000000 1 0 0
-2.755357 -15.833444 -8.008465 17.956209 1.398500 2.033087 0.005820 0.001431 -1160730.000000 1 0 0
-10.579757 -12.139944 0.397135 16.107986 0.853962 1.546139 0.014539 0.004684 456253.000000 1 0 0
-6.870357 -11.584244 -6.436965 14.927526 1.035482 2.016635 0.014274 -0.002307 -171578.000000 1 0 0
-2.208757 -13.698844 -6.700865 15.409040 1.410935 2.020686 0.004563 0.003279 413569.000000 1 0 0
-14.182457 -14.660244 -0.512365 20.404102 0.801962 1.595910 0.048130 0.002360 -246336.000000 1 0 0
-9.710057 -11.333544 -4.329665 15.539641 0.862394 1.853154 0.019752 -0.003564 1006860.000000 1 0 0
9.415743 -15.110444 -5.074665 18.513075 -1.013544 1.848463 0.027179 -0.007414 -4123.410000 1 0 0
-5.633857 -10.987944 -9.351665 15.489639 1.097016 2.218977 0.015098 -0.005205 -77567.500000 1 0 0
-10.353957 -16.012244 -4.709365 19.641143 0.996796 1.812926 0.059145 -0.009004 -2030890.000000 1 0 0
2.159343 -17.388944 -3.113965 17.797048 -1.447250 1.746673 0.027412 -0.013609 408560.000000 1 0 0
-0.390957 -14.606844 -8.244865 16.777680 1.544037 2.084514 0.005384 0.004723 -174376.000000 1 0 0
-0.628757 -18.383544 -7.052865 19.700074 1.536607 1.936934 0.026298 -0.003497 45133.600000 1 0 0
-1.834757 -10.110644 -10.564865 14.737972 1.391282 2.370065 0.004452 0.003017 363081.000000 1 0 0
-5.159157 -17.346744 2.193335 18.230117 1.281714 1.450190 0.024545 -0.014094 -126214.000000 1 0 0
0.324143 -12.801544 -2.605365 13.067996 -1.545481 1.771511 0.008976 -0.005519 -1946650.000000 1 0 0
2.694243 -14.960844 3.132035 15.520807 -1.392620 1.367605 0.021488 -0.008461 -688905.000000 1 0 0
-9.390557 -13.062944 6.932735 17.518159 0.947518 1.163917 0.026163 -0.009044 -818278.000000 1 0 0
-1.065057 -17.812644 -4.579365 18.422682 1.511075 1.822002 0.033437 -0.019133 -62444.600000 1 0 0
-9.687457 -17.603844 -2.217565 20.215334 1.067720 1.680715 0.062823 -0.021030 -630292.000000 1 0 0
1.384843 -16.085644 1.578935 16.222169 -1.484916 1.473310 0.024370 -0.023540 -1204600.000000 1 0 0
-0.395157 -17.959444 4.114035 18.428865 1.548797 1.345661 0.047067 -0.020279 -206590.000000 1 0 0
-17.428257 -9.253944 -0.156465 19.733325 0.488118 1.578725 0.017355 -0.005069 874256.000000 1 0 0
-14.803657 -7.189144 -10.693365 19.626006 0.452088 2.147015 0.047218 -0.021647 579241.000000 1 0 0
2.886743 -12.857644 -8.880365 15.890663 -1.349943 2.163785 0.003590 0.004983 524185.000000 1 0 0
-11.749557 -14.927644 1.719335 19.074663 0.903971 1.480537 0.046176 -0.004874 -47692.200000 1 0 0
-2.191057 -15.590844 10.578035 18.967603 1.431176 0.979197 0.022428 -0.000664 664330.000000 1 0 0
-6.972457 -15.858744 1.460335 17.385267 1.156574 1.486699 0.019319 -0.007328 -2138700.000000 1 0 0
-12.666457 -15.156744 -5.688365 20.555377 0.874664 1.851190 0.064599 -0.005512 1254460.000000 1 0 0
0.974843 -13.781844 -4.967865 14.682276 -1.500180 1.915968 0.008855 -0.001590 864987.000000 1 0 0
6.093243 -16.425444 -7.290765 18.975723 -1.215569 1.965154 0.045544 -0.018252 192593.000000 1 0 0
-6.578057 -12.982444 6.059135 15.764765 1.101812 1.176296 0.018197 -0.002342 -349991.000000 1 0 0
-2.602757 -13.621344 0.678935 13.884391 1.381993 1.521878 0.014701 -0.007865 2411840.000000 1 0 0
-4.282357 -15.561944 0.247535 16.142303 1.302261 1.555461 0.012789 -0.011278 -205164.000000 1 0 0
-17.608957 -7.507944 -2.156965 19.263881 0.403031 1.683001 0.013180 -0.002911 476918.000000 1 0 0
1.319443 -12.827044 -11.938165 17.572529 -1.468293 2.317694 0.008294 0.010847 -341976.000000 1 0 0
1.271543 -17.102244 -5.608565 18.043269 -1.496583 1.886873 0.034678 -0.014158 -2149920.000000 1 0 0
-12.797357 -6.388144 -9.245765 17.031292 0.462989 2.144646 0.018292 -0.004889 698085.000000 1 0 0
-11.678157 -13.466744 -8.489565 19.743487 0.856410 2.015282 0.058563 -0.013764 327549.000000 1 0 0
-4.385057 -9.918344 3.624035 11.433980 1.154518 1.248281 0.009338 -0.000871 -3841020.000000 1 0 0
-7.058157 -14.552844 9.689535 18.854441 1.119219 1.031057 0.032411 -0.004683 -571067.000000 1 0 0
-5.313057 -15.924644 -7.941565 18.571250 1.248772 2.012662 0.015366 -0.011839 156494.000000 1 0 0
-0.241257 -13.573544 2.172835 13.748473 1.553024 1.412089 0.017184 -0.010388 692069.000000 1 0 0
-11.038057 -13.518944 -4.514165 18.027153 0.886082 1.823899 0.049154 -0.004141 -464966.000000 1 0 0
-9.693657 -10.543144 6.789235 15.849877 0.827351 1.128135 0.030044 -0.005428 128688.000000 1 0 0
-15.466457 -8.097844 -4.928165 18.140375 0.482329 1.845922 0.031497 -0.003957 -702061.000000 1 0 0
-14.525957 -7.252744 5.425435 17.118443 0.463084 1.248300 0.022661 -0.010602 196632.000000 1 0 0
-1.720657 -19.332344 0.255835 19.410452 1.482026 1.557616 0.040078 -0.027180 -249347.000000 1 0 0
-15.420557 -12.486344 -1.248865 19.881198 0.680640 1.633654 0.039172 0.012517 -313557.000000 1 0 0
-4.452557 -12.263744 -6.858765 14.739991 1.222529 2.054789 0.009743 -0.001486 100236.000000 1 0 0
-7.609057 -18.271844 2.146535 19.908934 1.176202 1.462769 0.035637 -0.011435 -389563.000000 1 0 0
-2.507257 -11.888344 -8.580765 14.874427 1.362942 2.185701 0.004951 0.002924 1260920.000000 1 0 0
-0.929957 -20.452644 -4.670665 20.999776 1.525359 1.795087 0.050072 -0.012212 -354397.000000 1 0 0
-5.228857 -8.824244 -13.943265 17.309618 1.035868 2.507351 0.012480 0.001068 94708.800000 1 0 0
-8.283157 -19.271344 -0.625465 20.985390 1.164852 1.600606 0.044313 -0.009421 97005.700000 1 0 0
-17.096757 -7.250244 5.752135 19.440993 0.401084 1.270423 0.042977 -0.015985 -245741.000000 1 0 0
-3.555357 -14.765944 -4.221565 15.763733 1.334513 1.841908 0.004085 -0.004601 -3062930.000000 1 0 0
-2.981057 -14.818744 -10.946865 18.663219 1.372278 2.197586 0.013808 0.001517 -499717.000000 1 0 0
-0.122857 -16.643244 6.318135 17.802570 1.563415 1.207989 0.043648 -0.015658 -1115970.000000 1 0 0
-11.182557 -11.588844 4.019435 16.598396 0.803238 1.326207 0.024688 -0.003560 993169.000000 1 0 0
-0.236657 -14.761244 -0.076365 14.763338 1.554765 1.575969 0.018105 -0.011294 990817.000000 1 0 0
-7.346757 -9.561744 -2.383765 12.291628 0.915655 1.765967 0.010681 0.002417 -16688.900000 1 0 0
-11.062657 -14.407444 -0.760865 18.180642 0.915973 1.612659 0.039335 -0.009517 210171.000000 1 0 0
0.318843 -14.704844 -10.714965 18.197378 -1.549117 2.200393 0.009804 0.007706 -82350.200000 1 0 0
-1.401057 -14.095744 -3.833665 14.674807 1.471726 1.835104 0.006219 -0.002391 -2847620.000000 1 0 0
-11.494157 -8.142744 -7.637265 16.023350 0.616358 2.067618 0.017299 -0.003052 645082.000000 1 0 0
-0.186057 -17.278644 0.118135 17.280050 1.560029 1.563960 0.028297 -0.026358 -258075.000000 1 0 0
-12.828057 -9.433344 4.599735 16.574215 0.634071 1.289581 0.018620 -0.007148 581610.000000 1 0 0
4.025743 -16.843944 1.719735 17.403521 -1.336195 1.471819 0.025157 -0.018610 2138780.000000 1 0 0
-3.852057 -18.098744 -8.060965 20.183707 1.361090 1.981637 0.039161 -0.009169 -210757.000000 1 0 0
-13.344157 -11.135344 2.768535 17.599068 0.695411 1.412829 0.016399 -0.006516 -531129.000000 1 0 0
-8.548357 -12.093144 4.321735 15.427117 0.955470 1.286858 0.019541 -0.007958 628736.000000 1 0 0
-8.307957 -9.538144 -5.797565 13.914385 0.854222 2.000564 0.015085 -0.002480 -957787.000000 1 0 0
3.768343 -17.320044 -5.201265 18.472615 -1.356564 1.856222 0.014043 -0.008185 -365178.000000 1 0 0
-2.558157 -13.176344 11.358935 17.583675 1.379034 0.868473 0.005704 0.002971 1128810.000000 1 0 0
-0.031857 -16.835344 -9.481865 19.321894 1.568904 2.083726 0.018872 0.006110 -34672.600000 1 0 0
-7.105857 -10.529644 -14.451365 19.240805 0.977154 2.420491 0.027352 -0.003361 -102173.000000 1 0 0
-4.587957 -18.905344 -1.400265 19.504413 1.332718 1.642650 0.039916 -0.030135 427407.000000 1 0 0
-2.569857 -17.184544 1.282135 17.422875 1.422352 1.497141 0.033273 -0.024243 336515.000000 1 0 0
4.049443 -14.776144 -7.412065 17.019728 -1.303311 2.021388 0.018850 -0.002177 854050.000000 1 0 0
-0.939457 -15.912744 -6.125265 17.076793 1.511827 1.937660 0.012618 -0.003448 -2058.290000 1 0 0
-9.535357 -15.232144 8.402435 19.837897 1.011477 1.133430 0.041591 -0.014456 -589962.000000 1 0 0
-7.363857 -12.162044 -1.726465 14.322094 1.026358 1.691636 0.004371 -0.003070 772434.000000 1 0 0
-7.348557 -15.141444 -9.286565 19.222511 1.118956 2.074998 0.037099 -0.009396 -624500.000000 1 0 0
-5.072657 -13.200244 -0.639765 14.155832 1.203910 1.616006 0.006716 -0.002723 1966160.000000 1 0 0
-6.555957 -13.838044 -7.241665 16.938529 1.128358 2.012551 0.016272 -0.007010 309536.000000 1 0 0
5.798843 -15.286644 0.392535 16.354270 -1.208226 1.546792 0.017433 -0.010192 -403314.000000 1 0 0
-14.619257 -12.691844 1.126835 19.392662 0.714942 1.512657 0.029511 -0.006042 828366.000000 1 0 0
0.914643 -15.321344 11.134535 18.962015 -1.511170 0.943198 0.013167 0.003126 -142155.000000 1 0 0
-9.342057 -10.797144 2.109635 14.432703 0.857524 1.424100 0.008027 0.001832 112885.000000 1 0 0
-9.557657 -8.815444 -3.531965 13.473516 0.745023 1.836037 0.008124 0.002284 888173.000000 1 0 0
-12.304457 -7.235344 -12.277465 18.827799 0.531569 2.281137 0.039874 -0.011881 911665.000000 1 0 0
-13.300357 -8.551844 -0.639365 15.825370 0.571423 1.611209 0.006192 0.000900 310030.000000 1 0 0
-11.263657 -9.699544 0.578535 14.875679 0.710924 1.531895 0.001259 0.004991 550386.000000 1 0 0
-15.762557 -11.949444 3.214335 20.039445 0.648659 1.409700 0.040295 -0.006541 -837502.000000 1 0 0
-10.568157 -12.411244 -2.159765 16.443525 0.865433 1.702521 0.034067 -0.007096 635098.000000 1 0 0
-3.363757 -8.800744 -12.056765 15.301423 1.205717 2.478270 0.008419 0.001366 -997403.000000 1 0 0
-0.257957 -15.573444 3.946935 16.067887 1.554234 1.322615 0.030036 -0.012673 -807235.000000 1 0 0
-15.801557 -7.742144 1.254535 17.640971 0.455584 1.499621 0.010453 -0.006020 765166.000000 1 0 0
-6.117057 -13.282744 -13.386765 19.825619 1.139223 2.312067 0.022516 -0.002882 -405665.000000 1 0 0
-15.377657 -10.306544 1.261735 18.555031 0.590464 1.502744 0.018572 -0.003923 935799.000000 1 0 0
-10.008457 -8.450144 -12.529565 18.126339 0.701176 2.333993 0.030054 -0.005375 73276.200000 1 0 0
-13.423657 -11.900144 -6.140765 18.960933 0.725309 1.900607 0.042608 0.000572 59484.400000 1 0 0
-12.335657 -11.394144 -3.827265 17.223325 0.745743 1.794881 0.025978 0.000815 -1804760.000000 1 0 0
-11.710757 -10.890644 -8.832365 18.269062 0.749128 2.075400 0.032726 -0.018617 298030.000000 1 0 0
-13.119657 -8.675344 -5.834865 16.775955 0.584242 1.926032 0.010314 -0.002655 -1282440.000000 1 0 0
-13.448457 -8.182544 -3.248265 16.073775 0.546600 1.774282 0.010273 -0.001230 764945.000000 1 0 0
-4.168157 -17.093744 -3.214365 17.885798 1.331623 1.751494 0.011157 -0.019891 -25009.600000 1 0 0
-15.414557 -9.043444 -1.837665 17.965786 0.530569 1.673262 0.022623 -0.001389 -678978.000000 1 0 0
-9.520457 -15.754444 3.771235 18.789993 1.027219 1.368719 0.025969 -0.004262 -1255990.000000 1 0 0
4.736943 -17.237344 7.978135 19.575885 -1.302610 1.151028 0.037116 -0.019673 214372.000000 1 0 0
-8.317157 -15.365644 6.110535 18.509910 1.074670 1.234363 0.020524 -0.004719 -537009.000000 1 0 0
0.835843 -16.063244 8.565935 18.223657 -1.518809 1.081455 0.023053 -0.002563 450883.000000 1 0 0
-10.884157 -7.793344 -10.203565 16.831929 0.621401 2.222074 0.027787 -0.006265 1111870.000000 1 0 0
-4.850457 -15.899144 5.778935 17.598460 1.274689 1.236211 0.019859 -0.012332 -813946.000000 1 0 0
-1.224257 -13.262744 -12.148565 18.027391 1.478749 2.310264 0.008428 0.006000 -1623250.000000 1 0 0
-6.413657 -14.471744 -2.485965 16.023308 1.153624 1.726572 0.013056 -0.005056 293110.000000 1 0 0
-17.732157 -6.903744 -7.268165 20.369519 0.371278 1.935653 0.050783 -0.016910 23662.400000 1 0 0
-17.488557 -4.239244 -10.169465 20.669757 0.237814 2.085179 0.053244 -0.019280 1386570.000000 1 0 0
-15.316757 -5.322944 -8.966865 18.529475 0.334468 2.075930 0.031735 -0.019516 784582.000000 1 0 0
-16.331157 -5.478444 -5.474065 18.074441 0.323663 1.878491 0.035013 -0.007695 63381.400000 1 0 0
-15.339457 -4.289244 -12.245265 20.090871 0.272658 2.226219 0.053235 -0.016047 -1310490.000000 1 0 0
-18.894557 -5.205344 -5.642865 20.394652 0.268826 1.851138 0.065803 -0.016785 494066.000000 1 0 0
-17.450957 -4.344744 -7.659565 19.546909 0.244008 1.973444 0.039038 -0.019171 793868.000000 1 0 0
12.177143 -7.800844 8.876235 16.968309 -0.569748 1.020304 0.037280 -0.011422 200245.000000 1 0 0
16.104543 -3.432244 1.799535 16.564266 -0.209981 1.461942 0.033038 -0.005763 -418623.000000 1 0 0
12.100843 -2.243944 12.586335 17.603452 -0.183354 0.774183 0.044374 -0.008149 252743.000000 1 0 0
9.695143 -10.025844 5.284835 14.914517 -0.802166 1.208586 0.010428 -0.004276 224525.000000 1 0 0
16.880543 -1.824244 7.235335 18.456182 -0.107650 1.167962 0.080281 -0.020039 -809513.000000 1 0 0
5.214443 -12.728144 9.275735 16.590218 -1.181975 0.977486 0.004695 0.002854 112470.000000 1 0 0
15.124343 -9.039444 -2.102365 17.744780 -0.538708 1.689553 0.040538 -0.012921 109647.000000 1 0 0
11.153043 -8.584344 6.624635 15.555292 -0.655982 1.130866 0.019329 -0.009200 -3011320.000000 1 0 0
20.009543 -3.103744 3.593035 20.565139 -0.153887 1.395180 0.111997 -0.013980 514641.000000 1 0 0
13.613843 -8.518944 6.912835 17.484176 -0.559143 1.164318 0.035389 -0.010215 -572300.000000 1 0 0
8.316443 -10.984044 8.977835 16.444268 -0.922742 0.993267 0.014829 -0.000977 -808817.000000 1 0 0
16.831743 0.050056 -0.714165 16.846961 0.002974 1.613200 0.037134 -0.000833 -2197800.000000 1 0 0
12.447743 -12.420244 2.492835 17.760152 -0.784292 1.429970 0.025867 -0.010960 -1186430.000000 1 0 0
10.352843 -11.651744 3.636235 16.005208 -0.844358 1.341604 0.017184 -0.006341 -1358240.000000 1 0 0
16.314043 2.991656 2.318835 16.747388 0.181364 1.431891 0.012135 -0.000017 -601487.000000 1 0 0
18.359043 -3.245444 0.487035 18.650055 -0.174969 1.544679 0.067872 -0.010288 884415.000000 1 0 0
13.456743 -11.527644 -0.113565 17.719577 -0.708339 1.577205 0.037256 -0.006011 -599139.000000 1 0 0
16.860343 -7.565644 -0.864065 18.500182 -0.421792 1.617519 0.051556 -0.015761 -590525.000000 1 0 0
10.146343 -5.684844 9.796935 15.206764 -0.510705 0.870756 0.022541 -0.011686 -1147160.000000 1 0 0
11.484043 -13.273744 6.169835 18.604902 -0.857561 1.232772 0.043152 -0.010326 -196762.000000 1 0 0
12.930043 -1.891844 10.125535 16.531532 -0.145283 0.911579 0.034688 -0.010909 715780.000000 1 0 0
15.573543 -1.978644 -1.395365 15.760625 -0.126375 1.659447 0.032213 -0.005860 -514337.000000 1 0 0
10.467643 -12.421144 9.111735 18.624717 -0.870539 1.059592 0.051418 -0.019350 317675.000000 1 0 0
14.503843 1.220756 3.180135 14.898488 0.083970 1.355688 0.007261 -0.002064 776075.000000 1 0 0
15.124443 -5.799244 5.285135 17.038564 -0.366145 1.255407 0.047398 -0.010429 -576409.000000 1 0 0
14.405243 -3.395744 -3.041765 15.109415 -0.231503 1.773497 0.024022 -0.006959 1104070.000000 1 0 0
13.936743 0.522556 9.594735 16.928225 0.037477 0.968193 0.050985 -0.007759 234506.000000 1 0 0
15.464643 -3.365544 4.445835 16.439206 -0.214287 1.296945 0.038087 -0.006524 -1437470.000000 1 0 0
18.780343 4.775856 -4.336065 19.857279 0.249022 1.790931 0.043961 -0.003248 671981.000000 1 0 0
18.453943 -5.681744 -5.100065 19.971001 -0.298678 1.829030 0.127958 -0.020828 689202.000000 1 0 0
17.289643 0.095456 5.934835 18.280129 0.005521 1.240144 0.070910 -0.009742 589487.000000 1 0 0
17.151743 -6.653044 3.997935 18.826278 -0.370026 1.356808 0.068245 -0.013648 -253808.000000 1 0 0
9.651143 -6.485044 14.317835 18.444532 -0.591648 0.682078 0.047119 -0.015637 -781683.000000 1 0 0
8.634643 -12.286344 5.285235 15.919956 -0.958205 1.232386 0.013227 -0.006734 -104135.000000 1 0 0
16.826443 -10.244544 -0.524065 19.706712 -0.546891 1.597393 0.051871 -0.009459 -9521.710000 1 0 0
14.988943 -8.749944 0.416935 17.360984 -0.528393 1.546778 0.045897 -0.012869 -1112720.000000 1 0 0
10.015443 -12.863744 1.523035 16.373901 -0.909254 1.477646 0.016108 -0.009728 84211.300000 1 0 0
16.886643 -8.192244 8.861935 20.755854 -0.451682 1.129667 0.082796 -0.021716 81978.000000 1 0 0
19.087043 -0.382244 -1.857765 19.181048 -0.020024 1.667803 0.081880 -0.005701 -637324.000000 1 0 0
13.485043 -1.250544 7.659535 15.558879 -0.092471 1.056074 0.026130 -0.009477 -234932.000000 1 0 0
12.701143 -9.710044 -2.958465 16.259044 -0.652718 1.753774 0.027711 -0.009022 -232927.000000 1 0 0
8.835143 -15.115144 1.546335 17.576077 -1.041835 1.482703 0.023735 -0.010915 -838944.000000 1 0 0
11.397643 -8.229344 11.267535 18.016262 -0.625353 0.895141 0.060159 -0.018566 -283880.000000 1 0 0
13.972743 -3.980044 -0.595865 14.540748 -0.277494 1.611787 0.018231 -0.007768 -1136400.000000 1 0 0
7.175143 -13.169444 11.010135 18.604838 -1.071929 0.937520 0.022697 0.005541 -804666.000000 1 0 0
15.551043 -6.697144 1.842235 17.031750 -0.406651 1.462420 0.040635 -0.011960 -1257230.000000 1 0 0
16.021743 -6.152144 -2.771065 17.384589 -0.366626 1.730877 0.074618 -0.013065 -37408.700000 1 0 0
11.372743 -8.488044 3.967035 14.735112 -0.641161 1.298210 0.014320 -0.005634 1007380.000000 1 0 0
10.600943 -14.409744 -0.411665 17.893859 -0.936524 1.593804 0.026030 -0.010106 648417.000000 1 0 0
13.630343 -12.864444 4.764635 19.338612 -0.756499 1.321854 0.041125 -0.007836 147975.000000 1 0 0
12.928743 -11.070444 6.560535 18.241374 -0.708121 1.202902 0.039747 -0.012621 140604.000000 1 0 0
11.006243 -10.440444 1.520535 15.246386 -0.759023 1.470899 0.013250 -0.007536 238820.000000 1 0 0
13.903943 -7.531044 12.004535 19.853088 -0.496408 0.921447 0.068565 -0.026063 585338.000000 1 0 0
15.370043 -1.837844 -4.997365 16.266209 -0.119008 1.883071 0.041442 -0.003983 -499000.000000 1 0 0
12.867943 -11.285744 -7.032965 18.504447 -0.719986 1.960667 0.047341 -0.006523 -545039.000000 1 0 0
17.734143 -5.303844 1.894535 18.606984 -0.290608 1.468801 0.078024 -0.007698 772116.000000 1 0 0
10.712543 -9.859544 9.258335 17.253578 -0.743958 1.004389 0.037461 -0.007306 -804529.000000 1 0 0
16.252843 1.646156 10.112635 19.212759 0.100940 1.016494 0.095648 -0.013727 -758946.000000 1 0 0
18.114643 3.629156 0.479435 18.480826 0.197726 1.544851 0.016042 0.006080 497939.000000 1 0 0
13.325743 -4.011844 5.718335 15.045586 -0.292429 1.180927 0.017720 -0.007449 -373686.000000 1 0 0
12.112843 -6.214044 6.657635 15.154518 -0.474004 1.115958 0.015137 -0.008952 -187406.000000 1 0 0
16.647143 -10.187944 3.625135 19.851024 -0.549192 1.387149 0.043856 -0.009834 1005640.000000 1 0 0
16.269643 -8.099644 -5.606265 19.019351 -0.461916 1.870007 0.081849 -0.017210 719592.000000 1 0 0
14.019643 -0.273944 5.335535 15.003112 -0.019538 1.207210 0.015838 -0.005374 1114200.000000 1 0 0
18.253243 -4.199844 5.178935 19.432986 -0.226152 1.301034 0.091555 -0.015682 -62198.200000 1 0 0
13.847143 -13.419944 7.257035 20.603466 -0.769732 1.210850 0.082513 -0.018638 78538.900000 1 0 0
15.105243 -13.412344 -0.887565 20.219968 -0.726104 1.614706 0.048803 -0.005616 331255.000000 1 0 0
17.888643 -5.865944 8.160735 20.518539 -0.316866 1.161760 0.106946 -0.021400 -584511.000000 1 0 0
14.286243 3.198756 9.429535 17.413928 0.220272 0.998583 0.043951 -0.010394 300398.000000 1 0 0
18.814643 3.582956 2.991035 19.384908 0.188181 1.415880 0.056839 -0.004250 -19779.500000 1 0 0
14.911043 -10.364144 8.295135 19.964066 -0.607406 1.142300 0.052615 -0.018075 -875099.000000 1 0 0
14.744743 -4.948044 10.296935 18.652545 -0.323771 0.985989 0.076439 -0.023780 195255.000000 1 0 0
17.947143 -7.886344 1.838235 19.689425 -0.414021 1.477299 0.087872 -0.013462 176220.000000 1 0 0
18.555943 -5.797944 -1.954865 19.538697 -0.302846 1.671015 0.089155 -0.016529 1146830.000000 1 0 0
14.246643 -12.832144 -5.580165 19.969201 -0.733209 1.854006 0.055151 -0.008561 274976.000000 1 0 0
15.406443 -1.536644 9.444935 18.136332 -0.099412 1.023039 0.100556 -0.020077 -919960.000000 1 0 0
13.067043 -9.918244 10.262835 19.350580 -0.649254 1.011767 0.052742 -0.027323 -1533350.000000 1 0 0
16.465743 2.024856 4.781935 17.265214 0.122360 1.290158 0.036321 -0.008612 -1759910.000000 1 0 0
15.023743 2.467256 -0.041065 15.225041 0.162771 1.573494 0.005255 0.005561 -1207620.000000 1 0 0
15.017643 -9.864644 -6.969065 19.271966 -0.581190 1.940798 0.069531 -0.013833 674534.000000 1 0 0
16.281643 -0.097544 -3.209065 16.595165 -0.005991 1.765396 0.040227 -0.001104 -292063.000000 1 0 0
11.825143 2.621856 13.672835 18.266213 0.218189 0.724952 0.055376 -0.004374 -130217.000000 1 0 0
17.599143 -2.763744 9.541335 20.209037 -0.155766 1.079088 0.095770 -0.025305 -28688.400000 1 0 0
7.842443 -18.270844 4.648035 20.418910 -1.165346 1.341149 0.046928 -0.013223 -288653.000000 1 0 0
6.805243 -11.272344 6.799035 14.819040 -1.027652 1.094148 0.006606 -0.003639 326057.000000 1 0 0
18.113143 2.070756 -1.650165 18.305655 0.113829 1.661064 0.040277 0.002465 312044.000000 1 0 0
17.599543 -2.297244 3.571335 18.104576 -0.129795 1.372233 0.042722 -0.007446 -1222700.000000 1 0 0
12.622643 -13.417644 -1.845565 18.514059 -0.815918 1.670647 0.025799 -0.001492 712173.000000 1 0 0
15.144743 -8.241944 4.383835 17.790753 -0.498388 1.321821 0.040839 -0.006520 -632948.000000 1 0 0
11.931543 -2.945944 15.069835 19.445828 -0.242063 0.684137 0.050859 -0.014007 -101802.000000 1 0 0
11.938343 -13.689144 -6.427165 19.267204 -0.853609 1.910895 0.025905 -0.014334 -272186.000000 1 0 0
10.703643 -11.973444 -1.120865 16.099306 -0.841335 1.640475 0.017574 -0.008072 -1732840.000000 1 0 0
13.298843 -7.829544 2.166035 15.583731 -0.532098 1.431352 0.025977 -0.007618 -1543670.000000 1 0 0
8.770743 -7.817344 10.113635 15.502336 -0.727986 0.860057 0.019510 -0.003882 -1100100.000000 1 0 0
15.614343 -3.822444 8.152935 18.024681 -0.240082 1.101431 0.078959 -0.023439 -556462.000000 1 0 0
10.113743 -17.244944 5.490435 20.732119 -1.040380 1.302771 0.052537 -0.020338 -626033.000000 1 0 0
15.242843 -6.334444 8.152335 18.410052 -0.393855 1.112055 0.059278 -0.015112 556957.000000 1 0 0
16.558843 -4.957244 -0.432465 17.290361 -0.290880 1.595811 0.049733 -0.009667 -935798.000000 1 0 0
13.980743 -10.483244 3.578135 17.837114 -0.643395 1.368825 0.032205 -0.013396 363027.000000 1 0 0
14.864043 -10.030944 -4.459065 18.478173 -0.593644 1.814517 0.057130 -0.014009 339928.000000 1 0 0
13.789043 -6.542744 -0.014865 15.262550 -0.443031 1.571770 0.027634 -0.006776 -371306.000000 1 0 0
17.761643 -0.943544 -5.165165 18.521478 -0.053073 1.853418 0.075138 -0.010668 -906917.000000 1 0 0
14.411243 0.295956 -1.648765 14.508271 0.020534 1.684685 0.012963 -0.000999 -2064140.000000 1 0 0
4.834143 -12.750844 11.883035 18.087550 -1.208416 0.853999 -0.001567 0.005592 -1212130.000000 1 0 0
11.947143 -7.430044 13.650835 19.603190 -0.556374 0.800486 0.066341 -0.021583 -333786.000000 1 0 0
12.035643 -5.747944 11.641035 17.703368 -0.445549 0.853220 0.039408 -0.016139 651501.000000 1 0 0
13.223143 -4.556444 8.272535 16.249539 -0.331839 1.036665 0.028902 -0.015459 -1413290.000000 1 0 0
15.343343 -1.182844 3.104235 15.698839 -0.076939 1.371748 0.027408 -0.001675 577992.000000 1 0 0
15.218643 -10.319644 5.825135 19.288192 -0.595871 1.264001 0.048477 -0.014660 161681.000000 1 0 0
13.607243 -8.035644 -5.626165 16.774456 -0.533436 1.912827 0.050176 -0.011668 -221071.000000 1 0 0
9.796343 -2.324844 13.900235 17.163617 -0.233007 0.626872 0.026119 0.000598 -1545350.000000 1 0 0
9.841443 -9.042044 13.679135 19.124102 -0.743090 0.773768 0.074366 -0.019115 -629337.000000 1 0 0
20.410143 6.257456 -2.958565 21.551863 0.297488 1.708508 0.112307 -0.009866 1048330.000000 1 0 0
11.123343 -3.569844 10.667635 15.819955 -0.310549 0.830759 0.012079 -0.005533 582730.000000 1 0 0
10.269143 -13.923744 -2.945665 17.550011 -0.935326 1.739439 0.020994 -0.006239 475231.000000 1 0 0
15.021643 -12.588444 2.577835 19.767749 -0.697498 1.440018 0.044224 -0.011433 -47203.300000 1 0 0
11.391743 -0.382444 14.386235 18.354341 -0.033559 0.670026 0.042931 -0.010744 348349.000000 1 0 0
19.035843 -1.816544 5.768435 19.973432 -0.095139 1.277817 0.115951 -0.014854 459478.000000 1 0 0
18.784243 -0.193044 7.971335 20.406548 -0.010277 1.169484 0.106356 -0.022543 39682.700000 1 0 0
19.067543 0.804156 0.473535 19.090366 0.042149 1.545989 0.079975 -0.009941 333271.000000 1 0 0
18.535743 0.658356 3.785535 18.929804 0.035503 1.369461 0.055079 -0.011566 471480.000000 1 0 0
16.808343 -3.828344 -4.252865 17.755660 -0.223944 1.812669 0.081076 -0.014255 225717.000000 1 0 0
10.943043 -8.195344 15.827835 20.914928 -0.642803 0.712435 0.099416 -0.027669 421396.000000 1 0 0
16.726443 -7.471344 6.373535 19.396309 -0.420088 1.235980 0.070237 -0.012040 430286.000000 1 0 0
18.744943 2.304656 5.939035 19.797890 0.122334 1.266121 0.072232 -0.016632 454981.000000 1 0 0
15.435543 1.714956 7.738335 17.351625 0.110651 1.108537 0.065513 -0.013929 271793.000000 1 0 0
8.684343 -15.781144 3.977235 18.446699 -1.067724 1.353483 0.023678 -0.015951 425620.000000 1 0 0
11.362343 -15.097344 2.060035 19.007272 -0.925630 1.462202 0.030623 -0.007925 141217.000000 1 0 0
7.845243 -16.298244 6.326135 19.162478 -1.122176 1.234354 0.032754 -0.011362 -401149.000000 1 0 0
14.473243 -11.583344 -2.470765 18.701692 -0.674941 1.703298 0.039596 -0.008276 834897.000000 1 0 0
13.771243 -4.811544 3.229835 14.940881 -0.336132 1.352902 0.017125 -0.003033 -1367460.000000 1 0 0
-1.010457 10.215656 -5.405265 11.601618 -1.472204 2.055455 0.003834 0.000980 -2076280.000000 1 0 0
8.333343 -1.754744 -8.071965 11.733727 -0.207537 2.329427 0.003014 -0.000145 -920482.000000 1 0 0
2.986243 -10.089644 7.666735 13.019116 -1.283040 0.941120 0.001930 0.001759 897115.000000 1 0 0
-6.285757 1.302756 8.306435 10.497846 -0.204362 0.657944 -0.001746 -0.001139 224481.000000 1 0 0
7.328543 -6.251944 -7.327365 12.103083 -0.706288 2.221081 -0.002262 -0.000012 -31152.100000 1 0 0
-11.492957 -4.623744 -4.105065 13.050618 0.382497 1.890778 0.005837 -0.000178 69369.500000 1 0 0
2.115843 -3.247644 2.828435 4.798336 -0.993367 0.940404 0.005449 0.000951 2682880.000000 1 0 0
-3.622657 -4.193044 8.820335 10.416505 0.858249 0.560921 0.005714 -0.003264 -2415770.000000 1 0 0
-4.769057 -1.093044 -2.439765 5.467276 0.225304 2.033365 0.007242 -0.002707 -43520.200000 1 0 0
5.013943 -5.290744 -3.709065 8.178555 -0.812253 2.041497 0.003828 0.000306 -224842.000000 1 0 0
2.662043 14.166456 -8.796165 16.886310 1.385051 2.118707 0.018117 -0.015324 18449.900000 1 0 0
5.385343 -5.402644 13.648535 15.635632 -0.787002 0.509656 0.015663 -0.011432 -1981700.000000 1 0 0
-4.754857 -0.916444 9.928435 11.046373 0.190404 0.453781 0.006888 -0.003185 -3211290.000000 1 0 0
-1.099057 11.811156 -2.783365 12.184353 -1.478011 1.801269 0.000226 -0.000391 241002.000000 1 0 0
3.062443 9.405756 -10.566765 14.474230 1.256029 2.389177 0.001065 -0.007227 -866159.000000 1 0 0
-10.560757 2.677156 1.138535 10.954133 -0.248270 1.466672 0.005044 -0.004155 218581.000000 1 0 0
5.821643 -9.039544 -0.720265 10.776069 -0.998637 1.637686 0.003173 -0.003112 839334.000000 1 0 0
-6.912557 5.416356 9.339035 12.819436 -0.664632 0.754658 0.004741 0.000396 301190.000000 1 0 0
-5.674757 -1.823844 5.123935 7.860279 0.310969 0.860739 0.005208 -0.003746 642876.000000 1 0 0
6.610943 -3.783744 -7.416665 10.631472 -0.519837 2.342858 0.002751 -0.002105 440088.000000 1 0 0
6.331443 4.847256 11.041535 13.619785 0.653401 0.625453 0.001280 0.000715 79027.900000 1 0 0
3.821643 -9.901644 3.205735 11.087121 -1.202451 1.277468 0.001495 -0.001120 994988.000000 1 0 0
-6.582057 6.562456 -5.750365 10.929593 -0.783907 2.124837 0.002726 -0.005972 18212.900000 1 0 0
-11.074657 8.418356 5.165935 14.839260 -0.649963 1.215225 0.009160 -0.007656 704540.000000 1 0 0
-9.289857 -5.502844 5.202835 11.985501 0.534775 1.121764 0.004165 -0.002306 -2061820.000000 1 0 0
3.132443 9.904856 -8.073465 13.156717 1.264496 2.231457 0.005938 -0.005456 756257.000000 1 0 0
-8.164857 -8.595944 6.151035 13.356286 0.811112 1.092199 0.007610 -0.001824 -2225480.000000 1 0 0
-7.877857 -5.808244 -7.467965 12.311248 0.635315 2.222569 0.010161 -0.001837 230709.000000 1 0 0
9.289643 -1.472544 6.969635 11.706479 -0.157207 0.933076 0.003969 -0.001535 1582950.000000 1 0 0
-4.076957 -0.442644 -4.898265 6.388311 0.108149 2.444566 0.010789 -0.008491 -780350.000000 1 0 0
9.174843 1.211056 -4.560865 10.317262 0.131239 2.028692 0.000880 0.002165 -1681120.000000 1 0 0
-2.055657 -10.687044 10.687535 15.253263 1.380767 0.794457 0.003635 -0.001508 469562.000000 1 0 0
-12.922357 0.201156 -2.699065 13.202755 -0.015565 1.776680 0.007732 -0.003040 379130.000000 1 0 0
-9.997257 -5.131144 -6.090865 12.781722 0.474195 2.067499 0.007745 -0.001619 -1461250.000000 1 0 0
-5.533857 8.294956 -0.170065 9.972903 -0.982469 1.587850 0.004012 -0.000790 182182.000000 1 0 0
6.337643 9.703156 0.415335 11.596959 0.992208 1.534975 0.007812 -0.000870 580212.000000 1 0 0
-0.638357 -12.226344 -0.038965 12.243060 1.518632 1.573979 0.015297 -0.004698 -157705.000000 1 0 0
6.164543 4.663756 2.339235 8.076152 0.647677 1.276938 0.001203 0.002091 461678.000000 1 0 0
3.566743 -7.565044 -8.095665 11.640075 -1.130227 2.339911 0.002283 -0.000725 1509600.000000 1 0 0
-6.582957 -9.923144 4.669335 12.790887 0.985063 1.197108 0.009764 0.000042 -2410230.000000 1 0 0
-0.031157 6.358556 -9.158065 11.149097 -1.565896 2.534689 0.004806 -0.003695 -3248050.000000 1 0 0
-17.381757 -2.747244 4.121535 18.073735 0.156757 1.340732 0.052469 -0.015959 718676.000000 1 0 0
-8.435657 0.852756 -9.069865 12.415714 -0.100747 2.389872 0.007371 -0.006017 1077680.000000 1 0 0
-10.046757 -5.922944 -11.802665 16.592815 0.532691 2.362159 0.021974 -0.002746 -104098.000000 1 0 0
2.316743 9.478656 6.399535 11.669030 1.331079 0.990322 -0.002009 0.004106 -337105.000000 1 0 0
-11.371257 1.648756 -1.151065 11.547677 -0.143990 1.670642 0.007746 -0.004334 -1596420.000000 1 0 0
-6.104957 -5.375244 -3.084165 8.699185 0.721921 1.933213 0.014695 -0.001027 760504.000000 1 0 0
-7.083657 -8.448044 1.484335 11.124338 0.873019 1.436966 0.010258 -0.000841 -228921.000000 1 0 0
-0.008657 10.933556 -7.805165 13.433664 -1.570005 2.190772 0.007263 -0.001815 583058.000000 1 0 0
-2.881357 9.145256 -4.285165 10.502408 -1.265576 1.991078 0.003249 -0.003701 -243377.000000 1 0 0
3.371543 -4.724444 9.303735 10.965726 -0.950976 0.557770 0.004506 -0.004618 -766150.000000 1 0 0
-8.960857 1.594556 -0.378065 9.109473 -0.176103 1.612311 0.004798 -0.002782 -2482840.000000 1 0 0
2.539443 3.519156 -10.442365 11.308237 0.945717 2.747721 0.005977 -0.006779 -1541460.000000 1 0 0
-13.765557 0.418856 1.066035 13.813126 -0.030418 1.493544 0.017149 -0.007297 -399062.000000 1 0 0
9.442943 -12.519244 -5.057765 16.476699 -0.924565 1.882798 0.027901 -0.008164 -2637980.000000 1 0 0
-4.697057 9.386956 -8.190265 13.313817 -1.106844 2.233398 0.003463 -0.003952 -1198050.000000 1 0 0
-2.277157 7.201256 8.249535 11.184738 -1.264529 0.741331 -0.000815 0.002660 -406730.000000 1 0 0
-10.763457 -1.192344 -4.536665 11.741168 0.110327 1.967510 0.008640 -0.000871 -3085080.000000 1 0 0
2.650343 -7.087244 9.762335 12.351378 -1.212938 0.659360 -0.001183 -0.002369 -2817400.000000 1 0 0
-16.239557 -6.519444 3.425435 17.831432 0.381760 1.377494 0.030203 -0.011125 802136.000000 1 0 0
-10.853557 -0.144944 6.137835 12.469713 0.013354 1.056159 0.005802 -0.004957 -419344.000000 1 0 0
-8.432157 9.930656 9.414235 16.073177 -0.866823 0.945039 0.009666 -0.005877 295085.000000 1 0 0
0.210343 -6.242244 -3.818765 7.320712 -1.537112 2.119567 0.006690 -0.000177 615803.000000 1 0 0
4.977143 1.480556 -3.006865 6.000436 0.289135 2.095675 0.002739 0.001050 467887.000000 1 0 0
0.294143 5.332856 3.862835 6.591462 1.515695 0.944638 0.000529 0.003281 -2473870.000000 1 0 0
6.111343 -11.276644 -1.523465 12.916352 -1.074157 1.689020 0.001673 -0.005187 -1052380.000000 1 0 0
6.206243 -13.490644 5.365735 15.789428 -1.139624 1.224059 0.009376 -0.006379 675535.000000 1 0 0
8.240643 -8.233344 -6.014965 13.110147 -0.784955 2.047443 -0.001172 -0.000259 664183.000000 1 0 0
-13.127557 -1.488644 -4.612065 13.993569 0.112916 1.906660 0.006494 0.001008 -2344370.000000 1 0 0
-6.812057 -1.437144 -7.049065 9.907514 0.207922 2.362408 0.012469 -0.005539 -971980.000000 1 0 0
-5.714757 12.864156 -4.508465 14.780772 -1.152744 1.880758 0.007627 0.000668 613658.000000 1 0 0
-4.239157 6.875556 -6.698165 10.493290 -1.018293 2.263121 0.006261 -0.006162 -3415360.000000 1 0 0
-9.369257 -3.709544 -8.160565 12.966824 0.376990 2.251502 0.011276 -0.000464 755540.000000 1 0 0
-2.272557 -6.374244 9.139035 11.371784 1.228323 0.637378 0.004334 -0.000149 -167840.000000 1 0 0
7.458843 -5.939244 10.030735 13.839241 -0.672462 0.760047 0.009034 -0.006687 175906.000000 1 0 0
9.668443 -4.898344 12.265035 16.367762 -0.468939 0.723730 0.025327 -0.007678 -661456.000000 1 0 0
-6.502257 2.802256 -8.983765 11.438532 -0.406914 2.474130 0.007190 -0.009495 115027.000000 1 0 0
7.366643 5.542656 8.817035 12.756511 0.645035 0.807677 -0.007173 0.000319 1147440.000000 1 0 0
12.575243 3.338056 11.240735 17.193995 0.259463 0.858254 0.038714 -0.002703 -975147.000000 1 0 0
-7.507657 -7.340344 -3.930965 11.211514 0.774130 1.929028 0.014354 -0.002069 -1662920.000000 1 0 0
2.309443 1.455256 -5.784665 6.396378 0.562282 2.700688 0.008006 -0.003605 -477392.000000 1 0 0
12.819643 6.977156 -7.251165 16.297341 0.498422 2.031892 0.011563 -0.002211 315319.000000 1 0 0
0.776043 -7.699144 1.025435 7.805804 -1.470340 1.439047 0.008358 -0.000228 1201520.000000 1 0 0
-10.221457 -6.049444 -8.573465 14.648490 0.534396 2.196021 0.015960 -0.001345 273849.000000 1 0 0
-6.743757 0.210456 3.110935 7.429702 -0.031197 1.138765 0.005458 -0.003170 516061.000000 1 0 0
10.905443 -7.946644 1.323535 13.558377 -0.629720 1.473023 0.008931 -0.003586 231538.000000 1 0 0
6.177943 0.993356 10.496335 12.219934 0.159426 0.537577 0.005231 -0.000792 109577.000000 1 0 0
-13.085157 5.339656 1.916535 14.262061 -0.387444 1.436009 0.013266 -0.007756 -334765.000000 1 0 0
2.029643 7.377156 3.576735 8.446000 1.302314 1.133510 -0.003820 0.004287 133487.000000 1 0 0
10.102443 -9.406944 -0.741865 13.823904 -0.749764 1.624488 0.005807 -0.002710 724093.000000 1 0 0
6.807443 -11.738244 -9.091065 16.333252 -1.045260 2.161082 0.001178 -0.002484 -343419.000000 1 0 0
10.179943 3.628656 11.922335 16.091627 0.342411 0.736382 0.004479 0.001638 -1856480.000000 1 0 0
-11.109757 -3.148744 -2.039165 11.726018 0.276179 1.745586 0.005348 -0.000730 181581.000000 1 0 0
12.290143 1.001656 6.925635 14.142678 0.081321 1.059053 0.003052 -0.005118 -124403.000000 1 0 0
-9.571457 9.139456 3.008435 13.571777 -0.762314 1.347271 0.009103 -0.005110 1069560.000000 1 0 0
-6.649257 7.728356 -8.797865 13.466348 -0.860312 2.282761 0.000485 -0.007674 -1176100.000000 1 0 0
8.468643 5.593556 12.119235 15.807645 0.583723 0.697159 0.005679 0.002111 -4008030.000000 1 0 0
1.344643 4.809556 -2.729265 5.691114 1.298180 2.070956 0.003984 -0.002732 854649.000000 1 0 0
1.072943 0.546656 9.518435 9.594303 0.471213 0.125841 0.002792 -0.003048 719967.000000 1 0 0
2.600443 12.639156 -3.913065 13.484163 1.367883 1.865229 0.012330 -0.005962 376688.000000 1 0 0
2.089643 0.723656 12.928235 13.116003 0.333380 0.169412 0.007045 -0.005528 284250.000000 1 0 0
-12.313757 -1.835444 0.838235 12.477985 0.147967 1.503569 0.005116 -0.004340 235217.000000 1 0 0
3.313543 8.670556 -1.261365 9.367452 1.205763 1.705861 0.008354 -0.000899 35121.400000 1 0 0
3.623743 -2.856444 -5.838165 7.441435 -0.667540 2.472764 0.003010 -0.002610 -1137720.000000 1 0 0
-7.800257 -7.169644 9.315335 14.107561 0.743298 0.849568 0.008452 -0.000996 118641.000000 1 0 0
-7.063657 10.833456 -3.482365 13.393502 -0.993001 1.833823 0.006340 0.000601 -688482.000000 1 0 0
0.358343 0.494156 2.515935 2.588924 0.943383 0.238018 0.004411 -0.001295 -2797200.000000 1 0 0
-7.066057 4.589356 -1.973365 8.653642 -0.576019 1.800859 0.008011 -0.005817 -802271.000000 1 0 0
-6.948557 -3.877144 -5.956365 9.939466 0.508948 2.213378 0.009420 -0.002230 85571.900000 1 0 0
2.954143 -5.993744 13.495435 15.059173 -1.112868 0.459757 -0.000062 -0.006614 -1436760.000000 1 0 0
-5.598757 -0.542444 -11.633765 12.922261 0.096585 2.691229 0.013857 -0.007963 -837409.000000 1 0 0
11.871243 2.428356 -0.559965 12.129999 0.201774 1.616976 -0.000836 0.001817 -450185.000000 1 0 0
6.128343 -10.774644 10.894135 16.502476 -1.053653 0.849776 0.002557 0.000822 290144.000000 1 0 0
-8.270157 6.358056 -10.394365 14.726276 -0.655422 2.354402 0.003268 -0.009383 353224.000000 1 0 0
2.911743 8.029856 11.091535 13.999249 1.222928 0.656235 0.003952 -0.000193 779224.000000 1 0 0
-6.190557 -10.255644 -0.361365 11.984649 1.027716 1.600953 0.012188 0.001099 191799.000000 1 0 0
11.289343 4.297256 6.202235 13.578784 0.363712 1.096448 0.000303 -0.001249 518906.000000 1 0 0
-7.813557 10.592556 1.303535 13.226985 -0.935249 1.472085 0.003030 -0.002507 1160210.000000 1 0 0
4.191443 -2.825044 -3.511365 6.154572 -0.593064 2.177947 0.002000 -0.001736 -5020380.000000 1 0 0
6.413243 6.472356 6.154135 10.995201 0.789986 0.976759 -0.000537 0.002637 -4406870.000000 1 0 0
-0.364357 10.309456 -10.165265 14.482757 -1.535469 2.348840 0.001163 -0.004014 -168318.000000 1 0 0
14.081143 6.591656 -2.577965 15.759899 0.437819 1.735112 0.009365 0.003734 715881.000000 1 0 0
1.431843 9.551756 -6.137965 11.443812 1.422001 2.136911 0.007123 -0.003641 -365098.000000 1 0 0
0.790243 7.383556 7.138935 10.300766 1.464175 0.805086 -0.001683 0.003730 -139644.000000 1 0 0
12.376843 6.083256 1.888735 13.919754 0.456827 1.434689 0.007294 0.001673 -667427.000000 1 0 0
-6.795857 6.716356 -3.142965 10.058397 -0.779515 1.888590 0.003547 -0.005647 398397.000000 1 0 0
1.048343 9.906056 11.133135 14.939065 1.465360 0.729907 0.006698 -0.001633 -919319.000000 1 0 0
-3.761057 13.432556 -10.938565 17.726571 -1.297792 2.235812 0.008848 -0.007857 -255091.000000 1 0 0
-10.083157 -5.535244 -2.265265 11.723498 0.502044 1.765244 0.005290 0.001192 -370942.000000 1 0 0
-4.014557 3.804456 -12.423665 13.599191 -0.758534 2.722747 0.006698 -0.014333 687829.000000 1 0 0
-3.177557 8.573556 2.438735 9.463095 -1.215869 1.310145 0.002266 0.004829 -2484050.000000 1 0 0
7.090843 9.024956 7.030635 13.459558 0.904840 1.021189 0.005703 0.003621 -83281.900000 1 0 0
-1.418357 -2.313544 -8.140165 8.580589 1.020824 2.819807 0.009718 -0.007174 -1884270.000000 1 0 0
0.904043 -1.304444 4.896635 5.147417 -0.964751 0.313435 0.007177 -0.001613 1867960.000000 1 0 0
2.648643 -8.923344 -6.023865 11.087305 -1.282258 2.145173 0.000019 -0.001073 235117.000000 1 0 0
5.296643 3.918456 8.837635 11.023271 0.636941 0.640620 -0.002737 0.000190 -630016.000000 1 0 0
6.065243 -7.590444 -2.976965 10.161906 -0.896627 1.868111 0.000565 -0.003664 834908.000000 1 0 0
1.923143 2.293856 -8.249065 8.775382 0.873082 2.793495 0.006245 -0.005604 279529.000000 1 0 0
-5.378457 10.922556 -0.697465 12.194937 -1.113233 1.628021 0.002694 -0.001003 48414.000000 1 0 0
-5.399757 3.315456 -3.413365 7.197269 -0.550651 2.064918 0.007782 -0.005403 -182830.000000 1 0 0
1.957043 13.813856 -6.218965 15.275083 1.430060 1.990107 0.008972 -0.005886 597930.000000 1 0 0
-5.239557 -2.543344 2.599135 6.377857 0.451909 1.151054 0.005112 -0.001997 621622.000000 1 0 0
10.503443 -3.343144 -1.952065 11.194172 -0.308151 1.746075 0.005653 -0.002426 64220.900000 1 0 0
2.412243 -3.284244 6.960435 8.065533 -0.937296 0.529648 0.003174 -0.002884 -2116800.000000 1 0 0
-2.915357 9.796356 -11.596365 15.457800 -1.281546 2.419153 0.002371 -0.007884 -2373570.000000 1 0 0
0.414143 -2.080944 9.245535 9.485872 -1.374346 0.225584 0.003878 -0.004249 55423.900000 1 0 0
9.453243 2.684656 4.960335 11.008002 0.276708 1.103346 -0.001075 0.000662 272956.000000 1 0 0
13.549043 1.982456 -4.999565 14.577460 0.145286 1.920868 0.011367 0.003557 -1683230.000000 1 0 0
-6.465857 3.748556 7.585735 10.649054 -0.525394 0.777971 0.000639 -0.000262 -285875.000000 1 0 0
10.646843 0.044156 1.686535 10.779685 0.004147 1.413696 0.002628 -0.000399 888201.000000 1 0 0
15.491643 6.555656 -4.676165 17.459500 0.400323 1.841936 0.022717 -0.002148 -397901.000000 1 0 0
8.041643 -4.898544 -9.343165 13.264934 -0.547118 2.352304 0.005103 0.001410 1091400.000000 1 0 0
4.553243 5.695256 -2.203065 7.617182 0.896373 1.864212 0.004843 -0.000937 602888.000000 1 0 0
-1.754157 -10.579544 1.436935 10.819824 1.406485 1.437597 0.017803 -0.004246 -671561.000000 1 0 0
-2.920157 12.147856 -12.937865 17.985719 -1.334888 2.373650 0.008257 -0.012395 248004.000000 1 0 0
8.390543 4.317756 -9.671465 13.512271 0.475258 2.368500 0.005056 0.000520 -499083.000000 1 0 0
4.152943 7.789556 -8.828865 12.484910 1.080988 2.356274 0.002116 -0.002498 -1661670.000000 1 0 0
-1.710757 -5.098044 -2.434865 5.902992 1.247033 1.995971 0.009756 -0.001343 515528.000000 1 0 0
-3.288357 -9.223644 7.051035 12.066731 1.228330 0.946734 0.010275 -0.000954 -2050330.000000 1 0 0
1.152243 7.143556 -1.449565 7.379654 1.410876 1.768509 0.005461 -0.002043 722184.000000 1 0 0
0.462143 -0.632944 -2.169565 2.306774 -0.940122 2.794951 0.006664 -0.003923 -3322450.000000 1 0 0
4.331343 -6.804544 7.937635 11.316731 -1.003944 0.793427 0.000295 -0.002207 -882478.000000 1 0 0
-13.811957 3.879256 5.904235 15.513825 -0.273808 1.180374 0.010588 -0.006793 -1364690.000000 1 0 0
4.290143 6.532156 12.455735 14.704412 0.989675 0.560340 0.008798 -0.001343 22200.800000 1 0 0
8.315243 10.154756 -7.348365 15.041968 0.884665 2.081194 0.033155 -0.011572 -241275.000000 1 0 0
12.369743 5.276156 9.562935 16.501457 0.403172 0.952656 0.018154 -0.003496 -656498.000000 1 0 0
7.651743 4.046456 0.324235 8.661876 0.486443 1.533355 0.001919 0.002515 -1981810.000000 1 0 0
-10.865957 -7.612244 -1.008765 13.305371 0.611101 1.646686 0.006040 0.001878 -523187.000000 1 0 0
10.531343 6.811056 0.141535 12.542715 0.574081 1.559512 0.001958 0.000060 -695330.000000 1 0 0
14.639543 3.637156 4.083835 15.627630 0.243517 1.306405 0.015313 -0.006076 191347.000000 1 0 0
2.133743 5.527356 8.133135 10.062425 1.202388 0.629592 -0.005656 0.003071 -505826.000000 1 0 0
4.245343 0.087656 11.674735 12.422965 0.020645 0.348838 0.004449 -0.002242 -2112090.000000 1 0 0
-1.398157 -1.596344 -0.687365 2.230612 0.851485 1.884045 0.008813 -0.005301 -758553.000000 1 0 0
3.105143 -5.381744 -9.467465 11.324221 -1.047478 2.560816 -0.000323 -0.000073 35915.300000 1 0 0
-4.001557 -5.311044 -1.251065 6.766448 0.925097 1.756759 0.011533 -0.001992 -1753280.000000 1 0 0
-1.268057 -8.721744 8.665835 12.360157 1.426418 0.793843 0.006131 -0.001981 -180594.000000 1 0 0
3.965943 8.571856 -6.011165 11.195513 1.137456 2.137586 0.008966 -0.004147 767842.000000 1 0 0
-14.326757 -1.859544 -2.660565 14.689877 0.129074 1.752917 0.006148 -0.004181 -856339.000000 1 0 0
8.946043 -10.638644 -6.773265 15.462521 -0.871609 2.024218 0.001544 -0.000663 1038810.000000 1 0 0
14.908043 6.019856 1.555435 16.152640 0.383777 1.474351 0.002385 0.001457 -1168500.000000 1 0 0
-5.770357 0.427856 -8.566765 10.337773 -0.074012 2.547552 0.012934 -0.009917 -366024.000000 1 0 0
-8.017757 -4.594544 -12.966765 15.922665 0.520365 2.522420 0.015200 -0.003265 580645.000000 1 0 0
0.816243 -10.594344 12.095235 16.099723 -1.493903 0.720812 -0.009863 0.002861 -465839.000000 1 0 0
0.352143 11.883056 3.236235 12.320886 1.541171 1.305016 0.003427 0.001453 -463065.000000 1 0 0
5.149443 -13.248544 -3.701865 14.688243 -1.200087 1.825573 0.011145 -0.006063 494905.000000 1 0 0
-7.441757 1.629756 -6.970965 10.326190 -0.215598 2.311864 0.009291 -0.005004 845243.000000 1 0 0
1.529343 2.656756 4.067835 5.093577 1.048479 0.645797 0.001163 0.000124 -170335.000000 1 0 0
17.346143 5.432656 2.236735 18.314077 0.303514 1.448359 0.021246 -0.002434 -717785.000000 1 0 0
2.601543 -8.099644 -3.402565 9.162407 -1.260012 1.951271 0.004506 -0.000368 168775.000000 1 0 0
-0.250457 -9.581044 -0.533465 9.599152 1.544661 1.626399 0.015843 -0.001013 -204799.000000 1 0 0
0.784943 11.923956 -5.478565 13.145780 1.505062 2.000669 0.008730 -0.003123 -1377250.000000 1 0 0
6.025043 -5.017844 7.744135 11.020505 -0.694442 0.791608 0.002527 -0.002419 -990077.000000 1 0 0
-5.988157 -2.015244 -9.435265 11.355328 0.324632 2.551539 0.017148 -0.006779 58530.700000 1 0 0
1.993443 -1.257844 11.209835 11.454972 -0.562896 0.207253 0.004788 -0.004596 105864.000000 1 0 0
18.029243 2.124756 -5.836465 19.069151 0.117309 1.881857 0.057059 -0.005142 490397.000000 1 0 0
-8.855257 4.799356 7.689035 12.671648 -0.496664 0.918780 0.005127 -0.005070 -531778.000000 1 0 0
11.447943 -7.041044 -4.865865 14.293647 -0.551411 1.918161 0.017570 -0.005329 -37750.100000 1 0 0
10.734243 0.538256 8.990035 14.011938 0.050102 0.874216 -0.001277 0.001700 -150523.000000 1 0 0
-8.442657 -7.317944 -1.567665 11.282213 0.714157 1.710198 0.011680 -0.000116 -1518320.000000 1 0 0
10.161343 -10.451144 -3.157365 14.914699 -0.799457 1.784105 0.014215 -0.004815 1534630.000000 1 0 0
7.695143 -13.811344 -3.710865 16.240042 -1.062472 1.801334 0.016990 -0.010069 115746.000000 1 0 0
1.774743 -1.183444 -11.559165 11.754342 -0.588113 2.959105 0.009725 -0.009005 401795.000000 1 0 0
-11.902157 -2.692344 -6.297865 13.732195 0.222462 2.047238 0.010482 -0.001232 54199.900000 1 0 0
2.664943 -12.239944 -6.472465 14.100034 -1.356417 2.047709 0.006088 0.001155 684744.000000 1 0 0
-5.648257 1.447556 1.080435 5.930056 -0.250884 1.387577 0.006921 -0.003001 427317.000000 1 0 0
0.195643 6.812556 -4.000365 7.902665 1.542086 2.101574 0.007368 -0.003468 1173500.000000 1 0 0
5.518743 -11.793544 3.731935 13.545167 -1.133119 1.291668 0.002467 -0.005304 -1944430.000000 1 0 0
-4.467457 -9.287544 1.180135 10.373493 1.122451 1.456785 0.012440 -0.000215 405309.000000 1 0 0
7.031043 -6.236744 -4.811565 10.558584 -0.725603 2.043957 0.001308 -0.002810 -788021.000000 1 0 0
-6.953257 -6.143744 2.195535 9.534870 0.723668 1.338448 0.009080 0.000277 -72036.900000 1 0 0
-6.234657 -0.772344 7.106135 9.484968 0.123251 0.723943 0.001631 -0.002267 -121587.000000 1 0 0
4.179543 -5.018944 3.283435 7.310220 -0.876400 1.104975 0.001611 0.001693 -689134.000000 1 0 0
-2.515257 10.556656 -8.839765 13.996819 -1.336895 2.254354 0.002859 -0.001712 -995303.000000 1 0 0
-2.329157 -4.830544 2.706235 6.006899 1.121512 1.103447 0.008505 0.001337 1180960.000000 1 0 0
15.186843 5.015756 6.247235 17.170496 0.318991 1.198414 0.030985 -0.013235 910730.000000 1 0 0
6.678243 0.141856 0.057235 6.679994 0.021238 1.562228 0.000007 0.000376 3511770.000000 1 0 0
-9.765157 9.197756 0.379535 13.420174 -0.755485 1.542512 0.001401 -0.004909 -1539760.000000 1 0 0
7.269543 10.422356 -2.535265 12.957597 0.961753 1.767725 0.005789 -0.002964 -788720.000000 1 0 0
1.645743 -4.298844 -5.352565 7.059638 -1.205175 2.431333 0.004813 -0.003193 -110558.000000 1 0 0
0.961543 -8.248944 -7.864865 11.437908 -1.454754 2.328994 0.000832 0.001663 1186490.000000 1 0 0
-10.571457 0.265956 -10.456165 14.871376 -0.025153 2.350553 0.014148 -0.007072 -4388250.000000 1 0 0
5.962243 -2.525544 0.479135 6.492787 -0.400675 1.496934 0.005268 0.001451 -29433.700000 1 0 0
-3.354357 5.237756 -1.151365 6.325460 -1.001186 1.753837 0.004265 -0.004968 1041040.000000 1 0 0
-0.364357 4.435156 -5.114465 6.779463 -1.488828 2.425544 0.005548 -0.005422 -1541530.000000 1 0 0
3.979943 -9.613644 10.048235 14.464754 -1.178289 0.802835 -0.003223 0.002510 -778844.000000 1 0 0
7.352443 -13.485644 -0.624365 15.372405 -1.071642 1.611423 0.015215 -0.007826 353317.000000 1 0 0
13.115743 -0.243844 0.465735 13.126274 -0.018590 1.535308 0.004253 -0.001082 -123513.000000 1 0 0
9.294943 2.388956 -0.672465 9.620565 0.251572 1.640752 0.002246 0.001564 678004.000000 1 0 0
-0.761457 -5.791044 4.371035 7.295338 1.440058 0.928352 0.006032 0.000131 1155480.000000 1 0 0
11.505743 -3.666944 3.316035 12.522966 -0.308528 1.302804 0.009157 -0.003364 -2342870.000000 1 0 0
1.602843 -8.101944 11.804235 14.406615 -1.375484 0.610499 -0.006680 -0.000928 293528.000000 1 0 0
9.413143 -5.839344 -5.832365 12.518853 -0.555241 2.055433 0.003406 -0.002632 -1445690.000000 1 0 0
3.307743 6.231656 -0.122565 7.056183 1.082816 1.588167 0.003152 0.001632 -1284260.000000 1 0 0
6.464743 -1.365444 11.468735 13.235906 -0.208155 0.522676 0.005492 -0.001496 202710.000000 1 0 0
-4.993557 -7.653044 -3.692565 9.855949 0.992671 1.954819 0.015426 -0.002438 -469358.000000 1 0 0
-3.517157 -8.552044 -5.786965 10.908566 1.180617 2.129983 0.015499 0.000640 351370.000000 1 0 0
9.822643 5.404356 2.159435 11.417291 0.502992 1.380513 0.001877 0.000613 -880414.000000 1 0 0
8.841943 -1.417844 0.175535 8.956620 -0.159001 1.551197 0.005047 -0.000309 936259.000000 1 0 0
-3.830357 9.671256 9.164035 13.863058 -1.193695 0.848592 0.001123 0.000789 13279.500000 1 0 0
-14.408757 -3.646944 -6.039665 16.043380 0.247900 1.956767 0.017081 -0.004800 514688.000000 1 0 0
10.710143 6.252456 -5.974565 13.765747 0.528414 2.019743 0.003981 -0.003406 149162.000000 1 0 0
-1.771857 4.549756 2.585535 5.524921 -1.199426 1.083796 0.003535 -0.000195 436096.000000 1 0 0
6.912043 -3.741744 2.673235 8.301998 -0.496168 1.242956 0.005345 -0.000943 -2051880.000000 1 0 0
8.378743 -11.184144 -1.408865 14.045402 -0.927831 1.671273 0.008688 -0.006446 -2891500.000000 1 0 0
4.521643 0.498156 1.768335 4.880617 0.109729 1.200043 0.001054 0.002040 403869.000000 1 0 0
-10.804557 2.339156 3.729735 11.667092 -0.213207 1.245405 0.007816 -0.005762 -225352.000000 1 0 0
-0.794057 -3.126944 4.380335 5.440188 1.322113 0.634816 0.007080 -0.000496 626922.000000 1 0 0
8.544343 -8.763344 -8.609765 14.964292 -0.798051 2.183833 0.006342 0.001074 -249600.000000 1 0 0
12.180143 -4.676644 1.041635 13.088616 -0.366600 1.491129 0.008158 -0.003624 331295.000000 1 0 0
2.921643 4.838556 3.441135 6.617328 1.027569 1.023923 -0.004011 0.002546 -352975.000000 1 0 0
6.131443 7.514756 1.936835 9.890272 0.886423 1.373690 0.001510 0.002320 -141726.000000 1 0 0
-1.743257 -1.330544 -10.278065 10.509420 0.651928 2.931377 0.013228 -0.007710 1756270.000000 1 0 0
-0.975957 -8.552644 6.029535 10.509781 1.457176 0.959772 0.004198 -0.002004 97107.800000 1 0 0
-4.302057 -0.225944 2.246035 4.858335 0.052472 1.090203 0.006014 -0.001978 354919.000000 1 0 0
-8.389557 6.316356 -7.809365 13.086910 -0.645344 2.210217 0.002044 -0.005202 -869613.000000 1 0 0
6.408343 11.127456 -9.351565 15.885179 1.048283 2.200243 0.023788 -0.020702 -159710.000000 1 0 0
-11.187957 -5.820444 3.178735 13.005857 0.479710 1.323887 0.002664 -0.003335 573045.000000 1 0 0
1.602443 -6.308844 3.044835 7.186122 -1.322057 1.133259 0.004563 -0.001168 751875.000000 1 0 0
9.983543 2.213656 7.337335 12.586019 0.218200 0.948411 -0.001503 0.001728 -1491590.000000 1 0 0
-4.088157 -2.508744 -10.704665 11.730161 0.550404 2.720337 0.013449 -0.009180 -3546340.000000 1 0 0
-8.263057 11.846356 5.721035 15.535267 -0.961737 1.193658 0.013151 -0.003917 -1171350.000000 1 0 0
6.986143 5.987156 -3.049565 9.692888 0.708547 1.890851 0.005215 0.001061 -3443220.000000 1 0 0
3.912543 -9.924044 -2.318865 10.916583 -1.195258 1.784844 0.001408 -0.001369 -1400830.000000 1 0 0
8.566443 -12.978444 -7.385165 17.215244 -0.987387 2.014171 0.014010 -0.005370 708797.000000 1 0 0
-1.115057 9.541956 3.624835 10.267994 -1.454466 1.209996 -0.000648 0.004972 45445.600000 1 0 0
0.585343 -13.218544 4.728035 14.050866 -1.526543 1.227605 0.015957 -0.002991 -791290.000000 1 0 0
-11.324157 -7.067444 -5.130765 14.300701 0.557954 1.937754 0.008436 -0.000506 -98598.600000 1 0 0
3.579243 10.303156 -3.430865 11.434021 1.236446 1.875549 0.010006 -0.005964 -612208.000000 1 0 0
11.606243 -8.082044 -7.380765 15.953056 -0.608274 2.051784 0.037516 -0.006382 382138.000000 1 0 0
11.652443 -4.738744 -5.753665 13.832562 -0.386246 1.999784 0.017903 -0.008126 569435.000000 1 0 0
1.343443 -10.311844 -2.760965 10.759270 -1.441244 1.830312 0.005212 0.000648 -405531.000000 1 0 0
2.408443 -12.033344 -3.908365 12.879335 -1.373259 1.879118 0.006541 -0.000852 -1011400.000000 1 0 0
-7.670057 -5.693944 7.244035 11.988612 0.638594 0.921981 0.006033 -0.002780 -1471280.000000 1 0 0
-7.319157 -0.842444 9.527635 12.043903 0.114597 0.658231 0.001745 -0.003863 -120373.000000 1 0 0
16.072643 2.617956 -7.546265 17.947971 0.161465 2.004740 0.036724 -0.003915 -83379.900000 1 0 0
-1.934657 6.317156 -5.501965 8.597731 -1.273611 2.265206 0.005675 -0.004011 -617515.000000 1 0 0
7.692243 1.195256 8.377735 11.436157 0.154152 0.748713 0.003557 0.001935 -1427200.000000 1 0 0
7.993543 8.272556 -3.900765 12.146929 0.802550 1.897721 0.005615 -0.000745 572511.000000 1 0 0
7.985343 0.642556 3.882835 8.902527 0.080294 1.119481 -0.001749 -0.000299 200602.000000 1 0 0
-6.949357 5.881256 5.322435 10.545665 -0.702343 1.041758 0.006573 -0.004796 185444.000000 1 0 0
-6.137457 -2.090444 -4.547365 7.919398 0.328280 2.182430 0.010987 -0.004409 -316199.000000 1 0 0
-15.184357 -2.023744 3.093335 15.627827 0.132497 1.371543 0.020921 -0.009811 -258435.000000 1 0 0
1.181643 1.226656 -10.479765 10.617271 0.804087 2.980477 0.010872 -0.010694 541899.000000 1 0 0
1.541543 -9.126544 9.357235 13.161611 -1.403468 0.779949 -0.001523 -0.001900 -1437930.000000 1 0 0
-0.275657 -6.964644 -1.320265 7.094036 1.531237 1.757997 0.010547 -0.000161 907905.000000 1 0 0
-0.461157 -10.231844 -8.440065 13.271699 1.525756 2.260028 0.003853 0.003869 -198904.000000 1 0 0
-4.353257 6.438256 3.715935 8.614532 -0.976254 1.124800 0.003249 0.001691 -387327.000000 1 0 0
10.829243 -1.105644 -8.561665 13.849081 -0.101745 2.237262 0.017422 -0.000360 256689.000000 1 0 0
3.170543 -0.986144 6.285535 7.108641 -0.301548 0.485995 -0.000240 -0.000998 1039950.000000 1 0 0
2.049243 -12.290044 6.757635 14.174280 -1.405576 1.073839 0.003982 0.000448 579163.000000 1 0 0
2.949643 -4.917144 -1.366165 5.894498 -1.030473 1.804693 0.006893 -0.002099 -1164880.000000 1 0 0
-0.959257 9.474556 -1.598265 9.656181 -1.469895 1.737079 0.004801 -0.001451 636661.000000 1 0 0
4.561243 -2.524244 2.498235 5.780824 -0.505459 1.123911 0.003238 0.000936 -1579540.000000 1 0 0
17.756743 6.554256 -2.755865 19.127336 0.353600 1.715379 0.021509 0.000002 -388409.000000 1 0 0
-7.137257 3.453956 -5.436365 9.613757 -0.450712 2.171809 0.007063 -0.007252 1325910.000000 1 0 0
-13.849057 -6.038744 2.309135 15.283812 0.411184 1.419132 -0.000821 -0.004112 591999.000000 1 0 0
6.743043 -5.931244 3.704535 9.714518 -0.721435 1.179551 0.004702 -0.000868 1450220.000000 1 0 0
-4.735657 1.970956 3.425235 6.167929 -0.394389 0.982037 0.005274 -0.002531 619582.000000 1 0 0
6.926743 -12.059544 -5.505265 14.957283 -1.049429 1.947724 0.006320 -0.003600 1733400.000000 1 0 0
2.981543 -12.313244 3.410235 13.120033 -1.333228 1.307851 0.008989 -0.006991 -769689.000000 1 0 0
3.243643 11.365656 -6.072065 13.287939 1.292797 2.045372 0.008569 -0.003702 -1166710.000000 1 0 0
-5.643557 -8.338344 6.573335 12.024411 0.975797 0.992419 0.012559 -0.002895 464593.000000 1 0 0
-3.955657 6.524156 6.294435 9.890993 -1.025750 0.881000 0.002688 0.001751 323064.000000 1 0 0
4.349543 4.403056 -7.046665 9.378748 0.791512 2.420893 0.005984 -0.001603 -1985150.000000 1 0 0
-0.321057 -2.594044 1.605535 3.067554 1.447655 1.019969 0.008171 -0.003120 -1458990.000000 1 0 0
-13.314157 -0.963644 6.600035 14.891469 0.072251 1.111621 0.014595 -0.004099 111274.000000 1 0 0
-0.485657 -9.285544 -5.948865 11.038396 1.518541 2.139956 0.006534 0.002093 543400.000000 1 0 0
2.068643 -1.695944 -3.943365 4.765043 -0.686718 2.545546 0.005457 -0.000951 -2141580.000000 1 0 0
11.367143 -1.934044 1.076035 11.580601 -0.168530 1.477745 0.006743 -0.003825 349094.000000 1 0 0
0.619843 -4.456344 -2.029565 4.935822 -1.432591 1.994556 0.007821 -0.000698 -753567.000000 1 0 0
1.205343 -7.417944 -11.187265 13.477153 -1.409714 2.550067 -0.002832 0.003681 1168450.000000 1 0 0
-4.387557 4.086256 -9.988765 11.650046 -0.749856 2.600995 0.006511 -0.012009 -196260.000000 1 0 0
-0.976157 5.830856 -2.122965 6.281620 -1.404922 1.915550 0.004652 -0.002993 -1680030.000000 1 0 0
-11.270457 1.671456 -3.840865 12.023694 -0.147231 1.895936 0.008439 -0.002249 456969.000000 1 0 0
-1.797057 -11.216844 4.198435 12.110898 1.411936 1.216782 0.016556 -0.003140 -423174.000000 1 0 0
-3.607857 -5.488544 -9.729665 11.739128 0.989276 2.547798 0.009310 -0.000835 -1767670.000000 1 0 0
-12.965157 -3.756944 -8.343965 15.869206 0.282047 2.124447 0.023180 -0.004112 -104404.000000 1 0 0
11.388443 4.454856 0.468935 12.237740 0.372874 1.532468 0.003532 0.001930 458389.000000 1 0 0
-8.948757 -2.288244 -3.013765 9.715920 0.250341 1.886187 0.008956 -0.002938 -324548.000000 1 0 0
-2.575657 -6.105044 -6.284865 9.132639 1.171563 2.329769 0.008413 -0.000266 -495805.000000 1 0 0
-0.040957 2.768856 -1.952365 3.388210 -1.556005 2.184896 0.004425 -0.004074 -532729.000000 1 0 0
8.195043 5.951256 -5.257065 11.411087 0.628096 2.049578 0.007776 -0.001179 -843286.000000 1 0 0
-9.810857 -0.966344 -0.911865 9.900416 0.098181 1.663031 0.006099 -0.002092 -59474.900000 1 0 0
6.083743 0.541756 -8.891965 10.787607 0.088816 2.539719 0.003704 0.000007 259996.000000 1 0 0
-4.090157 2.472656 7.787135 9.136897 -0.543750 0.550480 -0.001263 0.001668 -637529.000000 1 0 0
-10.227357 -3.339944 1.508835 10.864191 0.315651 1.431464 0.002515 -0.002818 1355980.000000 1 0 0
-1.810857 -8.116644 -7.807665 11.406961 1.351287 2.324666 0.007341 -0.001329 42128.400000 1 0 0
-9.445057 -9.781444 4.332135 14.270709 0.802892 1.262361 0.011371 -0.003767 -558000.000000 1 0 0
-1.136757 -10.730544 7.351935 13.057095 1.465253 0.972712 0.012541 -0.000885 148976.000000 1 0 0
9.599843 3.799956 -3.918665 11.043214 0.376911 1.933548 0.001703 0.001517 -666891.000000 1 0 0
12.730043 -0.815144 3.024635 13.109800 -0.063946 1.337983 0.005167 -0.002563 549650.000000 1 0 0
6.586543 11.912856 -6.820265 15.225462 1.065734 2.035269 0.014217 -0.008373 43798.500000 1 0 0
-12.037057 -0.152744 -6.584165 13.720981 0.012689 2.071293 0.005581 0.000486 44912.400000 1 0 0
-7.630757 -6.739944 -11.448365 15.320586 0.723489 2.414716 0.018443 -0.003412 -623184.000000 1 0 0
4.162243 6.034956 6.549835 9.830834 0.967024 0.841622 -0.005560 0.004236 -3058990.000000 1 0 0
-4.379557 -1.418544 -7.414265 8.727205 0.313238 2.585943 0.012070 -0.009649 -1378700.000000 1 0 0
9.691643 9.253056 0.802635 13.423532 0.762251 1.510968 0.008841 -0.002230 -1417480.000000 1 0 0
-9.010057 4.046756 4.756535 10.962755 -0.422137 1.122000 0.006121 -0.004709 4991.940000 1 0 0
-7.012357 7.832756 -11.962665 15.925783 -0.840606 2.420600 0.000711 -0.014515 -1124900.000000 1 0 0
11.150543 -3.593744 7.127935 13.713390 -0.311782 1.024204 0.011811 -0.003632 1130380.000000 1 0 0
11.903143 7.007056 6.413635 15.228866 0.532049 1.136084 0.010203 -0.002842 -260640.000000 1 0 0
-10.066657 -0.660844 -14.656465 17.792871 0.065553 2.538749 0.020405 -0.003319 299524.000000 1 0 0
1.831843 -12.988944 11.984835 17.768078 -1.430689 0.830489 -0.003526 0.008584 387425.000000 1 0 0
2.878743 3.115556 13.012935 13.686867 0.824884 0.315115 0.005436 -0.003321 -1285260.000000 1 0 0
-2.663257 -1.498044 10.993635 11.410394 0.512379 0.271105 0.007070 -0.003068 -644207.000000 1 0 0
2.592843 -10.187944 -8.322665 13.408348 -1.321586 2.240441 -0.004269 0.004001 -960970.000000 1 0 0
13.934443 3.716656 -7.485165 16.248382 0.260656 2.049548 0.013841 -0.001200 -3197900.000000 1 0 0
7.427443 -1.594844 5.004835 9.097187 -0.211512 0.988250 0.000231 0.000378 226655.000000 1 0 0
-1.116657 8.781256 9.963035 13.327395 -1.444311 0.726415 0.001915 0.000940 -7778.350000 1 0 0
-12.254457 -4.719044 0.931535 13.164682 0.367585 1.499977 0.001226 -0.002836 -71002.900000 1 0 0
-4.825757 4.829956 -5.262765 8.620505 -0.785833 2.227480 0.008762 -0.008039 405733.000000 1 0 0
-11.249957 0.323356 1.889435 11.412102 -0.028735 1.404466 0.003441 -0.002650 -1358550.000000 1 0 0
-1.409957 2.192856 -4.160665 4.909962 -0.999374 2.581851 0.006745 -0.007864 738020.000000 1 0 0
2.990943 -9.694444 13.171135 16.625486 -1.271540 0.656349 -0.009776 0.000207 -3495420.000000 1 0 0
8.965043 4.703156 -1.617865 10.252276 0.483142 1.729264 0.002872 0.000142 -2297030.000000 1 0 0
4.153343 2.325456 3.780835 6.078874 0.510412 0.899549 -0.004256 0.003475 85270.000000 1 0 0
-5.535057 -3.280644 7.426735 9.826285 0.535037 0.713917 0.008059 -0.004220 -216066.000000 1 0 0
1.951343 -5.867644 7.563035 9.769160 -1.249742 0.685386 0.001111 -0.002033 -639982.000000 1 0 0
-5.929457 -6.355744 -9.699265 13.024196 0.820083 2.410898 0.015710 -0.003084 -162968.000000 1 0 0
-11.807857 -5.808544 5.565735 14.287830 0.457164 1.170660 0.010321 -0.006285 -1104210.000000 1 0 0
10.535943 6.203356 4.578535 13.055677 0.532129 1.212485 0.000257 0.001089 -842920.000000 1 0 0
1.502043 -3.744044 0.394135 4.053312 -1.189271 1.473405 0.008475 0.000364 -606348.000000 1 0 0
8.744543 4.377956 6.904935 11.971285 0.464168 0.956001 -0.002404 0.004796 652807.000000 1 0 0
-7.864857 12.157656 3.371935 14.867230 -0.996599 1.342002 0.011038 -0.006609 -78376.500000 1 0 0
-6.311057 13.192856 -7.012665 16.219074 -1.124603 2.017917 0.015495 -0.005035 662605.000000 1 0 0
4.602743 -6.936344 -0.977265 8.381716 -0.984941 1.687657 0.005597 -0.003402 -572375.000000 1 0 0
-1.893057 -8.158344 11.151935 13.946609 1.342792 0.644140 0.001931 -0.002362 -525342.000000 1 0 0
11.646243 8.881856 -5.890665 15.786775 0.651540 1.953187 0.022607 -0.009794 225206.000000 1 0 0
-3.341757 -3.043544 -1.926065 4.913271 0.738729 1.973615 0.011111 -0.003196 -2328210.000000 1 0 0
-2.045757 6.003256 4.708035 7.898721 -1.242364 0.932223 -0.000542 0.002848 -279071.000000 1 0 0
0.296843 -11.538344 -5.655765 12.853372 -1.545075 2.026419 0.003128 -0.002342 -399933.000000 1 0 0
-8.891557 6.224656 -1.567465 10.966452 -0.610769 1.714220 0.006235 -0.004179 -540372.000000 1 0 0
2.931943 -0.009944 3.888735 4.870179 -0.003392 0.646032 0.000476 0.001869 -137673.000000 1 0 0
-10.096357 3.946756 -1.009265 10.887237 -0.372645 1.663631 0.010452 -0.005378 229693.000000 1 0 0
6.409743 5.542856 13.607435 16.030294 0.712998 0.556976 0.014110 0.001595 -586737.000000 1 0 0
-8.811157 -1.747344 5.749135 10.665001 0.195770 1.001469 0.001366 -0.004166 -127169.000000 1 0 0
12.974243 -1.776544 -1.661565 13.200299 -0.136082 1.697004 0.009991 -0.004997 -2024380.000000 1 0 0
4.880443 -5.712944 5.611235 9.377761 -0.863824 0.929349 0.006275 -0.003869 212976.000000 1 0 0
-9.108357 -1.291944 3.316235 9.778993 0.140902 1.224817 0.000880 -0.001195 747607.000000 1 0 0
2.035743 5.464856 5.538635 8.042722 1.214206 0.811168 -0.001765 0.001674 -1361680.000000 1 0 0
9.301443 3.043156 -7.528465 12.347284 0.316194 2.226512 0.002003 0.001150 -1552040.000000 1 0 0
2.226743 -2.316344 -1.488965 3.541306 -0.805118 2.004745 0.005841 -0.000934 73489.200000 1 0 0
-6.220857 0.315856 -3.899365 7.348733 -0.050730 2.130125 0.008712 -0.004027 -2828030.000000 1 0 0
-4.041857 4.153156 5.017335 7.665440 -0.798979 0.857223 0.002762 -0.000345 1074980.000000 1 0 0
-6.498257 1.843556 -12.236965 13.977459 -0.276436 2.637221 0.007984 -0.006550 -2463320.000000 1 0 0
-0.185157 3.016656 6.228235 6.922818 -1.509495 0.451789 0.001922 -0.000627 1185530.000000 1 0 0
-8.772757 9.354056 -2.185465 13.009070 -0.817456 1.739592 0.002581 -0.001743 378690.000000 1 0 0
-1.374557 -3.780844 -6.069265 7.281495 1.222094 2.556243 0.006315 -0.002944 293015.000000 1 0 0
-3.342357 7.007156 -2.927865 8.297227 -1.125724 1.931436 0.004554 -0.000827 765911.000000 1 0 0
7.100943 -0.384144 -4.381765 8.352893 -0.054045 2.123019 0.004634 0.000803 -158405.000000 1 0 0
-5.226157 -10.849444 6.992635 13.925520 1.121897 1.044719 0.008944 -0.002649 -167733.000000 1 0 0
9.774043 8.385256 -1.582065 12.974874 0.709069 1.693033 0.003585 0.001050 135808.000000 1 0 0
13.726043 4.598856 -4.253565 15.087960 0.323291 1.856589 0.001771 -0.001563 440323.000000 1 0 0
4.655943 1.025756 -6.798665 8.303724 0.216847 2.530025 0.005612 -0.001332 -772681.000000 1 0 0
9.131543 -4.764744 3.434335 10.857371 -0.480927 1.248955 0.005645 -0.002302 -1051390.000000 1 0 0
-8.833157 -3.295444 -0.763065 9.458694 0.357083 1.651557 0.005054 -0.001076 316835.000000 1 0 0
-8.570057 -4.242244 -10.455465 14.168954 0.459646 2.400770 0.012173 -0.005530 491750.000000 1 0 0
10.415343 -1.102344 10.883935 15.104786 -0.105446 0.766184 0.011332 -0.003130 1175550.000000 1 0 0
2.174643 -11.574044 9.894635 15.381527 -1.385072 0.872021 -0.003345 0.001120 509431.000000 1 0 0
-6.427457 -10.748344 2.070835 12.693599 1.031852 1.406924 0.010762 0.001526 -381882.000000 1 0 0
-3.654257 -1.458644 6.601535 7.685148 0.379785 0.537485 0.008874 -0.002405 123582.000000 1 0 0
4.787443 -7.557244 3.948835 9.778796 -1.006115 1.155112 0.001987 -0.000511 455726.000000 1 0 0
11.415043 -9.473444 -5.235865 15.730977 -0.692714 1.910108 0.024342 -0.006858 337392.000000 1 0 0
11.227043 1.221556 11.467435 16.094743 0.108378 0.777748 0.025283 0.000879 -249168.000000 1 0 0
-10.299957 -3.527144 4.423535 11.751490 0.329926 1.184864 0.006473 -0.003471 2030620.000000 1 0 0
2.030243 8.769056 8.957035 12.698295 1.343281 0.787847 0.001904 0.003532 -414053.000000 1 0 0
6.572243 8.720556 4.085835 11.659182 0.924964 1.212756 0.006860 0.000733 687275.000000 1 0 0
-4.167857 3.383556 0.372235 5.381268 -0.681908 1.501569 0.006972 -0.004302 -1551130.000000 1 0 0
4.886343 6.914256 4.140035 9.424605 0.955584 1.116000 0.000555 0.002617 -1340160.000000 1 0 0
-8.258557 13.080756 0.926835 15.497386 -1.007643 1.510955 0.009409 -0.007347 673034.000000 1 0 0
8.861843 8.120256 -9.243065 15.162621 0.741757 2.226347 0.024136 -0.014984 -1541540.000000 1 0 0
7.002843 1.925656 6.004035 9.423184 0.268350 0.879994 -0.004784 0.003693 -292114.000000 1 0 0
11.546243 -6.168844 3.065935 13.445085 -0.490688 1.340738 0.010547 -0.002329 -236781.000000 1 0 0
11.474343 4.697756 -2.138665 12.581866 0.388595 1.741606 0.001678 0.001247 309715.000000 1 0 0
-4.052557 14.406656 -5.963765 16.110290 -1.296585 1.950003 0.008338 0.003055 1432510.000000 1 0 0
7.290643 -3.045144 7.002635 10.557617 -0.395653 0.845606 0.003540 -0.003546 -483301.000000 1 0 0
-7.970357 -0.457444 0.960635 8.041061 0.057330 1.451044 0.006673 -0.002402 131125.000000 1 0 0
-3.284557 1.064756 10.710135 11.252956 -0.313481 0.311868 0.003380 -0.000285 4870.570000 1 0 0
7.082343 -1.283444 -1.899865 7.444212 -0.179272 1.828865 0.007065 -0.000181 -1523650.000000 1 0 0
-7.684057 5.347156 2.894535 9.798732 -0.607953 1.270923 0.007805 -0.003529 932261.000000 1 0 0
9.452543 -2.216144 2.745935 10.089699 -0.230290 1.295167 0.003096 -0.001804 -1635590.000000 1 0 0
0.319243 3.511556 1.567535 3.858770 1.480134 1.152476 0.002356 -0.000944 -2370610.000000 1 0 0
-7.585657 -3.173844 3.896235 9.099238 0.396268 1.128303 0.004023 -0.002486 823945.000000 1 0 0
-2.168857 8.365056 -6.819365 11.008262 -1.317107 2.238873 0.004875 -0.005263 -485956.000000 1 0 0
4.548743 9.859056 7.446135 13.165750 1.138522 0.969674 0.000247 0.004233 -685948.000000 1 0 0
-11.885657 -3.180144 6.892635 14.102857 0.261438 1.060151 0.015813 -0.008263 -691983.000000 1 0 0
-4.644357 2.308256 -5.563865 7.606227 -0.461247 2.391298 0.012764 -0.010217 -585957.000000 1 0 0
-2.708157 2.860456 -1.945265 4.393220 -0.812741 2.029502 0.006658 -0.003401 511800.000000 1 0 0
2.344843 5.281756 11.356235 12.742029 1.152984 0.470719 0.003371 -0.002532 265403.000000 1 0 0
-0.681257 1.632756 4.558935 4.890183 -1.175514 0.370179 0.005183 -0.002001 -1118150.000000 1 0 0
5.083643 1.575856 7.657735 9.325645 0.300593 0.607377 -0.005242 0.002017 793001.000000 1 0 0
3.411543 -8.133944 1.799035 9.002011 -1.173661 1.369593 0.004929 -0.000713 2338070.000000 1 0 0
5.109043 6.499256 -4.657665 9.488756 0.904591 2.083875 0.008443 -0.001569 -2055330.000000 1 0 0
-4.157157 2.873956 -7.945665 9.416750 -0.604882 2.575084 0.011116 -0.013607 -674038.000000 1 0 0
-8.709657 -2.132444 -12.898365 15.709019 0.240113 2.534097 0.015938 -0.004135 911.166000 1 0 0
-7.833857 8.134156 1.239335 11.360887 -0.804202 1.461491 0.008295 -0.002757 -889869.000000 1 0 0
7.340643 0.874856 -6.567865 9.888744 0.118620 2.297187 0.002202 0.000642 566458.000000 1 0 0
9.015143 8.853456 5.424435 13.750672 0.776350 1.165289 0.005184 -0.000445 162708.000000 1 0 0
9.361543 -1.085644 -1.439065 9.533521 -0.115453 1.722323 0.004342 -0.002020 355907.000000 1 0 0
5.410643 0.061056 4.253235 6.882499 0.011284 0.904628 -0.004085 0.002926 -236821.000000 1 0 0
-4.178357 -7.313344 -8.001265 11.617397 1.051722 2.330534 0.016246 -0.004562 -61763.100000 1 0 0
-2.161857 7.387856 -0.601065 7.721096 -1.286121 1.648722 0.003957 -0.001173 404084.000000 1 0 0
13.265043 -3.374244 -7.349065 15.535625 -0.249088 2.063541 0.025443 -0.004767 1224760.000000 1 0 0
-4.853657 -5.162244 1.662935 7.278194 0.816198 1.340278 0.010711 -0.001410 873060.000000 1 0 0
-8.966557 1.195456 2.594535 9.410626 -0.132542 1.291476 0.003254 -0.002510 -1518670.000000 1 0 0
-1.040957 11.264856 10.059635 15.138587 -1.478651 0.843968 0.006092 -0.002360 685903.000000 1 0 0
-8.535457 0.281656 7.323035 11.249898 -0.032986 0.861971 0.001070 -0.003982 -131579.000000 1 0 0
-6.214557 12.899556 -2.084565 14.469439 -1.121843 1.715366 0.007880 0.000372 173156.000000 1 0 0
-13.073457 -0.793644 3.223435 13.488354 0.060632 1.329482 0.010479 -0.007415 312736.000000 1 0 0
-6.573957 12.828356 8.639435 16.805459 -1.097234 1.030856 0.005749 -0.006716 1026610.000000 1 0 0
-8.028257 0.840756 -14.035965 16.191606 -0.104344 2.619679 0.008050 -0.004482 -485122.000000 1 0 0
7.400843 2.901756 3.692835 8.765255 0.373664 1.135914 -0.000456 0.002745 -672438.000000 1 0 0
-1.695457 0.706656 -2.054365 2.755786 -0.394899 2.412041 0.006985 -0.004501 550617.000000 1 0 0
-6.154457 9.684556 -10.312865 15.427999 -1.004688 2.302921 -0.000995 -0.007257 144672.000000 1 0 0
-10.118557 13.703756 5.256235 17.827118 -0.934775 1.271503 0.013954 -0.007396 482797.000000 1 0 0
-5.653357 8.219156 2.473635 10.277833 -0.968287 1.327733 0.002963 -0.000257 -872799.000000 1 0 0
-2.409957 -10.742944 -1.237365 11.079251 1.350120 1.682713 0.013393 -0.001635 599529.000000 1 0 0
-2.283157 -12.487244 8.861735 15.481422 1.389955 0.961353 0.008811 0.004029 764860.000000 1 0 0
-14.703857 -6.462244 -1.555565 16.136412 0.414082 1.667347 0.008956 -0.001456 505198.000000 1 0 0
-2.746757 -9.372944 3.333635 10.320362 1.285726 1.241882 0.012774 -0.002490 -315812.000000 1 0 0
4.747043 -2.662244 7.439035 9.217440 -0.511114 0.631639 0.000529 -0.001055 -389064.000000 1 0 0
-15.200257 -1.271144 -0.244965 15.255282 0.083432 1.586855 0.015452 -0.008489 248001.000000 1 0 0
5.486743 8.785356 -2.881965 10.751397 1.012533 1.842170 0.008455 -0.002099 528541.000000 1 0 0
-5.660557 -5.708044 8.513435 11.709067 0.789575 0.756736 0.010877 -0.002190 -3137860.000000 1 0 0
3.477443 3.598556 6.993935 8.599845 0.802513 0.621059 -0.003577 0.001545 210182.000000 1 0 0
3.232443 2.278556 9.322935 10.127074 0.614008 0.401195 0.001345 -0.003204 677777.000000 1 0 0
9.953743 -3.109644 5.148635 11.629932 -0.302802 1.112183 0.006314 -0.002726 -909502.000000 1 0 0
6.655243 10.062156 -5.059665 13.082028 0.986440 1.967917 0.008659 -0.005082 685980.000000 1 0 0
-4.544657 12.024056 -8.401865 15.356535 -1.209430 2.149716 0.005849 -0.005549 -554798.000000 1 0 0
-3.375557 -7.235244 2.187135 8.278086 1.134270 1.303414 0.012816 -0.002685 1242790.000000 1 0 0
-7.459957 -4.070144 1.047735 8.562405 0.499458 1.448124 0.007866 0.000136 3256520.000000 1 0 0
-2.051757 -4.002544 -10.944265 11.832456 1.097109 2.751664 0.012381 -0.004248 -560974.000000 1 0 0
-5.171357 8.307156 -4.418265 10.736519 -1.013984 1.994915 0.006523 -0.005715 -1617870.000000 1 0 0
-11.056857 -3.266744 -10.122665 15.342557 0.287277 2.291318 0.022042 -0.002590 -49260.800000 1 0 0
4.667443 -11.452544 -7.739165 14.589053 -1.183801 2.129960 0.000139 0.001813 -2729590.000000 1 0 0
-9.432057 -3.908544 7.341735 12.575432 0.392849 0.947376 0.002011 -0.002732 -951486.000000 1 0 0
-5.782457 -9.747144 -5.140365 12.444556 1.035358 1.996609 0.013597 -0.002594 22517.500000 1 0 0
4.836643 4.530156 -9.569565 11.640103 0.752689 2.535922 0.002712 -0.003307 353644.000000 1 0 0
-3.369857 -7.046144 -14.026565 16.054551 1.124695 2.633515 0.006052 -0.000765 -176374.000000 1 0 0
0.589643 -0.916844 -8.748865 8.816514 -0.999271 3.017634 0.010584 -0.008748 -398888.000000 1 0 0
-7.674057 2.177356 -2.951265 8.505410 -0.276464 1.925153 0.008066 -0.004255 -432408.000000 1 0 0
-2.226857 7.484056 -12.471265 14.714022 -1.281592 2.582199 0.002115 -0.010071 -439546.000000 1 0 0
-9.817857 8.912456 7.554735 15.260937 -0.737097 1.052918 0.010395 -0.006055 -186612.000000 1 0 0
-10.744457 -3.111044 -14.226465 18.097355 0.281841 2.475282 0.027937 0.000441 -320093.000000 1 0 0
-3.222457 4.833456 7.905135 9.810081 -0.982772 0.633742 -0.000395 0.000783 -441182.000000 1 0 0
8.641143 -2.417044 -3.551865 9.650243 -0.272743 1.947718 0.006664 -0.000466 -3988430.000000 1 0 0
1.973943 -8.464544 -1.102665 8.761326 -1.341690 1.696987 0.005396 0.000086 431268.000000 1 0 0
-13.627457 -2.848244 5.017635 14.798539 0.206042 1.224876 0.022796 -0.012426 537479.000000 1 0 0
7.142043 2.836156 -2.011065 7.943358 0.378010 1.826758 0.003380 0.000298 971293.000000 1 0 0
-11.089857 4.450556 8.782435 14.829819 -0.381642 0.936992 0.007902 -0.006164 -3192250.000000 1 0 0
-1.749957 -2.630744 7.815935 8.430421 0.983813 0.384167 0.004749 -0.002810 -1257040.000000 1 0 0
2.978443 11.897356 -9.928165 15.779311 1.325493 2.251305 0.006480 -0.013102 804066.000000 1 0 0
3.587243 -5.031044 -7.131765 9.436196 -0.951384 2.427653 0.001354 -0.003758 560889.000000 1 0 0
8.280343 -13.739344 -9.808965 18.802911 -1.028413 2.119607 0.021268 -0.003983 109456.000000 1 0 0
-6.327657 -5.794844 -0.448565 8.591896 0.741474 1.623028 0.012598 0.000351 -344601.000000 1 0 0
-1.205057 -4.061944 9.776635 10.655240 1.282397 0.408941 0.000774 -0.002862 911016.000000 1 0 0
2.859543 3.159256 1.836035 4.639925 0.835153 1.163963 -0.002656 0.000832 -1325240.000000 1 0 0
-8.979257 13.268656 7.715035 17.782184 -0.975861 1.122020 0.016867 -0.021218 -833158.000000 1 0 0
4.153943 -11.104244 0.035235 11.855831 -1.212827 1.567824 0.003877 -0.004114 -670243.000000 1 0 0
-12.582257 -1.372244 -9.136765 15.610148 0.108632 2.196058 0.017095 -0.001376 87166.800000 1 0 0
-4.348657 0.978556 -13.480465 14.198286 -0.221338 2.822254 0.011701 -0.008676 648472.000000 1 0 0
3.963643 -3.001744 4.835835 6.935866 -0.648169 0.799282 0.001506 -0.000229 -80355.700000 1 0 0
1.615843 -1.209444 1.035835 2.268624 -0.642535 1.096636 0.006052 0.000210 -108884.000000 1 0 0
8.205443 -8.983044 7.416335 14.248733 -0.830607 1.023371 0.012068 -0.002342 -961205.000000 1 0 0
-0.059157 2.231656 -6.404765 6.782684 -1.544294 2.806202 0.006438 -0.007605 176922.000000 1 0 0
-3.825757 -9.802644 -3.338265 11.039577 1.198699 1.877996 0.015194 -0.000606 831688.000000 1 0 0
-9.504757 2.170556 -5.543965 11.215493 -0.224515 2.087841 0.005326 -0.002974 -1106060.000000 1 0 0
9.027843 -7.635744 5.386435 12.993083 -0.702050 1.143335 0.008963 -0.004282 1933080.000000 1 0 0
-5.537757 -4.269544 4.611335 8.376167 0.656799 0.987797 0.007729 -0.001984 -153591.000000 1 0 0
-0.144357 -12.463844 10.408435 16.238958 1.559215 0.875055 0.007170 0.005205 -1016130.000000 1 0 0
-14.324457 -8.367844 3.139435 16.883926 0.528695 1.383766 0.007858 -0.008078 -1208310.000000 1 0 0
10.836143 -1.247944 -3.668065 11.508000 -0.114660 1.895197 0.011467 -0.001251 -100719.000000 1 0 0
-13.611057 2.953856 2.665035 14.180570 -0.213705 1.381736 0.016076 -0.006591 -35204.600000 1 0 0
-6.244857 6.101656 0.970235 8.784635 -0.773800 1.460124 0.007041 -0.002640 856280.000000 1 0 0
7.335743 -6.896644 -0.803265 10.100597 -0.754556 1.650407 0.007789 -0.004625 751958.000000 1 0 0
-6.846157 7.809956 10.054735 14.455552 -0.851064 0.801594 0.004325 -0.000048 490251.000000 1 0 0
-12.647157 -5.145744 -1.887765 13.783792 0.386414 1.708184 0.000158 -0.000831 -3024340.000000 1 0 0
-9.463057 -5.580244 0.229335 10.988229 0.532802 1.549924 0.006234 -0.000510 -1102500.000000 1 0 0
-1.699357 1.915856 2.171035 3.357337 -0.845212 0.867607 0.007180 -0.002419 -256582.000000 1 0 0
-7.075557 7.367356 7.544735 12.698995 -0.805599 0.934624 0.005449 -0.004298 42468.200000 1 0 0
5.693143 7.279256 -0.514265 9.255480 0.907063 1.626388 0.005325 -0.000134 -1510900.000000 1 0 0
0.089143 -4.144844 7.432935 8.510946 -1.549293 0.508782 0.004294 -0.002339 -914029.000000 1 0 0
6.395543 0.760556 12.992435 14.501199 0.118364 0.460218 0.008160 -0.005198 478357.000000 1 0 0
5.820143 6.208756 -7.878865 11.597380 0.817694 2.317695 0.001960 -0.002709 -31977.700000 1 0 0
9.916743 5.314056 9.060735 14.445688 0.491928 0.892808 -0.000540 -0.001369 -2617250.000000 1 0 0
-1.365957 -5.016844 -8.462865 9.932505 1.304966 2.590661 0.007983 -0.002629 654099.000000 1 0 0
9.934643 -3.581544 -8.017265 13.259002 -0.346008 2.220143 0.016317 -0.006486 588062.000000 1 0 0
8.092843 -5.778544 1.378935 10.039280 -0.620081 1.433007 0.005030 -0.003255 1039300.000000 1 0 0
15.801243 3.219156 -5.001065 16.883509 0.200978 1.871518 0.024155 0.003233 102339.000000 1 0 0
-6.837657 3.548256 1.136335 7.786844 -0.478676 1.424343 0.006920 -0.004735 107408.000000 1 0 0
-1.677657 3.747256 0.223235 4.111727 -1.149854 1.516477 0.006055 -0.006157 -158868.000000 1 0 0
-2.574357 10.117256 6.884535 12.505319 -1.321632 0.987799 -0.000942 0.004970 581717.000000 1 0 0
5.503443 -5.739444 -8.759365 11.830282 -0.806386 2.404490 0.000339 -0.002413 -1623870.000000 1 0 0
-1.221857 -0.932744 6.224935 6.411923 0.652011 0.242097 0.006063 -0.002810 253939.000000 1 0 0
-5.616257 5.022556 -7.837365 10.871647 -0.729651 2.375896 0.007069 -0.008624 10437.900000 1 0 0
6.810943 -1.244044 2.533935 7.372748 -0.180662 1.219954 0.000447 0.002060 -1327250.000000 1 0 0
8.805743 7.531256 3.176535 12.014628 0.707544 1.303226 0.004154 -0.000030 159398.000000 1 0 0
-5.328057 -4.898744 -7.695265 10.564232 0.743444 2.386819 0.013536 -0.004893 1793300.000000 1 0 0
-2.181457 7.781156 -9.967465 12.831816 -1.297462 2.460329 0.004798 -0.005613 1069800.000000 1 0 0
-2.807057 -2.214844 1.569435 3.904898 0.668014 1.157190 0.008048 -0.000430 925128.000000 1 0 0
6.029243 -2.062744 -9.279465 11.256783 -0.329640 2.539839 0.001146 -0.000158 1105490.000000 1 0 0
1.159643 -7.586844 5.037035 9.180234 -1.419121 0.990009 0.004711 -0.000712 439237.000000 1 0 0
1.732243 12.030556 1.116435 12.205792 1.427792 1.479201 0.004935 -0.003863 199076.000000 1 0 0
-1.031557 7.111456 2.498135 7.607733 -1.426745 1.236221 0.001649 0.003307 578822.000000 1 0 0
8.810143 7.980656 -6.593665 13.593598 0.736037 2.077224 0.016256 -0.008854 -548466.000000 1 0 0
3.709743 -10.907944 5.523135 12.776950 -1.242972 1.123784 0.006172 0.002233 643169.000000 1 0 0
7.879643 -7.035744 12.449635 16.327396 -0.728879 0.703628 0.022139 -0.009067 492256.000000 1 0 0
-8.630557 0.044656 -3.987065 9.507113 -0.005174 2.003555 0.010379 -0.002819 -980971.000000 1 0 0
-3.327857 -5.027244 11.098935 12.630684 0.986056 0.497606 0.004889 -0.001217 62588.400000 1 0 0
-8.307957 0.249956 -11.467665 14.163050 -0.030077 2.514418 0.008936 -0.007346 -1678720.000000 1 0 0
1.496543 -4.998144 5.247735 7.399987 -1.279872 0.782498 0.006311 -0.001303 -288361.000000 1 0 0
6.754243 3.866056 -7.663465 10.922220 0.519870 2.348493 0.002045 -0.001246 1734210.000000 1 0 0
16.394743 4.231556 -1.332665 16.984394 0.252592 1.649341 0.013784 0.010562 -482156.000000 1 0 0
7.989243 7.529856 0.099235 10.978915 0.755805 1.561758 0.004063 -0.001178 -3198170.000000 1 0 0
5.285143 -10.330044 14.104835 18.264417 -1.097889 0.688409 -0.000284 -0.002658 -114059.000000 1 0 0
-4.947257 -9.326144 9.088135 13.930058 1.083069 0.860034 0.002993 -0.001966 693168.000000 1 0 0
-12.641057 -3.242644 2.901535 13.368993 0.251103 1.352021 0.004663 -0.005622 307293.000000 1 0 0
-2.164957 -1.382844 -5.840865 6.380831 0.568419 2.727239 0.008059 -0.008480 -1271100.000000 1 0 0
-2.554757 13.055856 -4.380165 14.005999 -1.377559 1.888867 0.008992 0.002368 542197.000000 1 0 0
3.924943 -0.495344 -4.946165 6.333647 -0.125540 2.466957 0.006739 -0.000896 -309919.000000 1 0 0
-8.899757 3.820056 -7.438165 12.211667 -0.405449 2.225726 0.001727 -0.003901 292217.000000 1 0 0
-4.563657 7.873856 -11.286265 14.498426 -1.045515 2.462985 0.001165 -0.009129 -657294.000000 1 0 0
-10.241257 -6.366444 7.530335 14.216923 0.556184 1.012580 0.006753 -0.000121 -1417970.000000 1 0 0
8.083743 5.315256 4.139435 10.523011 0.581646 1.166502 -0.002635 0.002939 -1499080.000000 1 0 0
-6.760357 -7.580444 4.146835 10.970953 0.842522 1.183179 0.011304 -0.001761 -571556.000000 1 0 0
-4.008957 11.821956 8.026735 14.841120 -1.243855 0.999356 0.001757 -0.001026 451455.000000 1 0 0
-7.279057 9.934356 -7.882665 14.622329 -0.938449 2.140146 0.002086 -0.005344 -445928.000000 1 0 0
13.107143 5.428356 4.684635 14.940216 0.392647 1.251858 0.003141 -0.000933 559575.000000 1 0 0
5.397443 3.974156 -3.811965 7.710861 0.634678 2.087898 0.004560 0.001654 629408.000000 1 0 0
-2.898757 -4.205544 5.187735 7.280246 0.967308 0.777632 0.008188 -0.000024 -762796.000000 1 0 0
12.452043 -2.323244 -5.130165 13.666361 -0.184455 1.955610 0.015333 -0.005064 -1836380.000000 1 0 0
-5.272857 9.834356 6.930435 13.135772 -1.078635 1.015023 0.001326 0.002528 562444.000000 1 0 0
1.886943 3.763356 -0.504165 4.239998 1.106030 1.689985 0.000085 -0.001269 443885.000000 1 0 0
0.028143 9.691656 7.601035 12.316847 1.567893 0.905713 -0.001342 0.003910 -1159910.000000 1 0 0
-5.669757 2.107856 5.820835 8.394720 -0.355937 0.804610 0.001488 -0.001630 958508.000000 1 0 0
8.806543 0.879456 10.713135 13.896039 0.099534 0.690467 0.008258 0.001370 -1731820.000000 1 0 0
0.352543 -2.928144 -10.147565 10.567468 -1.450975 2.858745 0.009018 -0.005160 -1459960.000000 1 0 0
1.262243 10.625856 -2.763065 11.051543 1.452561 1.823493 0.009133 -0.003780 -901507.000000 1 0 0
2.217843 -4.260044 11.635935 12.588160 -1.090793 0.391454 0.003896 -0.005269 -306129.000000 1 0 0
6.497943 -3.045244 9.497735 11.903938 -0.438252 0.647051 0.006076 -0.003422 308963.000000 1 0 0
-10.693857 -8.237744 5.788735 14.687698 0.656383 1.165685 0.012051 -0.003047 -1946640.000000 1 0 0
-3.005457 0.786056 -6.993965 7.652856 -0.255813 2.723593 0.012349 -0.010242 726142.000000 1 0 0
11.201043 2.617156 -5.090965 12.578982 0.229535 1.987469 0.002580 0.000681 -3206010.000000 1 0 0
-1.947157 -4.087844 0.055235 4.528238 1.126264 1.558598 0.010619 -0.001397 1804860.000000 1 0 0
-1.310157 -6.457544 -10.659565 12.531668 1.370626 2.587941 0.006884 0.000218 731389.000000 1 0 0
0.352343 6.731456 -6.640465 9.462157 1.518501 2.348706 0.006124 -0.001884 -3183180.000000 1 0 0
2.020943 3.913256 -6.264465 7.657761 1.094087 2.528816 0.005365 -0.003576 -1850540.000000 1 0 0
1.656543 -14.772944 6.486635 16.219138 -1.459129 1.159348 0.015836 -0.003125 68213.100000 1 0 0
-1.715457 5.320056 -10.564165 11.951877 -1.258872 2.654915 0.008543 -0.009156 24722.900000 1 0 0
13.675943 4.260856 -0.882665 14.351495 0.302027 1.632339 0.002189 0.002768 -1577530.000000 1 0 0
-2.375957 3.299256 -6.214265 7.426126 -0.946675 2.562229 0.009408 -0.009806 -1698540.000000 1 0 0
5.724643 7.914156 14.237235 17.265696 0.944576 0.601307 0.024029 -0.011032 -58770.400000 1 0 0
15.835243 0.669756 -5.781965 16.871117 0.042270 1.920600 0.028075 -0.001921 -259914.000000 1 0 0
6.144643 -8.134344 10.645635 14.739530 -0.923851 0.763745 0.001145 0.003603 24949.700000 1 0 0
-0.017957 -5.967444 -6.399665 8.750224 1.567787 2.391127 0.004709 -0.002188 -568945.000000 1 0 0
8.801143 5.579756 -7.658665 12.932476 0.565031 2.204588 0.006123 -0.001578 -109475.000000 1 0 0
-16.152957 -0.663544 5.253335 16.998701 0.041056 1.256609 0.037520 -0.015868 422013.000000 1 0 0
-0.365757 3.980656 -12.365365 12.995447 -1.479170 2.828921 0.008492 -0.010721 781684.000000 1 0 0
-11.268557 3.705756 5.855835 13.228901 -0.317717 1.112239 0.010215 -0.008300 129409.000000 1 0 0
5.185243 -9.659144 -9.669665 14.618079 -1.078127 2.293596 -0.006841 0.003905 323759.000000 1 0 0
1.498843 11.136656 -11.748865 16.257536 1.437014 2.378457 -0.001598 -0.005345 -2653950.000000 1 0 0
6.076943 2.350556 1.164735 6.618984 0.369075 1.393906 0.003256 0.001692 -369049.000000 1 0 0
5.724843 4.503756 4.887035 8.771588 0.666581 0.979854 -0.003881 0.003053 -74026.400000 1 0 0
0.307943 -1.534344 -6.315165 6.506178 -1.372728 2.898679 0.006907 -0.004612 971545.000000 1 0 0
12.853043 6.945956 -4.711465 15.350730 0.495453 1.882753 0.007407 -0.004824 245027.000000 1 0 0
7.382743 3.256656 12.774035 15.109158 0.415443 0.563389 0.005901 0.002048 -310296.000000 1 0 0
-2.548257 -0.254944 8.632335 9.004211 0.099715 0.288401 0.004803 -0.001442 628425.000000 1 0 0
2.356943 -15.079444 13.325935 20.261425 -1.415749 0.853035 0.004060 0.005368 174046.000000 1 0 0
18.973643 4.486856 -1.711565 19.571930 0.232212 1.658358 0.026295 0.001346 696091.000000 1 0 0
-0.273257 -13.201344 7.304235 15.089798 1.550100 1.065518 0.008989 0.001931 -1388500.000000 1 0 0
4.394543 1.631356 -0.588865 4.724414 0.355455 1.695764 0.002199 -0.001141 594983.000000 1 0 0
2.637043 -0.549644 -7.316865 7.796962 -0.205490 2.788840 0.008032 -0.003923 85209.500000 1 0 0
7.239043 -11.269044 1.031035 13.433470 -0.999794 1.493970 0.002885 -0.001219 428550.000000 1 0 0
-11.891257 -7.338244 1.290035 14.032677 0.552907 1.478736 0.000928 0.000859 352927.000000 1 0 0
0.112943 -6.991144 9.870135 12.095802 -1.554643 0.616345 -0.001183 -0.001618 -2502230.000000 1 0 0
-4.652457 -7.193544 10.615935 13.641500 0.996706 0.678988 0.009697 0.000469 -1043160.000000 1 0 0
11.865443 0.695156 -1.698565 12.006544 0.058520 1.712742 0.000635 -0.000926 445130.000000 1 0 0
6.533843 -9.690744 -7.364665 13.814482 -0.977572 2.133071 -0.006945 0.000763 -220839.000000 1 0 0
-11.032457 4.871356 3.486735 12.553985 -0.415803 1.289356 0.008479 -0.007668 140378.000000 1 0 0
6.051643 -9.065844 2.130435 11.106334 -0.982202 1.377778 0.003125 -0.002448 2952850.000000 1 0 0
11.677543 -1.310744 5.836435 13.120481 -0.111777 1.109808 0.006409 -0.004438 -833744.000000 1 0 0
-6.538357 3.535456 4.176235 8.525873 -0.495695 1.058901 0.001044 -0.002813 -1975970.000000 1 0 0
9.585743 6.311456 -3.312465 11.945433 0.582272 1.851779 0.004479 -0.000120 -456948.000000 1 0 0
-2.275557 6.643156 10.821235 12.899954 -1.240781 0.575614 -0.003494 0.000984 166153.000000 1 0 0
1.821043 9.790656 2.789035 10.341753 1.386900 1.297728 -0.000501 0.003151 -435306.000000 1 0 0
2.920143 6.196856 -5.668365 8.891491 1.130429 2.262051 0.005660 -0.001887 -2498910.000000 1 0 0
11.961243 0.076056 -5.760265 13.276211 0.006358 2.019590 0.013426 0.000377 216585.000000 1 0 0
-2.583357 -12.525544 6.293135 14.253650 1.367401 1.113515 0.013730 0.000774 -253957.000000 1 0 0
11.011743 1.806656 -2.827365 11.511580 0.162618 1.818946 0.002595 0.000298 657853.000000 1 0 0
-8.795257 5.329756 0.791835 10.314546 -0.544805 1.493952 0.005474 -0.004920 -1106780.000000 1 0 0
1.145043 -10.155244 5.620435 11.663164 -1.458517 1.067979 0.007030 -0.002007 348876.000000 1 0 0
9.547243 -5.547044 -0.870065 11.075945 -0.526339 1.649432 0.007404 -0.002722 -873892.000000 1 0 0
-7.786157 8.575956 -4.554265 12.446389 -0.833631 1.945407 0.001418 -0.005846 -220822.000000 1 0 0
-7.530657 -0.041544 -1.594465 7.697717 0.005517 1.779442 0.006414 -0.003026 -1579770.000000 1 0 0
4.094543 8.844856 2.714835 10.117662 1.137243 1.299141 0.003557 0.001196 1129460.000000 1 0 0
-1.379257 -10.501744 -3.717865 11.225484 1.440208 1.908370 0.011484 0.002483 -344017.000000 1 0 0
3.198343 7.837556 -3.756065 9.260924 1.183345 1.988412 0.010207 -0.003184 -426207.000000 1 0 0
-4.391857 1.588656 -10.935065 11.890664 -0.347084 2.737945 0.009315 -0.010509 -693854.000000 1 0 0
1.276643 2.823256 10.953735 11.383536 1.146124 0.275668 0.000949 -0.002401 548620.000000 1 0 0
2.209743 5.670056 -8.108265 10.137873 1.199182 2.497757 0.004055 -0.004067 -971978.000000 1 0 0
15.576943 6.085456 4.006935 17.196786 0.372438 1.335630 0.015682 -0.005177 254261.000000 1 0 0
-4.401057 8.979756 4.640135 11.024345 -1.115093 1.136360 0.001550 0.002615 189641.000000 1 0 0
-0.831057 -8.282244 -12.286465 14.840601 1.470789 2.546141 -0.000297 0.001528 69861.400000 1 0 0
14.342443 -4.298944 -5.216065 15.855407 -0.291214 1.906016 0.032928 -0.005207 2513730.000000 1 0 0
-5.989157 -6.205644 -5.583165 10.273838 0.803149 2.145320 0.013839 0.000269 707496.000000 1 0 0
-8.931257 2.633156 -12.284565 15.414649 -0.286702 2.493010 0.008665 -0.008118 -617637.000000 1 0 0
10.700543 5.608056 13.650235 18.228572 0.482734 0.724490 0.023511 0.000532 826663.000000 1 0 0
-0.473457 10.993556 5.460735 12.284220 -1.527756 1.110144 0.000501 0.006522 577899.000000 1 0 0
0.250943 11.391756 -0.636065 11.412259 1.548771 1.626560 0.007709 -0.002050 281455.000000 1 0 0
-1.450357 -0.581244 3.689635 4.006843 0.381161 0.400584 0.007563 -0.000951 461315.000000 1 0 0
-4.837657 6.706056 8.820835 12.090544 -0.945861 0.753111 0.003272 0.000266 -2132360.000000 1 0 0
3.500043 -8.779844 -11.412565 14.818320 -1.191458 2.449898 -0.006895 0.007041 466869.000000 1 0 0
6.620143 -3.769944 12.005535 14.218707 -0.517665 0.565449 0.012390 -0.004911 -706231.000000 1 0 0
-2.447657 -1.790344 -12.548465 12.909699 0.631524 2.904472 0.012759 -0.009059 1104910.000000 1 0 0
-16.018057 -4.867144 5.224935 17.537594 0.294988 1.268275 0.025445 -0.017766 2105470.000000 1 0 0
-8.874057 7.354656 5.713935 12.864249 -0.692046 1.110547 0.007143 -0.005738 -3225710.000000 1 0 0
-12.866857 1.460356 5.985935 14.266046 -0.113014 1.137799 0.010095 -0.008920 481895.000000 1 0 0
-3.601357 3.675256 10.133535 11.365114 -0.795553 0.469852 0.000377 0.000280 502798.000000 1 0 0
2.077743 -12.130344 -1.070865 12.353502 -1.401158 1.657590 0.014381 -0.004808 -3078380.000000 1 0 0
10.162543 -5.272944 -3.494965 11.970630 -0.478622 1.867074 0.016456 -0.003086 603816.000000 1 0 0
3.131543 -13.398144 1.002435 13.795713 -1.341189 1.498069 0.011456 -0.008662 308854.000000 1 0 0
10.122243 -1.641244 -6.147365 11.955901 -0.160743 2.110836 0.013017 -0.000622 -360597.000000 1 0 0
12.050743 -5.475844 -1.585365 13.331116 -0.426506 1.690001 0.015499 -0.003822 1135240.000000 1 0 0
1.426443 0.960356 5.947535 6.191138 0.592548 0.281453 0.003195 -0.000481 264020.000000 1 0 0
-10.608457 11.612856 6.594535 17.055371 -0.830567 1.173795 0.021333 -0.011183 56994.600000 1 0 0
4.750943 -14.042244 3.015135 15.127694 -1.244554 1.370140 0.010742 -0.009501 -4231730.000000 1 0 0
5.283043 -3.504744 -1.754665 6.578193 -0.585734 1.840805 0.006694 -0.000619 -1609270.000000 1 0 0
1.894443 -3.019044 -7.656065 8.445050 -1.010403 2.705891 0.005959 -0.003517 -710599.000000 1 0 0
-2.819657 14.898956 -8.983865 17.624959 -1.383756 2.105660 0.015972 -0.002099 -1568420.000000 1 0 0
-2.355457 6.007156 -8.103065 10.358270 -1.197111 2.469114 0.008177 -0.007819 -318319.000000 1 0 0
2.655743 -3.502044 -11.293865 12.118938 -0.921978 2.770464 0.003491 -0.001846 -1759580.000000 1 0 0
14.706743 2.778156 -2.698165 15.208107 0.186703 1.749157 0.017134 0.006183 774049.000000 1 0 0
-3.402957 13.231856 2.183235 13.835774 -1.319072 1.412338 0.002479 -0.001277 -161661.000000 1 0 0
7.781043 -4.903044 13.967435 16.723448 -0.562278 0.582299 0.021468 -0.013454 -2287300.000000 1 0 0
-11.459357 7.183256 2.858135 13.823349 -0.559926 1.362533 0.009474 -0.005690 1220570.000000 1 0 0
-2.240057 11.983056 4.004535 12.831515 -1.385994 1.253409 0.001511 0.001056 -230632.000000 1 0 0
1.810643 1.451056 0.657235 2.411628 0.675596 1.294777 0.000140 -0.000176 -1090180.000000 1 0 0
-6.875057 8.659056 5.253235 12.241002 -0.899741 1.127244 0.005063 -0.002604 -1090330.000000 1 0 0
-1.076957 9.140556 1.025735 9.260763 -1.453515 1.459807 0.002056 0.002327 475546.000000 1 0 0
4.846543 12.959456 -8.449765 16.212187 1.212923 2.119051 0.026545 -0.023455 -1376190.000000 1 0 0
8.914143 6.946256 7.140735 13.367966 0.661954 1.007273 -0.001910 0.000229 -1199670.000000 1 0 0
7.282343 -13.811344 2.965735 15.892807 -1.085569 1.383087 0.013697 -0.007379 326462.000000 1 0 0
4.242543 -13.380744 -1.169765 14.085873 -1.263760 1.653937 0.007004 -0.001582 -2461200.000000 1 0 0
12.086043 -11.771944 -4.548765 17.474048 -0.772234 1.834145 0.026871 -0.004197 -1185810.000000 1 0 0
2.996343 -0.032944 -1.990665 3.597486 -0.010994 2.157176 0.004153 -0.000329 1007410.000000 1 0 0
-13.558257 -3.077544 -10.750565 17.574762 0.223205 2.229010 0.021467 -0.006095 -142013.000000 1 0 0
-6.576857 13.672556 4.963335 15.963350 -1.122443 1.254635 0.013358 -0.007700 330373.000000 1 0 0
7.373543 -4.349644 -0.652065 8.585670 -0.532959 1.646818 0.006215 -0.000072 -1304500.000000 1 0 0
11.812143 2.147656 -7.326565 14.064768 0.179853 2.118720 0.010781 0.001271 -944630.000000 1 0 0
-7.556557 -4.556344 9.725335 13.131792 0.542597 0.736841 0.008276 -0.004895 212679.000000 1 0 0
0.910543 2.874456 8.522435 9.040104 1.264026 0.340055 0.000689 -0.000787 -1839600.000000 1 0 0
1.537043 8.101756 -8.761265 12.031655 1.383307 2.386466 0.004403 -0.003572 -102034.000000 1 0 0
-8.672457 -2.043344 -5.637765 10.543774 0.231393 2.134950 0.011687 -0.002051 -910136.000000 1 0 0
6.672443 -0.499344 7.137335 9.783271 -0.074698 0.753140 -0.000672 0.000911 447144.000000 1 0 0
-10.824157 6.493956 7.065935 14.465866 -0.540383 1.060477 0.007177 -0.006509 496522.000000 1 0 0
-5.904957 11.113056 4.797835 13.468027 -1.082382 1.206557 0.001212 -0.000242 98337.900000 1 0 0
6.023643 -1.250844 -6.919265 9.258786 -0.204746 2.414814 0.004646 -0.000317 -450866.000000 1 0 0
4.452343 -5.627544 11.371335 13.446184 -0.901463 0.562935 0.005631 -0.002249 -1708040.000000 1 0 0
-9.043857 -7.429544 2.807235 12.036197 0.687715 1.335396 0.007900 -0.001799 -2806960.000000 1 0 0
-1.132657 12.734556 -9.275365 15.795070 -1.482086 2.198431 0.009212 -0.002856 1035790.000000 1 0 0
-4.640157 9.329356 -2.319265 10.674593 -1.109254 1.789813 0.003330 -0.003015 673618.000000 1 0 0
-3.195357 9.707856 -0.222065 10.222626 -1.252814 1.592521 0.002732 -0.000745 -39482.000000 1 0 0
-3.343057 10.694756 -6.439865 12.923842 -1.267831 2.092426 0.003695 -0.000257 328910.000000 1 0 0
4.963343 -4.924944 0.448235 7.006480 -0.781515 1.506778 0.004073 -0.001323 -1199510.000000 1 0 0
-2.224257 2.837956 -10.799565 11.385601 -0.906041 2.819352 0.010257 -0.009273 5333.910000 1 0 0
-3.675757 12.102456 -2.332065 12.861538 -1.275930 1.753126 0.004339 0.000957 -806340.000000 1 0 0
-0.292057 0.473056 0.060135 0.559192 -1.017692 1.463049 0.004887 -0.000908 -1383270.000000 1 0 0
-4.801457 -1.737344 0.030835 5.106203 0.347181 1.564758 0.005879 -0.000122 318921.000000 1 0 0
2.596643 2.461956 -2.528665 4.381544 0.758779 2.185991 -0.001740 -0.000933 2010930.000000 1 0 0
6.033443 -9.590144 8.585935 14.215892 -1.009233 0.922327 0.001152 0.003466 252960.000000 1 0 0
-4.352757 -5.464844 6.579535 9.596942 0.898192 0.815387 0.007206 -0.003327 8545.980000 1 0 0
-6.282757 5.336256 -11.941665 14.510411 -0.704116 2.537420 -0.000218 -0.011719 723257.000000 1 0 0
-12.903957 3.040656 7.920035 15.442948 -0.231416 1.032286 0.015971 -0.006969 624944.000000 1 0 0
4.634643 -7.497844 -5.089165 10.178270 -1.017152 2.094399 0.000107 -0.002777 -8835.350000 1 0 0
-6.014057 2.493556 -1.063965 6.596873 -0.393047 1.732787 0.008500 -0.004723 -879491.000000 1 0 0
-6.911757 -2.738944 -14.568965 16.356312 0.377289 2.669733 0.017659 -0.003853 964212.000000 1 0 0
2.775943 -6.184344 0.808835 6.826872 -1.148886 1.452039 0.005540 0.001014 -101653.000000 1 0 0
4.726643 -7.814044 13.056035 15.933000 -1.026788 0.610374 0.001394 -0.006744 -233737.000000 1 0 0
-10.042657 -1.674544 8.109435 13.016221 0.165223 0.898192 0.007589 -0.003957 36843.200000 1 0 0
-4.463457 13.340756 -0.202065 14.069081 -1.247930 1.585159 0.002261 0.000806 624856.000000 1 0 0
6.888343 2.231956 -4.473065 8.511122 0.313345 2.124164 0.003627 0.002345 -1740230.000000 1 0 0
5.196543 4.578056 -0.087965 6.926066 0.722208 1.583497 0.001183 -0.000316 -923072.000000 1 0 0
-5.830657 12.312756 1.782435 13.739636 -1.128535 1.440700 0.002051 -0.003348 -461728.000000 1 0 0
6.572943 -7.319744 6.636635 11.867062 -0.839101 0.977317 0.002789 -0.001880 -1434610.000000 1 0 0
-0.305057 4.942656 7.707335 9.161109 -1.509155 0.571094 -0.003227 0.001201 -1281680.000000 1 0 0
-5.793957 -3.472144 -1.541265 6.928291 0.539882 1.795133 0.010028 -0.001412 -842360.000000 1 0 0
2.250443 -6.638044 -5.282765 8.777000 -1.243935 2.216659 0.003902 -0.002216 -868981.000000 1 0 0
-14.539457 -4.944544 -3.683665 15.792838 0.327808 1.806214 0.012140 -0.002906 334485.000000 1 0 0
-12.549357 -5.207744 -6.389065 15.014231 0.393354 2.010348 0.013446 -0.008282 -755070.000000 1 0 0
-14.820357 -3.836844 -1.255765 15.360381 0.253328 1.652641 0.006672 -0.004893 457999.000000 1 0 0
11.762043 2.916656 8.802935 14.978124 0.243069 0.942559 0.004189 -0.000983 -1010740.000000 1 0 0
8.828443 -6.522744 7.736235 13.428958 -0.636316 0.956864 0.009760 -0.006183 152034.000000 1 0 0
-8.926257 -1.697844 -9.786365 13.354164 0.187963 2.393272 0.011767 -0.005223 283351.000000 1 0 0
-8.788557 5.155656 -3.966865 10.934146 -0.530533 1.942063 0.006131 -0.004307 -1936150.000000 1 0 0
-4.290557 -6.249644 4.059035 8.598994 0.969169 1.079197 0.008568 -0.001067 -1080600.000000 1 0 0
-0.212657 -9.280344 3.517835 9.926992 1.547886 1.208555 0.010002 -0.003069 601665.000000 1 0 0
7.963743 -10.459544 3.416835 13.583005 -0.920048 1.316513 0.005333 -0.001854 384233.000000 1 0 0
0.021943 6.534356 9.502735 11.532574 1.567438 0.602378 -0.002422 0.001675 616539.000000 1 0 0
0.033943 3.513256 -9.711765 10.327754 1.561135 2.794472 0.009813 -0.008605 917273.000000 1 0 0
4.439943 -3.061044 11.029235 12.277097 -0.603599 0.454778 0.006432 -0.005593 -1892160.000000 1 0 0
8.675043 -9.094644 1.468935 12.654117 -0.809007 1.454450 0.004522 -0.001754 -1087890.000000 1 0 0
-0.377457 -0.477744 11.343735 11.360063 0.902132 0.053622 0.005703 -0.002879 -1628210.000000 1 0 0
10.776543 6.170756 11.351935 16.824938 0.520036 0.830226 0.013455 -0.002489 66557.000000 1 0 0
-6.372757 -3.004444 -11.917365 13.844216 0.440549 2.607673 0.014145 -0.003939 270879.000000 1 0 0
-1.666857 2.818256 8.516535 9.124272 -1.036687 0.367041 0.003116 -0.001600 -1856540.000000 1 0 0
-1.845757 13.521556 -6.903065 15.293515 -1.435130 2.039099 0.009609 -0.000515 520453.000000 1 0 0
7.654943 3.085256 9.842035 12.844555 0.383125 0.697825 0.000518 0.001834 170536.000000 1 0 0
6.598643 8.511756 -7.982065 13.405426 0.911337 2.208604 0.008567 -0.006633 -767615.000000 1 0 0
6.549543 -2.967144 -4.043265 8.249148 -0.425371 2.083051 0.007325 -0.000652 -1987030.000000 1 0 0
2.063943 8.077356 0.929835 8.388572 1.320627 1.459723 0.002892 0.001078 636494.000000 1 0 0
-17.749957 6.294856 6.393835 19.888874 -0.340803 1.243506 0.040786 -0.011102 313771.000000 1 0 0
-14.759457 3.049656 -10.264665 18.234729 -0.203756 2.168709 0.044060 -0.007481 -474665.000000 1 0 0
-18.519457 0.065556 -4.342565 19.021894 -0.003540 1.801120 0.064790 -0.017108 250174.000000 1 0 0
-13.104057 7.862356 0.150835 15.282530 -0.540415 1.560926 0.013737 -0.005681 -570860.000000 1 0 0
-12.902457 -4.463044 -13.041865 18.880742 0.333023 2.333322 0.042818 0.005058 -500755.000000 1 0 0
-17.418557 -0.640344 -8.556365 19.417198 0.036746 2.027129 0.041219 -0.016831 413887.000000 1 0 0
-16.783957 -2.202144 -2.061765 17.052904 0.130460 1.691997 0.036190 -0.013653 1320960.000000 1 0 0
-15.390057 3.995256 1.683335 15.989045 -0.253993 1.465320 0.020863 -0.006914 -221073.000000 1 0 0
-13.278457 5.935656 4.368935 15.186739 -0.420368 1.278992 0.013469 -0.006650 168470.000000 1 0 0
-9.951457 14.040356 2.736835 17.425652 -0.954205 1.413086 0.027730 -0.011279 -263907.000000 1 0 0
-11.919957 2.426756 -6.410365 13.750175 -0.200843 2.055790 0.006702 -0.000564 497173.000000 1 0 0
-16.006757 10.614656 3.739235 19.567041 -0.585554 1.378515 0.040542 -0.013490 -844049.000000 1 0 0
-13.004157 1.115256 -8.543165 15.599281 -0.085552 2.150366 0.017255 -0.005704 567305.000000 1 0 0
-12.295057 14.346156 3.972635 19.307057 -0.862236 1.363555 0.051198 -0.018829 492881.000000 1 0 0
-10.485957 11.111456 -1.048365 15.314007 -0.814352 1.639308 0.007124 -0.005041 353831.000000 1 0 0
-16.875757 5.554756 8.843435 19.845726 -0.317986 1.108942 0.020976 -0.015324 258861.000000 1 0 0
-11.752057 12.438756 -9.199565 19.428471 -0.813777 2.064067 0.019167 -0.018705 -719670.000000 1 0 0
-17.275857 -0.467244 2.973535 17.536119 0.027039 1.400407 0.044740 -0.014180 531171.000000 1 0 0
-13.135357 14.920856 -0.710365 19.891560 -0.848953 1.606516 0.050354 -0.010462 42514.300000 1 0 0
-16.571357 4.925256 -10.215965 20.080687 -0.288900 2.104524 0.076338 -0.016348 584278.000000 1 0 0
-11.891757 7.594556 -8.955465 16.712017 -0.568348 2.136334 0.008629 -0.004045 -202500.000000 1 0 0
-14.850757 13.356856 -2.060665 20.079764 -0.732487 1.673601 0.066927 -0.019652 511115.000000 1 0 0
-11.840857 10.509856 -5.354465 16.713266 -0.725918 1.896919 0.016764 -0.007274 626475.000000 1 0 0
-17.834057 2.743056 -0.943865 18.068449 -0.152614 1.623058 0.055752 -0.009496 335969.000000 1 0 0
-9.447257 15.408456 0.653135 18.085844 -1.020784 1.534675 0.032515 -0.012118 169805.000000 1 0 0
-8.211757 13.126656 -3.651965 15.908454 -1.011781 1.802423 0.005206 -0.003601 -1432460.000000 1 0 0
-18.083057 11.528156 2.271435 21.565128 -0.567546 1.465272 0.115088 -0.014750 -85313.800000 1 0 0
-8.220957 15.533156 -7.251865 19.011907 -1.084022 1.962148 0.049017 -0.026903 -177759.000000 1 0 0
-6.377057 15.210756 -5.410165 17.358106 -1.173809 1.887756 0.013219 -0.002025 -1089580.000000 1 0 0
-17.524657 5.213856 -0.299765 18.286273 -0.289176 1.587190 0.059567 -0.006927 794513.000000 1 0 0
-5.542657 12.174056 -12.330265 18.192419 -1.143557 2.315521 0.002600 -0.012403 99676.900000 1 0 0
-11.190857 3.660356 -11.458265 16.429404 -0.316116 2.342593 0.013105 -0.009509 141802.000000 1 0 0
-11.840657 11.058656 1.186635 16.245096 -0.751262 1.497685 0.016074 -0.010143 417481.000000 1 0 0
-12.999957 0.242356 -11.024165 17.046696 -0.018641 2.274051 0.020412 -0.009150 509562.000000 1 0 0
-14.288357 -2.194044 -13.154265 19.544965 0.152365 2.309089 0.047878 -0.001095 463111.000000 1 0 0
-18.873457 -2.407944 -3.664765 19.376173 0.126898 1.761080 0.055423 -0.016380 724051.000000 1 0 0
-17.975057 4.643356 -5.333765 19.316120 -0.252796 1.850562 0.046382 -0.012625 -1388370.000000 1 0 0
-8.256557 15.345656 -2.217665 17.566386 -1.077183 1.697379 0.025024 -0.009432 370129.000000 1 0 0
-16.301557 8.876456 -5.250565 19.289911 -0.498623 1.846467 0.056034 -0.011320 376835.000000 1 0 0
-18.326657 1.817156 2.277135 18.556771 -0.098831 1.447774 0.063033 -0.017380 -305276.000000 1 0 0
-15.819257 -2.697444 -8.756865 18.281351 0.168892 2.070318 0.029051 -0.009194 216389.000000 1 0 0
-9.801757 10.441056 -7.195865 16.027182 -0.816969 2.036418 0.006929 -0.008546 -4842.130000 1 0 0
-13.774157 11.844756 -7.542665 19.670217 -0.710228 1.964332 0.040694 -0.025201 239042.000000 1 0 0
-11.003857 6.436356 -3.749665 13.288022 -0.529256 1.856866 0.004139 -0.003789 -2118520.000000 1 0 0
-13.167557 4.937856 -12.653265 18.917508 -0.358772 2.303478 0.047302 -0.016586 516475.000000 1 0 0
-17.688357 9.030456 2.557835 20.024226 -0.472037 1.442709 0.048176 -0.022925 598654.000000 1 0 0
-13.411557 8.648456 -6.467465 17.218994 -0.572747 1.955841 0.013542 -0.004251 -606139.000000 1 0 0
-15.712557 6.868956 -3.675865 17.537930 -0.412128 1.781957 0.022192 -0.001633 -1647550.000000 1 0 0
-15.044857 -0.342944 -9.395865 17.741128 0.022791 2.128936 0.034333 -0.008812 339689.000000 1 0 0
-10.095257 5.767856 -6.090165 13.125262 -0.519082 2.053305 0.002836 -0.003404 155538.000000 1 0 0
-12.817057 12.260956 -0.884565 17.759236 -0.763227 1.620626 0.028793 -0.010487 79109.700000 1 0 0
-10.611457 3.492756 -14.018165 17.925159 -0.317980 2.468726 0.013422 -0.004972 300601.000000 1 0 0
-11.004357 6.219656 -11.998465 17.428229 -0.514438 2.330146 0.007404 -0.009181 -673761.000000 1 0 0
-5.790157 11.451256 -14.856465 19.630887 -1.102651 2.429185 0.009369 -0.021634 -61276.400000 1 0 0
-15.724157 13.170356 3.350435 20.782993 -0.697244 1.408879 0.054862 -0.020541 193729.000000 1 0 0
-14.935557 10.950556 -3.121365 18.781067 -0.632654 1.737769 0.044232 -0.010422 1031570.000000 1 0 0
-18.188157 7.411756 -4.323565 20.110604 -0.386959 1.787477 0.062392 -0.012369 294690.000000 1 0 0
-4.213657 16.029556 -10.869065 19.820145 -1.313744 2.151228 0.026575 -0.007451 -309445.000000 1 0 0
-15.592557 4.269556 -4.422165 16.760444 -0.267269 1.837803 0.028471 0.000286 -538577.000000 1 0 0
-18.586657 -1.861344 -6.197165 19.680785 0.099811 1.891131 0.041611 -0.019260 13581.800000 1 0 0
-10.798557 8.450856 -5.783365 14.881973 -0.664035 1.969925 0.000659 -0.003679 1195730.000000 1 0 0
-11.383557 13.570156 -6.790365 18.969543 -0.872801 1.936880 0.024520 -0.012960 267417.000000 1 0 0
-9.491757 10.510656 -4.507965 14.862338 -0.836293 1.878966 -0.004498 -0.003820 -96240.000000 1 0 0
-11.082357 6.239656 -0.199065 12.719732 -0.512789 1.586447 0.006841 -0.003136 -399787.000000 1 0 0
-14.612657 9.188256 -1.275065 17.308368 -0.561318 1.644531 0.036324 -0.011126 264454.000000 1 0 0
-18.854457 3.729656 4.728335 19.792879 -0.195292 1.329573 0.059323 -0.014884 606136.000000 1 0 0
-14.750957 13.273856 0.468135 19.849563 -0.732740 1.547210 0.044253 -0.007776 -331840.000000 1 0 0
-16.910057 2.639356 -8.874765 19.278944 -0.154833 2.049168 0.056656 -0.013689 98460.600000 1 0 0
-9.170657 8.396856 -8.918465 15.301868 -0.741379 2.193010 0.004457 -0.005074 -2189630.000000 1 0 0
-17.625757 4.565056 -2.822965 18.424880 -0.253430 1.724617 0.042838 -0.005343 690598.000000 1 0 0
-13.458457 5.800156 -4.402165 15.301991 -0.406914 1.862606 0.012961 0.000491 -1870960.000000 1 0 0
-12.214457 9.630456 3.273035 15.895012 -0.667657 1.363397 0.013946 -0.007515 1854430.000000 1 0 0
-17.451957 2.405156 -4.097465 18.087145 -0.136953 1.799320 0.036993 -0.005612 983122.000000 1 0 0
-11.261857 1.427856 -12.626665 16.979425 -0.126114 2.409302 0.019196 -0.003045 134822.000000 1 0 0
-11.215457 11.986956 3.506035 16.785883 -0.818637 1.360379 0.020058 -0.011919 196633.000000 1 0 0
-15.984057 13.102156 -4.281265 21.106535 -0.686639 1.775054 0.061812 -0.017219 423088.000000 1 0 0
-11.045257 4.049856 -4.547965 12.612812 -0.351439 1.939689 0.002834 -0.004126 -577773.000000 1 0 0
-11.270557 14.959556 -8.924665 20.747612 -0.925122 2.015460 0.039076 -0.023319 331925.000000 1 0 0
-15.647257 7.009056 -0.209165 17.146640 -0.421141 1.582995 0.039547 -0.004574 -1408990.000000 1 0 0
-12.835857 8.307456 -3.989065 15.801446 -0.574409 1.826007 0.007084 -0.004000 817593.000000 1 0 0
-19.168057 1.933056 -6.151065 20.223420 -0.100508 1.879848 0.081364 -0.013747 -13869.400000 1 0 0
-12.522157 10.028956 -8.876465 18.335103 -0.675288 2.076158 0.016345 -0.012799 638939.000000 1 0 0
-16.578857 10.909356 -0.975865 19.870201 -0.581998 1.619928 0.047081 -0.015101 412248.000000 1 0 0
-10.574957 6.392256 -14.590565 19.120022 -0.543701 2.438899 0.018096 -0.017385 33369.000000 1 0 0
-13.390357 12.832556 -4.121765 18.999082 -0.764130 1.789481 0.033559 -0.017618 -206628.000000 1 0 0
-18.262157 7.610956 -0.337565 19.787546 -0.394872 1.587857 0.088545 -0.014019 236478.000000 1 0 0
-12.768657 6.589556 -2.069965 14.517080 -0.476423 1.713872 0.004830 0.000320 508481.000000 1 0 0
-13.811257 8.439656 -10.571965 19.332487 -0.548520 2.149393 0.033751 -0.009718 -1082250.000000 1 0 0
-14.941457 1.413356 -0.967865 15.039331 -0.094312 1.635196 0.013755 -0.007164 -961509.000000 1 0 0
-13.361557 2.726556 -2.467365 13.858326 -0.201296 1.749793 0.012677 -0.004289 -570238.000000 1 0 0
-11.346457 9.105556 -10.937665 18.201257 -0.676265 2.215459 0.014330 -0.013422 -835936.000000 1 0 0
-15.227757 4.347656 -8.035065 17.758068 -0.278110 2.040334 0.024615 -0.006927 214138.000000 1 0 0
-18.310757 10.433856 4.646835 21.581062 -0.517933 1.353777 0.089560 -0.040994 -145058.000000 1 0 0
-15.339857 6.134356 -6.120265 17.618149 -0.380417 1.925576 0.032561 -0.000481 410809.000000 1 0 0
-7.792657 11.054656 -13.125465 18.846983 -0.956775 2.341197 0.004587 -0.019336 62002.800000 1 0 0
-16.773457 9.055056 -2.726365 19.255544 -0.495013 1.712862 0.051056 -0.011754 329745.000000 1 0 0
-20.747857 -1.140844 -4.895765 21.348153 0.054931 1.802185 0.085953 -0.029206 287220.000000 1 0 0
-15.443257 4.364056 4.162535 16.579079 -0.275406 1.317009 0.022218 -0.009098 -547769.000000 1 0 0
-6.930557 12.546556 -9.412865 17.147907 -1.066122 2.151870 0.007937 -0.010746 -183675.000000 1 0 0
-17.511057 1.629356 5.667435 18.477331 -0.092780 1.259047 0.049720 -0.018161 236908.000000 1 0 0
-10.462057 14.299956 -2.976365 17.966695 -0.939166 1.737224 0.035191 -0.014064 982832.000000 1 0 0
-9.981857 8.400156 -13.024865 18.434945 -0.699563 2.355381 0.001703 -0.013132 687602.000000 1 0 0
-13.786157 11.585356 2.717235 18.211589 -0.698872 1.421034 0.037831 -0.014706 -798572.000000 1 0 0
-17.178757 6.621356 1.802635 18.498690 -0.367891 1.473195 0.045083 -0.008483 1112150.000000 1 0 0
-9.362057 13.190056 -8.428265 18.239006 -0.953536 2.051159 0.025719 -0.021343 545477.000000 1 0 0
-5.650557 9.648156 -12.971765 17.125490 -1.040986 2.430200 0.001523 -0.014275 -19494.000000 1 0 0
-15.892057 1.834056 3.216635 16.317720 -0.114899 1.372372 0.017374 -0.009205 -513771.000000 1 0 0
-18.690457 -4.843344 4.547535 19.836110 0.253557 1.339484 0.064704 -0.015602 493727.000000 1 0 0
-5.306357 14.450456 -9.110965 17.888063 -1.218872 2.105205 0.009702 -0.005241 -628064.000000 1 0 0
-15.485457 -0.940044 -6.775965 16.929169 0.060631 1.982590 0.026551 -0.007943 595256.000000 1 0 0
-8.953157 10.884656 -9.528865 17.012761 -0.882457 2.165304 0.003984 -0.015826 415744.000000 1 0 0
-16.830657 1.102856 -6.131765 17.946751 -0.065433 1.919484 0.035249 -0.008526 -619961.000000 1 0 0
-11.216157 8.621656 -1.483465 14.224479 -0.655351 1.675276 0.005148 -0.004954 -308103.000000 1 0 0
-10.809357 10.995156 -12.693665 19.971600 -0.793919 2.259563 0.024156 -0.013396 -400046.000000 1 0 0
-14.123957 11.766356 -10.064965 20.957978 -0.694587 2.071730 0.060934 -0.021508 165047.000000 1 0 0
-13.161457 5.779956 -7.551365 16.237456 -0.413801 2.054497 0.014554 0.000743 -520161.000000 1 0 0
-8.987057 15.418456 -4.782765 18.476223 -1.043063 1.832639 0.027430 -0.011761 693648.000000 1 0 0
-8.613957 6.097156 -12.992265 16.738415 -0.615957 2.459404 0.000841 -0.009195 -1031380.000000 1 0 0
-16.572857 7.240656 4.164535 18.558827 -0.411905 1.344473 0.044379 -0.011910 166893.000000 1 0 0
-12.626157 5.363156 -10.156065 17.068361 -0.401672 2.208090 0.020050 -0.005070 593842.000000 1 0 0
-12.481357 8.929756 -13.281665 20.295996 -0.621018 2.284183 0.044091 -0.024356 -23567.200000 1 0 0
-10.756857 5.275656 -8.515865 14.699064 -0.455975 2.188724 0.004145 -0.001914 -1496990.000000 1 0 0
-17.813057 -4.521444 -2.608865 18.562183 0.248578 1.711811 0.036155 -0.010513 443450.000000 1 0 0
-8.998257 13.094056 -10.956265 19.299292 -0.968712 2.174509 0.035395 -0.017893 12212.200000 1 0 0
-15.100857 6.148656 6.029135 17.383680 -0.386674 1.216610 0.028835 -0.013447 164820.000000 1 0 0
-16.423457 -3.286744 -4.393565 17.315775 0.197516 1.827333 0.026055 -0.007348 -668088.000000 1 0 0
-11.153957 -1.249544 -12.469665 16.776909 0.111562 2.408732 0.019448 -0.005930 6011.170000 1 0 0
-15.269157 6.934756 -8.480065 18.792273 -0.426314 2.038965 0.028449 0.000969 -364271.000000 1 0 0
-15.060957 9.052556 1.316035 17.621383 -0.541199 1.496043 0.044243 -0.014782 -577873.000000 1 0 0
-19.333257 5.430656 8.244935 21.708197 -0.273840 1.181208 0.055734 -0.020050 -573899.000000 1 0 0
-16.359657 0.772756 0.913035 16.403328 -0.047200 1.515106 0.033436 -0.012409 265647.000000 1 0 0
-17.660457 3.747556 7.142435 19.415208 -0.209099 1.194070 0.038671 -0.011889 276109.000000 1 0 0
-15.526857 3.952056 -1.476965 16.089856 -0.249238 1.662721 0.022084 -0.007909 110637.000000 1 0 0
-10.822557 13.333356 0.383535 17.177113 -0.888968 1.548466 0.023677 -0.013199 -1608390.000000 1 0 0
-13.484057 3.341456 0.057635 13.892028 -0.242914 1.566648 0.017701 -0.006210 -299068.000000 1 0 0
-15.217757 -0.020744 -4.314465 15.817559 0.001363 1.847061 0.021837 -0.001618 230505.000000 1 0 0
-19.145957 7.083256 3.463835 20.705998 -0.354346 1.402720 0.058524 -0.009670 682289.000000 1 0 0
-14.190457 1.288256 -6.306965 15.582249 -0.090535 1.987505 0.018408 -0.003585 -1751260.000000 1 0 0
-14.361257 11.997556 5.211635 19.425452 -0.695963 1.299180 0.039599 -0.020775 378069.000000 1 0 0
17.780643 5.352056 6.230035 19.585941 0.292378 1.247085 0.053560 -0.020738 451297.000000 1 0 0
18.594743 7.536256 -0.458865 20.069135 0.385058 1.593663 0.039571 -0.002153 428188.000000 1 0 0
16.476943 4.920656 8.471535 19.169491 0.290208 1.113050 0.063580 -0.016769 231961.000000 1 0 0
11.827943 12.238356 10.881335 20.201016 0.802450 1.001959 0.036036 -0.018982 748950.000000 1 0 0
-2.246357 16.207756 -0.503765 16.370438 -1.433076 1.601574 0.008176 -0.007157 -483375.000000 1 0 0
15.108243 12.404956 3.485635 19.856777 0.687458 1.394343 0.041703 -0.009832 73857.900000 1 0 0
13.956243 11.756556 6.735235 19.451394 0.700058 1.217215 0.048941 -0.007427 770148.000000 1 0 0
-0.579257 15.900756 8.588635 18.081323 -1.534383 1.075832 0.011945 -0.002500 -49167.700000 1 0 0
0.789543 12.968256 9.362635 16.014305 1.509989 0.946358 0.011403 0.000158 -21218.400000 1 0 0
0.873743 15.474956 -4.009265 16.009744 1.514394 1.823917 0.012053 -0.005096 845160.000000 1 0 0
5.450543 10.359556 13.560235 17.913927 1.086459 0.712139 0.029937 -0.016462 -37309.200000 1 0 0
-1.320957 16.419656 -2.771565 16.704239 -1.490519 1.737487 0.010580 -0.004726 -213117.000000 1 0 0
8.536243 9.994056 3.278535 13.546121 0.863908 1.326341 0.009378 -0.002809 804897.000000 1 0 0
12.607043 13.697856 -4.909865 19.252936 0.826842 1.828664 0.071727 -0.019864 -119689.000000 1 0 0
2.396243 11.673356 7.649235 14.160509 1.368334 1.000144 0.006860 0.005516 199149.000000 1 0 0
-0.344557 14.917956 -8.639065 17.242319 -1.547704 2.095595 0.013798 -0.005532 -1865550.000000 1 0 0
2.476343 15.998656 0.170535 16.190069 1.417231 1.560263 0.012480 -0.009381 -79353.100000 1 0 0
1.980743 13.453756 5.296735 14.593913 1.424620 1.199374 0.005836 0.001966 339677.000000 1 0 0
17.515343 9.139156 -2.230865 19.881855 0.480919 1.683239 0.028909 -0.001683 230802.000000 1 0 0
-7.129657 14.983356 7.176135 18.078437 -1.126664 1.162611 0.018382 -0.011779 -929891.000000 1 0 0
8.646943 15.803056 -0.049165 18.014123 1.070129 1.573526 0.021066 -0.010921 -694179.000000 1 0 0
15.680043 10.314656 2.079335 18.883313 0.581853 1.460458 0.031261 -0.000115 375941.000000 1 0 0
14.022343 7.346956 8.572835 18.002704 0.482621 1.074471 0.031029 -0.016566 -1481600.000000 1 0 0
4.048243 18.666156 -1.960465 19.200445 1.357228 1.673080 0.025101 -0.018835 -822308.000000 1 0 0
-0.379157 17.552656 -4.824065 18.207446 -1.549199 1.838949 0.022732 -0.006436 339798.000000 1 0 0
1.421843 13.825056 -0.835165 13.923050 1.468311 1.630817 0.009094 -0.004645 -91566.100000 1 0 0
10.377243 14.541956 4.329835 18.382141 0.950996 1.333016 0.026673 -0.013351 1111460.000000 1 0 0
-1.602457 15.286156 -5.131965 16.204058 -1.466347 1.893054 0.012355 -0.003020 648324.000000 1 0 0
15.144543 8.701956 -6.158265 18.520406 0.521529 1.909763 0.037198 -0.012250 -212542.000000 1 0 0
-2.291357 18.467356 0.853335 18.628519 -1.447351 1.524972 0.011708 -0.012146 -1043640.000000 1 0 0
-3.669657 19.427456 3.391735 20.059818 -1.384106 1.400899 0.020476 -0.015105 621536.000000 1 0 0
1.847143 17.668156 -2.798465 17.983522 1.466628 1.727044 0.013833 -0.013666 -229297.000000 1 0 0
2.945043 12.218456 3.326835 13.001222 1.334275 1.312032 0.004957 -0.000153 488221.000000 1 0 0
-2.531657 16.200856 1.924435 16.510011 -1.415783 1.453969 0.007304 -0.007000 -806779.000000 1 0 0
11.848843 12.760756 -2.661665 17.615801 0.822436 1.722473 0.032519 -0.002444 280841.000000 1 0 0
7.244543 11.598556 4.687435 14.456208 1.012479 1.240577 0.007300 -0.000869 -403648.000000 1 0 0
7.227843 15.741356 2.074635 17.445232 1.140349 1.451591 0.019230 -0.008361 -1340930.000000 1 0 0
5.622143 12.216356 10.113035 16.826209 1.139481 0.926009 0.018116 0.001204 1316520.000000 1 0 0
-1.245957 14.232056 3.132535 14.625888 -1.483473 1.354947 0.005048 -0.001733 394577.000000 1 0 0
4.770343 16.090956 1.449535 16.845658 1.282589 1.484642 0.016099 -0.014318 -2550680.000000 1 0 0
7.332343 13.220856 11.933235 19.260228 1.064425 0.902590 0.028666 -0.009920 55200.400000 1 0 0
0.631843 17.090556 -9.452965 19.540852 1.533843 2.075735 0.023970 -0.012850 345458.000000 1 0 0
9.766143 9.584356 15.492335 20.670023 0.776004 0.723479 0.022603 -0.019889 -426421.000000 1 0 0
13.499943 7.503056 -0.165065 15.445762 0.507273 1.581483 0.003186 0.004203 15750.300000 1 0 0
12.401943 13.488456 -0.203865 18.324524 0.827339 1.581922 0.036836 -0.005749 319270.000000 1 0 0
9.456143 12.245356 3.389235 15.838380 0.913224 1.355140 0.014399 -0.002704 -11423.600000 1 0 0
-0.707457 13.147256 0.584135 13.179228 -1.517038 1.526459 0.005162 -0.006014 -842458.000000 1 0 0
16.027043 7.348256 -0.978165 17.658419 0.429893 1.626218 0.021293 0.002455 8837.530000 1 0 0
-4.191057 18.479656 -2.294965 19.087418 -1.347776 1.691322 0.022924 -0.007541 199475.000000 1 0 0
11.490143 9.298856 -3.368465 15.160431 0.680380 1.794854 0.013775 -0.002235 76547.800000 1 0 0
14.691743 9.655956 7.896435 19.272739 0.581446 1.148649 0.036749 -0.013176 -344944.000000 1 0 0
4.535543 13.810656 4.769835 15.298911 1.253484 1.253735 0.010871 -0.000207 -1029910.000000 1 0 0
2.300943 15.985556 5.613935 17.098205 1.427839 1.236256 0.013575 -0.004051 221450.000000 1 0 0
6.099643 18.541156 5.420635 20.257428 1.252970 1.299908 0.030880 -0.018967 -357626.000000 1 0 0
10.839743 16.963356 -0.785865 20.146291 1.002186 1.609814 0.052540 -0.015887 -779066.000000 1 0 0
10.054443 13.618756 -4.389965 17.488114 0.934839 1.824536 0.051178 -0.011481 -1062400.000000 1 0 0
16.634843 7.892356 2.302835 18.555601 0.442997 1.446371 0.014347 0.000946 131373.000000 1 0 0
4.068343 14.071856 -0.584265 14.659806 1.289358 1.610662 0.009120 -0.006122 -81609.300000 1 0 0
5.713843 13.120056 -2.359765 14.503529 1.160062 1.734226 0.009362 -0.006912 -250199.000000 1 0 0
-6.158857 16.891456 -2.879665 18.208385 -1.221162 1.729614 0.015386 -0.002625 -1876500.000000 1 0 0
18.165243 10.003356 2.635135 20.904237 0.503370 1.444403 0.034534 -0.006903 241933.000000 1 0 0
8.089543 12.937656 9.410535 17.927125 1.012002 1.018160 0.020302 -0.006439 1490110.000000 1 0 0
-2.504257 15.867756 6.694135 17.403115 -1.414267 1.175966 0.008207 -0.003345 1294070.000000 1 0 0
11.268743 15.967256 6.207335 20.505337 0.956228 1.263253 0.036512 -0.014703 188283.000000 1 0 0
13.602843 11.943356 1.463635 18.161038 0.720529 1.490117 0.034071 -0.003179 450138.000000 1 0 0
17.576943 7.874756 -5.666865 20.076704 0.421203 1.856946 0.040748 0.008456 783529.000000 1 0 0
9.544743 9.299356 8.000535 15.543124 0.772377 1.030102 0.007900 -0.001604 -465348.000000 1 0 0
-2.009757 14.091156 -1.972965 14.369843 -1.429126 1.708530 0.007101 -0.001748 402277.000000 1 0 0
11.051443 11.515056 0.832035 15.981964 0.805940 1.518712 0.015058 -0.001263 597096.000000 1 0 0
11.848243 9.754656 -0.715065 15.363772 0.688788 1.617355 0.012432 0.001537 -1744540.000000 1 0 0
-0.391057 16.190456 11.196935 19.688960 -1.546647 0.965883 0.029903 -0.003935 -298205.000000 1 0 0
1.977443 20.197256 -1.922465 20.384683 1.473201 1.665246 0.025385 -0.020380 -505506.000000 1 0 0
9.282443 14.255856 1.839935 17.110772 0.993626 1.463057 0.020285 -0.007359 -405184.000000 1 0 0
8.641043 11.666756 -5.238165 15.434351 0.933303 1.917058 0.027264 -0.010970 -1277590.000000 1 0 0
10.663843 10.091756 10.147335 17.847394 0.757842 0.966041 0.011598 -0.010386 55572.800000 1 0 0
-5.057657 15.837856 5.772735 17.599490 -1.261692 1.236605 0.003210 -0.006350 623203.000000 1 0 0
14.441643 9.142756 -1.897565 17.197435 0.564391 1.681361 0.029126 0.000285 -547241.000000 1 0 0
12.322543 9.728156 6.800935 17.109494 0.668281 1.162011 0.018058 -0.008711 -805019.000000 1 0 0
3.307843 13.019656 9.588135 16.504108 1.321995 0.950896 0.017395 -0.002320 -1677230.000000 1 0 0
8.518543 12.552556 -2.758565 15.418882 0.974557 1.750673 0.022284 -0.007209 -1023580.000000 1 0 0
9.627143 16.839956 2.192235 19.521063 1.051457 1.458258 0.026175 -0.014235 -220813.000000 1 0 0
9.603943 14.189256 -7.773465 18.814820 0.975779 1.996714 0.080704 -0.027532 -112071.000000 1 0 0
6.448943 11.458756 7.278935 15.029133 1.058182 1.065209 0.005967 0.000673 -480937.000000 1 0 0
5.607743 16.821156 -5.753165 18.641271 1.249009 1.884544 0.040730 -0.008896 -4877.990000 1 0 0
-4.205357 17.122456 -4.606165 18.223070 -1.329959 1.826334 0.013356 -0.004534 529057.000000 1 0 0
-0.131157 18.613656 -0.542365 18.622018 -1.563750 1.599925 0.012304 -0.014174 -534681.000000 1 0 0
6.564743 15.623856 -2.832165 17.182022 1.173020 1.736385 0.022439 -0.006065 173922.000000 1 0 0
-0.891357 20.646856 0.812835 20.682067 -1.527652 1.531485 0.019770 -0.015587 10563.200000 1 0 0
-1.281357 18.852056 4.379635 19.396471 -1.502932 1.343037 0.011750 -0.008916 -39645.400000 1 0 0
7.256543 13.712356 -4.449865 16.139623 1.084065 1.850125 0.026868 -0.006778 1344750.000000 1 0 0
-0.855057 12.024656 7.565135 14.232173 -1.499807 1.010365 0.002769 0.003308 647165.000000 1 0 0
7.718343 10.832756 10.882735 17.185905 0.951730 0.885069 0.013057 -0.008623 162438.000000 1 0 0
1.575643 16.117856 -7.306365 17.766567 1.473348 1.994613 0.018650 -0.006875 2790.120000 1 0 0
8.968343 7.235256 14.741235 18.710535 0.678846 0.663474 0.019132 -0.007141 -375193.000000 1 0 0
11.483943 11.450656 -4.973265 16.962660 0.783947 1.868357 0.049647 -0.014089 -666411.000000 1 0 0
-3.296257 17.056256 4.480135 17.940256 -1.379892 1.318400 0.004835 -0.006869 50318.800000 1 0 0
4.003143 15.259656 -6.809265 17.182792 1.314242 1.978262 0.026573 -0.015567 -30966.400000 1 0 0
-4.334457 14.167556 9.336035 17.511959 -1.273897 1.008508 0.011388 -0.009457 -724949.000000 1 0 0
6.420843 17.759156 0.554435 18.892386 1.223868 1.541445 0.020780 -0.017049 -371963.000000 1 0 0
9.915743 10.733056 -2.094065 14.761624 0.824959 1.713135 0.018759 -0.002645 -1463730.000000 1 0 0
7.220743 18.208356 -2.917565 19.803927 1.193257 1.718657 0.037967 -0.014301 83993.900000 1 0 0
3.558643 10.476956 10.221935 15.063814 1.243359 0.824975 0.009013 -0.001357 1332430.000000 1 0 0
-0.015657 18.695156 2.081835 18.810719 -1.569959 1.459896 0.015239 -0.014969 -45691.000000 1 0 0
-0.911857 17.133656 -7.432765 18.698654 -1.517626 1.979590 0.023003 -0.003152 -572345.000000 1 0 0
9.991943 8.942256 12.962635 18.650275 0.730016 0.802325 0.015446 -0.010926 -250701.000000 1 0 0
3.812743 11.404556 5.461535 13.207167 1.248160 1.144471 0.002674 0.002395 684120.000000 1 0 0
13.315443 13.944756 8.179435 20.944221 0.808479 1.169585 0.047106 -0.020139 -117901.000000 1 0 0
-0.515957 17.492356 6.739335 18.752796 -1.541309 1.203195 0.015324 -0.005089 -570260.000000 1 0 0
12.416443 13.497356 5.722935 19.211940 0.827086 1.268321 0.034949 -0.010225 -531557.000000 1 0 0
4.849243 14.553356 -4.488265 15.983111 1.249162 1.855437 0.018112 -0.008335 -1318790.000000 1 0 0
3.877543 17.725656 4.596335 18.717920 1.355436 1.322701 0.020862 -0.009601 -1545480.000000 1 0 0
7.156043 11.749356 2.000435 13.901728 1.023743 1.426397 0.013195 -0.000964 305261.000000 1 0 0
6.430343 8.771156 11.796935 16.045253 0.938184 0.744792 0.011535 -0.005595 370590.000000 1 0 0
-5.373257 14.901956 1.715635 15.933725 -1.224733 1.462914 0.008697 -0.002432 190433.000000 1 0 0
6.852843 13.746956 5.940035 16.468888 1.108350 1.201797 0.012591 -0.003525 -393553.000000 1 0 0
5.961043 15.970156 4.926535 17.744032 1.213551 1.289455 0.011897 -0.011094 661244.000000 1 0 0
1.332443 18.046656 4.304035 18.600589 1.497097 1.337288 0.020808 -0.011264 49678.600000 1 0 0
7.812143 17.866856 -6.946665 20.700490 1.158602 1.913017 0.059115 -0.015805 521203.000000 1 0 0
-2.360157 18.809356 -5.951465 19.869126 -1.445971 1.875000 0.021905 0.000223 987999.000000 1 0 0
13.614943 10.054056 -4.524165 17.519097 0.636073 1.831998 0.034908 -0.009514 260083.000000 1 0 0
-1.522757 18.102956 9.743935 20.615045 -1.486877 1.078488 0.027653 -0.007831 -157926.000000 1 0 0
3.500443 11.821756 -1.561365 12.427585 1.282920 1.696766 0.010824 -0.005369 134947.000000 1 0 0
4.322843 13.953056 -10.855865 18.199575 1.270361 2.209917 0.032066 -0.030884 -799159.000000 1 0 0
11.564243 13.405456 2.339035 17.858025 0.859003 1.439439 0.029699 -0.007766 -300597.000000 1 0 0
16.028843 6.490156 -7.193265 18.729362 0.384728 1.964990 0.020538 0.000793 266723.000000 1 0 0
2.617743 16.111856 2.906035 16.579792 1.409731 1.394611 0.011685 -0.008991 119338.000000 1 0 0
13.404043 10.459856 3.463335 17.351416 0.662644 1.369847 0.016894 -0.000802 -1003570.000000 1 0 0
-4.922957 19.454256 -5.742665 20.872992 -1.322946 1.849515 0.015550 -0.009952 814759.000000 1 0 0
5.487243 12.031756 0.084735 13.224226 1.142912 1.564389 0.009572 -0.002691 -867849.000000 1 0 0
5.126443 15.492056 9.634335 18.950056 1.251230 1.037463 0.030190 -0.001175 42231.000000 1 0 0
7.741343 9.394856 14.005535 18.556581 0.881593 0.715527 0.022682 -0.018803 -2403650.000000 1 0 0
-4.960757 13.586856 6.935535 16.040992 -1.220720 1.123684 0.002531 -0.004573 -1376930.000000 1 0 0
-4.481157 17.078056 0.540035 17.664439 -1.314188 1.540220 0.017605 -0.010204 -2386880.000000 1 0 0
-0.489957 16.606656 3.501035 16.978761 -1.541301 1.363106 0.009651 -0.008986 -1291070.000000 1 0 0
8.039243 16.549856 -4.773265 19.008188 1.118606 1.824630 0.046617 -0.018387 626403.000000 1 0 0
3.223843 16.496256 -4.604965 17.427717 1.377800 1.838204 0.016410 -0.008268 -277352.000000 1 0 0
9.584443 14.401056 7.921135 19.026201 0.983576 1.141394 0.021789 -0.011737 337077.000000 1 0 0
12.841143 11.067256 8.998335 19.192424 0.711339 1.082810 0.032530 -0.019271 -331933.000000 1 0 0
3.916943 12.351756 12.045335 17.691761 1.263711 0.821882 0.028893 -0.013175 510253.000000 1 0 0
-3.350957 19.095756 6.033835 20.304777 -1.397083 1.269076 0.026617 -0.014049 288545.000000 1 0 0
-2.650757 15.836656 10.153635 18.997960 -1.404953 1.006929 0.022963 -0.013077 -1263160.000000 1 0 0
2.064443 14.359256 7.677235 16.413107 1.428004 1.084053 0.015795 0.000002 231870.000000 1 0 0
4.439043 17.374856 7.983735 19.629843 1.320661 1.151942 0.027129 -0.007055 410069.000000 1 0 0
-1.851557 13.491456 9.347835 16.517556 -1.434409 0.969232 0.011286 -0.003423 -684333.000000 1 0 0
5.942543 17.689556 3.054235 18.909325 1.246706 1.408566 0.014568 -0.020050 441102.000000 1 0 0
7.437243 15.329656 -6.879065 18.374778 1.119096 1.954519 0.038666 -0.011976 -64396.200000 1 0 0
11.020843 7.681556 9.381335 16.385198 0.608711 0.961184 0.009261 -0.004607 -91457.400000 1 0 0
9.051843 16.299456 -2.537465 18.816133 1.063858 1.706064 0.038819 -0.010591 -387941.000000 1 0 0
14.780143 11.372556 -6.408365 19.719401 0.655832 1.901784 0.094892 -0.021816 586793.000000 1 0 0
11.212343 6.569156 16.042735 20.645575 0.529977 0.680824 0.053528 -0.018557 -511899.000000 1 0 0
8.595943 8.454856 10.254935 15.828408 0.777124 0.865996 0.005480 -0.003591 212393.000000 1 0 0
16.446043 9.359556 4.470035 19.443632 0.517394 1.338824 0.035528 0.000904 38461.900000 1 0 0
-3.240957 14.367056 4.720235 15.465986 -1.348927 1.260647 -0.002146 0.000038 -1398280.000000 1 0 0
4.558443 14.808356 12.492435 19.902958 1.272172 0.892243 0.029572 -0.010649 -386620.000000 1 0 0
16.151343 10.493656 -4.470565 19.772927 0.576170 1.798864 0.061372 -0.025387 77030.100000 1 0 0
14.901143 14.082456 6.145135 21.403792 0.757159 1.279593 0.052505 -0.008051 -835291.000000 1 0 0
6.359343 9.494256 9.288735 14.726260 0.980621 0.888264 0.005951 0.000850 -7483.380000 1 0 0
10.633943 12.241156 8.542335 18.327524 0.855543 1.085926 0.022208 -0.012395 -1129250.000000 1 0 0
8.054143 11.644356 -0.376565 14.163405 0.965678 1.597387 0.008275 0.000198 597318.000000 1 0 0
7.394743 13.513156 -8.780165 17.730733 1.070086 2.088855 0.054883 -0.023697 -686129.000000 1 0 0
2.835543 15.336556 -2.334565 15.770239 1.387973 1.719379 0.012348 -0.010130 555553.000000 1 0 0
12.178043 13.722356 -7.863365 19.960969 0.844953 1.975707 0.092614 -0.032676 -375624.000000 1 0 0
-7.992057 14.778956 9.665135 19.383120 -1.075065 1.048771 0.025341 -0.019751 204181.000000 1 0 0
11.583243 9.350656 2.065635 15.029076 0.679150 1.432917 0.020899 -0.001731 -2153180.000000 1 0 0
12.107143 8.602656 4.455635 15.506169 0.617767 1.279342 0.009688 -0.001691 214470.000000 1 0 0
14.162243 8.039056 6.062635 17.376740 0.516285 1.214406 0.020247 -0.006694 -1309170.000000 1 0 0
16.285243 7.317056 7.328035 19.298926 0.422277 1.181311 0.052448 -0.014842 1116720.000000 1 0 0
13.737643 8.081256 2.388035 16.116210 0.531740 1.422073 0.013625 0.002989 -3419440.000000 1 0 0
-4.164557 17.384856 -7.225565 19.281741 -1.335676 1.954908 0.017398 -0.009230 185261.000000 1 0 0
3.145943 19.436556 -4.231365 20.139045 1.410331 1.782481 0.027495 -0.019250 684686.000000 1 0 0
-0.010157 14.948256 6.201435 16.183580 -1.570117 1.177546 0.008782 -0.000584 756246.000000 1 0 0
6.912243 16.376256 8.045135 19.511152 1.171394 1.145780 0.032227 -0.003242 -724586.000000 1 0 0
12.874843 15.132456 -2.149865 19.984362 0.865832 1.678582 0.068685 -0.014682 -266811.000000 1 0 0
12.777943 15.523056 4.111335 20.521797 0.882093 1.369091 0.039523 -0.012850 89631.100000 1 0 0
3.196143 18.084056 1.246335 18.406568 1.395865 1.503033 0.022009 -0.019845 -264166.000000 1 0 0
10.365743 14.445156 -1.372065 17.832378 0.948360 1.647815 0.033381 -0.001357 28835.400000 1 0 0
-6.474357 15.813756 -0.513365 17.095488 -1.182202 1.600830 0.011912 -0.005591 -785966.000000 1 0 0
-3.928757 15.846356 -2.395865 16.500979 -1.327769 1.716507 0.014395 -0.004242 -482181.000000 1 0 0
-6.639057 16.989156 1.925735 18.341673 -1.198262 1.465610 0.014392 -0.011261 -495323.000000 1 0 0
0.194243 19.329856 -6.560265 20.413675 1.560748 1.897968 0.044126 -0.012770 678917.000000 1 0 0
4.917943 14.985056 7.072635 17.284682 1.253682 1.149235 0.019487 -0.001405 -237671.000000 1 0 0
8.740443 12.331956 6.836835 16.589599 0.954213 1.146021 0.015134 -0.006545 -1307680.000000 1 0 0
-7.592157 17.466056 -5.678165 19.873236 -1.160755 1.860553 0.038580 -0.013163 347615.000000 1 0 0
-8.012257 17.739756 -1.261165 19.506044 -1.146567 1.635497 0.058010 -0.016798 286252.000000 1 0 0
-13.925757 -9.071344 9.283635 19.036856 0.577364 1.061382 0.049744 -0.018508 746607.000000 1 0 0
-12.689257 -12.860244 7.665635 19.625623 0.792090 1.169520 0.049442 -0.011255 -159258.000000 1 0 0
-3.996457 -15.135644 12.435635 19.992609 1.312645 0.899487 0.028087 -0.012362 362169.000000 1 0 0
-2.131557 -14.182544 14.823635 20.625912 1.421618 0.768880 0.034828 -0.009696 -210565.000000 1 0 0
-7.206057 -13.931344 12.790835 20.238949 1.093440 0.886677 0.048492 -0.006961 52974.400000 1 0 0
-9.987457 -11.553144 8.988735 17.720660 0.857956 1.038810 0.036735 -0.010521 311806.000000 1 0 0
-10.836257 -10.631044 11.223535 18.878859 0.775839 0.934149 0.068076 -0.021253 87031.900000 1 0 0
-5.945157 -12.448944 10.957035 17.617540 1.125259 0.899580 0.031419 -0.000949 122771.000000 1 0 0
-12.679857 -10.266944 7.308835 17.877583 0.680631 1.149628 0.033135 -0.009470 30853.500000 1 0 0
-7.817657 -11.404044 12.322835 18.520806 0.969857 0.842833 0.041440 -0.015267 -878308.000000 1 0 0
-14.918257 -11.643644 7.215235 20.253110 0.662735 1.206541 0.051687 -0.009704 -514028.000000 1 0 0
-11.234357 -9.141044 9.142935 17.127835 0.683020 1.007702 0.032119 -0.012160 -1166500.000000 1 0 0
-5.618257 -12.032644 13.527135 18.956073 1.133963 0.776167 0.039898 -0.009773 -725959.000000 1 0 0
3.632743 -12.398044 14.714735 19.581413 -1.285765 0.720517 -0.014897 0.004283 -559501.000000 1 0 0
6.286943 -12.622344 14.627335 20.317681 -1.108686 0.767093 0.017226 0.005211 190947.000000 1 0 0
6.588743 -8.448544 16.200735 19.423008 -0.908453 0.584297 0.019998 -0.008084 -311519.000000 1 0 0
0.674143 -1.599044 14.432135 14.536091 -1.171817 0.119667 0.005077 -0.003033 -2581650.000000 1 0 0
-0.240957 -6.363244 15.612435 16.861111 1.532947 0.387270 -0.000472 -0.008568 -730914.000000 1 0 0
-1.436957 -4.681044 18.205035 18.852064 1.272954 0.262753 0.013677 -0.021994 -1621340.000000 1 0 0
-5.252757 12.676956 12.928235 18.853009 -1.177977 0.815178 0.007752 -0.009108 630431.000000 1 0 0
-3.932157 8.897656 11.610835 15.147331 -1.154672 0.697381 -0.000167 0.004529 -337151.000000 1 0 0
-0.551057 -3.888044 15.058235 15.561844 1.430003 0.255099 0.003756 -0.006330 -541023.000000 1 0 0
-4.355457 9.232556 14.188835 17.479506 -1.130003 0.623669 0.003838 -0.003562 507093.000000 1 0 0
-13.445857 -2.322744 16.977735 21.781407 0.171060 0.676993 0.058554 0.001513 -495554.000000 1 0 0
-0.219257 0.965356 17.186935 17.215421 -1.347459 0.057535 0.014006 -0.006146 154763.000000 1 0 0
-3.212657 -7.211944 15.363935 17.273789 1.151721 0.474686 0.011529 -0.009108 128286.000000 1 0 0
-7.401157 5.621556 12.511135 15.585491 -0.649586 0.638916 0.002623 0.001644 -1430630.000000 1 0 0
-9.838457 10.007156 13.361735 19.377161 -0.793899 0.809914 0.025973 -0.016316 -45878.500000 1 0 0
-5.605657 2.317656 11.134135 12.679270 -0.392047 0.498842 0.001535 -0.000001 -1214690.000000 1 0 0
-7.028657 -7.440244 16.848735 19.713932 0.813837 0.545898 0.034676 -0.014144 -105019.000000 1 0 0
-4.716557 2.459856 18.712535 19.453940 -0.480728 0.276967 0.019440 -0.004285 47177.900000 1 0 0
0.981543 -8.378444 16.563035 18.587519 -1.454177 0.471069 -0.001882 -0.005610 622652.000000 1 0 0
-15.303057 -3.419544 13.830735 20.908517 0.219843 0.847995 0.079295 -0.013902 -23771.400000 1 0 0
-14.338957 2.356056 12.928635 19.450098 -0.162856 0.843693 0.041206 -0.011239 765605.000000 1 0 0
-5.539457 1.029956 16.065335 17.024729 -0.183832 0.337314 0.015627 -0.006338 582613.000000 1 0 0
4.336343 5.819856 14.966635 16.633543 0.930442 0.451517 0.011677 -0.007265 -265488.000000 1 0 0
-1.107157 -12.018244 13.908935 18.415278 1.478933 0.714695 -0.003349 -0.002100 227076.000000 1 0 0
-5.875557 -3.975144 16.755235 18.195105 0.594818 0.400503 0.023737 -0.010225 124046.000000 1 0 0
-12.978357 -1.533344 9.871535 16.377915 0.117601 0.923873 0.025697 -0.001478 -743928.000000 1 0 0
-14.410857 10.466256 10.199935 20.524473 -0.628144 1.050699 0.030387 -0.005777 457182.000000 1 0 0
-3.526857 -3.316944 17.683635 18.334443 0.754736 0.267239 0.014678 -0.011918 -769363.000000 1 0 0
-7.760357 9.320656 11.931835 17.013714 -0.876492 0.793567 -0.000386 -0.000531 192753.000000 1 0 0
-3.753657 10.611756 16.383135 19.877284 -1.230806 0.601984 -0.006786 -0.005823 281642.000000 1 0 0
-12.482257 12.845356 8.046635 19.635637 -0.799733 1.148564 0.037216 -0.019324 742661.000000 1 0 0
-12.618257 3.215756 10.426035 16.681238 -0.249538 0.895645 0.022696 -0.004613 699201.000000 1 0 0
-10.234157 -3.261844 13.645935 17.366322 0.308543 0.666856 0.026252 -0.002296 -1639250.000000 1 0 0
-4.207657 -6.338444 17.614135 19.186923 0.984759 0.407718 0.023164 -0.013790 -715475.000000 1 0 0
0.849043 -3.679344 17.919935 18.313452 -1.344007 0.207679 0.015066 -0.015786 -606534.000000 1 0 0
-6.028457 1.881056 13.630935 15.022751 -0.302456 0.433853 0.008059 -0.000310 -498269.000000 1 0 0
-10.600057 8.658156 10.189835 17.063341 -0.684903 0.930819 0.021627 -0.011358 412058.000000 1 0 0
4.590143 2.681256 17.076935 17.885196 0.528671 0.301782 0.023748 -0.012329 -550303.000000 1 0 0
0.520343 -5.431344 13.302635 14.378121 -1.475284 0.389234 0.002742 -0.005482 -822046.000000 1 0 0
-4.411957 5.650756 20.549635 21.764281 -0.907890 0.335667 0.071628 -0.018110 -155986.000000 1 0 0
-10.824357 10.937556 9.038235 17.846191 -0.790600 1.039732 0.021826 -0.012110 358365.000000 1 0 0
0.672143 4.246856 13.017935 13.709639 1.413830 0.319011 0.005916 -0.002263 -2016350.000000 1 0 0
-3.121457 7.127956 13.279535 15.391468 -1.158035 0.530043 -0.000982 0.004251 -1506540.000000 1 0 0
0.745343 8.977956 13.982535 16.633416 1.487967 0.572352 0.010625 -0.009820 150311.000000 1 0 0
-4.201057 -6.451044 13.039935 15.142812 0.993563 0.533307 0.011821 -0.003059 -92551.400000 1 0 0
-4.962157 8.313756 16.584835 19.204122 -1.032688 0.528413 0.012066 0.002827 -42186.300000 1 0 0
1.486643 -10.746944 15.788735 19.157011 -1.433337 0.602052 -0.013686 0.001726 -19957.600000 1 0 0
-15.117257 -0.901644 14.395735 20.894536 0.059573 0.810728 0.063546 -0.002915 373867.000000 1 0 0
-13.683657 -5.211444 8.488535 16.925036 0.363891 1.045422 0.041182 -0.012687 -1005120.000000 1 0 0
-14.073557 -1.843444 12.186335 18.707487 0.130245 0.861349 0.045399 -0.003747 533689.000000 1 0 0
9.480943 1.633456 16.928035 19.470871 0.170613 0.516803 0.040371 -0.011409 58304.700000 1 0 0
5.011643 -6.510944 16.598035 18.520360 -0.914790 0.459657 0.018384 -0.023234 675195.000000 1 0 0
-6.187957 -2.669944 11.024435 12.921207 0.407342 0.548697 0.007507 -0.003962 178374.000000 1 0 0
0.667143 -6.268244 18.061635 19.130045 -1.464763 0.335790 0.010931 -0.016324 -351764.000000 1 0 0
-8.511257 11.858156 12.074935 18.943638 -0.948253 0.879659 0.013550 -0.011091 201676.000000 1 0 0
-6.655557 -5.672744 14.896435 17.273686 0.705846 0.530850 0.028840 -0.007732 -965867.000000 1 0 0
-4.259657 -8.945044 17.115535 19.776249 1.126367 0.524730 0.028051 -0.013026 365387.000000 1 0 0
2.373643 -6.002744 16.266735 17.500679 -1.194239 0.377764 0.005504 -0.013355 753450.000000 1 0 0
2.192043 5.332856 16.189835 17.185900 1.180805 0.342131 0.013749 -0.002305 -882925.000000 1 0 0
0.786943 -8.934944 14.041135 16.661512 -1.482948 0.568464 -0.010289 -0.001102 -792894.000000 1 0 0
-10.019857 -2.679944 11.171935 15.244401 0.261346 0.748288 0.004925 -0.001788 529288.000000 1 0 0
-1.298457 10.127756 12.233435 15.934691 -1.443284 0.695516 0.002991 -0.005480 -671938.000000 1 0 0
-12.407257 -3.688644 11.338335 17.207672 0.288975 0.851425 0.030745 -0.001435 -847731.000000 1 0 0
-1.958757 6.422856 20.175235 21.263347 -1.274789 0.321296 0.050515 -0.011099 -795468.000000 1 0 0
0.180643 -13.488044 15.736835 20.726986 -1.557404 0.708646 -0.007865 -0.006775 -873877.000000 1 0 0
4.061443 -8.618844 15.399135 18.108372 -1.130430 0.554075 -0.002130 -0.006372 -180889.000000 1 0 0
4.313843 -4.239844 16.221135 17.312156 -0.776747 0.356914 0.018203 -0.010968 -347130.000000 1 0 0
8.055443 1.857856 14.784535 16.938839 0.226670 0.509848 0.008531 -0.003051 456099.000000 1 0 0
-6.334057 -0.010044 11.833035 13.421665 0.001586 0.491477 0.005801 -0.001774 95106.800000 1 0 0
-3.282257 -10.860644 18.495635 21.698279 1.277308 0.550236 0.043602 -0.016312 -176332.000000 1 0 0
3.240043 -1.424644 13.530535 13.985809 -0.414255 0.255854 0.007545 -0.004184 683168.000000 1 0 0
-2.455457 8.484956 15.856635 18.150940 -1.289102 0.508248 0.016894 -0.009987 -1261530.000000 1 0 0
-3.296457 4.008156 14.768535 15.653804 -0.882523 0.337918 0.006105 -0.003453 -729845.000000 1 0 0
-4.805057 -9.083344 19.672335 22.194515 1.084221 0.481373 0.055143 -0.014047 189320.000000 1 0 0
-5.709757 -2.834744 19.056735 20.094682 0.460823 0.322812 0.027005 -0.017607 -579048.000000 1 0 0
-6.621057 -8.691944 11.170635 15.625984 0.919820 0.774350 0.017123 -0.005410 587616.000000 1 0 0
-11.708257 2.509556 12.639035 17.410525 -0.211146 0.758393 0.027306 -0.011784 -1098920.000000 1 0 0
-11.669757 -7.506844 11.710935 18.157146 0.571632 0.869804 0.040490 -0.011833 -1284680.000000 1 0 0
-11.099857 -7.164444 15.471335 20.344491 0.573173 0.706763 0.059116 -0.025391 -158863.000000 1 0 0
0.000043 5.857756 17.559035 18.510349 1.570789 0.321994 0.017667 -0.006564 -76128.200000 1 0 0
-2.317857 -0.161144 13.151235 13.354902 0.069411 0.174867 0.008026 -0.001362 389916.000000 1 0 0
-5.922757 -10.690044 18.088635 21.830135 1.064853 0.594179 0.059794 -0.014389 -195051.000000 1 0 0
0.380843 2.710656 19.177335 19.371703 1.431212 0.141777 0.026276 -0.008930 -662224.000000 1 0 0
-0.807257 10.918556 14.705335 18.333396 -1.496996 0.639982 0.021614 -0.012585 -709585.000000 1 0 0
-12.982757 -2.486044 14.401135 19.548020 0.189198 0.742611 0.048596 -0.001642 -1338410.000000 1 0 0
-13.768557 8.451156 11.557335 19.863716 -0.550506 0.949818 0.038495 -0.017175 52909.200000 1 0 0
-18.245157 -0.530044 6.813135 19.482955 0.029043 1.213548 0.078713 -0.021106 291453.000000 1 0 0
-2.046657 -7.810044 17.765335 19.513911 1.314505 0.426563 0.014473 -0.012856 -879578.000000 1 0 0
5.644843 2.692856 14.489735 15.781893 0.445117 0.407476 0.016922 -0.007120 -3438110.000000 1 0 0
-14.093757 -6.788044 11.164535 19.218699 0.448848 0.950937 0.042715 -0.016837 453922.000000 1 0 0
3.187643 7.795456 16.334435 18.377812 1.182632 0.476048 0.018876 -0.017519 -56216.900000 1 0 0
0.913843 2.040456 14.500735 14.672078 1.149722 0.152977 0.008415 -0.004912 -2160590.000000 1 0 0
-14.414057 0.666556 9.557835 17.307847 -0.046211 0.985765 0.038580 -0.007368 -1398290.000000 1 0 0
-9.521657 -5.039344 15.469135 18.850758 0.486773 0.608317 0.033810 -0.008035 -173813.000000 1 0 0
-2.511857 -0.114944 18.132135 18.305654 0.045729 0.137797 0.021964 -0.010409 253883.000000 1 0 0
6.898343 3.898356 17.524935 19.232984 0.514374 0.424629 0.034923 -0.010382 -12588.100000 1 0 0
-4.204857 -0.865344 14.715635 15.329043 0.202963 0.283851 0.014953 -0.003033 -1386740.000000 1 0 0
4.733543 -8.637144 18.060235 20.571309 -1.069455 0.499268 0.012348 -0.004686 -86930.400000 1 0 0
1.955443 6.961556 13.292035 15.131596 1.296961 0.498231 0.009825 -0.003884 -1321960.000000 1 0 0
-3.650757 -0.809344 20.288735 20.630459 0.218164 0.182263 0.030475 -0.012082 508774.000000 1 0 0
-10.689257 1.676056 16.156435 19.444788 -0.155532 0.590095 0.023070 -0.010735 13572.500000 1 0 0
-3.742857 7.093256 18.430235 20.099672 -1.085263 0.410448 0.027148 -0.005066 13511.500000 1 0 0
-12.727557 1.256756 14.636735 19.437185 -0.098424 0.718145 0.039990 -0.012116 -223106.000000 1 0 0
-16.179057 -4.737544 8.393835 18.832490 0.284856 1.108829 0.060177 -0.019279 -1938070.000000 1 0 0
-2.341557 0.797056 15.677535 15.871462 -0.328093 0.156483 0.016092 -0.004969 -39736.700000 1 0 0
-13.634757 -8.904244 12.753835 20.684595 0.578520 0.906397 0.047374 -0.022513 285225.000000 1 0 0
5.973743 -3.131844 14.455435 15.951603 -0.482873 0.436574 0.014399 -0.013774 541676.000000 1 0 0
-15.905457 0.698456 7.495835 17.597129 -0.043885 1.130763 0.045501 -0.010824 936878.000000 1 0 0
-14.235657 5.891456 12.109135 19.595774 -0.392390 0.904668 0.048205 -0.021359 502531.000000 1 0 0
0.386243 9.574956 16.593735 19.161968 1.530479 0.523705 0.019951 -0.014844 -293279.000000 1 0 0
-10.396357 -5.395444 10.856235 15.970376 0.478712 0.823343 0.024093 -0.007444 -165851.000000 1 0 0
-3.309357 -11.037844 15.093835 18.989726 1.279505 0.652049 0.021434 -0.007131 434903.000000 1 0 0
-3.540857 2.660156 12.547435 13.306097 -0.644316 0.339312 0.001673 0.001310 -1662250.000000 1 0 0
-12.476757 -7.693344 7.498135 16.464478 0.552546 1.097960 0.030791 -0.010240 -88584.700000 1 0 0
-8.249457 -1.754544 13.143435 15.616717 0.209563 0.570509 0.010286 -0.003340 -55399.700000 1 0 0
-9.771457 6.405056 9.496135 15.055985 -0.580222 0.888314 0.002909 -0.003326 -462669.000000 1 0 0
-17.897257 -3.414844 6.498735 19.344419 0.188537 1.228184 0.063267 -0.022266 445338.000000 1 0 0
-1.185857 0.003056 20.480235 20.514539 -0.002577 0.057838 0.024650 -0.007973 -1544080.000000 1 0 0
-2.658657 2.606256 20.238135 20.577734 -0.775446 0.181928 0.037780 -0.008834 -967346.000000 1 0 0
-3.819657 11.298256 11.132535 16.314831 -1.244784 0.819815 0.007307 -0.007308 -753717.000000 1 0 0
-4.203557 -4.683744 14.828535 16.108780 0.839376 0.401374 0.011659 -0.007249 452317.000000 1 0 0
-0.137057 -14.365044 13.228935 19.528902 1.561256 0.826570 -0.001372 -0.004044 -771665.000000 1 0 0
-12.071057 0.408556 8.371635 14.695632 -0.033833 0.964694 0.007139 -0.004054 -261977.000000 1 0 0
-7.782557 2.232056 15.364635 17.367276 -0.279305 0.484970 0.005743 0.000439 -970265.000000 1 0 0
3.587743 -2.082144 18.370635 18.833148 -0.525845 0.222079 0.025647 -0.012105 -169065.000000 1 0 0
-2.149557 4.946356 12.533035 13.644193 -1.160845 0.406370 -0.004954 0.002811 42824.600000 1 0 0
-10.273357 -6.076244 13.291535 17.864140 0.534114 0.731708 0.027354 -0.012430 -148760.000000 1 0 0
2.274943 -3.660344 14.242835 14.880586 -1.014710 0.293828 0.005051 -0.005660 -1067720.000000 1 0 0
6.805643 1.319156 17.061535 18.416105 0.191458 0.385936 0.026254 -0.008100 -1514170.000000 1 0 0
-1.995757 -5.599044 13.807135 15.032276 1.228390 0.406528 0.001719 -0.007094 -2462700.000000 1 0 0
-12.851757 3.888356 14.535135 19.787802 -0.293799 0.745793 0.019419 -0.006424 42421.300000 1 0 0
-13.242157 -6.409144 13.527835 19.985849 0.450762 0.827293 0.040735 -0.019722 -381182.000000 1 0 0
-9.504157 6.889956 11.943635 16.746669 -0.627270 0.776751 0.013047 -0.000583 -172234.000000 1 0 0
-1.079657 -2.484944 12.884935 13.166706 1.160924 0.207254 0.005071 -0.003712 349013.000000 1 0 0
0.188843 6.726556 15.188835 16.612734 1.542729 0.417048 0.012105 -0.007962 367433.000000 1 0 0
-16.401857 -1.058144 9.422435 18.945260 0.064424 1.050254 0.063329 -0.008477 252029.000000 1 0 0
-1.339857 2.818856 13.668435 14.020245 -1.127087 0.224494 0.002904 -0.000393 -789017.000000 1 0 0
-11.195457 -3.242944 16.187235 19.946968 0.281949 0.624059 0.038341 -0.006013 -1097040.000000 1 0 0
-5.198257 -1.360144 17.082735 17.907867 0.255917 0.304745 0.027956 -0.006062 327832.000000 1 0 0
-11.964157 6.620556 11.051335 17.581377 -0.505424 0.891068 0.030071 -0.008090 -253642.000000 1 0 0
-3.095057 4.589656 18.615335 19.420994 -0.977490 0.289047 0.044353 -0.009693 194626.000000 1 0 0
5.110743 -1.803744 16.267435 17.146505 -0.339284 0.321597 0.024221 -0.012230 -342810.000000 1 0 0
-8.135757 -4.072244 12.150335 15.179076 0.464077 0.642724 0.016141 -0.004365 -1941810.000000 1 0 0
-11.713157 -0.766344 16.132435 19.950960 0.065333 0.629020 0.042239 -0.003284 223558.000000 1 0 0
2.108143 2.178956 17.296935 17.560640 0.801914 0.173520 0.014088 -0.008273 -154532.000000 1 0 0
-8.951657 -7.519444 11.675835 16.522691 0.698663 0.786038 0.024662 -0.009397 1364810.000000 1 0 0
-7.192857 6.901156 14.829535 17.868359 -0.764704 0.591809 -0.001459 -0.002270 -315338.000000 1 0 0
-5.628557 3.525256 15.796035 17.135425 -0.559545 0.398008 0.004684 -0.001097 -241472.000000 1 0 0
-9.457957 4.291256 11.491735 15.489603 -0.425942 0.734897 0.011150 -0.004346 -525354.000000 1 0 0
-10.377357 0.199256 14.132835 17.534716 -0.019199 0.633447 0.015714 -0.000451 -439420.000000 1 0 0
8.227743 -0.425244 15.898135 17.906068 -0.051638 0.478117 0.023606 -0.011257 188730.000000 1 0 0
-8.619257 -7.411544 14.783735 18.648898 0.710203 0.655505 0.039943 -0.007274 -753780.000000 1 0 0
-0.168957 4.219756 15.533835 16.097668 -1.530778 0.265451 0.004360 -0.007623 260102.000000 1 0 0
-8.126757 3.149456 9.577635 12.949685 -0.369720 0.738315 -0.000179 -0.001555 -288255.000000 1 0 0
-2.070757 -9.707044 13.204135 16.518593 1.360622 0.644584 -0.001980 -0.001120 146772.000000 1 0 0
-6.021257 10.258256 10.348435 15.766339 -1.040015 0.854809 0.010842 -0.004524 -1393640.000000 1 0 0
-8.674757 -2.570344 15.596735 18.030980 0.288060 0.525653 0.026502 -0.007575 420388.000000 1 0 0
4.242143 5.820156 17.636135 19.050020 0.940955 0.387702 0.021323 -0.012337 -396595.000000 1 0 0
-6.815457 -0.895744 15.193735 16.676402 0.130679 0.424871 0.012774 -0.001025 -613333.000000 1 0 0
-0.991157 -9.959944 15.560335 18.501538 1.471609 0.571613 -0.011724 0.001286 -1771450.000000 1 0 0
-4.363557 5.827156 16.171035 17.734113 -0.928044 0.423003 0.015445 -0.002436 176126.000000 1 0 0
3.840443 0.182556 17.219035 17.643058 0.047499 0.219683 0.026959 -0.012316 -364249.000000 1 0 0
1.386643 0.395956 19.146335 19.200565 0.278148 0.075176 0.016661 -0.006566 -472529.000000 1 0 0
-6.304457 6.444756 17.821635 19.972274 -0.796402 0.468340 0.005400 -0.004057 187119.000000 1 0 0
-12.290257 0.642356 10.983035 16.495154 -0.052218 0.842185 0.027516 -0.003569 -350157.000000 1 0 0
-5.435157 5.147556 13.873735 15.764479 -0.758228 0.494801 0.000715 0.001090 -1692800.000000 1 0 0
-8.790957 -9.433644 10.035535 16.339722 0.820648 0.909450 0.029391 -0.009265 -376247.000000 1 0 0
6.865243 -3.698944 16.960735 18.667626 -0.494198 0.430963 0.027437 -0.014173 404334.000000 1 0 0
-16.855557 1.447956 9.840535 19.571472 -0.085693 1.043961 0.060975 -0.009458 -65373.700000 1 0 0
-4.100757 -9.437644 11.551035 15.469704 1.160898 0.727728 0.008337 -0.005392 -596422.000000 1 0 0
-11.206657 -3.885544 9.118735 14.961215 0.333748 0.915377 0.013678 -0.000648 -455148.000000 1 0 0
3.644243 -5.382544 18.509435 19.617632 -0.975641 0.337727 0.014172 -0.013414 -232446.000000 1 0 0
2.490543 -1.738744 16.058435 16.343175 -0.609476 0.186941 0.008607 -0.007356 -1109220.000000 1 0 0
-3.059457 -4.329744 20.097035 20.784556 0.955645 0.257924 0.023714 -0.021330 -877572.000000 1 0 0
-6.368757 -3.261644 14.392935 16.073455 0.473306 0.461361 0.017197 -0.002899 894036.000000 1 0 0
-9.644657 5.132556 13.856735 17.645726 -0.489048 0.667657 0.023162 -0.006516 510238.000000 1 0 0
-5.966157 -5.195744 11.735635 14.153301 0.716486 0.593157 0.010402 -0.001006 -324631.000000 1 0 0
5.958643 2.213856 19.284135 20.304789 0.355731 0.318413 0.041185 -0.023595 62859.400000 1 0 0
-2.808857 11.905956 13.512735 18.227328 -1.339112 0.735724 0.015838 -0.013020 -629246.000000 1 0 0
3.333343 1.449556 15.090335 15.521939 0.410197 0.236372 0.011672 -0.006328 -1412110.000000 1 0 0
-5.721057 7.487856 12.781435 15.879659 -0.918367 0.635300 -0.003257 -0.001679 -305297.000000 1 0 0
-1.784857 -1.633944 15.233235 15.424232 0.741285 0.157535 0.013463 -0.003056 87995.100000 1 0 0
-7.379957 10.713056 14.193435 19.253232 -0.967576 0.741883 0.024340 -0.010071 535522.000000 1 0 0
-10.151457 2.025656 10.515535 14.755739 -0.196956 0.777542 0.008285 -0.001712 336811.000000 1 0 0
-13.677257 5.220156 9.046335 17.209113 -0.364603 1.017292 0.027097 -0.012220 527407.000000 1 0 0
0.338243 -4.956044 20.245835 20.846357 -1.502653 0.240609 0.021933 -0.021174 -154270.000000 1 0 0
-14.545857 -3.018344 7.416935 16.604315 0.204602 1.107737 0.036895 -0.008969 465121.000000 1 0 0
-2.363157 2.447556 17.627335 17.952659 -0.802940 0.190663 0.022406 -0.008030 -640968.000000 1 0 0
-6.231457 -8.304144 14.552835 17.876657 0.927037 0.619672 0.021453 -0.008664 -210527.000000 1 0 0
-7.992157 2.066156 11.968235 14.538990 -0.252984 0.603804 0.001651 -0.002628 -1490580.000000 1 0 0
-14.715457 -3.444144 10.100735 18.177779 0.229911 0.981635 0.045292 -0.011850 734703.000000 1 0 0
-0.559957 7.031356 12.655935 14.488830 -1.491327 0.508459 0.003273 -0.003024 247407.000000 1 0 0
-1.676657 -2.252044 19.297235 19.500414 0.930822 0.144481 0.022100 -0.013911 -50321.100000 1 0 0
-12.788457 10.407056 7.342535 18.048941 -0.683090 1.151834 0.026082 -0.014962 -96372.200000 1 0 0
-19.723457 2.348956 6.850135 21.010871 -0.118536 1.238697 0.083608 -0.022435 855201.000000 1 0 0
-16.223857 8.403456 6.438135 19.372176 -0.477919 1.232014 0.038600 -0.012896 531631.000000 1 0 0
-12.443557 7.270456 13.546035 19.778693 -0.528777 0.816357 0.038971 -0.010050 548993.000000 1 0 0
-16.089557 8.480756 10.428135 20.965283 -0.485089 1.050197 0.039475 -0.005928 -75257.000000 1 0 0
1.743643 11.111856 14.999135 18.748005 1.415148 0.643436 0.025411 -0.021188 -538267.000000 1 0 0
2.031143 14.017756 12.608835 18.963274 1.426900 0.843425 0.030699 -0.022394 -2450570.000000 1 0 0
-3.178657 13.733656 11.674535 18.303331 -1.343351 0.879110 0.011185 -0.011680 214306.000000 1 0 0
9.335343 4.894656 15.709935 18.918465 0.482910 0.590967 0.030216 -0.004079 349225.000000 1 0 0
-0.443557 12.654856 12.717135 17.946243 -1.535760 0.783250 0.020197 -0.013143 -1129440.000000 1 0 0
3.804443 13.351256 14.397235 20.000255 1.293203 0.767206 0.041323 -0.020338 237533.000000 1 0 0
-2.836257 -3.992744 -13.785065 14.629230 0.953156 2.800220 0.006440 -0.008483 -373765.000000 1 0 0
5.179143 -11.409444 16.557435 20.764094 -1.144675 0.647810 -0.006086 0.002897 194981.000000 1 0 0
7.959643 -13.535244 7.370035 17.345782 -1.039197 1.131957 0.008342 -0.002805 -21273.500000 1 0 0
-0.065957 15.656456 1.286035 15.709324 -1.566584 1.488840 0.006870 -0.005646 -2159950.000000 1 0 0
-13.934257 8.246056 8.883235 18.468157 -0.534356 1.068998 0.032609 -0.011054 512959.000000 1 0 0
-15.476457 -9.723844 5.114535 18.979788 0.560968 1.297951 0.025656 -0.006180 -658338.000000 1 0 0
9.543443 -11.077844 11.196135 18.416008 -0.859670 0.917312 0.048378 -0.010080 145750.000000 1 0 0
-5.774357 -10.230044 -16.776065 20.480072 1.056926 2.530708 0.033260 -0.008187 -10956.100000 1 0 0
-2.006957 -12.575544 -14.801465 19.525766 1.412539 2.431111 0.018825 0.005158 -217235.000000 1 0 0
5.866843 -15.945444 -11.872365 20.727520 -1.218236 2.180693 0.048662 -0.003969 210299.000000 1 0 0
0.959543 -11.757644 -16.543165 20.318445 -1.489367 2.522137 0.020657 0.007271 -124195.000000 1 0 0
0.647643 -14.017644 -14.626065 20.269079 -1.524627 2.376900 0.033960 0.013812 324979.000000 1 0 0
-6.586757 -6.472944 -14.364665 17.077119 0.776684 2.570229 0.019559 -0.005511 -67540.300000 1 0 0
-6.047957 -7.947344 -17.676665 20.302772 0.920290 2.627324 0.011482 -0.000381 -114689.000000 1 0 0
-2.573257 -16.146844 -13.287465 21.068910 1.412759 2.253209 0.032568 -0.003877 296842.000000 1 0 0
16.282543 -7.950144 -9.218865 20.330112 -0.454213 2.041438 0.096626 -0.014779 6453.460000 1 0 0
19.101743 -2.714844 -3.825365 19.669275 -0.141180 1.766528 0.101196 -0.025245 129123.000000 1 0 0
15.673443 -11.785644 -8.657465 21.436182 -0.644748 1.986541 0.075142 -0.009513 -2309.590000 1 0 0
18.801043 -3.794944 -7.133165 20.463696 -0.199171 1.926848 0.222096 -0.015631 -249467.000000 1 0 0
8.856143 -10.054044 -15.884665 20.780704 -0.848661 2.440899 0.072319 0.002263 141336.000000 1 0 0
-4.791257 9.283456 -16.194865 19.272062 -1.094346 2.568686 0.003222 -0.015140 494405.000000 1 0 0
2.395043 -9.589244 -18.636165 21.094940 -1.326040 2.653956 0.029172 0.002131 94883.900000 1 0 0
10.905243 8.619456 -14.093665 19.795220 0.668857 2.363100 0.101503 -0.064515 230116.000000 1 0 0
17.764243 -6.541044 -7.256965 20.273557 -0.352808 1.936870 0.059577 -0.027106 -33665.700000 1 0 0
12.515443 5.048756 -14.371565 19.714668 0.383436 2.387625 0.070918 -0.003856 2078.700000 1 0 0
15.824343 6.373356 -10.529965 20.047684 0.382880 2.123800 0.033285 -0.020366 202627.000000 1 0 0
3.432643 -0.452344 -19.169865 19.480025 -0.131022 2.962906 0.036872 -0.016069 182802.000000 1 0 0
10.337843 -1.778744 -15.075965 18.366264 -0.170393 2.533696 0.043646 -0.001387 191157.000000 1 0 0
12.310343 -5.742644 -14.070865 19.557907 -0.436482 2.373801 0.080086 -0.001430 -22794.900000 1 0 0
9.746543 5.991856 -12.757665 17.136378 0.551207 2.410550 0.041418 -0.017767 457604.000000 1 0 0
10.758543 5.350456 -16.255465 20.214197 0.461503 2.505059 0.072318 -0.026549 489644.000000 1 0 0
11.448543 -11.029844 -15.282265 22.051626 -0.766774 2.336469 0.101971 -0.001168 196381.000000 1 0 0
-1.174857 2.273056 -17.355865 17.543464 -1.093750 2.995220 0.017513 -0.012212 325353.000000 1 0 0
6.455143 -1.186344 -16.920765 18.149065 -0.181755 2.771577 0.022088 -0.003570 -28320.900000 1 0 0
6.564743 -5.900444 -15.721765 18.030113 -0.732156 2.630014 0.009773 -0.007164 188421.000000 1 0 0
-2.537157 -4.492144 -19.831465 20.491548 1.056662 2.887086 0.039487 -0.041455 181402.000000 1 0 0
16.111843 -0.180444 -13.471465 21.002486 -0.011199 2.267147 0.088073 -0.018047 47978.400000 1 0 0
-4.129657 -0.353344 -18.666565 19.121181 0.085355 2.923096 0.016810 -0.006666 247878.000000 1 0 0
3.457143 8.867056 -17.360465 19.798037 1.199039 2.640125 0.035082 -0.030873 -122912.000000 1 0 0
9.809843 -0.268044 -17.209665 19.811043 -0.027317 2.623349 0.065386 -0.016231 -167730.000000 1 0 0
4.159543 4.402656 -18.315765 19.291253 0.813784 2.822224 0.028514 -0.005417 476758.000000 1 0 0
-2.812957 -10.984444 -17.909965 21.197584 1.320098 2.577186 0.029053 -0.020347 211473.000000 1 0 0
5.839343 -9.635244 -16.154465 19.695243 -1.025948 2.532595 0.016303 0.000380 192565.000000 1 0 0
9.589743 -13.270944 -11.734565 20.144010 -0.945055 2.192639 0.023209 0.043010 90137.900000 1 0 0
6.262843 6.695156 -17.015565 19.328160 0.818748 2.647398 0.047970 -0.020122 379942.000000 1 0 0
8.529743 1.716956 -19.865765 21.687625 0.198636 2.728778 0.064494 -0.024719 122530.000000 1 0 0
-0.849757 -0.691244 -20.313065 20.342579 0.682895 3.087719 0.037877 -0.015771 141311.000000 1 0 0
-1.160357 6.769756 -19.509365 20.683118 -1.401043 2.803083 0.012961 -0.007521 -147552.000000 1 0 0
8.977943 5.614656 -18.271265 21.117929 0.558875 2.616348 0.086036 -0.020026 82317.500000 1 0 0
11.820543 -0.037044 -12.999065 17.569926 -0.003134 2.403640 0.008945 -0.007938 15895.600000 1 0 0
-4.330157 -2.481444 -19.808765 20.427800 0.520376 2.894782 0.012011 -0.013668 413272.000000 1 0 0
5.351843 -11.540144 -14.514465 19.299918 -1.136560 2.421960 0.006597 0.002951 -136442.000000 1 0 0
11.133443 1.958556 -16.058865 19.638652 0.174135 2.528230 0.053182 -0.007702 -471945.000000 1 0 0
-2.758857 -4.337144 -17.094665 17.850761 1.004255 2.849500 0.003545 -0.010203 77660.900000 1 0 0
-6.748357 -4.570544 -16.983765 18.838218 0.595316 2.694156 0.026245 -0.025099 38240.800000 1 0 0
2.731843 10.828756 -15.477465 19.086038 1.323676 2.516538 0.003988 -0.012567 222449.000000 1 0 0
17.409143 -5.911344 -10.623565 21.233991 -0.327339 2.094752 0.139689 -0.020076 72044.800000 1 0 0
9.142743 -3.689544 -17.662065 20.227482 -0.383562 2.632468 0.026848 -0.018255 182078.000000 1 0 0
-7.319457 -1.523944 -18.759465 20.194415 0.205272 2.762344 0.022780 -0.001269 508452.000000 1 0 0
1.548043 -7.211144 -19.352265 20.710075 -1.359332 2.777472 0.030100 -0.024610 107380.000000 1 0 0
5.444543 9.968156 -14.732665 18.602650 1.070880 2.484818 0.036247 -0.026006 338073.000000 1 0 0
6.046143 -3.559944 -17.732365 19.070024 -0.532140 2.764816 0.039585 -0.028428 371657.000000 1 0 0
4.629343 13.380156 -14.499665 20.265727 1.237702 2.368103 0.049040 -0.036879 -4859.830000 1 0 0
9.442743 11.546356 -15.296265 21.364912 0.885289 2.368784 0.127649 -0.043919 151259.000000 1 0 0
17.420843 1.126056 -11.666465 20.996670 0.064549 2.159922 0.112632 -0.010313 -89875.500000 1 0 0
14.981043 -2.994344 -12.467765 19.719100 -0.197276 2.255274 0.108927 -0.013048 75671.200000 1 0 0
-8.818757 0.332256 -17.345865 19.461755 -0.037658 2.670956 0.035498 -0.009755 447984.000000 1 0 0
-3.648257 4.062056 -18.776265 19.553982 -0.839015 2.858611 0.026922 -0.014916 69951.400000 1 0 0
3.934743 1.806056 -16.734965 17.285922 0.430315 2.888437 0.017802 -0.010099 507681.000000 1 0 0
-4.902257 13.972356 -14.056565 20.416804 -1.233361 2.330188 0.018106 -0.016253 294880.000000 1 0 0
0.872643 9.519856 -17.496665 19.937965 1.479386 2.641536 0.010977 -0.009634 278583.000000 1 0 0
0.961343 -5.298544 -20.223265 20.927953 -1.391314 2.881351 0.031104 -0.003960 434420.000000 1 0 0
3.960943 -6.123144 -17.960165 19.384259 -0.996617 2.755888 0.032702 -0.027291 227456.000000 1 0 0
-7.220157 7.039756 -15.647565 18.615454 -0.772748 2.569128 0.009652 -0.013960 56773.900000 1 0 0
-11.937657 3.597856 -16.446365 20.638196 -0.292729 2.492925 0.071294 -0.028518 116307.000000 1 0 0
-4.171657 6.777056 -17.620565 19.334310 -1.019017 2.717379 0.002527 0.015216 414008.000000 1 0 0
-8.040857 5.188456 -17.641265 20.069621 -0.573037 2.644564 0.015941 -0.009714 340302.000000 1 0 0
-8.235057 4.190056 -14.705365 17.367225 -0.470668 2.580606 -0.007127 -0.026923 395387.000000 1 0 0
9.436743 13.657456 -12.759165 20.937395 0.966164 2.226095 0.139265 -0.060468 295665.000000 1 0 0
15.441943 9.181756 -11.624865 21.398498 0.536438 2.145107 0.195291 -0.041685 -27695.100000 1 0 0
9.223843 16.010456 -9.542965 20.796205 1.048125 2.047531 0.111034 -0.023108 15632.900000 1 0 0
7.024543 12.608356 -14.384465 20.377136 1.062493 2.354506 0.144953 -0.070174 -169035.000000 1 0 0
4.075243 15.184856 -13.193465 20.524497 1.308599 2.268964 0.059489 -0.037969 152286.000000 1 0 0
10.811043 11.905556 -11.600065 19.828828 0.833542 2.195689 0.115800 -0.033556 229256.000000 1 0 0
16.440043 10.599256 -9.346265 21.678835 0.572656 2.016534 0.116462 -0.039568 360851.000000 1 0 0
12.861343 10.648756 -9.744465 19.332996 0.691562 2.099058 0.106472 -0.048772 165545.000000 1 0 0
11.198143 11.362556 -7.765165 17.742713 0.792686 2.023784 0.079511 -0.024592 193563.000000 1 0 0
5.773043 16.958856 -10.141665 20.586019 1.242686 2.085927 0.074608 -0.021457 66658.500000 1 0 0
11.762243 13.533556 -10.340465 20.698616 0.855308 2.093902 0.160118 -0.061441 -168829.000000 1 0 0
8.720843 -19.277244 -1.914965 21.244583 -1.145956 1.661058 0.042769 -0.004254 282453.000000 1 0 0
7.891243 -16.953944 -4.341465 19.197819 -1.135167 1.798913 0.045062 -0.009376 19444.100000 1 0 0
3.992943 -18.383344 4.897535 19.439053 -1.356914 1.316109 0.049588 -0.034015 35336.700000 1 0 0
10.452343 -17.553244 -2.907265 20.635407 -1.033718 1.712154 0.042070 -0.005421 732841.000000 1 0 0
-3.342357 -14.787144 7.942935 17.114941 1.348501 1.088185 0.038823 -0.028721 52442.700000 1 0 0
-15.395457 -12.757244 -4.234065 20.437580 0.691960 1.779478 0.060008 -0.003870 95401.600000 1 0 0
-9.878057 -12.814844 -6.857965 17.573501 0.914097 1.971694 0.046889 -0.007049 147107.000000 1 0 0
-11.516557 -15.371744 6.938435 20.422132 0.927805 1.224144 0.047338 -0.010194 281906.000000 1 0 0
-14.609057 -8.579544 -8.310365 18.870487 0.531011 2.026829 0.039982 -0.009649 -51376.400000 1 0 0
5.419843 -15.830444 5.691535 17.674027 -1.240936 1.242925 0.035665 -0.011278 -15515.300000 1 0 0
2.749043 -13.994744 9.383935 17.072444 -1.376832 0.988846 0.009669 -0.000031 338440.000000 1 0 0
3.016343 -17.265044 11.023035 20.704767 -1.397834 1.009373 0.034888 -0.004593 244610.000000 1 0 0
-8.534957 -17.872744 -5.127865 20.459117 1.125277 1.824137 0.056916 -0.013985 -44145.600000 1 0 0
2.115743 -19.840144 -3.945265 20.338948 -1.464558 1.766010 0.053917 -0.015935 74797.800000 1 0 0
-17.367357 -10.966744 -2.370365 20.676392 0.563229 1.685690 -0.031131 -0.005976 -42708.300000 1 0 0
-4.249257 -14.599144 2.644935 15.433304 1.287559 1.398568 0.013114 -0.006102 71978.000000 1 0 0
-11.142257 -10.007644 -14.580165 20.901771 0.731803 2.342778 0.057028 -0.014258 133765.000000 1 0 0
0.985443 -20.303144 2.394635 20.467609 -1.522298 1.453531 0.059966 -0.026390 1140.330000 1 0 0
6.964643 -17.819144 0.531835 19.139253 -1.198201 1.543005 0.038545 -0.024890 98879.900000 1 0 0
-6.488657 -17.755344 -2.982965 19.137737 1.220426 1.727303 -0.011467 -0.062146 -359873.000000 1 0 0
-9.102957 -15.693744 -7.568465 19.658054 1.045185 1.966010 0.062844 -0.012708 -96803.500000 1 0 0
-11.574757 -11.542344 -12.156965 20.371365 0.783996 2.210263 0.017012 0.002452 233915.000000 1 0 0
-13.205457 -15.034544 -3.004865 20.234891 0.850077 1.719847 0.058280 -0.014592 196409.000000 1 0 0
-0.152957 -20.032444 -2.191965 20.152591 1.563161 1.679780 0.068637 -0.038923 527508.000000 1 0 0
-11.705857 -16.823444 -1.019965 20.520616 0.962891 1.620521 0.058384 -0.012039 8289.000000 1 0 0
0.647843 -19.891244 5.293035 20.593628 -1.538239 1.310856 0.066654 -0.030293 207982.000000 1 0 0
-18.152657 -8.791644 2.747135 20.355803 0.451023 1.435427 0.049590 -0.010297 148372.000000 1 0 0
-15.028757 -15.089744 -0.468565 21.302194 0.787423 1.592794 0.071831 -0.007848 34587.000000 1 0 0
10.295143 -15.464644 -5.014265 19.242870 -0.983449 1.834417 0.028652 -0.003806 15621.300000 1 0 0
-1.342157 -18.984544 -6.873065 20.234953 1.500216 1.917355 0.024871 -0.015946 321419.000000 1 0 0
-9.982657 -18.277144 -2.819265 21.015606 1.070889 1.705353 0.058012 0.025555 482101.000000 1 0 0
-14.665357 -6.555944 -11.387965 19.691086 0.420386 2.187478 0.046116 -0.019495 -187489.000000 1 0 0
-12.566157 -15.403144 1.816935 19.961623 0.886485 1.479649 0.065304 -0.015901 277678.000000 1 0 0
-2.441357 -16.271544 9.964435 19.235731 1.421869 1.026265 0.028298 -0.015965 322013.000000 1 0 0
-12.213857 -15.002644 -6.509265 20.411471 0.887509 1.895367 0.041423 0.002413 288094.000000 1 0 0
5.408943 -17.009144 -6.984865 19.166533 -1.262907 1.943817 0.041447 -0.018418 177181.000000 1 0 0
-17.232357 -7.122844 -2.939465 18.876692 0.391954 1.727152 -0.007897 -0.009100 -189353.000000 1 0 0
-12.506857 -13.305044 -8.054165 19.957837 0.816312 1.986200 0.077034 -0.042629 179239.000000 1 0 0
-7.699857 -14.469744 10.385135 19.403925 1.081772 1.006042 0.044351 0.002303 431036.000000 1 0 0
-15.803957 -8.423744 -5.754265 18.810531 0.489709 1.881687 0.043941 0.000432 256154.000000 1 0 0
-0.929857 -19.555544 0.732535 19.591338 1.523283 1.533397 0.042910 -0.027297 93306.800000 1 0 0
-15.124057 -11.750144 -1.770965 19.233806 0.660507 1.663003 0.032997 0.012998 74176.700000 1 0 0
-7.161057 -19.108444 2.190935 20.523488 1.212237 1.463840 0.037163 -0.018873 8313.790000 1 0 0
-0.982857 -21.247044 -4.152365 21.671295 1.524571 1.763595 0.040940 -0.018706 288744.000000 1 0 0
-9.136157 -19.686444 -0.574165 21.710714 1.136292 1.597246 0.049696 -0.018818 228382.000000 1 0 0
-17.957657 -7.101744 5.379135 20.046130 0.376597 1.299129 0.059707 -0.010909 40505.400000 1 0 0
-2.763957 -15.736044 -10.828765 19.300899 1.396925 2.166450 0.016932 0.005864 39670.500000 1 0 0
-2.969957 -18.239144 -8.384565 20.292559 1.409379 1.996744 0.021455 -0.001695 189549.000000 1 0 0
4.390043 -16.965544 -4.576465 18.112045 -1.317588 1.826241 0.023952 -0.029241 640942.000000 1 0 0
0.656743 -17.445744 -9.717965 19.980594 -1.533169 2.078727 0.031643 0.006940 6405.390000 1 0 0
-7.641057 -9.766544 -14.634465 19.181728 0.906898 2.438642 0.022190 -0.011127 533123.000000 1 0 0
-5.143557 -19.400444 -1.990765 20.169198 1.311633 1.669661 0.047689 -0.033353 338808.000000 1 0 0
-10.151057 -14.792944 8.977335 20.061598 0.969386 1.106841 0.047232 -0.041954 292703.000000 1 0 0
-7.256457 -15.276044 -10.222465 19.761389 1.127330 2.114483 0.027971 -0.003616 198767.000000 1 0 0
-12.739057 -8.055944 -12.478065 19.567420 0.563890 2.262300 0.045309 -0.014924 361919.000000 1 0 0
-15.868257 -12.893344 3.191835 20.693664 0.682331 1.415936 0.058178 -0.009074 85642.800000 1 0 0
-6.194257 -14.201544 -13.157865 20.326881 1.159505 2.274851 0.007730 0.002771 399716.000000 1 0 0
-14.168957 -11.960544 -6.726765 19.724688 0.701081 1.918812 0.054147 -0.001263 94980.300000 1 0 0
-11.411157 -10.180644 -9.387865 17.944136 0.728470 2.121365 0.022868 -0.002089 -24038.300000 1 0 0
-9.980457 -14.953744 3.548335 18.325247 0.982271 1.375935 0.023640 -0.000630 571557.000000 1 0 0
4.644843 -18.119044 8.319735 20.471744 -1.319849 1.152285 0.038355 -0.018321 295780.000000 1 0 0
-4.992457 -16.803544 5.525235 18.379661 1.281995 1.265457 0.019221 0.003893 523932.000000 1 0 0
-18.455557 -7.351144 -6.845065 21.011945 0.379054 1.902623 0.062578 -0.023490 98475.600000 1 0 0
-17.424957 -5.043644 -10.670765 21.045967 0.281749 2.102522 0.071153 -0.007044 -161421.000000 1 0 0
-16.126257 -3.763044 -12.325365 20.642948 0.229247 2.210645 0.064874 -0.025928 203449.000000 1 0 0
-19.281057 -5.907544 -5.132965 20.808786 0.297310 1.820042 0.067620 -0.011543 339336.000000 1 0 0
5.575543 -13.544244 8.949935 17.164922 -1.180284 1.022296 0.023966 0.003624 354063.000000 1 0 0
19.869943 -2.877544 2.681035 20.255440 -0.143819 1.438046 0.083085 -0.006851 -11304.900000 1 0 0
18.217843 -2.721544 -0.292765 18.422332 -0.148292 1.586689 0.068011 -0.007508 302188.000000 1 0 0
14.162643 -11.195044 0.428235 18.058041 -0.668899 1.547080 0.035246 -0.005493 69427.000000 1 0 0
11.263343 -13.713744 5.357335 18.537279 -0.883191 1.277611 0.032799 -0.006370 454207.000000 1 0 0
10.364143 -12.605044 8.185535 18.256658 -0.882652 1.105868 0.055852 -0.033757 -3476.060000 1 0 0
17.973443 4.895256 -4.823065 19.242405 0.265911 1.824146 0.028141 0.004799 -51347.700000 1 0 0
19.214643 -5.939544 -4.592665 20.629427 -0.299799 1.795304 0.122612 -0.025147 33124.800000 1 0 0
17.757643 -10.078644 -0.435765 20.423096 -0.516230 1.592135 0.067357 -0.009430 400923.000000 1 0 0
17.776943 -8.511444 8.951835 21.647164 -0.446537 1.144464 0.126737 -0.022470 32348.700000 1 0 0
19.366643 -0.035544 -2.696865 19.553547 -0.001835 1.709159 0.069209 -0.002995 -29733.000000 1 0 0
7.458143 -13.083444 11.912935 19.202042 -1.052694 0.901545 0.030116 -0.000589 367224.000000 1 0 0
16.483643 -6.374544 -3.570865 18.030429 -0.369005 1.770161 0.087383 -0.014978 239233.000000 1 0 0
14.373043 -6.737644 12.235035 20.041863 -0.438353 0.914138 0.085873 -0.035394 333796.000000 1 0 0
17.007843 1.799456 9.556835 19.591780 0.105409 1.061231 0.157091 -0.036324 238647.000000 1 0 0
16.674643 -10.110444 2.678735 19.683506 -0.545066 1.434282 0.035059 -0.012057 310179.000000 1 0 0
16.202743 -7.214444 -5.944465 18.705981 -0.418906 1.894188 0.084534 -0.014746 170757.000000 1 0 0
17.542043 -4.126944 5.804535 18.932711 -0.231059 1.259190 0.059800 -0.021540 24885.700000 1 0 0
13.332743 -13.432144 8.055535 20.568815 -0.789112 1.168385 0.076858 -0.023864 364814.000000 1 0 0
15.411143 -13.978344 -1.586465 20.866583 -0.736685 1.646899 0.055684 -0.008471 271967.000000 1 0 0
18.683743 -6.110144 7.701735 21.112386 -0.316067 1.197382 0.144445 -0.038043 239575.000000 1 0 0
19.603043 3.516656 2.465135 20.067961 0.177505 1.447646 0.073518 -0.007699 49802.700000 1 0 0
15.840043 -10.173844 8.238035 20.549435 -0.570934 1.158310 0.085895 -0.040409 161193.000000 1 0 0
14.069643 -4.451244 10.743935 18.253782 -0.306409 0.941487 0.062787 -0.019672 -116897.000000 1 0 0
18.866243 -7.656044 1.769035 20.437211 -0.385502 1.484128 0.093785 -0.014120 144041.000000 1 0 0
18.911743 -4.959944 -1.683365 19.623679 -0.256491 1.656684 0.079753 -0.016850 355411.000000 1 0 0
14.698343 -13.184944 -6.337865 20.737709 -0.731175 1.881386 0.075118 -0.016855 553151.000000 1 0 0
13.901643 -9.480644 10.382635 19.772137 -0.598529 1.017947 0.054763 -0.022619 479480.000000 1 0 0
14.372143 2.440156 0.649835 14.592297 0.168180 1.526249 -0.001707 0.002674 -148206.000000 1 0 0
12.772443 2.554356 13.698535 18.902642 0.197386 0.760214 0.050249 -0.011238 105882.000000 1 0 0
17.653943 -2.204444 10.307235 20.561137 -0.124227 1.045699 0.095255 -0.010418 84971.200000 1 0 0
7.159943 -18.566444 5.239135 20.577321 -1.202731 1.313355 0.045129 -0.027007 399786.000000 1 0 0
12.880643 -2.957244 15.029335 20.013424 -0.225677 0.721278 0.068743 -0.006104 423351.000000 1 0 0
11.574543 -13.468944 -7.276665 19.191987 -0.860899 1.959675 0.043022 -0.013120 185474.000000 1 0 0
10.698643 -16.911344 4.820235 20.583711 -1.006728 1.334424 0.045687 -0.026411 343817.000000 1 0 0
18.211043 -0.353944 -5.759265 19.103311 -0.019433 1.877041 0.086664 -0.010072 221044.000000 1 0 0
4.332943 -13.521544 11.643435 18.362356 -1.260688 0.883962 0.002185 0.000949 155539.000000 1 0 0
9.503643 -2.593344 14.763235 17.748176 -0.266393 0.588423 0.037377 -0.002783 380805.000000 1 0 0
8.906143 -9.098144 13.835735 18.802212 -0.796062 0.743865 0.057128 -0.025537 401403.000000 1 0 0
21.158543 5.692756 -3.111765 22.130849 0.262828 1.711871 0.139854 -0.009728 604256.000000 1 0 0
14.882143 -13.437844 2.175835 20.168988 -0.734443 1.462706 0.047458 -0.007310 300029.000000 1 0 0
11.385643 -0.251344 15.327135 19.094950 -0.022072 0.639021 0.046806 -0.010878 8637.470000 1 0 0
19.472843 0.412056 7.721835 20.952044 0.021157 1.193350 0.131364 -0.031232 159757.000000 1 0 0
19.984343 1.030956 0.371035 20.014357 0.051542 1.552257 0.100579 -0.014294 221502.000000 1 0 0
17.923143 0.443056 3.092035 18.193296 0.024715 1.400013 0.047120 -0.003060 63912.500000 1 0 0
10.139243 -8.291944 16.324935 20.929980 -0.685505 0.676165 0.077329 -0.017925 237495.000000 1 0 0
18.767843 3.186956 5.587735 19.839642 0.168205 1.285288 0.053762 -0.012870 76541.900000 1 0 0
15.945643 2.439456 7.395735 17.745742 0.151809 1.140917 0.069321 -0.014218 97043.400000 1 0 0
11.827243 -15.878944 1.785435 19.879947 -0.930607 1.480864 0.033225 -0.007035 322891.000000 1 0 0
8.148443 -16.574644 7.182935 19.816925 -1.113874 1.199885 0.027590 -0.000795 414133.000000 1 0 0
6.195043 6.786956 7.023535 11.565957 0.830962 0.918190 0.000090 0.002392 -922309.000000 1 0 0
18.464943 2.629756 -6.513065 19.755752 0.141468 1.906760 0.072318 -0.008572 255287.000000 1 0 0
14.320943 4.520456 -7.157965 16.636117 0.305755 2.015584 0.015391 -0.004218 277237.000000 1 0 0
-10.690957 -3.880244 -13.671565 17.783828 0.348161 2.447702 0.025630 -0.008519 -285260.000000 1 0 0
7.693543 -14.258544 -10.346165 19.223418 -1.075993 2.139104 0.017625 -0.001644 -101318.000000 1 0 0
2.107943 -15.626844 14.061335 21.127300 -1.436713 0.842562 0.002591 -0.001556 374771.000000 1 0 0
-9.348457 -7.533844 1.913535 12.157881 0.678323 1.412749 0.012742 0.004642 175043.000000 1 0 0
-13.859357 3.167156 -9.984465 17.372455 -0.224663 2.183070 0.031213 -0.005754 219978.000000 1 0 0
-13.281157 -5.322744 -13.183065 19.455435 0.381174 2.315295 0.055293 -0.002910 107547.000000 1 0 0
-18.156757 -1.226544 -8.674165 20.159697 0.067451 2.015591 0.080798 -0.027910 594514.000000 1 0 0
-12.277057 15.121556 4.521235 19.995728 -0.888847 1.342714 0.058708 -0.021417 429176.000000 1 0 0
-16.869857 6.429656 9.213635 20.268785 -0.364137 1.098904 0.002518 -0.016025 219208.000000 1 0 0
-13.018257 15.270956 0.164935 20.067494 -0.864861 1.562577 0.061946 -0.032434 136443.000000 1 0 0
-15.926857 5.586856 -10.438165 19.845227 -0.337371 2.124662 0.049574 -0.016317 30532.900000 1 0 0
-18.430757 2.760556 -0.204865 18.637474 -0.148675 1.581789 0.083841 -0.012284 -19431.300000 1 0 0
-9.811657 15.555456 -0.211865 18.392545 -1.008070 1.582316 0.031624 -0.014457 -62494.700000 1 0 0
-18.902857 11.909156 2.563435 22.488157 -0.562200 1.456558 0.166878 -0.039598 -2232.360000 1 0 0
-8.548557 16.270656 -7.753065 19.947985 -1.087038 1.969978 0.061325 -0.030163 213750.000000 1 0 0
-14.511957 -1.449444 -12.608265 19.278645 0.099549 2.283658 0.021664 -0.026022 18160.100000 1 0 0
-18.813357 4.941556 -5.000965 20.084099 -0.256860 1.822445 0.085959 -0.014239 -85333.100000 1 0 0
-16.968557 9.500356 -5.512065 20.213153 -0.510397 1.846991 0.069411 0.000498 -18045.900000 1 0 0
-19.058857 1.244256 2.472735 19.258833 -0.065192 1.442046 0.077909 -0.023870 240674.000000 1 0 0
-14.330257 12.613356 -7.491465 20.507927 -0.721762 1.944747 0.048552 0.008802 61891.900000 1 0 0
-12.801357 4.958156 -13.529665 19.274592 -0.369523 2.348918 0.051297 -0.025690 21032.500000 1 0 0
-14.026557 9.353156 -6.634165 18.117339 -0.588107 1.945694 0.025075 -0.010613 366634.000000 1 0 0
-6.523757 11.318956 -15.445365 20.229619 -1.047943 2.439516 0.019124 -0.035644 -10148.300000 1 0 0
-15.168557 13.768056 2.864135 20.684481 -0.737037 1.431882 0.072685 -0.029114 19832.200000 1 0 0
-18.820157 8.008056 -4.707665 20.987839 -0.402298 1.797026 0.100075 -0.018347 323369.000000 1 0 0
-4.930857 16.096356 -11.488465 20.381140 -1.273539 2.169632 0.021409 -0.001046 -166932.000000 1 0 0
-18.996557 -2.518044 -6.747765 20.316054 0.131784 1.909367 0.023714 -0.023854 -167993.000000 1 0 0
-10.664057 13.325956 -6.220065 18.165694 -0.895905 1.920274 0.025415 -0.030290 145694.000000 1 0 0
-19.477857 3.343056 4.124735 20.188521 -0.169978 1.365037 0.084778 -0.018407 35723.000000 1 0 0
-15.051057 12.372856 0.442935 19.488922 -0.688048 1.548067 0.037615 -0.016148 20364.900000 1 0 0
-17.401057 2.933656 -8.116665 19.423784 -0.167020 2.001899 0.048459 -0.016569 181223.000000 1 0 0
-16.081757 14.033456 -4.121065 21.738077 -0.717487 1.761529 0.040954 0.025946 60255.500000 1 0 0
-11.019857 15.708356 -8.396365 20.944896 -0.959045 1.983272 0.053398 -0.024209 170292.000000 1 0 0
-19.330157 1.349256 -6.882765 20.563266 -0.069688 1.912096 0.090624 -0.026018 250911.000000 1 0 0
-16.875257 10.439356 -0.205265 19.844309 -0.553998 1.581140 0.043876 -0.012989 82349.000000 1 0 0
-11.372457 6.818756 -14.881565 19.932115 -0.540114 2.413752 0.025960 -0.016903 330678.000000 1 0 0
-13.450757 12.681056 -5.057665 19.165386 -0.755952 1.837855 0.045312 -0.014696 391414.000000 1 0 0
-19.086357 7.138556 -0.334765 20.380385 -0.357906 1.587223 0.095491 -0.014931 36146.800000 1 0 0
-14.589657 8.842856 -10.205965 19.880038 -0.544896 2.109912 0.040577 -0.009875 481835.000000 1 0 0
-18.477557 11.326156 4.926935 22.225585 -0.549900 1.347261 0.087714 -0.041914 90197.200000 1 0 0
-8.299657 11.833056 -13.324365 19.658185 -0.959134 2.315566 0.008720 -0.024517 370666.000000 1 0 0
-21.134357 -1.506044 -5.683065 21.936874 0.071140 1.832850 0.086674 -0.029591 185546.000000 1 0 0
-10.853457 13.685156 -3.585665 17.830817 -0.900288 1.773271 0.024183 0.002857 484597.000000 1 0 0
-18.706857 -4.865644 3.597935 19.661285 0.254461 1.386763 0.054592 -0.019318 -44138.500000 1 0 0
-10.496957 11.210856 -13.564565 20.490652 -0.818273 2.294264 0.018690 -0.016354 176175.000000 1 0 0
-14.929557 11.265256 -10.016565 21.216250 -0.646414 2.062488 0.068153 -0.022116 266559.000000 1 0 0
-12.974757 9.688656 -13.569865 21.127130 -0.641406 2.268286 0.072308 -0.031646 211166.000000 1 0 0
-18.577557 -4.869044 -3.052965 19.446178 0.256327 1.728444 0.045342 -0.012329 -307241.000000 1 0 0
-9.626957 12.559256 -11.426565 19.518699 -0.916804 2.196190 0.037581 -0.019361 16211.500000 1 0 0
-15.621357 7.683356 -8.013065 19.164289 -0.457106 2.002176 0.035664 -0.001604 -160645.000000 1 0 0
-14.962157 8.475356 2.064135 17.319309 -0.515387 1.451331 0.045228 -0.011512 -132913.000000 1 0 0
-19.681557 6.307856 8.136335 22.211544 -0.310153 1.195755 0.066381 -0.016515 12544.400000 1 0 0
-19.251257 6.142356 3.541935 20.515476 -0.308852 1.397280 0.060998 -0.009760 192966.000000 1 0 0
-14.815057 12.725856 5.619235 20.322626 -0.709685 1.290645 0.064794 -0.026280 127746.000000 1 0 0
18.166943 6.047556 5.710835 19.980600 0.321350 1.280935 0.045827 -0.016946 76959.800000 1 0 0
18.400543 7.875056 0.407235 20.019049 0.404392 1.550453 0.042369 0.000098 -54055.700000 1 0 0
15.761743 5.189656 9.036135 18.894888 0.318077 1.072156 0.040816 -0.002001 -25590.000000 1 0 0
12.343343 13.016356 10.703335 20.888873 0.811931 1.032826 0.054059 -0.023505 123399.000000 1 0 0
15.311343 12.091056 4.358935 19.990777 0.668416 1.350983 0.040060 -0.011870 302457.000000 1 0 0
5.576343 10.623356 14.464135 18.792618 1.087417 0.692470 0.033227 -0.013036 186288.000000 1 0 0
12.326043 14.307756 -5.581865 19.692649 0.859667 1.858185 0.049266 0.010003 286046.000000 1 0 0
18.145343 9.315656 -2.919665 20.604838 0.474303 1.712973 0.062781 -0.006118 -3908.550000 1 0 0
13.839443 7.941056 9.291235 18.463954 0.520931 1.043488 0.022732 -0.016630 130601.000000 1 0 0
4.669243 19.383256 -2.010765 20.038853 1.334409 1.671309 0.023053 -0.016147 374289.000000 1 0 0
-4.364057 18.901156 3.013035 19.631023 -1.343884 1.416704 0.021661 -0.032252 267518.000000 1 0 0
8.066343 13.122856 12.528335 19.855337 1.019653 0.887980 0.071923 -0.005151 -139671.000000 1 0 0
-0.035857 17.002156 -10.122965 19.787598 -1.568687 2.107820 0.023942 -0.006599 79113.100000 1 0 0
10.633643 9.968256 15.442235 21.234479 0.753112 0.756527 0.034784 -0.014391 331873.000000 1 0 0
-1.302457 12.458956 0.857635 12.556174 -1.466635 1.502439 0.001331 -0.000064 413640.000000 1 0 0
-4.639457 19.303656 -2.444265 20.003253 -1.334929 1.693296 0.024840 -0.000793 -38756.700000 1 0 0
5.977043 18.404956 6.352735 20.367245 1.256789 1.253594 0.036143 -0.018648 44741.000000 1 0 0
11.540443 17.054856 -1.420865 20.641434 0.975903 1.639686 0.063164 -0.018239 486191.000000 1 0 0
18.700843 10.023056 3.419435 21.491294 0.492006 1.411009 0.049845 -0.005574 190505.000000 1 0 0
11.808643 16.744956 6.128835 21.386917 0.956585 1.280152 0.047327 -0.006259 -43828.900000 1 0 0
17.817843 8.653756 -6.154265 20.742179 0.452125 1.872035 0.027788 0.022057 252067.000000 1 0 0
-0.015357 15.318556 11.231735 18.995006 -1.569794 0.938127 0.023198 -0.000230 264400.000000 1 0 0
1.038743 20.234156 -2.063865 20.365647 1.519505 1.672311 0.018174 -0.017950 227115.000000 1 0 0
14.477043 9.874156 -1.292365 17.571395 0.598581 1.644412 0.037515 -0.005361 32941.900000 1 0 0
10.220543 17.294056 1.605535 20.152459 1.037031 1.491042 0.049435 -0.021253 254118.000000 1 0 0
-0.020457 17.685956 -0.714465 17.700393 -1.569640 1.611172 0.006941 -0.012722 20759.400000 1 0 0
-0.025757 20.949856 1.061035 20.976723 -1.569567 1.520193 0.023299 -0.017046 260208.000000 1 0 0
5.747043 17.699356 -0.112565 18.609363 1.256833 1.576845 0.017790 -0.017848 -85863.900000 1 0 0
6.281143 18.295156 -2.807565 19.546046 1.240082 1.714933 0.016801 -0.022108 -307690.000000 1 0 0
10.157143 9.866656 12.818635 19.100677 0.770892 0.835093 0.019345 -0.008330 179677.000000 1 0 0
12.714943 14.680656 8.200435 21.081712 0.857028 1.171269 0.048020 -0.021399 227813.000000 1 0 0
0.403243 17.558256 6.969835 18.895332 1.547834 1.193008 0.016134 -0.008958 174343.000000 1 0 0
7.362043 17.996156 -7.773165 20.939995 1.182479 1.951110 0.059106 -0.014887 99390.100000 1 0 0
-0.895557 18.483856 9.140635 20.639917 -1.522383 1.112008 0.039363 -0.016613 203006.000000 1 0 0
16.232143 7.009656 -7.962265 19.391117 0.407648 1.993924 0.052521 0.003854 -237421.000000 1 0 0
-5.439457 19.587656 -6.528765 21.351551 -1.299923 1.881548 0.027899 -0.012575 306184.000000 1 0 0
4.191143 15.375656 9.753535 18.684430 1.304679 1.021586 0.031403 -0.008653 67269.700000 1 0 0
9.144043 14.751256 7.155735 18.772789 1.015886 1.179728 0.021621 -0.013600 -22784.600000 1 0 0
-2.593257 19.426356 6.501835 20.649023 -1.438089 1.250473 0.027173 -0.012242 182426.000000 1 0 0
4.998843 18.135056 8.089835 20.477161 1.301830 1.164656 0.036281 -0.009589 237772.000000 1 0 0
14.994343 12.182256 -5.959965 20.217786 0.682291 1.870030 0.079172 -0.015781 91642.900000 1 0 0
11.883543 7.167456 15.736235 20.981423 0.542726 0.722722 0.065096 -0.014714 275110.000000 1 0 0
17.265943 9.242256 4.935335 20.196277 0.491478 1.323928 0.043894 -0.009129 83931.000000 1 0 0
5.467143 14.533456 12.460535 19.909192 1.210995 0.894552 0.031132 -0.030037 -64321.300000 1 0 0
15.780643 10.870156 -3.681065 19.512540 0.603189 1.760585 0.054475 -0.018612 176674.000000 1 0 0
15.662843 13.962456 6.700035 22.026468 0.728065 1.261718 0.060897 0.001858 277419.000000 1 0 0
12.925143 13.337156 -8.305865 20.345182 0.801085 1.991330 0.158385 -0.058428 469676.000000 1 0 0
-8.004957 15.728856 9.670535 20.124500 -1.100027 1.069531 0.030714 -0.017666 183515.000000 1 0 0
-4.087857 17.929956 -7.999765 20.054679 -1.346637 1.981111 0.006755 0.047755 82662.900000 1 0 0
2.478943 19.586756 -4.890965 20.339806 1.444903 1.813639 0.024920 -0.020702 -83518.800000 1 0 0
7.294943 16.713456 8.846635 20.268664 1.159250 1.119126 0.035267 -0.006273 526543.000000 1 0 0
13.672243 15.079456 -1.636265 20.420519 0.834303 1.651011 0.090902 -0.023950 151347.000000 1 0 0
12.975843 16.449056 4.187735 21.365417 0.902891 1.373514 0.058451 -0.025367 325810.000000 1 0 0
2.776943 18.415356 0.460835 18.629254 1.421129 1.546057 0.020720 -0.022642 44489.200000 1 0 0
-7.536957 17.156156 1.664435 18.812489 -1.156863 1.482205 0.031750 -0.009042 240691.000000 1 0 0
0.213543 19.883956 -5.788765 20.710555 1.560057 1.854078 0.046827 -0.006977 235275.000000 1 0 0
-8.327557 17.906756 -6.087565 20.665395 -1.135497 1.869810 0.080462 -0.022768 198165.000000 1 0 0
-7.431257 18.409756 -0.920465 19.874354 -1.187140 1.617127 0.054364 -0.017583 190686.000000 1 0 0
-14.622257 -9.641744 8.980235 19.682943 0.582947 1.097026 0.051953 -0.005440 458500.000000 1 0 0
-13.250357 -13.604644 7.848435 20.548874 0.798590 1.178902 0.046649 -0.008707 111239.000000 1 0 0
-4.297857 -16.032544 12.351035 20.689662 1.308883 0.931082 0.063375 -0.010467 243782.000000 1 0 0
-1.981457 -15.102344 15.007435 21.382939 1.440340 0.792817 0.032988 -0.013038 583275.000000 1 0 0
-7.626457 -13.930244 13.642835 20.936607 1.069894 0.861070 0.044007 -0.007337 193766.000000 1 0 0
-10.268957 -11.216944 11.710835 19.194139 0.829491 0.914577 0.065290 -0.010826 96486.700000 1 0 0
-7.644757 -10.624344 12.837235 18.333401 0.947069 0.795104 0.040046 -0.011348 449343.000000 1 0 0
-15.435157 -11.886944 6.456235 20.523803 0.656255 1.250790 0.052302 -0.025830 107068.000000 1 0 0
-4.841357 -12.579244 13.523235 19.093297 1.203402 0.783750 0.038191 -0.010509 401634.000000 1 0 0
3.553743 -12.900744 13.912535 19.303288 -1.301995 0.765936 -0.008012 0.015076 271983.000000 1 0 0
6.419843 -13.348944 15.224735 21.241498 -1.122525 0.771673 0.026020 0.011807 344326.000000 1 0 0
7.000043 -8.990044 16.864135 20.352409 -0.909214 0.594183 0.048632 -0.010021 593286.000000 1 0 0
-5.292457 13.545856 13.310235 19.714529 -1.198327 0.829630 0.004687 -0.008623 415486.000000 1 0 0
-13.603957 -1.578944 17.547135 22.258991 0.115548 0.662728 0.072397 -0.017690 224841.000000 1 0 0
-10.546657 10.270756 12.785935 19.498732 -0.772146 0.855645 0.036339 0.004820 430741.000000 1 0 0
-7.060657 -8.343944 17.140235 20.328845 0.868512 0.567684 0.051608 -0.012058 120206.000000 1 0 0
-5.359957 2.882556 18.155935 19.148792 -0.493424 0.323432 0.030338 -0.006582 616663.000000 1 0 0
-16.056557 -3.285044 14.393435 21.812279 0.201807 0.850140 0.096879 -0.020479 171715.000000 1 0 0
-14.588257 3.138156 12.450535 19.434019 -0.211886 0.875443 0.042444 -0.005630 351331.000000 1 0 0
-14.086057 10.891956 9.415135 20.141909 -0.658212 1.084404 -0.010599 0.003223 -284508.000000 1 0 0
-4.334257 11.253656 15.991635 20.029053 -1.203164 0.646127 0.008865 -0.003589 175707.000000 1 0 0
-13.338557 12.846256 7.635235 20.030981 -0.766599 1.179733 0.046158 -0.038692 193349.000000 1 0 0
-4.230557 -6.248544 18.559535 20.034926 0.975642 0.386168 0.026259 -0.013165 257355.000000 1 0 0
0.387743 -2.848844 17.927035 18.156124 -1.435522 0.159024 0.006745 -0.016798 -75291.700000 1 0 0
-4.436057 6.406056 21.125335 22.516570 -0.965136 0.353367 0.051284 -0.008893 247271.000000 1 0 0
2.002443 -10.610044 16.574635 19.781338 -1.384260 0.577386 -0.011176 -0.001991 333441.000000 1 0 0
-15.179657 -0.083044 13.917635 20.594403 0.005471 0.828751 0.051924 -0.004936 28886.100000 1 0 0
-13.767157 -5.635044 7.642335 16.724043 0.388507 1.096214 0.031389 -0.012193 17695.200000 1 0 0
10.019443 2.241556 16.435335 19.378701 0.220096 0.558382 0.036617 -0.009424 385760.000000 1 0 0
-7.655957 12.210456 11.858635 18.663765 -1.010760 0.882292 0.017788 -0.011720 149305.000000 1 0 0
-1.673157 7.267456 19.847235 21.202078 -1.344513 0.359427 0.059054 -0.028703 390617.000000 1 0 0
1.013143 -13.104144 15.487735 20.312926 -1.493635 0.703694 -0.016194 -0.015056 346319.000000 1 0 0
-2.920657 -11.148644 17.665635 21.092585 1.314580 0.578053 0.037087 -0.024887 509413.000000 1 0 0
-1.966557 8.800456 16.607635 18.897855 -1.350947 0.497432 0.020787 -0.014556 277019.000000 1 0 0
-5.256557 -9.673044 20.264735 23.062061 1.073016 0.497655 0.098439 -0.020044 216909.000000 1 0 0
-6.631157 -3.019444 19.196135 20.532435 0.427287 0.362770 0.028440 -0.012519 297268.000000 1 0 0
-10.887057 -7.993244 15.884135 20.850077 0.633310 0.704669 0.078683 -0.022304 179903.000000 1 0 0
-0.923257 6.081356 17.559235 18.605430 -1.420129 0.336944 0.034672 -0.020305 14629.100000 1 0 0
-6.201857 -11.134244 18.880635 22.779658 1.062589 0.593770 0.086417 -0.019869 392613.000000 1 0 0
0.121843 3.540356 18.794035 19.124976 1.536395 0.186302 0.022293 -0.006903 153079.000000 1 0 0
-18.640757 -0.213844 7.616935 20.138055 0.011471 1.182906 0.074187 -0.020046 174105.000000 1 0 0
-1.536857 -8.591944 17.588135 19.634814 1.393796 0.460652 0.016025 -0.010973 267277.000000 1 0 0
5.285443 3.552156 14.302735 15.656371 0.591730 0.418890 0.018856 -0.010555 114214.000000 1 0 0
-13.633557 -6.668744 10.342035 18.365830 0.454923 0.972648 0.030796 -0.013786 111958.000000 1 0 0
3.636243 8.204156 17.065335 19.280977 1.153595 0.484116 0.034717 -0.012184 168424.000000 1 0 0
6.388343 4.600756 17.138935 18.860567 0.624142 0.430594 0.039012 -0.041553 174900.000000 1 0 0
5.507143 -8.811744 18.583235 21.291127 -1.012213 0.509854 0.021432 0.006371 288745.000000 1 0 0
-4.378857 -0.492844 19.767035 20.252233 0.112079 0.219336 0.024950 -0.013585 801999.000000 1 0 0
-10.893957 1.789756 17.077135 20.334947 -0.162834 0.573896 0.032488 -0.012746 125278.000000 1 0 0
-16.709857 -3.950544 8.432035 19.129175 0.232157 1.114313 0.056131 -0.027714 -62608.500000 1 0 0
-13.299457 -9.154544 13.606735 21.114556 0.602857 0.870526 0.062426 -0.024753 -31330.800000 1 0 0
-14.978957 6.219656 12.601435 20.538974 -0.393563 0.910263 0.059415 -0.028463 352762.000000 1 0 0
1.270543 9.485956 16.929235 19.447278 1.437649 0.514539 0.024792 -0.023727 287853.000000 1 0 0
-3.983257 -10.409544 14.862135 18.577083 1.205332 0.643459 0.027711 -0.013177 661708.000000 1 0 0
-18.765757 -3.068344 6.331135 20.041249 0.162073 1.249386 0.134332 -0.027379 -276663.000000 1 0 0
-0.539557 -0.608044 20.813835 20.829704 0.845006 0.039037 0.028187 -0.017732 406660.000000 1 0 0
-1.715757 2.544356 20.336235 20.566478 -0.977501 0.149773 0.037133 -0.013745 12558.000000 1 0 0
-8.124157 1.971756 16.212035 18.240609 -0.238099 0.476102 0.007176 0.006376 505560.000000 1 0 0
3.179243 -2.935944 18.452435 18.953092 -0.745633 0.230359 0.028111 -0.012686 28289.500000 1 0 0
-11.971857 4.009856 14.872135 19.508580 -0.323196 0.703878 -0.003136 0.002998 204407.000000 1 0 0
-13.204357 -5.491344 13.285235 19.519410 0.394115 0.822192 0.029215 -0.012057 45993.300000 1 0 0
-17.351657 -1.060044 9.436935 19.780279 0.061016 1.073458 0.072359 -0.022823 246687.000000 1 0 0
-7.826757 7.542156 14.530035 18.145638 -0.766882 0.642258 0.008033 -0.012062 149469.000000 1 0 0
-9.557757 0.667856 14.027735 16.987469 -0.069762 0.599231 0.012626 -0.001070 424440.000000 1 0 0
8.119243 -0.716444 15.000335 17.071773 -0.088012 0.497742 0.032203 -0.011538 174427.000000 1 0 0
4.246043 6.508556 18.290835 19.873219 0.992751 0.401755 0.027809 -0.007331 -83530.200000 1 0 0
1.854143 0.758756 19.889535 19.990176 0.388431 0.100387 0.028005 -0.008115 252124.000000 1 0 0
-6.969457 7.120056 17.756735 20.360996 -0.796086 0.511328 0.003196 -0.003845 545216.000000 1 0 0
7.655543 -3.238044 16.704335 18.658164 -0.400148 0.461730 0.028032 -0.006699 419349.000000 1 0 0
-17.068357 2.211256 9.316435 19.570755 -0.128835 1.074652 0.067865 -0.011281 349565.000000 1 0 0
3.337043 -6.147644 18.981435 20.229292 -1.073485 0.353074 0.010236 -0.027202 127265.000000 1 0 0
-3.931657 -3.989244 20.257935 21.017991 0.792668 0.269749 0.026758 -0.026171 240153.000000 1 0 0
-9.749057 5.919056 14.379235 18.353249 -0.545654 0.670565 0.020093 -0.004612 -71322.600000 1 0 0
6.614243 2.567856 19.873535 21.102120 0.370320 0.342913 0.057875 -0.016332 73939.400000 1 0 0
-7.462957 11.457056 14.778235 20.133457 -0.993448 0.746583 0.024981 -0.011167 188723.000000 1 0 0
-14.491357 4.981956 9.474235 18.016116 -0.331130 1.017052 0.030134 -0.011438 260493.000000 1 0 0
0.706443 -5.749044 20.617335 21.415533 -1.448529 0.273882 0.025057 -0.014651 221229.000000 1 0 0
-6.246057 -8.208144 13.607835 17.075129 0.920319 0.648586 0.019620 -0.003082 324619.000000 1 0 0
-12.681057 10.103556 6.448735 17.449276 -0.672752 1.192250 0.008093 -0.021731 197595.000000 1 0 0
-19.779357 2.606556 7.762835 21.407445 -0.131027 1.199715 0.061342 -0.024021 -187556.000000 1 0 0
-15.607057 8.933856 5.947435 18.941119 -0.519896 1.251397 0.025121 -0.022334 66552.200000 1 0 0
-13.029557 6.929156 14.211335 20.487670 -0.488765 0.804248 0.047513 -0.019085 88894.200000 1 0 0
-16.517057 9.224756 10.835635 21.801841 -0.509345 1.050652 0.042339 -0.009549 395166.000000 1 0 0
2.539943 10.735556 15.355135 18.907238 1.338477 0.623003 0.029260 -0.028872 368374.000000 1 0 0
1.614743 14.569356 13.260635 19.766587 1.460415 0.835427 0.040409 -0.026696 687025.000000 1 0 0
8.932443 5.171156 16.524535 19.483060 0.524774 0.558315 0.033181 -0.011492 119234.000000 1 0 0
0.051543 13.121356 13.380135 18.740348 1.566868 0.775638 0.020690 -0.001539 -158274.000000 1 0 0
4.676743 13.109656 14.685735 20.233779 1.228129 0.758596 0.061602 -0.010644 50997.400000 1 0 0
-3.624557 -4.478944 -13.573565 14.745848 0.890444 2.740157 0.005781 -0.008922 83561.300000 1 0 0
4.599643 -11.902344 17.126535 21.357451 -1.202027 0.640328 -0.031250 0.021786 123957.000000 1 0 0
8.532243 -14.196344 6.999035 17.981152 -1.029629 1.170987 0.016568 0.000657 158650.000000 1 0 0
-0.374257 15.430956 0.416135 15.441102 -1.546547 1.543843 0.006815 -0.005625 -885907.000000 1 0 0
-14.459957 7.746356 8.269735 18.370762 -0.491807 1.103855 0.039833 -0.010364 -138848.000000 1 0 0
-16.270357 -9.742344 4.593135 19.512424 0.539521 1.333171 0.039825 -0.008982 313928.000000 1 0 0
9.177543 -10.298544 11.597835 18.022127 -0.842893 0.871691 0.035848 -0.002695 109872.000000 1 0 0
-26.379737 5.965756 31.151455 41.254017 -0.222408 0.714969 0.066814 -0.035111 -657546.000000 0 0 1
-25.255067 5.311356 30.653565 40.070812 -0.207288 0.699778 0.051676 -0.028028 197948.000000 0 0 1
-24.128757 5.557056 31.525725 40.086770 -0.226361 0.665777 0.040459 -0.024922 629444.000000 0 0 1
-22.794857 4.977456 31.034495 38.826801 -0.214984 0.644657 0.041991 -0.026102 -358646.000000 0 0 1
-22.575957 3.607056 31.317955 38.774979 -0.158435 0.630582 0.010973 -0.027309 -55448.100000 0 0 1
-21.356557 3.058756 30.862245 37.655500 -0.142256 0.610093 0.028011 -0.027203 63095.900000 0 0 1
-20.990057 1.807956 31.662426 38.031045 -0.085922 0.587116 0.023253 -0.031041 -323733.000000 0 0 1
-21.844057 0.750356 31.399365 38.257626 -0.034337 0.608100 0.027301 -0.026994 -82242.200000 0 0 1
-21.699057 -0.142844 32.487276 39.067794 0.006583 0.588883 0.024834 -0.022976 -242335.000000 0 0 1
-22.257957 -1.592644 32.341981 39.293217 0.071432 0.603960 0.040076 -0.034115 -288482.000000 0 0 1
-21.536857 -2.492744 31.496825 38.237416 0.115230 0.602860 0.045827 -0.040746 273789.000000 0 0 1
-21.802857 -3.863244 31.807209 38.755487 0.175370 0.608135 0.052000 -0.041010 420325.000000 0 0 1
-23.203257 -4.505644 31.406715 39.307426 0.191795 0.645162 0.041993 -0.026619 1825790.000000 0 0 1
-24.350157 -4.133444 32.213857 40.592463 0.168147 0.654106 0.026487 -0.022901 974408.000000 0 0 1
-24.398757 -4.611944 33.540553 41.731739 0.186820 0.637278 0.026360 -0.021177 -638059.000000 0 0 1
-25.596247 -4.020244 -33.371005 42.248719 0.155791 2.481394 0.028903 -0.019903 -163362.000000 0 0 1
-25.773767 -4.565544 -32.058505 41.386943 0.175321 2.456886 0.033097 -0.018416 329051.000000 0 0 1
-26.912887 -4.093444 -31.337235 41.510024 0.150943 2.426346 0.041538 -0.016522 117052.000000 0 0 1
-27.041337 -4.633444 -29.903225 40.582085 0.169699 2.399207 0.026964 -0.009700 -599843.000000 0 0 1
-27.313417 -6.056144 -29.927875 40.968004 0.218198 2.389877 0.019662 -0.006951 478777.000000 0 0 1
-27.200487 -6.610744 -28.599825 40.018976 0.238415 2.366929 0.005879 -0.002657 -149549.000000 0 0 1
-27.478067 -8.125044 -28.413935 40.353590 0.287500 2.351985 0.003675 -0.005255 -49613.000000 0 0 1
-28.844597 -8.469344 -28.445185 41.386823 0.285593 2.328562 0.023874 -0.006324 -219483.000000 0 0 1
-28.974397 -9.852044 -28.236185 41.639652 0.327762 2.315982 0.028396 -0.007191 720050.000000 0 0 1
-30.234087 -10.162844 -27.349095 42.016145 0.324273 2.279590 0.100371 -0.014176 627722.000000 0 0 1
-30.311967 -11.489344 -26.855485 42.095575 0.362305 2.262648 0.127349 -0.019566 -189561.000000 0 0 1
-31.532257 -11.505144 -26.161925 42.556996 0.349859 2.232866 0.127211 -0.019552 -143569.000000 0 0 1
-31.386607 -12.321244 -24.897965 41.914685 0.374079 2.206837 0.134355 -0.025888 168541.000000 0 0 1
-30.724367 -11.475744 -23.916365 40.591526 0.357460 2.200860 0.149057 -0.027312 502926.000000 0 0 1
-30.835227 -12.074844 -22.615565 40.100834 0.373238 2.169979 0.176523 -0.033651 5310.380000 0 0 1
-30.112297 -11.301344 -21.438665 38.653424 0.359039 2.158724 0.188212 -0.035259 213278.000000 0 0 1
-30.045957 -12.002744 -20.244265 38.166159 0.380058 2.129898 0.203584 -0.036693 228176.000000 0 0 1
-29.051767 -13.024344 -20.152365 37.679657 0.421452 2.135108 0.201487 -0.037749 19299.100000 0 0 1
-28.710837 -13.265744 -18.646565 36.714936 0.432827 2.103511 0.172840 -0.039187 264938.000000 0 0 1
-27.887127 -12.246544 -18.056565 35.407757 0.413792 2.105935 0.141577 -0.036414 369706.000000 0 0 1
-27.707257 -12.641044 -16.702065 34.733947 0.428028 2.072428 0.159279 -0.041191 -104920.000000 0 0 1
-27.316737 -11.485544 -15.784865 33.575048 0.398017 2.060242 0.135871 -0.039906 125783.000000 0 0 1
-26.106757 -10.811644 -16.097765 32.520647 0.392629 2.088633 0.105241 -0.040055 369297.000000 0 0 1
-25.983217 -9.605144 -15.394065 31.691696 0.354087 2.078011 0.099019 -0.048473 314262.000000 0 0 1
-24.556057 -8.980644 -15.572365 30.432720 0.350610 2.107956 0.101756 -0.043631 865899.000000 0 0 1
-23.578957 -9.532844 -14.698965 29.375192 0.384203 2.094842 0.112693 -0.046657 -537368.000000 0 0 1
-22.326857 -9.009544 -14.959965 28.345388 0.383545 2.126774 0.109806 -0.058506 -337616.000000 0 0 1
-21.279057 -9.325944 -13.820965 27.033139 0.413055 2.107447 0.085896 -0.041980 -138348.000000 0 0 1
-20.648957 -10.541844 -14.001565 27.084197 0.472033 2.114097 0.091806 -0.035143 -323354.000000 0 0 1
-19.448957 -10.479044 -13.273265 25.773084 0.494202 2.111810 0.109186 -0.030567 -529759.000000 0 0 1
-18.415857 -11.465444 -13.828865 25.726207 0.556861 2.138313 0.101060 -0.027009 -298859.000000 0 0 1
-17.755757 -11.208144 -15.093665 25.859392 0.563074 2.194052 0.109770 -0.037548 740852.000000 0 0 1
-18.544057 -11.170644 -16.295565 27.096324 0.542171 2.216041 0.102451 -0.043425 -275731.000000 0 0 1
-17.654857 -10.649644 -17.396965 26.977088 0.542779 2.271662 0.107018 -0.041551 -362384.000000 0 0 1
-18.329357 -10.680044 -18.626465 28.230726 0.527583 2.291341 0.070452 -0.026143 195779.000000 0 0 1
-17.732357 -10.006944 -19.670065 28.310544 0.513780 2.338933 0.073246 -0.024967 108803.000000 0 0 1
-18.624257 -10.338744 -20.936665 29.867985 0.506768 2.347558 0.079991 -0.022930 1372610.000000 0 0 1
-19.974157 -9.851644 -20.844565 30.504389 0.458209 2.323110 0.077794 -0.037031 1116050.000000 0 0 1
-20.852457 -10.684144 -21.625065 31.884469 0.473493 2.316150 0.066579 -0.022511 678624.000000 0 0 1
-22.176157 -10.013744 -22.073465 32.852624 0.424146 2.307559 0.045168 -0.024550 54247.000000 0 0 1
-21.947757 -8.942344 -22.977465 33.009597 0.386902 2.340726 0.057477 -0.030732 724088.000000 0 0 1
-23.103057 -8.652644 -23.771165 34.259127 0.358353 2.337637 0.043672 -0.030980 121622.000000 0 0 1
-22.729757 -7.750644 -24.929765 34.615134 0.328627 2.374885 0.046538 -0.035334 221915.000000 0 0 1
-21.797057 -8.415044 -25.791265 34.801064 0.368435 2.405512 0.057832 -0.033501 279736.000000 0 0 1
-21.454457 -7.605444 -26.852865 35.202456 0.340671 2.438448 0.049976 -0.042512 -764648.000000 0 0 1
-20.152557 -7.972844 -27.552475 35.054681 0.376729 2.475085 0.088463 -0.043363 -451374.000000 0 0 1
-20.172457 -9.199744 -28.213865 35.882942 0.427878 2.475554 0.079581 -0.029582 -386674.000000 0 0 1
-18.890257 -9.438144 -28.683415 35.618235 0.463352 2.506980 0.061503 -0.020312 -614301.000000 0 0 1
-18.952757 -10.606644 -29.722795 36.812395 0.510211 2.510550 0.050401 -0.020997 -163019.000000 0 0 1
-19.480557 -10.318944 -30.991855 38.032457 0.487128 2.523317 0.048044 -0.015573 234712.000000 0 0 1
-19.546357 -11.524544 -31.772175 39.042878 0.532738 2.521417 0.047556 -0.010999 -135989.000000 0 0 1
-20.425257 -11.624244 -33.029295 40.537002 0.517397 2.523170 0.057343 -0.010207 -36226.800000 0 0 1
-19.974157 -10.748444 33.610815 40.548525 0.493675 0.593652 0.048660 -0.005044 -311782.000000 0 0 1
-20.572157 -10.890644 32.373865 39.873386 0.486880 0.623369 0.055031 -0.011988 -447225.000000 0 0 1
-20.065457 -11.989244 31.332645 39.090909 0.538584 0.640942 0.071263 -0.015487 -506332.000000 0 0 1
-18.750557 -11.759444 30.918665 38.024094 0.560145 0.621281 0.071166 -0.013996 -168921.000000 0 0 1
-18.128957 -12.657944 29.982435 37.253577 0.609528 0.635424 0.062812 -0.015797 319195.000000 0 0 1
-18.179357 -14.207044 30.252005 38.046194 0.663354 0.651560 0.069441 -0.019713 -270678.000000 0 0 1
-19.429957 -14.837744 29.941355 38.654451 0.652182 0.684730 0.072022 -0.023368 393143.000000 0 0 1
-19.567657 -16.159344 30.421955 39.617079 0.690287 0.695240 0.083137 -0.030063 -103794.000000 0 0 1
-19.776957 -16.353344 31.962072 40.989437 0.690923 0.676508 0.047622 -0.027820 -338304.000000 0 0 1
-18.582057 -16.041444 32.619933 40.825002 0.712151 0.645135 0.068031 -0.026049 -191543.000000 0 0 1
-18.853557 -15.939144 -33.674575 41.755119 0.701828 2.508967 0.062016 -0.029228 327201.000000 0 0 1
-17.594457 -15.526344 -32.867845 40.384744 0.723038 2.521574 0.057018 -0.029966 239475.000000 0 0 1
-17.194157 -14.213544 -33.206325 40.004049 0.690781 2.550037 0.056318 -0.024730 -10970.000000 0 0 1
-15.953657 -13.787644 -32.661065 38.876259 0.712698 2.568317 0.064109 -0.028675 100756.000000 0 0 1
-16.086257 -13.158644 -31.184605 37.475288 0.685624 2.553748 0.078422 -0.024745 -81199.000000 0 0 1
-16.412757 -14.118544 -30.225545 37.179234 0.710396 2.520028 0.054215 -0.024778 -272797.000000 0 0 1
-16.743757 -13.624444 -28.913935 36.083161 0.683041 2.500284 0.044298 -0.021537 16452.700000 0 0 1
-16.989457 -14.853844 -27.968155 35.937391 0.718432 2.462665 0.047247 -0.008229 185079.000000 0 0 1
-15.794957 -15.494144 -27.562455 35.344563 0.775784 2.465177 0.070338 -0.028240 -208841.000000 0 0 1
-15.274057 -16.356644 -28.549535 36.275509 0.819611 2.476759 0.095564 -0.032693 796474.000000 0 0 1
-13.833157 -16.920144 -28.171385 35.654936 0.885442 2.481788 0.149289 -0.036044 1348380.000000 0 0 1
-12.780957 -15.968644 -28.334525 34.945612 0.895825 2.516344 0.129336 -0.043130 646136.000000 0 0 1
-11.560457 -16.535044 -27.826595 34.371082 0.960642 2.514255 0.155118 -0.051890 1191100.000000 0 0 1
-10.241357 -15.743244 -28.051185 33.758023 0.994053 2.551607 0.145489 -0.057384 614124.000000 0 0 1
-10.119957 -14.535344 -27.281805 32.526707 0.962604 2.565782 0.124334 -0.045116 -155949.000000 0 0 1
-8.787157 -14.060744 -27.273355 31.917935 1.012238 2.595352 0.156764 -0.049139 202009.000000 0 0 1
-8.637057 -12.534344 -27.354825 31.304872 0.967443 2.633800 0.109582 -0.057644 -184843.000000 0 0 1
-9.108357 -12.029044 -28.549935 32.291777 0.922705 2.655412 0.136092 -0.055451 82273.200000 0 0 1
-8.675157 -10.723744 -28.807235 31.939221 0.890611 2.695035 0.104956 -0.050784 352671.000000 0 0 1
-7.675457 -10.586044 -30.020515 32.744592 0.943453 2.730809 0.102014 -0.043132 79479.100000 0 0 1
-6.380957 -11.091944 -29.754345 32.389333 1.048753 2.735437 0.093659 -0.041350 442032.000000 0 0 1
-5.307657 -10.804744 -30.617225 32.898757 1.114186 2.766981 0.098955 -0.040522 211879.000000 0 0 1
-4.972957 -9.295744 -30.813255 32.566821 1.079565 2.811940 0.087938 -0.031645 -137926.000000 0 0 1
-3.813557 -8.907944 -31.595235 33.047747 1.166297 2.844010 0.104200 -0.044653 923154.000000 0 0 1
-3.889657 -7.511344 -31.766695 32.873586 1.092981 2.881355 0.107484 -0.041735 162241.000000 0 0 1
-2.576457 -6.824844 -32.230135 33.045397 1.209826 2.919003 0.115800 -0.045952 94559.400000 0 0 1
-2.081257 -7.257044 -33.508225 34.348180 1.291501 2.919987 0.135468 -0.050665 -337263.000000 0 0 1
-1.083657 -6.361044 33.769835 34.380793 1.402058 0.188803 0.143972 -0.045733 273197.000000 0 0 1
-0.145057 -6.903944 32.599711 33.323065 1.549789 0.208740 0.127488 -0.040559 677394.000000 0 0 1
-0.722957 -6.848744 31.291385 32.040267 1.465625 0.216632 0.127426 -0.037712 21248.600000 0 0 1
0.195443 -7.363944 30.363835 31.244653 -1.544262 0.238010 0.107479 -0.041031 -140922.000000 0 0 1
-0.006557 -7.035244 28.872955 29.717709 1.569864 0.239005 0.106877 -0.028757 -111613.000000 0 0 1
0.383543 -5.724344 28.588005 29.158005 -1.503894 0.198054 0.097810 -0.039388 41853.400000 0 0 1
0.335943 -5.478544 27.188025 27.736546 -1.509553 0.199207 0.091420 -0.032781 -266367.000000 0 0 1
-0.695957 -4.418944 26.728405 27.100167 1.414585 0.165829 0.082257 -0.022724 284441.000000 0 0 1
-2.038557 -4.734644 27.038295 27.525296 1.164224 0.188390 0.052704 -0.008552 -503598.000000 0 0 1
-2.952957 -3.794644 26.597485 27.028605 0.909496 0.178847 0.043993 -0.018940 223588.000000 0 0 1
-4.395357 -4.158244 27.068375 27.736385 0.757684 0.219916 0.045654 -0.014461 680647.000000 0 0 1
-5.019657 -5.312644 26.448815 27.440134 0.813747 0.269615 0.046625 -0.004342 252480.000000 0 0 1
-6.273757 -5.625444 27.028495 28.311573 0.730968 0.302213 0.051347 -0.006561 457500.000000 0 0 1
-6.692457 -7.103944 26.835065 28.554784 0.815215 0.348826 0.067920 -0.002436 54877.700000 0 0 1
-5.966757 -7.919744 27.700725 29.422010 0.925121 0.343752 0.071187 -0.005613 -143978.000000 0 0 1
-6.161757 -9.329944 27.469905 29.658233 0.987125 0.386550 0.075559 -0.010262 327190.000000 0 0 1
-5.327957 -10.119844 28.549075 30.754642 1.086185 0.381022 0.074721 -0.020044 303100.000000 0 0 1
-5.529457 -11.521844 28.484405 31.220011 1.123349 0.421744 0.102688 -0.020980 98147.100000 0 0 1
-5.238757 -12.105944 29.719195 32.515058 1.162386 0.417727 0.116603 -0.030497 -101034.000000 0 0 1
-5.196257 -13.607844 29.765615 33.138593 1.206027 0.455102 0.138415 -0.043021 620676.000000 0 0 1
-6.463657 -14.247444 29.513565 33.403877 1.144893 0.487435 0.147830 -0.045729 505621.000000 0 0 1
-6.548357 -15.640144 29.480715 34.008934 1.174283 0.521943 0.151207 -0.047765 43877.600000 0 0 1
-6.693557 -16.264244 30.856615 35.517038 1.180372 0.518056 0.162576 -0.046120 -1929.450000 0 0 1
-8.005357 -16.034744 31.316875 36.082480 1.107748 0.519788 0.164193 -0.052241 -266145.000000 0 0 1
-8.069757 -16.332944 32.654627 37.392656 1.111897 0.508882 0.175527 -0.050018 -337934.000000 0 0 1
-9.483757 -16.258144 33.299580 38.250894 1.042729 0.514463 0.191447 -0.048399 487298.000000 0 0 1
-10.266557 -17.417944 33.048005 38.742194 1.038189 0.549044 0.185467 -0.043175 334396.000000 0 0 1
-10.850157 -17.466544 31.721382 37.802806 1.014937 0.575119 0.172323 -0.050836 -320099.000000 0 0 1
-11.487257 -18.875444 31.314665 38.325549 1.024090 0.614485 0.165105 -0.045732 423607.000000 0 0 1
-12.610857 -19.251144 32.101567 39.498745 0.990865 0.621985 0.157707 -0.048407 366149.000000 0 0 1
-12.972057 -20.607644 31.886905 40.121365 1.008983 0.652182 0.133889 -0.039204 77553.700000 0 0 1
-12.208157 -21.526544 32.879447 41.152026 1.054903 0.645207 0.116441 -0.027433 215316.000000 0 0 1
-10.806557 -21.589244 32.647225 40.604414 1.106707 0.636752 0.127877 -0.033873 104144.000000 0 0 1
-9.986757 -22.176644 33.614545 41.490679 1.147670 0.626353 0.125014 -0.035884 86823.000000 0 0 1
-10.261357 -23.642844 -33.616455 42.359716 1.161314 2.487491 0.104486 -0.021312 -354460.000000 0 0 1
-10.033757 -24.562944 32.999091 42.343293 1.182991 0.677212 0.112420 -0.031549 -193713.000000 0 0 1
-10.455957 -25.882014 33.295786 43.448993 1.186859 0.697705 0.112809 -0.036897 -1005310.000000 0 0 1
-10.204057 -26.969914 32.193959 43.219787 1.209092 0.730427 0.079828 -0.027157 996213.000000 0 0 1
-8.840157 -27.246884 31.818388 42.812975 1.257065 0.732963 0.108424 -0.035743 1268530.000000 0 0 1
-7.885557 -27.600834 32.802185 43.588661 1.292510 0.718887 0.088766 -0.040111 300061.000000 0 0 1
-6.417457 -27.122704 32.566252 42.864736 1.338461 0.707876 0.099097 -0.040468 581403.000000 0 0 1
-6.150357 -25.783564 32.873902 42.229285 1.336634 0.678584 0.106396 -0.043263 -672252.000000 0 0 1
-4.874857 -25.485254 32.392712 41.503616 1.381798 0.675364 0.168295 -0.027753 -376341.000000 0 0 1
-4.467157 -24.058744 32.874412 40.981772 1.387210 0.639873 0.178405 -0.038230 -121175.000000 0 0 1
-3.913857 -24.164644 -33.513065 41.501492 1.410224 2.510723 0.168455 -0.045586 -204450.000000 0 0 1
-3.614457 -22.846644 -33.109815 40.389272 1.413892 2.531801 0.140394 -0.032025 148897.000000 0 0 1
34.845928 -15.911944 1.783135 38.348510 -0.428360 1.524281 0.212439 -0.056406 680231.000000 0 0 1
35.791428 -15.990644 2.882135 39.306917 -0.420167 1.497407 0.183117 -0.047436 790534.000000 0 0 1
35.090328 -16.179844 4.064935 38.854114 -0.432039 1.465984 0.156814 -0.038463 315918.000000 0 0 1
36.080238 -16.336944 5.296135 39.959084 -0.425176 1.437866 0.109155 -0.016365 574255.000000 0 0 1
36.939808 -17.459244 5.249035 41.193774 -0.441521 1.443026 0.112974 -0.026784 155062.000000 0 0 1
-37.676687 -17.511244 6.450035 42.044969 0.435074 1.416780 0.103326 -0.017298 390498.000000 0 0 1
-36.346837 -18.328344 6.417735 41.209320 0.467052 1.414425 0.113833 -0.021751 217813.000000 0 0 1
-36.439587 -19.739544 6.463235 41.943611 0.496453 1.416086 0.072935 -0.022101 -528431.000000 0 0 1
-35.363254 -20.272944 7.158735 41.385982 0.520539 1.396947 0.059905 -0.016466 -507079.000000 0 0 1
-35.246388 -21.794344 7.324335 42.082623 0.553798 1.395859 0.098356 -0.014164 -424258.000000 0 0 1
-34.862186 -22.393844 6.101435 41.881784 0.570981 1.424594 0.116257 -0.021986 158951.000000 0 0 1
-35.068048 -23.774544 6.192035 42.817499 0.595777 1.425673 0.113533 -0.023697 -31744.000000 0 0 1
-34.354188 -24.616444 5.113835 42.571480 0.621746 1.450382 0.123727 -0.026698 240326.000000 0 0 1
-34.864889 -24.332744 3.780435 42.684126 0.609326 1.482112 0.120070 -0.026877 870316.000000 0 0 1
-33.954707 -24.898144 2.836435 42.200534 0.632711 1.503532 0.114240 -0.021988 474294.000000 0 0 1
-34.532382 -24.593844 1.437635 42.419446 0.618865 1.536899 0.107645 -0.022894 853464.000000 0 0 1
-35.731284 -25.349574 1.098935 43.823889 0.617040 1.545718 0.088017 -0.019554 1233250.000000 0 0 1
-36.457237 -24.820144 -0.003765 44.104078 0.597725 1.570882 0.082531 -0.017820 167106.000000 0 0 1
-37.393467 -23.587444 0.303135 44.212338 0.562752 1.563940 0.092201 -0.021757 1049290.000000 0 0 1
36.583198 -23.999544 0.521835 43.755923 -0.580600 1.558870 0.076410 -0.018465 1338120.000000 0 0 1
35.807928 -22.818344 0.707835 42.466288 -0.567355 1.554127 0.084267 -0.026011 297695.000000 0 0 1
34.273498 -22.938944 0.584235 41.245717 -0.589817 1.556631 0.091143 -0.019152 259891.000000 0 0 1
33.830498 -23.299444 -0.732365 41.084097 -0.603109 1.588623 0.106939 -0.027350 5635.290000 0 0 1
32.420548 -23.147044 -0.730765 39.842334 -0.620035 1.589139 0.106169 -0.022159 309788.000000 0 0 1
31.915398 -22.968344 -2.219765 39.383560 -0.623801 1.627189 0.108540 -0.019864 59708.600000 0 0 1
32.248538 -21.706044 -2.763865 38.971265 -0.592434 1.641777 0.144966 -0.030469 119766.000000 0 0 1
31.905138 -21.654544 -4.109065 38.778106 -0.596298 1.676959 0.146130 -0.044516 -108119.000000 0 0 1
31.813968 -20.290844 -4.707265 38.026376 -0.567749 1.694904 0.164360 -0.044636 676145.000000 0 0 1
30.720408 -19.571744 -4.097765 36.654990 -0.567248 1.682823 0.184089 -0.042213 677290.000000 0 0 1
30.480328 -18.241244 -4.603865 35.818835 -0.539286 1.699685 0.178292 -0.047064 279759.000000 0 0 1
29.363858 -17.535544 -3.768365 34.408314 -0.538344 1.680535 0.180191 -0.025683 -83465.800000 0 0 1
29.734958 -17.004544 -2.515865 34.346060 -0.519479 1.644112 0.166977 -0.028992 134952.000000 0 0 1
30.285458 -17.806144 -1.431365 35.161293 -0.531507 1.611516 0.151178 -0.017078 -178267.000000 0 0 1
29.534458 -19.037444 -0.914065 35.150306 -0.572559 1.596804 0.145849 -0.020876 -381557.000000 0 0 1
28.348558 -18.740544 -0.223265 33.983799 -0.584122 1.577366 0.130284 0.008770 43416.500000 0 0 1
27.751958 -19.949444 0.273835 34.179328 -0.623264 1.562785 0.114843 -0.000724 -687763.000000 0 0 1
26.464158 -19.772744 1.039635 33.051383 -0.641676 1.539336 0.113282 0.002102 -1933310.000000 0 0 1
26.126458 -20.903244 1.809335 33.508374 -0.674789 1.516774 0.098351 0.009359 11098.200000 0 0 1
25.178058 -20.594444 2.795535 32.647829 -0.685592 1.485064 0.078675 0.017269 -325996.000000 0 0 1
23.778258 -20.091444 2.450735 31.226236 -0.701555 1.492232 0.053372 0.007685 -1376880.000000 0 0 1
23.571858 -18.763244 1.936835 30.190117 -0.672298 1.506598 0.099397 -0.013801 151583.000000 0 0 1
23.502358 -17.708244 2.907635 29.570206 -0.645716 1.472307 0.111164 -0.008152 -238267.000000 0 0 1
23.221858 -16.354144 2.251635 28.491799 -0.613577 1.491686 0.095965 0.003155 105818.000000 0 0 1
21.854358 -16.125744 1.954035 27.229962 -0.635695 1.498974 0.074804 -0.002482 5528.520000 0 0 1
21.692258 -15.021244 1.129335 26.409605 -0.605655 1.528021 0.083638 -0.012416 718174.000000 0 0 1
20.213258 -14.767144 0.672635 25.041901 -0.630948 1.543933 0.049042 -0.006662 1151660.000000 0 0 1
19.284258 -14.483244 1.762835 24.181699 -0.644166 1.497832 0.052857 -0.016216 608290.000000 0 1 0
18.313058 -13.552644 1.384735 22.824543 -0.637105 1.510090 0.062690 -0.018486 -529879.000000 0 1 0
18.712158 -12.118744 1.712835 22.359397 -0.574714 1.494117 0.071326 -0.018157 -525663.000000 0 1 0
19.756258 -11.556944 0.969535 22.908791 -0.529299 1.528462 0.081932 -0.018615 111758.000000 0 1 0
20.257158 -10.411544 1.619935 22.833679 -0.474760 1.499792 0.099472 -0.014960 145457.000000 0 1 0
21.219458 -9.582444 0.721535 23.293975 -0.424173 1.539816 0.116458 -0.019608 251665.000000 0 1 0
20.515358 -9.231644 -0.467065 22.501585 -0.422843 1.591555 0.117521 -0.017377 1139780.000000 0 1 0
21.338358 -8.382444 -1.283765 22.961684 -0.374314 1.626735 0.111762 -0.017315 49369.000000 0 1 0
20.764758 -8.179944 -2.703365 22.480989 -0.375266 1.691339 0.133003 -0.020765 -285574.000000 0 1 0
21.492058 -7.315844 -3.596265 22.986154 -0.328095 1.727895 0.142667 -0.027766 774507.000000 0 1 0
22.620858 -7.869144 -4.266965 24.327631 -0.334777 1.747104 0.133063 -0.028994 -411069.000000 0 1 0
22.387658 -9.153144 -5.160265 24.730864 -0.388110 1.780998 0.122945 -0.030054 -462951.000000 0 1 0
21.712358 -8.954244 -6.435265 24.351953 -0.391153 1.838234 0.121961 -0.037642 -176927.000000 0 1 0
20.349058 -8.737744 -6.282265 23.019539 -0.405586 1.847213 0.123785 -0.026375 -1152500.000000 0 1 0
19.581058 -8.824544 -7.624965 22.791018 -0.423409 1.911935 0.121283 -0.025816 -286722.000000 0 1 0
19.454758 -10.038444 -8.360665 23.434135 -0.476357 1.935608 0.110898 -0.022649 -356179.000000 0 1 0
20.522458 -10.210744 -9.207465 24.702389 -0.461678 1.952752 0.093898 -0.026002 -878512.000000 0 1 0
20.673058 -11.556944 -9.899965 25.669975 -0.509753 1.966723 0.089300 -0.021343 52539.700000 0 0 1
19.592058 -11.880544 -10.765365 25.315789 -0.545109 2.010027 0.118570 -0.024391 287991.000000 0 0 1
19.693658 -13.252444 -11.156865 26.228669 -0.592326 2.010166 0.118758 -0.020525 326763.000000 0 0 1
18.557958 -13.711644 -12.145765 26.075402 -0.636330 2.055328 0.132904 -0.021187 540233.000000 0 0 1
18.659858 -15.089844 -12.449365 27.034800 -0.680011 2.049348 0.118610 -0.024646 894414.000000 0 0 1
17.571158 -15.453744 -13.326865 26.928965 -0.721370 2.088504 0.116356 -0.024713 389834.000000 0 0 1
17.422158 -16.962044 -13.643865 27.881851 -0.772017 2.082136 0.086194 -0.027413 -450836.000000 0 0 1
16.719258 -17.660244 -12.632065 27.404140 -0.812762 2.049867 0.077708 -0.022332 365823.000000 0 0 1
16.740258 -19.018644 -12.834865 28.402092 -0.849027 2.039689 0.070821 -0.014772 -37994.200000 0 0 1
15.636758 -19.748044 -11.998965 27.901050 -0.901067 2.015349 0.058905 -0.015992 309488.000000 0 0 1
14.345158 -19.490744 -12.494365 27.235672 -0.936317 2.047384 0.051506 -0.020620 344715.000000 0 0 1
13.296358 -19.992144 -11.612265 26.670652 -0.983894 2.021273 0.042472 -0.009900 68017.800000 0 0 1
12.032358 -20.194144 -12.420665 26.586726 -1.033446 2.056890 0.046320 -0.021088 -764659.000000 0 0 1
11.035558 -20.612644 -11.516565 26.063306 -1.079248 2.028477 0.058764 -0.025724 -338781.000000 0 0 1
9.783658 -20.889144 -12.101965 26.048683 -1.132779 2.053968 0.055327 -0.026665 253808.000000 0 0 1
8.746858 -21.476544 -11.119365 25.717499 -1.184034 2.017911 0.058887 -0.015701 -2620.480000 0 0 1
8.952958 -22.861344 -10.763165 26.807503 -1.197535 1.983948 0.076964 -0.023303 -439802.000000 0 0 1
8.077558 -23.345944 -9.800065 26.576706 -1.237695 1.948456 0.076731 -0.022752 -84674.000000 0 0 1
8.355558 -24.833744 -9.634965 27.917069 -1.246235 1.923172 0.083195 -0.017705 1409550.000000 0 0 1
9.708958 -25.130094 -9.217165 28.473525 -1.202114 1.900444 0.075942 -0.009252 642854.000000 0 0 1
9.985858 -26.464084 -9.507465 29.840526 -1.209979 1.895058 0.082603 -0.010038 186180.000000 0 0 1
11.432058 -26.848134 -9.132565 30.576429 -1.168244 1.874105 0.075412 -0.005302 146213.000000 0 0 1
11.477858 -26.972944 -7.745565 30.319543 -1.168475 1.829124 0.071622 -0.014200 444788.000000 0 0 1
12.771558 -27.478764 -7.386365 31.188997 -1.135720 1.809894 0.060380 -0.003041 207242.000000 0 0 1
12.901758 -27.683634 -5.845365 31.096740 -1.134682 1.759895 0.064388 -0.017423 214276.000000 0 0 1
12.263958 -28.814134 -5.232065 31.749543 -1.168398 1.736343 0.059522 -0.014476 -617644.000000 0 0 1
10.877658 -28.892924 -5.322165 31.328102 -1.210727 1.741509 0.067032 -0.018229 -946101.000000 0 0 1
10.375458 -30.090614 -4.522165 32.148797 -1.238755 1.711928 0.070025 -0.018060 -318469.000000 0 0 1
10.641758 -31.403174 -4.974765 33.528415 -1.244066 1.719721 0.075167 -0.014661 -238127.000000 0 0 1
10.013258 -31.822084 -6.189065 33.929558 -1.265941 1.754233 0.078319 -0.013030 153844.000000 0 0 1
9.999858 -33.396464 -6.292865 35.424866 -1.279864 1.749384 0.075094 -0.016447 131556.000000 0 0 1
9.276658 33.588236 -5.330765 35.251142 1.301326 1.722601 0.078438 -0.015664 385283.000000 0 0 1
9.839858 32.239998 -5.361665 34.131917 1.274570 1.728536 0.078843 -0.011126 430478.000000 0 0 1
9.237258 31.425912 -4.230065 33.027388 1.284911 1.699227 0.063426 -0.007845 -63668.000000 0 0 1
7.861258 31.192122 -4.338765 32.458785 1.323911 1.704868 0.051845 -0.009919 -638482.000000 0 0 1
7.459658 30.083092 -3.538465 31.195507 1.327731 1.684470 0.035876 -0.006246 119901.000000 0 0 1
6.181658 29.410442 -4.066565 30.326951 1.363626 1.705292 0.042153 -0.011597 -86734.000000 0 0 1
6.392458 28.795052 -5.300865 29.968612 1.352341 1.748612 0.047973 -0.023098 263117.000000 0 0 1
5.937158 29.675032 -6.362965 30.924823 1.373331 1.778032 0.044532 -0.024511 -41700.100000 0 0 1
5.880758 29.003202 -7.748065 30.590874 1.370746 1.826866 0.056423 -0.034210 -174709.000000 0 0 1
5.021158 27.905382 -7.949165 29.446759 1.392766 1.844138 0.066174 -0.040024 81458.900000 0 0 1
5.623058 26.658792 -7.550965 28.272373 1.362916 1.841157 0.061524 -0.031032 -805767.000000 0 0 1
4.797558 25.421712 -7.882465 27.044653 1.384271 1.866550 0.067790 -0.041460 -367393.000000 0 0 1
3.537958 25.305242 -7.206665 26.548229 1.431885 1.845701 0.061266 -0.037855 565946.000000 0 0 1
2.459658 25.975702 -7.868465 27.252518 1.476387 1.863690 0.077636 -0.037164 214098.000000 0 0 1
1.842558 25.415832 -9.189265 27.088782 1.498426 1.916892 0.085542 -0.034693 46395.100000 0 0 1
2.835358 25.310342 -10.228265 27.445766 1.459238 1.952683 0.070713 -0.034283 560825.000000 0 0 1
2.415158 24.516412 -11.379265 27.136233 1.472601 2.003513 0.084128 -0.033390 -148837.000000 0 0 1
2.194758 22.984442 -11.248765 25.683385 1.475596 2.024145 0.096109 -0.034347 247278.000000 0 0 1
0.976958 22.720002 -10.564165 25.074978 1.527823 2.005678 0.117295 -0.028634 211294.000000 0 0 1
0.951458 21.372302 -10.183665 23.693619 1.526307 2.015074 0.072844 -0.026773 -288211.000000 0 1 0
-0.224042 20.821602 -9.366565 22.832474 -1.560037 1.993503 0.080967 -0.020005 298961.000000 0 1 0
-1.491642 20.785802 -10.012565 23.119819 -1.499157 2.018695 0.092351 -0.027260 -284673.000000 0 1 0
-2.501842 20.424002 -9.139165 22.514960 -1.448908 1.988776 0.067294 -0.016449 -1022100.000000 0 1 0
-3.836542 20.349202 -9.819965 22.918132 -1.384448 2.013606 0.058895 -0.019707 -887508.000000 0 1 0
-4.909342 19.698202 -9.204365 22.289934 -1.326544 1.996474 0.053084 -0.021118 223072.000000 0 1 0
-5.785342 19.100202 -10.163165 22.395933 -1.276686 2.041816 0.053694 -0.023932 -47488.000000 0 1 0
-6.724942 17.996902 -9.580365 21.468505 -1.213190 2.033369 0.049519 -0.023318 322017.000000 0 1 0
-7.809442 18.396902 -8.758165 21.820606 -1.169351 1.983810 0.069710 -0.021136 193075.000000 0 1 0
-8.955842 18.740602 -9.544565 22.858609 -1.124997 2.001541 0.069635 -0.021451 200629.000000 0 1 0
-10.017842 19.281402 -8.519965 23.339225 -1.091624 1.944482 0.075339 -0.026509 169455.000000 0 1 0
-10.341242 18.220702 -7.697065 22.319948 -1.054576 1.922877 0.073175 -0.023996 -116844.000000 0 1 0
-11.491842 18.408002 -6.877065 22.764248 -1.012711 1.877690 0.096498 -0.024681 284995.000000 0 1 0
-11.871142 17.168502 -6.008365 21.720541 -0.965832 1.851073 0.070001 -0.028014 -2569.640000 0 1 0
-12.941542 17.410302 -5.121665 22.289764 -0.931580 1.802644 0.089549 -0.026245 116721.000000 0 1 0
-13.313742 16.237202 -4.448065 21.463637 -0.884007 1.779546 0.075152 -0.023816 99257.800000 0 1 0
-14.496542 16.515702 -3.476665 22.248715 -0.850415 1.727703 0.070942 -0.027540 779870.000000 0 1 0
-15.767842 16.501802 -4.141965 23.196771 -0.808139 1.750317 0.120533 -0.046657 1488230.000000 0 1 0
-16.873842 16.857902 -3.281165 24.076575 -0.784926 1.707502 0.133863 -0.041157 726774.000000 0 1 0
-18.275142 17.025102 -3.899565 25.279270 -0.750001 1.725674 0.153276 -0.047761 57285.200000 0 0 1
-18.312042 17.950702 -4.983965 26.122758 -0.775434 1.762763 0.138934 -0.048438 -494386.000000 0 0 1
-19.628542 18.232002 -5.323865 27.313533 -0.748528 1.766969 0.119635 -0.045518 -521724.000000 0 0 1
-19.724542 19.230802 -6.503365 28.305036 -0.772724 1.802627 0.127908 -0.036743 -203580.000000 0 0 1
-19.306742 20.472502 -6.202265 28.815650 -0.814696 1.787733 0.134470 -0.051282 -73831.400000 0 0 1
-19.461842 21.426902 -7.271765 29.845502 -0.833420 1.816921 0.131649 -0.035278 -52293.900000 0 0 1
-19.196242 22.861692 -6.757365 30.607428 -0.872331 1.793406 0.140721 -0.037910 454353.000000 0 0 1
-17.811242 22.926792 -6.420465 29.733827 -0.910316 1.788442 0.126382 -0.039763 486496.000000 0 0 1
-17.624842 23.755662 -5.293565 30.049765 -0.932485 1.747880 0.135305 -0.045338 649016.000000 0 0 1
-16.166342 24.331892 -5.178665 29.668336 -0.984358 1.746247 0.102270 -0.041665 431029.000000 0 0 1
-15.989242 24.942462 -3.910765 29.884383 -1.000742 1.702036 0.096632 -0.044183 1058330.000000 0 0 1
-14.693542 25.548172 -3.669565 29.699747 -1.048864 1.694668 0.114836 -0.050496 930732.000000 0 0 1
-14.493342 26.900082 -4.418265 30.873815 -1.076605 1.714397 0.115925 -0.040402 -81543.500000 0 0 1
-15.454242 27.872012 -4.089665 32.131106 -1.064526 1.698423 0.126278 -0.035915 87968.200000 0 0 1
-15.053542 29.031482 -4.763465 33.047340 -1.092439 1.715441 0.096513 -0.027301 -112976.000000 0 0 1
-15.940642 30.236812 -4.400665 34.463527 -1.085632 1.698836 0.099245 -0.022332 117519.000000 0 0 1
-17.215442 30.146402 -4.999465 35.073803 -1.051927 1.713825 0.128831 -0.023538 149762.000000 0 0 1
-18.053242 31.278112 -4.770365 36.427959 -1.047322 1.702127 0.133236 -0.026425 155529.000000 0 0 1
13.062343 -9.047944 18.244225 24.193838 -0.605792 0.716536 0.160131 -0.029402 -102317.000000 0 1 0
13.774543 -10.029744 18.932725 25.471197 -0.629361 0.732807 0.169142 -0.035076 -61592.500000 0 0 1
14.227043 -11.097844 18.063925 25.531868 -0.662459 0.784835 0.188690 -0.030180 327041.000000 0 0 1
14.890843 -12.240344 18.937525 27.022085 -0.688015 0.794255 0.230443 -0.056400 46160.100000 0 0 1
16.255043 -11.974744 19.253925 27.898647 -0.634921 0.809116 0.208844 -0.056241 1069410.000000 0 0 1
16.987343 -13.084944 19.853825 29.222593 -0.656352 0.823852 0.193705 -0.051953 394043.000000 0 0 1
17.377343 -14.222844 18.920025 29.363730 -0.685902 0.870645 0.188442 -0.052912 -671970.000000 0 0 1
16.271543 -14.915944 18.339825 28.698391 -0.741959 0.877528 0.207813 -0.057983 257612.000000 0 0 1
16.575243 -15.943544 17.381325 28.827863 -0.765975 0.923622 0.212401 -0.056269 -417473.000000 0 0 1
15.660843 -15.944344 16.135225 27.565006 -0.794368 0.945482 0.201459 -0.060385 1092640.000000 0 0 1
14.250743 -16.178244 16.411925 27.095581 -0.848658 0.920145 0.242069 -0.061142 1344100.000000 0 0 1
13.502543 -15.966544 15.203925 25.853598 -0.868817 0.942116 0.258007 -0.057631 -162111.000000 0 0 1
13.090043 -17.184144 14.361625 25.940322 -0.919817 0.984066 0.190741 -0.039556 -334961.000000 0 0 1
14.180743 -17.935744 13.891025 26.753410 -0.901788 1.024853 0.186829 -0.040020 229712.000000 0 0 1
13.666643 -19.125644 13.272225 26.994802 -0.950358 1.056803 0.159254 -0.035978 -199842.000000 0 0 1
14.784443 -20.003644 12.733725 27.944110 -0.934316 1.097654 0.154652 -0.033199 -168175.000000 0 0 1
15.412943 -20.766444 13.822625 29.323522 -0.932303 1.079937 0.128436 -0.025261 424644.000000 0 0 1
15.990643 -21.978744 13.269225 30.246292 -0.941818 1.116638 0.089222 -0.023393 -246825.000000 0 0 1
16.795943 -22.837044 14.200925 31.706475 -0.936660 1.106395 0.081988 -0.028765 -637069.000000 0 0 1
18.063243 -22.293044 14.416825 32.110830 -0.889828 1.105183 0.070293 -0.024560 -901480.000000 0 0 1
18.812543 -23.118244 15.238325 33.474939 -0.887725 1.098182 0.077307 -0.036004 -384604.000000 0 0 1
20.151743 -22.533044 15.689825 34.058793 -0.841128 1.092048 0.051650 -0.027424 195131.000000 0 0 1
21.193243 -22.657544 14.721025 34.339866 -0.818779 1.127758 0.037888 -0.030036 340835.000000 0 0 1
22.459443 -22.272444 15.242925 35.111751 -0.781218 1.121728 0.044574 -0.023266 834985.000000 0 0 1
23.689443 -22.799544 14.443825 35.911460 -0.766258 1.156871 0.041985 -0.030130 410545.000000 0 0 1
24.000143 -24.103444 14.902525 37.135806 -0.787546 1.157863 0.043008 -0.028173 -219082.000000 0 0 1
25.207043 -24.593844 14.387825 38.042892 -0.773086 1.182945 0.060729 -0.031477 -252118.000000 0 0 1
25.641143 -25.987884 14.890325 39.427910 -0.792114 1.183529 0.067851 -0.023915 -280720.000000 0 0 1
26.171343 -25.801044 16.170625 40.151241 -0.778273 1.156285 0.072972 -0.014147 -174759.000000 0 0 1
26.531543 -26.967534 16.775125 41.383275 -0.793547 1.153424 0.088054 -0.006456 -179116.000000 0 0 1
27.060943 -26.666134 18.189025 42.121467 -0.778050 1.124283 0.074946 0.005556 5070.980000 0 0 1
26.133143 -26.168804 19.136825 41.640911 -0.786080 1.093288 0.081689 0.002567 -20292.300000 0 0 1
26.718743 -25.862564 20.441725 42.433802 -0.769117 1.068166 0.079961 0.005610 354024.000000 0 0 1
25.658243 -25.802314 21.566425 42.299119 -0.788198 1.035780 0.071002 -0.000236 339714.000000 0 0 1
24.999543 -27.049744 21.729925 42.765119 -0.824767 1.037793 0.077407 0.000843 -149171.000000 0 0 1
23.841243 -26.937434 22.525225 42.443091 -0.846297 1.011351 0.082444 -0.003576 -22533.900000 0 0 1
23.092743 -28.250384 22.689265 42.966984 -0.885517 1.014479 0.103009 -0.004820 -727484.000000 0 0 1
23.901543 -29.200844 23.291005 44.344604 -0.884863 1.017814 0.093474 -0.011957 -138408.000000 0 0 1
23.785943 -30.487544 22.744645 44.861791 -0.908255 1.039103 0.101358 -0.017465 -456644.000000 0 0 1
24.762343 -31.531674 23.278905 46.360840 -0.905073 1.044743 0.085193 -0.004460 -373513.000000 0 0 1
24.787943 -31.536564 24.712535 47.113760 -0.904646 1.018634 0.085788 -0.011483 480928.000000 0 0 1
25.971643 -32.100564 25.284545 48.417772 -0.890549 1.021349 0.097019 -0.014389 -326572.000000 0 0 1
25.926743 -32.258484 26.832595 49.323361 -0.893792 0.995583 0.101386 -0.025739 828957.000000 0 0 1
25.056843 -33.335604 27.327865 49.859002 -0.926237 0.990702 0.089351 -0.020771 1014040.000000 0 0 1
23.697043 -33.402994 26.941155 49.021788 -0.953770 0.988941 0.091667 -0.019890 -135687.000000 0 0 1
22.875043 33.211273 27.643045 48.891657 0.967645 0.969886 0.129167 -0.026882 61176.300000 0 0 1
22.564443 33.455488 28.990115 49.687529 0.977417 0.947828 0.113631 -0.023093 296415.000000 0 0 1
21.793743 32.357209 29.505125 48.913276 0.978053 0.923273 0.114406 -0.033791 455173.000000 0 0 1
21.533943 32.455039 31.062085 49.818604 0.984989 0.897580 0.092188 -0.035867 -454053.000000 0 0 1
22.703343 32.215260 31.781596 50.629384 0.956897 0.892162 0.079966 -0.009731 -273666.000000 0 0 1
22.622843 32.495239 33.137407 51.631592 0.962632 0.873947 0.065749 -0.013651 -421401.000000 0 0 1
23.929043 32.035994 33.772375 52.340016 0.929255 0.869446 0.027737 -0.002345 -369714.000000 0 0 1
24.090743 30.646002 -33.830555 51.614414 0.904590 2.285572 0.037859 -0.002201 1294520.000000 0 0 1
25.321743 30.267922 -33.137195 51.530685 0.874141 2.269280 0.039139 0.012069 1191070.000000 0 0 1
25.332243 28.703032 -33.090035 50.601749 0.847699 2.283565 0.059878 -0.011851 -200170.000000 0 0 1
25.546643 28.066652 33.314640 50.499833 0.832367 0.850379 0.078527 -0.012866 299910.000000 0 0 1
24.990143 26.780162 33.386632 49.561593 0.819961 0.831674 0.093840 -0.025077 -79000.300000 0 0 1
25.473943 25.874432 32.208278 48.536390 0.793197 0.845188 0.143406 -0.033470 1131110.000000 0 0 1
26.849943 25.496822 32.446712 49.232067 0.759555 0.851233 0.120181 -0.036189 1368140.000000 0 0 1
27.470643 24.979202 31.227975 48.515803 0.737932 0.871517 0.165577 -0.053394 1141840.000000 0 0 1
28.951743 24.500622 31.483185 49.291732 0.702317 0.877974 0.133426 -0.043748 680881.000000 0 0 1
28.905143 23.462092 32.413014 49.361731 0.681830 0.854438 0.155879 -0.046485 268268.000000 0 0 1
29.880243 23.535772 33.433725 50.641637 0.667177 0.849708 0.147984 -0.049233 -853235.000000 0 0 1
29.427643 22.875132 -32.881705 49.703766 0.660767 2.293685 0.150703 -0.052223 -93032.400000 0 0 1
28.329543 23.509212 -32.175835 48.893051 0.692678 2.289070 0.162189 -0.061245 1295100.000000 0 0 1
27.023843 23.383842 -32.714345 48.449154 0.713312 2.312073 0.149004 -0.045346 -246353.000000 0 0 1
26.459243 21.970102 -32.880645 47.580602 0.692968 2.333739 0.141793 -0.045200 -1145310.000000 0 0 1
26.175943 21.438902 -31.622245 46.311693 0.686238 2.322403 0.124724 -0.061848 309151.000000 0 0 1
25.644643 20.108402 -31.733565 45.486423 0.664981 2.342907 0.151268 -0.054822 10184.300000 0 0 1
25.522343 19.462502 -30.354505 44.176633 0.651496 2.328309 0.162002 -0.058136 -318684.000000 0 0 1
24.259743 19.664002 -29.776395 43.149065 0.681148 2.332399 0.132371 -0.044863 -54761.400000 0 0 1
24.139343 19.063002 -28.488095 41.924664 0.668433 2.317887 0.129761 -0.042432 151269.000000 0 0 1
22.860143 19.360102 -27.656005 40.770753 0.702688 2.316283 0.104267 -0.031757 129369.000000 0 0 1
22.786243 18.624702 -26.472705 39.584043 0.685241 2.303352 0.107075 -0.023514 -58669.400000 0 0 1
23.636143 19.035502 -25.430745 39.594701 0.677998 2.268261 0.092307 -0.012969 -108821.000000 0 0 1
23.729643 18.101302 -24.208865 38.429445 0.651652 2.252293 0.112195 -0.015461 -122129.000000 0 0 1
24.505643 16.968202 -24.492365 38.578781 0.605621 2.258632 0.147115 -0.029975 135933.000000 0 0 1
24.534543 16.103602 -23.399165 37.533861 0.580836 2.243899 0.145012 -0.024354 -532160.000000 0 0 1
25.660143 15.084902 -23.568265 37.966568 0.531455 2.240513 0.171664 -0.024774 -776285.000000 0 0 1
26.899043 15.539902 -23.107665 38.717067 0.523870 2.210346 0.162215 -0.030979 -288881.000000 0 0 1
27.940943 14.604302 -23.051065 39.055518 0.481630 2.202119 0.165997 -0.036427 -405992.000000 0 0 1
27.810443 13.669802 -21.750465 37.859833 0.456853 2.182789 0.156807 -0.030109 -83972.800000 0 0 1
26.619343 12.878702 -21.783565 36.728382 0.450612 2.205699 0.166748 -0.027032 419383.000000 0 0 1
26.293443 12.442902 -20.483665 35.577401 0.442005 2.184317 0.121629 -0.027822 132717.000000 0 0 1
24.841743 11.901402 -20.363765 34.255488 0.446779 2.207399 0.140035 -0.031068 359496.000000 0 0 1
23.924743 12.978302 -20.290465 33.948971 0.497039 2.211395 0.153975 -0.030142 -472202.000000 0 0 1
22.633643 12.649702 -20.731065 33.197497 0.509642 2.245258 0.154031 -0.035821 57915.500000 0 0 1
21.676943 13.843102 -20.598665 32.951879 0.568326 2.246073 0.144490 -0.036706 -634130.000000 0 0 1
22.099543 14.877802 -21.495165 34.231285 0.592524 2.249699 0.134558 -0.025118 513756.000000 0 0 1
21.171843 15.951802 -21.639765 34.219678 0.645702 2.255415 0.084758 -0.021905 407449.000000 0 0 1
19.788243 15.755602 -22.303765 33.723456 0.672426 2.293443 0.082328 -0.007850 28554.000000 0 0 1
18.830743 15.019202 -21.566365 32.330812 0.673269 2.301042 0.064466 -0.019406 505363.000000 0 0 1
17.707243 14.789702 -22.427265 32.175518 0.695859 2.342042 0.066088 -0.019140 870308.000000 0 0 1
16.445743 14.178302 -21.743165 30.728683 0.711492 2.356871 0.044095 -0.016718 492065.000000 0 0 1
15.252243 14.112702 -22.486665 30.617795 0.746611 2.395625 0.057588 -0.017845 132056.000000 0 0 1
14.192143 13.491802 -21.741665 29.259966 0.760106 2.408415 0.078479 -0.028960 -68053.000000 0 0 1
12.935043 13.487602 -22.602165 29.327267 0.806307 2.450716 0.072376 -0.029267 -745605.000000 0 0 1
12.452443 14.814002 -22.726465 29.849794 0.871793 2.436206 0.090673 -0.026096 -31119.700000 0 0 1
11.953343 15.059202 -24.033065 30.777430 0.899874 2.466848 0.077725 -0.022666 -449783.000000 0 0 1
11.639843 16.542902 -24.386365 31.683566 0.957648 2.449144 0.084418 -0.026899 -119894.000000 0 0 1
12.674043 17.518102 -24.398465 32.600619 0.944483 2.416450 0.071017 -0.009924 8220.800000 0 0 1
13.739943 17.325402 -25.332065 33.625423 0.900306 2.423954 0.078707 -0.013693 -17149.200000 0 0 1
13.463243 17.155202 -26.820775 34.567526 0.905398 2.458929 0.109436 -0.016799 -603255.000000 0 0 1
14.637043 17.126702 -27.610935 35.636087 0.863619 2.457199 0.081459 -0.018122 240874.000000 0 0 1
14.365543 16.584402 -28.891245 36.278303 0.856968 2.492079 0.097139 -0.028904 -1031830.000000 0 0 1
15.290043 17.128102 -29.905965 37.703104 0.842036 2.486836 0.075283 -0.032150 -819843.000000 0 0 1
16.564043 16.597702 -29.661395 37.810707 0.786413 2.472639 0.054042 -0.025429 -163055.000000 0 0 1
17.472143 16.743002 -30.761795 39.139391 0.764091 2.475035 0.058649 -0.017697 81463.500000 0 0 1
18.770443 15.944002 -30.570235 39.256592 0.704158 2.463433 0.077992 -0.020654 178016.000000 0 0 1
19.881543 16.650002 -31.134425 40.519757 0.697169 2.447097 0.107930 -0.036322 1165570.000000 0 0 1
21.144743 15.991902 -30.847305 40.674283 0.647525 2.431648 0.135906 -0.035680 509547.000000 0 0 1
22.268243 16.811202 -31.453555 42.045419 0.646656 2.415968 0.167965 -0.037572 -623564.000000 0 0 1
22.407343 16.526502 -32.897285 43.098093 0.635484 2.439220 0.149105 -0.031214 423594.000000 0 0 1
23.479243 17.368402 -33.331735 44.316372 0.636899 2.422087 0.162991 -0.038484 281163.000000 0 0 1
23.462543 17.925602 32.908606 44.213057 0.652407 0.731282 0.137501 -0.029444 153878.000000 0 0 1
24.559343 18.819602 32.760717 45.062216 0.653846 0.756838 0.151211 -0.026023 279959.000000 0 0 1
24.671443 19.412802 31.468945 44.450326 0.666673 0.784194 0.146765 -0.028002 -590850.000000 0 0 1
25.803843 20.415602 31.282205 45.400566 0.669343 0.810651 0.176365 -0.030266 -388159.000000 0 0 1
27.028343 19.713002 31.283825 45.801872 0.630151 0.818900 0.147182 -0.028548 -372448.000000 0 0 1
28.090343 20.646102 31.237185 46.809087 0.633825 0.840176 0.121429 -0.038318 -290753.000000 0 0 1
29.475243 20.011902 31.411175 47.496611 0.596451 0.848199 0.137710 -0.032377 -353745.000000 0 0 1
29.708543 19.906402 32.789088 48.517900 0.590346 0.828727 0.109352 -0.037086 270948.000000 0 0 1
31.109043 19.861702 33.024329 49.526417 0.568216 0.840887 0.082676 -0.030472 351234.000000 0 0 1
31.447243 19.265302 -33.230515 49.642200 0.549649 2.304198 0.076705 -0.014212 -200396.000000 0 0 1
30.978943 20.231102 -32.273835 49.097788 0.578523 2.288077 0.060379 -0.033796 93580.300000 0 0 1
30.605443 19.604902 -31.024315 47.786540 0.569717 2.277364 0.087105 -0.046194 47807.500000 0 0 1
31.475043 20.066102 -29.816505 47.773955 0.567555 2.244796 0.101241 -0.052554 176209.000000 0 0 1
32.789643 19.555502 -29.842295 48.457620 0.537763 2.234252 0.101873 -0.056228 -255771.000000 0 0 1
33.441743 19.868702 -28.625485 48.296313 0.536091 2.205210 0.117382 -0.062770 926309.000000 0 0 1
34.936343 19.361502 -28.536435 49.089143 0.506057 2.191145 0.060483 -0.036705 1240620.000000 0 0 1
35.795043 20.228902 -29.286625 50.479699 0.514386 2.189729 0.053896 -0.035035 131066.000000 0 0 1
37.080643 20.343402 -28.688775 51.106496 0.501788 2.166816 0.024861 -0.008672 150091.000000 0 0 1
-37.322473 21.064802 -29.670355 52.125069 -0.513832 2.176347 0.019043 -0.002623 21855.000000 0 0 1
-36.942873 20.333402 -30.829275 52.236647 -0.503151 2.202084 0.018668 -0.002973 527656.000000 0 0 1
-35.845673 21.030602 -31.447225 52.116470 -0.530582 2.218558 0.011568 -0.000904 640032.000000 0 0 1
-35.102273 20.310502 -32.627165 52.050148 -0.524543 2.248288 0.017142 -0.006370 509166.000000 0 0 1
-34.194773 19.316802 -32.062305 50.699238 -0.514215 2.255447 0.029476 -0.007109 678096.000000 0 0 1
-33.405973 18.760802 -33.099315 50.630933 -0.511706 2.283309 0.040342 -0.013205 -24200.400000 0 0 1
-32.513173 17.588202 -32.646055 49.317504 -0.495873 2.294223 0.029619 -0.007103 -189697.000000 0 0 1
-33.309473 16.463002 -32.389875 49.291535 -0.459032 2.287772 0.037881 -0.002222 690389.000000 0 0 1
-32.579073 15.208302 -32.501515 48.466864 -0.436746 2.305804 0.038283 -0.003525 835375.000000 0 0 1
-33.641573 14.118702 -32.797855 49.059071 -0.397356 2.303038 0.048478 0.000587 627387.000000 0 0 1
-32.980473 12.888402 -32.985865 48.393076 -0.372541 2.320776 0.061999 -0.010708 113127.000000 0 0 1
-33.986973 11.945402 -33.226395 49.008165 -0.337984 2.315803 0.075743 -0.012279 -11676.800000 0 0 1
-33.515673 10.448402 -33.307075 48.392465 -0.302198 2.329898 0.083618 -0.017924 97958.800000 0 0 1
-32.670073 10.069402 33.283502 47.712870 -0.298976 0.798783 0.064072 -0.018779 43185.600000 0 0 1
-33.018173 8.772402 32.822131 47.375595 -0.259685 0.805422 0.109013 -0.033536 -618190.000000 0 0 1
-31.990973 8.030202 32.039469 45.982975 -0.245933 0.799914 0.124514 -0.030379 -476658.000000 0 0 1
-30.749173 7.863302 32.686371 45.560311 -0.250359 0.770689 0.066614 -0.018283 -118373.000000 0 0 1
-29.857773 7.049302 31.947079 44.292156 -0.231850 0.765147 0.074581 -0.018382 -189668.000000 0 0 1
22.058943 -3.747544 -31.496035 38.634716 -0.168281 2.523916 0.065678 -0.033831 -660756.000000 0 0 1
23.329443 -4.059944 -32.005925 39.813632 -0.172301 2.504609 0.059520 -0.031266 -229344.000000 0 0 1
24.285943 -3.074344 -31.620335 39.988801 -0.125920 2.482797 0.069678 -0.034899 -159214.000000 0 0 1
24.195143 -1.601744 -32.063275 40.199803 -0.066105 2.494099 0.055598 -0.026591 -1697920.000000 0 0 1
25.079743 -0.722844 -31.501505 40.272333 -0.028814 2.469005 0.075117 -0.028511 -455779.000000 0 0 1
24.884843 0.655256 -31.862355 40.433828 0.026325 2.478370 0.055809 -0.025886 -287342.000000 0 0 1
25.915443 1.657356 -31.291095 40.663124 0.063865 2.448886 0.071857 -0.026453 88593.200000 0 0 1
27.196143 1.492956 -31.876735 41.928336 0.054841 2.434521 0.086113 -0.038890 -714096.000000 0 0 1
28.123543 2.255656 -31.189915 42.057490 0.080034 2.406251 0.101658 -0.040466 -618283.000000 0 0 1
29.563843 1.823756 -31.516005 43.250497 0.061611 2.387197 0.094437 -0.047428 -74900.500000 0 0 1
30.135543 2.378656 -32.693255 44.527046 0.078769 2.395333 0.089427 -0.043407 84713.300000 0 0 1
30.197043 1.408156 -33.751485 45.310121 0.046598 2.411180 0.073579 -0.038152 23236.300000 0 0 1
30.992343 1.972456 32.710880 45.104518 0.063558 0.759437 0.078746 -0.045848 148320.000000 0 0 1
30.230343 2.916756 31.958764 44.087908 0.096187 0.759926 0.084206 -0.030040 397216.000000 0 0 1
30.297943 4.245956 32.409152 44.568448 0.139233 0.756596 0.082715 -0.028455 -885875.000000 0 0 1
29.407243 5.148656 31.626748 43.491904 0.173324 0.756581 0.082572 -0.018078 -613716.000000 0 0 1
29.522043 6.485156 32.004925 44.021852 0.216237 0.756819 0.107783 -0.022056 2603.970000 0 0 1
28.779643 7.315356 31.175685 43.054681 0.248914 0.761075 0.101444 -0.017816 -379440.000000 0 0 1
29.098343 8.812356 31.401615 43.708495 0.294067 0.769250 0.089972 -0.015676 1112920.000000 0 0 1
30.461243 9.177856 31.089555 44.482365 0.292646 0.796912 0.087881 -0.014445 926127.000000 0 0 1
30.770443 10.513856 31.252085 45.100489 0.329250 0.805233 0.087278 -0.014899 -167004.000000 0 0 1
32.107243 10.905556 30.617805 45.686499 0.327434 0.836356 0.092157 -0.004707 -1784040.000000 0 0 1
33.231443 10.440156 31.210505 46.769875 0.304401 0.840191 0.102704 -0.015407 -218780.000000 0 0 1
34.468743 11.006056 30.724395 47.468052 0.309073 0.866806 0.113558 -0.016929 873240.000000 0 0 1
34.784043 12.502356 30.835055 48.135633 0.345049 0.875534 0.122127 -0.016046 -974172.000000 0 0 1
35.138243 12.825056 32.161344 49.330824 0.349965 0.860640 0.121453 -0.012839 216126.000000 0 0 1
35.657743 14.120956 32.389282 50.199020 0.377065 0.869489 0.138944 -0.007763 111863.000000 0 0 1
34.697743 15.335156 32.149039 49.725859 0.416151 0.867775 0.123476 -0.015686 -856025.000000 0 0 1
34.311043 15.422256 30.818835 48.630178 0.422425 0.884419 0.111900 -0.025140 -29439.200000 0 0 1
33.312543 16.386456 30.611445 48.117585 0.457147 0.881259 0.091556 -0.016898 -186331.000000 0 0 1
31.891443 15.898656 30.960835 47.205981 0.462466 0.855466 0.084113 -0.011104 -1099940.000000 0 0 1
31.343243 14.989956 30.053725 45.938263 0.446098 0.857646 0.078624 -0.012552 1107580.000000 0 0 1
30.040743 14.532356 30.516525 45.220503 0.450567 0.830051 0.075453 -0.009690 1054800.000000 0 0 1
29.194243 13.941256 29.391825 43.709745 0.445514 0.833307 0.075929 -0.012038 -53510.200000 0 0 1
29.663543 12.697956 28.949675 43.350289 0.404465 0.839536 0.078089 -0.015461 571339.000000 0 0 1
28.618243 12.190756 28.107325 41.924218 0.402699 0.836006 0.072043 -0.026606 525693.000000 0 0 1
28.612543 10.632056 27.995855 41.418427 0.355775 0.828574 0.070915 -0.015347 -132463.000000 0 0 1
29.626343 10.132256 27.157055 41.447417 0.329532 0.856326 0.075707 -0.012213 42814.100000 0 0 1
29.482043 8.750156 27.142535 41.017963 0.288515 0.847682 0.080896 -0.006387 300558.000000 0 0 1
30.639143 8.031256 26.385455 41.224390 0.256357 0.876240 0.079120 -0.011461 53906.000000 0 0 1
30.806443 8.343756 25.017345 40.552715 0.264499 0.905987 0.066631 -0.002811 -94411.900000 0 0 1
31.919943 7.652856 24.519325 40.971285 0.235310 0.929230 0.071796 0.002397 -134252.000000 0 0 1
32.222343 7.840456 23.048905 40.385692 0.238685 0.963414 0.091725 0.007618 45155.600000 0 0 1
32.948343 9.036956 22.751795 41.047582 0.267693 0.983300 0.100380 -0.003541 674196.000000 0 0 1
32.129143 10.209456 22.444425 40.500210 0.307673 0.983418 0.095229 -0.012808 306669.000000 0 0 1
31.688643 10.340756 20.989725 39.391241 0.315429 1.008828 0.090781 0.009185 -335380.000000 0 0 1
32.720043 10.642556 20.111425 39.853916 0.314468 1.041845 0.111520 -0.009296 -153777.000000 0 0 1
32.352443 10.272856 18.750425 38.778738 0.307460 1.066121 0.120317 -0.021281 -706529.000000 0 0 1
33.271643 10.891056 17.695325 39.226800 0.316345 1.102796 0.151243 -0.051388 494340.000000 0 0 1
34.594543 10.395756 17.554325 40.162276 0.291918 1.118441 0.162511 -0.038296 798634.000000 0 0 1
35.515143 10.605556 18.631225 41.484042 0.290191 1.105019 0.161860 -0.026429 -478809.000000 0 0 1
36.923943 10.073156 18.307025 42.426326 0.266327 1.124640 0.204316 -0.027817 -278250.000000 0 0 1
36.948543 8.671456 18.067525 42.033610 0.230518 1.126486 0.185004 -0.019756 -266750.000000 0 0 1
-37.510873 8.315956 17.102525 42.056118 -0.218166 1.152002 0.201179 -0.019632 -777862.000000 0 0 1
-37.449373 6.798956 16.818125 41.611665 -0.179594 1.154727 0.201348 -0.022437 -106190.000000 0 0 1
36.719843 6.269356 16.278625 40.652740 0.169104 1.158809 0.182970 -0.020534 198085.000000 0 0 1
36.950243 5.004756 15.662525 40.443574 0.134627 1.173129 0.194724 -0.032254 -442582.000000 0 0 1
35.736843 4.066756 15.604725 39.206732 0.113310 1.161448 0.171830 -0.029433 -387242.000000 0 0 1
35.406943 3.467056 16.847025 39.363617 0.097609 1.128535 0.159818 -0.024611 681904.000000 0 0 1
34.052243 3.021956 16.801825 38.091846 0.088513 1.113987 0.136572 -0.023398 449200.000000 0 0 1
33.791743 2.111756 18.038925 38.363318 0.062412 1.081264 0.113639 -0.024080 -4140.280000 0 0 1
34.598543 0.941956 17.969125 38.997896 0.027219 1.091932 0.133913 -0.022731 261164.000000 0 0 1
34.349243 0.205356 19.112225 39.308902 0.005978 1.063054 0.114631 -0.011925 -184672.000000 0 0 1
35.298443 -0.982544 19.262525 40.224250 -0.027828 1.071420 0.106873 -0.018377 -127996.000000 0 0 1
34.973043 -1.860544 20.342225 40.501623 -0.053149 1.044589 0.109527 -0.007239 -196631.000000 0 0 1
35.819343 -2.965644 20.487925 41.371191 -0.082606 1.052706 0.091680 -0.005356 -553264.000000 0 0 1
35.401643 -3.959744 21.584125 41.651294 -0.111389 1.026039 0.093324 -0.009223 -200075.000000 0 0 1
35.636243 -3.466944 22.885955 42.493863 -0.096982 1.002056 0.101842 -0.023308 222336.000000 0 0 1
35.155343 -4.295044 23.892935 42.722568 -0.121571 0.977306 0.093103 -0.024565 -80954.000000 0 0 1
35.246643 -3.691244 25.274145 43.528537 -0.104346 0.951289 0.072893 -0.024159 246566.000000 0 0 1
34.539943 -4.393844 26.312435 43.642385 -0.126531 0.923653 0.077684 -0.020698 234541.000000 0 0 1
34.716043 -3.669944 27.559495 44.476936 -0.105322 0.902518 0.079475 -0.021423 -543581.000000 0 0 1
33.643543 -3.979644 28.585765 44.326871 -0.117741 0.869923 0.066762 -0.028654 -530638.000000 0 0 1
33.594843 -5.300744 29.022695 44.710493 -0.156494 0.864363 0.060942 -0.032335 -27657.000000 0 0 1
32.656943 -5.568644 30.050565 44.727197 -0.168895 0.834075 0.075836 -0.039172 -102886.000000 0 0 1
32.740543 -6.998844 30.538545 45.315888 -0.210597 0.831316 0.062419 -0.029921 65827.500000 0 0 1
33.928943 -7.291744 31.240055 46.693508 -0.211692 0.837873 0.046035 -0.032443 -207379.000000 0 0 1
34.222743 -8.676144 31.176575 47.100429 -0.248289 0.847423 0.034710 -0.020772 -495221.000000 0 0 1
35.644743 -9.055844 31.566985 48.466798 -0.248795 0.861485 0.048260 -0.019868 -416833.000000 0 0 1
35.859043 -8.907744 32.951903 49.508047 -0.243482 0.842517 0.060604 -0.022647 379188.000000 0 0 1
37.219043 -9.085144 33.341134 50.788071 -0.239417 0.854659 0.080022 -0.020440 130480.000000 0 0 1
37.350143 -9.477244 -32.802445 50.604859 -0.248496 2.276024 0.085472 -0.026537 -217462.000000 0 0 1
36.853643 -8.506144 -31.856345 49.450705 -0.226836 2.270779 0.083709 -0.027163 502918.000000 0 0 1
37.523943 -7.223244 -31.836715 49.737289 -0.190171 2.265422 0.093153 -0.034549 -59357.100000 0 0 1
37.049343 -6.202344 -30.795055 48.574255 -0.165870 2.257484 0.099882 -0.039643 -133775.000000 0 0 1
37.639143 -6.237744 -29.508805 48.232604 -0.164232 2.229133 0.084552 -0.024793 139528.000000 0 0 1
37.008443 -5.272244 -28.695865 47.126151 -0.141508 2.225490 0.107178 -0.037635 -102783.000000 0 0 1
37.565143 -5.261244 -27.273625 46.719067 -0.139151 2.194172 0.106763 -0.028259 170990.000000 0 0 1
-36.419073 -4.927044 -27.283145 45.771111 0.134471 2.209404 0.094552 -0.022814 -38433.100000 0 0 1
-36.110673 -4.558844 -25.968125 44.711377 0.125582 2.190501 0.103334 -0.015710 -422172.000000 0 0 1
-34.623473 -4.396144 -25.658205 43.318061 0.126294 2.204733 0.107654 -0.007212 -1254450.000000 0 0 1
-34.338173 -3.890644 -24.380865 42.292716 0.112823 2.185209 0.136131 -0.017160 492296.000000 0 0 1
-32.956973 -3.785144 -24.079765 40.991761 0.114350 2.198675 0.139055 -0.017620 774054.000000 0 0 1
-31.975973 -2.910544 -24.936665 40.654291 0.090773 2.231134 0.119920 -0.015054 -296269.000000 0 0 1
-31.622173 -3.378844 -26.212595 41.212602 0.106447 2.260143 0.112310 -0.012215 -272365.000000 0 0 1
-30.607373 -2.663444 -26.848405 40.801251 0.086801 2.288994 0.114009 -0.006099 55751.700000 0 0 1
-30.151973 -3.399844 -28.147665 41.388301 0.112283 2.318678 0.093303 -0.013464 342120.000000 0 0 1
-31.246873 -3.396344 -29.058945 42.805660 0.108269 2.317002 0.106590 -0.019036 474563.000000 0 0 1
-30.860073 -4.080644 -30.242745 43.400684 0.131468 2.341760 0.085816 -0.012283 -1276100.000000 0 0 1
-32.009173 -4.300744 -31.200915 44.906354 0.133560 2.338937 0.083238 -0.022892 -1267850.000000 0 0 1
-32.976773 -5.251744 -30.818705 45.440521 0.157930 2.316135 0.072932 -0.020501 9566.350000 0 0 1
-33.935973 -4.908144 -29.846275 45.459215 0.143634 2.287033 0.095440 -0.028290 -444274.000000 0 0 1
-35.065073 -3.978344 -30.371335 46.559688 0.112973 2.281424 0.134402 -0.032539 -914061.000000 0 0 1
-34.742873 -2.693644 -30.884305 46.563540 0.077376 2.295979 0.144995 -0.021914 -337649.000000 0 0 1
-34.158473 -1.804144 -29.980125 45.484768 0.052768 2.290450 0.145200 -0.015911 -300112.000000 0 0 1
-34.074473 -0.422744 -30.599245 45.799151 0.012406 2.302473 0.136734 -0.015715 -45342.800000 0 0 1
-35.320773 0.174956 -30.873135 46.912025 -0.004953 2.289098 0.168282 -0.018293 -311996.000000 0 0 1
-35.220873 1.412856 -31.527225 47.291352 -0.040093 2.300514 0.170548 -0.012351 323527.000000 0 0 1
-36.531073 2.174856 -31.920635 48.561057 -0.059464 2.288066 0.142509 -0.016908 440985.000000 0 0 1
-37.087573 1.750856 -33.167795 49.786104 -0.047174 2.299906 0.137745 -0.017913 826628.000000 0 0 1
37.077343 2.514656 -33.460765 50.006756 0.067718 2.303827 0.108435 -0.016738 714515.000000 0 0 1
36.287043 2.060856 32.950712 49.058598 0.056732 0.834349 0.077716 -0.014904 -34730.400000 0 0 1
36.789143 2.432456 31.666563 48.601739 0.066023 0.861168 0.098147 -0.017387 219865.000000 0 0 1
-37.610573 1.526456 31.162955 48.867320 -0.040564 0.879281 0.088579 -0.014376 -97523.600000 0 0 1
-37.326073 1.759856 29.666725 47.712130 -0.047113 0.899776 0.108252 -0.015283 90724.200000 0 0 1
-36.632573 3.009256 29.525355 47.146024 -0.081963 0.894058 0.125423 -0.023001 269306.000000 0 0 1
-36.094373 3.063856 28.200085 45.906816 -0.084682 0.909311 0.123505 -0.017439 210725.000000 0 0 1
-35.639773 4.502656 27.855895 45.457873 -0.125672 0.911217 0.125633 -0.013439 -72879.300000 0 0 1
-34.982973 4.622156 26.634355 44.210424 -0.131365 0.924235 0.131560 -0.006503 76.559700 0 0 1
-34.516173 5.923456 26.400625 43.857115 -0.169958 0.924832 0.130135 -0.006779 -35313.000000 0 0 1
-33.669673 5.959156 25.105925 42.420111 -0.175175 0.937457 0.124991 0.000540 872111.000000 0 0 1
-32.478773 5.135956 25.019345 41.318474 -0.156834 0.920372 0.110410 0.004846 1082700.000000 0 0 1
-31.550673 5.505756 24.010955 40.028543 -0.172766 0.927488 0.106046 -0.000276 71738.300000 0 0 1
-31.846673 5.345256 22.520925 39.369714 -0.166293 0.961809 0.138662 -0.010355 -315733.000000 0 0 1
-31.905373 3.990756 22.201225 39.073947 -0.124435 0.966498 0.114410 -0.000881 120288.000000 0 0 1
-32.739473 3.768556 21.067325 39.114029 -0.114603 1.002006 0.146697 -0.011838 -32392.300000 0 0 1
-32.835273 2.339956 20.473225 38.765751 -0.071143 1.014403 0.128611 0.004094 406090.000000 0 0 1
-31.719273 1.670656 19.856925 37.459322 -0.052621 1.012086 0.133772 -0.002711 392314.000000 0 0 1
-31.387673 2.281856 18.577025 36.544476 -0.072571 1.037540 0.138012 -0.011857 -4323.350000 0 0 1
-30.105973 1.649156 17.986625 35.108517 -0.054724 1.032918 0.130814 -0.019005 -330739.000000 0 0 1
-30.187073 0.291456 17.567725 34.928058 -0.009655 1.043766 0.139355 -0.013130 252619.000000 0 0 1
-28.972873 -0.423044 17.329025 33.762426 0.014600 1.031813 0.144548 -0.019375 272566.000000 0 0 1
-28.487773 -0.366444 15.884025 32.618855 0.012862 1.062192 0.160357 -0.016491 -172903.000000 0 0 1
-27.989873 0.904156 15.554525 32.034258 -0.032292 1.063794 0.165725 -0.023159 121038.000000 0 0 1
-28.190473 1.156456 14.218425 31.594363 -0.041000 1.103997 0.185351 -0.030483 103555.000000 0 0 1
-27.547273 2.510456 13.724425 30.879029 -0.090882 1.110227 0.174849 -0.033568 303411.000000 0 0 1
-26.135673 2.445756 13.723125 29.620589 -0.093307 1.089085 0.150760 -0.043596 -17445.900000 0 0 1
-25.536373 3.623656 13.228325 28.986648 -0.140961 1.096897 0.145581 -0.045961 -67153.200000 0 0 1
-24.022673 3.458456 13.028325 27.546088 -0.142984 1.078144 0.122160 -0.044183 -5711.670000 0 0 1
-23.208473 3.563556 14.195225 27.437867 -0.152356 1.027034 0.103014 -0.035740 349519.000000 0 0 1
-21.857873 3.820156 13.872625 26.168873 -0.173025 1.012055 0.084328 -0.034305 174805.000000 0 0 1
-21.047573 4.437456 15.063325 26.260143 -0.207787 0.959879 0.076654 -0.038690 -86242.800000 0 0 1
-21.492673 5.750256 15.403525 27.060469 -0.261422 0.965232 0.066814 -0.026914 223263.000000 0 0 1
-20.707773 6.329656 16.384125 27.153562 -0.296647 0.923054 0.057945 -0.018595 -413834.000000 0 0 1
-20.925473 7.868556 16.445925 27.753523 -0.359671 0.936550 0.052977 -0.022965 -450529.000000 0 0 1
-20.434573 8.569456 15.357225 26.960187 -0.397084 0.964746 0.058880 -0.024556 281690.000000 0 0 1
-20.724273 9.989356 15.428825 27.700746 -0.449154 0.980048 0.054352 -0.018923 -143547.000000 0 0 1
-20.069073 10.814356 16.609425 28.206222 -0.494248 0.941153 0.071752 -0.020820 -279327.000000 0 0 1
-20.445973 10.455556 17.929025 29.134282 -0.472706 0.907912 0.071972 -0.026579 294799.000000 0 0 1
-19.917973 11.367656 18.847125 29.684396 -0.518614 0.882895 0.091290 -0.013454 -163937.000000 0 0 1
-12.873457 -32.868490 -20.287865 40.714383 1.197495 2.092430 0.144239 -0.050327 324354.000000 0 0 1
-13.778857 -33.645290 -19.475765 41.245216 1.182099 2.062575 0.177951 -0.050072 836136.000000 0 0 1
-15.005857 -32.893290 -19.375765 41.019076 1.142800 2.062763 0.169158 -0.058853 560618.000000 0 0 1
-16.113357 -33.681890 -18.652465 41.737566 1.124579 2.034092 0.165555 -0.051110 -993983.000000 0 0 1
-16.704857 33.009256 -19.410265 41.778243 -1.102308 2.053982 0.156227 -0.055686 411287.000000 0 0 1
-17.571257 32.074456 -18.750765 41.098796 -1.069623 2.044557 0.167385 -0.047472 900810.000000 0 0 1
-18.932357 32.621956 -18.214365 41.885430 -1.044946 2.020681 0.145279 -0.038113 -305975.000000 0 0 1
-18.840857 33.494056 -17.082865 42.055368 -1.058397 1.989087 0.162606 -0.037137 244855.000000 0 0 1
-20.101157 33.837656 -16.525165 42.686351 -1.034766 1.968313 0.124590 -0.032000 104023.000000 0 0 1
-20.574857 33.250056 -15.199965 41.951519 -1.016674 1.941554 0.130792 -0.036544 -366057.000000 0 0 1
-20.718657 31.871956 -15.183665 40.934436 -0.994380 1.950803 0.128306 -0.037979 34150.500000 0 0 1
-21.093857 31.355956 -13.910165 40.269585 -0.978613 1.923489 0.143011 -0.034910 193852.000000 0 0 1
-21.156457 29.805456 -13.776065 39.060733 -0.953511 1.931233 0.143456 -0.044679 1188750.000000 0 0 1
-19.864357 29.287556 -13.363065 37.827571 -0.974816 1.931853 0.162322 -0.060798 1024310.000000 0 0 1
-19.884257 27.884556 -13.359665 36.761567 -0.951338 1.942726 0.172403 -0.071787 -996525.000000 0 0 1
-18.588657 27.260656 -12.911365 35.431411 -0.972331 1.943790 0.179194 -0.063759 -1081950.000000 0 0 1
-17.519257 27.582956 -13.748965 35.451063 -1.004933 1.969072 0.187541 -0.066355 -782029.000000 0 0 1
-16.404057 26.832556 -13.332565 34.158988 -1.022074 1.971764 0.181374 -0.075115 67126.900000 0 0 1
-15.069957 27.242056 -14.012065 34.140463 -1.065509 1.993715 0.157333 -0.069643 65271.800000 0 0 1
-14.962557 26.960856 -15.388265 34.461059 -1.064143 2.033692 0.155181 -0.067623 -723590.000000 0 0 1
-13.852257 27.638256 -15.842465 34.738191 -1.106190 2.044352 0.170567 -0.064502 -668712.000000 0 0 1
-13.970257 27.833756 -17.333265 35.641663 -1.105616 2.078670 0.189038 -0.081139 38400.100000 0 0 1
-13.572157 26.721256 -18.046565 34.984389 -1.100836 2.112791 0.161437 -0.068612 17317.800000 0 0 1
-13.911357 26.823656 -19.421165 35.919577 -1.092362 2.142047 0.141593 -0.065343 -10783.200000 0 0 1
-13.203457 25.797256 -20.307365 35.386703 -1.097740 2.182020 0.106746 -0.041136 1221360.000000 0 0 1
-11.856857 26.108856 -20.751665 35.396173 -1.144512 2.197241 0.080672 -0.033722 847775.000000 0 0 1
-11.180957 24.975656 -21.190365 34.609663 -1.149878 2.229721 0.079267 -0.039523 -101157.000000 0 0 1
-9.915457 25.291156 -22.002165 34.957891 -1.197160 2.251565 0.097057 -0.036561 -151013.000000 0 0 1
-10.133057 25.889156 -23.310865 36.281175 -1.197724 2.268560 0.077643 -0.030785 -111503.000000 0 0 1
-8.900357 26.034556 -23.957365 36.482459 -1.241385 2.287207 0.058565 -0.032979 -573297.000000 0 0 1
-9.153057 26.778256 -25.310525 37.966777 -1.241437 2.300501 0.049431 -0.023638 -155558.000000 0 0 1
-9.937957 26.033156 -26.198725 38.247371 -1.206128 2.325374 0.055789 -0.027651 -381354.000000 0 0 1
-10.393257 26.840756 -27.219095 39.614708 -1.201356 2.328280 0.069876 -0.019771 -15011.300000 0 0 1
-11.697557 26.317256 -27.879925 40.083925 -1.152540 2.339966 0.061846 -0.019671 434206.000000 0 0 1
-12.212457 27.143256 -28.977945 41.540604 -1.148004 2.342812 0.077856 -0.011664 181346.000000 0 0 1
-13.518657 26.680556 -29.292175 41.864516 -1.101814 2.345760 0.072391 -0.007718 348020.000000 0 0 1
-13.903257 27.077756 -30.761835 43.275812 -1.096441 2.361477 0.059652 -0.011108 -174397.000000 0 0 1
-13.145857 26.391156 -31.727515 43.312145 -1.108657 2.392830 0.071696 -0.016652 -8998.780000 0 0 1
-13.162357 24.949156 -31.784625 42.496711 -1.085339 2.415737 0.060786 -0.019745 7738.230000 0 0 1
-12.366157 24.335956 -32.960425 42.796615 -1.100655 2.449895 0.049060 -0.013098 351667.000000 0 0 1
-13.043257 24.518156 33.480057 43.499204 -1.081890 0.692471 0.047513 -0.008784 449902.000000 0 0 1
-12.326957 23.682856 32.542731 42.093478 -1.090883 0.687072 0.038803 -0.010119 157836.000000 0 0 1
-12.795157 23.763256 31.048615 41.139092 -1.076869 0.715565 0.051512 -0.001640 -170946.000000 0 0 1
-14.041857 23.118456 30.862325 41.038029 -1.024963 0.719641 0.059438 -0.011328 49899.500000 0 0 1
-14.239257 22.947956 29.453835 39.961150 -1.015438 0.742084 0.076090 -0.007845 -92651.200000 0 0 1
-15.495257 22.087556 29.212325 39.765853 -0.959039 0.745707 0.065287 -0.008821 -13727.700000 0 0 1
-15.329957 20.723856 29.544385 39.209137 -0.933904 0.717415 0.043186 -0.014069 -947747.000000 0 0 1
-16.484157 19.987356 29.475425 39.243120 -0.881157 0.721073 0.047270 -0.013641 -864563.000000 0 0 1
-16.224057 18.477356 29.712205 38.567445 -0.850241 0.691334 0.038683 -0.023309 14204.800000 0 0 1
-15.802757 17.819056 28.492445 37.135768 -0.845296 0.696253 0.045087 -0.022800 38277.200000 0 0 1
-15.380457 16.538356 28.710825 36.529264 -0.821659 0.666536 0.039129 -0.033173 -137102.000000 0 0 1
-14.908357 15.812456 27.388455 34.963128 -0.814819 0.670755 0.046930 -0.026169 142023.000000 0 0 1
-13.821957 16.572656 26.887165 34.476355 -0.875652 0.676334 0.027977 -0.024114 -7138.200000 0 0 1
-13.055657 15.730456 25.997015 33.071774 -0.878052 0.666357 0.025642 -0.018998 9071.440000 0 0 1
-12.033457 16.586056 25.240195 32.511056 -0.943150 0.681931 0.039679 -0.016646 -245619.000000 0 0 1
-12.545557 17.592056 24.353145 32.556829 -0.951307 0.725723 0.035885 -0.011744 -184598.000000 0 0 1
-13.028457 18.788056 24.957555 33.846880 -0.964484 0.741633 0.034584 -0.007271 579865.000000 0 0 1
-11.977457 19.725856 25.707175 34.546023 -1.025103 0.731546 0.041386 -0.014641 691745.000000 0 0 1
-11.520057 19.366656 26.991955 35.161694 -1.034180 0.695627 0.043023 -0.018782 -373352.000000 0 0 1
-12.429557 19.748456 27.981855 36.434593 -1.009044 0.695080 0.048553 -0.020528 -420831.000000 0 0 1
-12.116457 19.295356 29.389795 37.187086 -1.010081 0.659461 0.045526 -0.022696 44239.500000 0 0 1
-11.006057 20.022656 29.891115 37.623381 -1.068199 0.652642 0.045545 -0.021004 67478.900000 0 0 1
-10.882657 19.859656 31.260595 38.601333 -1.069507 0.626931 0.032592 -0.021395 -85057.100000 0 0 1
-9.786757 20.786556 31.844188 39.267210 -1.130763 0.625003 0.018904 -0.022811 1286750.000000 0 0 1
-8.465057 20.382556 31.404665 38.384355 -1.177163 0.612587 0.024437 -0.022409 1100010.000000 0 0 1
-7.417657 21.187356 31.926076 39.028195 -1.234034 0.612826 0.031312 -0.022616 409044.000000 0 0 1
-6.265857 20.405656 32.572866 38.944106 -1.272871 0.580114 0.046019 -0.020914 -80998.400000 0 0 1
-6.721057 19.864956 -33.821635 39.795629 -1.244549 2.586560 0.032066 -0.027473 1010420.000000 0 0 1
-5.689457 19.190156 -33.052325 38.640500 -1.282574 2.597081 0.024260 -0.025555 701396.000000 0 0 1
-4.921657 17.973056 -33.595255 38.417374 -1.303513 2.635161 0.021326 -0.024531 -28100.700000 0 0 1
-5.724157 16.831656 -33.772185 38.165837 -1.242984 2.657033 0.015827 -0.023180 299454.000000 0 0 1
-5.150957 16.069256 32.797189 36.883722 -1.260597 0.475192 0.035922 -0.017295 354398.000000 0 0 1
-5.781057 14.653756 32.693657 36.290886 -1.195031 0.449009 0.055903 -0.028506 -224809.000000 0 0 1
-5.075257 13.673656 33.422030 36.465863 -1.215387 0.411482 0.060621 -0.028576 -85866.300000 0 0 1
-5.624257 12.401656 33.347599 36.020767 -1.145029 0.387681 0.071777 -0.031300 -769641.000000 0 0 1
-4.598257 11.397356 33.786965 35.952784 -1.187320 0.348871 0.081524 -0.034881 -433790.000000 0 0 1
-4.475557 11.178256 -32.471275 34.631889 -1.189962 2.786493 0.108417 -0.052722 73018.900000 0 0 1
-3.486257 10.174256 -32.262245 34.007675 -1.240680 2.819817 0.126659 -0.046192 -56667.900000 0 0 1
-3.365957 9.481356 -30.885415 32.482836 -1.229667 2.826677 0.142473 -0.048952 32705.000000 0 0 1
-4.399057 8.568856 -30.577385 32.058594 -1.096504 2.836426 0.147751 -0.045758 123992.000000 0 0 1
-5.510657 9.171556 -29.923745 31.779165 -1.029758 2.798192 0.165896 -0.060481 13578.900000 0 0 1
-6.546557 8.153556 -29.435775 31.237841 -0.894285 2.800266 0.172679 -0.054886 -298155.000000 0 0 1
-5.931657 7.190856 -28.633495 30.112622 -0.881062 2.826863 0.172050 -0.039001 -59052.000000 0 0 1
-6.838157 6.178456 -28.278165 29.742030 -0.734760 2.826544 0.183974 -0.058332 -150360.000000 0 0 1
-6.448057 5.510256 -26.927755 28.231974 -0.707136 2.836448 0.166694 -0.054198 -28675.300000 0 0 1
-6.619757 6.395756 -25.800175 27.392990 -0.768190 2.798900 0.133195 -0.038087 -76892.300000 0 0 1
-5.640057 7.367856 -25.535705 27.169243 -0.917452 2.793062 0.119391 -0.035684 -169055.000000 0 0 1
-6.092857 8.226556 -24.278965 26.348952 -0.933317 2.742566 0.076168 -0.015628 289774.000000 0 0 1
-6.248957 7.359256 -23.172265 25.103027 -0.866808 2.746826 0.059720 -0.009839 231875.000000 0 0 1
-7.534457 7.693256 -22.675665 25.102590 -0.795826 2.698243 0.069824 -0.003516 92360.300000 0 0 1
-7.560357 7.796156 -21.135965 23.762745 -0.800752 2.666954 0.055290 -0.008893 -114978.000000 0 1 0
-6.898657 8.959156 -20.668465 23.559359 -0.914610 2.640989 0.030470 -0.003971 -68508.500000 0 1 0
-6.965157 9.182856 -19.231265 22.420522 -0.921880 2.601678 0.024281 -0.005219 -264302.000000 0 1 0
-8.241857 9.504056 -18.417265 22.303608 -0.856405 2.542332 0.027503 -0.000985 -376234.000000 0 1 0
-7.968457 9.375856 -17.034665 21.013872 -0.866365 2.516039 0.017133 -0.007844 -17751.300000 0 1 0
-9.073157 9.600456 -16.197665 20.901083 -0.813628 2.457460 0.024029 -0.014975 -12323.400000 0 1 0
-9.730957 11.004656 -16.121065 21.810152 -0.846747 2.402610 0.050236 -0.026199 230357.000000 0 1 0
-8.761057 11.957256 -15.651365 21.556839 -0.938461 2.383358 0.028670 -0.028025 581628.000000 0 1 0
-9.131557 13.312456 -15.976065 22.712144 -0.969568 2.350987 0.053935 -0.027510 -346123.000000 0 1 0
-7.995957 14.274056 -15.689565 22.668182 -1.060175 2.335247 0.055976 -0.026646 -481404.000000 0 1 0
-7.479057 14.445056 -14.366465 21.702333 -1.093043 2.294251 0.052107 -0.022147 303832.000000 0 1 0
-8.384957 14.915756 -13.400565 21.733900 -1.058669 2.235180 0.048560 -0.038408 -690342.000000 0 1 0
-7.583757 15.701556 -12.365565 21.376610 -1.120846 2.187639 0.034474 -0.028654 -81010.800000 0 1 0
-7.174457 17.017356 -12.720365 22.424784 -1.171812 2.173954 0.051249 -0.028561 849586.000000 0 1 0
-6.114457 17.099956 -13.721465 22.761232 -1.227392 2.217857 0.065775 -0.025881 382759.000000 0 1 0
-5.960857 18.546856 -14.213365 24.115087 -1.259829 2.201109 0.098455 -0.023190 222810.000000 0 1 0
-5.533957 19.505556 -13.238865 24.214850 -1.294349 2.149244 0.101550 -0.028652 -17521.400000 0 1 0
-5.811757 20.840956 -13.668065 25.591756 -1.298843 2.134216 0.118586 -0.022088 59901.100000 0 0 1
-5.241357 21.928556 -12.701565 25.877851 -1.336178 2.083836 0.111825 -0.018815 -530309.000000 0 0 1
-5.334057 23.337356 -13.039165 27.259937 -1.346093 2.069545 0.101356 -0.019046 715575.000000 0 0 1
-6.623157 23.976856 -13.125165 28.125181 -1.301286 2.056318 0.090581 -0.016779 992889.000000 0 0 1
-7.630357 23.906656 -11.942865 27.791772 -1.261844 2.014986 0.053664 -0.015024 -26758.400000 0 0 1
-8.103457 22.599856 -11.619565 26.672716 -1.226514 2.021540 0.057165 -0.012972 -51671.500000 0 0 1
-8.645557 22.390456 -10.273965 26.108093 -1.202306 1.975250 0.067076 -0.017343 339697.000000 0 0 1
-7.782657 22.720256 -8.996565 25.646013 -1.240780 1.929219 0.067389 -0.017457 51609.800000 0 0 1
-7.645657 24.104856 -8.850565 26.792399 -1.263651 1.907459 0.065479 -0.009784 60510.900000 0 0 1
-7.071557 24.413356 -7.572165 26.520870 -1.288853 1.860342 0.065416 -0.018239 89971.000000 0 0 1
-7.083357 25.902256 -7.145965 27.787868 -1.303858 1.830880 0.075554 -0.009995 -70435.500000 0 0 1
-6.387857 26.858056 -7.942165 28.726954 -1.337297 1.850916 0.065213 -0.013442 -62607.000000 0 0 1
-6.575257 26.885356 -9.385765 29.225827 -1.330938 1.897736 0.068450 -0.006899 -91723.200000 0 0 1
-5.907057 28.082956 -10.098265 30.422372 -1.363476 1.909151 0.072096 -0.002546 294328.000000 0 0 1
-6.603957 29.341456 -10.027265 31.702986 -1.349413 1.892610 0.071453 -0.006536 315296.000000 0 0 1
-7.530357 29.535556 -11.099465 32.438457 -1.321156 1.920022 0.076961 -0.007311 -75229.400000 0 0 1
-8.575957 30.621556 -10.869665 33.606195 -1.297729 1.900161 0.080450 -0.014294 177423.000000 0 0 1
-9.647457 30.140156 -10.028965 33.197629 -1.261015 1.877690 0.084454 -0.014001 305829.000000 0 0 1
-10.585557 31.208256 -9.911765 34.412968 -1.243783 1.862959 0.069433 -0.023257 632721.000000 0 0 1
-11.723057 30.856456 -8.876765 34.181105 -1.207717 1.833506 0.090977 -0.021665 1219750.000000 0 0 1
-12.723257 29.951656 -9.418265 33.877525 -1.169101 1.852517 0.107540 -0.036116 142742.000000 0 0 1
-13.732457 29.639456 -8.504865 33.755155 -1.136924 1.825499 0.114015 -0.029794 -23179.500000 0 0 1
-14.745557 28.610856 -9.034165 33.430954 -1.094918 1.844432 0.129301 -0.043706 -333627.000000 0 0 1
-14.370257 27.252756 -8.992965 32.095022 -1.085551 1.854797 0.116473 -0.037010 268522.000000 0 0 1
-15.422557 26.425356 -9.500365 32.037660 -1.042503 1.871861 0.155129 -0.044624 392862.000000 0 0 1
-15.520357 25.051156 -8.784865 30.750866 -1.016128 1.860511 0.144921 -0.044391 364905.000000 0 0 1
-14.561357 24.117856 -9.303565 29.669183 -1.027618 1.889754 0.130520 -0.036753 518077.000000 0 0 1
-14.745057 22.842156 -8.716865 28.551086 -0.997577 1.881058 0.133683 -0.035520 614047.000000 0 0 1
-13.605657 21.827456 -9.129465 27.292836 -1.013400 1.911871 0.117376 -0.028179 472542.000000 0 0 1
-13.771357 21.501756 -10.470965 27.597407 -1.001146 1.959964 0.111721 -0.025673 226813.000000 0 0 1
-13.118357 20.276256 -10.722265 26.423187 -0.996546 1.988639 0.104254 -0.024933 -243435.000000 0 0 1
-13.220257 19.822356 -12.179465 26.758931 -0.982607 2.043343 0.109195 -0.017227 197246.000000 0 0 1
-14.549957 19.623056 -12.633665 27.502274 -0.932775 2.048080 0.128901 -0.012378 98181.800000 0 0 1
-14.637257 19.227356 -13.982865 27.918829 -0.920120 2.095365 0.119795 -0.002924 481035.000000 0 0 1
-16.103857 19.095956 -14.491365 28.878875 -0.870198 2.096473 0.128161 -0.009949 489122.000000 0 0 1
-16.776157 20.323256 -14.681665 30.166629 -0.880719 2.079088 0.139435 -0.023128 -487361.000000 0 0 1
-18.138557 20.046056 -14.814465 30.827261 -0.835311 2.072094 0.146685 -0.020202 -303670.000000 0 0 1
-19.080757 21.099656 -15.485765 32.389500 -0.835602 2.069299 0.149529 -0.026658 -14381.500000 0 0 1
-19.736157 21.918356 -14.582165 32.902428 -0.837738 2.029955 0.145816 -0.056370 -192049.000000 0 0 1
-20.331957 22.921656 -15.335165 34.263072 -0.845199 2.034844 0.152311 -0.045263 -297100.000000 0 0 1
-21.032757 24.009456 -14.498065 35.057449 -0.851389 1.997148 0.148864 -0.044824 252815.000000 0 0 1
-22.321057 23.643256 -14.014065 35.406598 -0.814156 1.977739 0.187826 -0.050884 303629.000000 0 0 1
-22.839657 24.650756 -13.190365 36.101183 -0.823516 1.944829 0.187411 -0.064322 34254.400000 0 0 1
-26.334427 -0.376744 3.314435 26.544858 0.014305 1.445608 0.185713 -0.058540 -184348.000000 0 0 1
-26.784427 0.089156 4.555235 27.169167 -0.003329 1.402339 0.181558 -0.053610 1430460.000000 0 0 1
-28.181237 -0.259344 4.776735 28.584377 0.009202 1.402899 0.197388 -0.055245 1211800.000000 0 0 1
-28.663487 0.299356 6.065235 29.299696 -0.010443 1.362282 0.204884 -0.047836 -387667.000000 0 0 1
-28.782807 1.680656 5.878535 29.425019 -0.058325 1.369663 0.216532 -0.051498 116437.000000 0 0 1
-29.364097 2.300156 7.010035 30.276749 -0.078173 1.337144 0.242121 -0.044324 -23620.800000 0 0 1
-28.359227 2.960956 7.994435 29.612903 -0.104032 1.297440 0.244012 -0.045098 49349.500000 0 0 1
-27.700887 2.022156 8.840935 29.147734 -0.072870 1.262627 0.213430 -0.049317 -149106.000000 0 0 1
-26.761867 2.594356 9.668435 28.572834 -0.096640 1.225603 0.195874 -0.050567 -854829.000000 0 0 1
-25.878307 1.474756 10.208235 27.858029 -0.056927 1.195619 0.174616 -0.047786 -576759.000000 0 0 1
-24.874057 0.906456 9.391035 26.603231 -0.036426 1.210017 0.174679 -0.041513 398732.000000 0 0 1
-25.225617 -0.346344 8.821735 26.725919 0.013729 1.234406 0.156750 -0.039260 -260941.000000 0 0 1
-24.096457 -1.061044 8.038635 25.424097 0.044005 1.249094 0.145885 -0.037878 60482.800000 0 0 1
-23.064657 -1.506844 8.885335 24.762839 0.065239 1.203796 0.136859 -0.052496 -139031.000000 0 1 0
-21.969057 -2.089944 8.239035 23.556083 0.094846 1.213479 0.151685 -0.042447 111873.000000 0 1 0
-20.739157 -2.259544 9.172235 22.789210 0.108523 1.156570 0.126488 -0.026926 458866.000000 0 1 0
-19.995557 -1.094844 9.546635 22.184662 0.054700 1.125943 0.107154 -0.026558 1234200.000000 0 1 0
-20.646857 -0.505144 10.692035 23.256558 0.024461 1.093091 0.118618 -0.028072 35261.100000 0 1 0
-20.163357 0.979356 10.924435 22.953505 -0.048533 1.074767 0.084602 -0.024539 -61377.300000 0 1 0
-20.578557 1.961556 9.953235 22.943226 -0.095033 1.122068 0.090964 -0.020656 1086210.000000 0 1 0
-21.963257 2.301656 9.832635 24.173601 -0.104415 1.151902 0.116660 -0.035688 205133.000000 0 1 0
-22.365157 3.712956 9.399635 24.542605 -0.164515 1.177763 0.104561 -0.037979 -389578.000000 0 1 0
-22.044557 4.560156 10.446835 24.817210 -0.203984 1.136303 0.076676 -0.039039 531108.000000 0 1 0
-22.180957 5.986756 10.124435 25.106579 -0.263623 1.155722 0.049980 -0.031419 -238812.000000 0 0 1
-22.266957 6.927056 11.349435 25.934748 -0.301601 1.117852 0.052353 -0.040548 -420712.000000 0 0 1
-23.468857 6.693356 12.018435 27.203512 -0.277826 1.113195 0.075092 -0.040537 -88144.000000 0 0 1
-23.663157 7.648756 13.026735 28.073908 -0.312635 1.088273 0.099731 -0.034888 -582931.000000 0 0 1
-24.692257 7.244856 14.041835 29.314990 -0.285396 1.071283 0.120501 -0.037908 -511171.000000 0 0 1
-26.025317 7.338256 13.577335 30.257415 -0.274831 1.105455 0.143789 -0.042344 -64543.200000 0 0 1
-26.856127 6.821856 14.600135 31.320173 -0.248754 1.085854 0.149916 -0.042716 -501635.000000 0 0 1
-28.320217 6.764756 14.160435 32.377686 -0.234473 1.118145 0.176261 -0.038570 -572255.000000 0 0 1
-28.616497 5.724356 13.291435 32.067654 -0.197431 1.143424 0.189773 -0.030081 475072.000000 0 0 1
-29.907817 5.927456 12.719035 33.036134 -0.195655 1.175584 0.226333 -0.029435 340520.000000 0 0 1
-30.280717 4.819856 11.695735 32.816811 -0.157848 1.206390 0.231781 -0.031540 -104800.000000 0 0 1
-30.691517 3.537656 12.260435 33.238570 -0.114759 1.193012 0.238764 -0.036316 302023.000000 0 0 1
-31.167287 2.792756 11.195835 33.234711 -0.089367 1.227204 0.213218 -0.028515 362117.000000 0 0 1
-32.407777 1.883856 11.519535 34.445793 -0.058064 1.229801 0.180131 -0.020379 712829.000000 0 0 1
-32.049287 0.762356 12.358135 34.357845 -0.023783 1.202862 0.163633 -0.019148 190126.000000 0 0 1
-33.201697 0.433056 13.104235 35.696796 -0.013042 1.194909 0.150902 -0.015844 241477.000000 0 0 1
-33.074667 -0.745744 14.108035 35.965628 0.022543 1.167704 0.148156 -0.020452 -16852.900000 0 0 1
-32.969567 -2.019744 13.514035 35.688946 0.061184 1.182446 0.144108 -0.014498 146688.000000 0 0 1
-33.333237 -2.996644 14.466435 36.460421 0.089659 1.162800 0.136347 -0.010940 -10580.600000 0 0 1
-33.203827 -4.483044 13.996235 36.310968 0.134204 1.175096 0.135069 -0.005315 388993.000000 0 0 1
-34.255383 -4.817744 13.080735 36.983071 0.139725 1.209278 0.121634 -0.016976 426738.000000 0 0 1
-34.210388 -6.147944 12.627335 36.981042 0.177812 1.222333 0.140503 -0.008827 447436.000000 0 0 1
-35.565820 -6.443844 11.895735 38.052059 0.179236 1.252849 0.135976 -0.002026 1388680.000000 0 0 1
-36.795657 -6.449044 12.618335 39.430102 0.173504 1.245048 0.111475 -0.010669 605660.000000 0 0 1
-37.392817 -5.232144 13.070235 39.955340 0.139021 1.237541 0.116365 -0.021248 40574.000000 0 0 1
36.453848 -5.241644 12.776235 38.981920 -0.142810 1.236878 0.127267 -0.016470 501144.000000 0 0 1
35.592468 -6.245244 13.343035 38.520948 -0.173697 1.217083 0.108982 -0.012390 738678.000000 0 0 1
34.232118 -5.918544 13.050235 37.110318 -0.171202 1.211452 0.128882 -0.012460 795795.000000 0 0 1
33.179828 -7.015644 13.341235 36.443227 -0.208374 1.196000 0.109803 -0.010856 -28241.500000 0 0 1
32.784028 -7.013244 14.705035 36.608963 -0.210746 1.157447 0.104077 -0.001688 -70929.800000 0 0 1
31.604678 -7.786644 14.779635 35.748079 -0.241565 1.144569 0.102832 -0.001088 134755.000000 0 0 1
30.997648 -7.954744 16.184635 35.861882 -0.251203 1.102569 0.085309 -0.004853 167823.000000 0 0 1
31.970148 -8.456544 17.084535 37.222102 -0.258591 1.093939 0.058953 -0.001356 -151788.000000 0 0 1
31.496488 -8.554044 18.398735 37.466170 -0.265191 1.057472 0.046217 -0.008836 -665412.000000 0 0 1
32.542988 -8.996244 19.428935 38.954615 -0.269706 1.048631 0.043088 -0.004048 -817087.000000 0 0 1
33.456138 -8.059944 19.776635 39.691198 -0.236406 1.049203 0.050262 -0.005389 -1415470.000000 0 0 1
34.679518 -8.299144 19.152035 40.476477 -0.234892 1.077917 0.022510 0.010521 -745779.000000 0 0 1
35.846418 -7.502644 19.784035 41.625274 -0.206321 1.075504 0.022705 0.000226 41755.900000 0 0 1
36.167258 -8.075344 21.026635 42.607524 -0.219675 1.054692 0.028123 -0.005696 -794861.000000 0 0 1
37.415998 -7.695444 21.484235 43.826352 -0.202844 1.058463 0.033599 -0.005134 -788093.000000 0 0 1
-37.473937 -8.335944 22.788435 44.644112 0.218883 1.035092 0.036219 -0.007414 -206994.000000 0 0 1
37.430188 -7.734344 23.985035 45.123397 -0.203766 1.010375 0.048986 -0.012063 20189.300000 0 0 1
37.307298 -8.732444 25.087735 45.798303 -0.229929 0.991079 0.046667 -0.019124 -248083.000000 0 0 1
36.621098 -8.199844 26.376635 45.870134 -0.220277 0.958157 0.066233 -0.020063 841.071000 0 0 1
37.293568 -7.193444 27.094135 46.654561 -0.190547 0.951160 0.074717 -0.029343 -225620.000000 0 0 1
36.500438 -6.716144 28.156235 46.584999 -0.181966 0.921777 0.090499 -0.034055 -59399.500000 0 0 1
37.312928 -5.819744 29.176135 47.721807 -0.154725 0.912994 0.105772 -0.035790 1190780.000000 0 0 1
-37.110207 -6.450544 30.084335 48.206267 0.172102 0.896849 0.100696 -0.039073 725954.000000 0 0 1
-35.806916 -6.697544 29.588735 46.930647 0.184909 0.888628 0.104709 -0.039150 520998.000000 0 0 1
-34.734059 -7.171444 30.606735 46.847163 0.203606 0.858819 0.112716 -0.036552 146128.000000 0 0 1
-35.014228 -8.526544 30.983135 47.525285 0.238867 0.860670 0.107505 -0.030188 8911.960000 0 0 1
-34.409568 -9.035944 32.150235 47.951061 0.256802 0.835941 0.087627 -0.025902 -260845.000000 0 0 1
-34.571692 -10.592144 32.273835 48.466440 0.297302 0.842096 0.090088 -0.022655 -879724.000000 0 0 1
-35.842004 -11.016144 32.607235 49.691412 0.298189 0.855032 0.084129 -0.025722 -860942.000000 0 0 1
-35.913637 -12.408244 32.868135 50.240105 0.332662 0.857644 0.077493 -0.018421 198052.000000 0 0 1
-37.411877 -12.796544 32.898835 51.436694 0.329570 0.876820 0.067170 -0.017274 -8755.850000 0 0 1
-37.579447 -14.140744 33.148535 52.067273 0.359901 0.880652 0.062984 -0.028585 -191542.000000 0 0 1
36.450378 -14.558844 33.296135 51.470600 -0.380002 0.867289 0.053776 -0.024670 -523143.000000 0 0 1
36.114718 -16.054744 33.297935 51.679591 -0.418311 0.870669 0.048370 -0.014137 -232085.000000 0 0 1
36.578018 -16.702044 -33.218155 52.157027 -0.428341 2.261251 0.057730 -0.021738 173687.000000 0 0 1
36.357858 -18.110044 -33.321055 52.537227 -0.462131 2.257818 0.057198 -0.040021 -543016.000000 0 0 1
36.845648 -18.918844 -32.069255 52.382836 -0.474359 2.229648 0.049773 -0.019735 226470.000000 0 0 1
35.999288 -18.670444 -30.944855 51.010962 -0.478443 2.222613 0.045702 -0.018047 169455.000000 0 0 1
36.375378 -19.485544 -29.854455 50.932731 -0.491782 2.197101 0.037585 -0.015998 115648.000000 0 0 1
35.282668 -19.689844 -28.722455 49.573542 -0.509010 2.188777 0.029067 -0.017619 1476990.000000 0 0 1
33.992098 -20.186044 -29.109455 49.094801 -0.535882 2.205481 0.035068 -0.007882 1364790.000000 0 0 1
33.072288 -19.221744 -29.686755 48.420606 -0.526484 2.230777 0.035214 -0.000953 -448625.000000 0 0 1
31.684378 -19.767444 -29.925055 47.855622 -0.557798 2.246337 0.037080 -0.000420 -741761.000000 0 0 1
30.761588 -18.893244 -30.534655 47.282080 -0.550783 2.272864 0.038522 0.007125 242823.000000 0 0 1
29.525458 -19.598744 -30.622555 46.835930 -0.586009 2.283426 0.053328 -0.004735 408486.000000 0 0 1
28.591758 -19.062244 -31.736555 46.776775 -0.588029 2.316472 0.063086 0.001795 175120.000000 0 0 1
28.994558 -19.449444 -33.027355 48.060082 -0.590856 2.328437 0.055386 -0.004757 311681.000000 0 0 1
28.046158 -18.934344 33.701535 47.758662 -0.593828 0.787437 0.089375 -0.011963 338022.000000 0 0 1
28.448058 -19.257144 32.254235 47.121813 -0.595070 0.816898 0.084989 -0.009284 -90605.300000 0 0 1
29.551658 -18.533044 31.756635 47.172641 -0.560137 0.832268 0.056040 -0.015181 -52730.300000 0 0 1
29.626758 -18.455144 30.319435 46.234244 -0.557103 0.855583 0.054072 -0.022363 -457538.000000 0 0 1
28.483558 -17.768744 29.588435 44.749490 -0.557754 0.848377 0.043878 -0.016138 -483920.000000 0 0 1
28.208458 -16.502544 30.098735 44.429550 -0.529333 0.826508 0.056690 -0.027665 38728.700000 0 0 1
27.366758 -15.768244 29.234535 43.037600 -0.522722 0.824017 0.043318 -0.024402 -197781.000000 0 0 1
27.193358 -14.387344 29.810635 42.838632 -0.486637 0.801149 0.060103 -0.027926 -358846.000000 0 0 1
28.372358 -13.639444 29.787835 43.339823 -0.448113 0.813019 0.063853 -0.022158 -88973.300000 0 0 1
28.154858 -12.404544 30.480035 43.308213 -0.414995 0.790073 0.081173 -0.026683 -95684.600000 0 0 1
29.428258 -11.555644 30.530235 43.950546 -0.374173 0.802863 0.064015 -0.021963 -10755.500000 0 0 1
29.928958 -11.098444 29.273035 43.310837 -0.355107 0.828635 0.059449 -0.021662 195307.000000 0 0 1
31.325098 -10.854244 29.278435 44.230116 -0.333556 0.847370 0.046083 -0.015414 306052.000000 0 0 1
31.760478 -10.066044 28.003335 43.522867 -0.306921 0.871843 0.047380 -0.019660 -50705.500000 0 0 1
31.570578 -8.661044 27.961735 43.053150 -0.267752 0.863909 0.057715 -0.018471 23797.300000 0 0 1
32.222578 -8.232744 26.783635 42.701706 -0.250145 0.892810 0.063993 -0.013922 96533.300000 0 0 1
31.919228 -6.758144 26.455435 42.004758 -0.208645 0.889475 0.074542 -0.019545 -66427.100000 0 0 1
30.535468 -6.540044 26.334335 40.849531 -0.210991 0.870209 0.078359 -0.017536 -591890.000000 0 0 1
30.313858 -5.165444 26.409635 40.534931 -0.168778 0.861200 0.098143 -0.019239 -341312.000000 0 0 1
28.834958 -4.819844 26.308535 39.329693 -0.165622 0.838037 0.096919 -0.014959 -378058.000000 0 0 1
28.238058 -5.109344 25.032435 38.080390 -0.179002 0.853489 0.112704 -0.017351 573667.000000 0 0 1
26.891658 -4.622244 24.969635 36.986607 -0.170221 0.829697 0.118820 -0.022443 270862.000000 0 0 1
26.208458 -4.964444 23.639735 35.642195 -0.187203 0.845641 0.127095 -0.021645 -392343.000000 0 0 1
26.599958 -4.155744 22.541835 35.113563 -0.154978 0.873732 0.138804 -0.017101 -25416.600000 0 0 1
26.113058 -4.571944 21.315135 34.016606 -0.173326 0.893601 0.150508 -0.018170 -49370.100000 0 0 1
26.483958 -3.573344 20.189335 33.492956 -0.134115 0.923799 0.169866 -0.019541 258752.000000 0 0 1
25.633258 -2.413744 20.162135 32.701709 -0.093888 0.906447 0.167173 -0.018742 125270.000000 0 0 1
25.920058 -1.443944 19.189335 32.282580 -0.055650 0.934255 0.156385 -0.029581 -1194430.000000 0 0 1
24.736958 -0.741444 18.618835 30.969789 -0.029964 0.925803 0.125986 -0.027014 -1250760.000000 0 0 1
23.939958 -1.598744 17.827835 29.891626 -0.066682 0.931768 0.147380 -0.030576 186840.000000 0 0 1
22.808658 -0.824044 17.395535 28.697013 -0.036113 0.919549 0.150723 -0.029767 385111.000000 0 0 1
21.685958 -1.640044 16.744735 27.447344 -0.075483 0.914650 0.171438 -0.032318 24803.200000 0 0 1
22.038058 -2.273744 15.514035 27.046834 -0.102810 0.959904 0.188178 -0.044065 847639.000000 0 0 1
20.819558 -2.768444 14.930835 25.769131 -0.132198 0.952794 0.197479 -0.050157 652049.000000 0 0 1
21.020258 -3.267544 13.543435 25.218103 -0.154213 1.003858 0.206794 -0.063779 -189410.000000 0 0 1
19.814358 -3.785844 13.035735 24.018155 -0.188790 0.997094 0.209504 -0.063269 503811.000000 0 1 0
19.953858 -4.291544 11.700335 23.525978 -0.211846 1.050270 0.196008 -0.056368 -349986.000000 0 1 0
18.891558 -5.329944 11.337235 22.667867 -0.274986 1.047029 0.171800 -0.058023 -358634.000000 0 1 0
19.011358 -6.521544 12.125535 23.473195 -0.330456 1.027957 0.193288 -0.060067 840764.000000 0 1 0
17.860558 -7.335244 11.965335 22.715074 -0.389692 1.016015 0.157237 -0.048073 94152.100000 0 1 0
18.186258 -8.760744 12.326235 23.652203 -0.448920 1.022604 0.186777 -0.062049 -141029.000000 0 1 0
19.090558 -9.386844 11.447235 24.157844 -0.456986 1.077137 0.172292 -0.064238 447566.000000 0 1 0
18.866458 -10.787944 11.408135 24.545234 -0.519430 1.087410 0.190758 -0.062598 44850.800000 0 1 0
19.460058 -11.339644 10.100035 24.683843 -0.527612 1.149246 0.178035 -0.058163 287692.000000 0 1 0
18.798358 -10.736444 8.983435 23.438251 -0.518927 1.177450 0.156897 -0.045271 794865.000000 0 1 0
19.351658 -11.300444 7.771635 23.718875 -0.528536 1.236975 0.151447 -0.055198 287353.000000 0 1 0
18.757358 -10.635944 6.490435 22.518604 -0.515822 1.278423 0.119440 -0.039179 -32820.000000 0 1 0
19.256758 -9.323544 6.414235 22.335927 -0.450904 1.279524 0.126099 -0.034827 630835.000000 0 1 0
19.626658 -8.988444 5.095535 22.180224 -0.429463 1.338993 0.095833 -0.032119 -455359.000000 0 1 0
20.219158 -7.573144 4.983535 22.158576 -0.358379 1.343953 0.135304 -0.032849 -564761.000000 0 1 0
20.750558 -7.490844 3.688935 22.367536 -0.346436 1.405116 0.123165 -0.020094 744503.000000 0 1 0
21.505358 -6.258344 3.632535 22.690144 -0.283192 1.410011 0.170605 -0.015700 385659.000000 0 1 0
22.289558 -6.046644 2.303635 23.209762 -0.264902 1.471380 0.182747 -0.017662 -101964.000000 0 1 0
21.424958 -5.768144 1.274635 22.224424 -0.262990 1.513412 0.151263 -0.032402 260006.000000 0 1 0
22.108558 -4.962644 0.326335 22.661039 -0.220807 1.556395 0.173498 -0.027538 456923.000000 0 1 0
-25.403987 -15.547844 -0.600065 29.790235 0.549214 1.590941 0.132864 -0.013273 314721.000000 0 0 1
-24.372257 -14.574344 -0.927965 28.412665 0.538940 1.603462 0.097911 -0.002573 1625220.000000 0 0 1
-23.106957 -14.908944 -0.316665 27.501061 0.573004 1.582311 0.110318 0.001116 757562.000000 0 0 1
-22.911857 -14.491744 1.155935 27.134849 0.563974 1.528184 0.130256 -0.018002 -704712.000000 0 0 1
-23.603057 -15.279144 2.098435 28.195035 0.574501 1.496302 0.129308 -0.003133 93317.600000 0 0 1
-23.233357 -14.880444 3.429735 27.802510 0.569652 1.447121 0.119394 -0.002582 284167.000000 0 0 1
-23.975557 -15.635844 4.570435 28.986132 0.577891 1.412459 0.136962 -0.000579 -86241.300000 0 0 1
-23.573957 -16.956044 4.588035 29.398792 0.623542 1.414094 0.161332 -0.025745 155799.000000 0 0 1
-24.240357 -17.641444 5.614735 30.501487 0.629123 1.385660 0.181645 -0.034735 -96666.000000 0 0 1
-24.270757 -19.173644 5.331135 31.386610 0.668607 1.400115 0.157580 -0.033937 -19117.500000 0 0 1
-24.641757 -19.906844 6.494435 32.336919 0.679509 1.368585 0.166829 -0.041182 -51153.300000 0 0 1
-24.754757 -21.272844 6.231235 33.228906 0.709894 1.382155 0.164694 -0.045039 -56265.800000 0 0 1
-25.466657 -22.132544 7.250235 34.510376 0.715467 1.359131 0.172507 -0.046423 -506314.000000 0 0 1
-24.597057 -22.266244 8.309135 34.202961 0.735703 1.325405 0.159514 -0.044255 -459916.000000 0 0 1
-25.123437 -22.884144 9.450135 35.272882 0.738787 1.299568 0.157663 -0.043417 -573059.000000 0 0 1
-24.131457 -22.854044 10.571335 34.876750 0.758217 1.262847 0.144010 -0.045396 -579782.000000 0 0 1
-23.736757 -21.623444 11.099335 33.973552 0.738842 1.237981 0.134201 -0.036702 -48638.500000 0 0 1
-23.064057 -21.691544 12.335335 33.979910 0.754741 1.199291 0.126013 -0.037134 -124324.000000 0 0 1
-23.907757 -21.087444 13.499235 34.619221 0.722800 1.170236 0.109038 -0.017302 -270963.000000 0 0 1
-25.040627 -21.828044 13.847435 35.989554 0.716961 1.175846 0.113328 -0.017925 -472035.000000 0 0 1
-25.591847 -21.152144 14.960035 36.416459 0.690703 1.147460 0.103261 -0.003426 -441193.000000 0 0 1
-26.984207 -21.674444 15.330235 37.854261 0.676706 1.153839 0.088373 -0.009620 -502847.000000 0 0 1
-28.047667 -21.261744 14.504135 38.067090 0.648638 1.179902 0.090247 -0.000836 137904.000000 0 0 1
-28.473087 -22.269244 13.564635 38.608746 0.663740 1.211799 0.086109 -0.006147 304802.000000 0 0 1
-29.560627 -23.304344 14.039635 40.175048 0.667601 1.213800 0.080444 -0.007555 49161.600000 0 0 1
-29.131797 -24.143944 15.133035 40.750465 0.692047 1.190325 0.069463 -0.005730 252203.000000 0 0 1
-30.017037 -25.186904 15.617635 42.181906 0.698124 1.191524 0.055742 -0.010415 64310.700000 0 0 1
-29.862367 -26.523934 14.801735 42.595439 0.726261 1.215897 0.068197 -0.014717 66025.300000 0 0 1
-30.490057 -26.668424 13.567435 42.719126 0.718637 1.247603 0.081395 -0.031224 -1454860.000000 0 0 1
-31.838827 -26.906994 13.641135 43.860892 0.701642 1.254542 0.094129 -0.043843 -1536590.000000 0 0 1
-32.470227 -27.431004 12.312035 44.253382 0.701470 1.288859 0.113080 -0.050793 -208635.000000 0 0 1
-32.057407 -28.715634 11.901735 44.653290 0.730466 1.300999 0.119093 -0.056704 27387.200000 0 0 1
-32.548617 -29.046544 10.625635 44.900093 0.728603 1.331879 0.109121 -0.044340 -118399.000000 0 0 1
-31.931387 -30.345974 10.157535 45.206937 0.759946 1.344172 0.111495 -0.052056 -349696.000000 0 0 1
-32.325497 -31.486884 10.886735 46.420713 0.772257 1.334068 0.101742 -0.044113 -25503.100000 0 0 1
-31.567597 -32.593714 10.479735 46.569177 0.801390 1.343816 0.110822 -0.042972 -72059.500000 0 0 1
-31.846867 33.834132 11.285935 47.815727 -0.815645 1.332518 0.092538 -0.041176 8692.660000 0 0 1
-33.136427 33.304614 11.085235 48.271136 -0.787930 1.339083 0.089276 -0.030041 -133662.000000 0 0 1
-33.102367 31.939083 11.578335 47.433423 -0.767515 1.324208 0.113482 -0.029151 -598783.000000 0 0 1
-34.433000 31.578072 12.233735 48.295656 -0.742176 1.314697 0.119070 -0.021423 936658.000000 0 0 1
-35.649886 31.485672 11.448535 48.921681 -0.723451 1.334588 0.070321 -0.021928 1326250.000000 0 0 1
-36.116687 32.649108 10.774735 49.864559 -0.735015 1.352998 0.079599 -0.024584 -1328820.000000 0 0 1
-37.568677 32.624641 10.325835 50.817276 -0.715080 1.366176 0.067276 -0.011193 -605733.000000 0 0 1
37.542338 31.714822 9.268435 50.011608 0.701453 1.384393 0.045190 -0.011136 -6981.420000 0 0 1
36.211718 31.779513 8.806635 48.977370 0.720302 1.390003 0.035442 -0.009484 -222050.000000 0 0 1
35.974168 31.236422 7.392235 48.213069 0.715024 1.416865 0.040096 -0.016262 -32508.300000 0 0 1
36.152708 29.850832 7.179035 47.430254 0.690209 1.418853 0.053412 -0.018912 77838.300000 0 0 1
35.947688 29.545672 5.835635 46.896030 0.687957 1.446035 0.069606 -0.023931 -8729.570000 0 0 1
36.234848 28.082282 5.390235 46.158785 0.659315 1.453753 0.083953 -0.021484 -187796.000000 0 0 1
35.461568 27.066722 6.008335 45.013668 0.651939 1.436919 0.072522 -0.019333 269391.000000 0 0 1
35.961328 26.664352 7.288935 45.357837 0.638021 1.409398 0.057656 -0.018146 -452155.000000 0 0 1
34.917398 25.736652 7.865435 44.084748 0.635176 1.391420 0.046392 -0.008155 -349466.000000 0 0 1
34.824598 24.538592 7.146235 43.196803 0.613829 1.404598 0.059089 -0.015170 -248226.000000 0 0 1
33.816238 23.707122 7.631635 41.997708 0.611435 1.388066 0.058230 -0.015030 -1014150.000000 0 0 1
33.923928 22.275402 7.034335 41.188692 0.581021 1.399172 0.072636 -0.017639 150812.000000 0 0 1
34.968698 21.381102 7.366935 41.644125 0.548786 1.392958 0.075469 -0.014466 -756005.000000 0 0 1
36.246538 21.836502 7.056235 42.900289 0.542214 1.405566 0.073045 -0.017493 -1796340.000000 0 0 1
37.148248 20.670202 6.932735 43.073338 0.507762 1.409141 0.055435 -0.011776 -841423.000000 0 0 1
36.858958 19.797602 5.809035 42.240653 0.492899 1.432837 0.083053 -0.022915 29102.400000 0 0 1
37.442758 18.519202 5.976435 42.197616 0.459319 1.428689 0.097510 -0.024088 -45982.200000 0 0 1
37.041438 17.489102 4.912435 41.256137 0.441120 1.451442 0.106444 -0.030447 -263428.000000 0 0 1
-37.655937 17.568002 3.694735 41.716368 -0.436523 1.482112 0.112053 -0.031971 -68941.100000 0 0 1
37.199648 16.517402 2.867035 40.802675 0.417870 1.500473 0.118682 -0.036353 -51297.800000 0 0 1
-37.248377 16.105902 1.652035 40.614910 -0.408115 1.530110 0.130041 -0.028919 889625.000000 0 0 1
-36.125387 15.258602 1.980335 39.265637 -0.399648 1.520341 0.140651 -0.040820 -273825.000000 0 0 1
-34.951594 15.955902 2.013935 38.474156 -0.428258 1.518427 0.146086 -0.037973 -520374.000000 0 0 1
-33.625327 15.116602 2.100135 36.926750 -0.422488 1.513893 0.145396 -0.030222 633070.000000 0 0 1
-33.485227 14.478902 3.336235 36.633721 -0.408119 1.479600 0.174024 -0.038844 222582.000000 0 0 1
-32.183147 13.934302 3.465935 35.241062 -0.408601 1.472288 0.172884 -0.041725 15089.700000 0 0 1
-31.766817 13.157902 4.712735 34.705489 -0.392690 1.434583 0.199786 -0.034679 -215635.000000 0 0 1
-32.223797 11.832302 4.767835 34.657016 -0.351907 1.432787 0.223682 -0.043012 248904.000000 0 0 1
-31.586607 11.171702 5.858435 34.012379 -0.339954 1.397689 0.210405 -0.028337 167674.000000 0 0 1
-31.923337 9.642202 5.911835 33.867703 -0.293330 1.395341 0.237688 -0.046818 -265784.000000 0 0 1
-33.257467 9.250502 6.059035 35.047722 -0.271291 1.397044 0.241008 -0.034732 -419069.000000 0 0 1
-33.466427 7.907002 6.317435 34.963301 -0.232012 1.389111 0.266822 -0.047692 153136.000000 0 0 1
-34.923560 7.382802 6.379735 36.261023 -0.208332 1.393937 0.254800 -0.037480 -103867.000000 0 0 1
-35.708892 7.658102 7.477335 37.278440 -0.211259 1.368846 0.241282 -0.030137 -434405.000000 0 0 1
-37.008347 7.175702 7.239635 38.386466 -0.191518 1.381061 0.187127 -0.032844 229315.000000 0 0 1
37.637348 6.429602 8.425435 39.101122 0.169197 1.353615 0.180405 -0.033222 230650.000000 0 0 1
36.935458 7.173702 9.395635 38.781027 0.191834 1.326087 0.186108 -0.029479 387100.000000 0 0 1
-37.551257 7.831502 10.280435 39.712928 -0.205608 1.308946 0.196583 -0.027508 -274603.000000 0 0 1
37.030748 8.754202 11.203135 39.666391 0.232142 1.284466 0.167985 -0.024571 -512866.000000 0 0 1
36.335578 8.030102 12.190935 39.158341 0.217502 1.254210 0.164101 -0.022375 353527.000000 0 0 1
35.691578 8.809602 13.142235 39.041211 0.241989 1.227466 0.172648 -0.026239 -346866.000000 0 0 1
35.119728 8.024702 14.372735 38.786166 0.224639 1.191181 0.176670 -0.035929 -946103.000000 0 0 1
33.856908 7.479902 14.169235 37.456727 0.217434 1.182856 0.181011 -0.047877 -415692.000000 0 0 1
33.428688 7.001302 15.431935 37.478528 0.206456 1.146418 0.168407 -0.036735 166246.000000 0 0 1
31.877448 6.998602 15.502735 36.131523 0.216118 1.127340 0.143951 -0.037840 -316651.000000 0 0 1
31.226808 8.255302 15.586535 35.863681 0.258453 1.121197 0.116634 -0.039805 295869.000000 0 0 1
29.818758 8.175502 15.502835 34.588077 0.267597 1.106031 0.115815 -0.031370 256056.000000 0 0 1
29.025858 7.600702 16.715335 34.346376 0.256109 1.062523 0.097086 -0.031279 -673969.000000 0 0 1
28.917658 8.452702 17.834035 35.010455 0.284380 1.036319 0.114501 -0.038937 28953.400000 0 0 1
28.292358 7.894202 18.994635 34.979596 0.272102 0.996766 0.097134 -0.032315 24322.700000 0 0 1
29.068158 6.945102 19.952335 35.934495 0.234528 0.982143 0.105190 -0.025200 -18992.100000 0 0 1
28.353158 6.903002 21.181035 36.058137 0.238819 0.942937 0.057205 -0.004050 166508.000000 0 0 1
28.625758 5.772002 21.980235 36.549703 0.198969 0.925570 0.067079 -0.002925 -516221.000000 0 0 1
27.774158 5.684602 23.283135 36.685459 0.201884 0.883216 0.072063 0.006939 533657.000000 0 0 1
26.552858 4.959002 23.151535 35.575828 0.184633 0.862204 0.049012 0.002326 -129541.000000 0 0 1
25.507858 5.881702 23.084235 34.901678 0.226623 0.848102 0.068912 0.001353 474166.000000 0 0 1
24.040358 5.398402 22.757235 33.540622 0.220892 0.825081 0.101580 -0.018787 774893.000000 0 0 1
23.710058 5.068102 21.390235 32.332564 0.210584 0.847887 0.106335 -0.013756 2252940.000000 0 0 1
22.263958 4.974502 21.106235 31.078975 0.219822 0.824238 0.101233 -0.014442 1045680.000000 0 0 1
21.596258 3.710302 21.628435 30.788860 0.170142 0.791926 0.137144 -0.013896 615686.000000 0 0 1
20.302158 3.393202 21.069435 29.455263 0.165604 0.773739 0.128624 -0.022024 1823510.000000 0 0 1
19.167558 4.233302 21.266735 28.941150 0.217368 0.745385 0.146138 -0.025879 -59021.200000 0 0 1
17.958258 3.940102 20.366735 27.437699 0.215981 0.734315 0.170557 -0.029296 -89430.500000 0 0 1
17.134858 2.879002 20.741235 27.057177 0.166465 0.697313 0.150088 -0.026605 786956.000000 0 0 1
16.040958 2.604602 19.819035 25.629874 0.160967 0.686800 0.153935 -0.035700 159201.000000 0 0 1
14.946358 1.694902 20.357035 25.311562 0.112917 0.636370 0.154913 -0.037976 -625516.000000 0 0 1
15.153258 0.286902 20.337635 25.363812 0.018931 0.640434 0.117904 -0.040394 1070.670000 0 0 1
14.272158 -0.331898 21.248135 25.598592 -0.023251 0.591597 0.120927 -0.039387 -163180.000000 0 0 1
14.467958 -1.849298 21.491935 25.973929 -0.127131 0.596258 0.079964 -0.021082 -93306.500000 0 0 1
14.035758 -2.620098 20.401335 24.901444 -0.184549 0.610636 0.073228 -0.016219 62831.200000 0 1 0
14.199858 -4.005598 20.612735 25.348878 -0.274943 0.621233 0.091542 -0.004923 -202041.000000 0 0 1
13.963258 -4.793698 19.273135 24.277682 -0.330701 0.653662 0.103453 -0.018902 585116.000000 0 1 0
12.606958 -4.611598 18.860035 23.149582 -0.350679 0.618579 0.091448 -0.022509 329795.000000 0 1 0
12.373358 -5.258898 17.644435 22.182923 -0.401886 0.651119 0.101426 -0.022311 1642690.000000 0 1 0
10.827058 -5.219698 17.232235 21.010006 -0.449223 0.609050 0.092949 -0.024009 2292830.000000 0 1 0
10.027958 -6.050498 18.120135 21.575629 -0.542889 0.573803 0.096802 -0.022596 1112330.000000 0 1 0
8.596358 -5.922898 17.985235 20.795355 -0.603306 0.525909 0.071485 -0.030403 1332730.000000 0 1 0
7.792658 -6.700298 19.098635 21.688185 -0.710169 0.493668 0.059861 -0.028314 -108119.000000 0 1 0
7.784758 -8.080598 19.067835 22.124214 -0.804043 0.531883 0.068838 -0.029089 -164519.000000 0 1 0
8.954058 -8.758598 19.469935 23.150952 -0.774364 0.571669 0.127344 -0.037351 40194.700000 0 1 0
9.062558 -10.210398 18.853535 23.277413 -0.844885 0.626730 0.153868 -0.044996 139332.000000 0 1 0
9.227058 -10.268598 17.433035 22.237208 -0.838772 0.669781 0.131320 -0.036137 -23242.600000 0 1 0
9.624358 -11.556498 17.078135 22.756177 -0.876367 0.722003 0.151212 -0.042749 229475.000000 0 1 0
9.319158 -11.948898 15.603735 21.750849 -0.908421 0.770755 0.129774 -0.034191 186168.000000 0 1 0
10.173158 -12.996598 15.130635 22.390641 -0.906659 0.828805 0.121561 -0.031746 30628.100000 0 1 0
9.863558 -13.398998 13.835735 21.639096 -0.936224 0.877097 0.089999 -0.016628 2451.400000 0 1 0
10.825058 -14.497698 13.241735 22.421166 -0.929427 0.939006 0.132802 -0.028192 143897.000000 0 1 0
12.151258 -14.228498 12.895835 22.724564 -0.863980 0.967349 0.111411 -0.027555 -470360.000000 0 1 0
12.319558 -13.248798 11.870035 21.637927 -0.821726 0.990137 0.070481 -0.026980 -1125000.000000 0 1 0
13.779258 -12.909998 11.610835 22.166359 -0.752840 1.019485 0.112418 -0.034291 -705904.000000 0 1 0
14.528258 -13.949498 10.978235 22.938623 -0.765078 1.071746 0.120746 -0.034499 -193794.000000 0 1 0
15.622158 -13.315098 10.322535 22.976039 -0.705840 1.104844 0.108947 -0.048983 196687.000000 0 1 0
16.544158 -14.384698 9.643735 23.950581 -0.715691 1.156385 0.105063 -0.050008 269465.000000 0 1 0
17.222358 -15.139998 10.628535 25.274393 -0.721142 1.136772 0.107165 -0.041078 -19177.100000 0 0 1
16.515358 -16.330198 10.865535 25.641612 -0.779761 1.133219 0.160822 -0.041522 -5112.230000 0 0 1
17.032658 -17.212898 12.031635 27.039888 -0.790661 1.109668 0.141260 -0.033327 -797140.000000 0 0 1
18.316958 -17.704798 11.945935 28.136741 -0.768406 1.132313 0.164597 -0.038676 -957471.000000 0 0 1
18.380658 -18.766198 12.885635 29.258475 -0.795777 1.114744 0.113000 -0.031989 -349621.000000 0 0 1
19.717958 -19.523998 12.900035 30.600576 -0.780456 1.135629 0.073789 -0.027300 394912.000000 0 0 1
20.777358 -18.627398 13.290735 30.908287 -0.730891 1.126297 0.079710 -0.029339 192657.000000 0 0 1
22.060858 -19.110098 12.960435 31.935093 -0.713850 1.152902 0.067925 -0.030276 202441.000000 0 0 1
22.903958 -18.185198 12.082935 31.643167 -0.671057 1.178999 0.105295 -0.029319 -330429.000000 0 0 1
22.652958 -18.315298 10.690935 31.030674 -0.679913 1.219060 0.093141 -0.010320 -74301.200000 0 0 1
21.480358 -17.822098 10.070935 29.672491 -0.692586 1.224514 0.100310 -0.014870 95773.500000 0 0 1
21.297558 -16.327498 9.943335 28.618929 -0.654064 1.215958 0.141399 -0.035734 -64853.400000 0 0 1
22.326958 -15.735698 9.184035 28.817560 -0.613930 1.246443 0.127834 -0.011667 -168481.000000 0 0 1
22.117958 -14.380398 8.905735 27.844426 -0.576494 1.245237 0.146561 -0.026852 -39748.000000 0 0 1
-36.589097 24.522156 7.729235 44.719562 -0.590447 1.397086 0.097050 -0.022650 758784.000000 0 0 1
-35.512390 23.933756 8.541835 43.668266 -0.593031 1.373920 0.124312 -0.026149 1033620.000000 0 0 1
-34.543444 24.917956 8.778735 43.488162 -0.624912 1.367535 0.136541 -0.029071 -901720.000000 0 0 1
-33.291847 24.425856 9.482335 42.366074 -0.632980 1.345065 0.165083 -0.024637 -332079.000000 0 0 1
-32.473777 23.563056 8.716035 41.057680 -0.627703 1.356881 0.168153 -0.027251 74074.000000 0 0 1
-31.792447 22.598556 9.464435 40.137638 -0.617948 1.332755 0.166399 -0.027393 -92667.900000 0 0 1
-30.960707 21.568256 8.719135 38.726972 -0.608463 1.343706 0.120479 -0.028225 87469.500000 0 0 1
-31.786487 20.636056 8.043335 38.741745 -0.575819 1.361661 0.127853 -0.032012 311645.000000 0 0 1
-31.028227 19.772256 7.250935 37.500254 -0.567349 1.376214 0.137076 -0.034209 -472057.000000 0 0 1
-31.901037 19.128056 6.211735 37.711329 -0.540130 1.405324 0.125625 -0.030216 -358083.000000 0 0 1
-32.572197 17.975356 6.727535 37.806364 -0.504272 1.391896 0.151264 -0.033570 441283.000000 0 0 1
-33.434977 17.559756 5.644035 38.185048 -0.483597 1.422445 0.112705 -0.028280 59169.000000 0 0 1
-34.191176 16.254056 5.999135 38.330412 -0.443764 1.413639 0.104624 -0.014004 -402799.000000 0 0 1
-35.143382 16.583256 6.977535 39.480979 -0.440895 1.393132 0.080351 -0.010780 -287208.000000 0 0 1
-35.769000 15.443056 7.459435 39.668029 -0.407569 1.381624 0.092668 -0.019833 -538543.000000 0 0 1
-36.591897 15.721256 8.686535 40.762492 -0.405792 1.356048 0.098012 -0.017682 -93897.000000 0 0 1
37.603318 16.500756 8.470735 41.928962 0.413510 1.367370 0.109032 -0.021691 423795.000000 0 0 1
37.056728 17.043356 9.685935 41.922481 0.431078 1.337646 0.107722 -0.018499 228151.000000 0 0 1
36.026438 18.172956 9.514035 41.456935 0.467188 1.339241 0.077434 -0.017440 -356938.000000 0 0 1
34.785718 17.837456 8.980335 40.110690 0.473820 1.344994 0.098389 -0.020112 -274382.000000 0 0 1
33.876888 18.929556 9.200135 39.882504 0.509555 1.338019 0.080335 -0.010343 -263531.000000 0 0 1
32.553398 18.711556 8.484335 38.494545 0.521681 1.348568 0.078140 -0.016320 -350033.000000 0 0 1
31.684348 19.829756 8.629835 38.361324 0.559213 1.343892 0.077680 -0.012601 -246890.000000 0 0 1
30.355558 19.732156 8.215435 37.125615 0.576399 1.347662 0.054628 -0.010884 -151162.000000 0 0 1
30.135858 19.889856 6.689535 36.722285 0.583377 1.387608 0.050484 -0.006490 -728396.000000 0 0 1
30.250058 18.597856 6.043235 36.020369 0.551234 1.402226 0.071078 -0.014540 220382.000000 0 0 1
29.817158 18.589756 4.697135 35.450036 0.557490 1.437905 0.075695 -0.027973 645727.000000 0 0 1
28.344158 18.963556 4.325535 34.376126 0.589648 1.444632 0.115189 -0.030316 733870.000000 0 0 1
27.279758 18.115456 4.858335 33.105262 0.586197 1.423510 0.113137 -0.029993 3040870.000000 0 0 1
25.891158 18.465456 4.503135 32.118583 0.619527 1.430129 0.130361 -0.031304 2102340.000000 0 0 1
25.324258 19.823256 4.984635 32.544218 0.664151 1.417026 0.126874 -0.026280 -937469.000000 0 0 1
25.868358 20.962456 4.363835 33.580345 0.681021 1.440476 0.109919 -0.025296 231816.000000 0 0 1
25.360158 22.179456 4.894635 34.044432 0.718591 1.426524 0.115887 -0.018176 179152.000000 0 0 1
26.369358 23.328256 4.551135 35.500189 0.724282 1.442242 0.092097 -0.013640 -255080.000000 0 0 1
27.534858 23.176556 5.294935 36.377981 0.699666 1.424724 0.091374 -0.016362 -266771.000000 0 0 1
28.417958 24.288456 4.982235 37.713819 0.707209 1.438303 0.092599 -0.015096 668759.000000 0 0 1
29.832358 24.132356 5.630435 38.781980 0.680164 1.425100 0.074482 -0.015000 349841.000000 0 0 1
30.710638 23.079756 5.246635 38.773001 0.644475 1.435063 0.061824 -0.015808 605883.000000 0 0 1
31.182478 22.883756 3.893035 38.873757 0.633095 1.470483 0.072753 -0.023108 256125.000000 0 0 1
32.016738 24.077756 3.306735 40.196323 0.644803 1.488439 0.098758 -0.035147 -697809.000000 0 0 1
31.215888 25.192256 3.110735 40.233793 0.679015 1.493403 0.072970 -0.033092 -380356.000000 0 0 1
31.823998 26.134856 2.270335 41.242599 0.687553 1.515720 0.127905 -0.030424 -1281640.000000 0 0 1
31.587238 27.640656 2.567235 42.051756 0.718863 1.509709 0.122324 -0.025673 1125070.000000 0 0 1
30.284358 28.182056 2.281035 41.431555 0.749456 1.515713 0.143284 -0.031172 1182540.000000 0 0 1
29.158258 27.538856 2.876735 40.210300 0.756844 1.499193 0.105986 -0.018536 -172288.000000 0 0 1
27.758558 28.055956 2.481435 39.545312 0.790726 1.508006 0.074128 -0.009246 191166.000000 0 0 1
27.608458 29.438256 2.850335 40.459391 0.817463 1.500289 0.065284 -0.018394 391940.000000 0 0 1
26.370058 29.907356 2.311935 39.939641 0.848170 1.512878 0.052675 -0.006121 561021.000000 0 0 1
26.036958 31.307356 2.866935 40.820253 0.877049 1.500505 0.062255 -0.015953 -61436.400000 0 0 1
25.950458 31.503656 4.295635 41.040944 0.881753 1.465937 0.061508 -0.029300 437888.000000 0 0 1
27.204258 31.439356 4.983635 41.872920 0.857491 1.451495 0.070886 -0.034900 286922.000000 0 0 1
27.167958 31.364256 6.567835 42.011319 0.856968 1.413818 0.088761 -0.039635 -202741.000000 0 0 1
26.772058 30.146056 7.219835 40.959172 0.844607 1.393601 0.091813 -0.045234 252038.000000 0 0 1
27.540758 28.953156 6.937235 40.557414 0.810394 1.398904 0.082890 -0.045443 100460.000000 0 0 1
26.909858 27.581856 7.391135 39.236821 0.797730 1.381292 0.107168 -0.048585 874455.000000 0 0 1
25.669258 27.315856 6.673335 38.073616 0.816465 1.394612 0.084565 -0.051932 891539.000000 0 0 1
25.144258 26.068256 7.003135 36.889451 0.803439 1.379796 0.105355 -0.043493 -460476.000000 0 0 1
23.770558 25.738456 6.390735 35.613888 0.825126 1.390374 0.108678 -0.029205 -174412.000000 0 0 1
23.742358 25.700456 4.978835 35.341220 0.824981 1.429447 0.073456 -0.027693 206383.000000 0 0 1
23.929858 26.921156 4.289635 36.273788 0.844155 1.452262 0.069754 -0.017962 -275162.000000 0 0 1
23.683158 26.739556 2.805135 35.829661 0.845940 1.492425 0.063163 -0.005420 -953297.000000 0 0 1
24.789458 26.121856 2.287135 36.084617 0.811563 1.507371 0.057586 0.005345 -627985.000000 0 0 1
24.682858 25.766056 0.888435 35.692050 0.806866 1.545902 0.071460 0.002270 611629.000000 0 0 1
25.915558 24.986256 0.278835 36.000096 0.767143 1.563051 0.091021 -0.006922 156191.000000 0 0 1
27.153858 25.685556 0.297435 37.378714 0.757617 1.562839 0.087059 -0.006523 286504.000000 0 0 1
28.176158 25.074156 -0.448265 37.720156 0.727211 1.582681 0.104382 -0.007908 26378.500000 0 0 1
28.900658 23.927256 0.253035 37.521003 0.691531 1.564052 0.098827 -0.014819 -1400930.000000 0 0 1
28.058458 22.844456 0.325335 36.183589 0.683324 1.561805 0.099294 -0.015581 125607.000000 0 0 1
28.564958 21.706856 1.082535 35.893124 0.649815 1.540632 0.101150 -0.019494 1181160.000000 0 0 1
27.262158 20.879356 1.496335 34.371671 0.653583 1.527249 0.102262 -0.022794 1042880.000000 0 0 1
26.932058 19.985356 0.464235 33.540509 0.638404 1.556955 0.133071 -0.039405 -257940.000000 0 0 1
25.947158 19.126756 0.870835 32.246646 0.635221 1.543788 0.120606 -0.034502 -870419.000000 0 0 1
25.306558 18.182356 -0.165765 31.161634 0.623024 1.576116 0.128981 -0.034546 -156650.000000 0 0 1
24.108958 17.582756 0.299035 29.840989 0.630123 1.560775 0.108242 -0.032785 244542.000000 0 0 1
23.494158 16.838756 -0.749365 28.915060 0.621860 1.596715 0.128985 -0.053096 -52650.600000 0 0 1
21.980258 16.702456 -0.496665 27.610695 0.649797 1.588785 0.099505 -0.034259 -606167.000000 0 0 1
21.370258 15.758456 -1.404265 26.589262 0.635389 1.623634 0.109898 -0.037421 872599.000000 0 0 1
20.025758 15.356756 -1.114065 25.260683 0.654198 1.614913 0.123498 -0.037930 646205.000000 0 0 1
18.952358 16.376556 -1.561865 25.096272 0.712618 1.633072 0.119808 -0.034857 -608330.000000 0 0 1
18.991958 17.604656 -0.865865 25.910772 0.747508 1.604220 0.098102 -0.031101 -17645.700000 0 0 1
17.973558 18.455556 -1.336065 25.796151 0.798629 1.622613 0.074513 -0.033090 -6874.670000 0 0 1
17.990858 19.815156 -0.668265 26.772336 0.833615 1.595760 0.066577 -0.024808 -125322.000000 0 0 1
17.781658 19.830956 0.768535 26.646666 0.839829 1.541951 0.074772 -0.023498 181978.000000 0 0 1
17.879958 21.067756 1.485535 27.672189 0.867064 1.517087 0.081669 -0.019687 -651704.000000 0 0 1
16.852558 22.120356 1.121835 27.831230 0.919750 1.530477 0.067034 -0.027400 -106665.000000 0 0 1
15.541258 21.834456 1.569435 26.846551 0.952210 1.512304 0.058795 -0.022599 252131.000000 0 0 1
14.570658 22.708356 1.013535 27.000014 1.000318 1.533249 0.048746 -0.024904 520583.000000 0 0 1
13.161458 22.689856 1.646135 26.282376 1.045168 1.508123 0.050036 -0.022241 320745.000000 0 0 1
13.154758 23.221656 2.954135 26.851813 1.055384 1.460557 0.045512 -0.005080 -43632.700000 0 0 1
11.825958 23.396556 3.406235 26.435857 1.102792 1.441588 0.041759 -0.006856 383781.000000 0 0 1
11.736558 23.573456 4.938935 26.792680 1.108853 1.385397 0.064010 -0.009744 208741.000000 0 0 1
12.213958 22.447356 5.682235 26.179235 1.072482 1.352004 0.075308 -0.034673 356868.000000 0 0 1
11.551558 22.421356 6.965735 26.166336 1.095060 1.301338 0.069993 -0.022577 -309804.000000 0 0 1
12.072958 21.331856 7.938035 25.764642 1.055783 1.257603 0.078356 -0.023650 -100882.000000 0 0 1
13.309058 21.468356 8.574635 26.674814 1.015845 1.243535 0.095397 -0.028756 677086.000000 0 0 1
14.487458 21.417156 7.734835 26.989048 0.976057 1.280129 0.095363 -0.026712 -100306.000000 0 0 1
15.826558 21.611356 8.417235 28.078114 0.938703 1.266335 0.117419 -0.032546 -954212.000000 0 0 1
16.307658 20.349756 8.979135 27.580376 0.895221 1.239190 0.134440 -0.037638 1284300.000000 0 0 1
17.686658 20.339656 9.406435 28.548214 0.855053 1.235030 0.123049 -0.039466 1051170.000000 0 0 1
17.838658 21.238356 10.668935 29.717195 0.872180 1.203583 0.090355 -0.032549 -864189.000000 0 0 1
17.246658 20.763656 11.820635 29.466999 0.877663 1.158026 0.105525 -0.044334 -48820.500000 0 0 1
17.544358 21.677956 12.864735 30.712207 0.890399 1.138585 0.108747 -0.045956 -482626.000000 0 0 1
18.544458 21.173656 13.884635 31.384769 0.851498 1.112523 0.098646 -0.030922 -8291.320000 0 0 1
19.879258 21.243956 13.412435 32.037228 0.818572 1.138836 0.107109 -0.030060 223499.000000 0 0 1
20.821358 20.792456 14.420135 32.768819 0.784704 1.115135 0.100331 -0.026002 163141.000000 0 0 1
22.261558 21.203656 14.160635 33.848125 0.761064 1.139160 0.109587 -0.029115 -531904.000000 0 0 1
22.877958 20.547856 13.069835 33.413110 0.731792 1.168906 0.122606 -0.030442 70618.000000 0 0 1
24.260358 20.869056 13.075135 34.569374 0.710393 1.182914 0.130769 -0.026285 174592.000000 0 0 1
24.997158 20.321956 11.851235 34.326252 0.682600 1.218288 0.133203 -0.030022 -132322.000000 0 0 1
24.593758 20.922956 10.626235 33.993233 0.704925 1.252869 0.145354 -0.027181 -34905.900000 0 0 1
25.479358 20.698556 9.570935 34.194016 0.682236 1.287105 0.160635 -0.036447 -585790.000000 0 0 1
25.512658 21.756556 8.450235 34.578171 0.706103 1.323915 0.144862 -0.035812 -203349.000000 0 0 1
25.955958 23.026556 8.848335 35.808198 0.725664 1.321106 0.130464 -0.039964 293103.000000 0 0 1
27.315858 23.231156 8.503135 36.853033 0.704763 1.337967 0.102610 -0.037192 -154976.000000 0 0 1
27.971858 24.411256 9.255035 38.262122 0.717530 1.326488 0.109050 -0.042968 -1077470.000000 0 0 1
29.198858 24.791956 8.765235 39.294322 0.703956 1.345838 0.091587 -0.031105 -687054.000000 0 0 1
29.706458 25.842956 9.587735 40.524766 0.715959 1.331942 0.086728 -0.023947 45375.300000 0 0 1
30.933198 26.616956 9.091835 41.808929 0.710539 1.351583 0.070533 -0.024495 177491.000000 0 0 1
30.624858 27.438556 7.958335 41.881874 0.730577 1.379615 0.077974 -0.031767 184675.000000 0 0 1
31.857948 27.810856 7.392935 42.930503 0.717676 1.397727 0.061568 -0.021337 42845.900000 0 0 1
31.702508 28.783256 6.177235 43.262953 0.737172 1.427523 0.096822 -0.021955 133791.000000 0 0 1
31.690218 30.168856 6.484535 44.232104 0.760809 1.423664 0.097866 -0.024234 90585.000000 0 0 1
31.425358 30.863856 5.240635 44.357581 0.776384 1.452375 0.121808 -0.034239 121828.000000 0 0 1
31.329858 32.383156 5.416935 45.382508 0.801929 1.451149 0.088096 -0.027824 -461588.000000 0 0 1
30.231958 32.834456 6.133535 45.052115 0.826641 1.434229 0.084005 -0.035581 -547018.000000 0 0 1
30.321258 -33.571590 6.465935 45.697250 -0.836226 1.428825 0.082643 -0.031481 -409825.000000 0 0 1
28.960558 -33.041890 6.889735 44.474137 -0.851129 1.415254 0.110558 -0.036529 35926.900000 0 0 1
27.995258 -33.053590 5.828535 43.706362 -0.868066 1.437041 0.103252 -0.038447 892341.000000 0 0 1
26.722458 -32.492190 6.241635 42.529874 -0.882529 1.423505 0.103292 -0.041007 593290.000000 0 0 1
25.761058 -32.628290 5.076635 41.880898 -0.902471 1.449282 0.088619 -0.027529 -521922.000000 0 0 1
26.119658 -31.863590 3.942135 41.389194 -0.884138 1.475406 0.071648 -0.014172 -24022.500000 0 0 1
25.050058 -31.881490 3.002835 40.656510 -0.904821 1.496870 0.072697 -0.020721 171608.000000 0 0 1
25.243458 -31.112090 1.687935 40.100417 -0.889160 1.528691 0.068525 -0.006610 -58641.200000 0 0 1
25.443058 -29.689390 1.840735 39.143293 -0.862267 1.523753 0.082841 -0.001110 -83532.100000 0 0 1
25.890858 -29.070490 0.690535 38.934647 -0.843186 1.553060 0.068981 0.005990 -469800.000000 0 0 1
26.146858 -27.597690 0.967235 38.029281 -0.812387 1.545360 0.087296 -0.010443 242772.000000 0 0 1
24.988058 -26.769990 0.939635 36.632204 -0.819813 1.545143 0.079644 -0.009014 76910.600000 0 0 1
24.477558 -26.584990 -0.376065 36.139369 -0.826646 1.581202 0.080011 -0.012060 -282875.000000 0 0 1
23.278458 -25.618690 -0.347965 34.616831 -0.833222 1.580848 0.057636 0.001487 -145576.000000 0 0 1
23.620758 -24.230390 -0.101265 33.838769 -0.798138 1.573789 0.073170 -0.014363 -127087.000000 0 0 1
23.656258 -23.814190 1.239435 33.589737 -0.788725 1.533889 0.063680 -0.001897 -223099.000000 0 0 1
22.306858 -23.605190 1.942535 32.535740 -0.813669 1.511056 0.056236 -0.001794 -307841.000000 0 0 1
22.399258 -23.185690 3.258535 32.402485 -0.802648 1.470062 0.052938 0.000859 -31122.900000 0 0 1
21.135058 -22.994990 3.879935 31.472435 -0.827520 1.447201 0.057128 -0.002606 168616.000000 0 0 1
21.189058 -22.227790 5.219435 31.149532 -0.809318 1.402442 0.045377 0.000555 -64711.100000 0 0 1
21.469458 -20.850690 5.173335 30.371900 -0.770778 1.399629 0.073089 0.002788 374682.000000 0 0 1
20.336958 -20.084390 4.771335 28.978272 -0.779150 1.405391 0.055615 0.002472 19630.800000 0 0 1
20.419858 -18.616190 5.222035 28.121216 -0.739226 1.384015 0.056621 -0.000155 -80987.200000 0 0 1
20.172858 -18.190490 6.570435 27.946534 -0.733771 1.333467 0.091189 -0.011533 394786.000000 0 0 1
18.801858 -18.274190 6.955835 27.126362 -0.771167 1.311476 0.079391 -0.005429 613935.000000 0 0 1
19.171543 -26.287524 -11.457165 34.494182 -0.940674 1.909376 0.134482 -0.020315 -534196.000000 0 0 1
19.323643 -25.056074 -12.063365 33.863473 -0.913855 1.935032 0.148011 -0.023114 476371.000000 0 0 1
18.098643 -24.576044 -12.655865 33.041092 -0.936034 1.963875 0.085557 -0.019645 588321.000000 0 0 1
18.232443 -23.122344 -13.223265 32.278778 -0.903094 1.992876 0.080118 -0.027143 -175560.000000 0 0 1
18.313043 -22.032144 -12.313565 31.183438 -0.877320 1.976728 0.087894 -0.026908 -126547.000000 0 0 1
19.552043 -21.752544 -11.685565 31.496158 -0.838623 1.950899 0.083922 -0.027996 -262134.000000 0 0 1
19.732243 -22.330744 -10.267765 31.519050 -0.847096 1.902616 0.102225 -0.019665 -179472.000000 0 0 1
18.949043 -21.838944 -9.241865 30.354864 -0.856132 1.880169 0.092795 -0.022717 576153.000000 0 0 1
17.566943 -22.233744 -9.158565 29.779459 -0.902119 1.883410 0.084094 -0.002973 1101400.000000 0 0 1
16.724543 -21.380744 -8.154165 28.343199 -0.906988 1.862614 0.069759 -0.006859 -713086.000000 0 0 1
16.638043 -20.003544 -8.456265 27.358265 -0.876990 1.885036 0.058427 -0.015305 -207318.000000 0 0 1
15.723043 -19.347144 -7.646065 26.076587 -0.888371 1.868385 0.066448 -0.023487 436622.000000 0 0 1
14.245943 -19.485344 -8.157165 25.478714 -0.939494 1.896691 0.048015 -0.010652 161455.000000 0 0 1
13.704043 -20.765644 -7.846965 26.088074 -0.987466 1.876315 0.044407 -0.010960 20795.200000 0 0 1
12.302743 -20.840444 -8.082865 25.514982 -1.037517 1.893139 0.053068 -0.019092 518009.000000 0 0 1
11.706843 -22.238244 -7.903665 26.344973 -1.086230 1.875496 0.062864 -0.014934 -67670.200000 0 0 1
11.902143 -22.593144 -6.545965 26.362109 -1.085937 1.821731 0.058376 -0.014445 14639.900000 0 0 1
11.136543 -23.679244 -6.117565 26.872919 -1.131183 1.800458 0.045472 -0.012496 -182874.000000 0 0 1
11.644043 -24.138344 -4.790465 27.224840 -1.121337 1.747677 0.053449 -0.011465 -202334.000000 0 0 1
10.796343 -25.003704 -4.050465 27.534569 -1.163189 1.718437 0.067172 -0.011830 -452716.000000 0 0 1
11.397543 -25.726184 -2.996565 28.296995 -1.153751 1.676892 0.067385 -0.017061 -297302.000000 0 0 1
10.406343 -26.562444 -2.170865 28.610628 -1.197406 1.646745 0.072503 -0.011629 -75951.700000 0 0 1
9.348143 -25.817484 -1.636265 27.506501 -1.223396 1.630318 0.050416 -0.005241 -543658.000000 0 0 1
8.819343 -26.582724 -0.606965 28.014111 -1.250454 1.592464 0.057262 -0.010923 -275216.000000 0 0 1
7.971243 -25.917134 0.460135 27.119186 -1.272412 1.553828 0.054215 -0.009948 -748022.000000 0 0 1
6.696843 -25.534814 0.070835 26.398474 -1.314310 1.568113 0.053462 -0.013482 -907187.000000 0 0 1
5.966643 -25.298764 1.246035 26.022700 -1.339182 1.522895 0.053097 -0.009783 174323.000000 0 0 1
4.516643 -24.815944 0.954735 25.241685 -1.390761 1.532964 0.059764 -0.023387 361114.000000 0 0 1
3.553843 -25.764704 0.599235 26.015550 -1.433727 1.547761 0.056676 -0.025813 326649.000000 0 0 1
2.234843 -25.282714 0.831335 25.394906 -1.482631 1.538054 0.065550 -0.026440 220353.000000 0 0 1
1.021943 -26.118184 0.455435 26.142137 -1.531689 1.553374 0.083313 -0.023599 -169167.000000 0 0 1
0.742043 -27.264904 1.278835 27.304964 -1.543587 1.523944 0.075135 -0.020286 167427.000000 0 0 1
1.641943 -28.346594 1.058235 28.413821 -1.512937 1.533544 0.055171 -0.021267 -246995.000000 0 0 1
1.124943 -29.590034 1.718435 29.661231 -1.532797 1.512828 0.085130 -0.021955 -49228.800000 0 0 1
1.385543 -29.575204 3.098535 29.769336 -1.523982 1.466523 0.056009 -0.022468 -42302.300000 0 0 1
0.732743 -30.606434 3.771535 30.846640 -1.546860 1.448222 0.096739 -0.031357 -171879.000000 0 0 1
0.844843 -30.459354 5.268335 30.923152 -1.543067 1.399593 0.088196 -0.027209 1644270.000000 0 0 1
2.192143 -30.718194 5.823835 31.342144 -1.499554 1.383895 0.043255 -0.013386 1919120.000000 0 0 1
2.122343 -30.454684 7.210435 31.368495 -1.501220 1.338860 0.051589 -0.016353 48490.000000 0 0 1
3.466743 -30.802654 7.858335 31.977730 -1.458721 1.322509 0.056743 -0.017684 -42419.800000 0 0 1
3.819743 -32.156064 7.891635 33.329878 -1.452563 1.331753 0.052241 -0.015059 1526210.000000 0 0 1
5.244943 -32.353864 8.189635 33.783902 -1.410083 1.325945 0.038121 -0.015389 1677080.000000 0 0 1
5.571143 -33.815714 7.906235 35.171703 -1.407513 1.344069 0.018558 -0.007608 -423591.000000 0 0 1
5.613643 33.575172 6.522935 34.660552 1.405132 1.381473 0.013431 -0.003692 -6562.820000 0 0 1
5.458943 32.166668 6.269335 33.223473 1.402690 1.380956 0.018587 -0.010188 -697694.000000 0 0 1
5.571543 31.788051 4.776735 32.624216 1.397287 1.423851 0.028840 -0.017829 -810145.000000 0 0 1
6.899543 31.729612 4.384835 32.765817 1.356681 1.436570 0.039864 -0.016302 -602216.000000 0 0 1
7.549343 30.467222 4.674235 31.734723 1.327903 1.422968 0.031094 -0.011910 -466000.000000 0 0 1
8.939243 30.509512 4.046335 32.048607 1.285775 1.444202 0.028732 -0.005450 -283896.000000 0 0 1
9.881943 31.403452 4.633935 33.246097 1.265929 1.430958 0.035482 -0.013297 -877744.000000 0 0 1
11.063343 31.361742 3.932335 33.487605 1.231660 1.453098 0.042021 -0.019420 -589161.000000 0 0 1
12.273443 31.935401 4.706935 34.534946 1.203879 1.434076 0.061765 -0.034697 184826.000000 0 0 1
12.817343 30.998402 5.629735 34.012926 1.178720 1.404514 0.064339 -0.025805 -176069.000000 0 0 1
14.083243 31.399532 6.116335 34.952509 1.149176 1.394901 0.093052 -0.024847 140567.000000 0 0 1
14.544443 30.276482 7.051635 34.321010 1.122961 1.363861 0.078132 -0.025460 -190105.000000 0 0 1
14.061943 30.300312 8.386635 34.441004 1.136291 1.324816 0.073842 -0.021851 58826.400000 0 0 1
14.509743 29.122482 9.052035 33.772636 1.108564 1.299450 0.069658 -0.025876 -7946.960000 0 0 1
14.445343 29.290602 10.554135 34.321962 1.112625 1.258228 0.057780 -0.012888 -57126.800000 0 0 1
15.387843 30.117632 11.188735 35.623661 1.098447 1.251307 0.067268 -0.020922 -157748.000000 0 0 1
15.105943 30.145882 12.548335 35.978110 1.106273 1.214531 0.061374 -0.017414 -546981.000000 0 0 1
16.071943 30.947022 13.370935 37.347121 1.091799 1.204652 0.068043 -0.014653 -575500.000000 0 0 1
17.184643 30.177902 13.760735 37.354726 1.053147 1.193530 0.074550 -0.021092 -275240.000000 0 0 1
17.919343 30.961922 14.669535 38.664437 1.046145 1.181642 0.067510 -0.016539 3044.810000 0 0 1
19.169443 30.323442 15.320535 39.008941 1.007061 1.167183 0.083237 -0.024552 -427639.000000 0 0 1
20.234843 30.039532 14.499535 39.013573 0.978004 1.190007 0.072480 -0.028299 -615766.000000 0 0 1
20.721043 28.731742 14.798435 38.390992 0.945990 1.175083 0.064053 -0.021054 -707617.000000 0 0 1
22.116143 28.461332 14.214135 38.745488 0.910201 1.195166 0.096150 -0.025388 -672005.000000 0 0 1
23.124843 28.795302 15.108035 39.902136 0.894182 1.182484 0.107498 -0.024129 -253867.000000 0 0 1
24.396943 28.721642 14.468535 40.366843 0.866635 1.204215 0.117715 -0.022350 -634886.000000 0 0 1
25.537543 28.852032 15.411335 41.498374 0.846263 1.190310 0.122117 -0.024794 -1110570.000000 0 0 1
25.923143 27.641412 16.059035 41.157619 0.817466 1.169965 0.120617 -0.020251 -286858.000000 0 0 1
26.854443 27.883522 17.057935 42.303960 0.804196 1.155760 0.120271 -0.022773 -637146.000000 0 0 1
27.664043 26.725202 17.631035 42.312989 0.768138 1.141005 0.082534 -0.020558 26690.200000 0 0 1
26.946443 25.621532 18.234035 41.413207 0.760200 1.114869 0.086385 -0.019389 76206.300000 0 0 1
26.680343 25.748852 19.641735 41.960003 0.767633 1.083650 0.115078 -0.019810 -1743.350000 0 0 1
26.147443 24.450992 20.241835 41.125073 0.751883 1.056179 0.131896 -0.019622 305786.000000 0 0 1
27.116343 23.406302 20.358435 41.202147 0.712097 1.053984 0.079137 -0.011019 378662.000000 0 0 1
26.421143 22.186702 20.394235 40.078066 0.698503 1.036933 0.093110 -0.017017 849382.000000 0 0 1
27.403443 20.979602 20.049535 39.913359 0.653400 1.044509 0.061052 -0.018446 636545.000000 0 0 1
26.715543 19.751702 19.969335 38.763698 0.636640 1.029607 0.052327 -0.011007 300451.000000 0 0 1
27.572443 18.600502 20.025035 38.822935 0.593478 1.028850 0.057086 -0.022247 354263.000000 0 0 1
28.140943 18.184202 21.391735 39.751531 0.573687 1.002572 0.059367 -0.017298 -13216.000000 0 0 1
27.138943 17.722402 22.279535 39.331710 0.578499 0.968602 0.052768 -0.007871 322411.000000 0 0 1
27.636543 17.501602 23.565835 40.316661 0.564530 0.946510 0.075553 -0.007132 509937.000000 0 0 1
26.488943 16.729802 24.313135 39.657016 0.563315 0.910836 0.075873 -0.010201 582542.000000 0 0 1
26.258843 15.413002 23.919335 38.719789 0.530779 0.904912 0.063171 -0.021316 -427890.000000 0 0 1
25.175043 14.798202 24.527035 38.135876 0.531410 0.872193 0.062091 -0.018833 -579681.000000 0 0 1
24.786443 13.468402 23.870635 36.953658 0.497745 0.868514 0.064406 -0.019496 -595606.000000 0 0 1
23.598243 12.984202 24.393035 36.338502 0.503011 0.834872 0.051791 -0.021532 -579830.000000 0 0 1
23.170843 11.823402 23.709035 35.196578 0.471830 0.831704 0.070098 -0.025497 310375.000000 0 0 1
21.887043 11.209002 24.360835 34.614082 0.473304 0.790086 0.078098 -0.029590 610370.000000 0 0 1
20.735043 12.014302 24.215235 34.068505 0.525150 0.780189 0.100578 -0.040947 -244100.000000 0 0 1
19.564243 11.255602 24.017235 32.958698 0.522071 0.754364 0.112574 -0.040757 -472634.000000 0 0 1
18.332243 12.145902 24.050535 32.588683 0.585142 0.740691 0.099837 -0.055969 -590570.000000 0 0 1
18.232843 12.737802 25.326735 33.706552 0.609798 0.720632 0.108712 -0.033823 -145187.000000 0 0 1
17.057243 13.509202 25.238135 33.322838 0.669839 0.711501 0.115509 -0.037760 -163513.000000 0 0 1
16.685043 13.936802 26.674035 34.411179 0.695890 0.683834 0.090142 -0.015251 -470859.000000 0 0 1
16.048743 12.947602 27.421935 34.309839 0.678854 0.644760 0.110791 -0.015301 -95613.600000 0 0 1
15.966243 13.181302 28.791835 35.463184 0.690141 0.623432 0.087921 -0.020709 -466092.000000 0 0 1
17.295543 12.943802 29.539735 36.596089 0.642470 0.631432 0.082482 -0.011306 -348912.000000 0 0 1
18.132843 13.999002 29.191835 37.107078 0.657449 0.665364 0.111432 -0.032057 196893.000000 0 0 1
19.527643 13.723502 29.361535 37.838645 0.612585 0.682550 0.095191 -0.015561 414102.000000 0 0 1
20.399843 14.970902 28.992835 38.482021 0.633100 0.717560 0.127150 -0.019251 -50614.900000 0 0 1
20.452343 15.402602 27.626535 37.666483 0.645480 0.747411 0.129884 -0.033179 335154.000000 0 0 1
20.865743 14.372102 26.721135 36.823302 0.603162 0.758806 0.115543 -0.034015 -480221.000000 0 0 1
20.783543 14.937602 25.279735 35.974333 0.623181 0.791589 0.102606 -0.038502 -51388.700000 0 0 1
21.826443 15.879502 25.040035 36.817870 0.628968 0.822890 0.113347 -0.028962 476587.000000 0 0 1
21.648143 16.569702 23.805935 36.192812 0.653291 0.852964 0.099144 -0.033919 -726287.000000 0 0 1
22.831843 17.437502 23.476535 37.101310 0.652234 0.885673 0.088757 -0.024610 -875969.000000 0 0 1
22.761343 18.000302 22.182435 36.526018 0.669123 0.918132 0.092170 -0.020205 792815.000000 0 0 1
23.913743 18.840602 21.900635 37.502976 0.667292 0.947185 0.081670 -0.019768 823645.000000 0 0 1
24.006043 20.222702 22.552935 38.650778 0.700066 0.947758 0.102053 -0.024157 -199799.000000 0 0 1
23.036443 21.095302 22.035535 38.226356 0.741441 0.956420 0.113174 -0.019206 -140805.000000 0 0 1
23.053643 22.272902 22.757835 39.312487 0.768175 0.953422 0.124075 -0.022942 401138.000000 0 0 1
22.324743 23.643862 22.412335 39.493532 0.814086 0.967337 0.132778 -0.030271 546066.000000 0 0 1
22.851743 24.152672 21.216835 39.442462 0.813068 1.002830 0.139971 -0.028786 157481.000000 0 0 1
22.104543 25.317822 21.004035 39.632971 0.853053 1.012239 0.132846 -0.026310 -26096.900000 0 0 1
22.658243 26.153162 19.880535 39.907637 0.856877 1.049317 0.129091 -0.029052 -184274.000000 0 0 1
22.601643 25.463762 18.613235 38.803221 0.844874 1.070503 0.112321 -0.031276 176301.000000 0 0 1
22.957043 26.280102 17.428935 39.005607 0.852787 1.107576 0.107796 -0.043173 63878.200000 0 0 1
22.818243 25.435302 16.127535 37.785238 0.839581 1.129822 0.093659 -0.025475 -525537.000000 0 0 1
21.454643 25.343292 15.807335 36.775753 0.868302 1.126491 0.082163 -0.026345 -386477.000000 0 0 1
21.320343 24.935962 14.439035 35.844734 0.863404 1.156199 0.091917 -0.024894 279502.000000 0 0 1
19.867943 24.782442 13.874135 34.661163 0.895023 1.158975 0.085638 -0.028827 596285.000000 0 0 1
19.173143 25.990482 13.664335 35.068912 0.935215 1.170553 0.081535 -0.025987 -406246.000000 0 0 1
18.336543 26.358942 14.725135 35.324952 0.962997 1.140821 0.082628 -0.023105 -249424.000000 0 0 1
16.815043 26.288582 14.328435 34.338597 1.001744 1.140358 0.086207 -0.027451 474282.000000 0 0 1
16.287643 24.950182 14.239435 33.023634 0.992451 1.124986 0.089962 -0.032859 24050.400000 0 0 1
16.173443 24.109782 15.376235 32.852556 0.979920 1.083727 0.103549 -0.037939 -521005.000000 0 0 1
15.019643 24.550042 16.274435 33.062841 1.021748 1.056150 0.127742 -0.047480 -335618.000000 0 0 1
15.377643 25.638672 17.126635 34.454826 1.030536 1.050572 0.113564 -0.045197 181260.000000 0 0 1
14.253243 26.050802 17.870135 34.657480 1.070157 1.029064 0.111966 -0.044636 195913.000000 0 0 1
14.633843 27.352782 18.698635 36.221030 1.079539 1.028345 0.112266 -0.049480 -17349.800000 0 0 1
14.651043 28.533082 17.899935 36.731424 1.096426 1.061779 0.098558 -0.039972 256583.000000 0 0 1
15.407043 29.551302 18.567135 38.149638 1.090202 1.062497 0.084310 -0.032421 66518.700000 0 0 1
15.329743 30.867172 17.849835 38.812368 1.109844 1.092913 0.069532 -0.029311 -248089.000000 0 0 1
14.047643 31.438842 17.797435 38.761911 1.150586 1.093761 0.086094 -0.031943 -259957.000000 0 0 1
13.955043 32.740068 17.241035 39.546284 1.167878 1.119679 0.075366 -0.024806 773455.000000 0 0 1
12.589943 33.471642 17.560135 39.839877 1.211029 1.114342 0.088914 -0.035239 502686.000000 0 0 1
12.573543 -32.989334 17.015735 39.190884 -1.206654 1.121673 0.090513 -0.027979 -62983.100000 0 0 1
13.309343 -31.848374 17.492335 38.696761 -1.174957 1.101750 0.084661 -0.026646 88459.800000 0 0 1
13.333143 -31.578024 19.030935 39.206132 -1.171275 1.063968 0.089851 -0.041833 -332745.000000 0 0 1
14.273243 -32.439004 19.611335 40.504554 -1.156287 1.065375 0.088615 -0.038646 1370.320000 0 0 1
14.132243 -32.563954 21.011535 41.250648 -1.161341 1.036352 0.087926 -0.038399 353177.000000 0 0 1
15.439143 -33.145394 21.687935 42.512949 -1.134881 1.035438 0.071494 -0.036831 681516.000000 0 0 1
16.447843 -32.150934 21.556435 42.058221 -1.097926 1.032658 0.083578 -0.035054 -713847.000000 0 0 1
17.645443 -32.604294 22.125535 43.173382 -1.074734 1.032725 0.104181 -0.033039 -819556.000000 0 0 1
18.723043 -31.584624 21.795035 42.698529 -1.035695 1.035100 0.109745 -0.034976 -664682.000000 0 0 1
18.591743 -30.254474 22.172435 41.864101 -1.019774 1.012633 0.115456 -0.042610 -124873.000000 0 0 1
19.751243 -29.536424 21.844935 41.709868 -0.981382 1.019566 0.120406 -0.036680 -361861.000000 0 0 1
-5.045957 12.942456 18.518725 23.149774 -1.199048 0.643580 0.022077 -0.007143 -517301.000000 0 1 0
-4.677257 14.012956 17.751325 23.094354 -1.248643 0.694079 0.029959 -0.020220 265362.000000 0 1 0
-5.820657 14.775956 17.352925 23.523030 -1.195536 0.741140 0.026182 -0.014488 234061.000000 0 1 0
-5.567857 16.270256 17.270225 24.371765 -1.241077 0.783261 0.044823 -0.025797 -171911.000000 0 1 0
-5.164757 16.907756 18.450125 25.552965 -1.274332 0.764058 0.054835 -0.021314 187569.000000 0 0 1
-4.988957 18.279956 18.123525 26.220386 -1.304365 0.807648 0.067142 -0.012695 -623592.000000 0 0 1
-4.372657 19.057056 19.249725 27.437992 -1.345250 0.793195 0.059462 -0.014148 -941430.000000 0 0 1
-5.133057 19.230856 20.382425 28.488898 -1.309960 0.773526 0.045641 -0.013760 -706145.000000 0 0 1
-4.475457 20.000756 21.334325 29.584005 -1.350658 0.765344 0.051989 -0.009615 -215273.000000 0 0 1
-5.341657 20.166256 22.595525 30.753356 -1.311862 0.745522 0.036811 -0.010422 43072.400000 0 0 1
-5.783057 18.984756 23.271985 30.585127 -1.275110 0.706109 0.037095 -0.015131 -214369.000000 0 0 1
-6.446057 19.336156 24.465125 31.843067 -1.249014 0.694611 0.029282 -0.017263 -105681.000000 0 0 1
-5.654557 20.090756 25.571205 33.007560 -1.296443 0.684544 0.024851 -0.019158 -330959.000000 0 0 1
-5.358857 21.457656 25.226695 33.548986 -1.326061 0.719802 0.036130 -0.014825 630298.000000 0 0 1
-4.315357 22.149856 25.948665 34.388539 -1.378381 0.715793 0.038140 -0.002473 1433970.000000 0 0 1
-2.837357 21.716756 25.678235 33.749664 -1.440879 0.706183 0.049971 -0.003022 366066.000000 0 0 1
-2.360157 20.448356 26.190235 33.311169 -1.455884 0.666112 0.058369 0.000851 890793.000000 0 0 1
-0.959257 20.241956 25.962365 32.934804 -1.523442 0.662762 0.058892 0.000990 715221.000000 0 0 1
-0.395157 18.863756 26.387985 32.439531 -1.549851 0.620734 0.073296 0.010992 -150209.000000 0 0 1
-0.896657 17.653356 25.750385 31.233432 -1.520047 0.601568 0.078889 -0.003421 60132.200000 0 0 1
-0.239957 16.420956 26.109555 30.845003 -1.556184 0.561465 0.084637 -0.008937 324952.000000 0 0 1
1.245243 16.196956 25.717605 30.418534 1.494066 0.563373 0.108184 -0.008833 195609.000000 0 0 1
1.489243 16.112656 24.296355 29.191581 1.478631 0.587540 0.090074 -0.018481 -83553.200000 0 0 1
1.251243 14.826656 23.720345 28.000894 1.486604 0.560239 0.099993 -0.015684 -396929.000000 0 0 1
1.121943 14.905756 22.161325 26.731342 1.495669 0.593409 0.100991 -0.032345 902016.000000 0 0 1
2.399543 15.062056 21.497225 26.358187 1.412813 0.617065 0.092503 -0.029459 406134.000000 0 0 1
3.070943 13.832656 21.343825 25.618976 1.352333 0.586061 0.088631 -0.033001 -463842.000000 0 0 1
4.573243 14.128456 21.220325 25.900386 1.257750 0.610598 0.088420 -0.034072 -341511.000000 0 0 1
4.953643 14.643056 19.968525 25.252716 1.244589 0.658767 0.080731 -0.042056 -361964.000000 0 0 1
6.330243 14.938056 19.928725 25.697696 1.169971 0.683280 0.070833 -0.038404 -77119.200000 0 0 1
6.723943 15.859756 18.772225 25.478220 1.169805 0.742479 0.071416 -0.040137 -15347.500000 0 0 1
6.767143 15.184756 17.545525 24.170570 1.151563 0.758448 0.078532 -0.053432 127979.000000 0 1 0
7.050943 16.175056 16.531125 24.179047 1.159717 0.817981 0.071338 -0.038228 -150901.000000 0 1 0
7.064443 15.609556 15.142425 22.866080 1.145806 0.847016 0.068047 -0.029906 599409.000000 0 1 0
8.120743 14.729656 14.694925 22.334951 1.066941 0.852724 0.062938 -0.034085 608219.000000 0 1 0
8.402243 13.542356 15.438525 22.188761 1.015482 0.801289 0.066116 -0.037213 -403639.000000 0 1 0
9.623843 12.778856 14.914225 21.871251 0.925310 0.820426 0.071220 -0.034290 575800.000000 0 1 0
10.859243 13.501456 15.024225 22.933377 0.893438 0.856449 0.059933 -0.035191 263418.000000 0 1 0
11.835343 13.029356 14.135625 22.575547 0.833382 0.894194 0.075399 -0.028452 112259.000000 0 1 0
13.182543 13.794956 14.355025 23.877751 0.808095 0.925809 0.074412 -0.016145 -635346.000000 0 1 0
13.838043 13.400056 15.535325 24.746702 0.769320 0.892107 0.062267 -0.028953 -106669.000000 0 1 0
15.188043 13.787756 15.528925 25.727930 0.737110 0.922810 0.068794 -0.028739 340205.000000 0 0 1
16.188043 13.031056 14.562725 25.375857 0.677770 0.959559 0.078135 -0.031867 -912919.000000 0 0 1
17.477343 13.556856 14.650225 26.530641 0.659736 0.985795 0.079225 -0.039463 322593.000000 0 0 1
18.373543 13.239056 13.555425 26.393355 0.624385 1.031430 0.076746 -0.036791 994528.000000 0 0 1
19.787843 13.854456 13.802225 27.820965 0.610827 1.051685 0.072417 -0.038094 908800.000000 0 0 1
20.611043 13.305956 14.849625 28.677080 0.573258 1.026493 0.071107 -0.045313 367608.000000 0 0 1
21.957943 13.688356 14.723025 29.770620 0.557441 1.053481 0.102615 -0.047741 -40006.600000 0 0 1
22.876243 13.287056 15.913925 30.872663 0.526200 1.029241 0.109818 -0.043268 41967.800000 0 0 1
23.121643 11.906356 16.090825 30.582451 0.475531 1.016735 0.109912 -0.039748 239947.000000 0 0 1
23.933743 11.727756 17.215225 31.728981 0.455623 0.997302 0.100976 -0.045069 -359402.000000 0 0 1
24.368543 10.309956 17.589525 31.772826 0.400247 0.984112 0.110639 -0.040455 -267528.000000 0 0 1
23.354643 9.477156 18.102225 31.031377 0.385491 0.947946 0.095168 -0.035399 114688.000000 0 0 1
22.943543 8.495356 17.201625 29.907743 0.354619 0.958001 0.074906 -0.017078 -193696.000000 0 0 1
21.719043 7.722056 17.736325 29.084776 0.341604 0.914970 0.115411 -0.019165 -161084.000000 0 0 1
21.619943 6.446956 17.175525 28.354608 0.289800 0.920101 0.123022 -0.023077 59006.600000 0 0 1
20.549143 5.734856 17.728925 27.739333 0.272155 0.877435 0.145636 -0.018012 -393983.000000 0 0 1
20.453543 4.325656 17.139525 27.033720 0.208416 0.884075 0.180448 -0.012362 -193654.000000 0 0 1
19.825043 4.298656 15.851225 25.744360 0.213524 0.907502 0.178268 -0.023576 527670.000000 0 0 1
20.011743 3.025756 15.283825 25.361789 0.150062 0.924001 0.179528 -0.033171 -249622.000000 0 0 1
18.936143 1.961756 15.554625 24.583985 0.103230 0.885744 0.193832 -0.029150 -349075.000000 0 1 0
19.290043 1.208056 16.742125 25.570762 0.062544 0.856962 0.194616 -0.045402 -55438.200000 0 0 1
18.244143 1.032956 17.644025 25.401326 0.056558 0.802918 0.170932 -0.039806 -668158.000000 0 0 1
18.655043 0.278356 18.947925 26.591577 0.014920 0.777665 0.181400 -0.045194 -10014.400000 0 0 1
18.799143 -1.113144 18.889825 26.673439 -0.059143 0.783867 0.190891 -0.043552 -123546.000000 0 0 1
17.571643 -1.640244 19.297425 26.150404 -0.093076 0.740784 0.144222 -0.025626 -291575.000000 0 0 1
17.548243 -3.122844 18.891925 25.973021 -0.176114 0.756319 0.101904 -0.024252 -81304.400000 0 0 1
17.291743 -3.275644 17.502825 24.821021 -0.187216 0.788146 0.116122 -0.038887 156804.000000 0 1 0
17.667943 -4.517544 16.969825 24.910627 -0.250328 0.821357 0.158392 -0.033497 -82649.800000 0 1 0
17.390843 -4.541644 15.442625 23.696890 -0.255446 0.861008 0.149729 -0.046004 -277246.000000 0 1 0
16.040043 -4.607644 15.048325 22.471436 -0.279727 0.837039 0.131261 -0.045228 -125318.000000 0 1 0
15.780043 -4.525244 13.673925 21.365013 -0.279275 0.876279 0.131725 -0.040862 42955.400000 0 1 0
15.978443 -3.157744 12.963425 20.816637 -0.195111 0.898552 0.124302 -0.039312 -128499.000000 0 1 0
15.128243 -2.144644 13.435125 20.346150 -0.140826 0.849541 0.112683 -0.027815 212474.000000 0 1 0
15.485043 -0.953344 12.773025 20.095909 -0.061488 0.882007 0.106213 -0.025883 262697.000000 0 1 0
14.595243 0.209456 13.324825 19.764006 0.014350 0.830920 0.102846 -0.012943 -123089.000000 0 1 0
14.794443 1.561856 12.877125 19.675753 0.105181 0.857319 0.101106 -0.016014 503561.000000 0 1 0
15.758643 2.391056 13.575225 20.936540 0.150581 0.865317 0.128547 -0.024316 370607.000000 0 1 0
16.078643 3.719056 12.843525 20.911964 0.227307 0.909461 0.112584 -0.024347 587475.000000 0 1 0
14.961143 4.633556 12.934825 20.312935 0.300337 0.880484 0.086148 -0.021458 984927.000000 0 1 0
15.175743 5.834856 12.167625 20.307629 0.367061 0.928338 0.104622 -0.029982 413864.000000 0 1 0
14.126943 6.976656 12.442225 20.076185 0.458719 0.902372 0.076907 -0.024186 332284.000000 0 1 0
14.370943 8.153356 11.696425 20.243704 0.516066 0.954789 0.044057 -0.031904 447842.000000 0 1 0
13.433043 9.190456 12.007125 20.225780 0.600021 0.935204 0.032536 -0.019082 22731.300000 0 1 0
13.747643 9.982556 13.268325 21.556844 0.628048 0.907771 0.044238 -0.022813 -43071.400000 0 1 0
13.451443 9.257356 14.450825 21.805189 0.602766 0.846346 0.061216 -0.028752 767906.000000 0 1 0
14.042943 9.984656 15.539125 23.202629 0.618076 0.836973 0.088859 -0.037617 55456.200000 0 1 0
13.803543 9.263856 16.920025 23.720119 0.591080 0.776573 0.086753 -0.037291 1791320.000000 0 1 0
12.381643 9.420556 17.266725 23.242025 0.650408 0.733390 0.072376 -0.043366 1940860.000000 0 1 0
11.833243 8.836456 18.466725 23.645898 0.641417 0.674580 0.084926 -0.033681 -46399.400000 0 1 0
12.274743 9.351056 19.851325 25.143322 0.651019 0.660759 0.105744 -0.028155 -148427.000000 0 0 1
13.589243 8.890356 20.139725 25.871112 0.579336 0.678582 0.142093 -0.033181 230792.000000 0 0 1
13.979243 9.445056 21.380225 27.234947 0.594195 0.668053 0.147325 -0.014129 31469.800000 0 0 1
15.481343 9.239656 21.704725 28.215923 0.538082 0.693151 0.151471 -0.023420 910376.000000 0 0 1
16.411943 10.112756 21.022725 28.523230 0.552234 0.742118 0.142004 -0.019469 544303.000000 0 0 1
17.083143 9.401056 19.975425 27.914713 0.503083 0.773331 0.127871 -0.026987 -265930.000000 0 0 1
18.046043 10.312856 19.249825 28.329674 0.519181 0.823724 0.117623 -0.027499 1242030.000000 0 0 1
19.253543 10.752656 19.972825 29.752853 0.509328 0.834847 0.117919 -0.036596 1914430.000000 0 0 1
20.230543 11.367856 19.132425 30.075782 0.511945 0.881310 0.112649 -0.041405 64884.100000 0 0 1
21.227243 12.206156 19.897125 31.551254 0.521852 0.888433 0.103009 -0.039892 -611540.000000 0 0 1
20.684643 13.413856 20.388725 31.991969 0.575315 0.879797 0.097661 -0.043117 736300.000000 0 0 1
21.680843 14.109756 21.124325 33.397324 0.576933 0.886000 0.076324 -0.037810 69968.100000 0 0 1
22.849443 14.835756 20.444825 34.061526 0.575871 0.927005 0.062979 -0.028592 -337105.000000 0 0 1
23.939543 13.956356 20.238125 34.314185 0.527813 0.939999 0.038042 -0.017410 -988517.000000 0 0 1
25.089943 14.693856 20.358125 35.494617 0.529799 0.959957 0.045019 -0.020324 -1774880.000000 0 0 1
26.402143 13.973356 20.362125 36.151680 0.486774 0.972493 0.044264 -0.027557 -862708.000000 0 0 1
26.763643 13.328956 19.117525 35.488497 0.462066 1.001907 0.062736 -0.040199 -81941.500000 0 0 1
28.040343 12.785456 19.321825 36.373914 0.427805 1.010780 0.088256 -0.044985 -182451.000000 0 0 1
28.452043 11.854556 18.110125 35.749487 0.394777 1.039578 0.116630 -0.043495 -99747.200000 0 0 1
28.811143 12.572956 16.925825 35.702167 0.411480 1.076873 0.136533 -0.049231 107503.000000 0 0 1
28.932143 11.714156 15.809425 34.988973 0.384709 1.101969 0.172889 -0.053676 389663.000000 0 0 1
27.559643 11.416956 15.104025 33.436692 0.392742 1.102104 0.157080 -0.062607 554024.000000 0 0 1
27.110143 12.502756 14.312425 33.107767 0.432115 1.123757 0.181050 -0.057191 -577451.000000 0 0 1
26.014943 12.097556 13.580525 31.742066 0.435277 1.128695 0.174401 -0.057815 -425625.000000 0 0 1
25.382643 13.136956 12.558325 31.218099 0.477594 1.156794 0.163183 -0.049364 181022.000000 0 0 1
24.725643 14.230656 13.157225 31.416262 0.522242 1.138670 0.139754 -0.043301 48780.600000 0 0 1
24.588143 15.332156 12.265125 31.465617 0.557562 1.170388 0.120237 -0.032600 82390.600000 0 0 1
23.839443 16.627456 12.809525 31.762797 0.609030 1.155690 0.117712 -0.024339 416902.000000 0 0 1
22.439543 16.380956 12.751625 30.569147 0.630580 1.140500 0.127984 -0.039599 308981.000000 0 0 1
21.676843 17.537056 13.044525 30.783006 0.680218 1.133207 0.113049 -0.035390 -1044650.000000 0 0 1
21.003143 18.196256 11.818325 30.197823 0.713915 1.168684 0.134804 -0.026063 135468.000000 0 0 1
19.876743 17.498156 11.277525 28.782858 0.721843 1.168194 0.113489 -0.027771 671328.000000 0 0 1
18.731943 17.735356 12.102425 28.493810 0.758077 1.132123 0.106545 -0.037414 365074.000000 0 0 1
17.345643 17.159056 11.600025 27.016016 0.779991 1.126995 0.095844 -0.019944 792830.000000 0 0 1
17.158043 15.758856 11.552525 26.003861 0.742917 1.110446 0.085041 -0.018186 -283241.000000 0 0 1
15.904243 15.361056 11.091825 24.737331 0.768026 1.105840 0.084941 -0.022305 -465417.000000 0 1 0
15.837643 14.080556 10.275925 23.551807 0.726736 1.119301 0.080731 -0.023916 -250276.000000 0 1 0
16.037743 12.941756 11.113825 23.413999 0.678968 1.076212 0.068765 -0.025064 495593.000000 0 1 0
16.334343 11.712656 10.370625 22.617403 0.622082 1.094463 0.062226 -0.011334 -600703.000000 0 1 0
17.104743 10.742956 11.160525 23.076842 0.560803 1.066005 0.076041 -0.020456 -1336830.000000 0 1 0
17.460643 9.533556 10.567325 22.526231 0.499769 1.082511 0.067318 -0.016617 489907.000000 0 1 0
18.169143 8.592556 11.373425 23.093388 0.441750 1.055840 0.085041 -0.017589 758359.000000 0 1 0
19.512543 8.901056 12.088825 24.619257 0.427974 1.057523 0.088992 -0.033788 -437944.000000 0 1 0
19.238643 9.766756 13.168325 25.276860 0.469760 1.022817 0.081407 -0.036268 -407279.000000 0 0 1
20.259743 9.773256 14.086225 26.540449 0.449467 1.011316 0.095703 -0.031513 -1802170.000000 0 0 1
19.702843 10.003056 15.484825 26.982271 0.469785 0.959550 0.071080 -0.028802 313056.000000 0 0 1
19.001743 8.898056 16.078925 26.434323 0.437948 0.916931 0.085261 -0.022356 1632410.000000 0 0 1
17.759243 8.444756 15.479725 25.026516 0.443867 0.903922 0.099125 -0.029856 434748.000000 0 0 1
17.235843 7.008556 15.765625 24.387477 0.386206 0.867856 0.126850 -0.029321 -111571.000000 0 1 0
16.194843 7.042056 16.709025 24.311622 0.410170 0.813051 0.134830 -0.031405 -205774.000000 0 1 0
15.756243 5.720556 16.913025 23.812483 0.348267 0.780931 0.131491 -0.015662 -782603.000000 0 1 0
14.449243 5.659956 17.731025 23.562787 0.373342 0.718945 0.107252 -0.015320 -36718.200000 0 1 0
13.856143 4.388156 17.888125 23.048506 0.306701 0.682326 0.098422 -0.010599 420754.000000 0 1 0
13.366843 3.790756 16.675125 21.704886 0.276338 0.694669 0.089607 -0.013232 -852750.000000 0 1 0
13.095843 2.311256 16.887425 21.494839 0.174689 0.667050 0.089921 -0.015017 348103.000000 0 1 0
14.316243 1.577756 17.113625 22.367840 0.109764 0.699600 0.105450 -0.014368 844490.000000 0 1 0
14.249443 0.161156 16.910325 22.114060 0.011309 0.700242 0.104533 -0.011263 -223373.000000 0 1 0
13.355243 -0.719444 17.848825 22.303826 -0.053818 0.643070 0.079253 -0.018814 1714310.000000 0 1 0
11.959843 -0.414244 17.511425 21.209890 -0.034622 0.599487 0.065291 -0.017974 561546.000000 0 1 0
11.112943 -1.312944 18.116925 21.294231 -0.117600 0.553309 0.056025 -0.024850 -392829.000000 0 1 0
-26.443277 14.920356 28.493605 41.638317 -0.513710 0.817136 0.085173 -0.021374 -247070.000000 0 0 1
-25.394217 14.581156 29.381955 41.482233 -0.521227 0.783706 0.077290 -0.026125 338291.000000 0 0 1
-25.165197 13.184156 29.447955 40.918103 -0.482588 0.767455 0.071048 -0.014731 519363.000000 0 0 1
-24.057057 12.763656 30.514055 40.899394 -0.487794 0.728647 0.066443 -0.020283 467724.000000 0 0 1
-24.310857 13.116856 31.882174 42.184626 -0.494783 0.713956 0.062251 -0.026971 378191.000000 0 0 1
-23.196257 12.884556 32.739383 42.141966 -0.507024 0.681096 0.059862 -0.020238 -407578.000000 0 0 1
-23.593057 12.945256 -33.430775 42.916532 -0.501836 2.463821 0.059754 -0.014441 -8063.210000 0 0 1
-24.321757 11.859656 -32.920715 42.614232 -0.453691 2.453610 0.047654 -0.013291 259750.000000 0 0 1
-24.984657 12.200356 -31.678745 42.150026 -0.454255 2.421237 0.043749 -0.010785 424778.000000 0 0 1
-25.866527 11.060256 -31.081195 41.921918 -0.404062 2.405961 0.036101 -0.011875 330180.000000 0 0 1
-25.121127 10.057656 -30.352135 40.663000 -0.380822 2.413479 0.046697 -0.014944 662874.000000 0 0 1
-24.378557 9.082856 -31.096625 40.543957 -0.356643 2.444926 0.033534 -0.018780 -113079.000000 0 0 1
-23.493457 8.296056 -30.120135 39.089508 -0.339453 2.450488 0.031515 -0.011453 -391322.000000 0 0 1
-24.220557 7.486756 -29.205715 38.673773 -0.299791 2.426727 0.038502 -0.011580 99824.600000 0 0 1
-23.391457 6.767556 -28.332435 37.358894 -0.281628 2.431629 0.033136 -0.003756 -350149.000000 0 0 1
-24.116657 5.954556 -27.218975 36.850271 -0.242065 2.401843 0.037641 -0.014999 -105476.000000 0 0 1
-24.713457 4.792256 -27.796585 37.501611 -0.191536 2.405668 0.049425 -0.013112 59349.700000 0 0 1
-25.117317 3.878356 -26.769355 36.912324 -0.153200 2.382142 0.093905 -0.017327 -769916.000000 0 0 1
-25.974937 2.730656 -27.311705 37.789987 -0.104742 2.378531 0.101957 -0.014016 893441.000000 0 0 1
-27.329307 3.063956 -27.679815 39.018598 -0.111646 2.359444 0.110649 -0.010560 960650.000000 0 0 1
-27.490337 4.010856 -28.745835 39.976601 -0.144878 2.373254 0.107884 -0.011122 -753668.000000 0 0 1
-28.841807 3.786756 -29.490345 41.423059 -0.130547 2.363040 0.142112 -0.015564 -48355.600000 0 0 1
-29.954537 4.186456 -28.694755 41.691602 -0.138861 2.329887 0.120183 -0.007017 -195270.000000 0 0 1
-31.177717 3.978756 -29.334345 42.992841 -0.126929 2.321711 0.120507 -0.017595 -178221.000000 0 0 1
-31.646407 5.136456 -30.235165 44.068622 -0.160905 2.326901 0.121856 -0.029571 -1014740.000000 0 0 1
-30.710977 5.398656 -31.236755 44.136657 -0.174011 2.357074 0.124369 -0.036395 -165054.000000 0 0 1
-30.848387 6.645956 -31.928245 44.891030 -0.212196 2.362055 0.115521 -0.028591 -505303.000000 0 0 1
-30.701477 8.004756 -31.171365 44.478206 -0.255050 2.347347 0.084893 -0.023040 479594.000000 0 0 1
-29.342567 8.315156 -30.812205 43.353432 -0.276142 2.361319 0.054056 -0.032525 870812.000000 0 0 1
-28.940357 7.825856 -29.564335 42.105085 -0.264097 2.349217 0.044749 -0.027269 -762379.000000 0 0 1
-29.291697 8.750356 -28.426935 41.745214 -0.290293 2.319873 0.027350 -0.015473 -472481.000000 0 0 1
-30.614507 8.820556 -27.972235 42.396889 -0.280520 2.291310 0.048643 -0.017926 -104467.000000 0 0 1
-30.988907 7.690556 -27.182475 41.932612 -0.243257 2.276070 0.065067 -0.002432 -171112.000000 0 0 1
-32.262047 7.934556 -26.343135 42.399972 -0.241155 2.241198 0.054459 -0.002873 71227.900000 0 0 1
-32.001477 8.762356 -25.204165 41.666814 -0.267260 2.220434 0.030132 -0.000001 -25375.000000 0 0 1
-32.040377 7.992156 -23.961565 40.799717 -0.244452 2.198512 0.045407 0.001856 41623.000000 0 0 1
-31.474947 8.770556 -22.764865 39.822532 -0.271758 2.179321 0.045419 -0.000545 -230840.000000 0 0 1
-32.338457 9.758456 -22.247665 40.447026 -0.293071 2.153214 0.052952 -0.001102 -11675.200000 0 0 1
-31.681337 10.715056 -21.448165 39.730886 -0.326136 2.141039 0.067120 -0.007126 -298656.000000 0 0 1
-32.661687 11.691956 -20.777865 40.437697 -0.343759 2.110433 0.063950 -0.010223 -162998.000000 0 0 1
-33.420757 11.007956 -19.808065 40.379222 -0.318184 2.083518 0.078349 -0.024885 95525.900000 0 0 1
-34.060325 11.845556 -18.835465 40.684121 -0.334697 2.052138 0.074691 -0.024980 403942.000000 0 0 1
-33.126147 12.683856 -17.869465 39.718253 -0.365675 2.037456 0.080622 -0.033497 137755.000000 0 0 1
-32.527727 12.026656 -16.746165 38.511395 -0.354147 2.020653 0.109790 -0.036604 853931.000000 0 0 1
-33.437917 11.720456 -15.666765 38.741592 -0.337133 1.987110 0.107454 -0.031982 -74698.500000 0 0 1
-33.991797 12.840056 -14.841565 39.250240 -0.361171 1.958568 0.097342 -0.019267 -638787.000000 0 0 1
-34.854991 13.692056 -15.546965 40.546898 -0.374309 1.964305 0.072694 -0.023589 -374002.000000 0 0 1
-35.172693 14.834456 -14.753865 40.925004 -0.399124 1.939611 0.048372 -0.015957 26177.000000 0 0 1
-36.174167 15.800556 -15.408765 42.375205 -0.411815 1.942955 0.039318 -0.016235 -284986.000000 0 0 1
-37.503607 15.333056 -15.512665 43.385089 -0.388106 1.936448 0.047789 -0.007302 371330.000000 0 0 1
37.007228 16.360256 -16.024365 43.519802 0.416250 1.947878 0.040455 -0.013078 -508654.000000 0 0 1
36.889438 16.411356 -17.573465 44.033963 0.418588 1.981319 0.040633 -0.013510 180517.000000 0 0 1
35.981388 15.395456 -18.084665 43.113055 0.404301 2.003659 0.061071 -0.015753 1445620.000000 0 0 1
34.608318 15.818356 -18.131165 42.150863 0.428716 2.015455 0.085072 -0.016023 286575.000000 0 0 1
33.689768 14.622156 -18.435265 41.093393 0.409489 2.036016 0.096765 -0.018255 -204164.000000 0 0 1
33.838858 14.162456 -19.758965 41.666056 0.396375 2.064877 0.102978 -0.018554 564600.000000 0 0 1
32.933658 13.066056 -19.982865 40.677544 0.377692 2.084321 0.043088 -0.007521 390551.000000 0 0 1
33.348618 11.662456 -19.458565 40.333348 0.336419 2.074239 0.061615 -0.008458 -67031.300000 0 0 1
33.102438 11.548956 -18.080865 39.447021 0.335681 2.046943 0.085221 -0.016196 274608.000000 0 0 1
34.134118 10.781356 -17.441165 39.819215 0.305936 2.024179 0.082114 -0.025268 413631.000000 0 0 1
33.842098 10.615856 -15.878565 38.860170 0.303967 1.991724 0.074752 -0.016399 -245488.000000 0 0 1
32.681868 9.885556 -15.554665 37.520346 0.293729 1.998262 0.083499 -0.016775 -56958.200000 0 0 1
32.413738 9.784556 -14.164365 36.701733 0.293166 1.967014 0.075193 -0.007660 -65673.200000 0 0 1
31.829738 11.001856 -13.412065 36.249918 0.332792 1.949793 0.087383 -0.011245 -1396890.000000 0 0 1
30.485548 11.112456 -13.679965 35.213588 0.349547 1.969784 0.101573 -0.015609 -1204740.000000 0 0 1
29.864958 11.991956 -12.793865 34.632437 0.381833 1.949180 0.112555 -0.012992 -1146690.000000 0 0 1
28.368958 12.020356 -12.998165 33.440081 0.400782 1.970017 0.109398 0.003986 -1987360.000000 0 0 1
27.844858 10.864456 -12.433765 32.372381 0.372011 1.965014 0.099646 -0.008689 -466028.000000 0 0 1
26.455658 10.731956 -12.597265 31.205253 0.385375 1.986343 0.091278 0.004601 -268235.000000 0 0 1
25.981758 10.425256 -14.054165 31.325026 0.381586 2.036057 0.094492 -0.020808 -1091900.000000 0 0 1
26.256658 9.113456 -14.549065 31.371045 0.334081 2.053046 0.117693 -0.019701 486414.000000 0 0 1
27.607258 8.939656 -14.977765 32.655958 0.313160 2.047275 0.122165 -0.019886 267816.000000 0 0 1
28.472358 8.119456 -14.003065 32.751894 0.277796 2.012577 0.129289 -0.022654 -560504.000000 0 0 1
28.335158 6.688556 -13.918865 32.269998 0.231808 2.016758 0.135107 -0.040542 455272.000000 0 0 1
27.310158 6.316956 -13.008865 30.902738 0.227307 2.005301 0.152544 -0.042375 -34717.300000 0 0 1
27.028258 4.806956 -12.963665 30.359351 0.176009 2.011977 0.164360 -0.049628 -114340.000000 0 0 1
26.103558 4.424356 -11.954965 29.049817 0.167897 1.994932 0.188050 -0.049012 629011.000000 0 0 1
25.777758 3.058656 -12.144865 28.659134 0.118103 2.008399 0.183226 -0.053463 -123362.000000 0 0 1
24.951158 2.429156 -10.988665 27.371735 0.097051 1.983907 0.192886 -0.050184 -214090.000000 0 0 1
25.713658 2.390356 -9.818765 27.628141 0.092694 1.934128 0.202727 -0.049221 252859.000000 0 0 1
25.378658 1.238056 -9.113365 26.993749 0.048745 1.915173 0.235404 -0.039799 -511337.000000 0 0 1
26.223658 0.838856 -7.883165 27.395770 0.031978 1.862674 0.263116 -0.033590 -394780.000000 0 0 1
26.128158 -0.419144 -7.273365 27.124863 -0.016040 1.842262 0.218413 -0.036133 295926.000000 0 0 1
26.218558 -1.586244 -8.053365 27.473363 -0.060427 1.868299 0.162825 -0.035506 -350653.000000 0 0 1
26.464658 -2.854244 -7.177465 27.568838 -0.107436 1.834178 0.160381 -0.031378 -566980.000000 0 0 1
27.771558 -2.861244 -6.673465 28.705074 -0.102666 1.805427 0.156475 -0.035530 167974.000000 0 0 1
27.929258 -3.980744 -5.838565 28.809350 -0.141576 1.774872 0.168968 -0.049541 52862.100000 0 0 1
29.342358 -4.151444 -5.195365 30.086547 -0.140550 1.744347 0.122154 -0.040150 378339.000000 0 0 1
30.306458 -4.628444 -6.128165 31.264330 -0.151550 1.768085 0.095653 -0.027977 749213.000000 0 0 1
31.532718 -4.909744 -5.445365 32.373908 -0.154463 1.739802 0.129875 -0.036567 682528.000000 0 0 1
32.761468 -5.161044 -6.373465 33.772344 -0.156250 1.760653 0.146321 -0.041743 157152.000000 0 0 1
32.592668 -6.286044 -7.222865 33.970077 -0.190527 1.785056 0.147419 -0.040307 133865.000000 0 0 1
33.226008 -6.087144 -8.499965 34.832031 -0.181195 1.817313 0.152429 -0.042744 -758462.000000 0 0 1
32.448968 -6.939744 -9.530865 34.524382 -0.210692 1.850491 0.131352 -0.045212 1626940.000000 0 0 1
31.134808 -6.450844 -9.926365 33.309494 -0.204300 1.873397 0.099942 -0.044543 1492620.000000 0 0 1
30.148558 -6.651944 -8.901965 32.131432 -0.217160 1.851517 0.100662 -0.034495 -182375.000000 0 0 1
28.910458 -5.694644 -9.140865 30.851240 -0.194485 1.871601 0.091659 -0.034864 746613.000000 0 0 1
28.120058 -5.976844 -10.314865 30.542704 -0.209431 1.915289 0.076288 -0.034171 798001.000000 0 0 1
26.979158 -5.136244 -10.410965 29.370805 -0.188127 1.933140 0.124966 -0.032080 965562.000000 0 0 1
25.580358 -5.788844 -10.169565 28.129797 -0.222552 1.940697 0.164279 -0.030804 -226415.000000 0 0 1
25.438958 -6.318744 -8.823665 27.657263 -0.243461 1.895509 0.149859 -0.042883 1039150.000000 0 0 1
24.155458 -6.859744 -8.437565 26.490277 -0.276698 1.894959 0.146040 -0.041541 48543.000000 0 0 1
23.307058 -5.717744 -7.924065 25.272562 -0.240571 1.889719 0.175084 -0.034775 -886592.000000 0 0 1
22.858758 -4.832644 -8.968365 25.026163 -0.208345 1.937306 0.183845 -0.030572 327175.000000 0 0 1
22.190658 -3.693344 -8.484765 24.042823 -0.164925 1.931467 0.171137 -0.038103 -155644.000000 0 1 0
22.157058 -2.594844 -9.577465 24.277485 -0.116580 1.976320 0.183563 -0.035751 1015730.000000 0 1 0
23.496958 -2.375444 -10.083965 25.679489 -0.100753 1.974346 0.170946 -0.039776 1602680.000000 0 0 1
23.407558 -1.610444 -11.257065 26.023621 -0.068692 2.018139 0.174907 -0.043497 421363.000000 0 0 1
24.739258 -1.501044 -12.089665 27.576150 -0.060600 2.024625 0.146761 -0.031925 381357.000000 0 0 1
25.802158 -0.857444 -11.443165 28.238849 -0.033219 1.988024 0.136088 -0.046238 -79863.700000 0 0 1
27.017458 -1.243044 -12.023165 29.598052 -0.045976 1.989104 0.115119 -0.037021 188307.000000 0 0 1
28.262758 -0.420644 -11.560365 30.538541 -0.014882 1.959026 0.103399 -0.025216 284095.000000 0 0 1
29.506258 -0.756144 -12.170465 31.926654 -0.025621 1.961891 0.087137 -0.024624 832716.000000 0 0 1
30.601368 0.003556 -11.692465 32.759083 0.000116 1.935768 0.104224 -0.024461 129858.000000 0 0 1
30.636188 1.423256 -12.425565 33.090729 0.046423 1.955732 0.117291 -0.025005 -702993.000000 0 0 1
30.837348 1.296456 -13.797865 33.808341 0.042017 1.991190 0.092146 -0.023340 483006.000000 0 0 1
30.890748 2.574956 -14.485365 34.215414 0.083165 2.007945 0.111919 -0.030509 -78120.200000 0 0 1
31.237208 2.321356 -16.002765 35.174428 0.074177 2.043117 0.095736 -0.019717 200683.000000 0 0 1
30.154558 1.722156 -16.699765 34.512974 0.057049 2.075867 0.096146 -0.015960 313089.000000 0 0 1
30.535098 1.620456 -18.061765 35.514018 0.053019 2.104333 0.079371 -0.014086 -450587.000000 0 0 1
29.501558 1.088556 -19.077865 35.149564 0.036882 2.144519 0.060168 -0.003581 -159645.000000 0 0 1
29.225558 -0.271444 -18.930565 34.822022 -0.009288 2.145562 0.056661 -0.001133 43387.900000 0 0 1
28.645958 -0.772844 -20.096765 35.000974 -0.026973 2.182395 0.023368 0.001163 -260334.000000 0 0 1
28.578758 -2.327244 -20.094865 35.013784 -0.081253 2.182072 0.036958 -0.006310 1189090.000000 0 0 1
27.269958 -2.760644 -19.596665 33.694229 -0.100890 2.191494 0.035585 -0.002123 1294710.000000 0 0 1
27.117058 -4.193744 -19.473665 33.647377 -0.153438 2.188000 0.039458 -0.008779 -371413.000000 0 0 1
27.956158 -5.050344 -18.482065 33.891584 -0.178725 2.147578 0.030934 -0.010719 432653.000000 0 0 1
29.349558 -5.203344 -18.723865 35.200206 -0.175465 2.131668 0.044273 -0.015159 423733.000000 0 0 1
30.076058 -5.553144 -17.572565 35.273244 -0.182580 2.092299 0.047551 -0.019275 -1540580.000000 0 0 1
31.535978 -5.363244 -17.747865 36.582359 -0.168456 2.077329 0.092968 -0.020516 -2101970.000000 0 0 1
32.203618 -6.325644 -18.468365 37.658562 -0.193957 2.083363 0.076380 -0.018094 25364.000000 0 0 1
33.424358 -5.697844 -18.902465 38.819535 -0.168847 2.079370 0.108641 -0.018086 -93692.800000 0 0 1
34.253338 -6.798344 -19.550765 40.021758 -0.195926 2.081170 0.105609 -0.013479 -532340.000000 0 0 1
34.923758 -7.505244 -18.513665 40.233734 -0.211684 2.048964 0.117362 -0.024847 117804.000000 0 0 1
35.469488 -8.761944 -18.975865 41.169646 -0.242179 2.049827 0.104928 -0.015636 256483.000000 0 0 1
36.365348 -9.447244 -17.885865 41.612416 -0.254169 2.015090 0.110326 -0.017355 -301224.000000 0 0 1
35.698168 -9.651744 -16.680965 40.568091 -0.264057 1.994549 0.099923 -0.025708 247098.000000 0 0 1
36.301178 -10.662144 -15.843665 41.018027 -0.285679 1.967371 0.094602 -0.021914 417397.000000 0 0 1
37.669918 -10.335144 -15.140265 41.893503 -0.267772 1.940564 0.131057 -0.028986 190747.000000 0 0 1
-37.218567 -11.300644 -14.213565 41.411976 0.294783 1.921143 0.140247 -0.030952 260513.000000 0 0 1
-36.644787 -12.475344 -14.750165 41.425137 0.328133 1.934853 0.122827 -0.029273 456094.000000 0 0 1
-35.172691 -12.414944 -15.302365 40.316391 0.339319 1.960114 0.159264 -0.036446 484174.000000 0 0 1
-34.917261 -11.725344 -16.500765 40.360551 0.323972 1.991972 0.173560 -0.029382 1078150.000000 0 0 1
-33.524607 -11.579144 -16.888465 39.283535 0.332564 2.015192 0.197530 -0.034294 1130680.000000 0 0 1
-33.222597 -10.785244 -18.184465 39.379401 0.313902 2.050793 0.223889 -0.031170 68302.800000 0 0 1
-33.341057 -9.376144 -18.053065 39.057027 0.274139 2.051297 0.228676 -0.026654 745480.000000 0 0 1
-34.717725 -9.026344 -18.228465 40.237697 0.254361 2.040946 0.202859 -0.026337 378317.000000 0 0 1
-34.992189 -7.594744 -17.896365 40.030155 0.213726 2.034286 0.219793 -0.034072 436553.000000 0 0 1
-36.392437 -7.305944 -17.810865 41.170538 0.198121 2.018184 0.207267 -0.030017 606579.000000 0 0 1
-36.707917 -5.921244 -17.956865 41.291419 0.159929 2.020703 0.195027 -0.034389 -30720.100000 0 0 1
25.594843 27.440956 -26.913345 46.178244 0.820193 2.192984 0.048144 -0.001123 -12000.500000 0 0 1
26.154843 26.629256 -25.905575 45.434479 0.794386 2.177514 0.056948 -0.018930 -487021.000000 0 0 1
27.264443 25.893156 -26.280595 45.874558 0.759607 2.180811 0.062382 -0.026936 -594625.000000 0 0 1
27.892343 24.976156 -25.192295 45.126964 0.730295 2.163076 0.079793 -0.038137 -191369.000000 0 0 1
28.502343 25.622456 -24.095065 45.271028 0.732240 2.132041 0.078600 -0.026199 243329.000000 0 0 1
28.976543 24.722056 -23.128665 44.561814 0.706334 2.116505 0.077372 -0.023840 115968.000000 0 0 1
29.585643 25.488756 -21.931965 44.788369 0.711147 2.082519 0.060537 -0.014867 520589.000000 0 0 1
28.588543 26.302356 -21.292665 44.300071 0.743773 2.072188 0.060636 -0.023324 630251.000000 0 0 1
29.160343 27.019256 -20.200665 44.591845 0.747305 2.040938 0.035846 -0.021532 -276250.000000 0 0 1
28.268543 28.059156 -19.537265 44.363628 0.781681 2.026829 0.046534 -0.014127 -426446.000000 0 0 1
27.312143 27.481456 -18.692765 43.018636 0.788488 2.020310 0.067909 -0.020857 -55271.600000 0 0 1
26.472543 28.449156 -18.093665 42.866429 0.821372 2.006550 0.063369 -0.018514 -225989.000000 0 0 1
25.587443 27.879856 -16.965865 41.471004 0.828247 1.992266 0.071751 -0.025417 18636.300000 0 0 1
24.559443 27.098156 -17.540565 40.560420 0.834504 2.018010 0.081540 -0.021748 -141613.000000 0 0 1
23.459843 26.934956 -16.693365 39.427459 0.854247 2.007985 0.079669 -0.019680 -71839.200000 0 0 1
22.355543 25.978856 -17.180465 38.338488 0.860222 2.035464 0.078108 -0.014876 60527.400000 0 0 1
21.639843 26.491156 -18.304665 38.795939 0.885853 2.062149 0.067911 -0.012031 115289.000000 0 0 1
20.647543 25.575056 -18.720465 37.826714 0.891601 2.088517 0.059750 -0.009478 262714.000000 0 0 1
20.011543 25.818856 -20.105665 38.357697 0.911440 2.122528 0.049171 -0.006880 285196.000000 0 0 1
19.267743 27.029856 -20.079865 38.795103 0.951510 2.114825 0.045771 -0.000810 -381827.000000 0 0 1
18.321343 27.079356 -21.108665 38.917077 0.975962 2.144089 0.046808 -0.005237 -290829.000000 0 0 1
17.117643 28.015056 -20.868665 38.901905 1.022316 2.137013 0.041446 -0.005861 238382.000000 0 0 1
16.293743 27.520856 -19.802865 37.616978 1.036242 2.125197 0.050836 -0.004428 -95824.700000 0 0 1
15.323143 28.438456 -19.363265 37.662720 1.076579 2.110781 0.058038 -0.017886 52426.600000 0 0 1
14.680043 28.027956 -18.025465 36.414109 1.088319 2.088646 0.067374 -0.020639 -329380.000000 0 0 1
13.703843 27.033356 -18.071765 35.287198 1.101625 2.108464 0.068122 -0.016846 -580628.000000 0 0 1
13.219343 26.963456 -16.759865 34.389999 1.114964 2.079845 0.083474 -0.015787 76108.400000 0 0 1
12.166843 25.836756 -16.509965 32.987103 1.130689 2.094970 0.104955 -0.014783 412572.000000 0 0 1
12.825343 24.613256 -16.457665 32.266957 1.090432 2.106036 0.081854 -0.009105 -211597.000000 0 0 1
11.927243 23.560056 -16.218565 30.989953 1.102162 2.121573 0.104978 -0.011986 -73418.000000 0 0 1
12.618843 22.221656 -16.305765 30.313613 1.054343 2.138743 0.094563 -0.014095 -71109.900000 0 0 1
13.289243 22.094256 -17.524465 31.174781 1.029290 2.167762 0.091469 -0.010384 -451238.000000 0 0 1
14.336943 21.151756 -17.578965 31.015556 0.975116 2.173387 0.093900 -0.005910 -65914.800000 0 0 1
14.027743 19.634956 -17.741665 29.951223 0.950453 2.204771 0.104759 -0.011784 -183560.000000 0 0 1
13.576243 19.098156 -16.487265 28.651070 0.952814 2.183951 0.122308 -0.024702 194989.000000 0 0 1
13.184543 17.715156 -16.482165 27.555774 0.930984 2.211972 0.096543 -0.025580 770544.000000 0 0 1
14.438143 16.756156 -16.493365 27.590937 0.859571 2.211528 0.136302 -0.026873 735261.000000 0 0 1
15.048943 16.533556 -15.255865 27.066041 0.832371 2.169598 0.140607 -0.040267 -207191.000000 0 0 1
16.135743 15.662756 -15.365165 27.235499 0.770525 2.170211 0.154975 -0.044727 -1636470.000000 0 0 1
16.701843 15.110356 -14.075965 26.559503 0.735412 2.129372 0.219482 -0.048088 -930551.000000 0 0 1
17.700443 15.837956 -13.439565 27.290446 0.729922 2.085715 0.146915 -0.030655 566856.000000 0 0 1
18.929043 16.024156 -14.145065 28.551096 0.702481 2.089126 0.101932 -0.014661 -440360.000000 0 0 1
19.813043 14.805356 -14.657665 28.750693 0.641741 2.105771 0.090845 -0.017734 -436832.000000 0 0 1
20.275143 13.938356 -13.640765 28.132360 0.602260 2.077020 0.128575 -0.029959 -233755.000000 0 0 1
21.373243 14.433456 -12.968265 28.867214 0.593959 2.036709 0.110817 -0.015921 -1103970.000000 0 0 1
22.247843 13.308456 -12.319265 28.702714 0.539088 2.014406 0.115586 -0.033084 -272129.000000 0 0 1
21.671843 12.711356 -11.165665 27.493989 0.530462 1.988993 0.222270 -0.041035 304842.000000 0 0 1
22.166243 11.446456 -10.723565 27.154346 0.476675 1.976768 0.221964 -0.014334 -418761.000000 0 0 1
21.919743 10.279056 -11.732965 26.903468 0.438493 2.022072 0.155114 -0.005407 -769239.000000 0 0 1
22.770543 10.133056 -12.824665 28.029422 0.418694 2.046026 0.120885 0.008152 -108871.000000 0 0 1
22.476143 9.020356 -13.613465 27.782553 0.381653 2.082887 0.099857 -0.003403 -254948.000000 0 0 1
22.633743 7.587256 -13.004365 27.183934 0.323447 2.069610 0.120169 0.015353 -338082.000000 0 0 1
21.614943 7.205156 -12.111665 25.803342 0.321758 2.059389 0.112240 -0.006732 253051.000000 0 0 1
21.943843 6.119356 -11.210465 25.390023 0.271955 2.028100 0.128810 -0.001633 -540105.000000 0 0 1
22.020243 4.719456 -11.826665 25.436870 0.211129 2.054365 0.145380 -0.021074 -28517.300000 0 0 1
20.819543 4.068156 -12.226365 24.484429 0.192969 2.093648 0.104795 -0.035828 459628.000000 0 1 0
20.343043 4.443156 -13.471265 24.800323 0.215035 2.145027 0.069079 -0.035980 -575130.000000 0 1 0
19.197543 3.566056 -14.003165 24.028130 0.183663 2.192944 0.060819 -0.042240 -284489.000000 0 1 0
19.574343 2.297656 -14.458965 24.443727 0.116846 2.203740 0.084215 -0.070953 294253.000000 0 1 0
19.664043 1.417756 -13.387065 23.830613 0.071974 2.167307 0.132681 -0.080407 -602616.000000 0 1 0
20.791143 0.338656 -13.453565 24.766605 0.016287 2.145057 0.169467 -0.067518 -594494.000000 0 1 0
22.108743 0.711056 -13.141365 25.729314 0.032151 2.106859 0.198781 -0.051786 41351.900000 0 0 1
22.818543 1.161756 -14.246965 26.926039 0.050869 2.128353 0.128799 -0.041234 -442606.000000 0 0 1
23.506843 0.116156 -15.146465 27.964273 0.004941 2.143179 0.113013 -0.034399 -1128680.000000 0 0 1
22.558343 -0.515144 -15.923265 27.616925 -0.022832 2.185328 0.125789 -0.038303 -172302.000000 0 0 1
23.116943 -1.640844 -16.690065 28.559476 -0.070861 2.194933 0.087878 -0.025434 281138.000000 0 0 1
22.090243 -2.355644 -17.599165 28.341815 -0.106236 2.240765 0.103482 -0.034647 -336539.000000 0 0 1
21.140143 -3.150044 -16.984365 27.300129 -0.147919 2.242263 0.132034 -0.028785 -164803.000000 0 0 1
20.503543 -3.934244 -17.979865 27.552660 -0.189577 2.281759 0.128638 -0.020948 -306168.000000 0 0 1
19.740343 -5.123044 -17.394565 26.804806 -0.253920 2.276980 0.135433 -0.018739 177378.000000 0 0 1
20.533843 -6.153844 -16.797765 27.233681 -0.291175 2.235468 0.138688 -0.016413 819174.000000 0 0 1
19.606843 -7.138644 -16.357065 26.513055 -0.349171 2.235650 0.153375 -0.004380 244235.000000 0 0 1
20.295043 -8.279744 -15.660665 26.938808 -0.387357 2.191174 0.168714 -0.003957 16728.900000 0 0 1
21.171643 -9.032244 -16.476265 28.307017 -0.403242 2.192051 0.159915 -0.015288 559524.000000 0 0 1
22.044343 -9.895544 -15.773865 28.856362 -0.421933 2.149135 0.137619 -0.016469 122317.000000 0 0 1
22.673843 -10.978544 -16.753865 30.254315 -0.450923 2.157679 0.110588 -0.019271 623562.000000 0 0 1
23.800643 -10.560144 -17.543265 31.396710 -0.417595 2.163688 0.094108 -0.017471 606520.000000 0 0 1
24.162843 -11.509844 -18.556665 32.567918 -0.444545 2.177039 0.087366 -0.014355 4059.790000 0 0 1
23.202143 -11.582644 -19.801765 32.628315 -0.463012 2.222937 0.107066 -0.011605 694778.000000 0 0 1
21.876943 -12.044744 -19.623365 31.760871 -0.503279 2.236798 0.121278 -0.018969 206776.000000 0 0 1
21.703143 -13.469044 -19.652165 32.228080 -0.555431 2.226584 0.108133 -0.007971 280581.000000 0 0 1
20.200443 -13.882444 -19.616465 31.394041 -0.602107 2.245732 0.108659 -0.015140 594001.000000 0 0 1
19.449943 -13.525244 -20.748265 31.491634 -0.607624 2.290085 0.109475 -0.005086 882131.000000 0 0 1
18.038443 -13.800644 -20.659065 30.702446 -0.653075 2.308892 0.105314 -0.005904 1322430.000000 0 0 1
17.180143 -13.190944 -21.811665 30.739340 -0.654797 2.359682 0.106180 -0.010740 179648.000000 0 0 1
17.375843 -13.858844 -23.054665 32.023508 -0.673271 2.374497 0.084343 -0.007572 301938.000000 0 0 1
16.774643 -13.140244 -24.117765 32.182623 -0.664499 2.417957 0.097509 -0.016376 -115651.000000 0 0 1
16.860743 -13.888444 -25.455075 33.543023 -0.689035 2.432385 0.092882 -0.020106 -1371950.000000 0 0 1
15.836443 -14.763244 -25.669945 33.581131 -0.750340 2.440931 0.093837 -0.017581 -853582.000000 0 0 1
15.958543 -15.584344 -26.825945 34.888081 -0.773536 2.447938 0.094920 -0.019595 287434.000000 0 0 1
17.018643 -16.753444 -26.838815 35.925396 -0.777546 2.414441 0.080179 -0.024625 -486019.000000 0 0 1
18.340943 -16.373744 -26.879775 36.428176 -0.728791 2.400726 0.068942 -0.020522 -1174930.000000 0 0 1
19.155143 -17.474344 -27.179545 37.563278 -0.739544 2.379752 0.087230 -0.023803 -538803.000000 0 0 1
20.633943 -17.146744 -27.313135 38.285477 -0.693358 2.365145 0.089200 -0.015060 -496148.000000 0 0 1
21.153143 -16.504644 -26.146445 37.463253 -0.662579 2.343289 0.102049 -0.012579 430249.000000 0 0 1
22.515543 -16.104844 -26.342665 38.213239 -0.620905 2.331401 0.105913 -0.013836 288837.000000 0 0 1
23.213943 -15.716844 -25.057865 37.600571 -0.595152 2.300196 0.114337 -0.007076 -175268.000000 0 0 1
22.929443 -14.440644 -24.488865 36.523911 -0.562034 2.305663 0.116872 -0.010326 -297512.000000 0 0 1
21.586643 -14.122744 -24.204965 35.373936 -0.579347 2.324385 0.130554 -0.011294 -2168.750000 0 0 1
21.553343 -12.875244 -23.327265 34.270684 -0.538481 2.319483 0.129488 -0.009201 172488.000000 0 0 1
21.945343 -11.712444 -24.062865 34.609260 -0.490250 2.339595 0.132459 -0.017969 219229.000000 0 0 1
21.574643 -10.518444 -23.414465 33.531180 -0.453628 2.343801 0.139386 -0.021791 -48851.900000 0 0 1
21.889543 -9.300144 -24.305365 34.005816 -0.401758 2.367051 0.140036 -0.024974 -220104.000000 0 0 1
21.423843 -8.153644 -23.711965 32.980604 -0.363660 2.373111 0.138113 -0.028609 -75720.200000 0 0 1
21.412443 -7.009244 -24.537565 33.312375 -0.316351 2.398811 0.105572 -0.025634 -209240.000000 0 0 1
20.821643 -5.784644 -23.811265 32.155548 -0.270985 2.404614 0.113268 -0.035692 608988.000000 0 0 1
19.433943 -6.040344 -23.556665 31.130055 -0.301348 2.429074 0.137691 -0.036224 372227.000000 0 0 1
18.747943 -5.157944 -22.711165 29.897939 -0.268478 2.433530 0.133831 -0.039500 40000.900000 0 0 1
19.239843 -5.050744 -21.221665 29.086778 -0.256722 2.388531 0.127039 -0.034370 -605777.000000 0 0 1
18.934543 -6.095644 -20.351465 28.457968 -0.311455 2.367622 0.148427 -0.032474 316837.000000 0 0 1
19.358243 -7.446944 -20.811065 29.381950 -0.367240 2.357875 0.143345 -0.035626 -99327.700000 0 0 1
19.115743 -8.602244 -19.801865 28.836159 -0.422861 2.327740 0.150869 -0.033138 -716668.000000 0 0 1
17.766243 -8.892644 -19.721565 27.993903 -0.464076 2.352508 0.169981 -0.027184 -936193.000000 0 0 1
17.492843 -10.050844 -18.988765 27.705455 -0.521510 2.325922 0.170178 -0.019729 -932309.000000 0 0 1
16.008743 -10.286944 -18.852365 26.786428 -0.571143 2.351533 0.159905 -0.018670 -1165760.000000 0 0 1
15.385843 -9.275244 -18.080465 25.488380 -0.542507 2.359388 0.170805 -0.014702 -1257010.000000 0 0 1
14.047243 -9.392744 -18.349665 24.945117 -0.589377 2.397350 0.149941 -0.027093 -1740120.000000 0 1 0
13.162143 -8.444244 -17.560865 23.514490 -0.570416 2.414049 0.158204 -0.016923 -266358.000000 0 1 0
11.926643 -8.167444 -18.189665 23.233938 -0.600456 2.470097 0.140323 -0.022530 -176443.000000 0 1 0
11.262343 -7.123044 -17.537165 22.025673 -0.563950 2.491809 0.128744 -0.028151 -565653.000000 0 1 0
9.784843 -7.047344 -17.907365 21.588931 -0.624175 2.548954 0.104495 -0.025994 -418897.000000 0 1 0
9.476643 -6.490744 -19.172265 22.349771 -0.600533 2.601825 0.100920 -0.037681 -869721.000000 0 1 0
8.106243 -6.357944 -19.295465 21.873491 -0.665111 2.651181 0.089165 -0.045043 -832139.000000 0 1 0
7.599443 -5.825844 -20.627565 22.741777 -0.654050 2.706982 0.098464 -0.057454 -27732.700000 0 1 0
7.590043 -6.884944 -21.602065 23.909421 -0.736725 2.698654 0.096589 -0.047660 56144.300000 0 1 0
6.840243 -6.547344 -22.744265 24.636522 -0.763523 2.747103 0.107138 -0.049596 -70531.300000 0 1 0
6.702343 -7.700844 -23.755365 25.856175 -0.854612 2.735700 0.097497 -0.046529 -147858.000000 0 0 1
6.098743 -8.884644 -23.317065 25.686905 -0.969232 2.708665 0.107210 -0.039803 -16040.600000 0 0 1
6.004143 -9.782144 -24.428165 26.990282 -1.020302 2.702347 0.092431 -0.025435 -150244.000000 0 0 1
5.350643 -11.125544 -24.069165 27.050542 -1.122518 2.667670 0.100008 -0.025609 163611.000000 0 0 1
6.161443 -12.002944 -23.311965 26.934769 -1.096544 2.616938 0.081055 -0.011328 26057.700000 0 0 1
5.450943 -13.205644 -23.112965 27.171878 -1.179327 2.587961 0.085478 -0.009312 151099.000000 0 0 1
6.257743 -14.321444 -22.375765 27.293552 -1.158848 2.531891 0.088435 -0.002505 697354.000000 0 0 1
7.338043 -15.026944 -23.037765 28.467429 -1.116532 2.513700 0.063559 0.000416 2076540.000000 0 0 1
8.653943 -14.436044 -23.258765 28.709933 -1.030768 2.515169 0.084553 -0.006420 1595800.000000 0 0 1
9.419543 -13.872644 -22.076365 27.722625 -0.974303 2.492000 0.074299 0.003431 -772369.000000 0 0 1
9.938843 -14.795844 -21.099565 27.620450 -0.979295 2.440148 0.068022 0.001505 243042.000000 0 0 1
8.966443 -15.491944 -20.319765 27.079333 -1.046125 2.419432 0.070677 0.001322 -471514.000000 0 0 1
9.334343 -15.953844 -18.911865 26.444541 -1.041416 2.367638 0.072288 0.004192 45373.400000 0 0 1
10.347743 -16.955444 -18.958765 27.459017 -1.022845 2.332891 0.070241 0.004814 -160990.000000 0 0 1
10.887743 -17.293844 -17.680265 27.022431 -1.008915 2.284028 0.054852 0.003272 -436518.000000 0 0 1
10.096543 -18.063444 -16.567065 26.508411 -1.061109 2.245894 0.054377 -0.014028 -538174.000000 0 0 1
9.827043 -19.418144 -16.801165 27.493894 -1.102300 2.228230 0.045326 -0.021797 333969.000000 0 0 1
9.040043 -19.780344 -17.940065 28.192735 -1.142119 2.260536 0.071138 -0.010196 463133.000000 0 0 1
7.480043 -19.624144 -17.896665 27.592548 -1.206631 2.276547 0.088309 -0.005813 512565.000000 0 0 1
7.091743 -18.285944 -17.712865 26.427526 -1.200830 2.305333 0.100667 -0.005904 -33699.100000 0 0 1
5.702643 -18.021244 -17.758965 25.935809 -1.264326 2.325026 0.093796 -0.006275 155927.000000 0 0 1
5.194143 -16.660744 -17.307365 24.578535 -1.268586 2.352044 0.087250 0.008843 1997.620000 0 1 0
5.340843 -16.550744 -15.913765 23.573282 -1.258651 2.311864 0.059979 0.011141 111135.000000 0 1 0
4.670743 -15.406944 -15.460465 22.320747 -1.276445 2.335953 0.033126 0.020567 -4812.850000 0 1 0
11.174343 29.324156 -18.253965 36.303985 1.206721 2.097642 0.101537 -0.035723 -178573.000000 0 0 1
10.318943 28.863156 -19.302065 36.223364 1.227444 2.132776 0.129327 -0.043763 35736.500000 0 0 1
9.244643 28.188756 -18.678265 35.056340 1.253894 2.132711 0.120645 -0.034838 94242.600000 0 0 1
8.078143 27.708556 -19.569665 34.871080 1.287119 2.166632 0.130418 -0.029366 439839.000000 0 0 1
7.151243 28.687456 -20.050765 35.723152 1.326494 2.166730 0.145551 -0.042689 334905.000000 0 0 1
6.322243 28.129256 -21.052565 35.699248 1.349713 2.201509 0.130055 -0.040220 339569.000000 0 0 1
5.198543 29.001656 -21.651565 36.563796 1.393430 2.204531 0.120687 -0.050294 230871.000000 0 0 1
4.109843 29.260856 -20.791665 36.130068 1.431254 2.183971 0.110019 -0.038484 251159.000000 0 0 1
3.191243 30.185756 -21.385465 37.130877 1.465467 2.184560 0.106524 -0.046569 -948262.000000 0 0 1
1.787143 30.228056 -20.776365 36.723107 1.511743 2.172148 0.115700 -0.037585 -196533.000000 0 0 1
1.007943 29.062856 -20.940165 35.835123 1.536129 2.194872 0.118748 -0.051837 64394.600000 0 0 1
0.571343 28.819156 -22.235465 36.404479 1.550974 2.227853 0.144657 -0.070737 -814409.000000 0 0 1
-0.238457 27.516256 -22.498865 35.544340 -1.562130 2.256193 0.147880 -0.072426 168306.000000 0 0 1
-1.559657 27.402856 -22.054965 35.210375 -1.513942 2.247693 0.155902 -0.065754 -98427.000000 0 0 1
-2.061257 26.076856 -21.854665 34.086325 -1.491915 2.266801 0.165067 -0.077160 -29986.300000 0 0 1
-3.147057 25.912156 -20.778265 33.362855 -1.449937 2.243108 0.119038 -0.067744 -582743.000000 0 0 1
-4.407557 26.335656 -21.210065 34.100736 -1.404972 2.242068 0.110494 -0.064337 -638114.000000 0 0 1
-5.304357 26.046756 -20.157465 33.360052 -1.369896 2.219608 0.106421 -0.060270 -386060.000000 0 0 1
-6.655657 26.736556 -20.349665 34.252738 -1.326821 2.206947 0.101500 -0.068047 -325402.000000 0 0 1
-7.742357 26.166156 -19.662965 33.633971 -1.283113 2.195203 0.111904 -0.057173 -79601.300000 0 0 1
-8.318257 27.064156 -18.716565 33.940709 -1.272607 2.154896 0.101835 -0.066126 -705654.000000 0 0 1
-9.609057 26.567956 -18.123665 33.565719 -1.223756 2.141169 0.130596 -0.055615 -743147.000000 0 0 1
-9.466057 25.576156 -17.117365 32.198605 -1.216317 2.131306 0.124764 -0.061389 22643.100000 0 0 1
-10.714357 24.989956 -16.769865 31.945637 -1.165757 2.123453 0.098110 -0.053169 217217.000000 0 0 1
-10.740857 24.292756 -15.442065 30.723955 -1.154496 2.097408 0.085893 -0.034634 -392744.000000 0 0 1
-10.101257 23.063356 -15.387365 29.508046 -1.157984 2.119361 0.094530 -0.033849 -457853.000000 0 0 1
-10.245657 22.387256 -14.177065 28.410419 -1.141594 2.093252 0.100163 -0.024506 -186587.000000 0 0 1
-9.650857 20.986556 -14.129365 27.077916 -1.139774 2.119761 0.107460 -0.007775 274464.000000 0 0 1
-10.459057 19.945656 -14.739465 26.916034 -1.087837 2.150300 0.091178 -0.004853 128181.000000 0 0 1
-10.809257 20.065856 -16.104465 27.907569 -1.076679 2.185926 0.114687 -0.004602 -349827.000000 0 0 1
-9.700757 19.856456 -17.131965 27.962256 -1.116355 2.230246 0.116970 -0.020919 -275121.000000 0 0 1
-9.219857 18.530556 -17.173665 26.894647 -1.109112 2.263413 0.107672 -0.018086 159515.000000 0 0 1
-8.274957 18.326156 -18.229265 27.140910 -1.146664 2.307234 0.127913 -0.027537 197625.000000 0 0 1
-7.427057 17.074656 -18.174765 26.019745 -1.160507 2.344094 0.110001 -0.025663 -8250.600000 0 0 1
-8.193957 15.935956 -18.605865 25.831644 -1.095869 2.374994 0.105625 -0.032613 422671.000000 0 0 1
-7.635457 15.185056 -19.692065 26.012758 -1.104890 2.429530 0.096459 -0.037249 -590674.000000 0 0 1
-6.366257 14.409756 -19.372565 24.969313 -1.154781 2.458865 0.068549 -0.033280 -965683.000000 0 1 0
-6.549157 13.282556 -18.529965 23.720821 -1.112712 2.467332 0.045951 -0.029882 780709.000000 0 1 0
-5.325957 12.575156 -18.230365 22.778204 -1.170171 2.498663 0.038033 -0.021685 746846.000000 0 1 0
-4.414357 13.216356 -17.172665 22.114679 -1.248439 2.459933 0.026230 -0.012731 -370583.000000 0 1 0
-3.725257 14.378756 -17.538765 22.983351 -1.317290 2.438904 0.045473 -0.020373 -214935.000000 0 1 0
-3.243657 14.995056 -16.335565 22.410348 -1.357763 2.387553 0.044101 -0.014900 3603.180000 0 1 0
-2.586957 16.403956 -16.475665 23.392940 -1.414381 2.352234 0.076610 -0.022777 544571.000000 0 1 0
-3.458957 17.520856 -16.744365 24.480983 -1.375883 2.323993 0.084394 -0.028211 95867.600000 0 1 0
-2.722557 18.729356 -16.660065 25.214259 -1.426444 2.292600 0.093160 -0.033451 35170.600000 0 0 1
-3.316857 19.973556 -17.302065 26.632798 -1.406236 2.277924 0.112219 -0.034330 31802.700000 0 0 1
-3.273657 20.019356 -18.692265 27.584275 -1.408706 2.315348 0.129603 -0.033571 -380691.000000 0 0 1
-3.681857 21.234256 -19.278565 28.915615 -1.399111 2.300593 0.157558 -0.038507 43445.300000 0 0 1
-2.627457 22.360356 -19.391665 29.714066 -1.453828 2.281819 0.122692 -0.053202 -999411.000000 0 0 1
-1.632257 22.081556 -20.328165 30.058171 -1.497011 2.313516 0.159548 -0.049488 -100249.000000 0 0 1
-0.413457 22.809956 -20.213865 30.480574 -1.552672 2.295845 0.146498 -0.055381 662570.000000 0 0 1
0.502643 22.170656 -19.139665 29.293641 1.548129 2.282827 0.135606 -0.054436 -959237.000000 0 0 1
0.040643 22.354656 -17.859465 28.612808 1.568978 2.244874 0.130074 -0.045069 -251767.000000 0 0 1
0.955643 21.676556 -16.991865 27.559206 1.526738 2.235160 0.119117 -0.045433 245112.000000 0 0 1
0.618943 21.629756 -15.477565 26.604219 1.542189 2.191701 0.124952 -0.048270 -1596250.000000 0 0 1
-0.501557 20.903656 -15.196265 25.848421 -1.546807 2.199256 0.114266 -0.034817 -1174470.000000 0 0 1
-0.612757 20.878356 -13.762065 25.013509 -1.541456 2.153382 0.116543 -0.031946 229994.000000 0 0 1
-1.621657 19.839556 -13.238665 23.906066 -1.489239 2.157692 0.080270 -0.024213 446428.000000 0 1 0
-1.092557 18.491856 -13.335965 22.825214 -1.511782 2.194770 0.063402 -0.024383 103893.000000 0 1 0
-2.069057 17.605656 -12.907265 21.928010 -1.453811 2.200147 0.054115 -0.016366 -172457.000000 0 1 0
-1.552657 16.136656 -12.964165 20.757456 -1.474872 2.245357 0.028998 -0.013089 -987144.000000 0 1 0
-0.404257 15.946456 -12.202665 20.083772 -1.545451 2.223817 0.020186 -0.009800 -227364.000000 0 1 0
-0.043357 14.553056 -12.103665 18.928603 -1.567817 2.264563 0.013405 -0.009081 399624.000000 0 1 0
0.702943 13.902656 -13.322965 19.268611 1.520278 2.334268 0.008822 -0.014789 96601.900000 0 1 0
-0.166257 13.720456 -14.461165 19.934991 -1.558679 2.382435 0.016588 -0.022433 639271.000000 0 1 0
0.421443 12.826856 -15.369965 20.023528 1.537952 2.445877 0.014228 -0.022151 -470549.000000 0 1 0
-0.294757 12.806556 -16.746265 21.083931 -1.547784 2.488596 0.018885 -0.012271 -89253.500000 0 1 0
0.035343 13.944856 -17.510465 22.384741 1.568262 2.469066 0.032221 -0.017831 164839.000000 0 1 0
-0.293257 13.800456 -18.908665 23.411027 -1.549550 2.511006 0.036836 -0.016557 -131080.000000 0 1 0
-0.839757 15.181456 -19.432565 24.674002 -1.515538 2.477656 0.049041 -0.020062 148139.000000 0 1 0
0.087743 16.245456 -19.286065 25.216559 1.565395 2.441554 0.055867 -0.032092 83688.500000 0 0 1
-0.547957 17.417756 -19.674965 26.282746 -1.539347 2.416727 0.109972 -0.042232 -283599.000000 0 0 1
0.424643 18.489556 -20.127665 27.334354 1.547834 2.398457 0.128502 -0.047668 -261267.000000 0 0 1
1.007443 18.189656 -21.357965 28.072071 1.515467 2.435381 0.129265 -0.057460 -404102.000000 0 0 1
2.005843 19.124356 -21.614265 28.929930 1.466294 2.414522 0.131409 -0.055926 -293206.000000 0 0 1
2.685743 19.083756 -22.965465 29.980253 1.430980 2.443423 0.143913 -0.059997 353389.000000 0 0 1
3.476743 17.891556 -23.244865 29.538437 1.378865 2.476624 0.122755 -0.053612 247055.000000 0 0 1
3.916843 17.902956 -24.575065 30.656016 1.355408 2.500829 0.117471 -0.056682 -362281.000000 0 0 1
4.837043 16.763656 -24.878565 30.386842 1.289883 2.529989 0.098802 -0.045805 -1479230.000000 0 0 1
6.081943 16.813856 -24.255965 30.133829 1.223717 2.506373 0.088983 -0.039059 -371202.000000 0 0 1
6.912643 15.698656 -24.566965 29.962780 1.156010 2.532061 0.101886 -0.044490 330509.000000 0 0 1
7.530943 15.705756 -25.996795 31.292479 1.123681 2.551283 0.093861 -0.043462 -971630.000000 0 0 1
8.507443 16.782356 -26.150925 32.216377 1.101622 2.517901 0.085662 -0.033850 1078030.000000 0 0 1
9.233743 16.828156 -27.392535 33.448465 1.068946 2.530371 0.088982 -0.037800 438275.000000 0 0 1
9.802343 15.498256 -27.940165 33.420573 1.006836 2.560780 0.090884 -0.040765 -1342360.000000 0 0 1
10.884943 14.936356 -27.276945 32.948573 0.941031 2.546086 0.086640 -0.031326 -368261.000000 0 0 1
11.039243 13.532756 -27.571485 32.637205 0.886530 2.576963 0.074430 -0.026292 184138.000000 0 0 1
10.189143 12.589056 -26.634915 31.172450 0.890371 2.595264 0.089407 -0.024398 1585640.000000 0 0 1
8.774143 12.549056 -26.954355 31.000027 0.960616 2.624974 0.113241 -0.036918 604457.000000 0 0 1
8.206543 11.541856 -26.199045 29.781735 0.952710 2.646031 0.123137 -0.037266 802371.000000 0 0 1
6.636643 11.521256 -26.138445 29.325802 1.048185 2.671027 0.101458 -0.045281 441607.000000 0 0 1
6.080543 12.416156 -25.255585 28.791987 1.115400 2.640741 0.112360 -0.036660 975281.000000 0 0 1
4.646043 12.557156 -25.448145 28.755451 1.216424 2.657258 0.117190 -0.052983 1192310.000000 0 0 1
4.055943 13.511756 -26.569875 30.082827 1.279176 2.653490 0.118287 -0.047069 -1019570.000000 0 0 1
4.314643 13.100156 -27.849985 31.078158 1.252628 2.681761 0.122261 -0.058871 211711.000000 0 0 1
3.966743 14.117056 -28.750695 32.274274 1.296870 2.669952 0.117705 -0.068712 -73230.500000 0 0 1
4.078143 13.678356 -30.244175 33.443068 1.281042 2.700646 0.148411 -0.063482 1067270.000000 0 0 1
5.455643 13.552456 -30.672725 33.974243 1.188087 2.697086 0.141432 -0.057152 1184210.000000 0 0 1
5.567543 13.136956 -32.021785 35.056695 1.169936 2.722426 0.136893 -0.054371 -313835.000000 0 0 1
6.678243 12.088856 -32.345065 35.170195 1.066090 2.738042 0.139222 -0.044166 622326.000000 0 0 1
8.031343 12.521756 -32.248445 35.514209 1.000497 2.709386 0.151923 -0.039957 697749.000000 0 0 1
8.586343 12.584756 -30.894455 34.446607 0.972061 2.683459 0.144751 -0.043113 -164579.000000 0 0 1
8.649243 11.358956 -29.998205 33.222396 0.920009 2.697385 0.154059 -0.044405 329616.000000 0 0 1
9.687743 10.424256 -30.374405 33.542838 0.822002 2.703449 0.124453 -0.040627 405835.000000 0 0 1
9.595243 9.227056 -29.605745 32.460859 0.765839 2.719038 0.122666 -0.042653 26.609700 0 0 1
10.642843 8.119056 -29.890335 32.750898 0.651684 2.720535 0.101216 -0.036691 -68923.100000 0 0 1
11.888643 8.366756 -29.286885 32.696545 0.613245 2.680840 0.097718 -0.038698 -698384.000000 0 0 1
12.657843 7.247656 -29.332795 32.759157 0.520015 2.680142 0.077610 -0.030035 -558974.000000 0 0 1
14.044743 7.388456 -28.650995 32.752459 0.484282 2.635765 0.082871 -0.023312 407076.000000 0 0 1
14.793043 6.198256 -28.453215 32.662485 0.396776 2.628292 0.082033 -0.029919 392292.000000 0 0 1
15.692543 5.871356 -29.504985 33.930412 0.358025 2.625134 0.074199 -0.023035 -478179.000000 0 0 1
16.442743 4.568856 -29.156775 33.783957 0.271027 2.612046 0.094338 -0.036461 -112919.000000 0 0 1
17.383743 4.817156 -28.121035 33.409461 0.270324 2.571236 0.085084 -0.036679 80858.100000 0 0 1
18.145643 3.673456 -27.891645 33.476895 0.199743 2.555596 0.073133 -0.037767 -124393.000000 0 0 1
19.015043 3.802656 -26.609225 32.925414 0.197378 2.511829 0.090522 -0.026988 727923.000000 0 0 1
20.066343 4.794256 -26.716035 33.754845 0.234524 2.484011 0.128677 -0.029338 606043.000000 0 0 1
20.521443 5.122056 -25.470965 33.107932 0.244598 2.448590 0.141690 -0.031167 -262277.000000 0 0 1
21.515643 6.296156 -25.399225 33.877501 0.284683 2.418461 0.142131 -0.023088 -403473.000000 0 0 1
20.966143 7.593656 -25.570965 33.928115 0.347490 2.424441 0.147713 -0.023302 36157.000000 0 0 1
21.871843 8.567256 -26.059085 35.083490 0.373333 2.408000 0.156378 -0.036096 -313554.000000 0 0 1
22.099643 8.534156 -27.614065 36.383549 0.368525 2.432528 0.183195 -0.038330 -203675.000000 0 0 1
20.909143 8.853456 -28.278445 36.266326 0.400536 2.465053 0.153282 -0.026068 -83231.400000 0 0 1
20.118643 7.728656 -28.559725 35.779181 0.366772 2.495134 0.132618 -0.022943 -964391.000000 0 0 1
18.732343 8.021056 -29.120215 35.541876 0.404572 2.531023 0.127734 -0.014532 -586251.000000 0 0 1
18.728543 8.505856 -30.459115 36.754123 0.426312 2.547625 0.086992 -0.008831 401145.000000 0 0 1
17.420643 9.031456 -30.633665 36.379492 0.478286 2.571885 0.073342 -0.008577 62853.000000 0 0 1
16.959843 8.906156 -32.079955 37.364146 0.483550 2.603282 0.045341 -0.007438 -100151.000000 0 0 1
16.302543 7.701056 -32.445695 37.118759 0.441312 2.634387 0.068223 -0.008506 703156.000000 0 0 1
14.995543 7.965656 -32.967195 37.083068 0.488296 2.665973 0.062295 -0.006295 631881.000000 0 0 1
14.260943 6.642256 -33.342415 36.867475 0.435887 2.700734 0.079660 -0.013760 129341.000000 0 0 1
13.863543 5.807756 -32.254515 35.584851 0.396712 2.705506 0.086702 -0.019027 172984.000000 0 0 1
13.083043 4.716356 -32.703285 35.537514 0.345993 2.739507 0.094632 -0.027214 200742.000000 0 0 1
12.766743 3.706456 -31.557075 34.242905 0.282554 2.742890 0.107101 -0.030863 209130.000000 0 0 1
13.971343 3.108356 -31.105875 34.240849 0.218915 2.710341 0.109809 -0.037005 427453.000000 0 0 1
13.781543 2.121856 -30.141095 33.210221 0.152764 2.708292 0.128457 -0.040325 -223687.000000 0 0 1
13.181943 0.705756 -30.593155 33.319707 0.053489 2.734233 0.133438 -0.035172 86306.100000 0 0 1
13.910443 -0.351944 -31.166535 34.131762 -0.025295 2.721679 0.129266 -0.034551 -248035.000000 0 0 1
14.939843 -0.959744 -30.403645 33.889551 -0.064152 2.684047 0.125723 -0.034490 375177.000000 0 0 1
15.411543 -2.282844 -31.056205 34.744998 -0.147056 2.676617 0.135915 -0.029748 -43190.000000 0 0 1
14.430943 -3.265444 -30.920625 34.278277 -0.222533 2.695286 0.137336 -0.028843 -15862.700000 0 0 1
14.736343 -4.362444 -31.812245 35.330011 -0.287813 2.691556 0.123698 -0.022405 722.944000 0 0 1
13.878543 -5.609544 -31.559005 34.929239 -0.384112 2.698692 0.140029 -0.032514 20719.600000 0 0 1
14.173543 -6.257844 -30.321655 34.050737 -0.415776 2.669205 0.132144 -0.017320 33755.900000 0 0 1
13.601443 -7.527444 -30.256555 34.016478 -0.505473 2.666975 0.141281 -0.031947 73288.400000 0 0 1
14.033543 -8.298544 -28.914665 33.194337 -0.534025 2.628178 0.114920 -0.020799 -838375.000000 0 0 1
15.352643 -8.698344 -28.913915 33.872988 -0.515476 2.593650 0.144273 -0.019691 -877964.000000 0 0 1
15.695443 -9.564544 -27.781255 33.311043 -0.547291 2.557106 0.141480 -0.024581 110840.000000 0 0 1
15.474343 -11.074444 -27.977335 33.835335 -0.621162 2.544311 0.109668 -0.010506 -214580.000000 0 0 1
14.120243 -11.449044 -28.033545 33.411697 -0.681307 2.566301 0.100881 -0.014691 -221585.000000 0 0 1
13.905443 -12.677944 -28.630925 34.261078 -0.739256 2.560146 0.096440 -0.018370 193918.000000 0 0 1
-10.053257 -2.763244 -17.977765 20.782289 0.268237 2.616051 0.025811 0.003572 -424843.000000 0 1 0
-10.833757 -2.419844 -19.090065 22.082946 0.219754 2.614893 0.036971 0.001459 -181766.000000 0 1 0
-11.915457 -3.322444 -19.196565 22.836919 0.271928 2.569174 0.049224 -0.008390 532036.000000 0 1 0
-13.074757 -2.869744 -20.206365 24.238026 0.216061 2.556505 0.064873 -0.026488 984572.000000 0 1 0
-13.916957 -1.812144 -19.775365 24.249343 0.129483 2.524391 0.060575 -0.018927 5666.060000 0 1 0
-14.924757 -1.467644 -20.686765 25.550824 0.098021 2.514321 0.063938 -0.017424 -15247.500000 0 0 1
-15.595657 -0.143744 -20.287765 25.589814 0.009217 2.486196 0.062365 -0.011093 53330.800000 0 0 1
-14.876057 1.018056 -20.674465 25.490528 -0.068329 2.516766 0.056688 -0.017397 148761.000000 0 0 1
-15.604957 2.183056 -20.300465 25.698041 -0.138993 2.481543 0.057655 -0.008304 95281.000000 0 0 1
-15.348857 3.458256 -21.135665 26.348876 -0.221610 2.501678 0.082990 -0.029531 -506056.000000 0 0 1
-14.050957 3.883656 -20.863165 25.451598 -0.269665 2.531717 0.093588 -0.030751 -381731.000000 0 0 1
-13.720557 5.117656 -21.465065 25.984478 -0.357009 2.542899 0.114283 -0.038146 -601716.000000 0 0 1
-12.384857 5.695456 -21.006865 25.042190 -0.431034 2.565980 0.094901 -0.032583 -531576.000000 0 0 1
-12.423157 6.291756 -19.751165 24.166703 -0.468797 2.527486 0.097393 -0.038415 564096.000000 0 1 0
-11.139057 6.659656 -19.266865 23.230189 -0.538848 2.548810 0.071908 -0.025210 144077.000000 0 1 0
-11.288757 7.245856 -17.803765 22.291535 -0.570635 2.495892 0.072971 -0.025463 -184102.000000 0 1 0
-11.829857 8.565156 -17.736665 22.976003 -0.626671 2.452723 0.080837 -0.034997 -664803.000000 0 1 0
-13.042857 8.443956 -17.076265 23.087125 -0.574546 2.403338 0.106131 -0.023947 -1282380.000000 0 1 0
-13.716957 9.773656 -16.958865 23.901514 -0.619082 2.359629 0.125053 -0.032927 -457055.000000 0 1 0
-13.130357 10.682156 -15.989165 23.284504 -0.682947 2.327718 0.089606 -0.026428 692813.000000 0 1 0
-13.702857 11.963456 -16.185365 24.348688 -0.717732 2.297932 0.098049 -0.026943 19960.000000 0 1 0
-13.007357 13.023056 -15.234665 23.893228 -0.786001 2.262194 0.098743 -0.020296 132242.000000 0 1 0
-13.411357 13.027556 -13.886065 23.289580 -0.770883 2.209600 0.097512 -0.020463 495034.000000 0 1 0
-12.576057 13.940856 -13.161065 22.928548 -0.836822 2.182183 0.094185 -0.027322 -196450.000000 0 1 0
-13.192557 14.234556 -11.722265 22.673281 -0.823371 2.114148 0.081720 -0.032760 1455070.000000 0 1 0
-14.468257 14.943356 -11.726765 23.877843 -0.801550 2.084166 0.085606 -0.022302 1442820.000000 0 1 0
-15.554757 14.092556 -12.051465 24.203066 -0.736118 2.092008 0.089228 -0.014094 -916429.000000 0 1 0
-16.940657 14.529556 -11.571865 25.139649 -0.708932 2.049133 0.073375 -0.015457 -708800.000000 0 0 1
-17.972057 13.788956 -12.114465 25.688332 -0.654446 2.061894 0.072412 -0.012374 794684.000000 0 0 1
-19.265257 14.341556 -11.710165 26.719999 -0.639924 2.024452 0.146116 -0.025497 799034.000000 0 0 1
-20.451257 13.716456 -12.416465 27.578319 -0.590783 2.037814 0.132416 -0.035745 -665112.000000 0 0 1
-20.758657 12.403256 -11.974465 26.984263 -0.538578 2.030583 0.131103 -0.040070 -61415.700000 0 0 1
-22.011957 12.030856 -12.458965 28.008812 -0.500198 2.031773 0.172328 -0.046803 -636941.000000 0 0 1
-22.565357 10.676156 -11.857465 27.636482 -0.441915 2.014238 0.158748 -0.043407 -71505.900000 0 0 1
-21.781557 9.501856 -12.030865 26.635751 -0.411347 2.039445 0.157533 -0.039876 433974.000000 0 0 1
-22.303357 8.494256 -11.243865 26.382127 -0.363890 2.011076 0.152204 -0.040258 -405581.000000 0 0 1
-21.407557 7.265756 -11.226265 25.240914 -0.327202 2.031708 0.179939 -0.040947 -431347.000000 0 0 1
-21.147557 6.656356 -12.494365 25.448682 -0.304940 2.083991 0.179270 -0.039952 1257030.000000 0 0 1
-20.017457 5.751356 -12.380165 24.229015 -0.279781 2.107103 0.178051 -0.044338 739951.000000 0 1 0
-19.950057 4.703056 -13.409965 24.493891 -0.231515 2.150149 0.186016 -0.050674 228163.000000 0 1 0
-21.014757 3.749956 -13.332965 25.168436 -0.176585 2.129101 0.166867 -0.043615 741509.000000 0 0 1
-20.731257 2.555356 -14.120465 25.213140 -0.122642 2.165235 0.148901 -0.037728 -301182.000000 0 0 1
-21.471757 1.330056 -13.580865 25.441016 -0.061865 2.133905 0.135347 -0.033817 311070.000000 0 0 1
-22.789157 1.266156 -14.120265 26.838978 -0.055503 2.124817 0.116471 -0.033374 717975.000000 0 0 1
-23.276357 -0.078444 -14.176865 27.253962 0.003370 2.117854 0.098114 -0.034898 11175.000000 0 0 1
-24.605357 -0.395244 -14.891665 28.763545 0.016062 2.114988 0.106878 -0.034764 459620.000000 0 0 1
-25.789917 0.094256 -14.257265 29.468599 -0.003655 2.075802 0.134995 -0.044490 774047.000000 0 0 1
-26.933637 -0.550744 -14.817065 30.745236 0.020445 2.073653 0.156035 -0.031511 586514.000000 0 0 1
-28.267577 -0.095044 -14.154465 31.613507 0.003362 2.035027 0.164162 -0.038053 248094.000000 0 0 1
-28.651487 -0.865444 -13.004465 31.476544 0.030197 1.996704 0.185581 -0.041578 -1177930.000000 0 0 1
-29.767617 -0.405644 -12.402765 32.250646 0.013626 1.965543 0.214036 -0.047754 -1117890.000000 0 0 1
-30.051247 -1.039144 -10.995065 32.016382 0.034565 1.921352 0.219886 -0.052470 -79322.600000 0 0 1
-30.395837 -2.426744 -10.945565 32.397552 0.079669 1.915430 0.240844 -0.050583 1102670.000000 0 0 1
-29.297607 -3.312444 -11.263265 31.562370 0.112584 1.935698 0.230939 -0.053962 508998.000000 0 0 1
-29.642947 -4.766444 -10.871165 31.931263 0.159431 1.918197 0.232110 -0.056444 -578613.000000 0 0 1
-30.637137 -5.367144 -11.628865 33.206489 0.173424 1.928579 0.234208 -0.046417 -223780.000000 0 0 1
-31.064307 -6.644144 -11.168165 33.672893 0.210709 1.908866 0.242016 -0.049840 -69768.900000 0 0 1
-30.281357 -7.850744 -11.693765 33.396690 0.253675 1.928525 0.235568 -0.055368 152561.000000 0 0 1
-28.952137 -7.962044 -11.214665 32.052911 0.268373 1.928239 0.170431 -0.046928 590921.000000 0 0 1
-28.144157 -8.953244 -11.840465 31.819032 0.307997 1.952087 0.158966 -0.048278 970844.000000 0 0 1
-26.614447 -9.002844 -11.481465 30.351343 0.326186 1.958740 0.154435 -0.055092 457641.000000 0 0 1
-26.001627 -7.835244 -11.893465 29.646757 0.292683 1.983593 0.125659 -0.047839 713827.000000 0 0 1
-24.613657 -7.695944 -11.556665 28.259798 0.303039 1.992093 0.122024 -0.052192 682126.000000 0 0 1
-24.219057 -7.345644 -10.063565 27.235942 0.294482 1.949263 0.125631 -0.055973 -291106.000000 0 0 1
-24.648157 -6.051444 -9.647165 27.151785 0.240751 1.934037 0.135177 -0.040071 1135090.000000 0 0 1
-26.034647 -5.941244 -9.315865 28.282266 0.224363 1.906453 0.149207 -0.046639 359429.000000 0 0 1
-26.547897 -4.637744 -8.600965 28.289152 0.172948 1.879724 0.168887 -0.049034 -219139.000000 0 0 1
-26.029787 -4.498044 -7.306965 27.407553 0.171114 1.840664 0.156958 -0.046752 277135.000000 0 0 1
-26.542657 -3.367044 -6.673665 27.575124 0.126180 1.815241 0.192190 -0.058248 -180297.000000 0 0 1
-26.198087 -3.132244 -5.190465 26.890364 0.118995 1.765039 0.189807 -0.052270 309774.000000 0 0 1
-24.815457 -2.870344 -4.968265 25.470168 0.115156 1.767117 0.146728 -0.046442 542122.000000 0 0 1
-24.588157 -2.530744 -3.593465 24.977893 0.102564 1.715163 0.137389 -0.038139 783789.000000 0 1 0
-23.126457 -2.979744 -3.219565 23.538851 0.128140 1.708003 0.114933 -0.034214 657362.000000 0 1 0
-23.016457 -4.391344 -2.927665 23.613819 0.188526 1.695097 0.131155 -0.027666 855574.000000 0 1 0
-21.651957 -4.731244 -2.696465 22.326282 0.215132 1.691867 0.104888 -0.022588 190786.000000 0 1 0
-21.415857 -6.215044 -2.467665 22.435576 0.282449 1.681008 0.104747 -0.015027 -195099.000000 0 1 0
-22.180357 -6.739244 -1.400265 23.223833 0.294975 1.631127 0.120071 -0.015353 454366.000000 0 1 0
-22.681757 -7.984144 -1.804965 24.113618 0.338462 1.645719 0.116450 -0.013101 18629.600000 0 1 0
-23.056857 -8.928744 -0.617965 24.733035 0.369466 1.595784 0.123513 -0.016561 398975.000000 0 1 0
-21.854257 -9.334144 0.010335 23.764152 0.403655 1.570361 0.083072 -0.005538 591811.000000 0 1 0
-22.176357 -10.216544 1.054235 24.439313 0.431712 1.527646 0.056077 0.000025 27569.500000 0 1 0
-20.948257 -11.015544 1.511635 23.716170 0.484109 1.507015 0.066519 0.000579 -200826.000000 0 1 0
-20.435757 -11.952944 0.603335 23.682421 0.529245 1.545318 0.068117 0.009055 141254.000000 0 1 0
-19.344057 -12.533444 1.267935 23.084355 0.574913 1.515843 0.045811 -0.006997 -195867.000000 0 1 0
-18.798257 -13.828844 0.695935 23.347285 0.634250 1.540984 0.064318 -0.000463 70993.500000 0 1 0
-19.734857 -14.866144 0.993335 24.727587 0.645606 1.530614 0.085054 -0.004716 517466.000000 0 1 0
-19.308157 -16.163044 0.581335 25.187038 0.696963 1.547714 0.087670 -0.009238 34153.200000 0 0 1
-18.147757 -16.769944 1.435235 24.751404 0.745960 1.512778 0.084309 -0.016703 25353.400000 0 1 0
-16.896957 -16.166944 1.141835 23.413266 0.763323 1.522008 0.102587 -0.008837 989349.000000 0 1 0
-15.769157 -16.776444 1.831735 23.096984 0.816338 1.491407 0.107829 -0.014556 1107970.000000 0 1 0
-15.621957 -16.520844 3.326735 22.979360 0.813356 1.425515 0.116622 -0.022679 -569325.000000 0 1 0
-15.414857 -15.143644 3.659735 21.916693 0.776523 1.403027 0.091292 -0.020088 178044.000000 0 1 0
-14.595257 -14.968844 4.821035 21.455307 0.798034 1.344160 0.071350 -0.017347 41030.100000 0 1 0
-15.119257 -15.379844 6.206135 22.442096 0.793942 1.290605 0.087722 -0.018889 -1185880.000000 0 1 0
-16.147757 -14.607244 6.724735 22.789114 0.735350 1.271251 0.076786 -0.013540 -297072.000000 0 1 0
-16.398657 -14.919444 8.116935 23.609117 0.738201 1.219830 0.082416 -0.011978 -25629.500000 0 1 0
-17.289157 -16.158644 8.455235 25.129818 0.751612 1.227639 0.066835 -0.007888 -102746.000000 0 0 1
-16.734757 -17.487744 8.228835 25.565348 0.807397 1.243088 0.067491 -0.003529 263686.000000 0 0 1
-17.483557 -18.487444 8.902735 26.957727 0.813299 1.234230 0.073708 -0.010736 82778.600000 0 0 1
-17.051957 -18.736944 10.367635 27.373896 0.832445 1.182360 0.085370 -0.010416 -943295.000000 0 0 1
-15.744557 -19.149244 10.540435 26.938549 0.882663 1.168777 0.053366 -0.008146 -702354.000000 0 0 1
-15.481057 -19.378144 11.934135 27.524520 0.896731 1.122332 0.058489 -0.016924 115656.000000 0 0 1
-14.158457 -20.196644 12.049035 27.450785 0.959379 1.116386 0.046679 -0.008690 93743.400000 0 0 1
-13.034957 -19.363044 11.823235 26.165368 0.978293 1.101941 0.050906 -0.019011 -1140470.000000 0 0 1
-11.961357 -20.227744 11.758735 26.277434 1.036773 1.106846 0.051461 -0.014666 -740474.000000 0 0 1
-10.617757 -19.568244 12.085435 25.332009 1.073651 1.073465 0.080619 -0.019974 -176340.000000 0 0 1
-9.763757 -18.991844 11.146035 24.088487 1.095930 1.089744 0.076483 -0.014872 -395807.000000 0 1 0
-8.737657 -18.287344 11.774235 23.439416 1.125068 1.044509 0.072661 -0.014500 -195677.000000 0 1 0
-7.689057 -17.628944 10.870135 22.092105 1.159510 1.056368 0.055690 -0.013249 -30139.200000 0 1 0
-6.781957 -18.502644 10.251335 22.213344 1.219463 1.091117 0.050024 -0.011298 -309210.000000 0 1 0
-6.161057 -17.789944 9.187735 20.948871 1.237401 1.116779 0.047637 -0.003274 777891.000000 0 1 0
-5.014957 -18.565344 8.424635 20.995149 1.306968 1.157898 0.042086 -0.005900 992875.000000 0 1 0
-3.754857 -18.620344 9.050335 21.041025 1.371811 1.126162 0.052618 -0.003926 -396599.000000 0 1 0
-2.792457 -19.319044 8.326635 21.221596 1.427246 1.167594 0.056041 -0.006959 -19030.700000 0 1 0
-1.521057 -19.623744 9.139535 21.701061 1.493440 1.136077 0.058625 -0.001996 674442.000000 0 1 0
-0.453657 -20.080044 8.288935 21.728332 1.548208 1.179399 0.064894 0.002370 1381.370000 0 1 0
0.785743 -20.107344 8.950535 22.023505 -1.531739 1.152277 0.067245 -0.012911 27384.000000 0 1 0
1.944143 -20.568844 8.038235 22.169128 -1.476557 1.199754 0.068025 -0.023200 72252.000000 0 1 0
1.977043 -21.894644 7.595135 23.258766 -1.480743 1.238146 0.079154 -0.023966 -253121.000000 0 1 0
2.345643 -22.830844 8.604535 24.510967 -1.468415 1.212106 0.085345 -0.027464 -66681.700000 0 1 0
1.996343 -24.290544 8.304135 25.748293 -1.488795 1.242414 0.076088 -0.027638 -81744.200000 0 0 1
2.026243 -25.131844 9.419935 26.915617 -1.490346 1.213246 0.089011 -0.034796 19170.100000 0 0 1
1.627343 -26.441234 8.967035 27.967746 -1.509328 1.244412 0.096351 -0.031323 -878595.000000 0 0 1
1.712943 -27.532624 10.057335 29.362043 -1.508661 1.221189 0.113425 -0.039108 39995.700000 0 0 1
0.790843 -27.444904 11.109235 29.618631 -1.541989 1.186318 0.101816 -0.041613 -365128.000000 0 0 1
-0.558457 -27.551814 10.726335 29.571415 1.550530 1.199604 0.080628 -0.026541 -1046620.000000 0 0 1
-1.499357 -27.618304 11.906935 30.113019 1.516561 1.164284 0.092510 -0.034283 -338825.000000 0 0 1
-1.389557 -28.817334 12.622935 31.491397 1.522614 1.158365 0.096270 -0.042331 -168983.000000 0 0 1
-1.616257 -28.452044 13.959935 31.733435 1.514051 1.115295 0.090327 -0.043753 -151378.000000 0 0 1
-1.152857 -29.472644 14.981835 33.082037 1.531700 1.100816 0.079980 -0.041818 40065.200000 0 0 1
-1.533457 -29.157864 16.289535 33.434735 1.518253 1.061911 0.087477 -0.043379 60085.700000 0 0 1
-0.895957 -30.024044 17.224335 34.625477 1.540964 1.050143 0.093177 -0.044140 72165.400000 0 0 1
-1.313657 -29.707534 18.663035 35.108007 1.526605 1.010321 0.098489 -0.043403 -917227.000000 0 0 1
-2.634857 -29.973834 18.968735 35.569455 1.483116 1.008315 0.086475 -0.037133 -900440.000000 0 0 1
-2.942057 -29.521124 20.248835 35.918906 1.471465 0.971892 0.105100 -0.043440 -701124.000000 0 0 1
-4.425257 -29.672804 20.548535 36.363450 1.422752 0.970257 0.145430 -0.050094 -617506.000000 0 0 1
-5.257757 -28.687994 19.902235 35.309262 1.389534 0.971993 0.111666 -0.047678 382213.000000 0 0 1
-6.480357 -28.496934 20.594635 35.752053 1.347194 0.956920 0.104711 -0.048773 95088.300000 0 0 1
-6.467257 -27.484484 21.789235 35.665011 1.339695 0.913547 0.139376 -0.052867 -240420.000000 0 0 1
-5.546357 -27.927664 22.801435 36.477691 1.374750 0.895564 0.166460 -0.053170 447631.000000 0 0 1
-5.418257 -27.041714 23.905935 36.498021 1.373048 0.856623 0.176503 -0.047694 -217215.000000 0 0 1
-4.219957 -27.353024 24.846735 37.193497 1.417726 0.839225 0.205154 -0.044118 90281.300000 0 0 1
-4.344157 -28.522464 25.679835 38.624559 1.419651 0.843493 0.209396 -0.048166 79281.500000 0 0 1
-4.128557 -29.769224 25.087235 39.148704 1.432990 0.875232 0.207762 -0.042221 -124413.000000 0 0 1
-4.550657 -30.864694 26.089535 40.669419 1.424412 0.874341 0.208677 -0.027566 249416.000000 0 0 1
-3.698557 -30.859174 27.238135 41.326553 1.451513 0.851181 0.205287 -0.037793 260928.000000 0 0 1
-4.109457 -31.774904 28.233735 42.704519 1.442180 0.848457 0.178052 -0.039989 110308.000000 0 0 1
-3.346957 -31.476484 29.571635 43.318042 1.464862 0.819395 0.200920 -0.040695 -518136.000000 0 0 1
-1.970157 -31.638984 29.554335 43.340115 1.508607 0.820417 0.212400 -0.037868 -470131.000000 0 0 1
-1.472957 -31.237894 30.862335 43.936993 1.523678 0.792001 0.197182 -0.051522 -87194.300000 0 0 1
-28.942057 2.461456 -9.830865 30.665084 -0.084844 1.897147 0.200048 -0.034776 494485.000000 0 0 1
-29.954727 2.334756 -10.866365 31.950190 -0.077786 1.917823 0.190449 -0.049445 887491.000000 0 0 1
-30.485627 3.638756 -11.248865 32.697874 -0.118798 1.921996 0.175493 -0.046066 278823.000000 0 0 1
-31.479317 3.468856 -12.439465 34.025295 -0.109752 1.945068 0.161276 -0.047539 -159427.000000 0 0 1
-32.574507 2.638456 -12.180165 34.877162 -0.080821 1.927546 0.170553 -0.047673 -132459.000000 0 0 1
-33.396017 2.567056 -13.323065 36.047022 -0.076716 1.949377 0.174452 -0.047512 -453124.000000 0 0 1
-34.788874 1.972356 -13.153565 37.244761 -0.056634 1.931749 0.178307 -0.045606 -384397.000000 0 0 1
-34.719657 0.607856 -12.791265 37.005953 -0.017506 1.923732 0.218850 -0.048354 1220530.000000 0 0 1
-36.004877 -0.069444 -12.609665 38.149176 0.001929 1.907667 0.204523 -0.046892 1445770.000000 0 0 1
-35.810180 -1.533044 -12.149565 37.846151 0.042784 1.897608 0.242183 -0.050625 70955.500000 0 0 1
-35.321810 -2.429044 -13.117065 37.756959 0.068661 1.925602 0.237453 -0.046017 132022.000000 0 0 1
-35.110714 -3.756144 -12.636165 37.503914 0.106575 1.914450 0.266231 -0.054011 -20606.500000 0 0 1
-34.898197 -4.872144 -13.660865 37.792079 0.138714 1.940645 0.256224 -0.050368 104419.000000 0 0 1
-34.566276 -6.165744 -13.174165 37.502033 0.176518 1.929747 0.246460 -0.056228 285353.000000 0 0 1
-34.573985 -7.057444 -14.274465 38.064791 0.201360 1.955198 0.239232 -0.045969 -486253.000000 0 0 1
-34.736349 -8.550644 -13.795465 38.341131 0.241360 1.938859 0.191956 -0.043187 293248.000000 0 0 1
-33.632557 -9.180144 -13.125565 37.251905 0.266463 1.930873 0.192353 -0.040878 893498.000000 0 0 1
-32.544267 -9.469644 -13.996765 36.670328 0.283159 1.962422 0.204357 -0.037174 -514464.000000 0 0 1
-31.621637 -10.577844 -13.574165 36.001065 0.322812 1.957404 0.174475 -0.041109 -457851.000000 0 0 1
-32.184857 -11.887844 -13.770265 36.970340 0.353818 1.952463 0.158820 -0.037465 265168.000000 0 0 1
-31.355757 -12.934444 -13.300965 36.433488 0.391241 1.944510 0.170456 -0.037870 -43498.500000 0 0 1
-31.580507 -14.276744 -14.030465 37.389943 0.424578 1.955460 0.182574 -0.031993 -373942.000000 0 0 1
-31.079847 -14.093344 -15.305765 37.401146 0.425724 1.992409 0.175003 -0.042040 73719.100000 0 0 1
-31.092027 -15.234644 -16.090965 38.180200 0.455604 2.005838 0.182444 -0.046501 -1518.870000 0 0 1
-29.950417 -16.277644 -15.879665 37.605225 0.497829 2.006748 0.151089 -0.039825 343458.000000 0 0 1
-28.686387 -15.669644 -16.112965 36.442752 0.499952 2.028785 0.151758 -0.048663 -335386.000000 0 0 1
-27.634287 -16.578944 -16.015265 35.986163 0.540376 2.032015 0.161727 -0.052463 313321.000000 0 0 1
-26.255927 -16.082144 -16.544165 34.953090 0.549571 2.063858 0.148347 -0.055095 386956.000000 0 0 1
-26.193947 -15.799244 -17.910565 35.447529 0.542743 2.100491 0.131743 -0.052900 -144757.000000 0 0 1
-24.933257 -15.403744 -18.391265 34.600307 0.553404 2.131208 0.087989 -0.034225 -511851.000000 0 0 1
-25.146277 -14.972744 -19.828565 35.350959 0.537049 2.166276 0.091838 -0.037164 35835.700000 0 0 1
-25.445317 -15.916544 -20.828265 36.532413 0.558973 2.177462 0.107040 -0.041710 1326500.000000 0 0 1
-26.874517 -16.119744 -20.907265 37.672265 0.540284 2.159132 0.128005 -0.058844 718852.000000 0 0 1
-27.460007 -17.215344 -21.821665 39.071795 0.559982 2.163375 0.139636 -0.063952 -52401.400000 0 0 1
-27.323977 -16.867144 -23.202765 39.616519 0.553044 2.196520 0.130319 -0.046374 163952.000000 0 0 1
-28.012067 -17.888644 -23.873465 40.922144 0.568323 2.193690 0.132156 -0.034602 -618277.000000 0 0 1
-27.341007 -18.232344 -25.197215 41.410732 0.588129 2.224928 0.117409 -0.021742 -368729.000000 0 0 1
-26.028747 -18.700044 -25.165745 40.749258 0.622994 2.236453 0.102093 -0.021592 -463583.000000 0 0 1
-25.767767 -19.895144 -24.461965 40.720785 0.657492 2.215203 0.078736 -0.015293 -1515330.000000 0 0 1
-24.297957 -20.275144 -24.442765 39.986510 0.695390 2.228467 0.061137 -0.008254 -537406.000000 0 0 1
-23.624757 -20.449044 -25.657885 40.430429 0.713468 2.258311 0.042318 -0.010434 20284.700000 0 0 1
-22.290857 -20.878244 -25.434535 39.745427 0.752687 2.265211 0.042547 -0.007280 293655.000000 0 0 1
-21.474957 -21.055944 -26.746745 40.248167 0.775547 2.297682 0.039154 -0.007695 -176500.000000 0 0 1
-21.865857 -22.148044 -27.508515 41.537573 0.791809 2.294622 0.076047 -0.010326 -364298.000000 0 0 1
-22.553657 -21.799944 -28.702945 42.517809 0.768407 2.311870 0.081881 -0.011599 -560700.000000 0 0 1
-21.750457 -21.817544 -29.993475 42.996467 0.786938 2.342811 0.079855 -0.022452 -223407.000000 0 0 1
-21.273057 -23.102344 -30.345145 43.670231 0.826598 2.339036 0.077493 -0.026962 44932.100000 0 0 1
-20.709457 -23.100044 -31.663145 44.328867 0.839912 2.366389 0.087260 -0.031557 268549.000000 0 0 1
-19.816857 -24.357744 -31.904265 44.764826 0.887832 2.364148 0.100369 -0.029849 14614.400000 0 0 1
-19.080157 -24.353244 -33.155505 45.347772 0.906213 2.390786 0.106207 -0.028362 248869.000000 0 0 1
-19.824557 -24.429644 33.251744 45.776621 0.889085 0.757740 0.108689 -0.015640 204521.000000 0 0 1
-18.964557 -24.496844 31.892354 44.462029 0.912009 0.770885 0.108581 -0.015081 221311.000000 0 0 1
-18.503457 -23.192944 31.577705 43.329459 0.897395 0.754256 0.098656 -0.018781 -46819.900000 0 0 1
-17.741757 -23.218144 30.368195 42.143557 0.918311 0.766145 0.097461 -0.012324 519836.000000 0 0 1
-16.924057 -21.912944 30.059195 40.867542 0.913156 0.744352 0.087053 -0.018125 251186.000000 0 0 1
-17.745557 -20.805944 29.833705 40.470261 0.864616 0.741915 0.080847 -0.020240 170232.000000 0 0 1
-16.975357 -19.593244 29.692845 39.417293 0.856865 0.717739 0.083915 -0.027405 473188.000000 0 0 1
-16.494057 -18.819144 30.964995 39.812624 0.851145 0.679689 0.095316 -0.035964 82905.400000 0 0 1
-15.860657 -17.625944 30.736315 38.819523 0.838066 0.657087 0.095390 -0.037829 -356718.000000 0 0 1
-15.293857 -17.014844 31.869128 39.230706 0.838615 0.622623 0.098412 -0.043868 135839.000000 0 0 1
-14.866457 -15.531044 31.648323 38.260178 0.807258 0.596713 0.100918 -0.041769 -354391.000000 0 0 1
-13.660957 -15.463244 30.956925 37.203022 0.847202 0.587899 0.127844 -0.046188 -597429.000000 0 0 1
-13.250657 -14.180244 30.687775 36.309761 0.819274 0.563921 0.102412 -0.049174 -21091.300000 0 0 1
-11.783057 -13.980544 30.248285 35.344798 0.870486 0.543690 0.123349 -0.047002 265874.000000 0 0 1
-11.432557 -12.605044 30.132315 34.605590 0.834137 0.514100 0.102652 -0.042974 -85089.700000 0 0 1
-10.039357 -12.393244 30.252075 34.198965 0.889947 0.485181 0.111315 -0.040855 186102.000000 0 0 1
-9.736157 -10.893044 30.326845 33.662571 0.841420 0.448942 0.102747 -0.034429 -167528.000000 0 0 1
-10.213257 -10.272344 31.493995 34.665594 0.788282 0.431095 0.098038 -0.032597 -45206.700000 0 0 1
-9.907757 -8.904544 31.425695 34.132519 0.732121 0.400935 0.074067 -0.025963 -303152.000000 0 0 1
-10.773457 -7.973844 32.310587 34.980331 0.637159 0.393224 0.060259 -0.029108 527616.000000 0 0 1
-12.147457 -8.027444 31.875508 35.043524 0.583953 0.428482 0.072805 -0.029848 1125120.000000 0 0 1
-13.126057 -7.323144 32.666778 35.958868 0.508895 0.431239 0.059085 -0.031036 259305.000000 0 0 1
-12.865357 -5.941344 33.332916 36.220164 0.432631 0.401985 0.051592 -0.025441 -707808.000000 0 0 1
-12.576657 -4.957944 32.339044 35.050924 0.375512 0.395951 0.056131 -0.027486 313528.000000 0 0 1
-12.956057 -3.666844 32.830188 35.484171 0.275808 0.389217 0.053466 -0.034919 -113579.000000 0 0 1
-12.458657 -2.513944 31.874341 34.314890 0.199109 0.379425 0.060473 -0.026261 -410568.000000 0 0 1
-11.065657 -2.417644 31.862932 33.816271 0.215102 0.341550 0.064861 -0.028542 -255945.000000 0 0 1
-10.671057 -1.300144 31.071425 32.878492 0.121241 0.333086 0.061460 -0.027175 -523768.000000 0 0 1
-9.175557 -0.995944 31.105845 32.446207 0.108120 0.288437 0.066216 -0.028210 -321833.000000 0 0 1
-8.683857 -0.402144 32.289126 33.438881 0.046276 0.262993 0.076108 -0.038174 -373977.000000 0 0 1
-7.332157 -0.066144 32.182234 33.006985 0.009021 0.224018 0.103312 -0.034193 -364661.000000 0 0 1
-6.852357 0.708156 33.450060 34.152054 -0.102979 0.203105 0.134935 -0.047894 -126771.000000 0 0 1
-7.518057 1.972756 33.653975 34.539875 -0.256617 0.226976 0.133862 -0.037475 89206.900000 0 0 1
-6.861657 3.098456 33.130728 33.975401 -0.424151 0.223450 0.144348 -0.037432 592896.000000 0 0 1
-7.852457 4.351556 33.171274 34.364670 -0.506035 0.264312 0.146993 -0.042132 869718.000000 0 0 1
-8.929557 4.282856 32.256480 33.742560 -0.447217 0.297889 0.107108 -0.025081 -53697.800000 0 0 1
-9.696957 5.474656 32.242376 34.111195 -0.513964 0.332547 0.101594 -0.027838 -1093710.000000 0 0 1
-11.070557 5.305656 31.686536 33.981521 -0.446917 0.369623 0.078229 -0.021632 -1126920.000000 0 0 1
-11.966257 6.338056 31.977177 34.726101 -0.487094 0.400568 0.090203 -0.023912 -477692.000000 0 0 1
-13.242857 6.122156 31.443865 34.663680 -0.433034 0.434424 0.047667 -0.020471 -288814.000000 0 0 1
-14.064157 7.426056 31.437415 35.231490 -0.485806 0.468359 0.066497 -0.024554 -276411.000000 0 0 1
-14.483057 7.783656 32.755307 36.650435 -0.493143 0.465222 0.064264 -0.028217 225539.000000 0 0 1
-15.393657 8.864356 32.665274 37.182814 -0.522469 0.498073 0.057740 -0.012479 -91263.600000 0 0 1
-16.318457 9.017556 -33.782975 38.586238 -0.504836 2.637305 0.041299 -0.005430 -133669.000000 0 0 1
-15.687757 9.526456 -32.626225 37.434338 -0.545736 2.629169 0.035338 -0.002242 -30791.400000 0 0 1
-16.600157 10.125856 -31.738055 37.220993 -0.547729 2.591914 0.052427 -0.002399 -544068.000000 0 0 1
-15.837557 10.538156 -30.391945 35.854585 -0.587118 2.582326 0.073074 -0.007041 1188250.000000 0 0 1
-14.923157 11.651356 -30.492065 35.891792 -0.662897 2.585938 0.071766 -0.013210 1331690.000000 0 0 1
-13.684357 11.410156 -31.209825 35.937536 -0.695020 2.622856 0.085535 -0.020013 231658.000000 0 0 1
-12.663757 12.493556 -30.964735 35.710986 -0.778633 2.620132 0.091787 -0.023694 -581186.000000 0 0 1
-12.890357 13.537656 -31.940775 37.008682 -0.809886 2.612096 0.073857 -0.023550 504031.000000 0 0 1
-11.855557 14.531756 -32.010765 37.100071 -0.886472 2.611623 0.072818 -0.035394 27472.300000 0 0 1
-12.059357 15.585356 -30.838615 36.597153 -0.912260 2.572983 0.070988 -0.032306 399002.000000 0 0 1
-13.335157 16.202456 -30.943675 37.387926 -0.882168 2.545683 0.086870 -0.033566 362558.000000 0 0 1
-13.506357 17.096356 -29.888005 36.986483 -0.902174 2.511680 0.082063 -0.030177 616162.000000 0 0 1
-14.911057 17.795956 -29.975575 37.915311 -0.873375 2.482573 0.086382 -0.035905 231517.000000 0 0 1
-15.094857 18.633856 -31.141475 39.304793 -0.889941 2.485378 0.079126 -0.033393 1193250.000000 0 0 1
-16.394257 19.287756 -31.260725 40.224646 -0.866312 2.460926 0.072685 -0.028648 1408770.000000 0 0 1
-17.025357 20.134456 -30.150315 40.053722 -0.868872 2.423021 0.068879 -0.033101 -497205.000000 0 0 1
-16.491457 21.493456 -30.215895 40.582473 -0.916329 2.410665 0.070162 -0.018796 283769.000000 0 0 1
-17.277657 22.590556 -29.783325 41.181271 -0.917879 2.379257 0.053343 -0.026287 257006.000000 0 0 1
-18.599557 22.859956 -30.576995 42.467326 -0.887799 2.374616 0.058700 -0.023642 670098.000000 0 0 1
-19.718957 22.069556 -30.193575 42.279481 -0.841589 2.366195 0.067809 -0.024751 -272172.000000 0 0 1
-20.733057 22.151456 -31.117585 43.460911 -0.818461 2.368838 0.094209 -0.027519 -537974.000000 0 0 1
-21.976257 21.199756 -30.903625 43.444442 -0.767416 2.362194 0.115163 -0.033926 65843.400000 0 0 1
-22.962557 21.590056 -30.013605 43.522707 -0.754602 2.331744 0.139482 -0.028978 -82176.400000 0 0 1
-23.800957 22.644956 -30.449155 44.793199 -0.760514 2.318248 0.129705 -0.030036 -633667.000000 0 0 1
-25.143437 22.195856 -31.045195 45.701779 -0.723213 2.317604 0.142408 -0.034813 -443089.000000 0 0 1
-24.892157 21.440456 -32.189855 45.994559 -0.711037 2.346001 0.137792 -0.034312 -150003.000000 0 0 1
-26.083187 21.145456 -32.862495 46.983045 -0.681227 2.345430 0.157387 -0.035260 -239404.000000 0 0 1
-25.857257 20.196156 33.631005 46.984327 -0.663087 0.773039 0.148486 -0.030982 -36852.700000 0 0 1
-25.723877 18.875256 -33.631875 46.358345 -0.633029 2.382522 0.146386 -0.040283 290560.000000 0 0 1
-25.394867 17.960656 32.981155 45.334766 -0.615579 0.756122 0.127698 -0.046922 -453948.000000 0 0 1
-25.272467 16.438556 33.386704 44.984394 -0.576694 0.734473 0.090882 -0.033511 -557733.000000 0 0 1
-26.426747 15.692556 33.655195 45.577422 -0.535858 0.740075 0.081447 -0.026325 -39494.500000 0 0 1
-26.943617 15.139756 32.446211 44.809902 -0.511937 0.761088 0.090757 -0.025668 -458314.000000 0 0 1
-27.831447 13.925256 32.698533 45.140849 -0.463922 0.760681 0.048478 -0.017387 899646.000000 0 0 1
-29.149327 14.190156 33.265829 46.450610 -0.453039 0.772519 0.063351 -0.015464 1275080.000000 0 0 1
-30.002057 13.049056 33.210506 46.619084 -0.410259 0.777913 0.053251 -0.009664 -59089.000000 0 0 1
-29.622457 11.818956 -33.538085 46.281539 -0.379632 2.381328 0.039950 -0.013682 -250381.000000 0 0 1
-28.404357 11.134756 -33.753345 45.498117 -0.373598 2.406640 0.037778 -0.019387 -146213.000000 0 0 1
-28.604987 9.721156 -33.687335 45.250223 -0.327596 2.410534 0.053709 -0.014261 -823086.000000 0 0 1
-27.337237 8.853256 -33.455365 44.101770 -0.313194 2.431950 0.054103 -0.021729 228374.000000 0 0 1
-26.514887 8.697556 33.046813 43.252498 -0.316966 0.701238 0.035143 -0.021886 477958.000000 0 0 1
-25.673927 9.822756 32.765169 42.769070 -0.365414 0.698053 0.018754 -0.020985 -202367.000000 0 0 1
-24.394357 9.471756 31.940067 41.291242 -0.370359 0.686402 0.030473 -0.018127 305684.000000 0 0 1
-24.631257 9.335256 30.577125 40.358474 -0.362273 0.711109 0.031235 -0.015237 -122180.000000 0 0 1
-23.415057 9.056656 29.930175 39.065372 -0.369065 0.697958 0.042613 -0.015608 87602.300000 0 0 1
-23.497757 9.086356 28.365475 37.938195 -0.368980 0.726241 0.060184 -0.020333 -119451.000000 0 0 1
-23.744457 10.377556 27.897415 38.075696 -0.412034 0.748540 0.065918 -0.016714 124616.000000 0 0 1
-23.864657 10.325656 26.486795 37.117265 -0.408354 0.776176 0.070533 -0.020655 -611621.000000 0 0 1
-24.418857 11.675156 25.888165 37.453797 -0.445991 0.807644 0.074698 -0.023374 1146450.000000 0 0 1
-25.772507 11.976756 26.279605 38.707653 -0.435020 0.824498 0.083997 -0.022218 782665.000000 0 0 1
-26.746867 11.470956 25.392105 38.623008 -0.405145 0.853387 0.097074 -0.011103 -425554.000000 0 0 1
-28.116247 12.133856 25.569435 39.894233 -0.407414 0.875086 0.094456 -0.014929 -329055.000000 0 0 1
-28.195197 13.426556 25.005485 40.006447 -0.444427 0.895618 0.115580 -0.018881 -89724.400000 0 0 1
-29.323887 14.100656 25.507165 41.344096 -0.448218 0.905937 0.095160 -0.022058 -27648.400000 0 0 1
-29.366987 15.547656 25.215795 41.713138 -0.486911 0.921652 0.110212 -0.021936 -234336.000000 0 0 1
-28.337147 16.251356 25.858635 41.662567 -0.520706 0.901202 0.121406 -0.023542 -30766.400000 0 0 1
-28.075867 17.438556 25.100935 41.501982 -0.555806 0.921265 0.106669 -0.019104 -231206.000000 0 0 1
-23.337757 -8.730544 31.538465 40.193881 0.357977 0.668651 0.054196 -0.008279 -432560.000000 0 0 1
-22.395457 -8.631844 30.515685 38.823604 0.367882 0.666471 0.056032 -0.012301 -50114.300000 0 0 1
-23.010157 -8.849644 29.240115 38.246148 0.367158 0.700493 0.055674 -0.013597 39094.700000 0 0 1
-22.147857 -8.375244 28.058485 36.714450 0.361531 0.700941 0.084533 -0.022352 -83239.400000 0 0 1
-21.716057 -6.994844 28.107365 36.201366 0.311611 0.681836 0.081016 -0.023498 350965.000000 0 0 1
-20.492557 -6.670644 28.746695 35.927912 0.314698 0.643299 0.070485 -0.022104 356278.000000 0 0 1
-19.171157 -6.988544 27.958165 34.612599 0.349564 0.630479 0.072942 -0.018351 -125775.000000 0 0 1
-18.700257 -8.289744 27.929205 34.618780 0.417265 0.632141 0.070750 -0.016577 324503.000000 0 0 1
-18.206057 -8.846444 29.194815 35.525446 0.452309 0.606233 0.065700 -0.014064 -1686860.000000 0 0 1
-16.849157 -8.470544 29.656335 35.144593 0.465828 0.566401 0.060538 -0.014884 -1495260.000000 0 0 1
-15.777057 -9.237844 29.131025 34.392876 0.529707 0.560466 0.053553 -0.013261 -1093830.000000 0 0 1
-14.582257 -8.772744 29.605745 34.148256 0.541598 0.521693 0.061720 -0.022923 -908102.000000 0 0 1
-13.352857 -9.558444 29.125975 33.436283 0.621275 0.513381 0.078498 -0.018609 -146269.000000 0 0 1
-13.156757 -9.552944 27.720755 32.137194 0.628020 0.530458 0.081694 -0.014587 1145.170000 0 0 1
-11.887557 -10.155544 27.506185 31.639205 0.706985 0.516870 0.103049 -0.019836 218460.000000 0 0 1
-11.361057 -9.844344 26.083335 30.105233 0.713995 0.522838 0.091149 -0.013957 -71450.800000 0 0 1
-12.158957 -10.536444 25.159855 29.864279 0.714029 0.568939 0.081940 -0.014328 -145447.000000 0 0 1
-11.776757 -10.238644 23.805275 28.464240 0.715646 0.580256 0.089012 -0.017410 681087.000000 0 0 1
-12.888257 -10.648844 22.754475 28.235991 0.690540 0.633657 0.101911 -0.024493 -110198.000000 0 0 1
-12.891857 -12.064444 22.434025 28.548840 0.752256 0.666788 0.084532 -0.018629 727316.000000 0 0 1
-14.099457 -12.534344 21.797825 28.827932 0.726701 0.713409 0.068964 -0.017363 1324050.000000 0 0 1
-15.318657 -12.554744 22.818455 30.215306 0.686562 0.714844 0.066573 -0.018595 506273.000000 0 0 1
-16.534157 -13.042544 22.211325 30.607667 0.667889 0.758776 0.031132 -0.009711 387971.000000 0 0 1
-17.544357 -13.004644 23.173295 31.842218 0.637873 0.755755 0.033239 -0.014217 -341087.000000 0 0 1
-18.921257 -13.475544 22.654895 32.447627 0.618861 0.797918 0.085154 -0.021991 -389616.000000 0 0 1
-18.934857 -14.915044 22.499125 32.972685 0.667198 0.819815 0.080600 -0.026896 -181861.000000 0 0 1
-20.180657 -15.514944 22.307325 33.846553 0.655427 0.851212 0.087986 -0.022895 -628704.000000 0 0 1
-21.075257 -15.696744 23.547705 35.285247 0.640162 0.840148 0.086539 -0.023307 -314820.000000 0 0 1
-20.540657 -16.599744 24.585955 36.082396 0.679685 0.821145 0.073872 -0.019803 709366.000000 0 0 1
-21.347357 -16.350344 25.753815 37.233082 0.653612 0.806967 0.076281 -0.018795 49956.600000 0 0 1
-20.895457 -17.013544 27.028845 38.165944 0.683353 0.783861 0.076784 -0.013205 -365458.000000 0 0 1
-20.929257 -18.413244 26.959155 38.779858 0.721534 0.802120 0.074274 -0.009010 116514.000000 0 0 1
-20.642757 -18.997944 28.228585 39.798220 0.743929 0.782302 0.065387 -0.011565 -58980.100000 0 0 1
-20.558957 -20.553444 28.132925 40.454619 0.785264 0.801793 0.073156 -0.002126 -474245.000000 0 0 1
-21.814457 -21.121944 27.948855 41.269184 0.769271 0.826801 0.061098 0.007798 -595114.000000 0 0 1
-21.633957 -22.389544 27.415445 41.484050 0.802560 0.848823 0.072183 0.009004 258029.000000 0 0 1
-22.949757 -22.927344 26.817155 42.089360 0.784910 0.880004 0.067017 0.014893 607984.000000 0 0 1
-23.874257 -23.446844 27.800995 43.504367 0.776366 0.877548 0.058971 0.017344 687380.000000 0 0 1
-24.940257 -24.170444 27.179585 44.101662 0.769724 0.906768 0.038052 0.017371 574927.000000 0 0 1
-25.758987 -25.074464 28.150515 45.658577 0.771933 0.906451 0.033482 0.017611 -162249.000000 0 0 1
-26.606687 -24.404644 29.009675 46.314832 0.742257 0.893924 0.032662 0.021719 -185516.000000 0 0 1
-27.275237 -25.269024 29.919145 47.724390 0.747235 0.893209 0.024211 0.020911 -104457.000000 0 0 1
-28.302597 -24.631744 30.853555 48.576760 0.716162 0.882593 0.035938 0.015325 -396297.000000 0 0 1
-29.396427 -24.204044 30.081905 48.527381 0.688828 0.902187 0.034480 0.011617 -448570.000000 0 0 1
-30.431037 -23.808644 30.954535 49.508411 0.663905 0.895360 0.043240 -0.002512 -760831.000000 0 0 1
-31.671427 -23.341644 30.231985 49.617381 0.635125 0.915616 0.044176 -0.008941 -1062980.000000 0 0 1
-32.238087 -24.282344 29.352855 49.905076 0.645558 0.941998 0.054024 -0.008718 -662120.000000 0 0 1
-33.477007 -23.935844 28.844805 50.255919 0.620718 0.959465 0.062815 -0.015333 -560794.000000 0 0 1
-34.615190 -24.646644 29.591005 51.781232 0.618746 0.962510 0.063978 -0.014267 -448572.000000 0 0 1
-34.512793 -26.047024 29.623715 52.413212 0.646506 0.970126 0.069460 -0.018955 -190564.000000 0 0 1
-35.684255 -26.556644 30.200155 53.764958 0.639786 0.974349 0.073157 -0.015766 39008.100000 0 0 1
-35.589845 -28.105964 30.459265 54.629196 0.668440 0.979348 0.080462 -0.016875 -68242.100000 0 0 1
-34.701296 -28.487604 31.483115 54.835299 0.687378 0.959243 0.072514 -0.013618 -149348.000000 0 0 1
-34.752557 -29.870144 31.836232 55.798848 0.709989 0.963617 0.074878 -0.021391 -89639.600000 0 0 1
-33.751537 -30.303924 32.912676 56.042290 0.731628 0.943099 0.057443 -0.010991 -233277.000000 0 0 1
-34.105645 -29.799744 -33.507775 56.338182 0.718121 2.207765 0.057014 -0.007830 -55322.900000 0 0 1
-33.098577 -29.995974 -32.522465 55.253823 0.736264 2.200124 0.042486 -0.007487 -56671.900000 0 0 1
-33.423197 -29.599544 -31.046015 54.379207 0.724801 2.178419 0.049923 -0.012728 -177194.000000 0 0 1
-33.606407 -28.189154 -30.749095 53.567956 0.697958 2.182204 0.063926 -0.015506 -128817.000000 0 0 1
-32.433027 -27.397474 -30.608645 52.339392 0.701432 2.195443 0.052610 -0.011725 -82629.500000 0 0 1
-32.600267 -25.859354 -30.514765 51.600722 0.670596 2.203545 0.042625 -0.004752 -21858.300000 0 0 1
-33.358407 -25.423244 -29.381515 51.209356 0.651215 2.181877 0.048815 -0.010438 52066.000000 0 0 1
-33.300987 -24.061644 -29.242225 50.428426 0.625701 2.189373 0.063814 -0.012559 787639.000000 0 0 1
-31.964007 -23.460644 -28.641435 48.912487 0.633163 2.196373 0.067623 -0.011262 752202.000000 0 0 1
-31.987527 -22.034244 -28.510095 48.182313 0.603196 2.203978 0.072246 -0.012399 33633.700000 0 0 1
-30.828547 -21.592144 -27.837235 46.813798 0.610991 2.207611 0.100840 -0.013493 65048.700000 0 0 1
-30.672677 -20.061844 -28.032265 46.142156 0.579226 2.223730 0.126653 -0.031349 528300.000000 0 0 1
-29.932977 -19.710544 -29.265965 46.270783 0.582320 2.255564 0.106403 -0.012979 790548.000000 0 0 1
-29.906887 -18.291644 -29.355995 45.725054 0.548920 2.267915 0.109969 -0.022754 151179.000000 0 0 1
-29.097977 -17.861144 -30.619235 45.861207 0.550525 2.301844 0.096175 -0.015789 197251.000000 0 0 1
-29.785207 -17.963844 -31.857975 47.167667 0.542705 2.312330 0.087204 -0.021172 473484.000000 0 0 1
-30.607097 -16.777344 -32.025955 47.370196 0.501423 2.313223 0.105859 -0.025161 -43145.500000 0 0 1
-31.331797 -16.529544 -33.386855 48.678429 0.485455 2.326589 0.100317 -0.034052 340645.000000 0 0 1
-32.496577 -17.218744 -33.805805 49.953430 0.487252 2.314131 0.093827 -0.030300 -566593.000000 0 0 1
-33.645477 -16.702544 -33.237485 50.156989 0.460786 2.295173 0.089746 -0.030578 -1533540.000000 0 0 1
-34.818156 -17.097144 33.544968 51.282367 0.456455 0.857774 0.079104 -0.027905 -732604.000000 0 0 1
-35.089405 -18.491344 33.571304 51.963724 0.484996 0.868395 0.072759 -0.026341 614754.000000 0 0 1
-36.038047 -18.828044 32.521455 52.066123 0.481445 0.896154 0.077997 -0.028019 341557.000000 0 0 1
-36.575527 -20.246244 32.569486 52.994821 0.505562 0.908945 0.074440 -0.030846 -46026.100000 0 0 1
-35.507629 -21.128344 32.321828 52.458547 0.536762 0.906963 0.083728 -0.029533 -109818.000000 0 0 1
-35.822105 -22.401044 32.884010 53.538660 0.558845 0.909411 0.080258 -0.019758 -622780.000000 0 0 1
-34.668522 -23.462044 32.995163 53.301545 0.594953 0.903292 0.084729 -0.016587 853165.000000 0 0 1
-33.603897 -23.308844 -33.746595 53.022229 0.606441 2.260698 0.061455 -0.014510 -72778.500000 0 0 1
-32.994247 -22.071244 -33.718065 52.083280 0.589576 2.274948 0.062643 -0.014887 -1548600.000000 0 0 1
-31.737947 -22.095544 -32.812365 50.716483 0.608162 2.274409 0.048758 -0.003984 -231872.000000 0 0 1
-30.698227 -22.916544 -33.332395 50.779895 0.641264 2.286846 0.045819 0.001793 417789.000000 0 0 1
-29.432557 -22.755744 -32.718105 49.543655 0.658152 2.292134 0.056040 -0.001395 234948.000000 0 0 1
-29.294287 -23.276944 -31.251585 48.750723 0.671433 2.266660 0.063538 -0.000469 -954284.000000 0 0 1
-29.220277 -24.682444 -31.146075 49.326723 0.701411 2.254185 0.065649 -0.003974 138177.000000 0 0 1
-28.511277 -25.128524 -30.002185 48.419694 0.722417 2.239065 0.053671 -0.008378 148465.000000 0 0 1
-28.194607 -26.639614 -29.833335 48.934985 0.757048 2.226418 0.058724 -0.008524 -381515.000000 0 0 1
-29.310687 -27.339134 -29.390635 49.702657 0.750610 2.203502 0.047643 -0.008928 -294870.000000 0 0 1
-28.933277 -28.574104 -28.859035 49.864395 0.779153 2.187992 0.050861 -0.014480 -229868.000000 0 0 1
-29.579917 -29.812574 -29.452135 51.295120 0.789315 2.182387 0.036798 -0.003232 -314836.000000 0 0 1
-29.168837 -30.014424 -30.789245 51.958294 0.799685 2.205050 0.045000 -0.015612 387739.000000 0 0 1
-29.679107 -31.210814 -31.385575 53.291825 0.810548 2.200540 0.062667 -0.015612 -408036.000000 0 0 1
-29.285207 -31.412624 -32.849485 54.069076 0.820433 2.223764 0.049266 -0.017264 1123090.000000 0 0 1
-27.853397 -31.649264 -32.859035 53.452819 0.849105 2.232840 0.052337 -0.020358 956587.000000 0 0 1
-27.406637 -32.296274 33.656405 54.101078 0.867115 0.899371 0.062294 -0.027200 -201014.000000 0 0 1
-25.962117 -32.822884 33.668125 53.711413 0.901582 0.893314 0.082263 -0.027443 -71345.600000 0 0 1
-25.592177 -33.465284 32.474880 53.193069 0.917929 0.914092 0.078228 -0.023286 -260359.000000 0 0 1
-24.623657 33.282691 32.745571 52.785741 -0.933833 0.901609 0.080831 -0.014858 -496936.000000 0 0 1
-24.348657 32.387079 31.526995 51.339375 -0.926143 0.909564 0.083885 -0.021216 -315295.000000 0 0 1
-25.519917 31.768756 31.064795 51.240038 -0.894045 0.919447 0.064221 -0.028779 -200357.000000 0 0 1
-25.320087 31.003962 29.903645 49.965793 -0.885972 0.929191 0.055949 -0.025444 -480822.000000 0 0 1
-26.612297 30.410962 29.359005 49.949896 -0.851916 0.942498 0.062048 -0.023119 -326298.000000 0 0 1
-27.248657 29.482502 30.243195 50.262890 -0.824754 0.925168 0.065665 -0.027814 607456.000000 0 0 1
-28.513427 28.976952 29.831445 50.424145 -0.793461 0.937742 0.073775 -0.026653 607792.000000 0 0 1
-29.050627 27.822032 30.742635 50.627206 -0.763799 0.918220 0.079967 -0.039586 -31495.200000 0 0 1
-28.142477 26.723812 30.805645 49.549459 -0.759547 0.899866 0.076301 -0.030721 161507.000000 0 0 1
-28.628587 25.401822 31.104735 49.318892 -0.725748 0.888359 0.075961 -0.023478 459570.000000 0 0 1
-29.611957 24.709062 30.069825 48.903989 -0.695384 0.908569 0.092499 -0.026803 550256.000000 0 0 1
-29.046247 24.473522 28.819135 47.677880 -0.700165 0.921715 0.076089 -0.018505 -134881.000000 0 0 1
-29.815897 23.587762 28.000885 47.216732 -0.669299 0.935981 0.100005 -0.012907 499321.000000 0 0 1
-29.065227 23.438732 26.652875 45.875236 -0.678642 0.950857 0.105816 -0.016567 882936.000000 0 0 1
-27.840127 22.692902 26.725125 44.769105 -0.683890 0.931097 0.110533 -0.018816 485655.000000 0 0 1
-27.326387 22.298102 25.443845 43.489378 -0.684416 0.945844 0.090886 -0.010967 -313874.000000 0 0 1
-25.979137 21.603002 25.594535 42.387327 -0.693686 0.922505 0.074363 -0.014341 -597883.000000 0 0 1
-26.070137 20.344202 26.202805 42.191535 -0.662653 0.900722 0.121226 -0.029433 787918.000000 0 0 1
-24.813057 19.946602 26.767525 41.593931 -0.677099 0.871677 0.086386 -0.017813 607746.000000 0 0 1
-24.957657 18.608702 27.534135 41.560763 -0.640686 0.846641 0.114477 -0.025335 3468.050000 0 0 1
-23.731957 18.249602 28.134215 41.082695 -0.655543 0.816441 0.104768 -0.013349 380627.000000 0 0 1
-23.950357 17.314402 29.156835 41.515408 -0.625949 0.792154 0.099705 -0.016873 37761.200000 0 0 1
-22.719757 16.370402 29.311215 40.537942 -0.624376 0.762580 0.095472 -0.024863 963446.000000 0 0 1
-21.585457 16.909802 30.030185 40.665530 -0.664530 0.740001 0.127152 -0.028387 1030330.000000 0 0 1
-20.495157 15.988902 29.888955 39.611186 -0.662508 0.715815 0.105815 -0.022157 1293760.000000 0 0 1
-19.147057 16.356402 30.614515 39.640764 -0.706957 0.688344 0.099541 -0.025729 690890.000000 0 0 1
-19.430657 16.293002 32.005867 40.833661 -0.697792 0.670017 0.085973 -0.026835 -47328.800000 0 0 1
-18.327957 16.662402 32.779588 41.085898 -0.737834 0.647108 0.083874 -0.027305 -1032500.000000 0 0 1
-18.505857 16.564002 -33.372035 41.599587 -0.730084 2.501801 0.073934 -0.034771 224564.000000 0 0 1
-19.623057 17.237702 -32.820005 41.944672 -0.720776 2.469402 0.102784 -0.031430 859904.000000 0 0 1
-20.884457 16.587602 -33.015485 42.442094 -0.671229 2.462105 0.105337 -0.023524 526996.000000 0 0 1
-22.124857 17.319802 -32.392895 42.881051 -0.664178 2.427080 0.105409 -0.035517 386719.000000 0 0 1
-22.186457 17.110102 -30.961305 41.756399 -0.656929 2.406062 0.111435 -0.033016 363035.000000 0 0 1
-23.248557 17.836202 -30.355995 42.191373 -0.654416 2.373855 0.106101 -0.028978 -370744.000000 0 0 1
-23.289557 17.599602 -28.869345 41.055920 -0.647130 2.350644 0.099890 -0.030549 25916.900000 0 0 1
-23.892557 16.418702 -28.425775 40.601142 -0.602076 2.346365 0.097207 -0.035584 599431.000000 0 0 1
-25.288567 16.234002 -28.683695 41.542855 -0.570696 2.332922 0.092192 -0.032748 354582.000000 0 0 1
-26.056797 15.227402 -27.819525 41.045785 -0.528864 2.315519 0.081945 -0.021716 46659.200000 0 0 1
-25.614727 13.914102 -27.942955 40.379763 -0.497613 2.335058 0.067787 -0.017988 -90352.900000 0 0 1
-26.492947 13.103302 -27.196565 40.164984 -0.459315 2.314640 0.048919 -0.006757 186219.000000 0 0 1
-26.179357 11.566502 -27.239155 39.510939 -0.416029 2.331468 0.046331 -0.013235 280166.000000 0 0 1
-25.180287 11.082102 -26.349445 38.094004 -0.414599 2.334630 0.050673 -0.013940 18733.600000 0 0 1
-24.454557 10.027902 -26.934355 37.736503 -0.389151 2.365631 0.050031 -0.007366 172670.000000 0 0 1
-23.357857 9.506202 -25.964465 36.195453 -0.386510 2.370774 0.080094 -0.011571 126806.000000 0 0 1
-23.907757 8.660302 -24.984665 35.648495 -0.347536 2.347401 0.070375 -0.015980 -45676.200000 0 0 1
-22.921257 8.149702 -24.129765 34.264373 -0.341612 2.352125 0.090741 -0.013968 -599173.000000 0 0 1
-23.428557 7.063302 -23.233265 33.742735 -0.292816 2.330272 0.085247 -0.017043 -39405.700000 0 0 1
-23.686457 5.809002 -23.956665 34.186468 -0.240499 2.347265 0.081245 -0.024976 504041.000000 0 0 1
-24.248857 4.862902 -23.045565 33.804629 -0.197916 2.320918 0.082767 -0.020838 -193096.000000 0 0 1
36.087078 24.785356 -10.181865 44.947319 0.601826 1.799309 0.046066 -0.012876 175824.000000 0 0 1
37.011958 24.342556 -9.207165 45.246182 0.581765 1.775718 0.060130 -0.020270 14842.900000 0 0 1
-37.433297 23.399156 -9.693565 45.196653 -0.558664 1.786951 0.084724 -0.023253 284220.000000 0 0 1
-36.478497 22.811356 -8.593265 43.873488 -0.558842 1.767935 0.105590 -0.034687 287616.000000 0 0 1
-37.030067 21.831456 -7.714665 43.673269 -0.532708 1.748373 0.101959 -0.037829 553139.000000 0 0 1
-35.997917 21.303156 -6.877065 42.390666 -0.534360 1.733747 0.131961 -0.037567 33494.800000 0 0 1
-36.637517 20.472856 -5.790565 42.367159 -0.509570 1.707901 0.111328 -0.014600 -227115.000000 0 0 1
-37.337387 19.335956 -6.184765 42.499541 -0.477842 1.716840 0.083978 -0.003992 187229.000000 0 0 1
37.572498 18.628956 -5.070465 42.242635 0.460293 1.691118 0.095916 -0.019859 -224584.000000 0 0 1
36.772738 17.345956 -5.386865 41.013836 0.440758 1.702520 0.080685 -0.002811 1093890.000000 0 0 1
35.485998 17.637156 -5.999665 40.078939 0.461259 1.721057 0.083179 -0.005121 801652.000000 0 0 1
35.052788 16.510556 -6.720965 39.325155 0.440196 1.742547 0.095938 -0.005250 -102418.000000 0 0 1
33.880868 16.864956 -7.647565 38.611206 0.461864 1.770181 0.069948 -0.007331 -142586.000000 0 0 1
33.435438 15.775856 -8.421565 37.917396 0.440859 1.794767 0.071493 0.002899 -145512.000000 0 0 1
32.727408 16.269556 -9.521465 37.768241 0.461344 1.825649 0.050403 -0.002122 -127166.000000 0 0 1
32.067208 15.185756 -10.512665 37.005799 0.442273 1.858845 0.057694 0.001648 476695.000000 0 0 1
30.938648 14.462556 -10.052065 35.600695 0.437278 1.857045 0.052509 0.011094 476109.000000 0 0 1
31.231658 13.585356 -8.932665 35.210380 0.410299 1.827294 0.058871 0.003044 -286802.000000 0 0 1
30.108058 12.545456 -8.734365 33.766444 0.394803 1.832441 0.067008 0.016051 31080.200000 0 0 1
30.216258 11.488156 -9.648365 33.735603 0.363320 1.860846 0.098586 0.005887 667174.000000 0 0 1
29.298758 10.427556 -9.358965 32.476782 0.341925 1.863116 0.135193 -0.002211 -121464.000000 0 0 1
29.898058 9.065056 -9.683465 32.708388 0.294389 1.871356 0.154182 -0.006572 -688215.000000 0 0 1
30.975738 8.729456 -8.885565 33.386420 0.274692 1.840186 0.149177 -0.011965 -335089.000000 0 0 1
31.205318 7.332756 -8.936765 33.277725 0.230797 1.842685 0.161613 -0.020312 551117.000000 0 0 1
32.393568 6.670156 -8.120265 34.055439 0.203072 1.811558 0.174343 -0.023526 2247880.000000 0 0 1
33.727668 7.008956 -8.639665 35.515136 0.204894 1.816529 0.152785 -0.020529 1154510.000000 0 0 1
34.694718 6.413756 -7.853165 36.145981 0.182799 1.789805 0.147220 -0.019560 -618223.000000 0 0 1
36.141838 6.583956 -8.326865 37.668523 0.180194 1.793694 0.148147 -0.017721 -103297.000000 0 0 1
36.538548 5.791256 -9.428265 38.177170 0.157190 1.820339 0.153943 -0.027467 -55105.200000 0 0 1
-37.438997 5.728756 -9.648165 39.084322 -0.151838 1.820230 0.145010 -0.024973 -813944.000000 0 0 1
-36.978887 5.065056 -10.989065 38.908257 -0.136124 1.857128 0.135630 -0.029157 25282.900000 0 0 1
-35.619551 4.712356 -11.201365 37.635479 -0.131533 1.873003 0.134051 -0.035564 952340.000000 0 0 1
-34.765812 5.761256 -11.715965 37.136473 -0.164224 1.891763 0.119671 -0.037513 203165.000000 0 0 1
-34.100008 6.729256 -10.691065 36.364713 -0.194835 1.869201 0.122983 -0.029385 -451581.000000 0 0 1
-34.980790 7.689756 -10.090865 37.210396 -0.216386 1.845419 0.130157 -0.024064 484753.000000 0 0 1
-35.128929 8.919056 -10.836565 37.828856 -0.248641 1.861329 0.129355 -0.031843 -408505.000000 0 0 1
-36.058707 9.834056 -10.054065 38.704305 -0.266249 1.833576 0.146163 -0.023225 -207053.000000 0 0 1
-35.528047 10.458356 -8.865665 38.081746 -0.286283 1.805758 0.138734 -0.014593 20908.100000 0 0 1
-36.531297 11.101356 -8.115165 39.033725 -0.295018 1.780225 0.142808 -0.013810 31478.200000 0 0 1
-36.017567 12.062256 -6.971665 38.618225 -0.323159 1.752319 0.155529 -0.022736 101322.000000 0 0 1
-35.327513 13.178656 -7.497565 38.443773 -0.357053 1.767081 0.137833 -0.028931 -67237.100000 0 0 1
-34.975123 14.105856 -6.472665 38.263949 -0.383358 1.740772 0.154925 -0.027683 209175.000000 0 0 1
-34.177941 15.309256 -7.052665 38.108333 -0.421129 1.756938 0.117353 -0.028507 -200394.000000 0 0 1
-34.880963 16.027456 -7.986265 39.208945 -0.430718 1.775916 0.100099 -0.025217 -318895.000000 0 0 1
-34.754663 17.448656 -7.797665 39.662902 -0.465288 1.768684 0.068604 -0.021583 145454.000000 0 0 1
-35.373537 18.268456 -8.949765 40.805905 -0.476716 1.791919 0.074248 -0.023074 -275755.000000 0 0 1
-34.526282 18.187456 -10.049465 40.296892 -0.484835 1.822842 0.060690 -0.023155 -79794.700000 0 0 1
-35.172235 18.522056 -11.275965 41.319488 -0.484708 1.847199 0.062347 -0.022945 181197.000000 0 0 1
-34.266432 18.412256 -12.546365 40.873106 -0.493061 1.882792 0.030447 -0.008894 199143.000000 0 0 1
-33.490767 19.554556 -12.845165 40.853524 -0.528481 1.890642 0.029451 -0.013253 -141013.000000 0 0 1
-33.107547 19.498456 -14.155665 40.947312 -0.532250 1.923786 0.013300 -0.006393 -656762.000000 0 0 1
-32.528267 20.798356 -14.635365 41.289874 -0.568883 1.933127 0.013206 0.004995 216998.000000 0 0 1
-31.111647 20.897756 -14.468265 40.174389 -0.591481 1.939211 0.019853 0.003525 655418.000000 0 0 1
-30.713297 22.199056 -14.168165 40.457899 -0.625854 1.928576 0.025372 0.003056 -101099.000000 0 0 1
-29.912427 22.882656 -15.296365 40.649084 -0.653025 1.956599 0.039925 -0.000190 -636031.000000 0 0 1
-30.724307 23.377956 -16.323565 41.916234 -0.650437 1.970812 0.053112 0.014312 -57979.300000 0 0 1
-30.002377 23.807356 -17.440465 42.084471 -0.670775 1.998097 0.083082 0.008882 -208720.000000 0 0 1
-29.483357 25.264256 -17.288265 42.502178 -0.708486 1.989703 0.092477 -0.000885 -365628.000000 0 0 1
-30.468117 26.245856 -17.223565 43.747026 -0.711087 1.975459 0.123726 -0.014934 -235658.000000 0 0 1
-30.015057 27.511256 -17.649365 44.376491 -0.741901 1.979826 0.125360 -0.019603 -134243.000000 0 0 1
-30.860347 28.697256 -17.102565 45.479570 -0.749095 1.956325 0.123449 -0.024541 -139302.000000 0 0 1
-30.744377 29.074456 -15.713665 45.138232 -0.757489 1.926365 0.102746 -0.027296 -170002.000000 0 0 1
-29.491987 29.532556 -15.291265 44.449657 -0.786085 1.921984 0.097320 -0.029243 -399895.000000 0 0 1
-29.467937 30.048656 -13.803765 44.292494 -0.795155 1.887726 0.089984 -0.020795 -162400.000000 0 0 1
-30.275097 31.185156 -13.694665 45.570158 -0.800204 1.876032 0.067213 -0.013644 -19316.200000 0 0 1
-30.269937 31.892656 -12.470965 45.704875 -0.811497 1.847159 0.062428 -0.016957 -132599.000000 0 0 1
-29.249887 33.033856 -12.488665 45.855843 -0.846077 1.846627 0.068503 -0.022569 -107095.000000 0 0 1
-29.529937 -33.818490 -13.504665 46.883723 0.852993 1.862982 0.051414 -0.026338 -281019.000000 0 0 1
-28.624207 -32.750490 -13.569265 45.563854 0.852528 1.873192 0.096732 -0.031702 -49965.600000 0 0 1
-28.672007 -31.898190 -14.863065 45.392612 0.838611 1.904382 0.081077 -0.027569 107118.000000 0 0 1
-28.071347 -32.598690 -15.946365 45.879861 0.859882 1.925772 0.082553 -0.027717 -126696.000000 0 0 1
-28.330527 -32.020290 -17.149565 46.065446 0.846461 1.952268 0.084873 -0.018040 -193232.000000 0 0 1
-27.446837 -32.534790 -18.312865 46.337916 0.870021 1.977085 0.085504 -0.017794 -184611.000000 0 0 1
-27.615457 -33.856590 -18.848265 47.582972 0.886579 1.978077 0.087765 -0.007667 -121497.000000 0 0 1
-27.286567 32.765356 -18.020365 46.291024 -0.876380 1.970651 0.084983 -0.026135 -364072.000000 0 0 1
-27.588987 31.416756 -18.778665 45.834518 -0.850179 1.992928 0.100912 -0.031809 802023.000000 0 0 1
-28.994057 31.199456 -18.957765 46.620363 -0.822020 1.989571 0.114664 -0.027298 860547.000000 0 0 1
-29.541197 31.616856 -20.225765 47.763893 -0.819324 2.008050 0.108644 -0.023683 158202.000000 0 0 1
-31.052487 31.340556 -20.420365 48.615622 -0.790015 2.004283 0.111536 -0.036015 149644.000000 0 0 1
-31.430737 29.980456 -20.508465 48.034531 -0.761787 2.011916 0.119267 -0.044468 268274.000000 0 0 1
-32.759087 29.955356 -20.993965 49.104254 -0.740722 2.012565 0.124228 -0.045015 -127801.000000 0 0 1
-33.646997 28.750856 -20.719165 48.867330 -0.707092 2.008641 0.131405 -0.033727 -725339.000000 0 0 1
-34.854630 28.726556 -21.403165 49.981554 -0.689313 2.013320 0.121016 -0.036332 -243240.000000 0 0 1
-35.350600 27.397856 -21.496365 49.622587 -0.659330 2.018833 0.114593 -0.016498 -626496.000000 0 0 1
-36.813237 27.092756 -21.798765 50.640083 -0.634449 2.015804 0.086054 -0.019350 -522115.000000 0 0 1
-37.212167 27.438456 -23.096165 51.682174 -0.635357 2.034080 0.098353 -0.025713 -453890.000000 0 0 1
37.017728 26.674556 -23.431965 51.292311 0.624411 2.045227 0.089196 -0.015044 132321.000000 0 0 1
36.257368 27.291456 -24.661465 51.648893 0.645236 2.068584 0.092212 -0.024090 86252.500000 0 0 1
37.161388 27.357356 -25.713325 52.825834 0.634595 2.079169 0.106911 -0.032873 209150.000000 0 0 1
36.470968 27.983856 -26.822365 53.222805 0.654476 2.098978 0.131159 -0.034510 626482.000000 0 0 1
37.409948 28.139256 -28.041295 54.567721 0.644899 2.110499 0.133514 -0.036858 384972.000000 0 0 1
-37.671437 26.974656 -28.768145 54.537835 -0.621417 2.126439 0.086154 -0.011833 -189226.000000 0 0 1
-37.155647 27.245856 -30.062365 55.014767 -0.632721 2.148906 0.062060 -0.009691 -919477.000000 0 0 1
-36.896057 25.919756 -30.869185 54.644848 -0.612407 2.171115 0.039038 -0.003910 1077250.000000 0 0 1
-36.016767 24.921156 -30.228875 53.217069 -0.605291 2.174906 0.029128 0.001009 353132.000000 0 0 1
-34.733318 25.391556 -29.919555 52.405289 -0.631258 2.178430 -0.003311 0.009509 -948702.000000 0 0 1
-34.071593 24.615056 -28.795355 50.950436 -0.625635 2.171428 -0.008215 0.011014 -111569.000000 0 0 1
-33.811847 23.300456 -29.261615 50.422162 -0.603387 2.189933 -0.000396 0.011136 -10761.100000 0 0 1
-33.665447 22.398456 -28.167475 49.279406 -0.587073 2.179235 -0.006011 0.019500 34728.500000 0 0 1
-33.204137 20.954556 -28.551195 48.546667 -0.562961 2.199527 -0.002125 0.014273 -114942.000000 0 0 1
-31.838127 20.764056 -28.823315 47.703206 -0.577903 2.219585 0.071400 0.004949 -196727.000000 0 0 1
-31.586527 19.421756 -29.176055 47.182152 -0.551285 2.237464 0.054710 -0.004697 105651.000000 0 0 1
-30.118957 18.946256 -29.321435 46.107036 -0.561505 2.260026 0.082627 -0.018817 -89020.100000 0 0 1
-29.381347 19.490656 -30.385525 46.544918 -0.585716 2.282100 0.110422 -0.022942 -67912.500000 0 0 1
-28.130187 18.894356 -30.643105 45.687022 -0.591462 2.305973 0.108545 -0.024605 -81465.900000 0 0 1
-27.977797 17.475556 -31.235225 45.428972 -0.558328 2.328922 0.105784 -0.026970 -525957.000000 0 0 1
-28.205817 16.417956 -30.395995 44.598587 -0.527137 2.320670 0.076292 -0.021075 43409.400000 0 0 1
-28.254107 15.236956 -31.186265 44.755363 -0.494578 2.341745 0.050890 -0.014976 -148298.000000 0 0 1
-28.681437 13.947256 -30.412655 44.069041 -0.452613 2.332443 0.045095 -0.009473 -577875.000000 0 0 1
-30.039717 14.118856 -30.119835 44.821102 -0.439366 2.307704 0.032176 -0.003693 -250248.000000 0 0 1
-30.793797 12.924856 -30.005045 44.895574 -0.397392 2.302757 0.022583 0.001648 -35881.500000 0 0 1
-30.707117 12.145956 -28.725595 43.767695 -0.376657 2.286727 0.016652 -0.004991 -571769.000000 0 0 1
-31.106377 12.873856 -27.623905 43.547939 -0.392402 2.257942 0.006603 -0.003248 157740.000000 0 0 1
-31.254707 12.007156 -26.484005 42.689941 -0.366787 2.240024 0.014423 0.009552 -48048.900000 0 0 1
-30.944747 12.619056 -25.082095 41.784321 -0.387207 2.214642 0.021087 -0.003729 -41726.500000 0 0 1
-29.566717 12.787656 -24.836365 40.676282 -0.408207 2.227597 0.026793 -0.006512 -65991.900000 0 0 1
-29.384877 13.524656 -23.643165 40.067276 -0.431353 2.201963 0.028308 -0.003267 23858.600000 0 0 1
-27.915317 13.825156 -23.281865 38.890167 -0.459843 2.212620 0.041808 -0.000616 -69231.200000 0 0 1
-27.253177 14.766856 -24.204265 39.327372 -0.496557 2.233761 0.055434 -0.008433 425527.000000 0 0 1
-25.878267 15.019056 -23.996665 38.354878 -0.525863 2.246759 0.053705 -0.013293 300505.000000 0 0 1
-25.482667 15.652756 -22.634265 37.505800 -0.550832 2.218663 0.060214 -0.013663 -1210700.000000 0 0 1
-26.001297 16.972756 -22.478665 38.333175 -0.578317 2.197407 0.080247 -0.011968 88373.200000 0 0 1
-26.089077 17.439256 -21.142565 37.838812 -0.589237 2.163678 0.078332 -0.013714 -631345.000000 0 0 1
-27.561027 17.519956 -20.743665 38.689258 -0.566242 2.136679 0.063179 -0.008528 -644677.000000 0 0 1
-28.139027 16.235156 -20.649265 38.493860 -0.523308 2.136998 0.063403 -0.006370 200477.000000 0 0 1
-29.044987 16.334856 -19.552665 38.636065 -0.512312 2.101422 0.048049 -0.008505 -181957.000000 0 0 1
-30.078367 15.161056 -19.385865 38.863576 -0.466884 2.093031 0.054207 -0.014665 901136.000000 0 0 1
-30.914267 14.726156 -20.475765 39.897475 -0.444553 2.109717 0.046115 -0.005345 593393.000000 0 0 1
-31.900897 15.669456 -20.807165 41.184186 -0.456576 2.100436 0.035207 -0.008313 -523825.000000 0 0 1
-32.396417 15.602156 -22.298665 42.310585 -0.448821 2.125890 0.016431 0.015410 -296170.000000 0 0 1
-33.430227 14.730656 -22.631665 42.973999 -0.415042 2.125435 0.028715 -0.000468 -143461.000000 0 0 1
-33.918667 15.098956 -23.903065 44.156664 -0.418815 2.142807 0.022616 0.008126 -3763.730000 0 0 1
-35.158801 14.333656 -24.438965 45.153715 -0.387112 2.142707 0.020668 -0.007658 68831.200000 0 0 1
-35.038405 13.009856 -24.903565 44.912512 -0.355525 2.158547 0.026913 0.000392 115636.000000 0 0 1
-34.620141 11.997456 -23.970365 43.784375 -0.333594 2.150127 0.032959 -0.003289 -215194.000000 0 0 1
-34.681719 10.594056 -24.536865 43.784854 -0.296463 2.165660 0.040089 -0.009406 -337070.000000 0 0 1
-35.996967 10.155056 -24.754965 44.852147 -0.274963 2.155466 0.049796 -0.004607 -130806.000000 0 0 1
-35.953596 9.082456 -25.682545 45.108150 -0.247439 2.176517 0.043947 -0.001995 51614.000000 0 0 1
-37.382947 8.689856 -26.074795 46.399281 -0.228399 2.167556 0.061739 -0.000057 207139.000000 0 0 1
37.096938 8.019856 -25.196755 45.556310 0.212910 2.156865 0.061371 -0.001182 383290.000000 0 0 1
36.029798 7.358456 -25.868565 44.960826 0.201462 2.183838 0.060716 -0.002809 523923.000000 0 0 1
35.061408 6.465756 -25.009265 43.549646 0.182363 2.182509 0.078753 -0.014545 392438.000000 0 0 1
35.680688 5.311456 -24.464165 43.586907 0.147776 2.166720 0.076662 -0.015963 629248.000000 0 0 1
34.778028 4.592956 -23.597265 42.278096 0.131305 2.162944 0.089121 -0.016065 965777.000000 0 0 1
35.587158 3.700156 -22.540465 42.287227 0.103602 2.132977 0.070204 -0.015217 679569.000000 0 0 1
36.326458 2.617256 -23.112365 43.135171 0.071924 2.136266 0.082770 -0.019044 262784.000000 0 0 1
37.146638 2.046256 -22.115065 43.279741 0.055030 2.107120 0.129535 -0.024753 -73689.300000 0 0 1
-37.270567 0.953656 -22.657965 43.627835 -0.025582 2.116882 0.145246 -0.023924 118793.000000 0 0 1
37.516318 -0.362444 -22.791565 43.898302 -0.009661 2.116699 0.129233 -0.021893 48625.900000 0 0 1
-37.023427 -1.103044 -23.641865 43.941878 0.029784 2.138890 0.141311 -0.030325 27851.800000 0 0 1
-23.928357 29.335056 27.004975 46.501403 -0.886560 0.951166 0.032644 -0.018059 68042.300000 0 0 1
-25.128417 29.461956 26.210985 46.759597 -0.864615 0.975749 0.022186 -0.016941 1061670.000000 0 0 1
-25.148657 28.733856 24.995355 45.638330 -0.851838 0.991203 0.020693 -0.005250 -312195.000000 0 0 1
-25.286007 27.207656 25.116025 44.838080 -0.821989 0.976230 0.033132 -0.013338 433948.000000 0 0 1
-26.522907 26.697956 25.668805 45.553628 -0.788687 0.972198 0.041905 -0.006827 866752.000000 0 0 1
-26.679537 26.494056 27.048335 46.317870 -0.781910 0.947183 0.044058 -0.009732 -586547.000000 0 0 1
-25.868617 25.259756 27.557445 45.460460 -0.773490 0.919541 0.039692 -0.009502 -545378.000000 0 0 1
-24.542357 25.493856 27.873045 45.046316 -0.804412 0.903628 0.039736 -0.009423 -1033990.000000 0 0 1
-24.341857 26.134556 29.113745 46.077664 -0.820899 0.886871 0.037189 -0.010819 -829743.000000 0 0 1
-22.966757 25.931156 29.714345 45.638132 -0.845948 0.861782 0.053230 -0.005403 -587388.000000 0 0 1
-21.857357 26.644456 29.135465 45.128111 -0.883779 0.868966 0.074171 -0.017406 483284.000000 0 0 1
-20.638157 26.326556 29.767095 44.778354 -0.905932 0.843617 0.097088 -0.022064 77441.300000 0 0 1
-19.986957 24.975756 29.333075 43.401568 -0.895900 0.828675 0.082858 -0.011032 -771983.000000 0 0 1
-19.423657 25.061856 28.037625 42.325920 -0.911468 0.846749 0.087223 -0.008754 -12334.300000 0 0 1
-20.002657 24.216256 27.041095 41.445798 -0.880401 0.859990 0.083953 -0.011478 12575.300000 0 0 1
-19.943257 22.677756 27.128325 40.595075 -0.849469 0.838920 0.071185 0.002714 102539.000000 0 0 1
-20.662757 22.131656 28.210455 41.383445 -0.819709 0.820734 0.064082 0.004035 32940.900000 0 0 1
-20.297057 20.804256 28.315075 40.577470 -0.797738 0.798471 0.078262 0.004526 377040.000000 0 0 1
-20.939957 20.183556 29.605205 41.500914 -0.767007 0.776511 0.091718 -0.009211 824278.000000 0 0 1
-20.058657 20.401456 30.735865 41.991219 -0.793870 0.749603 0.089686 -0.014227 550694.000000 0 0 1
-20.605057 19.863356 31.918091 42.870570 -0.767072 0.730977 0.089500 -0.015708 -129636.000000 0 0 1
-19.871657 20.314656 33.221794 43.717909 -0.796421 0.707618 0.100966 -0.016992 -165734.000000 0 0 1
-19.898657 21.714556 33.498091 44.604939 -0.829008 0.721229 0.066996 -0.017548 303553.000000 0 0 1
-19.012857 22.465956 32.671508 43.973121 -0.868456 0.733272 0.085660 -0.008133 97054.900000 0 0 1
-17.547157 22.621156 33.130609 43.786489 -0.911051 0.712638 0.077693 -0.003399 112113.000000 0 0 1
-16.832557 21.396256 33.087872 42.847894 -0.904214 0.688473 0.080128 -0.014468 -233200.000000 0 0 1
-15.532357 21.505956 33.624935 42.829855 -0.945303 0.667968 0.059727 -0.009757 -50503.200000 0 0 1
-14.510757 20.496756 32.976988 41.450703 -0.954752 0.650846 0.052087 -0.027606 1872010.000000 0 0 1
-13.138757 20.396256 33.479418 41.346168 -0.998527 0.627097 0.044753 -0.029108 1716950.000000 0 0 1
-13.014157 20.092056 -32.811495 40.615923 -0.996021 2.511288 0.061964 -0.029793 117312.000000 0 0 1
-11.511257 19.988556 -32.345385 39.727514 -1.048292 2.522113 0.035208 -0.029398 969982.000000 0 0 1
-10.730757 21.132956 -32.453225 40.186600 -1.100949 2.510805 0.034460 -0.025633 -1360250.000000 0 0 1
-9.434057 20.896256 -32.066975 39.420120 -1.146720 2.520885 0.033257 -0.026570 -1335420.000000 0 0 1
-8.485757 22.077056 -32.189365 39.944458 -1.203836 2.507911 0.039258 -0.032744 -315774.000000 0 0 1
-8.483757 23.094956 -31.155705 39.699233 -1.218756 2.473159 0.040304 -0.034776 157396.000000 0 0 1
-7.905357 22.639756 -29.921845 38.345404 -1.234852 2.465980 0.037039 -0.031412 -182215.000000 0 0 1
-7.616057 23.794456 -28.973215 38.257387 -1.261024 2.430001 0.045627 -0.030426 -18828.200000 0 0 1
-6.487757 24.518456 -29.413595 38.838193 -1.312118 2.430022 0.054106 -0.030690 -11506.800000 0 0 1
-6.255657 25.598556 -28.596805 38.886972 -1.331118 2.397028 0.072301 -0.023143 780945.000000 0 0 1
-4.881157 26.249056 -29.064875 39.466512 -1.386941 2.398595 0.071373 -0.024528 279100.000000 0 0 1
-3.783357 25.514956 -28.585695 38.502841 -1.423589 2.407488 0.091041 -0.022913 200206.000000 0 0 1
-2.577357 25.822156 -29.288435 39.131048 -1.471314 2.416549 0.109647 -0.028738 905490.000000 0 0 1
-1.794157 27.165156 -28.959025 39.746570 -1.504846 2.387060 0.125415 -0.043838 -350834.000000 0 0 1
-1.181257 27.196156 -27.699965 38.837023 -1.527389 2.364901 0.137270 -0.057466 264080.000000 0 0 1
-0.318657 28.306356 -27.613685 39.545757 -1.559539 2.343777 0.142113 -0.057325 -470916.000000 0 0 1
0.533843 28.476856 -26.328255 38.786510 1.552052 2.316923 0.148691 -0.068308 322002.000000 0 0 1
1.614943 27.610656 -26.062345 38.002660 1.512373 2.326503 0.183309 -0.074013 364920.000000 0 0 1
2.760243 27.617456 -26.909925 38.658594 1.471182 2.340736 0.188298 -0.071942 343984.000000 0 0 1
4.055443 27.791656 -26.056815 38.311622 1.425896 2.318734 0.184736 -0.075805 12910.700000 0 0 1
4.482843 26.673456 -25.313715 37.045287 1.404289 2.323094 0.193813 -0.061452 -547286.000000 0 0 1
5.721943 26.866056 -24.726965 36.958739 1.360951 2.303716 0.153137 -0.054433 -552889.000000 0 0 1
6.423343 25.701156 -24.025365 35.763486 1.325889 2.307412 0.153415 -0.046367 584186.000000 0 0 1
7.670643 26.112356 -23.439065 35.917735 1.285078 2.281776 0.135390 -0.046574 388510.000000 0 0 1
8.349743 24.914856 -23.037365 34.945507 1.247429 2.290600 0.117819 -0.031992 822802.000000 0 0 1
9.828343 25.105756 -22.569865 35.160974 1.197658 2.267771 0.108279 -0.009192 110159.000000 0 0 1
9.936843 25.747256 -21.334465 34.882968 1.202471 2.228879 0.119390 -0.017356 712343.000000 0 0 1
11.265743 26.122856 -20.930865 35.318857 1.163635 2.205111 0.126375 -0.022915 734741.000000 0 0 1
12.200143 25.051656 -20.354665 34.507120 1.117603 2.201692 0.087649 -0.003791 -218956.000000 0 0 1
12.504243 24.045256 -21.271965 34.453257 1.091254 2.236249 0.081921 -0.008757 -19959.500000 0 0 1
12.876143 22.783356 -20.678565 33.353852 1.056392 2.239508 0.062679 0.003158 96890.000000 0 0 1
13.052443 21.687156 -21.780065 33.392667 1.029017 2.281333 0.068357 0.001303 1227040.000000 0 0 1
11.791743 21.434556 -22.457165 33.208578 1.067855 2.313451 0.076184 -0.012548 1214590.000000 0 0 1
12.072943 20.656456 -23.606665 33.611304 1.041879 2.349480 0.072364 -0.017934 170467.000000 0 0 1
11.030843 20.837556 -24.718765 34.159926 1.083927 2.379827 0.092009 -0.016270 2450890.000000 0 0 1
9.612443 20.529756 -24.386265 33.295043 1.132894 2.392680 0.097664 -0.018492 2496830.000000 0 0 1
8.842943 20.419156 -25.603675 33.921789 1.162109 2.426123 0.102775 -0.023309 623277.000000 0 0 1
7.396943 19.834256 -25.398325 33.063384 1.213835 2.446775 0.111614 -0.038160 1411850.000000 0 0 1
6.349443 20.807656 -25.166945 33.266336 1.274622 2.428785 0.145056 -0.043491 521687.000000 0 0 1
6.411343 21.348356 -23.849665 32.644512 1.279046 2.389978 0.135409 -0.047533 -1644220.000000 0 0 1
5.159343 21.862456 -23.214765 32.303423 1.339045 2.372651 0.150253 -0.053541 -887118.000000 0 0 1
4.558443 22.922656 -23.921065 33.443159 1.374495 2.367814 0.156864 -0.054254 697948.000000 0 0 1
3.207043 23.227256 -23.535965 33.222465 1.433591 2.358075 0.162044 -0.056310 673174.000000 0 0 1
2.490043 24.100556 -24.577265 34.512013 1.467843 2.363333 0.156216 -0.049263 -603339.000000 0 0 1
1.114743 24.097656 -24.300065 34.240807 1.524570 2.359842 0.174078 -0.066855 -801815.000000 0 0 1
0.481943 24.613656 -25.416645 35.384604 1.551219 2.372147 0.164342 -0.058799 -946078.000000 0 0 1
-1.027757 24.657756 -25.313605 35.353074 -1.529140 2.368884 0.164859 -0.054383 -1004300.000000 0 0 1
-1.692557 23.459056 -25.407085 34.622421 -1.498772 2.394744 0.176562 -0.053946 94543.500000 0 0 1
-2.914957 23.584756 -26.127865 35.318593 -1.447825 2.403534 0.161766 -0.045681 -260403.000000 0 0 1
-3.351257 22.271956 -26.878365 35.067327 -1.421447 2.444137 0.119744 -0.048797 1966.960000 0 0 1
-2.600257 21.879656 -28.049665 35.668815 -1.452508 2.475742 0.160198 -0.067350 99618.700000 0 0 1
-2.917357 20.614856 -28.551785 35.336775 -1.430213 2.511530 0.100392 -0.056897 -1098060.000000 0 0 1
-4.206957 20.547256 -29.327855 36.055669 -1.368842 2.520778 0.073529 -0.045677 -949919.000000 0 0 1
-4.266357 20.966156 -30.698655 37.419098 -1.370049 2.532908 0.075424 -0.042441 -137636.000000 0 0 1
-4.000857 22.357356 -30.892945 38.343608 -1.393720 2.507631 0.100576 -0.047555 -202296.000000 0 0 1
-3.622357 22.655856 -32.379155 39.683989 -1.412252 2.525123 0.095120 -0.042835 -125156.000000 0 0 1
-2.409657 22.020356 -32.704115 39.500148 -1.461801 2.546237 0.097541 -0.039570 61675.400000 0 0 1
-2.056057 22.257156 33.606575 40.360999 -1.478680 0.586921 0.097074 -0.018865 -731392.000000 0 0 1
-0.908557 21.415156 33.091209 39.426672 -1.528396 0.574783 0.104978 -0.012315 -468275.000000 0 0 1
-1.264057 20.081756 32.896747 38.562556 -1.507934 0.548946 0.092635 -0.008447 -249070.000000 0 0 1
-0.242257 19.350856 32.289079 37.644374 -1.558278 0.539939 0.096987 -0.008367 53200.400000 0 0 1
-0.767057 17.925156 31.811394 36.522108 -1.528030 0.513527 0.087031 -0.003891 956537.000000 0 0 1
-1.626057 17.938156 30.625795 35.529717 -1.480395 0.531640 0.076376 -0.001538 670696.000000 0 0 1
-1.870757 16.645056 30.145415 34.486282 -1.458875 0.507159 0.058690 -0.003873 -44224.000000 0 0 1
-2.750157 16.573556 28.843455 33.379500 -1.406358 0.527423 0.060657 -0.002114 701292.000000 0 0 1
-4.135457 16.837156 29.043245 33.824575 -1.329949 0.538179 0.039421 0.000258 347501.000000 0 0 1
-4.434857 18.219456 28.921215 34.468147 -1.332026 0.575223 0.043425 -0.001969 -733305.000000 0 0 1
-5.859757 18.559156 29.373755 35.236295 -1.264968 0.585163 0.025403 -0.009411 -472259.000000 0 0 1
-6.733957 17.837656 28.576525 34.353252 -1.209824 0.588376 0.023060 -0.009466 -1357340.000000 0 0 1
-8.063157 18.168356 28.840465 35.026791 -1.153108 0.603449 0.033254 -0.017907 -464153.000000 0 0 1
-9.005057 17.440956 27.767135 34.004290 -1.094181 0.615340 0.031650 -0.015785 288862.000000 0 0 1
-9.375157 16.130856 28.083285 33.716005 -1.044320 0.586403 0.039157 -0.025378 -109559.000000 0 0 1
-10.220057 15.974756 29.197115 34.815426 -1.001651 0.576041 0.039524 -0.032202 -813339.000000 0 0 1
-10.766657 14.541156 29.417775 34.536525 -0.933450 0.551409 0.046910 -0.040402 238849.000000 0 0 1
-9.810157 13.469556 29.553555 33.927580 -0.941315 0.513404 0.055944 -0.033137 9956.590000 0 0 1
-9.093757 13.461156 30.747215 34.774852 -0.976665 0.486061 0.057622 -0.032812 -126704.000000 0 0 1
-9.854857 13.118456 32.103108 36.053039 -0.926514 0.472483 0.094414 -0.041927 -30147.400000 0 0 1
-10.033157 11.724456 32.169313 35.679010 -0.862976 0.447270 0.111583 -0.046155 350782.000000 0 0 1
-10.710157 11.303956 33.339885 36.797212 -0.812365 0.436957 0.117306 -0.045717 -215659.000000 0 0 1
-11.074857 9.766256 33.264464 36.394461 -0.722691 0.417765 0.113887 -0.046076 -61691.700000 0 0 1
-10.024657 8.830156 33.525037 36.088689 -0.722130 0.379196 0.136624 -0.044537 220859.000000 0 0 1
-10.220957 8.210756 -32.937455 35.450817 -0.676765 2.762776 0.161458 -0.055796 126429.000000 0 0 1
-9.450557 8.938256 -31.764825 34.325057 -0.757546 2.752918 0.135581 -0.056904 98633.400000 0 0 1
-10.125657 10.128756 -31.278195 34.401252 -0.785551 2.712195 0.126522 -0.053881 416251.000000 0 0 1
-9.530557 10.776456 -30.168765 33.423314 -0.846674 2.696629 0.109404 -0.055417 -233231.000000 0 0 1
-8.390357 11.784856 -30.442615 33.705100 -0.952088 2.697975 0.086256 -0.048944 243583.000000 0 0 1
-8.861957 12.890056 -31.216355 34.916309 -0.968507 2.677066 0.071185 -0.042583 30154.900000 0 0 1
-7.765257 13.613756 -31.697155 35.360192 -1.052428 2.682394 0.043025 -0.034606 -253314.000000 0 0 1
-8.082857 15.061656 -32.179225 36.437461 -1.078259 2.653301 0.044696 -0.027366 -88035.900000 0 0 1
-8.935157 15.200556 -33.317365 37.695368 -1.039382 2.654844 0.065217 -0.031903 281350.000000 0 0 1
-9.218757 16.580356 -33.615635 38.599283 -1.063355 2.627802 0.056886 -0.033759 -1207780.000000 0 0 1
-9.742957 16.738456 32.630874 37.945686 -1.043665 0.535651 0.046347 -0.032264 -247042.000000 0 0 1
-10.953957 16.180656 32.244419 37.702856 -0.975689 0.544812 0.042065 -0.032969 -537323.000000 0 0 1
-12.105357 16.567656 32.953419 38.819514 -0.939787 0.556918 0.052784 -0.037595 -1345530.000000 0 0 1
-13.369057 16.105456 32.220787 38.422604 -0.877972 0.576108 0.064801 -0.047130 -528483.000000 0 0 1
-13.602957 14.719356 32.062567 37.811481 -0.824795 0.558674 0.064473 -0.048226 271906.000000 0 0 1
-14.427657 14.156756 33.055135 38.745490 -0.775921 0.548831 0.044413 -0.035575 -322620.000000 0 0 1
-14.567457 12.617056 32.922370 38.148176 -0.713774 0.529593 0.050429 -0.039640 97979.900000 0 0 1
-14.899857 12.213056 31.581165 36.993708 -0.686624 0.547766 0.045569 -0.042328 888729.000000 0 0 1
-13.710857 11.736756 30.927875 35.808832 -0.707978 0.528243 0.071232 -0.042384 383812.000000 0 0 1
-13.937057 11.152756 29.525455 34.501855 -0.674877 0.543770 0.067066 -0.034353 -98776.400000 0 0 1
-14.759457 9.982056 29.456145 34.425971 -0.594653 0.544015 0.060865 -0.026815 394956.000000 0 0 1
-14.887057 9.395256 28.170425 33.218491 -0.562975 0.558531 0.052170 -0.024952 119213.000000 0 0 1
-15.790557 8.155056 28.160385 33.299458 -0.476722 0.562975 0.055386 -0.014945 113902.000000 0 0 1
-15.064157 7.007956 28.526825 33.012422 -0.435428 0.527389 0.049726 -0.013987 424173.000000 0 0 1
-15.782457 5.821756 28.072675 32.726959 -0.353390 0.539853 0.058141 -0.011696 243451.000000 0 0 1
-15.048457 4.459256 28.251935 32.318924 -0.288083 0.507091 0.074393 -0.014790 136339.000000 0 0 1
-14.028157 4.141256 27.300915 30.972232 -0.287057 0.491842 0.074104 -0.014810 254073.000000 0 0 1
-14.361057 4.138456 25.893235 29.896929 -0.280570 0.523483 0.070789 -0.010710 -751183.000000 0 0 1
-13.138357 4.055356 24.981475 28.515547 -0.299388 0.503156 0.066926 -0.009646 -97220.600000 0 0 1
-12.442157 2.834856 24.872695 27.955225 -0.224019 0.474036 0.058981 -0.011220 967748.000000 0 0 1
-11.246857 2.886356 24.060635 26.715857 -0.251215 0.449620 0.044693 -0.009054 289237.000000 0 0 1
-10.457257 1.591056 24.220715 26.429694 -0.150991 0.411753 0.049808 -0.005065 -206195.000000 0 0 1
-9.081257 1.850156 24.021725 25.747535 -0.200983 0.368214 0.038712 -0.016221 -92594.100000 0 0 1
-8.269857 0.755556 24.390665 25.765596 -0.091110 0.328160 0.047162 -0.018777 -166129.000000 0 0 1
-6.798657 1.110356 24.118845 25.083327 -0.161891 0.278209 0.057016 -0.024409 -1202970.000000 0 0 1
-6.450257 1.261456 22.759665 23.689648 -0.193129 0.281128 0.050536 -0.023502 858152.000000 0 1 0
-5.036657 1.527256 22.634865 23.238707 -0.294416 0.228463 0.048145 -0.021209 973416.000000 0 1 0
-4.628457 2.963456 23.041935 23.688298 -0.569504 0.234142 0.075449 -0.026516 -817617.000000 0 1 0
-4.676057 3.155156 24.426015 25.068919 -0.593576 0.226962 0.084674 -0.025709 -111099.000000 0 0 1
-4.306157 4.422156 24.834955 25.590495 -0.798687 0.243601 0.078355 -0.026946 10694.300000 0 0 1
3.935043 -23.672544 12.522035 27.067975 -1.406074 1.089854 0.128021 -0.030646 151002.000000 0 0 1
3.878643 -24.819544 13.333635 28.440103 -1.415776 1.082828 0.139742 -0.038715 773761.000000 0 0 1
2.669143 -25.584944 13.081835 28.859108 -1.466848 1.100332 0.122579 -0.040017 957751.000000 0 0 1
2.400443 -26.685294 14.115835 30.284053 -1.481084 1.085902 0.117131 -0.026876 -39249.500000 0 0 1
1.959943 -26.142704 15.393235 30.401218 -1.495965 1.039866 0.132417 -0.041564 174924.000000 0 0 1
1.685143 -27.287414 16.203635 31.780504 -1.509119 1.035773 0.137533 -0.046924 -49975.300000 0 0 1
1.429143 -27.006954 17.716735 32.331111 -1.517928 0.990851 0.125917 -0.043474 -64633.900000 0 0 1
2.558343 -26.537304 18.409535 32.398836 -1.474688 0.966460 0.149540 -0.047596 -121203.000000 0 0 1
2.555243 -26.873654 19.777435 33.464451 -1.475998 0.938500 0.143052 -0.048682 -331323.000000 0 0 1
3.609943 -26.150444 20.584735 33.475494 -1.433618 0.908512 0.115583 -0.038910 -526794.000000 0 0 1
3.284943 -24.762344 20.783335 32.494793 -1.438908 0.876832 0.108365 -0.041004 449919.000000 0 0 1
4.221443 -23.963944 21.539135 32.496546 -1.396427 0.846227 0.083586 -0.039279 -29127.300000 0 0 1
3.639743 -22.718444 22.203835 31.974767 -1.411935 0.803186 0.095165 -0.038794 -337797.000000 0 0 1
2.938743 -21.770944 21.393635 30.664276 -1.436623 0.798652 0.112836 -0.038294 25433.700000 0 0 1
3.637743 -21.136944 20.385335 29.589955 -1.400362 0.810788 0.090687 -0.024047 -633565.000000 0 0 1
2.717243 -20.108044 19.722935 28.296837 -1.436478 0.799589 0.053432 -0.023745 -100029.000000 0 0 1
2.445043 -18.957144 20.527835 28.048949 -1.442527 0.749753 0.041155 -0.028565 265115.000000 0 0 1
1.643843 -17.992744 19.831235 26.827578 -1.479688 0.738899 0.040033 -0.037830 125826.000000 0 0 1
1.372643 -16.646744 20.601335 26.521939 -1.488525 0.681282 0.056340 -0.031461 -1053000.000000 0 0 1
2.499143 -15.915344 20.766135 26.282623 -1.415041 0.659810 0.009464 -0.006733 -1158840.000000 0 0 1
2.187043 -14.687944 21.430035 26.072308 -1.422982 0.605977 0.037974 -0.000692 247926.000000 0 0 1
3.177643 -13.563244 21.078035 25.265442 -1.340664 0.584001 -0.017997 0.011047 -674571.000000 0 0 1
3.382943 -13.101544 19.754035 23.944032 -1.318106 0.600579 -0.038751 0.002051 804643.000000 0 1 0
2.205743 -12.790444 18.931635 22.953596 -1.400024 0.600986 -0.024638 0.007110 1940440.000000 0 1 0
1.261243 -11.631844 19.470235 22.715206 -1.462788 0.541095 -0.014064 0.005743 86243.200000 0 1 0
1.855943 -10.410444 19.105535 21.836743 -1.394373 0.505513 -0.012871 0.002275 -26292.100000 0 1 0
1.423643 -9.349844 19.994835 22.118765 -1.419693 0.441817 0.004496 -0.015469 50234.900000 0 1 0
-0.062557 -8.975344 20.021035 21.940888 1.563827 0.421445 0.021515 -0.020023 -426445.000000 0 1 0
-0.357857 -8.083644 21.098435 22.596843 1.526556 0.366215 0.032716 -0.030728 -201510.000000 0 1 0
-1.729357 -7.750644 21.118735 22.562449 1.351268 0.359671 0.031273 -0.023551 27056.600000 0 1 0
-2.077757 -7.019944 22.434835 23.599121 1.283032 0.315427 0.027089 -0.017808 -347995.000000 0 1 0
-2.157457 -7.929144 23.494135 24.889763 1.305136 0.336465 0.037125 -0.010973 159943.000000 0 1 0
-2.292057 -7.187344 24.701935 25.828222 1.262090 0.296403 0.047706 -0.011502 -119297.000000 0 0 1
-2.480957 -8.080344 25.991135 27.331048 1.272897 0.314424 0.062448 -0.014539 -130288.000000 0 0 1
-1.357057 -8.915444 26.108135 27.621757 1.419742 0.332584 0.062151 -0.018231 -26139.300000 0 0 1
-1.519757 -9.967044 27.003235 28.824058 1.419484 0.357342 0.089998 -0.020154 -754209.000000 0 0 1
-0.276357 -10.828144 27.126335 29.208956 1.545280 0.379907 0.108427 -0.023225 -714229.000000 0 0 1
0.651443 -10.252744 28.024435 29.848151 -1.507343 0.351375 0.095758 -0.029284 -619429.000000 0 0 1
1.750543 -11.141844 28.061535 30.243261 -1.414956 0.382161 0.114135 -0.034131 -90548.100000 0 0 1
2.837543 -10.465444 28.943135 30.907640 -1.306027 0.358456 0.136127 -0.037510 -424753.000000 0 0 1
2.372143 -10.269244 30.211435 31.997113 -1.343783 0.335662 0.137272 -0.047089 -457816.000000 0 0 1
3.285943 -9.790644 31.159635 32.826468 -1.246989 0.320040 0.166720 -0.053443 -367050.000000 0 0 1
2.621943 -9.513744 32.519435 33.983813 -1.301877 0.294630 0.172520 -0.060377 -84331.300000 0 0 1
2.255243 -10.741844 33.167035 34.936021 -1.363853 0.319588 0.166756 -0.059615 -796.858000 0 0 1
2.129443 -10.644444 -33.080855 34.816399 -1.373351 2.824518 0.153077 -0.059443 -234166.000000 0 0 1
3.477943 -10.826444 -32.370855 34.310060 -1.259964 2.803774 0.130774 -0.043294 403278.000000 0 0 1
4.478143 -9.798944 -32.551555 34.288143 -1.142134 2.821967 0.115612 -0.052640 448690.000000 0 0 1
4.551843 -8.833744 -31.501255 33.031551 -1.095000 2.836010 0.135888 -0.052314 -203619.000000 0 0 1
3.368343 -7.867444 -31.274155 32.423991 -1.166272 2.874482 0.124478 -0.044909 -51094.000000 0 0 1
3.383543 -6.865544 -32.207955 33.104930 -1.112902 2.908277 0.168452 -0.054208 -50051.000000 0 0 1
2.870443 -5.673844 -31.685355 32.317080 -1.102434 2.943543 0.139033 -0.035102 -45434.100000 0 0 1
3.094843 -4.460844 -32.536355 32.986233 -0.964257 2.976248 0.144695 -0.039060 293497.000000 0 0 1
2.288643 -4.434844 -33.721355 34.088642 -1.094384 2.994665 0.136357 -0.042650 57476.000000 0 0 1
2.462143 -3.198144 33.263235 33.507209 -0.914702 0.120749 0.153897 -0.036342 168008.000000 0 0 1
1.840143 -3.185344 31.869835 32.081442 -1.046942 0.114919 0.157637 -0.040428 814811.000000 0 0 1
0.413443 -3.084644 31.856735 32.008398 -1.437558 0.097385 0.148108 -0.038038 203016.000000 0 0 1
-0.056957 -3.333844 30.580435 30.761677 1.553713 0.108606 0.139004 -0.031324 -822007.000000 0 0 1
-1.541057 -3.588444 30.488935 30.738037 1.165163 0.127397 0.120696 -0.034085 -572520.000000 0 0 1
-2.366057 -2.417144 30.419835 30.607306 0.796078 0.110737 0.117379 -0.035920 929309.000000 0 0 1
-3.757857 -2.822944 30.392935 30.754203 0.644276 0.153428 0.087024 -0.033070 1183840.000000 0 0 1
-4.592157 -1.602944 29.911035 30.303916 0.335838 0.161201 0.069861 -0.026903 -270082.000000 0 0 1
-4.321057 -1.285744 28.522535 28.876628 0.289210 0.156764 0.070538 -0.029089 -40358.800000 0 0 1
-5.230357 -0.444544 27.834235 28.324881 0.084789 0.186399 0.064210 -0.026885 166035.000000 0 0 1
-5.676757 1.016856 28.277235 28.859341 -0.177246 0.201190 0.071096 -0.027597 162250.000000 0 0 1
-6.944157 0.979956 28.905635 29.744199 -0.140194 0.238017 0.058304 -0.024180 -121367.000000 0 0 1
-7.416857 2.292356 29.127635 30.144382 -0.299760 0.260463 0.067166 -0.024202 725229.000000 0 0 1
-8.906057 2.455956 29.620035 31.027344 -0.269075 0.302338 0.065468 -0.020349 763967.000000 0 0 1
-9.772457 2.020456 28.608135 30.298656 -0.203877 0.335625 0.060389 -0.017433 -169253.000000 0 0 1
-11.119457 2.415256 28.787135 30.954401 -0.213887 0.376424 0.053064 -0.018576 404133.000000 0 0 1
-12.149357 1.547956 28.011535 30.572032 -0.126728 0.412186 0.058287 -0.017712 50175.500000 0 0 1
-12.224757 0.261056 28.543235 31.052039 -0.021351 0.404736 0.060019 -0.017896 26883.500000 0 0 1
-12.595357 -0.600644 27.459535 30.216384 0.047652 0.430486 0.063902 -0.015551 -1074520.000000 0 0 1
-12.269757 -2.086244 27.812935 30.470620 0.168421 0.420760 0.072325 -0.013732 483836.000000 0 0 1
-10.913957 -2.330844 28.179035 30.308502 0.210405 0.377089 0.073046 -0.023943 1310220.000000 0 0 1
-9.816557 -1.949144 27.329335 29.104235 0.196007 0.351040 0.077846 -0.025238 -128019.000000 0 0 1
-9.661857 -2.642644 25.920635 27.788745 0.266983 0.368761 0.063435 -0.017103 -416296.000000 0 0 1
-10.609657 -2.180644 24.943035 27.193290 0.202711 0.409677 0.053045 -0.015070 567159.000000 0 0 1
-10.464357 -2.692644 23.620435 25.974565 0.251852 0.429034 0.057820 -0.017462 -60909.700000 0 0 1
-9.331657 -2.119844 22.717235 24.650483 0.223376 0.398682 0.044661 -0.019388 1042750.000000 0 1 0
-8.033457 -2.489644 23.238835 24.713928 0.300523 0.347247 0.031936 -0.015521 875670.000000 0 1 0
-7.070357 -2.158844 22.222635 23.419993 0.296346 0.321145 0.029359 -0.014967 43245.400000 0 1 0
-5.595957 -2.477144 22.495935 23.313474 0.416739 0.265609 0.017674 -0.015127 14125.800000 0 1 0
-5.042557 -3.814944 22.482335 23.354583 0.647680 0.274164 0.025288 -0.014905 92991.100000 0 1 0
-5.604757 -4.642844 23.470635 24.573156 0.691805 0.300687 0.038398 -0.013004 -201244.000000 0 1 0
-5.501557 -6.172744 23.189935 24.619971 0.842828 0.342507 0.047891 -0.008040 131083.000000 0 1 0
-6.426757 -6.643244 22.168535 24.018323 0.801960 0.395032 0.053740 -0.012101 581669.000000 0 1 0
-6.026257 -6.314844 20.890535 22.640837 0.808778 0.395789 0.041388 -0.012842 -397835.000000 0 1 0
-7.174157 -6.244644 19.860335 22.020377 0.716239 0.446632 0.047829 -0.011744 1387.960000 0 1 0
-7.947057 -5.069644 20.098435 22.199191 0.567841 0.438551 0.040836 -0.016197 381341.000000 0 1 0
-9.087257 -4.930844 19.247535 21.848548 0.497152 0.492925 0.052412 -0.006708 591028.000000 0 1 0
-9.754757 -3.574844 19.398235 22.005143 0.351273 0.491699 0.047015 -0.007240 -48540.200000 0 1 0
-9.088257 -2.615744 18.619035 20.883175 0.280241 0.469973 0.039618 -0.017792 -163875.000000 0 1 0
-9.616957 -1.306244 18.733935 21.098636 0.135001 0.477989 0.040653 -0.014181 165281.000000 0 1 0
-8.628857 -0.176544 18.258535 20.195605 0.020457 0.441564 0.021710 -0.007669 189184.000000 0 1 0
-7.612557 0.200256 19.147935 20.606663 -0.026300 0.378525 0.024619 -0.000769 -170520.000000 0 1 0
-8.014857 0.983556 20.253535 21.803922 -0.122106 0.379381 0.042344 -0.002060 -449629.000000 0 1 0
-8.097657 2.500656 19.913835 21.642231 -0.299522 0.402364 0.039494 -0.014277 189310.000000 0 1 0
-9.036757 2.933156 18.950435 21.198712 -0.313853 0.464730 0.024799 -0.022233 278324.000000 0 1 0
-8.710757 4.301956 18.671235 21.047545 -0.458729 0.479777 0.018156 -0.017920 -294249.000000 0 1 0
-9.467657 4.919656 17.534035 20.525154 -0.479226 0.546650 0.017211 -0.007293 -207067.000000 0 1 0
-10.842957 5.081956 17.865235 21.507269 -0.438285 0.590504 0.026688 -0.005118 263116.000000 0 1 0
-11.580057 5.856556 16.924935 21.327222 -0.468233 0.654120 0.030234 0.012175 -4571.560000 0 1 0
-11.421057 7.390356 16.939635 21.725771 -0.574321 0.676606 0.032468 0.011498 -590605.000000 0 1 0
-10.097757 7.764056 16.650535 20.963911 -0.655481 0.653028 0.017998 0.007815 11099.000000 0 1 0
-9.939257 9.190556 16.492935 21.337105 -0.746280 0.687288 0.008314 -0.000150 -383860.000000 0 1 0
-8.639757 9.718656 17.074535 21.462465 -0.844099 0.650876 0.009054 0.006990 -423691.000000 0 1 0
-8.726357 10.025456 18.457635 22.745183 -0.854566 0.624088 0.027133 0.024081 -116236.000000 0 1 0
-8.248557 11.335756 18.799635 23.451318 -0.941748 0.640754 0.044463 0.020586 -109755.000000 0 1 0
-8.953757 12.612456 18.243135 23.917688 -0.953448 0.703247 0.048167 0.010236 1823.300000 0 1 0
-8.701457 12.815456 16.842035 22.882426 -0.974316 0.743617 0.033038 -0.002549 -357302.000000 0 1 0
-9.528357 13.766756 16.216935 23.308843 -0.965373 0.801344 0.045463 -0.019610 -343876.000000 0 1 0
-9.204357 14.149056 14.778435 22.434752 -0.994050 0.851667 0.044628 -0.021972 -121228.000000 0 1 0
-7.939657 14.736956 14.619535 22.224915 -1.076625 0.852903 0.034550 -0.017163 -362605.000000 0 1 0
-7.699757 15.109756 13.256635 21.525087 -1.099507 0.907308 0.029147 -0.030228 -626601.000000 0 1 0
-6.738757 16.326056 13.227935 22.066473 -1.179338 0.927972 0.018632 -0.020847 1680440.000000 0 1 0
-5.388057 15.933156 13.656535 21.665585 -1.244702 0.888814 0.014945 -0.022720 864004.000000 0 1 0
-4.554557 17.046456 13.629335 22.295390 -1.309710 0.913085 0.016750 -0.023448 813587.000000 0 1 0
-3.009557 16.731656 13.639235 21.795286 -1.392827 0.894655 0.027403 -0.028291 1045840.000000 0 1 0
-2.400557 16.322456 14.845735 22.194168 -1.424772 0.838065 0.038514 -0.026725 -191799.000000 0 1 0
-2.693357 15.012156 15.279135 21.588677 -1.393273 0.784505 0.028044 -0.022061 -944920.000000 0 1 0
-1.692257 14.365056 16.218335 21.731382 -1.453533 0.728296 0.042841 -0.020564 -1221720.000000 0 1 0
-0.543257 13.937356 15.567735 20.902138 -1.531838 0.730574 0.060765 -0.041797 -834393.000000 0 1 0
0.474043 13.522456 16.449735 21.299655 1.535755 0.688342 0.056908 -0.024213 393763.000000 0 1 0
1.471143 14.628856 16.891535 22.394009 1.470569 0.716227 0.052693 -0.034088 -481619.000000 0 1 0
0.908743 15.435356 17.872035 23.632301 1.511990 0.713227 0.051807 -0.038442 -662643.000000 0 1 0
1.801843 16.314256 18.453635 24.696928 1.460796 0.726952 0.078515 -0.040853 -729467.000000 0 1 0
1.083643 17.522056 19.060335 25.913184 1.509030 0.744324 0.082594 -0.032827 199220.000000 0 0 1
0.494743 18.401256 18.086635 25.806537 1.543916 0.794201 0.064122 -0.025166 716598.000000 0 0 1
-0.805657 18.070956 17.579835 25.224177 -1.526243 0.799669 0.065256 -0.027287 388341.000000 0 0 1
-1.398357 19.092156 16.535535 25.296042 -1.497684 0.858358 0.057693 -0.017404 -161822.000000 0 0 1
-2.094557 20.104056 17.174935 26.524303 -1.466985 0.866475 0.043709 -0.013069 -192791.000000 0 0 1
-2.649257 20.982356 16.218435 26.651744 -1.445200 0.916587 0.046624 -0.010158 -278686.000000 0 0 1
-3.272757 22.236156 16.885435 28.111839 -1.424664 0.926480 0.040582 -0.000753 145650.000000 0 0 1
-4.400557 21.857056 17.666735 28.446605 -1.372119 0.900716 0.046677 -0.008620 302613.000000 0 0 1
-4.949657 22.989356 18.339535 29.821941 -1.358731 0.908451 0.046245 -0.012091 215988.000000 0 0 1
-6.026557 22.697756 19.421335 30.474510 -1.311271 0.879810 0.042230 -0.013474 1479200.000000 0 0 1
-7.343857 22.469556 18.844435 30.231208 -1.254905 0.897785 0.038267 -0.016702 708833.000000 0 0 1
-8.284157 22.104656 19.799835 30.810332 -1.212227 0.872862 0.026405 -0.014391 304327.000000 0 0 1
-9.772257 22.388856 19.438135 31.218568 -1.159243 0.898676 0.036314 -0.017814 349547.000000 0 0 1
-10.109357 23.712156 19.556735 32.356318 -1.167794 0.921761 0.048479 -0.019098 443270.000000 0 0 1
-11.318557 23.912556 18.803635 32.457615 -1.128711 0.952891 0.037638 -0.020750 397641.000000 0 0 1
-11.940557 25.296956 19.038935 33.837759 -1.129786 0.973204 0.046187 -0.022878 -430832.000000 0 0 1
-12.663357 25.323456 20.229535 34.797588 -1.107097 0.950411 0.047261 -0.017506 157650.000000 0 0 1
-13.214357 26.643856 20.503935 36.123755 -1.110384 0.967205 0.055895 -0.022517 -27233.500000 0 0 1
-14.105957 26.770456 21.764935 37.273955 -1.085843 0.947250 0.091141 -0.025263 -544618.000000 0 0 1
-15.443057 26.375556 21.622435 37.439119 -1.041102 0.955089 0.093802 -0.026867 -566215.000000 0 0 1
-16.043757 26.749756 22.808535 38.641698 -1.030544 0.939419 0.085298 -0.015391 -245030.000000 0 0 1
-17.570657 26.532456 22.867335 39.186914 -0.985870 0.947709 0.091348 -0.017689 161684.000000 0 0 1
-17.709657 25.126756 22.944235 38.359142 -0.956848 0.929615 0.089159 -0.021718 -594235.000000 0 0 1
-19.039657 24.766856 23.155335 38.885412 -0.915399 0.932938 0.094904 -0.022385 -434446.000000 0 0 1
28.343543 24.155256 23.199335 43.875300 0.705788 1.013662 0.118799 -0.029182 -79969.300000 0 0 1
28.399843 23.357956 24.375245 44.116864 0.688291 0.985417 0.127394 -0.031083 94270.600000 0 0 1
28.209243 21.983556 24.064835 43.106315 0.661993 0.978501 0.125261 -0.026157 -265133.000000 0 0 1
27.994443 21.126156 25.281505 43.233757 0.646474 0.946208 0.145358 -0.028325 -149246.000000 0 0 1
26.726243 21.415356 25.811535 42.885252 0.675524 0.924950 0.148104 -0.027260 -266198.000000 0 0 1
26.552743 20.710056 27.023315 43.176546 0.662401 0.894538 0.161801 -0.034632 591658.000000 0 0 1
25.120843 20.788756 27.657935 42.757344 0.691316 0.867339 0.176184 -0.038293 590661.000000 0 0 1
24.675243 22.097356 27.928705 43.326358 0.730339 0.870280 0.178198 -0.046014 413314.000000 0 0 1
23.400343 22.044556 28.581105 43.016486 0.755573 0.844076 0.219175 -0.044341 475614.000000 0 0 1
22.894843 23.408256 29.064395 43.781952 0.796486 0.844849 0.216390 -0.052653 -484321.000000 0 0 1
22.395443 24.228256 28.039275 43.298558 0.824689 0.866392 0.197396 -0.051242 -86610.700000 0 0 1
21.920143 25.488656 28.463485 44.049225 0.860528 0.868235 0.171748 -0.041930 -203120.000000 0 0 1
20.669243 25.594256 29.367925 44.099416 0.891454 0.842032 0.165234 -0.041228 -1042530.000000 0 0 1
19.530443 25.297956 28.606005 42.892054 0.913353 0.840715 0.156935 -0.042936 24889.400000 0 0 1
18.324043 25.878556 29.086275 43.028846 0.954669 0.828514 0.123764 -0.031980 -85761.100000 0 0 1
17.487543 24.988756 29.945015 42.742906 0.960194 0.794580 0.079073 -0.029705 -910596.000000 0 0 1
18.056543 24.658256 31.175825 43.657764 0.938738 0.775465 0.096786 -0.026933 563384.000000 0 0 1
17.020443 24.121856 32.036407 43.564788 0.956320 0.744578 0.044721 -0.013333 622043.000000 0 0 1
17.420243 23.848756 33.509329 44.666577 0.939927 0.722416 0.069906 -0.006430 -328932.000000 0 0 1
17.904643 25.029356 -33.538655 45.517977 0.949845 2.399154 0.073345 -0.020141 188165.000000 0 0 1
18.248443 24.779556 -32.162155 44.513327 0.936036 2.378249 0.042660 0.004884 -13183.500000 0 0 1
18.787843 25.988156 -31.401775 44.882500 0.944841 2.345696 0.046279 0.005452 397903.000000 0 0 1
17.754443 26.940356 -31.136075 44.838133 0.988101 2.338397 0.043488 -0.002493 662117.000000 0 0 1
18.333243 28.035356 -30.490715 45.296497 0.991661 2.309238 0.079331 -0.012886 120998.000000 0 0 1
17.672043 28.269956 -29.110265 44.259451 1.012113 2.288582 0.093391 -0.017179 -85457.400000 0 0 1
18.112143 27.458856 -28.031055 43.217803 0.987695 2.276540 0.053918 -0.009278 -28602.800000 0 0 1
17.790743 28.093056 -26.845345 42.736435 1.006266 2.249983 0.038545 -0.003674 -416549.000000 0 0 1
18.243143 27.561056 -25.476565 41.731037 0.986089 2.227481 0.032458 -0.004150 -52488.900000 0 0 1
19.655743 27.514156 -25.492315 42.346607 0.950480 2.216790 0.037692 -0.002816 -394016.000000 0 0 1
20.151443 26.761156 -24.388165 41.436973 0.925371 2.200073 0.040011 -0.001352 594139.000000 0 0 1
21.687643 26.988356 -24.299765 42.298981 0.893869 2.182761 0.034221 -0.001758 873752.000000 0 0 1
22.462643 26.445356 -23.206265 41.742759 0.866652 2.160284 0.043262 -0.001881 1414560.000000 0 0 1
23.881643 26.405856 -23.502665 42.661193 0.835552 2.154256 0.050320 -0.002423 1316100.000000 0 0 1
24.646043 26.263956 -22.161465 42.288927 0.817167 2.122394 0.070576 -0.009070 67595.300000 0 0 1
24.380443 25.056856 -21.468065 41.025965 0.799080 2.121492 0.080034 -0.015150 -309091.000000 0 0 1
25.221143 24.984456 -20.388365 40.939156 0.780684 2.092106 0.091932 -0.015314 -573307.000000 0 0 1
24.671743 24.075156 -19.325265 39.519285 0.773160 2.081749 0.096963 -0.017627 -906452.000000 0 0 1
24.938543 22.714256 -19.444465 38.935274 0.738755 2.093708 0.082904 -0.006633 65538.100000 0 0 1
24.483543 21.962156 -18.355165 37.665531 0.731165 2.079814 0.089092 -0.008606 -690730.000000 0 0 1
24.541343 20.393656 -18.442565 36.855216 0.693355 2.094864 0.100366 -0.012035 378835.000000 0 0 1
23.746643 19.748656 -19.454465 36.501899 0.693738 2.132905 0.092492 -0.013491 1826890.000000 0 0 1
22.298243 19.830356 -19.284665 35.529607 0.726885 2.144537 0.092251 -0.023067 1313870.000000 0 0 1
21.542843 19.588756 -20.632065 35.686069 0.737926 2.187261 0.080292 -0.007680 79034.800000 0 0 1
21.796443 20.488256 -21.757965 36.990034 0.754470 2.199642 0.077501 -0.006425 29945.500000 0 0 1
21.673543 21.881756 -21.525865 37.575478 0.790179 2.180799 0.073404 -0.005727 -27782.200000 0 0 1
21.186443 22.585956 -22.836765 38.477378 0.817360 2.206211 0.064520 0.000185 -230018.000000 0 0 1
19.807143 22.542856 -23.053865 37.841564 0.849906 2.225874 0.068738 -0.000755 -736234.000000 0 0 1
19.407843 23.348056 -24.146165 38.792182 0.877295 2.242665 0.056642 -0.004603 -697917.000000 0 0 1
17.937343 23.550956 -24.455265 38.398643 0.919887 2.261239 0.046981 0.003253 -439566.000000 0 0 1
17.230943 24.420156 -23.572565 38.064619 0.956320 2.238619 0.050246 -0.017060 315652.000000 0 0 1
15.822643 24.298656 -23.730265 37.468736 0.993597 2.256652 0.051717 -0.011019 239935.000000 0 0 1
15.133243 25.469556 -23.080765 37.555759 1.034675 2.232641 0.052278 -0.013277 -350635.000000 0 0 1
15.240643 26.654356 -23.887465 38.901708 1.051379 2.231974 0.045026 -0.008332 210264.000000 0 0 1
14.352143 27.701956 -23.486065 39.050962 1.092781 2.216075 0.084846 -0.021836 356753.000000 0 0 1
14.517643 29.044056 -24.279565 40.544006 1.107270 2.212854 0.085789 -0.029493 66868.500000 0 0 1
14.318643 28.850656 -25.661385 41.181192 1.110111 2.243539 0.087809 -0.038961 -35897.600000 0 0 1
13.848743 29.984156 -26.406845 42.286626 1.138116 2.245253 0.129961 -0.050621 -153490.000000 0 0 1
14.677143 31.297956 -26.454545 43.529571 1.132297 2.224005 0.131874 -0.046832 203181.000000 0 0 1
15.952043 31.059456 -27.058275 44.173609 1.096330 2.230071 0.091484 -0.024453 21236.700000 0 0 1
16.665943 32.273556 -27.074765 45.303189 1.094118 2.211344 0.088029 -0.027785 -186332.000000 0 0 1
18.142243 32.086456 -27.455995 45.962085 1.056193 2.211004 0.074854 -0.002380 -195834.000000 0 0 1
18.914943 31.341556 -26.547035 45.219611 1.027800 2.198230 0.033008 -0.004141 267902.000000 0 0 1
20.233143 31.171256 -27.057825 45.969046 0.995057 2.200134 0.026457 0.000594 -588655.000000 0 0 1
21.187343 30.372856 -26.195085 45.360736 0.961700 2.186439 0.008296 0.007644 -958958.000000 0 0 1
21.640843 31.020256 -25.043465 45.362512 0.961659 2.155646 0.020946 0.007557 160194.000000 0 0 1
22.429143 32.201456 -25.130155 46.599623 0.962406 2.140376 0.014209 0.005062 -338235.000000 0 0 1
23.874843 32.042056 -25.647835 47.481711 0.930432 2.141426 -0.003651 0.013761 -489774.000000 0 0 1
23.930243 31.542356 -26.964145 47.902420 0.921769 2.168683 0.002112 0.014577 -179028.000000 0 0 1
25.196043 31.654856 -27.584425 48.967040 0.898523 2.169203 0.012319 0.017734 -540567.000000 0 0 1
25.313443 31.020456 -28.996525 49.435185 0.886361 2.197597 0.016576 0.015025 639929.000000 0 0 1
24.318643 31.414256 -29.985765 49.773467 0.912032 2.217357 0.032562 0.006102 797609.000000 0 0 1
23.050043 30.826256 -29.776145 48.663963 0.928743 2.229222 0.018056 0.008558 -108525.000000 0 0 1
21.840143 31.412556 -30.536315 48.951068 0.963253 2.244408 0.009782 0.009325 -468213.000000 0 0 1
21.311243 32.677256 -30.111995 49.281887 0.992895 2.228139 0.030470 0.006164 193230.000000 0 0 1
20.550143 33.349456 -31.128285 50.034635 1.018546 2.242263 0.049783 -0.005374 938723.000000 0 0 1
19.034643 32.932656 -31.215265 49.206404 1.046720 2.257995 0.071355 -0.013320 374316.000000 0 0 1
18.869443 31.496856 -31.495225 48.374136 1.031046 2.279797 0.100778 -0.028072 -265688.000000 0 0 1
19.155843 31.081756 -32.847585 49.111971 1.018474 2.303431 0.111357 -0.029427 -358079.000000 0 0 1
18.442443 31.745956 33.607415 49.773364 1.044511 0.829549 0.139400 -0.031343 -342964.000000 0 0 1
18.831743 33.080456 33.385487 50.631431 1.053278 0.850799 0.116325 -0.022628 179048.000000 0 0 1
18.151543 33.591356 32.239002 49.972101 1.075382 0.869590 0.108656 -0.028310 853112.000000 0 0 1
16.662343 -33.688490 32.400355 49.621880 -1.111478 0.859330 0.129954 -0.033104 -997457.000000 0 0 1
15.691143 33.057656 32.500253 48.941670 1.127626 0.844559 0.138235 -0.030391 -758709.000000 0 0 1
14.389443 33.585656 32.433541 48.856800 1.166015 0.844843 0.110689 -0.036770 135052.000000 0 0 1
13.894843 -33.407590 31.132025 47.731925 -1.176643 0.860278 0.094724 -0.034385 -1365050.000000 0 0 1
14.380043 -32.107290 30.929635 46.843420 -1.149711 0.849609 0.118579 -0.027907 317759.000000 0 0 1
13.696943 -31.413090 29.863705 45.455795 -1.159623 0.853986 0.112483 -0.030775 117839.000000 0 0 1
14.264143 -29.995490 29.524135 44.439506 -1.126905 0.844150 0.110390 -0.034069 23689.100000 0 0 1
13.814243 -29.079990 30.528625 44.367511 -1.127313 0.811949 0.111108 -0.027887 405169.000000 0 0 1
14.237343 -27.779390 30.232095 43.455448 -1.097187 0.801398 0.136167 -0.044283 -510447.000000 0 0 1
13.549843 -26.737390 31.155475 43.233666 -1.101743 0.766086 0.128065 -0.045126 1312350.000000 0 0 1
12.119943 -26.616890 30.920735 42.561058 -1.143504 0.757577 0.093568 -0.047179 1289630.000000 0 0 1
11.762743 -25.716890 29.882315 41.142111 -1.141811 0.757844 0.093998 -0.044744 -488657.000000 0 0 1
12.062043 -24.192490 30.035225 40.408962 -1.108280 0.732834 0.087354 -0.040172 -213340.000000 0 0 1
11.498843 -23.641390 31.207285 40.804820 -1.118099 0.700075 0.108493 -0.044115 487641.000000 0 0 1
12.151543 -22.414590 31.611092 40.612005 -1.074018 0.678734 0.107080 -0.041483 95654.100000 0 0 1
11.364243 -21.884490 32.790361 41.027852 -1.091842 0.644797 0.105631 -0.040849 -559147.000000 0 0 1
11.369343 -22.527890 -33.598235 42.019153 -1.103413 2.497414 0.100194 -0.036684 1028400.000000 0 0 1
12.670643 -22.971190 -33.120815 42.251735 -1.066734 2.471707 0.085493 -0.035836 1150720.000000 0 0 1
13.472943 -21.836890 -32.463635 41.379434 -1.017984 2.472743 0.071132 -0.028874 -384221.000000 0 0 1
13.934343 -20.878790 -33.353615 41.743903 -0.982292 2.496436 0.070675 -0.031012 -337301.000000 0 0 1
14.978343 -20.107790 -32.844755 41.321325 -0.930566 2.489577 0.048594 -0.025696 -345532.000000 0 0 1
15.244643 -18.891290 -33.721425 41.550144 -0.891822 2.517654 0.036778 -0.020364 -638356.000000 0 0 1
15.794543 -19.205490 32.660257 41.048883 -0.882547 0.650728 0.042037 -0.014084 337151.000000 0 0 1
15.668543 -18.119190 31.764333 39.784182 -0.857802 0.646136 0.039536 -0.010688 215168.000000 0 0 1
16.722143 -16.986390 32.018179 39.916554 -0.793237 0.639946 0.033308 -0.010213 -780720.000000 0 0 1
16.477743 -16.136890 33.091192 40.335371 -0.774948 0.608684 0.038103 -0.013045 65572.000000 0 0 1
17.203943 -14.920690 32.974188 40.073678 -0.714443 0.604407 0.043105 -0.011505 121723.000000 0 0 1
18.688243 -14.996390 33.413837 41.117230 -0.676233 0.622114 0.047906 -0.005164 -93905.900000 0 0 1
19.427343 -15.675690 32.423726 40.920006 -0.678927 0.656114 0.060935 -0.010942 -380135.000000 0 0 1
20.829043 -15.618690 32.520676 41.657974 -0.643406 0.675077 0.077268 -0.011869 -289434.000000 0 0 1
21.569143 -16.374790 31.453045 41.504887 -0.649348 0.710838 0.097658 -0.022432 -532385.000000 0 0 1
21.651943 -15.588290 30.262195 40.343548 -0.623989 0.722564 0.087551 -0.012968 302269.000000 0 0 1
22.365943 -16.242490 29.246495 40.241910 -0.628104 0.757193 0.080597 -0.017959 -370589.000000 0 0 1
22.724943 -15.351290 28.064335 39.238909 -0.594111 0.773862 0.068651 -0.016643 -142514.000000 0 0 1
23.686143 -14.388690 28.461475 39.725600 -0.545896 0.772094 0.041998 -0.017822 279563.000000 0 0 1
24.047443 -13.570490 27.357155 38.869675 -0.513772 0.790039 0.033728 -0.021457 350715.000000 0 0 1
24.910943 -12.323590 27.785765 39.299805 -0.459403 0.785520 0.039949 -0.018286 233386.000000 0 0 1
24.161843 -11.500690 28.657895 39.208869 -0.444252 0.751152 0.064793 -0.027254 -27734.500000 0 0 1
24.623643 -10.178790 28.776545 39.217612 -0.391983 0.746948 0.046744 -0.025901 128732.000000 0 0 1
23.526543 -9.073290 28.619955 38.143474 -0.368085 0.722245 0.070849 -0.022234 716394.000000 0 0 1
22.454343 -9.052890 29.546705 38.198954 -0.383235 0.686459 0.080350 -0.028851 -38021.300000 0 0 1
21.535743 -8.018690 29.213905 37.169071 -0.356439 0.666527 0.093142 -0.023092 867219.000000 0 0 1
20.205443 -8.100890 30.063075 37.117015 -0.381305 0.626723 0.072414 -0.011725 505462.000000 0 0 1
20.190243 -7.536590 31.417515 38.098639 -0.357261 0.601238 0.081208 -0.007665 2575.800000 0 0 1
20.816343 -8.384990 32.331976 39.357145 -0.382925 0.606756 0.074584 -0.009871 -517452.000000 0 0 1
21.008143 -7.803890 33.703235 40.474075 -0.355672 0.586809 0.078681 -0.013649 -955126.000000 0 0 1
19.898443 -7.627090 -33.165105 39.421374 -0.366028 2.570475 0.063851 -0.019387 -894387.000000 0 0 1
20.145443 -7.180890 -31.833135 38.350392 -0.342411 2.550012 0.074331 -0.023744 -652893.000000 0 0 1
18.859543 -6.998990 -31.051895 36.998492 -0.355357 2.566744 0.083609 -0.026500 -576153.000000 0 0 1
18.882943 -6.184190 -29.887755 35.889938 -0.316493 2.554873 0.077082 -0.025780 -286997.000000 0 0 1
17.590543 -5.841390 -29.449165 34.796585 -0.320618 2.579841 0.095924 -0.022878 -41987.700000 0 0 1
17.625843 -4.772790 -28.316345 33.693698 -0.264442 2.568826 0.084895 -0.026031 -509022.000000 0 0 1
18.095243 -5.130390 -27.037145 32.935785 -0.276271 2.533790 0.083898 -0.032231 505680.000000 0 0 1
17.273543 -6.061390 -26.236505 31.991717 -0.337482 2.532387 0.103191 -0.036342 1630000.000000 0 0 1
15.796243 -5.570090 -25.946735 30.883333 -0.339008 2.568362 0.124782 -0.035262 748609.000000 0 0 1
15.776643 -4.431390 -25.085805 29.963933 -0.273827 2.562940 0.108846 -0.034460 187594.000000 0 0 1
14.515743 -4.269790 -24.431465 28.737334 -0.286080 2.587094 0.113418 -0.038334 452767.000000 0 0 1
14.393143 -2.971090 -23.587665 27.791507 -0.203565 2.584388 0.130791 -0.041156 -45749.200000 0 0 1
14.274743 -1.859290 -24.434865 28.359969 -0.129521 2.609204 0.102684 -0.047910 108095.000000 0 0 1
14.313143 -0.689290 -23.638865 27.643030 -0.048121 2.596631 0.117390 -0.042239 29599.300000 0 0 1
14.675243 0.656710 -24.366165 28.451784 0.044720 2.599057 0.102137 -0.044488 -263774.000000 0 0 1
13.612243 1.226710 -25.075065 28.557956 0.089875 2.642550 0.114053 -0.043176 -90675.800000 0 0 1
13.978743 2.513710 -25.584655 29.262580 0.177922 2.634815 0.111599 -0.023291 -238595.000000 0 0 1
13.147943 3.088710 -26.740805 29.957957 0.230736 2.673901 0.112056 -0.035260 -981609.000000 0 0 1
11.937443 3.557710 -26.262535 29.066830 0.289648 2.698716 0.122778 -0.048662 -659274.000000 0 0 1
11.183343 4.129710 -27.305915 29.794876 0.353741 2.729947 0.121921 -0.040885 -283747.000000 0 0 1
9.866543 4.789710 -26.888325 29.039146 0.451940 2.754297 0.106539 -0.032441 -219353.000000 0 0 1
10.074043 6.048710 -26.234025 28.745387 0.540732 2.720479 0.110771 -0.048160 1052720.000000 0 0 1
8.810743 6.736710 -26.250575 28.497458 0.652781 2.741834 0.130153 -0.046951 758751.000000 0 0 1
8.750843 5.205356 -30.871075 32.506865 0.536617 2.823005 0.106660 -0.032390 -75491.700000 0 0 1
8.645543 4.288756 -29.793595 31.317681 0.460495 2.828335 0.095977 -0.017596 308317.000000 0 0 1
8.301843 3.021256 -30.264035 31.527137 0.349027 2.857570 0.088992 -0.017708 -103986.000000 0 0 1
8.164343 1.992256 -29.135855 30.323648 0.239342 2.860776 0.097400 -0.019319 698342.000000 0 0 1
9.472443 1.690956 -28.627835 30.201646 0.176652 2.817342 0.124995 -0.034957 1026600.000000 0 0 1
9.279143 0.820556 -27.525695 29.059244 0.088201 2.815268 0.119632 -0.032790 -250994.000000 0 0 1
10.585143 0.318056 -26.913495 28.922009 0.030038 2.766720 0.127185 -0.044681 -97311.200000 0 0 1
11.245643 -0.638944 -27.798675 29.993984 -0.056756 2.756619 0.129595 -0.039066 -57150.500000 0 0 1
12.382043 -1.156344 -27.184025 29.893533 -0.093119 2.712543 0.117695 -0.038799 -262000.000000 0 0 1
12.781543 -2.535844 -27.792955 30.696037 -0.195856 2.703176 0.113928 -0.035796 -239185.000000 0 0 1
11.821843 -3.427344 -27.336465 29.979743 -0.282180 2.718519 0.126684 -0.027686 -179877.000000 0 0 1
12.154343 -4.823944 -27.604005 30.544714 -0.377823 2.699187 0.119328 -0.022068 393207.000000 0 0 1
11.349643 -5.874244 -26.759085 29.654169 -0.477605 2.696038 0.106253 -0.038311 485832.000000 0 0 1
11.856243 -5.769444 -25.436445 28.650824 -0.452884 2.663357 0.141582 -0.030074 344154.000000 0 0 1
11.239543 -6.769744 -24.593165 27.874370 -0.542120 2.651493 0.138399 -0.032393 158655.000000 0 0 1
11.266343 -6.559644 -23.042465 26.474792 -0.527254 2.626719 0.145949 -0.039665 344822.000000 0 0 1
12.545043 -6.412244 -22.430165 26.487870 -0.472518 2.580753 0.131919 -0.041643 96337.700000 0 0 1
12.441343 -6.215544 -21.071465 25.247309 -0.463318 2.558207 0.154304 -0.052288 -297720.000000 0 0 1
13.773643 -6.008944 -20.356265 25.302138 -0.411373 2.505676 0.168864 -0.051338 -4477.230000 0 0 1
14.315043 -4.667844 -20.358465 25.321460 -0.315208 2.504789 0.154137 -0.051382 1048630.000000 0 0 1
15.580743 -4.682544 -19.651765 25.512304 -0.291947 2.450086 0.166146 -0.039178 922928.000000 0 0 1
16.296543 -3.327844 -19.467265 25.605200 -0.201436 2.434549 0.169605 -0.040216 -92625.400000 0 0 1
16.856043 -2.805444 -20.649965 26.803316 -0.164924 2.450305 0.145726 -0.036274 48009.900000 0 0 1
17.415543 -1.538244 -20.427965 26.888084 -0.088097 2.433710 0.155742 -0.018409 577800.000000 0 0 1
18.591443 -1.146844 -21.413565 28.381292 -0.061609 2.425682 0.103450 -0.028668 570894.000000 0 0 1
19.810543 -1.752744 -21.067965 28.972209 -0.088246 2.384999 0.134982 -0.037310 -275014.000000 0 0 1
20.828143 -1.358544 -21.953865 30.292398 -0.065134 2.381441 0.129634 -0.029744 392885.000000 0 0 1
22.163443 -2.139844 -21.899565 31.231204 -0.096250 2.347887 0.085042 -0.023728 -472097.000000 0 0 1
23.004343 -2.032344 -20.759565 31.053015 -0.088117 2.303013 0.066419 -0.013032 -31323.000000 0 0 1
24.272343 -2.596544 -20.901065 32.136322 -0.106570 2.278891 0.042850 -0.012717 -89224.500000 0 0 1
25.314243 -1.791244 -21.755865 33.426593 -0.070643 2.279506 0.042871 -0.015876 -1196130.000000 0 0 1
24.893443 -1.629244 -23.120865 34.013414 -0.065356 2.318228 0.053848 -0.023059 19440.100000 0 0 1
25.735443 -0.906444 -24.003865 35.203980 -0.035207 2.321086 0.057862 -0.017683 757266.000000 0 0 1
27.047543 -1.614544 -24.533765 36.552455 -0.059622 2.306614 0.075148 -0.024031 415275.000000 0 0 1
28.102543 -1.699644 -23.568365 36.716611 -0.060406 2.267769 0.081536 -0.017848 110128.000000 0 0 1
29.220843 -2.394644 -24.024065 37.904455 -0.081767 2.257260 0.083578 -0.010732 227669.000000 0 0 1
30.219643 -1.789744 -25.058065 39.298048 -0.059155 2.262229 0.099931 -0.016941 -442176.000000 0 0 1
29.581643 -1.590344 -26.318565 39.626628 -0.053709 2.297171 0.100850 -0.025867 214464.000000 0 0 1
30.152643 -0.520244 -27.011795 40.485671 -0.017252 2.301232 0.103181 -0.035246 -493757.000000 0 0 1
29.402443 -0.191044 -28.325175 40.827144 -0.006497 2.337525 0.084488 -0.044945 1592520.000000 0 0 1
28.025043 0.300156 -28.218325 39.771434 0.010710 2.359602 0.079088 -0.034586 1669890.000000 0 0 1
27.852943 1.567556 -27.700285 39.313477 0.056220 2.352656 0.074797 -0.029254 -746919.000000 0 0 1
26.399243 2.037156 -27.834035 38.416188 0.077015 2.381162 0.076779 -0.029629 -114316.000000 0 0 1
25.502643 1.416656 -26.926475 37.113700 0.055492 2.382576 0.074618 -0.026320 448744.000000 0 0 1
24.150543 1.693256 -27.268975 36.465228 0.069998 2.415550 0.073814 -0.023771 -170384.000000 0 0 1
23.175143 1.345856 -26.178415 34.988684 0.058008 2.416136 0.078548 -0.022985 -618691.000000 0 0 1
23.341943 2.096156 -24.966065 34.242438 0.089562 2.387798 0.089607 -0.024068 592852.000000 0 0 1
22.467343 1.745856 -23.877665 32.832490 0.077551 2.385114 0.082960 -0.014662 29630.900000 0 0 1
22.600643 2.626456 -22.614365 32.079539 0.115693 2.353144 0.091230 -0.026323 -174054.000000 0 0 1
22.143343 3.970956 -22.755165 31.998338 0.177443 2.361909 0.117266 -0.027454 439997.000000 0 0 1
22.070943 4.512056 -21.434565 31.095430 0.201656 2.331340 0.109428 -0.022629 -306219.000000 0 0 1
21.752943 6.060056 -21.442965 31.140256 0.271697 2.330343 0.125659 -0.018670 46370.900000 0 0 1
22.757643 6.963256 -21.925865 32.359555 0.296929 2.315250 0.122451 -0.017009 182017.000000 0 0 1
22.581643 8.336356 -21.580365 32.328588 0.353645 2.301685 0.121770 -0.013766 -326373.000000 0 0 1
22.823443 8.623856 -20.070165 31.592593 0.361268 2.259168 0.130292 -0.029070 -1448370.000000 0 0 1
24.159043 8.448756 -19.766965 32.338425 0.336420 2.228439 0.124270 -0.028336 -481187.000000 0 0 1
24.437243 8.394756 -18.357465 31.696171 0.330893 2.188506 0.129693 -0.042313 -223760.000000 0 0 1
24.325143 9.699656 -17.515765 31.505522 0.379429 2.160312 0.124482 -0.046960 -753678.000000 0 0 1
23.036543 10.112756 -17.180065 30.464812 0.413658 2.169935 0.113810 -0.048258 -656292.000000 0 0 1
23.003543 11.511556 -16.748165 30.694950 0.463988 2.147940 0.078286 -0.039207 154321.000000 0 0 1
21.533643 11.999556 -16.501165 29.664382 0.508390 2.160677 0.068703 -0.036586 867316.000000 0 0 1
20.647243 11.925656 -17.603565 29.638074 0.523779 2.206758 0.087748 -0.048291 191799.000000 0 0 1
20.135343 10.665456 -17.908665 28.981102 0.487115 2.236920 0.091801 -0.050110 -436121.000000 0 0 1
19.051943 10.597156 -19.038165 28.943531 0.507609 2.288650 0.094061 -0.017564 531518.000000 0 0 1
19.631543 10.861356 -20.329965 30.276625 0.505343 2.306992 0.112641 -0.021950 701560.000000 0 0 1
18.668343 10.651656 -21.367865 30.307597 0.518501 2.353266 0.103594 -0.017813 160988.000000 0 0 1
19.199343 10.717756 -22.813165 31.684784 0.509144 2.374604 0.127360 -0.018828 -39470.900000 0 0 1
19.718743 12.007256 -23.126265 32.677625 0.546957 2.357047 0.125927 -0.021815 89595.800000 0 0 1
20.395543 12.041656 -24.354365 33.972264 0.533335 2.370127 0.146131 -0.020121 -66351.500000 0 0 1
21.048043 13.398056 -24.588565 35.030352 0.566859 2.348888 0.177926 -0.030068 -268028.000000 0 0 1
21.681343 13.635156 -25.809495 36.361080 0.561391 2.360026 0.194657 -0.036414 -124279.000000 0 0 1
21.671943 14.991056 -26.161855 37.132836 0.605152 2.352582 0.193002 -0.024230 132271.000000 0 0 1
20.393343 15.569356 -26.831525 37.124440 0.652055 2.378563 0.157128 -0.034926 178755.000000 0 0 1
19.246443 15.474856 -26.041015 35.889151 0.677198 2.382696 0.108654 -0.024970 -769956.000000 0 0 1
18.048243 15.649656 -26.746635 35.861306 0.714339 2.412585 0.113694 -0.033078 202584.000000 0 0 1
16.825043 15.060756 -25.994075 34.432548 0.730123 2.426340 0.094566 -0.030369 3510.480000 0 0 1
16.743243 13.639256 -25.995095 33.795125 0.683588 2.448379 0.118404 -0.020194 250221.000000 0 0 1
15.412143 13.187856 -25.806185 32.823968 0.707782 2.475431 0.071203 -0.024107 220770.000000 0 0 1
15.215043 11.676056 -26.055625 32.353105 0.654546 2.507065 0.050686 -0.021820 325630.000000 0 0 1
13.842543 11.302456 -26.078015 31.613674 0.684722 2.540816 0.068059 -0.032553 412036.000000 0 0 1
13.688843 9.845156 -25.902135 30.906830 0.623503 2.564535 0.086435 -0.036290 -501879.000000 0 0 1
12.266643 9.389956 -25.614425 29.912214 0.653339 2.598898 0.109273 -0.046004 -364576.000000 0 0 1
11.799843 9.832256 -24.335965 28.777574 0.694691 2.578592 0.125058 -0.050511 1567960.000000 0 0 1
10.462843 9.363856 -23.953165 27.765212 0.730025 2.611389 0.130565 -0.051698 1428990.000000 0 0 1
9.825143 10.126456 -22.802965 26.815178 0.800499 2.587494 0.127780 -0.049652 -175502.000000 0 0 1
9.516443 11.483056 -23.095865 27.492585 0.878776 2.568220 0.126256 -0.045176 -215434.000000 0 0 1
8.769843 12.185956 -22.138065 26.748861 0.946992 2.545662 0.112213 -0.040589 -66774.400000 0 0 1
9.549643 12.889956 -21.007065 26.431864 0.933171 2.489413 0.109430 -0.042035 -198329.000000 0 0 1
10.207643 11.890356 -20.213865 25.576882 0.861399 2.482124 0.135715 -0.049392 8744.540000 0 0 1
10.974643 12.614456 -19.225965 25.479502 0.854802 2.425789 0.157195 -0.048805 197623.000000 0 0 1
12.031343 11.663956 -18.550565 24.998491 0.769895 2.406946 0.158869 -0.055811 314386.000000 0 1 0
13.065643 11.118156 -19.362665 25.869619 0.705043 2.416550 0.126012 -0.045277 479428.000000 0 0 1
12.640043 10.238756 -20.404165 26.094688 0.680824 2.468549 0.125425 -0.043523 -944876.000000 0 0 1
13.870843 9.641256 -21.111965 27.038291 0.607412 2.466769 0.121139 -0.045657 -44443.800000 0 0 1
14.508243 8.717956 -20.258965 26.399196 0.541079 2.445586 0.128757 -0.047129 292970.000000 0 0 1
15.447243 7.963456 -21.034765 27.285441 0.475991 2.451073 0.115507 -0.044684 -28947.700000 0 0 1
16.020243 6.784056 -20.276465 26.717160 0.400572 2.432465 0.160216 -0.049631 -705599.000000 0 0 1
17.049843 7.093956 -19.418465 26.797353 0.394284 2.381310 0.131120 -0.032117 -560248.000000 0 0 1
17.437043 6.000456 -18.617965 26.204667 0.331428 2.360980 0.131084 -0.041577 -865433.000000 0 0 1
18.719543 6.219556 -17.837265 26.594589 0.320775 2.305962 0.176170 -0.032188 -1148330.000000 0 0 1
19.835543 6.355856 -18.690265 27.985204 0.310091 2.302129 0.137087 -0.045093 530242.000000 0 0 1
21.070243 6.570856 -17.987765 28.472635 0.302297 2.254613 0.130169 -0.047470 349231.000000 0 0 1
21.715043 5.322456 -17.346565 28.297967 0.240366 2.230644 0.126549 -0.052337 -1619040.000000 0 0 1
22.744543 5.619356 -16.469665 28.638108 0.242213 2.183518 0.114358 -0.061259 -117357.000000 0 0 1
23.200243 4.435556 -15.815865 28.426519 0.188906 2.160816 0.155581 -0.069356 32156.600000 0 0 1
24.733343 4.309156 -16.039065 29.791923 0.172493 2.139298 0.071516 -0.009097 -5602.010000 0 0 1
25.223343 3.004756 -15.638665 29.829741 0.118567 2.122647 0.082299 -0.026999 342651.000000 0 0 1
26.526943 2.781856 -16.141165 31.176187 0.104487 2.115004 0.079258 -0.028299 -34797.600000 0 0 1
27.159843 1.530056 -15.562965 31.340134 0.056276 2.090453 0.106201 -0.044997 -281766.000000 0 0 1
26.533443 0.383756 -16.044265 31.009503 0.014462 2.114604 0.097532 -0.036298 -165431.000000 0 0 1
27.469843 -0.658644 -15.861765 31.727302 -0.023972 2.094326 0.089630 -0.026186 120112.000000 0 0 1
27.033943 -2.145244 -16.111565 31.543916 -0.079188 2.106872 0.066033 -0.022745 -446517.000000 0 0 1
26.251343 -2.644944 -15.075965 30.387719 -0.100416 2.089921 0.068145 -0.025616 88700.700000 0 0 1
26.315343 -4.029944 -15.110465 30.611499 -0.151960 2.087044 0.067460 -0.024904 -847014.000000 0 0 1
25.781743 -4.817544 -13.872765 29.670871 -0.184728 2.057319 0.088855 -0.025559 1157730.000000 0 0 1
24.384743 -4.725644 -13.522365 28.280766 -0.191422 2.069340 0.131700 -0.020806 1146500.000000 0 0 1
23.485243 -5.249444 -14.476565 28.083522 -0.219906 2.112367 0.137900 -0.023835 -663205.000000 0 0 1
22.005443 -5.146744 -14.067865 26.620167 -0.229755 2.127589 0.159368 -0.025333 -274532.000000 0 0 1
21.563443 -6.160944 -13.194365 26.019811 -0.278298 2.102601 0.177508 -0.026560 362769.000000 0 0 1
21.653843 -5.836044 -11.815565 25.348686 -0.263260 2.055698 0.205347 -0.030515 -419877.000000 0 0 1
21.053743 -6.930344 -10.861465 24.683216 -0.318002 2.026433 0.187079 -0.027488 298278.000000 0 1 0
19.662843 -7.173444 -10.970865 23.631453 -0.349818 2.053582 0.175282 -0.024531 671793.000000 0 1 0
19.253743 -8.070944 -11.999865 24.079940 -0.396938 2.092473 0.164134 -0.030655 -20955.900000 0 1 0
17.962043 -8.912144 -11.773565 23.252486 -0.460575 2.101727 0.180686 -0.027384 858421.000000 0 1 0
16.781143 -8.114944 -11.759865 22.039816 -0.450422 2.133617 0.155882 -0.023362 306673.000000 0 1 0
15.550643 -8.726144 -12.064865 21.529725 -0.511359 2.165643 0.147602 -0.019047 796581.000000 0 1 0
14.427443 -7.618644 -12.205565 20.375737 -0.485848 2.213079 0.114899 -0.014965 -121069.000000 0 1 0
14.234143 -6.916944 -13.406365 20.740915 -0.452337 2.273618 0.113531 -0.015307 -515647.000000 0 1 0
15.256443 -6.106244 -13.863665 21.499918 -0.380714 2.271589 0.111640 -0.006528 -907765.000000 0 1 0
14.923343 -5.086444 -14.997965 21.760446 -0.328490 2.331223 0.099820 -0.008383 -335166.000000 0 1 0
14.298743 -3.917844 -14.482865 20.725755 -0.267436 2.344495 0.123279 -0.018247 140129.000000 0 1 0
14.059043 -2.949344 -15.483165 21.120694 -0.206784 2.393636 0.113771 -0.018382 101397.000000 0 1 0
15.192543 -1.925144 -15.798265 22.002380 -0.126045 2.371757 0.137254 -0.020472 -694877.000000 0 1 0
16.347843 -2.484344 -16.313865 23.228563 -0.150814 2.349447 0.149523 -0.025760 122143.000000 0 1 0
17.448443 -1.551244 -16.158765 23.831916 -0.088671 2.315876 0.152185 -0.038042 940417.000000 0 1 0
18.550943 -1.954944 -15.161765 24.038270 -0.104995 2.253296 0.154200 -0.039543 -175625.000000 0 1 0
18.007343 -1.881944 -13.841765 22.790361 -0.104132 2.223519 0.143394 -0.027266 348628.000000 0 1 0
18.646843 -2.770544 -12.982565 22.889466 -0.147501 2.173880 0.132251 -0.026293 -241239.000000 0 1 0
18.110143 -2.716644 -11.561065 21.656769 -0.148897 2.133922 0.132080 -0.025842 -565785.000000 0 1 0
18.253743 -1.507944 -10.887765 21.307662 -0.082423 2.107120 0.137370 -0.024627 606238.000000 0 1 0
17.679343 -1.680144 -9.595965 20.185752 -0.094750 2.066196 0.119930 -0.022231 -875946.000000 0 1 0
17.710543 -0.387444 -8.723365 19.746152 -0.021873 2.028373 0.111358 -0.018346 -435085.000000 0 1 0
18.923643 0.107656 -8.179365 20.615961 0.005689 1.978769 0.119459 -0.019751 836070.000000 0 1 0
19.917643 0.581356 -9.068365 21.892595 0.029180 1.997883 0.139937 -0.019390 -325376.000000 0 1 0
19.496043 1.770356 -9.873365 21.925172 0.090558 2.037921 0.126460 -0.024711 -1109850.000000 0 1 0
19.296743 2.930056 -9.084865 21.528685 0.150691 2.006434 0.104283 -0.011819 590244.000000 0 1 0
18.673543 3.999856 -9.755865 21.444742 0.211011 2.043090 0.090964 -0.021291 -313788.000000 0 1 0
18.731243 5.305556 -8.919465 21.414136 0.276016 2.000413 0.079091 -0.011886 -237386.000000 0 1 0
18.078243 6.413656 -9.545165 21.425873 0.340920 2.032526 0.063676 -0.013543 503162.000000 0 1 0
18.694843 7.585356 -9.186665 22.168211 0.385450 1.998088 0.090027 -0.002584 -548735.000000 0 1 0
-26.818517 -29.120434 5.932935 40.030392 0.826525 1.422038 0.098057 -0.014389 85546.200000 0 0 1
-27.066897 -28.113544 6.933835 39.636679 0.804364 1.394957 0.138590 -0.024861 519720.000000 0 0 1
-26.024027 -27.107224 6.880235 38.201953 0.805783 1.389707 0.115989 -0.024310 117975.000000 0 0 1
-26.273497 -26.071254 8.028735 37.874365 0.781535 1.357192 0.128729 -0.031689 -1045450.000000 0 0 1
-27.243337 -25.109604 7.799135 37.861830 0.744664 1.363322 0.143483 -0.036670 834057.000000 0 0 1
-28.624007 -25.559374 7.738435 39.147143 0.728898 1.371810 0.132971 -0.035072 671450.000000 0 0 1
-29.235507 -25.840914 9.059335 40.056701 0.723842 1.342660 0.139409 -0.035704 -831433.000000 0 0 1
-28.799087 -27.153424 9.578135 40.723906 0.755995 1.333375 0.127512 -0.031509 -100093.000000 0 0 1
-28.989787 -27.287114 10.955835 41.291944 0.755152 1.302254 0.109235 -0.031301 616225.000000 0 0 1
-27.658647 -27.931924 11.579335 40.978948 0.790314 1.284326 0.076151 -0.026536 1766820.000000 0 0 1
-26.493877 -27.131824 11.657135 39.673041 0.797294 1.272565 0.083077 -0.019443 176877.000000 0 0 1
-26.633627 -26.072184 12.602535 39.343777 0.774746 1.244731 0.090428 -0.014440 -150092.000000 0 0 1
-25.217067 -25.649014 13.094035 38.278273 0.793890 1.221672 0.099186 -0.017097 253150.000000 0 0 1
-24.619657 -26.581904 13.910735 38.810227 0.823703 1.204211 0.086035 -0.017218 -385733.000000 0 0 1
-23.486057 -26.043024 14.564535 37.973144 0.836978 1.177161 0.104249 -0.019789 290184.000000 0 0 1
-22.704457 -27.166404 15.335135 38.583316 0.874631 1.162055 0.095176 -0.019906 391652.000000 0 0 1
-23.497757 -27.739484 16.421935 39.891146 0.867996 1.146512 0.086638 -0.013642 605308.000000 0 0 1
-22.842857 -28.816974 17.039835 40.528633 0.900530 1.136867 0.079410 -0.016002 -48400.100000 0 0 1
-23.791657 -29.634264 17.965035 42.035402 0.894324 1.129205 0.100448 -0.028942 606165.000000 0 0 1
-24.850057 -30.298084 17.258835 42.817831 0.883868 1.155921 0.060695 -0.023784 629205.000000 0 0 1
-25.505257 -31.329124 17.956335 44.209299 0.887513 1.152541 0.073868 -0.024698 -665097.000000 0 0 1
-26.500497 -32.148584 17.131635 45.047760 0.881405 1.180676 0.064466 -0.029909 -258650.000000 0 0 1
-25.857047 -32.998464 16.207935 44.946442 0.906146 1.201879 0.070784 -0.031767 125391.000000 0 0 1
-26.680617 33.740961 15.631135 45.767239 -0.901722 1.222246 0.067407 -0.031374 -749109.000000 0 0 1
-25.900957 33.039892 14.516635 44.421017 -0.905931 1.237884 0.071952 -0.035990 152689.000000 0 0 1
-24.746957 32.333924 14.918135 43.364101 -0.917540 1.219601 0.059314 -0.034652 66892.000000 0 0 1
-23.593157 33.136863 14.814235 43.291458 -0.952068 1.221542 0.060714 -0.035777 -624611.000000 0 0 1
-22.257257 32.367865 14.778435 41.969826 -0.968418 1.210961 0.073650 -0.037862 142767.000000 0 0 1
-22.045557 31.614392 13.607235 40.873380 -0.961867 1.231406 0.061388 -0.033879 933344.000000 0 0 1
-20.738157 30.986422 13.588335 39.684662 -0.980996 1.221318 0.062328 -0.032283 1058850.000000 0 0 1
-20.579857 29.980412 12.463035 38.440641 -0.969227 1.240614 0.058585 -0.033215 -51227.600000 0 0 1
-20.461157 30.590372 11.243935 38.481890 -0.981266 1.274283 0.043181 -0.023035 -142047.000000 0 0 1
-20.642457 29.680402 10.175935 37.557782 -0.963103 1.296426 0.054791 -0.023212 28147.800000 0 0 1
-20.206657 30.241432 8.817835 37.424690 -0.981748 1.332945 0.046518 -0.018975 737029.000000 0 0 1
-18.773657 30.305482 8.715235 36.699152 -1.016176 1.331028 0.049169 -0.027333 426441.000000 0 0 1
-18.373457 30.847672 7.470235 36.673795 -1.033604 1.365667 0.061583 -0.034196 19717.100000 0 0 1
-17.828957 29.856412 6.413335 35.361107 -1.032470 1.388420 0.070574 -0.033421 -230805.000000 0 0 1
-18.731857 28.869392 5.947635 34.924184 -0.995231 1.399661 0.055682 -0.022615 -103885.000000 0 0 1
-18.745357 27.719422 6.814035 34.149463 -0.976186 1.369912 0.038349 -0.019591 -61833.600000 0 0 1
-19.717957 26.608412 6.341335 33.719697 -0.933053 1.381610 0.039938 -0.011920 49510.200000 0 0 1
-19.373657 26.027022 5.104335 32.845071 -0.930910 1.414757 0.047698 -0.018772 -81354.800000 0 0 1
-20.430257 25.340722 4.480335 32.857587 -0.892273 1.434014 0.059124 -0.020311 -561377.000000 0 0 1
-20.061357 24.737392 3.107335 32.000815 -0.889400 1.473541 0.074389 -0.024131 -1125780.000000 0 0 1
-19.827357 25.536512 1.945735 32.388631 -0.910592 1.510686 0.078671 -0.026087 465436.000000 0 0 1
-18.591057 26.237752 1.864135 32.210589 -0.954348 1.512891 0.080263 -0.024047 257787.000000 0 0 1
-17.262657 25.434832 1.951035 30.801567 -0.974508 1.507412 0.073632 -0.027799 -697531.000000 0 0 1
-17.042057 24.340252 1.060635 29.732214 -0.959963 1.535116 0.110330 -0.034959 152867.000000 0 0 1
-16.924457 24.662902 -0.307965 29.913055 -0.969371 1.581092 0.107308 -0.040419 -487580.000000 0 0 1
-16.495157 23.436572 -1.167165 28.683190 -0.957510 1.611499 0.120082 -0.042734 -22950.100000 0 0 1
-17.479757 22.424502 -1.414865 28.467561 -0.908685 1.620518 0.125027 -0.051727 490615.000000 0 0 1
-17.054357 21.348902 -2.232965 27.415559 -0.896763 1.652335 0.130976 -0.043719 277663.000000 0 0 1
-16.094157 20.238202 -1.599665 25.906865 -0.898967 1.632582 0.135515 -0.046054 517516.000000 0 0 1
-16.700857 19.388902 -0.629965 25.597754 -0.859743 1.595409 0.147681 -0.047169 329042.000000 0 0 1
-15.733357 18.607402 0.072135 24.367584 -0.868896 1.567836 0.165191 -0.043692 52152.600000 0 1 0
-16.218457 17.415002 0.865135 23.813213 -0.820959 1.534458 0.148366 -0.042858 -105387.000000 0 1 0
-16.873057 16.386502 0.163835 23.521147 -0.770770 1.563831 0.135644 -0.043210 399170.000000 0 1 0
-17.350357 15.386302 1.082735 23.215200 -0.725474 1.524140 0.152739 -0.060496 -93827.800000 0 1 0
-17.894357 14.117002 0.364035 22.795401 -0.667941 1.554826 0.138372 -0.056274 820.324000 0 1 0
-19.101557 14.458602 -0.316265 23.958729 -0.647924 1.583997 0.185008 -0.062247 553798.000000 0 1 0
-19.810557 13.299502 -0.720865 23.871627 -0.591227 1.600998 0.193281 -0.055705 800351.000000 0 1 0
-21.150557 13.574902 -1.538465 25.179176 -0.570605 1.631935 0.197032 -0.048867 728036.000000 0 0 1
-21.974257 12.404402 -1.673865 25.289108 -0.513905 1.637034 0.179857 -0.054248 1353180.000000 0 0 1
-22.875057 12.087902 -0.549065 25.878313 -0.486133 1.592015 0.180926 -0.050245 237364.000000 0 0 1
-24.178957 12.898802 -0.655365 27.412234 -0.490065 1.594706 0.177467 -0.051966 -772330.000000 0 0 1
-24.028657 14.219202 -0.201265 27.921364 -0.534339 1.578005 0.191697 -0.060489 304636.000000 0 0 1
-25.255977 14.883002 -0.439565 29.318277 -0.532505 1.585790 0.166434 -0.046271 135784.000000 0 0 1
-25.456037 16.173802 0.353835 30.161679 -0.566016 1.559065 0.173559 -0.048057 -67440.600000 0 0 1
-25.510927 15.969002 1.770835 30.148836 -0.559294 1.512026 0.176984 -0.041836 -139647.000000 0 0 1
-25.433447 17.262202 2.443935 30.835315 -0.596301 1.491455 0.144971 -0.035774 116118.000000 0 0 1
-26.707917 18.110102 2.677635 32.379907 -0.595863 1.488007 0.152181 -0.033085 -405952.000000 0 0 1
-27.596057 17.647602 3.695935 32.964226 -0.568956 1.458441 0.154663 -0.033490 -181593.000000 0 0 1
-28.881087 18.143702 3.753735 34.313287 -0.560912 1.461181 0.149794 -0.035905 -512080.000000 0 0 1
-29.828507 18.095902 2.548835 34.981396 -0.545306 1.497869 0.117139 -0.038317 -232883.000000 0 0 1
-31.108117 18.708802 2.812235 36.409379 -0.541457 1.493480 0.101368 -0.032833 641263.000000 0 0 1
-31.778757 18.941302 1.614335 37.030642 -0.537500 1.527188 0.079402 -0.040563 53440.200000 0 0 1
-33.094717 19.724202 1.860935 38.571590 -0.537468 1.522531 0.093420 -0.041844 895.707000 0 0 1
-34.224491 19.040902 2.371835 39.236429 -0.507708 1.510310 0.093813 -0.030951 195609.000000 0 0 1
-35.356821 19.849502 2.551735 40.627809 -0.511557 1.507947 0.114657 -0.033858 -119418.000000 0 0 1
-35.378862 20.524902 3.934835 41.090369 -0.525693 1.474889 0.094589 -0.037183 -681228.000000 0 0 1
-34.268997 21.343802 4.203935 40.590579 -0.557038 1.467041 0.098912 -0.043185 158600.000000 0 0 1
-34.408986 22.018602 5.471535 41.215711 -0.569248 1.437650 0.099654 -0.037706 -160011.000000 0 0 1
-33.319207 23.071592 5.755235 40.933979 -0.605635 1.429731 0.129066 -0.044288 -307231.000000 0 0 1
-33.441447 24.229122 4.952735 41.592191 -0.626996 1.451435 0.107272 -0.036132 27038.400000 0 0 1
-32.466567 25.172042 5.272035 41.418644 -0.659511 1.443164 0.113336 -0.044349 -422979.000000 0 0 1
-32.991707 26.646492 5.275735 42.735485 -0.679402 1.447030 0.104928 -0.039558 -853507.000000 0 0 1
-33.958917 26.906532 6.219735 43.770477 -0.670044 1.428215 0.122085 -0.033753 -555666.000000 0 0 1
-34.589021 28.169562 6.008235 45.011371 -0.683465 1.436914 0.108459 -0.032970 466769.000000 0 0 1
-35.761410 28.321122 7.033335 46.156605 -0.669811 1.417821 0.094103 -0.024082 153662.000000 0 0 1
-35.136294 28.454342 8.319935 45.972058 -0.680705 1.388815 0.116700 -0.027453 940896.000000 0 0 1
-35.987564 29.038692 9.329035 47.173947 -0.678940 1.371726 0.106364 -0.021904 480856.000000 0 0 1
-37.160717 28.218482 9.925235 47.704422 -0.649467 1.361208 0.082559 -0.011170 -126009.000000 0 0 1
-36.704987 26.984132 10.335635 46.714289 -0.633937 1.347698 0.103854 -0.020367 -584846.000000 0 0 1
-37.573497 26.253092 11.129235 47.168341 -0.609862 1.332603 0.083665 -0.011091 -414606.000000 0 0 1
-36.879477 25.137502 11.981535 46.211979 -0.598278 1.308527 0.129150 -0.018399 -462561.000000 0 0 1
-36.039627 25.606902 12.957235 46.070143 -0.617752 1.285700 0.169758 -0.028663 -826846.000000 0 0 1
-35.348289 24.597102 13.583735 45.155696 -0.607935 1.265244 0.177863 -0.029761 -833185.000000 0 0 1
-34.218682 25.140452 14.434235 44.847605 -0.633637 1.243113 0.206306 -0.032638 -616993.000000 0 0 1
-34.539148 25.912132 15.577435 45.902591 -0.643645 1.224561 0.197576 -0.034528 -305502.000000 0 0 1
-33.424097 26.078382 16.422435 45.463707 -0.662567 1.201220 0.208922 -0.029853 15517.100000 0 0 1
-33.506327 27.346542 17.258235 46.565588 -0.684518 1.191118 0.204111 -0.036875 82189.600000 0 0 1
-33.337257 28.519632 16.490135 46.868611 -0.707672 1.211263 0.212740 -0.032059 33592.500000 0 0 1
-33.586717 29.631062 17.283535 48.008208 -0.722908 1.202515 0.171245 -0.025523 59747.400000 0 0 1
-33.377767 31.031542 16.599735 48.503434 -0.748987 1.221498 0.152228 -0.034318 1863830.000000 0 0 1
-31.944727 31.287242 16.414135 47.631722 -0.775001 1.218978 0.141293 -0.031312 1600280.000000 0 0 1
-31.786497 32.473584 15.623535 48.052158 -0.796090 1.239640 0.125391 -0.025692 -1120470.000000 0 0 1
-30.450497 32.599347 14.943335 47.045228 -0.819467 1.247559 0.137466 -0.032550 -917497.000000 0 0 1
-30.116197 31.763879 13.867035 45.915401 -0.812019 1.263993 0.130103 -0.029407 56885.000000 0 0 1
-29.783447 30.433572 14.259435 44.906431 -0.796194 1.247666 0.145380 -0.031812 -868054.000000 0 0 1
-30.739577 29.353832 13.845535 44.701990 -0.762342 1.255888 0.179393 -0.031356 -548990.000000 0 0 1
-30.613717 29.023302 12.490035 43.994917 -0.758736 1.282940 0.198390 -0.040298 -60693.200000 0 0 1
-31.470037 28.016942 12.008635 43.812322 -0.727415 1.293150 0.185204 -0.036967 -45526.200000 0 0 1
-31.570027 28.028752 10.469735 43.495895 -0.726049 1.327703 0.171708 -0.023950 403121.000000 0 0 1
-30.442137 27.447852 9.836835 42.152955 -0.733721 1.335264 0.149821 -0.016508 296507.000000 0 0 1
-30.670297 27.516682 8.414035 42.055094 -0.731253 1.369365 0.139835 -0.025613 109015.000000 0 0 1
-29.691897 26.633332 7.646535 40.612961 -0.731150 1.381388 0.150422 -0.035705 -102556.000000 0 0 1
-29.506907 26.893842 6.244535 40.409535 -0.739101 1.415643 0.141623 -0.044905 421277.000000 0 0 1
-28.476927 25.978302 5.803435 38.980603 -0.739546 1.421361 0.128165 -0.037269 635492.000000 0 0 1
-27.815137 26.422442 4.475235 38.624539 -0.759726 1.454670 0.131653 -0.034536 -90800.100000 0 0 1
-27.135447 27.681602 4.401735 39.012547 -0.795361 1.457727 0.103822 -0.029360 312748.000000 0 0 1
-26.905337 28.044212 3.068735 38.984511 -0.806121 1.491998 0.089545 -0.026803 227192.000000 0 0 1
-25.750397 29.066362 2.777535 38.931363 -0.845816 1.499391 0.072292 -0.020002 278708.000000 0 0 1
-24.470157 28.525012 3.008235 37.702976 -0.861763 1.490924 0.069942 -0.018202 -312539.000000 0 0 1
-23.541157 29.588692 2.905435 37.922531 -0.898736 1.494106 0.065178 -0.018228 318577.000000 0 0 1
-22.058857 29.193172 3.137535 36.724360 -0.923710 1.485257 0.055157 -0.021147 525483.000000 0 0 1
-21.156957 30.116232 2.543335 36.892720 -0.958388 1.501803 0.060235 -0.021256 -680423.000000 0 0 1
-19.847857 29.752852 2.856535 35.879373 -0.982500 1.491097 0.079474 -0.031530 -377870.000000 0 0 1
-18.737757 30.701462 2.385835 36.046852 -1.022822 1.504561 0.085646 -0.036061 -16463.900000 0 0 1
-18.685957 31.889281 3.114935 37.091698 -1.040762 1.486718 0.091863 -0.035109 -244121.000000 0 0 1
-17.606757 32.648073 2.652135 37.187745 -1.076213 1.499418 0.108715 -0.036690 -397514.000000 0 0 1
-17.298857 33.781392 3.651835 38.128320 -1.097530 1.474872 0.109240 -0.044560 204785.000000 0 0 1
-18.272557 -32.887954 3.637435 37.798608 1.063664 1.474415 0.110476 -0.047493 538812.000000 0 0 1
-17.951157 -31.880014 4.591835 36.873626 1.057963 1.445943 0.086278 -0.047249 -213475.000000 0 0 1
-19.166557 -30.974034 4.734235 36.730923 1.016672 1.441547 0.083155 -0.038997 -286176.000000 0 0 1
-19.397357 -30.152594 3.619935 36.035265 0.999141 1.470171 0.092976 -0.034958 -84394.900000 0 0 1
-20.334757 -29.191034 4.007935 35.800592 0.962349 1.458610 0.089255 -0.033975 -676439.000000 0 0 1
-20.756757 -28.210264 2.938535 35.146792 0.936453 1.487091 0.084484 -0.037976 -661964.000000 0 0 1
-19.742157 -27.372294 2.507935 33.842060 0.945953 1.496621 0.091142 -0.034910 -501803.000000 0 0 1
-20.168057 -26.413924 1.537635 33.268758 0.918687 1.524561 0.092642 -0.034498 -256333.000000 0 0 1
-19.297357 -25.153184 1.438135 31.735452 0.916382 1.525464 0.088531 -0.035825 503309.000000 0 0 1
-17.960957 -25.545204 1.120535 31.247544 0.957990 1.534929 0.103783 -0.035968 173873.000000 0 0 1
-17.005257 -24.504044 1.183735 29.850095 0.964124 1.531130 0.103695 -0.031498 276499.000000 0 0 1
-15.645157 -24.945444 0.579335 29.451346 1.010635 1.551124 0.100622 -0.036306 -122666.000000 0 0 1
-15.512357 -25.057144 -0.862465 29.482835 1.016466 1.600054 0.087932 -0.033922 14553.000000 0 0 1
-15.564557 -23.821544 -1.534565 28.496952 0.992048 1.624673 0.095544 -0.031376 -367953.000000 0 0 1
-15.539357 -23.948944 -3.064165 28.712587 0.995227 1.677718 0.051719 -0.017988 -300309.000000 0 0 1
-14.320757 -24.299344 -3.658365 28.441622 1.038246 1.699781 0.083661 -0.020461 -244437.000000 0 0 1
-14.358557 -23.945544 -5.063265 28.375939 1.030646 1.750192 0.071306 -0.015695 -460869.000000 0 0 1
-13.163557 -24.438544 -5.830365 28.363971 1.076717 1.777827 0.086467 -0.022856 -522152.000000 0 0 1
-13.149357 -25.846294 -6.052565 29.623809 1.100172 1.776559 0.051599 -0.015859 624504.000000 0 0 1
-11.885057 -26.236704 -6.624565 29.555103 1.145456 1.796860 0.073411 -0.017198 907705.000000 0 0 1
24.226143 13.315756 27.806295 39.209761 0.502570 0.782479 0.085305 -0.021774 -461216.000000 0 0 1
25.200543 12.364256 28.159395 39.760454 0.456127 0.783814 0.066000 -0.024132 172554.000000 0 0 1
24.790543 11.379456 29.089265 39.877918 0.430333 0.753267 0.066486 -0.017925 -456305.000000 0 0 1
24.730343 11.928556 30.555795 41.079641 0.449424 0.732031 0.100021 -0.030863 766464.000000 0 0 1
23.537843 12.693556 30.825415 40.808854 0.494578 0.714592 0.097022 -0.025473 783060.000000 0 0 1
23.594643 13.282856 32.098679 41.993650 0.512739 0.700733 0.131033 -0.022437 58873.400000 0 0 1
22.349643 14.156556 32.429242 41.851766 0.564626 0.684303 0.106550 -0.021183 856607.000000 0 0 1
21.135743 13.426856 32.685637 41.174639 0.565949 0.653716 0.083221 -0.004995 364619.000000 0 0 1
20.372443 14.198156 33.554314 41.743455 0.608662 0.637104 0.099026 -0.007112 -428940.000000 0 0 1
19.273143 13.377056 -33.373195 40.794237 0.606740 2.528871 0.084769 -0.001313 -141749.000000 0 0 1
18.170643 13.186956 33.441931 40.279409 0.627786 0.591242 0.067557 0.007273 -688154.000000 0 0 1
17.138843 12.522556 -33.549405 39.700339 0.631004 2.577485 0.057125 0.003379 -482385.000000 0 0 1
15.867943 12.452056 33.281432 38.916565 0.665361 0.544860 0.055007 0.006650 -297652.000000 0 0 1
16.008443 11.485056 32.219976 37.766435 0.622333 0.548825 0.045018 0.015750 307268.000000 0 0 1
14.785043 10.811256 31.906090 36.789663 0.631379 0.521130 0.075312 0.000061 306830.000000 0 0 1
15.034143 9.794856 30.798345 35.644111 0.577434 0.527533 0.094054 -0.000412 -92855.000000 0 0 1
15.464343 8.566056 31.188065 35.849945 0.505850 0.515673 0.073317 -0.003631 -95224.100000 0 0 1
15.806643 7.719856 30.137015 34.895355 0.454319 0.528351 0.075519 -0.018851 41684.400000 0 0 1
16.224943 6.279356 30.475765 35.092041 0.369266 0.518724 0.104899 -0.026940 214175.000000 0 0 1
15.129743 5.447356 30.824225 34.766588 0.345594 0.480844 0.110711 -0.019697 102337.000000 0 0 1
15.547843 4.261656 31.437165 35.329767 0.267529 0.473844 0.113826 -0.025074 60178.000000 0 0 1
14.361343 3.314656 31.648732 34.912424 0.226832 0.435835 0.086812 -0.020349 -179395.000000 0 0 1
14.836443 2.114856 32.202259 35.518701 0.141591 0.435573 0.090255 -0.028296 167829.000000 0 0 1
13.881343 1.284356 32.878796 35.712133 0.092261 0.401024 0.083350 -0.030104 110017.000000 0 0 1
14.490943 -0.028544 33.419092 36.425594 -0.001970 0.409144 0.078873 -0.032446 102030.000000 0 0 1
14.904943 -0.889944 32.336499 35.617390 -0.059637 0.432585 0.075250 -0.023586 65872.000000 0 0 1
15.372243 -2.144644 32.785259 36.273662 -0.138619 0.442157 0.103876 -0.021747 -118250.000000 0 0 1
15.539943 -3.186844 31.657018 35.409216 -0.202270 0.464528 0.102508 -0.023291 -1189560.000000 0 0 1
15.733243 -4.571244 31.876937 35.840902 -0.282762 0.474763 0.105457 -0.020716 2057870.000000 0 0 1
17.083743 -4.911244 32.388451 36.945721 -0.279932 0.501943 0.080465 -0.018186 3007110.000000 0 0 1
18.381343 -4.428844 31.609012 36.832296 -0.236436 0.539068 0.085182 -0.018474 26035.300000 0 0 1
18.547643 -3.036044 31.630870 36.793267 -0.162250 0.536130 0.092112 -0.021552 310237.000000 0 0 1
19.659743 -2.557844 30.849505 36.670697 -0.129379 0.571191 0.128748 -0.030343 611246.000000 0 0 1
19.607943 -1.039844 30.701295 36.443411 -0.052982 0.569005 0.138170 -0.039506 -180384.000000 0 0 1
20.093343 -0.425044 31.882962 37.688809 -0.021150 0.562447 0.109697 -0.025838 20646.300000 0 0 1
20.122143 1.005256 31.797199 37.642702 0.049916 0.564772 0.097436 -0.024057 -236270.000000 0 0 1
21.347643 1.662156 31.150685 37.800129 0.077705 0.602204 0.118730 -0.024212 -563735.000000 0 0 1
21.372043 1.436656 29.734245 36.646330 0.067120 0.624280 0.126551 -0.029307 852137.000000 0 0 1
22.310943 2.273956 28.965475 36.632605 0.101570 0.658841 0.110623 -0.020580 647051.000000 0 0 1
21.792743 3.685156 28.654055 36.187827 0.167515 0.657022 0.092901 -0.010382 -229230.000000 0 0 1
21.718143 4.428156 29.865095 37.191534 0.201135 0.638471 0.087533 -0.010413 183984.000000 0 0 1
20.917543 5.566256 29.654705 36.714143 0.260078 0.630524 0.080481 -0.009379 -116233.000000 0 0 1
20.598943 6.241756 30.990595 37.731855 0.294219 0.607044 0.088662 -0.004765 -368332.000000 0 0 1
19.712043 5.601856 31.854854 37.877132 0.276885 0.571658 0.081553 -0.000140 -60924.100000 0 0 1
19.663843 6.105856 33.186540 39.055020 0.301073 0.555308 0.073782 -0.005088 358843.000000 0 0 1
18.456643 5.604256 -33.610235 38.751816 0.294797 2.620589 0.080641 -0.007433 343522.000000 0 0 1
18.650043 4.247456 -33.292915 38.396395 0.223926 2.620116 0.081990 -0.015968 -325313.000000 0 0 1
17.561043 3.641256 -32.689725 37.286286 0.204451 2.639802 0.090550 -0.026550 -542367.000000 0 0 1
17.531743 2.137856 -32.903455 37.343939 0.121343 2.648963 0.102975 -0.039123 -433705.000000 0 0 1
18.525143 1.425456 -32.249365 37.218737 0.076796 2.618908 0.077002 -0.024825 -304105.000000 0 0 1
18.543243 0.111356 -32.727505 37.615872 0.006005 2.626090 0.084579 -0.023896 403197.000000 0 0 1
19.616743 -0.783444 -31.973875 37.520115 -0.039916 2.590933 0.088868 -0.027317 478840.000000 0 0 1
19.338143 -1.000444 -30.591685 36.205191 -0.051688 2.577274 0.086001 -0.031532 339057.000000 0 0 1
19.545643 0.138656 -29.786175 35.626782 0.007094 2.560861 0.087460 -0.033388 -431309.000000 0 0 1
18.993143 -0.098344 -28.386905 34.155022 -0.005178 2.551914 0.080126 -0.030431 94277.400000 0 0 1
17.592943 -0.327244 -28.271295 33.299923 -0.018599 2.584867 0.097991 -0.039428 396405.000000 0 0 1
17.051443 -0.509944 -26.991335 31.930298 -0.029897 2.577961 0.092973 -0.034733 -186267.000000 0 0 1
17.591543 -1.652144 -26.102315 31.520197 -0.093642 2.546531 0.109858 -0.030474 -1923590.000000 0 0 1
18.778343 -1.251244 -25.537885 31.723419 -0.066534 2.506500 0.114995 -0.028610 -1175880.000000 0 0 1
19.579043 -2.305844 -25.089525 31.908308 -0.117231 2.475595 0.090732 -0.025524 -113008.000000 0 0 1
20.400043 -2.980844 -26.187115 33.328849 -0.145093 2.474654 0.099793 -0.041467 -1826410.000000 0 0 1
21.428943 -2.247344 -26.680965 34.294665 -0.104492 2.462259 0.102576 -0.030066 -1174460.000000 0 0 1
21.782043 -2.568444 -28.033225 35.593763 -0.117374 2.477681 0.103714 -0.033735 186293.000000 0 0 1
23.123443 -1.912444 -28.441605 36.705258 -0.082518 2.457297 0.074949 -0.031875 319950.000000 0 0 1
24.264743 -2.531244 -27.889425 37.054082 -0.103942 2.422901 0.066256 -0.037226 111437.000000 0 0 1
25.473743 -1.843444 -28.180235 38.032033 -0.072241 2.405296 0.056608 -0.038641 513046.000000 0 0 1
26.764243 -2.634844 -27.870155 38.729997 -0.098130 2.374024 0.089638 -0.031939 -165546.000000 0 0 1
27.076043 -3.802744 -28.632015 39.589964 -0.139534 2.379241 0.115692 -0.043975 1040550.000000 0 0 1
28.453143 -4.219444 -28.513905 40.502195 -0.147222 2.351823 0.116169 -0.041544 1053100.000000 0 0 1
28.682743 -5.596644 -27.824535 40.351294 -0.192701 2.331674 0.108554 -0.028101 -64318.800000 0 0 1
28.460043 -5.511244 -26.430445 39.229023 -0.191281 2.310064 0.087148 -0.012834 271359.000000 0 0 1
28.765843 -6.738144 -25.744705 39.187576 -0.230093 2.287577 0.060055 -0.009182 5291.460000 0 0 1
28.652543 -6.531244 -24.221665 38.082994 -0.224117 2.260130 0.038633 -0.006811 59946.700000 0 0 1
29.869143 -6.057044 -23.668465 38.588207 -0.200073 2.231104 0.035668 0.000613 406856.000000 0 0 1
29.800843 -5.762344 -22.293965 37.660533 -0.191005 2.204299 0.039706 -0.006481 -253742.000000 0 0 1
31.195143 -5.343444 -21.794865 38.427926 -0.169645 2.173852 0.049186 -0.006434 -306323.000000 0 0 1
31.632443 -4.204044 -22.508965 39.050466 -0.132129 2.185121 0.077209 -0.017670 -114200.000000 0 0 1
32.870343 -3.815044 -21.955265 39.712059 -0.115546 2.156591 0.099562 -0.013959 -74650.200000 0 0 1
33.403443 -2.467144 -22.442465 40.317999 -0.073725 2.161128 0.110547 -0.023477 -1866.850000 0 0 1
32.560443 -1.345744 -22.247965 39.458401 -0.041307 2.169816 0.073699 -0.016925 142022.000000 0 0 1
33.203743 -0.144744 -22.629665 40.182225 -0.004359 2.169021 0.092498 -0.015780 295455.000000 0 0 1
32.261743 1.075956 -22.411465 39.296965 0.033338 2.177680 0.075622 -0.006712 411553.000000 0 0 1
31.180643 1.092956 -23.324665 38.954679 0.035038 2.212754 0.065316 -0.004222 643465.000000 0 0 1
30.046843 1.814356 -22.836265 37.783590 0.060311 2.219804 0.058762 -0.002898 -558639.000000 0 0 1
28.950243 1.942556 -23.841465 37.554035 0.066999 2.258621 0.056912 -0.000791 -875521.000000 0 0 1
28.103943 2.988656 -23.357465 36.665172 0.105945 2.261459 0.056864 0.000028 -539678.000000 0 0 1
27.162343 3.373256 -24.281265 36.588954 0.123556 2.296448 0.083477 -0.012084 -1059760.000000 0 0 1
26.136543 4.264356 -23.625565 35.489025 0.161732 2.299247 0.085617 -0.006988 -565762.000000 0 0 1
26.695543 5.507456 -23.243665 35.822507 0.203452 2.276877 0.067575 0.002536 145542.000000 0 0 1
25.685943 6.397356 -22.881565 34.989425 0.244094 2.283599 0.117573 -0.023856 -414606.000000 0 0 1
26.298643 7.743856 -22.523065 35.480620 0.286365 2.258545 0.140200 -0.012576 118331.000000 0 0 1
26.893043 8.420856 -23.636165 36.780632 0.303453 2.268716 0.138370 -0.005514 212589.000000 0 0 1
27.662243 9.528356 -23.247365 37.368827 0.331725 2.242226 0.164689 -0.011860 -91126.500000 0 0 1
28.709643 10.003356 -24.309165 38.926164 0.335277 2.245280 0.202242 -0.016768 -491800.000000 0 0 1
28.284143 10.561756 -25.540795 39.545867 0.357381 2.272936 0.218652 -0.035165 -39363.800000 0 0 1
27.506643 11.727156 -25.591545 39.358211 0.403004 2.278672 0.230560 -0.035462 6275.700000 0 0 1
27.314043 12.258656 -27.040775 40.342720 0.421859 2.305378 0.227087 -0.033770 -430504.000000 0 0 1
26.597743 11.477556 -27.952035 40.255316 0.407383 2.338339 0.190802 -0.031781 355375.000000 0 0 1
27.287443 10.308956 -28.433895 40.735310 0.361216 2.343419 0.172283 -0.034190 801838.000000 0 0 1
28.457743 10.514156 -29.478385 42.300896 0.353910 2.341826 0.166609 -0.031883 767865.000000 0 0 1
29.727543 10.952556 -28.964885 42.926097 0.352999 2.311438 0.155309 -0.039522 1376940.000000 0 0 1
30.759943 11.096056 -29.948395 44.341887 0.346202 2.312300 0.177560 -0.043576 713703.000000 0 0 1
31.353143 9.830956 -30.635425 44.924342 0.303846 2.321200 0.121836 -0.029890 -372156.000000 0 0 1
30.416143 9.219856 -31.536965 44.774185 0.294320 2.352312 0.116825 -0.024993 538030.000000 0 0 1
30.836643 7.926256 -31.851015 45.035666 0.251594 2.356383 0.094780 -0.013372 -545201.000000 0 0 1
29.765243 7.197256 -32.653515 44.766307 0.237247 2.388272 0.105620 -0.025634 184368.000000 0 0 1
28.619043 6.970356 -31.830805 43.368602 0.238905 2.394930 0.113621 -0.033783 -367025.000000 0 0 1
27.551343 6.486056 -32.560325 43.143020 0.231207 2.426003 0.078709 -0.030825 -32525.100000 0 0 1
26.208943 6.463256 -31.747145 41.672096 0.241781 2.436933 0.101404 -0.026599 101518.000000 0 0 1
25.704043 7.789956 -31.600045 41.472208 0.294265 2.437126 0.110220 -0.019137 133326.000000 0 0 1
24.678543 7.985556 -30.643975 40.147886 0.312950 2.439167 0.117325 -0.025488 838084.000000 0 0 1
23.229943 7.721556 -31.193055 39.651726 0.320907 2.476202 0.129070 -0.025594 368829.000000 0 0 1
22.864143 8.644056 -32.215755 40.439382 0.361452 2.492517 0.135428 -0.017049 -550653.000000 0 0 1
21.496343 8.533756 -32.476915 39.870638 0.377906 2.522762 0.111478 -0.013559 -273306.000000 0 0 1
20.901443 9.660656 -33.370445 40.543621 0.432953 2.537601 0.105118 -0.002059 -89595.400000 0 0 1
21.532843 9.606156 33.042424 40.592405 0.419620 0.619782 0.078776 -0.000253 -264014.000000 0 0 1
21.045743 10.531756 32.077279 39.784331 0.463985 0.632962 0.057679 -0.004256 -448811.000000 0 0 1
19.995943 10.061556 31.071635 38.295158 0.466188 0.624300 0.065361 -0.007517 -171089.000000 0 0 1
20.333343 9.133156 30.044425 37.410250 0.422165 0.638305 0.064922 -0.007152 -247619.000000 0 0 1
21.253843 9.457956 29.022285 37.195050 0.418688 0.675695 0.070214 -0.008547 -739009.000000 0 0 1
20.726343 10.225556 27.787655 36.142731 0.458322 0.693785 0.071738 -0.011303 -200588.000000 0 0 1
19.801643 9.525056 26.973515 34.790836 0.448352 0.683598 0.081974 -0.012895 122880.000000 0 0 1
18.484743 9.774956 27.431885 34.492663 0.486431 0.651300 0.099310 -0.032062 -1241870.000000 0 0 1
17.534043 8.797756 26.850275 33.253277 0.465049 0.630984 0.123062 -0.027476 -1168120.000000 0 0 1
17.229643 9.001756 25.448755 32.023918 0.481452 0.652317 0.128487 -0.031138 -398945.000000 0 0 1
15.936043 8.657356 25.082985 30.952599 0.497651 0.626017 0.145135 -0.028542 -399210.000000 0 0 1
15.635543 7.109656 24.942685 30.284566 0.426765 0.603049 0.151158 -0.021669 -82066.200000 0 0 1
15.838843 6.419756 26.148805 31.238473 0.385082 0.578890 0.118540 -0.025851 -90538.000000 0 0 1
15.622243 5.044756 25.922555 30.683593 0.312351 0.564541 0.127976 -0.026877 107190.000000 0 0 1
16.138443 4.234656 27.160135 31.875611 0.256611 0.550876 0.107520 -0.030945 1089240.000000 0 0 1
17.573043 4.243756 27.369345 32.800950 0.236956 0.583740 0.125613 -0.020318 1244200.000000 0 0 1
17.949843 3.484556 28.527625 33.884574 0.191742 0.569991 0.123974 -0.018816 -671450.000000 0 0 1
18.241743 1.981556 28.225745 33.665716 0.108203 0.576433 0.127233 -0.020636 31037.900000 0 0 1
17.217243 1.002756 27.975885 32.864709 0.058176 0.552445 0.121637 -0.040813 984616.000000 0 0 1
16.156043 0.846556 28.937865 33.153196 0.052351 0.509778 0.095660 -0.036430 456476.000000 0 0 1
15.586143 -0.575144 29.050605 32.972659 -0.036884 0.492716 0.083846 -0.031133 -368296.000000 0 0 1
14.935543 -1.189144 27.937295 31.701371 -0.079451 0.492265 0.080976 -0.032354 139643.000000 0 0 1
15.626943 -1.659144 26.786705 31.056105 -0.105776 0.530555 0.100051 -0.030876 -360547.000000 0 0 1
16.816643 -2.682844 26.952365 31.881454 -0.158202 0.563495 0.105083 -0.015934 1405220.000000 0 0 1
18.097243 -2.237044 27.409815 32.921308 -0.122989 0.587036 0.118411 -0.036225 1012850.000000 0 0 1
18.792143 -1.262244 26.606185 32.597959 -0.067068 0.616008 0.114951 -0.036676 -341245.000000 0 0 1
20.240143 -0.916444 27.017535 33.770556 -0.045248 0.643447 0.159494 -0.029762 -389256.000000 0 0 1
21.202143 -1.700244 26.438405 33.932447 -0.080021 0.677491 0.141058 -0.035976 291283.000000 0 0 1
22.522443 -1.235844 26.843545 35.062282 -0.054817 0.698829 0.134458 -0.034961 2288720.000000 0 0 1
23.748543 -1.732044 25.933705 35.207248 -0.072804 0.742765 0.130672 -0.025360 882388.000000 0 0 1
23.850343 -1.400444 24.595935 34.289358 -0.058651 0.770869 0.146087 -0.015827 -26673.400000 0 0 1
22.986443 -2.079044 23.701555 33.082664 -0.090201 0.772119 0.157847 -0.014840 87730.600000 0 0 1
23.004843 -1.454844 22.305025 32.075746 -0.063157 0.801839 0.149374 -0.032031 299755.000000 0 0 1
22.199343 -0.277544 22.255625 31.435659 -0.012502 0.784171 0.129862 -0.024701 191072.000000 0 0 1
22.331843 0.351656 21.018625 30.669487 0.015746 0.815744 0.121600 -0.017253 74154.600000 0 0 1
-31.390757 -26.947290 -10.217865 42.613857 0.709377 1.812933 0.054987 0.007223 84295.700000 0 0 1
-31.447767 -25.906290 -9.276065 41.786880 0.689078 1.794646 0.064517 0.011185 587695.000000 0 0 1
-32.337167 -26.159890 -8.124665 42.379741 0.680188 1.763702 0.065812 -0.003377 214418.000000 0 0 1
-32.649237 -24.942990 -7.216065 41.715669 0.652381 1.744653 0.092630 -0.006598 469442.000000 0 0 1
-31.547137 -24.224390 -6.628565 40.323452 0.654846 1.735931 0.120738 -0.007106 74586.200000 0 0 1
-30.728367 -24.869090 -5.671865 39.935877 0.680398 1.713302 0.127475 -0.009277 147364.000000 0 0 1
-29.421657 -24.103190 -5.382865 38.413187 0.686359 1.711390 0.134709 -0.004345 -248967.000000 0 0 1
-29.517217 -22.971590 -4.572465 37.681129 0.661333 1.692442 0.138228 -0.010066 107371.000000 0 0 1
-30.194667 -21.794490 -5.011765 37.574400 0.625207 1.704577 0.146980 -0.010708 11471.400000 0 0 1
-29.962027 -20.684490 -3.947565 36.621776 0.604225 1.678799 0.143869 -0.019282 -238591.000000 0 0 1
-28.818467 -19.909990 -4.156165 35.273013 0.604576 1.688899 0.163886 -0.021722 -171794.000000 0 0 1
-28.480827 -19.009490 -3.131065 34.384907 0.588544 1.661982 0.188284 -0.019220 -114174.000000 0 0 1
-27.386927 -18.043590 -3.599565 32.993511 0.582564 1.680113 0.170664 -0.014569 -145246.000000 0 0 1
-27.817987 -17.122990 -4.566365 32.983161 0.551765 1.709688 0.164738 -0.024055 97805.200000 0 0 1
-26.819187 -16.167490 -4.859265 31.690204 0.542500 1.724740 0.141560 -0.023966 28255.300000 0 0 1
-27.321867 -15.060890 -5.816265 31.735529 0.503794 1.755111 0.159103 -0.040170 382131.000000 0 0 1
-28.474047 -14.412690 -5.287965 32.349027 0.468571 1.734999 0.149350 -0.023595 252433.000000 0 0 1
-28.780137 -13.245490 -6.070965 32.258269 0.431329 1.760124 0.182205 -0.042875 -264684.000000 0 0 1
-30.084197 -12.505990 -5.722765 33.078826 0.393967 1.744675 0.174503 -0.029285 495078.000000 0 0 1
-31.207187 -13.204190 -6.310265 34.468226 0.400272 1.754910 0.179786 -0.030057 278766.000000 0 0 1
-32.431857 -12.595790 -5.961665 35.299019 0.370447 1.740500 0.168747 -0.030028 83986.100000 0 0 1
-33.550017 -13.266290 -6.811865 36.715114 0.376550 1.757411 0.119766 -0.021411 -17048.100000 0 0 1
-34.295891 -14.322290 -6.232765 37.685322 0.395594 1.736949 0.102966 -0.016346 342274.000000 0 0 1
-34.734493 -15.246890 -7.230165 38.616421 0.413631 1.759138 0.105336 -0.028108 -468332.000000 0 0 1
-35.707106 -16.349790 -6.853465 39.865813 0.429393 1.743568 0.100793 -0.023202 189727.000000 0 0 1
-37.075887 -16.040490 -6.632465 40.937859 0.408323 1.733527 0.079295 -0.026647 532611.000000 0 0 1
-37.409857 -15.476090 -5.374965 40.839895 0.392252 1.702790 0.105356 -0.021654 154834.000000 0 0 1
36.434838 -15.127490 -5.242965 39.797325 -0.393535 1.702922 0.141849 -0.029940 -595.849000 0 0 1
35.980718 -14.072290 -6.101165 39.113497 -0.372816 1.727422 0.147684 -0.044107 189581.000000 0 0 1
34.618438 -14.108290 -6.479965 37.940349 -0.386987 1.742431 0.148930 -0.028926 308871.000000 0 0 1
33.628348 -13.612290 -5.396065 36.678028 -0.384626 1.718452 0.189955 -0.040450 -561830.000000 0 0 1
33.426948 -14.459690 -4.281665 36.671190 -0.408270 1.687822 0.191387 -0.038438 -24889.700000 0 0 1
32.549348 -13.862890 -3.367865 35.538462 -0.402636 1.665706 0.223769 -0.035831 -637025.000000 0 0 1
32.459548 -14.907590 -2.168665 35.784936 -0.430533 1.631436 0.234779 -0.040042 -11247.700000 0 0 1
33.577858 -15.119290 -1.311465 36.848140 -0.423083 1.606395 0.260198 -0.038335 -199958.000000 0 0 1
34.732598 -15.684790 -1.836365 38.154138 -0.424173 1.618945 0.221168 -0.038803 -809946.000000 0 0 1
34.713648 -17.158490 -2.280765 38.789857 -0.459066 1.629628 0.201218 -0.044786 -1016540.000000 0 0 1
34.781378 -18.002290 -1.147765 39.180915 -0.477616 1.600095 0.179068 -0.049101 284098.000000 0 0 1
34.709518 -19.435190 -1.445165 39.806605 -0.510441 1.607109 0.148531 -0.041711 -238875.000000 0 0 1
36.029358 -19.967590 -2.014565 41.241700 -0.506065 1.619664 0.129631 -0.049714 -385326.000000 0 0 1
36.402308 -19.384490 -3.213765 41.366832 -0.489314 1.648564 0.089879 -0.042882 152837.000000 0 0 1
37.291518 -20.161090 -4.037065 42.584326 -0.495625 1.665741 0.089270 -0.029790 217375.000000 0 0 1
37.426928 -19.400890 -5.357065 42.495501 -0.478233 1.697195 0.117728 -0.035209 3932.450000 0 0 1
36.201868 -19.410190 -6.068565 41.522984 -0.492160 1.717471 0.095788 -0.042722 270530.000000 0 0 1
36.160928 -18.596890 -7.250665 41.304106 -0.475007 1.747254 0.091499 -0.039462 -144162.000000 0 0 1
34.914728 -18.805490 -8.136065 40.483086 -0.494058 1.773149 0.099053 -0.041785 -16654.400000 0 0 1
35.081218 -19.844690 -9.102965 41.320305 -0.514801 1.792921 0.096730 -0.038990 -284864.000000 0 0 1
33.940538 -19.879890 -9.889065 40.558153 -0.529859 1.817104 0.085560 -0.048750 -963553.000000 0 0 1
33.792538 -21.163690 -10.676765 41.277485 -0.559521 1.832429 0.091554 -0.044283 -348212.000000 0 0 1
33.345938 -22.198590 -9.912765 41.267323 -0.587337 1.813377 0.085064 -0.046173 -81322.000000 0 0 1
33.292368 -23.407590 -10.630365 42.063068 -0.612798 1.826291 0.071311 -0.037079 -217704.000000 0 0 1
32.661538 -24.611690 -9.921165 42.082548 -0.645761 1.808792 0.085472 -0.031259 65268.700000 0 0 1
31.330038 -24.405290 -9.521165 40.839222 -0.661788 1.806099 0.107860 -0.042246 252097.000000 0 0 1
30.534358 -25.531690 -9.138265 40.837754 -0.696406 1.796477 0.074763 -0.033665 54126.800000 0 0 1
29.194158 -25.165490 -8.507665 39.471270 -0.711422 1.788042 0.067152 -0.039269 23931.800000 0 0 1
28.309758 -24.597090 -9.467765 38.679424 -0.715339 1.818084 0.082175 -0.036186 926487.000000 0 0 1
26.999158 -24.296490 -8.941765 37.406271 -0.732759 1.812178 0.095773 -0.041527 560825.000000 0 0 1
25.963758 -23.789690 -9.907465 36.581744 -0.741729 1.845052 0.159221 -0.044450 -897157.000000 0 0 1
25.244758 -24.780490 -10.602465 36.929430 -0.776118 1.861995 0.130207 -0.041660 93230.600000 0 0 1
24.534458 -24.242890 -11.666765 36.411135 -0.779421 1.896967 0.137036 -0.034250 -401421.000000 0 0 1
23.678458 -25.288390 -12.358265 36.781772 -0.818264 1.913451 0.136951 -0.040909 100367.000000 0 0 1
24.450258 -26.143290 -13.214565 38.156408 -0.818849 1.924448 0.142043 -0.036512 558161.000000 0 0 1
23.704458 -27.312490 -13.474465 38.593195 -0.856003 1.927451 0.141039 -0.019407 56501.700000 0 0 1
24.531858 -28.530090 -14.000565 40.147153 -0.860606 1.927013 0.110505 -0.025487 -213001.000000 0 0 1
24.758458 -28.484090 -15.412765 40.766138 -0.855259 1.958515 0.100502 -0.019615 391227.000000 0 0 1
25.083058 -29.766790 -15.908665 42.051245 -0.870583 1.958773 0.078369 -0.005750 -183171.000000 0 0 1
25.216858 -29.830690 -17.431865 42.774174 -0.869018 1.990547 0.065174 -0.004368 -392757.000000 0 0 1
23.953558 -29.873490 -18.024865 42.321320 -0.894939 2.010758 0.071776 -0.004532 -278913.000000 0 0 1
24.039758 -29.787090 -19.411965 42.918587 -0.891770 2.040136 0.043078 0.004683 -76339.200000 0 0 1
22.623158 -29.559190 -19.971965 42.242542 -0.917543 2.063254 0.042871 0.001238 65268.400000 0 0 1
22.627958 -29.363890 -21.346565 42.777779 -0.914238 2.093253 0.032508 0.013534 1581120.000000 0 0 1
21.259358 -29.330890 -21.868465 42.314196 -0.943612 2.113919 0.055345 -0.010422 1235980.000000 0 0 1
21.206758 -29.548190 -23.361665 43.227185 -0.948289 2.141755 0.048768 -0.004592 -738440.000000 0 0 1
21.785858 -28.564090 -24.146765 43.285068 -0.919216 2.162595 0.050508 -0.002464 35966.500000 0 0 1
21.521558 -28.822190 -25.522145 44.105283 -0.929410 2.187886 0.037314 -0.005828 -531702.000000 0 0 1
21.772758 -27.616190 -26.441745 43.998555 -0.903165 2.215509 0.031792 -0.012262 -132936.000000 0 0 1
20.796458 -26.607590 -26.413125 42.873182 -0.907377 2.234547 0.060127 -0.028196 196838.000000 0 0 1
19.716358 -26.833290 -27.316445 43.069112 -0.937112 2.257830 0.083910 -0.032322 240330.000000 0 0 1
18.830258 -25.604190 -27.690755 42.153660 -0.936681 2.287497 0.088470 -0.033256 -210171.000000 0 0 1
17.953158 -25.272290 -26.645815 40.877916 -0.953132 2.280803 0.076314 -0.019674 -345885.000000 0 0 1
17.442258 -23.981490 -26.937085 40.061837 -0.941968 2.308226 0.072366 -0.008671 99903.800000 0 0 1
16.283058 -23.636490 -25.956805 38.698545 -0.967562 2.306007 0.077222 -0.013801 282467.000000 0 0 1
15.057558 -24.326390 -26.220415 38.807389 -1.016537 2.312649 0.111940 -0.021886 994871.000000 0 0 1
13.914158 -23.894990 -25.447505 37.578583 -1.043490 2.314721 0.079632 -0.016863 883828.000000 0 0 1
13.914758 -24.265690 -23.944565 36.821005 -1.050140 2.278771 0.074207 -0.018957 -287436.000000 0 0 1
14.933758 -23.555990 -23.250865 36.311218 -1.005774 2.265714 0.044683 -0.008356 28251.200000 0 0 1
15.247758 -24.057190 -21.953365 35.960989 -1.005885 2.227459 0.046527 -0.019742 674506.000000 0 0 1
16.381158 -23.268090 -21.196965 35.483203 -0.957379 2.211027 0.048612 -0.014532 723996.000000 0 0 1
16.018558 -21.967890 -20.740565 34.195810 -0.940753 2.222477 0.023054 -0.011654 275812.000000 0 0 1
17.234958 -21.291790 -20.473165 34.198459 -0.890311 2.212620 0.040889 -0.009351 -64892.200000 0 0 1
17.082058 -19.852090 -19.891765 32.887452 -0.860257 2.220366 0.054292 0.002368 195343.000000 0 0 1
16.426858 -19.753290 -18.625565 31.732410 -0.877081 2.198092 0.036178 -0.004554 1325500.000000 0 0 1
14.985858 -19.839890 -18.660265 31.087018 -0.923887 2.214621 0.019244 -0.004297 855762.000000 0 0 1
14.243058 -19.663490 -17.327165 29.828647 -0.943921 2.190618 0.024019 -0.006091 -77449.700000 0 0 1
14.284958 -18.350090 -16.774565 28.673540 -0.909323 2.195700 0.054544 -0.018051 184466.000000 0 0 1
13.838358 -18.456090 -15.415165 27.744454 -0.927424 2.159896 0.052028 -0.021614 -179206.000000 0 0 1
13.670358 -17.131690 -14.580965 26.324476 -0.897302 2.157830 0.075403 -0.025922 -307800.000000 0 0 1
12.481358 -16.487190 -14.969465 25.528349 -0.922809 2.197386 0.073761 -0.035258 4744.540000 0 0 1
12.443758 -15.172890 -14.428865 24.356844 -0.883900 2.204824 0.073262 -0.044248 275447.000000 0 1 0
11.008458 -14.621890 -14.195665 23.162529 -0.925458 2.230486 0.074061 -0.032361 175172.000000 0 1 0
10.259158 -14.265190 -15.308465 23.304400 -0.947317 2.287485 0.100355 -0.023085 -417152.000000 0 1 0
9.001158 -13.733290 -14.973965 22.222595 -0.990616 2.310159 0.097369 -0.024708 -262566.000000 0 1 0
8.319358 -13.314390 -16.282065 22.618363 -1.012312 2.374398 0.077745 -0.007624 -229923.000000 0 1 0
8.785458 -12.131290 -16.967465 22.632882 -0.944014 2.418378 0.074948 0.001084 644437.000000 0 1 0
9.914558 -12.368390 -17.827565 23.855767 -0.895078 2.414795 0.104240 -0.002881 466927.000000 0 1 0
10.118258 -11.151490 -18.750865 24.048489 -0.833938 2.465000 0.112402 -0.010484 75881.200000 0 1 0
9.197758 -11.252290 -19.834765 24.589239 -0.885528 2.509248 0.110332 -0.015100 505869.000000 0 1 0
9.288758 -10.015490 -20.495765 24.630620 -0.823027 2.553725 0.102807 -0.029542 110878.000000 0 1 0
8.982258 -10.134990 -21.964465 25.803812 -0.845623 2.589083 0.110089 -0.023979 -246852.000000 0 0 1
10.188158 -10.417090 -22.593765 26.884802 -0.796508 2.568802 0.130780 -0.026939 -437037.000000 0 0 1
9.946158 -10.422290 -23.975065 27.970591 -0.808770 2.600512 0.122716 -0.017686 389890.000000 0 0 1
11.165758 -11.014890 -24.722465 29.278016 -0.778596 2.576247 0.122655 -0.010869 261161.000000 0 0 1
11.360658 -12.382590 -24.431865 29.653147 -0.828413 2.539093 0.110689 -0.013236 -299627.000000 0 0 1
12.489958 -12.874590 -25.106625 30.856065 -0.800561 2.521232 0.093395 -0.020721 -137424.000000 0 0 1
12.688758 -14.402290 -25.036765 31.547902 -0.848565 2.487518 0.073792 -0.014555 -341722.000000 0 0 1
11.845458 -15.179090 -25.842245 32.226407 -0.908134 2.501259 0.059593 -0.006983 -329700.000000 0 0 1
11.843758 -16.505390 -25.364075 32.496751 -0.948376 2.466279 0.040199 -0.006064 294521.000000 0 0 1
10.520558 -17.267990 -25.630275 32.646234 -1.023602 2.473640 0.032780 -0.002671 366307.000000 0 0 1
10.517958 -17.620790 -26.984435 33.901024 -1.032655 2.491416 0.041162 -0.017974 -16753.400000 0 0 1
9.338758 -18.353390 -27.248035 34.154279 -1.100110 2.494422 0.047464 -0.015111 -31989.500000 0 0 1
9.442658 -19.349990 -28.460895 35.687651 -1.116800 2.493936 0.062663 -0.021107 -279933.000000 0 0 1
10.299158 -20.457390 -28.237275 36.358234 -1.104397 2.460111 0.049613 -0.024262 22231.000000 0 0 1
10.144958 -21.484790 -29.187205 37.635214 -1.129641 2.458349 0.064897 -0.021458 280033.000000 0 0 1
11.170158 -22.654290 -28.972165 38.436645 -1.112708 2.424568 0.062282 -0.014172 375072.000000 0 0 1
11.078158 -23.602190 -30.023455 39.764266 -1.131952 2.426505 0.075952 -0.011748 -51203.100000 0 0 1
11.729658 -24.777990 -29.588445 40.336209 -1.128662 2.394320 0.099318 -0.020485 -223248.000000 0 0 1
11.135858 -25.766190 -28.582595 40.060812 -1.162853 2.365249 0.109815 -0.024989 -52087.000000 0 0 1
10.537958 -25.120390 -27.473125 38.689212 -1.173595 2.360433 0.108557 -0.021248 -120295.000000 0 0 1
10.227358 -25.970890 -26.355765 38.388961 -1.195645 2.327523 0.105046 -0.017271 264070.000000 0 0 1
9.480658 -25.231390 -25.170585 36.879049 -1.211370 2.321998 0.083290 -0.011479 -244660.000000 0 0 1
10.094558 -24.147490 -24.517765 35.862546 -1.174838 2.323561 0.074113 -0.010650 -308446.000000 0 0 1
9.778858 -22.897890 -25.084005 35.343270 -1.167179 2.359904 0.048518 0.001418 -1101010.000000 0 0 1
10.887858 -21.920490 -24.854965 34.882985 -1.109794 2.363885 0.046450 0.005903 -802808.000000 0 0 1
11.113458 -21.732690 -23.465765 33.859429 -1.098094 2.336487 0.042122 -0.000534 166514.000000 0 0 1
12.287158 -20.943990 -23.318165 33.665439 -1.040238 2.335945 0.040620 -0.007343 67953.200000 0 0 1
12.593158 -20.539690 -21.880065 32.545411 -1.020790 2.308099 0.023578 0.003105 818165.000000 0 0 1
11.527958 -19.806790 -21.196265 31.216733 -1.043702 2.317200 0.022914 0.006993 695210.000000 0 0 1
11.259958 -18.496690 -21.605765 30.589594 -1.023964 2.355070 0.033387 0.006605 -416719.000000 0 0 1
12.383258 -17.474790 -21.413065 30.285850 -0.954298 2.356089 0.039686 -0.000028 -554423.000000 0 0 1
13.435058 -17.616690 -22.309165 31.441174 -0.919259 2.359659 0.031930 0.008116 -618907.000000 0 0 1
14.466858 -16.728390 -21.949965 31.159749 -0.857768 2.352421 0.050069 0.004689 107281.000000 0 0 1
15.735958 -16.646390 -22.829065 32.340206 -0.813506 2.354494 0.039601 0.001792 49632.800000 0 0 1
16.752658 -17.558190 -22.450765 33.060225 -0.808871 2.317314 0.044684 0.011455 255259.000000 0 0 1
17.975958 -17.066890 -22.960865 33.787796 -0.759462 2.317960 0.078881 -0.002409 -819096.000000 0 0 1
19.228458 -17.389990 -22.216265 34.142463 -0.735234 2.279293 0.088465 -0.006085 -824609.000000 0 0 1
19.594558 -18.742590 -22.288265 35.099831 -0.763179 2.258800 0.077522 -0.009489 -560478.000000 0 0 1
20.925458 -19.012390 -21.983865 35.813909 -0.737534 2.231707 0.055997 -0.010526 -515394.000000 0 0 1
21.181158 -20.441890 -21.500965 36.452762 -0.767639 2.201646 0.080122 -0.012724 -23430.000000 0 0 1
20.550158 -20.793190 -20.255465 35.566130 -0.791276 2.176713 0.071153 -0.008160 316504.000000 0 0 1
21.175158 -21.914090 -19.698665 36.285701 -0.802545 2.144655 0.087397 -0.008183 -118764.000000 0 0 1
-16.929957 13.286556 29.368475 36.409660 -0.665401 0.632398 0.071912 -0.025830 -298674.000000 0 0 1
-17.909157 14.045256 28.667645 36.603838 -0.665063 0.671022 0.081239 -0.031792 195528.000000 0 0 1
-18.180357 13.470856 27.400625 35.535666 -0.637688 0.690270 0.071291 -0.031876 162393.000000 0 0 1
-19.324757 14.123056 26.575315 35.765267 -0.631117 0.733183 0.085246 -0.025928 242398.000000 0 0 1
-19.198557 15.544956 26.486095 36.217999 -0.680624 0.750576 0.104949 -0.027533 -273465.000000 0 0 1
-20.363457 16.062156 25.909455 36.660102 -0.667858 0.785905 0.108159 -0.029203 -581247.000000 0 0 1
-20.383357 17.654056 26.045775 37.490390 -0.713768 0.802749 0.111903 -0.014013 -333519.000000 0 0 1
-19.347757 18.426356 25.538065 36.960236 -0.761011 0.807979 0.066652 -0.005642 -634673.000000 0 0 1
-18.162457 18.364856 26.293895 36.857994 -0.790939 0.776481 0.067953 -0.002017 -627078.000000 0 0 1
-17.073757 19.299156 25.749065 36.427804 -0.846505 0.785758 0.064156 -0.002041 -198897.000000 0 0 1
-17.326857 20.719756 25.804095 37.354780 -0.874340 0.808223 0.073361 0.000136 55526.000000 0 0 1
-16.253257 21.400556 25.187795 36.831741 -0.921257 0.817755 0.078449 -0.004051 119795.000000 0 0 1
-16.333257 22.905156 25.241045 37.795923 -0.951344 0.839514 0.092136 -0.009668 -101050.000000 0 0 1
-15.860557 23.586656 26.418375 38.804873 -0.978809 0.821941 0.092909 -0.004142 264634.000000 0 0 1
-16.196157 25.000456 26.393365 39.798844 -0.995945 0.845751 0.097231 -0.009393 220889.000000 0 0 1
-15.430457 25.782956 27.550025 40.765962 -1.031499 0.828734 0.067499 -0.007180 863474.000000 0 0 1
-14.084957 26.088556 27.175585 40.218294 -1.075748 0.828880 0.069745 -0.007892 378246.000000 0 0 1
-13.468057 26.871356 28.226015 41.233072 -1.106185 0.816813 0.081284 -0.008163 1096700.000000 0 0 1
-11.907157 26.991256 28.059855 40.714417 -1.155327 0.810430 0.082265 -0.010642 718912.000000 0 0 1
-11.353657 27.612856 26.943305 40.215880 -1.180695 0.836632 0.056753 -0.010874 -398635.000000 0 0 1
-9.960357 27.554156 27.141655 39.938824 -1.223929 0.823605 0.053926 -0.004653 -476387.000000 0 0 1
-9.246857 28.181556 25.899425 39.376194 -1.253747 0.852978 0.062678 -0.009029 665896.000000 0 0 1
-7.814457 28.118756 26.025185 39.102946 -1.299728 0.842558 0.063989 -0.011362 889311.000000 0 0 1
-7.230057 28.720956 24.876585 38.678308 -1.324186 0.872170 0.080725 -0.014625 801738.000000 0 0 1
-5.668357 28.543256 24.811105 38.241844 -1.374759 0.864797 0.088739 -0.022675 462238.000000 0 0 1
-5.004657 29.341356 25.822105 39.404858 -1.401855 0.856213 0.100801 -0.021456 -81419.600000 0 0 1
-3.612857 29.365756 25.915055 39.331799 -1.448382 0.851463 0.082045 -0.022534 -133599.000000 0 0 1
-2.892157 30.049056 24.712905 39.013305 -1.474844 0.884795 0.086264 -0.018248 -650371.000000 0 0 1
-2.923857 29.258256 23.546765 37.670209 -1.471194 0.895567 0.086951 -0.016934 -144237.000000 0 0 1
-2.306957 29.935156 22.423625 37.473385 -1.493883 0.929309 0.090148 -0.029599 -407940.000000 0 0 1
-2.598957 29.424856 20.990025 36.237520 -1.482700 0.953007 0.077505 -0.022523 568559.000000 0 0 1
-3.956057 29.527956 20.569425 36.202925 -1.437613 0.966516 0.070197 -0.015020 296508.000000 0 0 1
-4.793257 28.519656 21.118625 35.809809 -1.404284 0.940054 0.066033 -0.015170 32373.900000 0 0 1
-6.306857 28.784956 20.790525 36.063778 -1.355102 0.956366 0.067860 -0.021127 569951.000000 0 0 1
-6.535757 28.643156 19.414325 35.214521 -1.346458 0.986856 0.049685 -0.019997 279263.000000 0 0 1
-7.455857 27.640156 19.006225 34.362838 -1.307320 0.984711 0.040800 -0.023835 -464510.000000 0 0 1
-6.765457 26.262056 18.800425 32.998833 -1.318665 0.964619 0.029983 -0.021789 147279.000000 0 0 1
-5.948057 26.248156 17.643825 32.181511 -1.347951 0.990514 0.029970 -0.025686 925177.000000 0 0 1
-4.569257 26.559256 17.949925 32.380117 -1.400424 0.983214 0.045353 -0.017494 642908.000000 0 0 1
-3.670157 26.803456 16.709625 31.797907 -1.434714 1.017500 0.034522 -0.017458 -49940.400000 0 0 1
-3.403057 25.603756 16.053025 30.411062 -1.438658 1.014708 0.037910 -0.018390 -35523.200000 0 0 1
-2.743657 25.881656 14.827925 29.954217 -1.465183 1.052939 0.045989 -0.026144 -12038.600000 0 0 1
-2.128557 24.575556 14.204025 28.464768 -1.484399 1.048348 0.043444 -0.024019 168141.000000 0 0 1
-1.107157 24.028856 15.022325 28.359865 -1.524753 1.012545 0.052693 -0.017602 -296597.000000 0 0 1
-0.319757 23.154756 14.296525 27.214621 -1.556988 1.017699 0.053967 -0.026902 -934484.000000 0 0 1
0.867743 22.637856 15.105225 27.228539 1.532484 0.982725 0.049200 -0.018429 -258452.000000 0 0 1
2.006943 23.448256 14.847925 27.826415 1.485414 1.007955 0.054983 -0.028319 -162967.000000 0 0 1
3.145443 22.860456 15.455225 27.773337 1.434062 0.980657 0.052316 -0.023962 420876.000000 0 0 1
4.350543 23.841056 15.308625 28.664912 1.390301 1.007407 0.073321 -0.037184 764050.000000 0 0 1
5.650843 23.320056 15.558125 28.597417 1.333062 0.995552 0.089711 -0.034468 -165573.000000 0 0 1
6.613243 24.315356 15.709225 29.694297 1.305242 1.013337 0.110907 -0.039956 1754.600000 0 0 1
8.039943 23.674356 15.810525 29.581895 1.243411 1.006920 0.123223 -0.041195 348843.000000 0 0 1
8.437643 23.158656 14.554325 28.624212 1.221403 1.037399 0.100263 -0.035177 -37660.900000 0 0 1
9.223243 24.054956 13.784125 29.218337 1.204661 1.079507 0.114151 -0.037807 -591331.000000 0 0 1
9.748343 23.403556 12.537125 28.283142 1.176119 1.111551 0.100365 -0.031388 -141976.000000 0 0 1
10.929843 22.657856 12.745525 28.200856 1.121339 1.101840 0.099904 -0.029520 -135383.000000 0 0 1
11.341143 21.976756 11.561625 27.299643 1.094390 1.133482 0.088813 -0.030083 -238891.000000 0 0 1
12.655843 21.212856 11.749325 27.353286 1.032872 1.126813 0.119624 -0.034747 -243546.000000 0 0 1
12.855043 20.266656 12.771725 27.186512 1.005541 1.081753 0.107467 -0.027751 -499481.000000 0 0 1
14.174343 19.791856 12.807825 27.507634 0.949300 1.086473 0.100835 -0.027469 -284443.000000 0 0 1
14.524843 19.031256 14.128325 27.798729 0.918894 1.037661 0.102734 -0.030566 1395480.000000 0 0 1
15.880843 18.483656 14.127525 28.167954 0.860995 1.045411 0.099214 -0.031159 1493570.000000 0 0 1
16.088743 17.894556 15.392525 28.565584 0.838486 1.001727 0.091493 -0.034468 456522.000000 0 0 1
17.422643 17.079356 15.410625 28.857239 0.775449 1.007437 0.081199 -0.034997 389157.000000 0 0 1
17.711843 16.591256 16.709025 29.464736 0.752743 0.967833 0.083492 -0.040011 139243.000000 0 0 1
18.891543 15.813156 16.648825 29.734318 0.696927 0.976508 0.079563 -0.042276 73114.600000 0 0 1
19.591043 15.493556 17.973325 30.771734 0.669136 0.947043 0.090000 -0.045275 -109086.000000 0 0 1
20.113043 16.541956 18.725825 32.075338 0.688280 0.947386 0.105071 -0.039696 569685.000000 0 0 1
19.093143 17.300356 19.357625 32.226822 0.736177 0.926460 0.095392 -0.031166 16575.300000 0 0 1
19.716843 18.419856 20.163925 33.684252 0.751402 0.929024 0.089334 -0.026680 -192538.000000 0 0 1
18.780543 19.268356 20.777925 33.995595 0.798218 0.913227 0.099447 -0.030650 -289973.000000 0 0 1
19.376343 20.191356 21.601225 35.351753 0.805993 0.913427 0.112502 -0.026628 360494.000000 0 0 1
18.309443 21.204256 22.174425 35.728998 0.858529 0.901253 0.115708 -0.025283 394710.000000 0 0 1
17.526043 20.641556 23.177965 35.643429 0.866845 0.862852 0.111406 -0.023094 -253469.000000 0 0 1
16.884943 21.738156 23.852065 36.422105 0.910399 0.856774 0.100685 -0.029075 -12930.300000 0 0 1
16.205743 21.248156 25.125705 36.679848 0.919223 0.816192 0.107807 -0.029962 210171.000000 0 0 1
14.992443 20.536756 24.909055 35.594841 0.940199 0.795687 0.104214 -0.032248 -422041.000000 0 0 1
14.370943 20.409656 26.142815 36.145882 0.957307 0.762287 0.088022 -0.025640 -176179.000000 0 0 1
13.099243 19.547756 25.964555 35.040876 0.980410 0.736269 0.084387 -0.021146 -83499.800000 0 0 1
13.279443 18.113456 25.937075 34.309951 0.938182 0.713671 0.091963 -0.028777 100210.000000 0 0 1
14.024943 17.616656 24.812755 33.506990 0.898427 0.736945 0.105085 -0.035311 340786.000000 0 0 1
13.198943 17.492756 23.459605 32.102362 0.924397 0.751340 0.107116 -0.029928 8225.860000 0 0 1
13.062143 18.722856 22.712205 32.202626 0.961644 0.787964 0.098864 -0.028603 694733.000000 0 0 1
14.276943 19.110156 22.022025 32.465347 0.929162 0.825317 0.109476 -0.031782 1020020.000000 0 0 1
14.795743 18.193656 20.847225 31.377219 0.888036 0.844097 0.122625 -0.038723 -380271.000000 0 0 1
13.944043 18.049156 19.755625 30.174378 0.913013 0.856991 0.097937 -0.031442 -86474.200000 0 0 1
14.479143 17.043256 18.900625 29.280570 0.866562 0.869118 0.080931 -0.028765 868656.000000 0 0 1
13.291243 16.405656 18.090225 27.803937 0.889890 0.862376 0.072208 -0.026199 736905.000000 0 0 1
12.776243 17.210756 17.013625 27.366146 0.932215 0.899881 0.097184 -0.029072 1036630.000000 0 0 1
11.627243 16.494656 16.452925 26.037764 0.956783 0.886811 0.076128 -0.029411 1073260.000000 0 0 1
11.159943 17.205756 15.150225 25.497287 0.995394 0.934539 0.081145 -0.024104 142904.000000 0 0 1
10.525443 18.481956 15.326425 26.215776 1.053107 0.946377 0.083866 -0.024140 1774.180000 0 0 1
9.983043 18.942656 14.131025 25.654848 1.085772 0.987458 0.076087 -0.008199 -511122.000000 0 0 1
8.825443 19.897656 14.361625 26.077987 1.153326 0.987572 0.083954 -0.012519 -61140.700000 0 0 1
7.661543 19.273356 14.893625 25.533929 1.192430 0.948026 0.058871 -0.010329 229739.000000 0 0 1
6.639643 20.262156 15.108525 26.132496 1.254136 0.954336 0.066590 -0.018446 566822.000000 0 0 1
5.458443 19.661756 15.911525 25.875778 1.299999 0.908512 0.056131 -0.023189 529657.000000 0 0 1
4.578143 18.831856 15.129725 24.586719 1.332316 0.907952 0.055651 -0.026496 -961529.000000 0 1 0
3.406243 18.569956 15.768425 24.598556 1.389385 0.874956 0.052259 -0.024456 -783802.000000 0 1 0
2.201743 18.193156 14.895525 23.615996 1.450362 0.888291 0.050836 -0.021943 194082.000000 0 1 0
1.549843 19.259156 14.239625 24.001750 1.490496 0.935676 0.045255 -0.018126 851838.000000 0 1 0
0.527143 18.806556 13.291425 23.035329 1.542774 0.955743 0.040101 -0.024213 844899.000000 0 1 0
-0.178257 19.774956 12.326825 23.303031 -1.561782 1.013399 0.042147 -0.028377 554616.000000 0 1 0
-1.367757 20.292156 12.926225 24.098333 -1.503495 1.004637 0.052095 -0.025197 1010570.000000 0 1 0
-2.536957 20.184056 12.088025 23.663318 -1.445761 1.034642 0.054740 -0.042961 879027.000000 0 1 0
-3.757257 21.022856 12.505425 24.747992 -1.393941 1.041054 0.044078 -0.030724 488827.000000 0 1 0
-4.635957 20.375556 13.446425 24.848777 -1.347079 0.999016 0.045609 -0.029953 600375.000000 0 1 0
-5.725357 21.196556 13.851125 25.960111 -1.306984 1.007999 0.044482 -0.022677 374921.000000 0 0 1
-6.559857 20.686656 15.057325 26.413869 -1.263721 0.964225 0.041227 -0.023380 -404435.000000 0 0 1
-7.449057 19.636256 14.743525 25.660135 -1.208215 0.958719 0.039487 -0.022961 59401.100000 0 0 1
-8.124057 19.107656 15.882025 26.140802 -1.168779 0.917815 0.031643 -0.012278 638481.000000 0 0 1
-9.239657 19.954156 16.608025 27.556598 -1.137148 0.923931 0.026785 -0.004525 463823.000000 0 0 1
-10.456357 20.006056 15.889825 27.605511 -1.089186 0.957455 0.018818 -0.014812 412099.000000 0 0 1
-11.642657 19.843056 16.673825 28.413285 -1.040186 0.943656 0.012765 -0.000713 852827.000000 0 0 1
-12.866857 19.434856 15.798625 28.157880 -0.985996 0.975115 0.019885 -0.017132 52424.900000 0 0 1
-13.379457 20.557056 15.096725 28.801276 -0.993827 1.019058 0.016715 -0.012642 -659005.000000 0 0 1
-14.457757 20.255356 14.308825 28.706248 -0.950885 1.048979 0.021362 -0.021100 -1242870.000000 0 0 1
-15.440857 21.357856 13.997525 29.841394 -0.944827 1.082566 0.023776 -0.026676 -339046.000000 0 0 1
-16.302357 21.543456 15.122125 30.960717 -0.923008 1.060507 0.011147 -0.030285 -625813.000000 0 0 1
-17.220857 22.515456 14.790525 31.972853 -0.917861 1.089875 0.042345 -0.033099 -685626.000000 0 0 1
-18.596257 22.307756 15.421825 32.882966 -0.875887 1.082648 0.094360 -0.033253 -585787.000000 0 0 1
-19.412357 21.294856 14.888725 32.434313 -0.831610 1.093879 0.097872 -0.037598 456708.000000 0 0 1
-20.694957 21.045056 15.432425 33.306687 -0.793786 1.089032 0.101705 -0.040261 595906.000000 0 0 1
-21.818657 22.090856 15.445525 34.678869 -0.791597 1.109190 0.098778 -0.043792 -640002.000000 0 0 1
-22.529157 22.268456 14.252525 34.735882 -0.779579 1.148001 0.105624 -0.032709 -341105.000000 0 0 1
-23.357557 23.378956 14.307325 36.011812 -0.785856 1.162229 0.123130 -0.038609 -205091.000000 0 0 1
-22.798357 24.671956 13.649625 36.259933 -0.824847 1.184848 0.107293 -0.031657 -664843.000000 0 0 1
-21.625157 25.145056 14.205825 36.079450 -0.860516 1.166103 0.085487 -0.036420 -720369.000000 0 0 1
-21.225057 26.351756 13.558925 36.452195 -0.892740 1.189672 0.070705 -0.037876 39760.600000 0 0 1
-19.755457 26.749256 13.868425 36.029627 -0.934669 1.175678 0.058521 -0.034512 8858.220000 0 0 1
-18.880157 26.032556 13.038625 34.701009 -0.943323 1.185599 0.062747 -0.029544 -1077070.000000 0 0 1
-17.578257 26.430356 13.326925 34.426237 -0.983894 1.173295 0.016459 -0.028970 -718341.000000 0 0 1
-16.553157 25.883256 12.312225 33.098955 -1.001816 1.189653 0.032081 -0.030954 328915.000000 0 0 1
-15.211857 26.239356 12.622525 32.851675 -1.045411 1.176425 0.029605 -0.032587 580811.000000 0 0 1
-14.262357 25.739756 11.684925 31.662080 -1.064812 1.192809 0.032367 -0.031410 740085.000000 0 0 1
-12.841757 26.365756 11.828225 31.622314 -1.117553 1.187428 0.034834 -0.026726 26782.300000 0 0 1
-11.777857 25.526256 11.421125 30.343859 -1.138501 1.184900 0.024593 -0.024034 1091750.000000 0 0 1
-10.456857 25.993156 11.768425 30.388910 -1.188315 1.173138 0.055249 -0.028400 1255020.000000 0 0 1
-9.932557 27.352356 11.133125 31.156918 -1.222470 1.205395 0.061162 -0.038045 -228734.000000 0 0 1
-8.659657 27.759456 11.634725 31.320024 -1.268409 1.190195 0.086420 -0.043170 426892.000000 0 0 1
-8.310857 29.007656 11.153825 32.170208 -1.291765 1.216732 0.098594 -0.047694 -462585.000000 0 0 1
-7.045457 29.498756 11.872425 32.569457 -1.336349 1.197672 0.102254 -0.050541 54892.200000 0 0 1
-5.858057 28.873056 11.395725 31.588491 -1.370623 1.201718 0.106789 -0.044228 406408.000000 0 0 1
-4.767457 29.376156 12.190825 32.160588 -1.409909 1.182015 0.111017 -0.047420 524055.000000 0 0 1
-3.368257 29.078656 11.593425 31.485249 -1.455478 1.193705 0.101359 -0.050964 -40551.000000 0 0 1
-3.120557 29.705556 10.356125 31.613403 -1.466131 1.237048 0.137886 -0.057109 -1032830.000000 0 0 1
-1.961857 29.232156 9.811525 30.897149 -1.503784 1.247647 0.138604 -0.051601 -765209.000000 0 0 1
-1.513357 29.959856 8.567825 31.197610 -1.520326 1.292591 0.140208 -0.050311 676603.000000 0 0 1
-2.493157 29.753356 7.528225 30.792080 -1.487197 1.323807 0.164465 -0.045770 531217.000000 0 0 1
-2.212357 30.525756 6.388725 31.265510 -1.498448 1.365009 0.167918 -0.040108 75004.600000 0 0 1
11.750043 -33.851490 -25.820885 44.166786 -1.236702 2.195211 0.199538 -0.067011 -153512.000000 0 0 1
12.303243 -33.695490 -24.536665 43.460370 -1.220707 2.170715 0.183612 -0.063145 256364.000000 0 0 1
13.622243 -33.207390 -24.674265 43.555891 -1.181513 2.173045 0.175291 -0.058370 112779.000000 0 0 1
14.353143 -32.827290 -23.364765 42.773309 -1.158611 2.148673 0.155838 -0.049760 -400840.000000 0 0 1
14.107143 -31.505190 -22.858865 41.401886 -1.149797 2.155703 0.170525 -0.044576 413996.000000 0 0 1
14.763143 -31.363390 -21.601665 40.844150 -1.130852 2.128077 0.132886 -0.034397 1444990.000000 0 0 1
16.336443 -31.241490 -21.474665 41.280399 -1.088990 2.117899 0.099449 -0.024296 1083580.000000 0 0 1
17.150643 -32.354090 -21.810465 42.621920 -1.083366 2.107981 0.102501 -0.021800 -179578.000000 0 0 1
18.486143 -32.018190 -21.514665 42.775960 -1.047187 2.097818 0.081212 -0.018805 -261463.000000 0 0 1
19.376543 -33.295490 -21.485465 44.109696 -1.043749 2.079553 0.052881 -0.006638 297227.000000 0 0 1
20.759243 -32.950890 -21.499065 44.485021 -1.008606 2.075203 0.030433 0.012477 603108.000000 0 0 1
21.572943 33.637356 -21.296365 45.281329 1.000534 2.060441 0.023781 0.012768 42658.500000 0 0 1
23.097543 33.839656 -21.201965 46.131791 0.971872 2.048336 0.026611 0.023805 236180.000000 0 0 1
23.734043 -33.504390 -22.435665 46.788973 -0.954464 2.070890 0.013526 0.031956 25397.900000 0 0 1
25.124143 -33.659790 -22.320965 47.565003 -0.929594 2.059263 0.003393 0.033647 264787.000000 0 0 1
26.054443 -33.078590 -23.459065 48.201191 -0.903630 2.079094 0.025063 0.021509 493526.000000 0 0 1
26.160143 -31.668790 -23.633465 47.389936 -0.880369 2.092897 0.023435 0.024351 -344181.000000 0 0 1
24.965543 -31.064390 -24.064765 46.555210 -0.893821 2.114031 -0.001035 0.024312 -151438.000000 0 0 1
24.780343 -29.589290 -23.766365 45.325838 -0.873618 2.122742 0.010467 0.010746 -849479.000000 0 0 1
25.498543 -28.671590 -24.529465 45.540426 -0.843907 2.139607 0.020819 0.003491 -287413.000000 0 0 1
25.163043 -27.364790 -24.147165 44.329404 -0.827289 2.146853 0.038578 0.005189 7721.340000 0 0 1
25.652243 -26.371490 -25.217815 44.603041 -0.799223 2.171694 0.038405 0.001725 628895.000000 0 0 1
24.821743 -26.196090 -26.402445 44.715133 -0.812330 2.202424 0.036090 -0.005858 138153.000000 0 0 1
25.589043 -25.749890 -27.508275 45.547351 -0.788531 2.219243 0.043599 -0.012009 -253500.000000 0 0 1
24.726543 -25.408090 -28.763045 45.653978 -0.798992 2.252379 0.046357 -0.019977 724998.000000 0 0 1
23.895743 -24.239890 -28.700955 44.523293 -0.792548 2.271333 0.074788 -0.028422 577146.000000 0 0 1
22.745943 -24.267190 -27.862215 43.388679 -0.817745 2.268101 0.043026 -0.019907 -269898.000000 0 0 1
22.103843 -22.937390 -27.570465 42.128782 -0.803902 2.284229 0.056071 -0.016708 -89755.200000 0 0 1
21.718643 -22.247290 -28.759145 42.352447 -0.797422 2.317255 0.088322 -0.027795 219582.000000 0 0 1
21.217743 -20.949890 -28.456335 41.217151 -0.779046 2.332839 0.075550 -0.010255 -898472.000000 0 0 1
20.197643 -20.431390 -29.430695 41.128485 -0.791151 2.368249 0.080526 -0.024545 -1262140.000000 0 0 1
19.028943 -21.148190 -29.259695 40.810248 -0.838097 2.370241 0.074275 -0.026150 -135880.000000 0 0 1
17.969543 -20.619990 -30.111885 40.679406 -0.853974 2.404200 0.057487 -0.030972 471143.000000 0 0 1
16.758343 -21.554390 -30.094765 40.634083 -0.909932 2.404802 0.055368 -0.033763 -520894.000000 0 0 1
16.952143 -22.757190 -30.846045 41.913522 -0.930558 2.397858 0.061808 -0.025474 158881.000000 0 0 1
16.059243 -23.755490 -30.383935 41.778058 -0.976345 2.385133 0.076537 -0.029114 -95084.500000 0 0 1
16.436143 -25.164490 -30.901465 43.107991 -0.992211 2.370054 0.102569 -0.032834 21565.800000 0 0 1
15.527243 -26.183390 -30.516585 43.103679 -1.035526 2.357432 0.113705 -0.023559 94246.100000 0 0 1
16.024443 -27.482490 -30.785345 44.269713 -1.042912 2.339779 0.132508 -0.026380 169865.000000 0 0 1
15.165543 -28.537790 -30.046215 44.126797 -1.082330 2.319796 0.153262 -0.026454 153224.000000 0 0 1
15.346043 -28.731890 -28.635065 43.370376 -1.080233 2.291941 0.176047 -0.039137 -125695.000000 0 0 1
14.995843 -27.675290 -27.799425 41.995298 -1.074232 2.294234 0.153957 -0.032396 -263542.000000 0 0 1
15.918143 -27.641990 -26.567475 41.512620 -1.048310 2.265276 0.115969 -0.022569 -345181.000000 0 0 1
15.850743 -28.817190 -25.736975 41.762045 -1.067919 2.234802 0.128263 -0.026153 113805.000000 0 0 1
16.652843 -28.728790 -24.566865 41.306070 -1.045469 2.207753 0.129621 -0.035276 -796819.000000 0 0 1
16.228443 -27.714890 -23.427265 39.753166 -1.041070 2.201011 0.115828 -0.030938 1134650.000000 0 0 1
15.065443 -28.136490 -22.671365 39.148696 -1.079199 2.188432 0.112574 -0.036420 1497730.000000 0 0 1
13.812943 -28.118190 -23.381065 39.090973 -1.114177 2.211949 0.124654 -0.031384 -161929.000000 0 0 1
12.582543 -27.943090 -22.482765 38.008044 -1.147700 2.203747 0.090275 -0.025162 -172682.000000 0 0 1
12.537243 -26.745090 -21.782765 36.701106 -1.132445 2.206219 0.068216 -0.020077 329040.000000 0 0 1
11.182543 -26.400490 -21.492365 35.832344 -1.170135 2.214052 0.063231 -0.018911 201402.000000 0 0 1
10.939343 -24.883290 -21.251365 34.503157 -1.156603 2.234356 0.053635 -0.015023 -223406.000000 0 0 1
11.487143 -24.464090 -20.054965 33.654833 -1.131803 2.209184 0.044064 -0.014877 -136563.000000 0 0 1
11.090943 -23.107190 -19.799765 32.387991 -1.123294 2.228537 0.043065 -0.016346 -223805.000000 0 0 1
11.448543 -22.525490 -18.416165 31.266947 -1.100572 2.200615 0.036719 -0.028072 -307328.000000 0 0 1
10.601843 -22.990290 -17.413265 30.727419 -1.138713 2.173293 0.060180 -0.029637 -1724.550000 0 0 1
10.824943 -22.296690 -16.214065 29.617861 -1.118820 2.150101 0.052548 -0.024523 59686.100000 0 0 1
9.831443 -22.739090 -15.130865 29.028720 -1.162709 2.119097 0.058085 -0.022955 349576.000000 0 0 1
10.368143 -23.964990 -14.709665 29.969875 -1.162475 2.083821 0.062280 -0.023636 407539.000000 0 0 1
9.591443 -24.474190 -13.640465 29.614929 -1.197292 2.049461 0.069477 -0.023624 246671.000000 0 0 1
9.894143 -25.981890 -13.470365 30.893420 -1.206942 2.021975 0.081369 -0.021454 717599.000000 0 0 1
11.105943 -26.280490 -12.760865 31.254532 -1.170966 1.991375 0.062533 -0.015105 337638.000000 0 0 1
11.519643 -27.599290 -13.061565 32.634759 -1.175390 1.982569 0.069221 -0.013333 -306983.000000 0 0 1
12.857643 -28.122990 -12.494465 33.351660 -1.141977 1.954792 0.051529 -0.009527 1102580.000000 0 0 1
14.134843 -27.734590 -13.035865 33.748112 -1.099461 1.967380 0.061773 -0.007184 940449.000000 0 0 1
14.367143 -27.938890 -14.444965 34.578221 -1.095826 2.001761 0.060931 -0.013788 -1162180.000000 0 0 1
15.629643 -27.288890 -14.989665 34.837613 -1.050657 2.015591 0.058521 -0.009205 -363000.000000 0 0 1
16.729443 -28.175690 -14.856165 35.978458 -1.034982 1.996452 0.095798 -0.006137 -816863.000000 0 0 1
17.844343 -27.538590 -15.383765 36.241616 -0.995845 2.009182 0.125398 -0.013087 792187.000000 0 0 1
19.249843 -28.219790 -15.062965 37.333710 -0.972158 1.986100 0.125635 -0.017645 1437090.000000 0 0 1
19.402743 -29.409490 -15.848465 38.633643 -0.987601 1.993496 0.113436 -0.015222 273062.000000 0 0 1
20.764943 -29.834090 -15.817265 39.641413 -0.962751 1.981232 0.118929 -0.012808 695616.000000 0 0 1
21.067643 -30.953690 -16.803165 41.040503 -0.973197 1.992624 0.095295 -0.015126 79221.000000 0 0 1
20.474643 -32.216190 -16.545665 41.603521 -1.004654 1.979804 0.093276 -0.008474 154470.000000 0 0 1
21.018643 -33.137990 -17.491365 42.963445 -1.005554 1.990097 0.084829 -0.003338 348315.000000 0 0 1
20.868343 33.134956 -17.001865 42.690473 1.008754 1.980414 0.060564 -0.004427 221250.000000 0 0 1
21.801943 32.778256 -15.984865 42.488289 0.983855 1.956507 0.092338 -0.014824 240619.000000 0 0 1
21.640943 31.442056 -15.574965 41.225148 0.967979 1.958218 0.091571 -0.026761 -720301.000000 0 0 1
22.432843 31.123456 -14.349165 40.960963 0.946267 1.928702 0.101170 -0.039363 467195.000000 0 0 1
23.814243 30.789556 -14.629165 41.582777 0.912454 1.930298 0.088606 -0.030601 1047400.000000 0 0 1
24.522943 30.230656 -13.520665 41.207714 0.889267 1.905098 0.095305 -0.032725 27199.100000 0 0 1
23.984943 28.961456 -12.871865 39.745796 0.879114 1.900597 0.101129 -0.029261 -1198150.000000 0 0 1
24.158643 27.697156 -13.529465 39.164000 0.853530 1.923522 0.096400 -0.017618 -12786.700000 0 0 1
23.654143 26.625056 -12.776065 37.837018 0.844418 1.915227 0.045435 -0.022001 228623.000000 0 0 1
22.128143 26.394856 -12.648865 36.692464 0.873104 1.922744 0.068594 -0.026847 -485166.000000 0 0 1
21.402143 26.071956 -13.834265 36.457996 0.883448 1.960006 0.084306 -0.038514 1211120.000000 0 0 1
19.978843 26.125956 -13.572965 35.580122 0.917946 1.962189 0.093256 -0.036569 1178130.000000 0 0 1
19.383643 27.587756 -13.631465 36.367935 0.958316 1.955000 0.092872 -0.044547 -636407.000000 0 0 1
19.467643 28.439356 -14.796265 37.506207 0.970527 1.976322 0.087113 -0.039105 104315.000000 0 0 1
19.009543 27.854556 -16.002365 37.327131 0.971941 2.013856 0.075067 -0.029922 -140330.000000 0 0 1
19.290343 28.784856 -17.266765 38.714680 0.980382 2.033088 0.066700 -0.028105 348003.000000 0 0 1
18.465643 29.968756 -17.298565 39.221762 1.018577 2.027559 0.056221 -0.025913 348592.000000 0 0 1
18.555743 30.627356 -18.557665 40.332833 1.026083 2.048919 0.046578 -0.012351 -1181980.000000 0 0 1
17.373243 31.457356 -18.885665 40.596344 1.066205 2.054664 0.047312 -0.015572 -1205950.000000 0 0 1
17.304443 32.618856 -18.162765 41.149964 1.083044 2.027932 0.081898 -0.031727 -155987.000000 0 0 1
16.233543 33.448356 -18.518865 41.536355 1.118952 2.032917 0.090331 -0.036097 -249528.000000 0 0 1
16.368343 -32.907290 -17.808465 40.840590 -1.109225 2.021999 0.097108 -0.027143 1116710.000000 0 0 1
15.222243 -32.085190 -18.163365 39.888393 -1.127811 2.043567 0.083203 -0.023357 935658.000000 0 0 1
14.863343 -31.145390 -17.130965 38.528227 -1.125535 2.031562 0.079591 -0.021532 -653964.000000 0 0 1
13.659043 -30.281290 -17.376465 37.489565 -1.147051 2.052739 0.063914 -0.018448 594826.000000 0 0 1
12.388943 -31.011190 -17.285265 37.602662 -1.190722 2.048433 0.073302 -0.017001 848146.000000 0 0 1
11.399943 -30.072190 -17.676665 36.698226 -1.208448 2.073363 0.064116 -0.013338 -46640.400000 0 0 1
10.052943 -30.787590 -17.933465 37.020893 -1.255185 2.076490 0.081805 -0.020179 -407774.000000 0 0 1
9.286443 -31.264990 -16.823865 36.698502 -1.282072 2.047029 0.085291 -0.014937 233811.000000 0 0 1
8.307543 -32.177790 -17.271065 37.452839 -1.318137 2.050078 0.100384 -0.009640 189112.000000 0 0 1
6.931943 -31.652390 -17.753265 36.947314 -1.355198 2.072024 0.100873 -0.005960 -263100.000000 0 0 1
6.968043 -31.113590 -19.015965 37.124332 -1.350477 2.108568 0.094392 -0.004436 -85463.900000 0 0 1
6.820843 -32.001290 -20.123065 38.412813 -1.360796 2.122176 0.110589 -0.019831 -1373770.000000 0 0 1
7.210443 -31.252890 -21.438965 38.579306 -1.344051 2.160015 0.105529 -0.014963 -258897.000000 0 0 1
8.568043 -30.962890 -21.642765 38.736561 -1.300832 2.163634 0.111993 -0.021633 474964.000000 0 0 1
9.522943 -32.067590 -21.629065 39.835075 -1.282127 2.144761 0.118076 -0.030737 38714.100000 0 0 1
9.433043 -33.188990 -22.753965 41.330791 -1.293877 2.153799 0.143398 -0.046765 -176545.000000 0 0 1
8.321043 33.659056 -22.599365 41.387234 1.328440 2.148434 0.158736 -0.055772 69258.100000 0 0 1
8.202443 32.755856 -23.689965 41.248523 1.325430 2.182573 0.175714 -0.068412 -97408.300000 0 0 1
6.979443 31.791056 -23.602165 40.205050 1.354684 2.198200 0.168855 -0.072944 1094030.000000 0 0 1
5.706243 32.451856 -23.614365 40.537913 1.396738 2.192629 0.154579 -0.069783 708328.000000 0 0 1
5.222443 32.905456 -22.359565 40.124719 1.413399 2.161869 0.124509 -0.056483 -779047.000000 0 0 1
3.984543 33.826956 -22.487065 40.814307 1.453545 2.154311 0.106523 -0.040694 472760.000000 0 0 1
2.801243 33.028456 -22.485065 40.053764 1.486186 2.166839 0.094850 -0.053966 522824.000000 0 0 1
1.683943 33.628956 -23.160365 40.867406 1.520764 2.173315 0.092404 -0.039622 734047.000000 0 0 1
0.391943 32.915356 -22.647965 39.956284 1.558889 2.173435 0.080000 -0.043825 51187.900000 0 0 1
0.016543 33.319056 -21.335265 39.564546 1.570300 2.140345 0.061442 -0.039004 -314144.000000 0 0 1
-1.272957 32.874456 -21.012965 39.037097 -1.532094 2.139194 0.059869 -0.040251 -145217.000000 0 0 1
-1.608057 33.255056 -19.563965 38.616490 -1.522479 2.102059 0.068691 -0.039669 254186.000000 0 0 1
-0.844657 32.460956 -18.651265 37.447254 -1.544781 2.092165 0.074579 -0.042474 61363.500000 0 0 1
-1.281757 32.625756 -17.304965 36.953277 -1.531530 2.058154 0.043803 -0.028984 35103.200000 0 0 1
-0.658857 31.652656 -16.271365 35.596096 -1.549984 2.045541 0.043219 -0.017299 394913.000000 0 0 1
0.707843 31.939956 -16.063365 35.758824 1.548638 2.036682 0.037242 -0.016937 70572.900000 0 0 1
1.456943 30.849256 -15.550965 34.577909 1.523604 2.037267 0.049668 -0.012088 185828.000000 0 0 1
2.447243 31.021556 -14.408265 34.291749 1.492071 2.004426 0.061281 -0.018183 147243.000000 0 0 1
3.568143 31.824256 -14.780965 35.270268 1.459142 2.003225 0.073663 -0.020659 171910.000000 0 0 1
4.442043 31.987556 -13.694965 35.078306 1.432811 1.971875 0.081909 -0.029547 447866.000000 0 0 1
5.847943 32.557256 -14.086765 35.952890 1.393071 1.973396 0.089322 -0.035886 431372.000000 0 0 1
6.695943 31.630156 -14.729665 35.528375 1.362181 1.998287 0.090970 -0.031308 -194268.000000 0 0 1
7.920843 32.330356 -14.990265 36.506160 1.330532 1.993933 0.080767 -0.021408 -45627.000000 0 0 1
8.916043 31.258156 -15.444565 35.987536 1.292936 2.014364 0.079006 -0.028344 -365327.000000 0 0 1
9.442843 30.649456 -14.282365 35.107583 1.271933 1.989763 0.075721 -0.032633 179158.000000 0 0 1
10.387343 29.569156 -14.403265 34.491824 1.232973 2.001582 0.082223 -0.039510 568578.000000 0 0 1
9.826743 28.143656 -14.027965 32.945623 1.234867 2.010633 0.090929 -0.032678 -41612.300000 0 0 1
8.960943 27.705456 -15.057965 32.781597 1.257980 2.048051 0.091807 -0.036069 -21654.100000 0 0 1
8.532243 26.415056 -14.736565 31.428024 1.258368 2.058840 0.086200 -0.026486 -112850.000000 0 0 1
7.773443 25.760356 -15.932365 31.270795 1.277726 2.105396 0.089945 -0.022267 224646.000000 0 0 1
8.626043 25.168156 -16.911165 31.525104 1.240607 2.137003 0.104003 -0.015282 -306895.000000 0 0 1
7.940343 24.417956 -17.851265 31.272245 1.256397 2.178318 0.092866 -0.010842 -691948.000000 0 0 1
8.740443 23.347156 -18.571865 31.086962 1.212579 2.211072 0.107049 -0.012598 -480871.000000 0 0 1
8.142343 22.516756 -19.535865 30.902299 1.223814 2.255162 0.113549 -0.022706 -673066.000000 0 0 1
9.090043 21.608656 -20.012465 30.823070 1.172602 2.277419 0.106841 -0.016746 -44885.500000 0 0 1
8.524243 20.501656 -20.989365 30.553790 1.176758 2.328100 0.093210 -0.023956 -20106.100000 0 0 1
7.610443 19.646956 -20.359265 29.298829 1.201234 2.339054 0.097547 -0.023044 -286203.000000 0 0 1
7.301943 18.538856 -21.137965 29.048599 1.195584 2.385724 0.095683 -0.028142 -61421.100000 0 0 1
26.116243 -12.499944 -9.552265 30.488563 -0.446404 1.889469 0.117897 -0.019730 -131234.000000 0 0 1
26.220743 -11.635344 -8.385265 29.886807 -0.417641 1.855182 0.130402 -0.032527 483820.000000 0 0 1
25.002543 -11.615544 -7.675665 28.617544 -0.434908 1.842336 0.105853 -0.020287 -376379.000000 0 0 1
25.267943 -10.922744 -6.311165 28.241920 -0.408018 1.796167 0.084689 -0.025720 -257896.000000 0 0 1
25.495643 -9.504744 -6.326465 27.935499 -0.356839 1.799245 0.108952 -0.042730 581777.000000 0 0 1
26.757843 -9.080844 -6.827365 29.069860 -0.327175 1.807871 0.085942 -0.044201 -863297.000000 0 0 1
27.042543 -7.663244 -6.255165 28.794991 -0.276138 1.789773 0.123624 -0.043171 -269891.000000 0 0 1
27.504243 -7.571644 -4.912165 28.947237 -0.268636 1.741315 0.128306 -0.053496 119534.000000 0 0 1
28.782943 -8.105844 -4.709865 30.271196 -0.274510 1.727020 0.121548 -0.057332 -802808.000000 0 0 1
29.328543 -7.914444 -3.278965 30.554107 -0.263576 1.678320 0.144314 -0.062152 -513701.000000 0 0 1
29.798743 -6.644944 -2.980765 30.675810 -0.219404 1.668120 0.165521 -0.056302 192154.000000 0 0 1
30.562143 -6.752944 -1.805065 31.351317 -0.217464 1.628404 0.198200 -0.045312 102342.000000 0 0 1
31.167843 -5.367544 -1.332065 31.654689 -0.170541 1.612890 0.194373 -0.054158 -104331.000000 0 0 1
30.188843 -4.585644 -0.725065 30.543740 -0.150746 1.594537 0.212744 -0.047603 -360609.000000 0 0 1
30.709143 -3.349044 -0.312665 30.892803 -0.108628 1.580917 0.201701 -0.040587 98019.500000 0 0 1
31.390343 -3.286444 1.111035 31.581462 -0.104316 1.535609 0.194457 -0.038006 357759.000000 0 0 1
30.460943 -3.269444 2.192935 30.714284 -0.106923 1.499338 0.227042 -0.053704 203122.000000 0 0 1
31.068743 -3.017244 3.442035 31.404110 -0.096812 1.460971 0.194769 -0.042241 -133001.000000 0 0 1
30.662043 -3.873344 4.619635 31.249075 -0.125658 1.422420 0.206363 -0.043009 -420257.000000 0 0 1
31.045943 -5.195544 4.543835 31.803941 -0.165814 1.427436 0.186586 -0.044890 -113496.000000 0 0 1
31.307243 -5.710644 5.854135 32.357778 -0.180423 1.388876 0.175790 -0.035995 -44269.200000 0 0 1
32.017543 -7.088844 5.772435 33.297083 -0.217890 1.396554 0.152942 -0.035706 60650.600000 0 0 1
33.281043 -7.002044 5.151635 34.397613 -0.207367 1.420463 0.161461 -0.051215 -244358.000000 0 0 1
34.003843 -8.196844 5.256635 35.370634 -0.236544 1.421628 0.160170 -0.048297 -197889.000000 0 0 1
35.495143 -8.116244 5.595335 36.838653 -0.224793 1.418319 0.193345 -0.051219 -543485.000000 0 0 1
36.304243 -7.925144 4.486835 37.429101 -0.214926 1.450632 0.208054 -0.051507 -18497.500000 0 0 1
37.668943 -7.875044 4.927135 38.797451 -0.206091 1.443456 0.202118 -0.045464 694512.000000 0 0 1
-36.665273 -7.888944 3.779335 37.694310 0.211930 1.470365 0.214418 -0.041712 -50144.300000 0 0 1
-36.572573 -9.161844 3.192635 37.837619 0.245460 1.486319 0.250542 -0.055422 106779.000000 0 0 1
-35.782173 -9.097944 2.018535 36.975816 0.248983 1.516178 0.267604 -0.061434 -124390.000000 0 0 1
-35.482973 -10.412144 1.294735 37.001763 0.285428 1.535798 0.283442 -0.044709 -388121.000000 0 0 1
-34.547173 -11.134044 2.013935 36.352854 0.311775 1.515368 0.270641 -0.045285 -336500.000000 0 0 1
-34.151173 -12.352044 1.364735 36.341961 0.347048 1.533235 0.284091 -0.047984 84693.300000 0 0 1
-33.259073 -13.278544 2.250835 35.882474 0.379856 1.508027 0.185705 -0.053892 357197.000000 0 0 1
-31.927073 -12.914044 2.522635 34.532220 0.384367 1.497680 0.205139 -0.044234 218184.000000 0 0 1
-30.981173 -13.296544 1.534735 33.748875 0.405407 1.525305 0.230715 -0.032428 -689115.000000 0 0 1
-29.630273 -13.658244 2.140035 32.696796 0.431927 1.505299 0.217024 -0.029720 -910519.000000 0 0 1
-28.925573 -12.552244 2.614735 31.639918 0.409427 1.488062 0.193506 -0.037263 -1009040.000000 0 0 1
-27.723873 -13.060644 3.074535 30.800102 0.440259 1.470808 0.179481 -0.016330 -1059260.000000 0 0 1
-26.930673 -11.966144 3.773635 29.710100 0.418130 1.443437 0.166832 -0.012747 -618744.000000 0 0 1
-25.694373 -12.410344 4.257035 28.850299 0.449954 1.422700 0.134713 -0.007193 -340519.000000 0 0 1
-25.052973 -11.423044 5.006635 27.985778 0.427796 1.390929 0.125307 0.003780 627142.000000 0 0 1
-23.574873 -11.719644 5.444635 26.884359 0.461344 1.366865 0.104536 0.011687 882905.000000 0 0 1
-23.436073 -12.718444 6.476935 27.440099 0.497211 1.332509 0.095493 0.001365 1021000.000000 0 0 1
-22.049573 -12.965844 6.832035 26.475904 0.531573 1.309796 0.066293 0.010677 1201570.000000 0 0 1
-21.635073 -12.526144 8.274635 26.333443 0.524816 1.251156 0.081875 0.000302 -443401.000000 0 0 1
-21.512573 -11.079144 8.424335 25.622405 0.475582 1.235777 0.080171 -0.000174 614401.000000 0 0 1
-22.680773 -10.287344 8.709535 26.383762 0.425820 1.234377 0.116794 -0.004179 222057.000000 0 0 1
-23.120773 -10.261944 10.188535 27.270568 0.417720 1.187899 0.101026 0.001212 -302996.000000 0 0 1
-23.561273 -11.498244 10.781735 28.347645 0.454013 1.180633 0.100962 -0.011341 551480.000000 0 0 1
-24.813273 -12.108344 10.457735 29.524138 0.453984 1.208728 0.097928 -0.011020 684866.000000 0 0 1
-26.001073 -11.419144 11.209435 30.530379 0.413819 1.194846 0.107462 -0.003821 -111523.000000 0 0 1
-26.183773 -11.823944 12.555935 31.353582 0.424163 1.158775 0.109583 -0.010497 78418.100000 0 0 1
-27.526073 -11.518744 12.889435 32.503903 0.396324 1.163040 0.101185 -0.009026 267943.000000 0 0 1
-28.105673 -12.314544 14.078035 33.760449 0.412957 1.140657 0.100644 -0.008552 -205486.000000 0 0 1
-28.016573 -13.709344 13.860035 34.131731 0.455075 1.152642 0.094603 -0.011747 248442.000000 0 0 1
-28.416473 -14.545744 14.948635 35.249628 0.473104 1.132851 0.108683 -0.004169 -32976.600000 0 0 1
-28.261373 -16.068644 14.815735 35.726916 0.516991 1.143190 0.105731 -0.014928 104350.000000 0 0 1
-29.251373 -16.775344 15.546435 37.131477 0.520698 1.138798 0.100427 -0.003561 171696.000000 0 0 1
-29.048473 -18.144244 15.379435 37.544033 0.558326 1.148740 0.084075 -0.003661 298.058000 0 0 1
-30.174173 -18.932944 16.088635 39.086842 0.560363 1.146574 0.063230 0.005779 79634.200000 0 0 1
-30.152973 -18.813544 17.514435 39.622047 0.557834 1.112927 0.066029 0.013262 -38236.400000 0 0 1
-30.588773 -19.979944 18.163635 40.801824 0.578607 1.109435 0.078479 0.009823 -120423.000000 0 0 1
-29.507273 -21.062944 18.259635 40.592376 0.619942 1.104222 0.057528 0.008467 410651.000000 0 0 1
-28.282273 -20.688844 18.895635 39.811559 0.631564 1.076256 0.071494 0.007438 185084.000000 0 0 1
-27.456773 -21.792544 19.076635 39.908738 0.670890 1.072413 0.066239 0.008952 -291348.000000 0 0 1
-26.114473 -21.386444 19.743335 39.104283 0.686189 1.041543 0.072799 0.008403 -587739.000000 0 0 1
-25.163073 -21.217944 18.775335 37.893200 0.700543 1.052409 0.084453 -0.003416 -1164060.000000 0 0 1
-23.933673 -20.912344 19.373835 37.222202 0.718129 1.023370 0.088711 -0.004680 125282.000000 0 0 1
-22.689973 -20.701344 18.475935 35.843279 0.739600 1.029247 0.100050 -0.020672 243453.000000 0 0 1
-22.248473 -21.868544 17.825135 35.929976 0.776787 1.051686 0.094779 -0.016279 502999.000000 0 0 1
-20.920673 -21.731244 17.318135 34.782744 0.804400 1.049627 0.100896 -0.021835 450992.000000 0 0 1
-20.634273 -22.664544 16.111435 34.627057 0.832254 1.086840 0.103248 -0.010886 -603364.000000 0 0 1
-20.697373 -24.072544 16.311735 35.692314 0.860645 1.096166 0.101464 -0.014731 -328693.000000 0 0 1
-19.799173 -24.665044 17.197335 36.001666 0.894398 1.072782 0.107997 -0.024871 -902264.000000 0 0 1
-18.370573 -24.804444 16.688235 35.088967 0.933328 1.075153 0.088732 -0.016658 -525852.000000 0 0 1
-17.708873 -23.540444 16.637935 33.831606 0.925841 1.056656 0.092140 -0.024846 -186083.000000 0 0 1
-16.347973 -23.686144 16.261835 33.056571 0.966684 1.056480 0.092092 -0.028612 739853.000000 0 0 1
-15.569373 -22.297644 16.161035 31.634939 0.961245 1.034611 0.076960 -0.025760 95807.500000 0 0 1
-16.162073 -21.444644 15.177135 30.845272 0.924954 1.056364 0.081380 -0.018522 527405.000000 0 0 1
-17.238773 -20.567244 15.522835 31.002342 0.873213 1.046390 0.076029 -0.013568 231807.000000 0 0 1
-16.875273 -19.350844 16.383935 30.457566 0.853629 1.002821 0.079586 -0.023526 -364135.000000 0 0 1
-16.205973 -18.353044 15.604835 29.034095 0.847446 1.003367 0.063281 -0.021165 215229.000000 0 0 1
-16.047273 -17.110544 16.300035 28.565308 0.817454 0.963531 0.059308 -0.020929 -193447.000000 0 0 1
-15.288373 -16.011144 15.448335 26.995224 0.808486 0.961535 0.051333 -0.015881 151036.000000 0 0 1
-15.925373 -15.349044 14.373735 26.378304 0.766972 0.994518 0.048889 -0.020571 -168170.000000 0 0 1
-16.238073 -16.248944 13.320735 26.554570 0.785733 1.045307 0.075625 -0.015754 -284900.000000 0 0 1
-16.976673 -15.474144 12.214335 26.016274 0.739129 1.082085 0.058789 -0.010152 -450770.000000 0 0 1
-18.340673 -15.338544 12.493535 26.976650 0.696494 1.089280 0.052890 -0.010018 -335325.000000 0 0 1
-19.007373 -14.435144 11.590335 26.532800 0.649522 1.118724 0.076047 -0.017570 1048740.000000 0 0 1
-20.570673 -14.640144 11.747135 27.847470 0.618535 1.135324 0.081887 -0.021343 1099210.000000 0 0 1
-21.179173 -15.822244 11.252735 28.731948 0.641621 1.168377 0.094518 -0.033981 206366.000000 0 0 1
-21.215673 -15.992144 9.847535 28.334209 0.645922 1.215840 0.101389 -0.028322 -367434.000000 0 0 1
-22.004973 -17.198244 9.258335 29.423038 0.663397 1.250695 0.100454 -0.019624 101815.000000 0 0 1
-21.346573 -18.428644 9.298435 29.694309 0.712169 1.252300 0.105130 -0.006370 -222439.000000 0 0 1
-22.146373 -19.382644 8.659635 30.677972 0.718947 1.284631 0.129269 -0.036704 -23493.600000 0 0 1
-21.556973 -20.794644 8.678735 31.183982 0.767400 1.288765 0.126432 -0.030613 -27673.600000 0 0 1
-20.277073 -20.883444 8.101835 30.214527 0.800129 1.299331 0.143584 -0.027099 -257986.000000 0 0 1
-19.652473 -22.117244 8.429035 30.764278 0.844338 1.293259 0.125272 -0.028640 536296.000000 0 0 1
-18.288973 -22.350844 7.710435 29.891430 0.885015 1.309899 0.112050 -0.024611 562208.000000 0 0 1
-17.134073 -22.008044 8.452535 29.144053 0.909280 1.276542 0.078551 -0.027943 711384.000000 0 0 1
-15.939173 -22.238144 7.667635 28.414519 0.948917 1.297560 0.101305 -0.017880 632419.000000 0 0 1
-14.655573 -21.934244 8.496535 27.714400 0.981761 1.259204 0.018891 -0.001610 748553.000000 0 0 1
-13.537173 -22.254844 7.610935 27.137787 1.024311 1.286528 0.045586 -0.003859 78746.800000 0 0 1
-12.345273 -22.012644 8.300535 26.568047 1.059679 1.253051 0.041461 -0.003113 -250828.000000 0 0 1
-11.088973 -22.466944 7.529935 26.161590 1.112307 1.278842 0.048606 -0.005151 35236.000000 0 0 1
-11.001273 -23.895444 7.516535 27.359067 1.139334 1.292481 0.053523 -0.005830 -450540.000000 0 0 1
-9.849973 -24.251344 6.804835 27.045433 1.184989 1.316455 0.077390 -0.017314 -122003.000000 0 0 1
-9.511973 -25.762874 6.955835 28.329965 1.217109 1.322731 0.100757 -0.018197 285666.000000 0 0 1
-10.523573 -26.662564 6.456435 29.382366 1.194872 1.349250 0.101205 -0.019671 380590.000000 0 0 1
-10.108973 -28.000784 6.507035 30.472557 1.224334 1.355602 0.116908 -0.022900 127884.000000 0 0 1
-9.168973 -28.502234 5.380735 30.420383 1.259558 1.392982 0.133195 -0.027723 206816.000000 0 0 1
-7.805973 -28.084684 5.515135 29.666469 1.299695 1.383804 0.143271 -0.027816 365899.000000 0 0 1
-6.802973 -28.994414 5.149735 30.223770 1.340335 1.399574 0.155057 -0.022040 191975.000000 0 0 1
-6.809973 -30.380324 5.793635 31.668692 1.350284 1.386815 0.169807 -0.039145 -928810.000000 0 0 1
-6.807973 -30.357954 7.214135 31.937401 1.350190 1.342946 0.166786 -0.029184 171545.000000 0 0 1
-6.956973 -31.620134 7.768935 33.295476 1.354230 1.335292 0.203501 -0.040926 -193766.000000 0 0 1
-7.266973 -31.501694 9.303635 33.641095 1.344077 1.290588 0.173122 -0.044470 594521.000000 0 0 1
-6.201973 -30.983854 10.155735 33.190400 1.373239 1.259824 0.149505 -0.038444 878211.000000 0 0 1
-6.310973 -31.321324 11.510435 33.960916 1.371967 1.225015 0.125200 -0.028691 -437886.000000 0 0 1
-5.532973 -30.411914 12.477135 33.334325 1.390830 1.187151 0.114746 -0.017131 -229392.000000 0 0 1
-6.154973 -29.235564 12.898335 32.541803 1.363296 1.163245 0.097513 -0.007506 134038.000000 0 0 1
-5.309973 -28.441894 13.740335 32.030204 1.386226 1.127432 0.084594 -0.016443 8810.000000 0 0 1
-6.103973 -27.733434 14.857635 32.049199 1.354156 1.088756 0.099061 -0.017780 -93132.700000 0 0 1
-6.675973 -28.624454 15.850735 33.394218 1.341666 1.076224 0.094069 -0.020294 75234.200000 0 0 1
-5.864973 -29.612634 16.500935 34.403297 1.375270 1.070561 0.071742 -0.033734 -118559.000000 0 0 1
-6.619973 -30.904204 16.937435 35.857643 1.359776 1.078839 0.081886 -0.030948 -87966.400000 0 0 1
-7.237973 -31.435154 15.801035 35.919770 1.344490 1.115311 0.089849 -0.030919 -118101.000000 0 0 1
-7.597973 -32.774974 15.892235 37.208752 1.342998 1.129502 0.093086 -0.036419 -233974.000000 0 0 1
-6.478973 -33.762484 15.513235 37.716613 1.381203 1.146905 0.084202 -0.040499 -52268.900000 0 0 1
-5.994973 -33.622844 14.179435 36.979612 1.394350 1.177279 0.098664 -0.044578 -130013.000000 0 0 1
-5.025973 33.132724 13.874435 36.270343 -1.420252 1.178265 0.111858 -0.051756 -152891.000000 0 0 1
-3.941973 33.615876 12.905035 36.223006 -1.454064 1.206527 0.124965 -0.054865 -21123.000000 0 0 1
-4.513973 33.794802 11.625135 36.022331 -1.438012 1.242194 0.144594 -0.054324 -261023.000000 0 0 1
-3.507973 -33.801864 10.700735 35.628326 1.467386 1.265744 0.147790 -0.051484 -776553.000000 0 0 1
-4.079973 -33.597684 9.262435 35.089076 1.449952 1.303661 0.153730 -0.050410 -342032.000000 0 0 1
-4.403973 32.978298 8.451935 34.327807 -1.438040 1.322026 0.165397 -0.063735 299518.000000 0 0 1
-5.286973 32.010323 8.954835 33.657123 -1.407109 1.301492 0.181006 -0.061415 90181.100000 0 0 1
-6.756973 32.249587 9.375035 34.257610 -1.364263 1.293597 0.192969 -0.053798 183169.000000 0 0 1
-7.646973 32.552064 8.339435 34.462432 -1.340065 1.326384 0.185701 -0.045731 -590492.000000 0 0 1
-8.939973 32.863339 8.810035 35.178671 -1.305189 1.317665 0.151807 -0.047482 366877.000000 0 0 1
-9.920973 33.185486 7.630935 35.467356 -1.280298 1.353947 0.157573 -0.056165 170120.000000 0 0 1
-9.891973 -33.240154 7.098535 35.399833 1.281551 1.368903 0.170009 -0.050905 -218184.000000 0 0 1
-10.740673 -33.256114 5.995235 35.458060 1.258403 1.400901 0.157562 -0.040262 -30573.400000 0 0 1
-11.152073 -31.835054 5.420635 34.164641 1.233847 1.411461 0.144752 -0.046473 33263.800000 0 0 1
-12.177973 -31.213774 6.130635 34.061524 1.198812 1.389823 0.145408 -0.044435 -286202.000000 0 0 1
-12.945873 -30.303064 5.391235 33.390668 1.167052 1.408627 0.132441 -0.043748 -116095.000000 0 0 1
-14.072073 -29.598254 6.170235 33.348938 1.126992 1.384704 0.118446 -0.039702 -723736.000000 0 0 1
-15.115773 -30.476394 6.430635 34.621529 1.110367 1.383970 0.132128 -0.034298 101694.000000 0 0 1
-16.017073 -29.757744 7.341535 34.582772 1.077020 1.356880 0.116186 -0.037716 496471.000000 0 0 1
34.882108 -12.399444 -12.643665 39.119943 -0.341537 1.899908 0.090084 -0.029795 243722.000000 0 0 1
33.766008 -12.434144 -11.751065 37.852857 -0.352835 1.886453 0.103620 -0.034463 487350.000000 0 0 1
33.188018 -13.625844 -11.319365 37.619625 -0.389581 1.876422 0.110126 -0.034281 -455651.000000 0 0 1
33.995268 -14.374044 -10.297165 38.318703 -0.400027 1.842865 0.108987 -0.030774 6517.770000 0 0 1
35.224278 -14.882744 -10.807365 39.737199 -0.399763 1.846237 0.094415 -0.030487 210399.000000 0 0 1
36.066448 -15.279244 -9.744965 40.363453 -0.400719 1.814636 0.090742 -0.024643 1261170.000000 0 0 1
37.604168 -15.519444 -10.054065 41.904783 -0.391411 1.813086 0.074557 -0.023492 993697.000000 0 0 1
-37.132547 -14.353044 -10.463865 41.162221 0.368845 1.827828 0.086000 -0.027480 257401.000000 0 0 1
-35.746508 -14.601044 -10.683265 40.064142 0.387779 1.840716 0.083618 -0.030305 484602.000000 0 0 1
-34.951258 -13.374344 -11.184365 39.058335 0.365467 1.861212 0.119815 -0.035005 -46729.000000 0 0 1
-34.752037 -12.392544 -10.236665 38.289275 0.342542 1.841439 0.130393 -0.032592 -46842.100000 0 0 1
-33.967017 -11.339344 -10.712465 37.377746 0.322201 1.861472 0.152209 -0.031883 -370533.000000 0 0 1
-34.018799 -10.028744 -9.929465 36.829997 0.286679 1.843777 0.163293 -0.036444 114850.000000 0 0 1
-33.381927 -9.950144 -8.653365 35.892049 0.289685 1.814289 0.165693 -0.034872 258482.000000 0 0 1
-33.895427 -8.824744 -7.991565 35.925495 0.254698 1.795121 0.202731 -0.053402 -129455.000000 0 0 1
-33.437687 -8.656244 -6.585665 35.162202 0.253316 1.759203 0.192711 -0.050762 -312951.000000 0 0 1
-32.093927 -8.241544 -6.416965 33.750862 0.251363 1.762088 0.196347 -0.055138 200194.000000 0 0 1
-31.823047 -7.928544 -5.086065 33.187892 0.244174 1.724653 0.209789 -0.044226 -84731.100000 0 0 1
-31.148897 -9.070444 -4.303765 32.726887 0.283361 1.702684 0.195074 -0.037462 -32661.900000 0 0 1
-32.081567 -10.132744 -4.052465 33.886899 0.305928 1.690671 0.194936 -0.036167 603571.000000 0 0 1
-32.345477 -10.200044 -2.630665 34.017513 0.305476 1.648206 0.193875 -0.039585 74140.200000 0 0 1
-33.054747 -11.504544 -2.229565 35.070526 0.334932 1.634413 0.202625 -0.038965 786132.000000 0 0 1
-34.397653 -11.734444 -2.681265 36.442899 0.328761 1.644437 0.213730 -0.055078 779055.000000 0 0 1
-34.810543 -13.038044 -2.362365 37.247084 0.358370 1.634263 0.220640 -0.059141 279073.000000 0 0 1
-36.361287 -13.128944 -2.346165 38.730051 0.346502 1.631411 0.206269 -0.049359 802700.000000 0 0 1
-37.090727 -12.315544 -1.377365 39.106161 0.320585 1.606025 0.240879 -0.059814 -105593.000000 0 0 1
36.918778 -12.598544 -1.242265 39.028998 -0.328859 1.602631 0.276271 -0.056950 -454922.000000 0 0 1
36.296688 -11.743644 -0.118565 38.149401 -0.312916 1.573904 0.257519 -0.071308 7956.010000 0 0 1
36.778138 -12.174244 1.158735 38.758049 -0.319666 1.540895 0.267777 -0.056947 338752.000000 0 0 1
36.098408 -11.576844 2.270235 37.977261 -0.310340 1.510982 0.258760 -0.047930 249820.000000 0 0 1
36.518308 -12.104544 3.676135 38.647390 -0.320068 1.475532 0.239032 -0.054141 540498.000000 0 0 1
35.568138 -11.749644 4.694235 37.751588 -0.319056 1.446128 0.210796 -0.055983 409805.000000 0 0 1
36.161608 -11.920544 5.988835 38.543838 -0.318429 1.414787 0.186084 -0.047834 -155141.000000 0 0 1
35.212298 -11.802244 7.165435 37.822511 -0.323406 1.380195 0.159391 -0.059016 -106152.000000 0 0 1
34.630238 -10.487044 7.297935 36.911940 -0.294050 1.371773 0.167807 -0.049215 6006.410000 0 0 1
34.113618 -10.376244 8.593735 36.677754 -0.295276 1.334294 0.130007 -0.029986 -233259.000000 0 0 1
33.115138 -9.221844 8.827335 35.490515 -0.271597 1.319434 0.136801 -0.052869 579151.000000 0 0 1
31.778368 -9.446444 8.341535 34.185980 -0.288941 1.324303 0.166149 -0.045578 405941.000000 0 0 1
30.933958 -8.494244 8.940635 33.301605 -0.267988 1.298987 0.172411 -0.028259 64449.300000 0 0 1
29.462558 -8.904544 8.606235 31.959357 -0.293504 1.298144 0.158157 -0.015621 49526.900000 0 0 1
29.158558 -8.356444 7.354935 31.211324 -0.279106 1.332909 0.174970 -0.023919 206970.000000 0 0 1
28.081458 -9.144344 6.816435 30.309258 -0.314807 1.343960 0.189237 -0.033281 635526.000000 0 0 1
27.212058 -8.240244 5.862935 29.030531 -0.294038 1.367440 0.189772 -0.035446 357711.000000 0 0 1
26.340958 -7.337144 6.570635 28.122109 -0.271659 1.334970 0.197740 -0.028852 882108.000000 0 0 1
25.193858 -6.919344 5.825335 26.768309 -0.268035 1.351420 0.212528 -0.031005 250423.000000 0 0 1
25.364958 -5.780144 4.838035 26.461250 -0.224053 1.386927 0.204841 -0.035513 -332270.000000 0 0 1
26.209558 -6.118244 3.728435 27.171218 -0.229329 1.433142 0.186335 -0.037066 555558.000000 0 0 1
26.741458 -4.946644 3.132035 27.374888 -0.182913 1.456133 0.195727 -0.040695 7974.240000 0 0 1
27.363158 -5.152844 1.737435 27.898260 -0.186133 1.508478 0.201432 -0.052981 99921.100000 0 0 1
26.487558 -5.354744 0.631635 27.030779 -0.199472 1.547427 0.190748 -0.048106 267513.000000 0 0 1
27.194758 -5.279644 -0.608965 27.709211 -0.191757 1.592775 0.194463 -0.052252 -488399.000000 0 0 1
26.260158 -5.521144 -1.789565 26.893893 -0.207230 1.637387 0.168199 -0.040581 419038.000000 0 0 1
25.417158 -4.358444 -2.070665 25.871135 -0.169825 1.650920 0.213750 -0.041611 551020.000000 0 0 1
24.844758 -4.418144 -3.374665 25.459190 -0.175990 1.703740 0.223866 -0.043951 407221.000000 0 0 1
23.577158 -3.492544 -3.490265 24.088632 -0.147063 1.716201 0.192858 -0.036648 328449.000000 0 1 0
23.833858 -2.151644 -3.282465 24.154853 -0.090033 1.707111 0.187505 -0.038780 378823.000000 0 1 0
24.472958 -1.484544 -4.380465 24.906185 -0.060586 1.747595 0.202361 -0.034830 -25455.900000 0 1 0
23.425058 -1.085044 -5.462965 24.078095 -0.046287 1.799675 0.224655 -0.029359 -169025.000000 0 1 0
22.607658 -0.092844 -4.926865 23.138471 -0.004107 1.785369 0.188498 -0.019886 125219.000000 0 1 0
21.831758 0.586856 -5.915165 22.626516 0.026874 1.835296 0.186023 -0.009430 -264439.000000 0 1 0
21.643258 2.108156 -5.719865 22.485369 0.097098 1.828005 0.184209 -0.000215 -402596.000000 0 1 0
22.835158 2.841856 -5.702365 23.707331 0.123814 1.813710 0.220500 -0.013344 91295.200000 0 1 0
23.439758 2.780456 -4.415165 24.013473 0.118070 1.755710 0.228160 -0.009781 -5231.420000 0 1 0
24.594658 3.785956 -4.179865 25.232954 0.152735 1.737214 0.242569 -0.030461 257462.000000 0 0 1
24.074058 5.083556 -4.051265 24.936230 0.208106 1.733985 0.201613 -0.013470 611167.000000 0 1 0
25.095658 5.994056 -3.696465 26.065008 0.234456 1.713093 0.191238 -0.018196 -62131.800000 0 0 1
24.592358 7.425556 -3.477465 25.923266 0.293241 1.705346 0.168343 -0.022176 -29838.900000 0 0 1
23.591658 7.493456 -2.467165 24.875794 0.307553 1.670139 0.188715 -0.032944 533963.000000 0 1 0
22.858058 8.679256 -2.655765 24.594174 0.362887 1.678991 0.167376 -0.024951 -73614.600000 0 1 0
21.837158 9.033756 -1.546765 23.682540 0.392250 1.636155 0.133782 -0.024790 371779.000000 0 1 0
22.496158 9.512056 -0.389165 24.427603 0.400031 1.586728 0.110789 -0.024895 1075250.000000 0 1 0
21.451758 9.946656 0.458535 23.650035 0.434168 1.551407 0.075141 -0.023136 594764.000000 0 1 0
22.100058 10.377656 1.840335 24.484590 0.439014 1.495562 0.100226 -0.024924 -178411.000000 0 1 0
22.792158 11.639356 1.759235 25.652524 0.472150 1.502163 0.096721 -0.031821 412049.000000 0 0 1
22.022158 12.766456 1.468535 25.497342 0.525366 1.513169 0.097090 -0.028001 -182640.000000 0 0 1
21.004458 13.390956 2.490535 25.034131 0.567558 1.471146 0.082107 -0.018713 -184948.000000 0 0 1
19.794858 12.672756 2.460635 23.632391 0.569458 1.466486 0.111604 -0.020888 303185.000000 0 1 0
18.675758 13.365256 3.017735 23.162917 0.621150 1.440142 0.093855 -0.020740 196107.000000 0 1 0
18.605058 13.404356 4.552735 23.378459 0.624331 1.374803 0.071649 -0.010096 -548068.000000 0 1 0
18.172358 12.237656 5.161735 22.508628 0.592664 1.339415 0.050728 -0.002326 270108.000000 0 1 0
18.389058 12.375856 6.522235 23.105385 0.592375 1.284624 0.060380 -0.014253 -73859.300000 0 1 0
18.391158 11.056856 7.290535 22.663642 0.541305 1.243289 0.025996 -0.013661 -538338.000000 0 1 0
19.413258 10.201456 6.923935 22.997504 0.483830 1.264978 0.017523 -0.019978 -128226.000000 0 1 0
19.479158 8.973856 7.597435 22.752774 0.431708 1.230345 0.023618 -0.011380 145737.000000 0 1 0
20.404058 7.958456 6.862435 22.951157 0.371893 1.267150 0.037734 -0.016557 469256.000000 0 1 0
19.870558 7.469256 5.568435 21.946215 0.359556 1.314261 0.013975 -0.024987 609634.000000 0 1 0
20.881158 6.841356 4.827435 22.497356 0.316611 1.354537 0.044158 -0.027949 -479914.000000 0 1 0
20.460058 6.763356 3.398535 21.815293 0.319256 1.414372 0.054482 -0.016717 -338578.000000 0 1 0
21.409958 6.182756 2.542135 22.429339 0.281131 1.457213 0.059982 -0.019698 388630.000000 0 1 0
20.933558 6.178156 1.216735 21.860099 0.286984 1.515107 0.055185 -0.002537 -376487.000000 0 1 0
21.959658 5.512156 0.289835 22.642757 0.245932 1.557996 0.139805 -0.014418 -11701.900000 0 1 0
21.933058 4.071156 0.296435 22.309667 0.183529 1.557509 0.120436 -0.022590 -202262.000000 0 1 0
22.987358 3.599056 -0.449165 23.271734 0.155306 1.590098 0.157846 -0.034585 -617029.000000 0 1 0
23.085158 2.051556 -0.499065 23.181512 0.088636 1.592327 0.195201 -0.035679 -20222.700000 0 1 0
22.038258 1.431856 -1.237865 22.119388 0.064880 1.626788 0.133270 -0.022343 852110.000000 0 1 0
22.344658 0.107956 -1.695865 22.409180 0.004831 1.646546 0.172033 -0.027623 -1377100.000000 0 1 0
22.406158 -1.026444 -0.594265 22.437528 -0.045779 1.597285 0.198623 -0.022676 -65589.000000 0 1 0
23.453058 -0.987044 0.337035 23.476239 -0.042061 1.556439 0.213620 -0.030092 230236.000000 0 1 0
24.771158 -1.124644 -0.147565 24.797114 -0.045370 1.576747 0.221454 -0.048568 -730191.000000 0 1 0
25.820658 -1.056544 0.943935 25.859499 -0.040896 1.534286 0.235177 -0.046159 -377438.000000 0 0 1
25.657358 0.177656 1.602135 25.707945 0.006924 1.508435 0.230382 -0.038452 232308.000000 0 0 1
26.637058 0.384156 2.588435 26.765284 0.014421 1.473936 0.244590 -0.040280 -617840.000000 0 0 1
26.639958 1.863156 3.145935 26.889694 0.069825 1.453534 0.230202 -0.034927 -30725.300000 0 0 1
27.268558 2.889956 2.411335 27.527089 0.105587 1.483085 0.259279 -0.039578 87039.000000 0 0 1
28.669958 2.677156 2.320135 28.888003 0.093108 1.490395 0.261546 -0.040055 -149282.000000 0 0 1
29.220258 3.577056 1.178035 29.461952 0.121811 1.530801 0.298114 -0.050292 -161423.000000 0 0 1
28.781858 3.110256 -0.108965 28.949627 0.107645 1.574560 0.320358 -0.044312 220389.000000 0 0 1
29.315658 3.853756 -1.226565 29.593305 0.130708 1.612256 0.308311 -0.043720 578397.000000 0 0 1
30.763018 3.449056 -1.666365 31.000581 0.111651 1.624575 0.267085 -0.042112 338295.000000 0 0 1
31.757308 3.965656 -0.827165 32.014641 0.124231 1.596636 0.224057 -0.037057 560639.000000 0 0 1
33.102348 3.862856 -1.311165 33.352755 0.116169 1.610119 0.182329 -0.036935 1819490.000000 0 0 1
34.289988 4.393956 -0.391865 34.572586 0.127447 1.582131 0.130701 -0.028621 851747.000000 0 0 1
34.424968 3.664156 0.794235 34.628533 0.106040 1.547858 0.162649 -0.040041 -129204.000000 0 0 1
33.599858 4.190856 1.809135 33.908505 0.124088 1.517418 0.178582 -0.028853 -25566.500000 0 0 1
33.510648 3.334356 3.102435 33.818731 0.099175 1.478930 0.186055 -0.031502 236762.000000 0 0 1
32.524008 2.290956 2.998935 32.742224 0.070323 1.479075 0.212772 -0.039693 535876.000000 0 0 1
32.674768 1.224756 3.971635 32.938039 0.037466 1.449923 0.197342 -0.039922 852988.000000 0 0 1
33.919798 0.258956 3.778335 34.130567 0.007634 1.459867 0.181562 -0.031355 441032.000000 0 0 1
35.173558 0.781156 4.042435 35.413708 0.022205 1.456398 0.176666 -0.036189 -1231750.000000 0 0 1
36.178398 -0.148844 4.078535 36.407871 -0.004114 1.458537 0.160769 -0.041256 -647472.000000 0 0 1
37.574528 0.490556 4.305735 37.823606 0.013055 1.456712 0.183437 -0.053204 163678.000000 0 0 1
-37.313437 1.178856 3.156135 37.465230 -0.031583 1.486455 0.159456 -0.046621 -128086.000000 0 0 1
-36.248487 0.504556 2.533935 36.340449 -0.013918 1.501012 0.159928 -0.046090 -72222.200000 0 0 1
-35.571985 1.375656 1.419135 35.626851 -0.038653 1.530952 0.173525 -0.047337 -290849.000000 0 0 1
-34.790086 2.438656 1.853035 34.924646 -0.069982 1.517713 0.173126 -0.063789 -634292.000000 0 0 1
-33.845207 2.695956 0.849335 33.963033 -0.079488 1.545786 0.178523 -0.043054 -159809.000000 0 0 1
-32.783447 3.690956 1.420735 33.021146 -0.112114 1.527758 0.210295 -0.044387 365511.000000 0 0 1
-31.959917 3.125456 2.460935 32.206536 -0.097483 1.494311 0.218854 -0.060971 130825.000000 0 0 1
-31.055137 4.010556 3.039535 31.460211 -0.128432 1.474030 0.235090 -0.043664 -1020930.000000 0 0 1
-31.407357 4.369856 4.503435 32.028092 -0.138247 1.429720 0.248240 -0.048215 -339863.000000 0 0 1
-32.647867 4.962356 4.797335 33.369487 -0.150842 1.426532 0.250281 -0.033468 -585038.000000 0 0 1
-33.813187 4.245156 4.657435 34.395417 -0.124894 1.434970 0.232143 -0.033247 -1114800.000000 0 0 1
-34.181227 3.326156 5.853235 34.837910 -0.097004 1.401982 0.201460 -0.026079 -671470.000000 0 0 1
-34.403719 4.080656 7.045835 35.354087 -0.118059 1.370160 0.209552 -0.032220 259126.000000 0 0 1
-34.426060 3.416656 8.330235 35.583985 -0.098922 1.334503 0.178541 -0.030394 388683.000000 0 0 1
-35.618693 2.422556 8.637335 36.730963 -0.067909 1.333422 0.175070 -0.033076 187164.000000 0 0 1
-35.656762 1.296356 7.743035 36.510818 -0.036341 1.357098 0.176528 -0.045356 280149.000000 0 0 1
-36.538177 0.224756 8.094435 37.424708 -0.006151 1.352788 0.171424 -0.042490 -21377.600000 0 0 1
-36.257197 -0.548344 9.405235 37.461226 0.015123 1.317015 0.171445 -0.038288 265450.000000 0 0 1
-35.083665 -1.373344 9.334335 36.330145 0.039125 1.310951 0.157131 -0.041767 555135.000000 0 0 1
-34.936336 -2.164544 10.482635 36.539273 0.061878 1.279821 0.141069 -0.029723 428798.000000 0 0 1
-33.696237 -3.122444 10.435735 35.413142 0.092401 1.271670 0.142177 -0.024247 399527.000000 0 0 1
-33.787917 -4.044544 9.349435 35.290135 0.119137 1.302664 0.151833 -0.030107 -352337.000000 0 0 1
-32.620887 -4.801944 9.202235 34.232471 0.146155 1.298633 0.165374 -0.026675 -118585.000000 0 0 1
-32.641597 -5.931044 8.097135 34.149887 0.179741 1.331411 0.169840 -0.028377 450624.000000 0 0 1
-33.415297 -7.067744 8.547335 35.207840 0.208440 1.325578 0.178394 -0.032634 136530.000000 0 0 1
-33.758047 -7.868344 7.465835 35.457796 0.228992 1.358653 0.188834 -0.044830 149196.000000 0 0 1
-34.880638 -8.879844 7.806935 36.830134 0.249283 1.357205 0.189947 -0.051168 710589.000000 0 0 1
-36.124817 -8.273244 8.164335 37.948720 0.225136 1.353960 0.184965 -0.053182 159712.000000 0 0 1
-37.006957 -9.182944 8.729935 39.115893 0.243228 1.345719 0.190799 -0.059690 -254954.000000 0 0 1
7.803343 -23.876444 10.429135 27.198228 -1.254918 1.177268 0.166263 -0.043444 -21525.700000 0 0 1
7.210943 -24.502744 9.323535 27.190264 -1.284585 1.220794 0.142833 -0.050403 -665080.000000 0 0 1
6.045043 -25.174664 9.710035 27.651239 -1.335134 1.211986 0.143858 -0.045192 -142322.000000 0 0 1
5.589343 -26.039594 8.560035 27.974549 -1.359357 1.259814 0.115211 -0.031648 -442770.000000 0 0 1
4.958043 -25.343534 7.513935 26.894909 -1.377603 1.287647 0.113947 -0.029677 -334400.000000 0 0 1
4.835243 -26.219784 6.411935 27.422063 -1.388433 1.334788 0.093828 -0.023095 -1015610.000000 0 0 1
4.266643 -25.495474 5.192535 26.366377 -1.404984 1.372563 0.071164 -0.019329 1744210.000000 0 0 1
2.808243 -25.492944 5.091335 26.147622 -1.461081 1.374829 0.056233 -0.023551 1430170.000000 0 0 1
2.241543 -26.793394 4.873735 27.325149 -1.487330 1.391476 0.050119 -0.015493 -229466.000000 0 0 1
0.683943 -26.678474 4.853035 27.124909 -1.545165 1.390913 0.078525 -0.028784 196995.000000 0 0 1
0.074443 -26.422684 6.087135 27.114885 -1.567979 1.344372 0.064298 -0.025829 49076.900000 0 0 1
-1.340057 -26.554364 6.103835 27.279787 1.520374 1.345137 0.064094 -0.024067 711166.000000 0 0 1
-1.869557 -28.018904 6.290135 28.777075 1.504170 1.350436 0.086991 -0.022364 -350434.000000 0 0 1
-1.629357 -28.574984 7.626335 29.620019 1.513838 1.310391 0.081720 -0.026922 172561.000000 0 0 1
-2.068157 -29.915834 7.765835 30.976484 1.501774 1.317392 0.119132 -0.029248 10165.200000 0 0 1
-1.808557 -30.517424 9.186935 31.921526 1.511602 1.278870 0.117109 -0.031856 662670.000000 0 0 1
-0.457357 -30.923224 9.425835 32.331120 1.556007 1.274959 0.104096 -0.027249 447947.000000 0 0 1
-0.259657 -31.172264 10.774435 32.982812 1.562467 1.238020 0.112588 -0.023474 -369352.000000 0 0 1
1.195543 -31.220204 11.229635 33.199927 -1.532521 1.225747 0.087055 -0.024525 -387224.000000 0 0 1
1.806843 -32.497344 11.018635 34.362077 -1.515254 1.244367 0.095640 -0.026350 1802590.000000 0 0 1
3.245543 -32.451824 11.335835 34.527606 -1.471117 1.236280 0.085701 -0.023282 1901760.000000 0 0 1
3.628643 -32.985684 12.739735 35.546072 -1.461230 1.204242 0.100469 -0.025983 -228976.000000 0 0 1
3.174043 -32.190434 13.792735 35.164444 -1.472512 1.167736 0.105491 -0.037914 177376.000000 0 0 1
3.751543 -32.569794 15.047935 36.073618 -1.456117 1.140494 0.116876 -0.043301 -135424.000000 0 0 1
3.333343 -31.565714 16.148335 35.612838 -1.465586 1.100174 0.125528 -0.050491 -34133.600000 0 0 1
3.778443 -30.252984 16.001635 34.432136 -1.446545 1.087467 0.138587 -0.047958 -669988.000000 0 0 1
5.130843 -30.080454 16.261135 34.577215 -1.401852 1.081183 0.136354 -0.037576 -684488.000000 0 0 1
5.845743 -28.967924 15.448935 33.346408 -1.371670 1.089096 0.149219 -0.034492 14430.800000 0 0 1
6.043143 -29.155164 14.064635 32.929578 -1.366415 1.129499 0.131583 -0.034074 679301.000000 0 0 1
4.827043 -29.232594 13.293435 32.473994 -1.407148 1.149048 0.109214 -0.028344 47448.000000 0 0 1
5.122043 -29.176504 11.816435 31.892504 -1.397013 1.191240 0.092435 -0.025483 323366.000000 0 0 1
5.699843 -30.433464 11.347835 32.976617 -1.385653 1.219497 0.085795 -0.022687 975766.000000 0 0 1
7.128743 -30.540184 11.493835 33.401049 -1.341481 1.219499 0.093235 -0.028909 581794.000000 0 0 1
7.621943 -31.899684 10.865435 34.550565 -1.336259 1.250888 0.070545 -0.024156 -76192.200000 0 0 1
7.263943 -32.936824 11.800535 35.733064 -1.353729 1.234237 0.058062 -0.031254 232080.000000 0 0 1
7.501743 33.519197 11.189835 36.125131 1.350620 1.255864 0.064085 -0.024326 -48516.200000 0 0 1
7.391543 32.255488 12.101135 35.234768 1.345530 1.220216 0.066353 -0.026809 1018390.000000 0 0 1
6.036443 32.038839 12.550935 34.934966 1.384569 1.203315 0.070668 -0.027923 765874.000000 0 0 1
5.807343 30.771892 13.178535 33.975114 1.384268 1.172457 0.083245 -0.023834 196511.000000 0 0 1
4.412443 30.727052 13.820835 33.979948 1.428170 1.151919 0.096595 -0.038019 167796.000000 0 0 1
4.552843 31.250172 15.146135 35.024378 1.426124 1.123593 0.110803 -0.042974 -341201.000000 0 0 1
3.392143 31.161342 15.910935 35.152435 1.462366 1.101087 0.129059 -0.048700 -296268.000000 0 0 1
3.702143 31.456222 17.392635 36.134520 1.453643 1.068625 0.139119 -0.047607 -444071.000000 0 0 1
4.126043 32.780801 17.584735 37.427637 1.445587 1.081695 0.148881 -0.050660 -163039.000000 0 0 1
4.776343 32.882632 18.812235 38.183519 1.426551 1.055630 0.140174 -0.040100 -224381.000000 0 0 1
4.926043 -33.429134 19.314235 38.920593 -1.424491 1.051526 0.139117 -0.046152 630710.000000 0 0 1
3.634643 -32.820654 19.219435 38.207233 -1.460503 1.043694 0.138576 -0.043546 318724.000000 0 0 1
3.417143 -31.697304 20.033535 37.652868 -1.463406 1.009766 0.126991 -0.041539 -760887.000000 0 0 1
2.056043 -31.042284 19.877035 36.918115 -1.504659 1.002249 0.142724 -0.038527 -357534.000000 0 0 1
1.024543 -31.841994 20.448635 37.856425 -1.538632 1.000166 0.160277 -0.039185 70587.500000 0 0 1
0.358743 -31.179284 21.524435 37.889019 -1.559291 0.966611 0.142220 -0.037718 -959400.000000 0 0 1
-0.622857 -31.995764 22.298535 39.004378 1.551332 0.962228 0.175113 -0.029910 -1412780.000000 0 0 1
-1.628557 -32.329244 21.377835 38.792319 1.520465 0.987133 0.161954 -0.032847 -107754.000000 0 0 1
-2.408857 -33.504544 21.714535 39.998476 1.499023 0.996929 0.151484 -0.025910 388919.000000 0 0 1
-3.543357 -33.267984 22.745635 40.455878 1.464687 0.973713 0.162097 -0.026588 490561.000000 0 0 1
-4.640857 -32.603814 22.056935 39.636531 1.429405 0.980653 0.146428 -0.029652 613964.000000 0 0 1
-5.823757 -32.547484 22.860835 40.197918 1.393739 0.965863 0.130085 -0.033822 641577.000000 0 0 1
-6.980757 -31.931644 22.020735 39.411593 1.355567 0.977934 0.093326 -0.022803 -39577.900000 0 0 1
-7.502257 -32.758864 21.023135 39.640878 1.345664 1.011795 0.074802 -0.024158 6578.370000 0 0 1
-8.536257 -32.084804 20.301535 38.915995 1.310767 1.021982 0.072153 -0.031184 112413.000000 0 0 1
-9.687357 -33.022224 19.941235 39.773924 1.285444 1.045621 0.057325 -0.026358 -339134.000000 0 0 1
-10.420557 -33.505464 21.006935 40.896154 1.269269 1.031345 0.063747 -0.026295 383921.000000 0 0 1
-11.706257 33.633638 20.683335 41.183230 -1.235858 1.044624 0.058461 -0.022567 1206730.000000 0 0 1
-12.495357 33.357117 21.968535 41.850302 -1.212382 1.018162 0.057403 -0.014665 -327866.000000 0 0 1
-12.824157 -33.181164 22.727635 42.213671 1.201991 1.002265 0.063629 -0.015928 263063.000000 0 0 1
-11.740757 -32.582904 23.432735 41.816074 1.224944 0.975956 0.059541 -0.013513 -35521.000000 0 0 1
-12.080757 -31.229744 24.103835 41.258168 1.201690 0.946878 0.061785 -0.017626 -262471.000000 0 0 1
-12.930957 -31.304034 25.193535 42.212159 1.179068 0.931250 0.056113 -0.008257 -199559.000000 0 0 1
-13.432657 -30.026564 25.524135 41.635469 1.150141 0.910896 0.088791 -0.017909 12805.100000 0 0 1
-14.131157 -29.930774 26.914835 42.660862 1.129694 0.888081 0.082723 -0.014801 -279420.000000 0 0 1
-13.349757 -29.920984 28.061035 43.138185 1.151134 0.862565 0.060745 -0.014143 226734.000000 0 0 1
-14.163057 -29.433764 29.143235 43.775185 1.122314 0.842301 0.079670 -0.013982 361949.000000 0 0 1
-13.427857 -29.439164 30.524135 44.482520 1.142863 0.814537 0.060504 -0.013772 -167686.000000 0 0 1
-14.265857 -28.987784 31.580235 45.178729 1.113462 0.796789 0.068358 -0.012154 387998.000000 0 0 1
-13.671657 -28.587524 32.847435 45.641152 1.124709 0.767442 0.061506 -0.009063 -35729.000000 0 0 1
-12.889157 -29.686164 33.656935 46.692483 1.161175 0.765810 0.060030 -0.008955 497555.000000 0 0 1
-11.522857 -29.800194 33.279135 46.133812 1.201833 0.765031 0.044254 -0.010365 6062.790000 0 0 1
-10.963857 -30.779394 -33.609655 46.874152 1.228602 2.370313 0.042748 -0.006050 -307035.000000 0 0 1
-9.431657 -30.921394 -33.655955 46.667034 1.274740 2.376320 0.062533 -0.009806 25787.400000 0 0 1
-8.612557 -29.973544 -32.970855 45.383552 1.290996 2.384002 0.094949 -0.024726 32909.000000 0 0 1
-7.391257 -30.629454 -32.707155 45.415329 1.334011 2.374856 0.105786 -0.036410 -352714.000000 0 0 1
-6.572057 -29.793774 -31.701455 43.998217 1.353688 2.375344 0.137399 -0.040826 -229468.000000 0 0 1
-7.137357 -29.706784 -30.393355 43.095138 1.335005 2.353589 0.136395 -0.047050 378340.000000 0 0 1
-6.235757 -29.065774 -29.485055 41.869707 1.359460 2.352106 0.143529 -0.048881 144572.000000 0 0 1
-6.675857 -29.109984 -28.056255 40.976965 1.345362 2.324966 0.147424 -0.048500 -148031.000000 0 0 1
-6.530157 -30.365554 -27.536055 41.508362 1.358971 2.296131 0.126831 -0.050532 237713.000000 0 0 1
-7.659557 -30.817304 -26.802655 41.554270 1.327185 2.271824 0.136128 -0.047888 -154688.000000 0 0 1
-7.343557 -32.073964 -25.976955 41.922180 1.345719 2.239089 0.116384 -0.049024 116245.000000 0 0 1
-6.282857 -31.825064 -25.073455 40.999843 1.375884 2.228814 0.087048 -0.044313 -3163.110000 0 0 1
-5.807857 -33.009454 -24.477455 41.503025 1.396634 2.201577 0.073146 -0.048668 541980.000000 0 0 1
-4.684857 -32.854204 -23.359355 40.583322 1.429156 2.184122 0.093958 -0.055231 422662.000000 0 0 1
-4.971057 -32.308224 -22.130255 39.475067 1.418130 2.165923 0.100070 -0.046883 -139037.000000 0 0 1
-5.150157 -30.897344 -22.200455 38.393101 1.405629 2.187367 0.080857 -0.029570 -530103.000000 0 0 1
-5.387057 -30.341624 -20.727955 37.138695 1.395081 2.162918 0.115763 -0.032637 256903.000000 0 0 1
-6.753657 -30.477274 -20.304555 37.239107 1.352724 2.147481 0.123905 -0.041736 740213.000000 0 0 1
-7.507457 -29.313104 -20.270055 36.421080 1.320073 2.161021 0.126146 -0.030285 -48533.500000 0 0 1
-7.873757 -28.659224 -21.658155 36.775302 1.302674 2.200533 0.178642 -0.048482 -1233700.000000 0 0 1
-6.764257 -28.086884 -22.257155 36.469291 1.334464 2.227234 0.188160 -0.033100 -601809.000000 0 0 1
-7.043557 -27.730584 -23.626955 37.105660 1.322057 2.261070 0.250021 -0.049886 -610620.000000 0 0 1
-5.837957 -27.293394 -24.483255 37.127360 1.360075 2.290870 0.225676 -0.053608 -212680.000000 0 0 1
-5.145957 -26.139204 -24.045155 35.887440 1.376415 2.305027 0.222860 -0.055699 760517.000000 0 0 1
-4.364157 -26.191064 -22.804255 35.000739 1.405686 2.280404 0.161383 -0.041550 -518940.000000 0 0 1
-2.950657 -26.853094 -22.938055 35.439376 1.461354 2.274765 0.139188 -0.036281 1258090.000000 0 0 1
-1.836857 -26.014564 -23.372155 35.019840 1.500305 2.301505 0.136411 -0.041370 1269050.000000 0 0 1
-1.461657 -25.068544 -22.384455 33.639741 1.512556 2.298849 0.136572 -0.048182 -1120560.000000 0 0 1
-0.911457 -23.763944 -22.986255 33.074517 1.532460 2.339194 0.159828 -0.041851 569977.000000 0 0 1
-1.839057 -23.037944 -23.858855 33.217073 1.491138 2.372110 0.262789 -0.049855 605460.000000 0 0 1
-2.923357 -22.380444 -23.247855 32.402053 1.440911 2.370976 0.263321 -0.053699 164879.000000 0 0 1
-3.969057 -21.821644 -24.252555 32.865240 1.390877 2.400808 0.258521 -0.066419 116494.000000 0 0 1
-3.376657 -20.881244 -25.146855 32.860196 1.410476 2.442254 0.258208 -0.053352 100982.000000 0 0 1
-4.217557 -20.432144 -26.195855 33.488552 1.367238 2.469039 0.323032 -0.058385 -94307.200000 0 0 1
-4.206957 -21.328944 -27.451455 35.017206 1.376054 2.471786 0.261694 -0.044954 464649.000000 0 0 1
-5.131757 -20.898744 -28.475755 35.692591 1.330007 2.494443 0.264483 -0.046492 376143.000000 0 0 1
-5.336457 -21.895144 -29.430755 37.068105 1.331729 2.488099 0.278102 -0.035443 363629.000000 0 0 1
-6.426057 -21.574044 -30.490755 37.900128 1.281303 2.505634 0.261808 -0.039840 -56409.900000 0 0 1
-6.016657 -20.557044 -31.380955 37.994165 1.286068 2.542666 0.243430 -0.044179 -30764.000000 0 0 1
-6.952257 -20.430444 -32.436155 38.959480 1.242799 2.554512 0.228271 -0.040287 -22460.800000 0 0 1
-6.404757 -19.627344 -33.548155 39.392033 1.255373 2.589918 0.194384 -0.041306 65607.300000 0 0 1
-5.354657 -20.233144 33.387035 39.404905 1.312080 0.559951 0.185947 -0.031694 -186539.000000 0 0 1
-5.205357 -19.718444 32.068235 38.003743 1.312700 0.566438 0.186692 -0.033080 -840115.000000 0 0 1
-3.961157 -20.093244 31.330735 37.430525 1.376153 0.578951 0.126348 -0.031720 -1677460.000000 0 0 1
-3.855857 -21.552444 31.017535 37.966603 1.393763 0.614661 0.157856 -0.034269 406540.000000 0 0 1
-2.825957 -21.863144 30.065635 37.281705 1.442252 0.632682 0.132165 -0.024746 1262270.000000 0 0 1
-1.321757 -21.646844 30.467135 37.397583 1.509812 0.618616 0.102633 -0.030091 234563.000000 0 0 1
-0.966557 -20.251844 30.402635 36.543011 1.523106 0.588150 0.104228 -0.036557 -45407.700000 0 0 1
0.177643 -19.865344 31.147435 36.943554 -1.561854 0.567758 0.095189 -0.035341 -70053.400000 0 0 1
-0.070057 -19.473644 32.626435 37.996210 1.567199 0.538116 0.089352 -0.032336 219017.000000 0 0 1
-0.877457 -18.272044 32.719835 37.486332 1.522811 0.509790 0.086233 -0.026559 96190.200000 0 0 1
-1.294257 -18.172844 -33.611055 38.231275 1.499697 2.644874 0.090432 -0.030488 62108.400000 0 0 1
-2.512257 -17.229044 -33.473655 37.731114 1.426002 2.661957 0.108317 -0.041341 135722.000000 0 0 1
-2.303557 -15.845344 -33.669055 37.282523 1.426430 2.697681 0.128925 -0.040122 -74035.000000 0 0 1
-3.548357 -15.184744 -33.581555 37.025506 1.341237 2.706864 0.152652 -0.047939 153695.000000 0 0 1
-3.384157 -13.679244 -33.617355 36.451348 1.328272 2.744664 0.134521 -0.052162 -162176.000000 0 0 1
-2.480157 -13.176644 -32.650355 35.296187 1.384749 2.751935 0.120884 -0.045533 71308.200000 0 0 1
-2.325057 -11.768144 -32.721955 34.851419 1.375736 2.790213 0.120377 -0.048590 -16638.500000 0 0 1
-1.699157 -11.100744 33.730335 35.550656 1.418908 0.321393 0.120429 -0.047857 -400957.000000 0 0 1
-2.643357 -10.974444 32.700735 34.594274 1.334434 0.332392 0.122260 -0.045518 13511.000000 0 0 1
-2.047357 -10.430644 31.545735 33.288487 1.376977 0.325012 0.127752 -0.037600 307095.000000 0 0 1
-1.017757 -11.325544 30.795135 32.827490 1.481173 0.353722 0.115959 -0.045293 205526.000000 0 0 1
-1.608457 -12.539544 30.507435 33.023187 1.443222 0.392858 0.123996 -0.041557 515741.000000 0 0 1
-0.616657 -13.475444 30.021535 32.912922 1.525067 0.422296 0.107855 -0.046654 414294.000000 0 0 1
-0.822357 -14.953844 30.374035 33.865554 1.515859 0.458086 0.104808 -0.040466 150560.000000 0 0 1
-1.796157 -15.615944 29.578035 33.495433 1.456279 0.488481 0.125044 -0.046431 422817.000000 0 0 1
-1.874957 -16.952044 29.932035 34.450167 1.460640 0.517921 0.131099 -0.043374 -210878.000000 0 0 1
-2.118657 -17.902044 28.739935 33.925739 1.452997 0.560212 0.140412 -0.031343 -108869.000000 0 0 1
-3.423157 -17.761844 28.207335 33.509026 1.380405 0.570218 0.147666 -0.035077 -7935.820000 0 0 1
-3.683957 -18.968244 27.476135 33.590234 1.378967 0.612906 0.160150 -0.036472 826477.000000 0 0 1
-4.988657 -18.985844 26.591335 33.052202 1.313848 0.635920 0.135224 -0.047143 420774.000000 0 0 1
-5.503657 -20.226644 26.133035 33.501386 1.305129 0.676037 0.160005 -0.042776 -143945.000000 0 0 1
-4.710257 -20.963744 25.214735 33.127752 1.349781 0.705733 0.164215 -0.044572 -332903.000000 0 0 1
-30.867127 -32.686890 -0.441865 44.960066 0.814024 1.580624 0.078297 -0.015851 72655.300000 0 0 1
-29.713937 -32.031090 0.021835 43.691066 0.822908 1.570297 0.090306 -0.021705 -202526.000000 0 0 1
-29.997707 -31.494890 1.274935 43.513400 0.809741 1.541492 0.077834 -0.011605 51847.500000 0 0 1
-29.175187 -30.233390 1.616635 42.045962 0.803209 1.532338 0.086818 -0.012099 -321889.000000 0 0 1
-27.825487 -30.603990 1.651535 41.395525 0.832915 1.530889 0.105770 -0.015468 -1406880.000000 0 0 1
-27.120517 -29.437690 1.689835 40.061897 0.826345 1.528603 0.109356 -0.009519 -110986.000000 0 0 1
-25.600457 -29.612190 1.967435 39.193571 0.857930 1.520577 0.084281 -0.014941 231093.000000 0 0 1
-25.287907 -30.210090 3.185135 39.525598 0.873858 1.490125 0.079301 -0.012996 -645274.000000 0 0 1
-23.905757 -30.269390 3.354935 38.716622 0.902326 1.484034 0.069286 -0.013629 -733881.000000 0 0 1
-23.492257 -31.015090 4.568635 39.175176 0.922547 1.453910 0.078342 -0.021183 -204719.000000 0 0 1
-23.891457 -30.431290 5.777335 39.118317 0.905210 1.422565 0.079769 -0.018914 -222483.000000 0 0 1
-23.195557 -31.067990 6.807235 39.364862 0.929471 1.396996 0.076403 -0.026946 -467060.000000 0 0 1
-23.568957 -30.481490 8.154235 39.384115 0.912598 1.362244 0.082595 -0.026392 -26081.900000 0 0 1
-23.038757 -29.150090 8.353535 38.082721 0.901968 1.349646 0.086711 -0.030665 388953.000000 0 0 1
-23.673257 -28.594190 9.512135 38.321424 0.879271 1.319954 0.083322 -0.028998 333009.000000 0 0 1
-22.933057 -27.327390 10.026735 37.057344 0.872608 1.296808 0.093909 -0.032093 800881.000000 0 0 1
-21.626157 -27.549490 10.566735 36.583069 0.905273 1.277779 0.074705 -0.033724 327951.000000 0 0 1
-21.350857 -26.521490 11.489635 35.934110 0.892990 1.245339 0.100165 -0.031044 448981.000000 0 0 1
-20.014057 -26.831990 12.223735 35.636188 0.929923 1.220672 0.082646 -0.023383 415757.000000 0 0 1
-20.220257 -27.805690 13.228935 36.837751 0.942049 1.203478 0.090087 -0.017717 263297.000000 0 0 1
-19.005057 -27.887090 13.954935 36.518792 0.972595 1.178696 0.088605 -0.019585 231684.000000 0 0 1
-19.074257 -29.034590 15.011335 37.844087 0.989551 1.162918 0.101542 -0.030894 33397.500000 0 0 1
-19.102657 -30.282190 14.296035 38.552551 1.008022 1.190905 0.096639 -0.030639 41424.400000 0 0 1
-19.381557 -31.307390 15.175535 39.825799 1.016471 1.179867 0.094472 -0.033696 -54753.100000 0 0 1
-18.504057 -32.527190 14.884635 40.273696 1.053574 1.192232 0.106942 -0.035128 -36994.700000 0 0 1
-18.722557 -33.541690 15.814735 41.541365 1.061689 1.180245 0.105440 -0.029072 205782.000000 0 0 1
-17.980257 33.012056 15.445535 40.640498 -1.072064 1.180943 0.100446 -0.033644 90870.000000 0 0 1
-17.833557 31.783656 16.420535 39.973373 -1.059477 1.147479 0.104362 -0.033352 -225374.000000 0 0 1
-19.014557 31.018256 16.546035 39.968198 -1.020864 1.143974 0.106209 -0.034552 -8309.630000 0 0 1
-18.998857 30.056456 17.548935 39.652393 -1.007104 1.112334 0.077985 -0.025064 -210013.000000 0 0 1
-19.741857 30.511356 18.795235 40.913868 -0.996510 1.093493 0.092270 -0.029861 -136043.000000 0 0 1
-19.132257 31.564756 19.536735 41.761958 -1.025884 1.083983 0.104395 -0.029389 194796.000000 0 0 1
-20.000157 31.966456 20.596735 42.966104 -1.011722 1.070858 0.102895 -0.029779 282272.000000 0 0 1
-19.365657 32.932256 21.647435 43.910974 -1.039213 1.055279 0.087484 -0.013542 -439636.000000 0 0 1
-18.330857 32.336056 22.343235 43.368894 -1.055081 1.029567 0.079194 -0.019185 -643547.000000 0 0 1
-18.174357 32.919156 23.632435 44.412499 -1.066349 1.009703 0.075290 -0.019237 477802.000000 0 0 1
-19.208057 32.377656 24.712935 45.033224 -1.035355 0.989903 0.069534 -0.017078 -411616.000000 0 0 1
-20.510057 32.726856 24.436835 45.704140 -1.010972 1.006674 0.063102 -0.019022 -1319700.000000 0 0 1
-21.360357 32.040556 25.357335 46.107012 -0.982794 0.988472 0.050460 -0.016984 1230790.000000 0 0 1
-22.893157 32.292156 25.055735 46.847303 -0.954096 1.006480 0.055266 -0.026882 931318.000000 0 0 1
-23.294157 31.882856 23.766135 46.086478 -0.939816 1.028989 0.045925 -0.014190 -1164440.000000 0 0 1
-24.609957 32.108156 23.469635 46.769728 -0.916837 1.045103 0.035674 -0.016220 -1121200.000000 0 0 1
-24.955157 31.580756 22.062535 45.900539 -0.902059 1.069390 0.027638 -0.018643 -311330.000000 0 0 1
-24.377557 32.399856 21.132335 45.722987 -0.925763 1.090342 0.031471 -0.019505 -118844.000000 0 0 1
-24.314757 31.791156 19.889435 44.693116 -0.917873 1.109597 0.023289 -0.010885 -31448.700000 0 0 1
-23.999557 32.860856 18.872335 44.855096 -0.939998 1.136535 0.046189 -0.016914 -277217.000000 0 0 1
-22.654957 33.240756 18.962335 44.472071 -0.972566 1.130301 0.076361 -0.016561 -418498.000000 0 0 1
-22.285157 -33.479290 18.019035 44.070134 0.983505 1.149579 0.084319 -0.016076 -572814.000000 0 0 1
-20.893557 -32.897490 18.086935 42.964204 1.004959 1.136274 0.095979 -0.017783 -708011.000000 0 0 1
-20.908857 -31.758690 18.938535 42.478969 0.988562 1.108691 0.087479 -0.032474 1340830.000000 0 0 1
-19.574757 -31.218490 19.097935 41.502968 1.010743 1.092623 0.095026 -0.032162 1077350.000000 0 0 1
-19.599857 -30.319690 20.336635 41.436901 0.996928 1.057805 0.085669 -0.030357 -54996.100000 0 0 1
-20.180257 -29.048890 20.098535 40.682083 0.963636 1.054067 0.099558 -0.029614 318252.000000 0 0 1
-20.640357 -28.376690 21.279335 41.037434 0.941936 1.025660 0.096400 -0.023824 -85994.400000 0 0 1
-21.615157 -27.210490 21.037935 40.622906 0.899499 1.026421 0.078390 -0.029047 -659756.000000 0 0 1
-21.113257 -26.122090 20.337135 39.264899 0.891043 1.026347 0.084040 -0.025451 -289636.000000 0 0 1
-21.972657 -25.023290 20.251635 38.975523 0.850220 1.024415 0.075037 -0.012341 -1058770.000000 0 0 1
-22.967257 -25.174590 19.122635 39.075952 0.831217 1.059428 0.076693 -0.009844 -469454.000000 0 0 1
-24.325157 -25.455390 19.415935 40.207819 0.808099 1.066845 0.074127 -0.008215 202919.000000 0 0 1
-25.066767 -25.463490 18.209235 40.103720 0.793249 1.099487 0.066354 -0.001346 260684.000000 0 0 1
-26.603967 -25.517790 18.514135 41.251689 0.764562 1.105364 0.053074 -0.004139 825881.000000 0 0 1
-27.113717 -26.758890 19.046235 42.590503 0.778812 1.107170 0.050348 -0.010076 102082.000000 0 0 1
-27.153017 -27.808390 18.101635 42.874959 0.797322 1.134930 0.055957 -0.016348 -1142270.000000 0 0 1
-27.818157 -29.060890 18.735835 44.378111 0.807243 1.134940 0.058859 -0.024111 512295.000000 0 0 1
-29.251107 -29.047790 18.731535 45.279927 0.781911 1.144301 0.057721 -0.018377 949344.000000 0 0 1
-29.977907 -29.062190 17.480235 45.264163 0.769889 1.174307 0.055152 -0.024820 22435.700000 0 0 1
-31.492337 -28.846990 17.737635 46.244349 0.741585 1.177145 0.054490 -0.026486 290493.000000 0 0 1
-31.976267 -27.547190 17.401935 45.652565 0.711126 1.179722 0.058090 -0.023544 -1420710.000000 0 0 1
-33.329827 -27.489490 17.555435 46.634137 0.689664 1.184835 0.090003 -0.019292 -1347560.000000 0 0 1
-34.026790 -26.214790 17.004235 46.197204 0.656440 1.193854 0.097757 -0.027677 -42283.800000 0 0 1
-34.066056 -26.210890 15.589435 45.722395 0.655811 1.222860 0.101612 -0.041291 -6986.220000 0 0 1
-34.946300 -25.218990 15.115635 45.669725 0.625109 1.233457 0.096337 -0.029650 -22670.300000 0 0 1
-34.266559 -23.842390 14.696135 44.256446 0.607896 1.232302 0.094022 -0.027043 215079.000000 0 0 1
-33.896107 -23.093490 15.830235 43.964209 0.598067 1.202452 0.078188 -0.012623 188991.000000 0 0 1
-33.406937 -21.836590 15.545035 42.831160 0.578940 1.199378 0.081838 -0.005735 -284994.000000 0 0 1
-34.452957 -20.788590 15.911935 43.270792 0.542909 1.194230 0.087923 -0.016683 -98713.300000 0 0 1
-34.619878 -20.578590 17.297135 43.831555 0.536303 1.165134 0.088220 -0.008439 581699.000000 0 0 1
-35.656525 -19.619190 17.560035 44.324432 0.503018 1.163454 0.103945 -0.009898 342948.000000 0 0 1
-36.083937 -19.251490 18.987335 45.090900 0.490102 1.136149 0.074172 -0.009913 95551.900000 0 0 1
-37.209037 -19.978890 19.471935 46.506180 0.492758 1.138788 0.077211 -0.006444 292410.000000 0 0 1
-37.523477 -19.530990 20.776835 47.129055 0.479913 1.114251 0.087603 -0.004322 -769621.000000 0 0 1
36.422628 -19.843090 21.249435 46.603590 -0.498843 1.097344 0.092830 0.000170 -545004.000000 0 0 1
36.108788 -21.240690 21.525335 47.099379 -0.531729 1.096155 0.094057 -0.012145 -364269.000000 0 0 1
36.912538 -21.814390 22.507435 48.425073 -0.533757 1.087400 0.067778 0.002276 -509734.000000 0 0 1
36.461608 -23.200990 23.028435 48.969824 -0.566693 1.081214 0.077011 0.011259 -336672.000000 0 0 1
35.317158 -23.075390 23.819935 48.447545 -0.578745 1.056796 0.096848 -0.011017 -361555.000000 0 0 1
35.134838 -24.223590 24.632535 49.274750 -0.603608 1.047311 0.096591 -0.022157 -16435.900000 0 0 1
34.109808 -24.031890 25.777235 49.045658 -0.613770 1.017404 0.115632 -0.023981 943954.000000 0 0 1
32.747358 -24.105590 25.325535 47.904610 -0.634551 1.013768 0.117147 -0.017220 607812.000000 0 0 1
31.845328 -24.217390 26.415435 47.941445 -0.650168 0.987242 0.080728 -0.017475 138868.000000 0 0 1
30.481778 -24.786690 25.967835 47.094026 -0.682716 0.986750 0.068274 -0.011144 286685.000000 0 0 1
29.612958 -23.876790 25.259535 45.662594 -0.678568 0.984622 0.065619 -0.007054 -149597.000000 0 0 1
28.370258 -24.489990 25.050635 45.079546 -0.712123 0.981593 0.059633 0.002376 113746.000000 0 0 1
27.310158 -23.521390 24.400135 43.525477 -0.711000 0.975693 0.051223 0.001432 107488.000000 0 0 1
27.430458 -22.982990 23.079535 42.583011 -0.697406 0.997994 0.053934 -0.001697 -217819.000000 0 0 1
28.419658 -21.982890 22.857635 42.583986 -0.658379 1.004197 0.063480 0.004482 165420.000000 0 0 1
28.384658 -21.163990 21.548035 41.447812 -0.640688 1.024082 0.068740 -0.000514 444225.000000 0 0 1
27.311658 -20.218790 21.557135 40.242219 -0.637263 1.005478 0.052237 -0.005792 315062.000000 0 0 1
27.248258 -19.577690 20.321335 39.226396 -0.623030 1.026224 0.036511 -0.006414 197476.000000 0 0 1
26.284558 -18.370090 20.231135 37.916184 -0.609983 1.007974 0.046166 -0.006304 159902.000000 0 0 1
26.841158 -17.164190 20.755435 38.024272 -0.568939 0.993397 0.052319 -0.020450 214959.000000 0 0 1
26.724458 -17.074490 22.151835 38.683830 -0.568539 0.961076 0.051361 -0.017404 -74786.000000 0 0 1
26.851358 -15.693790 22.896535 38.620484 -0.528921 0.936191 0.052039 -0.015307 -321554.000000 0 0 1
25.667658 -14.981690 22.688835 37.390680 -0.528333 0.918762 0.016453 -0.018406 -492407.000000 0 0 1
25.675258 -13.794990 23.422435 37.391591 -0.493031 0.893858 0.006383 -0.017601 418593.000000 0 0 1
24.315858 -13.048190 23.286235 36.107686 -0.492507 0.869890 0.001896 -0.015639 150575.000000 0 0 1
23.284158 -13.709890 23.973935 36.122883 -0.532149 0.845072 0.038278 -0.016227 -470510.000000 0 0 1
22.093458 -13.020190 23.661335 34.892765 -0.532532 0.825600 0.071174 -0.024399 370594.000000 0 0 1
20.759758 -13.738190 24.081735 34.635753 -0.584605 0.801979 0.094533 -0.023858 577646.000000 0 0 1
20.525658 -14.864390 23.189835 34.351436 -0.626774 0.829728 0.106614 -0.026960 139547.000000 0 0 1
19.199758 -15.244990 23.525335 33.977667 -0.671084 0.806019 0.113509 -0.025393 465045.000000 0 0 1
18.565858 -16.368090 22.643035 33.545678 -0.722569 0.829844 0.126227 -0.029701 341182.000000 0 0 1
19.102558 -17.626590 23.022335 34.722216 -0.745235 0.845919 0.110963 -0.023505 183799.000000 0 0 1
18.465758 -18.640390 22.305735 34.438266 -0.790104 0.866232 0.132320 -0.026526 33081.800000 0 0 1
19.012558 -20.056590 22.597035 35.698322 -0.812114 0.885374 0.105817 -0.017785 -101100.000000 0 0 1
18.558558 -20.549190 23.829735 36.531433 -0.836255 0.860171 0.114895 -0.019949 218844.000000 0 0 1
19.054858 -21.830690 24.190635 37.747231 -0.853187 0.875180 0.118113 -0.018098 -57404.100000 0 0 1
18.657858 -23.055890 23.263735 37.694709 -0.890444 0.905666 0.110513 -0.019087 65944.500000 0 0 1
19.408458 -23.092790 22.064335 37.373789 -0.871870 0.939280 0.111973 -0.011999 -458376.000000 0 0 1
20.320658 -24.126890 22.069035 38.497770 -0.870824 0.960324 0.097428 -0.010657 -691692.000000 0 0 1
21.345258 -24.095590 20.967635 38.416913 -0.845850 0.993463 0.084541 0.005816 -490858.000000 0 0 1
20.764858 -24.702890 19.817635 37.870183 -0.871794 1.020072 0.078594 -0.010642 153922.000000 0 0 1
21.571658 -24.890490 18.682435 37.866955 -0.856708 1.054836 0.083407 -0.009262 83573.500000 0 0 1
20.737258 -25.660890 17.590535 37.389064 -0.891120 1.080970 0.079541 -0.017776 489862.000000 0 0 1
20.372158 -26.942190 18.023535 38.285170 -0.923375 1.080632 0.083288 -0.029914 -350045.000000 0 0 1
19.402658 -27.443590 17.136035 37.726085 -0.955387 1.099297 0.092087 -0.034033 -486003.000000 0 0 1
18.519258 -28.501890 17.761835 38.351055 -0.994593 1.089264 0.079476 -0.025092 -578714.000000 0 0 1
17.655058 -28.018190 18.755535 38.059035 -1.008518 1.055490 0.093319 -0.038468 -311941.000000 0 0 1
16.924358 -29.100590 19.251135 38.779949 -1.044030 1.051327 0.106929 -0.041288 -312323.000000 0 0 1
15.539958 -28.793990 19.846835 38.268538 -1.075900 1.025560 0.103432 -0.033989 -557214.000000 0 0 1
14.695358 -28.233990 18.919135 37.027630 -1.090896 1.034511 0.095039 -0.034884 -1080030.000000 0 0 1
13.411758 -28.068790 19.453435 36.690167 -1.125052 1.011950 0.089019 -0.032664 -447501.000000 0 0 1
12.408658 -27.588590 18.404935 35.409698 -1.148130 1.024213 0.105884 -0.038192 -318968.000000 0 0 1
12.089458 -28.627190 17.447435 35.638238 -1.171209 1.059199 0.102403 -0.044564 -189589.000000 0 0 1
11.239358 -28.111390 16.478435 34.469004 -1.190449 1.072346 0.134750 -0.039699 -278471.000000 0 0 1
10.787458 -29.108390 15.405335 34.655331 -1.215892 1.110147 0.119106 -0.039131 -3651.710000 0 0 1
9.733758 -29.984390 15.746835 35.238793 -1.256901 1.107543 0.127683 -0.040059 -110855.000000 0 0 1
9.529958 -30.887090 14.703435 35.510892 -1.271522 1.143893 0.102457 -0.031031 -120224.000000 0 0 1
8.362158 -31.880090 14.725235 36.098454 -1.314275 1.150623 0.104391 -0.036120 -199954.000000 0 0 1
8.501458 -32.913590 15.643935 37.420742 -1.318025 1.139493 0.125703 -0.045201 48058.200000 0 0 1
7.551158 33.798956 15.357935 37.884767 1.350992 1.153396 0.098429 -0.037833 255582.000000 0 0 1
7.792658 32.702556 16.455635 37.429542 1.336870 1.115595 0.115423 -0.046700 184335.000000 0 0 1
8.960458 31.965756 16.151335 36.918356 1.297496 1.117993 0.110202 -0.043622 -207326.000000 0 0 1
9.199058 31.123556 17.225735 36.742678 1.283413 1.082841 0.126254 -0.049290 -544577.000000 0 0 1
10.545058 30.415956 17.187135 36.492824 1.237069 1.080403 0.105355 -0.052453 -523766.000000 0 0 1
10.658858 29.403156 16.244235 35.242475 1.223023 1.091756 0.125074 -0.045914 -323195.000000 0 0 1
11.938158 28.801356 16.282035 35.173035 1.177853 1.089518 0.112160 -0.054251 -92698.000000 0 0 1
12.451858 28.003356 15.080935 34.156571 1.152395 1.113500 0.101554 -0.047870 148652.000000 0 0 1
11.793658 26.732756 14.859135 32.779941 1.155311 1.100333 0.113200 -0.045488 251510.000000 0 0 1
12.326358 26.152356 13.681635 31.985496 1.130348 1.128800 0.108756 -0.035588 36691.300000 0 0 1
-9.372257 -9.123344 19.028625 23.090326 0.771941 0.602193 0.084460 -0.028332 55679.700000 0 1 0
-9.699457 -9.361044 17.688325 22.239277 0.767645 0.651188 0.081290 -0.026918 79356.500000 0 1 0
-9.477257 -10.704544 17.406725 22.525535 0.846135 0.687626 0.083126 -0.028170 -3898.110000 0 1 0
-9.829257 -11.010844 15.969325 21.745627 0.842035 0.746059 0.083074 -0.025295 262204.000000 0 1 0
-11.228157 -10.791844 15.809625 22.191882 0.765586 0.777876 0.082990 -0.027270 548837.000000 0 1 0
-11.853757 -11.183844 14.595825 21.877569 0.756327 0.840407 0.093128 -0.030142 -12236.000000 0 1 0
-11.796357 -12.689644 14.236225 22.424344 0.821864 0.882974 0.060179 -0.031709 -85717.300000 0 1 0
-10.530157 -13.244744 13.856025 21.869999 0.899085 0.884646 0.085414 -0.032118 517076.000000 0 1 0
-10.538257 -14.702144 13.893525 22.808725 0.948895 0.915831 0.097833 -0.033748 -3483.280000 0 1 0
-10.435057 -15.338544 15.309425 24.052855 0.973404 0.880856 0.119973 -0.039424 -505025.000000 0 1 0
-11.554957 -15.089144 16.089925 24.901506 0.917273 0.868277 0.105529 -0.028213 -556240.000000 0 1 0
-11.310157 -15.345144 17.482325 25.865513 0.935634 0.828620 0.147807 -0.028832 455967.000000 0 0 1
-12.536457 -14.914344 18.366625 26.775611 0.871806 0.814893 0.075555 -0.021798 -9150.660000 0 0 1
-12.628057 -13.476744 18.390125 26.063138 0.817897 0.787528 0.076016 -0.025277 310655.000000 0 0 1
-13.808157 -12.984244 17.775325 25.984957 0.754656 0.817479 0.098178 -0.028975 293454.000000 0 0 1
-15.143557 -13.152344 18.516525 27.297860 0.715143 0.825331 0.048188 -0.017903 -560570.000000 0 0 1
-15.673257 -14.455644 18.589825 28.287775 0.745007 0.853741 0.061089 -0.016706 -274894.000000 0 0 1
-16.682657 -14.493544 19.570225 29.518936 0.715296 0.846015 0.062652 -0.015060 -92954.400000 0 0 1
-17.259557 -15.900744 19.914325 30.778341 0.744444 0.867122 0.072328 -0.025124 -228835.000000 0 0 1
-18.189057 -16.414644 18.998225 31.003466 0.734165 0.911226 0.074777 -0.018619 -59522.100000 0 0 1
-18.598557 -17.703144 19.454125 32.214447 0.760737 0.922418 0.082006 -0.028075 401112.000000 0 0 1
-19.935857 -18.253944 18.840825 32.948772 0.741386 0.962072 0.087836 -0.018337 225813.000000 0 0 1
-20.067557 -18.580144 17.489425 32.462418 0.746931 1.001833 0.091038 -0.026021 17256.100000 0 0 1
-20.369357 -17.457744 16.637125 31.567031 0.708578 1.015681 0.083265 -0.035098 -369608.000000 0 0 1
-19.857857 -17.558144 15.191725 30.551783 0.724012 1.050376 0.088384 -0.040814 -462018.000000 0 0 1
-20.342757 -18.637844 14.428425 31.134811 0.741689 1.088948 0.099519 -0.030884 68833.200000 0 0 1
-20.004257 -18.534044 13.065725 30.238953 0.747267 1.123996 0.106862 -0.036286 -94953.300000 0 0 1
-19.925057 -19.868544 12.278225 30.700517 0.783978 1.159350 0.125168 -0.036895 7290.060000 0 0 1
-18.900657 -20.741144 12.759125 30.825722 0.831793 1.144049 0.123433 -0.030369 424829.000000 0 0 1
-18.957457 -21.861344 11.940125 31.302877 0.856419 1.179444 0.101902 -0.027921 -144496.000000 0 0 1
-18.182857 -23.024644 12.599525 31.929587 0.902360 1.165160 0.084252 -0.022365 26001.900000 0 0 1
-18.090257 -24.220944 11.831925 32.463918 0.929292 1.197739 0.097626 -0.032074 349122.000000 0 0 1
-17.207157 -24.214644 10.702025 31.574809 0.952985 1.225004 0.073124 -0.025902 -247246.000000 0 0 1
-17.478757 -25.372654 9.763825 32.320439 0.967571 1.263907 0.074381 -0.029018 -80096.700000 0 0 1
-18.697757 -25.267024 9.053325 32.710722 0.933722 1.290366 0.073133 -0.027914 -149916.000000 0 0 1
-18.980057 -26.378344 8.215525 33.519464 0.947082 1.323176 0.087282 -0.032193 699429.000000 0 0 1
-20.293057 -26.186224 7.375225 33.939953 0.911516 1.351747 0.081081 -0.031359 580220.000000 0 0 1
-20.168557 -25.152744 6.450225 32.879122 0.894932 1.373336 0.085801 -0.034145 272336.000000 0 0 1
-21.246757 -25.096944 5.518625 33.342713 0.868287 1.404519 0.105080 -0.030803 214638.000000 0 0 1
-21.141157 -23.916744 4.512925 32.238574 0.846921 1.430350 0.109763 -0.028184 -398863.000000 0 0 1
-22.184657 -23.815044 3.599425 32.745552 0.820827 1.460653 0.107681 -0.031824 -196471.000000 0 0 1
-22.225857 -22.523544 3.018025 31.786904 0.792050 1.475708 0.108373 -0.024830 398526.000000 0 0 1
-22.886357 -22.569244 1.580125 32.181562 0.778422 1.521676 0.100794 -0.023245 -414547.000000 0 0 1
-22.059057 -23.208744 0.709125 32.027342 0.810790 1.548653 0.086187 -0.034283 -303880.000000 0 0 1
-22.601557 -23.363544 -0.584875 32.511962 0.801974 1.588787 0.096886 -0.028886 -379836.000000 0 0 1
-21.796257 -24.358544 -1.497475 32.720910 0.840856 1.616577 0.103187 -0.034702 -206528.000000 0 0 1
-20.467757 -23.891944 -1.637075 31.502922 0.862437 1.622786 0.096642 -0.033603 197314.000000 0 0 1
-19.775057 -24.314144 -2.810375 31.466311 0.887989 1.660229 0.082678 -0.023382 45412.200000 0 0 1
-19.437157 -25.802774 -3.117275 32.454640 0.925188 1.666995 0.104488 -0.031192 -182158.000000 0 0 1
-20.497657 -26.628764 -3.576475 33.794026 0.914771 1.676826 0.150901 -0.041642 242368.000000 0 0 1
-19.959257 -27.969404 -3.735575 34.563189 0.950994 1.679087 0.152968 -0.038680 187709.000000 0 0 1
-20.980857 -29.011004 -4.213175 36.049765 0.944667 1.687935 0.170512 -0.044729 -86616.600000 0 0 1
-21.539857 -28.673094 -5.496375 36.281151 0.926514 1.722876 0.165970 -0.038020 -301512.000000 0 0 1
-22.457657 -29.619414 -5.937675 37.641892 0.922063 1.729199 0.182281 -0.063116 -318359.000000 0 0 1
-23.251957 -29.083174 -7.145975 37.915030 0.896361 1.760404 0.174771 -0.019927 480487.000000 0 0 1
-22.412557 -28.956074 -8.321175 37.550218 0.912099 1.794253 0.196602 -0.020529 1062830.000000 0 0 1
-23.234257 -28.608934 -9.461375 38.050223 0.888701 1.822088 0.204055 -0.020724 763539.000000 0 0 1
-23.845257 -27.176014 -9.447075 37.368158 0.850587 1.826381 0.159068 -0.022173 524615.000000 0 0 1
-22.948857 -26.196364 -10.005275 36.235412 0.851382 1.850550 0.142640 -0.021514 495947.000000 0 0 1
-22.462057 -25.370974 -8.959775 35.050077 0.846137 1.829293 0.132016 -0.023073 -199881.000000 0 0 1
-22.104257 -23.928744 -9.438875 33.915709 0.825012 1.852824 0.090654 -0.021961 818916.000000 0 0 1
-23.246657 -23.092744 -9.759975 34.189750 0.782077 1.860288 0.118580 -0.018600 851841.000000 0 0 1
-22.872057 -21.784444 -10.133175 33.171889 0.761048 1.881233 0.104173 -0.012729 -259593.000000 0 0 1
-24.101357 -20.894044 -10.179375 33.482177 0.714238 1.879710 0.127831 -0.010134 -876676.000000 0 0 1
-24.959357 -21.154944 -11.243075 34.596357 0.703085 1.901785 0.125780 -0.009550 912950.000000 0 0 1
-26.218297 -20.425344 -11.269975 35.094246 0.661835 1.897724 0.131915 -0.009101 1078730.000000 0 0 1
-26.176887 -18.880644 -11.341275 34.210125 0.624860 1.908709 0.144897 -0.031119 -1262270.000000 0 0 1
-25.682277 -18.405444 -12.597075 34.015086 0.621819 1.950169 0.147600 -0.034190 305122.000000 0 0 1
-25.578117 -17.004444 -12.754475 33.257598 0.586712 1.964385 0.139236 -0.045552 98160.200000 0 0 1
-24.389357 -16.422444 -11.931075 31.731498 0.592612 1.956273 0.125080 -0.041502 -201117.000000 0 0 1
-24.616357 -16.484744 -10.517275 31.437635 0.590076 1.911918 0.162155 -0.042853 -245137.000000 0 0 1
-23.391257 -16.627144 -9.872475 30.349277 0.617956 1.902120 0.151406 -0.040199 -366223.000000 0 0 1
-23.547757 -17.063644 -8.392375 30.267091 0.627072 1.851755 0.130634 -0.046926 -26529.500000 0 0 1
-24.087257 -18.363744 -8.210375 31.382054 0.651380 1.835503 0.161990 -0.035831 22583.500000 0 0 1
-24.593257 -18.461644 -6.905975 31.517505 0.643936 1.791704 0.163189 -0.020610 -250855.000000 0 0 1
-25.411117 -19.719544 -6.584875 32.832086 0.659947 1.772728 0.180115 -0.019226 -121705.000000 0 0 1
-26.597357 -19.870744 -7.337875 34.001622 0.641639 1.788317 0.151748 -0.024555 -163163.000000 0 0 1
-27.174827 -21.152244 -7.199275 35.181220 0.661416 1.776886 0.143093 -0.008471 -231369.000000 0 0 1
-26.586537 -22.322344 -7.979375 35.620239 0.698432 1.796726 0.132671 -0.005719 -251830.000000 0 0 1
-27.331317 -23.503344 -7.725375 36.865831 0.710238 1.781915 0.136852 0.000449 -115758.000000 0 0 1
-26.877287 -24.532644 -8.574575 37.386663 0.739823 1.802205 0.128423 0.005717 339828.000000 0 0 1
-27.735887 -25.814164 -8.427575 38.815906 0.749527 1.789656 0.128112 -0.012143 258120.000000 0 0 1
-27.553987 -26.500474 -7.201175 38.901854 0.765911 1.756982 0.158429 -0.034036 -180357.000000 0 0 1
-28.369527 -27.634104 -7.163275 40.246569 0.772267 1.749734 0.146145 -0.037904 -100826.000000 0 0 1
-28.287617 -28.487844 -5.850975 40.570685 0.788925 1.715518 0.150817 -0.050067 114966.000000 0 0 1
-28.780417 -27.832254 -4.686475 40.310170 0.768651 1.687320 0.121723 -0.045722 430457.000000 0 0 1
-27.858837 -27.910494 -3.573875 39.596503 0.786324 1.661177 0.141812 -0.054604 429444.000000 0 0 1
-27.904317 -29.349544 -2.832175 40.596402 0.810635 1.640617 0.132799 -0.032848 -87711.100000 0 0 1
-27.286967 -30.394774 -3.552975 41.000543 0.839225 1.657562 0.147483 -0.039344 -21832.600000 0 0 1
-27.417107 -31.720074 -3.015675 42.035166 0.858033 1.642600 0.131688 -0.042168 -49148.200000 0 0 1
-26.499537 -32.020834 -1.772275 41.601686 0.879468 1.613410 0.133727 -0.037422 767800.000000 0 0 1
-25.149027 -31.739404 -2.143075 40.551894 0.900731 1.623669 0.154592 -0.054317 719584.000000 0 0 1
-24.217457 -31.760504 -1.044475 39.953796 0.919342 1.596941 0.155781 -0.034457 782415.000000 0 0 1
-23.069857 -30.726414 -1.095975 38.438678 0.926774 1.599312 0.156851 -0.038219 171973.000000 0 0 1
-23.415857 -29.379774 -0.802975 37.578162 0.897884 1.592166 0.128127 -0.034803 -353749.000000 0 0 1
-23.879257 -28.667134 -1.899475 37.358152 0.876264 1.621663 0.157687 -0.050027 -358040.000000 0 0 1
-24.434257 -27.354534 -1.405175 36.705285 0.841727 1.609088 0.099714 -0.031380 230928.000000 0 0 1
-25.723267 -27.482344 -0.787975 37.650851 0.818448 1.591726 0.121830 -0.034453 436005.000000 0 0 1
-26.238797 -26.188404 -0.503475 37.075065 0.784437 1.584377 0.136978 -0.038363 124619.000000 0 0 1
-25.629977 -25.494424 0.736425 36.158038 0.782747 1.550428 0.133291 -0.027680 -201040.000000 0 0 1
-25.757857 -26.284234 1.871225 36.848740 0.795512 1.519993 0.118989 -0.032122 -145700.000000 0 0 1
-25.314137 -25.708164 3.112325 36.213282 0.793121 1.484746 0.129103 -0.024222 -58248.800000 0 0 1
-26.177737 -24.641544 3.824225 36.153898 0.755179 1.464822 0.152608 -0.037032 -242103.000000 0 0 1
-26.228477 -23.415944 3.101625 35.296735 0.728805 1.482810 0.130542 -0.035208 -149213.000000 0 0 1
-27.134007 -22.543044 3.702825 35.470468 0.693244 1.466214 0.146615 -0.030773 -215305.000000 0 0 1
-27.496147 -21.325344 2.825325 34.911185 0.659670 1.489779 0.148256 -0.023808 221425.000000 0 0 1
-26.429147 -20.406244 2.799125 33.507458 0.657503 1.487161 0.136926 -0.023736 86613.300000 0 0 1
-26.559377 -19.550944 1.666025 33.021441 0.634560 1.520322 0.109691 -0.021796 837752.000000 0 0 1
-25.286197 -18.629244 1.611125 31.448946 0.634958 1.519544 0.111097 -0.019606 773522.000000 0 0 1
-24.040557 -19.294944 1.589225 30.866955 0.676324 1.519287 0.122882 -0.023370 279111.000000 0 0 1
-22.980257 -18.349244 1.732625 29.458258 0.673813 1.511946 0.113134 -0.017832 266303.000000 0 0 1
-21.598457 -19.039744 1.861925 28.852590 0.722518 1.506219 0.089248 -0.025566 188432.000000 0 0 1
-21.174457 -19.566544 0.554425 28.835996 0.745952 1.551568 0.046066 -0.007486 561979.000000 0 0 1
-20.019457 -20.394944 0.678025 28.586573 0.794689 1.547076 0.095706 -0.011116 60577.700000 0 0 1
-19.443657 -21.154744 -0.517575 28.737552 0.827520 1.588808 0.098146 -0.008521 -162334.000000 0 0 1
-18.811257 -20.247744 -1.401475 27.673068 0.822159 1.621462 0.103328 -0.014312 68328.200000 0 0 1
-18.376557 -20.988344 -2.537875 28.011591 0.851649 1.661522 0.086183 -0.004444 -60825.600000 0 0 1
-17.823857 -20.000744 -3.601875 27.031337 0.842887 1.704442 0.110463 0.004565 1139520.000000 0 0 1
-16.420657 -19.664144 -3.544375 25.862698 0.875042 1.708275 0.145818 -0.011433 1002680.000000 0 0 1
-16.141157 -18.866344 -4.693275 25.268612 0.863087 1.757617 0.161086 -0.001747 -59134.800000 0 0 1
-14.682457 -18.380544 -4.857375 24.021096 0.896785 1.774413 0.175660 -0.020925 -110490.000000 0 1 0
-13.799557 -19.463744 -5.087775 24.395708 0.954064 1.780891 0.136518 -0.024432 -328984.000000 0 1 0
-12.630357 -18.939444 -5.648075 23.454834 0.982645 1.813993 0.126946 -0.037559 -11017.000000 0 1 0
-11.335557 -19.785144 -5.723275 23.509629 1.050517 1.816711 0.124617 -0.053378 565465.000000 0 1 0
-11.493157 -20.981644 -6.492575 24.788618 1.069665 1.835805 0.100110 -0.043242 -270227.000000 0 1 0
-10.212357 -21.484944 -6.787475 24.737924 1.127082 1.848736 0.118913 -0.040973 143186.000000 0 1 0
-10.201457 -22.766244 -7.640975 26.091303 1.149527 1.868008 0.100936 -0.017776 -184239.000000 0 0 1
-10.681057 -22.589144 -8.938875 26.537858 1.129112 1.914350 0.095218 -0.024112 -172698.000000 0 0 1
-10.530257 -23.641844 -9.788475 27.670153 1.151768 1.932380 0.117322 -0.024128 117295.000000 0 0 1
-11.332457 -23.433744 -11.107975 28.301097 1.120358 1.974137 0.144366 -0.031899 356326.000000 0 0 1
-10.747257 -22.442044 -11.985875 27.619017 1.124179 2.019693 0.128697 -0.023054 30695.700000 0 0 1
-11.566957 -22.213244 -13.121575 28.273635 1.090708 2.053406 0.131418 -0.032260 -174198.000000 0 0 1
-11.120857 -21.108944 -14.097075 27.712606 1.085915 2.104457 0.100541 -0.010891 -95124.600000 0 0 1
-10.849757 -19.884044 -13.436175 26.336728 1.071298 2.106177 0.101237 -0.010897 -44159.400000 0 0 1
-10.690357 -18.791044 -14.305775 25.923778 1.053553 2.155365 0.093749 0.000007 -17105.500000 0 0 1
-10.391757 -17.482344 -13.519775 24.421411 1.034494 2.157481 0.091055 -0.001036 461686.000000 0 1 0
-11.428557 -17.040644 -12.596975 24.076529 0.980031 2.121405 0.104149 -0.013111 830263.000000 0 1 0
-10.953457 -16.046944 -11.685575 22.672347 0.971852 2.112283 0.102292 -0.019415 224873.000000 0 1 0
-10.558457 -14.680644 -12.279375 21.858302 0.947294 2.167322 0.092144 -0.010054 19485.800000 0 1 0
-11.683457 -13.975244 -12.745575 22.231966 0.874480 2.181324 0.084655 -0.007364 21908.400000 0 1 0
-11.791657 -13.952144 -14.132475 23.096155 0.869125 2.229254 0.094964 -0.011667 -537427.000000 0 1 0
-13.127657 -13.352144 -14.574775 23.728447 0.793876 2.232209 0.093593 -0.017236 -551784.000000 0 1 0
-13.326257 -12.003144 -14.144075 22.841179 0.733209 2.238565 0.089528 -0.009336 -298181.000000 0 1 0
-14.393157 -11.384044 -14.804775 23.578397 0.669189 2.249643 0.091875 -0.026651 -321357.000000 0 1 0
-14.525157 -9.883344 -14.290675 22.646944 0.597470 2.253664 0.073810 -0.031065 498074.000000 0 1 0
-13.452457 -8.960244 -14.561075 21.754988 0.587588 2.304091 0.065944 -0.017818 624198.000000 0 1 0
-13.388657 -8.427644 -15.879375 22.415082 0.561801 2.358059 0.066263 -0.017576 -174569.000000 0 1 0
-12.400157 -7.243144 -15.874375 21.406140 0.528659 2.406220 0.057088 -0.009713 455129.000000 0 1 0
-11.037157 -7.684044 -15.864675 20.797868 0.608170 2.438433 0.047637 -0.012835 834424.000000 0 1 0
-10.080757 -6.648144 -15.780275 19.870495 0.583017 2.488414 0.033639 -0.001820 373738.000000 0 1 0
11.862543 22.220556 15.811425 29.740111 1.080433 1.010245 0.130790 -0.035280 -776677.000000 0 0 1
12.674943 22.184556 16.890925 30.628615 1.051716 0.986665 0.139733 -0.044430 -621654.000000 0 0 1
13.297243 20.896556 16.873425 29.969904 1.004086 0.972770 0.119731 -0.032395 -598398.000000 0 0 1
14.424243 20.634556 17.844225 30.858711 0.960719 0.954207 0.126920 -0.040637 181241.000000 0 0 1
15.663543 21.135956 17.314925 31.494155 0.933025 0.988693 0.120674 -0.035152 128589.000000 0 0 1
16.735143 20.730056 18.109925 32.214431 0.891627 0.973791 0.122478 -0.040388 970060.000000 0 0 1
18.205443 21.133256 17.698325 33.034578 0.859687 1.005399 0.101860 -0.029669 760875.000000 0 0 1
18.567243 22.473256 17.872225 34.193657 0.880287 1.020809 0.101442 -0.034826 32535.900000 0 0 1
19.757243 22.993356 17.286625 34.898001 0.860952 1.052562 0.101847 -0.030802 1255220.000000 0 0 1
21.083343 22.658456 18.090925 35.849610 0.821392 1.041839 0.096131 -0.030552 513852.000000 0 0 1
21.448443 21.309356 17.934525 35.153542 0.782145 1.035406 0.109006 -0.028165 60201.800000 0 0 1
22.736443 21.068956 18.469225 36.082669 0.747351 1.033449 0.121596 -0.029541 149249.000000 0 0 1
23.079943 19.594256 18.344425 35.399669 0.703898 1.026041 0.108343 -0.028566 -174031.000000 0 0 1
23.171943 19.188356 16.973825 34.543345 0.691633 1.057126 0.084446 -0.027997 38731.700000 0 0 1
23.179143 17.812356 16.642925 33.638365 0.655214 1.053237 0.085611 -0.022503 -178779.000000 0 0 1
24.262043 16.898556 17.259625 34.235983 0.608374 1.042414 0.081963 -0.029561 -488973.000000 0 0 1
25.346643 16.784856 16.404025 34.543823 0.584912 1.075973 0.100154 -0.034073 -188311.000000 0 0 1
26.187543 15.637156 16.594925 34.723185 0.538301 1.072510 0.081727 -0.016040 -242479.000000 0 0 1
27.510843 15.652056 15.822225 35.386101 0.517269 1.107241 0.177014 -0.042732 -627994.000000 0 0 1
28.502643 16.561356 16.294225 36.772013 0.526366 1.111726 0.144249 -0.037166 453602.000000 0 0 1
29.444743 16.075356 17.234125 37.715050 0.499728 1.096226 0.157956 -0.046792 17417.800000 0 0 1
30.464943 15.058756 16.648525 37.842466 0.459076 1.115261 0.148793 -0.053127 -1012270.000000 0 0 1
31.487243 15.578856 15.834925 38.534297 0.459453 1.147322 0.193915 -0.039176 -155340.000000 0 0 1
31.987043 14.641656 14.892325 38.201182 0.429269 1.170339 0.198243 -0.047578 25427.600000 0 0 1
31.238343 14.510256 13.518925 37.001931 0.434848 1.196780 0.177756 -0.034210 -111147.000000 0 0 1
31.566443 15.570056 12.696425 37.417458 0.458231 1.224604 0.181730 -0.026957 129223.000000 0 0 1
30.833243 15.599856 11.477925 36.411360 0.468391 1.250098 0.176963 -0.024694 459401.000000 0 0 1
29.532143 16.450656 11.436325 35.686987 0.508234 1.244579 0.155319 -0.028086 227472.000000 0 0 1
29.754043 17.888356 11.458725 36.559523 0.541307 1.251997 0.143132 -0.023580 -84574.800000 0 0 1
30.219543 18.439056 12.676925 37.602180 0.547864 1.226927 0.175203 -0.026153 -407404.000000 0 0 1
29.298143 18.400156 13.896925 37.283662 0.560776 1.188842 0.160281 -0.028280 227649.000000 0 0 1
28.178343 19.299656 13.825825 36.846291 0.600527 1.186152 0.164398 -0.018897 784818.000000 0 0 1
27.297643 19.269056 14.926825 36.596009 0.614666 1.150664 0.127287 -0.020253 40552.100000 0 0 1
27.816143 20.122456 16.110425 37.923565 0.626265 1.132041 0.118862 -0.032949 -245180.000000 0 0 1
27.659743 21.528356 15.943025 38.505993 0.661386 1.143908 0.097695 -0.024826 8096.890000 0 0 1
26.365443 21.952856 16.324225 37.994010 0.694327 1.126688 0.087636 -0.027609 46049.100000 0 0 1
26.104043 23.427556 15.989625 38.547886 0.731415 1.143074 0.096916 -0.022817 -138638.000000 0 0 1
25.865143 23.603156 14.614825 37.943480 0.739704 1.175400 0.115714 -0.036990 113729.000000 0 0 1
25.886943 25.017656 14.397025 38.772300 0.768323 1.190363 0.120927 -0.034999 -468957.000000 0 0 1
25.514243 25.437056 13.003125 38.302763 0.783883 1.224429 0.115661 -0.036457 1350970.000000 0 0 1
24.095743 25.486856 12.665625 37.290786 0.813447 1.224257 0.113372 -0.037295 1304550.000000 0 0 1
23.898943 25.721656 11.316325 36.889324 0.822115 1.259005 0.106095 -0.056249 -139979.000000 0 0 1
23.368343 24.449256 10.628725 35.451592 0.807999 1.266303 0.123391 -0.050733 81386.300000 0 0 1
22.040843 24.110256 11.065825 34.489936 0.830208 1.244178 0.116729 -0.048401 531206.000000 0 0 1
21.544943 22.856056 10.692025 33.179862 0.814918 1.242697 0.123780 -0.041751 99450.700000 0 0 1
21.348843 22.603256 9.146925 32.409050 0.813931 1.284675 0.132787 -0.033851 -407017.000000 0 0 1
20.290043 23.325556 8.546225 32.074996 0.854883 1.301093 0.129505 -0.028869 91158.200000 0 0 1
20.482043 23.490556 7.124325 31.969928 0.853710 1.346065 0.120892 -0.037956 -101428.000000 0 0 1
19.204743 23.573156 6.263825 31.044344 0.887164 1.367631 0.111412 -0.034933 -812024.000000 0 0 1
18.517043 22.367056 6.057525 29.662429 0.879290 1.365134 0.112999 -0.026515 534733.000000 0 0 1
17.556543 22.339756 5.009625 28.851226 0.904720 1.396275 0.123887 -0.030692 636687.000000 0 0 1
16.289643 23.268456 5.080025 28.854465 0.960021 1.393817 0.085991 -0.019835 -272162.000000 0 0 1
16.431343 24.662456 4.816025 30.023655 0.983083 1.409693 0.094220 -0.018557 -456010.000000 0 0 1
15.300743 25.342056 5.248425 30.064572 1.027610 1.395326 0.086861 -0.023183 -567041.000000 0 0 1
15.250143 26.841256 4.935725 31.263097 1.054117 1.412256 0.084134 -0.026304 -349437.000000 0 0 1
14.782443 26.989656 3.597525 30.982323 1.069715 1.454418 0.074040 -0.011385 319664.000000 0 0 1
14.551143 28.317756 3.158425 31.993854 1.096128 1.471916 0.077383 -0.013774 23755.400000 0 0 1
13.778943 28.387056 1.813925 31.606558 1.118901 1.513374 0.083011 -0.017154 -304499.000000 0 0 1
14.582943 28.095656 0.722025 31.663061 1.092028 1.547991 0.109264 -0.021137 -224028.000000 0 0 1
14.696843 26.720256 0.449325 30.498707 1.067933 1.556063 0.070966 -0.014603 -473829.000000 0 0 1
15.824543 26.515256 -0.539575 30.883104 1.032726 1.588269 0.077113 -0.019424 -236510.000000 0 0 1
15.513743 26.871656 -1.905175 31.086843 1.047215 1.632120 0.074134 -0.013450 -768488.000000 0 0 1
16.598843 26.527356 -2.686175 31.407606 1.011675 1.656427 0.076620 -0.010869 -568270.000000 0 0 1
16.466643 26.982356 -4.136975 31.879655 1.022856 1.700932 0.098373 -0.018770 -22430.000000 0 0 1
15.498243 26.276056 -4.881475 30.894262 1.037893 1.729467 0.126617 -0.026088 -488503.000000 0 0 1
15.435243 26.861556 -6.154075 31.585797 1.049246 1.766887 0.135704 -0.027873 873075.000000 0 0 1
14.187243 26.437656 -7.028975 30.816132 1.078276 1.800916 0.149348 -0.043397 862109.000000 0 0 1
14.013343 25.050656 -7.325175 29.623763 1.060765 1.820662 0.143319 -0.043842 -1038030.000000 0 0 1
12.739743 24.875856 -7.824475 29.022951 1.097490 1.843770 0.110091 -0.041756 -663828.000000 0 0 1
12.251643 23.495856 -8.295775 27.766489 1.090145 1.874199 0.123721 -0.036153 -119867.000000 0 0 1
13.013543 22.917356 -9.331775 27.957817 1.054355 1.911108 0.119533 -0.035209 -247037.000000 0 0 1
12.409943 21.799556 -9.921575 26.975266 1.053275 1.947441 0.127123 -0.026979 -399854.000000 0 0 1
13.128443 21.298256 -11.167675 27.398699 1.018398 1.990619 0.127480 -0.028760 -479434.000000 0 0 1
12.484843 20.192556 -11.728575 26.479617 1.017037 2.029659 0.142030 -0.028115 -106584.000000 0 0 1
12.882643 19.911156 -13.096475 27.091222 0.996529 2.075355 0.143528 -0.026664 -865264.000000 0 0 1
14.236143 19.313356 -13.357875 27.460996 0.935593 2.078796 0.133840 -0.026399 -1341160.000000 0 0 1
15.250743 20.161956 -12.995775 28.424985 0.923204 2.045636 0.113345 -0.018335 -265015.000000 0 0 1
16.563443 19.747856 -13.428675 29.062945 0.872872 2.051107 0.104096 -0.012399 1150680.000000 0 0 1
17.610043 20.877356 -13.231075 30.348624 0.870088 2.021912 0.101188 -0.007023 -315466.000000 0 0 1
17.642843 22.037556 -14.060975 31.537831 0.895701 2.032914 0.102460 -0.017934 372772.000000 0 0 1
16.447943 22.825056 -14.071575 31.456752 0.946372 2.034575 0.100592 -0.018793 463572.000000 0 0 1
16.658643 24.232256 -14.731175 32.889514 0.968538 2.035210 0.113373 -0.017365 41416.400000 0 0 1
17.063843 24.324656 -16.087175 33.788472 0.959062 2.067027 0.100731 -0.022199 -341708.000000 0 0 1
16.029043 24.415756 -17.040475 33.814748 0.989862 2.098946 0.067390 -0.016699 -162354.000000 0 0 1
16.505743 24.350256 -18.529475 34.766593 0.975094 2.132901 0.068836 -0.012606 80836.900000 0 0 1
16.985343 23.128856 -19.035175 34.435211 0.937368 2.156496 0.064473 -0.000157 -121510.000000 0 0 1
17.023843 23.147356 -20.434575 35.258803 0.936669 2.188984 0.063386 0.011326 66398.700000 0 0 1
17.429343 21.765456 -20.990775 34.901715 0.895580 2.216080 0.071134 0.014678 28637.400000 0 0 1
16.350643 20.863256 -20.865475 33.734063 0.906070 2.237665 0.082684 0.010410 114322.000000 0 0 1
16.641443 19.647356 -21.534875 33.566458 0.868043 2.267326 0.071040 0.012043 908788.000000 0 0 1
15.387643 18.659656 -21.511175 32.368086 0.881206 2.297728 0.082757 0.005564 461549.000000 0 0 1
15.217443 17.932056 -20.313675 31.076914 0.867106 2.283204 0.079179 -0.001937 711576.000000 0 0 1
14.283443 16.815356 -20.379675 30.035048 0.866634 2.316556 0.076204 -0.007942 638748.000000 0 0 1
12.782343 17.070156 -20.635575 29.674998 0.928056 2.339753 0.089623 -0.017761 -709709.000000 0 0 1
12.022943 16.797556 -19.502675 28.408861 0.949574 2.327461 0.098254 -0.022499 -291484.000000 0 0 1
10.679343 17.173056 -19.730075 28.253108 1.014454 2.343862 0.099104 -0.027670 171462.000000 0 0 1
9.753043 16.762956 -18.539775 26.829868 1.043851 2.333685 0.112170 -0.039471 -266268.000000 0 0 1
9.566943 15.345856 -18.384775 25.788014 1.013333 2.364449 0.131402 -0.058141 802246.000000 0 0 1
8.167143 15.022156 -18.341275 25.075282 1.072824 2.391240 0.138098 -0.051291 1102000.000000 0 0 1
7.444043 15.189756 -16.955175 23.950374 1.115124 2.357359 0.143702 -0.063151 -38088.500000 0 1 0
7.221843 16.575356 -16.747075 24.644715 1.159900 2.317932 0.158746 -0.053215 -547545.000000 0 1 0
6.516743 16.730156 -15.551775 23.753395 1.199356 2.284606 0.132855 -0.059246 -615124.000000 0 1 0
6.438543 18.217256 -15.032075 24.480330 1.231068 2.231974 0.113280 -0.051865 444469.000000 0 1 0
7.659543 18.977056 -14.878175 25.301331 1.187172 2.199429 0.117069 -0.045116 421098.000000 0 0 1
8.205943 19.391656 -16.153275 26.538691 1.170478 2.225178 0.129983 -0.035574 -708907.000000 0 0 1
9.482343 20.132256 -15.803875 27.294414 1.130615 2.188316 0.113378 -0.016583 -671611.000000 0 0 1
9.256243 21.412856 -15.243875 27.866901 1.162780 2.149602 0.109114 -0.027559 7555.820000 0 0 1
8.990443 21.450156 -13.898175 27.094216 1.173907 2.109423 0.111043 -0.028526 -203647.000000 0 0 1
8.582443 22.812056 -13.281875 27.757097 1.210953 2.069746 0.100182 -0.033710 -171308.000000 0 0 1
7.229343 23.197156 -13.433775 27.763965 1.268688 2.075852 0.078967 -0.030144 -28065.700000 0 0 1
6.789643 24.049556 -12.403475 27.898505 1.295639 2.031516 0.064911 -0.029318 49790.700000 0 0 1
6.300543 23.430356 -11.040875 26.656694 1.308105 1.997847 0.059921 -0.031436 -189627.000000 0 0 1
7.271743 23.274456 -10.042275 26.370928 1.267971 1.961467 0.060117 -0.026227 -117039.000000 0 0 1
6.635743 22.757856 -8.917875 25.327487 1.287082 1.930613 0.058942 -0.033560 81249.100000 0 0 1
7.516843 22.891656 -7.651575 25.279981 1.253523 1.878293 0.053991 -0.037443 78941.000000 0 0 1
7.643043 24.178556 -7.149175 26.346335 1.264628 1.845596 0.046878 -0.037114 174398.000000 0 0 1
8.604343 24.249456 -6.091675 26.442000 1.229828 1.803263 0.060332 -0.033181 307371.000000 0 0 1
8.830343 25.710756 -5.634275 27.762618 1.239969 1.775161 0.043254 -0.029399 -76064.300000 0 0 1
9.462043 26.533256 -6.564375 28.924643 1.228244 1.799739 0.062302 -0.036367 -106347.000000 0 0 1
9.682643 27.810256 -6.038375 30.060371 1.235754 1.773047 0.053898 -0.032993 202920.000000 0 0 1
10.243843 28.824956 -7.079675 31.399621 1.229336 1.798222 0.059652 -0.018202 2351580.000000 0 0 1
11.626043 28.535856 -7.544975 31.723597 1.183911 1.810932 0.071694 -0.026999 1794800.000000 0 0 1
11.884743 29.520456 -8.539375 32.948829 1.188056 1.832960 0.078681 -0.019715 -164464.000000 0 0 1
13.385243 29.493956 -8.865675 33.580625 1.144762 1.837975 0.101327 -0.026992 -363738.000000 0 0 1
14.185543 29.992756 -7.852875 34.094907 1.129009 1.803207 0.101152 -0.022590 -1121180.000000 0 0 1
15.406943 30.358156 -8.421275 35.070064 1.101162 1.813293 0.104714 -0.022108 -649379.000000 0 0 1
16.474443 30.858456 -7.443675 35.763947 1.080420 1.780463 0.105309 -0.021885 -184448.000000 0 0 1
17.132443 29.743156 -6.887475 35.008759 1.048201 1.768824 0.099861 -0.025891 -274460.000000 0 0 1
18.279343 30.206156 -6.195475 35.845922 1.026597 1.744505 0.089720 -0.013019 1148140.000000 0 0 1
19.502943 29.228556 -5.951075 35.638302 0.982386 1.738568 0.080554 -0.013285 582042.000000 0 0 1
19.339543 28.232956 -4.965375 34.579946 0.970209 1.714886 0.088207 -0.020881 -295178.000000 0 0 1
20.440843 27.364256 -4.807875 34.492698 0.929224 1.710640 0.071579 -0.020142 -219888.000000 0 0 1
20.626843 26.218656 -5.800975 33.860536 0.904203 1.742965 0.069660 -0.013947 -184187.000000 0 0 1
21.213343 26.615056 -7.014875 34.750188 0.897861 1.774059 0.065032 -0.014215 139077.000000 0 0 1
21.042943 25.559756 -7.976775 34.054890 0.882018 1.807226 0.066281 -0.018893 -1203130.000000 0 0 1
21.667143 25.955056 -9.351675 35.079678 0.875196 1.840643 0.072550 -0.026334 -1093030.000000 0 0 1
23.032843 25.971456 -9.402675 35.964408 0.845293 1.835314 0.060072 -0.021098 -1316550.000000 0 0 1
23.652343 24.691856 -9.216675 35.412825 0.806897 1.834092 0.061368 -0.014399 -1775460.000000 0 0 1
25.152643 24.811756 -9.421175 36.565519 0.778576 1.831388 0.019539 -0.003243 -486042.000000 0 0 1
25.662343 25.174656 -10.737175 37.518077 0.775805 1.861041 0.026248 -0.011385 -453730.000000 0 0 1
27.053043 25.115756 -10.711875 38.437125 0.748280 1.853222 0.027086 0.000449 -154364.000000 0 0 1
27.817643 25.325956 -12.060975 39.505600 0.738547 1.881048 0.037909 -0.009104 286419.000000 0 0 1
28.076243 26.670356 -12.470175 40.682780 0.759724 1.882334 0.049948 -0.005857 -106389.000000 0 0 1
29.114643 26.724256 -13.408175 41.732810 0.742616 1.897884 0.060237 -0.011775 -103978.000000 0 0 1
28.825943 27.789056 -14.510475 42.587798 0.767086 1.918478 0.063598 -0.022017 -136757.000000 0 0 1
29.158743 29.092456 -14.191675 43.566121 0.784260 1.902601 0.060415 -0.023055 107742.000000 0 0 1
29.175443 29.852656 -15.337075 44.470366 0.796870 1.922911 0.068825 -0.021628 -425584.000000 0 0 1
29.359843 31.373056 -14.986675 45.506807 0.818535 1.906388 0.068486 -0.025703 -287226.000000 0 0 1
30.624443 31.604356 -14.445575 46.318101 0.801144 1.887965 0.060511 -0.025470 -438767.000000 0 0 1
31.027343 32.943956 -14.426075 47.498546 0.815350 1.879387 0.060190 -0.027798 -39961.500000 0 0 1
16.936543 -31.547890 -27.560395 45.185077 -1.078104 2.226787 0.127528 -0.045260 -135977.000000 0 0 1
18.038643 -32.359790 -27.231265 45.979239 -1.062259 2.204646 0.092179 -0.029156 -24970.100000 0 0 1
18.519343 -31.961690 -25.939265 45.137137 -1.045644 2.183005 0.084440 -0.026518 475302.000000 0 0 1
19.889543 -32.610490 -25.470085 45.910382 -1.023120 2.158893 0.014808 -0.018915 886773.000000 0 0 1
21.109843 -32.158290 -25.990025 46.424805 -0.989910 2.164978 0.019453 -0.009679 208795.000000 0 0 1
21.259443 -32.439290 -27.377005 47.473907 -0.990662 2.185449 0.039035 -0.007379 -898036.000000 0 0 1
22.660343 -32.013690 -27.858595 48.108926 -0.954833 2.188388 0.041834 0.000205 -1196.990000 0 0 1
22.821343 -30.639090 -28.186605 47.476860 -0.930603 2.206435 0.038107 -0.017628 -859863.000000 0 0 1
24.136043 -30.242390 -28.052195 47.792011 -0.897223 2.198100 0.012046 -0.000997 -1034090.000000 0 0 1
24.560243 -29.041090 -28.862475 47.745501 -0.868800 2.219943 0.002693 0.001430 -178405.000000 0 0 1
24.872443 -29.392090 -30.185595 48.925489 -0.868496 2.235684 0.019488 -0.008570 142040.000000 0 0 1
25.434643 -28.326890 -31.001995 49.096410 -0.839144 2.254220 0.036353 -0.028878 428325.000000 0 0 1
25.886743 -28.799390 -32.412145 50.498272 -0.838609 2.267700 0.047494 -0.003527 442422.000000 0 0 1
26.946343 -29.748690 -32.376315 51.568554 -0.834786 2.249559 0.059784 -0.019796 -105637.000000 0 0 1
27.328943 -30.149790 -33.689115 52.828377 -0.834435 2.262316 0.050896 -0.019980 649946.000000 0 0 1
28.581243 -31.124390 -33.610525 53.993356 -0.827967 2.242721 0.050520 -0.027726 807072.000000 0 0 1
29.719043 -30.311290 -33.479635 54.063683 -0.795264 2.238600 0.069623 -0.027675 -591260.000000 0 0 1
30.948543 -30.926690 -33.768125 55.268062 -0.785045 2.228104 0.079425 -0.023510 372445.000000 0 0 1
32.176543 -30.012590 33.732795 55.443547 -0.750616 0.916732 0.094628 -0.031153 62708.700000 0 0 1
32.157643 -29.305290 32.517889 54.316914 -0.739024 0.928957 0.082224 -0.017808 391024.000000 0 0 1
33.229243 -28.359890 32.382057 54.378889 -0.706500 0.932922 0.091447 -0.024917 410921.000000 0 0 1
33.385143 -27.842990 30.961385 53.370471 -0.695128 0.951918 0.086401 -0.025940 -385449.000000 0 0 1
34.375943 -26.840590 30.847485 53.419940 -0.662921 0.955191 0.101617 -0.030431 237025.000000 0 0 1
34.625043 -26.178690 29.599215 52.538851 -0.647370 0.972328 0.091681 -0.025757 -162275.000000 0 0 1
35.226343 -27.056090 28.424795 52.734203 -0.654962 1.001523 0.098023 -0.022123 -201343.000000 0 0 1
34.329943 -27.940090 27.809345 52.273829 -0.683141 1.009843 0.079772 -0.030509 229545.000000 0 0 1
33.234443 -27.373090 27.122245 50.886446 -0.688988 1.008659 0.098049 -0.030967 -559523.000000 0 0 1
32.465443 -28.398090 26.312105 50.525076 -0.718670 1.023040 0.090303 -0.015809 -616012.000000 0 0 1
31.419743 -27.749590 25.632285 49.135059 -0.723450 1.021989 0.077148 -0.008324 -517484.000000 0 0 1
30.918743 -28.664790 24.722265 48.875650 -0.747588 1.040464 0.051523 -0.001871 -1088530.000000 0 0 1
29.598843 -28.283390 24.101835 47.507263 -0.762676 1.038713 0.046790 0.004665 -110769.000000 0 0 1
28.571543 -28.213090 25.138545 47.373600 -0.779086 1.011435 0.043568 0.000617 1087560.000000 0 0 1
27.284543 -27.926090 24.553895 46.121649 -0.797018 1.009396 0.058002 0.013020 832007.000000 0 0 1
26.167643 -28.020290 25.612225 46.107139 -0.819574 0.981840 0.071170 0.009422 -99487.500000 0 0 1
26.250243 -27.043690 26.682995 46.178118 -0.800285 0.954732 0.054555 -0.001275 -788971.000000 0 0 1
25.135143 -27.086490 27.475845 46.047534 -0.822747 0.931433 0.071877 -0.014041 -964306.000000 0 0 1
25.056343 -25.676490 28.141485 45.596553 -0.797621 0.905637 0.077222 -0.010291 585163.000000 0 0 1
23.863743 -25.556590 28.946925 45.393193 -0.819639 0.879297 0.103615 -0.019862 842358.000000 0 0 1
23.995343 -24.484990 29.860195 45.463419 -0.795498 0.854234 0.107014 -0.023881 -117944.000000 0 0 1
23.399143 -23.154190 29.351695 44.103950 -0.780136 0.842617 0.093927 -0.020711 -266594.000000 0 0 1
24.119943 -22.588590 28.276395 43.492189 -0.752625 0.863016 0.085985 -0.017334 95431.000000 0 0 1
23.650743 -21.296790 27.942845 42.352255 -0.733075 0.850281 0.093288 -0.019429 -64276.000000 0 0 1
24.148643 -20.070690 28.764485 42.583860 -0.693437 0.829183 0.089944 -0.015786 -3997.350000 0 0 1
23.931843 -20.141490 30.199305 43.478854 -0.699608 0.802968 0.089353 -0.020404 328227.000000 0 0 1
24.711343 -19.158890 30.899405 43.960058 -0.659502 0.791334 0.088726 -0.018502 113216.000000 0 0 1
24.204943 -18.848690 32.302652 44.549003 -0.661625 0.759611 0.091624 -0.016059 -143848.000000 0 0 1
24.300343 -19.914590 33.138874 45.664894 -0.686530 0.758749 0.077211 -0.014578 387011.000000 0 0 1
23.568243 -19.578290 -33.331605 45.274357 -0.693186 2.398255 0.086529 -0.022076 303566.000000 0 0 1
23.714143 -20.702390 -32.284615 45.091528 -0.717695 2.368823 0.075319 -0.017585 993282.000000 0 0 1
25.011343 -20.808290 -31.664985 45.400699 -0.693924 2.342638 0.085596 -0.020729 638943.000000 0 0 1
24.865243 -21.805490 -30.627595 45.075595 -0.719931 2.317839 0.084313 -0.022751 -141572.000000 0 0 1
26.039643 -22.084590 -29.693215 45.249079 -0.703398 2.286591 0.061868 -0.010029 -257470.000000 0 0 1
27.187943 -22.631790 -30.287195 46.569264 -0.694199 2.278866 0.062047 -0.009471 -390220.000000 0 0 1
28.043343 -23.235290 -29.325435 46.757769 -0.691908 2.248721 0.058345 -0.010513 -24697.100000 0 0 1
29.296743 -23.810390 -29.991845 48.215605 -0.682456 2.242137 0.044562 -0.006075 -102047.000000 0 0 1
30.115443 -22.916490 -30.786805 48.784555 -0.650475 2.253737 0.054321 -0.004016 413615.000000 0 0 1
29.890543 -22.960290 -32.211295 49.580107 -0.655014 2.277962 0.056601 -0.006006 47854.600000 0 0 1
30.290543 -24.262790 -32.970945 50.924289 -0.675352 2.275030 0.046509 -0.019392 250017.000000 0 0 1
29.430243 -25.307190 -32.507065 50.629066 -0.710216 2.267983 0.067261 -0.027548 318117.000000 0 0 1
29.697143 -26.529290 -33.153775 51.815985 -0.729117 2.265082 0.068396 -0.033221 211535.000000 0 0 1
29.224343 -26.727790 33.035470 51.573047 -0.740808 0.875573 0.058771 -0.030256 380808.000000 0 0 1
30.114343 -26.062590 32.139758 51.177107 -0.713398 0.891802 0.037399 -0.022715 63311.300000 0 0 1
29.548643 -26.043790 30.879565 50.049464 -0.722436 0.905896 0.044785 -0.027129 -496513.000000 0 0 1
30.473443 -25.556390 29.724105 49.651608 -0.697865 0.928977 0.053708 -0.023967 38029.300000 0 0 1
30.757843 -24.152290 29.550345 49.016333 -0.665676 0.923706 0.050197 -0.021269 231410.000000 0 0 1
31.307543 -23.550190 30.747955 49.801711 -0.644921 0.905353 0.049633 -0.007310 -1361620.000000 0 0 1
31.870743 -22.147490 30.526245 49.377193 -0.607306 0.904313 0.051520 -0.007076 1037780.000000 0 0 1
33.191743 -22.098690 29.976555 49.886248 -0.587395 0.926172 0.079769 -0.019051 840535.000000 0 0 1
34.279443 -22.567990 30.731295 51.271891 -0.582225 0.928071 0.074741 -0.021718 -86448.000000 0 0 1
35.703343 -22.005490 30.458835 51.833492 -0.552350 0.942672 0.075141 -0.034068 488449.000000 0 0 1
36.281643 -22.325590 29.226415 51.662103 -0.551624 0.969487 0.081433 -0.039319 -98452.800000 0 0 1
37.466743 -21.584690 29.007245 52.067993 -0.522663 0.979903 0.076746 -0.036070 46217.600000 0 0 1
-37.373373 -21.880390 27.610945 51.360342 0.529655 1.003217 0.094457 -0.034990 -414657.000000 0 0 1
-36.837173 -23.142590 27.476805 51.454170 0.560926 1.007465 0.092279 -0.028666 -100059.000000 0 0 1
-36.470573 -23.377590 26.135465 50.593250 0.570021 1.027944 0.074927 -0.018417 -26502.100000 0 0 1
-36.264573 -24.900890 25.804305 51.000350 0.601707 1.040298 0.068772 -0.025567 -221617.000000 0 0 1
-37.470073 -25.619390 25.935305 52.278098 0.599722 1.051692 0.087484 -0.019904 -94551.900000 0 0 1
-37.446373 -26.955690 25.550805 52.741669 0.623923 1.065060 0.092108 -0.012276 -86016.300000 0 0 1
-36.502873 -27.870990 26.356275 52.951912 0.652103 1.049805 0.091725 -0.018202 -225422.000000 0 0 1
-36.262373 -29.163590 25.836615 53.225984 0.677320 1.063960 0.093426 -0.016662 1161200.000000 0 0 1
-35.101373 -29.824590 26.402545 53.091496 0.704303 1.050309 0.090170 -0.028761 1382500.000000 0 0 1
-33.646473 -29.443990 26.032115 51.736879 0.718886 1.043541 0.075178 -0.025540 -469255.000000 0 0 1
-33.384873 -29.503890 24.635835 50.911233 0.723764 1.065693 0.066974 -0.021944 12734.500000 0 0 1
-32.119773 -28.908790 24.426285 49.639111 0.732832 1.056322 0.044575 -0.023053 29693.000000 0 0 1
-31.646973 -28.892990 22.943845 48.608186 0.739939 1.079220 0.052315 -0.025799 -169343.000000 0 0 1
-31.541373 -30.178990 22.413625 49.071379 0.763328 1.096452 0.061182 -0.024176 310140.000000 0 0 1
-31.001573 -30.228090 21.112425 48.172289 0.772766 1.117124 0.056531 -0.026647 -528310.000000 0 0 1
-30.919473 -31.684390 20.625625 48.839848 0.797616 1.134803 0.063213 -0.025155 -467381.000000 0 0 1
-30.019773 -32.539590 21.190925 49.082247 0.825655 1.124372 0.069373 -0.033451 688095.000000 0 0 1
-28.634273 -32.347290 20.802025 47.947815 0.846211 1.122038 0.078352 -0.034294 1964080.000000 0 0 1
-27.593173 -33.575490 20.772025 48.168182 0.882888 1.124930 0.072080 -0.020143 598389.000000 0 0 1
-27.788373 33.176956 19.798625 47.590856 -0.873557 1.141735 0.058981 -0.016412 182070.000000 0 0 1
-29.033073 32.471956 19.767025 47.833905 -0.841252 1.144784 0.067078 -0.016794 555464.000000 0 0 1
-29.219273 31.415456 20.865725 47.708230 -0.821602 1.118134 0.073486 -0.006709 -262927.000000 0 0 1
-28.420073 30.292856 20.655825 46.389878 -0.817285 1.109325 0.065750 -0.012148 -311940.000000 0 0 1
-28.425373 29.374756 21.712725 46.285208 -0.801822 1.082517 0.065957 -0.014988 -122356.000000 0 0 1
-27.423273 28.279256 21.356125 44.808886 -0.800764 1.074008 0.050478 -0.015513 1958200.000000 0 0 1
-25.998573 28.679356 21.388625 44.225609 -0.834388 1.066004 0.042849 -0.008063 1932460.000000 0 0 1
-25.172973 27.729856 20.766025 42.823489 -0.833692 1.064523 0.040173 -0.015706 707822.000000 0 0 1
-23.639673 28.004456 20.933725 42.205503 -0.869714 1.051816 0.034452 -0.011476 683856.000000 0 0 1
-23.198373 28.048956 22.271525 42.672347 -0.879767 1.021697 0.048315 -0.011410 -516530.000000 0 0 1
-21.892673 28.519656 22.354625 42.336617 -0.916104 1.014528 0.091035 -0.011729 -550775.000000 0 0 1
-21.427373 28.733256 23.798265 43.024292 -0.930031 0.984673 0.080448 -0.009785 -304152.000000 0 0 1
-21.221473 27.570356 24.568815 42.592277 -0.914793 0.955945 0.102203 -0.015455 186910.000000 0 0 1
-20.876473 27.689756 25.926865 43.298407 -0.924777 0.928801 0.096115 -0.022195 792250.000000 0 0 1
-19.370973 27.957156 26.337655 43.017545 -0.964864 0.911888 0.098747 -0.018957 429680.000000 0 0 1
-18.850173 29.178356 25.921375 43.343086 -0.997215 0.929729 0.076849 -0.021538 69218.200000 0 0 1
-17.591473 29.518556 26.473245 43.377849 -1.033363 0.914365 0.083536 -0.014905 123875.000000 0 0 1
-17.322173 29.641056 27.979455 44.288822 -1.041928 0.886988 0.069066 -0.011468 -831404.000000 0 0 1
-17.449873 28.462356 28.715825 44.036375 -1.020810 0.860454 0.073388 -0.017074 178925.000000 0 0 1
-17.364073 28.751056 30.083385 45.090401 -1.027481 0.840381 0.064978 -0.010256 -131240.000000 0 0 1
-17.230373 27.521756 31.019395 44.905853 -1.011432 0.808250 0.057192 -0.004984 286142.000000 0 0 1
-15.880173 27.083156 31.172095 44.242250 -1.040475 0.788969 0.056478 -0.000171 522136.000000 0 0 1
-15.662873 25.990356 32.002044 44.101644 -1.028437 0.758828 0.067612 -0.000381 -214802.000000 0 0 1
-15.940473 26.056556 33.531414 45.358555 -1.021771 0.738837 0.069084 0.000333 -179970.000000 0 0 1
-17.307373 25.913456 -33.822955 45.989615 -0.981946 2.397123 0.071149 -0.004037 -417048.000000 0 0 1
-17.732273 26.581156 -32.681195 45.706147 -0.982494 2.367461 0.081089 -0.007072 31094.200000 0 0 1
-19.124973 26.137356 -32.204105 45.673081 -0.939104 2.353361 0.056081 -0.004524 708772.000000 0 0 1
-20.192373 26.397556 -33.141825 46.935524 -0.917806 2.354791 0.040888 -0.004306 687169.000000 0 0 1
-21.457373 25.965256 -32.653565 46.913417 -0.880171 2.340662 0.061480 -0.010278 444967.000000 0 0 1
-22.583973 26.203956 -33.714735 48.304932 -0.859461 2.343336 0.083484 -0.022644 -364321.000000 0 0 1
-22.820373 25.277156 32.895879 47.348103 -0.836433 0.802701 0.085280 -0.021332 -26732.900000 0 0 1
-23.168473 23.988956 33.267323 47.105869 -0.802795 0.786645 0.088344 -0.018795 -279214.000000 0 0 1
-23.582673 23.107156 32.054860 46.017357 -0.775214 0.800174 0.072577 -0.005844 -216354.000000 0 0 1
-24.893073 23.178756 31.580125 46.413619 -0.749752 0.822479 0.090045 -0.016682 -528556.000000 0 0 1
-24.907073 22.623256 30.285555 45.270176 -0.737385 0.837940 0.099744 -0.011368 466667.000000 0 0 1
-26.283973 22.027956 29.845035 45.462118 -0.697530 0.854652 0.100858 -0.013769 544609.000000 0 0 1
-26.624873 20.791456 30.505595 45.516588 -0.662988 0.836307 0.103825 -0.031101 -73314.200000 0 0 1
-27.757373 20.219456 29.900875 45.534168 -0.629556 0.854403 0.099528 -0.031625 -69616.300000 0 0 1
-28.299773 18.929556 30.594855 45.773905 -0.589543 0.838753 0.121852 -0.042945 -467340.000000 0 0 1
-29.022973 19.155656 31.781309 47.109698 -0.583385 0.830342 0.114765 -0.034219 104048.000000 0 0 1
-29.365773 18.018856 32.534975 47.387260 -0.550360 0.814027 0.097393 -0.022552 271319.000000 0 0 1
-30.318973 16.938256 31.880637 47.143606 -0.509474 0.828143 0.077982 -0.031467 -87683.200000 0 0 1
-31.673573 17.299956 31.758470 48.073944 -0.499917 0.849156 0.075129 -0.033154 636190.000000 0 0 1
-32.496873 16.234356 31.173845 47.868671 -0.463301 0.861583 0.092282 -0.025107 1661970.000000 0 0 1
-34.050273 16.517156 31.264155 49.088541 -0.451642 0.880335 0.088959 -0.023233 852961.000000 0 0 1
-34.614073 16.246256 32.507917 50.188042 -0.438832 0.866205 0.078718 -0.019044 152607.000000 0 0 1
-36.013573 16.401656 32.538188 51.232074 -0.427360 0.882641 0.096896 -0.019012 -118659.000000 0 0 1
-36.566873 16.932456 -33.797225 52.593694 -0.433657 2.268696 0.075785 -0.008198 -1165290.000000 0 0 1
37.446243 17.214556 33.810115 53.307466 0.430903 0.883762 0.076817 -0.012871 -988686.000000 0 0 1
37.103743 17.803956 -32.560895 52.477428 0.447392 2.240144 0.065284 -0.016467 -656712.000000 0 0 1
35.617143 18.027556 -32.362295 51.389608 0.468554 2.252020 0.079736 -0.021345 -848010.000000 0 0 1
34.907043 16.825656 -32.248845 50.414208 0.449155 2.264875 0.073318 -0.010759 94625.900000 0 0 1
33.773343 17.064056 -31.400645 49.171345 0.467841 2.263469 0.080350 -0.022431 780118.000000 0 0 1
32.767043 15.815756 -31.469565 48.105621 0.449690 2.283890 0.085628 -0.014661 556773.000000 0 0 1
32.205943 15.620856 -32.762695 48.524510 0.451600 2.312003 0.098036 -0.014581 122028.000000 0 0 1
31.374543 14.467056 -32.818955 47.652297 0.432053 2.330515 0.097889 -0.021258 248693.000000 0 0 1
32.116843 13.144156 -33.101245 47.957824 0.388464 2.332583 0.092808 -0.012716 -59187.500000 0 0 1
33.001443 12.694556 -32.129615 47.776136 0.367219 2.308383 0.090527 -0.009772 318233.000000 0 0 1
33.952143 11.722456 -32.601615 48.508033 0.332450 2.307820 0.099011 -0.013288 236932.000000 0 0 1
18.186243 -20.849744 9.282135 29.182345 -0.853525 1.247099 0.049488 -0.014130 -82307.800000 0 0 1
18.103843 -21.851344 10.281535 30.181788 -0.878917 1.223184 0.040603 -0.016809 -573532.000000 0 0 1
19.266843 -22.577544 10.502135 31.484148 -0.864353 1.230709 0.029464 -0.019813 -1078740.000000 0 0 1
19.160643 -23.899044 11.319035 32.656011 -0.895000 1.216837 0.031615 -0.018951 -100303.000000 0 0 1
18.459443 -25.031004 10.856135 32.941734 -0.935367 1.234963 0.037356 -0.016308 1484520.000000 0 0 1
17.006843 -24.890144 10.929835 32.065765 -0.971383 1.222968 0.045770 -0.015977 1406480.000000 0 0 1
16.239343 -25.981804 10.153735 32.277991 -1.012177 1.250791 0.084846 -0.018775 20063.100000 0 0 1
16.125143 -25.649914 8.766335 31.540243 -1.009568 1.289146 0.088058 -0.024516 381502.000000 0 0 1
15.076843 -26.410944 8.151335 31.484812 -1.052082 1.308916 0.102305 -0.018935 359706.000000 0 0 1
14.650843 -25.812334 6.834835 30.457163 -1.054548 1.344461 0.100402 -0.023029 -180796.000000 0 0 1
14.156543 -24.510544 6.969635 29.150477 -1.047033 1.329366 0.114388 -0.030181 51772.300000 0 0 1
13.615043 -23.889844 5.816635 28.105645 -1.052796 1.362334 0.120121 -0.021360 -76591.500000 0 0 1
12.651443 -22.738544 6.108535 26.728535 -1.063062 1.340219 0.123041 -0.024962 -385646.000000 0 0 1
12.077343 -22.147644 4.996035 25.716545 -1.071561 1.375280 0.111379 -0.018730 -51293.000000 0 0 1
11.339543 -20.945144 5.297335 24.399714 -1.074586 1.351947 0.112989 -0.022328 222518.000000 0 1 0
10.620743 -20.433844 4.002035 23.374312 -1.091464 1.398733 0.086804 -0.020308 128159.000000 0 1 0
11.406443 -20.025844 2.907635 23.229199 -1.053040 1.445296 0.075090 -0.014161 55339.900000 0 1 0
10.516443 -19.401744 1.974335 22.156742 -1.074088 1.481570 0.038066 -0.004368 638821.000000 0 1 0
11.226943 -18.953644 0.645035 22.038624 -1.036031 1.541524 0.042710 0.003842 -194170.000000 0 1 0
12.052143 -17.879544 0.773735 21.576165 -0.977683 1.534928 0.043745 -0.000044 -572247.000000 0 1 0
12.783143 -17.642644 -0.431565 21.791234 -0.943777 1.590602 0.050981 -0.002673 -420362.000000 0 1 0
13.863043 -16.602444 -0.225165 21.630437 -0.875075 1.581206 0.037971 -0.001342 -544868.000000 0 1 0
14.801443 -17.100244 0.696535 22.627112 -0.857333 1.540008 0.049312 -0.010649 -336576.000000 0 1 0
15.955843 -16.284544 0.781535 22.811972 -0.795593 1.536530 0.057152 -0.022077 243009.000000 0 1 0
17.040543 -16.984444 1.641635 24.115273 -0.783749 1.502669 0.037927 -0.012207 -211657.000000 0 1 0
17.805343 -17.963244 0.996535 25.312081 -0.789813 1.531416 0.060556 -0.008662 -475126.000000 0 0 1
18.979843 -18.287944 1.665935 26.409443 -0.766835 1.507673 0.057812 -0.007761 11117.000000 0 0 1
19.636743 -19.539544 1.040035 27.721420 -0.782917 1.533270 0.040212 -0.013296 -160115.000000 0 0 1
18.779543 -20.590844 1.237435 27.895973 -0.831372 1.526423 0.051401 -0.008663 -145278.000000 0 0 1
19.262043 -21.733544 0.527435 29.045678 -0.845612 1.552637 0.070078 -0.014791 -6208.920000 0 0 1
18.226843 -22.859144 0.541835 29.241270 -0.897671 1.552265 0.079930 -0.012373 -290817.000000 0 0 1
18.065543 -23.539344 1.727135 29.722846 -0.916213 1.512656 0.063447 -0.006328 145401.000000 0 0 1
17.223043 -24.693244 1.664035 30.152256 -0.961764 1.515581 0.074569 -0.007529 -300335.000000 0 0 1
17.226443 -25.614994 2.928535 31.007331 -0.978756 1.476209 0.076569 -0.008356 135107.000000 0 0 1
18.274243 -26.513304 3.137935 32.353514 -0.967323 1.473655 0.067051 -0.011603 1146850.000000 0 0 1
19.616243 -25.988154 3.381235 32.735514 -0.924221 1.467322 0.062285 -0.004172 1108380.000000 0 0 1
20.691843 -27.052564 3.633235 34.251919 -0.917843 1.464522 0.062295 0.002185 -83124.900000 0 0 1
21.064843 -27.707054 2.434135 34.890306 -0.920755 1.500974 0.065007 -0.001132 -325285.000000 0 0 1
22.102943 -28.645924 2.572235 36.273205 -0.913619 1.499824 0.085146 -0.003886 -89454.900000 0 0 1
21.667843 -30.087804 2.933735 37.193792 -0.946672 1.491837 0.082746 -0.006977 -180293.000000 0 0 1
21.458743 -30.280434 4.323135 37.364044 -0.954277 1.454834 0.093710 -0.006601 -153464.000000 0 0 1
20.864143 -31.546274 4.475035 38.085506 -0.986461 1.453025 0.081584 -0.021412 -258622.000000 0 0 1
20.565043 -32.030724 5.888135 38.516988 -1.000036 1.417323 0.103131 -0.030479 -611120.000000 0 0 1
21.641043 -32.559844 6.576335 39.645004 -0.984188 1.404145 0.090421 -0.038446 -643504.000000 0 0 1
21.248643 -33.061594 7.774635 40.062685 -0.999571 1.375495 0.089104 -0.040522 59435.800000 0 0 1
22.340243 33.832752 8.486535 41.421768 0.987205 1.364454 0.101262 -0.049247 574542.000000 0 0 1
23.414843 -33.160004 9.098335 41.600726 -0.955977 1.350308 0.106466 -0.044205 538786.000000 0 0 1
24.459443 33.633618 9.350035 42.625201 0.942027 1.349643 0.138160 -0.047564 412298.000000 0 0 1
25.667943 -33.519684 10.149635 43.421511 -0.917287 1.334867 0.131292 -0.043957 -42526.800000 0 0 1
26.540143 -32.637964 9.504335 43.127117 -0.888078 1.348593 0.122474 -0.036680 -138789.000000 0 0 1
27.188343 -31.809094 10.432535 43.126120 -0.863560 1.326465 0.110513 -0.032491 -139419.000000 0 0 1
27.960843 -30.659054 9.810235 42.638328 -0.831395 1.338636 0.117353 -0.036220 -387580.000000 0 0 1
27.129743 -29.611144 9.393335 41.244121 -0.829102 1.341030 0.103303 -0.034962 -99203.600000 0 0 1
27.676543 -28.842904 8.354735 40.837553 -0.806032 1.364757 0.109327 -0.024472 -208687.000000 0 0 1
26.930543 -27.536664 8.215135 39.382870 -0.796526 1.360656 0.097456 -0.019366 -97093.800000 0 0 1
27.350743 -26.681894 9.270635 39.318332 -0.773020 1.332771 0.101116 -0.032207 91102.500000 0 0 1
27.067343 -25.372294 8.869735 38.145334 -0.753086 1.336124 0.089427 -0.019911 -144755.000000 0 0 1
27.621843 -24.289244 9.779735 38.060173 -0.721288 1.310927 0.100362 -0.038933 670096.000000 0 0 1
29.010243 -24.054744 9.523435 38.870563 -0.692283 1.323273 0.100118 -0.031190 202578.000000 0 0 1
29.594743 -23.219544 10.493235 39.052580 -0.665270 1.298758 0.070256 -0.037401 885694.000000 0 0 1
31.104243 -22.971844 10.115235 39.968707 -0.636129 1.314935 0.080346 -0.023985 1008980.000000 0 0 1
31.160743 -22.147544 8.958435 39.265241 -0.617905 1.340617 0.095741 -0.016632 -524587.000000 0 0 1
32.448443 -22.000544 8.417135 40.097051 -0.595818 1.359304 0.083439 -0.015502 -238364.000000 0 0 1
32.506143 -21.228344 7.093035 39.466480 -0.578521 1.390091 0.077982 0.007924 -109119.000000 0 0 1
32.308443 -19.834544 7.338035 38.614652 -0.550586 1.379601 0.079998 0.003097 -108143.000000 0 0 1
32.486343 -19.166744 6.146535 38.216573 -0.533030 1.409260 0.075780 0.007533 13381.700000 0 0 1
32.219343 -17.665544 6.250435 37.272314 -0.501529 1.402304 0.100405 0.012521 -4524.220000 0 0 1
33.060243 -16.986244 7.144235 37.849072 -0.474624 1.380901 0.096553 0.008879 -233516.000000 0 0 1
32.607743 -15.717544 7.354935 36.937801 -0.449159 1.370340 0.106912 -0.000666 -252620.000000 0 0 1
33.304143 -15.083744 8.551435 37.547467 -0.425270 1.341030 0.103287 -0.031321 566192.000000 0 0 1
34.713243 -14.973244 8.329335 38.711563 -0.407229 1.353937 0.086539 -0.033806 169995.000000 0 0 1
35.426043 -14.915844 9.556335 39.608212 -0.398513 1.327120 0.078283 -0.046490 515556.000000 0 0 1
36.962443 -15.080244 9.342235 40.998942 -0.387374 1.340912 0.085224 -0.055433 257243.000000 0 0 1
37.513943 -13.916544 8.823635 40.973438 -0.355233 1.353746 0.126564 -0.040105 -524206.000000 0 0 1
-36.479873 -14.192044 8.626735 40.082612 0.371021 1.353875 0.134156 -0.040888 96403.500000 0 0 1
-35.562273 -13.041844 8.210335 38.757896 0.351503 1.357343 0.154933 -0.045498 -305484.000000 0 0 1
-36.065073 -12.517644 6.950135 38.803160 0.334076 1.390712 0.176575 -0.063728 916223.000000 0 0 1
-35.016073 -12.062144 6.053235 37.526821 0.331744 1.408784 0.184310 -0.049203 814798.000000 0 0 1
-34.115073 -13.187144 5.511535 36.988052 0.368857 1.421231 0.174466 -0.048987 -461457.000000 0 0 1
-33.171573 -13.669144 6.410235 36.445711 0.390872 1.393992 0.179609 -0.048829 -606305.000000 0 0 1
-32.444473 -14.739344 5.900635 36.120764 0.426419 1.406702 0.192471 -0.030867 97323.200000 0 0 1
-31.882573 -15.668544 7.034335 36.214411 0.456781 1.375312 0.159159 -0.038279 211298.000000 0 0 1
-32.926773 -16.398344 7.609635 37.563075 0.462066 1.366802 0.126922 -0.044144 -334185.000000 0 0 1
-32.514473 -16.928144 8.793835 37.697275 0.480018 1.335352 0.132279 -0.037950 272666.000000 0 0 1
-33.625073 -17.601444 9.669435 39.165729 0.482240 1.321332 0.067440 -0.029966 -557641.000000 0 0 1
-34.680173 -16.777944 10.135835 39.836528 0.450596 1.313532 0.080605 -0.016628 863800.000000 0 0 1
-35.602273 -17.374344 11.070035 41.133142 0.454011 1.298310 0.088021 -0.023005 461489.000000 0 0 1
-36.352473 -18.674044 10.634435 42.229296 0.474543 1.316230 0.082526 -0.023871 -857595.000000 0 0 1
-35.592273 -19.898344 10.595735 42.131029 0.509775 1.316572 0.101299 -0.017468 -101949.000000 0 0 1
-35.160473 -20.377844 11.864235 42.335274 0.525260 1.286747 0.108821 -0.036005 328223.000000 0 0 1
-36.276473 -21.148544 12.634535 43.850597 0.527813 1.278526 0.082676 -0.048665 393496.000000 0 0 1
-36.534273 -22.479444 12.110935 44.573010 0.551592 1.295627 0.106334 -0.052483 -607869.000000 0 0 1
37.474243 -22.789444 12.121935 45.504054 -0.546381 1.301148 0.100175 -0.037686 -621574.000000 0 0 1
37.156543 -24.274644 11.884435 45.946782 -0.578697 1.309165 0.098297 -0.035353 -575049.000000 0 0 1
37.630543 -25.135984 12.890335 47.053546 -0.588903 1.293298 0.114660 -0.036486 132308.000000 0 0 1
37.060043 -26.437014 12.974735 47.336099 -0.619634 1.293145 0.100276 -0.040037 -338768.000000 0 0 1
35.610843 -26.571194 13.463535 46.426579 -0.641036 1.276573 0.095033 -0.047610 -818643.000000 0 0 1
34.713243 -26.082834 12.515935 45.188185 -0.644384 1.290153 0.079413 -0.036651 -165717.000000 0 0 1
33.489143 -25.678684 13.160635 44.205427 -0.654152 1.268498 0.078190 -0.009231 524358.000000 0 0 1
33.418643 -24.113344 13.405435 43.335490 -0.625046 1.256297 0.084182 -0.019274 -537901.000000 0 0 1
34.273443 -23.702844 14.428635 44.098517 -0.605053 1.237467 0.091965 -0.029074 -307182.000000 0 0 1
34.317843 -22.333444 14.673835 43.495040 -0.576925 1.226677 0.090328 -0.036833 267785.000000 0 0 1
35.602543 -21.923544 15.456035 44.576584 -0.551946 1.216714 0.073781 -0.027680 302162.000000 0 0 1
35.793343 -20.561744 15.870835 44.224791 -0.521426 1.203742 0.095069 -0.006102 285296.000000 0 0 1
35.134643 -20.331544 17.127035 44.058485 -0.524592 1.171539 0.076294 -0.014220 197432.000000 0 0 1
35.482743 -18.932644 17.673635 43.929801 -0.490144 1.156752 0.069143 0.001961 -258498.000000 0 0 1
35.022743 -17.891944 16.846835 42.784694 -0.472303 1.166080 0.058193 -0.011533 21440.800000 0 0 1
34.903443 -16.603044 17.452735 42.408836 -0.444007 1.146658 0.055338 -0.007423 12795.700000 0 0 1
36.160043 -15.854544 17.980135 43.384335 -0.413212 1.143471 0.040752 -0.011218 -24732.500000 0 0 1
36.634643 -16.296744 19.244035 44.474867 -0.418559 1.123317 0.049498 0.000091 829324.000000 0 0 1
-37.623973 -15.474044 19.694835 45.198406 0.390194 1.119934 0.048713 0.003791 510876.000000 0 0 1
-37.013073 -15.628544 21.090935 45.376717 0.399534 1.087392 0.052926 -0.000522 -205162.000000 0 0 1
-36.134873 -16.709944 21.233735 45.120093 0.433145 1.080820 0.069325 -0.001522 52458.700000 0 0 1
-35.361173 -16.642644 22.417135 45.054612 0.439891 1.050019 0.065054 -0.007285 453521.000000 0 0 1
-34.384873 -17.850844 22.600135 44.852405 0.478849 1.042714 0.067984 -0.009004 -119530.000000 0 0 1
-35.093573 -19.100744 22.805435 46.005273 0.498441 1.052140 0.064554 -0.010555 895415.000000 0 0 1
-34.279373 -20.211844 23.264535 46.095907 0.532753 1.041764 0.046989 -0.005980 268379.000000 0 0 1
-33.105473 -20.683744 22.379535 44.995924 0.558443 1.050234 0.044107 0.002116 515880.000000 0 0 1
-31.987973 -19.780544 22.288935 43.718382 0.553821 1.035809 0.061551 0.003788 303560.000000 0 0 1
-30.833573 -20.526244 21.934335 43.048240 0.587341 1.036159 0.058611 0.009832 -74618.400000 0 0 1
-29.648773 -19.552944 21.808835 41.677244 0.583015 1.020102 0.084224 0.006814 -304946.000000 0 0 1
-29.178373 -19.045344 23.033535 41.768963 0.578286 0.986694 0.058083 0.007780 665224.000000 0 0 1
-28.143573 -18.049944 22.925835 40.539550 0.570272 0.969735 0.088134 0.002595 419810.000000 0 0 1
-27.773773 -17.387244 24.231735 40.753843 0.559340 0.934044 0.077797 -0.010690 -821115.000000 0 0 1
-26.844773 -16.326744 24.018635 39.548694 0.546420 0.918116 0.094589 -0.016272 513975.000000 0 0 1
-26.227073 -15.961244 25.241635 39.746205 0.546704 0.882697 0.077949 -0.016757 21628.600000 0 0 1
-25.068973 -16.810744 25.797635 39.706076 0.590707 0.863587 0.062536 -0.007300 -805229.000000 0 0 1
-25.402973 -18.027844 26.493535 40.892806 0.617190 0.866001 0.052422 -0.001438 375084.000000 0 0 1
-24.410473 -18.386644 27.484335 41.101442 0.645564 0.838344 0.052078 -0.003459 398794.000000 0 0 1
-24.845673 -19.693944 28.152235 42.399378 0.670244 0.844671 0.040675 0.007135 -743411.000000 0 0 1
-26.002373 -19.566944 28.874235 43.505289 0.645103 0.845049 0.040608 -0.001574 -1115930.000000 0 0 1
-26.245173 -20.808544 29.467235 44.610789 0.670367 0.849258 0.038880 0.000420 720246.000000 0 0 1
-27.438273 -20.859944 30.512135 46.032450 0.650029 0.846191 0.046219 -0.000223 181297.000000 0 0 1
-27.169173 -20.141444 31.720835 46.368665 0.637932 0.817426 0.053340 -0.015353 492711.000000 0 0 1
-28.154873 -20.248744 32.778135 47.719122 0.623490 0.813585 0.072919 -0.012843 -106963.000000 0 0 1
-29.462273 -19.536944 32.537835 48.046107 0.585541 0.826817 0.042574 -0.021048 -687789.000000 0 0 1
-30.290673 -19.936544 31.423935 47.983897 0.582100 0.856766 0.042818 -0.019661 400077.000000 0 0 1
-31.368973 -19.025644 31.378135 48.276029 0.545194 0.863247 0.075469 -0.034167 505689.000000 0 0 1
-32.667873 -19.475144 30.611535 48.821483 0.537588 0.893088 0.063981 -0.011573 533914.000000 0 0 1
-32.682573 -19.264344 29.234335 47.894800 0.532617 0.914248 0.065560 -0.030924 -759430.000000 0 0 1
-33.826373 -19.736944 28.623435 48.508468 0.528182 0.939650 0.070468 -0.035981 -762365.000000 0 0 1
-34.530873 -18.816444 27.664035 48.080543 0.498932 0.957742 0.074747 -0.024772 -455497.000000 0 0 1
-35.532773 -19.373244 26.862135 48.574426 0.499167 0.984824 0.051948 -0.027416 -116342.000000 0 0 1
-36.172073 -18.364744 26.108835 48.242657 0.469793 0.998935 0.096930 -0.026774 229769.000000 0 0 1
-37.472573 -18.782344 25.372135 48.997096 0.464630 1.026485 0.073814 -0.030403 1240630.000000 0 0 1
36.750443 -19.108444 26.213035 49.018883 -0.479481 1.006580 0.084292 -0.031143 159013.000000 0 0 1
35.634843 -19.505444 25.524335 47.977037 -0.500822 1.009822 0.107138 -0.029030 26760.100000 0 0 1
34.470743 -20.114244 26.404135 47.853874 -0.528211 0.986316 0.101965 -0.032049 980605.000000 0 0 1
33.623343 -19.106844 26.975235 47.151500 -0.516755 0.961736 0.090802 -0.034377 220017.000000 0 0 1
32.398043 -19.631844 27.411135 46.759093 -0.544789 0.944411 0.085854 -0.029150 -103181.000000 0 0 1
-29.453197 -4.788944 33.513536 44.872953 0.161185 0.727478 0.090244 -0.033595 -155604.000000 0 0 1
-30.463937 -5.282444 32.660528 44.974057 0.171693 0.758006 0.114939 -0.030623 234311.000000 0 0 1
-30.840057 -4.345144 31.686336 44.429869 0.139972 0.776777 0.107623 -0.024948 345228.000000 0 0 1
-31.891587 -4.906444 30.658105 44.509167 0.152651 0.810958 0.111143 -0.030729 359854.000000 0 0 1
-31.364467 -5.837944 29.716165 43.598874 0.184026 0.820875 0.122277 -0.022012 34599.200000 0 0 1
-30.347937 -5.300844 28.894425 42.237235 0.172924 0.817429 0.112914 -0.025072 186666.000000 0 0 1
-29.989467 -6.320144 27.761345 41.352202 0.207706 0.834782 0.102303 -0.031906 -358656.000000 0 0 1
-30.886347 -6.153244 26.727955 41.306324 0.196648 0.867065 0.109398 -0.032537 -515883.000000 0 0 1
-30.456077 -6.743944 25.499365 40.289838 0.217916 0.885506 0.133332 -0.029467 -250120.000000 0 0 1
-31.172527 -6.427944 24.216305 39.993429 0.203355 0.920393 0.119852 -0.021787 -342585.000000 0 0 1
-30.859587 -5.184544 23.711125 39.260808 0.166450 0.922363 0.122409 -0.017174 -340576.000000 0 0 1
-31.590317 -4.830944 22.596545 39.139366 0.151749 0.955335 0.117843 -0.011384 4019.090000 0 0 1
-30.954337 -3.578944 21.887025 38.079150 0.115109 0.958465 0.113902 -0.007226 -274619.000000 0 0 1
-29.684647 -3.780044 21.367725 36.770187 0.126658 0.950698 0.132504 -0.010780 -666041.000000 0 0 1
-29.147957 -2.523344 20.940425 35.978772 0.086355 0.949584 0.133141 -0.009743 490619.000000 0 0 1
-27.643267 -2.634044 20.558425 34.550503 0.095000 0.933499 0.124719 -0.010068 328411.000000 0 0 1
-27.382997 -3.354044 19.334825 33.688479 0.121879 0.959500 0.147865 -0.016880 -360913.000000 0 0 1
-26.129267 -3.040544 18.802225 32.334303 0.115844 0.950232 0.130746 -0.014061 -583509.000000 0 0 1
-25.822387 -3.673644 17.446625 31.379548 0.141318 0.981246 0.138452 -0.021158 379198.000000 0 0 1
-26.608297 -3.072044 16.357925 31.385038 0.114945 1.022538 0.141572 -0.017230 763803.000000 0 0 1
-26.322407 -3.639844 15.084225 30.555710 0.137408 1.054500 0.140616 -0.025108 -322767.000000 0 0 1
-27.596727 -3.813944 14.268025 31.300193 0.137333 1.097475 0.158836 -0.019820 -128136.000000 0 0 1
-28.162257 -2.688944 13.625125 31.400433 0.095192 1.121962 0.152926 -0.022376 -221536.000000 0 0 1
-29.453827 -2.938844 13.139225 32.385243 0.099449 1.153034 0.162148 -0.027403 -91477.400000 0 0 1
-29.872567 -1.870544 12.095325 32.282597 0.062536 1.186755 0.155798 -0.018272 -59137.900000 0 0 1
-29.184847 -2.010644 10.854325 31.202794 0.068785 1.215505 0.172322 -0.024636 129021.000000 0 0 1
-29.228487 -0.832944 10.079025 30.928708 0.028490 1.238855 0.166399 -0.024375 -572791.000000 0 0 1
-30.552787 -0.609244 9.361825 31.960722 0.019938 1.273521 0.160464 -0.021209 -455716.000000 0 0 1
-30.725267 -1.409044 8.244225 31.843283 0.045827 1.308913 0.166027 -0.034145 689697.000000 0 0 1
-32.076017 -1.244144 7.782425 33.030061 0.038768 1.332944 0.166265 -0.038979 677580.000000 0 0 1
-32.383397 -1.946444 6.436125 33.074110 0.060034 1.374950 0.191272 -0.043768 -200462.000000 0 0 1
-31.826947 -1.466144 5.256725 32.291443 0.046034 1.407279 0.193900 -0.055786 646576.000000 0 0 1
-32.542767 -0.285744 4.825825 32.899877 0.008780 1.423583 0.195800 -0.050666 431902.000000 0 0 1
-32.091317 -0.046344 3.374325 32.268264 0.001444 1.466034 0.183221 -0.047323 46121.700000 0 0 1
-32.326177 -1.153244 2.493625 32.442717 0.035660 1.493858 0.166761 -0.057115 319954.000000 0 0 1
-31.944907 -0.846044 1.172825 31.977624 0.026478 1.534112 0.166294 -0.060745 -270137.000000 0 0 1
-32.665907 -1.749144 0.119525 32.712922 0.053495 1.567143 0.157918 -0.061305 -195521.000000 0 0 1
-34.012052 -1.375744 0.034025 34.039881 0.040427 1.569797 0.171739 -0.058626 -695404.000000 0 0 1
-34.661619 -1.864844 -1.092675 34.728942 0.053750 1.602264 0.169905 -0.058919 -1278890.000000 0 0 1
-36.101597 -1.453344 -1.009575 36.144941 0.040235 1.598731 0.167828 -0.047428 -1292660.000000 0 0 1
-36.875077 -2.219044 -0.082475 36.941877 0.060105 1.573029 0.177378 -0.048418 46408.500000 0 0 1
37.143728 -1.774444 -0.109175 37.186249 -0.047736 1.573732 0.160774 -0.041543 -45520.300000 0 0 1
36.271458 -2.867644 0.563425 36.389003 -0.078897 1.555312 0.183340 -0.046395 -331359.000000 0 0 1
36.183488 -2.793044 1.959425 36.343985 -0.077038 1.516857 0.182484 -0.047226 59688.500000 0 0 1
35.629858 -4.002844 2.421625 35.935690 -0.111876 1.503357 0.183356 -0.038173 -44938.000000 0 0 1
35.550408 -3.972044 3.972025 35.991466 -0.111268 1.460211 0.180960 -0.034655 188321.000000 0 0 1
34.599158 -3.082244 4.525425 35.029722 -0.088850 1.441246 0.188014 -0.044106 127317.000000 0 0 1
34.638858 -3.097544 5.930425 35.279105 -0.089187 1.401894 0.166540 -0.048193 194090.000000 0 0 1
33.877248 -1.918944 6.627425 34.572721 -0.056584 1.377907 0.176022 -0.040044 1443970.000000 0 0 1
32.441568 -2.074144 6.749025 33.201005 -0.063848 1.366092 0.195342 -0.034295 1215360.000000 0 0 1
31.870558 -1.000544 7.499525 32.756319 -0.031384 1.339799 0.210329 -0.032050 1019100.000000 0 0 1
30.307658 -0.912344 7.616025 31.263243 -0.030094 1.324711 0.185634 -0.026807 292909.000000 0 0 1
29.582858 -0.740944 6.423925 30.281369 -0.025041 1.357031 0.213004 -0.035754 -151355.000000 0 0 1
28.198858 -0.905944 6.622925 28.980329 -0.032116 1.340227 0.200875 -0.020693 57487.400000 0 0 1
27.763558 -2.414244 6.453225 28.605731 -0.086739 1.343246 0.237894 -0.031847 -680569.000000 0 0 1
28.141958 -3.204744 7.566425 29.317077 -0.113389 1.309752 0.193361 -0.030337 445127.000000 0 0 1
27.718458 -4.581944 7.422725 29.058630 -0.163822 1.312494 0.221695 -0.038619 -160925.000000 0 0 1
27.985058 -5.420944 8.657625 29.791015 -0.191339 1.275930 0.184534 -0.027625 -227514.000000 0 0 1
27.056558 -5.121244 9.667625 29.184713 -0.187066 1.233161 0.182788 -0.024820 258856.000000 0 0 1
27.290058 -5.843944 10.846325 29.942306 -0.210956 1.200125 0.167718 -0.026096 123175.000000 0 0 1
26.184358 -5.709744 11.954625 29.345099 -0.214698 1.151212 0.151198 -0.019877 855658.000000 0 0 1
24.976258 -6.366044 11.572925 28.253718 -0.249570 1.148773 0.181148 -0.029244 -35586.500000 0 0 1
23.922458 -6.158944 12.469525 27.671387 -0.251982 1.103327 0.192865 -0.044004 155626.000000 0 0 1
22.932058 -7.360444 12.409825 27.093527 -0.310580 1.095011 0.186234 -0.043827 206831.000000 0 0 1
23.365758 -8.504844 13.140325 28.123996 -0.349081 1.084643 0.156750 -0.035060 183143.000000 0 0 1
22.316458 -9.442044 13.377525 27.679138 -0.400258 1.066368 0.206320 -0.060861 191567.000000 0 0 1
22.672258 -10.641844 14.317525 28.849119 -0.438851 1.051476 0.150074 -0.043445 -175228.000000 0 0 1
22.834558 -10.272344 15.657825 29.531434 -0.422737 1.011950 0.128842 -0.037985 195467.000000 0 0 1
23.457058 -11.317644 16.363925 30.758750 -0.449536 1.009825 0.119218 -0.040988 -58691.300000 0 0 1
23.295858 -11.242244 17.886525 31.448574 -0.449619 0.965805 0.129575 -0.042594 -430407.000000 0 0 1
21.974358 -11.440244 18.290525 30.794397 -0.480006 0.934829 0.138853 -0.049024 -533226.000000 0 0 1
21.767258 -11.754544 19.676525 31.609310 -0.495141 0.898874 0.168063 -0.044992 37116.300000 0 0 1
21.962258 -10.685044 20.738625 32.040623 -0.452804 0.866811 0.128291 -0.037860 -191188.000000 0 0 1
21.070658 -9.585044 20.841825 31.148473 -0.426921 0.837783 0.143757 -0.041792 -97479.400000 0 0 1
21.346358 -8.459544 20.032925 30.472101 -0.377312 0.853409 0.143523 -0.033583 -1026530.000000 0 0 1
22.332658 -7.446444 20.619825 31.294957 -0.321840 0.851459 0.124883 -0.021977 1243270.000000 0 0 1
23.729058 -7.815044 20.720025 32.457088 -0.318157 0.878402 0.137484 -0.026540 1178310.000000 0 0 1
24.399758 -7.894844 19.462525 32.194202 -0.312931 0.921614 0.137555 -0.034849 -1603750.000000 0 0 1
25.792058 -8.433644 19.650825 33.503903 -0.316027 0.944037 0.098250 -0.025188 -967466.000000 0 0 1
25.883858 -9.840344 19.961925 34.136270 -0.363298 0.946198 0.076380 -0.030885 -70625.600000 0 0 1
27.205958 -10.281044 19.736525 35.148178 -0.361308 0.974571 0.069043 -0.026709 228863.000000 0 0 1
27.313358 -11.799244 19.902525 35.795980 -0.407781 0.981232 0.018589 -0.018184 -378107.000000 0 0 1
26.431758 -12.431844 19.056025 34.875789 -0.439637 0.992740 0.083102 -0.041703 -497428.000000 0 0 1
26.487158 -13.819244 19.296625 35.565444 -0.480883 0.997307 0.056324 -0.029308 -775333.000000 0 0 1
25.377558 -14.683744 18.791225 34.824459 -0.524544 1.000836 0.109223 -0.031642 -783221.000000 0 0 1
25.431058 -14.842844 17.352725 34.178440 -0.528311 1.038272 0.104803 -0.037789 230864.000000 0 0 1
24.304458 -15.553744 16.855125 33.417374 -0.569281 1.042130 0.097765 -0.041342 -65033.700000 0 0 1
24.268658 -17.091844 16.968525 34.191077 -0.613590 1.051482 0.075219 -0.030205 -206768.000000 0 0 1
25.187058 -17.788444 16.148825 34.808062 -0.614911 1.088360 0.094777 -0.032712 -59983.500000 0 0 1
25.015258 -19.150044 16.240825 35.443641 -0.653369 1.094810 0.077940 -0.024534 -38873.500000 0 0 1
26.274158 -19.980144 15.881325 36.629961 -0.650155 1.122355 0.071396 -0.011962 40382.000000 0 0 1
26.630858 -19.882944 14.515325 36.266082 -0.641330 1.159012 0.088690 -0.028818 221700.000000 0 0 1
27.645158 -20.852144 14.265125 37.450774 -0.646234 1.180023 0.092964 -0.033707 -4228.950000 0 0 1
27.886258 -21.083144 12.802825 37.229755 -0.647356 1.219743 0.080382 -0.048312 -237534.000000 0 0 1
26.845058 -21.761144 12.099925 36.614379 -0.681183 1.233996 0.085215 -0.030389 272885.000000 0 0 1
26.401458 -20.870544 11.075325 35.429923 -0.668926 1.252869 0.126053 -0.032950 333888.000000 0 0 1
24.914358 -21.108144 10.664425 34.351258 -0.702883 1.255128 0.073830 -0.019208 414559.000000 0 0 1
24.650558 -22.353544 10.015425 34.751111 -0.736569 1.278445 0.063942 -0.023851 -829518.000000 0 0 1
23.284558 -22.577144 10.005125 33.941134 -0.769974 1.271572 0.042167 -0.014147 -791653.000000 0 0 1
22.804158 -23.396044 8.810125 33.838186 -0.798209 1.307401 0.039687 -0.010673 -266995.000000 0 0 1
23.182858 -24.772844 8.924525 35.082558 -0.818541 1.313583 0.037312 -0.011264 -7743.760000 0 0 1
22.946058 -25.386264 7.708125 35.077046 -0.835843 1.349240 0.040333 -0.002325 202089.000000 0 0 1
21.510458 -25.850054 7.331625 34.419149 -0.876772 1.356142 0.032036 -0.001219 90851.000000 0 0 1
20.626558 -24.806044 7.046025 33.021829 -0.877133 1.355768 0.035460 -0.000320 -363493.000000 0 0 1
19.294858 -25.299064 6.944025 32.566143 -0.919235 1.355918 0.057244 -0.023619 108070.000000 0 0 1
18.273958 -24.206644 7.181925 31.168561 -0.924157 1.338285 0.064586 -0.019665 -676516.000000 0 0 1
18.215358 -23.345344 6.084125 30.229471 -0.908211 1.368147 0.078605 -0.014652 73068.300000 0 0 1
17.152758 -22.428644 6.319625 28.934389 -0.917909 1.350609 0.086961 -0.014537 160792.000000 0 0 1
16.828158 -21.563744 5.045825 27.814426 -0.908127 1.388376 0.101218 -0.007926 133475.000000 0 0 1
15.898358 -20.512644 5.304125 26.488867 -0.911454 1.369194 0.127792 -0.019751 258357.000000 0 0 1
15.469158 -19.951844 4.068025 25.571855 -0.911283 1.411035 0.121548 -0.022225 362799.000000 0 0 1
14.589358 -18.702444 4.120325 24.075046 -0.908322 1.398805 0.115159 -0.014836 -110387.000000 0 1 0
15.376058 -17.601244 4.501925 23.801140 -0.852772 1.380502 0.100465 -0.019276 260556.000000 0 1 0
14.701358 -16.354444 4.632225 22.473435 -0.838578 1.363188 0.070910 -0.010988 324180.000000 0 1 0
15.809558 -15.270044 4.767725 22.491055 -0.768041 1.357193 0.073649 -0.013768 -474610.000000 0 1 0
16.541358 -15.299944 5.977625 23.311731 -0.746430 1.311478 0.107280 -0.024389 -316175.000000 0 1 0
17.480358 -14.296344 6.095225 23.390172 -0.685532 1.307164 0.088212 -0.022958 -1006480.000000 0 1 0
18.804858 -14.622144 5.445825 24.435360 -0.660915 1.346042 0.106054 -0.038947 -1951270.000000 0 1 0
19.771158 -13.638444 5.557325 24.653391 -0.603858 1.343424 0.122507 -0.031857 -1247410.000000 0 1 0
20.993458 -14.158544 5.189425 25.848013 -0.593356 1.368656 0.130387 -0.017781 -890768.000000 0 0 1
22.026858 -13.026944 4.974625 26.069727 -0.534081 1.378799 0.128186 -0.015401 -436836.000000 0 0 1
22.356158 -12.481744 6.221925 26.349651 -0.509203 1.332416 0.157349 -0.023046 291954.000000 0 0 1
23.138958 -11.296744 6.163125 26.476630 -0.454174 1.335865 0.161535 -0.025505 -29992.500000 0 0 1
23.239758 -10.514344 7.492225 26.585169 -0.424872 1.285106 0.181850 -0.032527 53191.700000 0 0 1
24.078358 -11.133644 8.465225 27.845743 -0.433111 1.261903 0.190315 -0.025701 402749.000000 0 0 1
24.054958 -10.519644 9.678125 27.981601 -0.412257 1.217626 0.218210 -0.045370 -92141.400000 0 0 1
24.639358 -11.382844 10.823325 29.220053 -0.432770 1.191349 0.177599 -0.031736 129387.000000 0 0 1
23.837258 -12.481744 11.315125 29.189739 -0.482367 1.172726 0.192207 -0.035050 485803.000000 0 0 1
24.521258 -13.319344 12.247525 30.474561 -0.497588 1.157213 0.186191 -0.036238 -195491.000000 0 0 1
23.636358 -14.392544 12.869325 30.519539 -0.546949 1.135505 0.147537 -0.042970 -552730.000000 0 0 1
22.645258 -13.919344 13.700525 29.904184 -0.551136 1.094886 0.131485 -0.053081 -945320.000000 0 0 1
21.445158 -14.635944 13.581525 29.301254 -0.598872 1.088840 0.110116 -0.049078 387352.000000 0 0 1
20.225058 -13.768244 14.063925 28.220764 -0.597691 1.049097 0.104433 -0.049103 -391553.000000 0 0 1
20.136558 -13.490444 15.443925 28.740005 -0.590271 1.003485 0.111291 -0.049024 268287.000000 0 0 1
19.339558 -12.344144 15.831625 27.875379 -0.568095 0.966792 0.141537 -0.061882 755990.000000 0 0 1
17.807758 -12.487644 15.615425 26.774970 -0.611563 0.948122 0.183159 -0.066768 -533086.000000 0 0 1
17.398858 -12.342644 14.200125 25.626250 -0.617003 0.983486 0.198718 -0.081396 421114.000000 0 0 1
15.977658 -12.345744 14.125125 24.641877 -0.657864 0.960371 0.248138 -0.079463 -117214.000000 0 1 0
15.509358 -10.932044 14.089025 23.633671 -0.613985 0.932109 0.206618 -0.073564 -907416.000000 0 1 0
15.792658 -10.163744 15.222925 24.175342 -0.571845 0.889645 0.183362 -0.059931 40431.300000 0 1 0
15.395158 -8.763144 15.255925 23.378341 -0.517475 0.859830 0.164375 -0.049145 -462364.000000 0 1 0
16.127158 -7.891344 16.287325 24.241194 -0.455067 0.834044 0.177655 -0.039631 865831.000000 0 1 0
17.544558 -7.862544 16.018025 25.024153 -0.421312 0.876165 0.179845 -0.054129 881301.000000 0 0 1
18.332458 -8.645944 16.910925 26.397173 -0.440687 0.875473 0.183084 -0.046200 1493900.000000 0 0 1
19.859858 -8.429244 16.468725 27.141942 -0.401393 0.918814 0.167190 -0.045264 1696510.000000 0 0 1
20.418158 -7.128544 16.851625 27.417049 -0.335897 0.908866 0.150963 -0.044977 71677.800000 0 0 1
21.651558 -6.918544 16.218125 27.922818 -0.309286 0.951061 0.143082 -0.036452 -197174.000000 0 0 1
22.330858 -5.594444 16.623625 28.395597 -0.245473 0.945386 0.157627 -0.035158 -56240.200000 0 0 1
22.901558 -5.667444 17.921225 29.627210 -0.242596 0.921168 0.162485 -0.030454 62521.000000 0 0 1
23.214158 -4.448544 18.446425 29.982616 -0.189335 0.908109 0.167635 -0.028307 -222087.000000 0 0 1
-5.562657 -32.539190 -6.606365 33.665800 1.401481 1.768312 0.087817 -0.024771 -351893.000000 0 0 1
-6.272657 -31.372990 -6.729265 32.693940 1.373460 1.778104 0.078009 -0.026250 -473131.000000 0 0 1
-5.943457 -30.533990 -5.687265 31.622685 1.378550 1.751628 0.089208 -0.029737 -620407.000000 0 0 1
-6.783257 -29.205290 -5.610565 30.503114 1.342581 1.755784 0.082077 -0.027273 424142.000000 0 0 1
-8.114557 -29.350190 -5.180565 30.888800 1.301060 1.739309 0.071313 -0.027326 -221079.000000 0 0 1
-9.008657 -29.909090 -6.130665 31.832289 1.278238 1.764600 0.064256 -0.020549 -630673.000000 0 0 1
-10.458457 -29.731090 -5.612165 32.012708 1.232547 1.747018 0.056541 -0.013199 103267.000000 0 0 1
-11.389557 -30.398590 -6.441765 33.095206 1.212312 1.766690 0.043064 -0.015354 -828542.000000 0 0 1
-12.683157 -30.002090 -6.096465 33.138418 1.170839 1.755820 0.050119 -0.010340 8801.070000 0 0 1
-13.747157 -30.440590 -7.169465 34.161603 1.146608 1.782237 0.059665 -0.014850 422096.000000 0 0 1
-13.788957 -29.519190 -8.221965 33.602361 1.133798 1.817990 0.081016 -0.028843 -228068.000000 0 0 1
-14.663257 -30.029990 -9.169365 34.653841 1.116563 1.838584 0.090406 -0.032547 -147111.000000 0 0 1
-14.756357 -29.143490 -10.478565 34.305880 1.102094 1.881202 0.130452 -0.034441 -441330.000000 0 0 1
-15.234857 -27.830090 -10.348765 33.372320 1.069933 1.886095 0.135304 -0.037178 365767.000000 0 0 1
-14.292857 -26.884790 -9.859965 32.004634 1.082163 1.883970 0.120338 -0.028450 -48460.300000 0 0 1
-15.018057 -25.581890 -9.576965 31.171997 1.039947 1.883077 0.104958 -0.021421 143859.000000 0 0 1
-15.414057 -24.891190 -10.762865 31.193008 1.016337 1.923079 0.131791 -0.043102 68279.300000 0 0 1
-16.089557 -23.696690 -10.482165 30.500537 0.974318 1.921620 0.094852 -0.020035 -486502.000000 0 0 1
-16.821057 -23.060690 -11.653865 30.831088 0.940593 1.958421 0.118211 -0.017545 -970786.000000 0 0 1
-17.967257 -23.790790 -11.936365 32.113873 0.923963 1.951624 0.137611 -0.038851 -827669.000000 0 0 1
-18.537457 -23.306990 -13.148865 32.553737 0.898891 1.986586 0.148260 -0.051148 1588000.000000 0 0 1
-20.115757 -23.624990 -13.267165 33.746133 0.865455 1.974847 0.133402 -0.034104 1879250.000000 0 0 1
-20.450357 -25.005790 -13.388465 34.967952 0.885281 1.963706 0.168842 -0.039003 11582.200000 0 0 1
-20.243557 -25.736990 -12.197065 34.942276 0.904308 1.927368 0.182026 -0.039511 -1614140.000000 0 0 1
-20.058057 -27.299490 -12.365465 36.062342 0.937133 1.920789 0.184491 -0.048013 310043.000000 0 0 1
-19.024957 -27.646190 -13.263065 36.085589 0.968062 1.947164 0.178591 -0.047267 700421.000000 0 0 1
-17.688157 -27.189890 -12.940065 34.922862 0.994040 1.950379 0.174146 -0.048410 23760.600000 0 0 1
-16.750557 -28.256790 -13.559965 35.537304 1.035690 1.962290 0.151123 -0.040294 -546255.000000 0 0 1
-16.732257 -28.367490 -14.987365 36.184307 1.037882 1.997855 0.161112 -0.049369 -242455.000000 0 0 1
-16.105457 -29.492290 -15.569565 37.035014 1.070960 2.004684 0.166989 -0.040704 20842.700000 0 0 1
-16.822357 -30.883090 -15.454665 38.413587 1.072023 1.984849 0.158500 -0.042719 9153.930000 0 0 1
-16.927157 -31.430790 -14.210265 38.423363 1.076784 1.949627 0.158701 -0.038623 -77019.800000 0 0 1
-17.488757 -32.718990 -14.214165 39.729478 1.079920 1.936679 0.150441 -0.039321 -772788.000000 0 0 1
-18.013357 -33.223890 -12.846565 39.916690 1.073976 1.898463 0.175518 -0.027263 -101742.000000 0 0 1
-19.229957 -32.644990 -12.407465 39.867679 1.038458 1.887269 0.204153 -0.032997 -6813.190000 0 0 1
-19.362157 -31.196890 -12.250765 38.706851 1.015336 1.892835 0.204532 -0.039938 -170322.000000 0 0 1
-18.439557 -30.475490 -11.185665 37.334861 1.026663 1.875074 0.190946 -0.046102 177908.000000 0 0 1
-18.742557 -30.926490 -9.855365 37.481455 1.025951 1.836864 0.190775 -0.053632 92737.500000 0 0 1
-18.805157 -29.864090 -8.866865 36.388448 1.008831 1.816947 0.183672 -0.044139 83528.600000 0 0 1
-19.090557 -30.379490 -7.433265 36.641728 1.009754 1.775078 0.210136 -0.048401 657706.000000 0 0 1
-17.974957 -31.054090 -6.815465 36.522680 1.046090 1.758506 0.161122 -0.046820 776251.000000 0 0 1
-18.363057 -31.481990 -5.538665 36.864541 1.042756 1.721611 0.196338 -0.053578 -257152.000000 0 0 1
-17.364457 -32.522890 -5.036165 37.210559 1.080386 1.706555 0.164195 -0.042204 616716.000000 0 0 1
-16.108457 -32.025690 -4.555465 36.136955 1.104763 1.697194 0.143387 -0.031001 661362.000000 0 0 1
-16.146957 -31.724390 -3.167165 35.737824 1.099994 1.659535 0.118806 -0.032080 178612.000000 0 0 1
-14.871757 -30.994590 -2.617065 34.477280 1.123424 1.646776 0.116618 -0.032617 45363.000000 0 0 1
-13.733057 -31.789790 -2.659165 34.731236 1.163015 1.647435 0.069761 -0.017513 -383702.000000 0 0 1
-12.614957 -31.093290 -2.113365 33.621364 1.185375 1.633696 0.087440 -0.020887 -26026.900000 0 0 1
-11.294057 -31.835690 -2.181565 33.850053 1.229887 1.635289 0.084823 -0.021667 -1156370.000000 0 0 1
-11.329857 -33.007790 -1.340165 34.923859 1.240149 1.609180 0.095713 -0.017315 1018870.000000 0 0 1
-10.038357 -33.623590 -1.060065 35.106099 1.280669 1.600997 0.122482 -0.025113 1925750.000000 0 0 1
-8.984857 -32.706290 -0.330865 33.919589 1.302697 1.580551 0.144552 -0.030091 -254143.000000 0 0 1
-9.519857 -32.474290 0.966435 33.854707 1.285635 1.542246 0.153723 -0.029973 738.411000 0 0 1
-8.647257 -31.912690 1.939435 33.120330 1.306184 1.512206 0.135719 -0.028928 27222.300000 0 0 1
-7.672157 -32.947590 2.525535 33.923208 1.342014 1.496279 0.148649 -0.039455 -495703.000000 0 0 1
-8.251057 33.828056 3.376435 34.983105 -1.331556 1.474130 0.163038 -0.051170 -329932.000000 0 0 1
-7.363457 32.859656 3.888835 33.898385 -1.350350 1.455823 0.177714 -0.045269 -129069.000000 0 0 1
-6.447557 33.274956 5.038635 34.266332 -1.379402 1.423218 0.188040 -0.043148 42348.200000 0 0 1
-5.351657 -33.655690 4.629535 34.391544 1.413105 1.435774 0.195177 -0.047479 291747.000000 0 0 1
-4.395857 -33.506990 5.698835 34.271251 1.440349 1.403734 0.191435 -0.049831 226292.000000 0 0 1
-3.038657 -32.870590 5.360835 33.443201 1.478615 1.409805 0.183798 -0.041916 -125864.000000 0 0 1
-3.035657 -31.578090 4.796335 32.084199 1.474959 1.420742 0.158951 -0.033592 67292.700000 0 0 1
-3.312757 -31.655490 3.364135 32.005653 1.466526 1.465491 0.170244 -0.040445 -243671.000000 0 0 1
-3.479257 -30.344890 2.667535 30.659963 1.456638 1.483682 0.139292 -0.038575 28396.700000 0 0 1
-2.343657 -29.505090 2.554535 29.708058 1.491530 1.484702 0.111543 -0.034805 -95435.300000 0 0 1
-2.592057 -28.391490 1.702135 28.560335 1.479752 1.511163 0.113225 -0.037806 107429.000000 0 0 1
-2.606557 -27.023990 2.428435 27.257797 1.474640 1.481587 0.111986 -0.035097 -284098.000000 0 0 1
-2.709957 -25.941890 1.553335 26.129263 1.466711 1.511313 0.118314 -0.037035 -131646.000000 0 0 1
-2.607357 -24.682590 2.266735 24.923215 1.465551 1.479722 0.092491 -0.031098 146566.000000 0 1 0
-3.931957 -24.155690 2.901135 24.644964 1.409436 1.452806 0.077499 -0.025481 76960.300000 0 1 0
-4.252157 -25.024690 3.968535 25.691735 1.402485 1.415708 0.100735 -0.025291 518415.000000 0 0 1
-5.304157 -24.439490 4.779235 25.461026 1.357079 1.381968 0.081837 -0.025534 502942.000000 0 0 1
-5.858857 -25.303390 5.929935 26.641169 1.343262 1.346331 0.098859 -0.018706 102435.000000 0 0 1
-4.916757 -25.606990 6.943735 26.983475 1.381097 1.310535 0.086368 -0.020404 544293.000000 0 0 1
-5.645957 -26.404490 7.909335 28.135947 1.360143 1.285844 0.095042 -0.020085 612181.000000 0 0 1
-4.841157 -26.891190 9.140235 28.811748 1.392677 1.247979 0.086630 -0.022101 33650.400000 0 0 1
-4.506957 -25.965490 10.173135 28.249106 1.398934 1.202397 0.082464 -0.023008 -421196.000000 0 0 1
-5.567757 -25.517190 10.949535 28.319944 1.355967 1.173814 0.082309 -0.021657 -220306.000000 0 0 1
-5.004057 -24.485590 11.974635 27.712391 1.369205 1.123972 0.066212 -0.024782 475966.000000 0 0 1
-4.318557 -25.058690 13.075635 28.593008 1.400135 1.095838 0.062658 -0.024798 -120577.000000 0 0 1
-3.594757 -24.182190 13.907735 28.126957 1.423224 1.053580 0.061294 -0.029608 238639.000000 0 0 1
-2.717657 -24.978490 14.888235 29.205653 1.462423 1.035876 0.072905 -0.031414 -155523.000000 0 0 1
-3.486157 -25.327390 15.964335 30.141167 1.434012 1.012606 0.068629 -0.033029 -160369.000000 0 0 1
-2.759657 -26.245390 16.728335 31.245374 1.466033 1.005832 0.079925 -0.025538 230148.000000 0 0 1
-3.319557 -26.343390 18.199335 32.190207 1.445446 0.969916 0.111937 -0.034975 115590.000000 0 0 1
-2.968657 -25.229290 18.995635 31.720091 1.453668 0.928730 0.110735 -0.023303 75660.500000 0 0 1
-3.385257 -25.565490 20.322735 32.833943 1.439147 0.903385 0.141646 -0.030667 158041.000000 0 0 1
-2.676857 -24.649590 21.368735 32.732105 1.462624 0.859472 0.117460 -0.031521 101274.000000 0 0 1
-1.314357 -24.992290 21.613335 33.067784 1.518254 0.858456 0.063746 -0.050625 204375.000000 0 0 1
-0.635657 -23.993690 22.340735 32.790390 1.544310 0.821232 0.070059 -0.042427 11759.500000 0 0 1
-0.275857 -22.665790 21.613635 31.320334 1.558626 0.809192 0.079700 -0.045424 -595195.000000 0 0 1
-1.325157 -21.745590 21.437335 30.564457 1.509932 0.793463 0.114191 -0.034291 -646063.000000 0 0 1
-0.816257 -20.532190 21.035335 29.406163 1.531062 0.773689 0.133229 -0.032300 -499647.000000 0 0 1
-1.792757 -19.435890 20.564735 28.352709 1.478817 0.759300 0.128591 -0.018821 -346534.000000 0 0 1
-2.433857 -18.636490 21.609335 28.639235 1.440935 0.715849 0.139140 -0.042022 1418120.000000 0 0 1
-3.725457 -19.150390 22.032335 29.428562 1.378659 0.724740 0.157357 -0.048977 1868870.000000 0 0 1
-5.010457 -18.832790 21.135435 28.748657 1.310770 0.744864 0.137684 -0.047423 817949.000000 0 0 1
-5.012557 -19.597390 19.917335 28.388090 1.320388 0.793144 0.137307 -0.047313 -250688.000000 0 0 1
-5.406057 -20.914090 20.049835 29.472368 1.317844 0.822635 0.151840 -0.039877 -221032.000000 0 0 1
-5.619457 -21.606690 18.696035 29.119909 1.316354 0.873645 0.111356 -0.041024 -136092.000000 0 0 1
-6.089857 -22.891390 18.869535 30.284674 1.310786 0.898132 0.118288 -0.041745 -252381.000000 0 0 1
-6.252757 -23.624790 17.662135 30.152590 1.312060 0.944981 0.104216 -0.039259 139796.000000 0 0 1
-6.867157 -25.035390 17.849935 31.504742 1.303083 0.968448 0.102284 -0.034690 -379456.000000 0 0 1
-8.199057 -25.035790 18.255535 32.051207 1.254311 0.964809 0.101454 -0.029811 -1065890.000000 0 0 1
-8.794557 -26.249890 17.877035 32.954352 1.247518 0.997411 0.094031 -0.030030 -655674.000000 0 0 1
-10.242357 -26.391090 18.313935 33.716402 1.200591 0.996581 0.075081 -0.028752 -769080.000000 0 0 1
-11.073657 -25.859790 17.272135 33.010321 1.166202 1.020154 0.089075 -0.024014 -34576.400000 0 0 1
-12.462057 -25.910690 17.512435 33.665295 1.122495 1.023720 0.092847 -0.025350 194796.000000 0 0 1
-13.071757 -24.868990 18.477535 33.626728 1.086860 0.989043 0.093615 -0.043289 -853928.000000 0 0 1
-13.119457 -23.529090 17.940335 32.366555 1.062149 0.983291 0.085131 -0.032070 -81138.800000 0 0 1
-13.033157 -22.482190 18.876235 32.118909 1.045429 0.942585 0.093079 -0.039414 389811.000000 0 0 1
-11.613757 -22.140290 19.440035 31.669966 1.087700 0.909891 0.107551 -0.035132 422485.000000 0 0 1
-11.111957 -23.121990 20.319535 32.725915 1.122805 0.900905 0.128762 -0.044928 -393486.000000 0 0 1
-9.709057 -23.128490 20.293735 32.264974 1.173349 0.890567 0.125092 -0.049233 -137400.000000 0 0 1
-9.060957 -24.022390 21.367435 33.402746 1.210109 0.876700 0.129910 -0.049808 -20820.000000 0 0 1
-9.179257 -23.530890 22.669635 33.939268 1.198859 0.839349 0.149715 -0.053111 472791.000000 0 0 1
-8.428257 -24.314390 23.620135 34.930443 1.237121 0.828197 0.137009 -0.055563 266163.000000 0 0 1
-8.178157 -23.765990 25.029235 35.470652 1.239377 0.787481 0.145881 -0.050300 241277.000000 0 0 1
-7.089957 -24.438890 25.647035 36.128898 1.288438 0.781474 0.161103 -0.039944 47015.800000 0 0 1
-6.726757 -23.769090 26.807235 36.453350 1.295004 0.744562 0.165847 -0.049550 -1419990.000000 0 0 1
-5.410357 -24.142590 27.392735 36.912038 1.350339 0.734586 0.180154 -0.047663 -1172670.000000 0 0 1
-4.330157 -23.910390 26.510535 35.962000 1.391639 0.741906 0.174559 -0.040024 -284756.000000 0 0 1
-3.163657 -23.844590 27.302935 36.387133 1.438889 0.722211 0.160357 -0.034358 216901.000000 0 0 1
-1.866857 -23.346790 26.615235 35.453187 1.491004 0.721653 0.128194 -0.030267 -311705.000000 0 0 1
-1.936157 -21.935090 26.328935 34.323603 1.482757 0.696520 0.122549 -0.027876 930364.000000 0 0 1
-0.740957 -21.420190 25.649935 33.425929 1.536219 0.696073 0.106035 -0.032969 1611410.000000 0 0 1
0.454543 -21.162190 26.614535 34.005564 -1.549321 0.671881 0.085481 -0.016178 -3960.640000 0 0 1
0.858543 -22.272190 27.465535 35.371502 -1.532268 0.681724 0.091201 -0.032088 -42095.000000 0 0 1
1.774443 -21.891490 28.466335 35.954391 -1.489917 0.657153 0.061213 -0.040070 -347958.000000 0 0 1
2.247043 -23.096790 29.330735 37.400574 -1.473813 0.669339 0.100903 -0.050378 -360580.000000 0 0 1
3.165943 -23.934190 28.666835 37.478742 -1.439283 0.699937 0.082508 -0.048665 102755.000000 0 0 1
3.544543 -25.044490 29.433135 38.808500 -1.430200 0.709911 0.081197 -0.041007 -1097350.000000 0 0 1
4.685343 -24.925890 30.423935 39.608942 -1.384993 0.694916 0.052990 -0.043832 -206414.000000 0 0 1
5.960043 -24.554990 29.899635 39.146619 -1.332679 0.701638 0.079879 -0.045404 776511.000000 0 0 1
6.660643 -25.662990 29.302135 39.516684 -1.316857 0.735474 0.060821 -0.037064 -261089.000000 0 0 1
8.104543 -25.356690 28.823835 39.235938 -1.261437 0.745677 0.063332 -0.023999 120250.000000 0 0 1
8.131843 -24.531790 27.693335 37.879498 -1.250713 0.750878 0.065485 -0.034942 98104.000000 0 0 1
9.384743 -24.490590 27.031835 37.664074 -1.204858 0.770290 0.072555 -0.013284 -23592.300000 0 0 1
9.451743 -23.469190 25.875635 36.189595 -1.187939 0.774169 0.086846 -0.012484 -404227.000000 0 0 1
8.708543 -23.725690 24.746735 35.371570 -1.219013 0.795928 0.079515 -0.015586 -300244.000000 0 0 1
8.581143 -22.422890 24.131735 34.040603 -1.205296 0.782844 0.077738 -0.025415 138306.000000 0 0 1
7.773443 -22.392990 22.807335 32.894482 -1.236674 0.804671 0.070536 -0.016241 133770.000000 0 0 1
8.468543 -22.979190 21.710035 32.727435 -1.217709 0.845498 0.068278 -0.008368 -7001.470000 0 0 1
7.729943 -22.939790 20.502535 31.722861 -1.245779 0.868069 0.077050 -0.003704 -147512.000000 0 0 1
8.260143 -23.867890 19.333635 31.807162 -1.237620 0.917460 0.116382 -0.019889 56735.200000 0 0 1
9.571743 -23.500290 19.002235 31.701212 -1.184010 0.928024 0.116597 -0.015664 -568851.000000 0 0 1
10.120843 -24.289090 17.976035 31.867369 -1.175992 0.971467 0.127975 -0.023642 315966.000000 0 0 1
11.558843 -23.909490 17.539135 31.825961 -1.120483 0.987120 0.128020 -0.025976 264513.000000 0 0 1
11.635243 -22.737190 16.723635 30.529308 -1.097811 0.991077 0.137305 -0.021482 -729504.000000 0 0 1
12.808743 -22.580290 15.994135 30.491732 -1.054803 1.018622 0.133337 -0.030406 -299095.000000 0 0 1
-12.821957 22.431856 11.216635 28.167422 -1.051524 1.161228 0.054851 -0.029544 -222019.000000 0 0 1
-13.786057 21.440656 10.923635 27.732344 -0.999367 1.165931 0.035469 -0.029713 -149680.000000 0 0 1
-13.274757 20.246456 10.452035 26.370119 -0.990454 1.163249 0.070426 -0.033723 313723.000000 0 0 1
-14.333357 19.591556 9.486335 26.062708 -0.939170 1.198258 0.090741 -0.026988 -128647.000000 0 0 1
-14.596157 20.466956 8.454535 26.522128 -0.951294 1.246362 0.093641 -0.026970 -145611.000000 0 0 1
-15.278057 19.912856 7.350835 26.152928 -0.916349 1.285886 0.100889 -0.020112 -57861.600000 0 0 1
-16.792657 19.692456 7.538235 26.955726 -0.864710 1.287364 0.087799 -0.018222 -612854.000000 0 0 1
-17.190957 18.696656 8.477935 26.776283 -0.827330 1.248631 0.081802 -0.021802 631158.000000 0 0 1
-18.615257 18.740756 8.612835 27.783532 -0.788758 1.255606 0.081405 -0.012895 475983.000000 0 0 1
-19.089057 17.631656 9.522935 27.675868 -0.745730 1.219529 0.083623 -0.020209 -273971.000000 0 0 1
-19.026057 16.292756 8.929935 26.593016 -0.708163 1.228342 0.087636 -0.015947 166736.000000 0 0 1
-19.530157 15.405456 9.885535 26.767124 -0.667876 1.192523 0.097524 -0.023535 -567642.000000 0 0 1
-18.499057 14.798556 10.868635 26.064144 -0.674718 1.140659 0.094941 -0.021389 -473329.000000 0 0 1
-17.657357 13.842956 10.312135 24.693113 -0.664894 1.139981 0.075412 -0.012971 255582.000000 0 1 0
-16.801257 13.149456 11.218035 24.104662 -0.664070 1.086723 0.064033 -0.018660 654868.000000 0 1 0
-17.644257 12.081456 12.019235 24.530459 -0.600400 1.058739 0.059887 -0.019103 144592.000000 0 1 0
-18.187157 11.120756 11.127435 24.047114 -0.548805 1.089719 0.039253 -0.020351 -64396.000000 0 1 0
-19.424857 10.722956 11.659135 25.064762 -0.504395 1.086981 0.061960 -0.019615 -518157.000000 0 0 1
-20.361857 9.967956 10.712135 25.074194 -0.455245 1.129383 0.059338 -0.022890 -509454.000000 0 0 1
-19.874957 8.769756 10.147435 23.976926 -0.415551 1.133804 0.048170 -0.017040 275230.000000 0 1 0
-19.098057 8.896556 8.964435 22.896410 -0.435945 1.168512 0.052361 -0.019955 -192388.000000 0 1 0
-19.953357 9.189656 7.696135 23.276957 -0.431598 1.233822 0.059508 -0.023735 -95166.300000 0 1 0
-20.603557 8.005856 7.362035 23.298066 -0.370611 1.249293 0.051809 -0.026114 -174649.000000 0 1 0
-21.506157 8.237556 6.319435 23.881109 -0.365794 1.302986 0.079462 -0.027323 -240167.000000 0 1 0
-21.765257 7.000256 5.431835 23.499677 -0.311177 1.337542 0.095977 -0.029922 -356858.000000 0 1 0
-22.350757 5.997056 6.245035 23.969178 -0.262141 1.307210 0.093694 -0.027214 531992.000000 0 1 0
-22.089557 4.770256 5.651235 23.294642 -0.212685 1.325753 0.101341 -0.034698 -429845.000000 0 1 0
-23.211857 3.726656 5.901135 24.238434 -0.159191 1.324863 0.118735 -0.033994 835587.000000 0 1 0
-24.343057 4.080356 5.066835 25.197352 -0.166075 1.368330 0.147322 -0.040434 1062260.000000 0 0 1
-25.526307 3.325156 5.298735 26.281659 -0.129534 1.367791 0.183923 -0.042446 295625.000000 0 0 1
-26.618497 3.677356 4.258635 27.206678 -0.137281 1.413621 0.195801 -0.040836 -173974.000000 0 0 1
-26.389557 3.228956 2.935135 26.747895 -0.121752 1.460842 0.201459 -0.040753 -576124.000000 0 0 1
-27.594667 3.125156 2.289835 27.865312 -0.112772 1.488528 0.207837 -0.036673 -1234890.000000 0 0 1
-27.587667 2.997156 0.732735 27.759669 -0.108217 1.544398 0.231785 -0.043807 -206395.000000 0 0 1
-27.084027 4.185256 0.083935 27.405619 -0.153316 1.567734 0.238137 -0.044573 378099.000000 0 0 1
-27.260357 4.243756 -1.321365 27.620329 -0.154435 1.618655 0.291101 -0.039622 930662.000000 0 0 1
-28.714197 4.637956 -1.830965 29.143922 -0.160138 1.633663 0.268279 -0.042804 1193250.000000 0 0 1
-29.596117 3.515256 -1.803465 29.858662 -0.118220 1.631233 0.216344 -0.045794 273339.000000 0 0 1
-30.905177 3.938856 -2.141665 31.228694 -0.126766 1.639430 0.179010 -0.013433 410795.000000 0 0 1
-31.915807 2.740756 -2.306865 32.116228 -0.085664 1.642687 0.156718 -0.011383 73080.000000 0 0 1
-31.904667 2.127856 -3.587965 32.176219 -0.066596 1.682539 0.140097 -0.027199 837611.000000 0 0 1
-32.837407 1.032356 -3.711765 33.062642 -0.031428 1.683298 0.149435 -0.036582 289666.000000 0 0 1
-32.958387 0.534056 -5.189965 33.368791 -0.016203 1.726964 0.155125 -0.032773 -750192.000000 0 0 1
-31.703217 0.254456 -5.731965 32.218227 -0.008026 1.749659 0.184048 -0.048745 -149554.000000 0 0 1
-31.711127 -0.281244 -7.035565 32.483440 0.008869 1.789116 0.202609 -0.051981 -296989.000000 0 0 1
-32.134667 0.636756 -8.222765 33.176138 -0.019813 1.821259 0.201002 -0.048071 -106050.000000 0 0 1
-33.540977 0.787356 -8.252965 34.550377 -0.023470 1.811996 0.204777 -0.042249 259439.000000 0 0 1
-33.972737 1.741956 -9.216665 35.243839 -0.051230 1.835384 0.203317 -0.040759 425891.000000 0 0 1
-35.529020 1.848456 -9.160165 36.737402 -0.051980 1.822797 0.191690 -0.039727 460625.000000 0 0 1
-35.875449 2.545756 -7.990465 36.842588 -0.070842 1.789415 0.149397 -0.030576 -457662.000000 0 0 1
-37.254087 2.503556 -7.794465 38.143001 -0.067101 1.776594 0.157808 -0.027048 -611632.000000 0 0 1
37.656348 3.112956 -6.427765 38.327630 0.082480 1.739298 0.152011 -0.020996 182802.000000 0 0 1
36.241588 3.231556 -6.428065 36.948825 0.088932 1.745658 0.150293 -0.023825 284233.000000 0 0 1
35.833348 3.802356 -5.265365 36.417178 0.105717 1.715890 0.145309 -0.027845 1187560.000000 0 0 1
34.299588 3.471156 -4.985365 34.833383 0.100858 1.714410 0.164718 -0.036843 1472340.000000 0 0 1
34.291778 2.184056 -4.363965 34.637268 0.063604 1.697123 0.146634 -0.036327 1131900.000000 0 0 1
32.902398 1.789156 -4.350165 33.236920 0.054324 1.702056 0.174197 -0.039042 1003950.000000 0 0 1
32.688098 0.551156 -3.440765 32.873308 0.016859 1.675656 0.209356 -0.043936 -150966.000000 0 0 1
33.437698 -0.569644 -3.904765 33.669739 -0.017034 1.687030 0.141310 -0.036365 368211.000000 0 0 1
33.385168 -1.632644 -2.970965 33.556842 -0.048864 1.659448 0.158433 -0.038473 216132.000000 0 0 1
34.426488 -2.775844 -3.197865 34.685944 -0.080457 1.663122 0.127942 -0.028892 373476.000000 0 0 1
34.194098 -3.815444 -2.325365 34.484798 -0.111122 1.638279 0.131015 -0.035755 497230.000000 0 0 1
35.250278 -4.714344 -2.648865 35.662636 -0.132950 1.645140 0.172372 -0.037984 362036.000000 0 0 1
35.113638 -6.099944 -1.952865 35.693005 -0.172004 1.625536 0.204530 -0.049181 -59525.800000 0 0 1
35.380128 -6.082044 -0.540565 35.903161 -0.170242 1.585853 0.208932 -0.062683 41150.300000 0 0 1
35.250228 -7.352844 -0.003465 36.008928 -0.205641 1.570893 0.227225 -0.058313 -238067.000000 0 0 1
34.229848 -7.529644 1.128835 35.066399 -0.216525 1.538599 0.234850 -0.045643 -204552.000000 0 0 1
32.898168 -7.551344 0.633335 33.759641 -0.225629 1.552035 0.209939 -0.045358 247981.000000 0 0 1
31.999518 -7.247644 1.699035 32.853983 -0.222734 1.519059 0.252311 -0.053746 -357179.000000 0 0 1
31.371908 -8.453944 2.450335 32.583277 -0.263222 1.495523 0.218165 -0.046083 -284591.000000 0 0 1
30.423838 -9.232244 1.766435 31.842810 -0.294623 1.515294 0.209107 -0.045354 -366001.000000 0 0 1
29.131258 -8.718044 1.734035 30.457206 -0.290785 1.513832 0.217616 -0.048591 -1596050.000000 0 0 1
28.037058 -9.759844 1.631635 29.732027 -0.334986 1.515891 0.174821 -0.035734 605882.000000 0 0 1
26.687958 -9.459344 2.084535 28.391400 -0.340627 1.497309 0.149665 -0.046658 1793830.000000 0 0 1
25.889058 -8.538244 1.380735 27.295629 -0.318568 1.520190 0.151636 -0.043257 -412725.000000 0 0 1
25.343458 -8.958544 -0.008465 26.880224 -0.339777 1.571111 0.122023 -0.032529 91162.900000 0 0 1
26.353758 -8.990244 -1.062165 27.865270 -0.328757 1.608923 0.122832 -0.042797 1402340.000000 0 0 1
25.806558 -9.303044 -2.393865 27.536443 -0.345991 1.657841 0.100240 -0.051559 -337534.000000 0 0 1
25.177558 -10.648444 -2.655665 27.465457 -0.400119 1.667639 0.097923 -0.029123 421946.000000 0 0 1
23.861758 -10.723144 -2.076565 26.242741 -0.422343 1.650008 0.080456 -0.015612 568268.000000 0 0 1
23.483558 -12.048444 -2.003165 26.469892 -0.474040 1.646546 0.075426 -0.011958 -618966.000000 0 0 1
22.041658 -12.242544 -1.547765 25.260842 -0.507001 1.632106 0.088726 -0.016980 -664348.000000 0 0 1
21.116858 -11.836944 -2.505465 24.337467 -0.510903 1.673926 0.092107 -0.010830 -147461.000000 0 1 0
19.771758 -11.984444 -2.104365 23.215893 -0.544922 1.661564 0.101066 -0.017528 -295326.000000 0 1 0
18.828258 -11.425244 -3.147165 22.247340 -0.545414 1.712735 0.098187 -0.018377 -490808.000000 0 1 0
18.713258 -12.236044 -4.337765 22.775491 -0.579091 1.762425 0.092317 -0.022230 46425.500000 0 1 0
17.932558 -11.608644 -5.300865 22.009917 -0.574510 1.814027 0.091940 -0.023742 -316405.000000 0 1 0
18.123458 -12.247144 -6.755265 22.892922 -0.594273 1.870337 0.103365 -0.029337 128015.000000 0 1 0
17.401658 -13.469544 -6.945465 23.075654 -0.658709 1.876523 0.099266 -0.022552 591862.000000 0 1 0
17.778958 -13.935244 -8.221465 24.039028 -0.664788 1.919846 0.103577 -0.028549 116255.000000 0 1 0
17.008858 -15.210644 -8.789865 24.452539 -0.729645 1.938492 0.098630 -0.025993 -186246.000000 0 1 0
15.632658 -15.038044 -8.953065 23.466575 -0.766014 1.962241 0.106430 -0.021598 3569.390000 0 1 0
14.993558 -16.073844 -9.745265 24.044655 -0.820156 1.988102 0.095742 -0.019573 256080.000000 0 1 0
14.421158 -15.658244 -11.128765 24.020821 -0.826502 2.052508 0.099611 -0.035443 -39622.000000 0 1 0
13.251358 -14.846944 -11.106465 22.789994 -0.842123 2.079837 0.084664 -0.034805 402643.000000 0 1 0
13.424658 -13.441944 -10.830665 21.868027 -0.786042 2.088947 0.082206 -0.029265 -330728.000000 0 1 0
13.710458 -12.499544 -12.022765 22.107966 -0.739231 2.145779 0.108288 -0.016916 -229867.000000 0 1 0
14.918958 -12.710944 -12.687065 23.347484 -0.705654 2.145280 0.127722 -0.016516 -311110.000000 0 1 0
14.773458 -12.191244 -13.963865 23.703819 -0.689927 2.200738 0.152542 -0.021141 -218196.000000 0 1 0
16.040258 -11.742144 -14.697665 24.722241 -0.631909 2.207455 0.169382 -0.034777 -686717.000000 0 1 0
16.953958 -12.700744 -15.082765 26.004527 -0.642945 2.189532 0.165970 -0.035107 -289979.000000 0 0 1
17.973958 -12.088144 -15.855365 26.843603 -0.592055 2.202669 0.152525 -0.023763 -627761.000000 0 0 1
19.069858 -13.064344 -16.197765 28.225949 -0.600641 2.182009 0.128779 -0.018519 -855765.000000 0 0 1
19.992058 -13.183244 -15.150365 28.337499 -0.582972 2.134878 0.116952 -0.029988 62584.300000 0 0 1
20.996458 -14.157144 -15.343365 29.609033 -0.593243 2.115540 0.084123 -0.022735 62040.800000 0 0 1
22.078658 -14.235444 -14.249865 29.886011 -0.572683 2.067815 0.086845 -0.024502 251360.000000 0 0 1
22.916358 -13.079644 -14.263965 29.994954 -0.518639 2.066380 0.090185 -0.022207 439236.000000 0 0 1
23.907758 -13.002644 -13.232965 30.261544 -0.498122 2.023376 0.095388 -0.023718 547486.000000 0 0 1
24.732458 -11.723844 -13.310365 30.435322 -0.442654 2.023427 0.103904 -0.030392 -1593.380000 0 0 1
23.927658 -10.583744 -12.942565 29.190040 -0.416451 2.030173 0.105514 -0.019322 760892.000000 0 0 1
24.645458 -9.352844 -12.949665 29.369510 -0.362706 2.027422 0.122536 -0.028344 427643.000000 0 0 1
25.759158 -9.072544 -11.900165 29.790254 -0.338639 1.981730 0.134285 -0.031667 628232.000000 0 0 1
26.981758 -9.775944 -12.058065 31.128464 -0.347605 1.968568 0.114105 -0.037949 407774.000000 0 0 1
27.937658 -9.408644 -11.082765 31.493857 -0.324843 1.930399 0.111671 -0.038274 536654.000000 0 0 1
29.320258 -10.119544 -11.292365 33.009093 -0.332337 1.919946 0.116972 -0.039034 808286.000000 0 0 1
30.092858 -9.598844 -12.376265 33.924768 -0.308772 1.944230 0.099000 -0.037096 1111730.000000 0 0 1
31.335568 -10.332244 -12.570065 35.308351 -0.318503 1.934789 0.102420 -0.034068 1023580.000000 0 0 1
32.078808 -9.865544 -13.841165 36.303674 -0.298361 1.961956 0.088970 -0.030400 -71047.600000 0 0 1
31.455678 -10.238244 -15.062065 36.347588 -0.314667 1.998068 0.070748 -0.026659 199077.000000 0 0 1
32.166598 -9.629744 -16.115465 37.244197 -0.290880 2.018279 0.061607 -0.024120 -35812.100000 0 0 1
31.928108 -10.359344 -17.447365 37.830287 -0.313742 2.050145 0.034141 -0.014168 1239320.000000 0 0 1
30.588838 -10.206144 -17.996665 36.928612 -0.322041 2.079833 0.033409 -0.010551 1200900.000000 0 0 1
30.400508 -9.101644 -18.776165 36.872418 -0.290898 2.105074 0.023615 -0.004623 -435441.000000 0 0 1
28.949158 -8.675444 -19.089265 35.745169 -0.291162 2.134165 0.003031 -0.005050 -235143.000000 0 0 1
28.375158 -9.594944 -19.970165 36.000278 -0.326076 2.158826 0.008970 0.007615 -230755.000000 0 0 1
27.144458 -9.118744 -20.442365 35.183283 -0.324089 2.190784 0.041093 0.009104 -267363.000000 0 0 1
26.840958 -9.409644 -21.947865 35.926136 -0.337183 2.228014 0.065416 -0.005676 -215802.000000 0 0 1
26.711458 -10.796144 -22.233165 36.391927 -0.384102 2.228040 0.064507 -0.008259 506260.000000 0 0 1
25.999858 -11.039944 -23.475865 36.728589 -0.401545 2.264217 0.092996 -0.017555 -247841.000000 0 0 1
26.032758 -12.543044 -23.863365 37.476561 -0.448996 2.261078 0.100059 -0.009543 -57137.000000 0 0 1
27.248658 -13.024744 -24.328765 38.781724 -0.445890 2.248910 0.090587 -0.007444 -538843.000000 0 0 1
28.361558 -13.086044 -23.467265 39.068338 -0.432294 2.215138 0.059554 0.003938 -481478.000000 0 0 1
29.532258 -13.858444 -24.112365 40.566204 -0.438758 2.207310 0.043115 0.010846 -458234.000000 0 0 1
30.207758 -13.100844 -25.046665 41.369992 -0.409209 2.221103 0.072796 -0.010341 233658.000000 0 0 1
31.604328 -13.420144 -25.069965 42.513962 -0.401557 2.201469 0.029530 -0.003874 778077.000000 0 0 1
32.297098 -12.756044 -26.320995 43.573088 -0.376154 2.219389 0.053320 -0.008398 42905.100000 0 0 1
32.184438 -13.429244 -27.535905 44.434319 -0.395296 2.239156 0.059885 -0.020015 -30506.400000 0 0 1
33.177088 -12.975444 -28.409935 45.565401 -0.372807 2.244005 0.046705 -0.015534 -65077.400000 0 0 1
33.194608 -13.701144 -29.713405 46.609975 -0.391451 2.262033 0.057933 -0.029910 -128521.000000 0 0 1
33.865488 -14.919944 -29.717505 47.461628 -0.414980 2.247386 0.070838 -0.027517 -272099.000000 0 0 1
34.125458 -15.452244 -31.025455 48.640493 -0.425186 2.262503 0.037316 -0.020856 1205080.000000 0 0 1
32.898778 -16.092144 -31.852975 48.537601 -0.454923 2.286639 0.037183 -0.013809 2036670.000000 0 0 1
31.849818 -15.305244 -32.450765 47.976177 -0.447962 2.313651 0.052386 -0.023688 825621.000000 0 0 1
30.694578 -16.100644 -32.695315 47.648415 -0.483089 2.327019 0.054571 -0.022000 311089.000000 0 0 1
29.670258 -15.429244 -33.628565 47.426429 -0.479538 2.358972 0.080417 -0.023125 82172.300000 0 0 1
28.957858 -14.294844 -33.146975 46.277663 -0.458549 2.369229 0.090641 -0.028259 424717.000000 0 0 1
29.776858 -13.123644 -33.214245 46.498144 -0.415121 2.366439 0.082065 -0.024015 -223823.000000 0 0 1
29.049258 -11.843744 -32.846375 45.420458 -0.387137 2.379167 0.101111 -0.024536 -48810.300000 0 0 1
28.070758 -11.606844 33.829125 45.465327 -0.392077 0.731663 0.089989 -0.024980 -258963.000000 0 0 1
27.353058 -10.421644 -33.615025 44.573202 -0.364025 2.425160 0.081206 -0.026465 -120948.000000 0 0 1
21.468943 -29.165490 9.039435 37.326300 -0.936246 1.326191 0.049132 -0.019181 -38103.400000 0 0 1
21.939043 -29.070890 7.720235 37.229562 -0.924311 1.361912 0.052008 -0.022363 289008.000000 0 0 1
23.234543 -29.638690 7.609135 38.421281 -0.905934 1.371434 0.079311 -0.023631 129106.000000 0 0 1
23.966143 -29.366190 6.284235 38.421878 -0.886307 1.406499 0.079256 -0.018297 3925.860000 0 0 1
24.219643 -27.985390 6.016235 37.496243 -0.857407 1.409651 0.077110 -0.012517 239934.000000 0 0 1
24.946643 -27.733490 4.813335 37.611829 -0.838250 1.442470 0.078784 -0.006324 115891.000000 0 0 1
25.003743 -26.206590 4.494735 36.498975 -0.808882 1.447336 0.086454 -0.011258 -20184.700000 0 0 1
25.903043 -25.483590 5.295935 36.720947 -0.777236 1.426071 0.086085 -0.005527 -6900.570000 0 0 1
25.659643 -24.096890 5.174035 35.578758 -0.754000 1.424854 0.085535 0.000588 -295935.000000 0 0 1
26.586043 -23.294990 6.066435 35.864688 -0.719516 1.400831 0.085387 0.007103 -577110.000000 0 0 1
27.861243 -23.161590 5.493935 36.645483 -0.693549 1.420308 0.096378 0.002686 252112.000000 0 0 1
28.769243 -22.292290 6.228335 36.924351 -0.659226 1.401308 0.094250 0.005497 571366.000000 0 0 1
28.413743 -20.776790 6.299235 35.758861 -0.631375 1.393714 0.093207 0.011145 -412528.000000 0 0 1
28.654943 -20.089690 5.127435 35.369365 -0.611457 1.425315 0.092405 0.021447 86986.800000 0 0 1
28.012043 -18.823190 5.116035 34.134452 -0.591664 1.420351 0.109061 0.014714 -53367.100000 0 0 1
28.183443 -17.777690 3.961635 33.556628 -0.562748 1.452462 0.121583 0.015778 -162286.000000 0 0 1
29.484543 -17.296890 3.718035 34.385236 -0.530540 1.462456 0.125100 0.014084 27636.700000 0 0 1
29.529443 -16.418090 2.625335 33.888553 -0.507431 1.493249 0.141807 0.029664 34796.100000 0 0 1
30.659343 -15.381990 2.732335 34.410268 -0.465012 1.491308 0.154295 0.003367 33136.700000 0 0 1
30.269543 -14.267390 3.525835 33.648702 -0.440462 1.465820 0.157850 -0.001371 446656.000000 0 0 1
31.378043 -13.512590 4.005435 34.397895 -0.406637 1.454087 0.171601 -0.016613 298569.000000 0 0 1
30.947343 -12.535490 5.118735 33.779846 -0.384860 1.418678 0.179328 -0.021172 216541.000000 0 0 1
30.982743 -13.085990 6.413935 34.239043 -0.399636 1.382355 0.161663 -0.026684 -94070.100000 0 0 1
30.501843 -12.187190 7.410435 33.672014 -0.380123 1.348903 0.159886 -0.021454 13794.600000 0 0 1
30.438543 -12.765090 8.821135 34.165258 -0.397095 1.309648 0.169249 -0.020849 -492312.000000 0 0 1
29.430543 -13.721490 8.858535 33.658725 -0.436271 1.304472 0.140529 -0.013282 -492653.000000 0 0 1
28.868643 -13.975490 10.153235 33.642251 -0.450852 1.264216 0.161049 -0.015916 -154620.000000 0 0 1
29.593643 -14.923490 11.066735 34.942336 -0.467066 1.248533 0.158766 -0.020246 -654089.000000 0 0 1
30.826743 -14.454990 11.560335 35.956587 -0.438468 1.243475 0.134219 -0.019694 15576.100000 0 0 1
31.545643 -15.529790 12.178435 37.210432 -0.457465 1.237367 0.129437 -0.020516 336468.000000 0 0 1
32.535543 -15.150890 13.282235 38.269162 -0.435810 1.216347 0.113048 -0.026334 1510340.000000 0 0 1
33.883843 -14.755390 12.891035 39.140965 -0.410705 1.235182 0.078289 -0.030060 1219140.000000 0 0 1
34.683643 -14.416190 13.997435 40.083785 -0.393923 1.214074 0.047225 -0.027361 -190096.000000 0 0 1
36.169243 -14.303390 13.628735 41.213390 -0.376584 1.233765 0.064781 -0.022860 -399657.000000 0 0 1
36.568843 -13.140790 12.990735 40.972183 -0.344975 1.248166 0.090524 -0.030956 337535.000000 0 0 1
-37.498673 -13.316190 12.419935 41.686043 0.341221 1.268263 0.096759 -0.014412 249648.000000 0 0 1
-36.892773 -12.012290 11.926835 40.590900 0.314775 1.272565 0.116830 -0.023630 -279437.000000 0 0 1
-35.573273 -12.130790 11.453235 39.291098 0.328642 1.275005 0.120544 -0.023322 -396523.000000 0 0 1
-34.925773 -10.888090 11.439335 38.330386 0.302201 1.267738 0.121276 -0.028468 434672.000000 0 0 1
-33.462473 -10.930190 10.864735 36.840855 0.315715 1.271435 0.134834 -0.026516 704272.000000 0 0 1
-32.586773 -11.842390 11.463435 36.517808 0.348572 1.251484 0.125814 -0.021610 -59222.600000 0 0 1
-32.742373 -13.079690 10.828435 36.883550 0.380052 1.272822 0.122075 -0.017899 -173719.000000 0 0 1
-31.597373 -14.083490 11.209335 36.364651 0.419287 1.257445 0.094864 -0.016514 794928.000000 0 0 1
-30.289473 -13.840890 10.744035 34.992238 0.428622 1.258715 0.107765 -0.019195 177371.000000 0 0 1
-29.417073 -14.959990 10.962235 34.775510 0.470463 1.250099 0.106612 -0.011650 -53201.400000 0 0 1
-28.067473 -14.733590 10.296535 33.329872 0.483396 1.256730 0.112290 -0.013563 -625977.000000 0 0 1
-28.101673 -15.121290 8.935835 33.139200 0.493655 1.297771 0.127536 -0.028723 -638959.000000 0 0 1
-26.880473 -15.011290 8.315035 31.891040 0.509304 1.307015 0.115397 -0.024772 -757296.000000 0 0 1
-27.078073 -15.040190 6.756635 31.703020 0.507009 1.356026 0.140769 -0.021989 213371.000000 0 0 1
-27.647773 -16.258190 6.233935 32.673996 0.531584 1.378827 0.149238 -0.007962 309641.000000 0 0 1
-27.826573 -16.237990 4.834235 32.578525 0.528231 1.421859 0.162578 -0.007659 -114711.000000 0 0 1
-28.702873 -17.368690 4.236435 33.815288 0.544176 1.445185 0.151674 -0.014815 -154186.000000 0 0 1
-30.084173 -17.175190 4.397935 34.919714 0.518751 1.444517 0.115055 -0.029933 -635087.000000 0 0 1
-30.728473 -18.149090 3.679835 35.877147 0.533500 1.468048 0.129150 -0.022582 -596688.000000 0 0 1
-32.243473 -18.125690 3.922535 37.196350 0.512124 1.465145 0.152709 -0.033947 -10813.500000 0 0 1
-33.042773 -17.038090 3.416835 37.333579 0.476079 1.479146 0.201616 -0.039014 83860.800000 0 0 1
-34.386873 -17.388990 3.685735 38.709413 0.468187 1.475436 0.199399 -0.035357 -133679.000000 0 0 1
-35.352673 -16.418590 2.968235 39.092096 0.434783 1.494794 0.166099 -0.036197 26052.800000 0 0 1
-35.543973 -16.740390 1.636635 39.322935 0.440161 1.529164 0.156170 -0.034437 -71957.300000 0 0 1
-36.560073 -15.963590 1.042035 39.906904 0.411688 1.544682 0.199199 -0.040436 -18281.500000 0 0 1
-36.827973 -16.363390 -0.404365 40.301658 0.418120 1.580830 0.164105 -0.041544 48804.500000 0 0 1
-35.679373 -16.248990 -1.232865 39.224575 0.427349 1.602232 0.173511 -0.037414 281320.000000 0 0 1
-35.826073 -17.089290 -2.382265 39.764639 0.445085 1.630741 0.131744 -0.022530 -474741.000000 0 0 1
-34.603073 -17.365890 -3.257165 38.853004 0.465134 1.654728 0.117436 -0.021096 -541686.000000 0 0 1
-34.828973 -18.422890 -4.120665 39.616160 0.486541 1.675000 0.102831 -0.018366 172220.000000 0 0 1
-33.679973 -19.188890 -4.420365 39.014019 0.517874 1.684342 0.115652 -0.014062 -137591.000000 0 0 1
-34.021873 -20.304090 -5.447365 39.992720 0.538060 1.707430 0.112178 -0.016701 371468.000000 0 0 1
-34.753373 -21.416590 -4.811365 41.104945 0.552279 1.688116 0.098037 -0.019813 644782.000000 0 0 1
-35.056273 -22.434590 -5.779665 42.019729 0.569284 1.708780 0.097664 -0.008437 404887.000000 0 0 1
-35.789673 -23.759290 -5.327465 43.287255 0.586056 1.694182 0.089470 -0.019695 177481.000000 0 0 1
-34.970473 -24.638690 -4.604165 43.025543 0.613778 1.678012 0.097349 -0.020397 -576588.000000 0 0 1
-35.571273 -25.884490 -4.375965 44.209403 0.629062 1.669941 0.082595 -0.015763 -215169.000000 0 0 1
-34.637073 -27.013990 -3.973965 44.105270 0.662374 1.661021 0.067895 -0.017509 -672403.000000 0 0 1
-33.737973 -27.521390 -4.971265 43.822268 0.684265 1.684483 0.062073 -0.019545 513300.000000 0 0 1
-32.880073 -28.580290 -4.625665 43.810147 0.715552 1.676578 0.077786 -0.018104 274805.000000 0 0 1
-31.824373 -28.374190 -3.500665 42.780136 0.728147 1.652717 0.099453 -0.030696 -762916.000000 0 0 1
-32.407473 -28.022790 -2.287065 42.903983 0.712967 1.624128 0.081977 -0.025030 -364641.000000 0 0 1
-31.466173 -28.000890 -1.227665 42.138783 0.727192 1.599934 0.096972 -0.030829 -24193.100000 0 0 1
-32.125173 -27.812590 0.137035 42.492184 0.713571 1.567571 0.084265 -0.021533 -92220.100000 0 0 1
-32.712373 -28.984390 0.599335 43.709878 0.725047 1.557084 0.076460 -0.013701 -266824.000000 0 0 1
-33.427673 -28.711190 1.799335 44.101920 0.709641 1.529986 0.090180 -0.011470 145900.000000 0 0 1
-34.009273 -30.041290 2.359035 45.438693 0.723526 1.518856 0.069419 -0.003771 -439540.000000 0 0 1
-34.751273 -30.032290 3.585035 46.069967 0.712684 1.492900 0.069303 -0.004698 208531.000000 0 0 1
-35.158773 -31.299390 3.990535 47.241036 0.727391 1.486224 0.056540 0.002952 607187.000000 0 0 1
-36.396073 -31.856390 3.141635 48.470337 0.718983 1.505935 0.044617 0.002329 165672.000000 0 0 1
-36.995373 -32.939490 3.774635 49.678119 0.727468 1.494741 0.045757 -0.007437 313395.000000 0 0 1
37.256743 -33.369290 2.961635 50.103350 -0.730411 1.511651 0.063816 -0.010740 113309.000000 0 0 1
36.250343 33.351456 3.645635 49.393295 0.743773 1.496921 0.066198 -0.013788 303861.000000 0 0 1
35.304243 -33.695690 4.512335 49.011736 -0.762090 1.478599 0.051043 -0.018767 1069470.000000 0 0 1
34.349043 -32.740190 4.047035 47.625154 -0.761422 1.485717 0.062061 -0.019672 -594639.000000 0 0 1
33.357443 -33.227790 3.030935 47.180415 -0.783451 1.506511 0.079259 -0.018610 -1082890.000000 0 0 1
33.879943 -33.497890 1.733635 47.675619 -0.779728 1.534425 0.078768 -0.016019 314119.000000 0 0 1
32.905043 -33.030990 0.783735 46.630488 -0.787308 1.553988 0.082750 -0.009824 118093.000000 0 0 1
33.309443 -33.369090 -0.699465 47.154050 -0.786293 1.585630 0.082357 -0.010762 1289670.000000 0 0 1
34.449543 -32.726790 -1.323465 47.534886 -0.759759 1.598642 0.060696 -0.000275 633664.000000 0 0 1
35.712043 -32.968490 -0.725465 48.608617 -0.745473 1.585721 0.059190 0.000452 39834.900000 0 0 1
36.872543 -32.655890 -1.725165 49.284559 -0.724826 1.605808 0.054578 -0.000471 96319.600000 0 0 1
37.133643 -33.776190 -2.582065 50.263361 -0.738085 1.622190 0.053721 -0.008844 204004.000000 0 0 1
-37.281073 -33.454890 -3.568865 50.217973 0.731360 1.641924 0.058004 -0.007755 -327056.000000 0 0 1
-36.607773 33.113756 -4.304065 49.549721 -0.735326 1.657769 0.056868 -0.012856 572196.000000 0 0 1
-35.550073 32.435256 -3.589765 48.257019 -0.739614 1.645254 0.069021 -0.008878 797931.000000 0 0 1
-34.940773 31.366156 -4.320165 47.152488 -0.731540 1.662546 0.091648 -0.025376 311770.000000 0 0 1
-33.546173 30.850556 -3.872465 45.739463 -0.743563 1.655561 0.102171 -0.031441 -546955.000000 0 0 1
-32.525473 31.774256 -4.099465 45.654302 -0.773716 1.660711 0.093123 -0.029480 -261448.000000 0 0 1
-31.198673 31.438956 -3.761365 44.451243 -0.789234 1.655515 0.137180 -0.033644 532827.000000 0 0 1
-30.901773 31.398256 -2.245165 44.111346 -0.793367 1.621716 0.119623 -0.021287 -255176.000000 0 0 1
-31.788473 30.497156 -1.568565 44.079972 -0.764669 1.606388 0.092674 -0.008485 114075.000000 0 0 1
-31.476673 30.394856 -0.180965 43.756839 -0.767915 1.574932 0.095595 -0.007693 184860.000000 0 0 1
-32.531373 29.496656 0.516635 43.915941 -0.736512 1.559032 0.088132 -0.017756 163851.000000 0 0 1
-32.715173 28.234956 -0.027965 43.214535 -0.712024 1.571443 0.097389 -0.037819 196265.000000 0 0 1
-33.797673 28.050756 -0.931965 43.931722 -0.692745 1.592012 0.091227 -0.033420 112231.000000 0 0 1
-34.067973 26.555656 -1.185065 43.211503 -0.662109 1.598225 0.086162 -0.026362 -45733.900000 0 0 1
-34.436273 25.797556 -0.070265 43.027616 -0.642950 1.572429 0.081357 -0.033705 -181107.000000 0 0 1
-35.007573 24.625956 -0.494265 42.804347 -0.613035 1.582344 0.098734 -0.027669 -525705.000000 0 0 1
-35.000473 23.444756 0.522535 42.130306 -0.590197 1.558393 0.110526 -0.036143 128088.000000 0 0 1
-33.735773 22.856456 0.782835 40.756997 -0.595475 1.551588 0.111789 -0.042190 260902.000000 0 0 1
-33.175073 23.436556 1.966535 40.666016 -0.615042 1.522419 0.108663 -0.044173 -392332.000000 0 0 1
-31.652573 23.228356 2.156635 39.320389 -0.633087 1.515921 0.110924 -0.051272 647899.000000 0 0 1
-30.826973 24.126656 1.358135 39.169405 -0.664070 1.536116 0.128967 -0.041193 421200.000000 0 0 1
-30.611373 25.448256 1.957035 39.855989 -0.693557 1.521674 0.104751 -0.043471 -365832.000000 0 0 1
-29.907073 26.315756 0.910035 39.846959 -0.721608 1.547956 0.101412 -0.034837 -943172.000000 0 0 1
-28.658573 25.948956 0.499435 38.664086 -0.735819 1.557879 0.114962 -0.033707 -1123570.000000 0 0 1
-28.141373 26.824556 -0.534065 38.881601 -0.761446 1.584532 0.108761 -0.028148 528834.000000 0 0 1
-26.893173 26.324256 -1.312865 37.655449 -0.774708 1.605669 0.101964 -0.025737 6244.940000 0 0 1
-27.132473 25.381956 -2.361765 37.228923 -0.752076 1.634278 0.124892 -0.038139 1377810.000000 0 0 1
-25.859273 24.889256 -2.914965 36.009361 -0.766286 1.651835 0.122634 -0.021516 1955060.000000 0 0 1
-25.071773 23.917556 -1.985565 34.707143 -0.761842 1.628037 0.101918 -0.022733 50267.900000 0 0 1
-25.668873 22.625356 -1.824665 34.265539 -0.722461 1.624072 0.110170 -0.023387 76029.000000 0 0 1
-24.651673 21.697456 -1.499665 32.874512 -0.721746 1.616430 0.106020 -0.034352 -675285.000000 0 0 1
-25.159273 20.262556 -1.234165 32.327749 -0.678008 1.608982 0.125208 -0.034514 -263593.000000 0 0 1
-25.854573 20.073656 0.005735 32.732409 -0.660188 1.570621 0.133368 -0.037886 717021.000000 0 0 1
-27.094873 20.753556 0.221935 34.130506 -0.653637 1.564294 0.115337 -0.038314 135893.000000 0 0 1
-28.278873 20.449756 -0.722265 34.905713 -0.626092 1.591490 0.105587 -0.049956 -758926.000000 0 0 1
-28.784573 19.145156 -0.450465 34.572989 -0.586930 1.583826 0.107460 -0.053383 -79182.500000 0 0 1
-29.688873 18.873356 -1.498865 35.211920 -0.566260 1.613376 0.117562 -0.049273 -208456.000000 0 0 1
-30.056873 17.423456 -1.633365 34.780171 -0.525347 1.617776 0.118022 -0.040880 -182056.000000 0 0 1
-30.949973 17.030556 -0.618665 35.331620 -0.503043 1.588307 0.108919 -0.035001 -11183.000000 0 0 1
-31.055973 15.633856 -0.430565 34.771774 -0.466371 1.583179 0.119422 -0.043436 -235205.000000 0 0 1
-29.793573 14.914556 0.095035 33.318313 -0.464125 1.567944 0.163902 -0.040203 -149372.000000 0 0 1
-29.657973 14.978556 1.520535 33.260555 -0.467674 1.525065 0.179245 -0.035955 527830.000000 0 0 1
-28.559973 14.333556 2.209235 32.031291 -0.465147 1.501770 0.205069 -0.042741 476600.000000 0 0 1
-28.404573 12.766756 2.133735 31.214782 -0.422406 1.502386 0.222075 -0.043402 -105084.000000 0 0 1
-27.967173 12.301356 0.869435 30.565373 -0.414381 1.542347 0.206387 -0.047420 472019.000000 0 0 1
-27.542473 10.914056 0.940435 29.640999 -0.377280 1.539063 0.249172 -0.043332 116724.000000 0 0 1
-27.287773 10.286256 -0.465465 29.165841 -0.360483 1.586756 0.235402 -0.036313 233576.000000 0 0 1
-28.498873 10.075856 -1.181965 30.250713 -0.339836 1.609879 0.225087 -0.037183 627659.000000 0 0 1
-28.297073 9.175656 -2.262265 29.833452 -0.313564 1.646699 0.234818 -0.035228 12570.700000 0 0 1
-29.610573 8.930756 -3.030765 31.076196 -0.292930 1.668478 0.225077 -0.035554 -7496.050000 0 0 1
-29.449473 7.846556 -3.903765 30.725873 -0.260392 1.698192 0.227301 -0.027987 -839299.000000 0 0 1
-30.640473 7.468056 -4.441765 31.848700 -0.239070 1.710717 0.210004 -0.028867 -1169980.000000 0 0 1
-11.669757 18.603356 -20.214165 29.847622 -1.010550 2.314809 0.137099 -0.012777 130456.000000 0 0 1
-11.836757 17.493956 -21.078565 29.840463 -0.975935 2.355161 0.133642 -0.027700 1191150.000000 0 0 1
-10.598557 16.718756 -21.263965 29.051720 -1.005800 2.391954 0.124668 -0.039858 1159160.000000 0 0 1
-10.735257 15.474356 -22.226465 29.132751 -0.964281 2.438641 0.111781 -0.032726 133115.000000 0 0 1
-9.601857 14.617656 -22.153165 28.224710 -0.989609 2.473308 0.134725 -0.044758 187409.000000 0 0 1
-9.859457 13.322156 -22.662065 28.075932 -0.933674 2.510140 0.117912 -0.044192 530053.000000 0 0 1
-8.771357 12.237256 -22.302665 26.909032 -0.948901 2.547786 0.116953 -0.037145 217323.000000 0 0 1
-7.559957 12.309356 -22.995565 27.156384 -1.020028 2.580705 0.073764 -0.027598 256879.000000 0 0 1
-6.654457 11.296456 -22.424865 25.976264 -1.038449 2.612535 0.074164 -0.025125 1883150.000000 0 0 1
-5.117057 11.616156 -22.632565 25.949034 -1.155860 2.630464 0.041995 -0.015032 1138940.000000 0 0 1
-4.640157 11.498956 -23.958865 26.977477 -1.187252 2.664005 0.030924 -0.020197 1194980.000000 0 0 1
-3.188157 11.596856 -23.901165 26.756627 -1.302509 2.675387 0.013705 -0.014934 1328440.000000 0 0 1
-2.471457 11.246756 -25.197825 27.704296 -1.354486 2.712943 0.037926 -0.031261 -773447.000000 0 0 1
-2.562957 9.901856 -25.632275 27.597627 -1.317519 2.761919 0.048220 -0.037161 246867.000000 0 0 1
-2.101757 9.659356 -26.990315 28.743654 -1.356548 2.790510 0.055157 -0.038926 -117276.000000 0 0 1
-1.995757 8.112356 -27.302205 28.551773 -1.329572 2.844648 0.054578 -0.013923 68400.900000 0 0 1
-1.085157 7.244256 -26.641705 27.630368 -1.422106 2.873275 0.045913 -0.015073 103008.000000 0 0 1
-1.384457 7.083856 -25.242025 26.253715 -1.377791 2.863078 0.055720 -0.020387 -122805.000000 0 0 1
-0.421757 6.202956 -24.434165 25.212754 -1.502908 2.892430 -0.014726 -0.005526 -223438.000000 0 0 1
0.935943 6.594756 -24.434465 25.326071 1.429816 2.875459 0.024658 0.015289 184261.000000 0 0 1
1.733943 5.839456 -23.522765 24.298689 1.282153 2.888199 0.029064 0.025684 -8679.050000 0 1 0
1.754543 6.368656 -22.070465 23.037874 1.301969 2.850769 0.031231 0.010302 139251.000000 0 1 0
2.540643 7.583556 -21.942765 23.354874 1.247529 2.792072 0.040537 -0.005063 511040.000000 0 1 0
2.299543 8.106156 -20.647365 22.300479 1.294380 2.754130 0.047348 -0.009865 -297554.000000 0 1 0
3.040243 9.386156 -20.477765 22.730637 1.257553 2.692608 0.047384 -0.021796 -698056.000000 0 1 0
2.608643 10.228056 -19.417965 22.101482 1.321073 2.643681 0.054831 -0.024070 15.547200 0 1 0
3.255643 11.477156 -19.454365 22.820969 1.294394 2.591503 0.056684 -0.030641 217914.000000 0 1 0
4.581743 11.602856 -18.655665 22.442203 1.194711 2.552196 0.072270 -0.036700 677540.000000 0 1 0
5.679243 10.819156 -19.112765 22.684923 1.087408 2.572762 0.077162 -0.035614 621164.000000 0 1 0
6.720043 10.678556 -18.132965 22.090608 1.009109 2.533685 0.080100 -0.030509 236238.000000 0 1 0
7.897643 9.841456 -18.624765 22.496864 0.894541 2.546119 0.118971 -0.036115 -281467.000000 0 1 0
7.641643 8.440456 -18.695465 21.889642 0.835028 2.594572 0.107473 -0.032107 73411.900000 0 1 0
7.112643 8.039356 -19.930865 22.637586 0.846483 2.647570 0.088675 -0.021694 -56069.000000 0 1 0
6.817143 6.578056 -20.191565 22.303443 0.767551 2.702909 0.085816 -0.015683 286952.000000 0 1 0
7.955943 5.751656 -20.480565 22.711938 0.625956 2.694605 0.088920 -0.006484 471174.000000 0 1 0
7.655643 4.438356 -20.895565 22.692124 0.525396 2.740997 0.074270 0.000344 -186246.000000 0 1 0
7.450843 4.146956 -22.379765 23.949242 0.507878 2.777554 0.095379 -0.013366 86843.000000 0 1 0
6.423143 4.890156 -23.027365 24.401433 0.650715 2.804406 0.093084 -0.007083 38135.100000 0 1 0
6.353243 4.643656 -24.435565 25.671464 0.631172 2.830034 0.091335 -0.012245 -840498.000000 0 0 1
5.189143 5.279556 -25.153055 26.219784 0.794034 2.855365 0.068861 -0.013046 -705295.000000 0 0 1
5.261643 6.718356 -25.262775 26.665127 0.906400 2.815836 0.087156 -0.030226 151053.000000 0 0 1
4.987643 7.423756 -24.000765 25.612994 0.979215 2.784893 0.089966 -0.032795 -1241160.000000 0 0 1
5.064343 8.955856 -24.102865 26.206927 1.056147 2.738146 0.093322 -0.039346 339543.000000 0 0 1
4.081243 9.611656 -24.908265 27.008557 1.169253 2.744621 0.087794 -0.040526 638127.000000 0 0 1
2.749843 9.529556 -24.404565 26.343061 1.289868 2.755569 0.076478 -0.038690 -562818.000000 0 0 1
1.724243 10.079556 -25.372425 27.355629 1.401373 2.758473 0.073458 -0.022559 -590529.000000 0 0 1
1.775443 11.483956 -25.605025 28.118513 1.417409 2.715556 0.094481 -0.050376 -394425.000000 0 0 1
0.778343 11.938756 -26.495865 29.071818 1.505694 2.717454 0.096942 -0.045968 -605928.000000 0 0 1
0.540343 13.448556 -26.533945 29.752409 1.530639 2.672160 0.083783 -0.053561 -587296.000000 0 0 1
-0.077557 13.883256 -25.361455 28.912873 -1.565210 2.640729 0.077718 -0.047397 -13107.600000 0 0 1
-0.240957 15.302156 -25.467685 29.712237 -1.555051 2.600497 0.070511 -0.054866 -42549.400000 0 0 1
-0.885157 15.823856 -24.158365 28.892984 -1.514916 2.560991 0.079294 -0.045214 1570190.000000 0 0 1
-2.225357 15.312156 -23.854565 28.433336 -1.426474 2.566174 0.073593 -0.040888 1032030.000000 0 0 1
-2.548057 15.626156 -22.501465 27.513365 -1.409155 2.528440 0.076864 -0.049809 -637341.000000 0 0 1
-3.871057 15.009556 -21.981265 26.896986 -1.318391 2.527400 0.072965 -0.039642 -209982.000000 0 0 1
-5.109957 15.307256 -22.533365 27.715993 -1.248603 2.520099 0.082463 -0.042158 -411548.000000 0 0 1
-5.197657 15.047156 -23.900565 28.717060 -1.238203 2.554000 0.066127 -0.043165 -1419490.000000 0 0 1
-6.675957 15.096056 -24.322065 29.394254 -1.154421 2.545335 0.051396 -0.041983 -77900.100000 0 0 1
-7.150057 16.311356 -24.833065 30.559201 -1.157674 2.519433 0.053819 -0.045424 -660355.000000 0 0 1
-8.518957 16.182656 -25.065565 31.027948 -1.086233 2.511272 0.060323 -0.039207 -535673.000000 0 0 1
-9.310157 17.463056 -25.432955 32.225340 -1.080994 2.480338 0.062468 -0.039321 -39662.700000 0 0 1
-9.563657 18.425956 -24.386965 32.026605 -1.092039 2.436358 0.068291 -0.037405 -223166.000000 0 0 1
-10.667657 19.213356 -24.716465 33.073488 -1.063954 2.414815 0.073560 -0.032294 -162031.000000 0 0 1
-11.367857 19.985056 -23.590565 32.941545 -1.053620 2.369044 0.069676 -0.035030 349600.000000 0 0 1
-10.693957 21.183056 -23.158365 33.157088 -1.103288 2.344017 0.079325 -0.035130 623745.000000 0 0 1
-11.354057 22.321756 -23.787065 34.539830 -1.100249 2.330470 0.081808 -0.038954 396596.000000 0 0 1
-10.875757 22.861756 -25.187955 35.712394 -1.126762 2.353643 0.073080 -0.025058 -435598.000000 0 0 1
-11.387057 22.048056 -26.228925 36.107317 -1.094063 2.383889 0.072271 -0.031396 74096.900000 0 0 1
-11.154557 22.597656 -27.528105 37.321238 -1.112269 2.400304 0.066873 -0.023842 -427433.000000 0 0 1
-11.721857 21.806656 -28.705435 37.906915 -1.077573 2.429906 0.056391 -0.027758 -401525.000000 0 0 1
-10.967657 20.758256 -29.229565 37.490828 -1.084726 2.464896 0.036984 -0.032541 -411186.000000 0 0 1
-10.765657 19.659156 -28.335255 36.128499 -1.069786 2.472349 0.041865 -0.027692 -366552.000000 0 0 1
-9.676857 18.739656 -28.881435 35.762460 -1.094128 2.510852 0.034713 -0.031652 -1152060.000000 0 0 1
-8.428457 19.405356 -28.904315 35.819913 -1.161044 2.509739 0.032505 -0.032283 -148761.000000 0 0 1
-7.383257 18.674656 -29.533485 35.713891 -1.194294 2.544452 0.039241 -0.032516 325671.000000 0 0 1
-7.001757 17.240156 -28.936765 34.403255 -1.185016 2.570120 0.045800 -0.041017 -844607.000000 0 0 1
-8.031257 16.275256 -29.178995 34.362753 -1.112391 2.585163 0.047287 -0.036502 420600.000000 0 0 1
-7.797157 15.129356 -28.325435 33.045777 -1.094932 2.600522 0.040171 -0.040009 -603540.000000 0 0 1
-9.037757 14.254356 -28.215715 32.878478 -1.005726 2.602514 0.055094 -0.022587 -687165.000000 0 0 1
-10.043457 14.974956 -27.562115 32.936158 -0.980018 2.562272 0.064107 -0.024813 128451.000000 0 0 1
-11.248857 14.188156 -27.466575 32.897619 -0.900440 2.558767 0.110383 -0.019734 674588.000000 0 0 1
-12.190757 14.603456 -26.331325 32.484060 -0.875201 2.515959 0.115391 -0.021959 -393651.000000 0 0 1
-12.836657 15.817056 -26.578855 33.487230 -0.889040 2.487666 0.095613 -0.029188 -587235.000000 0 0 1
-13.568757 16.097856 -25.406225 32.995885 -0.870443 2.449609 0.129576 -0.029982 196343.000000 0 0 1
-14.690757 17.135156 -25.645905 34.163495 -0.862053 2.419889 0.115807 -0.028886 2804.950000 0 0 1
-14.174357 18.350256 -26.105325 34.916075 -0.913092 2.415327 0.102203 -0.030426 -78596.300000 0 0 1
-15.182557 19.322156 -26.176005 35.903189 -0.904799 2.387761 0.107609 -0.025838 37537.200000 0 0 1
-14.563957 20.715756 -26.497765 36.652189 -0.958035 2.378862 0.087825 -0.028916 230229.000000 0 0 1
-15.554357 21.730656 -26.702475 37.778057 -0.949558 2.355796 0.079655 -0.016825 135494.000000 0 0 1
-15.112257 23.026456 -26.808585 38.435637 -0.990005 2.342689 0.070500 -0.018367 -328598.000000 0 0 1
-14.822957 23.795856 -25.495605 37.894442 -1.013693 2.308791 0.062322 -0.022719 55973.200000 0 0 1
-14.491957 25.107556 -25.707695 38.746507 -1.047314 2.296262 0.068864 -0.029473 -71682.600000 0 0 1
-13.997557 25.764756 -24.551965 38.243343 -1.073125 2.267891 0.079862 -0.036200 17627.800000 0 0 1
-13.657757 27.228056 -24.787765 39.272569 -1.105865 2.253860 0.105776 -0.031582 -136511.000000 0 0 1
-14.783357 28.022856 -25.024765 40.374088 -1.085355 2.239313 0.118393 -0.036703 -311752.000000 0 0 1
-15.344257 28.621656 -23.861365 40.299009 -1.078682 2.204468 0.126323 -0.037063 -139103.000000 0 0 1
-16.574257 29.508656 -24.156665 41.581381 -1.059034 2.190691 0.111503 -0.043679 -3898.920000 0 0 1
-17.710057 28.750756 -24.453865 41.692249 -1.018705 2.197567 0.092468 -0.036307 -892390.000000 0 0 1
-18.897957 29.492956 -24.489365 42.739867 -1.000943 2.180942 0.088132 -0.036657 -309342.000000 0 0 1
-20.027857 28.646856 -25.082185 43.021779 -0.960655 2.193227 0.087722 -0.004804 -282855.000000 0 0 1
-20.677157 27.821656 -24.129265 42.235184 -0.931659 2.178894 0.079725 -0.010140 -322779.000000 0 0 1
-21.707657 27.035156 -24.664565 42.549534 -0.894264 2.189116 0.067205 -0.022325 -163063.000000 0 0 1
-22.437457 26.298856 -23.498865 41.800311 -0.864463 2.167803 0.058494 -0.023728 -223724.000000 0 0 1
-23.188657 27.146256 -22.639565 42.275087 -0.863862 2.135931 0.072002 -0.018733 -58315.400000 0 0 1
-23.350457 26.496156 -21.353465 41.270578 -0.848422 2.114608 0.061842 -0.015057 100071.000000 0 0 1
-24.427657 27.330056 -20.567665 42.031789 -0.841416 2.082124 0.046133 -0.008729 138128.000000 0 0 1
-25.736247 27.229956 -21.043965 42.972938 -0.813592 2.082545 0.091088 -0.023345 -99107.500000 0 0 1
-26.638397 28.251956 -20.589365 43.951100 -0.814786 2.058344 0.090782 -0.023125 -56819.900000 0 0 1
-28.088577 27.840356 -20.789165 44.679335 -0.780960 2.054767 0.103594 -0.024276 -753968.000000 0 0 1
-28.385717 27.671056 -22.131065 45.400664 -0.772650 2.079976 0.104719 -0.027155 -347618.000000 0 0 1
-29.757417 27.380456 -22.241765 46.150724 -0.743822 2.073661 0.107820 -0.014515 -119686.000000 0 0 1
-30.243397 26.977656 -23.626965 46.911518 -0.728388 2.098614 0.102817 -0.014622 29702.700000 0 0 1
-29.987537 25.622056 -23.928665 46.133753 -0.707057 2.116103 0.108627 -0.000668 1928.800000 0 0 1
-30.547667 25.274056 -25.176245 46.965745 -0.691205 2.136554 0.091070 0.002539 115817.000000 0 0 1
-30.793917 23.770656 -25.309995 46.410185 -0.657387 2.147608 0.080005 0.006912 38274.400000 0 0 1
-29.602477 23.003056 -25.385235 45.275351 -0.660599 2.166010 0.112094 -0.013805 -95454.600000 0 0 1
-29.698187 21.770256 -26.094085 45.131227 -0.632565 2.187296 0.094448 -0.002784 -75115.800000 0 0 1
-28.509477 20.773856 -26.030565 43.839864 -0.629706 2.206526 0.103372 -0.006748 20242.000000 0 0 1
-28.193477 20.353256 -24.778765 42.697944 -0.625282 2.189926 0.094179 -0.002259 143234.000000 0 0 1
-27.505187 19.085656 -24.709365 41.609498 -0.606616 2.206619 0.084703 -0.007550 451741.000000 0 0 1
-28.449377 17.829856 -24.759365 41.716867 -0.559837 2.206209 0.077361 -0.006910 69098.900000 0 0 1
-29.157557 17.568656 -25.930595 42.792716 -0.542287 2.221766 0.080308 -0.008346 -89486.000000 0 0 1
-29.581327 16.248156 -25.917385 42.553124 -0.502283 2.225671 0.059579 -0.002128 -174283.000000 0 0 1
-30.469187 15.834856 -27.115625 43.753527 -0.479284 2.239202 0.040676 -0.002464 11728.700000 0 0 1
-31.720347 16.488256 -27.164725 44.899502 -0.479362 2.220577 0.027126 0.002063 -76628.000000 0 0 1
-32.413897 15.943856 -28.285605 45.879655 -0.457133 2.235108 0.023785 0.002641 322070.000000 0 0 1
-33.744927 16.680256 -28.623705 47.289191 -0.459081 2.220927 0.012768 0.002058 470546.000000 0 0 1
-34.852508 16.372256 -27.802915 47.494738 -0.439163 2.196157 0.004995 0.009839 119581.000000 0 0 1
-36.075077 16.869556 -28.308205 48.860491 -0.437413 2.188749 0.015415 0.003216 274904.000000 0 0 1
-37.289897 16.516956 -27.426465 49.148319 -0.416962 2.162812 0.021172 0.002629 -54711.100000 0 0 1
-37.658117 17.555956 -26.569755 49.318326 -0.436238 2.139737 0.048485 -0.007778 122107.000000 0 0 1
36.632228 17.119156 -25.742495 47.933931 0.437168 2.137722 0.060782 -0.011422 203943.000000 0 0 1
36.007398 18.151356 -24.774665 47.326404 0.466923 2.121732 0.070714 -0.004476 29191.800000 0 0 1
35.222978 19.151356 -25.383065 47.452425 0.498007 2.135205 0.072804 -0.025769 276841.000000 0 0 1
34.531458 19.931556 -24.406465 46.747878 0.523486 2.120093 0.089683 -0.020016 183880.000000 0 0 1
33.746638 21.122356 -25.007465 47.014496 0.559253 2.131650 0.104697 -0.037406 188485.000000 0 0 1
32.541248 20.817256 -25.662045 46.377058 0.569114 2.157159 0.114848 -0.045596 -227380.000000 0 0 1
31.455388 21.601056 -25.209485 45.733633 0.601758 2.154627 0.123986 -0.035174 421916.000000 0 0 1
30.154058 21.359456 -26.035365 45.203250 0.616304 2.184577 0.096145 -0.037706 270579.000000 0 0 1
29.592258 20.106056 -25.790775 44.103507 0.596791 2.195403 0.117185 -0.053175 -631529.000000 0 0 1
28.550558 19.877656 -26.696725 43.851690 0.608189 2.225338 0.125503 -0.060310 -484354.000000 0 0 1
28.251258 18.324456 -26.879925 43.086537 0.575408 2.244467 0.142066 -0.045719 -589161.000000 0 0 1
29.201358 17.436056 -27.363335 43.651890 0.538283 2.248304 0.132457 -0.053537 -1156870.000000 0 0 1
30.064358 16.963456 -26.404605 43.460645 0.513709 2.223771 0.127394 -0.041463 -759227.000000 0 0 1
31.370188 16.420856 -27.015275 44.537156 0.482234 2.222546 0.098503 -0.027544 -340845.000000 0 0 1
31.327518 15.304356 -27.928115 44.672322 0.454428 2.246155 0.114614 -0.041501 -50449.200000 0 0 1
30.849038 14.062956 -27.441475 43.617249 0.427719 2.251246 0.113213 -0.034889 -220448.000000 0 0 1
31.427678 13.581656 -26.094095 43.047208 0.407916 2.222037 0.092795 -0.025000 -151517.000000 0 0 1
30.950878 14.313656 -24.972665 42.266673 0.433170 2.202891 0.102414 -0.028718 117052.000000 0 0 1
31.301018 13.718256 -23.724465 41.602819 0.413055 2.177620 0.072314 -0.016729 -356312.000000 0 0 1
-15.178457 -30.777490 -23.061965 41.346024 1.112630 2.162504 0.115437 -0.014243 -133842.000000 0 0 1
-14.744457 -29.672590 -23.781465 40.785043 1.109628 2.193327 0.096939 -0.029086 12916.800000 0 0 1
-15.135557 -29.701590 -25.136795 41.750785 1.099508 2.216884 0.065839 -0.017744 -155240.000000 0 0 1
-14.570257 -28.497690 -25.928265 41.190844 1.098167 2.251663 0.089641 -0.025033 -176719.000000 0 0 1
-15.150357 -27.263390 -25.562215 40.326822 1.063585 2.257351 0.089674 -0.014381 -9627.460000 0 0 1
-14.587957 -26.232490 -26.369535 39.953778 1.063280 2.291616 0.091694 -0.016110 -314356.000000 0 0 1
-15.089357 -24.811790 -25.985245 38.968533 1.024404 2.300738 0.028088 -0.009309 84461.400000 0 0 1
-14.460757 -24.405690 -24.781465 37.667920 1.035898 2.288814 0.088737 -0.027264 262503.000000 0 0 1
-15.029957 -23.172090 -24.350365 36.820995 0.995390 2.293370 0.036988 -0.027653 -90462.900000 0 0 1
-14.468057 -22.635790 -23.042365 35.392856 1.002074 2.279758 0.092887 -0.018630 -1162020.000000 0 0 1
-13.156057 -22.253390 -23.136565 34.692879 1.036877 2.300833 0.154622 -0.035389 -1277110.000000 0 0 1
-12.674457 -21.679890 -21.912065 33.328638 1.041764 2.288232 0.129686 -0.027235 357380.000000 0 0 1
-11.149757 -21.424990 -21.900765 32.603540 1.090955 2.307338 0.165630 -0.037257 201821.000000 0 0 1
-10.634557 -20.357090 -22.737265 32.318542 1.089389 2.351158 0.206856 -0.046805 92406.000000 0 0 1
-9.225157 -20.266890 -22.676265 31.781494 1.143640 2.365285 0.252902 -0.048463 137838.000000 0 0 1
-8.790757 -19.175890 -23.676965 31.711052 1.140956 2.413804 0.292140 -0.047872 -426455.000000 0 0 1
-9.322857 -17.970790 -23.242165 30.823095 1.092239 2.425003 0.208293 -0.043269 -187768.000000 0 0 1
-9.143157 -16.813690 -24.064965 30.747684 1.072731 2.469723 0.200814 -0.041784 -792558.000000 0 0 1
-7.730657 -16.374690 -24.386465 30.374220 1.129708 2.502886 0.223271 -0.049015 -657025.000000 0 0 1
-7.222657 -16.856790 -25.602865 31.493251 1.165989 2.520020 0.230084 -0.053357 -138204.000000 0 0 1
-6.014657 -16.231590 -26.003335 31.238023 1.215930 2.554267 0.211999 -0.052518 68929.300000 0 0 1
-5.534357 -16.965090 -27.277015 32.595689 1.255461 2.562261 0.207493 -0.039571 -242712.000000 0 0 1
-6.281057 -16.609690 -28.401525 33.495972 1.209261 2.582824 0.226946 -0.047018 -276445.000000 0 0 1
-6.056657 -17.437190 -29.492015 34.792494 1.236492 2.582345 0.224524 -0.051847 -85283.800000 0 0 1
-6.616557 -16.955890 -30.851725 35.820525 1.198748 2.608592 0.211488 -0.049739 117758.000000 0 0 1
-5.953157 -15.908190 -31.557775 35.838579 1.212710 2.647824 0.185817 -0.047349 -171704.000000 0 0 1
-6.145157 -14.602890 -31.024465 34.835683 1.172473 2.669447 0.168426 -0.046743 -227114.000000 0 0 1
-7.273857 -13.869590 -31.772715 35.422873 1.087783 2.683629 0.148885 -0.050530 151585.000000 0 0 1
-6.836057 -13.558190 -33.090985 36.408371 1.103793 2.711397 0.147939 -0.060256 45370.400000 0 0 1
-7.838657 -12.929790 33.785685 37.014815 1.025795 0.420803 0.129520 -0.050326 -18813.100000 0 0 1
-8.233857 -11.473490 -33.496105 36.351430 0.948328 2.742598 0.091854 -0.045254 353052.000000 0 0 1
-7.116657 -10.572490 -33.502785 35.844957 0.978333 2.778093 0.075227 -0.043649 142473.000000 0 0 1
-6.758457 -10.080790 32.878687 35.047213 0.980193 0.353619 0.068310 -0.044402 -769372.000000 0 0 1
-5.569557 -9.172290 32.969042 34.671438 1.025088 0.314668 0.092235 -0.040944 -694152.000000 0 0 1
-5.459657 -8.418990 31.753462 33.301195 0.995481 0.306076 0.078924 -0.032624 -239318.000000 0 0 1
-4.334157 -7.582690 31.742064 32.921736 1.051532 0.268510 0.082715 -0.037391 -705175.000000 0 0 1
-4.475457 -6.508590 30.602435 31.605387 0.968425 0.252598 0.075626 -0.030102 -170383.000000 0 0 1
-5.474257 -5.561390 30.754845 31.729435 0.793294 0.248492 0.055832 -0.023401 161052.000000 0 0 1
-6.762257 -6.034290 30.332075 31.657156 0.728572 0.290353 0.070016 -0.019082 851886.000000 0 0 1
-8.005557 -5.069390 30.384765 31.828000 0.564498 0.302297 0.058969 -0.023614 920063.000000 0 0 1
-9.153757 -5.826890 30.005435 31.907210 0.566867 0.347001 0.064055 -0.020912 99034.000000 0 0 1
-10.283557 -4.965590 29.864735 31.973599 0.449847 0.365225 0.060589 -0.020153 464998.000000 0 0 1
-11.397657 -5.691090 29.056885 31.726923 0.463104 0.413194 0.067581 -0.017613 -27924.600000 0 0 1
-10.989757 -5.658190 27.694575 30.327864 0.475465 0.419795 0.070712 -0.017671 768597.000000 0 0 1
-11.913257 -6.256990 26.769475 29.961315 0.483613 0.465788 0.079410 -0.016792 132304.000000 0 0 1
-11.499857 -6.080290 25.337575 28.481737 0.486365 0.474311 0.068592 -0.014966 346013.000000 0 0 1
-10.399257 -6.914090 24.927945 27.881026 0.586753 0.464417 0.066040 -0.005610 777072.000000 0 0 1
-9.660657 -6.393590 23.826835 26.493855 0.584638 0.452551 0.063569 -0.010372 44393.200000 0 0 1
-10.340257 -6.471190 22.417825 25.521679 0.559192 0.498327 0.069419 -0.011486 6969.760000 0 0 1
-11.453557 -5.606390 22.332825 25.717127 0.455203 0.518824 0.063029 -0.015214 -388305.000000 0 0 1
-12.348857 -5.981290 21.339225 25.369916 0.451057 0.571440 0.073115 -0.011137 -864922.000000 0 0 1
-13.531057 -5.033790 21.312825 25.742281 0.356153 0.595388 0.078364 -0.007214 -855067.000000 0 0 1
-13.249057 -3.735590 20.879625 25.009016 0.274817 0.582875 0.075225 -0.010371 -444956.000000 0 0 1
-14.242457 -2.822790 21.213325 25.706436 0.195660 0.600214 0.081868 -0.009690 -172936.000000 0 0 1
-13.903957 -1.330290 20.811025 25.063688 0.095387 0.591104 0.061388 -0.009101 936242.000000 0 0 1
-12.719357 -0.717290 21.397925 24.903167 0.056334 0.537004 0.060483 -0.015160 834021.000000 0 1 0
-12.601957 0.635710 21.068725 24.558188 -0.050403 0.539608 0.062152 -0.019575 -305258.000000 0 1 0
-12.276957 1.104710 19.590825 23.146155 -0.089741 0.561614 0.048415 -0.024488 -528551.000000 0 1 0
-13.123457 0.775710 18.528525 22.718563 -0.059040 0.617087 0.063823 -0.023576 145422.000000 0 1 0
-14.357557 1.502710 18.513525 23.476545 -0.104284 0.662273 0.076695 -0.020998 371208.000000 0 1 0
-15.488157 0.884710 17.682725 23.523275 -0.057060 0.720142 0.082703 -0.015597 -160594.000000 0 1 0
-15.813957 -0.386290 18.220425 24.129118 0.024422 0.714956 0.081571 -0.016904 288993.000000 0 1 0
-16.847357 -1.060290 17.522025 24.330619 0.062852 0.766758 0.088301 -0.018046 144883.000000 0 1 0
-16.983157 -2.581290 17.832325 24.760503 0.150837 0.766717 0.083861 -0.011247 -97394.800000 0 1 0
-17.658257 -2.881790 19.016825 26.110503 0.161772 0.754928 0.104287 -0.018462 -130051.000000 0 0 1
-17.720557 -4.283290 19.258925 26.519255 0.237164 0.757983 0.115575 -0.016391 -184524.000000 0 0 1
-18.556557 -4.446490 20.535925 28.032861 0.235184 0.748712 0.111311 -0.011876 -136359.000000 0 0 1
-18.003757 -3.984290 21.769825 28.529548 0.217793 0.702758 0.109082 -0.011123 327502.000000 0 0 1
-18.755157 -4.470190 22.906775 29.940923 0.233979 0.699653 0.098845 -0.015443 -93626.900000 0 0 1
-18.649657 -6.015090 23.233885 30.394151 0.311997 0.700656 0.105383 -0.010825 -67442.800000 0 0 1
-17.462957 -6.422690 23.876715 30.270503 0.352434 0.661977 0.058199 -0.016873 335623.000000 0 0 1
-16.377157 -6.725090 23.019685 29.040386 0.389644 0.655606 0.083258 -0.014423 -221388.000000 0 0 1
-15.233257 -7.515190 23.667945 29.132487 0.458306 0.622498 0.098806 -0.011185 -254818.000000 0 0 1
-15.647557 -8.793190 24.066315 30.022554 0.511974 0.640817 0.080310 -0.017395 115249.000000 0 0 1
-15.330757 -9.026790 25.387655 31.000775 0.532145 0.611242 0.084426 -0.007768 323997.000000 0 0 1
-16.403957 -9.939790 26.090135 32.381852 0.544775 0.633936 0.057580 -0.009306 -82071.400000 0 0 1
-16.260157 -11.339090 25.867725 32.589981 0.608948 0.653875 0.062913 -0.021806 249473.000000 0 0 1
-15.257557 -11.924790 26.698705 32.982033 0.663399 0.627509 0.064804 -0.018453 233579.000000 0 0 1
-15.293357 -13.446990 26.531425 33.445849 0.721243 0.654643 0.061225 -0.028759 -60545.100000 0 0 1
-16.433957 -13.957390 27.202365 34.710983 0.704089 0.670225 0.060305 -0.036742 160249.000000 0 0 1
-16.684257 -15.388690 27.188265 35.417199 0.745026 0.695619 0.081056 -0.025982 -23973.900000 0 0 1
-15.684857 -16.267190 27.983145 35.967939 0.803621 0.679316 0.083020 -0.031246 84229.500000 0 0 1
-14.424357 -16.355090 27.361305 34.988456 0.848044 0.672913 0.090244 -0.033116 -264271.000000 0 0 1
-13.446657 -17.005290 28.133895 35.517721 0.901731 0.656540 0.111120 -0.034385 -271604.000000 0 0 1
-12.202857 -17.186890 27.248995 34.450060 0.953384 0.658402 0.115421 -0.042555 58064.800000 0 0 1
-11.085257 -17.740290 27.951635 34.912672 1.012295 0.642474 0.144340 -0.049618 -465739.000000 0 0 1
-10.104257 -18.192690 27.102175 34.170131 1.063815 0.654826 0.134262 -0.048083 -1415540.000000 0 0 1
-9.081957 -18.810990 28.001035 34.934127 1.121003 0.640933 0.158048 -0.053713 -891276.000000 0 0 1
-9.408257 -20.067890 28.543555 36.138207 1.132401 0.660241 0.154588 -0.048117 162034.000000 0 0 1
-8.286057 -20.553490 29.239295 36.688432 1.187581 0.648547 0.174658 -0.048576 226866.000000 0 0 1
-8.687257 -21.806090 29.977765 38.074143 1.191681 0.664294 0.132876 -0.039691 140592.000000 0 0 1
-8.644157 -22.970490 29.196875 38.142134 1.210873 0.699016 0.147012 -0.043301 75513.600000 0 0 1
-9.019257 -24.090190 29.948585 39.479133 1.212556 0.709646 0.115670 -0.041362 -181414.000000 0 0 1
-8.990757 -25.381190 29.093265 39.641602 1.230359 0.746740 0.122467 -0.037855 291249.000000 0 0 1
-10.216057 -25.570290 28.362895 39.530512 1.190697 0.770599 0.117784 -0.042496 665114.000000 0 0 1
-10.262857 -26.768390 27.611425 39.802810 1.204686 0.804175 0.104408 -0.044867 -967934.000000 0 0 1
-11.632957 -26.992190 26.992715 39.906273 1.163876 0.827929 0.098467 -0.039926 -625231.000000 0 0 1
-11.969657 -26.274690 25.826835 38.738320 1.143330 0.841024 0.115975 -0.051592 251495.000000 0 0 1
-12.268757 -24.926090 26.029735 38.070717 1.113404 0.817947 0.108532 -0.045815 -673628.000000 0 0 1
-12.326357 -24.083790 24.758545 36.673609 1.097744 0.829689 0.125697 -0.059428 621793.000000 0 0 1
-13.569457 -24.296090 24.067095 36.792054 1.061448 0.857753 0.111878 -0.052155 1063670.000000 0 0 1
-13.422157 -23.814390 22.753535 35.566878 1.057560 0.876637 0.122893 -0.054623 477933.000000 0 0 1
-14.784257 -23.939890 22.005725 35.720366 1.017567 0.907071 0.115472 -0.048681 358568.000000 0 0 1
-15.192457 -25.237090 21.654825 36.560264 1.028915 0.936880 0.111802 -0.057578 194749.000000 0 0 1
-16.290657 -25.199090 20.764425 36.490286 0.996901 0.965459 0.112016 -0.050025 -118683.000000 0 0 1
-16.723157 -26.627090 20.287625 37.419963 1.010006 0.997790 0.111731 -0.043649 -185101.000000 0 0 1
-16.037557 -27.142990 19.200125 36.913276 1.037129 1.023780 0.101645 -0.039937 15576.200000 0 0 1
-16.495557 -28.473390 18.847425 37.921798 1.045712 1.050649 0.103175 -0.039740 209841.000000 0 0 1
-15.604657 -29.087590 17.742425 37.475150 1.078399 1.077598 0.106805 -0.040671 -39948.600000 0 0 1
-15.861857 -28.501890 16.473725 36.542302 1.062962 1.103121 0.092446 -0.033741 449580.000000 0 0 1
-14.903957 -28.953890 15.499025 36.064878 1.095420 1.126576 0.088455 -0.032789 488254.000000 0 0 1
-15.112957 -28.311590 14.059825 35.037498 1.080469 1.157883 0.071961 -0.024990 -276658.000000 0 0 1
-14.693057 -26.966490 13.969525 33.737592 1.071905 1.143882 0.071259 -0.022672 -121765.000000 0 0 1
-14.860057 -26.308590 12.722125 32.784381 1.056634 1.172277 0.071006 -0.029617 113895.000000 0 0 1
-13.914657 -26.694490 11.550525 32.243265 1.090289 1.204424 0.072170 -0.018383 225070.000000 0 0 1
-14.237257 -25.934590 10.435825 31.372104 1.068746 1.231688 0.057228 -0.021544 120436.000000 0 0 1
-13.452457 -26.482290 9.386625 31.151068 1.100786 1.264713 0.073501 -0.018013 179769.000000 0 0 1
-13.806557 -25.876290 8.039725 30.411192 1.080662 1.303249 0.070492 -0.020974 -162412.000000 0 0 1
-15.025957 -26.326290 7.517725 31.230900 1.052155 1.327695 0.071769 -0.032343 -291957.000000 0 0 1
-15.309957 -25.582590 6.324125 30.477176 1.031516 1.361774 0.076368 -0.026842 -61581.500000 0 0 1
-16.295557 -26.344890 5.399825 31.444499 1.016851 1.398215 0.078018 -0.035911 -240850.000000 0 0 1
-15.844357 -27.440290 4.633225 32.023116 1.047151 1.425603 0.104963 -0.033655 -15274.800000 0 0 1
-16.674357 -27.768890 3.527325 32.582011 1.030032 1.462324 0.114942 -0.028939 92884.500000 0 0 1
-16.063057 -29.035290 2.765125 33.297384 1.065480 1.487657 0.112421 -0.034365 1989040.000000 0 0 1
-14.723757 -28.751490 2.223225 32.378696 1.097512 1.502079 0.112633 -0.027522 1537540.000000 0 0 1
-14.093557 -29.825490 1.564225 33.024764 1.129362 1.523413 0.105096 -0.028951 -270257.000000 0 0 1
-12.720657 -29.352490 1.079125 32.008566 1.161853 1.537076 0.094588 -0.027577 -391608.000000 0 0 1
-12.573057 -28.650790 -0.169675 31.288629 1.157263 1.576219 0.088493 -0.017756 80067.200000 0 0 1
-12.674757 -27.200390 -0.055275 30.008561 1.134736 1.572638 0.080275 -0.021027 -234382.000000 0 0 1
-12.554757 -26.481890 -1.399075 29.340584 1.128092 1.618498 0.067980 -0.017526 -598040.000000 0 0 1
-11.231757 -26.496490 -1.820475 28.836270 1.169861 1.633970 0.082884 -0.024276 -945323.000000 0 0 1
-10.849657 -25.657190 -2.849775 28.002280 1.170731 1.672742 0.097368 -0.030906 -228798.000000 0 0 1
-9.480957 -26.030290 -3.402075 27.911264 1.221503 1.692989 0.088387 -0.029281 -280361.000000 0 0 1
-9.030957 -25.195690 -4.500575 27.141042 1.226629 1.737388 0.092123 -0.039244 137506.000000 0 0 1
-7.808657 -25.687590 -5.029475 27.315253 1.275687 1.755980 0.117688 -0.028883 208722.000000 0 0 1
-6.922957 -24.736090 -5.810775 26.335653 1.297906 1.793270 0.094748 -0.027601 -50946.600000 0 0 1
-7.331357 -24.539390 -7.112975 26.580536 1.280479 1.841699 0.101289 -0.027871 84589.300000 0 0 1
-6.396257 -23.617190 -7.681475 25.645445 1.306311 1.874992 0.093506 -0.021963 116782.000000 0 0 1
-6.455057 -23.484990 -9.191675 26.032661 1.302561 1.931660 0.093326 -0.017748 24162.900000 0 0 1
-5.846957 -24.569990 -9.900675 27.127379 1.337170 1.944397 0.072067 -0.018115 -191529.000000 0 0 1
-6.021957 -24.484190 -11.296175 27.628665 1.329630 1.991998 0.050706 0.004789 -186238.000000 0 0 1
-7.386657 -24.867290 -11.878975 28.531647 1.282054 2.000217 0.058453 -0.002932 -174800.000000 0 0 1
-7.337757 -25.008590 -13.292675 29.256922 1.285397 2.042431 0.080500 -0.004252 136042.000000 0 0 1
-8.625357 -25.238590 -13.841675 30.049546 1.241488 2.049499 0.105963 -0.010836 -361815.000000 0 0 1
-8.757757 -24.883290 -15.333775 30.512311 1.232382 2.097335 0.108605 -0.015520 -242263.000000 0 0 1
-7.961957 -25.522990 -16.250375 31.287226 1.268410 2.116937 0.106750 -0.027374 143224.000000 0 0 1
-6.552257 -25.397990 -16.162375 30.809290 1.318318 2.123035 0.096638 -0.019417 -41956.400000 0 0 1
-5.711657 -26.285090 -17.099875 31.873731 1.356826 2.137066 0.090214 -0.011497 -146850.000000 0 0 1
-5.711857 -25.921990 -18.442575 32.321873 1.353914 2.178022 0.146434 -0.017412 507030.000000 0 0 1
-4.643157 -26.539690 -19.146575 33.053070 1.397598 2.188626 0.120685 -0.019838 168673.000000 0 0 1
-26.331257 14.393456 -5.120665 30.442206 -0.500252 1.739809 0.158058 -0.050388 -403152.000000 0 0 1
-25.956307 13.166856 -4.554565 29.459125 -0.469447 1.726025 0.155481 -0.045211 306563.000000 0 0 1
-24.583357 12.977656 -4.855665 28.219470 -0.485721 1.743725 0.163712 -0.040657 101700.000000 0 0 1
-23.970357 11.598056 -4.400165 26.989894 -0.450644 1.734557 0.162836 -0.042543 -100804.000000 0 0 1
-24.330857 10.468056 -5.154865 26.984133 -0.406299 1.763011 0.151118 -0.028947 70333.700000 0 0 1
-25.678857 10.102656 -4.946765 28.034583 -0.374824 1.748177 0.185316 -0.040381 -176503.000000 0 0 1
-26.321017 9.292056 -6.096065 28.570969 -0.339370 1.785815 0.185181 -0.033275 -92833.300000 0 0 1
-26.453267 10.187356 -7.217265 29.251436 -0.367603 1.820103 0.213273 -0.037926 128125.000000 0 0 1
-26.839377 9.471756 -8.378765 29.669345 -0.339261 1.857096 0.212358 -0.038392 -41556.400000 0 0 1
-27.394857 10.389856 -9.495965 30.799361 -0.362503 1.884220 0.199504 -0.039935 140936.000000 0 0 1
-26.383487 11.127856 -10.180065 30.389987 -0.399135 1.912381 0.197120 -0.045517 447351.000000 0 0 1
-26.835877 11.732356 -11.382865 31.422637 -0.412150 1.941478 0.188858 -0.055153 -78213.900000 0 0 1
-25.850237 12.732456 -12.052165 31.234674 -0.457667 1.966935 0.155683 -0.045122 -216321.000000 0 0 1
-25.689087 13.987156 -11.367765 31.381457 -0.498594 1.941471 0.149152 -0.052796 471486.000000 0 0 1
-24.769257 14.765956 -12.128265 31.283292 -0.537577 1.968922 0.126215 -0.049738 88246.300000 0 0 1
-24.769457 16.267956 -11.760665 31.882372 -0.581123 1.948597 0.139928 -0.054238 -265413.000000 0 0 1
-24.306757 16.474456 -10.426065 31.159733 -0.595652 1.911978 0.152567 -0.042159 150983.000000 0 0 1
-24.185957 17.830356 -10.083765 31.694865 -0.635271 1.894575 0.108830 -0.030792 330679.000000 0 0 1
-23.033857 18.161456 -9.069265 30.702583 -0.667669 1.870661 0.117532 -0.036485 271536.000000 0 0 1
-23.200657 17.474756 -7.825665 30.081201 -0.645547 1.833975 0.142373 -0.048544 504084.000000 0 0 1
-24.002357 18.183056 -6.857565 30.883052 -0.648317 1.794712 0.121577 -0.041905 -47603.800000 0 0 1
-24.306757 17.355056 -5.547665 30.377508 -0.620061 1.754451 0.122545 -0.028115 -405516.000000 0 0 1
-23.198657 17.283156 -4.710865 29.310023 -0.640298 1.732222 0.116075 -0.034930 -66458.800000 0 0 1
-23.604357 17.017856 -3.383865 29.295454 -0.624657 1.686563 0.113356 -0.033681 -253699.000000 0 0 1
-22.409357 16.899656 -2.428065 28.172206 -0.646142 1.657090 0.124861 -0.042657 -411584.000000 0 0 1
-21.881057 18.191356 -2.197165 28.540036 -0.693581 1.647858 0.124712 -0.037752 -281759.000000 0 0 1
-20.891557 18.036456 -1.231965 27.627679 -0.712186 1.615403 0.189128 -0.052640 -382042.000000 0 0 1
-20.222457 19.338656 -0.839065 27.993489 -0.763062 1.600774 0.140491 -0.044422 -676127.000000 0 0 1
-21.081357 20.013256 -0.023665 29.068103 -0.759413 1.571610 0.116523 -0.026505 -332056.000000 0 0 1
-20.670757 21.308156 0.292635 29.688438 -0.800581 1.560939 0.120301 -0.027689 -489604.000000 0 0 1
-21.664357 21.909256 1.234235 30.836394 -0.791018 1.530760 0.096336 -0.024141 -477715.000000 0 0 1
-21.567957 21.537856 2.585535 30.589884 -0.784700 1.486173 0.103899 -0.017320 727955.000000 0 0 1
-22.810757 21.735156 3.289735 31.679173 -0.761257 1.466763 0.098605 -0.022103 668968.000000 0 0 1
-22.720357 21.426656 4.773735 31.592796 -0.756102 1.419113 0.110757 -0.015661 -340044.000000 0 0 1
-21.876857 22.402056 5.342435 31.764613 -0.797259 1.401805 0.092806 -0.016131 9577.650000 0 0 1
-21.439457 22.007356 6.637735 31.433001 -0.798469 1.358024 0.094738 -0.002541 -518090.000000 0 0 1
-22.418757 21.999856 7.817535 32.368321 -0.775968 1.326866 0.079465 0.000697 -1159410.000000 0 0 1
-23.421657 21.012256 7.850135 32.430133 -0.731227 1.326305 0.114470 -0.007814 270120.000000 0 0 1
-23.810057 20.663956 9.198335 32.840939 -0.714776 1.286911 0.129234 -0.016818 -101320.000000 0 0 1
-24.233957 21.764256 10.206435 34.134130 -0.731758 1.267142 0.134140 -0.008251 -252660.000000 0 0 1
-25.542837 22.229056 9.866335 35.269137 -0.716142 1.287269 0.150689 -0.006923 387875.000000 0 0 1
-26.006727 23.082756 10.842035 36.424075 -0.725904 1.268554 0.155287 -0.011677 -448819.000000 0 0 1
-27.480307 23.475356 10.606535 37.666407 -0.706963 1.285344 0.148609 -0.031285 -236029.000000 0 0 1
-28.109877 24.067556 11.666235 38.800947 -0.708080 1.265402 0.149389 -0.028080 -206636.000000 0 0 1
-27.723297 25.411256 11.827535 39.423391 -0.741913 1.266090 0.141312 -0.029767 -291163.000000 0 0 1
-28.190727 25.890356 13.222535 40.495223 -0.742888 1.238176 0.171797 -0.033833 137632.000000 0 0 1
-27.305887 25.399056 14.201535 39.904976 -0.749235 1.206937 0.129244 -0.028646 138252.000000 0 0 1
-27.639017 25.947956 15.450635 40.938171 -0.753851 1.183794 0.144433 -0.033075 79289.200000 0 0 1
-26.364067 26.058256 16.321835 40.503074 -0.779565 1.156028 0.111839 -0.037437 42250.200000 0 0 1
-25.937107 24.800056 16.760835 39.606842 -0.762991 1.133844 0.125974 -0.040601 -510021.000000 0 0 1
-24.872457 24.925356 17.646235 39.386573 -0.786460 1.106239 0.105052 -0.040082 -568970.000000 0 0 1
-24.379257 23.498656 18.136335 38.411739 -0.767008 1.079061 0.105737 -0.032748 17358.900000 0 0 1
-23.090757 23.536456 18.716535 37.913804 -0.794957 1.054503 0.115648 -0.036307 141862.000000 0 0 1
-22.664557 22.373556 19.317935 37.248366 -0.778937 1.025554 0.122368 -0.040842 870684.000000 0 0 1
-21.127457 22.424256 19.645635 36.539946 -0.815165 1.003151 0.093974 -0.035385 108259.000000 0 0 1
-20.194957 22.447456 18.591035 35.459148 -0.838172 1.018910 0.082952 -0.038504 1129720.000000 0 0 1
-18.832957 22.304956 19.095535 34.883102 -0.869598 0.991524 0.080256 -0.033120 1409630.000000 0 0 1
-18.414057 20.816056 19.332135 33.854352 -0.846550 0.963026 0.065546 -0.025129 -960636.000000 0 0 1
-19.118557 20.086656 20.300135 34.366968 -0.810086 0.938886 0.095974 -0.024040 -177064.000000 0 0 1
-18.696957 20.408156 21.602035 35.110069 -0.829129 0.908073 0.081379 -0.013933 -236878.000000 0 0 1
-19.755857 20.064056 22.671935 36.150752 -0.793138 0.892908 0.085572 -0.010022 149329.000000 0 0 1
-20.875457 20.947456 22.589035 37.213507 -0.787120 0.918501 0.089794 -0.015400 70547.800000 0 0 1
-21.414357 21.079256 23.864735 38.372325 -0.777512 0.899597 0.089433 -0.011964 -468013.000000 0 0 1
-22.479657 22.168356 23.987135 39.650393 -0.778426 0.921073 0.086516 -0.012725 -746125.000000 0 0 1
-21.994257 23.444756 23.785635 39.989503 -0.817309 0.933783 0.091360 -0.018783 715361.000000 0 0 1
-22.949957 24.533456 24.057235 41.319990 -0.818734 0.949342 0.079785 -0.017581 408352.000000 0 0 1
-23.924057 24.814256 22.910535 41.388409 -0.803661 0.984176 0.073032 -0.032055 -157579.000000 0 0 1
-24.923957 23.812956 22.805835 41.332392 -0.762606 0.986315 0.065993 -0.031402 -107076.000000 0 0 1
-25.588957 23.931556 21.567335 41.141999 -0.751942 1.019001 0.061679 -0.035789 698197.000000 0 0 1
-26.744087 22.862056 21.347235 41.153666 -0.707300 1.025443 0.070872 -0.032435 1204420.000000 0 0 1
-27.998587 23.163656 21.957935 42.457352 -0.691176 1.027248 0.088429 -0.030054 256403.000000 0 0 1
-28.889527 22.081056 21.828835 42.410799 -0.652608 1.030139 0.112131 -0.026830 159352.000000 0 0 1
-30.358087 22.479756 22.125835 43.777911 -0.637385 1.040938 0.134898 -0.016600 -352457.000000 0 0 1
-30.893757 23.319556 21.174635 44.120189 -0.646586 1.070221 0.155737 -0.028583 134684.000000 0 0 1
-32.297657 23.485556 21.318435 45.267932 -0.628722 1.080441 0.160365 -0.020495 913493.000000 0 0 1
-33.206637 22.433056 20.545335 45.033693 -0.594134 1.097052 0.173487 -0.033143 -408284.000000 0 0 1
-33.311287 21.123356 21.163735 44.763174 -0.565131 1.078338 0.162213 -0.029850 645201.000000 0 0 1
-34.101735 20.206756 20.372635 44.567764 -0.534919 1.096047 0.171049 -0.028023 1167560.000000 0 0 1
-35.662800 20.367856 20.388135 45.851510 -0.518916 1.110006 0.183518 -0.040246 525332.000000 0 0 1
-36.297907 19.662856 19.330035 45.583070 -0.496454 1.132871 0.168362 -0.036993 -627950.000000 0 0 1
-37.674307 19.886856 19.395035 46.808203 -0.485688 1.143567 0.177176 -0.046592 -560615.000000 0 0 1
36.976258 19.255656 18.197835 45.488297 0.480115 1.159219 0.170711 -0.041758 -207832.000000 0 0 1
36.916808 17.836956 18.461535 44.964831 0.450090 1.147709 0.191332 -0.052737 121025.000000 0 0 1
36.471468 17.090956 17.335935 43.849782 0.438223 1.164349 0.196684 -0.061782 164898.000000 0 0 1
36.672008 15.592856 17.519435 43.530494 0.402038 1.156590 0.204006 -0.069463 301607.000000 0 0 1
35.813158 14.879556 16.628435 42.195833 0.393777 1.165732 0.229300 -0.057983 78804.000000 0 0 1
36.253598 13.605256 16.313935 42.018696 0.359016 1.172060 0.207887 -0.042111 -187131.000000 0 0 1
35.298208 12.888356 15.355935 40.594063 0.350088 1.182858 0.196825 -0.044659 -280569.000000 0 0 1
35.527838 13.110756 13.969935 40.364320 0.353524 1.217389 0.195001 -0.044057 591824.000000 0 0 1
34.513268 12.471456 13.186935 38.994848 0.346752 1.225823 0.196080 -0.041078 71374.600000 0 0 1
34.598858 12.787156 11.644835 38.680674 0.354013 1.265002 0.219183 -0.038626 -182274.000000 0 0 1
35.746428 12.250756 11.026235 39.363257 0.330168 1.286883 0.196128 -0.034321 236980.000000 0 0 1
35.710478 12.389256 9.630335 39.006093 0.333943 1.321324 0.182523 -0.034504 -563938.000000 0 0 1
37.090028 12.305856 8.993035 40.099613 0.320355 1.344605 0.140385 -0.014810 -576468.000000 0 0 1
-37.497987 11.124156 9.294735 40.202463 -0.288390 1.337487 0.197715 -0.026452 1520960.000000 0 0 1
-36.146457 11.120356 8.772735 38.822539 -0.298458 1.342857 0.209375 -0.035139 1071330.000000 0 0 1
-36.079007 10.826756 7.256235 38.361000 -0.291534 1.380493 0.178028 -0.041750 -663516.000000 0 0 1
-36.682647 11.840056 6.542635 39.097437 -0.312214 1.402664 0.155142 -0.045103 -387857.000000 0 0 1
-36.439497 11.741656 5.150335 38.629385 -0.311718 1.437071 0.174529 -0.059361 91341.400000 0 0 1
-37.280027 12.685056 4.206235 39.603074 -0.327975 1.464386 0.171375 -0.059410 -483096.000000 0 0 1
36.787958 12.201556 3.965535 38.960972 0.320255 1.468838 0.180143 -0.060758 -150026.000000 0 0 1
35.774488 13.182756 4.195735 38.356267 0.353056 1.461188 0.148637 -0.056304 312921.000000 0 0 1
35.487678 13.645556 5.675435 38.441996 0.367087 1.422618 0.157114 -0.041708 -1250030.000000 0 0 1
34.663478 14.802656 5.548335 38.098023 0.403596 1.424643 0.136731 -0.032835 109065.000000 0 0 1
34.256098 15.315256 6.757135 38.127368 0.420424 1.392630 0.112241 -0.026698 723001.000000 0 0 1
32.941068 14.620756 7.309235 36.773705 0.417724 1.370701 0.183783 -0.038984 338220.000000 0 0 1
33.153108 13.297456 7.733935 36.548114 0.381448 1.357575 0.220496 -0.035547 620443.000000 0 0 1
31.920798 12.575856 7.907935 35.208308 0.375298 1.344259 0.233559 -0.033639 601620.000000 0 0 1
31.799018 11.334756 6.964935 34.469763 0.342409 1.367336 0.239764 -0.045333 -68370.800000 0 0 1
31.364288 11.698756 5.640535 33.946945 0.357013 1.403865 0.230238 -0.062586 267726.000000 0 0 1
31.360688 10.654256 4.711135 33.454458 0.327499 1.429504 0.232002 -0.069438 -478896.000000 0 0 1
30.728618 10.968556 3.383835 32.802554 0.342852 1.467455 0.181038 -0.071724 -842328.000000 0 0 1
29.340758 11.004856 3.508435 31.532460 0.358833 1.459301 0.143652 -0.063043 -686300.000000 0 0 1
28.782558 11.432956 2.292635 31.054860 0.378106 1.496904 0.152964 -0.062424 373897.000000 0 0 1
27.249058 11.186556 2.181935 29.536605 0.389551 1.496857 0.179145 -0.045693 565832.000000 0 0 1
26.909358 9.824856 1.764435 28.701125 0.350071 1.509281 0.145847 -0.043803 448490.000000 0 0 1
25.510458 9.562356 1.836335 27.305572 0.358631 1.503494 0.151738 -0.038639 -189071.000000 0 0 1
25.142158 8.043356 1.683435 26.451042 0.309626 1.507110 0.163463 -0.046138 60911.200000 0 0 1
25.766758 7.178556 2.657935 26.879771 0.271708 1.471752 0.178785 -0.037827 1380370.000000 0 0 1
27.131958 6.770356 2.436835 28.069896 0.244540 1.483874 0.225221 -0.050837 837149.000000 0 0 1
27.924558 6.426056 3.705835 28.893050 0.226184 1.442182 0.218795 -0.057199 -248491.000000 0 0 1
29.323958 6.276056 3.622835 30.206098 0.210844 1.450570 0.269544 -0.060304 136238.000000 0 0 1
29.735158 5.796856 4.871535 30.684117 0.192535 1.411358 0.258324 -0.051657 -444385.000000 0 0 1
31.233678 5.674956 5.135835 32.157807 0.179733 1.410402 0.244769 -0.054649 -378528.000000 0 0 1
31.930048 6.877856 5.399635 33.105724 0.212162 1.406962 0.253091 -0.058404 753603.000000 0 0 1
33.304738 6.614256 5.742335 34.437311 0.196047 1.403266 0.240299 -0.050045 909634.000000 0 0 1
33.949358 7.756756 6.541335 35.433251 0.224624 1.385121 0.220833 -0.053102 -24755.300000 0 0 1
33.406158 7.894256 7.860235 35.214684 0.232054 1.345691 0.236637 -0.055588 235725.000000 0 0 1
34.084498 8.847256 8.631735 36.256500 0.253964 1.330414 0.235760 -0.054291 -312829.000000 0 0 1
33.610918 8.822856 10.095235 36.186329 0.256708 1.288065 0.235688 -0.043831 -169166.000000 0 0 1
32.236588 9.176856 10.168035 35.025723 0.277336 1.276254 0.246345 -0.052638 281417.000000 0 0 1
31.823518 8.756456 11.474435 34.943876 0.268512 1.236222 0.235698 -0.058562 365248.000000 0 0 1
30.363558 9.126856 11.913935 33.870149 0.291994 1.211353 0.192188 -0.054050 460302.000000 0 0 1
30.110458 10.496756 12.303935 34.179064 0.335434 1.202545 0.232681 -0.059811 204849.000000 0 0 1
30.027858 11.440856 11.199635 34.029359 0.364028 1.235428 0.240470 -0.064173 -594637.000000 0 0 1
28.710558 11.497056 10.421835 32.635764 0.380892 1.245766 0.196679 -0.049055 -490206.000000 0 0 1
28.612858 12.520056 9.434535 32.626031 0.412467 1.277435 0.180977 -0.022363 784150.000000 0 0 1
27.391558 12.388056 8.678535 31.290228 0.424730 1.289755 0.156597 -0.027008 706527.000000 0 0 1
27.195258 13.521956 7.628735 31.314900 0.461419 1.324706 0.135219 -0.021317 -13791.900000 0 0 1
26.893258 14.741256 8.214435 31.749471 0.501414 1.309093 0.123462 -0.004964 149097.000000 0 0 1
27.408458 15.813156 7.454835 32.509292 0.523294 1.339424 0.113504 -0.003770 -692561.000000 0 0 1
27.174058 17.253356 7.990135 33.165494 0.565701 1.327486 0.147085 -0.017505 1337040.000000 0 0 1
25.818058 17.758656 7.937835 32.325705 0.602517 1.322701 0.154047 -0.019118 1664970.000000 0 0 1
24.759658 17.098356 8.654535 31.309670 0.604371 1.290732 0.156597 -0.015774 -5759.690000 0 0 1
23.476758 17.928656 8.639235 30.777122 0.652197 1.286270 0.154467 -0.027432 -474411.000000 0 0 1
22.784858 18.040856 7.421035 29.994900 0.669716 1.320790 0.146106 -0.034401 281881.000000 0 0 1
21.633158 18.862156 7.547235 29.677183 0.717077 1.313661 0.167631 -0.042651 79278.800000 0 0 1
21.065858 19.251456 6.191635 29.201460 0.740425 1.357143 0.157525 -0.040777 -219031.000000 0 0 1
21.848558 20.200456 5.506235 30.261139 0.746223 1.387820 0.113347 -0.024354 182599.000000 0 0 1
21.195158 20.629656 4.319535 29.891066 0.771878 1.425779 0.117612 -0.031455 137733.000000 0 0 1
17.449043 16.473756 32.685030 40.548303 0.756656 0.633304 0.150912 -0.027339 -149325.000000 0 0 1
17.016143 17.362156 31.681649 39.933951 0.795463 0.654502 0.118880 -0.035610 91628.100000 0 0 1
16.552343 16.656956 30.567865 38.546447 0.788548 0.655056 0.114554 -0.037599 -142250.000000 0 0 1
16.330443 17.400656 29.255765 37.754019 0.817115 0.684232 0.118130 -0.035808 -433008.000000 0 0 1
17.537843 17.632656 28.616015 37.912568 0.788094 0.715463 0.130971 -0.034174 -510851.000000 0 0 1
17.335643 17.748656 27.210695 36.823378 0.797170 0.739283 0.124824 -0.033294 207360.000000 0 0 1
18.631343 18.000256 26.384235 36.976533 0.768172 0.776258 0.122112 -0.037718 23979.200000 0 0 1
19.108243 19.306556 26.633595 38.042298 0.790561 0.795252 0.137942 -0.040549 1121880.000000 0 0 1
20.166843 19.667556 25.657755 38.102948 0.772865 0.832025 0.129429 -0.039595 1061230.000000 0 0 1
20.664243 21.131756 25.996425 39.362115 0.796583 0.849388 0.155050 -0.040631 -17002.000000 0 0 1
19.858543 22.157256 25.448205 39.152482 0.840054 0.863242 0.135510 -0.037957 366734.000000 0 0 1
20.311543 23.429256 25.932385 40.422486 0.856555 0.874300 0.141987 -0.034512 -443580.000000 0 0 1
19.347543 24.521156 25.535975 40.344770 0.902790 0.885447 0.148188 -0.040612 -308209.000000 0 0 1
19.522643 24.959956 24.209385 39.877654 0.907029 0.918401 0.149738 -0.039027 21655.900000 0 0 1
18.642743 26.036356 23.973285 40.002026 0.949395 0.928168 0.147834 -0.037907 -47778.700000 0 0 1
19.096943 26.936656 22.808265 40.130956 0.954084 0.966302 0.121042 -0.043721 130400.000000 0 0 1
20.141143 27.829756 23.213355 41.461076 0.944323 0.976552 0.139684 -0.039451 160745.000000 0 0 1
20.286643 28.891356 22.315725 41.764218 0.958615 1.007086 0.124898 -0.029457 -387666.000000 0 0 1
21.633343 29.604256 22.241725 42.884820 0.939729 1.025538 0.133861 -0.024530 -565638.000000 0 0 1
22.555643 29.039156 21.356625 42.522171 0.910405 1.044601 0.143467 -0.032579 93050.500000 0 0 1
23.749643 29.833556 21.305425 43.680748 0.898455 1.061282 0.129485 -0.034760 807038.000000 0 0 1
24.306943 30.022256 19.876525 43.442370 0.890210 1.095572 0.127363 -0.034315 346826.000000 0 0 1
23.426643 30.935856 19.233525 43.310082 0.922662 1.110639 0.106445 -0.025486 371899.000000 0 0 1
23.424343 30.766456 17.787625 42.563767 0.920065 1.139658 0.119550 -0.010143 -302769.000000 0 0 1
23.166043 31.962956 16.857325 42.923950 0.943634 1.167203 0.121241 -0.020219 -376253.000000 0 0 1
24.055143 33.052956 16.968225 44.261365 0.941671 1.177360 0.125203 -0.019406 -111766.000000 0 0 1
24.115343 -33.794290 15.812925 44.425808 -0.951006 1.206877 0.124822 -0.022635 -84031.900000 0 0 1
24.883643 33.389456 14.551925 44.111336 0.930339 1.234608 0.106830 -0.021452 -69231.900000 0 0 1
24.423143 32.228256 13.858125 42.745737 0.922311 1.240631 0.124069 -0.020912 330437.000000 0 0 1
23.301643 32.465656 12.994725 42.021997 0.948269 1.256407 0.098319 -0.022224 453403.000000 0 0 1
22.971443 31.213956 12.163825 40.619661 0.936358 1.266673 0.107603 -0.049829 -557593.000000 0 0 1
24.036043 30.855856 11.316725 40.717115 0.909006 1.289152 0.133557 -0.063772 -115209.000000 0 0 1
23.756543 29.648456 10.619825 39.448510 0.895279 1.298227 0.123382 -0.060957 213562.000000 0 0 1
25.028943 29.071456 9.868925 39.610519 0.859982 1.318995 0.121990 -0.056517 758778.000000 0 0 1
26.015943 28.389756 10.611825 39.942688 0.829002 1.301891 0.118260 -0.053414 311530.000000 0 0 1
26.801243 29.256056 11.443325 41.293742 0.829161 1.290001 0.113586 -0.050220 -355503.000000 0 0 1
28.253843 28.741156 11.621025 41.944986 0.793948 1.290070 0.115908 -0.042316 281649.000000 0 0 1
28.483743 27.720656 12.598525 41.695098 0.771822 1.263840 0.119213 -0.034862 110734.000000 0 0 1
29.828443 27.721156 13.067925 42.766449 0.748798 1.260265 0.101375 -0.017777 451911.000000 0 0 1
30.068843 26.594856 14.111625 42.550671 0.724166 1.232752 0.078420 -0.022089 -319937.000000 0 0 1
31.272243 26.793756 14.787625 43.755370 0.708423 1.226046 0.042150 -0.020206 -448557.000000 0 0 1
31.502143 25.657256 15.634625 43.532991 0.683496 1.203445 0.044522 -0.023478 -599744.000000 0 0 1
32.643743 25.742756 16.608025 44.767510 0.667749 1.190728 0.058053 -0.023986 -123185.000000 0 0 1
33.941043 25.668356 16.015325 45.468115 0.647497 1.210841 0.061594 -0.019563 -66354.700000 0 0 1
34.910843 25.924956 16.975125 46.680029 0.638751 1.198615 0.069974 -0.023683 -546967.000000 0 0 1
36.318343 26.176456 16.442725 47.692684 0.624517 1.218809 0.112857 -0.035292 -638106.000000 0 0 1
36.320743 27.400856 15.672525 48.121007 0.646320 1.239055 0.094394 -0.020541 -93975.000000 0 0 1
37.624543 27.881556 15.409225 49.299408 0.637747 1.252905 0.149146 -0.030435 322346.000000 0 0 1
37.603543 29.010156 14.389925 49.625452 0.657103 1.276600 0.097343 -0.025022 280764.000000 0 0 1
37.008643 30.265156 14.840925 50.058689 0.685492 1.269801 0.103859 -0.025624 272436.000000 0 0 1
37.038143 31.270556 13.883425 50.422427 0.701164 1.291851 0.073571 -0.017517 36258.800000 0 0 1
36.464343 32.618356 14.336525 50.981775 0.729783 1.285743 0.043474 -0.017563 -1107320.000000 0 0 1
36.301943 33.629356 13.338525 51.251155 0.747199 1.307507 0.011676 -0.019574 925065.000000 0 0 1
35.093543 -33.306390 13.461025 50.220230 -0.759276 1.299438 0.008968 -0.016650 1017040.000000 0 0 1
33.799843 33.647456 13.096925 49.458165 0.783139 1.302791 0.039117 -0.014519 -544301.000000 0 0 1
33.434843 32.607656 14.011325 48.759257 0.772874 1.279330 0.030112 -0.020487 -651961.000000 0 0 1
32.300543 31.938556 13.570125 47.408277 0.779763 1.280496 0.050711 -0.014620 -607560.000000 0 0 1
31.688143 30.854156 14.491925 46.541736 0.772064 1.254157 0.068604 -0.015880 -81177.400000 0 0 1
31.059743 31.307356 15.661225 46.798847 0.789368 1.229563 0.074024 -0.017623 -11749.600000 0 0 1
30.665943 30.225256 16.492825 46.108344 0.778161 1.204996 0.073132 -0.013246 -92695.300000 0 0 1
29.765043 30.548656 17.690125 46.174870 0.798390 1.177634 0.085615 -0.012031 -63992.000000 0 0 1
29.438443 29.514356 18.646725 45.666393 0.786686 1.150178 0.078151 -0.012966 374914.000000 0 0 1
30.254643 29.525056 19.831425 46.694301 0.773194 1.132157 0.078543 -0.024437 306472.000000 0 0 1
29.837243 28.330156 20.753525 46.082183 0.759494 1.103629 0.079341 -0.028842 -221302.000000 0 0 1
28.628143 28.559156 21.407525 45.754541 0.784192 1.083909 0.099634 -0.033867 -504657.000000 0 0 1
28.526643 27.697556 22.456525 45.664203 0.770653 1.056669 0.098022 -0.036098 -372782.000000 0 0 1
27.225243 27.790156 23.252115 45.322924 0.795666 1.032083 0.130309 -0.036992 -667521.000000 0 0 1
26.169343 27.021256 22.699975 43.934857 0.801413 1.027835 0.140647 -0.038670 227689.000000 0 0 1
25.022543 27.130756 23.541615 43.776857 0.825800 1.003014 0.154278 -0.043207 218442.000000 0 0 1
24.888943 25.998956 24.524675 43.553012 0.807208 0.972665 0.155676 -0.040120 -663555.000000 0 0 1
25.930543 25.939456 25.465345 44.651228 0.785570 0.963905 0.132783 -0.038160 -252497.000000 0 0 1
25.801743 24.951756 26.443995 44.582563 0.768652 0.935835 0.152724 -0.039941 2693.460000 0 0 1
27.076143 24.889856 27.354095 45.835237 0.743351 0.931299 0.152934 -0.034547 493565.000000 0 0 1
27.325943 26.004456 28.154885 47.070547 0.760624 0.929615 0.170174 -0.048433 319580.000000 0 0 1
27.970343 27.084756 27.483455 47.657784 0.769314 0.956133 0.127541 -0.037234 -605105.000000 0 0 1
28.418143 28.231056 28.351655 49.075449 0.782096 0.954869 0.077132 -0.026393 -92449.300000 0 0 1
29.566843 27.868656 29.104085 49.979075 0.755840 0.949210 0.084032 -0.025990 -103048.000000 0 0 1
29.921143 28.998856 29.888935 51.279205 0.769746 0.948544 0.084517 -0.023161 -850964.000000 0 0 1
31.429443 28.965356 30.000755 52.219221 0.744621 0.958784 0.069410 -0.022074 -823887.000000 0 0 1
32.039343 29.169856 28.740405 51.994335 0.738552 0.985123 0.061491 -0.020577 -77618.200000 0 0 1
33.453443 29.275856 28.807845 52.972639 0.718899 0.995808 0.088664 -0.027920 632576.000000 0 0 1
34.094343 29.878556 27.507535 53.026567 0.719594 1.025408 0.079942 -0.026663 157186.000000 0 0 1
33.773943 31.255456 27.485655 53.600783 0.746689 1.032371 0.077089 -0.027289 121384.000000 0 0 1
33.997843 31.852956 26.162865 53.431822 0.752838 1.059109 0.067778 -0.023062 -126615.000000 0 0 1
33.757043 33.338656 26.005215 54.104298 0.779163 1.069401 0.074358 -0.025632 21961.500000 0 0 1
34.759743 -33.535690 26.576675 55.128957 -0.767477 1.067767 0.096833 -0.026975 393312.000000 0 0 1
34.472743 -32.159190 26.392455 54.029114 -0.750691 1.060443 0.095960 -0.018660 -272659.000000 0 0 1
35.531543 -31.199790 26.955605 54.429055 -0.720576 1.052682 0.091785 -0.017308 -38055.600000 0 0 1
35.424543 -30.907090 28.318495 54.882452 -0.717399 1.028640 0.101743 -0.020675 -517069.000000 0 0 1
36.640243 -30.469490 28.777005 55.668781 -0.693706 1.027533 0.096807 -0.027877 -993852.000000 0 0 1
36.420943 -30.015890 30.232595 56.048626 -0.689287 1.001073 0.106378 -0.026110 -108223.000000 0 0 1
36.383743 -31.038890 31.225375 57.115790 -0.706290 0.992375 0.111259 -0.025964 -117537.000000 0 0 1
35.181843 -31.753690 31.228375 56.756236 -0.734227 0.988170 0.099031 -0.024595 -647720.000000 0 0 1
35.086443 -32.753090 32.363829 57.889902 -0.751017 0.977547 0.109940 -0.028320 -329039.000000 0 0 1
34.961743 -32.118490 33.607945 58.167128 -0.743038 0.954787 0.091635 -0.032807 159851.000000 0 0 1
35.244343 -33.012690 -32.975775 58.475663 -0.752715 2.169925 0.106876 -0.033320 -169717.000000 0 0 1
34.298243 33.513256 -32.682035 58.031226 0.773823 2.169026 0.130253 -0.035067 -21636.800000 0 0 1
34.319343 32.586056 -33.730305 58.115418 0.759497 2.190019 0.131569 -0.034305 -61346.000000 0 0 1
33.532343 31.498656 -33.343165 56.818571 0.754136 2.197942 0.139839 -0.029125 -160359.000000 0 0 1
33.606743 30.372256 33.243299 56.187223 0.734886 0.937690 0.112137 -0.022599 1470930.000000 0 0 1
34.903243 29.700356 33.178899 56.579032 0.705036 0.944168 0.120182 -0.034305 1265050.000000 0 0 1
34.930143 28.743056 32.089011 55.461543 0.688533 0.953808 0.100213 -0.028814 94745.900000 0 0 1
36.303843 28.061756 31.858874 55.860710 0.658040 0.963892 0.108392 -0.029061 35818.700000 0 0 1
36.675443 27.122256 32.834737 56.203423 0.636761 0.946887 0.095670 -0.028339 -515391.000000 0 0 1
-37.410473 26.674656 32.517710 56.289273 -0.619415 0.954901 0.079668 -0.028643 -519555.000000 0 0 1
-37.080073 25.416956 33.302595 55.946548 -0.600902 0.933210 0.073277 -0.024764 -126436.000000 0 0 1
37.518843 24.315956 32.905901 55.513310 0.575038 0.936319 0.067417 -0.024471 -68531.700000 0 0 1
-37.622373 23.136256 33.652985 55.527044 -0.551347 0.919693 0.053049 -0.025778 -14633.800000 0 0 1
37.427843 21.866956 32.856268 54.392476 0.528753 0.922212 0.046544 -0.032600 270789.000000 0 0 1
-36.921873 21.652056 31.869100 53.363618 -0.530381 0.930783 0.065959 -0.022701 131986.000000 0 0 1
-37.169473 20.406156 31.169325 52.626112 -0.502078 0.936912 0.066745 -0.022624 2930.080000 0 0 1
-35.981273 19.646256 30.522195 51.109996 -0.499777 0.930808 0.078067 -0.039112 -73722.000000 0 0 1
-35.558373 20.300656 29.349115 50.377426 -0.518756 0.948891 0.086672 -0.028576 -94568.500000 0 0 1
-34.527573 19.631856 28.640305 48.967643 -0.517000 0.946061 0.123188 -0.036458 -108105.000000 0 0 1
-35.041873 18.568856 27.620505 48.328331 -0.487284 0.962442 0.133274 -0.030102 -378990.000000 0 0 1
-35.669173 17.540756 28.304265 48.796510 -0.457036 0.952010 0.118378 -0.035327 -244937.000000 0 0 1
-36.542873 16.853556 27.467055 48.722305 -0.432128 0.971881 0.130312 -0.045128 98594.100000 0 0 1
-37.393073 15.735756 28.097635 49.349093 -0.398325 0.965063 0.122579 -0.039944 591253.000000 0 0 1
-36.490973 14.637656 28.357205 48.476624 -0.381481 0.945957 0.122216 -0.038126 634609.000000 0 0 1
-36.857173 13.776756 29.385225 49.109486 -0.357707 0.929342 0.124804 -0.043517 -11865.200000 0 0 1
-35.772173 12.690056 29.613865 48.142152 -0.340897 0.908241 0.125025 -0.033112 416998.000000 0 0 1
-34.480373 13.134256 29.994345 47.550662 -0.363950 0.888229 0.120608 -0.027416 489691.000000 0 0 1
-33.719073 12.017256 30.495375 47.025080 -0.342359 0.865195 0.103104 -0.021018 2901.460000 0 0 1
-32.223973 12.367656 30.488735 46.053298 -0.366466 0.847270 0.100649 -0.017465 -307828.000000 0 0 1
-31.426773 12.023856 29.332785 44.638855 -0.365416 0.853814 0.081971 -0.023887 -17625.000000 0 0 1
-30.112373 12.465756 29.382045 43.880002 -0.392495 0.837126 0.064772 -0.022622 -27893.100000 0 0 1
-29.055473 11.452256 29.938465 43.262990 -0.375454 0.806525 0.068411 -0.018681 74146.400000 0 0 1
-28.880573 10.385256 29.050585 42.259644 -0.345195 0.812851 0.081562 -0.021909 -353500.000000 0 0 1
-27.758573 9.625156 29.395385 41.560445 -0.333772 0.785136 0.064453 -0.019316 -656886.000000 0 0 1
-27.518573 8.442356 28.416615 40.448105 -0.297672 0.791829 0.058419 -0.018797 621151.000000 0 0 1
-28.502173 7.380756 28.420975 40.921892 -0.253388 0.803047 0.064912 -0.020779 442205.000000 0 0 1
-29.791473 7.704856 27.971295 41.584733 -0.253081 0.833034 0.084583 -0.022066 -884198.000000 0 0 1
-30.783873 6.580456 28.143065 42.225363 -0.210594 0.841297 0.093491 -0.024205 -487465.000000 0 0 1
-30.899573 6.019456 29.460425 43.115358 -0.192397 0.818533 0.097579 -0.021813 -8955.140000 0 0 1
-31.717873 4.864756 29.367695 43.498860 -0.152190 0.829646 0.116809 -0.020500 341445.000000 0 0 1
-32.473373 4.455256 30.684175 44.898639 -0.136346 0.818373 0.123542 -0.028140 1598660.000000 0 0 1
-33.767973 5.108756 30.902045 46.057700 -0.150151 0.835318 0.132362 -0.027763 943987.000000 0 0 1
-34.455873 4.539456 31.965537 47.218740 -0.130993 0.827162 0.133020 -0.028441 -180854.000000 0 0 1
-35.905973 5.040356 32.047423 48.390922 -0.139465 0.846964 0.129586 -0.024324 -212973.000000 0 0 1
-36.071773 6.412156 32.243175 48.804824 -0.175923 0.849105 0.134873 -0.022760 -461127.000000 0 0 1
-37.451273 6.649456 32.275431 49.885033 -0.175718 0.867158 0.127517 -0.020382 -174520.000000 0 0 1
37.575743 8.135056 32.477098 50.327701 0.213207 0.869364 0.113750 -0.019492 -53240.100000 0 0 1
-37.384973 8.632056 33.749065 51.099393 -0.226920 0.849366 0.107560 -0.015226 149305.000000 0 0 1
37.649843 10.016656 -33.734995 51.535366 0.260024 2.284448 0.097804 -0.020754 33574.700000 0 0 1
37.530643 10.311556 -32.188415 50.507142 0.268134 2.261791 0.084265 -0.013252 -343781.000000 0 0 1
36.486643 9.638656 -31.554085 49.191860 0.258270 2.267182 0.078265 -0.008007 -353839.000000 0 0 1
36.456043 9.889756 -30.126715 48.316346 0.264903 2.244047 0.050803 0.001798 691845.000000 0 0 1
35.140343 9.331056 -29.465355 46.798712 0.259547 2.251859 0.042603 0.002684 565827.000000 0 0 1
34.845143 7.903956 -29.458135 46.308079 0.223056 2.260273 0.046599 -0.004043 -145730.000000 0 0 1
33.703043 7.553356 -28.741685 44.933648 0.220472 2.264836 0.067660 -0.021924 -712109.000000 0 0 1
36.392158 5.623256 -19.275565 41.563898 0.153306 2.053028 0.085822 -0.022461 -456595.000000 0 0 1
35.695078 6.661256 -18.616465 40.805437 0.184493 2.044545 0.060261 -0.023336 86826.000000 0 0 1
36.313198 7.914756 -18.722265 41.615081 0.214602 2.037440 0.048551 -0.018041 7906.930000 0 0 1
-37.629047 8.077756 -18.036065 42.502882 -0.211459 2.009039 0.073384 -0.027267 680560.000000 0 0 1
-36.532017 7.576056 -18.742365 41.752379 -0.204483 2.036323 0.079688 -0.035282 -297917.000000 0 0 1
-36.183147 8.343456 -19.883265 42.120988 -0.226628 2.062412 0.083121 -0.030137 -471658.000000 0 0 1
-34.958899 7.766956 -20.649565 41.338296 -0.218623 2.093848 0.086910 -0.017195 336210.000000 0 0 1
-35.332270 6.651556 -21.463965 41.872596 -0.186079 2.109008 0.082556 -0.013456 355091.000000 0 0 1
-36.129667 6.873856 -22.615465 43.174784 -0.188008 2.122116 0.071799 -0.009011 150677.000000 0 0 1
-36.056767 5.666056 -23.529365 43.426094 -0.155868 2.143404 0.089803 -0.006712 1148670.000000 0 0 1
-34.737424 5.629456 -24.123765 42.665389 -0.160661 2.171736 0.095943 -0.005061 1022020.000000 0 0 1
-34.542322 4.342256 -24.693765 42.682657 -0.125052 2.187738 0.101376 -0.001126 542365.000000 0 0 1
-33.155947 4.249556 -25.405825 41.986087 -0.127474 2.220689 0.113555 -0.002936 684643.000000 0 0 1
-31.978307 4.390656 -24.625465 40.599304 -0.136448 2.222509 0.106088 -0.006495 -168493.000000 0 0 1
-30.913797 4.113756 -25.505445 40.287884 -0.132295 2.256322 0.111290 -0.002796 -260222.000000 0 0 1
-29.509837 4.235956 -24.883365 38.832405 -0.142570 2.266321 0.095534 -0.013736 -170415.000000 0 0 1
-29.217387 5.609556 -24.794965 38.728712 -0.189686 2.265583 0.068699 -0.002668 206410.000000 0 0 1
-27.945377 5.912156 -24.243565 37.465293 -0.208487 2.274563 0.075639 -0.015091 151902.000000 0 0 1
-27.562887 7.349456 -24.495865 37.600195 -0.260580 2.280333 0.058100 -0.014750 152156.000000 0 0 1
-28.360767 8.337156 -23.804465 37.953838 -0.285914 2.248743 0.054446 -0.008016 68385.400000 0 0 1
-27.952047 9.684156 -24.044865 38.121587 -0.333514 2.253305 0.023901 -0.002432 675818.000000 0 0 1
-26.549857 10.133756 -23.508865 36.881630 -0.364621 2.261934 0.055707 -0.000656 586169.000000 0 0 1
-26.523817 10.245056 -22.163965 36.051566 -0.368605 2.232910 0.035635 0.004526 -356503.000000 0 0 1
-25.193137 10.509156 -21.837865 34.957530 -0.395197 2.245540 0.075225 -0.009242 -618545.000000 0 0 1
-25.019297 10.730956 -20.319765 33.970745 -0.405175 2.211993 0.095269 -0.028907 -958512.000000 0 0 1
-25.315357 11.966956 -19.690665 34.231530 -0.441583 2.183670 0.095666 -0.030161 274934.000000 0 0 1
-26.629827 12.494656 -19.689865 35.397103 -0.438704 2.160670 0.067731 -0.013283 -130233.000000 0 0 1
-27.485287 11.739756 -18.639665 35.223572 -0.403672 2.128432 0.071677 -0.017047 -880261.000000 0 0 1
-27.107287 11.956056 -17.301565 34.308839 -0.415398 2.099355 0.072339 -0.036340 565404.000000 0 0 1
-28.092137 11.438256 -16.398965 34.480834 -0.386671 2.066438 0.103237 -0.037628 -325571.000000 0 0 1
-27.500437 11.045656 -15.025965 33.227401 -0.381931 2.040045 0.127116 -0.050678 83225.900000 0 0 1
-26.652347 9.911456 -14.944965 32.123769 -0.356032 2.054692 0.149403 -0.051607 893219.000000 0 0 1
-25.296227 10.200956 -15.291565 31.269643 -0.383314 2.081765 0.133116 -0.045511 36429.000000 0 0 1
-24.434657 8.877256 -15.245465 30.137723 -0.348479 2.101175 0.104095 -0.043453 -224795.000000 0 0 1
-23.099357 9.171756 -15.577565 29.331927 -0.377967 2.130670 0.100803 -0.034765 16938.100000 0 0 1
-22.279257 8.064156 -15.200865 28.150705 -0.347288 2.141212 0.123632 -0.033405 -344321.000000 0 0 1
-20.789357 8.405156 -15.215465 27.098974 -0.384209 2.166967 0.158022 -0.038069 -683005.000000 0 0 1
-20.156957 8.477956 -16.448665 27.363064 -0.398135 2.215706 0.162193 -0.048090 404326.000000 0 0 1
-18.743657 8.385756 -16.287265 26.209170 -0.420683 2.241368 0.161210 -0.040945 -143213.000000 0 0 1
-18.036857 9.149856 -17.421865 26.693997 -0.469460 2.281875 0.132724 -0.040886 -275004.000000 0 0 1
-17.770557 8.403256 -18.644165 27.092662 -0.441713 2.329750 0.170484 -0.053726 770289.000000 0 0 1
-16.838057 7.305056 -18.583865 26.119802 -0.409336 2.362407 0.161858 -0.051238 -457080.000000 0 0 1
-16.467057 6.699256 -19.906665 26.689311 -0.386378 2.412631 0.129340 -0.051758 -315821.000000 0 0 1
-17.396057 5.904256 -20.633965 27.626863 -0.327202 2.414155 0.115329 -0.041506 -119976.000000 0 0 1
-18.441657 6.669056 -21.188965 28.871149 -0.346998 2.394864 0.112713 -0.042000 -470384.000000 0 0 1
-19.567257 5.844456 -21.819965 29.885550 -0.290250 2.389290 0.095404 -0.032868 -446125.000000 0 0 1
-20.133757 4.921256 -20.950865 29.470760 -0.239728 2.361578 0.129064 -0.039929 12582.900000 0 0 1
-20.772257 3.901556 -21.692865 30.286783 -0.185662 2.369208 0.093797 -0.026980 -309053.000000 0 0 1
-21.646557 3.158956 -20.629365 30.068641 -0.144910 2.326878 0.103482 -0.027535 -58289.300000 0 0 1
-22.443357 2.120056 -21.212165 30.954077 -0.094183 2.325782 0.113135 -0.025928 665421.000000 0 0 1
-23.330957 1.716656 -20.175265 30.892099 -0.073446 2.282452 0.111596 -0.032508 36056.900000 0 0 1
-23.986257 0.306556 -20.348565 31.456297 -0.012780 2.274287 0.117017 -0.021611 -52220.900000 0 0 1
-23.071157 -0.760844 -20.130565 30.628366 0.032966 2.287964 0.097658 -0.023699 208651.000000 0 0 1
-23.614357 -2.031744 -20.253365 31.176348 0.085827 2.277906 0.090043 -0.026770 -375713.000000 0 0 1
-24.209257 -2.408444 -21.696965 32.598267 0.099158 2.299076 0.099655 -0.030822 369250.000000 0 0 1
-23.309657 -2.521444 -22.797465 32.702022 0.107753 2.342179 0.071904 -0.028692 -225257.000000 0 0 1
-22.403357 -3.570944 -22.763465 32.137788 0.158064 2.357895 0.067769 -0.038053 -895380.000000 0 0 1
-21.407657 -3.501844 -23.889865 32.268814 0.162143 2.404371 0.066411 -0.025772 -716477.000000 0 0 1
-22.033957 -3.605344 -25.126355 33.612907 0.162189 2.415118 0.057761 -0.027201 224634.000000 0 0 1
-21.127457 -3.530444 -26.207065 33.847359 0.165572 2.456360 0.059761 -0.033676 -193106.000000 0 0 1
-21.907357 -3.635544 -27.528015 35.368646 0.164452 2.462777 0.055814 -0.037465 316889.000000 0 0 1
-22.524657 -4.868344 -27.882645 36.173234 0.212860 2.450906 0.061911 -0.032541 1037660.000000 0 0 1
-23.427957 -4.724344 -29.033005 37.604574 0.198986 2.452873 0.035249 -0.025836 564808.000000 0 0 1
-23.277457 -5.952944 -29.983035 38.422128 0.250372 2.466035 0.052272 -0.025591 -97476.500000 0 0 1
-21.999457 -5.815344 -30.559855 38.101169 0.258429 2.501552 0.035633 -0.024770 -265704.000000 0 0 1
-21.479157 -7.053244 -30.935435 38.315840 0.317283 2.510494 0.035484 -0.021225 97029.200000 0 0 1
-20.051357 -6.886144 -31.540715 38.003850 0.330806 2.549787 0.045083 -0.024824 -9424.540000 0 0 1
-19.932757 -6.362744 -32.867835 38.962725 0.308987 2.574695 0.053852 -0.033188 421605.000000 0 0 1
-20.008257 -7.373844 33.830865 39.990391 0.353095 0.562406 0.051517 -0.024725 -464373.000000 0 0 1
-19.805257 -6.885044 32.393066 38.587080 0.334568 0.574472 0.045641 -0.018265 -120427.000000 0 0 1
-18.452857 -6.636144 32.067775 37.588409 0.345225 0.548842 0.058538 -0.019717 266102.000000 0 0 1
-18.099557 -5.279744 32.168969 37.286891 0.283830 0.530129 0.059013 -0.034018 1083900.000000 0 0 1
-16.639057 -4.961144 31.606535 36.061672 0.289770 0.502341 0.065472 -0.033789 1206060.000000 0 0 1
-16.640157 -5.000444 30.187705 34.830975 0.291920 0.522265 0.068440 -0.031977 170277.000000 0 0 1
-15.420257 -4.668144 29.574135 33.677965 0.293958 0.498826 0.063437 -0.022582 -66663.500000 0 0 1
-15.631557 -4.730144 28.044295 32.453079 0.293842 0.527340 0.071892 -0.022862 -31420.300000 0 0 1
-16.428957 -3.662044 27.632485 32.355454 0.219316 0.547116 0.066384 -0.026913 -11065.600000 0 0 1
-16.849857 -3.645444 26.287785 31.436517 0.213065 0.580446 0.083547 -0.028877 387746.000000 0 0 1
-15.784357 -3.093144 25.274255 29.958328 0.193510 0.566756 0.106951 -0.025940 431104.000000 0 0 1
-15.665357 -1.719144 25.264155 29.776440 0.109304 0.557725 0.105927 -0.030260 52899.300000 0 0 1
-14.574757 -1.275644 24.490755 28.528019 0.087302 0.538496 0.110077 -0.034532 21574.900000 0 0 1
-14.714157 0.204456 24.175825 28.302274 -0.013894 0.546785 0.092619 -0.019771 -183834.000000 0 0 1
-15.790457 0.508656 23.333325 28.178739 -0.032202 0.595181 0.095101 -0.029256 4091.900000 0 0 1
-16.159557 1.873456 23.401225 28.500148 -0.115420 0.607476 0.073918 -0.024174 63563.200000 0 0 1
-16.799557 2.556256 22.196825 27.954581 -0.151004 0.653383 0.087734 -0.029120 -249718.000000 0 0 1
-15.795757 3.116656 21.393225 26.774793 -0.194807 0.645156 0.082810 -0.014872 395388.000000 0 0 1
-16.282857 4.232956 20.634725 26.624072 -0.254334 0.684018 0.089469 -0.027557 118270.000000 0 0 1
-15.092857 4.954956 19.963225 25.512277 -0.317212 0.672134 0.084947 -0.020019 1017070.000000 0 0 1
-14.109357 5.550956 20.876625 25.801561 -0.374824 0.628139 0.054564 -0.013545 585188.000000 0 0 1
-12.921057 5.641556 20.148725 24.591706 -0.411669 0.610555 0.046752 -0.011985 -733605.000000 0 1 0
-11.905257 6.682756 20.547225 24.669471 -0.511499 0.586467 0.050244 -0.005236 -345343.000000 0 1 0
-12.375457 7.943456 20.199225 24.985178 -0.570640 0.629285 0.053703 -0.009817 314757.000000 0 1 0
-11.415457 8.945556 20.481325 25.096221 -0.664683 0.616146 0.042607 -0.007832 151662.000000 0 0 1
-12.045157 10.372556 20.526525 25.961779 -0.710925 0.658936 0.037347 -0.002896 144835.000000 0 0 1
-12.368757 10.921656 19.272325 25.371071 -0.723345 0.708071 0.035526 -0.002745 136251.000000 0 0 1
-13.325957 11.938456 19.401625 26.391872 -0.730534 0.744929 0.039706 -0.001049 -322877.000000 0 0 1
-13.654057 12.696856 18.112425 25.994295 -0.749089 0.799891 0.049964 -0.004800 184852.000000 0 0 1
-12.616157 13.554456 17.587225 25.538230 -0.821236 0.811153 0.037697 -0.009384 630088.000000 0 0 1
-12.462057 14.850356 18.088925 26.514998 -0.872620 0.820009 0.049269 -0.013223 -545982.000000 0 0 1
-13.442657 15.823656 17.425825 27.106318 -0.866576 0.872558 0.044144 -0.013343 -270368.000000 0 0 1
-13.251757 16.234556 16.057025 26.400718 -0.886214 0.917000 0.024451 -0.022299 -71295.900000 0 0 1
-13.618157 15.291256 15.064325 25.420673 -0.843208 0.936512 0.052675 -0.025444 -211476.000000 0 0 1
-14.063257 15.974556 13.791325 25.360644 -0.848942 0.995828 0.037227 -0.028274 -717512.000000 0 0 1
-15.234057 16.688856 13.946125 26.553508 -0.830939 1.017836 0.036479 -0.028411 -961602.000000 0 0 1
-15.679557 16.990556 12.684125 26.370713 -0.825505 1.069010 0.029483 -0.028039 486463.000000 0 0 1
-16.892457 18.013556 12.644925 27.744142 -0.817505 1.097560 0.062092 -0.031192 1437000.000000 0 0 1
-18.121957 17.376656 13.069425 28.304829 -0.764406 1.090842 0.075497 -0.027812 1044390.000000 0 0 1
-19.157757 18.330256 13.323625 29.673842 -0.763328 1.105148 0.083193 -0.025045 248176.000000 0 0 1
-20.580257 17.768056 13.415425 30.318714 -0.712196 1.112434 0.091266 -0.021805 -130197.000000 0 0 1
-21.040057 17.176356 12.220225 29.783302 -0.684640 1.148008 0.094772 -0.016387 189101.000000 0 0 1
-22.392357 16.768456 12.425425 30.610292 -0.642763 1.152808 0.116049 -0.026826 626027.000000 0 0 1
-23.073857 16.273156 11.088125 30.334222 -0.614250 1.196592 0.117094 -0.019300 75999.200000 0 0 1
-22.564157 15.036156 10.722925 29.158331 -0.587800 1.194210 0.104775 -0.009231 105443.000000 0 0 1
-23.270057 14.515356 9.560525 29.044703 -0.557720 1.235376 0.119269 -0.003115 214200.000000 0 0 1
-22.640357 13.291456 8.856025 27.706998 -0.530857 1.245456 0.122840 -0.011677 -434347.000000 0 0 1
-22.647057 12.036556 9.490725 27.346695 -0.488517 1.216370 0.117162 -0.021855 403491.000000 0 0 1
-23.887057 11.523156 9.968125 28.332634 -0.449470 1.211276 0.159205 -0.026044 289552.000000 0 0 1
-24.891857 10.849356 9.022525 28.613267 -0.411033 1.249996 0.172656 -0.019803 -221078.000000 0 0 1
-25.431907 11.845156 8.099325 29.200834 -0.435882 1.289745 0.177327 -0.020465 741543.000000 0 0 1
-26.444057 11.142856 7.344025 29.620704 -0.398796 1.320248 0.229621 -0.028682 68110.600000 0 0 1
-27.123027 12.015056 6.248525 30.316072 -0.417004 1.363196 0.214939 -0.022643 3338.790000 0 0 1
-26.399997 12.244456 5.003725 29.528356 -0.434275 1.400520 0.206757 -0.038118 838837.000000 0 0 1
-25.107667 12.830656 5.098025 28.653282 -0.472429 1.391923 0.188343 -0.039157 -48431.500000 0 0 1
-25.043647 14.356556 5.264925 29.343047 -0.520527 1.390393 0.174201 -0.020866 206994.000000 0 0 1
-23.673657 14.770356 5.306525 28.403603 -0.557819 1.382866 0.164643 -0.022397 899448.000000 0 0 1
-23.678657 16.089256 5.792325 29.207773 -0.596823 1.371158 0.151434 -0.019473 -1404450.000000 0 0 1
-22.312357 16.630156 5.986725 28.464790 -0.640508 1.358894 0.136339 -0.011232 -1428220.000000 0 0 1
-21.728057 17.051956 4.773025 28.029617 -0.665397 1.399677 0.147077 -0.033681 255370.000000 0 0 1
-20.408857 17.517556 4.957425 27.348899 -0.709311 1.388523 0.153988 -0.023553 -236087.000000 0 0 1
-20.016857 18.651756 4.026125 27.654516 -0.750110 1.424691 0.144101 -0.011343 -727111.000000 0 0 1
-18.653757 18.937556 4.160725 26.905489 -0.792948 1.415531 0.133833 -0.012259 -207072.000000 0 0 1
-18.220357 20.004956 3.401125 27.271731 -0.832051 1.445758 0.137862 -0.013214 15059.800000 0 0 1
-18.483557 21.399856 3.998125 28.558374 -0.858389 1.430337 0.097598 -0.022899 -421535.000000 0 0 1
-17.676757 21.583756 5.117725 28.364016 -0.884586 1.389373 0.110682 -0.027141 11374.400000 0 0 1
-18.014857 22.825856 5.690725 29.630038 -0.902657 1.377536 0.078358 -0.022862 -223248.000000 0 0 1
-17.085757 23.359456 6.821725 29.734209 -0.939288 1.339311 0.056982 -0.010304 35608.000000 0 0 1
-17.392257 22.721956 8.019725 29.716896 -0.917488 1.297537 0.060195 -0.010244 337799.000000 0 0 1
-16.594857 23.281456 9.069925 29.994650 -0.951536 1.263603 0.054338 -0.017124 22086.600000 0 0 1
-16.932657 22.797856 10.486025 30.272328 -0.931964 1.217076 0.041732 -0.010944 -624874.000000 0 0 1
-18.180757 23.197556 10.935525 31.436479 -0.906051 1.215508 0.048304 -0.013091 -1168010.000000 0 0 1
-19.060757 22.094856 11.103625 31.221557 -0.858988 1.207198 0.052340 -0.018851 -763612.000000 0 0 1
-20.429157 22.654256 11.456825 32.585650 -0.836999 1.211526 0.064617 -0.025897 -619275.000000 0 0 1
-21.196057 23.254856 10.414925 33.144107 -0.831681 1.251149 0.078448 -0.015948 89556.800000 0 0 1
-20.747657 24.543556 10.119325 33.693503 -0.869014 1.265753 0.051573 -0.019266 -655801.000000 0 0 1
-21.889857 25.474756 9.671925 34.952470 -0.860941 1.290421 0.066355 -0.017043 364793.000000 0 0 1
-22.822257 25.740956 10.722625 36.033691 -0.845427 1.268648 0.085861 -0.028890 62167.200000 0 0 1
-23.819457 26.609556 10.267425 37.159858 -0.840669 1.290850 0.095735 -0.020042 -67558.400000 0 0 1
-24.587957 27.470756 11.323325 38.567185 -0.840718 1.272806 0.094720 -0.036000 177106.000000 0 0 1
-23.734257 28.429756 11.962325 38.918674 -0.875170 1.258371 0.104204 -0.032741 879839.000000 0 0 1
-24.453257 29.313556 12.857125 40.280914 -0.875549 1.245925 0.101336 -0.027861 175002.000000 0 0 1
9.983843 -32.207290 28.265505 43.999152 -1.270202 0.873157 0.041410 -0.030683 -679459.000000 0 0 1
11.317943 -32.346290 27.872865 44.173237 -1.234211 0.887968 0.039741 -0.035380 -29579.300000 0 0 1
11.332343 -32.115990 26.488785 43.145272 -1.231579 0.909749 0.055450 -0.029394 517505.000000 0 0 1
12.822843 -32.159790 25.997145 43.295830 -1.191391 0.926728 0.035071 -0.023085 247248.000000 0 0 1
13.329843 -33.429290 26.047255 44.425912 -1.191370 0.944303 0.053158 -0.029850 195332.000000 0 0 1
14.637843 -33.483990 25.493145 44.557204 -1.158672 0.961678 0.063253 -0.028726 428222.000000 0 0 1
15.327643 32.870456 25.240435 44.186910 1.134467 0.962805 0.094974 -0.025421 981.177000 0 0 1
15.193143 32.237956 24.022625 42.979110 1.130387 0.977693 0.072921 -0.037988 -137631.000000 0 0 1
16.196643 31.276256 23.894425 42.561473 1.092965 0.974708 0.090441 -0.035897 -384421.000000 0 0 1
16.446243 30.757556 22.412225 41.458581 1.079771 0.999654 0.086085 -0.046800 332009.000000 0 0 1
15.411143 29.909356 21.871425 40.130190 1.095014 0.994393 0.082462 -0.038693 246570.000000 0 0 1
15.480743 28.526156 22.174025 39.307535 1.073586 0.971434 0.089786 -0.036252 -94774.600000 0 0 1
14.849843 28.059956 23.482955 39.488329 1.084048 0.933928 0.100897 -0.037364 -473366.000000 0 0 1
15.743543 28.280656 24.549305 40.624168 1.062832 0.921906 0.099134 -0.030194 -21410.100000 0 0 1
15.251943 27.874456 25.780175 40.917288 1.070132 0.889171 0.089007 -0.033354 -112487.000000 0 0 1
16.239543 28.250356 26.942355 42.281152 1.049079 0.879912 0.100510 -0.035984 388600.000000 0 0 1
16.337143 29.624156 27.108605 43.351693 1.066817 0.895257 0.103769 -0.035207 -120733.000000 0 0 1
17.012343 29.943556 28.269915 44.555857 1.054127 0.883457 0.129029 -0.038924 -259721.000000 0 0 1
16.947943 31.467956 28.545675 45.741891 1.076765 0.896869 0.140024 -0.046840 218183.000000 0 0 1
17.851443 32.288856 27.827875 46.212929 1.065755 0.924584 0.124308 -0.039958 80055.000000 0 0 1
17.532743 33.609056 28.208145 47.251086 1.089966 0.931060 0.128172 -0.030305 57692.300000 0 0 1
18.360143 -32.986790 27.549635 46.735485 -1.062907 0.940381 0.110850 -0.030190 -457859.000000 0 0 1
18.238843 -32.944490 26.168765 45.856287 -1.065175 0.963476 0.115805 -0.023524 -90538.500000 0 0 1
18.578643 -31.686290 25.573105 44.756794 -1.040488 0.962611 0.111503 -0.030162 -752312.000000 0 0 1
20.049243 -31.322190 25.477645 45.079509 -1.001414 0.970155 0.116613 -0.028934 -804436.000000 0 0 1
20.632043 -30.793690 26.656125 45.656122 -0.980484 0.947339 0.119691 -0.027309 128434.000000 0 0 1
21.678343 -29.910190 26.265825 45.326191 -0.943632 0.952700 0.121217 -0.030816 193183.000000 0 0 1
22.004343 -28.937090 27.450175 45.552809 -0.920660 0.924040 0.136232 -0.032570 -840817.000000 0 0 1
20.897743 -28.177690 27.781365 44.749325 -0.932666 0.901006 0.133658 -0.038771 -312165.000000 0 0 1
21.156843 -27.367190 28.940565 45.101346 -0.912691 0.874112 0.146385 -0.028547 145474.000000 0 0 1
19.830643 -26.927190 29.612815 44.668185 -0.936021 0.846043 0.128328 -0.034586 335756.000000 0 0 1
19.080143 -26.022690 28.797025 43.249288 -0.938127 0.842180 0.129902 -0.041730 1202970.000000 0 0 1
17.760843 -25.903090 29.390715 43.014320 -0.969756 0.818554 0.116887 -0.043862 885936.000000 0 0 1
16.667343 -25.254690 28.530125 41.588072 -0.987444 0.814796 0.123680 -0.034914 -636868.000000 0 0 1
16.230643 -25.981290 27.382235 41.088295 -1.012409 0.841394 0.127031 -0.038686 168229.000000 0 0 1
15.683143 -25.204190 26.342155 39.687798 -1.014182 0.844996 0.121245 -0.048910 -608378.000000 0 0 1
14.260043 -24.664790 26.538915 38.936033 -1.046595 0.820845 0.100848 -0.040101 -482221.000000 0 0 1
13.161043 -25.494290 26.763305 39.235779 -1.094245 0.820146 0.084467 -0.030595 239911.000000 0 0 1
12.704943 -26.281590 25.688945 38.885208 -1.120504 0.849131 0.069211 -0.028969 -196234.000000 0 0 1
11.865243 -27.559290 25.952865 39.671774 -1.164247 0.857686 0.062558 -0.026203 79928.500000 0 0 1
10.516243 -27.455290 26.300965 39.447751 -1.205003 0.840985 0.052727 -0.030421 -357879.000000 0 0 1
9.794443 -28.630090 26.520545 40.236208 -1.241174 0.851147 0.033802 -0.026856 300840.000000 0 0 1
8.261343 -28.404290 26.706615 39.853441 -1.287756 0.836425 0.030699 -0.028543 612775.000000 0 0 1
7.474843 -28.355190 25.521605 38.874701 -1.313046 0.854614 0.055102 -0.027582 215257.000000 0 0 1
7.565043 -27.099890 24.827075 37.523560 -1.298572 0.847793 0.083152 -0.025228 -519608.000000 0 0 1
6.337243 -26.913990 23.905225 36.551105 -1.339546 0.857907 0.082604 -0.025673 -150597.000000 0 0 1
6.146743 -27.854090 22.854245 36.550640 -1.353601 0.895311 0.078905 -0.024103 73905.900000 0 0 1
5.485043 -29.098190 23.126565 37.571643 -1.384481 0.907735 0.089017 -0.024739 1727180.000000 0 0 1
3.962243 -29.061390 23.629475 37.664517 -1.435291 0.892629 0.123179 -0.024588 2013680.000000 0 0 1
2.945943 -28.596990 22.684255 36.620238 -1.468143 0.902760 0.136379 -0.029667 778022.000000 0 0 1
1.686743 -28.484890 23.309455 36.845145 -1.511650 0.885848 0.158668 -0.025461 -21050.100000 0 0 1
1.408543 -26.939590 23.575865 35.826623 -1.518559 0.852564 0.143837 -0.032989 -459037.000000 0 0 1
2.219943 -26.373290 24.551305 36.100487 -1.486820 0.822921 0.109627 -0.030486 -5643.040000 0 0 1
1.809243 -25.031190 24.734705 35.236905 -1.498642 0.792658 0.099623 -0.028925 297087.000000 0 0 1
2.860243 -24.285490 25.633575 35.426631 -1.453561 0.761839 0.090676 -0.025183 473685.000000 0 0 1
4.176143 -24.248590 25.075225 35.131200 -1.400247 0.775945 0.080292 -0.026427 832953.000000 0 0 1
5.119643 -23.410790 25.769395 35.190020 -1.355498 0.749114 0.065089 -0.022320 447215.000000 0 0 1
4.741043 -21.944990 26.050455 34.390206 -1.358024 0.711327 0.058921 -0.012852 -1060380.000000 0 0 1
4.822143 -21.144090 24.882695 33.007183 -1.346570 0.716884 0.053299 -0.011817 46027.900000 0 0 1
3.986443 -20.029390 24.969005 32.257083 -1.374334 0.685563 0.075810 -0.030165 -220077.000000 0 0 1
3.895143 -19.084290 23.757855 30.721620 -1.369460 0.686724 0.093308 -0.034775 1173210.000000 0 0 1
5.154343 -18.401790 23.490915 30.282275 -1.297695 0.682923 0.069444 -0.021873 855263.000000 0 0 1
5.197243 -17.775090 22.185325 28.899027 -1.286337 0.695577 0.067250 -0.018014 362538.000000 0 0 1
6.583543 -17.155590 21.866625 28.562328 -1.204372 0.698861 0.065293 -0.011872 60381.600000 0 0 1
7.599243 -18.062790 21.593525 29.159787 -1.172563 0.736946 0.065114 -0.011540 -1083340.000000 0 0 1
8.778143 -17.410890 21.247825 28.838601 -1.103814 0.742495 0.072961 -0.011612 -87663.000000 0 0 1
9.993643 -17.665290 22.168825 30.056483 -1.055963 0.741328 0.099179 -0.008496 125155.000000 0 0 1
9.900243 -16.882390 23.367955 30.480997 -1.040419 0.697205 0.100077 -0.002254 286503.000000 0 0 1
11.069343 -17.081590 24.149385 31.583284 -0.995809 0.700336 0.107146 -0.003004 350337.000000 0 0 1
11.188843 -15.923290 25.218415 31.854510 -0.958280 0.657251 0.125913 -0.021621 -175753.000000 0 0 1
11.555043 -14.564790 24.967225 31.128997 -0.900121 0.640065 0.144562 -0.025995 240353.000000 0 0 1
11.592743 -13.764290 26.157445 31.749949 -0.870829 0.602612 0.134567 -0.035453 116316.000000 0 0 1
11.961343 -12.275590 25.954155 31.102765 -0.798363 0.583636 0.146537 -0.045801 -535795.000000 0 0 1
10.864843 -11.606190 25.441455 30.000268 -0.818377 0.558519 0.146227 -0.035868 -397015.000000 0 0 1
11.049043 -10.221390 25.335865 29.469717 -0.746507 0.536064 0.147636 -0.037818 -350789.000000 0 0 1
9.904943 -9.494990 24.628905 28.193007 -0.764270 0.508282 0.128496 -0.026743 -96848.700000 0 0 1
8.705943 -9.340790 25.349255 28.383596 -0.820562 0.466617 0.121648 -0.032934 52461.400000 0 0 1
7.628843 -9.015390 24.492325 27.191000 -0.868511 0.449300 0.103999 -0.033662 1114500.000000 0 0 1
6.180043 -9.054890 25.117905 27.406078 -0.971906 0.411533 0.093272 -0.038322 -291615.000000 0 0 1
5.773443 -8.011490 26.059915 27.868186 -0.946348 0.362217 0.105775 -0.033883 241108.000000 0 0 1
4.468143 -8.171490 26.578645 28.163130 -1.070416 0.337036 0.108928 -0.037739 40151.800000 0 0 1
3.325743 -8.180990 25.573585 27.055450 -1.184681 0.332502 0.083792 -0.034098 -1466180.000000 0 0 1
3.138243 -6.938690 24.948555 26.084945 -1.146047 0.296260 0.078429 -0.032901 -687396.000000 0 0 1
1.988343 -6.993590 24.167495 25.237504 -1.293796 0.292235 0.071951 -0.030628 -164477.000000 0 0 1
1.781443 -5.611090 23.471105 24.198153 -1.263375 0.245753 0.049151 -0.027680 54936.800000 0 1 0
1.360743 -4.570090 24.344765 24.807356 -1.281405 0.193420 0.043682 -0.019099 -321564.000000 0 1 0
1.785243 -3.329590 23.898335 24.195116 -1.078629 0.156789 0.042417 -0.010751 -1016900.000000 0 1 0
1.087043 -2.679290 22.671925 22.855556 -1.185368 0.126848 0.033437 -0.019706 -475900.000000 0 1 0
0.001243 -1.870290 22.892175 22.968449 -1.570132 0.081519 0.031621 -0.021508 -1399980.000000 0 1 0
-1.167257 -2.502290 23.281145 23.444309 1.134326 0.118049 0.037326 -0.025644 -1151950.000000 0 1 0
-2.162257 -1.452290 23.804245 23.946327 0.591448 0.108988 0.040832 -0.030798 -390767.000000 0 1 0
-1.548357 -0.756290 24.825715 24.885447 0.454362 0.069300 0.058563 -0.032599 -16256.300000 0 1 0
-2.258257 0.397710 25.169605 25.273838 -0.174326 0.090852 0.068149 -0.034847 -351908.000000 0 0 1
-1.561057 1.240710 26.250705 26.326332 -0.671555 0.075816 0.101247 -0.038211 -334575.000000 0 0 1
-1.782757 0.812710 27.594535 27.664003 -0.427727 0.070883 0.120719 -0.034058 201623.000000 0 0 1
-1.054957 -0.374290 27.957145 27.979545 0.340937 0.040018 0.124178 -0.038636 -606474.000000 0 0 1
0.378243 -0.136290 28.440675 28.443516 -0.345843 0.014135 0.138400 -0.037011 -1020300.000000 0 0 1
1.293143 0.367710 27.525455 27.558267 0.277041 0.048804 0.110518 -0.032020 -309895.000000 0 0 1
1.849943 -0.579290 26.591645 26.662210 -0.303467 0.072771 0.095374 -0.030030 394288.000000 0 0 1
2.989743 -1.543290 27.111465 27.319440 -0.476519 0.123470 0.091820 -0.028978 102003.000000 0 0 1
2.489743 -2.478290 28.063465 28.282482 -0.783093 0.124531 0.107633 -0.037989 471768.000000 0 0 1
3.404643 -3.567190 28.384375 28.809532 -0.808709 0.172012 0.123756 -0.035774 435066.000000 0 0 1
3.991743 -4.463290 27.293175 27.942304 -0.841112 0.215970 0.111422 -0.033142 -67797.100000 0 0 1
5.109943 -3.777990 26.762425 27.506583 -0.636644 0.233138 0.102389 -0.029041 -169750.000000 0 0 1
5.655043 -4.534490 25.662295 26.666355 -0.675867 0.275287 0.088836 -0.027113 -1682780.000000 0 0 1
6.859843 -3.924490 24.997955 26.217490 -0.519649 0.306207 0.084737 -0.026707 -943085.000000 0 0 1
7.991043 -4.001890 25.867085 27.367462 -0.464285 0.332661 0.080938 -0.026042 80486.500000 0 0 1
8.656343 -5.238790 25.853915 27.763323 -0.544232 0.373035 0.095317 -0.020260 -777358.000000 0 0 1
9.540243 -5.573890 24.600815 26.968214 -0.528758 0.422138 0.077911 -0.026486 -395499.000000 0 0 1
8.786943 -5.790290 23.403835 25.660812 -0.582652 0.422551 0.076493 -0.030113 -355954.000000 0 0 1
9.456443 -5.546890 22.215125 24.773051 -0.530488 0.458436 0.080814 -0.024853 -238692.000000 0 1 0
9.495043 -4.037890 21.588025 23.927039 -0.402093 0.445851 0.086121 -0.022684 1590680.000000 0 1 0
8.217743 -3.612990 21.002125 22.840189 -0.414220 0.403926 0.065693 -0.027133 1017070.000000 0 1 0
8.341343 -2.547290 20.117225 21.926455 -0.296386 0.409082 0.062831 -0.028445 -103559.000000 0 1 0
7.014443 -1.806290 19.864925 21.144274 -0.252034 0.349645 0.055968 -0.024956 59103.900000 0 1 0
6.620943 -1.081290 20.999625 22.045188 -0.161884 0.309218 0.061046 -0.019558 -572445.000000 0 1 0
5.361143 -0.507290 20.834325 21.519021 -0.094343 0.252936 0.043240 -0.013846 -279197.000000 0 1 0
4.657843 -0.208290 22.203225 22.687487 -0.044688 0.206984 0.039697 -0.014459 156682.000000 0 1 0
3.444643 0.519710 22.089225 22.362234 0.149745 0.156419 0.043652 -0.014909 -86655.000000 0 1 0
2.969343 0.821710 23.347735 23.550136 0.269975 0.131201 0.062323 -0.014372 -1411470.000000 0 1 0
1.525143 1.185710 23.356585 23.436340 0.660834 0.082522 0.066366 -0.023541 -1334220.000000 0 1 0
1.277543 2.520710 22.864415 23.038393 1.101709 0.122973 0.068264 -0.021879 144496.000000 0 1 0
-0.090157 2.878710 22.797955 22.979161 -1.539488 0.125667 0.053115 -0.021830 187171.000000 0 1 0
-0.416057 4.341710 22.403925 22.824535 -1.475260 0.192275 0.063170 -0.018425 -60910.700000 0 1 0
-0.199257 5.326710 23.405895 24.005196 -1.533407 0.223920 0.086185 -0.016842 -163059.000000 0 1 0
-0.877157 6.544710 23.163935 24.086729 -1.437565 0.277699 0.066634 -0.013612 -63283.100000 0 1 0
-0.782357 7.613710 24.254975 25.433923 -1.468399 0.305666 0.075182 -0.005825 248204.000000 0 0 1
0.291943 8.509710 23.998175 25.463951 1.536503 0.340951 0.077969 -0.003005 174004.000000 0 0 1
-0.033757 9.767710 24.507805 26.382604 -1.567340 0.379262 0.100549 -0.012375 -264768.000000 0 0 1
0.519343 11.015710 23.654235 26.098628 1.523686 0.436256 0.103189 -0.022141 150495.000000 0 0 1
1.888243 11.285710 23.627735 26.252668 1.405019 0.450998 0.091821 -0.019028 -502817.000000 0 0 1
2.654343 11.464710 24.797255 27.447932 1.343282 0.443095 0.114249 -0.020235 -819525.000000 0 0 1
4.025743 12.087710 24.578145 27.684012 1.249306 0.478232 0.096520 -0.021965 642684.000000 0 0 1
5.076843 11.214710 24.032945 27.002342 1.145704 0.473381 0.080823 -0.016638 1041300.000000 0 0 1
4.885343 10.803710 22.675455 25.588337 1.146122 0.481797 0.066656 -0.024539 -749988.000000 0 0 1
6.166943 10.206710 22.062125 25.078785 1.027291 0.495539 0.068985 -0.026247 267701.000000 0 0 1
7.131743 11.213710 21.736725 25.477328 1.004337 0.548746 0.053645 -0.029835 387829.000000 0 0 1
8.308843 10.585710 21.248025 25.150997 0.905324 0.564571 0.064349 -0.037477 72252.500000 0 0 1
9.352743 11.573710 20.728825 25.516832 0.891134 0.622611 0.052734 -0.036661 -551246.000000 0 0 1
8.956043 12.153710 19.514225 24.672420 0.935733 0.658465 0.050965 -0.045478 -94911.700000 0 1 0
9.773743 13.198710 19.122125 25.206897 0.933398 0.709624 0.061602 -0.043170 942333.000000 0 0 1
11.240443 12.989710 18.564625 25.292794 0.857467 0.746620 0.060470 -0.046016 821620.000000 0 0 1
12.276243 12.939710 19.513725 26.437240 0.811704 0.740524 0.072543 -0.045843 -134087.000000 0 0 1
13.481243 12.743710 18.789025 26.404043 0.757282 0.779028 0.084367 -0.045426 -438590.000000 0 0 1
14.682143 12.662710 19.711025 27.648400 0.711681 0.777147 0.111495 -0.038696 -760080.000000 0 0 1
15.248443 13.856710 20.126625 28.802855 0.737617 0.797117 0.117506 -0.043449 -27518.000000 0 0 1
16.422843 13.571710 20.862325 29.818411 0.690628 0.795895 0.125349 -0.047627 209506.000000 0 0 1
17.225443 14.772710 21.376525 31.175385 0.708895 0.815251 0.122555 -0.047260 -293144.000000 0 0 1
16.601543 15.451710 22.399325 31.876266 0.749541 0.791617 0.127466 -0.046613 -169540.000000 0 0 1
17.413043 16.468710 22.895725 33.145839 0.757534 0.808261 0.115092 -0.039337 -356317.000000 0 0 1
-21.518157 12.787456 -24.436865 34.981574 -0.536191 2.344185 0.072408 -0.008100 -59744.200000 0 0 1
-21.709757 12.381756 -25.803905 35.923014 -0.518319 2.372168 0.074685 -0.021387 -130401.000000 0 0 1
-22.440757 13.375956 -26.447625 37.175000 -0.537515 2.362335 0.078630 -0.021346 -324235.000000 0 0 1
-22.202057 13.438756 -27.991885 38.171680 -0.544303 2.393982 0.074566 -0.020973 780023.000000 0 0 1
-20.889357 13.975556 -28.247145 37.809822 -0.589635 2.414462 0.098757 -0.015713 606737.000000 0 0 1
-20.757857 14.422156 -29.539025 38.877258 -0.607214 2.433805 0.100412 -0.025764 887105.000000 0 0 1
-19.310357 15.038956 -29.686555 38.475338 -0.661681 2.452107 0.086024 -0.022480 1948460.000000 0 0 1
-18.249157 14.023756 -29.694125 37.569117 -0.655212 2.482236 0.087758 -0.020502 -203723.000000 0 0 1
-17.001057 14.586456 -29.849055 37.319790 -0.709105 2.497789 0.081059 -0.016894 -726203.000000 0 0 1
-15.983457 14.190356 -28.791355 35.857764 -0.726042 2.502995 0.103956 -0.003332 -315926.000000 0 0 1
-16.395457 14.722256 -27.522415 35.256761 -0.731680 2.466466 0.136761 -0.017721 155118.000000 0 0 1
-17.066757 13.709256 -26.770675 34.581598 -0.676733 2.456137 0.148391 -0.010299 66042.900000 0 0 1
-17.726257 14.170356 -25.444665 34.094723 -0.674374 2.413272 0.135539 -0.012455 -19024.400000 0 0 1
-16.834257 14.644356 -24.438665 33.092261 -0.715942 2.401641 0.178335 -0.036264 367843.000000 0 0 1
-17.569657 14.974156 -23.285665 32.789334 -0.705813 2.360521 0.173973 -0.038829 556188.000000 0 0 1
-16.588457 15.569356 -22.201665 31.788295 -0.753718 2.343987 0.181838 -0.032631 560413.000000 0 0 1
-16.025257 16.750656 -22.766165 32.491408 -0.807527 2.347150 0.163158 -0.035685 -219135.000000 0 0 1
-15.322757 17.485656 -21.805165 31.874759 -0.851228 2.324150 0.156657 -0.030139 -702989.000000 0 0 1
-15.266857 18.975556 -22.177865 32.939435 -0.893285 2.309449 0.137936 -0.028755 -583762.000000 0 0 1
-16.431557 19.725556 -22.111765 33.882500 -0.876250 2.281809 0.117932 -0.022115 -617649.000000 0 0 1
-17.336857 19.438356 -23.143065 34.842758 -0.842481 2.297239 0.091625 -0.017910 124798.000000 0 0 1
-18.694657 20.226756 -23.159365 35.985665 -0.824742 2.269952 0.085108 -0.014555 780351.000000 0 0 1
-18.531757 21.583856 -23.487565 36.891118 -0.861334 2.260972 0.069040 -0.013368 -95531.400000 0 0 1
-19.761157 22.252156 -23.694265 38.040504 -0.844620 2.243201 0.094496 -0.020440 206561.000000 0 0 1
-19.595457 23.784156 -24.014265 39.068567 -0.881659 2.232763 0.069776 -0.021529 -10616.400000 0 0 1
-19.126457 24.531656 -22.904665 38.629616 -0.908579 2.205489 0.066918 -0.014123 -521967.000000 0 0 1
-18.291457 25.545756 -23.351565 39.146630 -0.949395 2.209949 0.069857 -0.015381 -140457.000000 0 0 1
-17.145357 25.815156 -22.325765 38.194572 -0.984532 2.195094 0.089066 -0.023045 417919.000000 0 0 1
-16.130357 24.842656 -22.107565 36.960660 -0.994913 2.211972 0.099922 -0.036859 350874.000000 0 0 1
-16.608757 23.705356 -21.432365 36.015844 -0.959646 2.208163 0.095385 -0.019200 -907972.000000 0 0 1
-15.538857 22.612156 -21.243865 34.699676 -0.968719 2.229663 0.116021 -0.027153 -135284.000000 0 0 1
-14.832257 22.911156 -20.060465 33.872396 -0.996264 2.204628 0.128188 -0.042991 -774299.000000 0 0 1
-13.930157 21.904756 -19.818465 32.659442 -1.004367 2.222852 0.101322 -0.035573 -56626.800000 0 0 1
-12.902557 22.189556 -18.638865 31.721596 -1.044113 2.198857 0.095677 -0.039881 536317.000000 0 0 1
-13.412057 22.087456 -17.327265 31.112266 -1.025081 2.161478 0.110229 -0.034981 -84847.600000 0 0 1
-14.184457 23.144156 -16.809765 31.928341 -1.020964 2.125256 0.123052 -0.044017 -45656.600000 0 0 1
-14.615557 22.925756 -15.330465 31.212625 -1.003247 2.084220 0.140680 -0.049409 470202.000000 0 0 1
-13.673957 23.561656 -14.451865 30.838047 -1.044952 2.058544 0.132334 -0.064701 277175.000000 0 0 1
-14.164157 23.711356 -13.171265 30.599575 -1.032322 2.015776 0.144498 -0.057577 31482.600000 0 0 1
-13.104057 24.411056 -12.262665 30.298332 -1.078137 1.987481 0.183771 -0.056780 159505.000000 0 0 1
-12.806057 25.764656 -12.418865 31.337530 -1.109520 1.978273 0.163354 -0.064246 651591.000000 0 0 1
-11.855557 26.135756 -11.369565 30.869062 -1.144941 1.947993 0.094844 -0.045314 558714.000000 0 0 1
-11.361957 27.559756 -11.584465 31.981777 -1.179761 1.941446 0.129392 -0.036628 -272017.000000 0 0 1
-10.641757 27.579356 -12.767865 32.200718 -1.202539 1.978507 0.122453 -0.031445 -280878.000000 0 0 1
-10.749057 28.813756 -13.476165 33.576507 -1.213734 1.983794 0.081796 -0.018095 -464401.000000 0 0 1
-10.174657 28.682756 -14.934965 33.900993 -1.229913 2.027004 0.127889 -0.047571 -335450.000000 0 0 1
-8.802757 28.676156 -15.144465 33.603055 -1.272956 2.038331 0.100930 -0.046152 -598223.000000 0 0 1
-8.106057 27.515056 -14.663465 32.214960 -1.284297 2.043366 0.105263 -0.038820 -599164.000000 0 0 1
-6.623057 27.535156 -15.032365 32.062778 -1.334749 2.058775 0.100828 -0.039984 -369774.000000 0 0 1
-5.879457 28.498456 -14.375665 32.455966 -1.367343 2.029659 0.091164 -0.030630 -618724.000000 0 0 1
-4.511357 28.431056 -14.718465 32.331262 -1.413431 2.043437 0.103248 -0.034187 302409.000000 0 0 1
-3.656757 29.469856 -13.937565 32.803963 -1.447343 2.009619 0.076909 -0.025832 -1331.460000 0 0 1
-3.805157 30.814456 -14.329065 34.195497 -1.447932 2.003177 0.065650 -0.017714 730829.000000 0 0 1
-4.958557 31.518156 -13.785065 34.756431 -1.414752 1.978627 0.069652 -0.018516 895615.000000 0 0 1
-4.837057 33.039056 -14.030265 36.219120 -1.425425 1.968575 0.068942 -0.021299 -142687.000000 0 0 1
-3.958557 33.647856 -13.131865 36.335854 -1.453688 1.940568 0.045465 -0.023234 -352068.000000 0 0 1
-3.629157 -32.726890 -13.512065 35.592078 1.460355 1.960200 0.049704 -0.021668 510826.000000 0 0 1
-2.469257 -32.265290 -12.588265 34.721904 1.494415 1.941794 0.053565 -0.027706 209204.000000 0 0 1
-2.991557 -31.878590 -11.326865 33.963095 1.477228 1.910815 0.059352 -0.029187 -712341.000000 0 0 1
-2.004757 -31.555190 -10.445965 33.299659 1.507350 1.889879 0.052111 -0.034547 -623290.000000 0 0 1
-2.576957 -31.375890 -8.976965 32.736418 1.488848 1.848574 0.058471 -0.029702 -153597.000000 0 0 1
-1.691157 -30.722190 -8.125065 31.823414 1.515805 1.828972 0.058389 -0.028770 -474029.000000 0 0 1
-2.048257 -30.840890 -6.774265 31.642480 1.504480 1.786554 0.070481 -0.031846 -82068.500000 0 0 1
-0.883657 -30.385190 -5.882565 30.961996 1.541723 1.761951 0.086324 -0.024198 216983.000000 0 0 1
-1.130757 -30.602490 -4.526665 30.956126 1.533863 1.717551 0.102063 -0.031395 581365.000000 0 0 1
-0.022957 -29.975990 -3.838165 30.220722 1.570030 1.698145 0.087101 -0.020766 566938.000000 0 0 1
0.181043 -30.130890 -2.275265 30.217216 -1.564788 1.646165 0.084876 -0.017183 -204959.000000 0 0 1
0.490543 -31.445590 -1.769665 31.499166 -1.555198 1.627007 0.086620 -0.028737 -279504.000000 0 0 1
1.626243 -32.121290 -2.215765 32.238666 -1.520211 1.639581 0.074613 -0.026911 -314762.000000 0 0 1
2.987843 -31.690290 -1.638065 31.872950 -1.476792 1.622213 0.067310 -0.016514 -831569.000000 0 0 1
3.348143 -32.209590 -0.361865 32.385162 -1.467220 1.581970 0.056168 -0.018108 -116624.000000 0 0 1
4.624543 -31.883890 0.115635 32.217731 -1.426758 1.567207 0.045711 -0.011187 -60161.800000 0 0 1
5.094043 -30.399190 0.335135 30.824866 -1.404767 1.559924 0.035310 -0.016236 -859953.000000 0 0 1
5.148243 -29.724590 -0.901965 30.180610 -1.399300 1.600686 0.048838 -0.021296 -1129.380000 0 0 1
4.836043 -28.408890 -0.576365 28.823333 -1.402183 1.590794 0.060608 -0.016833 -557853.000000 0 0 1
4.370443 -27.609690 -1.787665 28.010561 -1.413805 1.634661 0.064142 -0.012729 182648.000000 0 0 1
3.122843 -28.037690 -2.336465 28.307654 -1.459873 1.653429 0.073891 -0.008897 621273.000000 0 0 1
2.589343 -27.084490 -3.261465 27.402764 -1.475484 1.690099 0.081859 -0.011767 136163.000000 0 0 1
3.126343 -27.260690 -4.734765 27.844878 -1.456612 1.741667 0.076954 -0.012736 -138996.000000 0 0 1
2.488943 -28.191090 -5.561465 28.842023 -1.482736 1.764837 0.083575 -0.014949 -258874.000000 0 0 1
2.896343 -28.062590 -6.921765 29.048384 -1.467950 1.811395 0.098384 -0.023112 -213489.000000 0 0 1
2.152443 -28.838090 -8.018565 30.009429 -1.496296 1.841284 0.083617 -0.025420 193613.000000 0 0 1
0.841143 -28.313190 -8.203665 29.489733 -1.541097 1.852703 0.085225 -0.018223 -81231.900000 0 0 1
0.477543 -28.359390 -9.591765 29.941360 -1.553959 1.896897 0.084585 -0.022125 904753.000000 0 0 1
-0.925457 -27.711190 -9.890565 29.437897 1.537412 1.913443 0.060113 -0.021089 289563.000000 0 0 1
-0.963357 -26.335490 -9.548665 28.029682 1.534232 1.918418 0.061676 -0.010123 -390589.000000 0 0 1
-2.233157 -25.730890 -9.639665 27.567895 1.484224 1.928015 0.071987 -0.020632 530762.000000 0 0 1
-3.216557 -26.105790 -8.465865 27.632036 1.448202 1.882183 0.080933 -0.026876 -140630.000000 0 0 1
-2.813457 -25.733190 -7.172565 26.861837 1.461897 1.841093 0.092237 -0.032007 515834.000000 0 0 1
-1.917257 -26.755890 -6.580165 27.619777 1.499261 1.811351 0.100490 -0.021301 972919.000000 0 0 1
-1.518957 -26.481790 -5.122165 27.015348 1.513501 1.761553 0.110484 -0.020009 218797.000000 0 0 1
-2.542857 -26.698790 -4.165765 27.141207 1.475840 1.724890 0.125462 -0.031739 326058.000000 0 0 1
-2.026857 -26.579490 -2.806965 26.804039 1.494687 1.675710 0.132093 -0.029873 360822.000000 0 0 1
-3.167357 -26.732790 -1.750965 26.976658 1.452864 1.635749 0.129323 -0.035404 289257.000000 0 0 1
-4.083457 -25.672590 -1.972865 26.070073 1.413059 1.646544 0.121255 -0.036852 -702626.000000 0 0 1
-5.207757 -25.849790 -1.171365 26.395160 1.371995 1.615189 0.138870 -0.040296 -779145.000000 0 0 1
-6.317757 -24.862290 -1.513965 25.697074 1.321953 1.629746 0.119650 -0.039008 -523065.000000 0 0 1
-6.104257 -23.567690 -1.066065 24.368719 1.317356 1.614558 0.111170 -0.043388 148920.000000 0 1 0
-6.910557 -23.311990 0.082435 24.314841 1.282611 1.567406 0.114195 -0.030540 43307.500000 0 1 0
-6.505557 -21.977890 0.702935 22.931290 1.283009 1.540138 0.085738 -0.031642 -128726.000000 0 1 0
-5.321657 -21.974690 1.455735 22.656703 1.333199 1.506500 0.079230 -0.036329 -339862.000000 0 1 0
-4.903357 -20.629290 1.569335 21.262016 1.337438 1.496920 0.051301 -0.027685 341835.000000 0 1 0
-3.779557 -20.385890 2.637335 20.900361 1.387477 1.444273 0.046373 -0.022258 296244.000000 0 1 0
-4.266757 -20.348690 3.989235 21.170461 1.364109 1.381229 0.041731 -0.009153 572387.000000 0 1 0
-3.245757 -20.211590 4.987435 21.069357 1.411567 1.331813 0.065452 -0.014061 1026800.000000 0 1 0
-2.261957 -21.414490 5.284235 22.172505 1.465559 1.330157 0.065947 -0.026812 870771.000000 0 1 0
-1.261657 -21.593090 4.290635 22.051369 1.512434 1.374973 0.072533 -0.029925 -56267.200000 0 1 0
-0.407357 -22.663890 4.582135 23.126042 1.552824 1.371339 0.077775 -0.031329 -620648.000000 0 1 0
0.598843 -23.009790 3.444135 23.273829 -1.544777 1.422268 0.079318 -0.037360 -23778.900000 0 1 0
1.714043 -22.178690 3.321835 22.491483 -1.493666 1.422561 0.053973 -0.038609 -534400.000000 0 1 0
2.724343 -22.536890 4.217535 23.089414 -1.450496 1.387104 0.071753 -0.038570 -1236650.000000 0 1 0
3.886843 -21.573490 4.400935 22.358248 -1.392541 1.372665 0.077262 -0.036213 264002.000000 0 1 0
5.049543 -21.795890 3.609135 22.662404 -1.343139 1.410859 0.046987 -0.022604 354682.000000 0 1 0
6.128343 -20.896390 3.855035 22.115085 -1.285523 1.395584 0.065029 -0.020859 395832.000000 0 1 0
6.713243 -20.388990 2.568835 21.618914 -1.252718 1.451691 0.065648 -0.021410 -214093.000000 0 1 0
7.527743 -21.325090 1.900735 22.694474 -1.231452 1.486945 0.064745 -0.020398 -179236.000000 0 1 0
7.194043 -21.322490 0.523835 22.509492 -1.245397 1.547522 0.054039 -0.020648 -105475.000000 0 1 0
8.089043 -22.254690 -0.275465 23.680788 -1.222167 1.582429 0.054497 -0.008247 856221.000000 0 1 0
9.413043 -21.742990 -0.512365 23.698639 -1.162234 1.592418 0.044892 0.000572 575599.000000 0 1 0
10.131643 -22.525390 -1.479065 24.743302 -1.148119 1.630608 0.052900 -0.002053 1020810.000000 0 1 0
11.532143 -21.943190 -1.884565 24.860521 -1.086922 1.646675 0.057276 0.000273 858308.000000 0 1 0
11.541143 -20.821690 -2.797865 23.970165 -1.064670 1.687786 0.050846 0.003645 193671.000000 0 1 0
12.887843 -20.730890 -3.248165 24.625533 -1.014593 1.703084 0.056087 -0.002298 290248.000000 0 1 0
13.042643 -19.602390 -4.241065 23.923855 -0.983699 1.749012 0.051832 -0.010606 -143612.000000 0 1 0
12.908143 -18.267690 -3.675565 22.668004 -0.955648 1.733663 0.062866 -0.011650 209941.000000 0 1 0
13.072643 -17.197290 -4.587565 22.083626 -0.920826 1.780056 0.071416 -0.021292 -889919.000000 0 1 0
13.525843 -15.920190 -3.833365 21.239010 -0.866533 1.752278 0.073524 -0.015676 -517373.000000 0 1 0
14.873043 -15.950390 -3.510165 22.089445 -0.820336 1.730380 0.068596 -0.010742 -252583.000000 0 1 0
15.740543 -15.573190 -4.624465 22.620226 -0.780054 1.776687 0.069332 -0.015792 -9518.400000 0 1 0
17.178243 -15.269390 -4.156465 23.356423 -0.726637 1.749707 0.078312 -0.016815 30498.200000 0 1 0
17.905443 -16.307990 -3.538465 24.476032 -0.738741 1.715873 0.087627 -0.010873 -680338.000000 0 1 0
19.233943 -15.930990 -3.405365 25.205902 -0.691745 1.706313 0.063764 0.001144 -1094360.000000 0 0 1
19.893143 -16.995390 -2.534565 26.286963 -0.707005 1.667365 0.058063 -0.012056 -220383.000000 0 0 1
21.271443 -17.037090 -2.864365 27.403308 -0.675312 1.675514 0.058709 -0.005498 225775.000000 0 0 1
21.972143 -17.810490 -1.900765 28.347866 -0.681167 1.637898 0.059370 -0.002145 -766008.000000 0 0 1
23.475843 -17.703990 -1.871365 29.462662 -0.646143 1.634356 0.085829 -0.006311 -899323.000000 0 0 1
23.991243 -16.473090 -1.390765 29.135488 -0.601696 1.618549 0.078415 -0.000289 -12432.900000 0 0 1
25.352243 -16.632590 -1.068965 30.340105 -0.580623 1.606036 0.135410 -0.001837 11063.000000 0 0 1
26.057543 -15.348490 -0.563565 30.247137 -0.532309 1.589429 0.119477 -0.004350 65649.300000 0 0 1
25.508543 -14.813290 0.650735 29.504962 -0.526121 1.548739 0.101382 -0.007850 348611.000000 0 0 1
26.258943 -13.711890 1.178235 29.646859 -0.481234 1.531044 0.084909 -0.005088 707652.000000 0 0 1
25.326043 -12.803990 2.084435 28.455148 -0.468091 1.497477 0.099208 -0.011066 427944.000000 0 0 1
24.916643 -13.244790 3.375535 28.419321 -0.488579 1.451739 0.119721 0.003126 12505.800000 0 0 1
25.953043 -13.692790 4.236735 29.647982 -0.485482 1.427404 0.160051 0.010659 53625.100000 0 0 1
25.469343 -14.270690 5.626035 29.732008 -0.510723 1.380424 0.136906 0.016915 78241.000000 0 0 1
24.996543 -15.645090 5.481635 29.994071 -0.559239 1.387006 0.154028 0.002565 209956.000000 0 0 1
24.462543 -16.107590 6.711635 30.048569 -0.582299 1.345537 0.129997 0.004824 -67455.300000 0 0 1
23.906043 -17.526590 6.570435 30.361997 -0.632626 1.352667 0.113629 0.000603 193122.000000 0 0 1
24.897643 -18.510390 6.771435 31.754991 -0.639302 1.355906 0.116624 -0.005333 137452.000000 0 0 1
24.229643 -19.736590 6.855235 31.993793 -0.683558 1.354854 0.080578 0.005499 333708.000000 0 0 1
2.261743 23.336556 -3.214765 23.665271 1.474180 1.707061 0.029656 -0.025996 722109.000000 0 1 0
3.220643 24.323456 -2.751465 24.689545 1.439153 1.682471 0.042826 -0.028231 427775.000000 0 1 0
3.877443 24.949056 -3.826965 25.536946 1.416615 1.721223 0.064575 -0.027554 72944.100000 0 0 1
4.895643 26.015756 -3.354065 26.684014 1.384792 1.696825 0.046202 -0.021428 595897.000000 0 0 1
5.935743 25.427956 -2.543965 26.235201 1.341469 1.667917 0.039010 -0.024051 20826.600000 0 0 1
6.815143 26.348756 -1.952065 27.285778 1.317692 1.642399 0.030277 -0.017096 -402690.000000 0 0 1
7.934143 25.533356 -1.282965 26.768431 1.269519 1.618743 0.016990 -0.029489 -622467.000000 0 0 1
8.617143 24.933356 -2.340765 26.484081 1.238040 1.659296 0.028871 -0.032280 -771626.000000 0 0 1
9.513643 23.969556 -1.850265 25.854835 1.192961 1.642421 0.025580 -0.032299 724672.000000 0 0 1
10.804543 23.774856 -2.773865 26.261688 1.144246 1.676618 0.049960 -0.023937 -684021.000000 0 0 1
11.704743 24.844056 -2.664465 27.592164 1.130512 1.667513 0.056221 -0.017607 -212963.000000 0 0 1
12.716643 24.915056 -3.666365 28.211970 1.098863 1.701123 0.079147 -0.024470 999928.000000 0 0 1
13.776343 23.753556 -3.627865 27.698022 1.045235 1.702153 0.078381 -0.020678 -641352.000000 0 0 1
13.173643 22.459956 -3.766365 26.309314 1.040333 1.714447 0.088390 -0.024030 -476521.000000 0 0 1
12.962643 22.100756 -5.090865 26.122604 1.040344 1.766935 0.123093 -0.036112 -107623.000000 0 0 1
11.992243 20.862456 -5.151465 24.608810 1.049094 1.781690 0.117463 -0.040548 103512.000000 0 1 0
10.676343 21.369356 -5.145065 24.435739 1.107461 1.782939 0.096271 -0.030538 -420877.000000 0 1 0
9.772343 20.296356 -4.994765 23.073544 1.122072 1.788995 0.079563 -0.022191 -176002.000000 0 1 0
8.294743 20.626656 -4.770565 22.738073 1.188449 1.782172 0.057291 -0.022312 -211998.000000 0 1 0
7.997143 21.227656 -3.525265 22.956375 1.210508 1.724970 0.055802 -0.015255 -49044.300000 0 1 0
6.645043 21.595456 -3.417865 22.851742 1.272285 1.720927 0.049955 -0.014575 -116809.000000 0 1 0
6.185343 22.205156 -2.102665 23.146244 1.299129 1.661764 0.038770 -0.020605 -179135.000000 0 1 0
5.727143 21.225556 -1.193865 22.017032 1.307249 1.625048 0.034281 -0.028717 -66545.100000 0 1 0
5.072843 21.922156 -0.167565 22.502061 1.343396 1.578243 0.041875 -0.024146 71885.100000 0 1 0
4.557743 20.995756 0.980235 21.507107 1.357034 1.525203 0.024179 -0.026103 450763.000000 0 1 0
3.740843 21.742556 1.965935 22.149437 1.400413 1.481922 0.024894 -0.021060 809476.000000 0 1 0
3.204643 20.802356 2.872935 21.242917 1.417946 1.435139 0.028090 -0.021075 -148241.000000 0 1 0
2.239243 21.385856 3.914935 21.856252 1.466470 1.390702 0.026809 -0.024389 -43647.900000 0 1 0
0.999643 21.785656 3.369535 22.067348 1.524943 1.417503 0.022073 -0.014474 -657105.000000 0 1 0
0.079543 22.102756 4.354935 22.527841 1.567198 1.376258 0.035413 -0.027329 -1403490.000000 0 1 0
-1.242257 22.420156 3.762335 22.767559 -1.515445 1.404785 0.037790 -0.020655 -1192980.000000 0 1 0
-2.293057 22.500956 4.700635 23.100803 -1.469238 1.365882 0.064910 -0.037584 1282060.000000 0 1 0
-3.584157 22.655856 4.017435 23.286773 -1.413897 1.397409 0.083822 -0.036437 2247250.000000 0 1 0
-4.850157 22.660256 4.953835 23.697082 -1.359940 1.360195 0.110304 -0.054983 492028.000000 0 1 0
-5.137557 23.904356 5.639035 25.092059 -1.359095 1.344126 0.137714 -0.040190 -595012.000000 0 0 1
-6.357857 23.897956 6.294135 25.517656 -1.310777 1.321566 0.149818 -0.044095 -491836.000000 0 0 1
-6.897757 25.314256 6.689435 27.076542 -1.304770 1.321155 0.154035 -0.048255 -311234.000000 0 0 1
-6.170557 25.980156 7.667135 27.781815 -1.337607 1.291191 0.123171 -0.054590 -654809.000000 0 0 1
-6.759157 27.111056 8.248035 29.132896 -1.326464 1.283753 0.156244 -0.046431 -235697.000000 0 0 1
-6.923357 28.341256 7.337835 30.083276 -1.331203 1.324393 0.163128 -0.049904 1280520.000000 0 0 1
-8.265857 28.369256 6.790135 30.319054 -1.287279 1.344925 0.134829 -0.053426 588270.000000 0 0 1
-8.517257 29.426956 5.894135 31.196638 -1.289058 1.380719 0.168238 -0.050481 -225616.000000 0 0 1
-9.996257 29.633656 5.479235 31.750602 -1.245455 1.397357 0.181771 -0.045303 620899.000000 0 0 1
-10.866057 30.217356 6.451135 32.753274 -1.225598 1.372539 0.151235 -0.042229 65244.800000 0 0 1
-11.263157 29.269756 7.449735 32.234700 -1.203457 1.337579 0.115568 -0.040797 -439185.000000 0 0 1
-12.109057 29.813556 8.617835 33.312827 -1.184991 1.309126 0.083205 -0.038961 259006.000000 0 0 1
-11.229357 30.407156 9.569735 33.797536 -1.217032 1.283721 0.104064 -0.040885 401461.000000 0 0 1
-11.940457 30.706456 10.751935 34.656386 -1.199932 1.255347 0.088443 -0.034094 -134563.000000 0 0 1
-11.035557 31.209156 11.874535 35.168161 -1.230918 1.226377 0.085243 -0.040905 -372523.000000 0 0 1
-10.446157 32.449656 11.610435 36.012561 -1.259354 1.242533 0.096978 -0.039729 290157.000000 0 0 1
-9.548457 32.877656 12.634335 36.493009 -1.288148 1.217265 0.090167 -0.048014 258272.000000 0 0 1
-9.443857 -33.311090 12.805835 36.916183 1.294540 1.216544 0.103637 -0.044500 -405507.000000 0 0 1
-10.516757 -32.682490 13.427435 36.865205 1.259474 1.197990 0.100677 -0.030374 -531453.000000 0 0 1
-10.346857 -31.289390 13.401335 35.576385 1.251433 1.184574 0.101932 -0.019506 337227.000000 0 0 1
-11.475857 -30.453290 14.071635 35.455734 1.210418 1.162682 0.094664 -0.020982 72282.600000 0 0 1
-11.671057 -30.597190 15.477735 36.221015 1.206390 1.129277 0.082061 -0.025868 -382058.000000 0 0 1
-10.756157 -29.980290 16.311435 35.785131 1.226326 1.097508 0.087097 -0.026443 -419872.000000 0 0 1
-10.985557 -30.318290 17.813235 36.840094 1.223170 1.066115 0.085768 -0.041507 -34808.800000 0 0 1
-11.971357 -29.495090 18.387835 36.761205 1.185234 1.046970 0.090327 -0.047050 315177.000000 0 0 1
-12.674857 -30.056790 19.472935 37.990233 1.171727 1.032612 0.101301 -0.054478 -290053.000000 0 0 1
-12.857757 -29.087490 20.621335 37.903080 1.154584 0.995535 0.115096 -0.059268 318343.000000 0 0 1
-11.653457 -28.852390 21.372735 37.749931 1.186933 0.968949 0.094721 -0.057927 814176.000000 0 0 1
-11.770757 -27.771390 22.278035 37.498156 1.169905 0.934637 0.103620 -0.057391 361977.000000 0 0 1
-10.421357 -27.508490 23.020035 37.352961 1.208662 0.906781 0.126954 -0.059245 420783.000000 0 0 1
-10.033657 -28.678790 23.765135 38.573682 1.234243 0.907018 0.097173 -0.034857 -67383.600000 0 0 1
-8.756857 -28.552190 24.335035 38.524071 1.273207 0.887073 0.130279 -0.032411 -315148.000000 0 0 1
-8.412157 -29.654890 25.353935 39.912390 1.294389 0.882477 0.122152 -0.027285 -30556.200000 0 0 1
-8.471557 -31.054590 24.929835 40.714267 1.304481 0.911815 0.124002 -0.009122 272658.000000 0 0 1
-8.394957 -31.997390 26.038835 42.099040 1.314215 0.903946 0.126082 -0.011225 -179738.000000 0 0 1
-8.813457 -33.413790 25.595235 43.003191 1.312903 0.933289 0.125286 -0.006288 -404122.000000 0 0 1
-7.793157 33.617456 24.915535 42.563488 -1.343001 0.945456 0.114741 -0.007323 80823.000000 0 0 1
-8.072757 32.273956 24.621935 41.388613 -1.325693 0.933660 0.071223 -0.005605 142486.000000 0 0 1
-8.772057 32.057256 23.195835 40.529784 -1.303698 0.961469 0.080519 -0.005922 264596.000000 0 0 1
-9.155557 30.718956 23.216635 39.578916 -1.281136 0.943953 0.084226 -0.005885 -9679.310000 0 0 1
-9.768257 30.269356 22.021135 38.685697 -1.258636 0.965225 0.072653 -0.018243 150008.000000 0 0 1
-10.348757 28.827156 22.015135 37.719595 -1.226132 0.947577 0.073765 -0.016593 -80385.300000 0 0 1
-9.342857 27.862356 22.196035 36.827487 -1.247257 0.923912 0.054978 -0.014088 -175445.000000 0 0 1
-9.810557 26.541156 22.266335 36.006523 -1.216737 0.904095 0.045107 -0.009321 -534417.000000 0 0 1
-8.768657 25.457656 21.943935 34.734966 -1.239083 0.886983 0.061600 -0.015551 353.749000 0 0 1
-7.692057 25.492356 22.877335 35.105561 -1.277744 0.861009 0.044274 -0.028082 -184477.000000 0 0 1
-6.894957 24.351856 22.690935 33.991644 -1.294879 0.839890 0.042428 -0.026510 -442572.000000 0 0 1
-5.527557 24.513856 23.372135 34.318213 -1.349018 0.821612 0.048997 -0.032887 -315423.000000 0 0 1
-4.696357 25.362956 22.613635 34.303233 -1.387704 0.851005 0.063895 -0.025496 -1375200.000000 0 0 1
-3.430557 25.447256 23.149035 34.571800 -1.436794 0.837136 0.060253 -0.031805 -1284770.000000 0 0 1
-2.522857 25.864756 22.015335 34.059145 -1.473564 0.867959 0.062451 -0.020756 -737583.000000 0 0 1
-2.410957 24.886656 21.018335 32.663876 -1.474220 0.871769 0.043037 -0.011152 -107256.000000 0 0 1
-1.341357 25.273856 20.201435 32.383098 -1.517773 0.897167 0.038755 -0.006678 -53418.300000 0 0 1
-0.851257 24.243156 19.132835 30.895317 -1.535697 0.902972 0.038311 -0.008951 43986.200000 0 0 1
0.036843 23.280256 19.727535 30.514706 1.569214 0.867818 0.041236 -0.010933 217917.000000 0 0 1
0.298743 22.168756 18.844635 29.097478 1.557321 0.866316 0.045877 -0.007605 -477778.000000 0 0 1
1.463943 21.221256 19.152635 28.623561 1.501921 0.837771 0.055277 -0.016148 403564.000000 0 0 1
2.687843 21.964056 19.014235 29.175082 1.449027 0.860935 0.053901 -0.012982 517325.000000 0 0 1
3.804843 21.149456 19.333635 28.906154 1.392798 0.838147 0.057190 -0.016091 372130.000000 0 0 1
5.226743 21.722056 19.242135 29.486036 1.334666 0.859806 0.060196 -0.012187 108749.000000 0 0 1
6.241243 20.789456 19.011235 28.854491 1.279145 0.851486 0.064345 -0.019316 -18190.400000 0 0 1
7.497843 21.408756 18.756435 29.433932 1.233923 0.879887 0.087102 -0.021531 815838.000000 0 0 1
8.687743 20.451256 18.425535 28.865742 1.169093 0.878485 0.081507 -0.013621 417211.000000 0 0 1
9.085843 19.606856 19.549835 29.140648 1.136854 0.835403 0.082319 -0.019818 -304965.000000 0 0 1
10.137143 18.765056 19.183735 28.686315 1.075498 0.838281 0.079610 -0.025146 -163958.000000 0 0 1
10.636643 17.797856 20.327935 29.036646 1.032117 0.795289 0.080177 -0.023275 266356.000000 0 0 1
9.746543 16.757456 20.770635 28.411735 1.043998 0.750925 0.076965 -0.021706 487724.000000 0 0 1
10.380143 16.020256 21.819835 28.991398 0.995872 0.718747 0.080135 -0.024844 -327326.000000 0 0 1
9.465843 14.910556 22.351835 28.487390 1.005151 0.668710 0.069311 -0.025873 -630855.000000 0 0 1
8.454243 15.591356 23.049135 29.083109 1.073931 0.655855 0.075632 -0.009414 9632.930000 0 0 1
7.381343 14.768356 23.532335 28.746467 1.107302 0.611798 0.068344 -0.008083 239989.000000 0 0 1
7.665943 13.645356 24.534435 29.101562 1.058940 0.567844 0.085979 -0.010903 -734037.000000 0 0 1
7.996443 14.151056 25.814935 30.505841 1.056451 0.561928 0.104673 -0.013264 -73485.200000 0 0 1
8.189843 13.120456 26.734735 30.886339 1.012770 0.524480 0.121172 -0.019234 -193788.000000 0 0 1
9.163243 13.546656 27.902135 32.342017 0.976071 0.530170 0.107777 -0.015212 -57837.000000 0 0 1
10.496443 13.702756 27.507035 32.474264 0.917128 0.560403 0.131423 -0.015002 -258993.000000 0 0 1
10.873243 14.864956 26.736735 32.466095 0.939261 0.603194 0.106325 -0.010870 -97930.400000 0 0 1
12.254143 14.741356 26.027735 32.325138 0.877273 0.634808 0.117821 -0.024261 360930.000000 0 0 1
12.045543 13.891956 24.952035 30.994928 0.856465 0.635060 0.120055 -0.037129 -193514.000000 0 0 1
13.120343 13.753056 24.081235 30.678915 0.808938 0.668190 0.139410 -0.049618 -641781.000000 0 0 1
12.687443 12.789356 22.976035 29.196524 0.789398 0.664956 0.111556 -0.042527 85366.800000 0 0 1
12.405743 11.462856 23.456935 28.905489 0.745915 0.624074 0.117906 -0.038683 864007.000000 0 0 1
11.088843 11.243756 23.989235 28.720513 0.792335 0.582182 0.117261 -0.033281 294793.000000 0 0 1
10.861943 9.786356 24.498535 28.529507 0.733354 0.538052 0.128284 -0.030327 -70270.400000 0 0 1
10.840843 8.833756 23.457535 27.309615 0.683736 0.537585 0.123892 -0.024663 179285.000000 0 0 1
10.551143 7.561556 24.031435 27.313250 0.621818 0.495260 0.119816 -0.026405 -201300.000000 0 0 1
10.878743 6.355256 23.176435 26.379603 0.528714 0.497928 0.123640 -0.026874 570756.000000 0 0 1
12.283043 6.127256 22.975835 26.763882 0.462718 0.538529 0.133057 -0.024884 885259.000000 0 0 1
12.597443 5.034656 22.137935 25.964042 0.380211 0.549782 0.143862 -0.035045 -167569.000000 0 0 1
12.489243 3.628456 22.791935 26.241554 0.282743 0.518540 0.130672 -0.035477 -326781.000000 0 0 1
13.561743 3.225056 23.600335 27.409810 0.233469 0.533529 0.133345 -0.029963 -8006.830000 0 0 1
13.253543 1.926956 24.109535 27.579689 0.144380 0.507057 0.117559 -0.024184 -905301.000000 0 0 1
14.334543 1.271056 24.930835 28.786129 0.088440 0.523507 0.082126 -0.011305 -528253.000000 0 0 1
15.330443 0.651756 24.177935 28.635988 0.042488 0.565502 0.111317 -0.022839 -634761.000000 0 0 1
16.558543 1.314556 24.101635 29.271184 0.079222 0.603435 0.110353 -0.030275 -681772.000000 0 0 1
17.525343 0.519956 23.210035 29.088034 0.029660 0.646953 0.121352 -0.031732 -374128.000000 0 0 1
17.861143 -0.704644 23.828735 29.788010 -0.039431 0.643595 0.113016 -0.032464 -36337.100000 0 0 1
18.701843 -1.392644 22.907135 29.604648 -0.074328 0.686028 0.139027 -0.027683 146638.000000 0 0 1
18.757043 -2.906744 23.108635 29.904595 -0.153745 0.687641 0.128084 -0.026683 272653.000000 0 0 1
17.661043 -3.664944 22.602935 28.917761 -0.204612 0.673525 0.120537 -0.019026 361519.000000 0 0 1
17.759443 -5.025344 23.021635 29.506738 -0.275758 0.675785 0.138134 -0.014650 -372440.000000 0 0 1
16.681643 -5.886244 22.394335 28.538243 -0.339218 0.668563 0.135731 -0.018126 -778757.000000 0 0 1
16.732443 -6.103444 20.932835 27.484728 -0.349769 0.704992 0.127830 -0.017001 -57448.300000 0 0 1
16.364043 -7.374144 20.393535 27.167189 -0.423378 0.721724 0.152464 -0.030169 -191546.000000 0 0 1
17.298843 -8.557644 20.751135 28.338893 -0.459394 0.749177 0.161008 -0.038438 36597.100000 0 0 1
17.290643 -8.994744 22.062435 29.438458 -0.479684 0.723577 0.140361 -0.032233 -11160.700000 0 0 1
18.148743 -10.102744 22.269135 30.452531 -0.507945 0.750609 0.113594 -0.039534 -134314.000000 0 0 1
17.699743 -11.044544 23.412635 31.359437 -0.557876 0.727875 0.122788 -0.039655 297878.000000 0 0 1
16.596043 -11.913844 23.112135 30.847027 -0.622621 0.723867 0.146375 -0.046288 429058.000000 0 0 1
16.245643 -12.747844 24.148435 31.773815 -0.665338 0.707467 0.152844 -0.037191 407371.000000 0 0 1
15.015143 -13.675944 23.833335 31.313157 -0.738756 0.705745 0.164962 -0.042188 514932.000000 0 0 1
15.198543 -14.593344 22.743235 31.003486 -0.765087 0.747236 0.192412 -0.048146 1000180.000000 0 0 1
13.934343 -15.218844 22.458635 30.498679 -0.829430 0.743091 0.191494 -0.043331 766072.000000 0 0 1
14.116143 -16.030944 21.140135 30.052653 -0.848828 0.790575 0.187386 -0.040677 113910.000000 0 0 1
14.855943 -17.220644 21.289535 31.152751 -0.858986 0.818398 0.199029 -0.042271 145798.000000 0 0 1
15.097143 -17.796044 20.048535 30.766323 -0.867265 0.861053 0.179898 -0.028740 -3693.120000 0 0 1
-24.193657 -31.628790 25.807995 47.452777 0.917811 0.995758 0.069349 -0.027527 -598997.000000 0 0 1
-24.778857 -32.866090 25.420055 48.377173 0.924782 1.017546 0.063372 -0.017821 1017980.000000 0 0 1
-26.115727 -33.087490 25.911215 49.479332 0.902618 1.019634 0.049997 -0.027932 686407.000000 0 0 1
-26.194067 -33.230890 27.499695 50.464388 0.903265 0.994487 0.038574 -0.025312 -495141.000000 0 0 1
-27.504077 -33.021490 27.987205 51.285248 0.876305 0.993552 0.062252 -0.025485 268271.000000 0 0 1
-27.518387 -33.115390 29.408465 52.141620 0.877446 0.971561 0.049167 -0.028674 -241414.000000 0 0 1
-28.741777 -32.593390 30.172305 52.903561 0.848112 0.963893 0.044416 -0.035095 -480291.000000 0 0 1
-28.865477 -31.204490 30.186275 52.135853 0.824317 0.953304 0.032900 -0.026557 -140889.000000 0 0 1
-29.865657 -30.737390 31.033225 52.913190 0.799781 0.944074 0.042017 -0.008627 -508481.000000 0 0 1
-29.899797 -29.246690 30.768075 51.923416 0.774356 0.936555 0.027434 -0.014614 -83984.900000 0 0 1
-30.354257 -28.961290 29.454985 51.261422 0.761918 0.958677 0.013177 -0.008811 177248.000000 0 0 1
-30.851777 -27.655490 29.312515 50.753146 0.730822 0.955071 0.026305 -0.002409 -123079.000000 0 0 1
-31.540757 -27.401890 27.956535 50.271769 0.715295 0.981101 0.019336 -0.012526 -229757.000000 0 0 1
-30.697887 -27.226290 26.826155 49.023196 0.725536 0.991765 0.031653 -0.012042 318966.000000 0 0 1
-30.103867 -25.927790 26.648435 47.839651 0.711005 0.979983 0.021377 -0.006361 345472.000000 0 0 1
-29.124877 -25.922290 25.423375 46.546445 0.727285 0.992983 0.028398 -0.003981 18860.500000 0 0 1
-29.746747 -26.009590 24.143945 46.306563 0.718472 1.022313 0.015259 -0.011237 286849.000000 0 0 1
-28.850687 -26.074590 23.016815 45.188717 0.734898 1.036369 0.026004 0.008030 251051.000000 0 0 1
-29.567967 -26.390190 21.624325 45.147738 0.728671 1.071318 0.024699 0.004821 -101286.000000 0 0 1
-30.356747 -25.333990 21.174825 44.852161 0.695451 1.079122 0.034514 -0.009660 -400259.000000 0 0 1
-30.720687 -25.604490 19.882325 44.661587 0.694814 1.109424 0.034834 0.003468 -148495.000000 0 0 1
-31.505637 -24.407890 19.291625 44.277726 0.659132 1.119985 0.054308 0.000385 -207110.000000 0 0 1
-32.755687 -24.246990 19.915925 45.359626 0.637224 1.116236 0.081348 -0.009462 -229887.000000 0 0 1
-33.399367 -23.116790 19.302725 44.972201 0.605426 1.127173 0.081793 0.001727 -435248.000000 0 0 1
-34.817074 -22.863790 19.801925 46.120470 0.581059 1.127021 0.081144 0.001086 -142389.000000 0 0 1
-35.789349 -23.837690 19.398125 47.174148 0.587579 1.147024 0.070857 -0.007102 -432397.000000 0 0 1
-36.992427 -23.225990 19.121425 47.681392 0.560652 1.158161 0.060907 -0.013862 -912542.000000 0 0 1
37.600158 -23.884090 17.998625 48.043440 -0.565909 1.186796 0.068961 -0.015793 -246916.000000 0 0 1
37.370378 -25.216790 18.358925 48.677323 -0.593599 1.184073 0.057091 -0.005778 -485128.000000 0 0 1
36.407118 -25.660390 17.458125 47.840568 -0.613952 1.197246 0.065162 -0.005950 -240649.000000 0 0 1
35.846658 -27.040390 17.776225 48.292440 -0.646270 1.193837 0.073479 0.004937 40039.800000 0 0 1
34.848688 -27.125490 18.806825 47.999166 -0.661418 1.168192 0.075187 -0.003145 276095.000000 0 0 1
35.284058 -26.834390 20.157025 48.696559 -0.650203 1.144028 0.087502 0.003052 -436053.000000 0 0 1
34.106638 -26.809390 21.111625 48.246314 -0.666174 1.117891 0.073538 0.000662 -249048.000000 0 0 1
33.157728 -25.821190 20.816425 46.898746 -0.661641 1.110896 0.066181 0.005478 -222907.000000 0 0 1
32.316068 -25.489290 21.929125 46.636023 -0.667843 1.081258 0.077712 0.009092 481795.000000 0 0 1
31.162638 -24.508790 21.548025 45.123255 -0.666442 1.072947 0.079056 0.016914 211493.000000 0 0 1
31.594948 -23.267490 21.064625 44.534652 -0.634760 1.078110 0.058221 0.018323 -229188.000000 0 0 1
32.465078 -22.552690 21.927825 45.204365 -0.607143 1.064339 0.078828 0.000612 -170622.000000 0 0 1
32.888308 -21.249690 21.269625 44.559927 -0.573641 1.073187 0.063060 0.000180 -258627.000000 0 0 1
31.907598 -20.281890 20.948025 43.223485 -0.566217 1.064840 0.055214 -0.004809 -155410.000000 0 0 1
32.568048 -19.089190 20.618225 43.013790 -0.530160 1.070894 0.057474 -0.003083 -40910.700000 0 0 1
31.679968 -17.810290 20.860925 41.904713 -0.512157 1.049715 0.023820 0.006150 131100.000000 0 0 1
31.319548 -17.512590 22.173325 42.181290 -0.509847 1.017297 0.059479 -0.018955 -142778.000000 0 0 1
30.290558 -18.291290 22.713785 42.047654 -0.543254 1.000132 0.064214 -0.018826 -784571.000000 0 0 1
30.078958 -18.081290 24.247565 42.657018 -0.541248 0.966199 0.057681 -0.018947 -282841.000000 0 0 1
29.524458 -16.855490 24.512085 41.912331 -0.518747 0.946111 0.058255 -0.020355 -206636.000000 0 0 1
29.247758 -16.815290 25.921595 42.545439 -0.521778 0.915659 0.065443 -0.024138 -206480.000000 0 0 1
29.476058 -15.412090 26.458405 42.501973 -0.481774 0.898835 0.026841 -0.018264 -197227.000000 0 0 1
28.535858 -14.595490 25.757375 41.118924 -0.472789 0.893855 0.048489 -0.021944 414091.000000 0 0 1
28.555158 -13.292990 26.200965 40.970614 -0.435685 0.876940 0.036509 -0.024165 58957.200000 0 0 1
29.350658 -12.349790 25.265135 40.648561 -0.398280 0.900076 0.042786 -0.030270 -289771.000000 0 0 1
28.651558 -12.121590 24.085605 39.344137 -0.400234 0.911985 0.045068 -0.022774 -19816.600000 0 0 1
29.167658 -11.034790 23.328245 38.945165 -0.361681 0.928542 0.053837 -0.016304 -134317.000000 0 0 1
30.451468 -11.364090 22.546625 39.557360 -0.357180 0.964323 0.057437 -0.021290 -237468.000000 0 0 1
30.197958 -12.322490 21.534425 39.083141 -0.387433 0.987246 0.036766 -0.018764 -43823.100000 0 0 1
30.450558 -13.664190 21.865425 39.900418 -0.421800 0.990825 0.044020 -0.022405 -454368.000000 0 0 1
29.875258 -14.728290 20.888625 39.316513 -0.458026 1.010669 0.049934 -0.019073 -434103.000000 0 0 1
30.435368 -14.639290 19.591125 39.043983 -0.448329 1.045152 0.048375 -0.018968 -253609.000000 0 0 1
30.010258 -15.600090 18.661125 38.629212 -0.479382 1.066624 0.058088 -0.026958 -471472.000000 0 0 1
30.509108 -15.494290 17.190225 38.293375 -0.469914 1.105253 0.073841 -0.033449 -140407.000000 0 0 1
30.034158 -16.410690 16.180325 37.857157 -0.500076 1.129176 0.062958 -0.038667 -55850.900000 0 0 1
28.638458 -16.480290 16.002725 36.713056 -0.522180 1.119773 0.107328 -0.043308 -450746.000000 0 0 1
27.967758 -15.438890 15.127325 35.346722 -0.504396 1.128551 0.112054 -0.036562 -394677.000000 0 0 1
27.880858 -15.700290 13.754725 34.828635 -0.512861 1.164809 0.127987 -0.043976 -35704.300000 0 0 1
26.829258 -16.592990 13.453625 34.294846 -0.553887 1.167673 0.138511 -0.051690 -460602.000000 0 0 1
26.924358 -17.308590 12.101525 34.219223 -0.571339 1.209329 0.130319 -0.025494 -187123.000000 0 0 1
26.757358 -16.495390 10.930025 33.279416 -0.552449 1.236153 0.146522 -0.026245 -243508.000000 0 0 1
26.808258 -17.149390 9.669825 33.260935 -0.569104 1.275811 0.126817 -0.024603 -298337.000000 0 0 1
28.204258 -17.391690 9.091425 34.359934 -0.552560 1.303014 0.135300 -0.014788 32973.600000 0 0 1
28.938058 -18.403490 9.791525 35.664739 -0.566443 1.292681 0.130487 -0.006280 -1624950.000000 0 0 1
30.265158 -18.431290 9.512125 36.690227 -0.547006 1.308546 0.129639 0.002800 -1418930.000000 0 0 1
31.060758 -19.245790 10.568025 38.037538 -0.554719 1.289260 0.114790 -0.019679 -94567.600000 0 0 1
31.145968 -18.603790 11.819325 38.155849 -0.538439 1.255851 0.106609 -0.042041 67550.200000 0 0 1
31.376098 -19.567590 12.826925 39.139240 -0.557625 1.236901 0.074496 -0.035373 -101402.000000 0 0 1
31.486238 -19.070090 14.319025 39.497924 -0.544574 1.199819 0.077385 -0.026180 101579.000000 0 0 1
31.452948 -20.173190 15.202125 40.340428 -0.570289 1.184408 0.081966 -0.025577 32207.000000 0 0 1
31.210088 -19.653990 16.478925 40.396830 -0.561995 1.150615 0.082170 -0.037358 -121755.000000 0 0 1
30.754158 -20.716990 17.451225 40.982401 -0.592809 1.130926 0.076078 -0.020931 660548.000000 0 0 1
29.406558 -21.165090 17.251125 40.128643 -0.623852 1.126419 0.027275 -0.012559 584978.000000 0 0 1
29.104858 -22.358990 17.987625 40.872630 -0.655062 1.115098 0.050678 -0.008059 -178955.000000 0 0 1
27.711958 -22.916490 17.700225 40.080121 -0.690961 1.113392 0.058349 0.001329 -413281.000000 0 0 1
26.663758 -22.140090 18.221125 39.155446 -0.692971 1.086762 0.072690 0.002846 -291634.000000 0 0 1
25.450858 -22.834290 18.015225 38.648406 -0.731261 1.085884 0.083652 -0.006815 192820.000000 0 0 1
24.238358 -22.284090 18.824125 37.926592 -0.743416 1.051430 0.077049 -0.003465 139998.000000 0 0 1
23.680758 -21.073290 18.274925 36.590091 -0.727202 1.047832 0.076923 -0.010283 -271775.000000 0 0 1
22.542858 -20.597590 18.945125 35.935483 -0.740337 1.015496 0.081730 -0.009362 -45975.800000 0 0 1
22.679758 -20.124990 20.441725 36.568439 -0.725785 0.977618 0.068646 -0.006214 -324234.000000 0 0 1
22.972158 -21.114190 21.433525 37.853997 -0.743279 0.968889 0.074782 -0.005696 -203794.000000 0 0 1
23.186958 -20.441490 22.652035 38.322372 -0.722553 0.938385 0.052681 -0.002595 237821.000000 0 0 1
23.722158 -21.358690 23.784535 39.807518 -0.733019 0.930431 0.056310 0.001837 -421512.000000 0 0 1
22.767058 -22.267890 24.167465 39.978297 -0.774315 0.921640 0.074766 -0.002578 -438339.000000 0 0 1
23.305358 -23.386090 24.861265 41.329546 -0.787127 0.925372 0.078315 -0.005703 -165536.000000 0 0 1
22.272658 -24.143390 25.691605 41.701716 -0.825680 0.907040 0.085034 -0.015697 202449.000000 0 0 1
21.306658 -24.961890 25.022305 41.269666 -0.864235 0.919381 0.099063 -0.013411 1168180.000000 0 0 1
20.178658 -25.277290 25.862195 41.412230 -0.897098 0.896297 0.111478 -0.024430 397437.000000 0 0 1
19.287658 -26.367790 25.296235 41.317957 -0.939250 0.911914 0.118547 -0.027523 -517599.000000 0 0 1
18.393758 -25.929490 24.319395 40.026263 -0.953805 0.917779 0.122013 -0.030238 147716.000000 0 0 1
17.621758 -26.990690 23.743085 40.034457 -0.992397 0.935935 0.111239 -0.030245 -143880.000000 0 0 1
16.709858 -26.471090 22.627865 38.625875 -1.007716 0.944903 0.114987 -0.038328 -114638.000000 0 0 1
15.484558 -25.873290 22.992775 37.919208 -1.031498 0.919319 0.104114 -0.035204 67460.300000 0 0 1
14.973658 -25.155690 21.856725 36.534033 -1.033885 0.929473 0.078371 -0.030242 580827.000000 0 0 1
13.475858 -24.719790 21.906825 35.673180 -1.071689 0.909554 0.068182 -0.019197 685303.000000 0 0 1
12.579658 -25.844290 21.837825 36.098002 -1.117806 0.921081 0.067581 -0.025259 341793.000000 0 0 1
11.276558 -25.311390 22.101325 35.444263 -1.151680 0.897519 0.067243 -0.011474 519184.000000 0 0 1
10.189358 -26.405790 22.104225 35.912192 -1.202525 0.907767 0.068273 -0.016631 -60586.500000 0 0 1
9.918758 -27.002990 20.832025 35.517833 -1.218775 0.944037 0.086560 -0.023433 675004.000000 0 0 1
8.583658 -27.511690 20.744225 35.509085 -1.268367 0.946909 0.098564 -0.026009 594185.000000 0 0 1
8.213058 -28.417690 19.580725 35.474275 -1.289450 0.986072 0.122209 -0.035613 -74216.600000 0 0 1
8.746858 -29.702990 19.769825 36.737190 -1.284414 1.002565 0.129481 -0.035032 218014.000000 0 0 1
8.533658 -30.586190 18.623025 36.812435 -1.298712 1.040383 0.137509 -0.043515 -64139.500000 0 0 1
9.145558 -31.986590 18.768425 38.197342 -1.292308 1.057152 0.134556 -0.041309 142111.000000 0 0 1
8.450058 -32.868390 19.619525 39.200259 -1.319158 1.046626 0.128093 -0.041952 281178.000000 0 0 1
9.381758 33.859456 19.953925 40.405931 1.300498 1.054300 0.119627 -0.047853 -26349.700000 0 0 1
8.785358 32.778656 20.812425 39.809293 1.308930 1.020660 0.125716 -0.050246 -63769.500000 0 0 1
7.884958 31.850156 20.223525 38.543429 1.328111 1.018440 0.120141 -0.053398 88239.400000 0 0 1
7.727758 30.763356 21.112425 38.102976 1.324688 0.983529 0.116986 -0.056534 541290.000000 0 0 1
6.625058 29.684156 20.738425 36.811992 1.351210 0.972349 0.111094 -0.050547 -150490.000000 0 0 1
5.351958 30.036156 21.133125 37.113651 1.394463 0.965000 0.122164 -0.053034 -1460110.000000 0 0 1
4.389658 29.191556 20.581525 35.986320 1.421540 0.961944 0.123054 -0.044972 863907.000000 0 0 1
2.937358 29.334356 21.175225 36.297695 1.470995 0.947917 0.101420 -0.036627 841724.000000 0 0 1
2.824758 28.810356 22.509125 36.669832 1.473062 0.909890 0.078648 -0.033634 1165410.000000 0 0 1
1.430358 28.747156 22.902845 36.782947 1.521081 0.898674 0.066083 -0.027177 1102500.000000 0 0 1
1.211758 28.308956 24.395945 37.390205 1.528018 0.859959 0.064058 -0.021853 45013.300000 0 0 1
1.685958 29.268056 25.352855 38.758596 1.513256 0.857775 0.080454 -0.020541 463908.000000 0 0 1
1.209458 28.914756 26.648335 39.340306 1.528992 0.826601 0.086100 -0.021590 693683.000000 0 0 1
2.293458 28.052556 27.415285 39.291267 1.489222 0.798552 0.066571 -0.021619 473944.000000 0 0 1
2.442758 26.732256 26.881415 37.989354 1.479671 0.784695 0.056278 -0.023561 43780.900000 0 0 1
3.439758 25.985656 27.517785 38.004141 1.439190 0.761106 0.038314 -0.015409 -413244.000000 0 0 1
3.926658 24.743656 26.783095 36.674260 1.413415 0.752040 0.038320 -0.006489 -110481.000000 0 0 1
2.994758 23.707856 26.568765 35.734161 1.445143 0.732490 0.051056 -0.006021 -335672.000000 0 0 1
3.653158 22.464856 26.560965 34.978567 1.409591 0.708483 0.052788 -0.001462 -253436.000000 0 0 1
2.744358 21.320056 26.185045 33.878206 1.442778 0.687371 0.069632 0.001950 -507912.000000 0 0 1
3.259358 20.024956 26.348555 33.254603 1.409446 0.656181 0.087926 0.006088 -31546.300000 0 0 1
4.016958 19.542556 25.237925 32.171420 1.368071 0.668935 0.094991 -0.001095 -84074.500000 0 0 1
4.484658 18.080456 25.482695 31.565531 1.327664 0.631242 0.095872 -0.005547 -300545.000000 0 0 1
5.479358 17.919156 26.462815 32.425300 1.274043 0.616138 0.072026 -0.002436 -222402.000000 0 0 1
6.694258 17.721256 25.744995 31.963428 1.209614 0.634359 0.073179 0.000953 168608.000000 0 0 1
7.956158 17.624856 26.709635 32.974848 1.146765 0.626644 0.068814 -0.005867 866356.000000 0 0 1
8.355558 18.831856 27.355655 34.245963 1.153200 0.645499 0.066836 -0.000700 -15265.000000 0 0 1
8.890858 19.808256 26.500595 34.259245 1.148902 0.686402 0.058427 -0.006901 -406864.000000 0 0 1
9.373958 21.098056 27.225555 35.696357 1.152689 0.703321 0.044912 -0.003937 435434.000000 0 0 1
10.561458 20.883056 27.983575 36.479129 1.102565 0.696469 0.057253 -0.017315 105978.000000 0 0 1
10.732158 22.035656 28.767035 37.792746 1.117574 0.705668 0.079941 -0.030435 177556.000000 0 0 1
11.851858 21.880156 29.845935 38.858559 1.074370 0.694981 0.084849 -0.029109 1264160.000000 0 0 1
13.164458 21.693256 29.282245 38.747260 1.025358 0.714037 0.079325 -0.037696 415055.000000 0 0 1
14.118158 21.431956 30.297015 39.705922 0.988299 0.702800 0.082880 -0.028932 381413.000000 0 0 1
15.475058 20.987256 29.692055 39.516584 0.935437 0.720642 0.075247 -0.035098 386993.000000 0 0 1
16.035858 22.022356 28.890405 39.708795 0.941418 0.756042 0.063259 -0.038309 -456054.000000 0 0 1
17.295258 21.676356 28.381305 39.679829 0.897346 0.773803 0.152289 -0.035943 -77472.700000 0 0 1
-8.663157 16.706656 4.362335 19.318194 -1.092423 1.343017 0.050684 -0.024127 -132821.000000 0 1 0
-8.711057 17.969956 4.886135 20.559089 -1.119418 1.330837 0.065013 -0.027621 1071580.000000 0 1 0
-7.356257 18.407356 5.164135 20.484471 -1.190603 1.315947 0.066704 -0.020002 1053960.000000 0 1 0
-7.211457 19.826356 5.730935 21.861682 -1.221942 1.305552 0.078568 -0.024046 -188166.000000 0 1 0
-7.311757 20.845656 4.751535 22.596023 -1.233447 1.358933 0.092057 -0.034413 -38589.200000 0 1 0
-8.602757 21.154356 4.241835 23.227298 -1.184557 1.387143 0.091676 -0.035759 123698.000000 0 1 0
-8.677957 22.368356 3.286835 24.216804 -1.200715 1.434651 0.134970 -0.043199 132153.000000 0 1 0
-7.968757 22.299556 2.068035 23.770740 -1.227588 1.483687 0.097467 -0.043102 42049.200000 0 1 0
-8.583157 21.387656 1.181335 23.075918 -1.189158 1.519581 0.115291 -0.047349 -400448.000000 0 1 0
-7.771657 21.353656 -0.185065 22.724690 -1.221749 1.578940 0.073920 -0.024383 1200250.000000 0 1 0
-6.540357 20.610956 -0.221265 21.624910 -1.263522 1.581028 0.053019 -0.025745 569966.000000 0 1 0
-5.521157 21.394056 0.393235 22.098494 -1.318237 1.553001 0.058934 -0.031497 52900.400000 0 1 0
-4.097157 21.183156 -0.242765 21.577111 -1.379740 1.582048 0.045953 -0.024802 438627.000000 0 1 0
-4.021257 21.732156 -1.529165 22.153904 -1.387829 1.639876 0.041791 -0.020098 719919.000000 0 1 0
-2.687657 21.616556 -2.032665 21.877631 -1.447098 1.663841 0.034257 -0.017520 663021.000000 0 1 0
-2.776057 21.902656 -3.562365 22.363436 -1.444723 1.730772 0.040626 -0.010700 -130896.000000 0 1 0
-1.496457 22.161456 -4.069265 22.581595 -1.503373 1.751989 0.059127 -0.015818 -114647.000000 0 1 0
-1.560157 22.468956 -5.464965 23.176581 -1.501471 1.808835 0.065649 -0.021001 675996.000000 0 1 0
-0.188157 23.013556 -5.997565 23.782976 -1.562621 1.825728 0.068583 -0.027066 434718.000000 0 1 0
0.851643 22.072556 -5.970165 22.881562 1.532232 1.834767 0.056955 -0.019051 247564.000000 0 1 0
2.012343 22.608556 -6.634965 23.647814 1.482022 1.855189 0.056103 -0.018759 870927.000000 0 1 0
3.224743 21.650556 -6.726765 22.899670 1.422938 1.868943 0.049114 -0.010889 184601.000000 0 1 0
2.911443 20.627156 -7.639065 22.188091 1.430576 1.922275 0.049179 -0.021060 -63168.300000 0 1 0
3.949243 19.703856 -7.783765 21.550533 1.372987 1.940336 0.047036 -0.020848 735.410000 0 1 0
3.615443 18.770656 -8.953865 21.108781 1.380515 2.008849 0.045870 -0.022332 -39225.800000 0 1 0
3.864243 19.298856 -10.238865 22.185864 1.373178 2.050486 0.052590 -0.024095 203897.000000 0 1 0
3.106343 18.625356 -11.240165 21.974862 1.405537 2.107727 0.057915 -0.030896 -31666.900000 0 1 0
3.481743 19.087556 -12.663265 23.169282 1.390371 2.149040 0.058978 -0.030686 115287.000000 0 1 0
3.455743 20.473156 -12.838665 24.411546 1.403579 2.124600 0.086396 -0.037216 -37747.100000 0 1 0
3.923243 20.793156 -14.128065 25.443062 1.384309 2.159498 0.104514 -0.038465 -100300.000000 0 0 1
4.308143 22.248356 -14.453465 26.878469 1.379525 2.138543 0.098296 -0.037986 685387.000000 0 0 1
3.137643 23.090856 -14.626865 27.513226 1.435741 2.131321 0.112240 -0.040955 620545.000000 0 0 1
3.458143 24.333156 -15.108965 28.850339 1.429625 2.121986 0.104211 -0.032860 -474324.000000 0 0 1
2.171443 25.017156 -15.571965 29.547578 1.484215 2.125879 0.107762 -0.031095 242653.000000 0 0 1
1.313543 25.362556 -14.449865 29.219569 1.519052 2.088087 0.109038 -0.038731 374122.000000 0 0 1
1.103443 26.730556 -14.389465 30.377573 1.529540 2.064269 0.087323 -0.029130 -522807.000000 0 0 1
0.273143 27.158356 -13.133465 30.168507 1.560739 2.021209 0.109125 -0.030469 896127.000000 0 0 1
-1.155057 27.049456 -13.196065 30.118821 -1.528121 2.024318 0.094963 -0.029639 715467.000000 0 0 1
-1.695557 25.737056 -13.225565 28.985971 -1.505011 2.044601 0.092775 -0.032926 -436448.000000 0 0 1
-1.463957 24.740756 -12.059565 27.562316 -1.511693 2.023655 0.118437 -0.036499 -158516.000000 0 0 1
-2.200957 25.039856 -10.874365 27.387779 -1.483123 1.979099 0.112569 -0.022857 68706.500000 0 0 1
-2.542457 23.918356 -10.125465 26.097450 -1.464897 1.969243 0.128119 -0.020859 -154282.000000 0 0 1
-3.318457 24.113856 -8.846865 25.898981 -1.434039 1.919406 0.093225 -0.016635 -41568.800000 0 0 1
-2.587057 24.569056 -7.701265 25.877420 -1.465886 1.872980 0.101328 -0.026553 870.688000 0 0 1
-2.441457 25.992356 -7.681365 27.213354 -1.477141 1.856950 0.109521 -0.026993 143776.000000 0 0 1
-2.186557 26.538556 -6.227665 27.347025 -1.488590 1.800539 0.103977 -0.023380 837991.000000 0 0 1
-1.101757 25.854356 -5.547465 26.465751 -1.528208 1.781972 0.102922 -0.031688 531839.000000 0 0 1
-0.883557 26.154056 -4.165365 26.498407 -1.537026 1.728644 0.102289 -0.037017 -181348.000000 0 0 1
-1.866057 25.555756 -3.110865 25.811941 -1.497907 1.691610 0.092380 -0.031703 750206.000000 0 0 1
-3.148757 26.205856 -3.205665 26.588303 -1.451215 1.691657 0.080096 -0.031453 547694.000000 0 0 1
-4.053057 25.935356 -2.162265 26.339046 -1.415775 1.652982 0.075051 -0.026279 89490.500000 0 0 1
-5.046457 24.776356 -2.416565 25.400282 -1.369864 1.666080 0.076737 -0.033680 -165130.000000 0 0 1
-6.144057 25.122956 -3.260065 26.067995 -1.330945 1.696185 0.074644 -0.026916 101295.000000 0 0 1
-7.043257 24.029556 -3.343765 25.262775 -1.285674 1.703545 0.038959 -0.028501 -340522.000000 0 0 1
-8.455857 24.452456 -3.722365 26.139628 -1.237861 1.713685 0.057559 -0.024441 -849483.000000 0 0 1
-8.973457 25.239456 -2.736265 26.926571 -1.229201 1.672592 0.091784 -0.032133 -1113810.000000 0 0 1
-10.277457 25.608556 -3.073865 27.764598 -1.189145 1.681735 0.105331 -0.030161 -139230.000000 0 0 1
-11.184957 25.950356 -1.846665 28.318447 -1.163843 1.636053 0.117720 -0.037904 407765.000000 0 0 1
-11.917057 24.865056 -1.227065 27.600597 -1.123870 1.615269 0.121198 -0.038509 300853.000000 0 0 1
-11.090157 23.910156 -0.604365 26.363847 -1.136504 1.593722 0.146886 -0.045207 -432197.000000 0 0 1
-11.777757 22.583856 -0.384765 25.473401 -1.090087 1.585901 0.143780 -0.038640 -228635.000000 0 0 1
-12.729757 22.728256 0.661635 26.058743 -1.060243 1.545403 0.154931 -0.039364 -229540.000000 0 0 1
-13.530657 21.599456 0.719235 25.497696 -1.011166 1.542585 0.143892 -0.037138 -139590.000000 0 0 1
-14.559157 21.681856 1.907535 26.186077 -0.979462 1.497886 0.148651 -0.036962 371660.000000 0 0 1
-14.002557 21.541256 3.222435 25.893656 -0.994397 1.446024 0.128713 -0.030463 178868.000000 0 0 1
-13.580857 22.792256 3.755635 26.796108 -1.033431 1.430177 0.129889 -0.035366 60673.800000 0 0 1
-13.241457 22.646356 5.317835 26.767013 -1.041698 1.370794 0.130413 -0.040951 -155442.000000 0 0 1
-11.944557 22.228756 5.656735 25.860949 -1.077719 1.350277 0.129691 -0.033662 -57299.600000 0 0 1
-11.964357 21.907456 7.058835 25.940502 -1.070928 1.295205 0.106472 -0.037805 -639244.000000 0 0 1
-10.610057 21.674856 7.694935 25.329523 -1.115576 1.262125 0.099154 -0.038008 -626695.000000 0 0 1
-9.902757 22.817156 8.197935 26.189566 -1.161323 1.252422 0.110051 -0.042228 183314.000000 0 0 1
-8.710257 22.417856 8.848735 25.626724 -1.200207 1.218245 0.101812 -0.041389 23801.000000 0 0 1
-8.723757 22.389556 10.343235 26.160632 -1.199257 1.164321 0.067334 -0.039416 -327904.000000 0 0 1
-9.615357 21.455256 10.854435 25.895982 -1.149475 1.138282 0.072381 -0.036647 -351977.000000 0 0 1
-9.284857 21.158556 12.177335 26.118586 -1.157276 1.085769 0.062376 -0.027893 17979.500000 0 0 1
-10.145457 20.012956 12.768435 25.816306 -1.101609 1.053436 0.054285 -0.024358 -12932.700000 0 0 1
-9.957757 18.777156 12.087535 24.450910 -1.083194 1.053699 0.060448 -0.030493 -132674.000000 0 1 0
-10.410057 17.654656 12.770435 24.148296 -1.038022 1.013570 0.054334 -0.033879 -235017.000000 0 1 0
-10.528457 16.443156 11.780735 22.803761 -1.001274 1.027905 0.054249 -0.036163 -440955.000000 0 1 0
-10.798357 15.134456 12.279235 22.280841 -0.951071 0.987100 0.050399 -0.034260 -11697.100000 0 1 0
-11.284857 14.301756 11.232835 21.402449 -0.902766 1.018271 0.049659 -0.025002 2764.120000 0 1 0
-11.638257 12.902256 11.785135 20.995396 -0.836859 0.974816 0.033020 -0.023027 -457835.000000 0 1 0
-12.630057 12.997756 12.743435 22.155251 -0.799745 0.957962 0.032811 -0.019120 -106395.000000 0 1 0
-13.253357 11.732156 13.064635 21.999537 -0.724590 0.934949 0.046328 -0.014848 248481.000000 0 1 0
-14.167857 11.710956 14.292435 23.284080 -0.690743 0.909895 0.056936 -0.020437 578105.000000 0 1 0
-15.443657 12.351456 14.266635 24.384460 -0.674604 0.945829 0.071309 -0.028377 448196.000000 0 1 0
-16.131157 12.139656 15.488035 25.445328 -0.645137 0.916402 0.070248 -0.022258 460119.000000 0 0 1
-17.323157 13.147156 15.638035 26.785959 -0.649195 0.947377 0.070690 -0.021837 801683.000000 0 0 1
-18.467157 12.950756 14.799035 26.977202 -0.611588 0.990137 0.068141 -0.020513 134443.000000 0 0 1
-19.334957 14.023356 15.009735 28.209701 -0.627495 1.009745 0.083745 -0.027987 -388716.000000 0 0 1
-20.544057 14.077156 14.042035 28.590267 -0.600736 1.057390 0.098657 -0.026185 -678829.000000 0 0 1
-21.392157 13.046556 14.370935 28.885304 -0.547649 1.050062 0.093825 -0.025423 -683873.000000 0 0 1
-22.463157 13.077856 13.450635 29.266762 -0.527222 1.093266 0.074882 -0.025212 -608841.000000 0 0 1
-23.536157 12.040756 13.671035 29.762858 -0.472873 1.093553 0.081376 -0.032215 -725998.000000 0 0 1
-24.164157 12.293956 14.897635 30.935213 -0.470638 1.068345 0.098438 -0.024039 -362240.000000 0 0 1
-25.192147 11.389656 15.138435 31.520482 -0.424608 1.069830 0.092570 -0.024905 95670.000000 0 0 1
-26.088047 11.740756 16.399635 32.975439 -0.422890 1.050279 0.082570 -0.017443 534742.000000 0 0 1
-27.166607 12.658256 16.303835 34.118485 -0.436038 1.072580 0.091955 -0.004047 431522.000000 0 0 1
-27.744697 12.985756 17.532935 35.295919 -0.437758 1.050956 0.068834 0.010591 -735064.000000 0 0 1
-28.885997 13.938256 17.388535 36.483379 -0.449571 1.073996 0.066899 0.007451 -905410.000000 0 0 1
-28.463177 15.187456 17.143835 36.533852 -0.490151 1.082345 0.086579 -0.001133 -185403.000000 0 0 1
-29.532797 16.009956 16.737735 37.532074 -0.496764 1.108552 0.095667 -0.009931 -251022.000000 0 0 1
-29.159237 17.509056 16.682135 37.883001 -0.540760 1.114797 0.093162 -0.012176 -93926.600000 0 0 1
-28.804307 18.127356 17.912335 38.459601 -0.561706 1.086321 0.100346 -0.006287 468217.000000 0 0 1
-29.923317 18.446856 18.745035 39.838019 -0.552443 1.080904 0.109100 -0.022024 -702356.000000 0 0 1
-29.526497 18.979056 20.107335 40.451496 -0.571283 1.050574 0.095086 -0.020164 199259.000000 0 0 1
-28.894187 18.158956 21.086135 40.115419 -0.561086 1.017333 0.085730 -0.013662 -452393.000000 0 0 1
-27.717137 17.570956 20.652235 38.774902 -0.565001 1.009105 0.092438 -0.002988 -1282740.000000 0 0 1
-27.232627 16.287656 21.309635 38.223086 -0.539016 0.979417 0.091553 -0.009244 -227229.000000 0 0 1
-28.200357 15.244656 21.354335 38.518402 -0.495585 0.983163 0.068320 -0.003115 103913.000000 0 0 1
-27.733897 13.937056 21.585635 37.806748 -0.465668 0.963138 0.068795 -0.001604 -54949.200000 0 0 1
-28.932537 12.948456 21.679635 38.402614 -0.420806 0.970926 0.077321 -0.015559 75333.500000 0 0 1
-29.603447 12.801356 20.460135 38.194973 -0.408145 1.005488 0.085037 -0.020272 535032.000000 0 0 1
-30.601277 11.751156 20.553935 38.690982 -0.366645 1.010741 0.123498 -0.022021 773542.000000 0 0 1
-31.447617 11.505356 19.241235 38.620603 -0.350732 1.049261 0.138696 -0.020321 -68761.900000 0 0 1
-30.711787 10.985556 18.168735 37.336299 -0.343517 1.062575 0.155092 -0.022484 203909.000000 0 0 1
-30.048427 9.742256 18.423035 36.568125 -0.313525 1.042804 0.173349 -0.023742 -411338.000000 0 0 1
-29.191457 9.434456 17.214035 35.177736 -0.312596 1.059458 0.185211 -0.032010 -864178.000000 0 0 1
-29.853907 8.970156 16.068935 35.070360 -0.291886 1.094837 0.199070 -0.029747 -178246.000000 0 0 1
-30.559657 9.911456 15.316135 35.590920 -0.313627 1.125929 0.195101 -0.026932 -372942.000000 0 0 1
-29.796727 11.007656 14.534535 34.932308 -0.353874 1.141669 0.170506 -0.019303 -288088.000000 0 0 1
-29.240697 10.557156 13.332135 33.826288 -0.346479 1.165669 0.176080 -0.033087 -90549.400000 0 0 1
-28.311317 11.462756 12.835435 33.131161 -0.384708 1.172973 0.127118 -0.025677 -597361.000000 0 0 1
-27.978017 11.248056 11.392735 32.234805 -0.382257 1.209562 0.160342 -0.018242 -15348.500000 0 0 1
-27.119987 10.136856 11.073535 30.997947 -0.357699 1.205491 0.174363 -0.020572 403366.000000 0 0 1
-27.758947 8.900256 11.024935 31.166054 -0.310271 1.209221 0.197928 -0.024001 -456846.000000 0 0 1
-26.872267 7.704756 10.596635 29.895998 -0.279227 1.208471 0.207324 -0.035491 -203296.000000 0 0 1
-26.421317 7.807556 9.245035 29.060534 -0.287325 1.247040 0.191136 -0.033355 306503.000000 0 0 1
-26.110997 6.588856 8.615535 28.274098 -0.247180 1.261157 0.215279 -0.058897 -274081.000000 0 0 1
-25.394957 6.908456 7.284635 27.307445 -0.265613 1.300763 0.197398 -0.039568 -180376.000000 0 0 1
-26.187787 7.542156 6.263235 27.962697 -0.280414 1.344895 0.202771 -0.042556 324300.000000 0 0 1
-25.478237 7.823656 5.067335 27.129837 -0.297932 1.382912 0.194367 -0.035813 -474305.000000 0 0 1
-26.297867 8.660556 4.012435 27.976467 -0.318139 1.426878 0.180544 -0.035943 604855.000000 0 0 1
-27.447007 7.989456 3.449535 28.793557 -0.283259 1.450706 0.234134 -0.035540 870368.000000 0 0 1
-27.182467 6.796956 2.692135 28.148405 -0.245025 1.475009 0.234972 -0.038992 -306883.000000 0 0 1
-26.318977 6.931756 1.387035 27.251820 -0.257527 1.519877 0.241541 -0.036795 1325370.000000 0 0 1
-25.044017 7.571456 1.647835 26.215360 -0.293589 1.507897 0.213557 -0.031029 1761670.000000 0 0 1
-24.044357 7.471756 0.601735 25.185717 -0.301289 1.546902 0.221726 -0.019383 469068.000000 0 0 1
-22.661757 7.958256 1.044435 24.041213 -0.337722 1.527339 0.171868 -0.027972 -356526.000000 0 1 0
-22.791757 9.326656 1.415735 24.666881 -0.388422 1.513371 0.158681 -0.037117 711312.000000 0 1 0
-21.953757 9.582056 2.544235 24.088512 -0.411542 1.464979 0.170027 -0.041814 213880.000000 0 1 0
-22.179557 11.036356 3.029635 24.958217 -0.461719 1.449108 0.160936 -0.055346 48977.000000 0 1 0
-21.347857 11.994356 2.389435 24.602947 -0.511898 1.473523 0.190191 -0.051657 394782.000000 0 1 0
-21.606957 13.313756 2.865835 25.540746 -0.552231 1.458353 0.173467 -0.051747 -94864.900000 0 0 1
-20.466057 14.039656 3.624935 25.082097 -0.601266 1.425766 0.143433 -0.031650 59220.800000 0 0 1
-19.961157 13.380656 4.814835 24.508619 -0.590538 1.373055 0.132051 -0.037706 197408.000000 0 1 0
-19.151557 14.287556 5.542335 24.528226 -0.640953 1.342871 0.128324 -0.028569 -403819.000000 0 1 0
-18.589257 13.630356 6.783635 24.028416 -0.632687 1.284588 0.094110 -0.024937 438081.000000 0 1 0
-17.482457 12.754956 6.428635 22.575486 -0.630308 1.282038 0.083622 -0.026193 1112950.000000 0 1 0
-16.992057 12.017856 7.550235 22.139668 -0.615584 1.222787 0.077586 -0.024370 40005.300000 0 1 0
10.869443 -32.950390 -14.488965 37.600573 -1.252163 1.966371 0.060030 -0.016900 -215659.000000 0 0 1
11.866843 -32.808090 -13.488865 37.405109 -1.223732 1.939724 0.054835 -0.009879 136843.000000 0 0 1
12.622943 -31.663690 -13.809265 36.778034 -1.191448 1.955707 0.057231 -0.013274 1212570.000000 0 0 1
14.138943 -31.540590 -13.342265 37.050433 -1.149376 1.939183 0.074956 -0.014181 1395820.000000 0 0 1
14.998143 -32.491890 -13.950465 38.409409 -1.138341 1.942501 0.092554 -0.014629 115427.000000 0 0 1
16.338543 -32.250190 -13.534465 38.603167 -1.101868 1.929013 0.091165 -0.016546 151235.000000 0 0 1
17.316043 -33.228490 -14.147265 40.051504 -1.090396 1.931814 0.114072 -0.028205 -205810.000000 0 0 1
17.235743 33.233956 -13.576565 39.823232 1.092365 1.918692 0.114148 -0.023234 -595220.000000 0 0 1
18.215343 32.476956 -14.199265 39.851857 1.059646 1.935103 0.126456 -0.021941 -604447.000000 0 0 1
18.605443 31.264956 -13.409865 38.774791 1.033995 1.923930 0.108251 -0.030650 -130826.000000 0 0 1
19.415043 31.605656 -12.262265 39.066924 1.019936 1.890071 0.100754 -0.043836 226563.000000 0 0 1
19.602243 30.482956 -11.453765 38.008516 0.999318 1.876902 0.074335 -0.040251 169320.000000 0 0 1
20.567743 30.601656 -10.237865 38.266268 0.979033 1.841638 0.076047 -0.039228 838017.000000 0 0 1
21.894943 30.103456 -10.437365 38.659348 0.941967 1.844172 0.082881 -0.039102 1013390.000000 0 0 1
22.616943 30.024256 -9.150965 38.687494 0.925194 1.809595 0.071356 -0.033934 611705.000000 0 0 1
23.972043 29.296456 -9.190965 38.954011 0.885022 1.808986 0.052097 -0.020838 -118406.000000 0 0 1
24.988443 29.841056 -9.966465 40.177622 0.873672 1.821474 0.070696 -0.030771 -517290.000000 0 0 1
26.127543 29.032056 -10.006965 40.319327 0.838006 1.821611 0.057246 -0.011767 424617.000000 0 0 1
27.266643 29.558156 -10.968865 41.682975 0.825702 1.837082 0.055825 -0.015129 603835.000000 0 0 1
28.108343 30.576356 -10.439265 42.824884 0.827429 1.817044 0.066750 -0.025817 -64826.800000 0 0 1
29.143643 30.840756 -11.330165 43.918980 0.813683 1.831726 0.068203 -0.023519 -430139.000000 0 0 1
29.705843 32.223056 -11.242865 45.245601 0.826023 1.821912 0.052992 -0.028121 -260148.000000 0 0 1
28.898143 33.224856 -11.851465 45.600997 0.854933 1.833710 0.071434 -0.033465 -20699.800000 0 0 1
29.360243 -33.185190 -11.526665 45.783673 -0.846477 1.825299 0.079909 -0.028331 -258100.000000 0 0 1
28.396243 -32.010690 -11.751265 44.374803 -0.845162 1.838812 0.068302 -0.027391 -123593.000000 0 0 1
27.257843 -32.149790 -10.904665 43.537463 -0.867558 1.823958 0.091274 -0.037041 39957.800000 0 0 1
26.155943 -31.289090 -11.139265 42.275569 -0.874519 1.837436 0.103125 -0.034175 378640.000000 0 0 1
26.279743 -29.832790 -10.774765 41.191210 -0.848634 1.835454 0.077112 -0.037788 -386991.000000 0 0 1
27.018943 -29.135590 -11.781065 41.445137 -0.823074 1.859028 0.061240 -0.030753 -59166.900000 0 0 1
27.407143 -27.886890 -11.236665 40.682831 -0.794074 1.850636 0.064125 -0.031387 -257477.000000 0 0 1
28.377743 -27.054490 -12.122165 41.038867 -0.761531 1.870652 0.075183 -0.028640 326455.000000 0 0 1
29.642243 -27.658290 -12.360465 42.384250 -0.750788 1.866725 0.050134 -0.015488 95919.400000 0 0 1
29.605943 -28.646390 -13.369165 43.311224 -0.768927 1.884598 0.063404 -0.019645 -839322.000000 0 0 1
30.936843 -29.244790 -13.840265 44.764930 -0.757290 1.885123 0.056697 -0.009782 -52529.700000 0 0 1
31.518043 -30.144890 -12.905865 45.482555 -0.763133 1.858503 0.064131 -0.017865 -189969.000000 0 0 1
32.670443 -30.803790 -13.326265 46.838239 -0.755999 1.859299 0.063401 -0.023324 -540234.000000 0 0 1
33.312543 -31.755690 -12.288065 47.635553 -0.761476 1.831706 0.045987 -0.018309 114629.000000 0 0 1
34.450043 -32.381090 -12.878465 49.001993 -0.754450 1.836735 0.033769 -0.015601 282116.000000 0 0 1
35.229143 -33.086290 -11.897065 49.772836 -0.754041 1.812160 0.037287 -0.011121 17350.400000 0 0 1
34.674543 33.305756 -11.275565 49.383557 0.765266 1.801155 0.027455 -0.013862 -303396.000000 0 0 1
33.613943 33.525556 -10.395165 48.599583 0.784082 1.786356 0.035793 -0.019757 -227187.000000 0 0 1
33.158243 32.352556 -9.708165 47.332921 0.773100 1.777366 0.048247 -0.019204 -26551.800000 0 0 1
32.400543 32.522956 -8.351065 46.661313 0.787284 1.750738 0.027951 -0.020656 -288078.000000 0 0 1
31.329843 33.373856 -8.528565 46.562965 0.816978 1.754998 0.029401 -0.024741 -1121590.000000 0 0 1
30.582043 33.606056 -7.384165 46.034272 0.832475 1.731898 0.023413 -0.019020 436985.000000 0 0 1
29.537143 -32.979290 -7.552065 44.912248 -0.840403 1.739751 0.026853 -0.029743 33813.400000 0 0 1
30.183243 -31.706990 -7.589565 44.429302 -0.810013 1.742462 0.007605 -0.029505 139773.000000 0 0 1
29.326443 -30.643390 -7.946865 43.153334 -0.807355 1.756008 0.023213 -0.026506 -485111.000000 0 0 1
28.141943 -30.280890 -7.096665 41.943580 -0.821993 1.740810 0.034110 -0.030108 -466902.000000 0 0 1
27.242843 -29.351190 -7.635965 40.767301 -0.822635 1.759215 0.038930 -0.043422 -403194.000000 0 0 1
26.363343 -28.777790 -6.713165 39.601182 -0.829157 1.741138 0.055795 -0.054032 -331036.000000 0 0 1
25.446643 -27.793890 -7.419465 38.406776 -0.829457 1.765200 0.118223 -0.060291 95003.700000 0 0 1
24.420343 -28.396690 -8.240965 38.348907 -0.860542 1.787380 0.147789 -0.058607 734162.000000 0 0 1
23.826643 -27.396190 -9.066865 37.422830 -0.854972 1.815513 0.169349 -0.055254 79641.300000 0 0 1
22.544143 -27.953090 -9.751565 37.211647 -0.892105 1.835949 0.155323 -0.040594 177017.000000 0 0 1
22.814143 -28.892390 -10.779165 38.359428 -0.902414 1.855637 0.169840 -0.041827 239128.000000 0 0 1
21.623943 -29.569990 -11.154665 38.293678 -0.939384 1.866374 0.145992 -0.041838 278348.000000 0 0 1
21.248043 -30.952290 -10.579465 39.005752 -0.969204 1.845465 0.143848 -0.046700 18632.500000 0 0 1
22.231243 -31.949590 -10.752865 40.381042 -0.962880 1.840333 0.133581 -0.042663 -266671.000000 0 0 1
21.802743 -33.238190 -10.420365 41.094049 -0.990246 1.827169 0.113358 -0.042196 60673.000000 0 0 1
22.991643 33.500356 -10.531765 41.973891 0.969317 1.824419 0.103395 -0.038739 295590.000000 0 0 1
23.945343 33.786656 -9.517165 42.491105 0.954241 1.796693 0.113630 -0.037885 -734129.000000 0 0 1
25.105543 33.072756 -9.747965 42.651123 0.921496 1.801386 0.103965 -0.035371 -215355.000000 0 0 1
26.324843 33.460556 -8.843065 43.483399 0.904192 1.775591 0.075845 -0.032930 171629.000000 0 0 1
26.148643 33.097056 -7.528365 42.846737 0.902146 1.747418 0.057796 -0.037559 175882.000000 0 0 1
26.501843 31.713756 -7.261065 41.962281 0.874688 1.744710 0.050796 -0.023573 -166377.000000 0 0 1
26.499443 31.274356 -5.787665 41.398102 0.867859 1.711061 0.046067 -0.017396 -448232.000000 0 0 1
27.631243 31.630256 -5.032565 42.299945 0.852777 1.690052 0.042743 -0.011431 333035.000000 0 0 1
28.569843 30.615656 -4.590565 42.126329 0.819951 1.679985 0.054906 -0.008974 604518.000000 0 0 1
28.097343 29.542056 -3.550365 40.924306 0.810458 1.657660 0.064420 -0.008601 -509948.000000 0 0 1
27.656843 30.103156 -2.259165 40.941480 0.827726 1.626005 0.070350 -0.005695 119562.000000 0 0 1
27.328243 29.098056 -1.289365 39.939857 0.816753 1.603085 0.058565 -0.000775 -563785.000000 0 0 1
25.959143 28.474856 -1.522865 38.561816 0.831581 1.610298 0.032531 0.005366 -378295.000000 0 0 1
24.932043 29.312856 -0.964165 38.493894 0.865983 1.595846 0.034082 0.001002 84736.600000 0 0 1
23.642543 28.933656 -1.410665 37.391393 0.885698 1.608532 0.042949 0.006174 552614.000000 0 0 1
22.476743 29.555356 -0.599165 37.135994 0.920611 1.586931 0.061406 -0.000540 283773.000000 0 0 1
22.476543 29.089056 0.706135 36.767741 0.912937 1.551590 0.074812 -0.015133 -122542.000000 0 0 1
21.418843 29.680356 1.423635 36.629457 0.945687 1.531921 0.066277 -0.015883 -219988.000000 0 0 1
20.713243 28.785756 2.448235 35.547884 0.947059 1.501870 0.078450 -0.025440 -397457.000000 0 0 1
20.000143 27.714956 1.842235 34.227450 0.945696 1.516947 0.084342 -0.022685 68173.800000 0 0 1
19.312843 26.997056 2.830935 33.314278 0.949830 1.485717 0.101195 -0.027886 -110879.000000 0 0 1
18.476943 25.809356 2.303535 31.824936 0.949478 1.498352 0.099579 -0.017666 -266375.000000 0 0 1
19.186343 24.725056 1.809935 31.348365 0.910869 1.513028 0.102703 -0.022131 50269.500000 0 0 1
20.042643 24.014556 2.735635 31.398887 0.875309 1.483561 0.111661 -0.016009 30891.100000 0 0 1
21.262643 23.441856 2.015335 31.712492 0.834107 1.507203 0.108975 -0.011550 -513114.000000 0 0 1
20.946743 22.365156 1.197935 30.665963 0.818135 1.531722 0.099721 -0.010833 1218230.000000 0 0 1
22.127943 21.586856 0.827935 30.924483 0.773021 1.544020 0.071303 -0.015996 1044110.000000 0 0 1
21.870643 20.637856 -0.333565 30.072535 0.756405 1.581889 0.110652 -0.015944 -226292.000000 0 0 1
21.609543 21.285156 -1.506265 30.369377 0.777836 1.620415 0.068564 0.000810 277582.000000 0 0 1
21.713543 20.377656 -2.557865 29.887614 0.753671 1.656484 0.116034 -0.001497 -47349.100000 0 0 1
21.677543 21.101956 -3.908865 30.503895 0.771944 1.699293 0.078403 -0.007345 200140.000000 0 0 1
22.761943 22.016156 -4.062465 31.926804 0.768745 1.698385 0.081167 -0.003679 578502.000000 0 0 1
22.528043 22.782456 -5.200565 32.459188 0.791013 1.731708 0.044740 0.000945 -39612.900000 0 0 1
23.659143 23.821456 -5.391265 34.004155 0.788817 1.730015 0.042007 0.009545 -113975.000000 0 0 1
23.701743 24.992756 -4.558065 34.744588 0.811904 1.702363 0.040039 0.001176 -43619.000000 0 0 1
23.956843 24.851656 -3.138765 34.661029 0.803729 1.661477 0.047548 0.002677 -517654.000000 0 0 1
22.730543 24.476856 -2.298565 33.482495 0.822374 1.639500 0.044390 -0.000923 -1131620.000000 0 0 1
21.811043 25.577156 -2.226265 33.687813 0.864705 1.636930 0.056778 -0.007737 392648.000000 0 0 1
20.661543 25.351156 -1.447465 32.736457 0.886967 1.615026 0.065530 -0.002595 143577.000000 0 0 1
19.679743 24.238956 -1.883465 31.278854 0.888838 1.631048 0.079958 -0.015987 -1166180.000000 0 0 1
18.906843 24.489556 -3.033065 31.087080 0.913340 1.668519 0.077360 -0.016074 81158.000000 0 0 1
18.350643 23.315856 -3.661665 29.896204 0.904004 1.693584 0.081016 -0.022602 437699.000000 0 0 1
17.628743 23.718756 -5.015765 29.975154 0.931635 1.738918 0.090378 -0.022326 101698.000000 0 0 1
17.241643 22.633456 -5.758065 29.029345 0.919801 1.770474 0.100349 -0.030170 -12632.000000 0 0 1
16.562243 23.048656 -6.940665 29.218509 0.947711 1.810632 0.101923 -0.029391 294153.000000 0 0 1
15.959243 21.835956 -7.722865 28.127372 0.939651 1.848936 0.130894 -0.036020 522959.000000 0 0 1
17.006043 20.993956 -8.185965 28.230510 0.889961 1.864990 0.112004 -0.030807 728058.000000 0 0 1
16.389443 20.132856 -9.144265 27.523868 0.887538 1.909464 0.157604 -0.040915 23636.700000 0 0 1
17.019843 18.748756 -9.143165 26.921894 0.833697 1.917307 0.145978 -0.035037 169062.000000 0 0 1
18.315543 18.790156 -9.722165 27.983023 0.798188 1.925626 0.124222 -0.026951 309735.000000 0 0 1
18.644443 17.535756 -10.322865 27.598542 0.754764 1.954154 0.119907 -0.025277 -567228.000000 0 0 1
20.130843 17.484156 -10.654465 28.713484 0.715151 1.950948 0.085941 -0.016729 -685976.000000 0 0 1
20.483043 18.258156 -11.796265 29.867494 0.728032 1.976813 0.095238 -0.016893 1286650.000000 0 0 1
21.912343 18.303956 -12.021665 30.979122 0.695913 1.969319 0.073768 -0.007356 1311230.000000 0 0 1
22.309443 18.825056 -13.465165 32.146612 0.700893 2.002994 0.080957 -0.013300 78485.500000 0 0 1
22.026443 17.843556 -14.448065 31.816713 0.680867 2.042161 0.074336 -0.008941 281784.000000 0 0 1
22.577543 18.260556 -15.678965 33.000353 0.680080 2.065891 0.084437 -0.014620 90519.600000 0 0 1
22.583243 17.251956 -16.871765 33.049800 0.652355 2.106557 0.071765 -0.019391 16129.400000 0 0 1
23.450443 16.092156 -16.832065 33.048437 0.601417 2.105185 0.073426 -0.013635 442138.000000 0 0 1
23.673443 15.421756 -18.025065 33.513660 0.577385 2.138672 0.086785 -0.027324 -122119.000000 0 0 1
24.420743 16.219456 -19.116765 34.998488 0.586270 2.148638 0.104837 -0.020240 229136.000000 0 0 1
25.824743 16.390456 -18.887665 35.948689 0.565530 2.123989 0.112382 -0.012340 574438.000000 0 0 1
26.469843 17.086656 -19.890065 37.258839 0.573215 2.133926 0.121380 -0.021625 40671.500000 0 0 1
27.973943 17.235556 -19.538965 38.227961 0.552195 2.107280 0.086216 -0.015287 204762.000000 0 0 1
28.208243 18.160356 -18.504665 38.313524 0.572002 2.074851 0.068105 -0.008648 -591799.000000 0 0 1
29.570443 18.146756 -18.206165 39.181377 0.550417 2.054051 0.054192 -0.012873 -693697.000000 0 0 1
29.907343 19.225356 -17.099065 39.451762 0.571319 2.019077 0.067075 -0.021153 36838.100000 0 0 1
29.200443 19.056156 -15.901265 38.323011 0.578200 1.998659 0.036990 -0.020582 424227.000000 0 0 1
27.856843 19.543956 -15.960965 37.586198 0.611789 2.009371 0.040511 -0.015566 238809.000000 0 0 1
26.968343 18.996756 -14.825165 36.165643 0.613679 1.993167 0.030568 -0.007728 -249726.000000 0 0 1
27.317643 19.465456 -13.520365 36.165700 0.619106 1.953947 0.025406 -0.014700 307948.000000 0 0 1
26.340843 19.122956 -12.558765 34.889110 0.627951 1.939024 0.033465 -0.008943 -136868.000000 0 0 1
26.807943 19.593356 -11.206665 35.045039 0.631151 1.896292 0.029817 -0.007886 -410138.000000 0 0 1
26.775543 20.974956 -11.076565 35.771060 0.664513 1.885623 0.039340 -0.010164 115641.000000 0 0 1
27.267143 21.573956 -9.877865 36.145606 0.669356 1.847597 0.038616 -0.005091 296685.000000 0 0 1
26.428143 21.352956 -8.556165 35.037172 0.679577 1.817494 0.051802 -0.005312 -147333.000000 0 0 1
26.450443 19.992956 -8.087965 34.128571 0.647244 1.810058 0.065486 -0.014955 182648.000000 0 0 1
25.538743 19.720056 -7.032565 33.023703 0.657535 1.785395 0.076670 -0.021583 -943531.000000 0 0 1
24.129643 19.416356 -7.441265 31.852896 0.677581 1.806589 0.098601 -0.022738 -1020420.000000 0 0 1
23.283643 20.548656 -7.709765 31.997121 0.723082 1.814143 0.070804 -0.012622 -134196.000000 0 0 1
22.167043 20.099756 -8.429165 31.087438 0.736527 1.845377 0.043847 -0.012930 -89281.800000 0 0 1
21.119843 21.281756 -8.516865 31.168861 0.789217 1.847565 0.086636 -0.026151 3569.700000 0 0 1
21.452443 22.384356 -9.339465 32.380431 0.806654 1.863382 0.088595 -0.022012 -79240.000000 0 0 1
20.961543 22.372156 -10.684665 32.466316 0.817939 1.906147 0.097747 -0.005815 386241.000000 0 0 1
19.458843 22.711456 -10.928665 31.841679 0.862376 1.921138 0.106985 -0.023383 101040.000000 0 0 1
19.153143 23.966156 -10.394865 32.392480 0.896559 1.897480 0.110110 -0.036059 -120704.000000 0 0 1
17.759543 24.143956 -10.507765 31.760748 0.936595 1.907991 0.113700 -0.031308 -25311.500000 0 0 1
17.363743 25.507656 -9.841665 32.388245 0.973123 1.879544 0.096692 -0.037533 7486.150000 0 0 1
17.963343 26.634756 -10.435465 33.778556 0.977437 1.884872 0.138170 -0.028258 4224.130000 0 0 1
17.665643 27.787056 -9.685865 34.322171 1.004503 1.856887 0.134962 -0.053985 78064.000000 0 0 1
21.176643 28.685656 32.261529 48.084543 0.934870 0.835329 0.060683 0.009890 1025980.000000 0 0 1
19.812743 29.124356 32.194190 47.720423 0.973428 0.830317 0.088650 -0.015964 695415.000000 0 0 1
18.889243 28.037756 32.140566 46.646921 0.977935 0.810663 0.081455 -0.014146 449359.000000 0 0 1
17.428043 28.383456 32.501016 46.536795 1.020131 0.797645 0.117826 -0.031060 -68304.300000 0 0 1
16.691543 28.912856 31.438735 45.857986 1.047231 0.815414 0.119522 -0.035663 50899.300000 0 0 1
15.431343 29.352056 31.951800 46.049832 1.086775 0.803971 0.149458 -0.035446 871880.000000 0 0 1
14.215043 29.250556 30.980765 44.916258 1.118431 0.809660 0.137123 -0.035830 272519.000000 0 0 1
13.778243 27.937956 30.728695 43.756394 1.112625 0.792219 0.122212 -0.045830 -228294.000000 0 0 1
12.375043 27.882556 30.676505 43.262299 1.153087 0.782601 0.113641 -0.029733 -194476.000000 0 0 1
11.822643 26.416456 30.446355 42.006958 1.149983 0.760062 0.083055 -0.027266 39212.300000 0 0 1
12.089343 25.787056 29.161935 40.762028 1.132407 0.773573 0.078096 -0.027271 659264.000000 0 0 1
13.445543 25.475856 28.851285 40.770068 1.085176 0.784618 0.062514 -0.028555 169794.000000 0 0 1
13.663643 24.827356 27.469775 39.467471 1.067687 0.800970 0.078351 -0.024370 -182976.000000 0 0 1
13.288143 25.456156 26.191155 38.866016 1.089703 0.831344 0.068763 -0.032220 185949.000000 0 0 1
13.342743 24.581256 25.092205 37.575067 1.073497 0.839562 0.081683 -0.034320 828088.000000 0 0 1
12.157043 23.531456 24.869785 36.332207 1.093934 0.816864 0.084947 -0.025738 797931.000000 0 0 1
12.337843 22.945856 23.636585 35.177021 1.077450 0.833981 0.091832 -0.031350 -30319.300000 0 0 1
11.258443 22.101856 23.312065 34.039638 1.099666 0.816398 0.094849 -0.026620 81928.900000 0 0 1
11.271943 21.772056 21.769525 32.787060 1.093069 0.844685 0.107043 -0.036287 84791.500000 0 0 1
10.825243 22.931356 21.035325 32.947198 1.129740 0.878306 0.117254 -0.038301 280646.000000 0 0 1
11.208743 22.893056 19.652125 32.185927 1.115493 0.914002 0.125900 -0.035609 -442395.000000 0 0 1
10.575043 24.100256 18.914325 32.409961 1.157300 0.947646 0.115175 -0.040863 421065.000000 0 0 1
9.173943 24.257056 18.802725 32.032927 1.209226 0.943471 0.118510 -0.047623 -29019.600000 0 0 1
8.524943 24.849656 19.899525 32.957110 1.240317 0.922536 0.119941 -0.050821 -498947.000000 0 0 1
7.162143 25.395456 19.484225 32.800312 1.295911 0.934743 0.117479 -0.048284 -375493.000000 0 0 1
7.225643 26.414356 18.464725 33.028384 1.303779 0.977549 0.124631 -0.056592 -1098750.000000 0 0 1
5.972643 26.866556 18.124725 32.954361 1.352046 0.988438 0.105541 -0.054061 -1197890.000000 0 0 1
5.855843 28.046956 17.034725 33.333234 1.364966 1.034398 0.114311 -0.057146 -107166.000000 0 0 1
6.443043 27.697856 15.794825 32.529379 1.342242 1.063798 0.115547 -0.047878 -660954.000000 0 0 1
7.721343 28.235456 15.680525 33.207514 1.303860 1.079014 0.109947 -0.048745 -113583.000000 0 0 1
8.636243 27.734056 14.445125 32.441088 1.268919 1.109318 0.103377 -0.045288 462457.000000 0 0 1
8.050043 27.974156 13.164925 31.947955 1.290600 1.146067 0.119710 -0.046040 44761.100000 0 0 1
7.076643 26.999456 12.799825 30.706433 1.314459 1.140825 0.090104 -0.041105 -219648.000000 0 0 1
6.160143 27.537056 11.727125 30.557524 1.350716 1.176919 0.087713 -0.044740 -831529.000000 0 0 1
6.781643 27.758056 10.457425 30.427916 1.331178 1.219965 0.067514 -0.032799 67812.900000 0 0 1
7.296143 29.048756 10.339525 31.685481 1.324718 1.238391 0.065751 -0.036295 -124475.000000 0 0 1
7.652043 29.304456 8.847825 31.552954 1.315377 1.286573 0.041736 -0.019784 164944.000000 0 0 1
6.500743 29.426656 7.994025 31.178393 1.353375 1.311504 0.047477 -0.028563 479270.000000 0 0 1
6.166943 28.194656 7.332625 29.778133 1.355460 1.321995 0.033934 -0.017050 -471928.000000 0 0 1
4.698043 27.997256 6.962225 29.229959 1.404542 1.330297 0.049258 -0.025832 -456628.000000 0 0 1
4.250943 29.035356 6.141225 29.980611 1.425423 1.364496 0.042150 -0.021713 -20548.200000 0 0 1
2.836743 29.020356 6.025225 29.774679 1.473356 1.367028 0.072918 -0.017646 469448.000000 0 0 1
2.293243 29.943456 4.877325 30.424625 1.494360 1.409793 0.091209 -0.030937 -300047.000000 0 0 1
2.747943 29.540456 3.611425 29.886989 1.478040 1.449664 0.053916 -0.027974 79504.600000 0 0 1
2.115243 30.257456 2.576025 30.440496 1.501002 1.486070 0.045690 -0.028748 -246902.000000 0 0 1
0.745343 29.760356 2.135925 29.846214 1.545757 1.499171 0.116921 -0.037043 -704002.000000 0 0 1
0.793543 28.659456 1.290125 28.699452 1.543115 1.525828 0.099883 -0.038974 603488.000000 0 0 1
-0.480257 28.012856 1.078225 28.037712 -1.553654 1.532331 0.111019 -0.038960 858644.000000 0 0 1
-0.839257 28.151756 -0.417575 28.167359 -1.540993 1.585622 0.097353 -0.043989 -131972.000000 0 0 1
-1.309957 29.453456 -0.798775 29.493391 -1.526350 1.597883 0.103785 -0.049021 -40715.300000 0 0 1
-1.376657 29.689056 -2.186775 29.801296 -1.524460 1.644241 0.103534 -0.042826 -450799.000000 0 0 1
-2.488157 30.653156 -2.691475 30.871523 -1.489803 1.658090 0.135782 -0.040430 767763.000000 0 0 1
-3.797657 30.217256 -3.067975 30.609104 -1.445773 1.671196 0.108747 -0.038310 742892.000000 0 0 1
-3.713257 29.299956 -4.125975 29.821123 -1.444736 1.709599 0.087151 -0.037202 -489264.000000 0 0 1
-5.098757 28.950056 -4.727275 29.773314 -1.396462 1.730247 0.083036 -0.024710 479000.000000 0 0 1
-5.822257 30.043956 -5.308375 31.059891 -1.379378 1.742547 0.091256 -0.025582 60454.700000 0 0 1
-6.784157 29.607656 -6.235375 31.008354 -1.345549 1.773264 0.083154 -0.019876 -233713.000000 0 0 1
-7.407957 30.814156 -6.929775 32.440897 -1.334866 1.786067 0.080801 -0.012419 1428.980000 0 0 1
-8.342657 31.533856 -6.139475 33.191522 -1.312160 1.756839 0.073828 -0.011752 4196.450000 0 0 1
-8.669757 32.744956 -6.751075 34.539454 -1.311969 1.767523 0.069455 -0.020692 -315940.000000 0 0 1
-9.615857 33.538556 -5.869675 35.380115 -1.291576 1.737470 0.072411 -0.025588 519846.000000 0 0 1
-10.980557 33.138756 -5.994875 35.421580 -1.250831 1.740858 0.075953 -0.019279 264491.000000 0 0 1
-11.899157 -33.792390 -5.253975 36.209389 1.232229 1.716410 0.073122 -0.015353 247717.000000 0 0 1
-13.349157 33.485456 -5.494075 36.464512 -1.191450 1.722041 0.091137 -0.019281 -50058.300000 0 0 1
-13.755457 33.641656 -6.862475 36.987392 -1.182657 1.757413 0.069732 -0.013189 -369595.000000 0 0 1
-15.059957 33.195556 -7.105575 37.138073 -1.144891 1.763312 0.097780 -0.024110 -595113.000000 0 0 1
-15.404557 33.330456 -8.628075 37.718210 -1.137863 1.801591 0.149477 -0.031461 -313504.000000 0 0 1
-16.664757 32.874756 -9.022675 37.945650 -1.101631 1.810875 0.199101 -0.038653 -24627.100000 0 0 1
-17.646457 -33.812490 -9.034475 39.195710 1.089789 1.803384 0.186903 -0.045993 -191959.000000 0 0 1
-19.078157 33.479756 -9.461875 39.678675 -1.052847 1.811579 0.188476 -0.048969 212994.000000 0 0 1
-19.903757 32.906456 -8.497275 39.385252 -1.026812 1.788254 0.180369 -0.052037 -149661.000000 0 0 1
-20.430757 33.758856 -7.529375 40.171728 -1.026564 1.759341 0.161410 -0.035801 -454590.000000 0 0 1
-21.073757 32.844256 -6.424875 39.549051 -1.000330 1.733973 0.167009 -0.045040 -478689.000000 0 0 1
-20.623257 33.106756 -5.088075 39.335284 -1.013686 1.700511 0.136475 -0.043967 467200.000000 0 0 1
-21.629357 32.929456 -4.096375 39.610080 -0.989628 1.674399 0.129258 -0.043706 694225.000000 0 0 1
-22.905657 33.829256 -4.030875 41.052840 -0.975608 1.669142 0.178909 -0.051269 563204.000000 0 0 1
-23.680957 33.726756 -5.228175 41.540530 -0.958635 1.696988 0.195492 -0.060208 825825.000000 0 0 1
-24.780357 -33.034390 -5.230375 41.625639 0.927207 1.696782 0.196170 -0.073328 1217140.000000 0 0 1
-25.493287 -32.829090 -6.661975 42.095591 0.910521 1.729723 0.234892 -0.060147 131544.000000 0 0 1
-24.739057 -32.005390 -7.512575 41.143708 0.912759 1.754420 0.260381 -0.051873 -191284.000000 0 0 1
-24.900857 -32.111590 -8.923075 41.603223 0.911207 1.786956 0.223475 -0.049797 -244463.000000 0 0 1
-26.114427 -31.415390 -9.569775 41.957963 0.877282 1.800902 0.185955 -0.036409 446064.000000 0 0 1
-27.357447 -32.157490 -9.323775 43.237332 0.865877 1.788145 0.176448 -0.029532 1932960.000000 0 0 1
-28.541007 -31.693890 -10.000975 43.807662 0.837694 1.801120 0.093842 -0.016561 938808.000000 0 0 1
-28.985627 -30.215590 -9.765375 42.994314 0.806171 1.799928 0.065948 -0.004018 -1030400.000000 0 0 1
-28.128377 -29.223790 -10.299275 41.848663 0.804496 1.819459 0.097762 -0.001544 -308731.000000 0 0 1
-28.254637 -28.987690 -11.680775 42.131357 0.798204 1.851724 0.089393 -0.004284 173411.000000 0 0 1
-27.239837 -27.952690 -12.273875 40.914663 0.798313 1.875476 0.137667 -0.003451 652547.000000 0 0 1
-25.899897 -28.417190 -12.321175 40.375150 0.831709 1.880910 0.147872 -0.020629 130660.000000 0 0 1
-25.098197 -27.684190 -13.241575 39.644334 0.834352 1.911350 0.138823 -0.021994 483141.000000 0 0 1
-23.741157 -28.396390 -13.534275 39.410330 0.874450 1.921352 0.164392 -0.032399 188281.000000 0 0 1
-23.784957 -29.630790 -14.248575 40.579919 0.894405 1.929567 0.171769 -0.044529 -122407.000000 0 0 1
-24.127157 -30.819390 -13.549575 41.419144 0.906597 1.904065 0.164949 -0.044136 100144.000000 0 0 1
-24.274557 -32.082790 -14.423575 42.738730 0.923070 1.915038 0.168540 -0.038663 264478.000000 0 0 1
-24.801957 -33.228690 -13.718975 43.674858 0.929602 1.890322 0.155992 -0.039971 55182.000000 0 0 1
-24.847857 33.313056 -14.533775 44.027336 -0.929931 1.907214 0.160296 -0.031300 146237.000000 0 0 1
-25.568287 32.053256 -13.927475 43.302692 -0.897471 1.898248 0.150283 -0.035452 12494.100000 0 0 1
-25.049877 31.554956 -12.689175 42.240109 -0.899817 1.875914 0.170294 -0.041656 133450.000000 0 0 1
-25.201857 32.437356 -11.583275 42.678893 -0.910276 1.845649 0.210082 -0.037193 249164.000000 0 0 1
-24.257057 31.948756 -10.428875 41.447428 -0.921402 1.825147 0.211812 -0.038843 428318.000000 0 0 1
-24.717757 30.824256 -9.704075 40.685026 -0.894902 1.811635 0.189774 -0.040221 711388.000000 0 0 1
-23.742257 30.463056 -8.705975 39.591496 -0.908756 1.792503 0.163484 -0.040363 693502.000000 0 0 1
-24.368857 29.371356 -7.811375 38.955556 -0.878217 1.772685 0.152230 -0.036144 80674.300000 0 0 1
-24.657857 28.147156 -8.444175 38.361132 -0.851381 1.792737 0.155048 -0.023519 115919.000000 0 0 1
-25.245777 27.167956 -7.595475 37.856814 -0.822055 1.772804 0.141516 -0.023364 -313666.000000 0 0 1
-24.227657 26.196656 -6.969175 36.356754 -0.824427 1.763679 0.140566 -0.019601 12490.500000 0 0 1
-23.440857 27.016256 -6.098375 36.284185 -0.856140 1.739670 0.143950 -0.021192 -464022.000000 0 0 1
-22.632957 26.241556 -5.292675 35.055419 -0.859098 1.722356 0.113273 -0.026622 -1204330.000000 0 0 1
-21.285257 26.867956 -5.008075 34.641450 -0.900819 1.715874 0.091951 -0.035518 -522804.000000 0 0 1
-20.450857 26.934056 -6.180975 34.378560 -0.921374 1.751571 0.108362 -0.036704 289339.000000 0 0 1
-19.210357 27.544756 -5.818475 34.082342 -0.961802 1.742355 0.111699 -0.036039 253941.000000 0 0 1
-18.140957 27.264756 -6.895675 33.466574 -0.983697 1.778330 0.134199 -0.039455 -553054.000000 0 0 1
-18.307857 27.777156 -8.179675 34.258650 -0.988052 1.811887 0.155416 -0.043264 21961.600000 0 0 1
-18.554857 29.200156 -8.229275 35.561957 -1.004727 1.804320 0.159951 -0.039259 -176687.000000 0 0 1
-18.481057 29.776056 -9.664975 36.353469 -1.015318 1.839893 0.170452 -0.037538 -84644.300000 0 0 1
-17.201757 30.027756 -10.209175 36.080380 -1.050570 1.857671 0.163656 -0.046011 -188680.000000 0 0 1
-17.352157 30.866156 -11.347775 37.183181 -1.058654 1.880930 0.171624 -0.049282 -224820.000000 0 0 1
-16.018457 31.266756 -11.988075 37.120277 -1.097345 1.899644 0.158846 -0.044612 -269259.000000 0 0 1
-16.180457 31.922256 -13.276275 38.171941 -1.101667 1.926022 0.158375 -0.046492 -78493.400000 0 0 1
-16.354557 30.912756 -14.286975 37.778138 -1.084176 1.958627 0.169373 -0.057801 75974.500000 0 0 1
-15.737857 31.468356 -15.600575 38.487862 -1.107055 1.988144 0.191390 -0.053475 1029330.000000 0 0 1
-14.304657 31.406556 -15.683975 37.907546 -1.143405 1.997358 0.178139 -0.060954 630426.000000 0 0 1
-13.913857 32.045256 -16.877575 38.798794 -1.161164 2.020837 0.159253 -0.058855 -520321.000000 0 0 1
-12.406857 31.991456 -17.139975 38.355731 -1.200836 2.034058 0.168959 -0.064252 -321020.000000 0 0 1
-11.927457 30.821056 -17.762575 37.519472 -1.201555 2.063969 0.169224 -0.069120 -444308.000000 0 0 1
-10.558057 30.991956 -18.011775 37.368409 -1.242457 2.073738 0.145437 -0.063379 -138148.000000 0 0 1
-10.100557 30.882256 -19.468275 37.878077 -1.254696 2.110605 0.136866 -0.071054 -425510.000000 0 0 1
-10.087357 29.543856 -19.813975 36.975503 -1.241771 2.136331 0.149924 -0.073636 -20959.700000 0 0 1
-9.972857 29.214456 -21.216175 37.457555 -1.241833 2.172934 0.101376 -0.071145 415385.000000 0 0 1
-11.317557 29.146856 -22.041775 38.255276 -1.200422 2.184839 0.111639 -0.058336 740278.000000 0 0 1
-12.010957 30.382756 -22.053075 39.417167 -1.194330 2.164553 0.141960 -0.060763 -276044.000000 0 0 1
-13.284157 30.321356 -21.452475 39.446954 -1.157872 2.145792 0.154466 -0.061587 -367099.000000 0 0 1
-14.016357 31.651056 -21.691275 40.850447 -1.153912 2.130568 0.181911 -0.067070 -294576.000000 0 0 1
-14.598557 31.842856 -22.945075 41.875552 -1.140932 2.150690 0.149475 -0.051018 -635888.000000 0 0 1
-15.429657 32.922256 -22.773975 42.902252 -1.132526 2.130381 0.140043 -0.057822 -390859.000000 0 0 1
-16.174857 33.392756 -24.048675 44.215845 -1.119721 2.145865 0.131666 -0.042600 42071.900000 0 0 1
-15.355657 -33.782990 -25.071275 44.784545 1.144175 2.164965 0.124841 -0.035366 -48083.500000 0 0 1
-15.710157 33.491956 -26.360775 45.424780 -1.132195 2.189914 0.132314 -0.034995 224316.000000 0 0 1
-16.560957 -33.206990 -27.181475 45.997849 1.108174 2.203007 0.113018 -0.026590 -146865.000000 0 0 1
-17.841957 -32.997390 -26.657975 46.019679 1.075115 2.188633 0.120997 -0.024322 -453055.000000 0 0 1
-18.534157 -32.100690 -27.537975 46.176936 1.047179 2.209752 0.099690 -0.010322 168385.000000 0 0 1
-19.986957 -31.819990 -27.094475 46.326027 1.009952 2.195510 0.109926 -0.024591 145287.000000 0 0 1
-20.930657 -32.823390 -27.408275 47.609672 1.003134 2.184241 0.125523 -0.026077 -1155600.000000 0 0 1
-22.190757 -32.236790 -27.421075 47.786564 0.967920 2.181964 0.106977 -0.022985 -737655.000000 0 0 1
-23.310757 -33.267390 -27.387675 48.991789 0.959595 2.164007 0.087862 -0.014875 -377139.000000 0 0 1
-23.416157 33.685656 -26.220175 48.688165 -0.963341 2.139491 0.122804 -0.023238 81502.400000 0 0 1
-24.545457 32.807056 -26.242675 48.656556 -0.928463 2.140456 0.080017 -0.015655 615394.000000 0 0 1
-24.311657 31.460756 -27.057575 48.093120 -0.912886 2.168333 0.074354 -0.015824 427534.000000 0 0 1
-23.440357 30.417156 -26.593475 46.710456 -0.914223 2.176482 0.095746 -0.037516 133811.000000 0 0 1
-23.945757 29.735856 -25.427775 45.871475 -0.892843 2.158350 0.066495 -0.027455 100128.000000 0 0 1
33.376528 10.152756 -25.827535 43.406597 0.295295 2.208079 0.032210 -0.010776 -159735.000000 0 0 1
32.972248 8.824356 -26.036925 42.929709 0.261501 2.222449 0.012069 -0.002097 1042980.000000 0 0 1
31.535958 8.725856 -26.160235 41.892901 0.269942 2.245230 0.044802 -0.016973 1148040.000000 0 0 1
30.849378 7.324056 -25.893335 40.936423 0.233098 2.255606 0.034018 -0.011127 70332.200000 0 0 1
31.008098 6.896056 -24.558465 40.151911 0.218834 2.228927 0.010500 0.011557 147705.000000 0 0 1
30.564148 5.572256 -24.325765 39.458333 0.180333 2.235076 0.041761 0.008187 -74056.200000 0 0 1
30.450638 5.289256 -22.845065 38.433249 0.171983 2.207327 0.061900 -0.007058 -479560.000000 0 0 1
31.635218 4.977156 -22.187365 38.959444 0.156050 2.176693 0.053559 -0.006724 -202342.000000 0 0 1
31.321038 4.733656 -20.843565 37.919245 0.149998 2.152781 0.062574 -0.005906 -747262.000000 0 0 1
32.528918 4.581656 -19.958965 38.438033 0.139928 2.116770 0.059985 -0.012068 -751040.000000 0 0 1
33.126018 3.292056 -19.939065 38.803828 0.099055 2.110454 0.082395 -0.010903 152102.000000 0 0 1
33.835008 3.038656 -18.767365 38.810504 0.089568 2.075518 0.089228 -0.019373 -558331.000000 0 0 1
34.550528 1.677156 -18.862465 39.399803 0.048504 2.070021 0.100436 -0.022551 -90708.300000 0 0 1
33.629578 0.636056 -18.699165 38.483917 0.018911 2.078184 0.102468 -0.016552 -125091.000000 0 0 1
34.311568 -0.566744 -18.428565 38.951469 -0.016516 2.063621 0.128827 -0.017412 -244913.000000 0 0 1
33.511078 -1.926044 -18.370965 38.264793 -0.057412 2.071566 0.108617 -0.012640 219256.000000 0 0 1
33.040998 -2.388644 -17.101565 37.281050 -0.072168 2.047351 0.105454 -0.007255 68005.600000 0 0 1
31.872038 -1.733744 -16.678665 36.014033 -0.054343 2.052304 0.086241 -0.017086 -390603.000000 0 0 1
31.451658 -2.112144 -15.238765 35.012682 -0.067055 2.021096 0.095320 -0.021706 -20024.500000 0 0 1
31.100418 -3.413744 -14.957465 34.678746 -0.109328 2.016746 0.088737 -0.032304 357498.000000 0 0 1
30.231458 -3.551244 -13.843765 33.439531 -0.116933 1.997634 0.087043 -0.026195 -16272.800000 0 0 1
30.015958 -5.025544 -13.462365 33.278358 -0.165890 1.987270 0.079244 -0.029904 151706.000000 0 0 1
29.151458 -5.738044 -14.356065 32.997413 -0.194351 2.020908 0.054425 -0.025831 554251.000000 0 0 1
29.037458 -7.096344 -13.967965 32.994486 -0.239688 2.007928 0.058659 -0.032472 -200066.000000 0 0 1
28.301058 -7.838844 -15.100165 33.021392 -0.270207 2.045735 0.047313 -0.029019 -233455.000000 0 0 1
26.966658 -7.442144 -15.275965 31.873834 -0.269273 2.070612 0.041188 -0.018931 -305399.000000 0 0 1
26.390558 -8.202844 -16.315765 32.092872 -0.301358 2.104113 0.045287 -0.022349 207649.000000 0 0 1
25.026658 -7.641144 -16.787265 31.089113 -0.296331 2.141201 0.057330 -0.023052 -32970.700000 0 0 1
25.186058 -6.438444 -17.523165 31.350477 -0.250275 2.163908 0.036545 -0.014736 29322.400000 0 0 1
24.019658 -6.056244 -18.223665 30.752627 -0.246989 2.205065 0.073856 -0.021937 54437.800000 0 0 1
23.685558 -6.738944 -19.561865 31.449731 -0.277192 2.242096 0.048424 -0.012971 -387610.000000 0 0 1
24.623058 -6.325744 -20.493165 32.653941 -0.251465 2.249245 0.044798 -0.011730 -40477.800000 0 0 1
24.265258 -6.712244 -21.790665 33.296998 -0.269871 2.284229 0.065296 -0.024567 -38455.000000 0 0 1
25.057258 -5.923744 -22.888165 34.450327 -0.232146 2.297462 0.076865 -0.027418 56237.800000 0 0 1
24.760658 -6.245244 -24.262465 35.224430 -0.247071 2.330624 0.104207 -0.032923 66857.000000 0 0 1
24.867858 -5.094244 -25.114055 35.708227 -0.202057 2.350843 0.093481 -0.036983 -119991.000000 0 0 1
24.763358 -5.433644 -26.583905 36.734894 -0.216000 2.379900 0.115874 -0.036814 -173410.000000 0 0 1
23.499058 -6.000344 -26.802835 36.146948 -0.250002 2.406094 0.127225 -0.035215 -444413.000000 0 0 1
23.131358 -6.043844 -28.144015 36.927948 -0.255570 2.437398 0.114045 -0.031183 87868.000000 0 0 1
21.787058 -6.727644 -28.440625 36.452795 -0.299502 2.465789 0.098773 -0.032871 -18383.500000 0 0 1
21.871758 -8.126544 -28.202015 36.602844 -0.355746 2.450401 0.090478 -0.028187 -776279.000000 0 0 1
20.643358 -8.755644 -28.253795 36.070576 -0.401141 2.470740 0.090618 -0.032997 -730819.000000 0 0 1
20.715558 -10.267044 -27.961905 36.282429 -0.460137 2.450694 0.110375 -0.031680 -302973.000000 0 0 1
19.455358 -10.779944 -27.607725 35.452851 -0.505975 2.463414 0.125308 -0.029874 13405.400000 0 0 1
19.452058 -12.008244 -26.901995 35.302944 -0.553061 2.437243 0.124286 -0.029542 -356288.000000 0 0 1
19.596558 -13.197644 -27.855245 36.525574 -0.592696 2.438155 0.104735 -0.019221 647576.000000 0 0 1
18.403958 -13.433744 -28.637355 36.596028 -0.630537 2.469509 0.091083 -0.023149 987894.000000 0 0 1
18.684258 -14.395244 -29.616975 37.861455 -0.656460 2.469059 0.069680 -0.024511 -541359.000000 0 0 1
17.542958 -14.651944 -30.568095 38.168616 -0.695841 2.499543 0.055798 -0.023011 -639127.000000 0 0 1
16.391558 -15.242444 -30.025155 37.450303 -0.749089 2.500986 0.061549 -0.031615 155376.000000 0 0 1
15.432358 -15.533044 -31.026615 37.974781 -0.788650 2.527041 0.057050 -0.036487 -105808.000000 0 0 1
14.181958 -16.264444 -30.512655 37.372212 -0.853690 2.526038 0.071838 -0.041909 53696.200000 0 0 1
14.431358 -17.583144 -30.046005 37.685454 -0.883531 2.493578 0.048173 -0.033283 -508565.000000 0 0 1
13.339258 -17.947044 -29.280885 36.842943 -0.931625 2.489390 0.051695 -0.028237 -371453.000000 0 0 1
13.608258 -19.176344 -28.421955 36.887998 -0.953631 2.450411 0.054321 -0.027251 -254559.000000 0 0 1
14.384458 -18.971744 -27.303995 36.226342 -0.922065 2.424479 0.055050 -0.022098 -546866.000000 0 0 1
14.468358 -20.123844 -26.494855 36.280571 -0.947455 2.389523 0.061063 -0.014216 165365.000000 0 0 1
15.549258 -20.062844 -25.371475 35.888841 -0.911469 2.355967 0.052019 -0.007869 -48595.100000 0 0 1
16.856558 -20.276044 -25.831665 36.912551 -0.877228 2.345924 0.068802 -0.018790 -146460.000000 0 0 1
17.790158 -20.107244 -24.789865 36.542146 -0.846463 2.316367 0.078017 -0.019249 726415.000000 0 0 1
19.281958 -20.514944 -25.113015 37.726918 -0.816370 2.299164 0.065157 -0.006432 843524.000000 0 0 1
19.587358 -21.896044 -25.146725 38.671167 -0.840994 2.278737 0.067952 -0.014837 223502.000000 0 0 1
19.469358 -22.616344 -23.913465 38.241453 -0.860035 2.246349 0.060642 -0.011465 -632386.000000 0 0 1
20.110158 -24.028944 -23.958065 39.443599 -0.873949 2.223581 0.049933 -0.011903 459669.000000 0 0 1
21.513558 -23.982844 -23.666765 39.976565 -0.839619 2.204354 0.080200 -0.011284 558682.000000 0 0 1
22.094458 -25.222424 -23.498665 40.945366 -0.851409 2.182060 0.085710 -0.023511 -327497.000000 0 0 1
21.971458 -25.768784 -22.017365 40.392321 -0.864772 2.147290 0.089270 -0.026191 -109820.000000 0 0 1
20.634158 -25.890894 -21.549465 39.502991 -0.897908 2.147800 0.071696 -0.023861 203466.000000 0 0 1
20.477158 -25.877214 -20.162565 38.671349 -0.901370 2.119267 0.059504 -0.020044 -302398.000000 0 0 1
19.155558 -26.470064 -19.686465 38.146515 -0.944361 2.113059 0.058334 -0.019468 -891864.000000 0 0 1
19.063458 -27.849754 -19.916865 39.188082 -0.970542 2.103934 0.075743 -0.020648 -293592.000000 0 0 1
18.161758 -28.549264 -19.111165 38.860604 -1.004216 2.084938 0.072824 -0.009633 1108010.000000 0 0 1
16.624658 -28.356224 -19.441165 38.189182 -1.040527 2.104906 0.092030 -0.027584 1122170.000000 0 0 1
16.008158 -27.106564 -18.983365 36.761326 -1.037344 2.113432 0.078896 -0.019331 704489.000000 0 0 1
14.663858 -26.991914 -19.486165 36.377229 -1.073136 2.136096 0.077708 -0.010849 1040150.000000 0 0 1
13.726258 -26.112884 -18.606165 34.878106 -1.086839 2.133485 0.050280 -0.013902 -524514.000000 0 0 1
13.160158 -26.737874 -17.517465 34.568269 -1.113415 2.102207 0.050283 -0.014380 105407.000000 0 0 1
12.129558 -25.957334 -16.886765 33.257664 -1.133659 2.103374 0.049537 -0.020949 1281090.000000 0 0 1
10.692058 -26.249574 -17.437765 33.278159 -1.183993 2.122337 0.067118 -0.027863 -59849.300000 0 0 1
9.978958 -27.387984 -16.913465 33.700839 -1.221390 2.096557 0.081710 -0.014813 671091.000000 0 0 1
8.581758 -27.060584 -16.946465 33.062130 -1.263698 2.108965 0.084190 -0.006847 936361.000000 0 0 1
7.783758 -27.544874 -18.173165 33.905323 -1.295393 2.136485 0.095369 -0.010670 -224964.000000 0 0 1
8.024658 -26.747474 -19.308265 33.950429 -1.279325 2.175744 0.099919 -0.016922 -73624.800000 0 0 1
7.461858 -27.403214 -20.429765 34.985579 -1.304943 2.194380 0.092793 -0.010375 69272.500000 0 0 1
7.573358 -26.555224 -21.749565 35.150807 -1.292979 2.237947 0.096924 -0.011803 -253753.000000 0 0 1
6.645758 -25.477104 -21.777765 34.168992 -1.315630 2.261857 0.098146 -0.013728 327028.000000 0 0 1
6.375558 -25.000964 -23.094765 34.627505 -1.321106 2.300902 0.077988 -0.013848 -845931.000000 0 0 1
4.960758 -24.592744 -23.444765 34.337577 -1.371751 2.322347 0.071433 -0.011403 -990081.000000 0 0 1
4.009558 -25.613984 -23.537665 35.016773 -1.415519 2.307949 0.070064 -0.006356 -405944.000000 0 0 1
2.821358 -25.008724 -23.977565 34.760897 -1.458456 2.331989 0.067015 -0.009906 -133619.000000 0 0 1
1.775058 -25.989034 -24.574065 35.811526 -1.502602 2.327056 0.045759 -0.007451 126198.000000 0 0 1
2.180158 -26.685334 -25.718485 37.125471 -1.489279 2.336085 0.061338 -0.008379 578862.000000 0 0 1
1.020958 -27.320364 -26.281165 37.922873 -1.533444 2.336461 0.070187 -0.016598 613627.000000 0 0 1
1.325058 -28.396484 -27.380325 39.468953 -1.524167 2.337435 0.073309 -0.018424 -730937.000000 0 0 1
1.721158 -27.747104 -28.570115 39.863713 -1.508846 2.369848 0.067345 -0.018932 55715.700000 0 0 1
2.412158 -28.579844 -29.472805 41.125080 -1.486595 2.369801 0.086049 -0.037872 820356.000000 0 0 1
3.892958 -29.071404 -29.290235 41.451412 -1.437678 2.355501 0.092248 -0.034343 341007.000000 0 0 1
4.262858 -29.805754 -28.143735 41.214376 -1.428738 2.322470 0.072854 -0.035218 260360.000000 0 0 1
5.514458 -30.438174 -28.404875 41.996769 -1.391571 2.313604 0.091970 -0.041594 536295.000000 0 0 1
6.032758 -31.386374 -27.301225 42.033981 -1.380903 2.277728 0.124906 -0.056694 -41449.600000 0 0 1
5.041058 -32.379094 -27.119175 42.535487 -1.416348 2.262131 0.124607 -0.070953 185473.000000 0 0 1
5.417858 -33.569364 -26.425935 43.064898 -1.410783 2.231447 0.134465 -0.077090 -263919.000000 0 0 1
4.171958 33.281080 -26.258855 42.597688 1.446092 2.235008 0.153456 -0.073831 -515607.000000 0 0 1
3.714758 32.573520 -27.376105 42.711647 1.457245 2.266534 0.138080 -0.075952 870480.000000 0 0 1
2.494258 31.885566 -27.014865 41.865422 1.492730 2.272184 0.105515 -0.075564 1633010.000000 0 0 1
1.249558 32.066501 -27.985725 42.579604 1.531848 2.287969 0.103219 -0.054610 553498.000000 0 0 1
1.225958 31.361932 -29.191485 42.862764 1.531726 2.319986 0.126376 -0.062188 125474.000000 0 0 1
0.156158 31.813512 -30.008675 43.733791 1.565888 2.327003 0.118474 -0.057093 245260.000000 0 0 1
-0.305442 30.838472 -31.089915 43.791409 -1.560892 2.360230 0.123307 -0.055254 -595459.000000 0 0 1
0.719158 30.593752 -31.996325 44.274820 1.547294 2.378462 0.138791 -0.052062 -497947.000000 0 0 1
0.552358 29.603872 -33.031625 44.359696 1.552140 2.410779 0.163668 -0.053023 -393650.000000 0 0 1
1.846058 29.241542 -33.788285 44.722745 1.507749 2.427222 0.140356 -0.041264 -125197.000000 0 0 1
2.389258 30.367502 33.219373 45.071282 1.492280 0.742115 0.138698 -0.043758 -34659.300000 0 0 1
3.448458 30.015892 32.340695 44.257950 1.456410 0.751403 0.112931 -0.041288 99349.100000 0 0 1
3.047458 29.213372 31.020965 42.720117 1.466855 0.758099 0.112658 -0.026341 41185.800000 0 0 1
2.579558 27.869032 31.305905 41.992818 1.478499 0.729502 0.122304 -0.029433 1065820.000000 0 0 1
3.741258 26.985312 31.297305 41.493679 1.433034 0.716260 0.101266 -0.025624 948177.000000 0 0 1
3.509458 25.484462 31.733925 40.851145 1.433947 0.681199 0.111486 -0.027233 14223.400000 0 0 1
2.708858 24.708602 30.840565 39.610521 1.461600 0.678372 0.106168 -0.018425 220074.000000 0 0 1
2.876458 23.321062 31.155165 39.022945 1.448075 0.646195 0.098944 -0.012483 -24682.600000 0 0 1
2.131858 22.397802 30.154445 37.623090 1.475901 0.641017 0.086327 0.000389 335535.000000 0 0 1
0.743958 22.240402 30.403465 37.677044 1.537358 0.631828 0.081016 -0.012546 -122612.000000 0 0 1
0.151558 21.974002 29.129255 36.488261 1.563899 0.646298 0.077533 -0.003213 666310.000000 0 0 1
-1.353042 21.556502 29.210645 36.328711 -1.508111 0.636695 0.076622 -0.002407 941233.000000 0 0 1
-2.254342 22.608002 29.611565 37.323566 -1.471411 0.654464 0.082950 -0.011061 1057040.000000 0 0 1
-3.614542 22.172202 29.524945 37.099782 -1.409197 0.650427 0.064099 -0.020564 149247.000000 0 0 1
-4.651542 23.184342 29.890375 38.112794 -1.372792 0.669292 0.044104 -0.022958 -613754.000000 0 0 1
-4.658342 23.458092 31.264645 39.363184 -1.374765 0.653006 0.055558 -0.024270 72710.600000 0 0 1
-5.493742 24.551402 31.597546 40.390066 -1.350658 0.672431 0.047122 -0.024666 84118.100000 0 0 1
-5.740042 24.699962 33.119818 41.712810 -1.342459 0.653442 0.067754 -0.025485 975740.000000 0 0 1
-6.922642 25.499442 33.440468 42.619355 -1.305704 0.668696 0.059375 -0.021710 1074940.000000 0 0 1
-7.039042 25.729472 -32.879475 42.339269 -1.303752 2.460002 0.053930 -0.020957 -133422.000000 0 0 1
-8.366542 26.311102 -32.369745 42.544959 -1.262922 2.435397 0.083473 -0.013693 -204312.000000 0 0 1
-8.827242 27.607152 -32.773515 43.751324 -1.261325 2.417478 0.067341 -0.011897 -448656.000000 0 0 1
-10.048242 28.007092 -32.230065 43.865037 -1.226326 2.396102 0.069414 -0.010104 -300982.000000 0 0 1
-10.101842 28.416752 -30.753105 43.073338 -1.229240 2.365949 0.075296 -0.010209 -518990.000000 0 0 1
-9.403142 29.618612 -30.545045 43.573857 -1.263386 2.347588 0.076449 -0.007582 55089.200000 0 0 1
-9.362642 29.874252 -29.155385 42.780445 -1.267090 2.320623 0.090161 -0.015627 -294878.000000 0 0 1
-8.765142 31.194162 -28.707725 43.290148 -1.296873 2.295812 0.074810 -0.019424 47699.300000 0 0 1
-7.366042 31.219372 -28.943215 43.204369 -1.339089 2.304889 0.052953 -0.017206 48100.600000 0 0 1
-6.912442 32.502410 -28.474735 43.760702 -1.361244 2.279292 0.053873 -0.015790 89891.200000 0 0 1
-5.382142 32.559267 -28.240365 43.434912 -1.406975 2.278613 0.070838 -0.022542 5223.280000 0 0 1
-4.893142 33.836072 -27.804265 44.066992 -1.427179 2.253579 0.090547 -0.030730 141636.000000 0 0 1
-4.562842 -32.818024 -28.739835 43.861376 1.432647 2.285300 0.091787 -0.041269 192664.000000 0 0 1
-3.504942 -33.121494 -29.861655 44.732946 1.465368 2.301715 0.092236 -0.040779 -872.438000 0 0 1
-3.816242 33.546775 -30.767845 45.679428 -1.457524 2.309811 0.089754 -0.036827 -614.071000 0 0 1
-4.748242 33.734775 -31.821165 46.617244 -1.430963 2.322118 0.104339 -0.030016 116555.000000 0 0 1
-4.336042 -33.036354 -33.028995 46.916058 1.440292 2.351813 0.076638 -0.036411 -314918.000000 0 0 1
-4.049542 -31.745314 -32.516775 45.623507 1.443918 2.364164 0.083099 -0.045670 377105.000000 0 0 1
-3.284342 -30.863924 -33.340305 45.551560 1.464782 2.391938 0.084069 -0.055273 37815.600000 0 0 1
34.380428 17.894756 12.742625 40.799640 0.479907 1.253160 0.086399 -0.039373 715630.000000 0 0 1
35.773968 17.574256 12.702725 41.832888 0.456630 1.262271 0.108611 -0.052177 494956.000000 0 0 1
35.920748 16.365656 13.407225 41.687990 0.427505 1.243368 0.123017 -0.026152 827455.000000 0 0 1
37.388348 16.029156 13.930425 42.998595 0.405018 1.240869 0.103816 -0.041577 1464920.000000 0 0 1
-36.953827 15.868056 12.962125 42.253961 -0.405593 1.259002 0.103880 -0.018969 64759.200000 0 0 1
-37.087787 14.612556 12.372025 41.738445 -0.375323 1.269856 0.156604 -0.039158 -1038560.000000 0 0 1
-35.774351 13.871356 12.103025 40.233095 -0.369898 1.265241 0.176363 -0.026588 -279690.000000 0 0 1
-35.276064 13.344656 13.339525 40.005293 -0.361654 1.230842 0.154291 -0.020595 9911.640000 0 0 1
-35.852160 12.079256 13.792025 40.267925 -0.324974 1.221213 0.156786 -0.018224 59590.100000 0 0 1
-35.143639 11.524356 15.016225 39.917079 -0.316872 1.185120 0.186275 -0.028302 -26508.600000 0 0 1
-35.623367 12.235956 16.125925 40.973020 -0.330856 1.166280 0.190869 -0.020289 206898.000000 0 0 1
-34.992157 11.869956 17.329125 40.812320 -0.327037 1.132271 0.188880 -0.008687 -62703.500000 0 0 1
-35.041929 12.931656 18.445725 41.658244 -0.353530 1.112092 0.176219 -0.021545 -632061.000000 0 0 1
-36.318327 13.071756 18.966325 43.007129 -0.345486 1.114079 0.196133 -0.039950 -610533.000000 0 0 1
-36.288967 13.653656 20.245925 43.740244 -0.359864 1.089569 0.191677 -0.042720 63309.500000 0 0 1
-37.644657 13.740356 20.993625 45.239915 -0.349976 1.088233 0.193938 -0.062686 177276.000000 0 0 1
37.319958 12.384056 21.371825 44.753760 0.320401 1.072941 0.170171 -0.044219 -17137.400000 0 0 1
36.158608 12.405256 22.157925 44.184940 0.330496 1.045486 0.168626 -0.051029 -157014.000000 0 0 1
36.043468 11.056856 22.907905 44.115278 0.297651 1.024795 0.145531 -0.037842 -323934.000000 0 0 1
37.065298 10.791056 23.820825 45.362043 0.283305 1.017932 0.146466 -0.028395 -373789.000000 0 0 1
36.810218 11.366356 25.083935 45.971622 0.299495 0.993644 0.138688 -0.027043 -1563080.000000 0 0 1
-37.342717 11.456656 25.964245 46.902830 -0.297681 0.984145 0.135137 -0.028681 -388291.000000 0 0 1
-36.363017 12.363256 25.454965 46.076831 -0.327734 0.985500 0.143817 -0.040082 232168.000000 0 0 1
-35.425420 11.877056 24.514895 44.687861 -0.323492 0.990131 0.137981 -0.040246 -272847.000000 0 0 1
-34.326785 12.939156 24.173175 43.932816 -0.360471 0.988156 0.134996 -0.044977 467024.000000 0 0 1
-33.406897 13.444056 25.114615 43.903386 -0.382602 0.961802 0.120464 -0.040640 106442.000000 0 0 1
-33.993992 14.080756 26.246895 45.196888 -0.392699 0.951179 0.118606 -0.036873 -691550.000000 0 0 1
-32.980247 14.535356 27.306385 45.217385 -0.415118 0.922422 0.109758 -0.027842 -38800.200000 0 0 1
-32.290277 15.710856 26.888105 44.860486 -0.452830 0.928080 0.127634 -0.031686 -14573.400000 0 0 1
-31.679297 16.381556 27.959215 45.317226 -0.477239 0.905914 0.118172 -0.038619 -566730.000000 0 0 1
-31.049577 17.742656 27.665305 45.213352 -0.519147 0.912357 0.108268 -0.036894 -519184.000000 0 0 1
-31.789337 18.779356 27.070925 45.782760 -0.533586 0.938138 0.118836 -0.038281 8254.030000 0 0 1
-30.913197 19.735456 26.507345 45.252108 -0.568188 0.944966 0.118427 -0.030310 -160551.000000 0 0 1
-31.632677 20.585556 25.495025 45.545446 -0.576915 0.976687 0.134005 -0.020696 -212692.000000 0 0 1
-32.420647 21.552056 26.131355 46.887495 -0.586684 0.979641 0.134899 -0.025914 326013.000000 0 0 1
-33.366087 22.157656 25.273515 47.360406 -0.586208 1.007895 0.139588 -0.016484 -16530.000000 0 0 1
-34.009438 23.470056 25.776125 48.702095 -0.604054 1.013067 0.137825 -0.011401 191471.000000 0 0 1
-34.967478 23.929156 24.829295 49.110314 -0.600129 1.040740 0.143977 -0.015054 40863.800000 0 0 1
-35.125985 25.343956 24.868465 49.945886 -0.625021 1.049611 0.143721 -0.017053 505774.000000 0 0 1
-36.172107 25.790356 23.767785 50.383245 -0.619391 1.079533 0.151676 -0.006869 458483.000000 0 0 1
-35.838270 25.638356 22.402225 49.432445 -0.620981 1.100457 0.145252 -0.018692 -745579.000000 0 0 1
-36.836977 26.087456 21.567325 50.026670 -0.616199 1.125066 0.150958 -0.019174 -526812.000000 0 0 1
-36.541247 25.842556 20.047225 49.040714 -0.615553 1.149671 0.181209 -0.033297 91607.600000 0 0 1
-36.828557 24.533956 19.530225 48.370314 -0.587656 1.155168 0.175055 -0.038452 110690.000000 0 0 1
-36.504767 24.510456 18.174325 47.578005 -0.591294 1.178848 0.180160 -0.042011 -283524.000000 0 0 1
-36.982457 23.247656 17.347625 47.001018 -0.561193 1.192766 0.192911 -0.040849 333565.000000 0 0 1
37.025438 23.066656 16.978925 46.810657 0.557156 1.199617 0.152278 -0.046008 -215796.000000 0 0 1
36.913518 22.283956 15.788425 45.917936 0.543121 1.219793 0.157385 -0.043240 -26969.500000 0 0 1
35.538148 22.252456 15.106825 44.568463 0.559431 1.224988 0.130102 -0.029154 -74144.700000 0 0 1
34.568478 21.541056 15.820425 43.695339 0.557262 1.200317 0.122814 -0.039414 716838.000000 0 0 1
33.327578 21.407956 15.085925 42.386474 0.570978 1.206905 0.106017 -0.034623 8544.120000 0 0 1
32.258178 20.528656 15.735325 41.347506 0.566745 1.180391 0.076580 -0.041902 -117154.000000 0 0 1
31.768678 21.098756 16.909025 41.717161 0.586249 1.153462 0.086223 -0.033943 268253.000000 0 0 1
30.790088 22.136956 16.723725 41.445836 0.623340 1.155449 0.087331 -0.025114 -323616.000000 0 0 1
30.194958 22.838056 17.984825 41.913795 0.647555 1.127310 0.079731 -0.019152 -99397.800000 0 0 1
31.061058 23.681056 18.718225 43.312281 0.651392 1.123900 0.030608 -0.018138 -569887.000000 0 0 1
30.611088 24.118456 19.981025 43.794748 0.667319 1.097028 0.045552 -0.011769 -813773.000000 0 0 1
31.684078 24.665856 20.851525 45.244573 0.661489 1.091830 0.034980 -0.009286 -801826.000000 0 0 1
32.350478 25.786256 20.341825 46.100697 0.672964 1.113808 0.046385 -0.013620 410040.000000 0 0 1
33.423298 26.168456 21.213625 47.454429 0.664252 1.107352 0.071899 -0.021869 -356452.000000 0 0 1
34.444038 27.089956 20.597825 48.420325 0.666450 1.131397 0.084145 -0.024332 180581.000000 0 0 1
35.448378 27.588056 21.544825 49.818348 0.661344 1.123569 0.094492 -0.018893 638364.000000 0 0 1
35.108738 28.667356 22.398925 50.558408 0.684740 1.111820 0.069239 -0.019861 -99710.100000 0 0 1
36.079988 28.849856 23.600735 51.875567 0.674502 1.098481 0.074492 -0.018848 463586.000000 0 0 1
37.343968 29.422956 23.343675 52.964228 0.667313 1.114369 0.105516 -0.019152 -78520.500000 0 0 1
-37.276497 29.619156 24.536585 53.561886 -0.671427 1.094942 0.116860 -0.007919 -143318.000000 0 0 1
-35.941496 30.299756 24.315695 52.925602 -0.700434 1.093441 0.134949 -0.012413 198533.000000 0 0 1
-34.771160 29.598256 23.868415 51.524669 -0.705208 1.089146 0.125742 -0.012936 716339.000000 0 0 1
-33.716867 30.533756 23.762375 51.320443 -0.735897 1.089397 0.131171 -0.009721 4991.420000 0 0 1
-32.355477 30.054256 23.223555 49.894576 -0.748542 1.086651 0.126435 -0.014266 -93942.700000 0 0 1
-32.280587 29.647556 21.845925 48.972016 -0.742906 1.108405 0.111695 -0.008472 -117584.000000 0 0 1
-32.683537 28.344956 21.448425 48.287525 -0.714426 1.110536 0.138896 -0.008911 -146867.000000 0 0 1
-32.087827 27.131556 22.157425 47.504752 -0.701899 1.085551 0.137453 -0.008177 -898539.000000 0 0 1
-30.709367 26.986756 22.065725 46.456931 -0.720966 1.075865 0.101593 -0.013246 -459483.000000 0 0 1
-30.088057 26.132456 23.045605 46.035816 -0.715155 1.046503 0.096754 -0.012343 267966.000000 0 0 1
-29.865107 26.752956 24.465515 46.970275 -0.730486 1.022924 0.086275 -0.008370 -218296.000000 0 0 1
-30.989187 26.677456 25.318005 48.093843 -0.710767 1.016401 0.096483 -0.005390 -14126.200000 0 0 1
-30.730467 27.341156 26.585815 48.976586 -0.727100 0.996997 0.103686 -0.007114 820771.000000 0 0 1
-32.031097 27.493856 27.468345 50.362816 -0.709321 0.993919 0.115555 -0.019510 808681.000000 0 0 1
-32.697527 26.326556 27.868225 50.387040 -0.677876 0.984736 0.108372 -0.018770 127511.000000 0 0 1
-33.705977 26.585756 28.827035 51.709702 -0.667846 0.979451 0.109982 -0.017134 461418.000000 0 0 1
-34.590542 25.395556 29.258675 51.937558 -0.633297 0.972370 0.104862 -0.025284 129216.000000 0 0 1
-33.790777 24.531156 29.995185 51.413085 -0.627945 0.947869 0.098867 -0.034063 -130360.000000 0 0 1
-34.490635 23.417656 30.480215 51.643335 -0.596463 0.939482 0.085412 -0.045003 -174966.000000 0 0 1
-33.625307 22.598656 31.446605 51.285958 -0.591736 0.910739 0.081696 -0.047014 -453836.000000 0 0 1
-32.648627 21.768756 30.880705 49.934252 -0.588066 0.904056 0.086880 -0.038659 320427.000000 0 0 1
-31.905007 20.938856 31.841122 49.701330 -0.580783 0.875453 0.081193 -0.030076 1102290.000000 0 0 1
-30.738067 21.694056 32.611909 49.789532 -0.614589 0.856620 0.086651 -0.031031 -26852.100000 0 0 1
-31.071467 22.700356 33.544026 51.048447 -0.630959 0.853829 0.096946 -0.032730 -27733.800000 0 0 1
-31.428467 22.143756 -32.867635 50.580391 -0.613791 2.278131 0.086682 -0.027722 364690.000000 0 0 1
-30.288247 22.332756 -31.796985 49.266400 -0.635350 2.272355 0.113576 -0.021561 526229.000000 0 0 1
-30.180907 23.696156 -31.439465 49.606803 -0.665612 2.257218 0.103380 -0.016542 59123.900000 0 0 1
-29.682717 23.902256 -30.110555 48.569816 -0.677939 2.239467 0.127866 -0.012830 -12440.800000 0 0 1
-30.141807 25.140556 -29.326695 48.996236 -0.695176 2.212486 0.097021 -0.005838 -201039.000000 0 0 1
-29.615147 26.362156 -29.808975 49.604387 -0.727351 2.215466 0.099685 -0.018119 56068.400000 0 0 1
-30.053377 26.787756 -31.080325 50.860357 -0.728010 2.228235 0.071023 -0.004874 -273615.000000 0 0 1
-29.510687 28.147856 -31.506915 51.535116 -0.761766 2.228584 0.069924 -0.010939 -110632.000000 0 0 1
-29.998827 29.156856 -30.694415 51.886405 -0.771166 2.203800 0.050871 -0.014043 39524.500000 0 0 1
-29.492697 30.336156 -31.238385 52.592188 -0.799495 2.206786 0.041461 -0.022943 -165981.000000 0 0 1
-29.885067 31.627156 -30.521075 53.150073 -0.813712 2.182476 0.022632 -0.009282 109574.000000 0 0 1
-29.200147 31.715656 -29.279935 52.113780 -0.826670 2.167412 0.031504 -0.011286 486411.000000 0 0 1
-29.731537 32.851756 -28.594445 52.733713 -0.835214 2.143900 0.014050 -0.007909 -66901.900000 0 0 1
-29.058617 33.077956 -27.215095 51.761142 -0.849994 2.124431 0.003897 -0.008435 1217930.000000 0 0 1
-27.703557 33.601156 -27.279865 51.387896 -0.881304 2.130413 0.048402 -0.008198 1109010.000000 0 0 1
-27.465537 -32.763790 -27.558485 50.865428 0.873140 2.143364 0.052783 -0.001921 -515099.000000 0 0 1
-27.911877 -31.694890 -26.519255 49.868927 0.848779 2.131496 0.056141 -0.009213 -80453.900000 0 0 1
-29.292907 -31.465190 -26.366125 50.431192 0.821136 2.120945 0.036621 -0.017377 -285908.000000 0 0 1
-29.616857 -30.506390 -25.335305 49.494199 0.800192 2.108173 0.042984 -0.015411 1297620.000000 0 0 1
-31.163947 -30.222190 -25.146405 50.168856 0.770058 2.095822 0.025245 -0.013245 1384460.000000 0 0 1
-31.817327 -29.622290 -26.279655 50.798058 0.749687 2.114531 0.034545 -0.013434 87277.900000 0 0 1
-33.184817 -29.463190 -25.976495 51.420715 0.726063 2.100382 0.035658 -0.015643 -139877.000000 0 0 1
-33.882977 -28.655790 -27.092525 51.992455 0.702009 2.118919 0.051685 -0.021764 -200435.000000 0 0 1
-35.288547 -28.605290 -27.050045 52.870116 0.681178 2.107880 0.055300 -0.022776 -198820.000000 0 0 1
-35.731109 -27.558590 -27.868795 53.036382 0.656980 2.124059 0.074990 -0.028262 352463.000000 0 0 1
-37.232357 -27.691090 -28.248175 54.323147 0.639481 2.117650 0.069007 -0.031956 707000.000000 0 0 1
37.197628 -27.462290 -27.204435 53.646269 -0.635958 2.102622 0.061168 -0.022649 -1096860.000000 0 0 1
35.893528 -27.631790 -27.585985 53.036287 -0.656070 2.117804 0.063529 -0.025059 -1080700.000000 0 0 1
34.891438 -27.041690 -26.576785 51.526604 -0.659325 2.112723 0.053071 -0.017537 -221223.000000 0 0 1
34.719898 -27.839890 -25.429055 51.255904 -0.675863 2.089920 0.058534 -0.015896 312450.000000 0 0 1
33.765598 -27.238090 -24.568665 49.856278 -0.678802 2.086089 0.062985 -0.011413 130573.000000 0 0 1
33.594238 -27.865890 -23.189265 49.424920 -0.692462 2.059160 0.072614 -0.012370 192812.000000 0 0 1
32.998738 -29.176890 -23.097165 49.736171 -0.724007 2.053746 0.084603 -0.013479 338785.000000 0 0 1
32.583008 -29.657490 -21.766365 49.142586 -0.738429 2.029652 0.084704 -0.019694 -293624.000000 0 0 1
33.662488 -29.899690 -20.731565 49.567654 -0.726268 2.002312 0.069899 -0.017486 -1606370.000000 0 0 1
34.657368 -30.827990 -21.099965 50.957891 -0.726988 1.997714 0.064282 -0.019912 -412185.000000 0 0 1
35.836068 -30.774490 -20.383065 51.446694 -0.709556 1.978168 0.045556 -0.021028 -362302.000000 0 0 1
36.714958 -29.527290 -20.469065 51.369559 -0.677315 1.980641 0.028192 -0.013851 -1151530.000000 0 0 1
36.148098 -28.401690 -19.817365 50.060653 -0.665963 1.977808 0.024696 -0.004443 -99469.700000 0 0 1
36.702758 -27.209190 -20.347565 50.014557 -0.637935 1.989781 0.009713 -0.000198 -370432.000000 0 0 1
35.945768 -25.950190 -19.913465 48.600995 -0.625290 1.992958 0.015525 -0.002997 -912854.000000 0 0 1
34.912278 -25.755290 -20.791965 48.109333 -0.635592 2.017707 0.047815 -0.008079 -775520.000000 0 0 1
33.809008 -25.235590 -20.077765 46.722593 -0.641204 2.014982 0.083048 -0.011388 -58587.200000 0 0 1
32.580168 -24.761290 -20.881165 45.941396 -0.649877 2.042627 0.087727 -0.016847 -11582.100000 0 0 1
31.710208 -25.789290 -21.225065 46.055707 -0.682786 2.049756 0.111275 -0.018369 -217751.000000 0 0 1
30.510198 -25.370090 -21.842365 45.294620 -0.693672 2.073993 0.099810 -0.017332 292399.000000 0 0 1
29.706458 -26.603390 -22.323565 45.700718 -0.730347 2.081135 0.092960 -0.012589 -56988.900000 0 0 1
29.176858 -27.415990 -21.323565 45.360996 -0.754294 2.060184 0.087400 -0.008369 365188.000000 0 0 1
28.306258 -28.460190 -21.818265 45.686578 -0.788110 2.068676 0.071858 -0.003656 404029.000000 0 0 1
27.438958 -29.099890 -20.710665 45.040334 -0.814767 2.048594 0.065817 0.009752 -109061.000000 0 0 1
28.146558 -29.885590 -19.697865 45.534417 -0.815356 2.018163 0.098829 -0.006769 359254.000000 0 0 1
28.745258 -31.093290 -20.170865 46.903586 -0.824617 2.015344 0.099250 -0.008538 341701.000000 0 0 1
29.822958 -31.633290 -19.180965 47.518242 -0.814847 1.986304 0.069082 -0.012885 237075.000000 0 0 1
29.373558 -32.292990 -17.987565 47.214358 -0.832705 1.961649 0.073347 -0.012623 -137575.000000 0 0 1
29.080958 -31.432390 -16.897665 46.035078 -0.824237 1.946643 0.063827 -0.016026 140211.000000 0 0 1
28.492058 -32.115890 -15.612465 45.683442 -0.845118 1.919578 0.070640 -0.014842 -58967.300000 0 0 1
27.154358 -32.535290 -15.687665 45.188573 -0.875304 1.925337 0.060590 -0.007640 -143218.000000 0 0 1
26.738058 -33.160890 -14.482065 44.992206 -0.892218 1.898510 0.079263 -0.017903 -163707.000000 0 0 1
25.237158 -33.514590 -14.374065 44.348119 -0.925365 1.900877 0.086247 -0.019028 -20820.900000 0 0 1
24.458058 -32.375690 -14.193865 42.986599 -0.923819 1.907304 0.092656 -0.012454 214487.000000 0 0 1
23.092758 -32.715090 -13.947565 42.403858 -0.956138 1.905958 0.112653 -0.024937 562508.000000 0 0 1
-0.560357 -7.057644 -29.099235 29.948119 1.491565 2.902929 0.117255 -0.040076 169177.000000 0 0 1
-0.361157 -8.456044 -28.755955 29.975658 1.528112 2.855345 0.118441 -0.036692 -62650.200000 0 0 1
-0.572657 -9.239044 -29.892395 31.292861 1.508893 2.841288 0.129561 -0.044971 -8638.820000 0 0 1
-0.184057 -10.734344 -29.714575 31.594556 1.553651 2.794885 0.131443 -0.031619 151427.000000 0 0 1
1.207043 -10.892944 -29.531105 31.499196 -1.460437 2.786227 0.099011 -0.030301 -137396.000000 0 0 1
1.503943 -12.229144 -29.262045 31.750293 -1.448431 2.743058 0.121528 -0.033886 -37242.100000 0 0 1
2.945843 -12.558544 -28.835915 31.589635 -1.340393 2.720954 0.097696 -0.019204 -261642.000000 0 0 1
3.902943 -12.262944 -29.844465 32.500844 -1.262662 2.734479 0.105233 -0.025025 -161404.000000 0 0 1
5.259343 -12.465144 -29.562895 32.511617 -1.171534 2.712401 0.103810 -0.023916 168497.000000 0 0 1
5.799043 -13.909844 -29.281365 32.931915 -1.175805 2.666278 0.109228 -0.026525 -1052960.000000 0 0 1
5.267843 -14.516544 -28.113375 32.075568 -1.222689 2.639284 0.099552 -0.020325 -278932.000000 0 0 1
5.969243 -15.582144 -27.565015 32.222122 -1.204959 2.597251 0.102796 -0.013461 -427245.000000 0 0 1
5.881543 -16.964444 -28.271535 33.491262 -1.237066 2.575768 0.071176 -0.015122 -205423.000000 0 0 1
6.456243 -17.114944 -29.572585 34.772722 -1.210073 2.587643 0.096998 -0.034417 97783.200000 0 0 1
6.279943 -18.451044 -30.011735 35.785234 -1.242738 2.565619 0.087213 -0.029602 -428250.000000 0 0 1
6.830143 -18.731844 -31.398075 37.193708 -1.221150 2.575824 0.088451 -0.059535 -169661.000000 0 0 1
8.240243 -18.800244 -31.397775 37.512279 -1.157710 2.562574 0.091749 -0.052073 -168645.000000 0 0 1
8.716543 -19.419344 -32.575915 38.913742 -1.148892 2.562814 0.097237 -0.055918 860956.000000 0 0 1
10.279043 -19.300044 -32.722335 39.356088 -1.081417 2.552496 0.103437 -0.055172 840770.000000 0 0 1
10.629843 -17.998044 -33.173895 39.210081 -1.037309 2.579338 0.119812 -0.060813 -72491.200000 0 0 1
11.695443 -18.017644 33.577338 39.860463 -0.995047 0.569127 0.121133 -0.047273 -373330.000000 0 0 1
11.821243 -16.706044 32.735096 38.605960 -0.954986 0.558731 0.113460 -0.046928 -760561.000000 0 0 1
10.669843 -16.476544 32.020217 37.558172 -0.996126 0.549951 0.130564 -0.044675 -638849.000000 0 0 1
10.646543 -15.167944 31.498295 36.545286 -0.958789 0.531796 0.113850 -0.034153 -800103.000000 0 0 1
9.455543 -14.883844 30.629555 35.342690 -1.004832 0.522359 0.153099 -0.038802 -680685.000000 0 0 1
9.410643 -15.699644 29.499995 34.717268 -1.030805 0.555340 0.145835 -0.036232 -365147.000000 0 0 1
8.387443 -15.398244 28.613535 33.558747 -1.072030 0.549779 0.148835 -0.031830 -824764.000000 0 0 1
8.310443 -16.421744 27.445955 33.045689 -1.102310 0.590710 0.118818 -0.028708 -367075.000000 0 0 1
7.923043 -17.714944 27.865925 33.957379 -1.150230 0.608311 0.121106 -0.032958 288535.000000 0 0 1
7.841643 -18.621544 26.756645 33.528664 -1.172229 0.646789 0.102820 -0.027943 -1391.120000 0 0 1
7.551143 -20.082744 27.161815 34.613589 -1.211148 0.668560 0.102657 -0.035557 -542269.000000 0 0 1
8.518143 -20.487244 28.074105 35.783254 -1.176763 0.668810 0.117149 -0.032337 190322.000000 0 0 1
7.972743 -21.462344 28.973405 36.927700 -1.215119 0.668749 0.102463 -0.030976 168006.000000 0 0 1
8.564243 -21.459644 30.403935 38.187194 -1.191078 0.649839 0.125506 -0.046721 -72933.600000 0 0 1
7.949043 -20.464444 31.277875 38.213691 -1.200302 0.612003 0.130123 -0.055850 423654.000000 0 0 1
8.007343 -19.074144 30.875285 37.164818 -1.173338 0.590313 0.128656 -0.050935 -124920.000000 0 0 1
7.329243 -18.157544 31.910634 37.439321 -1.187150 0.550373 0.126814 -0.051668 350791.000000 0 0 1
5.944043 -18.413444 32.076422 37.460424 -1.258547 0.542782 0.132187 -0.058057 -309809.000000 0 0 1
5.357943 -17.440744 32.877956 37.601158 -1.272740 0.506626 0.124719 -0.050656 -30825.000000 0 0 1
3.856843 -17.755544 33.099605 37.758687 -1.356900 0.502027 0.137289 -0.050248 159262.000000 0 0 1
3.535443 -18.902144 -33.813155 38.898841 -1.385894 2.624497 0.128727 -0.058461 -267343.000000 0 0 1
3.109843 -18.559644 -32.559245 37.606329 -1.404779 2.617527 0.122770 -0.064537 -372048.000000 0 0 1
2.615843 -19.789144 -31.756755 37.509257 -1.439373 2.580432 0.105476 -0.039989 442729.000000 0 0 1
1.350043 -20.323644 -32.182525 38.086586 -1.504467 2.577330 0.101208 -0.036925 861546.000000 0 0 1
0.682743 -21.111144 -31.170595 37.653055 -1.538467 2.546037 0.101566 -0.036822 617253.000000 0 0 1
-0.138457 -20.395744 -30.029445 36.301145 1.564008 2.544958 0.107017 -0.035559 213853.000000 0 0 1
-1.409257 -19.994544 -30.538105 36.528669 1.500431 2.560756 0.118081 -0.047979 -183350.000000 0 0 1
-2.058057 -19.120844 -29.643485 35.335230 1.463575 2.566095 0.160014 -0.038536 -110806.000000 0 0 1
-1.758757 -17.607744 -29.700105 34.571985 1.471241 2.604266 0.144565 -0.037920 -201913.000000 0 0 1
-2.607257 -16.675244 -29.054915 33.601334 1.415697 2.615340 0.156540 -0.040851 -274701.000000 0 0 1
-2.224057 -15.396644 -29.428135 33.286907 1.427338 2.655308 0.151563 -0.037426 157438.000000 0 0 1
-3.204557 -14.278444 -28.999595 32.482606 1.350021 2.674260 0.143968 -0.028851 -144155.000000 0 0 1
-3.350457 -14.063744 -27.626325 31.180576 1.336922 2.659466 0.139529 -0.032663 -28462.500000 0 0 1
-4.274457 -13.044844 -27.317195 30.572342 1.254148 2.675935 0.125476 -0.037347 -12076.400000 0 0 1
-4.219957 -12.650044 -25.852465 29.089201 1.248813 2.665365 0.124561 -0.042200 -403617.000000 0 0 1
-4.762457 -13.614644 -24.987465 28.851567 1.234296 2.618082 0.147733 -0.037042 47070.100000 0 0 1
-4.930557 -13.153244 -23.654365 27.510856 1.212153 2.605712 0.134751 -0.043205 -104301.000000 0 0 1
-6.137657 -12.228444 -23.375665 27.085557 1.105617 2.612035 0.106270 -0.037880 516965.000000 0 0 1
-7.395857 -12.921944 -23.324865 27.671731 1.050957 2.573471 0.113885 -0.036858 1420030.000000 0 0 1
-8.544157 -12.044944 -23.308765 27.593148 0.953819 2.576857 0.091674 -0.037790 1388420.000000 0 0 1
-9.920057 -12.623244 -23.752065 28.669050 0.904739 2.547205 0.099993 -0.038489 468510.000000 0 0 1
-10.607757 -13.393244 -22.789065 28.482363 0.900938 2.498277 0.103151 -0.043626 -396877.000000 0 0 1
-11.613457 -14.142044 -23.385965 29.694666 0.883261 2.477616 0.081815 -0.036453 -223715.000000 0 0 1
-12.597957 -14.940544 -22.502865 29.804485 0.870260 2.426475 0.066796 -0.033822 -388668.000000 0 0 1
-11.885557 -16.022544 -21.955565 29.665388 0.932563 2.404026 0.110970 -0.036915 -169276.000000 0 0 1
-12.646757 -17.102944 -21.468865 30.221902 0.934082 2.360826 0.097038 -0.029935 49182.500000 0 0 1
-13.292157 -18.045844 -22.518065 31.771012 0.935941 2.358537 0.098415 -0.025108 -122036.000000 0 0 1
-14.315957 -17.464144 -23.257165 32.416642 0.884138 2.370924 0.057192 -0.014307 -974296.000000 0 0 1
-14.809857 -18.324744 -24.196165 33.772511 0.891082 2.369490 0.025677 -0.012092 -968190.000000 0 0 1
-16.076257 -17.824244 -24.850265 34.549752 0.836915 2.373533 0.029512 -0.015907 -867206.000000 0 0 1
-17.142857 -17.835844 -23.923565 34.414123 0.805207 2.339449 0.026378 -0.011503 -277159.000000 0 0 1
-18.335257 -17.363444 -24.496265 35.181499 0.758182 2.341002 0.021487 -0.015373 -264664.000000 0 0 1
-18.839057 -15.975544 -24.119265 34.523427 0.703333 2.344284 0.024795 -0.007451 -214697.000000 0 0 1
-19.537357 -15.983944 -22.861865 34.056713 0.685694 2.306742 0.030750 -0.013483 154101.000000 0 0 1
-20.374557 -14.862344 -22.787065 33.989148 0.630223 2.305573 0.040429 -0.017692 -22340.200000 0 0 1
-21.014757 -14.731544 -21.407665 33.420451 0.611403 2.266018 0.040451 -0.020594 -197396.000000 0 0 1
-19.968957 -14.657844 -20.479165 32.140439 0.633203 2.261627 0.044391 -0.012285 -171140.000000 0 0 1
-20.355457 -14.518744 -19.174965 31.509012 0.619570 2.225035 0.041951 -0.018140 -320182.000000 0 0 1
-20.943957 -13.145944 -18.762265 31.040100 0.560519 2.219875 0.049873 -0.024789 50553.500000 0 0 1
-22.311157 -12.914344 -19.025865 32.039843 0.524707 2.206593 0.052076 -0.025257 -117033.000000 0 0 1
-22.757357 -11.918044 -18.186865 31.475374 0.482428 2.186842 0.054792 -0.022465 -824892.000000 0 0 1
-24.164157 -11.540844 -18.598465 32.603688 0.445569 2.177838 0.077507 -0.028288 -818196.000000 0 0 1
-24.387857 -10.844644 -19.837865 33.255297 0.418416 2.209970 0.053752 -0.034434 936085.000000 0 0 1
-25.748787 -10.373444 -19.962665 34.192344 0.382979 2.194240 0.082165 -0.033019 919017.000000 0 0 1
-26.022937 -9.429844 -21.166565 34.844493 0.347649 2.223653 0.078169 -0.032422 -165668.000000 0 0 1
-26.179637 -9.956144 -22.474965 35.911311 0.363410 2.247013 0.063664 -0.032603 172234.000000 0 0 1
-26.932857 -9.070844 -23.241765 36.712922 0.324863 2.256306 0.035124 -0.023090 -362258.000000 0 0 1
-27.254607 -9.623344 -24.657765 37.992470 0.339425 2.277088 0.049033 -0.017611 557171.000000 0 0 1
-26.151227 -9.467644 -25.554305 37.769637 0.347355 2.313909 0.019964 -0.018921 790577.000000 0 0 1
-25.397887 -10.624544 -25.905495 37.802490 0.396202 2.325792 0.028797 -0.014230 1233780.000000 0 0 1
-24.200057 -10.526244 -26.946505 37.716823 0.410283 2.366623 0.034187 -0.018285 1014260.000000 0 0 1
-24.739857 -10.444744 -28.284045 39.001800 0.399482 2.382119 0.038191 -0.008032 68960.900000 0 0 1
-23.815157 -10.678544 -29.323605 39.256424 0.421517 2.414298 0.039335 -0.006897 -56274.500000 0 0 1
-24.452157 -11.136544 -30.660365 40.767494 0.427370 2.422007 0.037811 -0.008146 427728.000000 0 0 1
-25.311267 -10.148744 -31.296055 41.510244 0.381332 2.424829 0.032091 -0.015582 111947.000000 0 0 1
-24.664257 -9.089044 -31.931495 41.358877 0.353069 2.452871 0.036157 -0.017480 -1017650.000000 0 0 1
-25.583537 -7.901244 -32.343645 41.988789 0.299548 2.450096 0.032096 -0.013343 24825.900000 0 0 1
-26.593157 -8.223444 -33.322055 43.418664 0.299904 2.445665 0.052854 -0.016052 1284560.000000 0 0 1
-27.706667 -9.003844 -32.900565 43.945145 0.314205 2.416855 0.053892 -0.017076 -38034.000000 0 0 1
-28.716487 -8.385144 -31.883855 43.721019 0.284099 2.388032 0.047217 -0.008955 -72626.200000 0 0 1
-30.070477 -8.811544 -31.934775 44.740438 0.285050 2.365675 0.066815 -0.012329 57146.000000 0 0 1
-30.862977 -8.030544 -31.090445 44.537948 0.254555 2.343490 0.059449 -0.006948 -867943.000000 0 0 1
-32.288727 -8.531444 -31.221305 45.717801 0.258320 2.322540 0.059305 -0.011150 -810316.000000 0 0 1
-32.512687 -9.888444 -30.881965 45.918971 0.295252 2.308421 0.060509 -0.007551 -332036.000000 0 0 1
-33.872497 -10.178444 -31.061045 47.071598 0.291909 2.291440 0.062852 -0.005322 -276790.000000 0 0 1
-34.066305 -11.746944 -31.001145 47.534985 0.332058 2.281247 0.073257 -0.008202 -626817.000000 0 0 1
-35.379915 -12.246644 -31.149635 48.703372 0.333238 2.264746 0.052755 -0.003526 -155082.000000 0 0 1
-35.344195 -13.680844 -31.229905 49.108906 0.369314 2.260011 0.045949 -0.015298 245906.000000 0 0 1
-36.653117 -14.514744 -31.075055 50.197488 0.377056 2.238336 0.036340 -0.021036 226472.000000 0 0 1
-37.006687 -14.514644 -29.700005 49.621166 0.373779 2.212467 0.044848 -0.021780 67326.000000 0 0 1
37.441628 -15.567744 -29.421905 50.098689 -0.394041 2.198489 0.034595 -0.020171 -126760.000000 0 0 1
37.258448 -15.693644 -27.863115 49.100261 -0.398656 2.174231 0.045121 -0.012100 359616.000000 0 0 1
-36.964067 -16.183744 -27.145395 48.632585 0.412682 2.162979 0.064473 -0.029106 429308.000000 0 0 1
-36.969027 -15.939544 -25.762835 47.796461 0.407076 2.140059 0.071051 -0.027186 -795369.000000 0 0 1
-35.742077 -15.226544 -25.224265 46.320700 0.402727 2.146657 0.134442 -0.036615 143433.000000 0 0 1
-34.543939 -16.017344 -25.322015 45.727929 0.434172 2.157662 0.133746 -0.037526 -10123.800000 0 0 1
-33.477107 -15.435744 -24.651965 44.347472 0.432033 2.160220 0.152956 -0.033237 -451777.000000 0 0 1
-32.163007 -16.221144 -24.830065 43.750619 0.467115 2.174307 0.155538 -0.042615 -26287.600000 0 0 1
-32.036637 -17.326444 -23.947565 43.589421 0.495777 2.152430 0.174839 -0.049266 209913.000000 0 0 1
-32.685607 -18.490144 -24.467865 44.820874 0.514815 2.148263 0.138394 -0.049195 -6767.150000 0 0 1
-32.287177 -19.748244 -23.690365 44.650737 0.548937 2.130070 0.135034 -0.042475 -378233.000000 0 0 1
-30.954957 -20.117444 -23.897865 43.977595 0.576301 2.145290 0.128985 -0.032610 -275242.000000 0 0 1
-30.687237 -21.436644 -23.325165 44.105550 0.609754 2.128040 0.115128 -0.021228 151357.000000 0 0 1
-29.255107 -21.966144 -23.662565 43.569367 0.644044 2.144922 0.116932 -0.014607 1231440.000000 0 0 1
-28.099297 -21.314044 -23.102565 42.161446 0.648935 2.150714 0.120117 -0.011356 451795.000000 0 0 1
-27.957697 -21.196544 -21.658965 41.231506 0.648706 2.123866 0.118803 -0.023261 -603173.000000 0 0 1
-27.986027 -22.468144 -20.784765 41.473385 0.676467 2.095734 0.111539 -0.012934 -109424.000000 0 0 1
-27.867727 -22.218544 -19.412765 40.584842 0.673084 2.069543 0.105036 -0.017492 83394.200000 0 0 1
-28.171377 -23.460244 -18.734165 41.170116 0.694405 2.043217 0.100779 0.009040 110862.000000 0 0 1
-28.175987 -23.511444 -17.184965 40.521566 0.695397 2.008758 0.091082 -0.001312 393346.000000 0 0 1
-29.224317 -22.780944 -16.534565 40.576150 0.662128 1.990505 0.112983 -0.000559 265612.000000 0 0 1
-28.878957 -21.406544 -16.201765 39.430084 0.637878 1.994236 0.106501 -0.012816 62635.800000 0 0 1
-30.014047 -20.529944 -15.615365 39.574755 0.599914 1.976406 0.120173 -0.006463 317214.000000 0 0 1
-31.019847 -20.167344 -16.543965 40.529686 0.576476 1.991271 0.128944 -0.020785 490323.000000 0 0 1
-32.182647 -19.636944 -15.893865 40.913901 0.547865 1.969768 0.133800 -0.020972 9406.350000 0 0 1
-33.103117 -19.039644 -16.931565 41.773225 0.521956 1.988126 0.143222 -0.052884 -1039080.000000 0 0 1
-34.006042 -19.918844 -17.532365 43.134152 0.529871 1.989374 0.092764 -0.045854 -535093.000000 0 0 1
-34.559874 -19.247344 -18.593265 43.709892 0.508146 2.010177 0.086526 -0.042609 -663526.000000 0 0 1
-35.762036 -20.036944 -19.217065 45.273590 0.510706 2.009168 0.059750 -0.034240 742705.000000 0 0 1
-37.067497 -19.856644 -18.686465 46.015972 0.491789 1.988964 0.039864 -0.025735 467314.000000 0 0 1
-37.205257 -20.395944 -17.385565 45.852847 0.501461 1.959685 0.065369 -0.029826 -806023.000000 0 0 1
-37.444717 -21.978544 -17.146265 46.681449 0.530776 1.946905 0.051794 0.005631 1105820.000000 0 0 1
36.518938 -22.311744 -17.329365 46.170918 -0.548442 1.955550 0.046104 -0.018864 1209440.000000 0 0 1
36.117308 -23.645944 -17.051065 46.414755 -0.579671 1.946969 0.046228 -0.013766 115467.000000 0 0 1
34.707998 -23.651344 -16.433165 45.100777 -0.598159 1.943748 0.034371 -0.017590 -204488.000000 0 0 1
33.597568 -23.405344 -17.262665 44.436543 -0.608466 1.969777 0.057467 -0.028118 103873.000000 0 0 1
32.444168 -23.708444 -16.467865 43.427007 -0.631064 1.959736 0.085029 -0.028115 807534.000000 0 0 1
31.157088 -23.898044 -17.350765 42.929357 -0.654304 1.986868 0.091479 -0.038751 292694.000000 0 0 1
30.616478 -22.701144 -17.816365 42.072955 -0.638018 2.008062 0.072050 -0.039648 -1122140.000000 0 0 1
29.463858 -23.037044 -18.461865 41.709289 -0.663591 2.029328 0.112308 -0.037009 -1056310.000000 0 0 1
35.712808 29.723956 -18.118865 49.871951 0.694131 1.942612 0.044916 -0.014993 133914.000000 0 0 1
34.890198 29.870256 -19.297565 49.819215 0.708037 1.968554 0.043670 -0.030316 412748.000000 0 0 1
35.406618 29.154656 -20.392165 50.194252 0.688862 1.989159 0.050367 -0.021200 -245196.000000 0 0 1
34.499508 29.228256 -21.651565 50.132797 0.702871 2.017377 0.066658 -0.029914 -98998.800000 0 0 1
33.353748 28.417456 -21.463765 48.792597 0.705655 2.026281 0.051449 -0.022189 374614.000000 0 0 1
32.428898 28.355456 -22.547865 48.621719 0.718484 2.053009 0.074936 -0.020245 233948.000000 0 0 1
31.223108 29.290556 -22.354465 48.296390 0.753473 2.052015 0.066645 -0.022947 -685564.000000 0 0 1
31.612148 30.635556 -22.403265 49.394043 0.769711 2.041554 0.091010 -0.027873 676984.000000 0 0 1
30.527888 31.546256 -22.656765 49.400883 0.801802 2.047250 0.084922 -0.016880 417514.000000 0 0 1
31.108188 33.006556 -22.586665 50.668625 0.814998 2.032833 0.079348 -0.017023 377541.000000 0 0 1
31.573008 33.410456 -21.318965 50.671606 0.813666 2.005044 0.075441 -0.016719 -631249.000000 0 0 1
32.969008 33.472456 -21.339265 51.601599 0.792975 1.997134 0.070555 -0.022825 -927691.000000 0 0 1
33.457858 33.325056 -19.893765 51.242068 0.783410 1.969508 0.068160 -0.025733 -440964.000000 0 0 1
33.220938 -33.272490 -19.132365 50.761567 -0.786173 1.957251 0.065545 -0.023668 151179.000000 0 0 1
33.490318 -33.456690 -17.755265 50.558886 -0.784896 1.929627 0.055448 -0.035107 -401707.000000 0 0 1
33.573818 -32.152390 -16.940665 49.476900 -0.763775 1.920262 0.057191 -0.026890 243093.000000 0 0 1
34.785728 -31.450890 -17.136665 49.928656 -0.735093 1.921143 0.064481 -0.027172 -107648.000000 0 0 1
35.823828 -31.870790 -16.272765 50.634937 -0.727069 1.897977 0.057976 -0.025190 -468237.000000 0 0 1
37.029768 -30.927990 -16.388465 50.954157 -0.695850 1.898248 0.055803 -0.007992 10137.700000 0 0 1
-37.438567 -31.353990 -17.423165 51.848681 0.697180 1.913504 0.046836 -0.013537 -40337.200000 0 0 1
-36.253207 -30.577890 -17.416465 50.523615 0.700681 1.922736 0.033728 -0.004256 185954.000000 0 0 1
-35.244411 -30.948690 -18.510565 50.424508 0.720592 1.946680 0.053855 -0.014986 -694989.000000 0 0 1
-34.810316 -32.264890 -18.253965 50.852615 0.747468 1.937948 0.049540 -0.017611 -70230.700000 0 0 1
-33.895167 -32.907790 -19.106565 50.959453 0.770619 1.955125 0.073039 -0.024901 240959.000000 0 0 1
-32.447927 -32.370190 -19.151165 49.673578 0.784199 1.966590 0.067511 -0.023046 -1207370.000000 0 0 1
-32.423477 -31.256290 -20.036365 49.291921 0.767071 1.989399 0.064433 -0.013400 1274800.000000 0 0 1
-31.074147 -30.791390 -20.366665 48.254672 0.780828 2.006520 0.080668 -0.013954 1688330.000000 0 0 1
-30.136007 -31.818290 -21.053765 48.619374 0.812545 2.018651 0.084770 -0.016748 -625653.000000 0 0 1
-30.795777 -32.395490 -22.165965 49.891659 0.810708 2.031169 0.075175 -0.010885 -154992.000000 0 0 1
-30.009227 -33.320990 -22.852565 50.329731 0.837644 2.042110 0.071746 -0.012798 -141652.000000 0 0 1
-30.773397 33.816656 -24.060865 51.667141 -0.832480 2.055210 0.051335 -0.022734 11198.000000 0 0 1
-31.626367 32.688156 -23.751365 51.311500 -0.801906 2.052044 0.071173 -0.034776 523566.000000 0 0 1
-32.247377 31.983456 -24.845965 51.770231 -0.781289 2.071369 0.061771 -0.027180 660112.000000 0 0 1
-33.153047 32.804556 -25.799585 53.299925 -0.780115 2.076068 0.054201 -0.037331 -521301.000000 0 0 1
-32.433057 33.739156 -26.550185 53.806563 -0.805133 2.086834 0.038547 -0.030323 203821.000000 0 0 1
-33.363647 -33.090390 -27.207455 54.298734 0.781286 2.095631 0.041194 -0.028516 1044850.000000 0 0 1
-32.712977 -32.332290 -28.447275 54.081081 0.779546 2.124700 0.020625 -0.020837 340501.000000 0 0 1
-32.492307 -33.154390 -29.602875 55.057187 0.795483 2.138474 0.023351 -0.020503 -355172.000000 0 0 1
-33.671137 -33.494690 -30.257455 56.312994 0.782771 2.138039 0.046282 -0.021811 -412255.000000 0 0 1
-33.388957 33.427756 -31.515065 56.792928 -0.785979 2.159053 0.057636 -0.021548 -216722.000000 0 0 1
-32.797437 -33.648890 -32.563915 57.169295 0.798212 2.176821 0.050423 -0.023229 -320425.000000 0 0 1
-32.713607 33.211356 -33.692405 57.518279 -0.792948 2.196624 0.053672 -0.033770 274943.000000 0 0 1
-31.643367 33.723256 32.921131 56.765848 -0.817206 0.952134 0.046789 -0.031243 1726310.000000 0 0 1
-30.243517 33.409956 32.981861 55.845310 -0.835102 0.939003 0.043159 -0.027668 868716.000000 0 0 1
-30.036107 32.087056 32.483156 54.652560 -0.818400 0.934330 0.043437 -0.034792 202220.000000 0 0 1
-28.578947 31.541256 32.579090 53.600412 -0.834631 0.917491 0.063605 -0.027862 23929.200000 0 0 1
-28.211217 31.208156 -33.785535 53.956317 -0.835793 2.247421 0.065170 -0.034118 378769.000000 0 0 1
-26.831507 30.857156 -33.709275 52.994425 -0.855068 2.260218 0.075170 -0.031438 -70624.900000 0 0 1
-26.370137 29.474756 33.539634 51.856074 -0.840935 0.867437 0.085341 -0.032517 -587909.000000 0 0 1
-26.511537 28.529656 -33.118825 51.123962 -0.822047 2.275508 0.085803 -0.029682 367521.000000 0 0 1
-26.017217 27.248956 -33.536965 50.439362 -0.808518 2.298152 0.077316 -0.027709 -330701.000000 0 0 1
-25.998387 26.250756 -32.342265 49.102347 -0.790228 2.289847 0.116715 -0.032047 713000.000000 0 0 1
-24.895957 26.365256 -31.381915 47.955813 -0.814053 2.284175 0.099746 -0.024730 895893.000000 0 0 1
-24.897857 27.521856 -30.538435 48.061959 -0.835414 2.259319 0.082337 -0.030103 -774811.000000 0 0 1
-23.645957 27.775056 -29.741285 47.065158 -0.865526 2.254821 0.115322 -0.032803 -917648.000000 0 0 1
-22.501557 28.127656 -30.489555 47.192140 -0.896068 2.273224 0.113757 -0.028166 589518.000000 0 0 1
-21.312257 28.158356 -29.665785 46.121190 -0.922912 2.269484 0.091338 -0.027917 763130.000000 0 0 1
-21.067257 29.357856 -28.705715 46.149010 -0.948354 2.242119 0.080667 -0.025487 -572076.000000 0 0 1
-20.693357 30.539456 -29.427925 47.189789 -0.975267 2.244146 0.082344 -0.024173 67202.000000 0 0 1
-20.120657 31.523056 -28.601895 47.080912 -1.002702 2.223712 0.118068 -0.028558 -154259.000000 0 0 1
-19.584357 32.826756 -29.223895 48.116307 -1.032882 2.223529 0.114341 -0.020178 225745.000000 0 0 1
-18.341357 32.712956 -29.895895 47.961520 -1.059794 2.243791 0.105189 -0.020075 -231398.000000 0 0 1
-17.900457 -33.852890 -30.496865 48.954094 1.084397 2.243328 0.108734 -0.011253 1278790.000000 0 0 1
-16.404557 -33.728490 -31.041935 48.685956 1.118111 2.262169 0.083802 -0.005326 1307120.000000 0 0 1
-15.476657 -33.656690 -29.981485 47.656995 1.139791 2.251204 0.085134 -0.008651 286058.000000 0 0 1
-14.098257 -33.700990 -30.352145 47.494950 1.174586 2.264072 0.105821 -0.005028 808082.000000 0 0 1
-13.543557 32.585956 -30.178305 46.432775 -1.176893 2.278296 0.105294 -0.013083 -468394.000000 0 0 1
-13.499857 32.201656 -28.793915 45.257953 -1.173824 2.260382 0.102308 -0.024739 -29021.200000 0 0 1
-13.231957 30.843656 -28.596895 44.093063 -1.165542 2.276484 0.092294 -0.018658 -34051.700000 0 0 1
-12.910557 30.576856 -27.121395 42.862532 -1.171272 2.255900 0.078426 -0.033424 -239297.000000 0 0 1
-11.657457 31.013456 -26.686545 42.542948 -1.211251 2.248858 0.067814 -0.028983 -375652.000000 0 0 1
-11.701057 30.828356 -25.307195 41.566289 -1.208038 2.225393 0.057148 -0.026461 529426.000000 0 0 1
-10.265757 31.156356 -24.816965 41.133758 -1.252507 2.218458 0.061987 -0.028392 353799.000000 0 0 1
-9.260957 30.367356 -25.381175 40.646595 -1.274791 2.245205 0.066193 -0.018681 -832147.000000 0 0 1
-7.981157 30.784256 -25.021965 40.465640 -1.317121 2.237439 0.074257 -0.028667 -255430.000000 0 0 1
-6.822257 29.948456 -25.587615 39.977234 -1.346818 2.265366 0.072135 -0.030582 -162855.000000 0 0 1
-6.587657 28.773256 -24.898665 38.616590 -1.345725 2.271513 0.072724 -0.042842 -364607.000000 0 0 1
-5.495157 28.138656 -25.477255 38.354547 -1.377935 2.297295 0.078407 -0.051519 -469203.000000 0 0 1
-4.933157 26.855656 -24.802265 36.887866 -1.389130 2.308201 0.102338 -0.046655 -108599.000000 0 0 1
-5.862157 25.793656 -24.805365 36.262704 -1.347321 2.324092 0.095314 -0.040911 -99066.000000 0 0 1
-5.378357 24.615956 -24.174465 34.918144 -1.355686 2.335493 0.100641 -0.053911 -1058360.000000 0 0 1
-6.406857 23.494156 -24.099265 34.260732 -1.304570 2.350977 0.090713 -0.052897 -401904.000000 0 0 1
-6.864257 23.001356 -25.362305 34.920294 -1.280782 2.383707 0.081309 -0.049036 519159.000000 0 0 1
-7.542057 21.732156 -25.220695 34.135798 -1.236756 2.402135 0.081436 -0.053637 -553254.000000 0 0 1
-7.492457 20.874456 -26.453835 34.520794 -1.226189 2.443883 0.054819 -0.045374 -526924.000000 0 0 1
-6.282657 20.197156 -26.602395 33.986531 -1.269218 2.469842 0.073994 -0.055742 -524445.000000 0 0 1
-6.073457 19.100156 -25.739025 32.622082 -1.262927 2.479986 0.071901 -0.050699 -24172.400000 0 0 1
-4.666557 18.454956 -25.959785 32.191188 -1.323126 2.508878 0.074012 -0.059192 585818.000000 0 0 1
-4.484657 17.787956 -27.222095 32.826300 -1.323826 2.548609 0.073305 -0.059010 -468963.000000 0 0 1
-3.436657 16.851156 -27.221065 32.198734 -1.369613 2.578125 0.077866 -0.056582 -275478.000000 0 0 1
-3.042957 16.439456 -28.636185 33.159409 -1.387767 2.613146 0.083758 -0.044743 -200550.000000 0 0 1
-2.362957 17.497756 -29.287675 34.198289 -1.436565 2.599067 0.099099 -0.049600 -3097.980000 0 0 1
-2.257557 17.323556 -30.688745 35.312905 -1.441209 2.624079 0.098054 -0.051641 -501082.000000 0 0 1
-1.543257 18.388056 -31.482915 36.492139 -1.487065 2.611443 0.105135 -0.035983 -1281030.000000 0 0 1
-0.231757 18.420756 -31.047675 36.101746 -1.558216 2.606075 0.141771 -0.047715 -1135140.000000 0 0 1
0.483043 19.535556 -31.569865 37.128529 1.546075 2.587325 0.162636 -0.035433 298832.000000 0 0 1
0.330843 20.989256 -30.978325 37.420782 1.555035 2.546038 0.158039 -0.043619 126729.000000 0 0 1
1.149243 21.015056 -29.804645 36.486576 1.516164 2.526753 0.182863 -0.053814 -24467.900000 0 0 1
1.038643 22.201756 -29.104155 36.620330 1.524048 2.489399 0.178974 -0.065431 476821.000000 0 0 1
2.183443 22.382056 -28.057385 35.957485 1.473551 2.465931 0.187066 -0.068820 476064.000000 0 0 1
3.438843 22.671256 -28.613395 36.667941 1.420261 2.466003 0.175572 -0.064535 401327.000000 0 0 1
4.558343 22.650856 -27.702305 36.072947 1.372205 2.446434 0.168000 -0.064696 1089020.000000 0 0 1
5.241243 24.022056 -27.414955 36.825393 1.355978 2.410519 0.177211 -0.063267 -89208.100000 0 0 1
5.976743 24.613356 -28.471155 38.107026 1.332582 2.414540 0.159788 -0.059043 273125.000000 0 0 1
6.403143 25.934656 -28.165525 38.818854 1.328742 2.382649 0.158947 -0.061642 -410539.000000 0 0 1
7.351943 26.528856 -29.192605 40.125297 1.300451 2.385520 0.162827 -0.054673 -1628490.000000 0 0 1
8.673643 26.276756 -29.010295 40.091111 1.251969 2.379813 0.133415 -0.047551 -1503500.000000 0 0 1
9.465043 27.150456 -29.792545 41.404469 1.235356 2.373949 0.137576 -0.046122 224276.000000 0 0 1
10.981443 26.993556 -29.499715 41.466581 1.184427 2.362298 0.127618 -0.040335 244834.000000 0 0 1
11.748343 28.031256 -30.088455 42.767862 1.173920 2.351148 0.119404 -0.033767 116223.000000 0 0 1
13.021543 28.099656 -29.471305 42.751714 1.136850 2.331401 0.116398 -0.034731 263859.000000 0 0 1
14.044743 29.086956 -30.086025 44.141530 1.120960 2.320717 0.117767 -0.035500 34752.200000 0 0 1
13.700443 30.421956 -29.871945 44.783151 1.147654 2.301019 0.125430 -0.028411 -304569.000000 0 0 1
14.444443 31.188556 -30.729635 46.105080 1.137075 2.300318 0.171238 -0.042512 -150474.000000 0 0 1
13.883343 32.643756 -30.843105 47.007012 1.168673 2.286486 0.178877 -0.050192 205947.000000 0 0 1
12.699043 32.752156 -31.608235 47.255158 1.200911 2.303503 0.150161 -0.050166 51952.000000 0 0 1
12.112243 -33.725490 -31.392355 47.640267 -1.226000 2.290213 0.136501 -0.041500 -263298.000000 0 0 1
10.869443 -33.329090 -32.196395 47.598118 -1.255547 2.313689 0.098422 -0.038055 -391603.000000 0 0 1
11.076043 -32.895090 -33.533375 48.262334 -1.246012 2.338958 0.075068 -0.025633 -281626.000000 0 0 1
9.852043 -32.763990 33.466541 47.859703 -1.278700 0.796430 0.081291 -0.029015 -92549.200000 0 0 1
10.007443 -32.102190 32.133056 46.510566 -1.268607 0.808096 0.074796 -0.026418 34207.900000 0 0 1
9.729243 -30.740390 32.234018 45.592342 -1.264274 0.785542 0.068591 -0.036650 -19603.700000 0 0 1
9.960843 -30.018990 31.046695 44.319921 -1.250410 0.794680 0.082271 -0.034639 -216192.000000 0 0 1
9.415843 -28.569290 31.164235 43.313646 -1.252428 0.767712 0.085245 -0.044738 835785.000000 0 0 1
8.001743 -28.323290 31.205935 42.895769 -1.295457 0.756150 0.053222 -0.040828 330133.000000 0 0 1
7.535243 -28.415790 32.544187 43.856141 -1.311584 0.734648 0.067947 -0.047519 -855547.000000 0 0 1
6.018443 -28.127290 32.495722 43.397443 -1.360003 0.724556 0.053922 -0.044887 -300696.000000 0 0 1
5.184743 -29.211190 32.223775 43.801220 -1.395134 0.744123 0.082455 -0.055541 -268016.000000 0 0 1
5.352443 -29.968890 31.027105 43.467968 -1.394060 0.775898 0.081690 -0.043419 -1165130.000000 0 0 1
5.277343 -29.300290 29.631045 42.004240 -1.392595 0.787767 0.073524 -0.045561 -1266240.000000 0 0 1
4.038743 -28.944590 29.159725 41.284262 -1.432158 0.786516 0.124627 -0.046186 -1009060.000000 0 0 1
4.062943 -28.207890 27.916235 39.893718 -1.427744 0.795728 0.138347 -0.038675 -529800.000000 0 0 1
2.758143 -28.255290 27.078105 39.232544 -1.473490 0.809038 0.117844 -0.030956 121215.000000 0 0 1
2.383843 -29.565990 26.643605 39.871194 -1.490342 0.838953 0.131729 -0.036694 5645.800000 0 0 1
1.911743 -30.471090 27.620265 41.170634 -1.508139 0.835411 0.182153 -0.049057 -949386.000000 0 0 1
2.293143 -31.952090 27.253695 42.058988 -1.499151 0.865857 0.209818 -0.044878 583709.000000 0 0 1
3.655743 -32.375290 27.170415 42.423523 -1.458355 0.875704 0.160736 -0.037898 356467.000000 0 0 1
4.288243 -31.983990 25.995465 41.438253 -1.437516 0.892676 0.142345 -0.033834 -1075430.000000 0 0 1
5.800243 -32.098890 26.153875 41.809170 -1.392026 0.894955 0.146688 -0.017806 -596426.000000 0 0 1
6.420843 -31.922390 24.889375 40.984719 -1.372306 0.918158 0.112554 -0.029783 269035.000000 0 0 1
7.824043 -31.808690 25.017675 41.217623 -1.329612 0.918560 0.101639 -0.037375 -49427.300000 0 0 1
8.614543 -31.499790 23.713385 40.358044 -1.303844 0.942737 0.086112 -0.029040 176567.000000 0 0 1
9.921943 -30.976490 23.856195 40.337401 -1.260816 0.937982 0.078528 -0.016045 149479.000000 0 0 1
10.525543 -30.922090 22.583945 39.711425 -1.242709 0.965870 0.087611 -0.030926 108820.000000 0 0 1
11.725943 -29.954690 22.491925 39.251342 -1.197677 0.960606 0.050174 -0.027976 556676.000000 0 0 1
12.845243 -30.312490 23.314295 40.341091 -1.169976 0.954607 0.053080 -0.029896 333972.000000 0 0 1
13.830743 -29.287690 23.313455 39.907085 -1.129604 0.946910 0.063222 -0.023978 279281.000000 0 0 1
15.141943 -29.801990 23.977005 41.137985 -1.100702 0.948573 0.081331 -0.024986 -94194.600000 0 0 1
15.143543 -30.025890 25.408865 42.148444 -1.103675 0.923738 0.089616 -0.033543 149349.000000 0 0 1
15.811243 -29.040090 26.198185 42.186101 -1.072214 0.900760 0.099461 -0.036254 -47339.200000 0 0 1
-11.595957 -13.659044 25.656195 31.293386 0.866907 0.609630 0.102493 -0.032062 158658.000000 0 0 1
-10.225957 -13.708744 25.266385 30.510491 0.929896 0.595049 0.102082 -0.025784 324118.000000 0 0 1
-9.464157 -14.196244 26.375425 31.412842 0.982794 0.574179 0.112981 -0.036257 490741.000000 0 0 1
-7.912857 -14.160544 26.258405 30.864836 1.061225 0.553377 0.137736 -0.028826 407622.000000 0 0 1
-7.299557 -15.149844 25.471925 30.522455 1.121795 0.583516 0.139300 -0.029019 -1516.580000 0 0 1
-7.355957 -14.972444 24.087575 29.300093 1.114133 0.605709 0.142571 -0.030932 -288849.000000 0 0 1
-6.549557 -15.970144 23.204265 28.920237 1.181603 0.639568 0.148903 -0.042118 -71654.700000 0 0 1
-7.116157 -17.221544 23.003455 29.603719 1.178952 0.680837 0.157076 -0.041853 -188557.000000 0 0 1
-7.343357 -18.039644 24.190325 31.056810 1.184212 0.677877 0.162687 -0.040487 -281455.000000 0 0 1
-8.151457 -19.353244 24.037805 31.918809 1.172154 0.718047 0.161352 -0.043909 807779.000000 0 0 1
-9.561657 -19.220944 23.817475 32.064655 1.109183 0.733560 0.139874 -0.038832 367738.000000 0 0 1
-10.144957 -20.408444 23.385505 32.654350 1.109475 0.772522 0.131901 -0.039359 -18648.100000 0 0 1
-11.684657 -20.306844 23.346635 33.075134 1.048658 0.787150 0.107624 -0.042914 -66020.800000 0 0 1
-12.278657 -20.242944 24.611395 34.150592 1.025564 0.766024 0.113187 -0.042763 -1362390.000000 0 0 1
-13.650457 -20.222744 24.559235 34.618642 0.977043 0.782118 0.114947 -0.037938 -1111180.000000 0 0 1
-14.239757 -20.070344 25.997375 35.797387 0.953728 0.757965 0.119623 -0.039503 -456743.000000 0 0 1
-14.082557 -21.220744 26.811325 36.979528 0.984904 0.759716 0.110685 -0.036227 358670.000000 0 0 1
-13.111757 -21.101244 27.861395 37.328782 1.014809 0.728193 0.115557 -0.037356 322391.000000 0 0 1
-12.532157 -22.357844 28.463895 38.303021 1.059908 0.733069 0.113413 -0.031397 152395.000000 0 0 1
-13.524657 -23.169944 29.064195 39.553635 1.042437 0.745418 0.096384 -0.028460 -61314.200000 0 0 1
-12.925857 -24.285244 29.638125 40.438463 1.081682 0.748193 0.096325 -0.023859 -378511.000000 0 0 1
-13.767357 -25.025954 30.649815 41.895700 1.067859 0.750168 0.097918 -0.025494 -98395.400000 0 0 1
-13.634657 -24.517844 31.948219 42.517258 1.063273 0.720588 0.083501 -0.023025 -21594.800000 0 0 1
-14.690957 -25.029004 32.726184 43.741038 1.040022 0.725481 0.072169 -0.023277 -200658.000000 0 0 1
-14.694757 -24.498644 -33.517045 44.039888 1.030510 2.435744 0.080090 -0.020733 150309.000000 0 0 1
-14.993357 -23.125444 -33.300255 43.226079 0.995583 2.450224 0.096644 -0.026204 208660.000000 0 0 1
-16.340957 -22.765144 -33.589315 43.743808 0.948220 2.446297 0.092515 -0.033326 17326.600000 0 0 1
-16.679157 -21.264544 -33.561965 43.090377 0.905662 2.463664 0.087119 -0.036080 -118878.000000 0 0 1
-16.736957 -20.771844 -32.240025 41.845125 0.892558 2.450360 0.081265 -0.038089 17252.900000 0 0 1
-16.847557 -19.333744 -32.246695 41.200524 0.854005 2.469751 0.067047 -0.040434 -148685.000000 0 0 1
-17.078257 -18.722344 -30.858185 39.930197 0.831289 2.454043 0.060094 -0.026127 416663.000000 0 0 1
-18.287957 -19.159144 -30.223255 40.186656 0.808658 2.421996 0.057098 -0.024685 521002.000000 0 0 1
-18.407957 -18.777544 -28.877345 39.055731 0.795337 2.402957 0.039912 -0.024108 -258566.000000 0 0 1
-17.691957 -19.672844 -27.888355 38.441989 0.838363 2.382508 0.027256 -0.010888 -54562.500000 0 0 1
-16.287457 -19.698444 -28.065405 37.960202 0.879903 2.402882 0.028865 -0.013488 -95297.500000 0 0 1
-15.748157 -20.794144 -27.387325 37.821508 0.922617 2.380554 0.023899 -0.010259 -107366.000000 0 0 1
-14.213657 -20.883444 -27.460605 37.312613 0.973197 2.397880 0.140203 -0.022344 -388702.000000 0 0 1
-13.526457 -19.810844 -26.771095 35.946156 0.971721 2.410965 0.145721 -0.033230 24099.900000 0 0 1
-12.128757 -19.810444 -26.709075 35.396824 1.021425 2.425782 0.132634 -0.039980 -167512.000000 0 0 1
-11.527257 -20.981544 -25.870315 35.247355 1.068414 2.394937 0.193949 -0.057331 -865923.000000 0 0 1
-11.410857 -22.238644 -26.481385 36.414677 1.096716 2.385056 0.198346 -0.048982 28123.600000 0 0 1
-11.093657 -23.165144 -25.471925 36.173362 1.124175 2.352039 0.263117 -0.054186 2736.910000 0 0 1
-11.279257 -24.651244 -25.894985 37.489408 1.141679 2.333292 0.240664 -0.051465 -397144.000000 0 0 1
-10.451557 -24.917244 -27.008405 38.204163 1.173635 2.355972 0.246567 -0.049549 27997.200000 0 0 1
-10.550857 -26.217354 -27.536305 39.457805 1.188190 2.343212 0.230808 -0.042665 -655738.000000 0 0 1
-10.059057 -27.454474 -26.842765 39.692151 1.219595 2.313489 0.234006 -0.035699 -401396.000000 0 0 1
-10.734057 -27.614524 -25.604435 39.158256 1.200060 2.283485 0.174419 -0.042268 93764.100000 0 0 1
-10.529357 -28.863134 -24.904865 39.549971 1.220995 2.251971 0.156247 -0.043687 -664490.000000 0 0 1
-11.467057 -29.010774 -23.740165 39.200942 1.194375 2.221318 0.149680 -0.041613 -518715.000000 0 0 1
-11.282457 -27.925504 -22.829865 37.793258 1.186829 2.219398 0.148945 -0.039944 62788.900000 0 0 1
-12.229457 -26.871274 -22.943665 37.390330 1.143699 2.231441 0.152323 -0.047946 -91010.500000 0 0 1
-12.055857 -25.752044 -21.899465 35.890083 1.132951 2.227086 0.176298 -0.043785 1242.060000 0 0 1
-12.576457 -26.009214 -20.599565 35.482229 1.120404 2.190213 0.107790 -0.031519 145690.000000 0 0 1
-12.727157 -24.837844 -19.799365 34.218619 1.097270 2.187824 0.101460 -0.019861 -237120.000000 0 0 1
-13.252157 -25.005384 -18.392465 33.751617 1.083459 2.147109 0.132164 -0.021913 -40586.700000 0 0 1
-14.580257 -25.492734 -18.423065 34.668036 1.051266 2.131065 0.155828 -0.032775 140727.000000 0 0 1
-15.014957 -25.949414 -17.133265 34.530708 1.046243 2.089984 0.140948 -0.034588 232096.000000 0 0 1
-16.560357 -26.029644 -17.040765 35.244510 1.004175 2.075447 0.138993 -0.044127 -443216.000000 0 0 1
-17.230457 -24.757044 -16.816465 34.533945 0.962772 2.079396 0.120766 -0.037669 1506190.000000 0 0 1
-18.646557 -24.744144 -16.524065 35.114263 0.925011 2.060744 0.123770 -0.039603 1329300.000000 0 0 1
-19.648657 -25.384224 -17.505165 36.563087 0.912080 2.070045 0.119815 -0.036612 -1094740.000000 0 0 1
-19.401157 -26.752454 -17.844765 37.557081 0.943350 2.065916 0.123997 -0.032515 -197142.000000 0 0 1
-19.826957 -27.681664 -16.874265 38.001626 0.949248 2.030900 0.136887 -0.045238 -858718.000000 0 0 1
-21.298757 -27.997684 -16.653165 38.920885 0.920462 2.012934 0.140289 -0.032862 -500224.000000 0 0 1
-21.864757 -28.856224 -17.669465 40.285969 0.922377 2.024838 0.121541 -0.031137 327582.000000 0 0 1
-23.122357 -29.317234 -17.176565 41.099611 0.902987 2.001957 0.129248 -0.021513 292274.000000 0 0 1
-23.738257 -30.380954 -18.123065 42.602262 0.907529 2.010202 0.109046 -0.027797 32291.500000 0 0 1
-23.166357 -31.686264 -17.967965 43.168822 0.939490 2.000087 0.099212 -0.028591 227113.000000 0 0 1
-23.547357 -32.524824 -19.076865 44.455247 0.944156 2.014320 0.085860 0.001109 167137.000000 0 0 1
-22.976957 33.721459 -19.041965 45.029699 -0.972680 2.007413 0.070072 -0.005124 241764.000000 0 0 1
-23.696957 32.804429 -18.211365 44.377136 -0.945214 1.993664 0.084756 -0.009656 124351.000000 0 0 1
-22.997257 31.586412 -18.022065 43.027550 -0.941476 2.002974 0.075274 -0.012337 117363.000000 0 0 1
-23.945657 30.343232 -17.973065 42.627893 -0.902700 2.006035 0.092892 -0.028289 359984.000000 0 0 1
-24.636857 30.362022 -16.703865 42.518775 -0.889121 1.974534 0.083542 -0.034645 94632.000000 0 0 1
-25.297667 29.165262 -16.382265 41.939994 -0.856292 1.972093 0.092838 -0.029995 364051.000000 0 0 1
-24.304757 27.996812 -15.972665 40.369156 -0.855873 1.977588 0.095438 -0.041802 546197.000000 0 0 1
-23.571657 27.473462 -17.070365 40.022637 -0.861688 2.011436 0.078124 -0.031372 -28572.600000 0 0 1
-22.985357 26.224122 -16.750965 38.686252 -0.851119 2.018609 0.085202 -0.029250 199874.000000 0 0 1
-22.151257 25.632252 -17.945965 38.337295 -0.858119 2.057944 0.078679 -0.023584 -447212.000000 0 0 1
-21.950657 24.230152 -17.935765 37.291062 -0.834718 2.072554 0.099199 -0.025516 950495.000000 0 0 1
-21.080157 23.719582 -19.015565 36.994369 -0.844246 2.110652 0.094346 -0.014869 387151.000000 0 0 1
-19.639857 24.198592 -19.135965 36.571587 -0.889015 2.121453 0.083177 -0.026815 -1340040.000000 0 0 1
-18.807957 23.722782 -18.074365 35.258932 -0.900447 2.109027 0.107854 -0.032305 95929.300000 0 0 1
-17.576057 24.406862 -18.092765 35.099300 -0.946689 2.112357 0.119436 -0.047688 -215670.000000 0 0 1
-17.574757 25.663922 -17.169065 35.528661 -0.970342 2.075154 0.141408 -0.051655 -428565.000000 0 0 1
-18.562557 26.622412 -17.479365 36.862577 -0.961916 2.064825 0.110706 -0.042937 116853.000000 0 0 1
-18.359357 27.812362 -16.721765 37.285532 -0.987343 2.035859 0.137615 -0.058207 523521.000000 0 0 1
-19.521457 28.830132 -17.058965 38.772053 -0.975592 2.026374 0.114162 -0.043742 702312.000000 0 0 1
-19.461357 29.375602 -18.380965 39.743305 -0.985683 2.051600 0.109920 -0.040794 339432.000000 0 0 1
-20.254357 28.602272 -19.293965 40.007325 -0.954629 2.074030 0.089731 -0.026405 -59827.400000 0 0 1
-20.374457 29.064682 -20.706065 41.092766 -0.959397 2.098888 0.091787 -0.031706 -272773.000000 0 0 1
-21.092057 30.238362 -20.843565 42.351949 -0.961732 2.085356 0.096247 -0.029110 -129662.000000 0 0 1
-21.607157 30.327582 -22.137965 43.321138 -0.951757 2.107167 0.097453 -0.027804 -18149.200000 0 0 1
-22.129557 31.720072 -22.533665 44.762108 -0.961648 2.098336 0.103770 -0.029241 1064290.000000 0 0 1
-20.978357 32.608482 -22.565265 44.861963 -0.999117 2.097855 0.097074 -0.022114 1148900.000000 0 0 1
-21.207057 33.629852 -23.511965 46.190028 -1.008179 2.104850 0.107435 -0.018806 -252037.000000 0 0 1
-19.987657 -33.172024 -23.647265 45.377117 1.028507 2.118968 0.121533 -0.018821 -25171.200000 0 0 1
-19.849257 -32.186694 -22.600465 44.054027 1.018194 2.109492 0.107534 -0.020846 233957.000000 0 0 1
-19.482957 -32.691384 -21.287565 43.605878 1.033348 2.080801 0.119582 -0.028633 -276403.000000 0 0 1
-19.362857 -31.563594 -20.208465 42.184864 1.020542 2.070363 0.133769 -0.035412 -533471.000000 0 0 1
-18.234757 -30.785004 -20.408565 41.191411 1.036039 2.089157 0.117295 -0.031756 -396684.000000 0 0 1
-18.081157 -29.817964 -19.372565 39.891547 1.025695 2.077881 0.112450 -0.034881 1081120.000000 0 0 1
-16.702157 -29.022964 -19.417265 38.708199 1.048601 2.096280 0.127532 -0.029418 336437.000000 0 0 1
-15.549957 -29.798204 -19.328665 38.772818 1.089828 2.092676 0.142365 -0.040042 -378751.000000 0 0 1
-14.550757 -28.810684 -19.610265 37.766950 1.103119 2.116763 0.119807 -0.034723 98985.100000 0 0 1
-13.080957 -29.255934 -19.817965 37.679873 1.150339 2.124635 0.170202 -0.048793 602754.000000 0 0 1
-12.397157 -30.017104 -18.800665 37.525738 1.179131 2.095559 0.164402 -0.044634 688249.000000 0 0 1
-11.594357 -29.152644 -17.951965 36.146629 1.192264 2.090523 0.143528 -0.032650 526296.000000 0 0 1
-10.754757 -30.069874 -16.961565 36.160155 1.227315 2.059031 0.134683 -0.011549 313302.000000 0 0 1
-11.531257 -30.701284 -15.947965 36.467469 1.211504 2.023413 0.151730 -0.024933 109000.000000 0 0 1
-12.144657 -31.919854 -16.360765 37.868779 1.207236 2.017548 0.159769 -0.023390 494725.000000 0 0 1
-13.153557 -32.447534 -15.258465 38.192660 1.185661 1.981782 0.155565 -0.033750 466979.000000 0 0 1
-12.525957 -32.738834 -14.026365 37.755394 1.205377 1.951427 0.133850 -0.034359 252328.000000 0 0 1
-13.525157 -33.135574 -13.082865 38.105872 1.183261 1.921256 0.135390 -0.032804 471820.000000 0 0 1
-13.032057 -33.612114 -11.681065 37.895330 1.200922 1.884145 0.103420 -0.026212 -179797.000000 0 0 1
-12.313457 -32.625254 -11.025965 36.573219 1.209905 1.877037 0.074790 -0.016431 -143522.000000 0 0 1
-11.858957 -33.015324 -9.717065 36.401481 1.225953 1.841014 0.087025 -0.016949 -1187660.000000 0 0 1
-10.610557 -32.341854 -9.275265 35.279030 1.253786 1.836835 0.076208 -0.019578 -1105530.000000 0 0 1
-9.468557 -32.926744 -9.840365 35.646274 1.290787 1.850484 0.061716 -0.019488 65221.700000 0 0 1
-8.214757 -32.363944 -9.456365 34.703457 1.322222 1.846777 0.055274 -0.029016 1093300.000000 0 0 1
-6.962457 -33.050124 -10.070165 35.244783 1.363169 1.860555 0.072177 -0.043453 425048.000000 0 0 1
-6.457957 33.509702 -9.443465 35.408818 -1.380411 1.840762 0.066014 -0.020075 -520634.000000 0 0 1
-5.228157 33.172423 -10.016665 35.043928 -1.414477 1.860671 0.081696 -0.023883 -102201.000000 0 0 1
-4.350157 32.203376 -9.187465 33.769673 -1.436525 1.846332 0.087048 -0.028735 152005.000000 0 0 1
-3.850957 32.822364 -7.982965 33.998017 -1.454003 1.807816 0.102154 -0.035461 -111966.000000 0 0 1
-3.254157 31.780385 -7.219865 32.752234 -1.468757 1.793061 0.092256 -0.040370 -161652.000000 0 0 1
-2.663857 32.275763 -5.951765 32.927868 -1.488449 1.752547 0.099779 -0.038722 -1263210.000000 0 0 1
-1.528557 33.060439 -6.106665 33.654427 -1.524594 1.753259 0.077057 -0.038528 -636987.000000 0 0 1
-1.124757 33.704138 -4.890565 34.075675 -1.537437 1.714814 0.081146 -0.037143 -270609.000000 0 0 1
-0.149257 32.864442 -4.088765 33.118150 -1.566255 1.694572 0.083753 -0.041039 -585521.000000 0 0 1
1.190943 33.010147 -4.537065 33.341762 1.534734 1.707297 0.078692 -0.034848 -520899.000000 0 0 1
2.079643 32.209078 -3.855165 32.505568 1.506319 1.689676 0.069709 -0.030692 -341659.000000 0 0 1
3.484243 32.262073 -4.496065 32.759669 1.463215 1.708475 0.064566 -0.017114 -38674.100000 0 0 1
4.006243 33.559759 -4.295365 34.069892 1.451982 1.697208 0.059506 -0.012791 631002.000000 0 0 1
5.443843 33.493789 -4.428865 34.221107 1.409672 1.700579 0.064559 -0.007665 1439390.000000 0 0 1
6.203543 -32.946884 -3.919465 33.754160 -1.384686 1.687177 0.061222 -0.006142 315967.000000 0 0 1
6.140943 -31.860794 -4.861965 32.809451 -1.380388 1.719532 0.066639 -0.011730 -83652.400000 0 0 1
6.557743 -30.674824 -4.163465 31.643060 -1.360184 1.702755 0.060535 -0.010290 132327.000000 0 0 1
6.413643 -29.368604 -5.013565 30.475983 -1.355788 1.736056 0.073771 -0.014036 -10848.900000 0 0 1
7.359243 -29.289074 -6.077365 30.804913 -1.324630 1.769385 0.086058 -0.009847 -34455.900000 0 0 1
7.335343 -28.058804 -6.849765 29.799715 -1.315092 1.802730 0.086832 -0.013942 135213.000000 0 0 1
7.732643 -26.760684 -6.106265 28.516915 -1.289503 1.786595 0.084835 -0.009976 2641.390000 0 0 1
6.810843 -26.396144 -5.113465 27.736105 -1.318280 1.756218 0.078203 -0.012416 -365666.000000 0 0 1
7.302943 -25.329594 -4.335165 26.715444 -1.290092 1.733789 0.069934 -0.015550 -43415.600000 0 0 1
6.342143 -24.878744 -3.235265 25.877435 -1.321190 1.696147 0.060329 -0.013831 -271497.000000 0 0 1
5.178543 -24.290344 -3.731965 25.115049 -1.360748 1.719943 0.073138 -0.017440 -615179.000000 0 0 1
4.402343 -23.592544 -2.764865 24.158502 -1.386319 1.685495 0.076759 -0.024453 294720.000000 0 1 0
3.240143 -22.924344 -3.540365 23.421321 -1.430386 1.722538 0.079966 -0.026611 256365.000000 0 1 0
2.302143 -23.838544 -4.106565 24.298969 -1.474523 1.740613 0.081997 -0.023439 -210093.000000 0 1 0
1.205943 -23.153544 -4.657865 23.648184 -1.518759 1.769058 0.093055 -0.019652 132593.000000 0 1 0
-14.925757 22.788056 17.811825 32.547424 -0.990927 0.991712 0.030863 -0.023570 -185108.000000 0 0 1
-15.284157 22.184156 18.990925 32.960544 -0.967513 0.956760 0.028597 -0.017954 196676.000000 0 0 1
-15.045957 23.126056 19.994825 34.073279 -0.993995 0.943672 0.044106 -0.015749 -947199.000000 0 0 1
-15.239957 22.538056 21.438325 34.638447 -0.976231 0.903433 0.070183 -0.020444 -343286.000000 0 0 1
-14.245757 21.662256 21.950225 33.970683 -0.989076 0.868265 0.061738 -0.020113 284270.000000 0 0 1
-12.941557 22.190856 22.083625 33.876311 -1.042826 0.860722 0.045272 -0.020200 -259831.000000 0 0 1
-12.687157 23.329956 23.112065 35.205374 -1.072715 0.854637 0.064610 -0.015109 -741436.000000 0 0 1
-12.672057 22.875656 24.430935 35.787529 -1.064923 0.819391 0.055962 -0.009072 95731.600000 0 0 1
-12.531557 23.865156 25.403245 37.039309 -1.087272 0.815031 0.077392 -0.012419 -171318.000000 0 0 1
-11.923457 23.417056 26.753775 37.500557 -1.099833 0.776425 0.070842 -0.015113 -63400.900000 0 0 1
-10.534157 23.186256 26.733425 36.922174 -1.144349 0.761143 0.044783 -0.014717 -519168.000000 0 0 1
-10.122457 22.580356 27.905305 37.296684 -1.149369 0.725454 0.030626 -0.016883 -569189.000000 0 0 1
-8.618957 22.165656 27.916975 36.673699 -1.199945 0.705595 0.025358 -0.019449 529918.000000 0 0 1
-7.758557 23.277156 28.063755 37.277279 -1.249065 0.718433 0.040413 -0.016761 -36547.200000 0 0 1
-7.669057 24.189756 26.948385 37.015864 -1.263783 0.755363 0.040232 -0.014399 -525538.000000 0 0 1
-6.558957 25.279956 27.164675 37.683095 -1.316941 0.765737 0.052354 -0.024499 1048600.000000 0 0 1
-5.188857 24.900956 27.185705 37.229617 -1.365356 0.752157 0.057421 -0.024921 354895.000000 0 0 1
-4.308957 25.997556 27.249865 37.907719 -1.406545 0.768653 0.066870 -0.017887 685302.000000 0 0 1
-2.817957 25.663856 27.586195 37.783231 -1.461432 0.752303 0.056729 -0.013948 655718.000000 0 0 1
-2.125057 25.228456 26.396425 36.575430 -1.486762 0.764544 0.056230 -0.020860 -606063.000000 0 0 1
-0.779457 25.081356 26.732185 36.664583 -1.539729 0.753789 0.065607 -0.012915 -360654.000000 0 0 1
0.105043 24.830056 25.482335 35.579377 1.566566 0.772439 0.057766 -0.020750 -41794.300000 0 0 1
-0.235557 23.635756 24.775095 34.241930 -1.560831 0.761893 0.060192 -0.010737 -342280.000000 0 0 1
0.495343 23.602056 23.610155 33.387749 1.549812 0.785337 0.062916 -0.009325 -228097.000000 0 0 1
0.177343 22.339056 22.772645 31.900756 1.562858 0.775803 0.036732 -0.010656 118139.000000 0 0 1
0.829543 21.206756 23.249335 31.479298 1.531699 0.739865 0.067925 -0.010038 115264.000000 0 0 1
0.289043 20.083256 22.556325 30.202790 1.556405 0.727515 0.068806 -0.014387 -644760.000000 0 0 1
1.239643 18.983156 22.686815 29.607237 1.505587 0.697798 0.084281 -0.009882 -652084.000000 0 0 1
2.490143 19.234456 22.079325 29.388121 1.442050 0.720765 0.090251 -0.016244 -262318.000000 0 0 1
3.188743 18.045056 21.839425 28.508816 1.395892 0.698110 0.086168 -0.014860 159198.000000 0 0 1
4.617843 18.266056 21.246425 28.396898 1.323175 0.725459 0.077064 -0.020472 917819.000000 0 0 1
5.628643 18.506956 22.233325 29.470490 1.275549 0.716016 0.066718 -0.007321 -540585.000000 0 0 1
6.793443 18.969656 21.601525 29.540220 1.226905 0.750632 0.061684 -0.018979 -419745.000000 0 0 1
7.771443 19.491756 22.677045 30.896152 1.191408 0.746638 0.075712 -0.019067 -377712.000000 0 0 1
7.389243 20.647656 23.397535 32.068228 1.227125 0.753034 0.063351 -0.012893 -115565.000000 0 0 1
7.275643 21.862556 22.623785 32.291515 1.249535 0.794543 0.068734 -0.023471 -567447.000000 0 0 1
6.029743 22.535156 23.157235 32.870177 1.309350 0.789070 0.058520 -0.014599 -744883.000000 0 0 1
5.832843 23.809656 22.614745 33.351888 1.330550 0.825670 0.056778 -0.023287 974579.000000 0 0 1
4.541143 24.310456 23.035735 33.797416 1.386127 0.820873 0.037874 -0.013939 886000.000000 0 0 1
4.137043 25.690756 22.388325 34.327353 1.411135 0.860312 0.052049 -0.016448 80509.700000 0 0 1
3.963543 25.808856 20.983025 33.497672 1.418414 0.893867 0.058470 -0.026882 419346.000000 0 0 1
2.936843 24.987056 20.401825 32.391549 1.453799 0.889436 0.052264 -0.025152 140149.000000 0 0 1
2.581243 25.519856 19.006425 31.924443 1.469993 0.933087 0.056820 -0.026809 -494814.000000 0 0 1
1.599143 26.523556 18.892625 32.603490 1.510578 0.952723 0.063910 -0.033513 110641.000000 0 0 1
1.409443 26.919056 17.572725 32.177986 1.518486 0.993083 0.075648 -0.034684 -405931.000000 0 0 1
0.466843 28.092356 17.606125 33.156810 1.554180 1.011021 0.076344 -0.023658 -207859.000000 0 0 1
1.002243 29.254956 18.178525 34.457448 1.536551 1.015065 0.100130 -0.031712 558931.000000 0 0 1
-0.079557 30.163156 18.274825 35.267429 -1.568159 1.026076 0.074532 -0.032643 315175.000000 0 0 1
0.521643 31.489956 18.682925 36.618863 1.554232 1.035380 0.087579 -0.027547 -532579.000000 0 0 1
0.859143 31.507256 20.012725 37.335699 1.543535 1.005079 0.109607 -0.030563 -189327.000000 0 0 1
1.003043 32.836056 20.449725 38.696304 1.540259 1.014002 0.132925 -0.027575 -363282.000000 0 0 1
1.618443 32.799756 21.825925 39.431134 1.521493 0.984211 0.127026 -0.036181 -399234.000000 0 0 1
0.818543 32.241956 22.856075 39.529911 1.545414 0.954279 0.145221 -0.029925 -96388.200000 0 0 1
1.380043 32.315256 24.104295 40.338534 1.528117 0.930354 0.164152 -0.031512 -209519.000000 0 0 1
0.267343 32.278856 25.162025 40.928273 1.562514 0.908685 0.182091 -0.022727 -428067.000000 0 0 1
-0.673957 33.311656 25.182985 41.764858 -1.550567 0.923577 0.183047 -0.017323 -9928.260000 0 0 1
-1.617757 33.106756 26.217385 42.261397 -1.521970 0.901592 0.176230 -0.017440 1609.700000 0 0 1
-1.131957 33.517156 27.667715 43.476241 -1.537037 0.880991 0.189776 -0.031266 -449359.000000 0 0 1
-0.348357 32.558456 28.337675 43.164780 -1.560097 0.854627 0.186449 -0.035946 -53875.200000 0 0 1
0.011943 33.007456 29.643175 44.364514 1.570435 0.839046 0.178850 -0.042825 361863.000000 0 0 1
1.251043 32.126356 30.137125 44.067155 1.531875 0.817714 0.144016 -0.038568 1664680.000000 0 0 1
2.580243 32.480356 29.724165 44.103936 1.491523 0.831244 0.129411 -0.041376 873024.000000 0 0 1
2.735743 32.044956 28.367955 42.884780 1.485631 0.847989 0.116709 -0.035334 -37710.400000 0 0 1
4.239343 31.801156 27.972195 42.564413 1.438270 0.853734 0.087322 -0.029888 739509.000000 0 0 1
4.727343 30.611756 28.512995 42.100098 1.417578 0.826755 0.083441 -0.028186 543256.000000 0 0 1
6.104043 30.427656 28.162425 41.907323 1.372816 0.833867 0.074411 -0.037101 418937.000000 0 0 1
6.751143 29.206156 28.831365 41.591166 1.343631 0.804865 0.086012 -0.022520 -113654.000000 0 0 1
6.971743 29.475656 30.228695 42.792446 1.338539 0.786394 0.101302 -0.034859 316709.000000 0 0 1
7.516143 28.274156 30.834075 42.504829 1.310974 0.759144 0.078495 -0.028424 90155.100000 0 0 1
7.672843 28.429056 32.382198 43.768601 1.307183 0.737949 0.113557 -0.032995 -591371.000000 0 0 1
6.494643 28.569856 33.104319 44.207612 1.347270 0.724490 0.116557 -0.038069 -560447.000000 0 0 1
6.689343 28.253656 -33.171075 44.083292 1.338317 2.422591 0.134692 -0.035447 142310.000000 0 0 1
6.730543 26.756856 -32.741885 42.816592 1.324364 2.441373 0.132724 -0.035807 485216.000000 0 0 1
7.937743 26.149456 -33.201415 43.001579 1.276083 2.452932 0.111050 -0.033214 304652.000000 0 0 1
8.279043 24.943956 -32.524455 41.816069 1.250331 2.461951 0.130400 -0.036531 811944.000000 0 0 1
9.683243 24.298756 -32.826065 41.973150 1.191577 2.468782 0.101481 -0.031853 493243.000000 0 0 1
9.741743 24.004156 33.470834 42.324907 1.185269 0.658670 0.071581 -0.020319 325793.000000 0 0 1
10.940343 23.324756 33.113891 41.955513 1.132219 0.661190 0.083656 -0.034416 216385.000000 0 0 1
11.174143 21.854456 33.547655 41.568303 1.098151 0.631659 0.074777 -0.035605 -713892.000000 0 0 1
10.514043 20.979156 32.644501 40.203651 1.106216 0.623262 0.057866 -0.029132 183896.000000 0 0 1
10.326643 19.652556 33.102862 39.858022 1.086988 0.590757 0.056780 -0.018078 588947.000000 0 0 1
8.994843 19.495856 -33.741685 39.993711 1.138526 2.574888 0.112635 -0.032152 400550.000000 0 0 1
9.061343 20.260556 -32.568855 39.412287 1.150240 2.543415 0.113765 -0.034649 1415750.000000 0 0 1
7.729843 20.747556 -32.204135 39.080914 1.214161 2.539297 0.129497 -0.041494 1484780.000000 0 0 1
7.841343 21.284156 -30.712725 38.180799 1.217814 2.505465 0.144255 -0.045090 854571.000000 0 0 1
8.861843 22.296356 -30.498335 38.804744 1.192484 2.475017 0.158696 -0.043882 565316.000000 0 0 1
8.899343 22.790456 -29.192835 38.089694 1.198519 2.444051 0.126540 -0.038253 -1108910.000000 0 0 1
10.273143 23.068256 -28.654745 38.193930 1.151827 2.419227 0.123089 -0.037270 -914084.000000 0 0 1
10.944243 21.871956 -28.484525 37.543669 1.106846 2.432117 0.112438 -0.031445 -161596.000000 0 0 1
12.362043 21.870356 -28.581885 38.053341 1.056326 2.420524 0.099815 -0.031521 533681.000000 0 0 1
12.936543 20.455856 -28.340345 37.268906 1.006884 2.434769 0.102525 -0.034605 22004.800000 0 0 1
12.807943 19.442056 -29.398585 37.500850 0.988277 2.471790 0.091456 -0.039980 377203.000000 0 0 1
11.444943 19.078756 -29.629195 37.052326 1.030466 2.497522 0.108985 -0.039231 383217.000000 0 0 1
11.317143 18.228756 -30.924455 37.638905 1.015194 2.535024 0.088690 -0.033459 -218221.000000 0 0 1
11.562643 16.807756 -30.747695 36.900083 0.968214 2.555791 0.099172 -0.033616 208238.000000 0 0 1
11.317743 15.984356 -31.916125 37.446361 0.954687 2.591193 0.075207 -0.022431 -745878.000000 0 0 1
12.493943 15.904056 -32.890755 38.611389 0.904909 2.590286 0.060838 -0.003547 -141742.000000 0 0 1
13.049443 17.149956 -33.331585 39.691353 0.920354 2.567655 0.052513 -0.013997 236987.000000 0 0 1
13.715443 17.198456 33.053616 39.704430 0.897593 0.587206 0.069285 -0.015654 -263871.000000 0 0 1
12.878043 16.952556 31.814931 38.280843 0.921147 0.589727 0.078508 -0.024578 -1498180.000000 0 0 1
13.297643 17.745056 30.688465 37.861540 0.927697 0.625715 0.067921 -0.020296 122293.000000 0 0 1
12.472543 17.600556 29.513945 36.557035 0.954292 0.631167 0.069375 -0.020162 338743.000000 0 0 1
11.012543 18.113156 29.636415 36.437338 1.024526 0.620904 0.060690 -0.011519 -254488.000000 0 0 1
10.346043 17.226656 30.489935 36.516221 1.029948 0.582719 0.069606 -0.012242 -546.702000 0 0 1
8.943743 17.537356 30.625595 36.407093 1.099195 0.571300 0.079309 -0.019769 937400.000000 0 0 1
8.174843 16.544756 31.457955 36.471357 1.111876 0.530531 0.103106 -0.021481 101441.000000 0 0 1
8.521743 16.784856 32.830532 37.844356 1.101004 0.520613 0.127173 -0.019750 350432.000000 0 0 1
7.733343 15.876756 33.578620 37.939421 1.117533 0.484176 0.140124 -0.031119 62140.200000 0 0 1
7.850843 16.006556 -32.539805 37.103699 1.114796 2.640371 0.138892 -0.033029 -602804.000000 0 0 1
7.008343 17.022156 -32.053245 36.963241 1.180228 2.620278 0.141372 -0.031789 39537.400000 0 0 1
6.945343 16.926456 -30.616985 35.667106 1.181421 2.602957 0.141135 -0.046669 390775.000000 0 0 1
5.899443 17.934356 -30.010745 35.455456 1.252999 2.580051 0.142051 -0.052414 -54218.400000 0 0 1
5.608643 17.781456 -28.614435 34.152935 1.265253 2.564097 0.127944 -0.055596 677661.000000 0 0 1
4.649543 18.707156 -28.041975 34.028346 1.327189 2.539367 0.132977 -0.052197 1581030.000000 0 0 1
3.150643 18.445356 -28.450055 34.052362 1.401619 2.559801 0.155531 -0.063108 -883423.000000 0 0 1
2.481943 17.444656 -27.644945 32.782908 1.429470 2.574140 0.153792 -0.062402 866988.000000 0 0 1
1.070243 17.435956 -27.904645 32.921531 1.509492 2.582263 0.144860 -0.059078 793861.000000 0 0 1
0.294743 18.714356 -27.587665 33.337565 1.555048 2.545481 0.143937 -0.063365 -1930130.000000 0 0 1
0.095043 18.863256 -26.179345 32.267469 1.565758 2.517208 0.138590 -0.065530 84681.400000 0 0 1
-0.489757 20.098456 -25.782375 32.694322 -1.546433 2.479307 0.141890 -0.066553 -104020.000000 0 0 1
-0.866057 20.218856 -24.327865 31.644861 -1.527988 2.447724 0.127194 -0.064273 -28880.900000 0 0 1
-1.981457 19.461456 -23.908865 30.891880 -1.469332 2.455856 0.118615 -0.060580 137797.000000 0 0 1
-2.433957 19.968656 -22.640865 30.286633 -1.449506 2.415167 0.132436 -0.059150 -523754.000000 0 0 1
-3.401657 19.080256 -21.941265 29.275357 -1.394368 2.418071 0.105727 -0.055489 -1170420.000000 0 0 1
-4.744557 19.348156 -22.171965 29.807013 -1.330321 2.409610 0.102044 -0.046629 -877081.000000 0 0 1
-5.538157 18.270756 -21.748665 28.939526 -1.276483 2.421161 0.095484 -0.047885 -742351.000000 0 0 1
-7.059657 18.361756 -21.896965 29.435861 -1.203744 2.409665 0.116375 -0.039388 -84920.000000 0 0 1
-7.635557 19.291656 -20.976965 29.504284 -1.193919 2.361688 0.090478 -0.030626 -877.386000 0 0 1
-7.574457 20.601756 -21.448765 30.689644 -1.218476 2.344644 0.104875 -0.043504 -220666.000000 0 0 1
-8.245157 21.644956 -20.470265 30.911462 -1.206839 2.294577 0.114196 -0.046956 141448.000000 0 0 1
-7.489157 21.854356 -19.302365 30.104512 -1.240653 2.266829 0.129633 -0.050120 -55616.300000 0 0 1
-7.779057 23.032756 -18.583965 30.600414 -1.245086 2.223468 0.130136 -0.042584 348675.000000 0 0 1
-6.859457 23.182256 -17.300165 29.728183 -1.283112 2.191915 0.139710 -0.043238 753398.000000 0 0 1
-5.488757 23.447656 -17.495165 29.765749 -1.340851 2.199086 0.128902 -0.049980 -249667.000000 0 0 1
-4.808657 23.667156 -16.295865 29.134390 -1.370346 2.164379 0.126771 -0.040724 -170944.000000 0 0 1
-3.292657 23.875256 -16.288765 29.089402 -1.433750 2.165128 0.118294 -0.039879 -61629.600000 0 0 1
-2.907157 25.127156 -16.796165 30.363410 -1.455611 2.156962 0.100601 -0.040218 -217631.000000 0 0 1
-1.553357 25.232456 -17.179565 30.565131 -1.509312 2.167676 0.094148 -0.045201 36474.700000 0 0 1
-1.110657 26.689756 -17.319865 31.836369 -1.529207 2.146026 0.076544 -0.054869 -331605.000000 0 0 1
-1.873557 27.436656 -18.224665 32.991192 -1.502616 2.156049 0.078962 -0.055514 -275641.000000 0 0 1
-1.297157 28.680656 -18.528865 34.169891 -1.525600 2.143917 0.086779 -0.059586 -551662.000000 0 0 1
-2.194457 29.689256 -19.293365 35.475365 -1.497016 2.145817 0.122980 -0.053142 659868.000000 0 0 1
-3.304357 30.306356 -18.630465 35.727975 -1.462194 2.119349 0.084396 -0.048731 380029.000000 0 0 1
-4.462857 29.485356 -18.570565 35.130744 -1.420578 2.127762 0.055355 -0.046013 -253166.000000 0 0 1
-5.602857 30.045056 -17.718665 35.327730 -1.386432 2.096187 0.091369 -0.035362 30835.200000 0 0 1
-6.237457 31.206156 -18.205565 36.662960 -1.373517 2.090434 0.120813 -0.038632 166283.000000 0 0 1
-5.567557 32.386956 -17.792865 37.369756 -1.400553 2.067045 0.112483 -0.062961 -192132.000000 0 0 1
-6.296257 33.716156 -18.214565 38.835453 -1.386180 2.058976 0.104313 -0.032002 253083.000000 0 0 1
-7.577057 33.643156 -17.606565 38.720342 -1.349274 2.042844 0.132718 -0.054754 -54809.600000 0 0 1
-8.355157 -32.962190 -17.830965 38.396067 1.322548 2.053748 0.181376 -0.045119 -236248.000000 0 0 1
31.199343 -20.085044 -26.155015 45.397057 -0.571980 2.184793 0.076412 -0.001830 -318476.000000 0 0 1
30.637343 -21.222144 -25.530685 45.175680 -0.605802 2.171402 0.098760 -0.009156 -164839.000000 0 0 1
29.270343 -21.317044 -25.882685 44.509355 -0.629456 2.191381 0.101945 -0.007386 168161.000000 0 0 1
28.541943 -22.569144 -25.387315 44.368057 -0.669067 2.179980 0.076158 -0.011413 -204961.000000 0 0 1
28.711143 -23.838044 -25.994365 45.478446 -0.692929 2.179221 0.066141 0.003867 106284.000000 0 0 1
29.986843 -24.417444 -25.761105 46.465652 -0.683383 2.158452 0.071354 0.009060 110526.000000 0 0 1
30.062643 -25.768254 -26.463675 47.624484 -0.708632 2.159969 0.078235 0.005000 -76659.400000 0 0 1
29.538243 -26.801594 -25.610135 47.399496 -0.736862 2.141595 0.088078 -0.005134 14437.800000 0 0 1
29.417743 -28.085214 -26.243175 48.403379 -0.762229 2.143822 0.080420 -0.005272 59415.700000 0 0 1
28.327043 -28.271094 -27.314255 48.453531 -0.784410 2.169680 0.108752 -0.009782 -633746.000000 0 0 1
28.575843 -27.635254 -28.593005 48.967806 -0.768667 2.194338 0.065694 -0.017336 -175825.000000 0 0 1
29.692343 -27.980594 -29.373885 50.272995 -0.755727 2.194798 0.058932 -0.014809 -622466.000000 0 0 1
29.869243 -29.392184 -30.009535 51.542646 -0.777348 2.192262 0.085407 -0.015455 -1041340.000000 0 0 1
30.303943 -30.455094 -29.105925 51.894090 -0.787886 2.166235 0.101581 -0.016766 80018.600000 0 0 1
31.600343 -30.329054 -28.558275 52.287745 -0.764873 2.148588 0.089503 -0.010960 511058.000000 0 0 1
32.818443 -30.397194 -29.547625 53.610649 -0.747115 2.154541 0.073319 -0.015858 -68882.100000 0 0 1
32.845843 -29.211764 -30.271945 53.371970 -0.726905 2.173884 0.077670 -0.029545 92837.800000 0 0 1
34.173543 -28.941494 -30.732635 54.313313 -0.702690 2.172248 0.073683 -0.026557 561371.000000 0 0 1
34.182543 -27.572424 -31.457615 54.020981 -0.678766 2.192379 0.070817 -0.011511 53519.200000 0 0 1
34.049543 -26.351534 -30.717695 52.889994 -0.658633 2.190489 0.057071 -0.004893 -544197.000000 0 0 1
32.845143 -26.116934 -30.066255 51.622450 -0.671779 2.192506 0.057511 -0.004717 -799701.000000 0 0 1
32.797543 -24.689244 -29.416145 50.502942 -0.645276 2.192553 0.059909 -0.012982 -463668.000000 0 0 1
33.785643 -24.432644 -28.462965 50.483305 -0.626105 2.169787 0.053457 -0.009197 -61244.800000 0 0 1
33.609343 -23.178544 -27.849875 49.421133 -0.603743 2.169439 0.041953 -0.001360 255658.000000 0 0 1
34.620943 -22.945344 -26.677995 49.364095 -0.585292 2.141748 0.036350 -0.001389 -13268.200000 0 0 1
34.378443 -23.717644 -25.535045 48.953473 -0.603914 2.119543 0.040310 -0.008312 932340.000000 0 0 1
33.302743 -23.273544 -24.647165 47.520662 -0.609952 2.116082 0.063539 0.002762 658604.000000 0 0 1
33.596643 -22.036444 -23.749865 46.673283 -0.580520 2.104649 0.046859 0.003436 -1741.870000 0 0 1
34.105943 -20.910044 -24.496865 46.909931 -0.549990 2.120237 0.040408 0.002112 154642.000000 0 0 1
34.111343 -19.775444 -23.647065 45.976468 -0.525383 2.111022 0.018344 -0.011451 116403.000000 0 0 1
34.334043 -18.447244 -24.438665 46.004083 -0.493031 2.130846 0.007726 -0.017342 864517.000000 0 0 1
33.191143 -18.119544 -25.263465 45.477604 -0.499702 2.159778 0.030167 -0.016611 547501.000000 0 0 1
33.447643 -17.000444 -26.127255 45.720820 -0.470242 2.179070 0.028668 -0.007674 617453.000000 0 0 1
32.305543 -16.793444 -27.198785 45.447131 -0.479387 2.212387 0.039564 0.004994 1183710.000000 0 0 1
31.019443 -16.419644 -26.683975 44.089058 -0.486838 2.220850 0.055091 -0.002043 -77161.200000 0 0 1
30.113043 -16.486244 -27.714545 44.121283 -0.500905 2.249963 0.058900 -0.013968 624888.000000 0 0 1
28.624543 -16.138644 -27.283105 42.710515 -0.513380 2.263723 0.053226 -0.012374 947889.000000 0 0 1
27.946343 -17.020444 -26.503045 42.108253 -0.547040 2.251581 0.072410 -0.007192 -348765.000000 0 0 1
27.721043 -16.528544 -25.202105 40.948688 -0.537654 2.233760 0.085091 0.000396 -143671.000000 0 0 1
27.120643 -17.676344 -24.358665 40.513294 -0.577617 2.215862 0.092659 0.002716 -393.599000 0 0 1
26.941943 -17.222344 -23.036265 39.409985 -0.568773 2.195095 0.105668 -0.000471 119484.000000 0 0 1
26.149943 -18.077044 -22.251965 38.803981 -0.604852 2.181502 0.112671 -0.009983 -42938.900000 0 0 1
26.202843 -17.556144 -20.818165 37.791575 -0.590313 2.154200 0.108212 -0.012246 350941.000000 0 0 1
25.310843 -16.461944 -20.474665 36.480766 -0.576650 2.166686 0.112287 -0.016396 537289.000000 0 0 1
25.590543 -15.120944 -21.014565 36.402346 -0.533687 2.186197 0.107291 -0.006128 385721.000000 0 0 1
26.894343 -14.436244 -20.480165 36.757965 -0.492634 2.161761 0.088300 -0.012897 553495.000000 0 0 1
26.720443 -13.909744 -19.170765 35.706880 -0.479964 2.137546 0.091292 -0.022863 290266.000000 0 0 1
27.695643 -12.892644 -19.138065 36.049056 -0.435678 2.130446 0.057742 -0.021648 -233505.000000 0 0 1
27.756443 -12.131844 -17.800565 35.134910 -0.412060 2.102073 0.068902 -0.017048 -330966.000000 0 0 1
28.327043 -12.758344 -16.686265 35.265112 -0.423182 2.063678 0.074293 -0.015710 162185.000000 0 0 1
28.271943 -11.962244 -15.558665 34.416131 -0.400272 2.039886 0.059757 -0.012948 24867.400000 0 0 1
28.801843 -12.710544 -14.296265 34.575819 -0.415604 1.997065 0.079941 -0.026045 -193766.000000 0 0 1
28.019943 -13.809244 -13.845165 34.168714 -0.457900 1.987994 0.120316 -0.036544 613640.000000 0 0 1
28.495943 -14.185144 -12.522065 34.205835 -0.461882 1.945589 0.126364 -0.031768 -144182.000000 0 0 1
27.728243 -15.344244 -11.918965 33.857983 -0.505434 1.930533 0.131513 -0.050807 -260565.000000 0 0 1
26.436743 -14.953044 -11.498865 32.476434 -0.514753 1.932714 0.122894 -0.042881 351498.000000 0 0 1
25.640743 -16.122944 -11.295165 32.326116 -0.561328 1.927741 0.105990 -0.040551 517258.000000 0 0 1
24.124043 -15.911644 -11.000765 30.921945 -0.583078 1.934523 0.110994 -0.041564 189637.000000 0 0 1
23.929743 -15.316944 -9.731665 30.032427 -0.569370 1.900792 0.091775 -0.032717 -480726.000000 0 0 1
22.575543 -15.170844 -9.489165 28.807185 -0.591688 1.906467 0.094939 -0.028681 -1020930.000000 0 0 1
22.258743 -15.038344 -7.975165 28.021540 -0.594172 1.859394 0.076210 -0.019135 -280756.000000 0 0 1
22.545743 -13.708244 -7.481465 27.426243 -0.546295 1.847083 0.098989 -0.020066 424413.000000 0 0 1
22.174743 -13.503744 -6.091265 26.667843 -0.546989 1.801243 0.087518 -0.015725 -125063.000000 0 0 1
23.061843 -14.253144 -5.060265 27.579104 -0.553579 1.755324 0.081718 -0.009596 135773.000000 0 0 1
24.419843 -13.865944 -5.127565 28.546191 -0.516418 1.751400 0.102784 -0.016130 858137.000000 0 0 1
25.297943 -14.718944 -4.310765 29.584048 -0.526947 1.717029 0.105795 -0.021901 171063.000000 0 0 1
26.762643 -14.328144 -4.404465 30.674649 -0.491548 1.714881 0.121528 -0.022215 -602254.000000 0 0 1
27.088843 -13.077344 -3.811865 30.320829 -0.449759 1.696848 0.131479 -0.021653 1041220.000000 0 0 1
28.387343 -12.539044 -4.165065 31.311605 -0.415941 1.704212 0.138511 -0.022026 918982.000000 0 0 1
29.036443 -11.595044 -3.171565 31.426404 -0.379926 1.671889 0.179264 -0.042648 -1032420.000000 0 0 1
29.615243 -12.262544 -2.009965 32.116546 -0.392570 1.633421 0.195323 -0.047953 386256.000000 0 0 1
29.937543 -11.274444 -1.039165 32.007021 -0.360172 1.603269 0.197816 -0.041323 -92468.600000 0 0 1
31.364843 -10.724244 -1.270065 33.171913 -0.329458 1.609093 0.224770 -0.050333 -544081.000000 0 0 1
31.435943 -10.000144 -2.502765 33.083005 -0.307989 1.646520 0.213666 -0.056754 -414794.000000 0 0 1
32.676043 -10.252344 -3.101165 34.386793 -0.304030 1.661104 0.239408 -0.055037 -471399.000000 0 0 1
32.766743 -9.853844 -4.647865 34.530571 -0.292124 1.705808 0.206616 -0.053355 -167159.000000 0 0 1
31.858343 -10.655144 -5.360165 34.017899 -0.322759 1.729025 0.188385 -0.053590 284839.000000 0 0 1
31.962043 -10.386444 -6.792365 34.286829 -0.314197 1.770220 0.154020 -0.050053 21586.900000 0 0 1
31.024843 -11.164344 -7.769165 33.875410 -0.345424 1.802201 0.159214 -0.044135 179000.000000 0 0 1
31.107943 -12.542144 -7.766965 34.428698 -0.383246 1.798351 0.148087 -0.038574 341770.000000 0 0 1
29.876443 -13.038144 -8.259365 33.627550 -0.411489 1.818948 0.145545 -0.036834 258865.000000 0 0 1
29.878843 -14.583844 -8.378765 34.287570 -0.454082 1.817664 0.155412 -0.034379 -59212.800000 0 0 1
30.397043 -15.215844 -9.511665 35.298355 -0.464103 1.843634 0.164069 -0.042214 189770.000000 0 0 1
30.467243 -16.631744 -9.309265 35.937866 -0.499682 1.832822 0.148822 -0.041565 -120846.000000 0 0 1
30.912743 -17.472544 -10.550965 37.043357 -0.514454 1.859623 0.119950 -0.042006 919589.000000 0 0 1
32.276343 -17.199744 -10.959665 38.179939 -0.489612 1.861945 0.120040 -0.037392 1281290.000000 0 0 1
32.581343 -17.589444 -12.318065 39.021368 -0.495027 1.891964 0.104030 -0.031018 -132774.000000 0 0 1
31.896743 -16.758944 -13.436965 38.455382 -0.483770 1.927745 0.097014 -0.034550 -73165.300000 0 0 1
32.406143 -15.434344 -13.622765 38.392145 -0.444491 1.933531 0.084767 -0.032277 256924.000000 0 0 1
31.703043 -14.762744 -14.647065 37.915143 -0.435798 1.967426 0.072262 -0.028831 -1012520.000000 0 0 1
32.544343 -13.698644 -15.317165 38.488994 -0.398412 1.980091 0.070024 -0.031370 101126.000000 0 0 1
33.549643 -14.121144 -16.225365 39.852826 -0.398395 1.990108 0.042793 -0.024217 894285.000000 0 0 1
34.802643 -14.562844 -15.699265 40.862786 -0.396302 1.965132 0.057724 -0.025185 302709.000000 0 0 1
35.851343 -14.954844 -16.798265 42.321955 -0.395190 1.978951 0.072848 -0.030274 37.211700 0 0 1
37.041043 -15.441544 -16.205465 43.279293 -0.394970 1.954588 0.092135 -0.035571 82284.600000 0 0 1
-37.526973 -15.935744 -17.277265 44.280080 0.401572 1.971625 0.102976 -0.042934 295861.000000 0 0 1
-35.969573 -15.921944 -17.097965 42.891245 0.416725 1.980825 0.138394 -0.044831 666113.000000 0 0 1
-35.476273 -16.879044 -16.155565 42.479058 0.444088 1.960937 0.129396 -0.047434 267781.000000 0 0 1
-35.701373 -16.458744 -14.807165 42.008694 0.431973 1.931015 0.111370 -0.042817 -626121.000000 0 0 1
-35.106473 -17.465344 -13.818365 41.574630 0.461643 1.909617 0.094951 -0.034964 1005400.000000 0 0 1
-33.669573 -17.610044 -13.721665 40.398489 0.481898 1.917349 0.151476 -0.040510 1218660.000000 0 0 1
-33.294173 -17.821744 -12.382965 39.742349 0.491473 1.887653 0.158496 -0.020861 -640673.000000 0 0 1
-31.802173 -17.948044 -12.159465 38.488480 0.513805 1.892228 0.203258 -0.027472 -942354.000000 0 0 1
-31.020173 -16.783244 -12.217065 37.325395 0.495940 1.904254 0.193294 -0.041669 -61512.000000 0 0 1
-29.702873 -16.904644 -11.750665 36.140085 0.517408 1.901958 0.207393 -0.041392 -106121.000000 0 0 1
-29.573673 -16.552944 -10.261665 35.410505 0.510274 1.864805 0.208621 -0.050848 -230060.000000 0 0 1
-30.166773 -17.599244 -9.511665 36.197228 0.528123 1.836692 0.204323 -0.043255 162275.000000 0 0 1
-30.568773 -17.234844 -8.190465 36.035724 0.513381 1.800088 0.202032 -0.040948 91560.500000 0 0 1
-31.299973 -18.381444 -7.417965 37.048509 0.531004 1.772382 0.177743 -0.025026 1412530.000000 0 0 1
-32.651773 -18.728044 -7.814165 38.443973 0.520758 1.775484 0.146746 -0.019771 950206.000000 0 0 1
-32.854473 -19.463744 -8.993865 39.231917 0.534830 1.802102 0.139979 -0.018489 -1024450.000000 0 0 1
-34.174773 -20.172544 -9.204065 40.737715 0.533239 1.798699 0.105594 -0.013765 -233508.000000 0 0 1
-35.186273 -19.296544 -9.756765 41.299211 0.501623 1.809297 0.105369 -0.008935 184859.000000 0 0 1
-36.187173 -20.104644 -10.290465 42.656791 0.507112 1.814438 0.082568 -0.017017 221987.000000 0 0 1
-37.521873 -19.389344 -10.715065 43.573504 0.476956 1.819252 0.067446 -0.026838 511552.000000 0 0 1
-37.463673 -18.971144 -12.042165 43.685751 0.468745 1.850067 0.073812 -0.036526 -158428.000000 0 0 1
36.725543 -18.298144 -12.387465 42.860668 -0.462239 1.863996 0.071850 -0.036557 -491585.000000 0 0 1
36.288543 -18.301844 -13.864465 42.942278 -0.467115 1.899549 0.071681 -0.046774 -219653.000000 0 0 1
35.746243 -19.525544 -14.324965 43.176908 -0.499941 1.908980 0.058442 -0.045976 89841.800000 0 0 1
34.998843 -19.241144 -15.498265 42.840831 -0.502663 1.940956 0.047388 -0.040879 150652.000000 0 0 1
33.720243 -20.118744 -15.497965 42.213808 -0.537943 1.946718 0.063418 -0.049021 268314.000000 0 0 1
32.779943 -19.897644 -14.391165 40.957863 -0.545556 1.929825 0.081551 -0.046983 2246830.000000 0 0 1
31.529843 -20.651044 -14.388965 40.344007 -0.579860 1.935483 0.108625 -0.044340 1206960.000000 0 0 1
30.574143 -20.401644 -15.579965 39.921681 -0.588430 1.971714 0.131772 -0.050384 -1003690.000000 0 0 1
30.156743 -19.058044 -15.710665 38.980292 -0.563593 1.985634 0.096506 -0.039800 168314.000000 0 0 1
29.257443 -18.965044 -16.783465 38.695679 -0.575118 2.019424 0.098288 -0.037018 -290463.000000 0 0 1
28.643743 -17.556544 -16.774365 37.550973 -0.549871 2.033880 0.096291 -0.034403 448009.000000 0 0 1
27.435543 -17.425544 -16.014765 36.233014 -0.565861 2.028616 0.117338 -0.035448 674030.000000 0 0 1
26.623743 -16.339944 -16.377365 35.270888 -0.550458 2.053675 0.092254 -0.023260 379748.000000 0 0 1
25.181843 -16.344144 -15.709365 33.882745 -0.575703 2.052894 0.082530 -0.019097 1538700.000000 0 0 1
24.155743 -16.987144 -16.483965 33.819877 -0.612893 2.079911 0.086440 -0.018974 636271.000000 0 0 1
23.665043 -16.130244 -17.525465 33.576196 -0.598274 2.119945 0.093099 -0.012472 -279534.000000 0 0 1
22.550443 -16.860944 -18.362065 33.615165 -0.642027 2.148669 0.088858 -0.003127 1245310.000000 0 0 1
21.303043 -16.916244 -17.659265 32.431907 -0.671119 2.146593 0.074660 0.000740 391941.000000 0 0 1
20.251043 -17.600144 -18.296565 32.475130 -0.715478 2.169295 0.061434 -0.000578 510578.000000 0 0 1
18.870543 -17.432644 -17.613665 31.148606 -0.745811 2.171802 0.073443 -0.001616 57964.600000 0 0 1
18.219843 -16.188744 -17.740165 30.145506 -0.726438 2.199980 0.083786 -0.006057 -670477.000000 0 0 1
16.879843 -16.498544 -17.568565 29.424234 -0.773975 2.210650 0.077999 -0.009810 -1004650.000000 0 0 1
15.860743 -15.344844 -17.544565 28.192892 -0.768867 2.242480 0.094112 -0.020713 -250582.000000 0 0 1
15.328743 -14.929144 -18.763365 28.458980 -0.772192 2.290700 0.091484 -0.015290 -793510.000000 0 0 1
14.029443 -14.601844 -18.407565 27.365627 -0.805388 2.308584 0.106363 -0.015305 -798109.000000 0 0 1
13.227143 -13.867044 -19.526465 27.359369 -0.809011 2.365567 0.093780 -0.016300 -48566.000000 0 0 1
13.576143 -12.559544 -19.952265 27.205637 -0.746521 2.394087 0.128289 -0.028275 -487043.000000 0 0 1
12.923543 -12.181644 -21.074665 27.559969 -0.755855 2.441347 0.115561 -0.023271 -375182.000000 0 0 1
13.264943 -10.686244 -21.428865 27.374272 -0.678147 2.469966 0.132576 -0.017613 82128.200000 0 0 1
14.592743 -10.530744 -21.883865 28.332812 -0.625104 2.453385 0.131568 -0.019597 -177035.000000 0 0 1
14.721443 -9.177544 -22.373465 28.311131 -0.557458 2.482047 0.135424 -0.028023 877394.000000 0 0 1
16.213543 -8.868944 -22.764865 29.321941 -0.500543 2.459692 0.127549 -0.024215 822236.000000 0 0 1
16.629543 -9.665544 -23.859965 30.647388 -0.526502 2.463119 0.148500 -0.020009 -19338.300000 0 0 1
18.009943 -9.471344 -24.077165 31.524186 -0.484149 2.439927 0.128951 -0.031912 -175927.000000 0 0 1
22.224743 5.535356 -7.697665 24.162645 0.244096 1.895024 0.179567 0.014293 -257676.000000 0 1 0
21.930743 6.907556 -7.604765 24.217850 0.305135 1.890215 0.173064 0.001568 569846.000000 0 1 0
21.304043 7.042156 -6.320365 23.310968 0.319248 1.845366 0.163195 -0.003155 -17492.500000 0 1 0
21.123843 8.581956 -5.920065 23.556610 0.385899 1.824832 0.128544 0.004766 -265642.000000 0 1 0
20.146343 9.257856 -6.713065 23.165670 0.430751 1.864799 0.059755 -0.011291 630411.000000 0 1 0
19.985643 10.658256 -6.559465 23.580732 0.489928 1.852685 0.062041 -0.001337 74742.100000 0 1 0
19.461843 11.090856 -5.086565 22.970493 0.517976 1.794086 0.083512 -0.006680 397376.000000 0 1 0
20.523143 11.115856 -4.097265 23.697030 0.496391 1.744572 0.125863 -0.007981 1033770.000000 0 1 0
21.157243 12.415656 -4.190465 24.886491 0.530678 1.739985 0.188570 -0.024700 807666.000000 0 1 0
22.222743 12.754956 -3.064065 25.805575 0.521052 1.689814 0.164969 -0.039871 461888.000000 0 0 1
23.423843 12.031756 -3.081465 26.512921 0.474511 1.687285 0.155234 -0.062066 273322.000000 0 0 1
24.278243 12.477456 -2.033565 27.372529 0.474734 1.645157 0.171965 -0.061852 230533.000000 0 0 1
25.176643 11.330056 -1.477965 27.648108 0.422873 1.624278 0.148671 -0.060674 -109140.000000 0 0 1
26.379043 11.105356 -2.181665 28.704398 0.398471 1.646874 0.113248 -0.042356 217663.000000 0 0 1
27.228243 10.287956 -1.395165 29.140448 0.361259 1.618692 0.165394 -0.046213 -708902.000000 0 0 1
28.651143 10.079656 -1.843065 30.428348 0.338283 1.631404 0.141649 -0.040665 -886394.000000 0 0 1
29.490743 11.172856 -1.654665 31.579654 0.362150 1.623217 0.125058 -0.052076 -1133840.000000 0 0 1
30.801043 10.933556 -1.971065 32.743426 0.341099 1.631030 0.122279 -0.041217 -881058.000000 0 0 1
31.854843 11.900456 -1.392165 34.033660 0.357529 1.611713 0.106792 -0.037006 -646326.000000 0 0 1
32.015343 11.753756 0.003135 34.104735 0.351852 1.570704 0.131797 -0.056075 289491.000000 0 0 1
32.948943 12.677456 0.529035 35.307656 0.367300 1.555812 0.125861 -0.049566 -463045.000000 0 0 1
34.427243 12.302456 0.334735 36.560874 0.343205 1.561641 0.142836 -0.048465 -989027.000000 0 0 1
35.259643 13.404756 0.686035 37.727981 0.363298 1.552612 0.137789 -0.065594 276551.000000 0 0 1
35.837843 14.061656 -0.453065 38.500473 0.373911 1.582564 0.145508 -0.046444 -128409.000000 0 0 1
35.008743 15.272456 -1.036165 38.209078 0.411358 1.597918 0.094280 -0.028008 -608362.000000 0 0 1
33.824643 14.879756 -1.609865 36.987907 0.414430 1.614334 0.110363 -0.020454 -1164420.000000 0 0 1
33.054043 15.961356 -2.010865 36.761096 0.449863 1.625525 0.087677 -0.000803 -180163.000000 0 0 1
31.766843 15.548556 -2.752065 35.474833 0.455179 1.648452 0.100537 -0.016873 -538822.000000 0 0 1
32.047443 14.960556 -4.045665 35.598093 0.436757 1.684691 0.065044 -0.007736 532320.000000 0 0 1
30.928843 15.043256 -4.917265 34.742947 0.452695 1.712806 0.052704 -0.016290 486245.000000 0 0 1
29.831743 13.979656 -4.627165 33.268218 0.438227 1.710335 0.075075 -0.029170 -219671.000000 0 0 1
28.667343 14.010456 -5.410965 32.363374 0.454587 1.738779 0.097377 -0.027634 735599.000000 0 0 1
27.618443 13.207556 -4.843665 30.994822 0.446068 1.727713 0.090652 -0.013276 370004.000000 0 0 1
26.480743 12.932256 -5.832465 30.041482 0.454296 1.766184 0.075738 -0.010280 -481945.000000 0 0 1
26.836343 12.007456 -6.815065 30.179685 0.420717 1.798577 0.074928 0.002706 723888.000000 0 0 1
25.733143 11.603856 -7.643165 29.244864 0.423627 1.835218 0.092235 0.001519 439265.000000 0 0 1
25.347643 12.648056 -8.726465 29.641652 0.462834 1.869623 0.090809 0.012044 -83628.700000 0 0 1
24.484143 13.666156 -8.242965 29.226418 0.509089 1.856714 0.084677 0.000402 12395.700000 0 0 1
24.456843 14.862756 -9.013865 30.004807 0.546072 1.875923 0.082332 -0.014448 -870830.000000 0 0 1
23.403143 15.838056 -8.471865 29.501248 0.594950 1.862067 0.078428 -0.001134 1782500.000000 0 0 1
21.975343 15.697756 -8.738665 28.384846 0.620282 1.883743 0.102640 -0.015097 1911120.000000 0 0 1
21.424243 14.440356 -8.328565 27.145664 0.593076 1.882636 0.119505 -0.025566 -1485140.000000 0 0 1
19.911843 14.431056 -8.527865 26.028088 0.627143 1.904602 0.134513 -0.020603 -214647.000000 0 0 1
19.189243 15.148156 -7.506965 25.574366 0.668249 1.868719 0.184568 -0.045173 649352.000000 0 0 1
17.781143 15.151556 -7.724365 24.604969 0.705720 1.890131 0.195944 -0.036394 242351.000000 0 1 0
16.981443 15.566856 -6.494165 23.934715 0.741964 1.845569 0.191964 -0.023204 -335062.000000 0 1 0
16.740343 14.482156 -5.641865 22.842998 0.713198 1.820363 0.134655 -0.037107 411131.000000 0 1 0
16.250443 14.984156 -4.376665 22.533464 0.744879 1.766268 0.118871 -0.019369 -42251.700000 0 1 0
16.011743 13.864756 -3.367465 21.446379 0.713659 1.728467 0.098736 -0.011352 218742.000000 0 1 0
17.237043 13.327156 -2.869765 21.976448 0.658165 1.701754 0.099087 -0.015063 873243.000000 0 1 0
17.047543 12.380656 -1.758765 21.142200 0.628122 1.654080 0.088722 -0.016799 -84764.400000 0 1 0
17.086443 13.033256 -0.340765 21.492520 0.651632 1.586652 0.101556 -0.021967 -144617.000000 0 1 0
15.987743 13.891056 -0.111865 21.179751 0.715340 1.576078 0.090013 -0.026858 428997.000000 0 1 0
16.148043 14.629156 1.041535 21.814130 0.736087 1.523032 0.089950 -0.024931 315375.000000 0 1 0
14.929843 15.608156 1.297735 21.637903 0.807607 1.510785 0.078523 -0.018002 632574.000000 0 1 0
14.886143 16.736356 0.412835 22.402529 0.843841 1.552367 0.092970 -0.017389 -57616.600000 0 1 0
13.879443 17.522256 0.973435 22.374449 0.900889 1.527276 0.070786 -0.022870 -359426.000000 0 1 0
13.944643 18.915856 0.420635 23.504034 0.935542 1.552899 0.070805 -0.021168 103735.000000 0 1 0
13.421643 18.993156 -0.921165 23.275073 0.955617 1.610384 0.079128 -0.023616 194932.000000 0 1 0
13.049043 20.286356 -1.388865 24.160768 0.999186 1.628312 0.079805 -0.026826 492930.000000 0 1 0
11.505843 20.485656 -1.376865 23.535978 1.059050 1.629330 0.066051 -0.025192 482947.000000 0 1 0
10.872143 20.560456 -0.121865 23.258347 1.084384 1.576036 0.053269 -0.021361 -770264.000000 0 1 0
9.496443 20.440556 -0.224365 22.539944 1.135877 1.580751 0.049929 -0.020680 -111767.000000 0 1 0
8.631043 20.382756 1.096235 22.161980 1.170241 1.521311 0.028737 -0.020379 386908.000000 0 1 0
8.430643 21.654456 1.734335 23.302341 1.199525 1.496300 0.024669 -0.020943 71772.000000 0 1 0
7.518943 21.620256 2.800735 23.061095 1.236107 1.449047 0.028057 -0.026249 -189286.000000 0 1 0
7.000743 23.008256 3.208135 24.262777 1.275426 1.438183 0.024149 -0.020084 92705.600000 0 1 0
7.910643 23.611456 4.082435 25.233815 1.247516 1.408298 0.040349 -0.018472 328294.000000 0 0 1
7.362843 24.840956 4.559735 26.307332 1.282646 1.396591 0.034911 -0.012684 292334.000000 0 0 1
8.021443 25.285456 5.913035 27.178333 1.263603 1.351478 0.037105 -0.013001 -15876.300000 0 0 1
7.641043 24.430156 6.993735 26.535455 1.267665 1.304084 0.053357 -0.021943 312573.000000 0 0 1
8.107243 24.861056 8.279135 27.428882 1.255568 1.264174 0.056575 -0.012026 -113819.000000 0 0 1
7.733343 23.904556 9.433035 26.836813 1.257913 1.211628 0.062843 -0.020329 1249160.000000 0 0 1
6.345443 24.130656 9.801535 26.807150 1.313656 1.196485 0.060944 -0.020217 1328250.000000 0 0 1
5.801243 23.159856 10.667735 26.150218 1.325359 1.150599 0.056098 -0.029012 288396.000000 0 0 1
4.457843 23.531856 11.356035 26.506228 1.383576 1.128043 0.049673 -0.027764 784019.000000 0 0 1
3.302743 23.510656 10.519035 25.967463 1.431231 1.153724 0.044023 -0.019248 -86837.400000 0 0 1
2.124343 23.565656 11.271435 26.208743 1.480894 1.126233 0.047280 -0.024046 401516.000000 0 0 1
0.853443 23.811556 10.375635 25.987927 1.534970 1.160100 0.072859 -0.028940 443544.000000 0 0 1
0.801643 25.142856 9.869035 27.022281 1.538924 1.196929 0.068892 -0.029624 248977.000000 0 0 1
-0.054057 25.172556 8.710935 26.637209 -1.568649 1.237646 0.073769 -0.028893 1473800.000000 0 0 1
-1.481557 25.831156 8.941835 27.375172 -1.513504 1.238050 0.093479 -0.038125 777162.000000 0 0 1
-2.318957 25.018056 9.702535 26.933620 -1.478369 1.202272 0.080143 -0.036040 -1331430.000000 0 0 1
-3.619457 25.365956 9.378435 27.285293 -1.429064 1.219924 0.091474 -0.038898 -838040.000000 0 0 1
-4.687157 24.436356 10.074935 26.844166 -1.381287 1.186063 0.095171 -0.047542 210153.000000 0 0 1
-4.910157 24.596756 11.465735 27.578490 -1.373760 1.142030 0.066846 -0.028729 -21733.300000 0 0 1
-5.833057 25.605956 11.805435 28.793364 -1.346818 1.148336 0.077767 -0.033049 -271014.000000 0 0 1
-6.228257 25.546256 13.254735 29.446398 -1.331658 1.103884 0.048858 -0.020591 136681.000000 0 0 1
-7.297357 24.666956 13.620435 29.107154 -1.283165 1.083837 0.052935 -0.031075 347996.000000 0 0 1
-7.516757 24.672856 15.020135 29.847210 -1.275073 1.043459 0.038081 -0.013025 -545699.000000 0 0 1
-8.724957 23.894656 15.489635 29.782684 -1.220696 1.023842 0.033047 -0.020788 -846894.000000 0 0 1
-9.928957 24.537556 15.205235 30.526628 -1.186294 1.049393 0.037403 -0.021104 -407536.000000 0 0 1
-11.032957 23.648556 15.319535 30.260015 -1.134275 1.039950 0.033174 -0.017966 802388.000000 0 0 1
-12.426757 24.283356 15.038235 31.148903 -1.097801 1.066964 0.031751 -0.020158 317975.000000 0 0 1
-12.925557 25.175456 15.989635 32.504493 -1.096471 1.056502 0.040581 -0.026112 596208.000000 0 0 1
-14.134757 25.788456 15.487435 33.236974 -1.069410 1.086066 0.034258 -0.026629 377788.000000 0 0 1
-14.878957 26.678456 16.467935 34.703260 -1.062050 1.076360 0.043798 -0.024738 -58854.900000 0 0 1
-15.955657 26.015756 17.111535 34.988672 -1.020649 1.059785 0.048213 -0.026416 18664.200000 0 0 1
-16.358657 26.738756 18.250635 36.271923 -1.021749 1.043543 0.071456 -0.023436 737492.000000 0 0 1
-17.723457 26.185556 18.844535 36.809249 -0.975783 1.033342 0.064396 -0.030813 1233480.000000 0 0 1
-18.842057 26.629856 18.066535 37.290375 -0.955019 1.065025 0.061463 -0.023823 273613.000000 0 0 1
-20.006357 26.018756 18.607335 37.728807 -0.915296 1.055048 0.075759 -0.029700 -293645.000000 0 0 1
-21.256157 26.101556 17.743535 38.051918 -0.887358 1.085695 0.082323 -0.032001 -404568.000000 0 0 1
-21.930757 27.368656 17.802835 39.331188 -0.895258 1.101074 0.067070 -0.030375 491282.000000 0 0 1
-22.661657 27.578156 16.590335 39.361715 -0.882948 1.135715 0.070871 -0.034986 -224074.000000 0 0 1
-23.655157 28.723556 16.485035 40.698471 -0.881862 1.153760 0.064013 -0.031100 -665938.000000 0 0 1
-24.835457 28.622756 17.213535 41.621724 -0.856126 1.144424 0.064394 -0.034935 -391182.000000 0 0 1
-25.633407 29.781356 16.891235 42.770487 -0.860112 1.164808 0.063799 -0.031532 143753.000000 0 0 1
-27.003027 29.706156 17.608135 43.836806 -0.833029 1.157452 0.066923 -0.024870 90094.300000 0 0 1
-27.903337 28.801456 16.974135 43.545853 -0.801235 1.170383 0.104288 -0.026892 -255515.000000 0 0 1
-29.187827 28.811356 17.528335 44.601189 -0.778907 1.166903 0.154369 -0.031813 277.496000 0 0 1
-29.570727 27.626556 18.514335 44.502080 -0.751421 1.141718 0.132079 -0.029439 -225123.000000 0 0 1
-29.547927 26.368556 17.834335 43.433216 -0.728600 1.147668 0.160875 -0.034131 97899.000000 0 0 1
-30.035047 25.371256 18.717035 43.544599 -0.701422 1.126485 0.156222 -0.028954 -32692.400000 0 0 1
-30.022647 23.978356 18.037335 42.446041 -0.673933 1.131893 0.152624 -0.033561 -233110.000000 0 0 1
-31.010467 23.877256 17.043335 42.687793 -0.656162 1.160092 0.171383 -0.040672 -148437.000000 0 0 1
-30.880027 22.766056 16.172135 41.634209 -0.635286 1.171865 0.176350 -0.038906 -569783.000000 0 0 1
-31.396417 21.410056 16.635335 41.483248 -0.598493 1.158174 0.164262 -0.030112 -956501.000000 0 0 1
-32.779517 21.350756 16.553535 42.477889 -0.577320 1.170493 0.174610 -0.025723 -940512.000000 0 0 1
-33.130037 19.972756 16.572435 42.085104 -0.542519 1.166052 0.152871 -0.029379 645053.000000 0 0 1
-34.612722 19.622256 16.211435 42.963753 -0.515732 1.183887 0.165450 -0.040441 578651.000000 0 0 1
-34.953664 19.906756 14.886735 42.891170 -0.517705 1.216339 0.142825 -0.031878 35005.900000 0 0 1
-36.219847 19.366256 14.561835 43.577245 -0.491010 1.230081 0.151743 -0.038026 109881.000000 0 0 1
-36.525477 19.591356 13.081235 43.463208 -0.492322 1.265084 0.136267 -0.030521 1146.960000 0 0 1
-36.703257 20.963456 12.746835 44.148357 -0.518944 1.277899 0.144998 -0.042513 -106904.000000 0 0 1
-37.007937 21.246456 11.378335 44.164078 -0.521162 1.310220 0.088769 -0.021800 185752.000000 0 0 1
-35.917760 20.887156 10.314635 42.810635 -0.526726 1.327466 0.108548 -0.022819 176733.000000 0 0 1
-35.911405 19.516556 10.003835 42.078518 -0.497811 1.330756 0.119682 -0.026385 -586724.000000 0 0 1
-34.752035 19.214656 9.317135 40.788674 -0.505073 1.340337 0.121567 -0.025275 -630114.000000 0 0 1
-33.749817 18.304056 10.032035 39.682872 -0.496947 1.315218 0.105230 -0.020801 -175774.000000 0 0 1
-33.046547 18.882956 11.100735 39.646773 -0.519128 1.287012 0.127279 -0.026791 -37984.400000 0 0 1
-32.316517 17.904956 11.811035 38.787179 -0.505947 1.261374 0.124470 -0.030768 -28746.800000 0 0 1
-31.682837 18.418156 13.133535 38.929685 -0.526578 1.226679 0.102950 -0.012313 469564.000000 0 0 1
-30.421397 19.059756 12.957735 38.165935 -0.559695 1.224400 0.124823 -0.009486 248176.000000 0 0 1
-30.514217 20.441156 12.697735 38.861173 -0.590231 1.237938 0.153676 -0.013270 -603009.000000 0 0 1
-29.146267 21.063456 12.913735 38.209143 -0.625787 1.226032 0.171060 -0.031619 -662066.000000 0 0 1
-28.786907 20.971356 14.250335 38.360863 -0.629601 1.190193 0.156966 -0.022545 66374.100000 0 0 1
-27.769837 21.907456 14.598835 38.265212 -0.667932 1.179359 0.150842 -0.029099 -215727.000000 0 0 1
-27.214457 21.656056 15.992135 38.280019 -0.672148 1.139810 0.127362 -0.031965 -546083.000000 0 0 1
-26.400647 20.541656 16.141735 37.141748 -0.661228 1.121204 0.133332 -0.030477 -216916.000000 0 0 1
-25.984297 20.318756 17.468935 37.325584 -0.663646 1.083753 0.112457 -0.022657 83142.600000 0 0 1
-24.958357 19.185156 17.775035 36.151648 -0.655354 1.056779 0.112645 -0.021202 323689.000000 0 0 1
-24.456957 19.369256 19.097335 36.578943 -0.669827 1.021502 0.102112 -0.021583 -150971.000000 0 0 1
-23.496457 18.384156 19.342235 35.555348 -0.663931 0.995595 0.101165 -0.017563 -256302.000000 0 0 1
-23.031357 18.331556 20.770835 36.026614 -0.672260 0.956307 0.098031 -0.022960 -111484.000000 0 0 1
-24.010957 17.815856 21.634935 36.905300 -0.638354 0.944401 0.101510 -0.010819 169336.000000 0 0 1
-23.620357 18.014556 23.005335 37.572476 -0.651561 0.911840 0.131314 -0.018975 85042.600000 0 0 1
-24.397157 17.147856 24.020435 38.291664 -0.612645 0.892712 0.126047 -0.013239 -184010.000000 0 0 1
-24.093657 15.818356 24.043735 37.534330 -0.580956 0.875543 0.129186 -0.028141 86184.800000 0 0 1
-25.074987 15.081056 24.738635 38.317011 -0.541476 0.868948 0.126009 -0.031594 43329.600000 0 0 1
21.158343 24.481656 32.780312 46.060566 0.858086 0.778912 0.140757 -0.022542 639.165000 0 0 1
21.903943 23.411756 32.271921 45.490327 0.818659 0.782116 0.154876 -0.039697 98198.900000 0 0 1
21.408043 22.181156 32.863979 45.059395 0.803133 0.753428 0.162324 -0.041996 170102.000000 0 0 1
20.437243 21.402756 31.974944 43.567831 0.808470 0.746733 0.175874 -0.046257 -303269.000000 0 0 1
21.041443 20.825656 30.861115 42.765157 0.780244 0.764626 0.204476 -0.045601 7277.520000 0 0 1
20.554943 19.522056 30.586825 41.703359 0.759631 0.747431 0.163140 -0.047184 31694.100000 0 0 1
20.934843 19.019456 29.159575 40.623739 0.737495 0.770164 0.167141 -0.047422 560398.000000 0 0 1
22.277843 18.549056 29.032175 41.027270 0.694319 0.784656 0.163181 -0.042047 275098.000000 0 0 1
22.562843 17.939556 27.814505 40.056912 0.671742 0.803246 0.141235 -0.045543 -751157.000000 0 0 1
23.744343 17.025456 28.000985 40.468693 0.622066 0.806655 0.149190 -0.032855 -845581.000000 0 0 1
24.922743 17.650556 28.404755 41.707497 0.616215 0.821605 0.166009 -0.032319 -390149.000000 0 0 1
25.900343 16.692156 28.793635 42.172612 0.572482 0.819267 0.135375 -0.022036 347936.000000 0 0 1
27.327743 17.268156 28.945185 43.391456 0.563539 0.840526 0.098289 -0.024446 -105664.000000 0 0 1
28.044043 17.457956 27.750935 43.143516 0.556813 0.872095 0.080936 -0.014124 102743.000000 0 0 1
29.400743 17.702956 28.096775 44.353434 0.541981 0.884761 0.076437 -0.006863 481707.000000 0 0 1
30.372443 17.456356 26.903795 44.170395 0.521641 0.915882 0.068850 -0.008122 57381.700000 0 0 1
30.517943 18.543256 26.109775 44.237060 0.546002 0.939460 0.089720 -0.008020 -576107.000000 0 0 1
31.391343 18.222956 25.116785 44.140066 0.525965 0.965477 0.080275 -0.010656 -615021.000000 0 0 1
31.716943 19.413956 24.186735 44.360616 0.549269 0.994133 0.093462 -0.023898 229768.000000 0 0 1
30.667043 19.682156 23.245305 43.222667 0.570590 1.002967 0.091772 -0.029016 410811.000000 0 0 1
30.913543 20.652056 22.174925 43.288357 0.588966 1.032981 0.083165 -0.027010 -269646.000000 0 0 1
31.798443 20.159456 21.023025 43.122062 0.565028 1.061545 0.085106 -0.026065 -226837.000000 0 0 1
31.044343 19.224856 20.257425 41.757748 0.554469 1.064299 0.094907 -0.038239 149491.000000 0 0 1
31.638043 18.648756 19.119425 41.404037 0.532619 1.090799 0.097086 -0.039891 477730.000000 0 0 1
32.891943 17.734256 19.398025 42.103053 0.494488 1.091982 0.139429 -0.051913 633870.000000 0 0 1
32.444543 16.492856 19.976625 41.517806 0.470297 1.068821 0.140966 -0.054317 87896.200000 0 0 1
33.440543 15.725756 20.570325 42.293115 0.439574 1.062860 0.154333 -0.063455 -1180620.000000 0 0 1
32.779743 14.367656 20.922425 41.457073 0.413089 1.041789 0.144615 -0.061600 264011.000000 0 0 1
32.018243 14.324656 22.100625 41.458428 0.420682 1.008561 0.116116 -0.047904 686777.000000 0 0 1
30.760943 15.010056 22.010925 40.694203 0.453968 0.999306 0.109477 -0.038618 -264641.000000 0 0 1
29.795043 14.622256 23.161245 40.472190 0.456229 0.961518 0.078366 -0.031607 9823.410000 0 0 1
29.311343 13.309856 22.905255 39.508958 0.426246 0.952376 0.077771 -0.028291 -161770.000000 0 0 1
28.731843 12.628356 23.972175 39.492522 0.414109 0.918509 0.063532 -0.016643 -79147.000000 0 0 1
28.339743 11.174956 23.620905 38.548253 0.375601 0.911245 0.073690 -0.013405 -177645.000000 0 0 1
27.310943 11.071256 22.672915 37.182272 0.385134 0.915016 0.076801 -0.012595 -102235.000000 0 0 1
27.029043 9.690556 22.482625 36.468403 0.344248 0.906512 0.067806 -0.001687 -171986.000000 0 0 1
25.882843 9.380056 21.519025 34.942459 0.347682 0.907342 0.072811 -0.018608 -177826.000000 0 0 1
24.568943 9.525656 22.017525 34.338644 0.369868 0.874751 0.081585 -0.018999 -9819.710000 0 0 1
23.687543 8.878456 21.149525 32.973157 0.358609 0.874453 0.090383 -0.010246 -86602.200000 0 0 1
22.175643 8.936056 21.474025 32.136365 0.383062 0.838988 0.087316 -0.015230 244360.000000 0 0 1
21.781743 7.969156 22.424825 32.261812 0.350737 0.802253 0.084065 -0.009988 491858.000000 0 0 1
20.393943 8.024256 22.742505 31.583589 0.374858 0.766888 0.115858 -0.012790 436015.000000 0 0 1
19.987143 7.305956 24.049835 32.113197 0.350445 0.724383 0.114592 -0.020115 -78049.200000 0 0 1
20.095843 5.937056 23.968845 31.837039 0.287265 0.718399 0.104003 -0.023922 254987.000000 0 0 1
19.715843 5.344156 25.190375 32.431920 0.264699 0.681362 0.121636 -0.036067 -61079.100000 0 0 1
19.935843 3.820956 25.149495 32.319261 0.189366 0.679068 0.118398 -0.032465 563314.000000 0 0 1
21.335643 3.541056 25.080205 33.117448 0.164470 0.711611 0.123008 -0.028136 587284.000000 0 0 1
21.750743 2.192256 25.067685 33.260932 0.100451 0.717172 0.112227 -0.029054 936626.000000 0 0 1
23.302943 1.977356 24.939985 34.189763 0.084652 0.753268 0.106746 -0.025243 389378.000000 0 0 1
24.061443 2.370156 25.992955 35.499357 0.098188 0.749236 0.104947 -0.031113 -328707.000000 0 0 1
25.403143 2.601856 25.557625 36.128680 0.102067 0.784976 0.104765 -0.024205 595555.000000 0 0 1
26.152443 3.104756 26.833655 37.598335 0.118165 0.776040 0.083816 -0.020979 -611893.000000 0 0 1
26.395043 2.176356 27.880465 38.454585 0.082267 0.759728 0.089813 -0.024112 180748.000000 0 0 1
27.207943 2.581356 28.979885 39.834272 0.094592 0.756109 0.087585 -0.008970 306394.000000 0 0 1
28.714843 2.702756 28.678795 40.673337 0.093848 0.788231 0.086495 -0.019632 -882301.000000 0 0 1
29.033743 3.918156 28.019965 40.539223 0.134141 0.807674 0.081936 -0.005811 1757510.000000 0 0 1
30.435643 4.041356 27.599305 41.284168 0.132011 0.838579 0.068358 -0.000199 1706530.000000 0 0 1
31.078243 3.105556 26.581515 41.013151 0.099596 0.865681 0.077933 0.000707 -575102.000000 0 0 1
30.670743 3.313256 25.262435 39.873083 0.107609 0.884636 0.054373 0.018160 -28556.500000 0 0 1
30.934143 2.141156 24.530445 39.537937 0.069106 0.901508 0.080549 0.017785 -72079.800000 0 0 1
30.383043 2.222156 23.040625 38.196042 0.073008 0.923264 0.082977 0.000720 137740.000000 0 0 1
30.932443 3.265056 22.292825 38.268089 0.105165 0.948942 0.077218 -0.001017 -225962.000000 0 0 1
32.297543 3.182356 21.959325 39.185081 0.098215 0.975927 0.066372 -0.003623 61725.600000 0 0 1
32.893943 4.470956 21.284325 39.433785 0.135092 1.000658 0.081816 -0.002774 -699567.000000 0 0 1
32.341643 4.811956 20.029925 38.344943 0.147702 1.021178 0.074397 -0.012627 1330.530000 0 0 1
32.928443 5.986556 19.501325 38.735292 0.179841 1.043208 0.107990 -0.009282 -1028620.000000 0 0 1
34.404243 5.933456 19.159525 39.823928 0.170783 1.068881 0.117010 -0.017486 -1063250.000000 0 0 1
35.264343 5.871156 20.271825 41.097338 0.164977 1.054959 0.103342 -0.011909 -142763.000000 0 0 1
35.632443 7.162256 20.795925 41.874089 0.198361 1.051085 0.122101 -0.009125 -59126.100000 0 0 1
36.680943 7.136756 21.959925 43.343548 0.192162 1.039504 0.129438 -0.012970 97307.100000 0 0 1
36.097543 6.498756 23.056565 43.322876 0.178125 1.009596 0.124187 -0.000384 304800.000000 0 0 1
36.816843 6.485756 24.312695 44.594305 0.174374 0.994172 0.136651 -0.003798 169931.000000 0 0 1
36.144543 5.564156 25.370745 44.509128 0.152743 0.964276 0.129217 -0.002130 190377.000000 0 0 1
36.111543 4.215256 24.941105 44.089348 0.116203 0.969521 0.123794 -0.007259 313776.000000 0 0 1
35.329743 3.412356 25.838865 43.903096 0.096287 0.941541 0.112360 -0.000221 234817.000000 0 0 1
35.269943 1.897356 25.603715 43.624752 0.053743 0.943562 0.106087 0.006567 -265070.000000 0 0 1
34.340143 1.411956 24.690365 42.318473 0.041094 0.947836 0.112126 -0.000912 -431325.000000 0 0 1
34.591843 0.103456 24.335665 42.294572 0.002991 0.957721 0.109934 -0.011287 -137828.000000 0 0 1
33.689743 -0.586844 23.255515 40.940959 -0.017417 0.966691 0.118396 -0.002497 648530.000000 0 0 1
32.373343 -0.837144 23.756935 40.163741 -0.025853 0.937876 0.116530 -0.006355 290656.000000 0 0 1
31.630043 -1.541544 22.786655 39.013685 -0.048698 0.947065 0.116822 -0.014005 495619.000000 0 0 1
30.148743 -1.892844 23.111995 38.035429 -0.062701 0.917706 0.116068 -0.002870 833316.000000 0 0 1
29.327543 -0.725744 23.249785 37.432392 -0.024741 0.900633 0.106618 -0.005931 470969.000000 0 0 1
27.969443 -0.994344 22.936825 36.185306 -0.035536 0.884248 0.100765 -0.006239 130255.000000 0 0 1
26.969843 0.119356 22.809285 35.322091 0.004426 0.868790 0.109466 -0.013789 -262791.000000 0 0 1
27.140343 0.822156 21.574025 34.680148 0.030284 0.899393 0.090094 -0.011693 189349.000000 0 0 1
26.442643 2.054356 21.603725 34.207523 0.077535 0.887247 0.099744 -0.007640 -79314.800000 0 0 1
26.822443 2.973956 20.415625 33.839113 0.110425 0.923146 0.088468 -0.009883 -197124.000000 0 0 1
26.293843 2.552356 19.153825 32.630502 0.096767 0.943459 0.098577 -0.019458 800817.000000 0 0 1
25.107643 3.280356 18.808825 31.542453 0.129916 0.931910 0.097571 -0.017034 397389.000000 0 0 1
24.690543 3.083156 17.337625 30.326918 0.124229 0.962231 0.102705 -0.026603 -627990.000000 0 0 1
25.572243 3.673756 16.457425 30.631404 0.142686 1.003596 0.082980 -0.016935 -219133.000000 0 0 1
25.051643 4.014956 15.185325 29.568543 0.158916 1.031464 0.068809 -0.012856 -1190600.000000 0 0 1
24.759243 2.854256 14.255825 28.712287 0.114774 1.051227 0.087142 -0.010417 -530354.000000 0 0 1
23.640443 2.084956 14.559925 27.842575 0.087967 1.020503 0.121493 -0.001717 -186172.000000 0 0 1
23.413043 1.070256 13.622525 27.108840 0.045680 1.044294 0.123201 -0.006409 -900994.000000 0 0 1
21.939643 0.725156 13.429125 25.733542 0.033040 1.021775 0.197482 -0.033912 -552811.000000 0 0 1
21.194643 1.599456 12.553325 24.685159 0.075322 1.037311 0.236891 -0.035165 787374.000000 0 1 0
21.369243 1.325456 11.170125 24.148976 0.061947 1.089926 0.236119 -0.030196 -796533.000000 0 1 0
20.992243 -0.062644 10.543925 23.491542 -0.002984 1.105330 0.231689 -0.032705 137746.000000 0 1 0
21.858443 -1.144244 10.950425 24.474734 -0.052300 1.106921 0.234007 -0.041561 801973.000000 0 1 0
23.059943 -1.214144 10.193825 25.241814 -0.052603 1.155078 0.240443 -0.036230 474573.000000 0 0 1
24.223543 -1.996544 10.912025 26.642794 -0.082236 1.148816 0.244752 -0.040958 373886.000000 0 0 1
24.510543 -1.391344 12.123425 27.380284 -0.056704 1.112100 0.198813 -0.038644 116685.000000 0 0 1
25.204643 -2.335244 12.933125 28.425219 -0.092388 1.098438 0.133835 -0.020584 169570.000000 0 0 1
25.654543 -1.891444 14.381025 29.471121 -0.073594 1.061034 0.134169 -0.024805 142822.000000 0 0 1
26.770943 -1.044244 14.322425 30.379363 -0.038987 1.079859 0.082729 -0.010261 -237575.000000 0 0 1
27.240343 -0.645944 15.585025 31.390230 -0.023708 1.051243 0.077644 -0.024372 442293.000000 0 0 1
28.437543 0.369756 15.462125 32.371405 0.013002 1.072821 0.095392 -0.023491 448429.000000 0 0 1
29.669643 -0.302244 15.271325 33.370532 -0.010187 1.095470 0.129750 -0.026026 -88944.100000 0 0 1
30.689143 0.692756 15.290825 34.294500 0.022569 1.108652 0.135536 -0.032822 106344.000000 0 0 1
32.098143 0.093956 15.533525 35.659360 0.002927 1.120082 0.155430 -0.029928 -152828.000000 0 0 1
32.464843 -0.788644 14.571025 35.593577 -0.024287 1.149030 0.173748 -0.032112 -555544.000000 0 0 1
33.830643 -1.056244 14.700825 36.901792 -0.031211 1.161050 0.142677 -0.031611 -479552.000000 0 0 1
34.348143 -2.065544 13.655625 37.020771 -0.060063 1.193010 0.137533 -0.034998 -197588.000000 0 0 1
34.537043 -1.390544 12.414225 36.726746 -0.040241 1.225988 0.162837 -0.039413 194782.000000 0 0 1
35.233043 -2.154444 11.466525 37.114554 -0.061072 1.256708 0.157823 -0.040585 -172928.000000 0 0 1
34.965643 -1.698844 9.984325 36.402871 -0.048548 1.292963 0.199801 -0.043127 -21652.300000 0 0 1
35.638643 -0.495344 9.644225 36.923831 -0.013898 1.306539 0.184538 -0.040700 280044.000000 0 0 1
34.733143 0.570056 9.684225 36.062451 0.016411 1.298919 0.202833 -0.036920 -384325.000000 0 0 1
35.291943 1.928856 9.174725 36.515987 0.054600 1.316823 0.225785 -0.044739 -118153.000000 0 0 1
35.589643 1.970056 7.757725 36.478570 0.055298 1.356495 0.209784 -0.044365 458926.000000 0 0 1
36.000943 3.263356 7.298425 36.877966 0.090399 1.371574 0.215077 -0.044804 -99630.500000 0 0 1
36.351943 3.360556 5.829025 36.969374 0.092183 1.412464 0.192861 -0.040567 -185778.000000 0 0 1
36.691143 4.691456 5.504125 37.397127 0.127173 1.423079 0.179571 -0.029056 297529.000000 0 0 1
37.046043 4.779556 4.106925 37.578189 0.128308 1.461287 0.177692 -0.036154 -97707.200000 0 0 1
37.212243 6.284256 3.713425 37.921398 0.167298 1.472715 0.186442 -0.057745 23045.500000 0 0 1
36.026243 7.063956 3.723025 36.900549 0.193622 1.469731 0.193080 -0.059383 12855.400000 0 0 1
36.158843 8.420356 3.255225 37.268764 0.228794 1.483340 0.188267 -0.062905 -523029.000000 0 0 1
34.899343 9.337456 3.251825 36.272945 0.261431 1.481027 0.198323 -0.071041 237707.000000 0 0 1
33.854443 9.097956 2.352825 35.134483 0.262535 1.503780 0.191168 -0.072967 143963.000000 0 0 1
33.054843 7.948056 2.593225 34.095733 0.235971 1.494666 0.229998 -0.064935 -1064470.000000 0 0 1
31.975943 7.748456 1.572725 32.938928 0.237739 1.523031 0.230091 -0.066439 -419454.000000 0 0 1
32.497643 7.344856 0.337425 33.319027 0.222277 1.560669 0.242785 -0.065511 385606.000000 0 0 1
31.425443 7.423956 -0.568975 32.295469 0.231987 1.588415 0.224965 -0.061093 -9169.740000 0 0 1
31.859343 7.000656 -2.001975 32.680802 0.216299 1.632093 0.185254 -0.049704 -340352.000000 0 0 1
30.792843 6.625856 -2.841775 31.625572 0.211944 1.660775 0.223639 -0.049025 400377.000000 0 0 1
31.267043 6.424356 -4.147775 32.188575 0.202647 1.700014 0.183299 -0.036028 -111793.000000 0 0 1
30.320743 5.668156 -5.130075 31.269683 0.184807 1.735600 0.227593 -0.029453 -309136.000000 0 0 1
30.217943 4.301556 -4.791775 30.896417 0.141401 1.726517 0.234521 -0.032878 609887.000000 0 0 1
29.086443 3.719656 -5.391275 29.814809 0.127192 1.752622 0.222901 -0.036114 -303809.000000 0 0 1
28.946543 2.212156 -5.194875 29.492079 0.076274 1.747865 0.253049 -0.034253 -337870.000000 0 0 1
28.748643 1.851856 -3.886675 29.069229 0.064327 1.704902 0.289525 -0.053611 506638.000000 0 0 1
28.711643 0.444856 -3.743875 28.958124 0.015493 1.700445 0.250365 -0.052985 -254282.000000 0 0 1
28.741743 0.033656 -2.293175 28.833098 0.001171 1.650413 0.253955 -0.044435 -520510.000000 0 0 1
29.959643 0.301456 -1.675475 30.007970 0.010062 1.626660 0.230108 -0.044956 -335786.000000 0 0 1
29.895743 0.099156 -0.302575 29.897438 0.003317 1.580917 0.249924 -0.037646 -432951.000000 0 0 1
31.227443 0.480956 0.366825 31.233300 0.015400 1.559051 0.271957 -0.041697 132587.000000 0 0 1
32.193643 -0.518544 0.009825 32.197820 -0.016106 1.570491 0.221257 -0.040246 408590.000000 0 0 1
33.513843 -0.124044 0.353325 33.515935 -0.003701 1.560254 0.170133 -0.048118 223759.000000 0 0 1
-2.989057 -21.092944 -8.400165 22.899990 1.430025 1.946384 0.060916 -0.006743 419285.000000 0 1 0
-3.611157 -21.409444 -7.153065 22.859814 1.403698 1.889052 0.068385 -0.022241 -149291.000000 0 1 0
-3.052457 -22.593344 -6.575765 23.727987 1.436505 1.851603 0.062122 -0.019519 -252389.000000 0 1 0
-3.619857 -22.947844 -5.221665 23.811189 1.414343 1.791888 0.077476 -0.022893 -642621.000000 0 1 0
-3.268257 -22.071144 -4.121565 22.689297 1.423786 1.753463 0.090722 -0.034081 -85291.700000 0 1 0
-3.382457 -22.876744 -2.924865 23.309682 1.424004 1.696607 0.091046 -0.039446 -304369.000000 0 1 0
-2.706257 -22.284544 -1.676065 22.510751 1.449947 1.645321 0.092700 -0.055730 1104070.000000 0 1 0
-1.267257 -22.300944 -1.743265 22.404844 1.514032 1.648683 0.089842 -0.048638 273479.000000 0 1 0
-0.696857 -22.249944 -0.498065 22.266425 1.539487 1.593167 0.068936 -0.046647 483693.000000 0 1 0
0.859443 -22.400144 -0.439565 22.420935 -1.532447 1.590403 0.079884 -0.041468 333575.000000 0 1 0
1.463643 -21.261844 -0.922065 21.332099 -1.502066 1.614034 0.067949 -0.038195 -457740.000000 0 1 0
2.603643 -21.037144 -0.103365 21.197902 -1.447658 1.575673 0.051846 -0.036319 63295.200000 0 1 0
3.537243 -19.942944 -0.657665 20.264887 -1.395254 1.603255 0.059839 -0.033389 83465.300000 0 1 0
4.197143 -20.386544 -1.814665 20.893066 -1.367755 1.657761 0.044104 -0.025079 -458964.000000 0 1 0
4.968643 -19.392644 -2.432065 20.166234 -1.319979 1.691691 0.047546 -0.017813 -248935.000000 0 1 0
5.681943 -20.004544 -3.691365 21.120900 -1.294052 1.746472 0.047347 -0.006981 -347967.000000 0 1 0
6.635243 -20.964744 -3.316265 22.238358 -1.264276 1.720478 0.051373 -0.011473 938845.000000 0 1 0
7.681243 -21.348544 -4.264065 23.085581 -1.225416 1.756570 0.058553 -0.009754 1191080.000000 0 1 0
8.841743 -20.403944 -4.545565 22.697126 -1.161887 1.772430 0.056630 -0.014839 -597438.000000 0 1 0
8.545543 -19.487644 -5.564165 21.994420 -1.157538 1.826556 0.051243 -0.011724 656001.000000 0 1 0
9.753743 -18.813744 -5.968165 22.016164 -1.092508 1.845312 0.066531 -0.020443 593854.000000 0 1 0
9.594143 -17.803944 -7.073765 21.425829 -1.076533 1.907260 0.057762 -0.011045 -289627.000000 0 1 0
10.875343 -17.308844 -7.371465 21.730340 -1.009819 1.916889 0.074615 -0.021371 51508.300000 0 1 0
10.885543 -16.528344 -8.545865 21.557203 -0.988400 1.978418 0.075812 -0.005195 853.352000 0 1 0
10.856643 -17.299344 -9.892765 22.693629 -1.010347 2.021864 0.063129 0.009276 140296.000000 0 1 0
9.540743 -17.615844 -10.335265 22.542436 -1.074425 2.047081 0.052083 -0.017501 347394.000000 0 1 0
9.109643 -16.747144 -11.345565 22.185001 -1.072608 2.107618 0.037595 -0.025469 -214590.000000 0 1 0
8.813643 -17.471044 -12.658565 23.305728 -1.103578 2.144984 0.052445 -0.028649 777589.000000 0 1 0
7.475243 -18.013644 -12.637865 23.239756 -1.177446 2.145759 0.049111 -0.021919 1185490.000000 0 1 0
7.143243 -18.533044 -13.926165 24.257735 -1.202911 2.182291 0.060491 -0.015573 -729578.000000 0 1 0
5.895043 -19.382744 -13.939265 24.591572 -1.275547 2.173450 0.065699 -0.003875 -566994.000000 0 1 0
6.089543 -20.658944 -13.334365 25.331399 -1.284149 2.125153 0.070731 -0.018669 340494.000000 0 0 1
4.874643 -21.337544 -13.034565 25.474552 -1.346197 2.107924 0.098936 -0.025162 222700.000000 0 0 1
5.011243 -22.862144 -12.707565 26.632168 -1.355015 2.068206 0.080332 -0.028834 -27992.600000 0 0 1
5.629043 -23.506244 -13.844765 27.855110 -1.335752 2.090967 0.096073 -0.035411 161978.000000 0 0 1
5.383243 -24.883144 -14.036365 29.071803 -1.357739 2.074665 0.085714 -0.022050 529285.000000 0 0 1
3.953643 -25.288964 -14.554665 29.444885 -1.415713 2.087828 0.100168 -0.029189 328240.000000 0 0 1
3.004743 -25.021954 -13.573865 28.624753 -1.451284 2.064852 0.099441 -0.025290 -312504.000000 0 0 1
1.656143 -25.101784 -14.040465 28.809322 -1.504915 2.079858 0.089459 -0.027017 885279.000000 0 0 1
0.872243 -26.292814 -13.389965 29.518876 -1.537634 2.041605 0.073747 -0.025122 -484208.000000 0 0 1
1.305343 -27.566424 -13.862965 30.883547 -1.523479 2.036306 0.079079 -0.029586 282647.000000 0 0 1
0.678243 -28.724464 -13.267665 31.647840 -1.547189 2.003391 0.057990 -0.026721 198507.000000 0 0 1
-0.815257 -29.050074 -13.417465 32.009371 1.542740 2.003331 0.040901 -0.025944 218803.000000 0 0 1
-1.749957 -28.103704 -12.882265 30.965033 1.508609 1.999867 0.046329 -0.025468 219975.000000 0 0 1
-3.057957 -28.560334 -13.226765 31.622636 1.464133 2.002335 0.052359 -0.025403 -245481.000000 0 0 1
-4.155757 -27.640214 -12.625065 30.669920 1.421562 1.995053 0.050605 -0.014731 -18968.800000 0 0 1
-4.522257 -27.856704 -11.278465 30.391620 1.409860 1.950994 0.051466 -0.031494 -274892.000000 0 0 1
-5.193757 -29.046804 -11.083265 31.520322 1.393860 1.930100 0.051359 -0.026972 -1231180.000000 0 0 1
-5.738357 -29.261804 -9.636565 31.337602 1.377150 1.883369 0.052010 -0.024674 -509736.000000 0 0 1
-7.053457 -28.890744 -9.391965 31.187102 1.331338 1.876694 0.050133 -0.020534 -932932.000000 0 0 1
-7.199057 -27.508374 -9.207365 29.888336 1.314833 1.883948 0.057064 -0.017713 -964765.000000 0 0 1
-8.629457 -27.072634 -8.841165 29.758381 1.262226 1.872449 0.060784 -0.021901 1134250.000000 0 0 1
-9.702257 -27.109744 -9.833665 30.426518 1.227112 1.899899 0.076457 -0.024129 765646.000000 0 0 1
-9.945257 -28.404104 -10.353065 31.825889 1.234002 1.902129 0.086675 -0.030710 -887601.000000 0 0 1
-11.227857 -28.516084 -11.210165 32.632800 1.195700 1.921464 0.091431 -0.032549 -356082.000000 0 0 1
-11.176257 -27.923814 -12.509065 32.574911 1.190082 1.964931 0.113623 -0.033289 35697.500000 0 0 1
-11.941457 -28.623654 -13.490765 33.821779 1.175561 1.981089 0.123208 -0.039998 -134484.000000 0 0 1
-12.348157 -27.682044 -14.645065 33.663786 1.151215 2.020878 0.135102 -0.036590 272780.000000 0 0 1
-13.423657 -26.746064 -14.560565 33.279973 1.105636 2.023632 0.124736 -0.045506 318235.000000 0 0 1
-13.245757 -25.739814 -13.601865 31.984353 1.095536 2.010052 0.133968 -0.042971 -126280.000000 0 0 1
-14.363857 -24.697344 -13.714965 31.691946 1.044020 2.018347 0.156374 -0.038625 -255158.000000 0 0 1
-14.089357 -23.804644 -14.774265 31.360006 1.036373 2.061354 0.160750 -0.039874 -7970.890000 0 0 1
-15.183257 -22.964044 -15.013565 31.357388 0.986605 2.070071 0.167236 -0.043087 -611331.000000 0 0 1
-15.145657 -21.996444 -16.219465 31.245888 0.967796 2.116584 0.144482 -0.031764 -169851.000000 0 0 1
-14.364257 -20.829244 -16.071065 29.974463 0.967071 2.136676 0.129506 -0.029696 339876.000000 0 0 1
-14.321557 -20.147544 -17.289265 30.165365 0.952836 2.181141 0.126808 -0.024810 -120286.000000 0 0 1
-14.073457 -18.655244 -17.080265 28.945048 0.924487 2.201970 0.096798 -0.022583 -850813.000000 0 0 1
-12.764457 -18.226544 -16.951565 27.973091 0.959854 2.221813 0.096416 -0.008545 -702771.000000 0 0 1
-12.684357 -16.801244 -17.149465 27.152880 0.924125 2.254398 0.088350 -0.011192 853424.000000 0 0 1
-11.246657 -16.231744 -17.473465 26.368140 0.964865 2.295179 0.085022 -0.011870 594863.000000 0 0 1
-10.512457 -15.953244 -16.345965 25.143753 0.988152 2.278513 0.106717 -0.013885 -678069.000000 0 0 1
-9.189557 -15.630744 -16.663765 24.626189 1.039310 2.314025 0.089526 -0.009815 -513239.000000 0 1 0
-8.365057 -14.875944 -15.567865 23.100353 1.058543 2.310303 0.075900 -0.007835 209867.000000 0 1 0
-7.860057 -15.535444 -14.409565 22.600135 1.102405 2.262159 0.068375 -0.007103 330567.000000 0 1 0
-6.932157 -16.574944 -14.678665 23.200146 1.174673 2.255827 0.059169 0.004337 -709666.000000 0 1 0
-6.434957 -17.284444 -13.390065 22.791545 1.214397 2.198764 0.048556 0.003186 -796115.000000 0 1 0
-5.592357 -16.448944 -12.625165 21.476429 1.243073 2.199209 0.041178 -0.004209 243220.000000 0 1 0
-5.326457 -17.121944 -11.398165 21.247359 1.269197 2.137022 0.032698 -0.010570 -296719.000000 0 1 0
-4.356157 -18.326044 -11.416965 22.026509 1.337424 2.115691 0.047146 -0.006142 -23716.000000 0 1 0
-3.020057 -18.035244 -11.804565 21.765535 1.404883 2.144030 0.041719 0.008925 208353.000000 0 1 0
-2.079457 -19.057444 -11.479265 22.344660 1.462111 2.110330 0.037131 0.014654 511384.000000 0 1 0
-0.681557 -18.733244 -12.032465 22.275080 1.534430 2.141443 0.042827 0.015862 -454092.000000 0 1 0
-0.639757 -18.936944 -13.464165 23.244373 1.537026 2.188597 0.055547 0.025149 -660998.000000 0 1 0
0.405443 -18.175144 -13.962765 22.922894 -1.548492 2.225745 0.054431 0.011148 154788.000000 0 1 0
1.790943 -18.874844 -14.100665 23.628287 -1.476194 2.210267 0.080837 -0.007501 98909.600000 0 1 0
1.950743 -19.832744 -15.140365 25.027461 -1.472752 2.220500 0.113311 -0.006571 40684.900000 0 0 1
1.272243 -21.055344 -14.860265 25.802589 -1.510446 2.184527 0.109214 -0.012291 -631743.000000 0 0 1
1.316643 -22.062644 -16.068065 27.325382 -1.511190 2.199414 0.123388 -0.013616 -234082.000000 0 0 1
2.549243 -22.644544 -16.361965 28.053305 -1.458692 2.193515 0.119481 -0.025705 -339284.000000 0 0 1
3.504743 -21.742444 -16.943665 27.786775 -1.410977 2.226572 0.120603 -0.028477 109003.000000 0 0 1
4.958443 -22.279444 -16.954165 28.432437 -1.351809 2.209676 0.126878 -0.040700 94536.000000 0 0 1
5.081743 -23.379844 -17.833665 29.840925 -1.356770 2.211331 0.111385 -0.029934 255192.000000 0 0 1
6.462243 -23.649444 -17.978865 30.402243 -1.304057 2.203549 0.112301 -0.033404 259509.000000 0 0 1
7.077043 -23.515144 -19.384065 31.285596 -1.278462 2.239009 0.098378 -0.022259 -99592.400000 0 0 1
7.217643 -22.196344 -19.823865 30.622829 -1.256408 2.274906 0.106443 -0.031509 77168.400000 0 0 1
7.756543 -22.226944 -21.126265 31.630999 -1.235039 2.302177 0.069562 -0.009340 -225730.000000 0 0 1
7.922643 -20.848544 -21.722465 31.133512 -1.207641 2.343006 0.054137 -0.007706 811672.000000 0 0 1
6.657543 -20.222044 -21.964465 30.589078 -1.252750 2.371792 0.095980 -0.012823 644559.000000 0 0 1
6.915343 -18.854644 -22.206865 29.941016 -1.219259 2.406378 0.097932 -0.006661 287679.000000 0 0 1
5.670243 -18.031444 -22.617365 29.475919 -1.266123 2.445443 0.102605 -0.011654 -533665.000000 0 0 1
5.168043 -18.279144 -23.930365 30.553202 -1.295259 2.470650 0.089800 -0.006083 -302432.000000 0 0 1
4.442743 -17.215644 -24.455965 30.235916 -1.318242 2.512970 0.100345 -0.008151 816258.000000 0 0 1
3.025543 -16.858344 -23.867765 29.377336 -1.393218 2.519147 0.117078 -0.008278 463207.000000 0 0 1
3.094643 -16.296644 -22.602765 28.036448 -1.383136 2.508484 0.112907 -0.001750 125289.000000 0 0 1
1.751943 -16.025444 -22.199265 27.435224 -1.461906 2.513504 0.110013 -0.007944 775633.000000 0 0 1
1.664143 -15.332544 -20.874665 25.953958 -1.462683 2.505286 0.107147 -0.007475 160522.000000 0 0 1
2.225843 -14.011044 -20.889065 25.251075 -1.413249 2.545000 0.089413 -0.002733 -8574.340000 0 0 1
2.172443 -13.236144 -19.716265 23.846302 -1.408117 2.544202 0.088520 -0.010458 -837163.000000 0 1 0
3.131743 -12.106844 -19.898865 23.502092 -1.317669 2.580520 0.068863 -0.012363 199127.000000 0 1 0
4.457443 -12.689844 -19.737565 23.884564 -1.232999 2.543433 0.071166 -0.011085 941594.000000 0 1 0
5.551643 -11.798844 -19.892865 23.785700 -1.131006 2.561364 0.067252 -0.006522 367156.000000 0 1 0
5.878343 -10.815744 -18.741865 22.423040 -1.072958 2.560440 0.073991 -0.006056 -675763.000000 0 1 0
4.944343 -9.801444 -18.447665 21.466979 -1.103595 2.604795 0.039890 -0.003620 -120336.000000 0 1 0
5.093443 -8.648944 -19.214265 21.677993 -1.038572 2.660196 0.057294 -0.015716 -241863.000000 0 1 0
4.451243 -8.681444 -20.631265 22.821703 -1.097016 2.699877 0.081543 -0.029681 -559661.000000 0 1 0
3.051643 -8.711244 -20.656565 22.625030 -1.233845 2.721365 0.060789 -0.025684 -500296.000000 0 1 0
2.607543 -8.993344 -22.009665 23.918714 -1.288593 2.739352 0.071610 -0.034256 9567.610000 0 1 0
1.077743 -8.871844 -22.060465 23.802001 -1.449910 2.756683 0.054977 -0.035131 -378613.000000 0 1 0
0.684743 -7.552744 -21.783665 23.066011 -1.480382 2.806578 0.044053 -0.033405 -398621.000000 0 1 0
-0.717357 -7.420744 -21.711665 22.956011 1.474427 2.810828 0.044406 -0.033594 33410.200000 0 1 0
-1.173457 -6.500744 -22.861565 23.796803 1.392208 2.860306 0.057523 -0.028319 -152167.000000 0 1 0
-0.889957 -7.014544 -24.126465 25.141244 1.444597 2.856505 0.069647 -0.034248 -97324.000000 0 0 1
-1.421857 -6.256944 -25.250925 26.053411 1.347346 2.892751 0.083974 -0.038211 -94021.600000 0 0 1
-0.959257 -4.810944 -25.402345 25.871693 1.373987 2.950823 0.082911 -0.033073 -341796.000000 0 0 1
-1.661257 -4.193644 -26.425955 26.808162 1.193625 2.972530 0.089655 -0.036184 -218675.000000 0 0 1
-1.139657 -2.941344 -26.893805 27.078166 1.201146 3.024835 0.073548 -0.032325 -851686.000000 0 0 1
-1.516357 -1.660344 -26.151915 26.248405 0.830693 3.055822 0.064640 -0.030743 166590.000000 0 0 1
-2.903657 -1.480744 -25.976285 26.179977 0.471582 3.016768 0.058958 -0.032800 -116486.000000 0 0 1
-3.711457 -1.159944 -27.073905 27.351722 0.302913 2.998943 0.068742 -0.024059 331207.000000 0 0 1
-5.255557 -1.170444 -26.768685 27.304822 0.219130 2.943099 0.075462 -0.029771 824369.000000 0 0 1
-5.719557 -0.038444 -26.081755 26.701550 0.006721 2.925712 0.087855 -0.024392 54135.500000 0 0 1
-7.102257 -0.188844 -25.820505 26.780146 0.026583 2.873078 0.109536 -0.041367 -5622.180000 0 0 1
-7.831557 1.076056 -25.251585 26.460040 -0.136545 2.838202 0.112652 -0.038496 -578945.000000 0 0 1
-8.215457 2.134856 -26.163425 27.505930 -0.254235 2.827873 0.140224 -0.037823 575411.000000 0 0 1
-9.109557 1.852456 -27.259655 28.801118 -0.200618 2.812943 0.145478 -0.039417 -178687.000000 0 0 1
-10.456557 1.205156 -26.905025 28.890697 -0.114747 2.768678 0.133586 -0.036150 -1505480.000000 0 0 1
-11.476057 2.038156 -27.380425 29.758052 -0.175768 2.739136 0.134107 -0.043184 -376247.000000 0 0 1
-12.721557 1.436056 -27.093325 29.965789 -0.112408 2.700163 0.079618 -0.025789 655759.000000 0 0 1
-13.926157 2.181556 -27.803495 31.172606 -0.155389 2.672372 0.049579 -0.021776 977105.000000 0 0 1
-15.222357 1.616456 -27.540585 31.508997 -0.105793 2.634283 0.030215 -0.017331 1762930.000000 0 0 1
-16.311657 2.058556 -28.408265 32.822817 -0.125538 2.616951 0.021745 -0.014936 1068530.000000 0 0 1
-17.022557 3.278756 -27.777035 32.742654 -0.190282 2.583646 0.015473 -0.005857 -536107.000000 0 0 1
-16.321457 4.527856 -27.902645 32.641217 -0.270612 2.596017 0.038505 -0.011011 46868.200000 0 0 1
-16.294557 5.149456 -29.181955 33.817392 -0.306091 2.611831 0.036018 -0.012680 247449.000000 0 0 1
-17.637057 5.570956 -29.888385 35.148498 -0.305949 2.587439 0.013791 0.003147 474168.000000 0 0 1
-18.158957 6.708656 -29.245165 35.071833 -0.353888 2.556869 0.013483 0.014745 332515.000000 0 0 1
-19.097657 7.489156 -30.003865 36.346112 -0.373721 2.541891 0.014186 0.010671 355208.000000 0 0 1
-19.758957 8.635656 -29.166125 36.271942 -0.412033 2.504950 0.021681 0.006388 -108776.000000 0 0 1
-18.829857 9.563256 -28.612915 35.562878 -0.469930 2.505752 0.033982 0.008144 448759.000000 0 0 1
-19.473857 10.726756 -28.106875 35.837004 -0.503479 2.472359 0.065337 0.008005 39909.300000 0 0 1
-9.264657 24.692056 30.570405 40.374263 -1.211843 0.711818 0.045998 -0.013506 -357677.000000 0 0 1
-10.070457 25.874556 30.712875 41.402747 -1.199632 0.735034 0.045013 -0.012617 282992.000000 0 0 1
-9.551657 26.790156 31.635395 42.541096 -1.228311 0.732293 0.064187 -0.016160 -159331.000000 0 0 1
-8.226457 27.517756 31.333535 42.505198 -1.280302 0.741925 0.069028 -0.018707 -324572.000000 0 0 1
-8.119857 28.283056 30.151685 42.130600 -1.291223 0.773211 0.074315 -0.004926 -511934.000000 0 0 1
-6.843557 28.452056 29.621855 41.639021 -1.334751 0.779313 0.085745 -0.008308 -610075.000000 0 0 1
-6.789957 29.593656 28.547685 41.675632 -1.345260 0.816197 0.107363 -0.009178 -272956.000000 0 0 1
-6.963357 30.871856 29.183865 43.049481 -1.348952 0.825874 0.108600 -0.012571 331883.000000 0 0 1
-6.701257 31.952956 28.366475 43.249915 -1.364070 0.855457 0.103292 -0.006049 -271341.000000 0 0 1
-6.962157 33.181256 29.214545 44.754408 -1.363975 0.859555 0.123936 -0.016290 74253.500000 0 0 1
-5.986857 33.473656 30.263715 45.521649 -1.393815 0.843543 0.141854 -0.022513 381399.000000 0 0 1
-6.351057 -33.429790 31.370735 46.281852 1.383052 0.826004 0.141421 -0.025995 126683.000000 0 0 1
-7.545257 33.716356 32.200413 47.229124 -1.350637 0.820588 0.086122 -0.021866 419709.000000 0 0 1
-7.175557 32.836356 33.280005 47.299827 -1.355654 0.790350 0.085795 -0.016158 223351.000000 0 0 1
-7.064457 31.473456 32.832178 46.026480 -1.349998 0.776555 0.090764 -0.007992 -218702.000000 0 0 1
-6.930157 30.383256 -33.696655 45.898082 -1.346541 2.395229 0.080598 -0.006174 101430.000000 0 0 1
-5.656057 30.324156 -33.085175 45.234657 -1.386395 2.391187 0.090497 -0.012495 -17794.700000 0 0 1
-5.766057 29.877656 -31.753025 43.979272 -1.380151 2.377485 0.080566 -0.009859 122169.000000 0 0 1
-4.368557 29.584856 -31.129175 43.166811 -1.424194 2.376238 0.079951 -0.021319 620202.000000 0 0 1
-3.696657 28.392556 -31.460655 42.539104 -1.441327 2.403228 0.094610 -0.018797 280059.000000 0 0 1
-3.236057 28.252456 -32.816515 43.423461 -1.456753 2.427568 0.095767 -0.020444 -252975.000000 0 0 1
-2.488757 26.923356 -33.227935 42.838729 -1.478620 2.458543 0.105778 -0.033104 -22824.500000 0 0 1
-1.231857 26.792356 -32.589525 42.206930 -1.524851 2.452993 0.123951 -0.036108 752031.000000 0 0 1
-0.509257 25.533356 -32.769455 41.545743 -1.550854 2.479579 0.140764 -0.032074 693728.000000 0 0 1
0.043143 25.158156 33.481298 41.879971 1.569081 0.644403 0.128518 -0.028835 -674323.000000 0 0 1
-0.997257 24.919756 32.572534 41.023880 -1.530799 0.653453 0.121448 -0.022731 -106183.000000 0 0 1
-0.593657 24.911956 31.196185 39.926932 -1.546971 0.673999 0.118288 -0.020615 -120025.000000 0 0 1
-0.181857 26.324056 30.604745 40.368792 -1.563888 0.710357 0.100318 -0.018560 193395.000000 0 0 1
-1.295057 27.204356 30.504335 40.893381 -1.523227 0.728839 0.109965 -0.020745 228004.000000 0 0 1
-0.902057 28.512056 30.112945 41.479398 -1.539169 0.758347 0.100306 -0.021315 -227623.000000 0 0 1
-2.038757 29.539156 30.125445 42.240510 -1.501887 0.776760 0.115441 -0.022943 -82973.500000 0 0 1
-2.478457 29.943056 31.407595 43.464541 -1.488212 0.763236 0.115089 -0.022411 728719.000000 0 0 1
-3.426957 31.045256 31.446215 44.321737 -1.460856 0.782010 0.120936 -0.017603 616632.000000 0 0 1
-3.146257 31.927956 32.675814 45.793036 -1.472571 0.776238 0.117007 -0.015294 -136683.000000 0 0 1
-1.933757 32.613656 32.484986 46.072381 -1.511573 0.788252 0.184104 -0.032779 -136672.000000 0 0 1
-1.309957 32.910356 33.728705 47.142688 -1.531014 0.773514 0.148912 -0.036956 45416.600000 0 0 1
0.182543 33.289756 33.540899 47.257095 1.565313 0.781648 0.150951 -0.054820 174343.000000 0 0 1
0.369143 -33.167290 32.962733 46.762668 -1.559667 0.788522 0.168722 -0.055034 -106671.000000 0 0 1
1.737943 -32.987390 32.699046 46.480275 -1.518160 0.790481 0.154963 -0.062362 -215142.000000 0 0 1
2.013143 -31.588090 32.197417 45.150125 -1.507151 0.776859 0.153992 -0.068298 -308064.000000 0 0 1
1.799143 -30.626690 33.196048 45.201865 -1.512119 0.746021 0.141177 -0.056413 147357.000000 0 0 1
1.941643 -29.362990 32.657879 43.960121 -1.504767 0.733407 0.116869 -0.055444 -186163.000000 0 0 1
1.507543 -28.289990 33.702135 44.027606 -1.517558 0.699014 0.115181 -0.049234 543075.000000 0 0 1
0.091943 -28.250990 -33.791605 44.045425 -1.567542 2.445259 0.112045 -0.047685 427088.000000 0 0 1
-0.262957 -27.472790 -32.644465 42.667135 1.561225 2.441987 0.100931 -0.038441 -449123.000000 0 0 1
-1.786457 -27.397090 -32.505305 42.548641 1.505682 2.440219 0.141638 -0.033386 -381795.000000 0 0 1
-2.070457 -26.731490 -31.303585 41.216184 1.493497 2.433336 0.150564 -0.029571 -376146.000000 0 0 1
-3.412757 -26.335590 -31.334785 41.074067 1.441927 2.438560 0.167404 -0.036797 -375623.000000 0 0 1
-3.621457 -25.621290 -29.991375 39.611211 1.430381 2.429726 0.184373 -0.045364 -163631.000000 0 0 1
-3.886657 -26.509690 -28.861065 39.380590 1.425221 2.393335 0.189769 -0.049615 -15780.100000 0 0 1
-4.019957 -25.853490 -27.657125 38.072031 1.416542 2.383927 0.214704 -0.044310 -484898.000000 0 0 1
-2.733957 -25.483390 -26.922165 37.170965 1.463921 2.380785 0.210298 -0.047347 -445191.000000 0 0 1
-2.019857 -24.456290 -27.577145 36.914616 1.488393 2.414413 0.231704 -0.049563 -548861.000000 0 0 1
-0.934857 -24.061790 -26.821145 36.044660 1.531964 2.409996 0.184307 -0.044732 -1553930.000000 0 0 1
-0.157857 -22.918390 -27.489285 35.790199 1.563909 2.446614 0.134014 -0.035852 92924.200000 0 0 1
0.533143 -23.237490 -28.677275 36.914107 -1.547857 2.460468 0.081103 -0.036027 671801.000000 0 0 1
1.685643 -24.097790 -28.519335 37.375090 -1.500960 2.438827 0.051508 -0.016657 -27848.500000 0 0 1
2.577543 -24.287790 -29.723685 38.471261 -1.465067 2.453755 0.048292 -0.022057 -522340.000000 0 0 1
3.470443 -23.234890 -29.939805 38.056485 -1.422529 2.476274 0.070394 -0.029003 -336796.000000 0 0 1
4.178143 -23.583590 -31.126555 39.274738 -1.395453 2.485749 0.072152 -0.024595 -708116.000000 0 0 1
5.289943 -22.589190 -31.497275 39.119475 -1.340761 2.506735 0.093650 -0.043761 -394122.000000 0 0 1
6.447143 -22.476890 -30.673835 38.570201 -1.291462 2.490254 0.060141 -0.033748 959402.000000 0 0 1
7.404543 -23.540290 -30.707015 39.394077 -1.266047 2.464636 0.075541 -0.028554 228466.000000 0 0 1
8.109743 -23.922490 -32.044785 40.803452 -1.243954 2.474049 0.087612 -0.025661 -565438.000000 0 0 1
7.237343 -24.682790 -32.847805 41.720469 -1.285577 2.477264 0.070186 -0.030318 -20710.300000 0 0 1
7.355043 -24.426190 33.436990 42.056720 -1.278319 0.651714 0.088184 -0.039735 -8248.090000 0 0 1
6.710443 -23.101990 32.907839 40.763437 -1.288105 0.631254 0.090664 -0.036675 1136140.000000 0 0 1
5.281943 -23.069690 33.211926 40.781632 -1.345720 0.619129 0.098461 -0.039299 1169430.000000 0 0 1
4.767243 -21.984190 32.503004 39.528174 -1.357254 0.605400 0.127173 -0.048209 247257.000000 0 0 1
3.283643 -21.719590 32.903027 39.561750 -1.420749 0.588656 0.096229 -0.043384 339268.000000 0 0 1
2.306543 -22.627690 32.486425 39.657285 -1.469213 0.610818 0.092295 -0.046366 -153695.000000 0 0 1
1.948443 -23.573690 33.479360 40.992473 -1.488330 0.615093 0.089305 -0.033549 -215614.000000 0 0 1
0.648143 -24.341290 33.170584 41.148586 -1.544175 0.633235 0.097135 -0.030273 35150.100000 0 0 1
0.650043 -25.175190 32.083112 40.786503 -1.544981 0.665495 0.102265 -0.031500 554440.000000 0 0 1
-0.668357 -25.659990 31.800889 40.867815 1.544756 0.679097 0.117963 -0.033536 481221.000000 0 0 1
-0.764557 -26.618490 30.591755 40.558403 1.542081 0.716263 0.118494 -0.048479 126427.000000 0 0 1
-2.095657 -26.529190 30.116635 40.189568 1.491966 0.723695 0.138484 -0.048091 245145.000000 0 0 1
-2.383057 -27.625990 29.230175 40.289917 1.484748 0.759041 0.156086 -0.052671 -390590.000000 0 0 1
-3.834057 -27.709690 28.774205 40.130808 1.433304 0.771292 0.175917 -0.045925 -633789.000000 0 0 1
-4.812857 -28.298290 29.584625 41.221437 1.402332 0.770303 0.177538 -0.048820 242736.000000 0 0 1
-6.001357 -28.429290 28.811945 40.919054 1.362753 0.789613 0.150024 -0.040165 -20427.800000 0 0 1
-7.237757 -28.963690 29.521095 41.985420 1.325921 0.791010 0.099188 -0.028151 -122236.000000 0 0 1
-8.270357 -29.525790 28.677405 41.982909 1.297689 0.818834 0.107044 -0.027190 406442.000000 0 0 1
-9.494557 -29.708390 29.318645 42.805584 1.261464 0.816295 0.087351 -0.020279 -554969.000000 0 0 1
-9.553757 -30.869190 30.356675 44.336315 1.270654 0.816617 0.048230 -0.003649 -796060.000000 0 0 1
-9.475857 -32.167990 29.726055 44.813054 1.284325 0.845530 0.069469 -0.008158 441866.000000 0 0 1
-10.752057 -32.539490 29.241655 45.049967 1.251660 0.864404 0.055741 -0.004140 -69201.800000 0 0 1
-10.746857 33.677056 28.809205 45.602734 -1.261896 0.886997 0.067592 -0.002305 -436248.000000 0 0 1
-10.601557 32.817756 29.935125 45.667382 -1.258335 0.855947 0.069720 0.002239 363155.000000 0 0 1
-10.379257 31.452156 29.522755 44.368459 -1.252047 0.842767 0.078323 0.001389 -327454.000000 0 0 1
-10.916157 30.407056 30.519265 44.442964 -1.226126 0.813848 0.060255 -0.000467 -230199.000000 0 0 1
-12.307657 30.264556 30.341765 44.587492 -1.184554 0.822352 0.061848 0.009316 -105559.000000 0 0 1
-12.867757 29.173056 31.056345 44.510032 -1.155382 0.798561 0.059512 -0.005378 66451.500000 0 0 1
-13.048357 29.249956 32.608590 45.707108 -1.151192 0.776423 0.064235 -0.016446 -470191.000000 0 0 1
-14.158957 29.999556 33.036731 46.817465 -1.129821 0.787457 0.072615 -0.006603 88249.900000 0 0 1
-14.403857 29.662856 -33.262735 46.837652 -1.118747 2.360537 0.074278 -0.012594 -474429.000000 0 0 1
-15.681857 30.293756 -32.739215 47.280953 -1.093121 2.335662 0.068526 -0.015112 -456431.000000 0 0 1
-15.789757 29.807456 -31.405205 46.087827 -1.083652 2.320499 0.060129 -0.014727 543463.000000 0 0 1
-17.072557 30.180156 -30.882865 46.433451 -1.055988 2.298423 0.080100 -0.020284 635327.000000 0 0 1
-17.234857 29.658656 -29.440435 45.204152 -1.044384 2.280063 0.099363 -0.027730 -335705.000000 0 0 1
-17.371257 28.241556 -29.284535 44.237202 -1.019351 2.294266 0.088161 -0.032629 93995.300000 0 0 1
-17.469457 27.814056 -27.930285 43.115014 -1.009985 2.275501 0.108939 -0.034263 -102184.000000 0 0 1
-18.016757 26.413756 -27.706095 42.307420 -0.972187 2.284814 0.070782 -0.033512 -624395.000000 0 0 1
-19.332457 26.174656 -28.066235 42.971736 -0.934635 2.282510 0.079479 -0.033384 -869964.000000 0 0 1
-19.738057 24.863556 -27.698315 42.130559 -0.899814 2.288213 0.062266 -0.028648 -107320.000000 0 0 1
-21.208857 24.599056 -28.064155 42.924655 -0.859273 2.283392 0.085298 -0.023500 -207104.000000 0 0 1
-22.138057 25.200756 -27.204125 43.188379 -0.850006 2.252214 0.082386 -0.029415 43109.300000 0 0 1
-23.474657 24.889956 -27.537315 43.918939 -0.814653 2.248497 0.092719 -0.030057 370587.000000 0 0 1
-24.541457 24.994756 -26.428965 43.880647 -0.794549 2.217166 0.099460 -0.029579 37730.300000 0 0 1
-24.897257 26.312556 -25.976265 44.575670 -0.813028 2.192899 0.068081 -0.020561 882585.000000 0 0 1
-26.093357 26.378356 -25.149985 44.824131 -0.790830 2.166488 0.091269 -0.018228 1043870.000000 0 0 1
-26.031357 25.765156 -23.714965 43.633409 -0.780259 2.145403 0.078426 -0.013150 -688732.000000 0 0 1
-25.770617 24.319656 -23.530165 42.535151 -0.756439 2.156989 0.096994 -0.008260 -50578.700000 0 0 1
-26.928647 23.507456 -23.498465 42.777686 -0.717670 2.152342 0.128136 -0.005460 151568.000000 0 0 1
-27.806837 23.486056 -22.185265 42.626295 -0.701359 2.118185 0.093049 -0.008882 -24478.000000 0 0 1
-27.301367 23.005256 -20.958565 41.398888 -0.700206 2.101638 0.094747 -0.012216 -39349.000000 0 0 1
-26.248457 23.826156 -20.485565 40.942955 -0.737062 2.094792 0.088963 -0.003691 179315.000000 0 0 1
-25.527097 23.296456 -19.204565 39.536981 -0.739742 2.078002 0.081253 -0.004377 989156.000000 0 0 1
-26.374527 23.453456 -18.041965 39.638274 -0.726842 2.043354 0.078714 0.003392 1511750.000000 0 0 1
-25.430787 23.444956 -16.953265 38.520178 -0.744790 2.026522 0.106251 -0.019664 796297.000000 0 0 1
-26.102477 23.595256 -15.561765 38.473939 -0.734991 1.987202 0.104820 -0.025372 -21937.100000 0 0 1
-26.548507 24.880256 -15.243565 39.448912 -0.752971 1.967535 0.112090 -0.025410 57950.200000 0 0 1
-27.124507 24.955956 -13.929965 39.402824 -0.743784 1.932135 0.070674 -0.030833 191602.000000 0 0 1
-27.016467 26.347356 -13.311565 40.015877 -0.772860 1.909916 0.069400 -0.021229 648638.000000 0 0 1
-25.662817 26.648056 -12.982065 39.207564 -0.804230 1.908277 0.112409 -0.041473 159438.000000 0 0 1
-25.542797 27.758656 -12.124965 39.623128 -0.826946 1.881793 0.125573 -0.036881 -291460.000000 0 0 1
-24.119657 28.253356 -11.848265 38.992196 -0.864163 1.879541 0.137729 -0.041603 -108252.000000 0 0 1
-23.282857 27.213656 -11.308765 37.557458 -0.863084 1.876648 0.141108 -0.045511 737369.000000 0 0 1
-22.140157 27.798556 -10.632665 37.094472 -0.898224 1.861511 0.132757 -0.047318 563052.000000 0 0 1
-21.389457 26.676556 -9.885565 35.593144 -0.894954 1.852235 0.189493 -0.049249 181508.000000 0 0 1
-20.748757 25.742756 -10.756765 34.769360 -0.892405 1.885332 0.184653 -0.060744 88369.100000 0 0 1
-19.942557 24.794056 -10.085965 33.379297 -0.893422 1.877756 0.190828 -0.051645 64383.600000 0 0 1
-19.356557 23.814656 -11.168165 32.657956 -0.888299 1.919813 0.181911 -0.056185 119790.000000 0 0 1
-18.476757 22.836356 -10.607365 31.231489 -0.890535 1.917327 0.151524 -0.045010 -90738.500000 0 0 1
-17.846857 22.215456 -11.644565 30.783643 -0.894014 1.958724 0.156836 -0.031722 -27356.100000 0 0 1
-17.198657 20.912156 -11.159565 29.285627 -0.882531 1.961738 0.138769 -0.015501 991851.000000 0 0 1
-18.295757 19.985956 -10.859465 29.190772 -0.829521 1.951977 0.150827 -0.015218 1482250.000000 0 0 1
-17.841757 18.632956 -10.650765 27.909750 -0.807086 1.962339 0.164351 -0.032382 46313.900000 0 0 1
-19.135557 17.771356 -10.423165 28.118197 -0.748452 1.950549 0.148870 -0.018186 1113270.000000 0 0 1
-19.999657 17.374556 -11.484565 28.874846 -0.715275 1.979844 0.140740 -0.017531 548094.000000 0 0 1
-20.599957 18.473356 -12.177865 30.231168 -0.731026 1.985397 0.161240 -0.027492 -937166.000000 0 0 1
-21.436057 17.871456 -13.334565 30.930634 -0.694961 2.016521 0.162463 -0.029617 -21144.900000 0 0 1
-20.689057 17.484256 -14.456765 30.703979 -0.701641 2.061043 0.155354 -0.037647 1179090.000000 0 0 1
-21.638357 16.980856 -15.436365 31.541232 -0.665377 2.082201 0.142406 -0.032761 1013280.000000 0 0 1
-20.813257 16.339656 -16.600365 31.236968 -0.665565 2.131088 0.175818 -0.032556 508539.000000 0 0 1
-20.014957 17.302156 -17.288565 31.604708 -0.712830 2.149603 0.152221 -0.032570 551383.000000 0 0 1
-19.191057 16.741656 -18.288365 31.353533 -0.717337 2.193576 0.140105 -0.023123 -18243.800000 0 0 1
-18.171857 17.706056 -18.975765 31.682810 -0.772416 2.212960 0.106633 -0.018677 167612.000000 0 0 1
-17.081757 18.130556 -18.169565 30.832395 -0.815174 2.200990 0.119873 -0.020580 521662.000000 0 0 1
-16.583657 19.412056 -18.578665 31.575503 -0.863813 2.199861 0.118438 -0.017640 46221.700000 0 0 1
34.461798 30.370356 2.223635 45.988244 0.722374 1.522425 0.103325 -0.020622 -477823.000000 0 0 1
35.739378 30.471056 1.691035 46.996255 0.705996 1.534806 0.122059 -0.023540 -431091.000000 0 0 1
35.675078 30.939356 0.337635 47.223606 0.714426 1.563647 0.115249 -0.020358 232988.000000 0 0 1
37.072208 30.925156 -0.336465 48.278640 0.695242 1.577766 0.082159 -0.016938 335178.000000 0 0 1
-37.358977 31.819156 0.255535 49.073589 -0.705488 1.565589 0.063795 -0.013291 184900.000000 0 0 1
-36.202027 31.881856 -0.550365 48.242537 -0.722029 1.582205 0.067956 -0.010724 142361.000000 0 0 1
-35.110935 32.912156 -0.146465 48.124934 -0.753085 1.573840 0.044538 -0.008709 328493.000000 0 0 1
-34.462326 32.605656 1.092935 47.454981 -0.757722 1.547763 0.033163 -0.003163 56353.300000 0 0 1
-33.732787 33.719456 1.548035 47.721055 -0.785201 1.538351 0.025996 0.001565 -320035.000000 0 0 1
-32.870257 33.381656 2.778235 46.930879 -0.793117 1.511563 0.063922 -0.001065 -157676.000000 0 0 1
-32.418417 -33.154890 3.416135 46.495919 0.796629 1.497258 0.054368 0.004673 143686.000000 0 0 1
-31.855817 -33.453190 4.735935 46.436388 0.809852 1.468631 0.081578 -0.010665 -126900.000000 0 0 1
-31.815067 -32.206090 5.616535 45.617718 0.791506 1.447361 0.088242 -0.009070 885173.000000 0 0 1
-33.027237 -31.649690 6.199235 46.162017 0.764102 1.436096 0.076813 -0.008989 494398.000000 0 0 1
-33.576267 -32.372590 7.253035 47.201238 0.767149 1.416523 0.068554 -0.026257 -211528.000000 0 0 1
-34.765808 -31.628890 7.982635 47.673584 0.738187 1.402560 0.076092 -0.025454 772539.000000 0 0 1
-36.039507 -31.573090 7.396235 48.481031 0.719435 1.417639 0.037274 -0.013322 249229.000000 0 0 1
-36.721437 -32.849790 7.180935 49.790948 0.729805 1.426070 0.037794 -0.021059 -698034.000000 0 0 1
37.117178 -32.742690 7.049835 49.994688 -0.722862 1.429313 0.033951 -0.017228 -610420.000000 0 0 1
36.556798 -32.531190 8.328635 49.639138 -0.727196 1.402215 0.024635 -0.014916 352658.000000 0 0 1
35.168568 -32.333490 8.067635 48.449659 -0.743423 1.403501 0.031902 -0.008581 -198197.000000 0 0 1
34.292718 -32.525390 9.290535 48.168512 -0.758954 1.376704 0.035754 -0.018751 -941872.000000 0 0 1
32.941198 -32.421290 8.924835 47.073509 -0.777444 1.380048 0.039777 -0.024103 -398709.000000 0 0 1
32.021948 -32.398490 9.973935 46.632035 -0.791243 1.355245 0.047188 -0.028228 -218464.000000 0 0 1
31.934028 -31.144090 10.868335 45.911406 -0.772876 1.331804 0.055861 -0.026472 -949093.000000 0 0 1
31.311478 -29.975690 10.369635 44.569945 -0.763606 1.335985 0.066047 -0.031516 56111.100000 0 0 1
31.792628 -29.499490 9.178335 44.330948 -0.748002 1.362247 0.071646 -0.026429 -286259.000000 0 0 1
31.391048 -28.023590 9.022435 43.036308 -0.728781 1.359582 0.077005 -0.027683 -87843.900000 0 0 1
31.505508 -27.564690 7.663435 42.557460 -0.718783 1.389736 0.079184 -0.020708 -29092.100000 0 0 1
31.040948 -26.234390 7.554435 41.338277 -0.701674 1.387017 0.090798 -0.016990 98188.400000 0 0 1
31.233068 -25.589790 6.132335 40.840512 -0.686409 1.420073 0.085523 -0.009330 750455.000000 0 0 1
32.573488 -25.306790 5.725735 41.644325 -0.660505 1.432868 0.069710 -0.010416 234304.000000 0 0 1
32.582588 -24.781490 4.457835 41.177902 -0.650235 1.462326 0.075671 -0.008053 122043.000000 0 0 1
34.001268 -24.254990 4.153135 41.971887 -0.619633 1.471684 0.066224 -0.011551 167869.000000 0 0 1
34.908648 -25.304790 3.930735 43.294304 -0.627233 1.479880 0.059053 -0.010230 -167891.000000 0 0 1
36.261738 -24.846890 3.924435 44.132559 -0.600730 1.481755 0.063602 -0.015422 552717.000000 0 0 1
37.146828 -26.089190 3.658135 45.540253 -0.612285 1.490382 0.062685 -0.015415 -206902.000000 0 0 1
37.152608 -26.888490 4.778535 46.110103 -0.626476 1.466977 0.047482 -0.012312 -131281.000000 0 0 1
-37.564777 -28.126990 4.556535 47.148723 0.642707 1.474004 0.048463 -0.015176 -919928.000000 0 0 1
37.379048 -29.125190 5.625735 47.719166 -0.661919 1.452629 0.046056 -0.013018 1338010.000000 0 0 1
36.032288 -29.645090 5.560835 46.990212 -0.688452 1.452178 0.033825 -0.013661 860003.000000 0 0 1
34.945488 -28.767690 5.670735 45.617150 -0.688738 1.446162 0.052195 -0.005373 -1754800.000000 0 0 1
33.612458 -29.479390 5.854335 45.089966 -0.719983 1.440592 0.078411 -0.009600 -676481.000000 0 0 1
33.139328 -29.927690 4.593235 44.888523 -0.734518 1.468292 0.069192 -0.017603 -413133.000000 0 0 1
32.187278 -29.039990 4.082735 43.543204 -0.734040 1.476896 0.077987 -0.019014 -561512.000000 0 0 1
30.720448 -29.523790 4.175235 42.811595 -0.765537 1.473115 0.073619 -0.020668 130601.000000 0 0 1
30.516288 -30.535990 3.164435 43.286305 -0.785721 1.497626 0.080661 -0.013643 -952312.000000 0 0 1
29.174258 -30.908490 3.217835 42.624249 -0.814254 1.495231 0.091914 -0.020597 -491304.000000 0 0 1
28.941658 -32.283690 2.635435 43.437331 -0.839930 1.510087 0.091631 -0.017708 -307706.000000 0 0 1
29.099658 -32.321490 1.217935 43.508070 -0.837805 1.542799 0.085143 -0.013135 170892.000000 0 0 1
28.878558 -33.698490 0.770235 44.386401 -0.862270 1.553443 0.082146 -0.012287 -54495.100000 0 0 1
28.699358 33.835056 -0.772565 44.374103 0.867340 1.588207 0.068674 -0.013150 -73399.900000 0 0 1
29.849258 -33.515590 -1.505065 44.905882 -0.843194 1.604319 0.060354 -0.016952 390141.000000 0 0 1
29.500358 -33.646790 -2.897465 44.841643 -0.850967 1.635457 0.056942 -0.016486 41830.300000 0 0 1
30.525708 -33.009690 -3.829565 45.123431 -0.824474 1.655767 0.042140 -0.009811 -109057.000000 0 0 1
30.605668 -31.623690 -3.668065 44.161289 -0.801756 1.653953 0.029349 -0.010266 -198184.000000 0 0 1
31.679168 -31.109990 -4.403165 44.618259 -0.776334 1.669642 0.025257 -0.009169 -467784.000000 0 0 1
31.759778 -29.590190 -4.451065 43.635706 -0.750049 1.672979 0.026035 0.002051 -99415.900000 0 0 1
30.759888 -28.860190 -5.175865 42.495539 -0.753546 1.692897 0.022951 -0.009876 337519.000000 0 0 1
30.999148 -27.489990 -5.147565 41.750978 -0.725473 1.694403 0.025862 -0.010393 469099.000000 0 0 1
32.111068 -26.895590 -6.075965 42.325061 -0.697239 1.714849 0.045252 -0.010707 866581.000000 0 0 1
33.505898 -27.059090 -5.792165 43.455595 -0.679353 1.704483 0.051958 0.001533 699173.000000 0 0 1
34.400108 -26.693590 -6.801965 44.070193 -0.659918 1.725760 0.063483 -0.000617 -43114.900000 0 0 1
34.415778 -27.615390 -8.075865 44.858390 -0.676206 1.751813 0.060744 -0.017233 -327150.000000 0 0 1
33.150158 -27.769190 -8.737465 44.118071 -0.697297 1.770162 0.063804 -0.012598 391839.000000 0 0 1
33.042378 -28.800090 -9.712565 44.895188 -0.716907 1.788859 0.041381 -0.002467 22907.200000 0 0 1
32.952368 -30.225790 -9.005665 45.613145 -0.742268 1.769538 0.040646 0.000205 -872287.000000 0 0 1
34.129778 -30.715790 -8.476265 46.692061 -0.732799 1.753344 0.047521 -0.002364 -1138140.000000 0 0 1
33.880658 -31.830290 -7.649365 47.112410 -0.754205 1.733882 0.060530 -0.016384 745690.000000 0 0 1
35.200648 -32.464490 -7.065665 48.404053 -0.744983 1.717292 0.057595 -0.019471 773344.000000 0 0 1
35.153098 -33.650490 -6.294865 49.068535 -0.763563 1.699438 0.049731 -0.018606 -259572.000000 0 0 1
34.465228 -33.500790 -5.066565 48.330373 -0.771209 1.675821 0.062814 -0.014471 -136362.000000 0 0 1
34.275498 32.861756 -4.400265 47.687180 0.764344 1.663201 0.048186 -0.008780 -16750.800000 0 0 1
33.366338 32.024756 -5.084265 46.526845 0.764885 1.680291 0.058616 -0.018492 -116877.000000 0 0 1
33.463198 30.666956 -4.676265 45.630201 0.741823 1.673458 0.066348 -0.012388 520360.000000 0 0 1
32.231068 29.830256 -5.149165 44.217642 0.746733 1.687512 0.082148 -0.025155 344126.000000 0 0 1
32.189728 29.643556 -6.557365 44.248368 0.744243 1.719539 0.055606 -0.013514 462862.000000 0 0 1
30.937358 29.150356 -7.052365 43.088273 0.755667 1.735209 0.037485 -0.005734 693427.000000 0 0 1
31.123038 28.752856 -8.532565 43.222389 0.745834 1.769512 0.043172 -0.002316 -288225.000000 0 0 1
31.881908 27.593356 -8.791665 43.071368 0.713416 1.776360 0.045992 -0.004017 -140628.000000 0 0 1
32.087028 27.389056 -10.169665 43.395390 0.706573 1.807345 0.043800 -0.006594 367148.000000 0 0 1
33.304288 28.214056 -10.698765 44.940763 0.702843 1.811168 0.047882 -0.009945 -1025970.000000 0 0 1
34.527688 27.776356 -10.203165 45.472979 0.677458 1.797102 0.052669 -0.013005 294282.000000 0 0 1
35.653158 28.487056 -10.791065 46.894639 0.674134 1.802990 0.049074 -0.010172 855200.000000 0 0 1
35.966298 29.879756 -10.209465 47.860293 0.693224 1.785766 0.043589 -0.020599 -642814.000000 0 0 1
36.522528 29.862656 -8.874265 48.004436 0.685411 1.756729 0.053660 -0.017467 151491.000000 0 0 1
36.463318 31.100156 -8.219765 48.624663 0.706185 1.740657 0.045540 -0.017212 -217140.000000 0 0 1
37.573498 31.211256 -7.128265 49.363169 0.693166 1.715707 0.053294 -0.011752 469720.000000 0 0 1
-36.499127 31.562556 -7.560865 48.842071 -0.712994 1.726224 0.059965 -0.015362 161618.000000 0 0 1
-35.648109 30.481856 -7.998965 47.580612 -0.707434 1.739712 0.076457 -0.024010 -110155.000000 0 0 1
-34.306680 30.988856 -8.548565 47.014205 -0.734629 1.753643 0.110345 -0.024877 -729143.000000 0 0 1
-33.540427 31.600356 -7.567665 46.699168 -0.755624 1.733565 0.110997 -0.025557 -731796.000000 0 0 1
-32.193977 31.763956 -7.881865 45.907787 -0.778675 1.743340 0.109043 -0.027924 -381790.000000 0 0 1
-31.800137 32.957156 -8.849365 46.644765 -0.803263 1.761672 0.079448 -0.030081 -400537.000000 0 0 1
-31.851407 -33.501190 -8.279865 46.961666 0.810637 1.748034 0.075367 -0.031079 435955.000000 0 0 1
-30.824877 -33.146390 -7.328765 45.853757 0.821672 1.731314 0.098517 -0.038427 466313.000000 0 0 1
-31.182277 -31.786990 -6.615565 45.016806 0.795001 1.718288 0.088454 -0.044649 149940.000000 0 0 1
-32.323427 -31.703690 -5.799765 45.646086 0.775719 1.698200 0.070908 -0.043086 -330067.000000 0 0 1
-32.101597 -32.344290 -4.550065 45.797039 0.789164 1.670313 0.088231 -0.037786 -425299.000000 0 0 1
-33.215657 -32.423790 -3.501165 46.549331 0.773335 1.646082 0.074562 -0.031722 -417089.000000 0 0 1
-33.736917 -31.151390 -3.158665 46.027881 0.745573 1.639475 0.054619 -0.029353 -356317.000000 0 0 1
-34.555426 -31.170990 -2.059165 46.582704 0.733951 1.615015 0.066874 -0.024282 -651291.000000 0 0 1
-35.070028 -29.797990 -1.682765 46.050611 0.704303 1.607346 0.077965 -0.015781 -191764.000000 0 0 1
-35.946951 -29.941490 -0.586365 46.786964 0.694503 1.583329 0.069033 -0.006908 -110040.000000 0 0 1
-36.682047 -28.723790 -0.423665 46.591933 0.664318 1.579890 0.079515 -0.012449 633025.000000 0 0 1
37.595608 -28.704790 0.737835 47.306861 -0.652094 1.555199 0.076474 -0.008628 202000.000000 0 0 1
36.466038 -29.465590 0.331035 46.883926 -0.679617 1.563736 0.049070 -0.004612 -622051.000000 0 0 1
35.468138 -29.612490 1.245635 46.221640 -0.695665 1.543844 0.052890 -0.013181 -639255.000000 0 0 1
34.514648 -28.442590 1.436835 44.747138 -0.689248 1.538681 0.048877 0.003758 -1358090.000000 0 0 1
33.396428 -28.328190 0.606435 43.796981 -0.703471 1.556949 0.050275 -0.005779 -364903.000000 0 0 1
32.860438 -27.065690 0.683435 42.577307 -0.689000 1.554744 0.052809 -0.009248 -322695.000000 0 0 1
31.557578 -26.862690 -0.118665 41.442719 -0.705206 1.573660 0.053228 -0.021371 817081.000000 0 0 1
30.319558 -27.336590 0.465735 40.826238 -0.733707 1.559388 0.061758 -0.006199 1005490.000000 0 0 1
29.993558 -28.714990 0.500935 41.526078 -0.763623 1.558733 0.066692 -0.010271 -375088.000000 0 0 1
29.734658 -29.366390 -0.840865 41.800022 -0.779167 1.590914 0.044688 -0.007518 34251.200000 0 0 1
28.507158 -28.881390 -1.378065 40.604086 -0.791919 1.604742 0.056351 -0.009596 302808.000000 0 0 1
28.328758 -29.293990 -2.725065 40.842164 -0.802147 1.637568 0.052493 -0.009528 -225037.000000 0 0 1
26.900558 -29.785390 -2.997165 40.246646 -0.836246 1.645335 0.072603 -0.021430 -28551.800000 0 0 1
25.886758 -28.788990 -2.993965 38.831611 -0.838429 1.647974 0.082793 -0.027379 254027.000000 0 0 1
24.686558 -29.475990 -3.391265 38.597420 -0.873596 1.658772 0.069089 -0.023457 291466.000000 0 0 1
23.462558 -28.542290 -3.416665 37.105627 -0.882767 1.663006 0.070358 -0.019786 -114699.000000 0 0 1
23.462258 -27.701790 -4.537565 36.584918 -0.868071 1.695145 0.082736 -0.032266 -143687.000000 0 0 1
22.527158 -26.673190 -4.417765 35.191598 -0.869468 1.696663 0.082306 -0.033591 -812715.000000 0 0 1
22.140358 -25.887590 -5.660665 34.531231 -0.863262 1.735468 0.091559 -0.044201 -398271.000000 0 0 1
21.087958 -26.521590 -6.325065 34.468872 -0.899036 1.755343 0.099419 -0.036003 -572171.000000 0 0 1
20.529258 -25.737990 -7.359365 33.735068 -0.897505 1.790717 0.118256 -0.043514 -628225.000000 0 0 1
19.027658 -25.843290 -7.498765 32.956925 -0.936140 1.800339 0.096735 -0.033232 -513419.000000 0 0 1
18.330058 -25.043390 -6.553565 31.719263 -0.938959 1.778907 0.084089 -0.025249 -265027.000000 0 0 1
16.937558 -25.218790 -6.569665 31.081003 -0.979369 1.783775 0.077854 -0.026015 -60103.800000 0 0 1
16.091758 -24.252390 -5.754465 29.668788 -0.984981 1.765990 0.066419 -0.012167 -206604.000000 0 0 1
16.119458 -24.659090 -4.404665 29.787728 -0.991830 1.719209 0.065739 -0.008347 257138.000000 0 0 1
15.451558 -23.829790 -3.437565 28.608153 -0.995537 1.691248 0.071149 -0.010153 51065.900000 0 0 1
15.354058 -24.597790 -2.144065 29.075684 -1.012769 1.644604 0.072275 -0.008468 159536.000000 0 0 1
14.680158 -25.852890 -2.213265 29.812372 -1.054364 1.645105 0.075358 -0.013234 411943.000000 0 0 1
15.168258 -26.651990 -1.122965 30.686572 -1.053390 1.607399 0.081256 -0.012665 -50116.200000 0 0 1
14.663058 -28.071690 -1.149965 31.691442 -1.089434 1.607091 0.091741 -0.018118 -612651.000000 0 0 1
13.365558 -28.189890 -0.651965 31.204697 -1.128061 1.591691 0.095671 -0.022235 -310629.000000 0 0 1
12.627058 -29.372890 -0.987465 31.987253 -1.164793 1.601672 0.083594 -0.023130 474085.000000 0 0 1
13.235958 -30.809390 -0.561665 33.536914 -1.165029 1.587545 0.093459 -0.023740 -558703.000000 0 0 1
14.430058 -31.075390 -1.217665 34.283949 -1.136068 1.606321 0.105167 -0.020627 -670480.000000 0 0 1
15.081358 -32.279190 -0.807065 35.637688 -1.133718 1.593445 0.101750 -0.024838 459590.000000 0 0 1
16.452258 -32.439990 -1.549465 36.406464 -1.101437 1.613369 0.091658 -0.020229 613354.000000 0 0 1
17.441658 -31.677290 -0.894665 36.172677 -1.067489 1.595532 0.086648 -0.015459 -348296.000000 0 0 1
18.647158 -31.463990 -1.597065 36.609422 -1.035798 1.614435 0.081304 -0.021206 195005.000000 0 0 1
19.463958 -30.397490 -0.817865 36.104321 -1.001260 1.593451 0.079049 -0.015336 -142397.000000 0 0 1
19.203458 -29.092490 -1.332065 34.884383 -0.987366 1.608991 0.089980 -0.018578 144522.000000 0 0 1
19.755558 -28.061690 -0.525865 34.322253 -0.957388 1.586118 0.072337 -0.010299 11671.900000 0 0 1
19.462158 -26.620890 -0.994465 32.991459 -0.939511 1.600944 0.076295 -0.008459 -340112.000000 0 0 1
20.124658 -26.353990 -2.192965 33.231668 -0.918630 1.636835 0.068855 -0.014084 -490713.000000 0 0 1
19.322458 -26.045490 -3.278765 32.595632 -0.932517 1.671556 0.077587 -0.014231 -1001100.000000 0 0 1
34.052638 -29.850290 13.362435 47.214157 -0.719731 1.283857 0.052658 -0.044614 -105741.000000 0 0 1
34.526218 -29.649390 14.633535 47.804669 -0.709552 1.259691 0.053650 -0.046464 -20287.400000 0 0 1
33.767608 -30.352590 15.609835 48.012478 -0.732189 1.239657 0.040555 -0.033418 158766.000000 0 0 1
34.507218 -30.307790 17.022535 48.980373 -0.720698 1.215852 0.047701 -0.027917 185809.000000 0 0 1
33.923388 -30.969490 18.162135 49.394015 -0.739910 1.194263 0.039644 -0.022062 484181.000000 0 0 1
34.857338 -31.153490 19.239235 50.554151 -0.729347 1.180387 0.032357 -0.020805 585628.000000 0 0 1
35.703468 -32.498690 19.178735 51.949267 -0.738443 1.192668 0.026493 -0.015986 -472710.000000 0 0 1
36.662398 -32.491090 18.191835 52.256533 -0.725152 1.215225 0.038815 -0.016484 -747324.000000 0 0 1
37.256018 -33.751890 18.153435 53.448556 -0.736090 1.224259 0.060691 -0.017010 -79983.000000 0 0 1
-36.926547 -33.854890 17.131235 52.945280 0.742029 1.241302 0.066528 -0.017910 352126.000000 0 0 1
-35.797560 -33.115390 17.583535 51.838934 0.746497 1.224735 0.089717 -0.023351 496389.000000 0 0 1
-34.932455 -32.825190 16.475335 50.687338 0.754308 1.239744 0.101175 -0.021935 278985.000000 0 0 1
-33.755687 -31.864390 16.879935 49.393501 0.756584 1.222024 0.084154 -0.020222 812726.000000 0 0 1
-32.601437 -31.948190 16.038835 48.381658 0.775278 1.232896 0.101671 -0.027016 424724.000000 0 0 1
-32.717627 -31.117990 14.886635 47.543499 0.760345 1.252324 0.102423 -0.033456 -573554.000000 0 0 1
-31.515777 -31.205290 13.933935 46.488374 0.780448 1.266387 0.092927 -0.036032 641788.000000 0 0 1
-30.310517 -30.798990 14.603935 45.613377 0.793391 1.244890 0.075708 -0.038036 -42220.700000 0 0 1
-29.238047 -30.665890 13.728435 44.539086 0.809229 1.257461 0.079201 -0.033342 778340.000000 0 0 1
-27.886147 -30.153090 14.359435 43.509073 0.824437 1.234458 0.076567 -0.036375 558860.000000 0 0 1
-26.784867 -30.335790 13.542335 42.674162 0.847484 1.247870 0.081797 -0.038794 -595230.000000 0 0 1
-25.594877 -29.995190 14.234935 41.921862 0.864390 1.224349 0.070951 -0.028876 -244037.000000 0 0 1
-24.321057 -29.988890 13.410435 40.874040 0.889383 1.236514 0.082849 -0.027967 -391135.000000 0 0 1
-23.933357 -31.231990 12.874435 41.400409 0.916939 1.254579 0.091256 -0.048308 -41376.400000 0 0 1
-22.676957 -31.194490 12.237735 40.461127 0.942209 1.263527 0.082710 -0.045926 168274.000000 0 0 1
-22.094257 -32.560890 11.796435 41.079480 0.974610 1.279534 0.067386 -0.036552 10136.900000 0 0 1
-22.845057 -33.162290 10.772335 41.685457 0.967568 1.309411 0.061278 -0.036183 -122718.000000 0 0 1
-22.640957 33.177256 10.762135 41.583252 -0.971964 1.309007 0.073911 -0.026476 87483.100000 0 0 1
-23.538257 32.370056 9.803135 41.206450 -0.942073 1.330590 0.074233 -0.020624 7288.120000 0 0 1
-23.330857 32.875656 8.503835 41.200156 -0.953610 1.362899 0.065747 -0.022106 -110325.000000 0 0 1
-24.420757 32.719156 7.622335 41.533318 -0.929619 1.386227 0.074805 -0.022324 -612133.000000 0 0 1
-24.120857 33.019956 6.119535 41.347091 -0.939897 1.422247 0.063803 -0.015671 -588560.000000 0 0 1
-23.301957 32.125056 5.403435 40.052435 -0.943258 1.435475 0.062860 -0.016384 345928.000000 0 0 1
-21.917357 32.096456 5.724435 39.285140 -0.971667 1.424561 0.063525 -0.024087 273071.000000 0 0 1
-21.014457 33.331356 5.417435 39.773550 -1.008272 1.434165 0.073653 -0.026843 -666810.000000 0 0 1
-21.079257 -33.324090 6.335235 39.937016 1.006784 1.411493 0.069163 -0.028476 -53694.800000 0 0 1
-20.352757 -33.470190 7.545435 39.892630 1.024452 1.380506 0.065901 -0.035292 -264963.000000 0 0 1
-20.370757 -32.199690 8.431135 39.023990 1.006723 1.353029 0.063749 -0.036325 -739950.000000 0 0 1
-19.628357 -31.117190 7.908035 37.630957 1.008046 1.359071 0.060565 -0.043177 -170492.000000 0 0 1
-19.625257 -29.959290 8.751335 36.868627 0.990869 1.331144 0.058822 -0.039942 46317.600000 0 0 1
-19.011457 -30.025690 10.192435 36.971114 1.006341 1.291493 0.055535 -0.032730 731868.000000 0 0 1
-17.637757 -30.417990 10.211635 36.614507 1.045328 1.288152 0.057972 -0.038430 247404.000000 0 0 1
-17.010657 -30.294790 11.458335 36.584562 1.059164 1.252234 0.074640 -0.032186 480918.000000 0 0 1
-15.645057 -31.058590 11.496035 36.627348 1.104171 1.251536 0.088032 -0.034850 -145077.000000 0 0 1
-14.656057 -30.382690 10.813635 35.423757 1.121342 1.260580 0.103011 -0.037610 -747051.000000 0 0 1
-13.737957 -31.355290 10.327335 35.756671 1.157850 1.277800 0.116731 -0.034346 246996.000000 0 0 1
-12.470057 -30.781190 9.650835 34.585005 1.185884 1.287995 0.121138 -0.028533 128997.000000 0 0 1
-11.606257 -30.077290 10.502135 33.906392 1.202520 1.255878 0.125838 -0.027628 -242423.000000 0 0 1
-10.635157 -29.353490 9.786735 32.718712 1.223194 1.267029 0.133769 -0.028151 33936.000000 0 0 1
-9.547357 -28.668990 10.624035 32.030191 1.249327 1.232704 0.134271 -0.017341 214960.000000 0 0 1
-10.077557 -27.597590 11.438035 31.527968 1.220680 1.199536 0.107921 -0.018949 -213046.000000 0 0 1
-9.278557 -27.289990 12.552235 31.438731 1.243059 1.160086 0.107383 -0.005301 58950.900000 0 0 1
-9.766157 -25.990790 13.292335 30.782871 1.211364 1.124298 0.090288 -0.012623 215954.000000 0 0 1
-9.381557 -24.774290 12.676835 29.368030 1.208802 1.124470 0.072403 -0.011841 -473871.000000 0 0 1
-10.044557 -24.388390 11.509335 28.777621 1.180109 1.159344 0.074593 -0.009725 -173588.000000 0 0 1
-9.472657 -23.115390 10.840435 27.231737 1.181871 1.161372 0.063617 -0.012495 -180637.000000 0 0 1
-8.234457 -23.243490 10.199535 26.685139 1.230323 1.178601 0.056859 -0.016331 -634330.000000 0 0 1
-7.815257 -22.019290 9.761535 25.322222 1.229738 1.175054 0.055628 -0.010940 541055.000000 0 0 1
-6.565857 -22.229790 8.831935 24.804780 1.283599 1.206751 0.056674 -0.014311 795833.000000 0 1 0
-5.328657 -22.540990 9.415135 25.002712 1.338659 1.184711 0.064001 -0.024263 218867.000000 0 0 1
-4.247257 -22.657290 8.470135 24.558811 1.385490 1.218673 0.064812 -0.027526 1204440.000000 0 1 0
-3.049757 -23.468690 9.066735 25.343364 1.441570 1.204933 0.076195 -0.025286 269942.000000 0 0 1
-2.152057 -22.830890 9.947635 24.996726 1.476813 1.161507 0.074790 -0.022081 -794266.000000 0 1 0
-1.233657 -23.751390 10.418535 25.965290 1.518903 1.157917 0.071419 -0.033136 -233134.000000 0 0 1
-0.307457 -23.051890 11.447035 25.739440 1.557460 1.109926 0.068256 -0.032774 -318609.000000 0 0 1
-0.804557 -22.915390 12.740335 26.231251 1.535701 1.063641 0.078801 -0.028773 -321518.000000 0 0 1
0.146743 -22.803490 13.806535 26.657852 -1.564361 1.026383 0.100290 -0.029335 64752.600000 0 0 1
0.886343 -21.461090 13.995035 25.636400 -1.529520 0.993328 0.080233 -0.022073 511232.000000 0 0 1
1.988143 -21.262290 13.089535 25.047427 -1.477562 1.020910 0.076055 -0.028921 260106.000000 0 0 1
2.315943 -19.854090 13.027635 23.859333 -1.454673 0.993192 0.062873 -0.022318 417107.000000 0 1 0
3.808743 -19.546090 12.719435 23.629223 -1.378348 1.002387 0.080924 -0.022174 432918.000000 0 1 0
4.168243 -19.953990 11.438335 23.374590 -1.364865 1.059453 0.072172 -0.018624 -897893.000000 0 1 0
5.552343 -20.091590 11.311835 23.716199 -1.301174 1.073596 0.112722 -0.022537 -113337.000000 0 1 0
5.952743 -20.894390 10.022635 23.926218 -1.293253 1.138565 0.109235 -0.032950 -258546.000000 0 1 0
5.744343 -20.239990 8.789735 22.801625 -1.294257 1.175061 0.085728 -0.032698 -358003.000000 0 1 0
6.157543 -21.047690 7.705035 23.244099 -1.286187 1.232921 0.091799 -0.040067 297050.000000 0 1 0
7.647443 -21.419690 7.485135 23.943971 -1.227874 1.252856 0.094676 -0.030635 271190.000000 0 1 0
8.556743 -20.415990 7.053835 23.233318 -1.173917 1.262319 0.100208 -0.037474 183200.000000 0 1 0
9.067743 -19.425490 7.977835 22.873991 -1.134063 1.214535 0.104240 -0.027865 521433.000000 0 1 0
10.019843 -19.784890 9.175735 24.000692 -1.102011 1.178500 0.102124 -0.021234 484354.000000 0 1 0
9.362543 -20.226790 10.375435 24.585156 -1.137285 1.135124 0.123318 -0.021951 -224707.000000 0 1 0
10.037543 -19.743390 11.523535 24.966890 -1.100451 1.091052 0.116802 -0.012314 358848.000000 0 1 0
9.261843 -19.955490 12.866335 25.486190 -1.136258 1.041605 0.140365 -0.022748 237583.000000 0 0 1
9.277043 -21.338590 13.206035 26.754407 -1.160693 1.054569 0.120555 -0.018017 -639763.000000 0 0 1
8.342043 -21.747890 14.139735 27.248716 -1.204525 1.025217 0.154238 -0.024257 -234336.000000 0 0 1
8.493243 -23.200390 14.551035 28.672738 -1.219867 1.038531 0.152042 -0.033678 226091.000000 0 0 1
8.319243 -24.163890 13.532735 28.917785 -1.239223 1.083801 0.161246 -0.035406 -166475.000000 0 0 1
8.244643 -25.488090 14.075435 30.261109 -1.257949 1.087012 0.169696 -0.040762 151316.000000 0 0 1
8.415543 -26.678790 13.118535 30.897818 -1.265236 1.132301 0.182915 -0.052093 735142.000000 0 0 1
9.753743 -26.829190 12.621735 31.212964 -1.222102 1.154501 0.158230 -0.042872 584723.000000 0 0 1
9.857243 -27.836290 11.684335 31.757644 -1.230460 1.194023 0.143874 -0.048061 331736.000000 0 0 1
11.354043 -27.953790 11.267135 32.206785 -1.184981 1.213399 0.129064 -0.041597 440244.000000 0 0 1
12.152743 -28.571990 12.254535 33.379955 -1.168640 1.194883 0.107199 -0.034058 792599.000000 0 0 1
13.449543 -28.882190 11.711035 33.944358 -1.134989 1.218550 0.140598 -0.029014 754621.000000 0 0 1
14.456243 -29.662290 12.565835 35.309129 -1.117311 1.206940 0.100897 -0.029782 -448949.000000 0 0 1
14.927443 -28.925590 13.619635 35.284738 -1.094381 1.174513 0.081495 -0.025801 324122.000000 0 0 1
15.907543 -29.437890 14.531735 36.480277 -1.075372 1.161085 0.067108 -0.020285 2029210.000000 0 0 1
17.384543 -29.740690 13.987835 37.180512 -1.041824 1.185089 0.070809 -0.016854 908318.000000 0 0 1
17.971143 -28.534890 13.661035 36.384417 -1.008756 1.185899 0.060666 -0.020974 -336079.000000 0 0 1
19.213243 -28.702590 13.031035 36.916057 -0.980910 1.210030 0.063807 -0.018801 -96583.500000 0 0 1
19.998243 -27.467790 12.561835 36.224424 -0.941484 1.216663 0.035726 -0.023307 1650090.000000 0 0 1
21.405843 -27.736090 12.269235 37.121893 -0.913508 1.233950 0.039800 -0.026268 1510560.000000 0 0 1
22.147343 -26.531290 12.194735 36.648679 -0.875215 1.231581 0.040358 -0.026157 215772.000000 0 0 1
23.530543 -26.802190 11.564635 37.493794 -0.850307 1.257242 0.063221 -0.023296 -330425.000000 0 0 1
24.528643 -27.323990 12.357335 38.742205 -0.839255 1.246161 0.079285 -0.028124 -1052290.000000 0 0 1
25.547143 -27.920790 11.643535 39.595441 -0.829763 1.272322 0.083459 -0.037005 -1293900.000000 0 0 1
26.622043 -28.568790 12.547635 41.016485 -0.820657 1.259895 0.088524 -0.035255 127897.000000 0 0 1
27.664443 -27.802790 13.145235 41.365610 -0.787892 1.247407 0.072539 -0.034038 161705.000000 0 0 1
28.633443 -27.487290 12.163135 41.513456 -0.764978 1.273441 0.044121 -0.036193 -289010.000000 0 0 1
29.947243 -26.928090 12.824735 42.266218 -0.732364 1.262509 0.058882 -0.042020 291842.000000 0 0 1
29.994643 -25.535290 13.184835 41.539975 -0.705265 1.247809 0.069650 -0.040257 -499675.000000 0 0 1
29.418643 -25.110590 14.356235 41.256512 -0.706557 1.215386 0.072146 -0.031642 -319385.000000 0 0 1
30.325443 -25.033290 15.624835 42.313515 -0.690090 1.192580 0.062845 -0.021180 79789.800000 0 0 1
30.679343 -26.280390 16.139835 43.501440 -0.708322 1.190691 0.080280 -0.018769 -573094.000000 0 0 1
31.600643 -26.215790 17.153835 44.498565 -0.692529 1.175055 0.092285 -0.004307 -385199.000000 0 0 1
31.727243 -27.648090 17.758135 45.676976 -0.716805 1.171493 0.070051 0.011635 361497.000000 0 0 1
30.574143 -28.054490 18.497935 45.431335 -0.742448 1.151451 0.067030 -0.002320 154592.000000 0 0 1
30.897543 -29.131490 19.352535 46.667145 -0.755987 1.143191 0.076492 -0.010931 -338597.000000 0 0 1
29.736943 -29.878990 19.964835 46.643697 -0.787781 1.128486 0.070755 -0.003620 -892420.000000 0 0 1
28.787143 -29.089790 20.695035 45.860658 -0.790627 1.102621 0.073963 0.002306 319912.000000 0 0 1
27.678343 -29.755190 21.236735 45.852600 -0.821543 1.089248 0.079943 -0.004742 337966.000000 0 0 1
26.598943 -30.255290 20.230135 45.079316 -0.849621 1.105411 0.105946 -0.010691 -738128.000000 0 0 1
27.057343 -31.363390 19.450035 45.760965 -0.858973 1.131795 0.095919 -0.010774 200229.000000 0 0 1
26.296543 -31.696990 18.282235 45.060487 -0.878252 1.153023 0.109851 -0.013785 101245.000000 0 0 1
26.741743 -30.804690 17.075435 44.222395 -0.855884 1.174368 0.105857 -0.010910 652416.000000 0 0 1
28.068343 -31.132190 16.641035 45.099547 -0.837106 1.192880 0.102820 -0.018228 669662.000000 0 0 1
28.559443 -30.096290 15.761435 44.383007 -0.811593 1.207750 0.094157 -0.032528 254485.000000 0 0 1
30.078443 -30.188290 15.417335 45.318206 -0.787221 1.223665 0.093670 -0.031059 169730.000000 0 0 1
30.489043 -31.224590 14.488635 45.983446 -0.797316 1.250251 0.133071 -0.026521 341408.000000 0 0 1
30.398543 -32.584790 14.988035 47.015754 -0.820096 1.246346 0.127784 -0.026698 -373912.000000 0 0 1
29.357043 -33.377390 14.151735 46.649306 -0.849396 1.262575 0.118074 -0.026387 -95636.700000 0 0 1
29.681343 -33.634690 12.818035 46.653794 -0.847756 1.292469 0.121638 -0.029237 206264.000000 0 0 1
28.869743 33.077256 12.225635 45.574478 0.853215 1.299214 0.116962 -0.035808 -212808.000000 0 0 1
29.269943 32.785856 10.762935 45.249118 0.841995 1.330635 0.123532 -0.039761 223022.000000 0 0 1
30.568743 32.195256 10.754935 45.679877 0.811307 1.333124 0.078718 -0.034064 547784.000000 0 0 1
30.941043 31.486256 9.574435 45.170812 0.794132 1.357216 0.076468 -0.036809 455256.000000 0 0 1
32.420043 31.001556 9.695635 45.892930 0.763036 1.357926 0.041043 -0.027536 390492.000000 0 0 1
32.610943 29.916156 10.584235 45.502483 0.742327 1.336038 0.030792 -0.013346 26159.000000 0 0 1
33.969443 29.600756 10.802435 46.333793 0.716784 1.335487 0.033715 -0.012380 9945.630000 0 0 1
34.219743 28.582856 11.899935 46.147361 0.695882 1.309981 0.023086 -0.003216 -75806.600000 0 0 1
34.062143 27.226056 11.577935 45.116918 0.674317 1.311272 0.025694 -0.007106 148513.000000 0 0 1
34.106043 26.508856 12.771035 45.044877 0.660713 1.283336 0.037279 -0.013989 30748.300000 0 0 1
33.898843 25.008656 12.552435 43.955978 0.635611 1.281197 0.035398 -0.019836 -98778.100000 0 0 1
34.971443 24.565656 11.762835 44.326488 0.612368 1.302211 0.034954 -0.013960 -225372.000000 0 0 1
35.256843 23.230656 11.707035 43.815100 0.582605 1.300319 0.049975 -0.023339 61988.300000 0 0 1
34.180943 22.323956 11.007135 42.283009 0.578559 1.307442 0.033844 -0.020484 340814.000000 0 0 1
32.965143 22.169356 11.658535 41.401720 0.592036 1.285340 0.077248 -0.034003 632298.000000 0 0 1
31.754943 22.182056 10.855935 40.227743 0.609745 1.297547 0.083080 -0.027804 1584790.000000 0 0 1
30.431843 22.135856 11.676135 39.400829 0.628874 1.269936 0.085097 -0.025284 301051.000000 0 0 1
30.079043 23.321356 12.361635 40.018052 0.659520 1.256759 0.088716 -0.023421 604723.000000 0 0 1
28.955443 22.994356 13.218735 39.266946 0.671151 1.227452 0.144027 -0.022607 786613.000000 0 0 1
25.579443 10.078156 25.847205 37.735330 0.375318 0.816247 0.052931 -0.007817 -356481.000000 0 0 1
25.349243 8.667556 25.921345 37.277698 0.329464 0.801878 0.048540 -0.010029 -460052.000000 0 0 1
23.984743 8.414456 26.036745 36.386578 0.337410 0.773372 0.053176 -0.020446 -685215.000000 0 0 1
23.626343 6.988656 26.464155 36.157943 0.287599 0.749684 0.064115 -0.020380 -94385.100000 0 0 1
23.796043 6.688856 27.833865 37.225213 0.274020 0.726182 0.056130 -0.006209 477807.000000 0 0 1
25.134043 6.557656 28.302725 38.415715 0.255218 0.742547 0.054547 -0.004919 298863.000000 0 0 1
25.135543 6.600056 29.845975 39.574467 0.256782 0.716403 0.069807 -0.012607 -36087.100000 0 0 1
24.879643 7.791256 30.529035 40.146261 0.303484 0.706798 0.097503 -0.020695 90631.400000 0 0 1
24.372443 7.576256 31.811028 40.784275 0.301384 0.676158 0.112453 -0.015953 -148532.000000 0 0 1
24.458243 8.834456 32.684580 41.767631 0.346623 0.672071 0.134432 -0.023301 -731230.000000 0 0 1
25.720443 9.441756 32.651489 42.624026 0.351819 0.698147 0.131010 -0.023445 -569937.000000 0 0 1
25.977943 10.014956 -33.714135 43.724087 0.367960 2.451309 0.140154 -0.022544 985061.000000 0 0 1
27.378643 10.745256 -33.634305 44.680164 0.373997 2.423070 0.113684 -0.022476 886434.000000 0 0 1
27.459243 12.020756 33.503704 44.955609 0.412635 0.729869 0.119478 -0.029966 95363.400000 0 0 1
26.997343 12.988956 -33.262095 44.765349 0.448430 2.408386 0.126335 -0.028532 -346066.000000 0 0 1
26.810743 14.427356 -33.728115 45.437322 0.493675 2.407292 0.129221 -0.030359 -238026.000000 0 0 1
27.967043 15.148756 33.572348 46.246544 0.496421 0.758392 0.094153 -0.028544 106997.000000 0 0 1
27.613843 16.473256 33.309129 46.296766 0.537885 0.767758 0.125202 -0.032423 85247.300000 0 0 1
28.265743 17.489856 -33.382695 47.108933 0.554103 2.358348 0.122819 -0.044929 -121000.000000 0 0 1
27.730443 17.403056 -32.020805 45.794932 0.560452 2.345104 0.140149 -0.050791 700155.000000 0 0 1
28.575943 16.666856 -31.145415 45.435729 0.528011 2.326063 0.108534 -0.046224 294556.000000 0 0 1
27.706643 16.133456 -29.949065 43.873602 0.527300 2.322140 0.125759 -0.043369 549146.000000 0 0 1
26.784143 15.106756 -30.245075 43.131994 0.513542 2.347905 0.147881 -0.027546 -296375.000000 0 0 1
25.854443 15.000356 -29.216695 41.798064 0.525722 2.344789 0.175178 -0.037914 -252018.000000 0 0 1
24.851543 13.842956 -29.456405 40.950048 0.508221 2.373627 0.166607 -0.031221 -694299.000000 0 0 1
23.965443 14.102456 -30.511275 41.281468 0.531883 2.402535 0.182600 -0.033062 -111969.000000 0 0 1
23.568543 12.904456 -31.155925 41.142349 0.500944 2.429921 0.156649 -0.019622 -37929.100000 0 0 1
22.549943 11.981956 -30.453765 39.742911 0.488413 2.443811 0.158037 -0.026471 -1472930.000000 0 0 1
21.285043 12.485256 -30.300515 39.077562 0.530489 2.458135 0.173404 -0.027402 -661384.000000 0 0 1
20.586043 11.660956 -29.338925 37.689993 0.515385 2.462953 0.143845 -0.021825 283325.000000 0 0 1
19.237043 12.209956 -28.819245 36.738205 0.565552 2.472603 0.143775 -0.017114 144938.000000 0 0 1
18.215443 12.280656 -29.784465 37.009880 0.593192 2.506085 0.094498 -0.010102 -1185350.000000 0 0 1
17.063743 12.748756 -29.235885 36.172352 0.641659 2.511951 0.085729 -0.018540 -1590420.000000 0 0 1
16.067743 13.244656 -30.301355 36.766362 0.689384 2.539513 0.061859 -0.017626 118889.000000 0 0 1
15.365543 12.158256 -30.950525 36.631381 0.669394 2.577209 0.058044 -0.013204 807940.000000 0 0 1
14.064443 11.882356 -30.406835 35.546794 0.701497 2.597125 0.076967 -0.017247 806204.000000 0 0 1
13.099443 11.115256 -31.360605 35.757962 0.703639 2.640430 0.082093 -0.015858 330047.000000 0 0 1
12.782343 11.863856 -32.531255 36.911000 0.748149 2.649494 0.090145 -0.016776 -164242.000000 0 0 1
11.552843 11.410056 -33.040745 36.815057 0.779180 2.684817 0.103642 -0.012801 -86673.200000 0 0 1
11.068743 12.251056 33.402542 37.260371 0.836055 0.459075 0.114369 -0.017214 476877.000000 0 0 1
11.967943 12.144756 32.273272 36.500559 0.792731 0.486048 0.082607 -0.005742 353074.000000 0 0 1
11.400243 12.717756 31.117735 35.496764 0.839972 0.501971 0.105065 -0.028526 20244.200000 0 0 1
12.275743 12.592056 29.804765 34.606036 0.798117 0.533054 0.092268 -0.019149 -167199.000000 0 0 1
12.380043 11.261756 29.367525 33.801540 0.738132 0.517978 0.102070 -0.014571 69827.700000 0 0 1
12.679843 11.335356 28.009195 32.768639 0.729472 0.545716 0.113998 -0.008683 -101157.000000 0 0 1
13.238443 9.942056 27.591115 32.177173 0.644140 0.540455 0.130914 -0.018662 -410531.000000 0 0 1
12.226243 8.982356 27.577565 31.475162 0.633623 0.502940 0.141223 -0.030733 -171235.000000 0 0 1
12.700643 7.651556 27.647525 31.372572 0.542222 0.492266 0.122860 -0.026383 -210968.000000 0 0 1
11.637643 6.550356 27.879365 30.912795 0.512662 0.446714 0.112694 -0.023057 192995.000000 0 0 1
10.735843 6.393056 26.796555 29.566617 0.537095 0.436324 0.106181 -0.017444 112279.000000 0 0 1
9.850843 5.265256 26.845965 29.076930 0.490864 0.394279 0.100711 -0.018567 95848.500000 0 0 1
10.466243 3.870656 26.641645 28.884277 0.354224 0.396656 0.078220 -0.016537 -298928.000000 0 0 1
11.151343 3.400856 27.778995 30.126248 0.296013 0.397359 0.091260 -0.020857 139438.000000 0 0 1
11.461643 2.023256 27.600855 29.954465 0.174724 0.399059 0.062386 -0.011162 -245738.000000 0 0 1
12.096543 1.325256 28.782495 31.249234 0.109121 0.399996 0.048567 -0.005700 -519675.000000 0 0 1
11.142543 0.961056 29.723575 31.758003 0.086038 0.359878 0.048755 -0.013986 -393685.000000 0 0 1
11.340843 -0.255044 30.400765 32.448209 -0.022485 0.357138 0.050986 -0.017152 277200.000000 0 0 1
10.271343 -0.340844 31.524135 33.157016 -0.033172 0.315140 0.069997 -0.016506 380431.000000 0 0 1
10.514343 0.698756 32.485856 34.152167 0.066360 0.313665 0.067890 -0.017899 -56152.500000 0 0 1
9.307143 1.089256 33.086898 34.388256 0.116504 0.275986 0.082544 -0.031069 -428412.000000 0 0 1
9.361743 2.418356 -33.829405 35.184078 0.252797 2.863197 0.091149 -0.035113 -247926.000000 0 0 1
9.453143 3.597556 33.119253 34.629311 0.363643 0.296402 0.075093 -0.028410 -414822.000000 0 0 1
10.447043 3.780256 32.178813 34.042723 0.347192 0.332443 0.082929 -0.022712 -837307.000000 0 0 1
10.492443 5.169756 31.513445 33.614207 0.457801 0.355410 0.091279 -0.029679 8840.300000 0 0 1
10.821643 6.250256 32.322547 34.654302 0.523764 0.368930 0.094016 -0.032393 55956.000000 0 0 1
10.931943 7.407056 31.502225 34.157898 0.595507 0.396928 0.096977 -0.027248 -126838.000000 0 0 1
11.153943 8.759356 32.317976 35.292893 0.665722 0.413531 0.121151 -0.031895 262968.000000 0 0 1
9.957643 9.278556 32.872907 35.579126 0.750110 0.392546 0.126656 -0.034606 -13409.300000 0 0 1
9.398443 8.572956 -33.706355 36.026999 0.739497 2.780711 0.118350 -0.030639 355809.000000 0 0 1
7.904143 8.912756 -33.387005 35.448622 0.845303 2.798867 0.122532 -0.040987 737697.000000 0 0 1
7.373843 8.299056 -32.190745 34.051314 0.844362 2.809493 0.120751 -0.037867 -421939.000000 0 0 1
5.993443 8.497156 -32.086945 33.729736 0.956491 2.828208 0.105981 -0.033008 -220867.000000 0 0 1
5.479243 7.993256 -30.733705 32.225376 0.969880 2.836141 0.100774 -0.025377 -422781.000000 0 0 1
5.937743 8.856356 -29.673775 31.531330 0.980179 2.796632 0.109732 -0.034879 250676.000000 0 0 1
5.611943 8.424256 -28.318585 30.073315 0.983141 2.798300 0.097947 -0.031061 614885.000000 0 0 1
4.084643 8.486056 -27.960645 29.504154 1.122191 2.816700 0.074431 -0.027923 563213.000000 0 0 1
3.339943 7.536956 -28.713795 29.873784 1.153660 2.862009 0.054452 -0.018296 -217305.000000 0 0 1
1.995443 7.478456 -28.283745 29.323699 1.310046 2.874474 0.064802 -0.005608 335176.000000 0 0 1
1.024343 6.686456 -29.203065 29.976274 1.418782 2.913972 0.064761 -0.020276 17971.800000 0 0 1
0.627243 7.362256 -30.371865 31.257742 1.485804 2.902947 0.068903 -0.022453 149153.000000 0 0 1
-0.096957 6.514456 -31.274975 31.946386 -1.555914 2.936211 0.109097 -0.023612 -279359.000000 0 0 1
-0.262557 7.162156 -32.661355 33.438444 -1.534154 2.925584 0.123899 -0.031171 533863.000000 0 0 1
0.935643 7.632756 -33.307415 34.183597 1.448822 2.914692 0.089178 -0.020662 588342.000000 0 0 1
1.814143 6.656156 33.813065 34.509692 1.304708 0.201270 0.096415 -0.023873 5859.560000 0 0 1
1.701843 6.364256 32.280756 32.946126 1.309503 0.201316 0.123322 -0.028156 -422534.000000 0 0 1
0.509943 5.733156 31.908845 32.423810 1.482084 0.178463 0.121428 -0.026877 -539563.000000 0 0 1
0.175343 5.571956 30.545135 31.049681 1.539338 0.180521 0.149293 -0.035332 762752.000000 0 0 1
1.140843 4.602956 29.734085 30.109874 1.327842 0.158156 0.159378 -0.041344 677604.000000 0 0 1
0.822243 4.857856 28.372265 28.796879 1.403125 0.171939 0.144823 -0.032632 -95195.900000 0 0 1
1.423543 3.960156 27.501655 27.821760 1.225713 0.151840 0.125064 -0.025799 -86422.200000 0 0 1
1.613143 4.584756 26.060745 26.510085 1.232475 0.184380 0.118738 -0.021014 -224981.000000 0 0 1
2.700043 5.450656 25.991585 26.693864 1.110867 0.229890 0.117312 -0.014668 -352929.000000 0 0 1
2.652243 6.157756 24.766805 25.658273 1.164094 0.264375 0.109959 -0.018089 -740576.000000 0 0 1
3.475743 7.497456 24.768695 26.110934 1.136699 0.322030 0.099792 -0.011939 1137470.000000 0 0 1
4.900243 7.332556 24.740585 26.265477 0.981674 0.342425 0.066357 -0.010153 570002.000000 0 0 1
5.404243 6.920556 23.473135 25.061684 0.907812 0.357957 0.055517 -0.013127 -1185240.000000 0 0 1
6.914243 6.689256 23.475185 25.370006 0.768861 0.388937 0.072269 -0.015317 -690609.000000 0 0 1
7.523243 5.638356 24.194655 25.957110 0.643154 0.370625 0.087449 -0.014949 -4653.010000 0 0 1
6.979543 4.328556 24.054415 25.417814 0.555124 0.329017 0.084609 -0.018349 -841978.000000 0 0 1
6.989043 3.788556 22.573525 23.932486 0.496735 0.338611 0.069938 -0.020675 122260.000000 0 1 0
6.004443 4.245856 21.695525 22.907999 0.615488 0.326808 0.051155 -0.025767 -191411.000000 0 1 0
4.667543 3.834856 21.929725 22.746536 0.687774 0.268798 0.053718 -0.021830 285857.000000 0 1 0
3.658343 4.326056 20.849725 21.605769 0.868831 0.265325 0.035957 -0.017520 190288.000000 0 1 0
3.253843 5.667256 20.926425 21.923059 1.049603 0.302685 0.034331 -0.022424 36926.200000 0 1 0
2.187143 5.944756 20.045425 21.022435 1.218255 0.306069 0.034348 -0.026293 -204948.000000 0 1 0
1.687543 7.377156 20.255025 21.622587 1.345913 0.357561 0.034619 -0.012564 -205066.000000 0 1 0
2.656443 8.201356 19.715225 21.517644 1.257557 0.412216 0.031587 -0.014362 -308661.000000 0 1 0
2.240943 9.559556 19.848425 22.144229 1.340535 0.459386 0.047814 -0.020548 50410.900000 0 1 0
3.204443 10.602356 19.273725 22.229594 1.277287 0.521586 0.064366 -0.031439 -1117920.000000 0 1 0
3.215843 10.708556 17.854825 21.066789 1.279059 0.559474 0.039353 -0.033863 284012.000000 0 1 0
4.081743 11.793956 17.442625 21.447685 1.237611 0.621057 0.052441 -0.028177 1805720.000000 0 1 0
5.638043 11.593356 17.748425 21.936271 1.118155 0.628194 0.061276 -0.032717 461223.000000 0 1 0
6.015543 10.384756 17.126625 20.912943 1.045761 0.611220 0.052874 -0.025654 283484.000000 0 1 0
7.302943 10.025056 17.639725 21.563734 0.941218 0.612823 0.047266 -0.011596 375394.000000 0 1 0
7.464143 8.487556 17.984025 21.240932 0.849467 0.561104 0.049399 -0.022181 -263151.000000 0 1 0
6.857643 8.152056 19.201325 21.958464 0.871424 0.506519 0.052336 -0.026930 -152614.000000 0 1 0
6.919243 6.756356 19.582325 21.840140 0.773488 0.458718 0.052564 -0.034441 -396051.000000 0 1 0
8.290143 6.149056 19.881125 22.400814 0.638188 0.478866 0.070629 -0.033616 -722963.000000 0 1 0
9.202143 6.210656 18.805325 21.837855 0.593691 0.533300 0.059866 -0.028062 -19663.700000 0 1 0
10.487943 5.767856 19.248725 22.666683 0.502806 0.556313 0.081272 -0.024583 346031.000000 0 1 0
10.730243 4.212756 19.114025 22.321097 0.374116 0.542693 0.090282 -0.026414 -919429.000000 0 1 0
10.098343 3.487456 20.091825 22.755665 0.332526 0.488714 0.089884 -0.031390 -92737.100000 0 1 0
10.502243 2.151056 19.896225 22.600529 0.202025 0.494211 0.088127 -0.043822 46836.100000 0 1 0
9.647443 1.134556 20.657425 22.827386 0.117064 0.439557 0.082784 -0.036343 -25472.500000 0 1 0
9.920743 1.220856 22.031325 24.192786 0.122445 0.425925 0.073034 -0.030752 326372.000000 0 1 0
9.126443 0.336256 22.813515 24.573593 0.036827 0.380780 0.079805 -0.034263 -90234.700000 0 1 0
9.570243 0.421556 24.284625 26.105751 0.044020 0.375729 0.080601 -0.019626 245604.000000 0 0 1
10.769143 -0.227744 24.699465 26.946055 -0.021145 0.411239 0.078191 -0.024921 341670.000000 0 0 1
10.761243 -1.642744 24.637235 26.935038 -0.151484 0.416054 0.076566 -0.024815 31976.700000 0 0 1
12.125643 -2.268644 25.030215 27.905010 -0.184956 0.457908 0.073717 -0.019569 290245.000000 0 0 1
12.146243 -3.648644 24.754915 27.814558 -0.291817 0.473454 0.072182 -0.012554 -421774.000000 0 0 1
13.415843 -4.191844 24.971955 28.655801 -0.302844 0.512656 0.075274 -0.013370 -461106.000000 0 0 1
13.518843 -5.733644 25.064065 29.048944 -0.401127 0.529971 0.093354 -0.018254 -157904.000000 0 0 1
13.326743 -6.328744 23.833215 28.029934 -0.443359 0.554285 0.105024 -0.024980 131714.000000 0 0 1
13.494643 -7.717644 23.956275 28.558195 -0.519505 0.575614 0.143781 -0.044446 -80456.800000 0 0 1
13.250143 -8.463544 22.624565 27.551203 -0.568427 0.607316 0.162911 -0.044749 31389.200000 0 0 1
13.066743 -9.845744 22.924035 28.163626 -0.645735 0.619861 0.174658 -0.037585 -279424.000000 0 0 1
12.818043 -10.603944 21.761425 27.391704 -0.691147 0.652690 0.177882 -0.045875 -153533.000000 0 0 1
12.082243 -11.934344 21.918425 27.727721 -0.779240 0.659191 0.184694 -0.039343 468645.000000 0 0 1
10.685643 -11.660644 22.057525 27.141996 -0.829002 0.622074 0.165106 -0.035950 336296.000000 0 0 1
9.942243 -12.890544 22.045525 27.404734 -0.913813 0.636060 0.153090 -0.034468 1253830.000000 0 0 1
8.451443 -12.685644 22.527925 27.200365 -0.983102 0.594870 0.110145 -0.030632 838801.000000 0 0 1
7.709243 -11.814044 21.733225 25.910174 -0.992631 0.575737 0.103935 -0.031713 1229730.000000 0 0 1
6.281243 -11.797944 22.062325 25.795187 -1.081565 0.544689 0.058380 -0.031418 2054180.000000 0 0 1
5.540743 -10.644844 21.297125 24.445451 -1.090876 0.513134 0.048172 -0.033142 223397.000000 0 1 0
5.629843 -9.440644 22.013225 24.604937 -1.033072 0.463111 0.052059 -0.022851 -671229.000000 0 1 0
4.894343 -8.432044 21.450325 23.562054 -1.044879 0.426605 0.039376 -0.014824 -339969.000000 0 1 0
5.362643 -6.962644 21.782825 23.488887 -0.914491 0.383483 0.053188 -0.021380 -69757.600000 0 1 0
4.532243 -5.923144 21.304625 22.572370 -0.917654 0.336741 0.029009 -0.017136 -139318.000000 0 1 0
5.163243 -4.639444 21.382725 22.481202 -0.732015 0.313896 0.057629 -0.041069 192406.000000 0 1 0
-8.823257 -15.325444 -20.576065 27.131044 1.048417 2.431644 0.118787 -0.016350 246252.000000 0 0 1
-8.064657 -14.795044 -19.477865 25.754985 1.071729 2.428398 0.091402 -0.012742 183423.000000 0 0 1
-7.076657 -13.926544 -20.024265 25.396828 1.100657 2.479090 0.087765 -0.020180 374390.000000 0 0 1
-6.128657 -13.347344 -18.932765 23.961670 1.140345 2.481813 0.065439 -0.016431 297486.000000 0 1 0
-5.285557 -14.327944 -18.328665 23.857222 1.217386 2.446922 0.060036 -0.004610 -18333.600000 0 1 0
-4.485857 -13.651344 -17.408065 22.572613 1.253310 2.451525 0.042659 0.001557 -125271.000000 0 1 0
-3.523057 -14.542644 -16.554665 22.314958 1.333118 2.406642 0.042194 0.004188 195537.000000 0 1 0
-2.410357 -14.868744 -17.356565 22.981291 1.410085 2.426828 0.045383 0.009695 -445199.000000 0 1 0
-1.419257 -15.600444 -16.628065 22.844708 1.480071 2.386012 0.056612 0.010942 138954.000000 0 1 0
-0.171057 -15.795444 -17.528765 23.596248 1.559967 2.408132 0.060878 0.017335 -149755.000000 0 1 0
-0.293557 -16.612544 -18.655865 24.982075 1.553127 2.413989 0.109677 -0.010197 -257992.000000 0 1 0
-0.313957 -18.009544 -18.293165 25.672595 1.553365 2.363931 0.103038 -0.002772 -301598.000000 0 0 1
-0.795857 -18.854944 -19.446965 27.098464 1.528612 2.371205 0.120909 -0.010695 -76590.400000 0 0 1
-2.173557 -18.672144 -19.709965 27.237034 1.454911 2.379867 0.145929 -0.015445 52092.200000 0 0 1
-2.291157 -18.668844 -21.138665 28.295199 1.448681 2.414449 0.151460 -0.024893 -214705.000000 0 0 1
-3.017257 -17.492044 -21.721365 28.051616 1.399984 2.456461 0.170776 -0.037482 -211748.000000 0 0 1
-2.320357 -16.253444 -21.650765 27.171936 1.428994 2.492787 0.154489 -0.031886 -111866.000000 0 0 1
-2.787457 -15.434444 -20.573565 25.870129 1.392122 2.490238 0.144807 -0.025177 246713.000000 0 0 1
-2.107557 -14.003544 -20.494765 24.911372 1.421416 2.536953 0.102023 -0.024929 175238.000000 0 1 0
-2.365057 -13.139444 -21.521265 25.325942 1.392707 2.586348 0.096838 -0.037119 93874.600000 0 0 1
-1.616957 -11.953644 -21.302765 24.480849 1.436343 2.626366 0.056021 -0.025404 229785.000000 0 1 0
-1.892157 -11.127544 -22.539065 25.207379 1.402365 2.677316 0.065986 -0.024651 -310737.000000 0 0 1
-3.073657 -10.380744 -22.528765 24.995049 1.282929 2.693625 0.074323 -0.031211 -187896.000000 0 1 0
-3.160857 -9.716644 -23.784565 25.886478 1.256290 2.735833 0.087905 -0.031752 199925.000000 0 0 1
-4.349457 -8.713944 -23.876065 25.785986 1.107839 2.754292 0.076916 -0.029299 -1047110.000000 0 0 1
-5.619457 -9.246344 -23.897965 26.233298 1.024698 2.716446 0.069903 -0.032324 -1020370.000000 0 0 1
-6.372557 -8.053144 -23.820565 25.939968 0.901375 2.734551 0.070183 -0.035930 -1221110.000000 0 0 1
-7.807757 -8.249244 -23.243065 25.869889 0.812886 2.687046 0.058890 -0.046777 238790.000000 0 0 1
-8.815557 -8.522344 -24.182865 27.113749 0.768488 2.672335 0.062912 -0.038832 -74832.000000 0 0 1
-9.101757 -7.444344 -25.045365 27.668223 0.685562 2.702654 0.061383 -0.041277 -1003710.000000 0 0 1
-10.319557 -7.741344 -25.954565 28.983808 0.643605 2.680316 0.063398 -0.043968 3780.910000 0 0 1
-10.352457 -6.776044 -27.000045 29.700010 0.579557 2.711896 0.073575 -0.051156 195.735000 0 0 1
-10.919557 -7.298644 -28.183175 31.093380 0.589202 2.705489 0.069834 -0.045562 -385409.000000 0 0 1
-11.982057 -6.448744 -28.851265 31.899083 0.493739 2.700895 0.068608 -0.046658 -24842.700000 0 0 1
-11.278757 -5.399644 -29.495435 32.036654 0.446499 2.740610 0.038239 -0.033170 452677.000000 0 0 1
-12.068257 -4.776144 -30.501385 33.147984 0.376847 2.739280 0.068961 -0.037912 99341.300000 0 0 1
-11.314657 -3.659844 -31.299005 33.481990 0.312839 2.778495 0.054909 -0.032824 769219.000000 0 0 1
-10.208857 -4.178944 -32.087525 33.930718 0.388536 2.810469 0.043785 -0.024776 800907.000000 0 0 1
-9.633857 -3.130044 -32.808855 34.336997 0.314142 2.842132 0.040342 -0.022339 -413193.000000 0 0 1
-8.585457 -3.607444 -33.829775 35.088138 0.397782 2.872969 0.041697 -0.021311 54248.200000 0 0 1
-7.347357 -3.874544 -33.211345 34.234328 0.485278 2.896514 0.041912 -0.024934 35901.500000 0 0 1
-6.300157 -4.199344 33.557901 34.401441 0.587919 0.221907 0.057201 -0.027766 -477232.000000 0 0 1
-4.936457 -3.697944 -33.724035 34.283435 0.642931 2.960698 0.090791 -0.034699 -795272.000000 0 0 1
-4.714257 -2.285244 33.693195 34.098063 0.451375 0.154255 0.115330 -0.047560 884736.000000 0 0 1
-3.355657 -1.877644 -33.712235 33.930823 0.510143 3.028022 0.118499 -0.045496 906340.000000 0 0 1
-3.334657 -0.529044 -33.029555 33.201677 0.157339 3.039724 0.118299 -0.044855 -189246.000000 0 0 1
-3.600157 -0.641944 -31.640095 31.850727 0.176455 3.026524 0.117642 -0.044850 58857.100000 0 0 1
-4.112257 0.626056 -31.241475 31.517176 -0.151081 3.009226 0.146062 -0.043927 -939362.000000 0 0 1
-4.711857 0.622756 -29.791615 30.168357 -0.131406 2.983390 0.128860 -0.048688 -5917.490000 0 0 1
-5.753157 -0.298744 -29.669155 30.223283 0.051880 2.949808 0.115178 -0.044075 -165127.000000 0 0 1
-6.993757 0.193456 -30.155125 30.956124 -0.027654 2.913612 0.122652 -0.047100 -205343.000000 0 0 1
-8.132657 -0.887544 -30.085265 31.177733 0.108703 2.876087 0.104893 -0.044871 241566.000000 0 0 1
-8.512057 -1.183544 -28.787925 30.043311 0.138157 2.851489 0.099360 -0.040274 169954.000000 0 0 1
-9.375057 -2.306144 -28.678335 30.259823 0.241198 2.816861 0.064846 -0.026245 -86951.100000 0 0 1
-9.579357 -2.912844 -27.234345 29.016518 0.295191 2.789290 0.063546 -0.030163 -208665.000000 0 0 1
-10.393157 -2.069944 -26.477995 28.519934 0.196592 2.760888 0.064140 -0.029620 35861.900000 0 0 1
-10.705457 -2.623344 -25.231025 27.533496 0.240312 2.729727 0.055958 -0.033657 -456827.000000 0 0 1
-11.655357 -1.753544 -24.461065 27.152642 0.149330 2.692571 0.071916 -0.037499 -298318.000000 0 0 1
-11.086057 -0.501744 -24.055765 26.492117 0.045228 2.709365 0.083060 -0.030947 252372.000000 0 0 1
-12.008757 0.282356 -23.341465 26.250980 -0.023508 2.666314 0.088428 -0.031712 167868.000000 0 0 1
-11.341357 1.635256 -22.960965 25.661379 -0.143198 2.678706 0.106464 -0.038425 325031.000000 0 0 1
-11.185757 2.587756 -23.945365 26.555567 -0.227344 2.694500 0.088813 -0.034267 -564135.000000 0 0 1
-10.373857 3.558956 -23.468565 25.904761 -0.330488 2.704428 0.098691 -0.031691 -912721.000000 0 0 1
-10.626457 4.779356 -24.407065 27.045677 -0.422654 2.696193 0.141854 -0.041162 829595.000000 0 0 1
-11.934757 5.362656 -24.313165 27.610261 -0.422297 2.647890 0.117366 -0.042583 1100020.000000 0 0 1
-12.903457 4.738156 -25.210995 28.714867 -0.351915 2.642416 0.099682 -0.042341 557839.000000 0 0 1
-14.227157 5.545556 -25.150105 29.422661 -0.371671 2.595936 0.079905 -0.020289 144281.000000 0 0 1
-14.070757 6.750856 -25.784495 30.139682 -0.447340 2.597312 0.094708 -0.018720 1050880.000000 0 0 1
-15.326257 7.476856 -25.777725 30.907744 -0.453877 2.557153 0.084323 -0.014912 747972.000000 0 0 1
-15.170357 9.003856 -25.975635 31.399726 -0.535639 2.545004 0.098622 -0.004577 -262147.000000 0 0 1
-14.730857 9.622856 -24.804365 30.411413 -0.578653 2.524608 0.148855 -0.024925 154460.000000 0 0 1
-14.974457 11.028356 -24.791765 30.991783 -0.634791 2.498002 0.139972 -0.018745 -44328.400000 0 0 1
-14.639457 11.838856 -23.510465 30.119996 -0.680020 2.466358 0.162411 -0.029677 -191396.000000 0 0 1
-15.525757 11.519756 -22.489665 29.657022 -0.638347 2.431536 0.182241 -0.033599 -227130.000000 0 0 1
-15.283157 12.274656 -21.332565 28.971027 -0.676658 2.398443 0.175868 -0.035518 -322536.000000 0 0 1
-16.330157 12.151856 -20.214365 28.687318 -0.639737 2.352719 0.179990 -0.043804 147584.000000 0 0 1
-17.623357 12.615556 -20.556665 29.871583 -0.621280 2.329757 0.157737 -0.036956 285793.000000 0 0 1
-18.370057 13.034456 -19.436865 29.751433 -0.617106 2.282743 0.144936 -0.026040 -204094.000000 0 0 1
-19.880357 13.232756 -19.621665 30.908642 -0.587277 2.258582 0.121620 -0.023843 -261422.000000 0 0 1
-20.316957 14.230956 -20.509965 32.186294 -0.611026 2.261691 0.111749 -0.021156 16830.300000 0 0 1
-21.684257 14.492456 -20.304665 33.053256 -0.589160 2.232297 0.094288 -0.019562 -196321.000000 0 0 1
-22.132657 15.814256 -20.929765 34.322009 -0.620405 2.226612 0.100049 -0.023049 -302122.000000 0 0 1
-22.185757 15.644256 -22.346165 35.161082 -0.614173 2.259500 0.091708 -0.023521 141747.000000 0 0 1
-22.119557 16.893356 -22.946865 36.072412 -0.652230 2.260273 0.085420 -0.011656 -346076.000000 0 0 1
-21.986057 16.800856 -24.477165 36.943025 -0.652502 2.295035 0.088344 -0.012532 -761553.000000 0 0 1
-20.693757 16.379656 -24.788565 36.207702 -0.669553 2.324880 0.100256 -0.031318 -306365.000000 0 0 1
-20.384157 16.339356 -26.171965 36.979186 -0.675698 2.357103 0.102597 -0.027279 -195974.000000 0 0 1
-19.645857 17.625856 -26.582945 37.460425 -0.731255 2.359766 0.084351 -0.024046 91648.100000 0 0 1
-20.603457 18.673056 -26.717945 38.562081 -0.736289 2.336238 0.088611 -0.034386 700748.000000 0 0 1
-19.965457 19.932456 -26.994735 39.046613 -0.784571 2.334147 0.072559 -0.030038 -327252.000000 0 0 1
-20.985257 21.067256 -27.267315 40.344972 -0.787348 2.312919 0.089301 -0.015227 207980.000000 0 0 1
-21.836557 21.486156 -26.221545 40.324429 -0.777310 2.278729 0.098047 -0.012774 199901.000000 0 0 1
-22.947957 20.632056 -26.086775 40.408048 -0.732307 2.272584 0.123994 -0.026621 -366676.000000 0 0 1
-23.935057 20.959756 -24.924365 40.415620 -0.719222 2.235342 0.124792 -0.009443 443016.000000 0 0 1
-23.342557 20.471056 -23.734065 39.079982 -0.719953 2.223480 0.085378 -0.002915 58469.500000 0 0 1
-23.976657 20.989556 -22.615165 39.075405 -0.719066 2.188000 0.083562 -0.010502 -183658.000000 0 0 1
-23.625357 20.322456 -21.259565 37.724380 -0.710384 2.169473 0.078576 -0.004343 -74293.900000 0 0 1
-22.371757 20.737656 -20.768365 36.903535 -0.747510 2.168535 0.088715 -0.007475 -64127.900000 0 0 1
-21.854157 20.020256 -19.627765 35.548052 -0.741631 2.155734 0.097151 -0.015519 -62370.000000 0 0 1
-22.781857 19.718156 -18.408765 35.308658 -0.713436 2.119248 0.125420 -0.016965 -263560.000000 0 0 1
-23.585957 18.544856 -18.750165 35.380471 -0.666311 2.129347 0.154218 -0.021904 369335.000000 0 0 1
-24.467057 18.136656 -17.747065 35.249589 -0.637889 2.098405 0.123813 -0.023469 129919.000000 0 0 1
-25.626267 19.028856 -17.218865 36.266958 -0.638718 2.065512 0.083351 -0.015889 -1256860.000000 0 0 1
-26.726317 19.079756 -18.037665 37.465858 -0.619990 2.073096 0.082820 -0.007722 -343328.000000 0 0 1
-27.633957 20.087156 -17.550765 38.407796 -0.628553 2.045369 0.068587 -0.006717 -760532.000000 0 0 1
-29.040487 19.903656 -18.131065 39.601022 -0.600844 2.046364 0.037779 0.014494 -333826.000000 0 0 1
-29.769207 18.731456 -17.811465 39.424883 -0.561630 2.039558 0.040811 0.007990 314529.000000 0 0 1
-30.156427 18.658556 -16.456865 39.094504 -0.554075 2.005290 0.032656 -0.005599 -1199070.000000 0 0 1
-30.903477 17.346056 -16.184465 38.959562 -0.511476 1.999198 0.032475 -0.012337 -149486.000000 0 0 1
-30.110387 16.194356 -16.050065 37.768998 -0.493454 2.009707 0.054347 -0.032604 140348.000000 0 0 1
-30.969397 15.207556 -15.549465 37.843879 -0.456463 1.994220 0.059935 -0.039145 -103424.000000 0 0 1
-30.161857 14.014556 -15.002365 36.485838 -0.434966 1.994548 0.101938 -0.041648 -557873.000000 0 0 1
-29.573627 14.498856 -13.841065 35.726619 -0.455828 1.968623 0.123176 -0.042964 -343104.000000 0 0 1
-30.242307 14.081056 -12.668665 35.684287 -0.435757 1.933733 0.082689 -0.026754 -209625.000000 0 0 1
-30.171767 15.105256 -11.509365 35.650663 -0.464161 1.899522 0.124207 -0.049619 245195.000000 0 0 1
-30.838337 16.359356 -11.702165 36.818097 -0.487739 1.894244 0.125737 -0.037359 149401.000000 0 0 1
-31.046117 16.969056 -10.435665 36.887848 -0.500210 1.857615 0.057693 -0.025709 20335.100000 0 0 1
-31.057227 18.495256 -10.517565 37.646315 -0.537120 1.853943 0.152615 -0.014261 471243.000000 0 0 1
-29.745487 19.055556 -10.646765 36.895282 -0.569753 1.863526 0.064124 -0.031925 563234.000000 0 0 1
-29.766817 20.441756 -10.658565 37.650150 -0.601764 1.857816 0.030157 -0.027429 -199273.000000 0 0 1
-28.340577 20.974256 -10.370765 36.751333 -0.637121 1.856870 0.109895 -0.031752 421247.000000 0 0 1
-28.341277 22.356856 -10.302365 37.539256 -0.667902 1.848806 0.097711 -0.032212 800114.000000 0 0 1
-26.965907 22.748456 -10.100465 36.697027 -0.700767 1.849635 0.092512 -0.015318 775203.000000 0 0 1
-26.819217 24.262956 -9.670765 37.436415 -0.735398 1.832084 0.127782 -0.010963 -117272.000000 0 0 1
-27.047697 24.474556 -8.257965 37.400211 -0.735497 1.793431 0.118758 -0.025080 181859.000000 0 0 1
-28.415007 24.485756 -7.876465 38.327583 -0.711258 1.777775 0.147275 -0.026205 144330.000000 0 0 1
-28.726427 24.097556 -6.392965 38.036428 -0.697993 1.739673 0.159140 -0.022257 -176092.000000 0 0 1
-28.676207 22.679956 -6.154165 37.075315 -0.669166 1.737559 0.158569 -0.037466 202832.000000 0 0 1
-28.935047 22.248856 -4.868065 36.823180 -0.655503 1.703386 0.134388 -0.024947 -602362.000000 0 0 1
-29.071527 20.724756 -4.811065 36.025207 -0.619324 1.704744 0.138790 -0.035820 -356173.000000 0 0 1
-27.920537 19.922556 -4.824965 34.637334 -0.619759 1.710550 0.141675 -0.037216 -144274.000000 0 0 1
-27.067687 20.005256 -5.950365 34.180064 -0.636477 1.745777 0.137932 -0.033691 -700197.000000 0 0 1
-27.492787 19.278756 -7.291565 34.361180 -0.611551 1.784626 0.139431 -0.034120 -513527.000000 0 0 1
-27.480227 17.867256 -7.145865 33.547952 -0.576506 1.785445 0.129661 -0.037346 275340.000000 0 0 1
-27.717507 17.242756 -8.429065 33.713825 -0.556503 1.823495 0.094997 -0.044664 -75708.100000 0 0 1
-27.490087 15.714756 -8.532165 32.794150 -0.519314 1.833998 0.151718 -0.049256 620906.000000 0 0 1
-28.516457 15.028956 -7.798965 33.164465 -0.485035 1.808180 0.145191 -0.040935 394132.000000 0 0 1
-28.432257 13.669356 -8.164165 32.586779 -0.448145 1.824030 0.158290 -0.054066 -237950.000000 0 0 1
-29.390107 12.740256 -7.455965 32.888964 -0.409038 1.799486 0.137337 -0.051964 563650.000000 0 0 1
-30.801447 12.983556 -7.652265 34.290801 -0.398923 1.795849 0.147498 -0.035216 922980.000000 0 0 1
-31.576667 12.090856 -6.894765 34.508151 -0.365683 1.771951 0.161383 -0.042278 -89171.800000 0 0 1
-31.986557 10.720756 -7.501365 34.559296 -0.323398 1.789596 0.136413 -0.029691 163261.000000 0 0 1
-30.922637 9.771956 -7.631165 33.315691 -0.306082 1.801904 0.157239 -0.025828 356558.000000 0 0 1
-31.459097 8.580756 -8.187465 33.620511 -0.266282 1.816796 0.137032 -0.016926 -254874.000000 0 0 1
-30.486027 7.473956 -8.589565 32.542872 -0.240418 1.837907 0.179160 -0.020153 -393070.000000 0 0 1
-29.807277 7.692656 -9.806165 32.308073 -0.252569 1.879182 0.171991 -0.040066 141225.000000 0 0 1
-28.847977 6.672056 -9.987965 31.248705 -0.227287 1.896133 0.188606 -0.040865 -395251.000000 0 0 1
-28.086567 6.817456 -11.301065 31.032999 -0.238125 1.943530 0.169925 -0.039122 -367050.000000 0 0 1
-27.204277 7.914456 -11.291065 30.499172 -0.283112 1.950030 0.190614 -0.054371 620809.000000 0 0 1
-26.207137 7.814456 -12.311965 29.991070 -0.289787 1.993822 0.163267 -0.041323 174553.000000 0 0 1
-32.552947 25.566756 -33.463155 53.227212 -0.665769 2.250658 0.064914 -0.011149 -78088.500000 0 0 1
-32.934307 26.886656 -33.755065 54.285958 -0.684645 2.241837 0.070318 -0.023832 85861.400000 0 0 1
-32.704577 27.271556 32.576214 53.614708 -0.695058 0.917763 0.081108 -0.030395 -159383.000000 0 0 1
-33.309277 28.628356 32.201707 54.461368 -0.709967 0.938156 0.087056 -0.037502 -109324.000000 0 0 1
-33.241417 29.027956 30.817065 53.826625 -0.717836 0.961215 0.106976 -0.034558 11101.700000 0 0 1
-33.640657 30.342056 30.757955 54.757520 -0.733889 0.974343 0.110964 -0.034348 -234683.000000 0 0 1
-33.227317 31.039156 29.444455 54.170654 -0.751363 0.996136 0.111323 -0.033926 1069820.000000 0 0 1
-31.791697 31.073156 29.304815 53.244955 -0.773969 0.987980 0.092754 -0.025653 977507.000000 0 0 1
-31.354437 31.955356 28.310265 52.969015 -0.794890 1.006918 0.074983 -0.008876 1110660.000000 0 0 1
-29.876877 31.763756 27.777565 51.702583 -0.816000 1.003615 0.086718 -0.012830 840873.000000 0 0 1
-29.802267 30.549856 26.980795 50.491901 -0.797785 1.007047 0.113347 -0.017215 324100.000000 0 0 1
-28.689137 30.458756 26.088695 49.309455 -0.815308 1.013279 0.079943 -0.011484 302194.000000 0 0 1
-28.776177 31.355556 24.810585 49.262606 -0.828267 1.042990 0.078128 -0.018430 -69927.300000 0 0 1
-28.746457 32.752656 24.973035 50.226962 -0.850449 1.050423 0.056095 -0.018246 -156557.000000 0 0 1
-29.629977 33.434956 24.135405 50.777452 -0.845659 1.075472 0.065717 -0.016860 -187746.000000 0 0 1
-30.058427 -32.944090 24.770155 51.013554 0.831169 1.063792 0.073881 -0.023647 -68534.900000 0 0 1
-30.814147 -33.014890 25.952205 52.086578 0.819863 1.049216 0.076339 -0.029947 -15200.500000 0 0 1
-30.973027 -31.744790 26.468715 51.649327 0.797703 1.032738 0.058449 -0.027265 -370661.000000 0 0 1
-31.399427 -31.732490 27.941145 52.664813 0.790674 1.011551 0.070899 -0.032687 -437816.000000 0 0 1
-32.721607 -32.195590 28.063745 53.803656 0.777295 1.022076 0.078733 -0.035160 -249267.000000 0 0 1
-32.934997 -32.449690 29.485785 54.837104 0.777976 1.003092 0.066304 -0.028470 199916.000000 0 0 1
-34.408691 -32.834790 29.778375 56.114464 0.761996 1.011403 0.094411 -0.033099 304170.000000 0 0 1
-34.583222 -33.231990 31.132785 57.180545 0.765476 0.995046 0.084462 -0.032918 -915710.000000 0 0 1
-35.895609 -33.565090 31.397545 58.317372 0.751859 1.002270 0.101657 -0.033821 -955318.000000 0 0 1
-36.276007 33.668456 32.828161 59.390250 -0.748135 0.985132 0.115947 -0.034228 -147438.000000 0 0 1
-35.849764 32.374156 33.047847 58.527359 -0.734498 0.970779 0.086117 -0.027196 -158598.000000 0 0 1
-36.576727 31.695756 -33.605185 58.921867 -0.714027 2.177710 0.111954 -0.037202 94186.600000 0 0 1
-35.964968 30.349556 -33.255715 57.623928 -0.700921 2.185990 0.095637 -0.023778 308461.000000 0 0 1
-34.739013 30.459156 -32.551435 56.516857 -0.719848 2.184574 0.102278 -0.020936 -147994.000000 0 0 1
-34.385672 29.136056 -32.047185 55.301956 -0.702943 2.188905 0.069514 -0.024059 522034.000000 0 0 1
-33.577397 28.994256 -30.714925 53.958457 -0.712282 2.176369 0.067192 -0.019146 581860.000000 0 0 1
-34.413075 29.379056 -29.617285 54.079314 -0.706649 2.150366 0.081477 -0.028058 -53280.300000 0 0 1
-34.296592 30.710556 -29.256955 54.546896 -0.730290 2.136919 0.076117 -0.028870 665402.000000 0 0 1
-35.519826 31.364056 -28.491235 55.291162 -0.723344 2.112148 0.069610 -0.028973 712047.000000 0 0 1
-35.648320 30.877256 -27.121705 54.403994 -0.713803 2.092692 0.059022 -0.042516 -9419.050000 0 0 1
-36.749007 31.452356 -26.443905 55.127310 -0.707892 2.071095 0.104565 -0.042004 108995.000000 0 0 1
-36.772207 30.838756 -24.983965 54.105662 -0.697864 2.050778 0.092681 -0.044408 -183744.000000 0 0 1
-36.147947 31.700656 -24.062965 53.764598 -0.719945 2.034833 0.094615 -0.052777 -84908.600000 0 0 1
-36.189077 31.333956 -22.664465 52.963611 -0.713619 2.012992 0.088197 -0.048312 -513569.000000 0 0 1
-37.571937 31.299356 -22.015865 53.628336 -0.694572 1.993828 0.064753 -0.044372 -112334.000000 0 0 1
37.007308 32.554556 -22.024265 53.985259 0.721474 1.991024 0.066360 -0.051211 221548.000000 0 0 1
37.360808 33.712256 -21.264265 54.630716 0.734108 1.970599 0.075644 -0.052790 -324054.000000 0 0 1
37.375188 33.474756 -19.736165 53.916419 0.730402 1.945558 0.070560 -0.042927 200829.000000 0 0 1
-36.830957 32.723356 -19.422965 52.958371 -0.726411 1.946319 0.055943 -0.044459 -31186.500000 0 0 1
-36.698507 32.532056 -18.026565 52.250092 -0.725288 1.923041 0.050296 -0.024899 -431949.000000 0 0 1
-35.514498 31.651656 -17.681865 50.751899 -0.727950 1.926658 0.084803 -0.029265 -351414.000000 0 0 1
-35.400956 31.275056 -16.320865 49.977270 -0.723597 1.903464 0.040500 -0.010156 -387869.000000 0 0 1
-34.104838 30.764856 -16.114065 48.675245 -0.733956 1.908215 0.072208 -0.014069 -285387.000000 0 0 1
-33.827697 30.475256 -14.612565 47.818212 -0.733310 1.881350 0.068355 -0.010383 235322.000000 0 0 1
-34.677600 29.469056 -14.040665 47.624589 -0.704378 1.870063 0.046409 -0.002546 473024.000000 0 0 1
-34.168521 29.176956 -12.741965 46.702680 -0.706762 1.847131 0.081328 -0.001716 719850.000000 0 0 1
-35.270748 28.329756 -12.028765 46.811237 -0.676694 1.830675 0.077486 -0.014762 520316.000000 0 0 1
-34.842409 28.036756 -10.715065 45.987670 -0.677584 1.805956 0.100520 -0.012781 252544.000000 0 0 1
-35.771597 27.247456 -10.016065 46.068998 -0.650951 1.789961 0.117735 -0.030707 -33903.500000 0 0 1
-35.041105 26.524756 -8.868565 44.834062 -0.647941 1.769918 0.135945 -0.031411 246515.000000 0 0 1
-34.521333 27.377856 -7.908365 44.763955 -0.670501 1.748397 0.128624 -0.035772 894771.000000 0 0 1
-33.230157 26.957556 -7.412565 43.426942 -0.681556 1.742327 0.130302 -0.040806 652210.000000 0 0 1
-32.695787 27.834656 -6.303465 43.399496 -0.705261 1.716555 0.144440 -0.036736 -759633.000000 0 0 1
-31.663327 27.221256 -5.626765 42.133402 -0.710104 1.704743 0.159424 -0.029911 -419709.000000 0 0 1
-31.514127 27.700456 -4.300465 42.177595 -0.721083 1.672935 0.154556 -0.031879 -40262.700000 0 0 1
-30.726567 26.785556 -3.306265 40.896446 -0.716980 1.651729 0.161911 -0.029174 150864.000000 0 0 1
-31.427097 25.576556 -3.076965 40.636072 -0.683122 1.646589 0.149859 -0.024378 -112503.000000 0 0 1
-30.614997 24.640056 -2.420165 39.373438 -0.677683 1.632302 0.151456 -0.031556 -31977.100000 0 0 1
-31.476887 23.533656 -1.763965 39.341314 -0.641995 1.615649 0.128297 -0.038725 -3455.950000 0 0 1
-31.899257 22.660556 -2.767765 39.226572 -0.617658 1.641413 0.135716 -0.038632 -11145.200000 0 0 1
-32.963177 21.790056 -2.418165 39.588194 -0.584099 1.631917 0.146444 -0.047778 211246.000000 0 0 1
-33.319707 20.764656 -3.541565 39.419748 -0.557300 1.660760 0.153903 -0.035723 112495.000000 0 0 1
-32.321827 19.778056 -3.809965 38.083958 -0.549131 1.671005 0.144801 -0.035744 84833.200000 0 0 1
-32.601277 18.974556 -4.959565 38.045688 -0.527093 1.701527 0.133375 -0.033906 431096.000000 0 0 1
-31.467037 18.008856 -5.533465 36.675776 -0.519809 1.722250 0.118366 -0.046505 576682.000000 0 0 1
-31.168457 16.893156 -4.702665 35.762641 -0.496677 1.702675 0.164659 -0.037162 139110.000000 0 0 1
-30.318677 15.931056 -5.306065 34.657973 -0.483802 1.724499 0.158240 -0.048783 -9544.850000 0 0 1
-29.870647 14.886056 -4.235865 33.642128 -0.462327 1.697041 0.165223 -0.035322 -579734.000000 0 0 1
-30.950867 14.116956 -3.829965 34.233219 -0.427922 1.682910 0.185113 -0.034740 -86128.800000 0 0 1
-30.496697 12.884056 -3.335665 33.274226 -0.399729 1.671213 0.199241 -0.045845 -353955.000000 0 0 1
-31.592117 11.981356 -2.791965 33.902947 -0.362493 1.653241 0.193993 -0.047629 -333646.000000 0 0 1
-32.542767 11.541756 -3.761865 34.733204 -0.340824 1.679317 0.158754 -0.027487 239565.000000 0 0 1
-33.452587 10.714956 -3.077765 35.261289 -0.309978 1.658192 0.174174 -0.030517 -567222.000000 0 0 1
-34.606233 10.236456 -3.961065 36.305185 -0.287597 1.680119 0.130316 -0.024342 -487084.000000 0 0 1
-34.277310 9.211556 -4.912065 35.831762 -0.262534 1.708316 0.134518 -0.020156 -209058.000000 0 0 1
-35.352520 8.640256 -5.587165 36.819440 -0.239704 1.723130 0.135362 -0.015401 -578149.000000 0 0 1
-34.880186 7.699956 -6.682465 36.339676 -0.217270 1.755738 0.142987 -0.020169 -333535.000000 0 0 1
-34.373278 6.497756 -6.123265 35.513905 -0.186830 1.744081 0.141755 -0.015090 335430.000000 0 0 1
-34.006553 5.660856 -7.199765 35.218285 -0.164951 1.776680 0.128384 -0.016830 -271354.000000 0 0 1
-33.014257 4.530456 -6.839365 34.018276 -0.136375 1.773226 0.146218 -0.024103 35285.600000 0 0 1
-31.660407 4.944656 -6.800765 32.757921 -0.154926 1.779924 0.158776 -0.026423 -129701.000000 0 0 1
-30.903537 3.882656 -6.356565 31.788513 -0.124983 1.772118 0.159483 -0.031252 -817788.000000 0 0 1
-29.463737 4.237356 -5.976065 30.360836 -0.142837 1.768925 0.211712 -0.032557 -464091.000000 0 0 1
-28.707847 4.694456 -7.091465 29.941064 -0.162091 1.809916 0.206116 -0.029500 856453.000000 0 0 1
-27.331367 4.447956 -6.737765 28.498867 -0.161327 1.809478 0.236203 -0.040415 958439.000000 0 0 1
-26.256437 4.927756 -7.762465 27.819762 -0.185520 1.853577 0.231810 -0.040732 162159.000000 0 0 1
-26.274857 4.083456 -8.944665 28.054407 -0.154180 1.895294 0.207795 -0.048412 615034.000000 0 0 1
-25.294527 4.452156 -9.925565 27.534554 -0.174228 1.939575 0.204489 -0.051411 196927.000000 0 0 1
-25.420067 3.595356 -11.247565 28.028809 -0.140506 1.983717 0.165793 -0.052775 174002.000000 0 0 1
-26.488767 4.171156 -11.990665 29.373958 -0.156186 1.991286 0.169826 -0.034794 574486.000000 0 0 1
-26.890987 3.409256 -13.125565 30.116917 -0.126108 2.021746 0.152633 -0.035406 107677.000000 0 0 1
-27.816237 4.105256 -14.129765 31.468181 -0.146527 2.036462 0.135871 -0.026467 -234305.000000 0 0 1
-27.088927 5.145356 -14.810565 31.299161 -0.187707 2.063709 0.111705 -0.025989 650141.000000 0 0 1
-27.821887 5.998756 -15.693465 32.501190 -0.212362 2.074712 0.138442 -0.031772 506644.000000 0 0 1
-28.728407 5.386356 -16.877365 33.751736 -0.185341 2.094446 0.098204 -0.024615 114525.000000 0 0 1
-29.938057 4.879456 -16.423165 34.493720 -0.161564 2.067034 0.118467 -0.034730 -422033.000000 0 0 1
-30.640547 4.192856 -17.473265 35.520954 -0.135995 2.085083 0.124307 -0.023590 626264.000000 0 0 1
-32.071257 3.654456 -17.166465 36.559651 -0.113459 2.059574 0.137116 -0.032042 216348.000000 0 0 1
-32.261147 2.528056 -16.339665 36.251308 -0.078202 2.038383 0.143956 -0.039317 294808.000000 0 0 1
-31.827597 1.324356 -16.998665 36.106848 -0.041586 2.060980 0.169434 -0.036892 -44713.700000 0 0 1
-31.735927 0.127556 -16.008665 35.545221 -0.004019 2.037981 0.169907 -0.034616 -255126.000000 0 0 1
-31.214677 -1.015844 -16.598465 35.368023 0.032532 2.059302 0.171596 -0.026263 181583.000000 0 0 1
-31.332647 -2.140444 -15.727465 35.123631 0.068208 2.035071 0.193355 -0.037719 -47341.500000 0 0 1
-31.207757 -3.482944 -16.435565 35.442669 0.111145 2.052989 0.195842 -0.029958 -89550.600000 0 0 1
-32.181107 -3.656844 -17.435365 36.782987 0.113148 2.064631 0.191979 -0.030002 230267.000000 0 0 1
-32.153167 -4.955244 -17.964465 37.163189 0.152911 2.075324 0.191488 -0.029705 168741.000000 0 0 1
-33.066307 -4.798944 -19.214065 38.543363 0.144125 2.092670 0.199781 -0.030617 14965.300000 0 0 1
-33.108357 -5.973344 -20.003365 39.140500 0.178498 2.107220 0.197771 -0.026251 -35006.600000 0 0 1
-33.872357 -5.838144 -21.149765 40.357565 0.170680 2.122407 0.190632 -0.026981 -389758.000000 0 0 1
-33.929977 -7.056244 -22.067065 41.085147 0.205042 2.137798 0.193558 -0.021427 -144230.000000 0 0 1
-32.607387 -7.265944 -22.498865 40.276973 0.219249 2.163498 0.161864 -0.018494 86895.500000 0 0 1
-32.510657 -8.201044 -23.530065 40.961737 0.247102 2.182716 0.131649 -0.012355 653343.000000 0 0 1
-31.023457 -8.229544 -24.038465 40.100226 0.259297 2.213622 0.106347 -0.009890 612139.000000 0 0 1
-30.602567 -7.002444 -24.665865 39.924382 0.224946 2.236757 0.093263 -0.011566 30720.800000 0 0 1
-30.636357 -6.909544 -26.066385 40.814025 0.221823 2.263555 0.058163 -0.007780 -454702.000000 0 0 1
-31.990447 -6.791244 -26.786025 42.272933 0.209184 2.257052 0.082177 -0.010384 -406885.000000 0 0 1
-32.762667 -7.945344 -26.643095 42.969470 0.237919 2.239599 0.087705 -0.009136 464054.000000 0 0 1
-34.032096 -7.870844 -27.326475 44.349408 0.227281 2.234658 0.083759 -0.004725 962996.000000 0 0 1
-35.013153 -9.006244 -27.018985 45.133789 0.251767 2.212601 0.089333 -0.006641 -622085.000000 0 0 1
-34.590719 -10.261144 -27.463285 45.343588 0.288375 2.221405 0.088412 -0.002977 -352023.000000 0 0 1
-35.401889 -11.360344 -27.120665 46.020448 0.310516 2.201010 0.067564 -0.007259 526377.000000 0 0 1
-36.675877 -11.518144 -28.048065 47.586569 0.304298 2.201126 0.040146 -0.000113 486309.000000 0 0 1
-37.626217 -10.499544 -27.802945 47.947642 0.272126 2.189354 0.043474 -0.007614 65434.700000 0 0 1
36.837228 -10.393244 -28.934535 47.981332 -0.274992 2.218100 0.046388 -0.018369 552216.000000 0 0 1
35.843278 -9.212744 -28.698345 46.831723 -0.251583 2.230392 0.079424 -0.011330 283855.000000 0 0 1
34.815088 -9.513144 -27.773575 45.540770 -0.266736 2.226682 0.061048 -0.007402 -152165.000000 0 0 1
33.867508 -8.491944 -27.603795 44.509445 -0.245675 2.239766 0.047672 -0.000782 156597.000000 0 0 1
32.639798 -8.959844 -26.774195 43.156607 -0.267908 2.240044 0.045004 0.001403 26138.700000 0 0 1
32.813118 -9.105344 -25.391885 42.477710 -0.270681 2.211512 0.025030 0.019925 -155588.000000 0 0 1
31.653278 -9.578644 -24.741165 41.301401 -0.293851 2.213097 0.004993 0.016796 -64161.100000 0 0 1
31.816218 -9.645144 -23.235365 40.560852 -0.294346 2.180777 -0.008800 0.016120 -19785.900000 0 0 1
32.470718 -10.822744 -22.819165 41.136281 -0.321728 2.158824 -0.019001 0.014748 147126.000000 0 0 1
32.410818 -10.980644 -21.418765 40.370771 -0.326659 2.130047 -0.004777 0.006513 -83321.300000 0 0 1
33.064178 -12.304644 -20.936665 41.024238 -0.356265 2.106387 0.031185 0.007464 436981.000000 0 0 1
34.478088 -12.228644 -21.058065 42.210430 -0.340837 2.093106 0.042942 0.008703 234521.000000 0 0 1
35.190598 -12.950144 -20.075365 42.533572 -0.352620 2.062342 0.079453 0.001491 383199.000000 0 0 1
36.720258 -13.061744 -20.376565 43.979438 -0.341752 2.052535 0.109893 -0.009340 95455.700000 0 0 1
37.434378 -11.823344 -20.346065 44.216360 -0.305927 2.048958 0.150634 -0.011113 294029.000000 0 0 1
37.331438 -10.972444 -21.454765 44.433521 -0.285869 2.074704 0.148088 -0.002426 -656825.000000 0 0 1
-37.194217 -11.260144 -22.745565 45.028451 0.293968 2.100338 0.098938 -0.001572 -229428.000000 0 0 1
-37.542187 -12.301544 -23.597765 46.017370 0.316647 2.109241 0.088007 -0.000629 715260.000000 0 0 1
36.508098 -12.141544 -24.165865 45.433989 -0.321065 2.131627 0.098745 0.004633 390151.000000 0 0 1
36.007458 -13.329444 -24.969465 45.800495 -0.354543 2.147399 0.061113 -0.014394 -357836.000000 0 0 1
35.799288 -14.568844 -24.320465 45.665362 -0.386491 2.132442 0.051035 -0.022178 1155680.000000 0 0 1
34.765078 -14.651044 -23.290465 44.336323 -0.398843 2.123880 0.020844 -0.009146 417968.000000 0 0 1
-30.144697 9.103256 -18.206065 36.373519 -0.293277 2.095008 0.086590 -0.002183 -101276.000000 0 0 1
-29.079017 8.246256 -18.501765 35.438754 -0.276326 2.120081 0.086348 -0.003112 -266585.000000 0 0 1
-28.648867 8.341956 -19.825865 35.824723 -0.283345 2.157253 0.094332 -0.023459 -37094.700000 0 0 1
-27.635447 7.292756 -20.343865 35.082404 -0.258010 2.189388 0.083947 -0.025897 1129080.000000 0 0 1
-26.411097 7.416656 -19.570065 33.697779 -0.273765 2.190449 0.084860 -0.026487 713691.000000 0 0 1
-25.537717 6.336256 -19.652565 32.841231 -0.243202 2.212313 0.107781 -0.036441 600961.000000 0 0 1
-24.079057 6.630256 -19.140765 31.466334 -0.268695 2.224705 0.064764 -0.029563 810949.000000 0 0 1
-23.457857 7.602156 -19.962565 31.726453 -0.313397 2.251331 0.063876 -0.027774 -357739.000000 0 0 1
-22.209857 7.991356 -19.456565 30.589172 -0.345388 2.260178 0.062578 -0.028621 -154871.000000 0 0 1
-21.633957 9.254556 -20.155865 30.982799 -0.404222 2.279105 0.071443 -0.017644 -404134.000000 0 0 1
-21.053357 8.998256 -21.381865 31.327250 -0.403904 2.322018 0.105638 -0.031268 -7773.370000 0 0 1
-20.594857 10.188056 -22.044365 31.841775 -0.459390 2.335481 0.087212 -0.030748 -189749.000000 0 0 1
-19.444557 9.850556 -22.990065 31.680709 -0.468911 2.382819 0.117754 -0.020446 -150123.000000 0 0 1
-19.900157 9.108156 -24.142165 32.585563 -0.429233 2.405184 0.100212 -0.016143 -50526.200000 0 0 1
-18.814857 8.546456 -24.819165 32.296002 -0.426374 2.447275 0.075117 -0.012689 -396048.000000 0 0 1
-19.254157 7.345956 -25.718075 32.956108 -0.364480 2.466059 0.048678 -0.008516 -105874.000000 0 0 1
-19.474257 6.059256 -25.108565 32.348127 -0.301647 2.459410 0.078184 -0.018027 318585.000000 0 0 1
-20.120757 5.243356 -26.088915 33.361192 -0.254925 2.468687 0.071865 -0.022377 -369200.000000 0 0 1
-20.568657 3.841056 -25.502235 32.987685 -0.184617 2.454484 0.065843 -0.011256 357483.000000 0 0 1
-19.565357 2.858656 -25.283945 32.097554 -0.145081 2.477898 0.055287 -0.010474 371701.000000 0 0 1
-18.444057 3.214256 -24.501165 30.835398 -0.172538 2.489110 0.054288 -0.018759 -86797.000000 0 0 1
-17.603057 2.054356 -23.850565 29.714264 -0.116179 2.502545 0.052445 -0.015025 216282.000000 0 0 1
-18.169057 1.402456 -22.742965 29.143164 -0.077036 2.466082 0.059420 -0.016969 144226.000000 0 0 1
-19.356957 0.676356 -23.024065 30.087486 -0.034927 2.442206 0.063877 -0.014656 104938.000000 0 0 1
-19.877857 -0.208544 -21.895065 29.573072 0.010491 2.404419 0.091776 -0.013329 257465.000000 0 0 1
-18.960857 -1.270044 -21.627865 28.790479 0.066883 2.420699 0.094481 -0.018416 530723.000000 0 0 1
-19.398357 -2.026744 -20.521365 28.311312 0.104102 2.381608 0.103432 -0.012448 -219300.000000 0 0 1
-18.882357 -3.444844 -20.408165 28.016130 0.180453 2.386843 0.083702 -0.029424 -232569.000000 0 0 1
-19.388557 -4.278044 -21.427465 29.212225 0.217168 2.394269 0.089807 -0.036431 374735.000000 0 0 1
-19.465957 -5.640944 -21.001065 29.185415 0.282059 2.373985 0.090599 -0.033387 -143496.000000 0 0 1
-19.471257 -6.579044 -22.190365 30.246090 0.325841 2.394490 0.064713 -0.041725 147593.000000 0 0 1
-18.194257 -6.577044 -22.804165 29.905158 0.346874 2.438041 0.067739 -0.026941 302675.000000 0 0 1
-18.244857 -7.511044 -23.867965 30.967246 0.390535 2.450812 0.086641 -0.033989 -537338.000000 0 0 1
-16.954257 -7.638244 -24.639665 30.869122 0.423287 2.495094 0.082391 -0.033560 -1081820.000000 0 0 1
-16.993957 -8.591344 -25.698645 31.984780 0.468080 2.503889 0.090828 -0.059620 337728.000000 0 0 1
-15.685057 -8.748044 -26.213495 31.775724 0.508759 2.540916 0.093367 -0.056826 959636.000000 0 0 1
-14.595457 -9.571144 -25.406865 30.824389 0.580415 2.539665 0.080264 -0.047753 -410817.000000 0 0 1
-13.852957 -8.867644 -24.492465 29.502888 0.569403 2.550212 0.079421 -0.043677 -469129.000000 0 0 1
-12.946357 -9.791744 -23.985265 28.961688 0.647541 2.546635 0.053229 -0.036016 -553628.000000 0 0 1
-11.947157 -9.258244 -22.955965 27.485014 0.659268 2.559325 0.064213 -0.037193 -456219.000000 0 0 1
-12.525457 -8.825144 -21.749765 26.604934 0.613791 2.527868 0.058772 -0.035565 -526963.000000 0 0 1
-11.627657 -8.295744 -20.861965 25.283263 0.619695 2.541228 0.058969 -0.033041 -1536480.000000 0 0 1
-12.225457 -8.027644 -19.484665 24.363026 0.581024 2.497698 0.057231 -0.025465 362449.000000 0 1 0
-13.199857 -6.959744 -19.348765 24.434586 0.485216 2.484645 0.061918 -0.018202 354555.000000 0 1 0
-14.492657 -7.336744 -19.728165 25.555145 0.468626 2.452753 0.077203 -0.026167 -1074510.000000 0 0 1
-15.518657 -6.290444 -19.295565 25.548331 0.385108 2.426843 0.072314 -0.020340 -366993.000000 0 0 1
-15.715457 -6.209644 -17.885265 24.605243 0.376301 2.384576 0.055906 -0.018165 660316.000000 0 1 0
-14.914357 -5.149444 -17.340065 23.444246 0.332453 2.403317 0.062757 -0.025016 -226524.000000 0 1 0
-15.189757 -4.879344 -15.827565 22.473285 0.310815 2.352210 0.076890 -0.012948 132763.000000 0 1 0
-16.478757 -4.355444 -15.516965 23.049849 0.258398 2.309313 0.098398 -0.014899 467743.000000 0 1 0
-16.675257 -2.916344 -15.612665 23.028777 0.173139 2.315785 0.051373 -0.018109 -611716.000000 0 1 0
-17.831357 -2.470744 -14.742565 23.268113 0.137685 2.256988 0.043423 -0.018953 -474585.000000 0 1 0
-17.766957 -2.690044 -13.363565 22.393883 0.150266 2.210242 0.075078 -0.025553 361222.000000 0 1 0
-18.818257 -1.947044 -12.741665 22.809380 0.103099 2.163512 0.077646 -0.025674 251553.000000 0 1 0
-18.349257 -0.713744 -11.905065 21.884589 0.038878 2.145985 0.081725 -0.028362 -79861.300000 0 1 0
-18.000657 0.405256 -12.728465 22.049982 -0.022510 2.186160 0.106408 -0.033508 1139840.000000 0 1 0
-16.946057 1.165056 -12.091765 20.850348 -0.068643 2.189440 0.096222 -0.026850 -391231.000000 0 1 0
-16.571257 2.263456 -13.116765 21.255101 -0.135749 2.235863 0.114805 -0.030565 7185.380000 0 1 0
-15.818357 1.930156 -14.265065 21.387800 -0.121420 2.300934 0.099719 -0.028924 943919.000000 0 1 0
-14.506557 1.425156 -13.960965 20.183652 -0.097928 2.334632 0.085933 -0.022436 -11223.500000 0 1 0
-13.887557 0.459656 -15.014065 20.457216 -0.033086 2.394879 0.075694 -0.021970 202840.000000 0 1 0
-13.257057 1.119556 -16.113365 20.896017 -0.084250 2.451397 0.074822 -0.030750 328051.000000 0 1 0
-13.000357 0.163856 -17.128765 21.504203 -0.012603 2.492332 0.050736 -0.016649 -66293.100000 0 1 0
-12.459457 0.840156 -18.392765 22.231458 -0.067329 2.545135 0.065348 -0.021221 -688770.000000 0 1 0
-11.103457 1.155856 -18.342565 21.472598 -0.103725 2.594867 0.039374 -0.010230 -594896.000000 0 1 0
-10.858057 2.004356 -19.456265 22.370988 -0.182541 2.625410 0.055316 -0.015101 729728.000000 0 1 0
-9.446957 2.670556 -19.470765 21.805677 -0.275501 2.674590 0.043258 -0.011222 750854.000000 0 1 0
-8.304657 1.827856 -19.762165 21.513985 -0.216646 2.735251 0.043495 -0.008222 456960.000000 0 1 0
-7.082757 2.460656 -19.491765 20.884185 -0.334370 2.774366 0.037226 -0.000236 63359.500000 0 1 0
-6.627457 3.662956 -20.375665 21.737253 -0.504909 2.785774 0.043728 0.000968 -847508.000000 0 1 0
-6.364557 3.169756 -21.694365 22.829814 -0.462072 2.824881 0.041629 0.004568 245453.000000 0 1 0
-6.248957 4.186356 -22.666465 23.881869 -0.590258 2.821187 0.055404 0.005012 -198825.000000 0 1 0
-5.661357 3.575856 -23.966065 24.883930 -0.563349 2.869141 0.080350 -0.014476 -18801.300000 0 1 0
-4.334757 3.113756 -23.836065 24.426289 -0.622918 2.921314 0.082562 -0.017382 -144225.000000 0 1 0
-3.891557 2.366156 -24.961565 25.373660 -0.546298 2.961120 0.106489 -0.025900 208916.000000 0 0 1
-2.465257 1.833156 -24.692065 24.882444 -0.639390 3.017811 0.074485 -0.023755 289527.000000 0 1 0
-1.475757 2.837656 -24.375065 24.584018 -1.091228 3.011120 0.059544 -0.021960 1575000.000000 0 1 0
-0.098957 2.416156 -24.497465 24.616527 -1.529863 3.043200 0.052155 -0.013684 1265850.000000 0 1 0
0.484643 1.421056 -23.462865 23.510855 1.242122 3.077688 0.056945 -0.020096 -775810.000000 0 1 0
0.151443 0.046656 -23.659665 23.660196 0.298850 3.134895 0.055799 -0.019979 -63405.200000 0 1 0
0.862243 -0.781644 -22.776465 22.806179 -0.736408 3.090540 0.054422 -0.016666 -512849.000000 0 1 0
0.356143 -2.251644 -22.705765 22.819915 -1.413926 3.041529 0.057760 -0.026608 866349.000000 0 1 0
-0.793957 -2.586344 -21.887265 22.053841 1.272948 3.018607 0.053137 -0.030571 1427810.000000 0 1 0
-2.076757 -2.620844 -22.543065 22.789724 0.900707 2.994332 0.063022 -0.029895 1339090.000000 0 1 0
-2.874257 -1.248744 -22.738465 22.953399 0.409854 3.004636 0.065230 -0.024174 -754373.000000 0 1 0
-3.351657 -0.866744 -21.458665 21.736126 0.253058 2.981641 0.049011 -0.022244 212938.000000 0 1 0
-4.306957 0.169556 -21.482365 21.910514 -0.039348 2.943579 0.046552 -0.021350 1713120.000000 0 1 0
-5.749657 -0.098044 -22.103765 22.839540 0.017050 2.887076 0.048731 -0.020379 723615.000000 0 1 0
-6.569857 -1.057144 -21.498165 22.504481 0.159541 2.841414 0.056253 -0.017308 -256428.000000 0 1 0
-7.878157 -0.997144 -22.011765 23.400373 0.125901 2.795363 0.047774 -0.007986 313992.000000 0 1 0
-8.751157 -2.188244 -21.462265 23.280893 0.245028 2.743709 0.040944 -0.010818 84877.100000 0 1 0
-8.889557 -3.401644 -22.242165 24.193167 0.365466 2.737240 0.072560 -0.026570 60556.500000 0 1 0
-9.629057 -4.347844 -21.478165 23.936041 0.424129 2.684444 0.061861 -0.032207 -564116.000000 0 1 0
-10.530157 -5.157944 -22.430665 25.310538 0.455475 2.659914 0.062190 -0.038282 -734094.000000 0 0 1
-11.860057 -4.717344 -22.453465 25.827745 0.378566 2.624691 0.058931 -0.036803 -650035.000000 0 0 1
-12.589757 -5.474044 -23.365965 27.100470 0.410143 2.610389 0.057666 -0.042082 -17050.900000 0 0 1
-14.108157 -5.270644 -23.114365 27.587926 0.357533 2.564117 0.079681 -0.038959 128331.000000 0 0 1
-14.644657 -3.961944 -23.310765 27.812852 0.264214 2.564641 0.078062 -0.041944 161560.000000 0 0 1
-16.053557 -4.014744 -23.141965 28.449700 0.245058 2.520829 0.088122 -0.034543 174635.000000 0 0 1
-16.661857 -2.750144 -23.745965 29.138491 0.163581 2.523413 0.077172 -0.031221 -416420.000000 0 0 1
-16.507157 -2.540144 -25.123335 30.168204 0.152684 2.554898 0.067961 -0.035865 78766.800000 0 0 1
-16.962657 -1.268044 -25.538605 30.684850 0.074616 2.554017 0.049923 -0.027239 -58399.600000 0 0 1
-18.396457 -1.330044 -26.134745 31.987866 0.072173 2.527021 0.064792 -0.024543 -288553.000000 0 0 1
-18.658757 -1.861944 -27.436895 33.232503 0.099460 2.542069 0.071841 -0.032683 -5813.480000 0 0 1
-18.215957 -0.984944 -28.442325 33.789896 0.054018 2.571295 0.058559 -0.029106 -229086.000000 0 0 1
-18.263957 -1.639244 -29.857295 35.038797 0.089513 2.590821 0.056241 -0.025689 -174664.000000 0 0 1
-19.589957 -1.848944 -30.251155 36.087635 0.094103 2.564898 0.048123 -0.027519 -128899.000000 0 0 1
-19.570557 -2.492844 -31.489665 37.159386 0.126695 2.581906 0.051491 -0.033701 -99598.200000 0 0 1
-20.999557 -2.959644 -31.935005 38.335172 0.140016 2.555390 0.025866 -0.025986 388756.000000 0 0 1
-21.825457 -1.847644 -32.194425 38.938996 0.084454 2.544176 0.026794 -0.032946 413467.000000 0 0 1
-22.759957 -1.597444 -31.139255 38.603377 0.070072 2.509251 0.021526 -0.012043 583756.000000 0 0 1
-23.949957 -0.641244 -31.534465 39.603461 0.026768 2.491876 0.029169 -0.010959 520028.000000 0 0 1
-23.465757 0.657256 -31.815775 39.538807 -0.028002 2.505919 0.036573 -0.020020 -19499.300000 0 0 1
-24.392957 1.392556 -32.546175 40.696549 -0.057027 2.497639 0.037697 -0.017318 -423545.000000 0 0 1
-23.873157 2.701156 -33.172855 40.959275 -0.112667 2.514775 0.038578 -0.019774 -1136910.000000 0 0 1
-23.456757 3.729756 -32.329655 40.116544 -0.157686 2.507979 0.025914 -0.015751 635498.000000 0 0 1
-24.417157 4.318156 -31.431445 40.034732 -0.175039 2.473661 0.031817 -0.018340 -446058.000000 0 0 1
-25.619067 5.063956 -31.993775 41.298691 -0.195148 2.457025 0.031988 -0.024279 -659322.000000 0 0 1
-26.485967 4.130456 -32.589575 42.197720 -0.154703 2.453260 0.056695 -0.039745 268779.000000 0 0 1
-27.773317 4.716956 -32.856255 43.279791 -0.168232 2.432817 0.081105 -0.044647 475691.000000 0 0 1
-28.684827 3.688356 -33.541645 44.288432 -0.127880 2.430035 0.100372 -0.040999 -235609.000000 0 0 1
-28.338007 3.465656 32.780226 43.469491 -0.121693 0.716518 0.106054 -0.036160 747096.000000 0 0 1
-29.436887 2.847956 32.098704 43.645939 -0.096448 0.744489 0.114703 -0.035479 361136.000000 0 0 1
-29.539997 1.339356 32.135209 43.670092 -0.045309 0.743856 0.113742 -0.020824 -205594.000000 0 0 1
-29.864857 0.834456 33.424744 44.831011 -0.027934 0.729404 0.117432 -0.017122 270096.000000 0 0 1
-30.383777 -0.488244 33.385568 45.144307 0.016068 0.738425 0.113569 -0.011173 -700706.000000 0 0 1
-30.486767 -0.998144 -32.830125 44.813574 0.032729 2.392920 0.096332 -0.010677 497271.000000 0 0 1
-29.258367 -1.368944 -32.199515 43.528552 0.046754 2.403470 0.089946 -0.020572 400608.000000 0 0 1
-28.277457 -0.430644 -31.968605 42.682453 0.015228 2.417328 0.078496 -0.018444 -952165.000000 0 0 1
-28.094657 -0.117544 -30.477925 41.451508 0.004184 2.396857 0.091162 -0.013235 -51250.800000 0 0 1
-27.266177 -1.019244 -29.743205 40.362625 0.037364 2.399269 0.066114 -0.016693 457309.000000 0 0 1
-27.405307 -0.615844 -28.400535 39.471769 0.022468 2.373900 0.082049 -0.014940 -25255.000000 0 0 1
-26.448287 -1.251344 -27.339355 38.059402 0.047278 2.372201 0.079394 -0.011874 29710.100000 0 0 1
-26.539967 -2.595244 -27.017215 37.960968 0.097476 2.362726 0.060667 -0.008680 -160706.000000 0 0 1
-25.526727 -2.943944 -26.116845 36.638371 0.114821 2.364318 0.073587 -0.020760 -164631.000000 0 0 1
-25.719557 -4.435844 -25.594375 36.554676 0.170789 2.346428 0.057949 -0.023801 612933.000000 0 0 1
-26.816457 -4.434044 -24.664965 36.703455 0.163865 2.307711 0.071664 -0.021235 420912.000000 0 0 1
-26.841957 -5.564844 -23.846765 36.333543 0.204423 2.286739 0.054458 -0.016798 -203284.000000 0 0 1
-27.993117 -5.389244 -22.868465 36.546207 0.190193 2.246878 0.079511 -0.017491 -240581.000000 0 0 1
-28.084857 -6.404744 -21.869265 36.166901 0.224215 2.220156 0.077051 -0.022626 863592.000000 0 0 1
-29.330337 -6.264344 -21.145565 36.696670 0.210418 2.184899 0.129624 -0.020558 849284.000000 0 0 1
-29.577917 -7.445544 -20.187665 36.576374 0.246603 2.155475 0.147552 -0.027038 -389424.000000 0 0 1
-28.669847 -7.468144 -19.150265 35.276989 0.254825 2.144628 0.137307 -0.032316 -210513.000000 0 0 1
-28.887587 -8.635344 -18.356565 35.299084 0.290474 2.117682 0.160804 -0.036869 -42366.400000 0 0 1
-29.436837 -8.245344 -16.979965 34.969019 0.273104 2.077813 0.164311 -0.038621 58744.600000 0 0 1
-28.500707 -7.541944 -16.162665 33.621466 0.258693 2.072277 0.134540 -0.037926 304596.000000 0 0 1
-29.120917 -6.710244 -15.223065 33.537992 0.226474 2.041939 0.150585 -0.036543 -566274.000000 0 0 1
-28.134887 -6.018444 -14.295165 32.127018 0.210738 2.031923 0.160940 -0.033411 -286734.000000 0 0 1
-27.397717 -5.005644 -14.967865 31.618481 0.180710 2.063931 0.170518 -0.031152 23458.700000 0 0 1
-26.904447 -4.130444 -14.049865 30.631823 0.152333 2.047293 0.134722 -0.032224 -579815.000000 0 0 1
-14.375357 21.014956 -5.079665 25.963094 -0.970853 1.767716 0.108516 -0.043104 -4212.760000 0 0 1
-14.453957 20.402556 -6.336765 25.794103 -0.954429 1.819004 0.126909 -0.039061 28703.500000 0 0 1
-15.357957 19.327456 -6.353865 25.490959 -0.899345 1.822712 0.122778 -0.051027 -307348.000000 0 0 1
-15.508257 18.696556 -7.730665 25.491772 -0.878342 1.878909 0.138057 -0.057620 -440587.000000 0 0 1
-14.395257 17.962056 -8.171865 24.426180 -0.895187 1.911928 0.119532 -0.050756 -12786.600000 0 1 0
-14.696157 17.017656 -9.206965 24.297034 -0.858469 1.959440 0.103761 -0.050694 -393194.000000 0 1 0
-15.241157 15.706256 -8.643265 23.530520 -0.800426 1.946924 0.100025 -0.048507 -541737.000000 0 1 0
-16.621557 15.770656 -8.445865 24.419713 -0.759136 1.923954 0.115621 -0.044781 -630782.000000 0 1 0
-17.098257 15.000256 -7.392065 23.916536 -0.720130 1.885019 0.131138 -0.024956 -706341.000000 0 1 0
-18.543457 15.404156 -7.125265 25.137964 -0.693186 1.858182 0.155897 -0.016475 -1221270.000000 0 0 1
-19.409157 14.699056 -7.906665 25.598691 -0.648173 1.884801 0.145063 -0.033987 -77947.000000 0 0 1
-20.761757 15.105056 -7.655965 26.792295 -0.628973 1.860588 0.124039 -0.034887 708815.000000 0 0 1
-21.795657 14.325556 -8.498265 27.431601 -0.581467 1.885777 0.118957 -0.028139 -58215.200000 0 0 1
-21.994057 13.025456 -7.972165 26.776043 -0.534684 1.873115 0.156083 -0.031132 204265.000000 0 0 1
-22.955857 12.283456 -8.699165 27.450504 -0.491324 1.893259 0.177963 -0.032007 101412.000000 0 0 1
-23.242357 10.939556 -8.146265 26.948890 -0.439912 1.877886 0.176865 -0.038685 387078.000000 0 0 1
-22.186857 9.948756 -8.274665 25.684713 -0.421529 1.898810 0.180131 -0.036274 598275.000000 0 0 1
-22.172857 8.973456 -7.273165 25.001149 -0.384555 1.865978 0.196818 -0.042047 -722923.000000 0 0 1
-20.945157 8.085656 -7.208565 23.580519 -0.368414 1.881470 0.150515 -0.023261 -755143.000000 0 1 0
-20.997657 6.993356 -8.109065 23.570439 -0.321499 1.922008 0.163506 -0.023743 309935.000000 0 1 0
-19.986557 6.078156 -7.754765 22.283241 -0.295225 1.926243 0.127630 -0.011133 -371596.000000 0 1 0
-19.824257 4.860956 -8.708865 22.191764 -0.240458 1.974076 0.116808 -0.022015 -976420.000000 0 1 0
-20.793557 3.890156 -8.690565 22.869877 -0.184947 1.960593 0.136756 -0.022052 -131268.000000 0 1 0
-20.521257 2.860856 -9.655765 22.859140 -0.138517 2.006891 0.121553 -0.023180 53519.300000 0 1 0
-21.508957 1.681056 -9.535165 23.587721 -0.077998 1.986947 0.132378 -0.024925 68812.800000 0 1 0
-21.252357 1.005756 -8.314265 22.842969 -0.047289 1.943328 0.125446 -0.030818 1256180.000000 0 1 0
-22.237257 -0.040844 -7.983965 23.627124 0.001837 1.915497 0.147308 -0.033265 618243.000000 0 1 0
-22.154757 -1.362744 -8.727765 23.850875 0.061433 1.945429 0.118714 -0.043765 -261490.000000 0 1 0
-20.984057 -2.102744 -8.454065 22.720550 0.099873 1.952055 0.099154 -0.031332 400775.000000 0 1 0
-20.967857 -3.419344 -8.981765 23.065452 0.161653 1.970780 0.081463 -0.030571 -485449.000000 0 1 0
-21.882657 -4.370844 -8.252965 23.792150 0.197146 1.925036 0.088674 -0.032851 -305826.000000 0 1 0
-21.593457 -4.503944 -6.832465 23.092109 0.205631 1.871172 0.094089 -0.030019 330344.000000 0 1 0
-22.634757 -5.201244 -6.164865 24.028956 0.225869 1.830258 0.122655 -0.033959 -54452.600000 0 1 0
-22.725657 -6.700644 -6.470965 24.560690 0.286725 1.837412 0.125625 -0.033190 -79063.500000 0 1 0
-21.617757 -7.541444 -6.148165 23.706555 0.335654 1.833140 0.114312 -0.031660 647765.000000 0 1 0
-21.729857 -8.900944 -6.547165 24.377836 0.388770 1.842705 0.125412 -0.027955 -383970.000000 0 1 0
-20.545457 -9.739344 -6.038865 23.525274 0.442664 1.830399 0.109398 -0.021718 -586400.000000 0 1 0
-19.277257 -9.456744 -6.559965 22.451632 0.456071 1.867304 0.090267 -0.024394 359224.000000 0 1 0
-18.295957 -10.159644 -5.762665 21.706421 0.506899 1.839500 0.083493 -0.013356 277350.000000 0 1 0
-17.537757 -11.317044 -6.420065 21.837254 0.573061 1.869201 0.069668 -0.010938 -31422.500000 0 1 0
-16.459957 -11.122644 -7.325265 21.173165 0.594258 1.924068 0.071218 -0.022547 820503.000000 0 1 0
-16.914657 -10.588444 -8.556165 21.712410 0.559313 1.975850 0.072501 -0.030902 71677.300000 0 1 0
-15.873857 -10.756444 -9.721565 21.498587 0.595547 2.040022 0.066783 -0.020891 501249.000000 0 1 0
-15.955357 -12.105244 -10.123365 22.440875 0.649042 2.038808 0.081951 -0.024360 249587.000000 0 1 0
-15.029957 -12.412644 -11.144565 22.453834 0.690312 2.090165 0.081432 -0.005767 35828.500000 0 1 0
-15.251057 -13.801144 -11.766665 23.696429 0.735532 2.090426 0.099238 -0.016280 138831.000000 0 1 0
-16.266157 -13.896144 -12.753665 24.906759 0.706984 2.108373 0.109019 -0.025564 166890.000000 0 1 0
-16.350557 -15.208244 -13.235365 25.957779 0.749218 2.105842 0.090611 -0.024559 -63600.900000 0 0 1
-17.011157 -15.251944 -14.629565 27.129789 0.730925 2.140335 0.112225 -0.023707 42357.200000 0 0 1
-16.885157 -16.538744 -15.215865 28.109805 0.775034 2.142780 0.092492 -0.011444 87108.200000 0 0 1
-17.297357 -16.426944 -16.571765 29.045937 0.759594 2.177955 0.084368 -0.014827 -525381.000000 0 0 1
-17.996357 -17.686044 -17.101265 30.481442 0.776702 2.166436 0.096485 -0.025062 335297.000000 0 0 1
-19.342757 -17.684644 -16.601165 31.023984 0.740647 2.135431 0.055765 -0.012011 -215511.000000 0 0 1
-20.216257 -17.834344 -17.662465 32.229235 0.722881 2.150799 0.039488 -0.004874 -562798.000000 0 0 1
-21.693457 -17.608044 -17.279465 32.851624 0.681820 2.124669 0.035865 -0.009196 -76905.100000 0 0 1
-21.952057 -16.299244 -16.731465 32.054642 0.638679 2.119952 0.032651 -0.004916 231995.000000 0 0 1
-21.797657 -16.233444 -15.395065 31.235726 0.640122 2.086178 0.046642 -0.011434 -408404.000000 0 0 1
-21.810957 -14.856744 -14.678065 30.197455 0.597969 2.078383 0.065417 -0.030336 31627.200000 0 0 1
-23.098357 -14.323444 -14.423865 30.769190 0.555073 2.058701 0.091409 -0.035358 411609.000000 0 0 1
-23.051957 -13.162144 -13.702065 29.872753 0.518806 2.047307 0.097474 -0.035408 -817496.000000 0 0 1
-24.440457 -12.616544 -13.457265 30.620436 0.476536 2.025823 0.117763 -0.045688 -1443970.000000 0 0 1
-25.275287 -13.427644 -12.740865 31.328444 0.488339 1.989621 0.148435 -0.047733 640663.000000 0 0 1
-26.495517 -12.683144 -12.466965 31.910810 0.446455 1.972168 0.157580 -0.051675 4025.980000 0 0 1
-27.308027 -13.305644 -11.397265 32.444817 0.453390 1.929736 0.191967 -0.050985 -208380.000000 0 0 1
-28.429697 -12.425444 -11.177965 32.978573 0.412040 1.916593 0.183418 -0.054475 570621.000000 0 0 1
-29.175177 -12.823844 -10.056365 33.418145 0.414127 1.876459 0.191772 -0.046763 125690.000000 0 0 1
-29.989467 -11.637444 -9.461765 33.530930 0.370163 1.856862 0.186274 -0.043835 174853.000000 0 0 1
-29.112827 -10.611144 -9.027665 32.274631 0.349519 1.854292 0.180554 -0.046029 95488.000000 0 0 1
-29.772867 -9.597644 -8.329565 32.371593 0.311844 1.831035 0.201664 -0.050631 -368898.000000 0 0 1
-28.825517 -8.474844 -7.889565 31.064106 0.285948 1.827586 0.197271 -0.040782 190640.000000 0 0 1
-28.155207 -8.830744 -6.655265 30.248806 0.303928 1.792629 0.183077 -0.038924 562897.000000 0 0 1
-27.310037 -7.840644 -6.053565 29.050981 0.279578 1.780712 0.170901 -0.039846 561345.000000 0 0 1
-28.066257 -6.573844 -5.425665 29.332031 0.230078 1.756842 0.186155 -0.046706 -43664.500000 0 0 1
-28.708247 -6.829244 -4.131165 29.797123 0.233544 1.709887 0.201159 -0.043315 330562.000000 0 0 1
-27.937887 -7.093744 -2.991465 28.979227 0.248656 1.674208 0.194591 -0.029117 -703530.000000 0 0 1
-27.206897 -5.985444 -2.299265 27.952235 0.216548 1.653146 0.202378 -0.028172 -514676.000000 0 0 1
-28.084527 -4.994744 -1.900665 28.588471 0.176007 1.637329 0.218850 -0.041717 -111949.000000 0 0 1
-27.430517 -3.898544 -1.274365 27.735463 0.141179 1.616760 0.185068 -0.046412 -688287.000000 0 0 1
-28.365307 -2.815444 -0.809365 28.516179 0.098933 1.599183 0.193697 -0.053341 -1053570.000000 0 0 1
-29.176247 -3.208444 0.249335 29.353189 0.109528 1.562302 0.181855 -0.035607 -214328.000000 0 0 1
-28.561637 -3.132944 1.496335 28.771887 0.109254 1.518766 0.177643 -0.041316 -142084.000000 0 0 1
-29.611327 -3.306644 2.626335 29.910905 0.111207 1.482878 0.179489 -0.030405 183784.000000 0 0 1
-30.267817 -4.585844 2.557135 30.719858 0.150365 1.487459 0.187888 -0.030203 -422161.000000 0 0 1
-31.200127 -4.569544 3.578735 31.735406 0.145425 1.457788 0.213287 -0.038082 -437450.000000 0 0 1
-32.192427 -5.753544 3.503835 32.889702 0.176856 1.464061 0.204878 -0.043946 -143253.000000 0 0 1
-31.641587 -7.016444 3.966035 32.651952 0.218217 1.449032 0.201164 -0.039369 -169951.000000 0 0 1
-32.347767 -8.176444 3.661635 33.565456 0.247581 1.461489 0.220175 -0.050227 132088.000000 0 0 1
-31.446007 -9.496944 3.759935 33.063279 0.293298 1.456830 0.198979 -0.039209 602935.000000 0 0 1
-31.096897 -9.777644 5.095735 32.993725 0.304638 1.415730 0.170364 -0.032472 174280.000000 0 0 1
-30.543367 -11.103144 5.157435 32.905565 0.348669 1.413413 0.173136 -0.028624 -54924.200000 0 0 1
-30.312017 -11.730944 6.528235 33.151942 0.369255 1.372582 0.159416 -0.031068 -92943.300000 0 0 1
-29.175397 -11.281644 7.225835 32.104392 0.368974 1.343778 0.120245 -0.012799 155688.000000 0 0 1
-29.373727 -11.498344 8.583235 32.690973 0.373114 1.305125 0.162266 -0.023320 -66019.600000 0 0 1
-29.823817 -10.225244 9.348335 32.884754 0.330295 1.282546 0.165582 -0.034362 334982.000000 0 0 1
-28.789227 -9.311744 9.698235 31.773951 0.312825 1.260621 0.132148 -0.012917 682061.000000 0 0 1
-29.456637 -8.236944 10.352335 32.291045 0.272665 1.244439 0.146738 -0.012169 286552.000000 0 0 1
-28.547097 -7.112844 10.905135 31.375967 0.244190 1.215825 0.155839 -0.006805 -28965.400000 0 0 1
-28.351537 -6.237844 9.788435 30.635499 0.216567 1.245581 0.164368 -0.007367 649518.000000 0 0 1
-27.479257 -5.120244 10.084135 29.715589 0.184219 1.224565 0.151733 -0.012434 287545.000000 0 0 1
-27.670037 -3.942644 9.092335 29.391257 0.141535 1.256282 0.166053 -0.026641 -205366.000000 0 0 1
-27.188357 -4.301644 7.801235 28.610665 0.156916 1.294631 0.150561 -0.011067 324794.000000 0 0 1
-27.499027 -3.395044 6.754735 28.519279 0.122839 1.331676 0.156909 -0.035032 -132997.000000 0 0 1
-26.642707 -3.671844 5.523335 27.455847 0.136955 1.368243 0.144779 -0.023743 -867103.000000 0 0 1
-25.267727 -3.517944 5.629835 26.125256 0.138337 1.353599 0.175909 -0.040756 -199853.000000 0 0 1
-24.615057 -3.953744 4.466235 25.327463 0.159263 1.393530 0.182468 -0.029168 -964021.000000 0 0 1
-23.124257 -3.734744 4.384635 23.830749 0.160125 1.385751 0.171556 -0.027557 -769087.000000 0 1 0
-22.647557 -2.413644 4.209135 23.161484 0.106173 1.388051 0.135800 -0.033171 516725.000000 0 1 0
-21.225957 -2.378344 4.231835 21.773980 0.111583 1.375199 0.114720 -0.026083 258397.000000 0 1 0
-20.700057 -0.958244 4.619735 21.230934 0.046259 1.351447 0.096517 -0.033260 -469060.000000 0 1 0
-20.855257 0.115556 3.722635 21.185210 -0.005541 1.394161 0.107098 -0.030111 1502650.000000 0 1 0
-22.191457 0.648656 3.558435 22.484305 -0.029222 1.411865 0.107136 -0.043188 872564.000000 0 1 0
-22.132357 1.813756 2.521035 22.349196 -0.081768 1.457754 0.123668 -0.034684 -465556.000000 0 1 0
-21.612957 2.994056 3.016835 22.026929 -0.137655 1.433403 0.098257 -0.040399 202006.000000 0 1 0
-21.818057 4.090256 2.148435 22.301874 -0.185320 1.474312 0.124807 -0.028982 504270.000000 0 1 0
-20.651657 4.216656 1.087935 21.105799 -0.201412 1.519227 0.100547 -0.020495 -1628.130000 0 1 0
-20.857357 4.993856 -0.054065 21.446932 -0.235005 1.573317 0.117969 -0.010386 356146.000000 0 1 0
-21.807357 4.542256 -1.012665 22.298395 -0.205354 1.616226 0.162339 -0.020895 -64653.200000 0 1 0
-21.559157 3.221856 -1.838465 21.875959 -0.148345 1.654936 0.168032 -0.023378 -281362.000000 0 1 0
-21.655457 2.034356 -1.130965 21.780186 -0.093667 1.622746 0.143501 -0.026199 491813.000000 0 1 0
-21.017657 0.984656 -1.815665 21.118904 -0.046815 1.656876 0.120783 -0.022948 -407627.000000 0 1 0
-20.176657 0.174656 -0.812965 20.193784 -0.008656 1.611065 0.110164 -0.021845 -746496.000000 0 1 0
-20.794657 -0.690744 0.046135 20.806178 0.033205 1.568579 0.117233 -0.026488 165135.000000 0 1 0
-19.875657 -1.317944 0.931535 19.941075 0.066213 1.524065 0.087202 -0.022204 -166554.000000 0 1 0
-19.163557 -2.574044 0.398335 19.339760 0.133521 1.550198 0.060340 -0.021709 -132355.000000 0 1 0
-18.316757 -3.146044 1.364635 18.635005 0.170098 1.497501 0.048650 -0.019150 275143.000000 0 1 0
-17.555657 -4.278144 1.026035 18.098518 0.239031 1.514074 0.032324 -0.015331 168660.000000 0 1 0
-18.388657 -5.589644 0.595235 19.228654 0.295097 1.539836 0.031979 -0.012921 358434.000000 0 1 0
-18.996857 -6.142044 1.749335 20.041593 0.312711 1.483400 0.046823 -0.021594 1477660.000000 0 1 0
-20.296757 -6.753544 1.540835 21.446279 0.321217 1.498888 0.079836 -0.018822 1264900.000000 0 1 0
-21.018757 -7.184044 2.884835 22.399128 0.329344 1.441645 0.099511 -0.016674 -237445.000000 0 1 0
-20.417957 -8.239344 3.522535 22.297713 0.383549 1.412154 0.096498 -0.014147 230799.000000 0 1 0
-20.961357 -8.490544 4.806635 23.120804 0.384858 1.361377 0.081298 -0.013780 -372969.000000 0 1 0
-20.076057 -9.357444 5.669935 22.863902 0.436161 1.320195 0.067191 -0.002114 -423483.000000 0 1 0
-19.773957 -10.540444 5.022435 22.963780 0.489734 1.350303 0.074201 -0.006036 473047.000000 0 1 0
-18.784457 -11.172044 5.844835 22.623715 0.536550 1.309483 0.076703 -0.015022 435498.000000 0 1 0
-18.179657 -12.467344 5.262335 22.663335 0.601122 1.336462 0.059864 -0.011187 -308541.000000 0 1 0
-19.195557 -13.425244 5.233635 24.002032 0.610319 1.350981 0.084022 -0.010713 -72072.000000 0 1 0
-18.636757 -14.649644 4.791235 24.184638 0.666184 1.371366 0.084647 -0.011019 46117.800000 0 1 0
-19.538357 -15.916044 4.966835 25.685352 0.683583 1.376198 0.098194 -0.015827 596543.000000 0 0 1
-18.793157 -17.104444 4.596535 25.823882 0.738390 1.391847 0.103356 -0.025902 642727.000000 0 0 1
-19.410557 -18.296544 5.124635 27.162385 0.755863 1.380992 0.106513 -0.028872 -210167.000000 0 0 1
-18.589057 -19.546944 5.002735 27.434712 0.810511 1.387420 0.113114 -0.033808 -859666.000000 0 0 1
-18.417257 -19.975244 3.658635 27.415166 0.825956 1.436944 0.119207 -0.031998 287542.000000 0 0 1
-17.695357 -21.199244 3.600535 27.847755 0.875242 1.441140 0.107849 -0.029206 734618.000000 0 0 1
-16.138857 -21.110744 3.721135 26.832314 0.918089 1.431667 0.097760 -0.024891 241533.000000 0 0 1
-15.458257 -22.349644 3.956435 27.461203 0.965693 1.426220 0.084640 -0.025730 732568.000000 0 0 1
-14.061257 -21.999744 4.059835 26.423284 1.002082 1.416539 0.077523 -0.022850 536803.000000 0 0 1
-13.193457 -23.236944 4.285335 27.062649 1.054405 1.411778 0.078115 -0.029332 -484181.000000 0 0 1
-13.286257 -24.077744 3.146435 27.679639 1.066567 1.456877 0.087234 -0.031259 266173.000000 0 0 1
-12.982857 -25.448404 3.430635 28.774035 1.099051 1.451285 0.091035 -0.029050 -19718.500000 0 0 1
19.264443 19.474356 -24.139065 36.511146 0.790817 2.293137 0.071288 -0.004856 56496.300000 0 0 1
18.364843 19.760956 -25.196005 36.913433 0.822000 2.322070 0.057470 -0.013786 365298.000000 0 0 1
18.945843 19.409656 -26.467715 37.897489 0.797490 2.343960 0.066290 -0.008329 -102423.000000 0 0 1
17.918443 19.638056 -27.541485 38.278679 0.831154 2.373878 0.063857 -0.009681 -261333.000000 0 0 1
17.803843 20.957956 -27.902525 39.176060 0.866591 2.363472 0.057342 -0.004549 30036.600000 0 0 1
16.976743 21.097856 -29.027865 39.698190 0.893216 2.390896 0.052551 0.001183 -300780.000000 0 0 1
16.701043 22.543456 -29.414895 40.649333 0.933185 2.379837 0.041540 -0.001723 -179422.000000 0 0 1
15.927443 23.231756 -28.398775 39.998604 0.969808 2.360286 0.049509 -0.007713 559403.000000 0 0 1
15.816643 24.661056 -28.607665 40.947923 1.000518 2.344285 0.053921 -0.006307 -6511.660000 0 0 1
14.987343 25.325056 -27.476015 40.260530 1.036429 2.321913 0.060832 -0.016355 -145003.000000 0 0 1
13.644443 24.912056 -27.408115 39.471333 1.069717 2.338355 0.078241 -0.027635 -246026.000000 0 0 1
13.023643 25.708256 -26.406015 39.087176 1.101888 2.312530 0.087865 -0.023538 -1230070.000000 0 0 1
11.560643 25.389156 -26.150835 38.237728 1.143512 2.323893 0.121136 -0.029080 -366219.000000 0 0 1
10.895243 26.267656 -25.249255 38.029212 1.177616 2.296877 0.117606 -0.042946 -10579.800000 0 0 1
10.605043 27.563356 -25.785795 39.206030 1.203504 2.288557 0.128289 -0.047717 -433082.000000 0 0 1
10.070943 28.565356 -24.708865 39.088764 1.231845 2.255085 0.151931 -0.053921 381086.000000 0 0 1
11.106843 28.952956 -23.829765 39.108737 1.204493 2.226000 0.134834 -0.052083 281209.000000 0 0 1
10.538643 29.637656 -22.717565 38.801307 1.229157 2.196274 0.159200 -0.058255 142548.000000 0 0 1
11.578543 30.046156 -21.652965 38.803158 1.202975 2.162795 0.122917 -0.057342 -26927.300000 0 0 1
12.610543 30.897356 -22.112765 40.033071 1.183290 2.155992 0.120891 -0.061561 24059.800000 0 0 1
13.473043 31.222756 -21.054865 39.996134 1.163422 2.125184 0.100160 -0.052155 -656185.000000 0 0 1
14.761143 31.904056 -21.471465 41.192037 1.137454 2.119115 0.092725 -0.040767 -253987.000000 0 0 1
15.772143 31.103456 -22.098065 41.285711 1.101496 2.135597 0.083048 -0.038603 -319158.000000 0 0 1
16.709343 31.967656 -22.645265 42.590389 1.089158 2.131402 0.080204 -0.028630 -686390.000000 0 0 1
17.985943 31.235156 -23.103665 42.812480 1.048343 2.140815 0.031229 -0.013548 320546.000000 0 0 1
18.816843 30.890356 -21.955665 42.312396 1.023676 2.116353 0.036214 -0.006545 951282.000000 0 0 1
19.991043 30.240856 -22.498365 42.665297 0.986685 2.126242 0.026375 -0.004325 675355.000000 0 0 1
20.927843 29.521556 -21.500865 42.092565 0.954122 2.106911 0.035578 0.002190 -234998.000000 0 0 1
21.728343 30.374056 -20.728465 42.712685 0.949837 2.077503 0.034157 0.010739 346208.000000 0 0 1
22.566143 29.537456 -19.897365 42.161561 0.918405 2.062277 0.054185 0.006686 565581.000000 0 0 1
23.226243 30.308556 -18.708965 42.521668 0.916928 2.026380 0.069623 -0.004108 -538499.000000 0 0 1
24.270243 31.180656 -18.988365 43.838750 0.909381 2.018771 0.050263 0.001113 -233267.000000 0 0 1
24.869843 31.550856 -17.764565 43.926591 0.903264 1.987135 0.072954 -0.000173 -166483.000000 0 0 1
26.132743 32.437556 -17.862565 45.323134 0.892630 1.975902 0.055946 0.006186 -312582.000000 0 0 1
27.247643 31.709356 -18.257165 45.620624 0.860932 1.982526 0.061169 0.002777 -659134.000000 0 0 1
28.330643 32.613456 -18.445265 46.973297 0.855557 1.974335 0.064045 -0.003802 618014.000000 0 0 1
29.635543 31.953356 -18.994665 47.540295 0.823014 1.981821 0.074360 -0.011438 513316.000000 0 0 1
30.123143 30.929956 -18.128265 46.826274 0.798612 1.968323 0.074125 -0.007548 -66788.300000 0 0 1
31.292743 30.379756 -18.700665 47.453980 0.770595 1.975863 0.050886 -0.010946 137388.000000 0 0 1
31.830743 29.093556 -17.952065 46.710896 0.740501 1.965271 0.040068 -0.018677 -88287.200000 0 0 1
32.374443 29.446256 -16.691165 46.837822 0.738068 1.935166 0.048928 -0.012506 154841.000000 0 0 1
32.448443 28.357756 -15.777265 45.891021 0.718225 1.921755 0.047685 -0.017932 -579732.000000 0 0 1
32.891243 28.860256 -14.339265 46.047397 0.720213 1.887465 0.055208 -0.019381 25496.300000 0 0 1
34.183443 29.390956 -14.121865 47.241540 0.710157 1.874366 0.018900 -0.009915 -208823.000000 0 0 1
34.337143 30.735456 -14.506765 48.313082 0.730106 1.875768 0.029385 -0.011422 -84693.200000 0 0 1
35.801843 31.184356 -14.635365 49.683296 0.716575 1.869805 0.027337 -0.016746 170489.000000 0 0 1
36.562943 31.310056 -13.449965 49.980696 0.708159 1.843258 0.031957 -0.013305 -49546.700000 0 0 1
-37.486673 31.735356 -13.793665 51.016161 -0.702503 1.844582 0.033448 -0.017464 244913.000000 0 0 1
-36.632773 32.034656 -12.547765 50.255603 -0.718536 1.823145 0.038713 -0.011332 16294.500000 0 0 1
-37.175073 33.212056 -11.860165 51.241489 -0.729154 1.804371 0.054804 -0.017774 396430.000000 0 0 1
-36.479573 33.477356 -10.639465 50.642776 -0.742509 1.782462 0.051277 -0.014043 -137887.000000 0 0 1
-36.918773 -32.987990 -9.846765 50.479323 0.729228 1.767120 0.053545 -0.011467 -676145.000000 0 0 1
-36.035573 -32.397390 -8.978065 49.282442 0.732284 1.753995 0.058388 -0.015842 -642977.000000 0 0 1
-35.880173 -33.052590 -7.704965 49.388531 0.744402 1.727443 0.057126 -0.019030 512893.000000 0 0 1
-35.428373 -31.964990 -6.640765 48.177069 0.734053 1.709077 0.067007 -0.030474 267182.000000 0 0 1
-36.601073 -31.260290 -6.261565 48.539174 0.706859 1.700157 0.059912 -0.015645 162947.000000 0 0 1
-36.371473 -30.211190 -5.337365 47.582429 0.693140 1.683204 0.077797 -0.019434 -1237930.000000 0 0 1
-37.632673 -29.517090 -5.002065 48.088432 0.665124 1.675003 0.078427 -0.015829 -1123530.000000 0 0 1
36.735543 -30.372890 -4.426365 47.870714 -0.690869 1.663394 0.053143 -0.007883 425623.000000 0 0 1
35.518743 -29.673790 -4.226765 46.475590 -0.695980 1.661868 0.048772 0.005790 -135951.000000 0 0 1
35.405643 -28.874790 -2.879465 45.777771 -0.684146 1.633739 0.051878 0.000180 -464164.000000 0 0 1
36.186643 -27.686290 -2.830465 45.651016 -0.653093 1.632838 0.077315 -0.011262 409806.000000 0 0 1
35.568243 -26.670890 -2.082865 44.505894 -0.643406 1.617613 0.070665 -0.007954 -188973.000000 0 0 1
36.229343 -25.320290 -2.362065 44.263548 -0.609980 1.624185 0.076812 -0.027024 -297465.000000 0 0 1
35.982943 -24.941590 -3.701965 43.938134 -0.606114 1.655150 0.080023 -0.019965 343812.000000 0 0 1
35.642143 -23.562290 -3.718165 42.887861 -0.584125 1.657600 0.093293 -0.026149 -202089.000000 0 0 1
35.262543 -23.095290 -5.135165 42.464212 -0.579849 1.692022 0.088995 -0.023893 -324355.000000 0 0 1
36.349843 -22.981590 -6.007865 43.423024 -0.563784 1.709598 0.074187 -0.023553 134773.000000 0 0 1
35.783743 -22.697990 -7.270965 42.994673 -0.565266 1.740726 0.060537 -0.022381 371577.000000 0 0 1
36.773643 -22.610090 -8.476265 43.992773 -0.551263 1.764683 0.057497 -0.020867 267688.000000 0 0 1
37.296043 -23.837690 -8.998065 45.168523 -0.568709 1.771349 0.054073 -0.007175 522304.000000 0 0 1
-36.875173 -23.662890 -9.759465 44.888282 0.570520 1.789963 0.055277 -0.006443 446107.000000 0 0 1
-36.340273 -24.997090 -10.390065 45.314715 0.602533 1.802141 0.056767 -0.005203 -341928.000000 0 0 1
-35.607773 -25.847090 -9.559565 45.026335 0.627887 1.784735 0.076460 -0.008749 -208409.000000 0 0 1
-36.349373 -26.887590 -8.996465 46.099412 0.636876 1.767210 0.064962 -0.010733 -187675.000000 0 0 1
-35.466873 -27.990690 -8.328665 45.942839 0.668125 1.753087 0.068475 -0.015551 14857.800000 0 0 1
-34.789273 -28.683790 -9.380065 46.054738 0.689503 1.775904 0.068557 -0.014626 -110797.000000 0 0 1
-33.883973 -29.574490 -8.793165 45.826781 0.717592 1.763872 0.067732 -0.026555 -511612.000000 0 0 1
-33.294973 -30.584390 -9.750765 46.249730 0.742991 1.783219 0.062353 -0.021934 -264017.000000 0 0 1
-32.287973 -30.078890 -10.604265 45.383954 0.749992 1.806633 0.051576 0.000262 98751.200000 0 0 1
-32.028773 -31.021190 -11.623865 46.078962 0.769419 1.825811 0.045839 0.000554 -186366.000000 0 0 1
-32.244773 -30.478090 -13.024465 46.241497 0.757239 1.856322 0.034193 0.007934 582486.000000 0 0 1
-31.140473 -29.644290 -13.446165 45.047889 0.760789 1.873902 0.036506 0.012794 518180.000000 0 0 1
-31.450973 -28.851790 -14.570165 45.098550 0.742323 1.899772 0.030849 0.030726 -231561.000000 0 0 1
-30.379873 -27.860290 -14.988965 43.861162 0.742163 1.919560 0.050773 0.010775 342030.000000 0 0 1
-29.218473 -28.431390 -15.601565 43.651712 0.771746 1.936290 0.071313 0.004963 258866.000000 0 0 1
-28.252473 -27.463790 -15.980965 42.518857 0.771244 1.956117 0.099015 0.013250 628199.000000 0 0 1
-27.017573 -28.192090 -16.622165 42.438656 0.806669 1.973248 0.119678 -0.004708 16377.100000 0 0 1
-27.257573 -28.865190 -17.850965 43.529661 0.814035 1.993346 0.107027 -0.012833 -113934.000000 0 0 1
-27.123173 -28.163390 -19.115365 43.522870 0.804211 2.025507 0.086726 0.002946 925953.000000 0 0 1
-25.693673 -27.562890 -19.450265 42.405077 0.820482 2.047303 0.101536 -0.000691 873905.000000 0 0 1
-25.385973 -26.412590 -18.692465 41.127616 0.805215 2.042606 0.108092 -0.002298 -198821.000000 0 0 1
-24.023073 -26.067090 -18.817065 40.133317 0.826182 2.058800 0.108893 -0.017530 132756.000000 0 0 1
-23.667073 -24.926890 -17.842265 38.727595 0.811318 2.049593 0.108901 -0.016226 -104987.000000 0 0 1
-23.840273 -25.308890 -16.501165 38.486192 0.815270 2.013911 0.126218 -0.021667 70322.800000 0 0 1
-23.615273 -24.208390 -15.656565 37.267349 0.797800 2.004368 0.128588 -0.025467 -30213.500000 0 0 1
-24.185473 -24.288790 -14.206765 37.104105 0.787530 1.963718 0.123491 -0.020047 554791.000000 0 0 1
-25.603773 -24.167390 -14.206365 37.966258 0.756546 1.954313 0.103116 0.000212 468703.000000 0 0 1
-26.164473 -24.012990 -12.893665 37.781608 0.742547 1.919062 0.103084 -0.003329 446728.000000 0 0 1
-27.696373 -23.778390 -12.854565 38.700656 0.709430 1.909382 0.116888 0.022119 -175761.000000 0 0 1
-28.452473 -24.948590 -13.204265 40.079022 0.719878 1.906523 0.118880 0.013045 650650.000000 0 0 1
-29.820873 -24.918990 -12.833865 40.926136 0.696088 1.889764 0.095916 0.018742 303299.000000 0 0 1
-30.800173 -23.873890 -13.419965 41.215394 0.659386 1.902449 0.097925 0.017978 -1112620.000000 0 0 1
-31.047873 -22.661490 -12.709665 40.485172 0.630505 1.890130 0.113220 0.005589 388547.000000 0 0 1
-31.576173 -22.659690 -11.379465 40.497018 0.622454 1.855627 0.116509 0.003579 -126341.000000 0 0 1
-33.031773 -23.194590 -11.215065 41.891105 0.612194 1.841822 0.082163 0.006179 256355.000000 0 0 1
-34.085573 -22.350090 -11.661165 42.394995 0.580376 1.849448 0.088949 -0.006794 340263.000000 0 0 1
-34.290473 -22.328190 -13.048765 42.949445 0.577182 1.879493 0.091629 -0.002533 -1583490.000000 0 0 1
-35.672373 -21.833490 -13.447065 43.932255 0.549237 1.881876 0.052379 -0.018545 -673128.000000 0 0 1
-36.601673 -22.823690 -13.045965 45.064404 0.557570 1.864497 0.059991 -0.012886 -379579.000000 0 0 1
37.458343 -22.419790 -13.436565 45.676205 -0.539335 1.869383 0.066270 -0.032049 -94827.000000 0 0 1
36.494543 -23.539890 -12.978865 45.325810 -0.572870 1.861207 0.056959 -0.012023 -420332.000000 0 0 1
36.624343 -24.677790 -13.823465 46.275523 -0.592931 1.874148 0.047704 -0.005825 -67768.400000 0 0 1
35.831843 -25.732590 -13.378765 46.098574 -0.622803 1.865254 0.045587 -0.016580 -34617.500000 0 0 1
35.740743 -26.981590 -14.297265 47.008709 -0.646646 1.879833 0.042431 -0.012569 49580.200000 0 0 1
34.807143 -26.746390 -15.322865 46.494051 -0.655184 1.906640 0.052100 -0.025967 -237547.000000 0 0 1
34.543643 -27.955890 -15.922465 47.205084 -0.680381 1.914848 0.044185 -0.008572 -128596.000000 0 0 1
33.587743 -27.845990 -17.107565 46.863679 -0.692206 1.944482 0.050985 -0.019317 853475.000000 0 0 1
32.170843 -27.868290 -16.849965 45.776916 -0.713858 1.947749 0.089101 -0.023120 739027.000000 0 0 1
31.490743 -27.482190 -18.018065 45.514704 -0.717530 1.977815 0.103264 -0.024749 1130570.000000 0 0 1
29.921643 -27.686290 -17.916565 44.529077 -0.746615 1.984886 0.108929 -0.028733 1004700.000000 0 0 1
29.333243 -26.757490 -17.059465 43.213745 -0.739509 1.976613 0.103494 -0.036055 -328834.000000 0 0 1
27.946043 -27.011490 -16.976465 42.412289 -0.768395 1.982610 0.117923 -0.034060 21249.700000 0 0 1
27.339943 -26.022090 -15.922965 40.965381 -0.760707 1.970009 0.109541 -0.041816 -52244.200000 0 0 1
27.389943 -24.655190 -16.251465 40.276513 -0.732901 1.986132 0.123381 -0.046752 -118977.000000 0 0 1
27.041543 -23.829790 -15.169765 39.105315 -0.722347 1.969171 0.130383 -0.046300 70839.800000 0 0 1
26.612743 -22.368190 -15.495565 38.061615 -0.698957 1.990093 0.130122 -0.044237 -646066.000000 0 0 1
25.337143 -22.197690 -15.994465 37.289826 -0.719449 2.014097 0.143371 -0.042204 -788124.000000 0 0 1
25.265843 -20.777090 -16.192265 36.499859 -0.688215 2.030436 0.139945 -0.033784 -330154.000000 0 0 1
23.850143 -20.202290 -16.274365 35.239421 -0.702780 2.050845 0.117215 -0.025392 -182399.000000 0 0 1
23.166243 -20.185490 -15.008865 34.196416 -0.716749 2.025172 0.111059 -0.026912 -62036.100000 0 0 1
21.857343 -19.702390 -15.112565 33.080466 -0.733593 2.045239 0.090164 -0.025087 -255773.000000 0 0 1
21.585643 -18.433390 -14.291265 31.780027 -0.706792 2.037218 0.078772 -0.014112 -126136.000000 0 0 1
21.302443 -18.643190 -12.874165 31.098340 -0.718924 1.997621 0.080067 -0.025440 283356.000000 0 0 1
20.965943 -17.468390 -12.165165 29.878197 -0.694647 1.990137 0.077752 -0.035839 -506627.000000 0 0 1
19.962543 -17.665590 -11.047665 28.855278 -0.724430 1.963692 0.078958 -0.025581 -586643.000000 0 0 1
20.613243 -18.245790 -9.936165 29.266739 -0.724549 1.917185 0.086863 -0.029889 -326501.000000 0 0 1
19.784843 -18.520590 -8.861865 28.512890 -0.752406 1.886833 0.074847 -0.028857 -749253.000000 0 0 1
20.384343 -19.061290 -7.564865 28.915072 -0.751870 1.835500 0.073678 -0.030664 -198245.000000 0 0 1
21.177943 -18.139190 -6.842965 28.711699 -0.708263 1.811446 0.069589 -0.027395 7988.240000 0 0 1
21.945143 -18.770690 -5.845465 29.463495 -0.707590 1.770518 0.072799 -0.015011 -94199.100000 0 0 1
23.290443 -18.030490 -5.670765 29.995014 -0.658784 1.760998 0.078163 -0.014988 -151695.000000 0 0 1
24.160143 -18.238790 -6.758665 31.016859 -0.646638 1.790462 0.079482 -0.034055 206023.000000 0 0 1
25.157643 -17.253990 -6.972465 31.292530 -0.601156 1.795498 0.096851 -0.021798 202575.000000 0 0 1
26.147543 -17.699290 -8.085065 32.593360 -0.595054 1.821472 0.126743 -0.035545 111442.000000 0 0 1
27.160643 -18.628490 -7.776165 33.840655 -0.601175 1.802656 0.151280 -0.053314 261532.000000 0 0 1
27.133643 -19.740490 -8.660765 34.654442 -0.628963 1.823392 0.154304 -0.061049 -13980.600000 0 0 1
28.390743 -20.599290 -8.348465 36.056371 -0.627678 1.804456 0.156914 -0.066397 447112.000000 0 0 1
29.621543 -19.945890 -8.602265 36.732456 -0.592620 1.807179 0.140071 -0.050052 115670.000000 0 0 1
30.689143 -20.847690 -8.367165 38.032343 -0.596710 1.792612 0.125305 -0.053076 -118724.000000 0 0 1
-31.430807 29.619956 4.286335 43.400577 -0.755745 1.471873 0.100320 -0.018898 312300.000000 0 0 1
-30.623417 30.309756 3.362235 43.217816 -0.780251 1.492920 0.082967 -0.013003 22572.200000 0 0 1
-29.588057 31.071456 3.980035 43.089781 -0.809848 1.478298 0.082625 -0.007673 402995.000000 0 0 1
-28.894377 32.102956 3.077235 43.300741 -0.837952 1.499670 0.077186 -0.009443 -671708.000000 0 0 1
-28.027397 31.472056 2.164235 42.198450 -0.843228 1.519487 0.082168 -0.009466 -126866.000000 0 0 1
-27.725957 32.335556 1.065435 42.608122 -0.861996 1.545788 0.095099 -0.017556 -56215.200000 0 0 1
-26.699307 33.437356 1.403435 42.812141 -0.896978 1.538009 0.114297 -0.013396 -928336.000000 0 0 1
-25.387687 32.958656 1.448135 41.628173 -0.914436 1.536002 0.087642 -0.015734 -240621.000000 0 0 1
-24.554457 33.746456 2.312035 41.798208 -0.941776 1.515454 0.077600 -0.017371 885373.000000 0 0 1
-23.025057 33.457456 2.263435 40.677731 -0.968041 1.515124 0.075060 -0.033963 439574.000000 0 0 1
-22.430157 -33.799190 1.086135 40.579267 0.984899 1.544027 0.112709 -0.041315 -243209.000000 0 0 1
-21.044157 33.651856 1.171035 39.707371 -1.011946 1.541300 0.111209 -0.045756 -379535.000000 0 0 1
-20.268757 -33.766890 -0.141865 39.383315 1.030189 1.574398 0.125112 -0.047046 90399.500000 0 0 1
-19.897157 -32.412690 -0.437165 38.035121 1.020241 1.582290 0.124606 -0.045138 358871.000000 0 0 1
-19.015857 -31.815690 0.486235 37.068550 1.032079 1.557679 0.129582 -0.038707 -456310.000000 0 0 1
-18.652957 -30.313590 0.279735 35.593887 1.019179 1.562937 0.131395 -0.043786 -367639.000000 0 0 1
-17.754457 -29.935590 -0.711065 34.811865 1.035474 1.591224 0.140134 -0.037118 -121625.000000 0 0 1
-17.443657 -28.552890 -0.575665 33.464610 1.022383 1.587999 0.108401 -0.029983 -86544.500000 0 0 1
-16.345457 -28.045590 -1.529465 32.497205 1.043107 1.617878 0.097177 -0.024668 -485319.000000 0 0 1
-16.655957 -28.196790 -2.895865 32.876525 1.037240 1.658994 0.102468 -0.027069 78867.400000 0 0 1
-15.669057 -27.684790 -3.789265 32.036315 1.055767 1.689354 0.081942 -0.014605 250780.000000 0 0 1
-16.186457 -27.671390 -5.284265 32.490471 1.041514 1.734162 0.106981 -0.025561 -146124.000000 0 0 1
-17.258757 -26.801190 -5.466065 32.342640 0.998682 1.740616 0.108947 -0.023589 -447052.000000 0 0 1
-17.759157 -26.936990 -6.821665 32.977632 0.987921 1.779158 0.122995 -0.030802 489669.000000 0 0 1
-18.615457 -25.740890 -7.310865 32.597200 0.944678 1.796999 0.112661 -0.024140 660479.000000 0 0 1
-17.789657 -24.540190 -7.459165 31.214291 0.943541 1.812098 0.065648 -0.015564 239814.000000 0 0 1
-18.478957 -23.348190 -7.414865 30.685340 0.901290 1.814854 0.049549 0.001835 -341996.000000 0 0 1
-17.595057 -22.121490 -7.038465 29.128789 0.898877 1.814844 0.058759 0.003348 548749.000000 0 0 1
-16.651557 -21.817790 -8.087065 28.612776 0.918894 1.857340 0.073953 -0.010101 -904645.000000 0 0 1
-15.525657 -21.296290 -7.505565 27.402765 0.940851 1.848240 0.121673 -0.023356 -990097.000000 0 0 1
-14.341557 -21.088390 -8.453965 26.867638 0.973573 1.890887 0.124030 -0.017961 -155625.000000 0 0 1
-14.536857 -20.058190 -9.400765 26.495766 0.943662 1.933499 0.125984 -0.016575 -371313.000000 0 0 1
-13.582657 -20.113290 -10.436865 26.418955 0.976835 1.976921 0.123038 -0.018813 27111.800000 0 0 1
-13.997257 -19.306090 -11.704865 26.564115 0.943477 2.027093 0.134658 -0.018164 21580.200000 0 0 1
-15.235757 -19.738990 -12.221165 27.768920 0.913450 2.026509 0.112326 -0.007733 -283086.000000 0 0 1
-15.587757 -18.897390 -13.328865 27.888137 0.881078 2.069105 0.131051 -0.021197 268504.000000 0 0 1
-16.875357 -19.430490 -14.010465 29.302129 0.855660 2.069330 0.134700 -0.025326 108988.000000 0 0 1
-18.079157 -19.202490 -13.317765 29.545802 0.815520 2.038401 0.123050 -0.023389 -164406.000000 0 0 1
-19.142857 -19.684290 -14.123665 30.877146 0.799342 2.045882 0.098049 -0.018799 597043.000000 0 0 1
-20.556557 -19.476590 -13.467665 31.357417 0.758428 2.014723 0.066112 -0.010380 1292880.000000 0 0 1
-21.609157 -20.030290 -14.307965 32.754940 0.747499 2.022855 0.070593 -0.015115 478841.000000 0 0 1
-22.864057 -19.741190 -13.702765 33.169948 0.712231 1.996660 0.070455 -0.009000 99935.100000 0 0 1
-23.953357 -20.424090 -14.586265 34.693889 0.706037 2.004713 0.091429 -0.015502 -315194.000000 0 0 1
-24.215457 -19.746290 -15.782765 35.005714 0.684086 2.038528 0.087884 -0.020013 368645.000000 0 0 1
-24.903757 -20.566990 -16.730065 36.374349 0.690311 2.048725 0.099825 -0.022995 -157946.000000 0 0 1
-25.156297 -19.819690 -18.017765 36.746418 0.667296 2.083261 0.097370 -0.015657 -329678.000000 0 0 1
-24.045857 -19.657090 -18.860765 36.336385 0.685311 2.116547 0.062802 -0.017499 -69111.500000 0 0 1
-24.380857 -19.173790 -20.149965 36.987586 0.666410 2.146919 0.094120 -0.024242 -650371.000000 0 0 1
-23.212357 -18.624790 -20.953465 36.397033 0.676182 2.184246 0.047204 -0.019097 -1007280.000000 0 0 1
-22.235157 -19.546090 -21.240065 36.436139 0.721126 2.193138 0.019018 -0.011015 -374820.000000 0 0 1
-21.304157 -18.998490 -22.165265 36.140126 0.728252 2.231047 0.017441 -0.010072 -225820.000000 0 0 1
-20.028657 -19.798290 -22.400765 35.984909 0.779614 2.242735 0.018935 -0.000130 -660930.000000 0 0 1
-20.183157 -20.986990 -23.177965 37.216013 0.804920 2.243107 0.005472 0.003743 503511.000000 0 0 1
-18.992457 -21.805290 -23.110865 37.017512 0.854235 2.245060 0.002353 0.002767 564917.000000 0 0 1
-19.013257 -23.030390 -24.040265 38.338455 0.880656 2.248561 0.018868 -0.003849 -163475.000000 0 0 1
-18.959757 -22.806290 -25.433305 39.069838 0.877236 2.279658 0.021471 -0.002448 18501.500000 0 0 1
-19.184257 -23.988390 -26.178105 40.358045 0.896219 2.276601 0.028952 -0.008337 -92991.500000 0 0 1
-19.018757 -23.703590 -27.656805 41.091023 0.894619 2.309137 0.036752 -0.001471 56620.200000 0 0 1
-17.683857 -23.461490 -28.067405 40.631755 0.924906 2.333357 0.032577 -0.004031 56088.100000 0 0 1
-17.501757 -23.459590 -29.475675 41.538889 0.929835 2.359716 0.063686 -0.006214 -678184.000000 0 0 1
-16.048757 -23.338190 -29.925615 41.204079 0.968400 2.383688 0.041972 -0.012000 -262526.000000 0 0 1
-15.262757 -24.467590 -29.629405 41.346298 1.013064 2.369734 0.053710 -0.009903 -508025.000000 0 0 1
-13.889957 -24.251990 -29.752355 40.820247 1.050666 2.387456 0.073240 -0.017444 -496458.000000 0 0 1
-13.106757 -25.546490 -29.751875 41.347120 1.096759 2.373970 0.102393 -0.023536 -1320920.000000 0 0 1
-13.322457 -26.411090 -30.841825 42.734666 1.103614 2.377059 0.072970 -0.012399 247668.000000 0 0 1
-12.569957 -27.613390 -30.847395 43.267366 1.143616 2.364490 0.076973 -0.014489 49897.700000 0 0 1
-11.105457 -27.586390 -31.305005 43.178043 1.188076 2.381862 0.093811 -0.017949 29256.400000 0 0 1
-10.238057 -26.727390 -30.578405 41.883291 1.204983 2.389244 0.147404 -0.031469 765615.000000 0 0 1
-8.991557 -26.504190 -31.267325 41.963863 1.243730 2.411483 0.125460 -0.026309 754099.000000 0 0 1
-8.082557 -25.418690 -30.574585 40.573918 1.262930 2.424246 0.197445 -0.038013 306268.000000 0 0 1
-8.502957 -24.019490 -30.604985 39.823376 1.230560 2.447318 0.206729 -0.032817 -160317.000000 0 0 1
-9.614357 -23.712690 -29.800995 39.278835 1.185599 2.432117 0.188885 -0.028069 -294594.000000 0 0 1
-9.864657 -22.221690 -29.502685 38.229876 1.153010 2.452335 0.200227 -0.032770 77918.100000 0 0 1
-10.444857 -21.531090 -30.654735 38.889532 1.119135 2.478759 0.181911 -0.035232 562739.000000 0 0 1
-10.950657 -20.185590 -30.390605 38.091519 1.073730 2.494486 0.178081 -0.042476 499273.000000 0 0 1
-11.492257 -19.448690 -31.672055 38.902990 1.037094 2.522024 0.160595 -0.043646 285662.000000 0 0 1
-12.039157 -18.118190 -31.509045 38.288772 0.984310 2.537348 0.146017 -0.044668 -16336.000000 0 0 1
-12.794457 -17.872390 -32.649655 39.358867 0.949493 2.549075 0.141249 -0.043276 -235658.000000 0 0 1
-13.787657 -16.672790 -32.426165 38.981247 0.879834 2.553211 0.147413 -0.046538 48851.800000 0 0 1
-13.253857 -15.347590 -32.360945 38.189580 0.858472 2.581821 0.152767 -0.046413 -309748.000000 0 0 1
-12.386857 -14.953190 -31.320625 36.851237 0.878991 2.586631 0.134964 -0.044591 212092.000000 0 0 1
-11.893057 -13.431490 -31.508205 36.257644 0.846072 2.623992 0.103475 -0.048133 516686.000000 0 0 1
-10.942057 -13.164590 -32.536205 36.764653 0.877334 2.657260 0.116012 -0.051149 563237.000000 0 0 1
-11.537957 -13.265790 33.816935 38.114180 0.854946 0.479440 0.126667 -0.046860 -393428.000000 0 0 1
-12.221457 -12.040590 33.234926 37.401873 0.777944 0.476535 0.107161 -0.036336 543940.000000 0 0 1
-13.437957 -11.654490 -33.765935 38.164698 0.714442 2.656738 0.084342 -0.032911 648323.000000 0 0 1
-14.170657 -10.689290 33.170053 37.620750 0.646264 0.491352 0.071111 -0.032730 753175.000000 0 0 1
-15.365057 -9.885590 33.746735 38.375148 0.571708 0.496216 0.072685 -0.024772 527681.000000 0 0 1
-14.880857 -8.944690 -32.996355 37.285478 0.541218 2.657216 0.073799 -0.026623 -350186.000000 0 0 1
-15.901357 -8.496790 -32.152605 36.862428 0.490744 2.630545 0.083555 -0.031865 -98669.800000 0 0 1
-15.365057 -7.484690 -31.123415 35.507359 0.453294 2.639410 0.080238 -0.038575 -118925.000000 0 0 1
-15.234357 -6.192490 -31.778255 35.781141 0.386082 2.664054 0.074917 -0.046969 -121158.000000 0 0 1
-16.444757 -5.489690 -31.847825 36.260870 0.322194 2.643086 0.078336 -0.041966 -253122.000000 0 0 1
-16.922157 -4.771590 -30.580395 35.274467 0.274837 2.619800 0.084409 -0.050432 -295471.000000 0 0 1
-17.505357 -5.607690 -29.524135 34.778704 0.310013 2.584724 0.099660 -0.050321 138030.000000 0 0 1
-17.447257 -5.113290 -28.191075 33.545331 0.285088 2.568794 0.091796 -0.053057 271851.000000 0 0 1
-16.112657 -4.623290 -27.529925 32.231806 0.279428 2.594658 0.086078 -0.055573 395324.000000 0 0 1
-15.645457 -3.518190 -28.243275 32.478309 0.221190 2.625197 0.083431 -0.048741 502943.000000 0 0 1
-14.290057 -3.165290 -27.898345 31.504642 0.217983 2.658433 0.071585 -0.038710 864173.000000 0 0 1
-13.960157 -1.773290 -28.497955 31.783077 0.126348 2.682916 0.048051 -0.020795 -34182.100000 0 0 1
-13.806057 -1.817290 -29.918935 33.000794 0.130877 2.705982 0.058363 -0.026878 208954.000000 0 0 1
-13.628857 -0.522290 -30.408485 33.327084 0.038304 2.719969 0.051397 -0.026276 3624.580000 0 0 1
-13.851157 -0.618290 -31.972525 34.849379 0.044609 2.732417 0.049602 -0.031215 604459.000000 0 0 1
-15.256257 -0.654290 -32.246275 35.679178 0.042860 2.699327 0.043348 -0.036299 741233.000000 0 0 1
-15.438557 -1.209290 -33.512325 36.917304 0.078170 2.708727 0.040698 -0.034153 225033.000000 0 0 1
-16.908157 -1.210290 33.631975 37.662452 0.071458 0.466864 0.034120 -0.036805 382669.000000 0 0 1
-16.916857 -1.437290 32.275059 36.468141 0.084758 0.484258 0.046027 -0.036327 386321.000000 0 0 1
-18.245357 -1.388290 31.791022 36.680914 0.075944 0.522266 0.042076 -0.033391 -120140.000000 0 0 1
-18.303457 -1.573290 30.275785 35.413485 0.085745 0.545395 0.058462 -0.029469 -16497.600000 0 0 1
-17.764957 -0.459290 29.598115 34.523225 0.025848 0.540718 0.068222 -0.018962 -24609.800000 0 0 1
-17.841857 -0.628290 28.183725 33.362388 0.035200 0.564651 0.081859 -0.025831 158088.000000 0 0 1
-17.097457 0.575710 27.500025 32.386816 -0.033660 0.556495 0.074343 -0.026529 333832.000000 0 0 1
-17.594657 1.873710 27.923595 33.057675 -0.106093 0.564805 0.057363 -0.021823 -21509.100000 0 0 1
-18.839057 2.307710 27.417855 33.346280 -0.121889 0.605502 0.059493 -0.026713 -17485.500000 0 0 1
-18.769657 3.046710 26.085385 32.280486 -0.160918 0.629902 0.072272 -0.026720 -328932.000000 0 0 1
-18.522557 4.397710 26.232845 32.412762 -0.233108 0.627774 0.066674 -0.024573 122121.000000 0 0 1
-18.775057 5.076710 24.987405 31.664588 -0.264081 0.661409 0.074027 -0.023738 -1217950.000000 0 0 1
-18.764557 6.634710 25.005045 31.959040 -0.339858 0.672271 0.067925 -0.016224 279524.000000 0 0 1
-17.523657 7.337710 25.069425 31.454675 -0.396549 0.648482 0.074209 -0.012984 448361.000000 0 0 1
-16.708457 6.926710 23.957565 30.018607 -0.392997 0.646677 0.066591 -0.013009 -837762.000000 0 0 1
-15.471957 7.771710 23.618625 29.285156 -0.465493 0.632580 0.059202 -0.006376 -64665.300000 0 0 1
-14.383157 7.498710 24.482705 29.368498 -0.480584 0.585134 0.068098 -0.011066 -289898.000000 0 0 1
-13.251157 8.095710 23.917325 28.516173 -0.548427 0.575852 0.076693 -0.014522 -537926.000000 0 0 1
-11.934257 8.009710 24.714875 28.590330 -0.591102 0.526744 0.069520 -0.004275 -200942.000000 0 0 1
-10.918557 8.576710 23.891905 27.633276 -0.665847 0.526430 0.052062 -0.012652 982711.000000 0 0 1
-9.699457 8.878710 24.632105 27.922241 -0.741249 0.490350 0.051501 -0.007073 865363.000000 0 0 1
-9.682057 10.166710 25.477355 29.089514 -0.809811 0.503652 0.046515 -0.021271 -1061540.000000 0 0 1
-10.570557 10.169710 26.579705 30.358531 -0.766074 0.504271 0.048495 -0.025607 189876.000000 0 0 1
-10.720957 11.454710 27.125125 31.335630 -0.818474 0.524385 0.063901 -0.032693 -610521.000000 0 0 1
-11.510657 12.514710 26.310135 31.326289 -0.827165 0.573745 0.053428 -0.034098 -214306.000000 0 0 1
-12.910657 12.323710 26.264135 31.754742 -0.762143 0.596880 0.055617 -0.034811 43937.100000 0 0 1
-13.283657 11.398710 25.273025 30.742673 -0.709178 0.605737 0.053864 -0.026954 -1029250.000000 0 0 1
-14.790057 11.411710 25.004265 31.211956 -0.657170 0.641646 0.045075 -0.026250 -306015.000000 0 0 1
-15.292257 12.666710 24.511035 31.545039 -0.691766 0.680883 0.057623 -0.029721 551516.000000 0 0 1
-16.593857 12.626710 23.917355 31.730581 -0.650458 0.717026 0.070843 -0.015131 503473.000000 0 0 1
-16.598957 12.089710 22.430325 30.410622 -0.629495 0.741314 0.063049 -0.003216 -321230.000000 0 0 1
-16.472057 10.661710 22.285325 29.692363 -0.574447 0.721917 0.061441 -0.004608 10727.800000 0 0 1
-16.577457 10.469710 20.888125 28.648572 -0.563305 0.753767 0.068660 -0.010930 -13845.000000 0 0 1
-17.090757 9.074710 20.478025 28.174347 -0.488117 0.757098 0.071616 -0.020152 -415284.000000 0 0 1
-18.437557 8.897710 20.789425 29.177267 -0.449620 0.777711 0.084642 -0.011502 -586034.000000 0 0 1
-18.946557 7.583710 20.535125 28.951270 -0.380738 0.782292 0.084396 -0.018267 710838.000000 0 0 1
-20.499157 7.452710 20.699825 30.070602 -0.348705 0.811551 0.089511 -0.020691 507592.000000 0 0 1
-20.710757 7.655710 22.079025 31.225449 -0.354071 0.785430 0.090581 -0.024203 54253.000000 0 0 1
-22.081357 7.813710 22.379525 32.395733 -0.340109 0.808178 0.087681 -0.020521 -90105.600000 0 0 1
-22.192257 8.589710 23.699255 33.584730 -0.369301 0.787448 0.084873 -0.024631 -979266.000000 0 0 1
-22.091257 10.008710 23.622265 33.855713 -0.425397 0.798568 0.082475 -0.014229 107908.000000 0 0 1
-20.850757 10.603710 23.298425 33.015289 -0.470466 0.787406 0.084482 -0.010484 369284.000000 0 0 1
-19.664857 10.357710 24.281825 32.918016 -0.484788 0.741220 0.080372 -0.020294 -349849.000000 0 0 1
-19.869057 10.918710 25.551435 34.159530 -0.502485 0.725748 0.078638 -0.023749 76280.600000 0 0 1
-20.160757 9.962710 26.524065 34.774096 -0.458967 0.703236 0.049916 -0.022690 -184984.000000 0 0 1
-32.489677 -14.044344 20.660925 40.984101 0.408013 1.042433 0.113595 -0.005556 -340148.000000 0 0 1
-31.844287 -15.269644 20.493725 40.831525 0.447121 1.044991 0.119691 -0.002088 -55626.900000 0 0 1
-32.019427 -16.012544 19.304425 40.673162 0.463718 1.076260 0.099698 0.006953 80271.900000 0 0 1
-31.468377 -15.399844 18.001425 39.388644 0.455112 1.096154 0.100793 0.016321 -330215.000000 0 0 1
-32.368547 -14.444844 17.528725 39.542794 0.419741 1.111536 0.097664 0.009754 -415086.000000 0 0 1
-32.062427 -13.883944 16.256325 38.536103 0.408651 1.135315 0.092262 0.006337 -1225240.000000 0 0 1
-33.156037 -13.081544 15.575025 38.897699 0.375795 1.158832 0.085782 0.007469 507378.000000 0 0 1
-34.345883 -13.879044 15.266025 40.066433 0.384033 1.179899 0.097615 0.003528 1283860.000000 0 0 1
-35.314987 -13.977044 16.272425 41.319461 0.376865 1.166013 0.086000 0.004768 -9194.000000 0 0 1
-36.181277 -12.719844 16.721625 41.838881 0.338063 1.159643 0.088610 0.012029 -127109.000000 0 0 1
-37.287827 -12.981744 17.538625 43.203138 0.335025 1.152770 0.041404 0.007283 -95453.900000 0 0 1
37.493718 -11.722944 17.894625 43.167394 -0.303034 1.143359 0.043122 0.011583 -283474.000000 0 0 1
36.626578 -11.828744 19.125925 42.979372 -0.312381 1.109619 0.042167 0.013013 -904079.000000 0 0 1
37.281288 -12.276144 20.242525 44.162857 -0.318102 1.094646 0.037358 0.014970 -359730.000000 0 0 1
36.579538 -11.783744 21.353625 43.964719 -0.311643 1.063634 0.027276 0.007824 -928798.000000 0 0 1
37.179868 -12.245544 22.723625 45.262115 -0.318170 1.044834 0.028494 -0.004540 -195711.000000 0 0 1
-36.912377 -11.782344 23.089805 45.105280 0.308975 1.033391 0.044770 -0.005005 -343572.000000 0 0 1
-35.863879 -12.361144 22.353025 44.030369 0.331917 1.038315 0.052081 -0.012701 -715297.000000 0 0 1
-34.543374 -11.557744 22.447725 42.786990 0.322878 1.018505 0.090431 -0.015811 15514.200000 0 0 1
-34.626115 -10.342544 21.752925 42.179685 0.290256 1.028948 0.100578 -0.015341 -105535.000000 0 0 1
-33.428917 -9.591544 21.740325 41.013802 0.279417 1.012109 0.135371 -0.023607 -205083.000000 0 0 1
-33.557397 -8.241944 20.925925 40.397065 0.240840 1.026278 0.124093 -0.008773 54936.800000 0 0 1
-33.638777 -8.290344 19.487825 39.750125 0.241637 1.058410 0.127025 -0.007827 482437.000000 0 0 1
-34.970676 -8.530144 19.042525 40.722589 0.239251 1.084205 0.099646 -0.001623 204906.000000 0 0 1
-35.119828 -8.490644 17.476325 40.136209 0.237210 1.120286 0.111035 -0.000479 230331.000000 0 0 1
-36.498747 -8.472744 17.145925 41.205930 0.228098 1.141641 0.030235 0.002112 252659.000000 0 0 1
-36.748917 -8.460144 15.732625 40.860402 0.226272 1.175552 0.056060 0.013874 -608216.000000 0 0 1
37.145388 -8.386544 15.361325 41.061957 -0.222053 1.187369 0.062051 0.001234 -525478.000000 0 0 1
36.459138 -9.583744 15.697825 40.835507 -0.257048 1.176221 0.052447 0.021082 -97163.800000 0 0 1
35.068988 -9.344744 15.618825 39.510832 -0.260416 1.164397 0.047092 0.018602 320050.000000 0 0 1
34.089158 -10.547844 15.734925 38.998918 -0.300076 1.155489 0.034339 0.011035 286142.000000 0 0 1
34.098738 -11.118544 17.007425 39.693809 -0.315199 1.128003 0.010880 0.002619 -466273.000000 0 0 1
33.097888 -12.074044 17.129225 39.174776 -0.349797 1.118256 0.032390 -0.004381 -359162.000000 0 0 1
33.017688 -12.702344 18.556425 39.948194 -0.367259 1.087713 0.019492 0.002089 -238876.000000 0 0 1
33.865548 -13.740544 18.963225 41.173800 -0.385443 1.092164 0.020752 0.010111 -489830.000000 0 0 1
33.611008 -13.868244 20.319725 41.652362 -0.391330 1.061182 0.032045 0.009831 -551163.000000 0 0 1
34.234078 -15.069944 20.966225 42.879574 -0.414677 1.059904 0.029471 0.004466 -427132.000000 0 0 1
34.434388 -14.998144 22.359225 43.710483 -0.410779 1.033832 0.031289 -0.008515 -152194.000000 0 0 1
35.072758 -16.172644 22.852885 44.876577 -0.432060 1.036496 0.039694 -0.012852 74349.200000 0 0 1
35.417998 -16.017444 24.333545 45.859726 -0.424715 1.011478 0.067144 -0.018948 -403100.000000 0 0 1
36.437188 -15.100444 24.522725 46.444118 -0.392879 1.014547 0.064039 -0.011287 -591302.000000 0 0 1
36.747768 -14.895244 25.856205 47.337196 -0.385099 0.992959 0.075401 -0.015282 -905693.000000 0 0 1
-37.427127 -13.992444 26.056675 47.702501 0.357769 0.992936 0.075507 -0.009472 -348609.000000 0 0 1
-36.226547 -14.608644 25.559655 46.680522 0.383312 0.991370 0.049291 -0.011664 -262768.000000 0 0 1
-35.186393 -13.785944 25.945615 45.840042 0.373415 0.969147 0.062634 -0.014972 352406.000000 0 0 1
-33.718687 -14.322144 25.735645 44.770493 0.401662 0.958394 0.066895 -0.015262 443767.000000 0 0 1
-33.362257 -14.313244 24.404255 43.743306 0.405275 0.978947 0.068705 -0.009477 674172.000000 0 0 1
-32.011897 -14.733444 24.123415 42.705680 0.431344 0.970513 0.084463 -0.017027 945637.000000 0 0 1
-31.652697 -16.212644 24.343625 43.097043 0.473363 0.970538 0.079679 -0.013763 -714895.000000 0 0 1
-31.542617 -16.492144 25.703865 43.904626 0.481762 0.945364 0.083222 -0.015643 6518.720000 0 0 1
-31.016577 -17.772444 25.899465 44.143744 0.520329 0.943809 0.075946 -0.016624 -222802.000000 0 0 1
-30.431777 -18.058244 27.312315 44.700736 0.535553 0.913468 0.054988 -0.019943 -429377.000000 0 0 1
-29.275937 -17.341344 27.612855 43.820913 0.534769 0.889076 0.059870 -0.016780 -525771.000000 0 0 1
-28.894637 -17.660844 28.966025 44.562720 0.548625 0.863204 0.066517 -0.024790 397599.000000 0 0 1
-27.690757 -16.821444 29.489735 43.810769 0.545898 0.832382 0.052015 -0.020825 99865.200000 0 0 1
-27.996667 -15.505644 29.840615 43.757293 0.505786 0.820361 0.071784 -0.030203 197664.000000 0 0 1
-26.845647 -14.669444 29.788645 42.699470 0.500103 0.798705 0.051081 -0.023985 63366.500000 0 0 1
-27.039857 -13.390444 30.597165 42.972600 0.459809 0.778432 0.064543 -0.020175 -248720.000000 0 0 1
-26.518327 -13.414344 31.922617 43.614444 0.468318 0.749650 0.063377 -0.016373 171125.000000 0 0 1
-26.082807 -12.148844 32.390594 43.325025 0.435899 0.726327 0.067096 -0.006866 -157249.000000 0 0 1
-25.195067 -12.214044 33.654255 43.778798 0.451397 0.693937 0.062318 -0.014747 -392492.000000 0 0 1
-23.878357 -12.643944 33.461016 43.007962 0.486980 0.679290 0.043483 -0.009326 -362478.000000 0 0 1
-23.582757 -13.992044 33.661735 43.417003 0.535491 0.683587 0.043358 -0.013339 -160686.000000 0 0 1
-23.508257 -14.521644 -32.544465 42.692605 0.553351 2.437652 0.043953 -0.015503 29184.800000 0 0 1
-22.313957 -14.159544 -31.855995 41.390939 0.565444 2.449069 0.027408 -0.010516 150405.000000 0 0 1
-22.214357 -14.987244 -30.710785 40.758404 0.593519 2.424141 0.039429 -0.013586 -5581.900000 0 0 1
-20.915257 -14.913744 -29.887125 39.409491 0.619435 2.431611 0.041516 -0.013011 84162.100000 0 0 1
-20.672657 -13.648444 -29.226655 38.312350 0.583524 2.438509 0.029374 -0.010850 673434.000000 0 0 1
-21.473757 -13.606044 -27.994505 37.814534 0.564769 2.404329 0.039680 -0.006482 538011.000000 0 0 1
-20.950057 -12.638944 -26.913635 36.372951 0.542835 2.403771 0.035904 -0.008213 -213039.000000 0 0 1
-19.735657 -12.837844 -26.232375 35.248318 0.576719 2.410157 0.039505 -0.014777 -197702.000000 0 0 1
-19.444057 -11.755344 -25.404765 34.083157 0.543775 2.411895 0.047929 -0.020793 657787.000000 0 0 1
-18.029657 -11.836344 -24.737065 32.819049 0.580926 2.424533 0.062037 -0.032028 211271.000000 0 0 1
-17.866057 -12.903244 -23.760565 32.407625 0.625484 2.393780 0.067894 -0.031040 799498.000000 0 0 1
-16.551057 -12.936944 -23.172465 31.277231 0.663444 2.405166 0.075916 -0.033497 1205200.000000 0 0 1
-15.470357 -13.741144 -23.971765 31.666962 0.726271 2.429500 0.050043 -0.022408 -515980.000000 0 0 1
-14.891257 -12.968544 -25.010165 31.865986 0.716494 2.473258 0.055496 -0.029597 -170567.000000 0 0 1
-14.125957 -13.720244 -25.901075 32.536955 0.770829 2.491538 0.069879 -0.035366 -1220300.000000 0 0 1
-13.210457 -12.853444 -26.688455 32.434562 0.771701 2.537187 0.099472 -0.038132 -631598.000000 0 0 1
-13.862657 -11.907344 -27.487155 33.007602 0.709668 2.554857 0.096840 -0.036400 225032.000000 0 0 1
-12.898957 -11.324344 -28.349075 33.140518 0.720485 2.597158 0.097780 -0.044783 432047.000000 0 0 1
-13.632257 -10.257844 -29.166175 33.789459 0.645079 2.612318 0.083485 -0.048965 402784.000000 0 0 1
-12.758457 -9.389644 -29.899895 33.837071 0.634451 2.654384 0.071076 -0.040082 263894.000000 0 0 1
-12.413457 -9.911344 -31.186645 34.999078 0.673786 2.670495 0.081753 -0.037976 -245094.000000 0 0 1
-11.547657 -8.925444 -31.975905 35.149260 0.658011 2.713400 0.063801 -0.035499 52543.900000 0 0 1
-10.265157 -8.628144 -31.477725 34.214989 0.698969 2.738872 0.077316 -0.039726 -74582.100000 0 0 1
-9.633357 -7.479644 -31.980865 34.227509 0.660204 2.777259 0.057220 -0.039036 -8468.970000 0 0 1
-8.117757 -7.337544 -31.699065 33.534583 0.734959 2.809202 0.071961 -0.039208 53262.300000 0 0 1
-7.696557 -7.305544 -30.328555 32.131437 0.759340 2.805015 0.062290 -0.035450 10252.700000 0 0 1
-7.966357 -6.085344 -29.695105 31.341562 0.652326 2.816019 0.065320 -0.034538 -882964.000000 0 0 1
-7.222857 -4.834944 -30.167935 31.395074 0.589889 2.861078 0.049124 -0.029845 -625056.000000 0 0 1
-5.927757 -4.746544 -29.633855 30.591393 0.675187 2.890732 0.065522 -0.033426 -146212.000000 0 0 1
-5.327057 -3.548144 -30.152955 30.824788 0.587583 2.932428 0.082113 -0.036986 305449.000000 0 0 1
-3.807957 -3.325644 -29.928495 30.352517 0.717889 2.974245 0.080364 -0.021455 -550342.000000 0 0 1
-2.939357 -4.144644 -30.685095 31.102941 0.953926 2.977492 0.097072 -0.027160 235445.000000 0 0 1
-1.578857 -3.805044 -30.495235 30.772236 1.177479 3.007315 0.119955 -0.036212 19767.800000 0 0 1
-1.064457 -2.439944 -30.974385 31.088566 1.159425 3.055860 0.117626 -0.038250 -1430890.000000 0 0 1
0.348843 -2.469544 -30.825805 30.926535 -1.430467 3.060860 0.103769 -0.027488 122855.000000 0 0 1
0.953943 -1.341144 -31.398675 31.441779 -0.952533 3.089224 0.085680 -0.018358 -460066.000000 0 0 1
1.252543 -0.193644 -30.510415 30.536729 -0.153386 3.100076 0.084533 -0.025322 -1516720.000000 0 0 1
0.229243 0.357556 -29.800675 29.803702 1.000676 3.127341 0.090226 -0.022542 -1482750.000000 0 0 1
0.537243 1.515256 -29.093035 29.137421 1.230069 3.086389 0.104834 -0.032836 -361418.000000 0 0 1
-0.547757 1.791056 -28.033975 28.096471 -1.274000 3.074882 0.093220 -0.029800 380192.000000 0 0 1
-1.603557 2.583856 -28.589435 28.750713 -1.015363 3.035623 0.087817 -0.043035 331739.000000 0 0 1
-1.692257 3.852356 -28.081525 28.395007 -1.156894 2.992862 0.133811 -0.046166 -75886.300000 0 0 1
-2.904257 4.596256 -28.695875 29.206395 -1.007269 2.954345 0.167092 -0.047314 110245.000000 0 0 1
-2.782057 4.798656 -30.083635 30.590718 -1.045394 2.959261 0.163174 -0.053842 132788.000000 0 0 1
-4.022557 5.219656 -30.620285 31.321361 -0.914206 2.929615 0.184461 -0.042613 -305041.000000 0 0 1
-4.049357 5.624056 -32.101935 32.841461 -0.946769 2.928975 0.183604 -0.041145 -325303.000000 0 0 1
-3.944557 4.577356 -33.053475 33.601249 -0.859518 2.960780 0.196529 -0.040069 -24041.600000 0 0 1
-2.851457 3.698056 -33.043105 33.371443 -0.913947 3.001200 0.170153 -0.044960 -457260.000000 0 0 1
-2.410657 3.174156 33.273247 33.511125 -0.921266 0.119222 0.141240 -0.033297 155014.000000 0 0 1
-3.464357 2.382356 32.690705 32.959969 -0.602407 0.127911 0.139518 -0.044601 653315.000000 0 0 1
-3.141157 1.720456 31.446835 31.650122 -0.501086 0.113401 0.136005 -0.030199 -14955.800000 0 0 1
-2.982157 2.591656 30.202625 30.459949 -0.715452 0.130076 0.132026 -0.025190 231214.000000 0 0 1
-4.177257 3.327756 29.965495 30.437712 -0.672687 0.176377 0.117610 -0.028536 254661.000000 0 0 1
-3.939657 4.421156 29.032705 29.630482 -0.842925 0.201209 0.108791 -0.032586 -558336.000000 0 0 1
-5.164557 5.233456 28.704105 29.630851 -0.792024 0.250762 0.111802 -0.024258 -491444.000000 0 0 1
-4.913257 6.134756 27.635005 28.730973 -0.895514 0.277095 0.100856 -0.014574 967625.000000 0 0 1
-6.118057 6.925656 27.412365 28.928067 -0.847234 0.325145 0.081195 -0.016448 889564.000000 0 0 1
-6.282657 7.739856 26.131105 27.968049 -0.888945 0.364450 0.082072 -0.014498 278803.000000 0 0 1
-5.359257 8.842256 26.111715 28.084315 -1.025906 0.377032 0.092862 -0.015555 483532.000000 0 0 1
-5.673657 9.744056 25.067375 27.486547 -1.043517 0.422694 0.086263 -0.017273 -303183.000000 0 0 1
-4.811257 10.990756 25.064725 27.788223 -1.158172 0.446438 0.086828 -0.019206 -831913.000000 0 0 1
-4.650557 11.613056 23.800305 26.887641 -1.189894 0.483923 0.089817 -0.025177 378951.000000 0 0 1
-4.132357 12.974056 23.870285 27.480775 -1.262446 0.518391 0.083857 -0.022735 -13699.400000 0 0 1
-2.587157 13.126556 24.042525 27.514412 -1.376197 0.507801 0.082244 -0.017915 196099.000000 0 0 1
-2.023157 12.543456 25.233005 28.251300 -1.410882 0.466467 0.096942 -0.013895 94754.800000 0 0 1
-2.309757 13.259856 26.441245 29.669819 -1.398335 0.470850 0.090791 -0.017480 -521322.000000 0 0 1
-1.476357 12.638656 27.606205 30.397661 -1.454510 0.431908 0.098564 -0.019585 279796.000000 0 0 1
-0.102657 12.876456 27.397975 30.273134 -1.562824 0.439355 0.111558 -0.014447 -160966.000000 0 0 1
0.681143 12.468556 28.533325 31.146099 1.516222 0.412523 0.109680 -0.024373 228675.000000 0 0 1
2.202643 12.532956 28.312075 31.040299 1.396825 0.422402 0.113557 -0.019809 79913.800000 0 0 1
2.674943 13.873956 28.298285 31.629652 1.380330 0.463091 0.114282 -0.020289 -589721.000000 0 0 1
4.069243 13.932956 28.232105 31.744885 1.286641 0.474889 0.116292 -0.013752 -344990.000000 0 0 1
4.578943 15.372056 28.529595 32.729262 1.281291 0.512167 0.113275 -0.012694 -143097.000000 0 0 1
4.407943 15.863856 29.929035 34.159025 1.299772 0.502943 0.118077 -0.008187 407255.000000 0 0 1
3.341843 16.783156 30.170035 34.685346 1.374248 0.515957 0.110350 -0.008217 303315.000000 0 0 1
3.594343 18.213456 29.515835 34.868808 1.375955 0.561453 0.101738 -0.005781 488277.000000 0 0 1
4.748743 18.824156 30.100385 35.818048 1.323684 0.572832 0.118425 -0.007417 300635.000000 0 0 1
5.254143 19.810056 29.225395 35.695490 1.311539 0.611580 0.100305 -0.005710 510998.000000 0 0 1
6.382643 20.682556 29.890105 36.904263 1.271468 0.626753 0.107400 -0.007430 608143.000000 0 0 1
5.903143 21.572156 30.915125 38.156912 1.303689 0.626285 0.093303 -0.025212 403859.000000 0 0 1
6.971943 22.336756 31.475175 39.220215 1.268250 0.639282 0.078510 -0.021684 334539.000000 0 0 1
7.306243 23.681456 30.814135 39.543690 1.271540 0.677340 0.071085 -0.009224 87597.700000 0 0 1
7.879243 23.544756 29.517625 38.571079 1.247862 0.699322 0.048490 -0.006941 189740.000000 0 0 1
8.182843 24.820756 28.943915 38.997167 1.252340 0.734441 0.054237 -0.007788 89404.400000 0 0 1
8.676443 24.707956 27.462675 37.946834 1.233089 0.761627 0.066162 -0.013149 -399128.000000 0 0 1
7.713843 24.118756 26.668845 36.775604 1.261250 0.759504 0.063037 -0.013793 25848.400000 0 0 1
8.064843 24.425856 25.332565 36.102672 1.251890 0.793042 0.067144 -0.020470 -77805.100000 0 0 1
29.238158 2.661456 7.415935 30.281171 0.090777 1.323377 0.229205 -0.014156 171171.000000 0 0 1
29.695358 3.699856 8.246135 31.040328 0.123955 1.301909 0.217847 -0.030932 183854.000000 0 0 1
28.711458 3.946456 9.239535 30.418602 0.136596 1.262174 0.178680 -0.007629 -124142.000000 0 0 1
28.916158 5.169956 10.160035 31.082133 0.176922 1.237799 0.170157 -0.020034 -330481.000000 0 0 1
28.670058 6.443356 9.604535 30.914983 0.221069 1.254892 0.190283 -0.026197 -351627.000000 0 0 1
29.626158 6.851056 8.689635 31.625243 0.227255 1.292447 0.221411 -0.047600 -529699.000000 0 0 1
29.415158 8.227256 8.031735 31.582401 0.272725 1.313662 0.250360 -0.056404 129088.000000 0 0 1
28.182858 8.170456 7.345535 30.248748 0.282173 1.325506 0.206571 -0.058931 -101838.000000 0 0 1
28.012758 9.244456 6.463335 30.198498 0.318755 1.355099 0.239140 -0.078561 753100.000000 0 0 1
26.660358 9.224556 5.644635 28.770280 0.333109 1.373319 0.185046 -0.067752 496913.000000 0 0 1
25.544758 9.720856 6.318635 28.052716 0.363621 1.343605 0.150406 -0.055861 -323424.000000 0 0 1
24.454758 9.710656 5.418635 26.864356 0.377992 1.367699 0.189913 -0.066457 214312.000000 0 0 1
23.203558 10.537656 5.788335 26.133353 0.426291 1.347452 0.091983 -0.046673 114204.000000 0 0 1
23.532658 11.889056 5.863635 27.009588 0.467811 1.351959 0.085659 -0.040830 653851.000000 0 0 1
22.382058 12.668356 6.232435 26.462937 0.515048 1.333047 0.074339 -0.023086 452343.000000 0 0 1
22.531758 14.239156 6.199535 27.365451 0.563588 1.342266 0.058574 -0.007613 -158101.000000 0 0 1
22.417758 14.715956 4.864935 27.254043 0.580890 1.391331 0.067016 -0.028284 204665.000000 0 0 1
22.663558 16.081256 4.733135 28.189470 0.617116 1.402093 0.112199 -0.013456 -385594.000000 0 0 1
22.106858 16.692556 3.477335 27.918568 0.646748 1.445919 0.106284 -0.039208 -442903.000000 0 0 1
20.732958 16.524256 3.263635 26.712505 0.672912 1.448314 0.110368 -0.017126 -223685.000000 0 0 1
20.113458 17.569456 2.560135 26.828926 0.717990 1.475226 0.117802 -0.029439 -958557.000000 0 0 1
18.609058 17.435556 2.601535 25.633253 0.752853 1.469131 0.085078 -0.023895 -1089030.000000 0 0 1
18.029158 17.898756 3.786535 25.685674 0.781769 1.422839 0.092948 -0.031196 81759.700000 0 0 1
16.630458 17.876756 3.668335 24.690225 0.821499 1.421670 0.063128 -0.039057 -588932.000000 0 1 0
15.765458 19.023056 4.133735 25.050231 0.878766 1.405020 0.088570 -0.040821 -713746.000000 0 0 1
14.399158 18.783656 3.988035 24.001373 0.916769 1.403863 0.095963 -0.042302 -566150.000000 0 1 0
13.665158 19.985756 4.028235 24.543709 0.971063 1.405925 0.075978 -0.033943 560074.000000 0 1 0
12.141958 19.700856 3.820135 23.455155 1.018466 1.407198 0.067871 -0.029197 826343.000000 0 1 0
11.520258 18.989056 4.907435 22.746066 1.025480 1.353338 0.054186 -0.038392 140290.000000 0 1 0
10.111758 18.949156 4.845835 22.018181 1.080611 1.348896 0.049315 -0.030291 295357.000000 0 1 0
9.386758 18.468856 6.124435 21.603670 1.100572 1.283364 0.034059 -0.023188 -449139.000000 0 1 0
9.395458 19.563356 7.011435 22.807011 1.123067 1.258311 0.049079 -0.021285 -103665.000000 0 1 0
9.005958 19.161556 8.275635 22.732326 1.131434 1.198187 0.053627 -0.006952 521083.000000 0 1 0
7.870558 20.064956 8.945835 23.336155 1.196985 1.177379 0.045759 -0.001913 1177800.000000 0 1 0
6.645458 20.127656 8.236735 22.740459 1.251899 1.200163 0.040648 -0.011575 100705.000000 0 1 0
6.575858 21.259356 7.369235 23.441582 1.270815 1.251008 0.045785 -0.014244 -758618.000000 0 1 0
5.398258 21.351756 6.371035 22.926595 1.323161 1.289201 0.034617 -0.016479 1066120.000000 0 1 0
4.059258 21.464356 6.896835 22.907695 1.383887 1.264981 0.032286 -0.019430 916235.000000 0 1 0
3.767958 22.675356 7.601035 24.210432 1.406131 1.251438 0.041608 -0.021651 -844187.000000 0 1 0
3.747658 24.054656 6.844935 25.288823 1.416241 1.296707 0.061888 -0.025862 98646.300000 0 0 1
2.601258 24.226456 6.027935 25.100273 1.463833 1.328272 0.035415 -0.022481 365348.000000 0 0 1
2.797358 25.323256 5.143935 25.991394 1.460776 1.371572 0.057305 -0.023648 -65705.600000 0 0 1
1.522058 25.671156 4.337735 26.079510 1.511575 1.403692 0.064717 -0.020986 -6668.420000 0 0 1
0.526558 26.265156 5.147935 26.770075 1.550751 1.377289 0.081611 -0.027474 -254959.000000 0 0 1
-0.634042 26.427356 4.358635 26.791880 -1.546809 1.407385 0.100387 -0.026053 -597524.000000 0 0 1
-1.840542 26.867356 5.163035 27.420783 -1.502398 1.381377 0.133803 -0.034232 -774436.000000 0 0 1
-2.927842 27.100956 4.323035 27.599324 -1.463179 1.413513 0.167719 -0.038358 -381943.000000 0 0 1
-3.977942 27.790456 4.978335 28.511704 -1.428622 1.395290 0.161361 -0.042392 466977.000000 0 0 1
-5.065142 28.339156 3.982135 29.062361 -1.393931 1.433344 0.177803 -0.045713 562323.000000 0 0 1
-4.440442 29.236456 3.053735 29.728996 -1.420068 1.467896 0.175680 -0.040668 45382.700000 0 0 1
-5.236242 29.422856 1.944735 29.948367 -1.394675 1.505814 0.185235 -0.049634 -687645.000000 0 0 1
-4.421842 30.081056 0.804435 30.414959 -1.424844 1.544345 0.159986 -0.049207 83399.500000 0 0 1
-3.989042 31.450956 0.907035 31.715892 -1.444636 1.542194 0.161893 -0.049809 127536.000000 0 0 1
-2.799742 31.390956 1.683735 31.560508 -1.481842 1.517422 0.170754 -0.048122 -430767.000000 0 0 1
-2.052942 32.757156 1.786735 32.870021 -1.508207 1.516412 0.160996 -0.053924 -395457.000000 0 0 1
-1.331342 33.109756 0.612435 33.142171 -1.530608 1.552316 0.117877 -0.042697 748559.000000 0 0 1
-0.474942 -33.436390 0.652735 33.446133 1.556593 1.551279 0.105568 -0.039851 614082.000000 0 0 1
0.862158 -33.693290 1.370435 33.732169 -1.545213 1.530158 0.078161 -0.025759 -612844.000000 0 0 1
0.685458 -33.798490 2.805835 33.921682 -1.550518 1.487987 0.084070 -0.031559 1065030.000000 0 0 1
1.941358 33.563756 3.441935 33.795584 1.513020 1.468774 0.058487 -0.025406 1004030.000000 0 0 1
1.842158 33.745056 4.954635 34.156562 1.516260 1.425226 0.058304 -0.026022 4692.060000 0 0 1
0.912258 32.856756 5.540735 33.333142 1.543039 1.403798 0.114781 -0.044722 -85251.800000 0 0 1
0.369758 33.283556 6.766435 33.966402 1.559687 1.370245 0.125429 -0.037096 -82419.000000 0 0 1
1.312758 33.295556 7.987135 34.265313 1.531389 1.335535 0.093713 -0.030052 -71655.700000 0 0 1
1.652658 31.985756 8.423535 33.117606 1.519174 1.313619 0.093106 -0.035185 -297663.000000 0 0 1
2.697358 31.972456 9.346135 33.419514 1.486631 1.287355 0.091308 -0.036106 -783279.000000 0 0 1
3.239658 30.601656 9.539735 32.217437 1.465324 1.270184 0.086351 -0.035949 -538674.000000 0 0 1
2.515858 29.709256 10.310435 31.547971 1.486315 1.237862 0.122987 -0.044700 -174992.000000 0 0 1
3.028558 28.393656 10.165235 30.310128 1.464535 1.228794 0.098874 -0.043743 -131676.000000 0 0 1
2.464458 27.416756 11.218335 29.725462 1.481148 1.183811 0.095842 -0.048368 -538085.000000 0 0 1
2.840758 27.713156 12.552635 30.555811 1.468647 1.147454 0.102428 -0.042589 -108540.000000 0 0 1
2.440158 26.863656 13.585435 30.202226 1.480210 1.104237 0.100094 -0.037007 255171.000000 0 0 1
0.907858 26.694956 13.898335 30.109942 1.536801 1.091014 0.070283 -0.035426 431234.000000 0 0 1
0.251258 27.761456 14.538835 31.339102 1.561746 1.088381 0.074418 -0.039481 -106669.000000 0 0 1
-0.023842 28.850156 13.674135 31.926698 -1.569970 1.128188 0.102638 -0.046615 -444825.000000 0 0 1
-0.803842 29.959656 14.443435 33.269204 -1.543972 1.121715 0.098990 -0.039852 1031330.000000 0 0 1
-2.081742 29.595756 14.999735 33.245067 -1.500573 1.102702 0.077273 -0.035160 368506.000000 0 0 1
-2.754142 30.715856 15.432535 34.484957 -1.481370 1.106812 0.080814 -0.032439 -262387.000000 0 0 1
-4.011042 30.367556 16.263235 34.680971 -1.439473 1.082708 0.067976 -0.031118 243574.000000 0 0 1
-5.072342 29.896256 15.475335 34.044100 -1.402732 1.098910 0.065766 -0.033893 -190350.000000 0 0 1
-6.248242 29.552556 16.148035 34.251323 -1.362437 1.079854 0.066116 -0.031634 25169.800000 0 0 1
-7.310542 28.861856 15.228835 33.442012 -1.322720 1.097997 0.057207 -0.039782 258159.000000 0 0 1
-8.593442 28.708256 15.796535 33.875385 -1.279948 1.085678 0.057581 -0.036831 -568924.000000 0 0 1
-9.418142 28.116056 14.850635 33.162560 -1.247570 1.106478 0.066927 -0.037853 -431253.000000 0 0 1
-10.775842 27.675956 15.434035 33.470685 -1.199498 1.091538 0.057933 -0.033036 -110437.000000 0 0 1
-11.563342 28.729556 15.923935 34.823411 -1.188146 1.095866 0.057992 -0.037020 112307.000000 0 0 1
-11.435642 28.764456 17.324235 35.472482 -1.192394 1.060558 0.061056 -0.033447 -419491.000000 0 0 1
-12.216542 29.888456 18.044835 36.988914 -1.182780 1.061178 0.065094 -0.034987 127769.000000 0 0 1
-13.627242 29.669156 18.060535 37.311439 -1.140230 1.065521 0.077829 -0.027954 581106.000000 0 0 1
-14.393942 30.836656 18.271235 38.625418 -1.134076 1.078062 0.083871 -0.020109 354807.000000 0 0 1
-15.340142 30.740456 19.497735 39.502623 -1.107932 1.054594 0.094755 -0.017082 437469.000000 0 0 1
-14.564942 30.534756 20.669435 39.645106 -1.125721 1.022351 0.091977 -0.018330 587385.000000 0 0 1
-15.465542 30.251856 21.728435 40.329675 -1.098208 1.001819 0.104338 -0.016329 338391.000000 0 0 1
-14.876442 30.495656 23.164735 41.084042 -1.116939 0.971771 0.077440 -0.004397 59867.600000 0 0 1
-13.825542 29.568656 23.455635 40.194749 -1.133424 0.947703 0.072340 -0.002829 480984.000000 0 0 1
-13.723842 29.234956 24.848035 40.748636 -1.131900 0.915003 0.064470 0.002424 187977.000000 0 0 1
-13.073842 30.271656 25.814135 41.876820 -1.163109 0.906595 0.055101 0.003547 -184545.000000 0 0 1
-13.960942 31.367856 25.921935 43.020890 -1.152048 0.924113 0.050960 0.002787 473228.000000 0 0 1
-13.493942 32.453456 26.724235 44.153120 -1.176749 0.920701 0.043622 0.005214 151818.000000 0 0 1
-14.737142 33.240756 27.255635 45.442280 -1.153490 0.927563 0.055092 -0.005282 1035980.000000 0 0 1
-15.516242 32.662956 28.358435 45.954578 -1.127315 0.905748 0.059032 -0.008535 750285.000000 0 0 1
-14.777442 32.640756 29.544135 46.439721 -1.145675 0.881256 0.064941 0.000904 -312483.000000 0 0 1
-15.552342 31.879956 30.651035 46.879557 -1.116923 0.858167 0.067101 0.002129 -483121.000000 0 0 1
-16.607842 32.643156 31.128135 48.066171 -1.100158 0.866353 0.070935 -0.009634 -655176.000000 0 0 1
-17.340742 31.985156 32.153335 48.555005 -1.074000 0.847040 0.060385 -0.011526 463996.000000 0 0 1
-18.812442 32.485256 32.229035 49.476363 -1.045881 0.861365 0.063245 -0.016553 219614.000000 0 0 1
-19.056042 33.803956 32.559435 50.655276 -1.057479 0.872694 0.080453 -0.014655 -399801.000000 0 0 1
-20.430042 -33.698090 32.780335 51.259128 1.025781 0.876946 0.080104 -0.019537 -111006.000000 0 0 1
-20.805042 -32.221290 33.056235 50.633743 0.997455 0.859456 0.089864 -0.021377 -381156.000000 0 0 1
-20.590442 -31.655590 -33.351155 50.381963 0.994103 2.294235 0.103980 -0.018947 -309660.000000 0 0 1
-21.354142 -32.174690 -32.289255 50.336925 0.984855 2.267200 0.094496 -0.018744 -32026.200000 0 0 1
-21.241642 -31.468090 -30.921455 48.965135 0.977032 2.254282 0.109605 -0.023805 124036.000000 0 0 1
-21.614342 -30.118890 -31.066655 48.368010 0.948333 2.268288 0.110314 -0.020545 38418.100000 0 0 1
-21.087742 -29.312490 -30.020055 46.958691 0.947161 2.264366 0.105734 -0.008552 79340.800000 0 0 1
-21.307042 -27.809190 -30.150655 46.221240 0.917016 2.281427 0.099788 -0.020144 -743137.000000 0 0 1
-22.635342 -27.509090 -29.906755 46.513683 0.882288 2.269162 0.091314 -0.015440 -781442.000000 0 0 1
-22.806242 -26.130390 -29.889955 45.785711 0.853222 2.282101 0.083186 -0.017078 -284281.000000 0 0 1
-24.092742 -25.726190 -29.179955 45.757697 0.818174 2.262313 0.084117 -0.016214 -365338.000000 0 0 1
-24.047442 -25.936690 -27.748655 44.955302 0.823177 2.236039 0.088640 -0.017501 175478.000000 0 0 1
-23.289842 -24.961890 -27.033655 43.546885 0.820037 2.240552 0.090426 -0.022988 83090.500000 0 0 1
-22.984542 -25.417990 -25.562955 42.753106 0.835631 2.211700 0.091427 -0.015604 -379714.000000 0 0 1
-24.038542 -25.127090 -24.706755 42.657307 0.807535 2.188533 0.088682 -0.018997 -331435.000000 0 0 1
-23.969942 -25.835390 -23.429955 42.320069 0.822835 2.157522 0.091860 -0.011635 -963971.000000 0 0 1
-25.184542 -25.614290 -22.511755 42.392595 0.793858 2.130612 0.084074 -0.013095 -56355.400000 0 0 1
-26.399042 -26.174590 -22.933755 43.680381 0.781129 2.123553 0.105204 -0.007027 -351388.000000 0 0 1
-26.548942 -27.561990 -23.080155 44.690079 0.804118 2.113495 0.112121 -0.007945 -312556.000000 0 0 1
-28.068042 -27.862390 -23.311155 45.907926 0.781721 2.103403 0.077030 -0.004904 520268.000000 0 0 1
-28.831442 -27.624590 -22.162655 45.667858 0.764025 2.077504 0.077854 0.003407 -534700.000000 0 0 1
-30.206742 -27.702090 -22.459555 46.736331 0.742173 2.072088 0.078741 0.000483 73759.900000 0 0 1
-31.068842 -26.842290 -21.507455 46.350319 0.712544 2.053324 0.094605 -0.001116 -43500.800000 0 0 1
-31.572042 -27.498690 -20.348355 46.551341 0.716550 2.023186 0.075743 0.022025 301203.000000 0 0 1
-32.083042 -26.548390 -19.358555 45.922677 0.691280 2.005947 0.073526 0.020159 -761332.000000 0 0 1
-32.763242 -27.236290 -18.203955 46.331733 0.693541 1.974585 0.050415 0.011200 -745911.000000 0 0 1
-34.015542 -27.836890 -18.440755 47.665616 0.685835 1.968039 0.044357 0.015014 1228560.000000 0 0 1
-35.130242 -26.867990 -18.514055 47.945730 0.652913 1.967246 0.024689 0.015640 531871.000000 0 0 1
-35.706342 -26.422490 -17.140455 47.611826 0.637067 1.939069 0.042312 0.010212 -1534500.000000 0 0 1
-34.891342 -25.645790 -16.396155 46.302766 0.633844 1.932756 0.037622 0.024425 -795581.000000 0 0 1
-35.440242 -25.055590 -15.234455 45.998717 0.615396 1.908364 0.041991 0.018392 -211882.000000 0 0 1
-35.208242 -25.876890 -13.937555 45.863811 0.633810 1.879569 0.064065 0.025709 368668.000000 0 0 1
-36.000142 -27.086890 -13.810655 47.121587 0.645042 1.868249 0.061536 0.019814 547520.000000 0 0 1
-35.527842 -27.861690 -12.739255 46.912577 0.665045 1.845803 0.052150 0.006545 6768.150000 0 0 1
-36.213442 -29.216590 -12.501555 48.179989 0.678867 1.833276 0.061809 0.000233 79903.500000 0 0 1
-35.662642 -30.096490 -13.454555 48.565912 0.700955 1.851505 0.060255 -0.002394 366246.000000 0 0 1
-36.169242 -31.370290 -13.176155 49.658033 0.714463 1.839351 0.045035 -0.011169 -174707.000000 0 0 1
-35.714342 -32.443090 -14.165455 50.286463 0.737439 1.856357 0.037653 0.005969 593921.000000 0 0 1
-34.313342 -32.755990 -14.116455 49.493783 0.762182 1.860029 0.035498 0.000995 641108.000000 0 0 1
-33.923642 -33.412590 -15.287255 50.009147 0.777809 1.881458 0.066301 -0.021695 86576.200000 0 0 1
-32.406942 -33.721590 -15.318855 49.214051 0.805276 1.887325 0.060063 -0.014926 234542.000000 0 0 1
-32.124942 33.115356 -16.374855 48.956864 -0.800578 1.911845 0.085541 -0.020808 -50861.200000 0 0 1
-30.758542 32.770656 -16.568555 47.901156 -0.817060 1.923984 0.086284 -0.021029 66697.800000 0 0 1
9.423043 19.723156 -9.330165 23.766544 1.125094 1.974227 0.089243 -0.031334 -391716.000000 0 1 0
8.023843 19.569656 -9.438465 23.161134 1.181687 1.990525 0.080445 -0.037192 -2326.920000 0 1 0
7.645643 19.507156 -10.808765 23.575716 1.197257 2.047069 0.096631 -0.035794 140322.000000 0 1 0
7.908743 18.159556 -11.525365 22.916189 1.160054 2.097788 0.092702 -0.033489 -584742.000000 0 1 0
9.250843 17.876156 -11.841365 23.352794 1.093250 2.102572 0.143898 -0.047101 -165791.000000 0 1 0
9.335843 16.822856 -12.787465 23.101639 1.064161 2.157394 0.137003 -0.053712 -796533.000000 0 1 0
10.753343 16.325856 -12.943465 23.445708 0.988351 2.155631 0.176990 -0.065130 -688823.000000 0 1 0
10.689443 15.105456 -13.653565 22.996931 0.954952 2.206461 0.179941 -0.074582 -711871.000000 0 1 0
11.833143 14.903556 -14.400265 23.864343 0.899736 2.218582 0.205376 -0.076770 -789360.000000 0 1 0
11.748343 13.672456 -15.260065 23.618408 0.860945 2.273272 0.179446 -0.074311 -732080.000000 0 1 0
11.736743 12.464256 -14.424265 22.386787 0.815450 2.270931 0.192001 -0.071845 505116.000000 0 1 0
12.966543 12.046056 -13.836565 22.465289 0.748614 2.234335 0.228647 -0.071385 -226720.000000 0 1 0
13.934843 11.470056 -14.868065 23.383785 0.688681 2.259877 0.230111 -0.067843 -618729.000000 0 1 0
14.491443 12.457056 -15.708665 24.737468 0.710049 2.258824 0.194279 -0.058569 83864.900000 0 1 0
15.317243 11.828356 -16.689365 25.555094 0.657574 2.282433 0.173444 -0.058312 155929.000000 0 0 1
15.882343 12.693256 -17.889965 27.081699 0.674256 2.292404 0.123005 -0.044024 -10779.000000 0 0 1
16.883943 13.531656 -17.382565 27.754762 0.675625 2.247583 0.098525 -0.038370 -130533.000000 0 0 1
17.699943 14.024056 -18.439065 29.154095 0.670042 2.255533 0.062116 -0.025123 344680.000000 0 0 1
18.954243 14.881956 -18.091665 30.133773 0.665621 2.214770 0.056076 -0.012603 -45451.000000 0 0 1
18.890843 16.227856 -17.665465 30.533193 0.709715 2.187766 0.064555 -0.020568 -111491.000000 0 0 1
18.165043 17.114256 -18.469565 31.048210 0.755622 2.207897 0.065688 -0.013268 -106875.000000 0 0 1
17.970943 18.557056 -17.879565 31.416524 0.801442 2.176224 0.071310 -0.006408 115494.000000 0 0 1
19.123343 19.353456 -17.983265 32.613744 0.791379 2.154840 0.076152 -0.007110 13088.000000 0 0 1
18.725543 20.642556 -17.563265 32.942819 0.834054 2.133109 0.063556 -0.004714 389370.000000 0 0 1
19.746443 21.839156 -17.737765 34.372941 0.835679 2.113016 0.063373 -0.005051 823448.000000 0 0 1
20.881343 21.892056 -16.873965 34.641352 0.809023 2.079568 0.081902 -0.010303 303053.000000 0 0 1
20.507543 22.283956 -15.559165 34.047344 0.826888 2.045400 0.077476 -0.007541 30106.600000 0 0 1
21.629543 23.065556 -14.813165 34.918288 0.817516 2.008901 0.085259 -0.016949 1215200.000000 0 0 1
22.847643 22.315956 -14.615665 35.123131 0.773626 1.999978 0.085158 -0.024127 751766.000000 0 0 1
23.792143 22.962756 -13.769065 35.818171 0.767661 1.965371 0.070703 -0.030167 -100793.000000 0 0 1
25.236743 22.529656 -14.076965 36.642046 0.728785 1.965111 0.061339 -0.021736 -246849.000000 0 0 1
25.828143 22.870056 -15.285065 37.732819 0.724729 1.987870 0.085071 -0.021381 -386752.000000 0 0 1
26.475143 24.124856 -15.174565 38.899991 0.738983 1.971528 0.058132 -0.019339 -689084.000000 0 0 1
27.073343 24.470356 -16.509965 40.054253 0.734940 1.995653 0.067279 -0.025679 -444565.000000 0 0 1
28.075543 23.588956 -16.993765 40.416123 0.698775 2.004760 0.065435 -0.026337 -224889.000000 0 0 1
27.940143 23.429056 -18.424865 40.853983 0.697806 2.038674 0.063939 -0.021654 -1094330.000000 0 0 1
28.705943 22.261956 -19.049865 41.018571 0.659633 2.053776 0.050792 -0.020035 822527.000000 0 0 1
30.090643 22.554356 -19.297065 42.267274 0.643211 2.044908 0.042289 -0.014065 412767.000000 0 0 1
30.710743 21.756056 -20.240665 42.733596 0.616354 2.064224 0.064167 -0.004257 -79316.800000 0 0 1
32.172943 22.136156 -20.546265 44.127731 0.602652 2.055119 0.100835 -0.009084 -64766.800000 0 0 1
32.341443 23.236056 -21.441765 45.228669 0.623009 2.064709 0.088209 -0.014983 -334748.000000 0 0 1
33.645543 23.724556 -21.272465 46.339992 0.614162 2.047724 0.095950 -0.004697 -123797.000000 0 0 1
33.839243 25.135256 -21.909865 47.507027 0.638867 2.050135 0.089557 -0.005763 -249240.000000 0 0 1
34.087243 25.186556 -23.328665 48.379017 0.636350 2.073968 0.087431 -0.013654 1017680.000000 0 0 1
32.951743 24.847956 -24.182765 47.833507 0.646102 2.100829 0.093463 -0.025463 616891.000000 0 0 1
33.174743 25.258656 -25.651495 48.954698 0.650746 2.122319 0.097170 -0.031561 -393669.000000 0 0 1
32.913243 26.634156 -25.825195 49.594360 0.680340 2.118500 0.105276 -0.031814 625541.000000 0 0 1
31.531243 26.994156 -26.003975 48.980715 0.708030 2.130461 0.096506 -0.028614 882709.000000 0 0 1
30.877643 26.673856 -27.369965 49.132865 0.712484 2.161638 0.108353 -0.031728 -452680.000000 0 0 1
30.612743 25.354756 -27.535975 48.355285 0.691726 2.176634 0.101600 -0.043813 -173622.000000 0 0 1
30.539643 25.036456 -28.921305 48.948297 0.686699 2.202913 0.106555 -0.050377 -477239.000000 0 0 1
29.819643 23.750156 -29.184825 48.010780 0.672579 2.224185 0.115491 -0.056845 -1145530.000000 0 0 1
28.494643 23.850356 -28.796715 47.011009 0.696905 2.230082 0.115402 -0.050641 -832442.000000 0 0 1
27.878143 22.592156 -29.110725 46.206392 0.681044 2.252369 0.136984 -0.062719 -1200140.000000 0 0 1
26.432843 22.632156 -28.704685 45.109518 0.708090 2.260532 0.112289 -0.045984 -1286380.000000 0 0 1
26.145943 22.540456 -27.306805 44.015271 0.711478 2.240041 0.100656 -0.033574 275136.000000 0 0 1
24.846443 22.992656 -26.989795 43.295000 0.746667 2.243871 0.089979 -0.026270 -51441.000000 0 0 1
24.637843 23.176456 -25.526565 42.376608 0.754844 2.217268 0.089227 -0.017625 -285947.000000 0 0 1
24.768443 22.019556 -24.717365 41.343497 0.726714 2.211617 0.093669 -0.022143 131617.000000 0 0 1
25.042243 22.444356 -23.381565 40.958035 0.730745 2.178357 0.092411 -0.013792 -314640.000000 0 0 1
25.672243 21.329256 -22.534965 40.271899 0.693259 2.164664 0.087445 -0.014657 53446.700000 0 0 1
26.972543 20.998856 -22.961265 41.178753 0.661510 2.162288 0.070215 -0.015491 -320800.000000 0 0 1
27.742243 20.184756 -22.158365 40.841762 0.628999 2.144256 0.097425 -0.026826 508007.000000 0 0 1
29.086943 19.849356 -22.909865 42.010821 0.598826 2.147582 0.124067 -0.040199 541872.000000 0 0 1
29.952443 19.006756 -22.166665 41.830212 0.565448 2.129303 0.119349 -0.028077 130466.000000 0 0 1
30.871243 18.335956 -23.056865 42.671535 0.535959 2.141630 0.121943 -0.019586 179233.000000 0 0 1
32.051943 17.744756 -22.275165 42.876408 0.505622 2.117086 0.093952 -0.011288 -300283.000000 0 0 1
32.866943 18.728356 -21.681165 43.601149 0.517935 2.091236 0.099351 -0.004968 -801650.000000 0 0 1
33.736943 18.125556 -20.812465 43.587565 0.493010 2.068588 0.112689 -0.005203 -562234.000000 0 0 1
34.530543 19.152156 -20.052865 44.286351 0.506402 2.040700 0.058030 -0.010650 156441.000000 0 0 1
33.722243 19.554856 -18.941865 43.340239 0.525494 2.023113 0.069655 -0.013315 238082.000000 0 0 1
34.405443 20.436956 -18.079365 43.912038 0.535999 1.995134 0.061569 -0.010638 -396659.000000 0 0 1
33.868043 20.730156 -16.736165 43.091564 0.549259 1.969676 0.066932 -0.013104 -338078.000000 0 0 1
34.006143 19.651556 -15.845165 42.351749 0.523998 1.954257 0.069385 -0.022449 175628.000000 0 0 1
33.769043 20.002256 -14.527465 41.850755 0.534757 1.925301 0.064921 -0.024067 -204253.000000 0 0 1
34.084343 18.798956 -13.628165 41.241606 0.504027 1.907573 0.078296 -0.021837 26800.600000 0 0 1
35.477743 18.526356 -13.540565 42.252136 0.481247 1.897023 0.073424 -0.022748 226706.000000 0 0 1
35.875443 17.519856 -12.600065 41.865910 0.454286 1.876498 0.067619 -0.011553 197830.000000 0 0 1
35.699643 17.880456 -11.108465 41.443615 0.464334 1.842152 0.063955 -0.015810 -221439.000000 0 0 1
36.645743 18.911456 -10.826365 42.635241 0.476414 1.827538 0.064594 -0.021924 469847.000000 0 0 1
36.557843 19.392856 -9.510265 42.461793 0.487726 1.796685 0.068804 -0.014285 -79958.300000 0 0 1
35.290843 20.254556 -9.234965 41.724995 0.521032 1.793974 0.066540 -0.013480 497294.000000 0 0 1
34.065843 19.543756 -9.307465 40.361726 0.520861 1.803492 0.060510 -0.022349 -37940.100000 0 0 1
32.989343 20.482856 -9.282465 39.925033 0.555641 1.805441 0.036168 -0.014140 74745.000000 0 0 1
31.668143 19.893656 -9.802865 38.661673 0.560891 1.827150 0.030455 -0.012561 -210482.000000 0 0 1
31.596743 19.488256 -11.147265 38.760905 0.552667 1.862506 0.041990 -0.016935 -149858.000000 0 0 1
30.380543 18.814356 -11.374365 37.501114 0.554482 1.878958 0.020711 -0.013514 -335534.000000 0 0 1
30.187043 18.274656 -12.824465 37.545805 0.544367 1.919382 0.040859 -0.010011 -566721.000000 0 0 1
30.994643 17.137456 -12.978965 37.720204 0.505080 1.922061 0.052597 -0.007318 -3606.900000 0 0 1
30.861143 16.490556 -14.197065 37.761160 0.490746 1.956240 0.049256 -0.006667 92419.900000 0 0 1
32.186743 15.987856 -14.842265 38.883040 0.461022 1.962448 0.068039 -0.015155 328302.000000 0 0 1
32.798943 14.919956 -14.155065 38.713584 0.426914 1.945112 0.062501 -0.020310 560711.000000 0 0 1
34.143443 14.677756 -14.576965 39.921161 0.406001 1.944584 0.068701 -0.020772 649140.000000 0 0 1
34.853743 13.537856 -13.750265 39.838759 0.370483 1.923193 0.066682 -0.031056 378556.000000 0 0 1
35.728543 14.046356 -12.746865 40.451347 0.374580 1.891375 0.060504 -0.011424 52965.200000 0 0 1
36.245143 12.994456 -11.968865 40.321458 0.344241 1.872174 0.062741 -0.004935 138661.000000 0 0 1
37.266943 13.497356 -10.884465 41.103226 0.347484 1.838801 0.091247 -0.006002 1164120.000000 0 0 1
-36.780073 13.648156 -11.470265 40.873132 -0.355325 1.855248 0.075839 -0.012786 589668.000000 0 0 1
-35.866773 14.118156 -10.513065 39.953376 -0.375001 1.837065 0.063996 -0.021068 -1015160.000000 0 0 1
-34.489673 14.540356 -11.072965 39.032935 -0.398975 1.858429 0.105851 -0.033125 343428.000000 0 0 1
-33.616973 13.583656 -11.639865 38.080218 -0.384011 1.881435 0.119420 -0.040343 153997.000000 0 0 1
-33.327073 12.535956 -10.748065 37.193613 -0.359778 1.863953 0.134083 -0.028085 -1499240.000000 0 0 1
-32.165673 11.648456 -11.231165 36.006334 -0.347448 1.888012 0.160460 -0.037852 -320957.000000 0 0 1
-32.429973 10.901156 -12.416465 36.396524 -0.324278 1.918930 0.139962 -0.028692 517427.000000 0 0 1
-31.486173 9.815856 -12.447965 35.251694 -0.302203 1.931697 0.167319 -0.038409 344031.000000 0 0 1
-31.414373 9.118156 -13.832865 35.515514 -0.282492 1.970872 0.163109 -0.041375 -692701.000000 0 0 1
-32.639873 8.681856 -14.298965 36.676918 -0.259970 1.971279 0.140879 -0.040650 -568300.000000 0 0 1
-32.427973 7.588956 -15.126565 36.578390 -0.229888 1.997133 0.141022 -0.045687 -527344.000000 0 0 1
-33.654073 7.035256 -15.821265 37.847112 -0.206079 2.002073 0.141887 -0.045599 -951166.000000 0 0 1
-34.564073 6.320156 -15.102065 38.245155 -0.180855 1.976728 0.141849 -0.046183 -408594.000000 0 0 1
-35.605473 5.725856 -15.849765 39.392260 -0.159449 1.984887 0.117989 -0.048309 123427.000000 0 0 1
-36.653373 5.183156 -14.827065 39.877020 -0.140479 1.951765 0.124872 -0.045168 300557.000000 0 0 1
37.680143 4.396856 -15.429465 40.953558 0.116164 1.957087 0.124580 -0.038912 272329.000000 0 0 1
36.672443 4.016256 -14.532765 39.650973 0.109082 1.946059 0.131328 -0.037747 30143.800000 0 0 1
35.858143 2.779056 -14.963765 38.954381 0.077347 1.965068 0.121794 -0.032900 -297566.000000 0 0 1
36.507143 1.546756 -14.804265 39.424994 0.042343 1.955737 0.144459 -0.040932 381821.000000 0 0 1
35.633343 0.393756 -14.850365 38.606003 0.011050 1.965641 0.143341 -0.026802 604263.000000 0 0 1
34.842143 0.102856 -13.539365 37.380475 0.002952 1.941428 0.139381 -0.039445 4423.750000 0 0 1
35.701743 -0.405844 -12.553465 37.846646 -0.011367 1.908894 0.169818 -0.042952 180244.000000 0 0 1
35.187843 -0.358544 -11.248665 36.943813 -0.010189 1.880189 0.151143 -0.034936 -209226.000000 0 0 1
35.437543 0.992556 -10.526765 36.981311 0.028001 1.859439 0.148705 -0.037630 365438.000000 0 0 1
34.529543 1.978356 -11.040065 36.305458 0.057232 1.879778 0.140014 -0.021836 656523.000000 0 0 1
34.881343 3.228956 -10.486065 36.566266 0.092307 1.861649 0.141846 -0.027425 495404.000000 0 0 1
33.855843 4.323156 -11.051365 35.875346 0.127006 1.883938 0.145486 -0.034189 620894.000000 0 0 1
33.884843 4.551956 -12.462065 36.389640 0.133537 1.920332 0.132100 -0.026700 33711.600000 0 0 1
32.937643 5.470556 -12.929965 35.805018 0.164586 1.940267 0.128960 -0.033821 -423381.000000 0 0 1
33.208943 6.127256 -14.265365 36.658939 0.182454 1.970491 0.093530 -0.027817 -437009.000000 0 0 1
33.005443 5.267756 -15.328065 36.770342 0.158268 2.000784 0.085833 -0.015497 175824.000000 0 0 1
33.363243 5.871556 -16.555565 37.705011 0.174205 2.025372 0.074186 -0.011166 -1430700.000000 0 0 1
32.511343 7.054556 -17.125865 37.417234 0.213675 2.046203 0.078364 -0.016610 214430.000000 0 0 1
31.239143 6.703256 -17.626065 36.489668 0.211373 2.074923 0.060012 -0.016180 572546.000000 0 0 1
30.291643 6.171756 -16.691265 35.132215 0.200993 2.065872 0.065043 -0.009059 -1177060.000000 0 0 1
28.870843 6.087256 -17.267965 34.187174 0.207801 2.100295 0.059072 -0.009720 -335820.000000 0 0 1
28.774643 5.158556 -18.322965 34.501041 0.177390 2.130676 0.066213 -0.012499 465849.000000 0 0 1
27.625343 5.343356 -19.138565 34.029336 0.191063 2.168098 0.060360 -0.020076 154449.000000 0 0 1
27.161643 4.107556 -20.003065 33.981605 0.150089 2.200177 0.054184 0.009425 55434.100000 0 0 1
26.194143 3.338556 -19.313465 32.715272 0.126771 2.202289 0.064447 -0.005499 290456.000000 0 0 1
25.709843 2.241156 -20.019165 32.661686 0.086951 2.230554 0.066948 -0.004940 261905.000000 0 0 1
24.551543 1.413956 -19.351965 31.293387 0.057528 2.237507 0.081789 -0.004616 636686.000000 0 0 1
23.300243 2.091756 -19.379065 30.378033 0.089534 2.262604 0.093181 -0.026598 -136439.000000 0 0 1
22.378343 1.295256 -18.710465 29.198449 0.057815 2.266341 0.107804 -0.034039 -438759.000000 0 0 1
20.992043 1.946756 -18.570165 28.094604 0.092473 2.292930 0.127271 -0.047979 -1596480.000000 0 0 1
20.291743 2.144656 -19.784465 28.421461 0.105300 2.340761 0.120551 -0.038026 -363491.000000 0 0 1
19.185643 2.969156 -19.669565 27.636870 0.153541 2.362732 0.118421 -0.034017 -757141.000000 0 0 1
17.982643 2.310756 -18.972065 26.242223 0.127799 2.378873 0.163449 -0.039822 -1617020.000000 0 0 1
18.085443 2.069556 -17.575465 25.303424 0.113937 2.338644 0.165559 -0.050154 -125461.000000 0 0 1
16.840543 1.746756 -17.006265 23.997252 0.103354 2.358416 0.138873 -0.041717 559184.000000 0 1 0
15.869543 2.901656 -16.534365 23.100806 0.180847 2.368492 0.139303 -0.034542 304053.000000 0 1 0
15.281943 3.577456 -17.612565 23.591066 0.229956 2.413700 0.134608 -0.023089 -256620.000000 0 1 0
14.235943 4.377356 -17.181465 22.738207 0.298311 2.427398 0.140969 -0.032304 -502084.000000 0 1 0
-21.126457 -21.326444 -17.380865 34.687734 0.790109 2.095627 0.087707 -0.026587 -75425.300000 0 0 1
-20.789157 -22.199644 -18.473765 35.585014 0.818197 2.116646 0.087367 -0.027260 213379.000000 0 0 1
-21.783557 -22.184344 -19.474265 36.686721 0.794513 2.130371 0.085225 -0.024099 -225275.000000 0 0 1
-21.461557 -23.008144 -20.732965 37.680618 0.820163 2.153435 0.061604 -0.014224 -279006.000000 0 0 1
-21.567457 -24.449744 -20.570765 38.549988 0.847951 2.133663 0.065188 -0.018283 -150164.000000 0 0 1
-20.766757 -25.074874 -21.506165 39.019516 0.879101 2.154555 0.055669 -0.021590 -416757.000000 0 0 1
-20.593557 -26.613854 -21.274265 39.811885 0.912242 2.134558 0.062991 -0.006067 -107885.000000 0 0 1
-21.808857 -27.237574 -21.646265 41.061813 0.895635 2.126055 0.090087 0.009592 -67965.200000 0 0 1
-21.786557 -28.643574 -21.493565 41.917559 0.920540 2.109191 0.110839 -0.020980 -272660.000000 0 0 1
-23.082057 -29.500084 -21.553065 43.215402 0.906855 2.092936 0.117655 -0.016133 20630.300000 0 0 1
-23.800857 -29.396624 -22.765865 44.146652 0.890201 2.112606 0.104498 -0.015344 197775.000000 0 0 1
-23.115557 -29.905054 -23.926365 44.733792 0.912759 2.135140 0.099546 -0.024254 -412723.000000 0 0 1
-23.600357 -29.149304 -25.170005 45.168440 0.890207 2.161864 0.089862 -0.019773 45234.400000 0 0 1
-24.901357 -29.606714 -25.498145 46.333471 0.871509 2.153541 0.093743 -0.015349 386163.000000 0 0 1
-25.514787 -28.804454 -26.510325 46.727918 0.845886 2.174061 0.089205 -0.011696 -94834.800000 0 0 1
-25.081597 -28.997214 -28.004225 47.478011 0.857678 2.201652 0.085316 -0.022557 -576648.000000 0 0 1
-25.682297 -30.104414 -28.564005 48.803263 0.864501 2.196033 0.066663 -0.014901 132530.000000 0 0 1
-25.344387 -30.247254 -29.965795 49.549805 0.873365 2.220262 0.101033 -0.013237 99868.600000 0 0 1
-25.855987 -31.584644 -30.567475 50.995023 0.884801 2.213574 0.065302 -0.014938 -174505.000000 0 0 1
-25.196517 -32.779884 -30.226675 51.215595 0.915461 2.202084 0.075458 -0.024434 24875.000000 0 0 1
-25.933567 -33.829174 -30.814635 52.597573 0.916753 2.196733 0.065448 -0.019504 -249189.000000 0 0 1
-25.298107 32.549788 -30.767125 51.440246 -0.910105 2.211942 0.073263 -0.015002 487588.000000 0 0 1
-24.240957 32.391739 -31.734965 51.419420 -0.928340 2.235948 0.091736 -0.029727 640982.000000 0 0 1
-23.427657 31.233942 -31.681215 50.280351 -0.927250 2.252467 0.092593 -0.028668 1787110.000000 0 0 1
-22.051457 31.354062 -32.523225 50.270311 -0.957856 2.274396 0.083933 -0.030498 1611200.000000 0 0 1
-22.197157 31.016702 33.762255 50.937603 -0.949643 0.846223 0.076618 -0.025565 207153.000000 0 0 1
-21.590757 29.769772 33.511036 49.753288 -0.943319 0.831803 0.061704 -0.017365 -38659.100000 0 0 1
-21.748357 29.363312 32.030352 48.591548 -0.933297 0.851075 0.051910 -0.015667 -136085.000000 0 0 1
-20.990057 30.190402 31.200235 48.223413 -0.963261 0.867161 0.052817 -0.016008 273187.000000 0 0 1
-21.262757 29.995092 29.797415 47.325430 -0.954139 0.889722 0.058688 -0.010211 134118.000000 0 0 1
-20.593557 31.186762 29.015155 47.313718 -0.987193 0.910627 0.056831 -0.019109 135749.000000 0 0 1
-21.399157 32.372836 29.121835 48.518097 -0.986712 0.927012 0.061715 -0.017103 422042.000000 0 0 1
-20.827357 33.635682 28.799965 48.934404 -1.016376 0.941542 0.061473 -0.027579 -127406.000000 0 0 1
-21.902557 -32.979284 28.931685 49.034657 0.984551 0.939706 0.072770 -0.034935 188799.000000 0 0 1
-22.255757 -32.705874 30.286785 49.822507 0.973290 0.917391 0.072909 -0.025180 -88993.700000 0 0 1
-23.429057 -31.924624 30.431195 49.941565 0.937688 0.915573 0.082814 -0.031169 -66881.800000 0 0 1
-23.396557 -30.406294 30.127425 48.781178 0.914954 0.905104 0.086233 -0.018015 -415371.000000 0 0 1
-23.231557 -30.213624 28.703485 47.712245 0.915302 0.925299 0.063921 -0.018030 30552.500000 0 0 1
-23.207457 -28.852904 28.288985 46.597669 0.893416 0.918403 0.057967 -0.015723 387671.000000 0 0 1
-24.580657 -28.355534 27.719105 46.653979 0.856588 0.934597 0.064429 -0.007767 -72224.900000 0 0 1
-25.563397 -28.269504 28.721215 47.723792 0.835625 0.925016 0.083371 -0.005299 222318.000000 0 0 1
-26.650977 -29.179624 28.752315 48.871471 0.830659 0.941810 0.073480 -0.012527 509934.000000 0 0 1
-27.633127 -29.270294 27.522495 48.762973 0.814161 0.971073 0.048847 -0.002992 -85216.200000 0 0 1
-27.036657 -29.700424 26.247385 47.979383 0.832313 0.991954 0.051692 -0.005084 198519.000000 0 0 1
-28.021967 -29.757514 25.257995 48.049002 0.815427 1.017292 0.047417 -0.009414 -278120.000000 0 0 1
-27.407897 -29.910524 23.860215 47.065296 0.829032 1.039142 0.040696 -0.018312 -357212.000000 0 0 1
-26.952467 -28.704114 23.286555 45.745221 0.816860 1.036717 0.014939 -0.017197 764423.000000 0 0 1
-26.252227 -28.771694 21.986725 44.725897 0.831155 1.056884 0.037300 -0.022450 916166.000000 0 0 1
-24.925657 -29.583314 21.882025 44.444166 0.870639 1.056010 0.042999 -0.031362 -230130.000000 0 0 1
-25.171967 -30.923834 21.606525 45.351443 0.887578 1.074213 0.045251 -0.037352 1708510.000000 0 0 1
-23.987357 -31.625804 21.064225 44.936470 0.921894 1.082915 0.050434 -0.024771 1374100.000000 0 0 1
-22.996857 -32.207794 22.072925 45.314583 0.950726 1.062025 0.055509 -0.019594 391878.000000 0 0 1
-22.100557 -31.348614 22.826215 44.634138 0.956727 1.033975 0.064789 -0.026727 364474.000000 0 0 1
-21.260457 -32.151474 23.573225 45.182090 0.986547 1.021909 0.082447 -0.028706 -439786.000000 0 0 1
-20.525957 -31.491474 24.758305 45.011126 0.993161 0.988374 0.080765 -0.028358 -532842.000000 0 0 1
-19.401057 -30.707114 24.428675 43.773143 1.007315 0.978733 0.093553 -0.028292 -107532.000000 0 0 1
-19.095557 -29.912254 25.560405 43.734626 1.002629 0.946603 0.095835 -0.023914 639552.000000 0 0 1
-18.000257 -30.617694 26.511045 44.320288 1.039319 0.929581 0.083730 -0.027791 194692.000000 0 0 1
-18.367857 -31.891004 27.047025 45.672266 1.048243 0.937012 0.084569 -0.027773 -387160.000000 0 0 1
-17.621457 -32.323824 28.124705 46.328656 1.071681 0.918429 0.082545 -0.019237 -771434.000000 0 0 1
-17.742057 -31.659774 29.532605 46.789920 1.060005 0.887730 0.096384 -0.019419 -118126.000000 0 0 1
-17.406957 -30.293664 29.525225 45.743274 1.049257 0.869177 0.099481 -0.013021 122610.000000 0 0 1
-17.559057 -29.797364 30.828885 46.331669 1.038295 0.842773 0.122012 -0.011526 -262109.000000 0 0 1
-17.553657 -28.212784 30.931155 45.396348 1.014222 0.821180 0.112199 -0.018413 354130.000000 0 0 1
-18.613357 -27.459444 30.306965 44.933175 0.975092 0.830523 0.112763 -0.014991 452912.000000 0 0 1
-18.673857 -27.418844 28.858275 43.969375 0.972896 0.854857 0.097770 -0.013979 -175722.000000 0 0 1
-17.520657 -26.774954 28.044835 42.548612 0.991357 0.851142 0.097567 -0.017194 -9142.690000 0 0 1
-17.317357 -25.385734 28.013515 41.582248 0.972138 0.831607 0.097901 -0.010407 -366250.000000 0 0 1
-16.412157 -25.061464 27.005635 40.332867 0.991001 0.837168 0.083956 -0.008431 -312517.000000 0 0 1
-16.469157 -23.656344 26.400825 39.087841 0.962636 0.829258 0.088969 -0.005764 -488312.000000 0 0 1
-17.631557 -23.393344 25.678595 38.955238 0.924932 0.851066 0.085607 -0.013080 -373189.000000 0 0 1
-17.540857 -22.279944 24.815245 37.681215 0.903851 0.851896 0.106793 -0.029767 89397.600000 0 0 1
-17.860557 -20.882444 25.446085 37.451024 0.863239 0.823784 0.091903 -0.022664 -126226.000000 0 0 1
-17.439657 -19.864244 24.553065 36.077456 0.850302 0.822262 0.102094 -0.029595 -93495.600000 0 0 1
-17.924057 -18.593644 24.935785 35.899704 0.803732 0.802938 0.095191 -0.018981 -211851.000000 0 0 1
-17.442557 -17.438244 24.097755 34.482415 0.785275 0.797019 0.088417 -0.034794 -220035.000000 0 0 1
-16.058457 -17.242744 24.304025 33.850729 0.820946 0.769906 0.085710 -0.033601 -357539.000000 0 0 1
-15.645357 -16.326144 23.310975 32.476480 0.806688 0.770187 0.088374 -0.028926 -321814.000000 0 0 1
-14.194557 -15.887044 23.536655 31.746775 0.841602 0.735661 0.089024 -0.034088 -581686.000000 0 0 1
-13.258957 -16.899844 23.214355 31.627693 0.905541 0.746621 0.082325 -0.029525 731620.000000 0 0 1
-11.892357 -16.454044 23.261675 30.875058 0.944957 0.717559 0.085691 -0.028266 405323.000000 0 0 1
-11.358457 -15.702744 21.987825 29.309643 0.944576 0.722446 0.095704 -0.030625 -335796.000000 0 0 1
-11.011557 -16.596144 20.930725 28.892588 0.984989 0.760586 0.122285 -0.030640 630278.000000 0 0 1
-9.828157 -17.362244 21.228425 29.132219 1.055703 0.754386 0.113156 -0.029452 11013.400000 0 0 1
-9.582957 -18.519344 20.186125 29.022040 1.093281 0.801619 0.110889 -0.028300 42147.300000 0 0 1
-9.339557 -18.093744 18.881525 27.769099 1.094292 0.823106 0.110390 -0.031001 -151360.000000 0 0 1
-8.930157 -19.151944 18.047725 27.789657 1.134487 0.863948 0.109026 -0.033635 234971.000000 0 0 1
-8.818157 -18.788244 16.563125 26.553627 1.131973 0.897251 0.096853 -0.035391 -357189.000000 0 0 1
-7.806757 -17.863144 16.409825 25.481753 1.158779 0.871103 0.111770 -0.036779 -800387.000000 0 0 1
-7.353057 -17.590744 15.106925 24.325314 1.174864 0.900731 0.128189 -0.041416 30.635300 0 1 0
-6.109757 -16.706944 14.988325 23.261578 1.220202 0.870639 0.099401 -0.037130 -3636.920000 0 1 0
-6.395157 -15.496944 15.655125 22.937660 1.179414 0.819608 0.104176 -0.042377 -902475.000000 0 1 0
-5.256157 -14.732144 15.811725 22.241266 1.228093 0.779993 0.071497 -0.018246 -899883.000000 0 1 0
-5.303957 -13.715944 16.944725 22.436193 1.201808 0.714775 0.040543 -0.001264 -321181.000000 0 1 0
-5.371157 -14.301144 18.247225 23.797757 1.211521 0.697014 0.067927 0.002393 279651.000000 0 1 0
-6.608157 -14.921044 18.592925 24.738677 1.153883 0.720353 0.115903 -0.029188 919671.000000 0 1 0
-7.819857 -14.007444 18.945225 24.824991 1.061630 0.702621 0.125049 -0.040910 408714.000000 0 1 0
-7.473557 -13.265244 20.105125 25.219770 1.057728 0.648158 0.117109 -0.036451 300360.000000 0 0 1
-8.649557 -12.618044 20.552425 25.620930 0.969874 0.639870 0.121194 -0.025218 470754.000000 0 0 1
-8.342357 -11.763144 21.801425 26.139407 0.953926 0.584398 0.122108 -0.014071 -21931.000000 0 0 1
-7.575357 -10.620644 21.453125 25.108179 0.951222 0.546348 0.089292 -0.008678 115436.000000 0 0 1
-7.290357 -9.818744 22.588505 25.686525 0.932116 0.496214 0.085590 -0.011098 1035400.000000 0 0 1
-5.877557 -10.131344 23.247505 26.031448 1.045111 0.466707 0.091377 -0.007599 951094.000000 0 0 1
-5.827657 -11.290944 24.089395 27.235013 1.094324 0.485373 0.109494 -0.001066 179393.000000 0 0 1
-4.509957 -11.479444 24.576295 27.497484 1.196449 0.465126 0.101461 -0.002754 181794.000000 0 0 1
-4.439757 -12.725244 25.491595 28.835129 1.235107 0.486346 0.115361 -0.008211 -665676.000000 0 0 1
-3.098257 -12.956644 25.798845 29.035396 1.336079 0.476663 0.101435 -0.013747 -204890.000000 0 0 1
-3.026357 -14.073544 26.734765 30.363977 1.358983 0.493930 0.118248 -0.019982 -71172.300000 0 0 1
-2.941057 -15.473044 26.074075 30.461817 1.382961 0.543393 0.123905 -0.035166 -575019.000000 0 0 1
-1.787157 -15.792944 25.353475 29.923397 1.458114 0.559954 0.122306 -0.044231 -388780.000000 0 0 1
-1.802857 -17.062744 24.723735 30.094029 1.465526 0.606673 0.121401 -0.043828 -515296.000000 0 0 1
-0.404457 -17.681244 24.384425 30.122917 1.547925 0.627501 0.111099 -0.044645 923431.000000 0 0 1
0.348643 -18.161144 25.516885 31.321879 -1.551602 0.618642 0.109284 -0.049348 246077.000000 0 0 1
0.911643 -17.108544 26.233285 31.332389 -1.517561 0.578548 0.123290 -0.048815 -923823.000000 0 0 1
1.562743 -17.467844 27.616925 32.714863 -1.481570 0.565780 0.099672 -0.032684 538193.000000 0 0 1
2.620143 -18.460844 27.460255 33.192371 -1.429808 0.596501 0.094429 -0.038764 1000560.000000 0 0 1
3.446443 -18.628644 28.610325 34.314064 -1.387857 0.584880 0.096034 -0.045879 822734.000000 0 0 1
4.555543 -17.569544 28.901335 34.128126 -1.317097 0.560766 0.134073 -0.041729 -189236.000000 0 0 1
3.996743 -16.377844 29.368315 33.863042 -1.331441 0.521109 0.129681 -0.048866 299074.000000 0 0 1
4.999443 -15.442944 29.696435 33.843126 -1.257708 0.500228 0.163016 -0.059954 138933.000000 0 0 1
4.197443 -14.264644 30.329055 33.777954 -1.284618 0.455832 0.144872 -0.051701 618951.000000 0 0 1
3.723443 -14.649144 31.617928 35.045040 -1.321892 0.445934 0.118712 -0.058818 89238.000000 0 0 1
2.910343 -13.581744 32.175283 35.045437 -1.359705 0.407532 0.128141 -0.049027 -50600.500000 0 0 1
1.918743 -14.199344 33.162205 36.125265 -1.436481 0.407844 0.115624 -0.047224 -243184.000000 0 0 1
2.546643 -14.663744 -33.335425 36.507004 -1.398842 2.721679 0.128299 -0.047781 -336603.000000 0 0 1
1.649243 -15.233044 -32.404235 35.844108 -1.462949 2.699907 0.117344 -0.053588 120921.000000 0 0 1
2.261043 -15.430344 -30.994665 34.696932 -1.425300 2.675424 0.123996 -0.040699 59995.100000 0 0 1
1.676343 -16.443144 -30.244705 34.466350 -1.469200 2.641450 0.107392 -0.035120 -210278.000000 0 0 1
2.196443 -16.386144 -28.916885 33.309403 -1.437548 2.622218 0.108299 -0.022879 92926.800000 0 0 1
1.961543 -17.627244 -28.022325 33.163505 -1.459973 2.577314 0.110060 -0.026730 -389610.000000 0 0 1
2.833743 -18.605844 -28.436075 34.100116 -1.419654 2.556932 0.098686 -0.017041 -308464.000000 0 0 1
2.796143 -19.711044 -27.504975 33.953900 -1.429880 2.515065 0.090892 -0.027435 -188401.000000 0 0 1
3.960143 -20.728244 -27.777005 34.884163 -1.382021 2.491891 0.068298 -0.028485 -28313.700000 0 0 1
5.259843 -20.309944 -27.475545 34.569717 -1.317385 2.489452 0.077971 -0.018368 -220857.000000 0 0 1
5.560243 -20.307344 -26.080335 33.518478 -1.303542 2.462413 0.104646 -0.019908 -615664.000000 0 0 1
6.755543 -21.240944 -25.770795 34.072701 -1.262869 2.428508 0.049966 -0.009675 -560205.000000 0 0 1
6.419843 -22.578844 -25.861775 34.926351 -1.293777 2.404560 0.048309 -0.005434 177490.000000 0 0 1
6.598443 -23.151644 -27.160735 36.293851 -1.293148 2.416377 0.044912 -0.008672 -433638.000000 0 0 1
5.950943 -24.531044 -27.359695 37.225512 -1.332806 2.396421 0.045171 -0.000459 15163.700000 0 0 1
6.496043 -25.551354 -26.509915 37.387777 -1.321836 2.358951 0.061957 -0.002393 -52771.000000 0 0 1
5.909743 -26.807434 -26.704255 38.297269 -1.353815 2.342404 0.071809 -0.003181 25651.600000 0 0 1
6.336543 -27.767604 -25.585445 38.285854 -1.346439 2.302683 0.095365 -0.011087 -245775.000000 0 0 1
7.684543 -28.131354 -25.589795 38.797718 -1.304136 2.291042 0.113549 -0.018118 -602685.000000 0 0 1
8.017543 -29.288934 -24.782765 39.195766 -1.303602 2.255291 0.131739 -0.029156 284777.000000 0 0 1
9.568043 -29.388434 -24.807165 39.631085 -1.256047 2.247148 0.166507 -0.038881 272308.000000 0 0 1
10.033743 -29.505174 -26.169045 40.694597 -1.242998 2.269283 0.173967 -0.044327 518881.000000 0 0 1
11.391343 -29.974104 -26.225065 41.424191 -1.207615 2.256329 0.165241 -0.032463 854250.000000 0 0 1
11.929843 -29.897364 -27.652795 42.436430 -1.191129 2.280526 0.164735 -0.043895 143812.000000 0 0 1
11.319243 -30.875794 -28.541345 43.543637 -1.219405 2.285595 0.179433 -0.057529 230627.000000 0 0 1
11.271443 -30.353554 -29.838915 44.031177 -1.215240 2.315395 0.151136 -0.035299 131975.000000 0 0 1
-35.815469 -5.184644 -5.582665 36.616861 0.143761 1.723855 0.238143 -0.047403 239612.000000 0 0 1
-35.305202 -4.613044 -4.378165 35.873469 0.129926 1.693146 0.225262 -0.059113 198614.000000 0 0 1
-34.762533 -3.271544 -4.446265 35.198096 0.093835 1.697456 0.231012 -0.063379 33008.100000 0 0 1
-35.621493 -2.070444 -4.935765 36.021373 0.058058 1.708252 0.207512 -0.041866 -205999.000000 0 0 1
-36.611987 -1.640544 -4.027365 36.869346 0.044779 1.680248 0.156361 -0.040427 821366.000000 0 0 1
-37.424917 -0.576344 -4.625065 37.714027 0.015399 1.693741 0.161242 -0.038643 484101.000000 0 0 1
37.052848 0.154456 -3.576165 37.225346 0.004169 1.667013 0.140852 -0.031793 -287107.000000 0 0 1
-37.666007 1.111856 -2.785865 37.785253 -0.029510 1.644592 0.135493 -0.021139 195563.000000 0 0 1
36.809028 1.864756 -1.957765 36.908193 0.050617 1.623865 0.132740 -0.029402 -246444.000000 0 0 1
37.659958 2.882156 -1.140265 37.787293 0.076382 1.600977 0.138342 -0.028934 336896.000000 0 0 1
-37.184487 4.024256 -1.853265 37.447501 -0.107804 1.620306 0.158908 -0.038974 27481.700000 0 0 1
-36.186317 3.718056 -2.787865 36.483499 -0.102388 1.647285 0.132698 -0.012523 -1458170.000000 0 0 1
-35.351345 4.941356 -3.065165 35.826385 -0.138879 1.656457 0.131513 -0.017064 -345009.000000 0 0 1
-34.548955 5.284156 -1.928965 35.003907 -0.151771 1.625931 0.134326 -0.025446 338059.000000 0 0 1
-34.206962 6.642456 -2.048565 34.906090 -0.191797 1.629518 0.162921 -0.036427 46620.700000 0 0 1
-33.489417 7.200256 -0.756865 34.263065 -0.211777 1.592888 0.183043 -0.037852 -362000.000000 0 0 1
-32.110967 7.002856 -0.632265 32.871781 -0.214721 1.590032 0.211317 -0.029797 -139663.000000 0 0 1
-31.510657 7.519256 0.554635 32.400129 -0.234245 1.553677 0.221023 -0.045118 94282.900000 0 0 1
-31.604977 9.005756 1.018435 32.878799 -0.277591 1.539816 0.239271 -0.050626 -950372.000000 0 0 1
-32.911287 9.392056 1.291435 34.249545 -0.277986 1.533081 0.216548 -0.048327 -594946.000000 0 0 1
-33.079777 10.802456 1.620935 34.836650 -0.315640 1.524250 0.227252 -0.039061 -129923.000000 0 0 1
-34.520389 11.349756 1.532335 36.370624 -0.317651 1.528653 0.214630 -0.044104 -374625.000000 0 0 1
-35.079981 11.289556 0.263635 36.852797 -0.311356 1.563643 0.172599 -0.031485 381330.000000 0 0 1
-36.418897 11.749056 0.158635 38.267500 -0.312068 1.566651 0.158184 -0.017628 1354600.000000 0 0 1
-37.592627 10.699356 0.411035 39.087732 -0.277281 1.560280 0.172282 -0.046629 538032.000000 0 0 1
37.247468 10.100356 -0.747265 38.599864 0.264801 1.590157 0.176457 -0.039834 52950.900000 0 0 1
36.079378 9.344656 -0.500465 37.273242 0.253434 1.584224 0.185359 -0.045053 226450.000000 0 0 1
35.527018 8.571256 -1.723465 36.586962 0.236736 1.617920 0.153868 -0.056158 107201.000000 0 0 1
35.050548 9.476556 -2.733065 36.411752 0.264055 1.645927 0.151278 -0.048789 201883.000000 0 0 1
34.993868 8.830056 -4.032665 36.315329 0.247172 1.682072 0.129514 -0.058011 -87212.000000 0 0 1
34.050058 9.403756 -5.099365 35.690904 0.269458 1.714163 0.124589 -0.051041 -347928.000000 0 0 1
32.672338 9.283256 -4.916065 34.319502 0.276836 1.714535 0.147830 -0.041272 -29234.500000 0 0 1
31.902118 10.082556 -5.817765 33.959527 0.306113 1.742960 0.137504 -0.021226 220925.000000 0 0 1
30.385158 10.043356 -5.561965 32.481722 0.319230 1.742878 0.167873 -0.024713 243439.000000 0 0 1
29.612358 8.854756 -5.853865 31.457371 0.290560 1.757976 0.190683 -0.023886 992167.000000 0 0 1
28.226358 9.127856 -5.645065 30.197878 0.312766 1.758838 0.172938 -0.011310 309094.000000 0 0 1
27.467158 7.818556 -6.008865 29.183575 0.277316 1.778178 0.192553 -0.008903 -521330.000000 0 0 1
27.564558 7.487056 -7.356165 29.495322 0.265220 1.822858 0.210055 -0.009234 -94972.100000 0 0 1
26.714258 6.451856 -7.702565 28.541331 0.236976 1.844059 0.221585 -0.008791 -444251.000000 0 0 1
27.145958 5.654056 -8.947265 29.136317 0.205348 1.882923 0.239024 -0.031388 267917.000000 0 0 1
28.375158 4.974556 -8.696765 30.092018 0.173550 1.863984 0.226840 -0.031082 762027.000000 0 0 1
28.559058 3.914256 -9.649865 30.398373 0.136210 1.893832 0.211856 -0.032504 -663117.000000 0 0 1
29.516058 2.822456 -9.201665 31.045686 0.095335 1.871708 0.186547 -0.030829 -1041300.000000 0 0 1
30.857508 3.153756 -9.432065 32.420608 0.101850 1.865993 0.166111 -0.017801 756874.000000 0 0 1
31.830208 2.896256 -8.386165 33.043581 0.090741 1.827394 0.133415 -0.023340 454543.000000 0 0 1
32.131898 1.416856 -8.135265 33.176029 0.044066 1.818538 0.118208 -0.022097 -963779.000000 0 0 1
31.104188 0.864056 -7.344165 31.971141 0.027772 1.802578 0.142761 -0.031710 283009.000000 0 0 1
31.326668 -0.446244 -6.947165 32.090846 -0.014244 1.789008 0.134900 -0.030091 -321398.000000 0 0 1
30.904848 -1.552844 -7.918465 31.940931 -0.050204 1.821318 0.122738 -0.027458 -346451.000000 0 0 1
31.694228 -1.776244 -9.060665 33.011737 -0.055985 1.848833 0.126626 -0.025486 103768.000000 0 0 1
31.397528 -2.980644 -9.713065 33.000495 -0.094649 1.869552 0.102061 -0.031444 -440668.000000 0 0 1
32.342618 -3.173444 -10.913865 34.281601 -0.097807 1.894795 0.115538 -0.034750 -35118.400000 0 0 1
33.681758 -3.288244 -10.446865 35.417656 -0.097318 1.870212 0.152828 -0.034692 317612.000000 0 0 1
34.514168 -3.753844 -11.511965 36.576557 -0.108337 1.890975 0.154415 -0.044641 336769.000000 0 0 1
35.956628 -4.105844 -11.056365 37.841515 -0.113696 1.867297 0.197324 -0.044517 53754.000000 0 0 1
35.998108 -5.185244 -10.151865 37.759911 -0.143058 1.842998 0.188186 -0.046271 575315.000000 0 0 1
37.330708 -5.575644 -9.839365 39.006188 -0.148262 1.825803 0.220544 -0.045538 336232.000000 0 0 1
37.368088 -6.785944 -8.921265 39.012973 -0.179640 1.801512 0.219848 -0.052795 -294044.000000 0 0 1
36.869208 -6.530344 -7.642265 38.215025 -0.175304 1.772134 0.210772 -0.047411 372999.000000 0 0 1
36.435408 -7.713444 -7.006265 37.896226 -0.208622 1.756746 0.214178 -0.046939 -439831.000000 0 0 1
35.951988 -7.540944 -5.588865 37.157055 -0.206753 1.721781 0.207492 -0.047275 -664932.000000 0 0 1
36.948138 -7.337844 -4.604165 37.950062 -0.196048 1.692418 0.235735 -0.045076 180117.000000 0 0 1
37.161058 -8.466544 -3.830665 38.305360 -0.224010 1.670967 0.250360 -0.045244 -15290.400000 0 0 1
-37.168227 -9.501144 -4.332765 38.607275 0.250266 1.683260 0.244175 -0.047493 -278609.000000 0 0 1
37.593788 -10.170944 -5.437365 39.323097 -0.264223 1.709515 0.209420 -0.040550 170700.000000 0 0 1
-36.899727 -11.053244 -6.075565 38.995853 0.291042 1.727234 0.178248 -0.036654 -430474.000000 0 0 1
-37.454947 -11.722244 -7.337565 39.926482 0.303312 1.755624 0.170618 -0.034432 -112031.000000 0 0 1
-37.606737 -10.754644 -8.370165 39.999859 0.278542 1.781609 0.169794 -0.042366 211243.000000 0 0 1
37.254638 -11.346044 -9.540765 40.095723 -0.295629 1.811051 0.164394 -0.030283 -170718.000000 0 0 1
37.344168 -10.364044 -10.762565 40.222296 -0.270715 1.841674 0.144952 -0.036124 -415600.000000 0 0 1
36.365378 -9.376144 -10.923665 39.111114 -0.252336 1.853860 0.148241 -0.044275 204286.000000 0 0 1
36.634908 -8.659944 -12.085665 39.537001 -0.232124 1.881449 0.151650 -0.046473 1187530.000000 0 0 1
35.254218 -7.942844 -12.425965 38.214569 -0.221602 1.901980 0.147566 -0.046902 1147430.000000 0 0 1
35.311628 -7.576144 -13.755765 38.646217 -0.211347 1.934717 0.154669 -0.041004 76934.400000 0 0 1
34.178278 -6.832144 -14.051465 37.580268 -0.197297 1.954013 0.127631 -0.044903 -442060.000000 0 0 1
34.532908 -5.819344 -15.169265 38.164029 -0.166947 1.979560 0.130728 -0.046853 294837.000000 0 0 1
35.410058 -4.773744 -14.753765 38.656622 -0.134005 1.962390 0.149078 -0.035650 446661.000000 0 0 1
36.055268 -4.147144 -15.838965 39.598661 -0.114519 1.982299 0.164747 -0.038651 -510512.000000 0 0 1
37.192188 -3.215744 -15.473865 40.410894 -0.086248 1.963744 0.179356 -0.040320 -735845.000000 0 0 1
-37.470077 -2.902944 -16.634965 41.099341 0.077319 1.987502 0.187036 -0.038151 -1019130.000000 0 0 1
-36.224037 -2.347444 -16.500865 39.874427 0.064713 1.997443 0.210316 -0.034973 -919198.000000 0 0 1
-36.251777 -0.780744 -16.173365 39.703635 0.021533 1.990349 0.199438 -0.033129 -437810.000000 0 0 1
-36.272397 0.103356 -17.260565 40.169946 -0.002849 2.014944 0.166458 -0.030255 288200.000000 0 0 1
-35.964627 1.429856 -16.785365 39.714574 -0.039736 2.007164 0.166029 -0.043961 24347.600000 0 0 1
-36.109427 2.566856 -17.785565 40.333681 -0.070966 2.027465 0.148601 -0.036240 264289.000000 0 0 1
-35.078435 2.598356 -18.770565 39.869565 -0.073938 2.060993 0.138515 -0.022870 457135.000000 0 0 1
-35.018660 3.835656 -19.467865 40.249429 -0.109097 2.075651 0.121858 -0.023884 42778.400000 0 0 1
-34.006848 3.843356 -20.671865 39.982035 -0.112540 2.114173 0.115133 -0.017679 -115879.000000 0 0 1
-32.673007 3.995956 -20.262265 38.652975 -0.121697 2.122583 0.121897 -0.021813 -416524.000000 0 0 1
-31.917337 4.284956 -21.386965 38.658499 -0.133454 2.157031 0.112497 -0.019457 669061.000000 0 0 1
-30.359467 4.487656 -21.358065 37.389882 -0.146755 2.178795 0.108292 -0.022928 1243750.000000 0 0 1
-29.599097 3.386656 -20.853465 36.365409 -0.113922 2.181498 0.125451 -0.014840 171722.000000 0 0 1
-28.222947 3.462656 -21.149865 35.437854 -0.122079 2.210323 0.099118 -0.016736 67946.800000 0 0 1
-27.444447 2.481656 -20.210565 34.173429 -0.090179 2.203605 0.108817 -0.019707 -258662.000000 0 0 1
-27.308877 3.089656 -18.916165 33.363784 -0.112658 2.173616 0.099598 -0.010889 357268.000000 0 0 1
-26.774867 2.045756 -18.021465 32.339633 -0.076258 2.161874 0.104749 -0.008947 346099.000000 0 0 1
-25.979767 2.663756 -16.813365 31.060154 -0.102175 2.142798 0.104250 -0.015498 606758.000000 0 0 1
-24.842657 3.450756 -17.209065 30.417384 -0.138021 2.172156 0.099518 -0.019666 755285.000000 0 0 1
-24.098057 3.895256 -16.080165 29.231166 -0.160256 2.153284 0.113245 -0.027007 720825.000000 0 0 1
-22.856357 4.830556 -16.335465 28.506048 -0.208279 2.181022 0.122132 -0.041033 935449.000000 0 0 1
-21.781357 4.160356 -16.984265 27.932085 -0.188732 2.224406 0.141619 -0.043872 1356000.000000 0 0 1
-20.611757 4.989556 -17.206765 27.309577 -0.237504 2.252431 0.127971 -0.044025 697219.000000 0 0 1
-19.338557 4.300356 -17.698165 26.564975 -0.218812 2.299927 0.156070 -0.047536 -215937.000000 0 0 1
-18.889257 3.306656 -16.787165 25.486210 -0.173299 2.289855 0.176808 -0.039586 -298073.000000 0 0 1
-17.778657 2.595556 -17.220565 24.887053 -0.144969 2.334981 0.136227 -0.038711 -985563.000000 0 1 0
-17.802757 1.135256 -16.727265 24.454619 -0.063682 2.324045 0.146927 -0.027213 3513.800000 0 1 0
-18.649757 0.124056 -17.242765 25.399641 -0.006652 2.317003 0.105073 -0.023196 1199750.000000 0 0 1
-20.052257 0.377656 -17.010065 26.297870 -0.018831 2.274207 0.119034 -0.030588 57543.300000 0 0 1
-21.068657 -0.574144 -17.520265 27.407620 0.027244 2.264316 0.099629 -0.027217 -902451.000000 0 0 1
-20.991557 -1.783744 -16.753965 26.916957 0.084771 2.242642 0.089748 -0.023808 380004.000000 0 0 1
-21.847157 -2.783344 -17.251265 27.975908 0.126718 2.235273 0.083349 -0.013333 -233234.000000 0 0 1
-21.873457 -3.993744 -16.321265 27.582274 0.180595 2.204000 0.096372 -0.021133 -332159.000000 0 0 1
-22.270157 -3.601944 -15.055765 27.122131 0.160350 2.159291 0.087259 -0.021514 283330.000000 0 0 1
-22.729857 -4.726844 -14.333465 27.284385 0.205035 2.123906 0.084108 -0.032558 -164258.000000 0 0 1
-23.058957 -4.481244 -12.875865 26.787776 0.191946 2.072206 0.092035 -0.037044 -254509.000000 0 0 1
-24.031157 -3.466044 -12.763865 27.430389 0.143243 2.054791 0.073662 -0.032486 363093.000000 0 0 1
-24.241757 -3.114144 -11.407065 26.971871 0.127762 2.007467 0.095509 -0.044591 -436813.000000 0 0 1
-25.057997 -1.827244 -11.265165 27.534451 0.072792 1.992297 0.145111 -0.046502 -289407.000000 0 0 1
-25.312787 -1.554144 -9.871765 27.214046 0.061321 1.942008 0.156007 -0.055367 838172.000000 0 0 1
-26.125597 -0.384644 -9.720265 27.877918 0.014722 1.926951 0.180583 -0.062336 -134762.000000 0 0 1
-26.552777 -0.043144 -8.292165 27.817474 0.001625 1.873489 0.210942 -0.057999 -308797.000000 0 0 1
-25.507057 0.329856 -7.417065 26.565610 -0.012931 1.853755 0.189021 -0.054217 448620.000000 0 0 1
-25.928457 0.459256 -6.066665 26.632691 -0.017711 1.800604 0.191849 -0.058456 495204.000000 0 0 1
-24.740457 1.013856 -5.190065 25.299306 -0.040957 1.777410 0.161100 -0.047551 541724.000000 0 0 1
-24.368757 2.391756 -5.387765 25.071594 -0.097835 1.787381 0.195375 -0.047772 413884.000000 0 0 1
-22.977057 2.530856 -5.550365 23.773030 -0.109705 1.806444 0.185960 -0.030236 -153687.000000 0 1 0
-22.530957 4.018856 -5.599865 23.561700 -0.176514 1.810761 0.179608 -0.032829 -250829.000000 0 1 0
-22.852857 4.852356 -4.480965 23.788180 -0.209223 1.760298 0.178203 -0.030531 546619.000000 0 1 0
-22.475157 6.209856 -4.667765 23.779887 -0.269573 1.768370 0.171579 -0.034132 -599326.000000 0 1 0
-22.964057 7.324356 -3.717265 24.388772 -0.308749 1.723810 0.183847 -0.028341 -595124.000000 0 1 0
-22.470257 7.384256 -2.410765 23.775018 -0.317506 1.672370 0.165123 -0.028429 323050.000000 0 1 0
-21.170357 7.922256 -2.277365 22.718551 -0.358082 1.671208 0.179616 -0.029270 -227384.000000 0 1 0
-20.767257 9.447956 -2.518165 22.953954 -0.426958 1.680723 0.162933 -0.028275 -388135.000000 0 1 0
-20.418257 9.674556 -3.850765 22.920093 -0.442484 1.739605 0.127593 -0.026522 496673.000000 0 1 0
-20.099557 11.039056 -4.017365 23.280726 -0.502243 1.744226 0.137636 -0.023864 -146408.000000 0 1 0
-19.957957 11.436456 -5.471665 23.644274 -0.520351 1.804329 0.132761 -0.027348 190097.000000 0 1 0
-18.729157 11.016156 -6.053065 22.556077 -0.531685 1.842483 0.089605 -0.020837 448641.000000 0 1 0
-18.682357 11.346856 -7.409865 23.080028 -0.545811 1.897635 0.101460 -0.024167 1264730.000000 0 1 0
-17.214057 11.044256 -7.952765 21.944153 -0.570436 1.941648 0.069649 -0.017311 988357.000000 0 1 0
-16.855157 9.750956 -8.370365 21.195294 -0.524472 1.976773 0.051444 -0.013601 239741.000000 0 1 0
-17.728357 9.039356 -9.221165 21.932499 -0.471521 2.004720 0.072471 -0.016558 -731222.000000 0 1 0
-17.917957 9.522156 -10.716165 22.946914 -0.488475 2.056689 0.087642 -0.020551 -301525.000000 0 1 0
-16.842857 9.385556 -11.589265 22.496257 -0.508387 2.111995 0.087858 -0.017642 -316349.000000 0 1 0
-17.167357 10.037556 -12.815865 23.658341 -0.529085 2.143262 0.114096 -0.025528 19300.600000 0 1 0
-16.176357 9.784956 -13.967665 23.505650 -0.544009 2.207099 0.088035 -0.011626 -261882.000000 0 1 0
-16.054557 8.468456 -14.563565 23.271463 -0.485389 2.246969 0.098300 -0.032786 220798.000000 0 1 0
-15.567557 7.395256 -13.742365 22.042941 -0.443483 2.243926 0.079413 -0.022447 -296817.000000 0 1 0
-15.453657 6.103256 -14.588565 22.110891 -0.376136 2.291337 0.081011 -0.025349 -853298.000000 0 1 0
-14.483657 6.097556 -15.565165 22.118564 -0.398474 2.351409 0.076978 -0.029054 -58457.700000 0 1 0
-14.549257 4.911556 -16.360665 22.438263 -0.325569 2.387863 0.080077 -0.025885 -98860.700000 0 1 0
33.096128 -15.852144 27.432715 45.817006 -0.446685 0.928863 0.057381 -0.006688 -95465.100000 0 0 1
32.838298 -14.529544 27.930765 45.492737 -0.416564 0.909727 0.061660 -0.009550 233363.000000 0 0 1
31.736038 -14.380144 28.827455 45.221530 -0.425443 0.879584 0.064339 -0.019018 24383.600000 0 0 1
32.040808 -14.541644 30.324565 46.450533 -0.426049 0.859474 0.055976 -0.020322 146953.000000 0 0 1
32.865948 -13.527944 30.870235 47.075973 -0.390475 0.855616 0.042718 -0.016915 70394.900000 0 0 1
32.951288 -13.516644 32.288592 48.073280 -0.389269 0.834358 0.040654 -0.020760 -57858.000000 0 0 1
33.622168 -12.211444 32.858368 48.572028 -0.348382 0.827814 0.031997 -0.016932 23682.500000 0 0 1
33.459038 -11.950244 -33.418395 48.776067 -0.343040 2.325591 0.037294 -0.034130 -173266.000000 0 0 1
33.680118 -10.592444 -33.180585 48.451021 -0.304707 2.325163 0.062688 -0.030308 -411385.000000 0 0 1
33.352178 -10.105044 -31.794975 47.174147 -0.294189 2.310395 0.076280 -0.025504 1148540.000000 0 0 1
31.942308 -10.125044 -31.465665 45.966462 -0.306960 2.324762 0.121273 -0.028987 1145200.000000 0 0 1
31.527908 -9.625744 -30.218315 44.719241 -0.296320 2.312756 0.113049 -0.026065 -771476.000000 0 0 1
30.263058 -10.353144 -29.830695 43.736834 -0.329624 2.321358 0.134237 -0.017983 -798055.000000 0 0 1
29.827158 -10.004544 -28.540935 42.477467 -0.323625 2.307578 0.118834 -0.015605 164437.000000 0 0 1
28.733058 -10.834844 -28.172985 41.673728 -0.360599 2.313168 0.145951 -0.020768 -348146.000000 0 0 1
28.182358 -10.538944 -26.790745 40.287202 -0.357855 2.298282 0.127380 -0.018047 -289137.000000 0 0 1
27.364558 -9.344844 -26.663685 39.333157 -0.329077 2.315690 0.103390 -0.019452 1123490.000000 0 0 1
26.091358 -9.217444 -27.302625 38.873559 -0.339590 2.349482 0.095105 -0.019651 106244.000000 0 0 1
25.028158 -10.192244 -26.879065 38.115281 -0.386724 2.353508 0.101086 -0.005052 -1356180.000000 0 0 1
25.163158 -11.365544 -27.604315 39.043032 -0.424245 2.356076 0.107661 -0.016980 -153418.000000 0 0 1
24.113458 -12.287044 -27.500435 38.583730 -0.471259 2.364203 0.109018 -0.028658 -149787.000000 0 0 1
24.515858 -13.621644 -28.152485 39.738381 -0.507152 2.358090 0.124794 -0.025228 120525.000000 0 0 1
24.806158 -13.553544 -29.527115 40.876577 -0.500058 2.377988 0.114228 -0.027535 364743.000000 0 0 1
25.879558 -14.430844 -29.881295 42.081975 -0.508671 2.360399 0.112487 -0.023214 246259.000000 0 0 1
26.180858 -14.578944 -31.419175 43.418285 -0.508091 2.379857 0.119133 -0.031774 -339348.000000 0 0 1
25.344358 -15.442044 -32.149255 43.753489 -0.547222 2.396141 0.125973 -0.028695 -141269.000000 0 0 1
25.598858 -15.587244 -33.588285 45.015960 -0.546941 2.413044 0.125285 -0.025751 -65408.900000 0 0 1
25.544558 -14.335144 33.135707 44.226642 -0.511388 0.723905 0.092479 -0.033692 1568000.000000 0 0 1
24.209558 -13.763844 32.973829 43.160393 -0.516958 0.701332 0.097415 -0.025527 1267890.000000 0 0 1
24.205658 -12.824444 31.898724 42.046508 -0.487212 0.709553 0.078535 -0.027129 -858293.000000 0 0 1
23.244458 -11.613144 31.876323 41.125052 -0.463335 0.683912 0.077884 -0.028539 738832.000000 0 0 1
21.862358 -11.973144 32.017970 40.576708 -0.501045 0.661498 0.071329 -0.016959 595582.000000 0 0 1
21.292358 -12.388844 30.806405 39.444677 -0.526963 0.674526 0.057684 -0.022580 -488837.000000 0 0 1
19.743158 -12.494144 30.951915 38.780368 -0.564213 0.646605 0.065245 -0.021731 479040.000000 0 0 1
19.176958 -11.189744 31.101135 38.213174 -0.528198 0.619988 0.074043 -0.018217 720898.000000 0 0 1
17.919658 -11.219644 31.816716 38.200759 -0.559396 0.586502 0.067643 -0.008954 622249.000000 0 0 1
17.338458 -9.867944 32.076134 37.774023 -0.517416 0.556406 0.065516 -0.002211 -771152.000000 0 0 1
16.511258 -9.486344 30.942345 36.332369 -0.521487 0.551677 0.093119 -0.009446 192098.000000 0 0 1
15.665158 -8.405444 31.218995 35.925956 -0.492473 0.517656 0.096529 -0.000708 53766.800000 0 0 1
14.474958 -8.639044 32.153183 36.304058 -0.538083 0.482875 0.111927 -0.004885 -1528350.000000 0 0 1
13.486958 -9.470844 31.660843 35.693191 -0.612216 0.479929 0.114373 -0.016370 -263004.000000 0 0 1
12.339158 -9.690644 32.439696 36.034667 -0.665748 0.450486 0.116954 -0.015371 -99790.900000 0 0 1
11.168458 -8.739044 32.305229 35.280776 -0.663964 0.413647 0.136094 -0.021723 -708174.000000 0 0 1
11.490058 -7.447944 32.864358 35.602799 -0.575114 0.394774 0.139489 -0.021205 250641.000000 0 0 1
10.646758 -6.503844 32.244230 34.573744 -0.548378 0.369185 0.156290 -0.023562 86811.700000 0 0 1
11.188858 -5.044144 32.315470 34.567666 -0.423534 0.362969 0.145392 -0.022148 80149.100000 0 0 1
11.121858 -4.510544 33.591365 35.671004 -0.385287 0.343150 0.141746 -0.034778 190451.000000 0 0 1
11.648458 -3.193744 33.627415 35.730793 -0.267601 0.344831 0.101212 -0.025459 -286446.000000 0 0 1
11.269358 -2.302244 -32.855965 34.811107 -0.201519 2.804849 0.095880 -0.033600 847064.000000 0 0 1
9.858058 -1.986344 -32.773675 34.281783 -0.198832 2.843875 0.101338 -0.021691 1084860.000000 0 0 1
9.621558 -1.148444 -31.680125 33.128894 -0.118799 2.844763 0.113617 -0.025454 -1138640.000000 0 0 1
8.181058 -0.933544 -31.314535 32.379026 -0.113619 2.884464 0.127078 -0.029211 -1227620.000000 0 0 1
7.592958 -0.133244 -32.307175 33.187714 -0.017547 2.910724 0.118369 -0.030531 -811848.000000 0 0 1
6.215658 -0.101444 -32.026165 32.623917 -0.016319 2.949870 0.131678 -0.031817 -433947.000000 0 0 1
5.459558 0.773656 -33.020055 33.477296 0.140769 2.976127 0.139144 -0.030190 -101105.000000 0 0 1
5.865658 2.136956 -32.830445 33.418717 0.349372 2.953683 0.117645 -0.023738 68146.000000 0 0 1
5.427158 2.949256 33.736445 34.297228 0.497782 0.181083 0.132543 -0.022444 37049.100000 0 0 1
5.790858 4.460756 33.776785 34.558697 0.656373 0.213127 0.111968 -0.025698 317097.000000 0 0 1
5.304958 5.260356 32.677877 33.521002 0.781177 0.224759 0.125690 -0.032051 -320471.000000 0 0 1
6.130858 6.338356 32.560113 33.733116 0.802037 0.264486 0.115451 -0.035265 -563364.000000 0 0 1
5.679058 7.401156 31.561415 32.911270 0.916302 0.287397 0.125937 -0.039724 -38685.500000 0 0 1
4.554158 8.150256 32.032311 33.365191 1.061241 0.283609 0.142868 -0.038184 372875.000000 0 0 1
4.274658 9.386056 31.322285 32.976602 1.143439 0.318093 0.157769 -0.047713 8511.560000 0 0 1
3.799958 9.240356 29.859665 31.486877 1.180642 0.322894 0.151464 -0.046122 -545823.000000 0 0 1
2.478458 8.822456 29.704735 31.086166 1.296929 0.299239 0.139394 -0.036119 -608557.000000 0 0 1
2.115858 8.739356 28.324135 29.717163 1.333260 0.307399 0.106356 -0.019910 -870504.000000 0 0 1
0.731658 8.244956 28.039505 29.235739 1.482288 0.287050 0.111033 -0.020614 236617.000000 0 0 1
-0.388442 9.050956 28.531345 29.935068 -1.527905 0.307452 0.114449 -0.024634 1043020.000000 0 0 1
-1.535342 8.891156 27.716015 29.147683 -1.399801 0.314723 0.111983 -0.016434 325660.000000 0 0 1
-2.904642 8.960656 28.409985 29.930879 -1.257329 0.320156 0.102642 -0.018654 76293.300000 0 0 1
-3.297742 10.327156 28.724525 30.702175 -1.261704 0.360881 0.102584 -0.020827 -298146.000000 0 0 1
-4.563742 10.367956 29.319105 31.431388 -1.156141 0.368699 0.084435 -0.022326 -495782.000000 0 0 1
-4.929242 11.747756 29.913085 32.513072 -1.173517 0.402633 0.069901 -0.025215 -181621.000000 0 0 1
-5.114442 12.758556 28.956235 32.053109 -1.189546 0.443202 0.066212 -0.020455 529126.000000 0 0 1
-6.243242 12.737156 28.069675 31.450276 -1.115052 0.467917 0.068665 -0.026563 342443.000000 0 0 1
-6.554542 14.044756 27.339955 31.427541 -1.134150 0.515723 0.055455 -0.018533 526313.000000 0 0 1
-5.422542 14.447656 26.574505 30.730165 -1.211742 0.526105 0.054577 -0.015039 361872.000000 0 0 1
-5.660642 15.792256 26.166445 31.082488 -1.226619 0.570115 0.043902 -0.011145 448779.000000 0 0 1
-4.457742 16.461356 25.419255 30.610230 -1.306339 0.590941 0.081815 -0.014057 344109.000000 0 0 1
-4.146642 16.045156 24.085925 29.236509 -1.317894 0.602661 0.070532 -0.012516 -128010.000000 0 0 1
-3.161542 16.863156 23.507995 29.103044 -1.385466 0.630470 0.086044 -0.013848 -120998.000000 0 0 1
-2.986642 16.640556 22.001625 27.747065 -1.393207 0.655185 0.084359 -0.017817 -38761.700000 0 0 1
-2.575042 15.272956 21.777325 26.723508 -1.403766 0.618218 0.077825 -0.026110 188566.000000 0 0 1
-2.478842 15.116456 20.327725 25.453257 -1.408260 0.645782 0.076685 -0.029426 -213901.000000 0 0 1
-1.601842 13.944456 19.857225 24.317136 -1.456425 0.615311 0.069611 -0.032975 -362186.000000 0 1 0
-2.048042 12.605356 20.073725 23.791677 -1.409730 0.566604 0.066960 -0.023425 -276698.000000 0 1 0
-1.242942 11.619256 19.483925 22.719492 -1.464229 0.540238 0.060784 -0.026244 -261345.000000 0 1 0
-1.978042 10.228256 19.298325 21.930691 -1.379765 0.495000 0.047606 -0.017550 -214346.000000 0 1 0
-2.240042 9.361056 20.417025 22.572152 -1.335919 0.440537 0.071407 -0.030332 29486.400000 0 1 0
-3.015542 9.916456 21.468325 23.839433 -1.275587 0.449790 0.076725 -0.019724 602509.000000 0 1 0
-4.556942 9.903356 21.168825 23.810949 -1.139541 0.475558 0.063133 -0.013379 651959.000000 0 1 0
-5.239842 8.643156 21.306925 23.582729 -1.025800 0.442937 0.045791 -0.011939 1118390.000000 0 1 0
-6.673942 8.714356 21.214925 23.886283 -0.917224 0.477463 0.048203 -0.013301 1237180.000000 0 1 0
-7.346842 7.308256 21.274425 23.664062 -0.782765 0.453274 0.046303 -0.008305 -18478.200000 0 1 0
-7.296042 6.737356 22.580625 24.667971 -0.745608 0.414340 0.052066 -0.003354 198038.000000 0 1 0
-8.156842 5.610756 22.558125 24.635008 -0.602531 0.413565 0.050498 -0.004858 235239.000000 0 1 0
-8.182442 5.033856 23.953345 25.808037 -0.551523 0.381425 0.059727 -0.006990 302158.000000 0 0 1
-9.033542 5.651556 24.962175 27.141391 -0.559044 0.403458 0.047385 -0.003741 574646.000000 0 0 1
-9.152342 4.881056 26.146765 28.129048 -0.489941 0.377663 0.045460 -0.002303 -262115.000000 0 0 1
-10.031742 5.672656 27.125905 29.472522 -0.514643 0.401746 0.054996 -0.002769 101658.000000 0 0 1
-9.379842 6.825356 27.706635 30.037052 -0.629051 0.396508 0.049389 -0.017872 -426518.000000 0 0 1
-10.186542 7.490856 28.590245 31.261488 -0.634071 0.416398 0.050712 -0.022029 -452224.000000 0 0 1
-9.504342 8.647156 29.381765 32.068581 -0.738209 0.412263 0.069915 -0.016102 946071.000000 0 0 1
-8.388642 8.201456 30.198805 32.397546 -0.774116 0.370539 0.086623 -0.017908 539222.000000 0 0 1
-8.012542 9.173056 31.088675 33.389392 -0.852824 0.373395 0.098028 -0.025334 -478986.000000 0 0 1
-7.095642 8.606956 32.187112 34.065202 -0.881349 0.333606 0.121020 -0.031381 70925.100000 0 0 1
-5.824842 8.304756 31.639302 33.225640 -0.959141 0.310256 0.110081 -0.025859 -318582.000000 0 0 1
-4.997342 7.674456 32.617174 33.878470 -0.993602 0.273727 0.124535 -0.024806 1682420.000000 0 0 1
-3.457642 7.709356 32.191828 33.282176 -1.149191 0.256676 0.098448 -0.022107 1548660.000000 0 0 1
-2.901642 8.999556 32.270697 33.627509 -1.258899 0.285035 0.095379 -0.028669 -590185.000000 0 0 1
-1.515242 8.974956 32.049498 33.316904 -1.403544 0.276711 0.083183 -0.023375 -58291.400000 0 0 1
-1.008842 10.319556 31.517265 33.179044 -1.473346 0.317833 0.090198 -0.023852 -209155.000000 0 0 1
-1.119242 11.401756 32.365193 34.333052 -1.472946 0.340214 0.098608 -0.034941 125548.000000 0 0 1
-1.690942 12.580656 31.758202 34.201105 -1.437189 0.380249 0.091434 -0.036963 -153984.000000 0 0 1
-1.815842 13.745356 32.765227 35.577973 -1.439451 0.400307 0.092342 -0.039848 -875408.000000 0 0 1
-0.587342 14.223656 33.176512 36.101777 -1.529526 0.405332 0.140029 -0.044964 -924576.000000 0 0 1
-0.683242 15.147856 -33.436485 36.714069 -1.525722 2.715837 0.128848 -0.044099 109182.000000 0 0 1
0.659258 15.435456 -32.722025 36.185893 1.528112 2.700477 0.119429 -0.047251 142401.000000 0 0 1
1.551058 16.191356 -33.511965 37.250739 1.475292 2.689723 0.146715 -0.043134 1041170.000000 0 0 1
2.880858 16.315356 -32.966305 36.895358 1.396024 2.675894 0.159462 -0.046318 826850.000000 0 0 1
3.819958 17.181156 -33.797575 38.105909 1.352021 2.661469 0.156892 -0.034584 -122855.000000 0 0 1
3.448858 18.550156 33.737965 38.655571 1.386974 0.509919 0.149449 -0.034435 -241336.000000 0 0 1
4.581258 19.321856 33.467497 38.915233 1.337993 0.535507 0.122627 -0.013217 -140819.000000 0 0 1
4.307458 20.794156 33.550389 39.706167 1.366538 0.564293 0.129164 -0.024339 -183879.000000 0 0 1
4.256358 21.368956 -32.799555 39.377147 1.374185 2.555231 0.155146 -0.048819 103551.000000 0 0 1
3.938858 22.716856 -32.938255 40.205706 1.399114 2.530887 0.140116 -0.037380 54959.900000 0 0 1
3.874858 23.499756 -31.626345 39.591398 1.407377 2.496125 0.159874 -0.036021 99554.200000 0 0 1
3.623558 24.912756 -31.782895 40.545382 1.426359 2.471694 0.164946 -0.044225 303973.000000 0 0 1
3.077458 25.536056 -30.628385 39.995736 1.450860 2.443067 0.164375 -0.050442 38698.100000 0 0 1
2.829658 27.078356 -30.756045 41.075280 1.466675 2.417005 0.160760 -0.053568 618042.000000 0 0 1
3.997458 27.905756 -30.693825 41.675194 1.428516 2.398679 0.161176 -0.052990 962050.000000 0 0 1
3.538658 29.232856 -30.321355 42.266613 1.450332 2.370835 0.149268 -0.049379 153399.000000 0 0 1
4.727358 30.185956 -30.074635 42.872177 1.415450 2.348290 0.179179 -0.066202 263765.000000 0 0 1
5.428758 29.777456 -28.889615 41.842301 1.390466 2.332894 0.165679 -0.073839 387335.000000 0 0 1
6.177158 30.826756 -28.267165 42.278585 1.373033 2.303111 0.189193 -0.086422 -788615.000000 0 0 1
7.148258 30.484756 -27.090075 41.403987 1.340471 2.284035 0.188448 -0.082219 -118152.000000 0 0 1
8.228958 29.776456 -27.666385 41.470254 1.301168 2.301157 0.178772 -0.071707 464305.000000 0 0 1
9.435258 30.556056 -27.833585 42.395815 1.271299 2.286989 0.178977 -0.074590 357569.000000 0 0 1
9.564858 31.860156 -28.641725 43.896520 1.279143 2.281652 0.190221 -0.078029 -1335290.000000 0 0 1
9.082058 33.025056 -27.936815 44.199590 1.302425 2.255006 0.194370 -0.077897 202359.000000 0 0 1
9.132458 -33.459090 -28.673305 45.000788 -1.304343 2.261622 0.180048 -0.069815 -342734.000000 0 0 1
8.040258 -33.374290 -29.740355 45.420014 -1.334389 2.284695 0.154492 -0.054552 -513583.000000 0 0 1
8.193158 33.518656 -30.846135 46.282958 1.331061 2.300258 0.136211 -0.045924 -225476.000000 0 0 1
6.952358 33.015356 -31.324175 46.038603 1.363249 2.319090 0.127917 -0.046149 -11673.000000 0 0 1
6.890858 32.229156 -32.652075 46.393539 1.360160 2.351538 0.143423 -0.062100 -110993.000000 0 0 1
6.920558 33.009956 -33.792795 47.744155 1.364139 2.357160 0.138903 -0.052154 86466.900000 0 0 1
6.909558 32.136156 32.772069 46.416409 1.359012 0.786899 0.124756 -0.045633 -30836.500000 0 0 1
6.439358 32.790856 31.474065 45.905580 1.376887 0.815333 0.113881 -0.046991 246778.000000 0 0 1
7.443558 33.641756 30.914825 46.291475 1.353045 0.839507 0.109005 -0.047156 276895.000000 0 0 1
7.048058 -33.376090 29.774935 45.278971 -1.362683 0.853183 0.083799 -0.051254 -454263.000000 0 0 1
19.086443 -22.143744 28.521275 40.842390 -0.859415 0.797741 0.116284 -0.024300 -592898.000000 0 0 1
18.172843 -21.109144 28.395455 39.776249 -0.860009 0.775773 0.103169 -0.027478 640943.000000 0 0 1
16.788843 -21.347244 28.682885 39.500354 -0.904364 0.758102 0.096698 -0.026993 876140.000000 0 0 1
16.358243 -21.580344 30.147195 40.523533 -0.922185 0.731845 0.074916 -0.026244 -616205.000000 0 0 1
16.903443 -22.719844 30.753855 41.805709 -0.931150 0.744189 0.101993 -0.032075 88655.500000 0 0 1
16.500743 -22.814044 32.107215 42.703962 -0.944622 0.719924 0.101019 -0.028496 -69641.500000 0 0 1
17.111743 -23.963644 32.880313 44.138225 -0.950689 0.730352 0.122717 -0.038482 -116350.000000 0 0 1
16.587343 -25.221204 32.512783 44.365867 -0.989045 0.748320 0.136251 -0.045808 46635.700000 0 0 1
17.192943 -26.221574 33.327453 45.759014 -0.990439 0.754921 0.131880 -0.040744 127040.000000 0 0 1
16.904043 -27.699024 33.031088 46.303729 -1.022855 0.776520 0.130356 -0.039841 154961.000000 0 0 1
17.759643 -28.295154 32.048578 46.293973 -1.010289 0.806147 0.128492 -0.043113 342108.000000 0 0 1
17.416343 -29.666244 31.764164 46.822827 -1.039934 0.825227 0.138044 -0.040677 49152.000000 0 0 1
18.266943 -30.272154 30.641975 46.786912 -1.027863 0.856711 0.155344 -0.043796 -204281.000000 0 0 1
19.501143 -30.811314 30.992565 47.855728 -1.006521 0.866333 0.151702 -0.045490 -376618.000000 0 0 1
20.283043 -31.210314 29.895015 47.740941 -0.994504 0.894136 0.125357 -0.034878 -724473.000000 0 0 1
21.685443 -31.709804 30.229525 48.883476 -0.970977 0.904092 0.104146 -0.035555 -865634.000000 0 0 1
22.557243 -30.667704 30.500285 48.781191 -0.936616 0.895349 0.091250 -0.029001 -37640.600000 0 0 1
23.893243 -31.140404 30.294225 49.581769 -0.916331 0.913479 0.073754 -0.025316 58293.100000 0 0 1
24.884043 -30.001954 30.569155 49.535907 -0.878376 0.905730 0.061645 -0.020690 -262532.000000 0 0 1
26.097743 -30.228104 29.898925 49.887635 -0.858597 0.928138 0.048888 -0.017716 -370382.000000 0 0 1
27.116043 -29.277564 30.103915 49.987010 -0.823709 0.924499 0.039481 -0.013885 294765.000000 0 0 1
28.227543 -29.491194 29.049845 50.104073 -0.807288 0.952325 0.037075 -0.009794 -173810.000000 0 0 1
29.035643 -30.604444 29.252725 51.336366 -0.811697 0.964504 0.040893 -0.013037 452850.000000 0 0 1
30.217143 -30.595354 28.404355 51.535995 -0.791617 0.987048 0.039823 -0.021806 652554.000000 0 0 1
31.319643 -31.488254 28.917095 52.996495 -0.788083 0.993642 0.057553 -0.029953 -394105.000000 0 0 1
30.882243 -32.838184 29.025735 53.614854 -0.816084 0.998725 0.043304 -0.027465 349229.000000 0 0 1
31.927643 -33.659624 29.559855 55.010269 -0.811799 1.003503 0.066505 -0.022990 -307766.000000 0 0 1
31.334743 32.685656 29.893355 54.257081 0.806496 0.987285 0.064256 -0.019632 -94887.500000 0 0 1
30.490343 32.652702 31.074815 54.419703 0.819630 0.963047 0.070589 -0.016230 219065.000000 0 0 1
29.362243 33.448680 31.265605 54.392036 0.850366 0.958413 0.056298 -0.015863 -445888.000000 0 0 1
28.297643 33.350044 30.120005 53.105524 0.867171 0.967727 0.052994 -0.012368 -514162.000000 0 0 1
27.623643 32.082542 30.042465 51.912473 0.859940 0.953646 0.040795 -0.005822 86811.500000 0 0 1
26.214143 32.197978 30.165875 51.321254 0.887484 0.942478 0.053797 -0.007216 333439.000000 0 0 1
25.631743 30.798772 30.280885 50.224322 0.876708 0.923649 0.089757 -0.017106 -205846.000000 0 0 1
25.358543 30.201452 29.048295 48.979453 0.872344 0.935929 0.082972 -0.018933 -67033.100000 0 0 1
24.767443 28.934222 29.317195 48.063638 0.862834 0.914778 0.129620 -0.033893 -399614.000000 0 0 1
24.120743 28.520272 28.037525 46.704592 0.868780 0.926900 0.133631 -0.039611 -494672.000000 0 0 1
23.118643 29.395202 27.587775 46.471872 0.904356 0.935216 0.148771 -0.040516 -118655.000000 0 0 1
22.547443 29.007402 26.329635 45.200290 0.910051 0.948983 0.145876 -0.032269 161428.000000 0 0 1
21.189643 29.629842 25.979545 44.742209 0.949978 0.951270 0.152318 -0.032951 -37600.300000 0 0 1
21.282743 30.960532 25.498655 45.405848 0.968567 0.974512 0.138287 -0.034468 985974.000000 0 0 1
19.971743 31.531712 25.214815 45.043382 1.006189 0.976665 0.128757 -0.032126 948119.000000 0 0 1
19.996543 32.901864 24.441535 45.604638 1.024688 1.005171 0.130935 -0.031647 -279434.000000 0 0 1
20.355543 32.844132 23.083295 45.010261 1.015973 1.032301 0.134317 -0.038409 1459280.000000 0 0 1
21.766543 33.207635 22.976245 45.874145 0.990587 1.046211 0.135626 -0.025150 1325540.000000 0 0 1
22.271743 33.249553 21.543025 45.449590 0.980603 1.076970 0.123695 -0.027760 -261150.000000 0 0 1
21.812443 -33.369204 20.822025 44.976029 -0.991846 1.089467 0.112219 -0.020716 74605.800000 0 0 1
22.497743 -33.232634 19.611125 44.667131 -0.975689 1.116255 0.121004 -0.022489 -169351.000000 0 0 1
22.223343 -31.940284 18.896125 43.256470 -0.962910 1.118714 0.107034 -0.019292 -194945.000000 0 0 1
22.686543 -30.707004 19.389125 42.819826 -0.934497 1.100885 0.102837 -0.009523 -205456.000000 0 0 1
22.143943 -29.598174 18.747225 41.447129 -0.928479 1.101435 0.099592 -0.021919 -145976.000000 0 0 1
22.940143 -28.962284 17.541325 40.899415 -0.900910 1.127533 0.093809 -0.026917 11714.000000 0 0 1
22.975743 -29.848894 16.419325 41.090576 -0.914784 1.159728 0.082340 -0.021865 -167576.000000 0 0 1
23.768943 -29.410464 15.372525 40.819757 -0.891088 1.184678 0.075360 -0.018285 -581856.000000 0 0 1
23.306043 -29.736494 13.933325 40.268700 -0.906041 1.217483 0.063563 -0.032434 -684688.000000 0 0 1
23.595643 -31.047304 13.497925 41.266008 -0.920932 1.237568 0.096890 -0.025050 34113.100000 0 0 1
23.292843 -31.254984 12.136325 40.825494 -0.930341 1.268961 0.092663 -0.035331 665076.000000 0 0 1
21.774543 -31.348864 11.735725 39.932558 -0.963712 1.272504 0.096725 -0.021326 487676.000000 0 0 1
21.006443 -32.314024 12.391225 40.484679 -0.994370 1.259732 0.110769 -0.029172 -1414560.000000 0 0 1
19.811743 -32.516414 11.761925 39.851790 -1.023578 1.271193 0.105195 -0.022722 -1115120.000000 0 0 1
18.907543 -33.439204 12.601725 40.428690 -1.056184 1.253812 0.085363 -0.017139 -172643.000000 0 0 1
18.686043 -32.739784 13.865625 40.166120 -1.052166 1.218337 0.078671 -0.013105 -236200.000000 0 0 1
19.439743 -33.248634 14.929125 41.306828 -1.041719 1.201006 0.055345 -0.014428 -702214.000000 0 0 1
19.507743 -32.226164 16.140325 40.982774 -1.026461 1.166000 0.068662 -0.013789 380664.000000 0 0 1
18.324743 -31.742634 16.800825 40.319458 -1.047242 1.140992 0.089045 -0.017726 864392.000000 0 0 1
17.324443 -32.655374 17.281025 40.806171 -1.083029 1.133501 0.079339 -0.016466 412709.000000 0 0 1
17.737843 -33.534954 18.537925 42.224150 -1.084269 1.116271 0.060147 -0.027868 -115588.000000 0 0 1
18.491043 33.039857 18.199725 42.009294 1.060568 1.122722 0.062109 -0.021132 179431.000000 0 0 1
19.032743 32.469766 19.406125 42.345350 1.040609 1.094735 0.061687 -0.022435 241786.000000 0 0 1
19.844243 31.177232 19.193525 41.643789 1.003972 1.091790 0.088497 -0.021935 351754.000000 0 0 1
18.996143 30.076702 18.866425 40.266654 1.007472 1.083162 0.068633 -0.028773 42913.400000 0 0 1
19.791443 28.953852 18.668425 39.730805 0.971195 1.081650 0.072753 -0.031555 330742.000000 0 0 1
18.991143 27.601972 18.428425 38.237929 0.968145 1.067928 0.080652 -0.032459 568647.000000 0 0 1
18.415043 26.985542 19.571125 38.083621 0.971978 1.031073 0.092493 -0.036373 -29779.100000 0 0 1
18.027643 25.664372 19.282925 36.816940 0.958436 1.019548 0.091478 -0.040529 -387313.000000 0 0 1
17.768443 24.722202 20.504225 36.705968 0.947614 0.978090 0.098249 -0.034601 312645.000000 0 0 1
16.565943 24.950472 21.206225 36.696873 0.984675 0.954673 0.097955 -0.032119 451141.000000 0 0 1
15.419343 24.213662 20.806625 35.453818 1.003754 0.943614 0.105511 -0.038270 149541.000000 0 0 1
14.089843 24.570302 21.467225 35.539628 1.050128 0.922240 0.104483 -0.050400 -361082.000000 0 0 1
13.492143 25.778182 21.072225 35.924800 1.088609 0.943985 0.107070 -0.046914 160305.000000 0 0 1
12.301943 25.995232 21.832625 36.107525 1.128786 0.921463 0.097509 -0.048002 -105869.000000 0 0 1
11.544443 27.224732 21.341725 36.468197 1.169737 0.945652 0.090104 -0.056949 -601800.000000 0 0 1
12.061843 28.507752 21.579725 37.734129 1.170530 0.961990 0.084661 -0.054428 -271177.000000 0 0 1
11.837943 29.311752 20.433925 37.641214 1.186964 0.996957 0.094662 -0.053559 40581.800000 0 0 1
12.339843 30.803262 20.551725 39.031859 1.189771 1.016274 0.090612 -0.051061 -220447.000000 0 0 1
11.718143 31.635062 21.483825 39.995584 1.216050 1.003736 0.087480 -0.052203 -215529.000000 0 0 1
12.296843 31.543522 22.809685 40.822639 1.199081 0.977917 0.069055 -0.056350 102762.000000 0 0 1
11.533943 32.401124 23.854915 41.855963 1.228810 0.964377 0.063355 -0.050566 202887.000000 0 0 1
10.252043 31.904750 24.182125 41.325447 1.259885 0.945715 0.065467 -0.047203 -107447.000000 0 0 1
9.902543 32.322385 25.515805 42.353904 1.273508 0.924238 0.062649 -0.035360 -762476.000000 0 0 1
8.523343 31.931841 26.095855 42.110373 1.309955 0.902434 0.124790 -0.047652 -223605.000000 0 0 1
7.440443 32.775725 25.660555 42.285605 1.347569 0.918719 0.111219 -0.033757 612628.000000 0 0 1
6.967743 32.349608 24.348515 41.084021 1.358649 0.936449 0.117853 -0.049243 185797.000000 0 0 1
5.838943 31.253972 24.495795 40.136616 1.386103 0.914344 0.106839 -0.039230 181679.000000 0 0 1
6.503743 30.018642 24.722215 39.428485 1.357437 0.893082 0.090087 -0.039843 -624801.000000 0 0 1
5.712643 28.917122 24.583545 38.382091 1.375755 0.875653 0.082470 -0.036257 -1246860.000000 0 0 1
6.571143 27.655732 24.740025 37.684058 1.337517 0.854611 0.080937 -0.037483 -333444.000000 0 0 1
7.481443 27.376402 23.687795 36.966890 1.304029 0.875277 0.083553 -0.040968 799225.000000 0 0 1
8.625843 28.245782 23.572385 37.787388 1.274406 0.897180 0.098104 -0.048244 142358.000000 0 0 1
9.801043 27.893502 24.537075 38.421035 1.232898 0.878071 0.086090 -0.051387 -670389.000000 0 0 1
9.456543 28.048562 25.938885 39.357004 1.245616 0.851219 0.085848 -0.044555 232082.000000 0 0 1
10.495243 27.714322 26.861925 39.997459 1.208791 0.834443 0.081116 -0.026034 441014.000000 0 0 1
11.772743 28.581132 26.930005 40.996387 1.180068 0.854113 0.074844 -0.023262 -187624.000000 0 0 1
11.549343 29.832722 27.561505 42.225764 1.201428 0.859630 0.071438 -0.034465 342194.000000 0 0 1
12.734243 30.610502 27.558065 43.111607 1.176566 0.877305 0.068519 -0.027758 -25498.200000 0 0 1
12.483443 31.980255 28.260285 44.465905 1.198638 0.882076 0.045059 -0.028317 -77746.800000 0 0 1
12.157643 32.020617 29.658325 45.307223 1.207927 0.857137 0.058232 -0.034364 178393.000000 0 0 1
10.866843 31.597432 30.030445 44.925645 1.239552 0.838677 0.086909 -0.037174 -250715.000000 0 0 1
10.689343 31.495482 31.573505 45.859717 1.243602 0.811405 0.112758 -0.032185 -136881.000000 0 0 1
11.206943 30.380032 32.241577 45.695308 1.217392 0.787559 0.109616 -0.035766 48429.300000 0 0 1
11.194343 30.505292 33.650865 46.778915 1.219089 0.767916 0.136207 -0.034293 -23105.500000 0 0 1
11.345743 29.150282 -33.335415 45.713398 1.199621 2.387987 0.125569 -0.030717 832067.000000 0 0 1
12.642643 28.563942 -33.543855 45.835853 1.154106 2.391793 0.125693 -0.026545 866183.000000 0 0 1
12.483843 27.185732 -33.296915 44.761534 1.140313 2.409644 0.132861 -0.033472 444022.000000 0 0 1
13.769643 26.349252 -33.603145 44.867109 1.089247 2.417270 0.123662 -0.029098 456264.000000 0 0 1
13.620943 24.959212 -33.449215 43.901507 1.071239 2.437061 0.082465 -0.024652 -67588.800000 0 0 1
14.024043 24.568142 -32.147915 42.822375 1.052107 2.419958 0.077660 -0.021722 -161303.000000 0 0 1
14.044243 22.981652 -32.071235 41.880320 1.022250 2.443054 0.061719 -0.037369 -370447.000000 0 0 1
15.126743 22.333702 -32.693825 42.385125 0.975464 2.451758 0.030437 -0.014237 -282251.000000 0 0 1
15.120843 20.951002 -32.647095 41.634327 0.945639 2.472104 0.024258 -0.019849 -90078.900000 0 0 1
16.454243 20.365302 -33.195535 42.278022 0.891224 2.473771 0.063084 -0.035132 78494.000000 0 0 1
17.476543 20.566602 -32.250525 42.053668 0.866445 2.444777 0.084373 -0.030673 -64654.400000 0 0 1
18.576143 19.691402 -32.542865 42.330396 0.814534 2.447731 0.107436 -0.034445 39409.900000 0 0 1
19.745743 19.895102 -31.568845 42.217312 0.789166 2.415494 0.098327 -0.031847 -372229.000000 0 0 1
20.340943 21.150302 -31.844985 43.303491 0.804902 2.397039 0.105335 -0.020448 667177.000000 0 0 1
21.449343 21.612002 -31.047265 43.486614 0.789176 2.365920 0.101006 -0.014543 1038350.000000 0 0 1
20.921843 22.011702 -29.629955 42.428443 0.810778 2.343888 0.072209 -0.017802 160729.000000 0 0 1
20.269443 23.273402 -29.648065 42.796137 0.854278 2.336125 0.050756 0.001432 5414.010000 0 0 1
19.859243 23.724382 -28.351815 41.965000 0.873850 2.312583 0.049060 0.009510 -609217.000000 0 0 1
20.971043 24.151342 -27.369505 42.097052 0.855763 2.278582 0.046270 -0.001224 -340417.000000 0 0 1
21.798243 25.163772 -27.846475 43.402822 0.856941 2.267355 0.053016 -0.002597 -356365.000000 0 0 1
21.233643 26.461172 -27.874885 43.909799 0.894566 2.258574 0.035460 0.004392 -719187.000000 0 0 1
22.164843 27.460472 -28.590885 45.418019 0.891708 2.251713 0.034274 0.003024 -332638.000000 0 0 1
22.251143 27.499942 -30.044035 46.411251 0.890511 2.274891 0.043731 0.001440 50394.100000 0 0 1
22.724443 26.276202 -30.672575 46.342701 0.857756 2.294099 0.065980 -0.008095 -313416.000000 0 0 1
24.160743 25.851452 -30.363245 46.625805 0.819191 2.279976 0.096943 -0.024545 -116746.000000 0 0 1
25.184143 26.800952 -30.751145 47.939180 0.816490 2.267198 0.082280 -0.020081 229581.000000 0 0 1
26.430843 26.238772 -30.392015 48.070128 0.781751 2.255242 0.115297 -0.037218 -552526.000000 0 0 1
27.574543 27.159042 -30.754745 49.435041 0.777807 2.242250 0.097714 -0.024619 -735192.000000 0 0 1
27.646343 28.314752 -29.890545 49.593247 0.797342 2.217694 0.063569 -0.019008 239681.000000 0 0 1
28.871643 28.986362 -30.169215 50.832691 0.787381 2.206197 0.071692 -0.023833 522548.000000 0 0 1
29.109843 30.292892 -29.423395 51.291115 0.805311 2.181757 0.062033 -0.008691 -137719.000000 0 0 1
29.604343 30.122822 -28.133295 50.747254 0.794079 2.158415 0.080858 -0.018162 -100277.000000 0 0 1
28.874343 30.897722 -27.245555 50.306234 0.819237 2.143128 0.061767 -0.011211 -373364.000000 0 0 1
29.374243 30.737932 -25.788285 49.726273 0.808080 2.116015 0.083032 -0.019713 -137031.000000 0 0 1
29.238043 29.427402 -25.265905 48.571608 0.788626 2.117856 0.071667 -0.011976 1041520.000000 0 0 1
27.909343 29.056912 -24.823165 47.322564 0.805540 2.122986 0.057518 -0.006656 686164.000000 0 0 1
27.464943 29.445172 -23.387665 46.565267 0.820180 2.097002 0.057670 0.001800 -379504.000000 0 0 1
26.980343 30.721572 -23.181365 47.001378 0.850145 2.086568 0.067934 0.000761 110211.000000 0 0 1
26.437843 30.802102 -21.865965 46.106935 0.861496 2.064902 0.043798 0.012438 192088.000000 0 0 1
3.715843 -26.104144 -19.705965 32.917456 -1.429399 2.212608 0.106248 -0.021975 2394.790000 0 0 1
3.634843 -27.382064 -19.038365 33.547710 -1.438823 2.174264 0.116424 -0.019284 240772.000000 0 0 1
3.041943 -27.183654 -17.751065 32.608354 -1.459357 2.146436 0.099698 -0.026086 -109254.000000 0 0 1
3.218043 -28.332984 -16.745965 33.068733 -1.457702 2.101800 0.093262 -0.020688 339772.000000 0 0 1
4.512043 -28.422204 -16.161365 33.005605 -1.413359 2.082491 0.091692 -0.019742 223073.000000 0 0 1
4.512743 -29.370714 -15.119865 33.340876 -1.418341 2.041477 0.091039 -0.026444 671556.000000 0 0 1
5.925443 -29.856524 -14.642265 33.777490 -1.374878 2.019160 0.109907 -0.027691 320113.000000 0 0 1
6.617643 -28.910934 -13.905165 32.756510 -1.345775 2.009207 0.102532 -0.017376 520513.000000 0 0 1
8.028943 -29.141214 -13.738865 33.202872 -1.301948 1.997405 0.096523 -0.012368 1107670.000000 0 0 1
8.446543 -30.084724 -12.539865 33.670208 -1.297084 1.952425 0.089883 -0.018687 -507170.000000 0 0 1
8.800243 -29.557324 -11.306565 32.846889 -1.281419 1.922205 0.084692 -0.023602 -162055.000000 0 0 1
9.039343 -30.524614 -10.314565 33.464190 -1.282891 1.884125 0.088592 -0.017379 1284350.000000 0 0 1
10.454243 -31.253394 -10.252365 34.513430 -1.247997 1.872403 0.071052 -0.018670 637066.000000 0 0 1
11.442443 -30.562254 -9.575865 34.009970 -1.212554 1.856216 0.068447 -0.012707 -324157.000000 0 0 1
12.563143 -31.430764 -9.399465 35.129410 -1.190541 1.841663 0.064333 -0.014487 314270.000000 0 0 1
13.659243 -30.967794 -8.421065 34.878267 -1.155386 1.814647 0.075341 -0.012884 134859.000000 0 0 1
14.667343 -30.208504 -9.065265 34.783095 -1.118786 1.834463 0.086274 -0.014106 -91166.000000 0 0 1
15.650243 -29.771384 -8.172765 34.612996 -1.086816 1.809166 0.087890 -0.019577 106164.000000 0 0 1
16.947043 -29.189724 -8.814665 34.884675 -1.044777 1.826246 0.109019 -0.027467 334305.000000 0 0 1
16.938443 -27.822274 -9.257465 33.862818 -1.023925 1.847703 0.091253 -0.023147 112355.000000 0 0 1
16.136343 -27.586604 -10.423565 33.616261 -1.041528 1.886068 0.082018 -0.018195 -246939.000000 0 0 1
15.646843 -26.126304 -10.662665 32.266079 -1.031192 1.907588 0.071216 -0.015842 -934239.000000 0 0 1
14.611943 -25.715414 -9.790665 31.155232 -1.054074 1.890467 0.057973 -0.017487 -3430.340000 0 0 1
14.157043 -24.380244 -10.001765 29.914101 -1.044706 1.911711 0.034134 -0.005542 218586.000000 0 0 1
13.494443 -23.993244 -11.338665 29.771481 -1.058462 1.961519 0.017246 -0.001316 360254.000000 0 0 1
14.453043 -23.774644 -12.417265 30.468223 -1.024575 1.990564 0.012009 -0.002913 250300.000000 0 0 1
13.832743 -23.457344 -13.623765 30.449938 -1.037986 2.034669 0.020845 -0.013848 -315946.000000 0 0 1
14.754743 -22.941144 -14.722165 30.995817 -0.999247 2.065729 0.023047 -0.011338 -40344.400000 0 0 1
15.547743 -23.929644 -15.414365 32.433976 -0.994613 2.066049 0.030597 -0.008232 325841.000000 0 0 1
16.173443 -23.390544 -16.539565 32.897644 -0.965830 2.097583 0.028249 -0.010917 -770982.000000 0 0 1
17.086443 -24.320644 -17.379365 34.430838 -0.958362 2.099902 0.041494 -0.013380 120151.000000 0 0 1
18.294943 -24.711044 -16.794665 35.034289 -0.933497 2.070742 0.074894 -0.023103 524260.000000 0 0 1
19.347543 -23.691044 -16.694865 34.846973 -0.885979 2.070415 0.076946 -0.029048 1142820.000000 0 0 1
20.679443 -24.287044 -16.103565 35.732683 -0.865455 2.038309 0.080255 -0.030271 616705.000000 0 0 1
21.518843 -24.917844 -17.035765 37.069891 -0.858464 2.048294 0.099875 -0.025465 -396652.000000 0 0 1
22.712743 -25.294134 -16.377465 37.734378 -0.839118 2.019746 0.125101 -0.030133 -138347.000000 0 0 1
23.652943 -26.051784 -17.299365 39.210014 -0.833623 2.027729 0.123319 -0.026272 -434663.000000 0 0 1
24.325843 -25.185364 -18.206665 39.465578 -0.802757 2.050290 0.123119 -0.018941 -67767.800000 0 0 1
24.962143 -25.980244 -19.209665 40.830049 -0.805381 2.060629 0.102980 -0.017114 96616.100000 0 0 1
25.909343 -25.081974 -20.080365 41.274938 -0.769174 2.078879 0.104694 -0.020957 197195.000000 0 0 1
25.331943 -24.003644 -20.820965 40.637358 -0.758481 2.108727 0.115053 -0.013106 -69061.500000 0 0 1
25.419143 -22.837644 -20.046465 39.617566 -0.731954 2.101337 0.131920 -0.009775 33724.600000 0 0 1
24.802343 -21.629544 -20.817265 38.940363 -0.717172 2.134823 0.172871 -0.026828 -178032.000000 0 0 1
25.447043 -21.239644 -22.032665 39.800914 -0.695521 2.157443 0.137831 -0.004851 173224.000000 0 0 1
25.488243 -22.112644 -23.102565 40.894352 -0.714602 2.171148 0.113228 -0.009179 -46116.200000 0 0 1
24.589143 -21.704244 -24.276665 40.805105 -0.723161 2.207990 0.110829 -0.010633 145021.000000 0 0 1
25.153243 -20.616744 -24.987565 41.013585 -0.686606 2.225912 0.102669 -0.001734 159281.000000 0 0 1
24.148843 -19.945144 -25.666335 40.493655 -0.690350 2.257299 0.082107 0.000210 -127101.000000 0 0 1
24.801543 -19.443044 -26.962025 41.474080 -0.664874 2.278504 0.087976 -0.006669 -216881.000000 0 0 1
23.947643 -18.670544 -27.733565 41.124560 -0.662203 2.310921 0.089757 -0.011973 -454934.000000 0 0 1
24.378843 -18.397444 -29.049255 42.150363 -0.646469 2.331155 0.094959 -0.019985 -167008.000000 0 0 1
23.566243 -17.329544 -29.842785 41.788428 -0.634062 2.366191 0.109715 -0.024521 -88490.200000 0 0 1
22.333743 -17.736844 -30.404615 41.687316 -0.671177 2.388167 0.078239 -0.024772 -118096.000000 0 0 1
21.717543 -16.692344 -31.082165 41.429301 -0.655306 2.419230 0.084214 -0.026107 775876.000000 0 0 1
20.324843 -17.246244 -31.602525 41.343098 -0.703640 2.440901 0.060943 -0.020487 653258.000000 0 0 1
20.467243 -18.023144 -32.764185 42.629023 -0.721984 2.447429 0.062343 -0.018599 763104.000000 0 0 1
19.300843 -18.799444 -33.100015 42.679651 -0.772239 2.458375 0.061976 -0.021738 426095.000000 0 0 1
19.391643 -19.549144 33.217893 43.146648 -0.789443 0.692138 0.100108 -0.024184 -112805.000000 0 0 1
20.420843 -20.516244 33.246477 44.082369 -0.787729 0.716377 0.095155 -0.019459 56389.400000 0 0 1
20.443243 -21.446444 32.234965 43.783205 -0.809342 0.743299 0.089701 -0.024829 168350.000000 0 0 1
21.062743 -22.853244 32.603786 45.043498 -0.826147 0.761461 0.081743 -0.016419 165995.000000 0 0 1
20.345943 -23.597844 33.579969 45.808623 -0.859265 0.748002 0.084000 -0.030754 116383.000000 0 0 1
20.640143 -23.230144 -32.763565 45.156464 -0.844367 2.382639 0.086899 -0.027985 -160335.000000 0 0 1
19.870043 -23.966044 -31.644585 44.391099 -0.878567 2.364363 0.095789 -0.030418 -378027.000000 0 0 1
20.139343 -25.365014 -31.489175 45.172394 -0.899736 2.342126 0.100392 -0.038198 -172692.000000 0 0 1
21.324843 -25.716104 -30.816245 45.450059 -0.878478 2.315868 0.084014 -0.040798 -228583.000000 0 0 1
21.506843 -27.241024 -30.911955 46.477593 -0.902489 2.298416 0.074541 -0.037042 -245748.000000 0 0 1
20.407043 -28.024594 -30.513175 46.183104 -0.941405 2.292547 0.070543 -0.029181 -182212.000000 0 0 1
20.628343 -29.407374 -30.691585 47.247175 -0.959086 2.277850 0.071121 -0.023002 286394.000000 0 0 1
19.364643 -30.234104 -30.231235 46.936319 -1.001136 2.270630 0.094001 -0.024381 1827070.000000 0 0 1
18.131543 -29.994754 -30.958735 46.764104 -1.027082 2.294306 0.116866 -0.031214 729617.000000 0 0 1
18.002943 -30.684934 -32.174845 47.967612 -1.040211 2.306032 0.129422 -0.041353 -520795.000000 0 0 1
16.598943 -31.228364 -32.463175 48.006180 -1.082241 2.313428 0.150662 -0.048852 397282.000000 0 0 1
15.601443 -30.233304 -32.735795 47.213239 -1.094403 2.336939 0.168993 -0.041915 529662.000000 0 0 1
14.330643 -30.801604 -33.010145 47.368511 -1.135328 2.341834 0.121846 -0.028934 57381.400000 0 0 1
13.230843 -29.963354 -33.605645 46.927574 -1.154977 2.369020 0.124058 -0.027851 -394427.000000 0 0 1
12.400243 -29.304704 -32.695505 45.623763 -1.170495 2.369759 0.133817 -0.032502 -158697.000000 0 0 1
11.592943 -28.370264 -33.403505 45.332796 -1.182872 2.399197 0.119957 -0.041367 -37386.000000 0 0 1
10.602143 -27.586924 -32.529375 43.950018 -1.203882 2.404082 0.141543 -0.048285 -140015.000000 0 0 1
9.475743 -28.342444 -32.184515 43.919550 -1.248149 2.393233 0.131726 -0.038240 -304292.000000 0 0 1
8.513243 -27.573454 -31.478295 42.704259 -1.271333 2.399599 0.100123 -0.040266 346380.000000 0 0 1
7.463743 -28.451724 -30.757685 42.558704 -1.314247 2.378515 0.092100 -0.040222 523540.000000 0 0 1
6.444543 -29.093874 -31.533915 43.386328 -1.352808 2.384472 0.083970 -0.042262 597231.000000 0 0 1
6.918243 -30.346184 -32.057655 44.681609 -1.346650 2.370958 0.089549 -0.037110 -167617.000000 0 0 1
5.740843 -31.196534 -32.496225 45.411294 -1.388811 2.368276 0.124650 -0.052012 -98322.000000 0 0 1
4.882643 -31.553564 -31.451885 44.818397 -1.417273 2.348665 0.138810 -0.070521 -152513.000000 0 0 1
3.870543 -32.475634 -31.763315 45.591184 -1.452173 2.341581 0.159493 -0.099910 -310576.000000 0 0 1
2.852743 -32.724844 -30.627705 44.912246 -1.483843 2.321216 0.144033 -0.096056 797189.000000 0 0 1
1.820143 -31.759754 -30.348415 43.966137 -1.513549 2.332656 0.116029 -0.076897 1671410.000000 0 0 1
0.635143 -31.823814 -31.190295 44.564482 -1.550841 2.346042 0.092678 -0.038140 1125230.000000 0 0 1
-0.442957 -30.754304 -30.810575 43.535215 1.556394 2.357057 0.075791 -0.021425 229506.000000 0 0 1
-0.993857 -30.838434 -29.486245 42.678278 1.538580 2.333524 0.053168 -0.025179 -29605.100000 0 0 1
-1.720557 -29.699894 -29.162225 41.659085 1.512930 2.346223 0.120248 -0.026631 -203827.000000 0 0 1
-2.382257 -29.672314 -27.765995 40.707147 1.490683 2.321415 0.122027 -0.032343 -29321.100000 0 0 1
-1.450857 -29.789514 -26.724255 40.046297 1.522131 2.301420 0.099486 -0.027732 -276872.000000 0 0 1
-2.138257 -29.672194 -25.498055 39.181144 1.498858 2.279399 0.106131 -0.034592 210511.000000 0 0 1
-1.240457 -29.986514 -24.281165 38.604465 1.529453 2.251028 0.074656 -0.030538 298006.000000 0 0 1
-1.974057 -30.312004 -23.115365 38.171122 1.505764 2.221281 0.104619 -0.042972 888270.000000 0 0 1
-0.999357 -30.928024 -22.210365 38.089916 1.538495 2.193340 0.087139 -0.035729 1263700.000000 0 0 1
-1.447257 -30.868674 -20.716765 37.204219 1.523946 2.161372 0.054427 -0.017849 89600.000000 0 0 1
-1.523257 -29.532254 -20.150365 35.784236 1.519263 2.168937 0.040909 -0.007255 -40545.400000 0 0 1
-0.273257 -28.938944 -19.873765 35.107032 1.561354 2.172552 0.072706 -0.017384 -119559.000000 0 0 1
-0.365257 -27.472894 -19.261565 33.554451 1.557502 2.182226 0.085325 -0.026836 -297061.000000 0 0 1
-1.092557 -27.427874 -18.076165 32.866848 1.530984 2.153139 0.069564 -0.026498 73464.000000 0 0 1
-1.119057 -26.141594 -17.556365 31.509700 1.528015 2.161774 0.079940 -0.022230 180200.000000 0 0 1
-1.937157 -26.080034 -16.217165 30.772020 1.496655 2.125875 0.065503 -0.015873 136981.000000 0 0 1
-1.837557 -24.835344 -15.628565 29.401071 1.496941 2.131243 0.061921 -0.008689 397291.000000 0 0 1
-2.768057 -24.700344 -14.560765 28.805989 1.459196 2.100731 0.061605 -0.002129 79145.300000 0 0 1
-2.315257 -23.635744 -13.586665 27.360670 1.473152 2.090446 0.059737 0.004155 -33900.900000 0 0 1
-1.107057 -23.792844 -12.879065 27.077580 1.524301 2.066483 0.050732 -0.001418 -291245.000000 0 0 1
-0.850557 -22.616544 -12.138665 25.682264 1.533206 2.063089 0.059147 -0.001788 59396.000000 0 0 1
0.493443 -22.539244 -11.384165 25.255895 -1.548907 2.038405 0.084684 -0.004569 120870.000000 0 0 1
0.666743 -21.298544 -10.757565 23.870436 -1.539502 2.038306 0.067366 -0.002645 -185186.000000 0 1 0
1.839943 -21.281344 -9.970465 23.573103 -1.484553 2.007505 0.059587 -0.001377 27588.800000 0 1 0
2.185843 -19.874544 -9.543365 22.155162 -1.461255 2.016121 0.055789 -0.002848 -933052.000000 0 1 0
2.589443 -19.101344 -10.626065 22.010902 -1.436054 2.074604 0.056701 -0.000442 -37050.800000 0 1 0
3.541643 -18.122344 -10.313365 21.150132 -1.377799 2.080165 0.041840 -0.002008 -256353.000000 0 1 0
4.985843 -18.471444 -9.970765 21.574731 -1.307158 2.051215 0.069651 -0.019237 -719638.000000 0 1 0
5.004543 -19.078944 -8.703865 21.559425 -1.314268 1.986370 0.059394 -0.009721 -723401.000000 0 1 0
6.248043 -19.648144 -8.453565 22.283410 -1.262912 1.959907 0.072983 -0.012785 -441005.000000 0 1 0
6.097643 -20.731544 -7.500965 22.874498 -1.284739 1.904895 0.063659 -0.014272 242443.000000 0 1 0
5.239843 -21.764644 -8.013165 23.777437 -1.334542 1.914533 0.088552 -0.017060 321023.000000 0 1 0
5.003243 -22.709544 -7.049965 24.299338 -1.353946 1.865159 0.098580 -0.013365 -315837.000000 0 1 0
3.848643 -23.607544 -7.484465 25.062829 -1.409192 1.874051 0.092981 -0.013177 -175057.000000 0 0 1
4.167443 -24.345944 -8.666465 26.176329 -1.401263 1.908244 0.097634 -0.013518 581498.000000 0 0 1
3.006143 -25.051134 -9.118965 26.828189 -1.451367 1.917609 0.084261 -0.010220 677733.000000 0 0 1
3.306443 -25.861104 -10.421765 28.077437 -1.443632 1.951075 0.083156 -0.018145 -11761.900000 0 0 1
4.010543 -27.043684 -10.202765 29.181188 -1.423571 1.927978 0.079471 -0.019100 -178047.000000 0 0 1
4.381443 -27.700144 -11.397765 30.272167 -1.413922 1.956822 0.091081 -0.022101 197488.000000 0 0 1
4.678443 -29.176154 -11.210865 31.604102 -1.411798 1.933420 0.101170 -0.024122 -345910.000000 0 0 1
3.509643 -29.927814 -11.100965 32.112662 -1.454059 1.923768 0.108973 -0.026008 -518917.000000 0 0 1
3.702943 -31.314394 -11.253165 33.480394 -1.453092 1.913582 0.097709 -0.028349 -162203.000000 0 0 1
2.511543 -32.194584 -11.706165 34.348703 -1.492943 1.918568 0.081122 -0.034012 -36900.800000 0 0 1
2.091743 -31.909154 -13.037765 34.533358 -1.505337 1.957936 0.082143 -0.034396 164910.000000 0 0 1
1.313643 -32.890984 -13.648265 35.634501 -1.530878 1.963846 0.072364 -0.031564 -210572.000000 0 0 1
0.799243 -32.402084 -15.048465 35.734999 -1.546135 2.005468 0.072857 -0.025641 -78613.900000 0 0 1
-0.243857 -31.465004 -15.104065 34.903277 1.563046 2.018327 0.069397 -0.025966 -111566.000000 0 0 1
-0.769557 -31.475564 -16.411865 35.505671 1.546352 2.051307 0.043918 -0.018982 -596698.000000 0 0 1
-1.859557 -30.538364 -16.820465 34.913861 1.509979 2.073470 0.049991 -0.005691 -905655.000000 0 0 1
-3.056157 -30.754524 -16.149265 34.870899 1.471749 2.052304 0.056143 -0.013277 -319218.000000 0 0 1
-4.176757 -30.182344 -16.814565 34.801563 1.433286 2.075052 0.056071 -0.005163 923836.000000 0 0 1
-5.529857 -30.205154 -16.047965 34.647768 1.389725 2.052370 0.058841 -0.009315 68391.400000 0 0 1
-5.679357 -29.265824 -14.970965 33.359756 1.379118 2.036188 0.055350 -0.009719 209062.000000 0 0 1
-7.034657 -29.122444 -14.566665 33.313524 1.333782 2.023346 0.074900 -0.007616 426168.000000 0 0 1
-7.598157 -30.196264 -13.587265 33.972932 1.324288 1.982252 0.068751 -0.021958 -159485.000000 0 0 1
-7.805557 -31.443434 -14.209265 35.376821 1.327474 1.984119 0.082803 -0.019432 -174558.000000 0 0 1
-8.752057 -32.219514 -13.508265 36.016230 1.305558 1.955258 0.092802 -0.019526 383976.000000 0 0 1
-9.187357 -33.504804 -14.269665 37.557992 1.303165 1.960524 0.131663 -0.031312 -106867.000000 0 0 1
-8.177257 33.244056 -14.246865 37.081100 -1.329608 1.965146 0.118249 -0.032285 -158769.000000 0 0 1
-8.488957 32.052845 -14.953165 36.373678 -1.311898 1.994455 0.140061 -0.037595 -289934.000000 0 0 1
-8.373657 -22.059944 -3.290765 23.824114 1.208011 1.709367 0.124271 -0.036184 257329.000000 0 1 0
-7.935757 -20.991644 -4.153265 22.822685 1.209360 1.753796 0.088274 -0.031521 -276304.000000 0 1 0
-6.583557 -21.158244 -4.501965 22.611550 1.269135 1.771236 0.088471 -0.027903 -384592.000000 0 1 0
-6.257357 -20.262744 -5.647265 21.945954 1.271276 1.831050 0.077676 -0.030578 117954.000000 0 1 0
-6.876257 -20.532144 -6.947965 22.740406 1.247635 1.881295 0.071410 -0.024700 -60505.400000 0 1 0
-6.709857 -19.382344 -7.741265 21.923153 1.237525 1.931689 0.048168 -0.017972 -348258.000000 0 1 0
-7.647157 -19.342044 -8.981365 22.655211 1.194292 1.978429 0.057483 -0.028114 118321.000000 0 1 0
-7.240857 -20.139244 -10.050165 23.643709 1.225648 2.009832 0.059785 -0.011584 188296.000000 0 1 0
-8.302557 -20.329344 -11.009965 24.564894 1.183067 2.035546 0.092881 -0.010762 629861.000000 0 1 0
-7.952357 -21.153744 -12.237865 25.699926 1.211209 2.067105 0.094259 -0.006812 -32114.600000 0 0 1
-6.861457 -20.599044 -12.979665 25.295690 1.249259 2.109609 0.080476 0.009025 83251.300000 0 0 1
-6.577357 -21.370444 -14.103165 26.435899 1.272219 2.133512 0.065576 0.006134 144969.000000 0 0 1
-5.627957 -20.589044 -15.058965 26.121927 1.303967 2.185220 0.054781 0.006906 -341846.000000 0 0 1
-4.326257 -20.424344 -14.559265 25.452751 1.362063 2.179752 0.040882 0.003158 -181268.000000 0 0 1
-3.466757 -19.799644 -15.514865 25.392033 1.397461 2.228136 0.050486 0.009491 155120.000000 0 0 1
-3.596657 -18.257944 -15.741465 24.373801 1.376295 2.272913 0.061232 0.010709 -451011.000000 0 1 0
-4.838057 -17.927344 -16.352065 24.742403 1.307205 2.292804 0.076279 0.015688 263758.000000 0 1 0
-4.708857 -17.872744 -17.773965 25.642195 1.313185 2.336651 0.101804 0.005921 -754899.000000 0 0 1
-6.079757 -17.607044 -18.374665 26.164857 1.238312 2.349370 0.113364 0.003387 -391525.000000 0 0 1
-6.809957 -18.806744 -18.201065 27.043445 1.223381 2.309095 0.100022 0.011044 670300.000000 0 0 1
-8.215557 -18.721344 -18.501465 27.573326 1.157267 2.306341 0.106056 -0.003365 1020590.000000 0 0 1
-9.018857 -19.919644 -17.978665 28.308380 1.145648 2.258935 0.120800 -0.011389 -124304.000000 0 0 1
-8.674557 -21.107744 -18.680165 29.491242 1.180873 2.256754 0.123831 -0.001042 892001.000000 0 0 1
-9.521757 -22.264644 -18.365165 30.391734 1.166673 2.219660 0.141126 0.004280 621690.000000 0 0 1
-9.031357 -23.512844 -19.118965 31.622050 1.204069 2.220071 0.161770 -0.013770 -709065.000000 0 0 1
-9.118857 -23.292644 -20.455365 32.312889 1.197647 2.256271 0.153102 -0.015044 274562.000000 0 0 1
-8.508857 -24.280944 -21.320165 33.414283 1.233735 2.262766 0.173016 -0.033712 1223850.000000 0 0 1
-6.920757 -24.343844 -21.322865 33.093567 1.293812 2.270931 0.155050 -0.019631 422311.000000 0 0 1
-6.297257 -23.162644 -21.775765 32.409065 1.305341 2.307572 0.212080 -0.047367 171448.000000 0 0 1
-6.130757 -22.057744 -20.860265 30.972260 1.299698 2.309749 0.173529 -0.042804 -210648.000000 0 0 1
-5.274157 -22.330144 -19.563765 30.152827 1.338857 2.276829 0.163675 -0.021865 1564810.000000 0 0 1
-3.836857 -22.463444 -19.756965 30.160661 1.401624 2.285055 0.139330 -0.031537 1068990.000000 0 0 1
-3.142357 -22.211844 -18.579365 29.127877 1.430257 2.262506 0.080094 -0.026283 13237.200000 0 0 1
-1.733657 -22.841244 -18.706065 29.574395 1.495041 2.255584 0.110198 -0.033493 229767.000000 0 0 1
-0.824357 -22.152444 -19.553265 29.559102 1.533601 2.293610 0.148950 -0.032702 832744.000000 0 0 1
0.472443 -22.791544 -19.615265 30.073848 -1.550070 2.281328 0.105432 -0.032226 1329890.000000 0 0 1
1.565643 -21.859844 -20.206565 29.809550 -1.499297 2.315638 0.094530 -0.028105 138594.000000 0 0 1
1.487343 -21.838444 -21.641965 30.781561 -1.502795 2.350519 0.100600 -0.033627 -543345.000000 0 0 1
2.531643 -21.105944 -22.203065 30.738350 -1.451417 2.377954 0.087637 -0.024195 -572916.000000 0 0 1
2.428843 -20.880144 -23.721265 31.695080 -1.454994 2.416474 0.130965 -0.039472 652759.000000 0 0 1
1.569343 -19.874344 -24.301665 31.432838 -1.491997 2.454557 0.136628 -0.032692 980646.000000 0 0 1
0.153743 -20.050944 -24.114265 31.361788 -1.563129 2.447925 0.166618 -0.039977 1024330.000000 0 0 1
-0.743257 -19.182944 -25.054665 31.563809 1.532070 2.487793 0.186703 -0.036115 -161039.000000 0 0 1
-0.574557 -17.811644 -24.809965 30.546999 1.538550 2.518692 0.129382 -0.024457 -82318.100000 0 0 1
-1.376157 -16.852744 -25.471765 30.573184 1.489319 2.555559 0.153121 -0.037392 -70246.800000 0 0 1
-1.128457 -15.409044 -25.005865 29.393968 1.497693 2.588139 0.141211 -0.025341 564613.000000 0 0 1
0.212843 -15.004744 -25.295805 29.411994 -1.556612 2.606165 0.129303 -0.024579 286785.000000 0 0 1
0.550543 -13.726444 -24.747265 28.304514 -1.530710 2.634834 0.104598 -0.024216 284476.000000 0 0 1
0.198543 -12.495844 -25.678325 28.558045 -1.554909 2.688648 0.107625 -0.020392 -4519.570000 0 0 1
0.783843 -11.288344 -25.217795 27.640158 -1.501469 2.719810 0.092741 -0.017850 121361.000000 0 0 1
0.644043 -10.229944 -26.169565 28.105385 -1.507923 2.768276 0.081755 -0.022240 -464165.000000 0 0 1
1.408843 -8.875044 -25.875295 27.391279 -1.413368 2.807336 0.079108 -0.027664 2012280.000000 0 0 1
2.858343 -8.767844 -26.019185 27.605130 -1.255658 2.800976 0.091420 -0.027718 1447110.000000 0 0 1
3.282343 -9.045944 -27.338165 28.982376 -1.222718 2.803137 0.098738 -0.028049 429438.000000 0 0 1
4.762943 -8.691644 -27.755675 29.472153 -1.069497 2.798621 0.111083 -0.036654 128782.000000 0 0 1
4.829743 -7.272344 -28.004285 29.333486 -0.984556 2.839401 0.114150 -0.027780 935630.000000 0 0 1
6.122343 -6.848244 -28.485175 29.929696 -0.841305 2.829640 0.140491 -0.030946 702750.000000 0 0 1
7.302143 -6.914144 -27.456315 29.239971 -0.758112 2.790506 0.147872 -0.029347 -218097.000000 0 0 1
7.780743 -8.219744 -27.158045 29.422161 -0.812828 2.746724 0.115363 -0.024118 149108.000000 0 0 1
8.659543 -8.765744 -28.127075 30.707626 -0.791493 2.728700 0.126520 -0.031232 -403193.000000 0 0 1
9.125543 -10.248744 -27.849375 31.046739 -0.843307 2.683764 0.115160 -0.015124 604854.000000 0 0 1
8.021543 -11.177644 -27.771835 30.992898 -0.948328 2.681634 0.123576 -0.026192 724303.000000 0 0 1
8.354343 -12.407244 -27.146275 30.994435 -0.978185 2.637977 0.120245 -0.022999 -255865.000000 0 0 1
9.424243 -13.308844 -27.790725 32.222136 -0.954642 2.610932 0.108041 -0.029612 -130633.000000 0 0 1
9.056943 -13.896644 -29.020345 33.426417 -0.993202 2.622331 0.124073 -0.041709 -285996.000000 0 0 1
9.852643 -14.990144 -29.364985 34.410483 -0.989324 2.593219 0.118961 -0.042033 -131383.000000 0 0 1
9.308043 -15.694644 -30.612775 35.638512 -1.035487 2.604071 0.100261 -0.048712 -158946.000000 0 0 1
9.389943 -14.884944 -31.780385 36.328026 -1.008012 2.635855 0.122682 -0.048490 265468.000000 0 0 1
8.694043 -15.448044 -32.898415 37.370231 -1.058185 2.647370 0.135582 -0.050946 -533685.000000 0 0 1
7.317943 -14.853144 -33.139145 37.045528 -1.113017 2.678224 0.139581 -0.046368 -714846.000000 0 0 1
7.394243 -13.504744 -33.520745 36.887576 -1.069852 2.711021 0.150650 -0.045841 -92167.100000 0 0 1
6.165543 -12.999444 33.676885 36.621469 -1.127925 0.403750 0.152807 -0.055638 -209343.000000 0 0 1
6.387443 -11.826044 32.639089 35.298227 -1.075573 0.390637 0.181594 -0.045465 344770.000000 0 0 1
7.102043 -12.188144 31.420495 34.441797 -1.043194 0.421984 0.170891 -0.040457 613558.000000 0 0 1
7.310143 -11.048444 30.666025 33.405260 -0.986279 0.407789 0.161223 -0.039195 -231136.000000 0 0 1
7.868343 -11.402244 29.281945 32.393738 -0.966766 0.441905 0.155373 -0.035354 85245.000000 0 0 1
6.991143 -12.127944 28.415945 31.676948 -1.047874 0.457738 0.149549 -0.034322 384666.000000 0 0 1
7.439943 -11.897344 27.118515 30.533807 -1.011949 0.477499 0.126681 -0.032710 77840.800000 0 0 1
6.590643 -12.589744 26.010425 29.639170 -1.088531 0.500028 0.112846 -0.042525 -119358.000000 0 0 1
6.632443 -13.980144 26.086305 30.330332 -1.127822 0.535383 0.116177 -0.034044 -163323.000000 0 0 1
5.962643 -14.673744 25.083525 29.665722 -1.184830 0.563222 0.086742 -0.032586 -147002.000000 0 0 1
4.443543 -14.886844 25.277495 29.670102 -1.280727 0.551095 0.086909 -0.039769 294480.000000 0 0 1
3.672043 -13.676644 25.061595 28.785726 -1.308492 0.514323 0.078881 -0.044166 1339170.000000 0 0 1
2.254343 -13.984744 25.053545 28.780813 -1.410971 0.514590 0.071042 -0.040054 1302120.000000 0 0 1
1.362043 -12.774744 24.700175 27.841478 -1.464578 0.479617 0.091126 -0.038626 -443050.000000 0 0 1
1.329643 -12.321844 23.379815 26.461510 -1.463303 0.487428 0.051059 -0.029527 -166333.000000 0 0 1
0.364443 -11.290244 23.204145 25.807649 -1.538528 0.453044 0.060001 -0.018944 734346.000000 0 0 1
-1.034057 -11.863244 22.823205 25.743048 1.483851 0.480903 0.062921 -0.009935 -313114.000000 0 0 1
-0.976657 -12.542644 21.625525 25.018695 1.493086 0.526891 0.054006 -0.010159 -402934.000000 0 0 1
-2.118357 -13.320444 21.366125 25.267231 1.413086 0.563097 0.081677 -0.019063 -13383.400000 0 0 1
-2.261457 -13.774944 19.882325 24.293417 1.408076 0.612133 0.089795 -0.026696 501533.000000 0 1 0
-1.217757 -14.692144 19.532025 24.471249 1.488100 0.646558 0.109528 -0.039197 44100.400000 0 1 0
-1.364957 -15.311244 18.260825 23.869542 1.481884 0.699714 0.113949 -0.039512 282273.000000 0 1 0
-2.446857 -16.424244 18.281825 24.697531 1.422906 0.737386 0.109022 -0.045156 287533.000000 0 1 0
-2.628157 -17.065144 17.039325 24.258296 1.417990 0.792015 0.090718 -0.050198 -626712.000000 0 1 0
-3.548757 -18.070444 17.353925 25.304018 1.376879 0.815071 0.102511 -0.035754 -350026.000000 0 0 1
-3.388657 -19.440844 16.647625 25.818072 1.398224 0.870028 0.103045 -0.041707 716003.000000 0 0 1
-2.156357 -20.070744 17.054225 26.425957 1.463769 0.869303 0.098737 -0.044190 650561.000000 0 0 1
-2.312757 -21.468044 16.896025 27.417174 1.463480 0.906815 0.094989 -0.061140 288555.000000 0 0 1
-1.237057 -22.284044 17.699725 28.484894 1.515340 0.900303 0.098150 -0.048608 631522.000000 0 0 1
0.015043 -22.282944 17.030825 28.046012 -1.570121 0.918207 0.086624 -0.052596 -506619.000000 0 0 1
0.881443 -23.087344 17.805125 29.168902 -1.532636 0.914212 0.107063 -0.030034 377224.000000 0 0 1
2.278043 -23.298344 17.143025 29.015265 -1.473329 0.938712 0.110644 -0.037405 487470.000000 0 0 1
3.104143 -22.144544 17.194725 28.207713 -1.431527 0.915272 0.115218 -0.033028 -399194.000000 0 0 1
4.286643 -22.341444 16.462925 28.081013 -1.381231 0.944355 0.111312 -0.023373 162852.000000 0 0 1
5.281643 -21.149044 16.686525 27.452102 -1.326068 0.917457 0.094691 -0.018980 -394710.000000 0 0 1
6.056143 -21.235544 17.852525 28.396088 -1.292982 0.890920 0.094520 -0.009427 -150964.000000 0 0 1
6.491043 -19.978144 18.459125 27.964248 -1.256648 0.849848 0.085461 -0.007160 643749.000000 0 0 1
7.477843 -19.121244 17.589225 27.035549 -1.198007 0.862427 0.091919 -0.013268 657566.000000 0 0 1
6.711943 -18.368844 16.593625 25.647865 -1.220470 0.867181 0.079495 -0.015780 794586.000000 0 0 1
7.624343 -17.724144 15.714525 24.884175 -1.164557 0.887301 0.111540 -0.023784 209171.000000 0 1 0
6.978343 -16.663644 14.820325 23.366992 -1.174209 0.883769 0.063037 -0.012868 5719.760000 0 1 0
6.072543 -17.188944 13.855325 22.897720 -1.231201 0.920910 0.069498 -0.015289 270782.000000 0 1 0
5.632643 -16.217544 12.885425 21.465544 -1.236513 0.926940 0.045012 -0.015803 -222458.000000 0 1 0
6.111843 -16.406044 11.449125 20.918780 -1.214188 0.991646 0.043718 -0.014853 -78449.600000 0 1 0
7.513743 -16.286544 11.433025 21.270212 -1.138547 1.003311 0.064034 -0.008561 -299932.000000 0 1 0
8.117043 -16.488644 10.203125 21.020597 -1.113343 1.063991 0.071188 -0.014528 -800181.000000 0 1 0
9.482043 -15.892744 10.031825 21.050557 -1.032861 1.074060 0.071843 -0.016348 -694365.000000 0 1 0
10.072143 -16.214544 8.784725 21.012636 -1.014949 1.139478 0.072792 -0.020739 -1275560.000000 0 1 0
11.342543 -15.695644 8.728025 21.241114 -0.945027 1.147353 0.065374 -0.025582 -999841.000000 0 1 0
12.282043 -16.500444 7.824525 22.007644 -0.930923 1.207308 0.079712 -0.036770 -224965.000000 0 1 0
12.655943 -17.729244 8.443225 23.362085 -0.950838 1.201020 0.104912 -0.039188 -158567.000000 0 1 0
13.676443 -18.362344 7.697125 24.155051 -0.930626 1.246486 0.111333 -0.032992 -80960.900000 0 1 0
14.281243 -19.533744 8.450825 25.630792 -0.939497 1.234796 0.111442 -0.030926 -421982.000000 0 0 1
13.504543 -20.678444 8.675925 26.177135 -0.992264 1.232976 0.117862 -0.031951 -296141.000000 0 0 1
14.242643 -21.709644 9.332725 27.590963 -0.990179 1.225737 0.094023 -0.018599 -74037.900000 0 0 1
13.391043 -22.811244 9.967125 28.266879 -1.039963 1.210440 0.120833 -0.026252 -47447.300000 0 0 1
12.894543 -22.285044 11.194425 28.075035 -1.046247 1.160662 0.127481 -0.030644 177810.000000 0 0 1
11.827843 -22.996844 11.843625 28.443350 -1.095755 1.141321 0.156532 -0.034676 536568.000000 0 0 1
12.150543 -24.423444 12.406025 29.967478 -1.109155 1.143971 0.129803 -0.032627 469111.000000 0 0 1
13.373143 -24.458944 13.151525 30.822775 -1.070445 1.129975 0.098217 -0.030447 376683.000000 0 0 1
13.473843 -25.668044 13.825425 32.117523 -1.087407 1.125790 0.101253 -0.039257 132585.000000 0 0 1
14.742943 -25.965094 14.661425 33.264062 -1.054391 1.114353 0.085621 -0.032545 38024.700000 0 0 1
14.771843 -25.164884 15.834425 33.199514 -1.039989 1.073618 0.089783 -0.027644 248898.000000 0 0 1
15.681543 -25.696724 16.782925 34.465910 -1.022871 1.062210 0.085333 -0.027227 -210368.000000 0 0 1
15.441443 -25.125114 18.231625 34.671338 -1.019724 1.017092 0.098282 -0.027576 24909.500000 0 0 1
15.932043 -23.802544 18.416025 34.052034 -0.980944 0.999385 0.094291 -0.025374 309140.000000 0 0 1
17.299243 -23.754444 18.808225 34.889636 -0.941359 1.001455 0.090251 -0.027033 315225.000000 0 0 1
17.787843 -22.342744 19.214025 34.420696 -0.898416 0.978568 0.098700 -0.026736 -16734.100000 0 0 1
17.835543 -21.481644 18.071525 33.258798 -0.877869 0.996361 0.092752 -0.027025 -440141.000000 0 0 1
16.705543 -20.689444 17.962625 32.090250 -0.891534 0.976708 0.107853 -0.021121 -847905.000000 0 0 1
16.887743 -19.785644 16.719725 30.922755 -0.864254 0.999535 0.107128 -0.015588 196490.000000 0 0 1
17.734343 -18.674144 16.870725 30.787204 -0.811205 0.990851 0.105592 -0.022379 -928698.000000 0 0 1
19.089543 -18.889544 16.675525 31.611685 -0.780132 1.015128 0.101220 -0.021360 -1302650.000000 0 0 1
19.874443 -17.620344 16.620825 31.332440 -0.725353 1.011645 0.114727 -0.025578 -520366.000000 0 0 1
20.174943 -17.067244 17.907225 31.921589 -0.702145 0.975233 0.111347 -0.025796 -9061.940000 0 0 1
20.744043 -15.798044 17.882125 31.617462 -0.650865 0.969663 0.109401 -0.021728 -529024.000000 0 0 1
21.184143 -15.460244 19.363625 32.599647 -0.630449 0.934796 0.096174 -0.016214 -33777.000000 0 0 1
22.331543 -16.207044 19.711025 33.910036 -0.627797 0.950503 0.086797 -0.025356 -163774.000000 0 0 1
22.548143 -16.317344 21.122525 34.940457 -0.626434 0.921622 0.064096 -0.014739 238647.000000 0 0 1
35.362698 -1.858244 -7.282065 36.152482 -0.052500 1.773610 0.155092 -0.030469 -434977.000000 0 0 1
36.529768 -1.406444 -7.889665 37.398514 -0.038482 1.783355 0.169045 -0.034194 -161960.000000 0 0 1
37.434708 -2.479844 -8.129665 38.387478 -0.066148 1.784191 0.204053 -0.043532 -247120.000000 0 0 1
-36.540427 -1.995644 -8.554565 37.581458 0.054560 1.800437 0.207957 -0.050525 -143323.000000 0 0 1
-35.541873 -2.998844 -8.456465 36.656918 0.084176 1.803585 0.242392 -0.045774 588425.000000 0 0 1
-34.290586 -2.553044 -9.001865 35.544281 0.074316 1.826843 0.301232 -0.055874 -95539.400000 0 0 1
-33.231467 -3.614044 -8.848665 34.578759 0.108328 1.829574 0.283341 -0.051010 -589222.000000 0 0 1
-32.750097 -3.681944 -7.496265 33.798218 0.111955 1.794451 0.268724 -0.054567 -421012.000000 0 0 1
-31.558987 -4.367944 -7.421665 32.712837 0.137532 1.799662 0.258647 -0.062527 -759051.000000 0 0 1
-30.998537 -4.444244 -5.940465 31.873967 0.142399 1.758266 0.243843 -0.076195 -89240.100000 0 0 1
-30.376307 -3.213444 -5.588165 31.052759 0.105396 1.751739 0.224842 -0.066045 472312.000000 0 0 1
-30.077417 -3.181044 -4.228365 30.539305 0.105370 1.709699 0.217354 -0.064688 -378348.000000 0 0 1
-29.980177 -1.717244 -3.733765 30.260551 0.057217 1.694499 0.221199 -0.056116 -829860.000000 0 0 1
-28.695987 -1.207644 -3.548965 28.939821 0.042059 1.693738 0.196332 -0.051023 -124758.000000 0 0 1
-28.797027 0.104856 -2.924765 28.945363 -0.003641 1.672013 0.223640 -0.063231 4300.010000 0 0 1
-27.409207 0.707956 -2.589165 27.540327 -0.025823 1.664949 0.238772 -0.047962 -57568.500000 0 0 1
-26.888367 0.083056 -1.452665 26.927707 -0.003089 1.624769 0.210887 -0.054788 558230.000000 0 0 1
-25.526147 0.481756 -1.302565 25.563900 -0.018871 1.621772 0.204922 -0.049340 548489.000000 0 0 1
-24.695157 -0.164444 -0.156865 24.696203 0.006659 1.577148 0.176354 -0.052046 61701.400000 0 1 0
-24.476757 -1.536944 -0.345365 24.527395 0.062710 1.584878 0.169637 -0.052251 381404.000000 0 1 0
-23.784457 -2.139144 0.740835 23.891948 0.089697 1.539784 0.149245 -0.038435 -215217.000000 0 1 0
-23.714457 -3.675644 0.620635 24.005646 0.153772 1.544940 0.134115 -0.023089 603142.000000 0 1 0
-24.947657 -4.303544 1.040235 25.337486 0.170822 1.529730 0.144731 -0.029860 850538.000000 0 0 1
-24.957657 -5.723244 1.142435 25.630945 0.225421 1.526209 0.121560 -0.010764 -142139.000000 0 0 1
-26.258107 -6.467244 1.537135 27.086458 0.241489 1.514017 0.150295 -0.010203 67043.400000 0 0 1
-26.424657 -6.352944 2.898935 27.331781 0.235939 1.464532 0.152991 -0.013789 162246.000000 0 0 1
-27.522747 -7.183444 3.233535 28.627945 0.255305 1.457604 0.166520 -0.009319 101163.000000 0 0 1
-27.663967 -7.548044 4.720235 29.061120 0.266364 1.407649 0.158706 -0.014400 135705.000000 0 0 1
-26.668127 -8.437144 5.215735 28.453090 0.306412 1.386444 0.154289 0.003402 120475.000000 0 0 1
-26.822837 -8.808844 6.614935 28.996857 0.317312 1.340644 0.134769 -0.005297 -239076.000000 0 0 1
-26.220647 -7.812144 7.645435 28.407827 0.289565 1.298305 0.122329 0.008202 -453808.000000 0 0 1
-24.847557 -7.719944 7.386335 27.047303 0.301237 1.294193 0.137064 -0.005622 -492802.000000 0 0 1
-24.335757 -6.565744 8.019935 26.451038 0.263524 1.262748 0.130429 -0.013110 6454.280000 0 0 1
-23.009657 -5.972244 7.515135 24.931692 0.253950 1.264605 0.129637 -0.022627 655314.000000 0 1 0
-21.822557 -6.588044 8.020935 24.165300 0.293191 1.232459 0.127448 -0.036171 375968.000000 0 1 0
-20.642557 -6.045144 7.492935 22.777248 0.284883 1.235588 0.115709 -0.032262 70128.800000 0 1 0
-19.349857 -6.272344 8.293435 21.966801 0.313467 1.183654 0.116018 -0.039497 -107992.000000 0 1 0
-19.414357 -5.683044 9.630435 22.404453 0.284768 1.126476 0.115781 -0.025193 -456019.000000 0 1 0
-18.326057 -6.047744 10.400235 21.922237 0.318755 1.076497 0.109118 -0.038906 -728091.000000 0 1 0
-18.096457 -5.043344 11.556435 22.056026 0.271796 1.019305 0.106415 -0.022698 -411257.000000 0 1 0
-19.150057 -5.023144 12.468735 23.397137 0.256525 1.008752 0.123286 -0.022411 -243234.000000 0 1 0
-19.366657 -3.679644 12.792235 23.499967 0.187761 0.995181 0.129718 -0.020659 85714.400000 0 1 0
-20.601957 -3.395444 13.669535 24.956480 0.163343 0.991142 0.123508 -0.029530 -362120.000000 0 1 0
-20.434857 -4.027644 14.926935 25.624572 0.194602 0.948965 0.129343 -0.027942 296645.000000 0 0 1
-21.632257 -3.986044 15.681635 27.014011 0.182220 0.951454 0.113502 -0.017062 -55598.500000 0 0 1
-21.506457 -4.708044 17.043335 27.841851 0.215513 0.912022 0.107717 -0.012491 628727.000000 0 0 1
-22.526857 -4.423944 18.052335 29.204749 0.193917 0.904435 0.096245 -0.018047 1171260.000000 0 0 1
-22.329857 -5.201344 19.240835 29.931359 0.228852 0.872607 0.108702 -0.012911 -170341.000000 0 0 1
-23.301357 -4.837144 20.375435 31.329053 0.204683 0.862727 0.104979 -0.017616 -337980.000000 0 0 1
-23.080057 -3.495744 20.687035 31.190747 0.150319 0.845653 0.115861 -0.021690 430166.000000 0 0 1
-23.608357 -3.211544 21.983235 32.418069 0.135204 0.825599 0.111208 -0.020723 -43216.500000 0 0 1
-23.736257 -1.691844 22.227435 32.562726 0.071156 0.819477 0.102220 -0.013361 280010.000000 0 0 1
-24.812457 -1.061044 21.522435 32.863339 0.042737 0.856737 0.099368 -0.014282 329114.000000 0 0 1
-24.785557 0.373956 21.520635 32.826840 -0.015087 0.855845 0.093666 -0.014903 -1245510.000000 0 0 1
-26.052317 0.995256 21.042335 33.503636 -0.038184 0.891737 0.099287 -0.018842 -214650.000000 0 0 1
-27.141687 0.767456 21.970835 34.928180 -0.028268 0.890493 0.105807 -0.013943 653015.000000 0 0 1
-28.352187 1.417256 21.632035 35.690336 -0.049946 0.919644 0.102834 -0.013147 572529.000000 0 0 1
-29.309047 1.452556 22.871735 37.205462 -0.049519 0.908738 0.096280 0.000098 89247.400000 0 0 1
-28.796387 2.308356 23.886035 37.484705 -0.079990 0.879910 0.089119 -0.001344 620181.000000 0 0 1
-29.684237 2.363956 25.030535 38.900770 -0.079469 0.871805 0.088488 -0.002114 301452.000000 0 0 1
-29.146927 3.192156 26.188435 39.313704 -0.109085 0.841775 0.096780 -0.009581 -159989.000000 0 0 1
-28.277317 2.506356 27.059335 39.218568 -0.088404 0.809359 0.087272 -0.015861 123361.000000 0 0 1
-27.640477 3.437956 27.897335 39.421781 -0.123746 0.784611 0.083658 -0.020021 257790.000000 0 0 1
-26.414097 3.031756 28.777935 39.179913 -0.114278 0.745856 0.080157 -0.024815 264098.000000 0 0 1
-26.707957 2.166056 29.800035 40.075539 -0.080924 0.732363 0.082201 -0.023764 474747.000000 0 0 1
-25.527807 1.884956 30.549535 39.855942 -0.073706 0.697424 0.060252 -0.034501 380762.000000 0 0 1
-25.843667 0.819156 31.570235 40.807424 -0.031686 0.686231 0.060846 -0.027409 -159541.000000 0 0 1
-25.941037 -0.414544 31.015135 40.435725 0.015979 0.696608 0.045305 -0.029537 53245.700000 0 0 1
-26.472097 -1.420344 31.857135 41.444739 0.053603 0.694044 0.062753 -0.031768 -290639.000000 0 0 1
-27.154047 -2.580144 31.040135 41.321779 0.094734 0.720947 0.058287 -0.023810 901436.000000 0 0 1
-28.500827 -2.304444 30.603535 41.882979 0.080680 0.751462 0.087555 -0.022890 1002920.000000 0 0 1
-28.715187 -1.282444 29.584335 41.248509 0.044631 0.770989 0.075328 -0.016646 134338.000000 0 0 1
-30.208867 -1.137944 29.154735 41.998442 0.037651 0.803508 0.107844 -0.017714 697440.000000 0 0 1
-31.158467 -0.728544 30.096835 43.326670 0.023378 0.802864 0.134489 -0.015512 -206491.000000 0 0 1
-32.476007 -0.787844 29.556035 43.918913 0.024255 0.832582 0.138565 -0.024216 398372.000000 0 0 1
-33.437477 -0.528744 30.743335 45.425732 0.015812 0.827413 0.140880 -0.029569 -212282.000000 0 0 1
-33.375257 -1.505244 31.763135 46.098485 0.045070 0.810650 0.145452 -0.030047 -160730.000000 0 0 1
-34.122623 -1.201244 32.925835 47.433185 0.035189 0.803555 0.151044 -0.029707 -31751.200000 0 0 1
-34.621100 -2.491944 33.614335 48.319291 0.071854 0.801443 0.146362 -0.033882 277663.000000 0 0 1
-35.770291 -3.064544 33.008335 48.769410 0.085464 0.827356 0.132740 -0.039155 78664.100000 0 0 1
-36.006607 -4.338644 33.580735 49.426363 0.119918 0.823839 0.119009 -0.034222 65455.800000 0 0 1
-37.297347 -4.996144 33.025135 50.067086 0.133162 0.850486 0.105085 -0.030377 -14895.400000 0 0 1
36.938358 -4.479644 33.691835 50.196108 -0.120684 0.834964 0.103609 -0.044259 -568685.000000 0 0 1
35.775158 -5.097444 33.189135 49.064902 -0.141533 0.827887 0.099055 -0.042203 -139854.000000 0 0 1
34.457098 -4.633944 -33.788755 48.481388 -0.133682 2.341922 0.099297 -0.043717 -463176.000000 0 0 1
34.206318 -5.295644 -32.573455 47.530475 -0.153595 2.325836 0.096856 -0.042784 219035.000000 0 0 1
33.634858 -6.616644 -32.668655 47.353191 -0.194240 2.332138 0.084109 -0.036001 -978034.000000 0 0 1
32.258458 -6.735844 -33.271855 46.829436 -0.205851 2.360991 0.089034 -0.035038 -1147220.000000 0 0 1
31.187898 -6.377944 -32.421155 45.436708 -0.201719 2.365342 0.112659 -0.034117 1028390.000000 0 0 1
29.912258 -6.742144 -33.013755 45.056717 -0.221693 2.393100 0.103537 -0.028342 1405970.000000 0 0 1
28.716658 -6.618944 -32.026055 43.521547 -0.226535 2.397742 0.114211 -0.037301 513364.000000 0 0 1
27.416558 -6.715044 -32.574055 43.102535 -0.240198 2.427571 0.101516 -0.027554 -201844.000000 0 0 1
26.421058 -6.554644 -31.608755 41.715094 -0.243175 2.430623 0.106828 -0.027359 242115.000000 0 0 1
25.053058 -7.120644 -32.138055 41.366821 -0.276920 2.460530 0.098688 -0.030291 379907.000000 0 0 1
24.908058 -8.541044 -32.319955 41.688611 -0.330338 2.457940 0.100067 -0.037227 70112.500000 0 0 1
24.858558 -9.306844 -31.099955 40.887314 -0.358237 2.435073 0.104605 -0.028895 -258086.000000 0 0 1
24.500058 -10.805744 -31.329555 41.213565 -0.415386 2.434380 0.119892 -0.034929 -89358.000000 0 0 1
23.175858 -11.133644 -31.682755 40.802884 -0.447844 2.459862 0.124922 -0.042147 1290.950000 0 0 1
23.006558 -12.535644 -31.780555 41.187956 -0.498898 2.452146 0.116857 -0.035082 329512.000000 0 0 1
21.750858 -13.001844 -32.647755 41.328243 -0.538773 2.481544 0.085260 -0.025856 1062380.000000 0 0 1
20.457158 -12.681344 -32.203355 40.204078 -0.554922 2.499755 0.065205 -0.016451 -89288.900000 0 0 1
20.078658 -11.340044 -32.411055 39.777199 -0.514120 2.523206 0.062140 -0.015322 -376422.000000 0 0 1
18.747958 -11.010244 -31.697555 38.437565 -0.531012 2.540380 0.054237 -0.016021 169809.000000 0 0 1
17.587458 -11.076544 -32.485455 38.565701 -0.562042 2.572408 0.040713 0.000610 403943.000000 0 0 1
16.398758 -10.823044 -31.679955 37.278373 -0.583367 2.586442 0.085842 -0.011082 1807550.000000 0 0 1
15.095358 -11.097744 -32.526555 37.536736 -0.633946 2.618996 0.087334 -0.007435 5778.560000 0 0 1
15.036858 -12.512044 -32.841355 38.225815 -0.694005 2.604385 0.096855 -0.015811 662890.000000 0 0 1
13.857358 -12.863744 -33.591555 38.547307 -0.748231 2.628921 0.100149 -0.022276 141694.000000 0 0 1
12.577958 -12.983844 -32.807655 37.458343 -0.801275 2.637978 0.100764 -0.023093 -1382910.000000 0 0 1
11.982258 -11.765344 -32.493755 36.576522 -0.776264 2.664595 0.176788 -0.031206 -196537.000000 0 0 1
10.954758 -12.017844 -31.523555 35.470689 -0.831641 2.665345 0.164177 -0.035415 442898.000000 0 0 1
9.688658 -11.157944 -31.750155 35.020596 -0.855763 2.705985 0.153877 -0.027795 77396.800000 0 0 1
9.910358 -9.713644 -31.627855 34.538258 -0.775374 2.728127 0.161084 -0.029777 421767.000000 0 0 1
8.758958 -9.052944 -32.150155 34.529807 -0.801902 2.768170 0.146579 -0.025619 428730.000000 0 0 1
9.006958 -7.523344 -32.346155 34.409297 -0.695887 2.793547 0.159394 -0.025909 -211461.000000 0 0 1
8.966058 -6.830944 -31.113755 33.092563 -0.651053 2.794025 0.170423 -0.036233 169181.000000 0 0 1
9.081058 -5.448644 -31.387255 33.125717 -0.540420 2.816181 0.150411 -0.029285 -47913.700000 0 0 1
9.235658 -4.589544 -30.133055 31.849055 -0.461195 2.811835 0.133877 -0.028701 230857.000000 0 0 1
8.013958 -4.537844 -29.407255 30.815616 -0.515228 2.838095 0.158657 -0.037859 147374.000000 0 0 1
8.004358 -3.408044 -28.504555 29.802586 -0.402526 2.845369 0.151039 -0.037586 557100.000000 0 0 1
6.541358 -2.959944 -28.220855 29.119878 -0.424928 2.892461 0.128726 -0.035892 -608102.000000 0 0 1
5.931858 -2.329844 -29.333155 30.017480 -0.374256 2.927655 0.117664 -0.029188 716642.000000 0 0 1
4.601258 -1.823444 -29.204555 29.620981 -0.377306 2.973714 0.123879 -0.038035 460166.000000 0 0 1
3.486158 -2.836144 -28.956155 29.302831 -0.682945 2.987617 0.116781 -0.040063 -1090140.000000 0 0 1
3.619858 -3.615244 -27.806155 28.272878 -0.784760 2.959640 0.121284 -0.040305 192173.000000 0 0 1
2.454458 -4.429844 -27.595855 28.056712 -1.064831 2.960093 0.104318 -0.037620 682954.000000 0 0 1
2.643458 -5.356044 -26.373755 27.041635 -1.112325 2.918880 0.081435 -0.039370 -42768.200000 0 0 1
2.609558 -4.767544 -25.082955 25.665032 -1.069983 2.928210 0.078592 -0.044779 63518.100000 0 0 1
3.099858 -5.736244 -24.161955 25.026260 -1.075355 2.878015 0.083522 -0.051521 -5498.980000 0 0 1
3.086258 -5.209444 -22.715855 23.509006 -1.035958 2.881095 0.087894 -0.058858 28685.200000 0 1 0
4.169758 -4.358344 -22.424155 23.221214 -0.807508 2.878827 0.084514 -0.056097 -137311.000000 0 1 0
3.998258 -3.699944 -21.207455 21.895931 -0.746666 2.890160 0.070492 -0.050946 1306.750000 0 1 0
4.960058 -2.495444 -21.192355 21.907654 -0.466131 2.885351 0.085448 -0.044822 -818894.000000 0 1 0
6.275558 -2.882044 -21.067655 22.170586 -0.430519 2.824842 0.087624 -0.040184 -1447500.000000 0 1 0
7.042658 -1.821344 -20.576455 21.824455 -0.253071 2.801778 0.092546 -0.032095 730854.000000 0 1 0
8.495958 -2.276144 -20.168455 22.002925 -0.261762 2.730353 0.115080 -0.040806 67880.900000 0 1 0
9.273658 -2.726144 -21.283855 23.375951 -0.285912 2.715293 0.126951 -0.051890 362202.000000 0 1 0
10.576958 -3.187144 -20.980655 23.711133 -0.292676 2.656956 0.118517 -0.051626 188214.000000 0 1 0
11.629058 -2.243144 -20.441055 23.624212 -0.190551 2.616462 0.113807 -0.042155 -1079420.000000 0 1 0
11.353358 -1.926044 -19.057655 22.266625 -0.168045 2.598055 0.107768 -0.036840 823300.000000 0 1 0
12.459258 -1.302544 -18.367255 22.232539 -0.104166 2.543024 0.118284 -0.035582 403212.000000 0 1 0
12.615458 0.228956 -18.538755 22.425156 0.018147 2.544004 0.100472 -0.036265 -164776.000000 0 1 0
13.045858 0.591556 -19.835055 23.748132 0.045313 2.559340 0.104290 -0.039445 308127.000000 0 1 0
13.378358 1.994456 -19.887355 24.051304 0.147991 2.544319 0.134620 -0.045189 -41188.700000 0 1 0
13.735558 2.547156 -21.288255 25.462587 0.183360 2.560859 0.131951 -0.042674 -283695.000000 0 0 1
15.095058 2.355756 -21.618355 26.471940 0.154813 2.526382 0.138740 -0.041759 170226.000000 0 0 1
15.562458 3.545256 -22.262955 27.393395 0.223986 2.519589 0.138430 -0.046311 -394719.000000 0 0 1
17.052758 3.474256 -22.601955 28.525697 0.200985 2.485426 0.126050 -0.042639 -349458.000000 0 0 1
17.372458 2.720156 -23.795455 29.587586 0.155318 2.505188 0.105797 -0.039826 -256960.000000 0 0 1
18.579958 2.036856 -23.652655 30.146504 0.109190 2.472831 0.102333 -0.037690 -459782.000000 0 0 1
10.169443 26.883356 3.315735 28.933138 1.209153 1.455944 0.022215 -0.005492 -150913.000000 0 0 1
10.043443 27.366756 4.622235 29.515676 1.219063 1.413546 0.029983 -0.002543 333601.000000 0 0 1
11.289043 27.554156 5.301735 30.245370 1.181953 1.394595 0.037269 0.004908 217409.000000 0 0 1
11.209343 28.101656 6.767535 31.002451 1.191251 1.350734 0.041399 -0.010681 -176608.000000 0 0 1
10.773043 27.203456 7.733435 30.263716 1.193728 1.312395 0.033480 -0.014317 86364.600000 0 0 1
10.893543 27.764556 9.016535 31.158269 1.196898 1.277219 0.039926 -0.010835 -667629.000000 0 0 1
10.942743 26.737056 10.234135 30.648838 1.182322 1.230341 0.063170 -0.011726 862411.000000 0 0 1
12.215643 26.141656 10.556335 30.725304 1.133660 1.220079 0.066823 -0.009449 834091.000000 0 0 1
12.770343 25.225856 9.608135 29.862045 1.102169 1.243218 0.070573 -0.017666 -617988.000000 0 0 1
14.077943 24.602856 10.062835 30.079057 1.051063 1.229673 0.089517 -0.019374 -883611.000000 0 0 1
15.140843 25.484756 9.944935 31.266910 1.034716 1.247108 0.093014 -0.022012 17752.200000 0 0 1
16.325643 25.044156 10.635735 31.730982 0.993105 1.228995 0.102649 -0.030454 727943.000000 0 0 1
17.387543 26.157456 10.653335 33.166741 0.984138 1.243794 0.098459 -0.035660 -953335.000000 0 0 1
18.191543 26.383856 9.528935 33.434125 0.967155 1.281783 0.086614 -0.039098 739310.000000 0 0 1
19.607743 26.223356 9.626035 34.128998 0.928756 1.284868 0.092944 -0.042303 1017920.000000 0 0 1
20.395943 27.028956 10.714935 35.515754 0.924360 1.264326 0.095343 -0.048336 -785444.000000 0 0 1
20.605443 28.475356 10.616435 36.717010 0.944391 1.277466 0.103723 -0.058094 -766063.000000 0 0 1
19.455043 29.128156 10.970835 36.705686 0.981932 1.267271 0.081437 -0.036145 -1071340.000000 0 0 1
19.596143 30.652756 11.315135 38.100296 1.001984 1.269265 0.081776 -0.031399 -986835.000000 0 0 1
19.809943 31.570256 10.199335 38.641187 1.010410 1.303681 0.104436 -0.054553 -614073.000000 0 0 1
18.948643 31.554956 9.142735 37.925663 1.030012 1.327328 0.111357 -0.053301 -661457.000000 0 0 1
17.473943 31.936556 9.351335 37.586297 1.070147 1.319359 0.095838 -0.036195 -396785.000000 0 0 1
17.367143 33.236456 9.819135 38.764611 1.089285 1.314705 0.081949 -0.032294 -484497.000000 0 0 1
16.064343 33.742656 9.747735 38.621863 1.126464 1.315648 0.097872 -0.017698 -180268.000000 0 0 1
15.984543 -32.460790 9.959835 37.528746 -1.113226 1.302186 0.094688 -0.026383 475807.000000 0 0 1
16.799443 -31.800590 8.933735 37.058203 -1.084786 1.327325 0.107429 -0.033011 714274.000000 0 0 1
16.816943 -30.397090 9.131235 35.918966 -1.065468 1.313758 0.090434 -0.019369 243110.000000 0 0 1
17.723743 -29.730390 8.042135 35.534534 -1.033213 1.342500 0.076728 -0.014198 374077.000000 0 0 1
17.141143 -29.832290 6.746035 35.061279 -1.049275 1.377182 0.085908 -0.015500 118208.000000 0 0 1
17.912543 -29.096790 5.831135 34.662437 -1.018971 1.401766 0.067105 -0.009907 163538.000000 0 0 1
17.475643 -29.388190 4.378335 34.470765 -1.034321 1.443436 0.085593 -0.019644 82690.500000 0 0 1
17.703243 -30.678490 3.910835 35.635224 -1.047417 1.460828 0.091683 -0.030330 -170602.000000 0 0 1
17.498443 -30.866690 2.530535 35.571782 -1.055068 1.499597 0.088015 -0.027568 -125550.000000 0 0 1
17.727843 -32.297990 1.996535 36.897462 -1.068811 1.516660 0.103117 -0.033461 176535.000000 0 0 1
19.117243 -32.591390 1.953035 37.834931 -1.040308 1.519153 0.087424 -0.021086 229035.000000 0 0 1
19.310143 33.843756 1.386935 38.989807 1.052300 1.535217 0.115450 -0.028117 552558.000000 0 0 1
20.774443 33.352456 1.634035 39.327266 1.013726 1.529235 0.114397 -0.026183 685414.000000 0 0 1
21.007443 33.083356 3.032935 39.306740 1.005049 1.493559 0.100852 -0.046423 1380.730000 0 0 1
22.357243 32.730256 3.246135 39.770006 0.971519 1.489083 0.073470 -0.026847 76150.500000 0 0 1
22.576043 32.354456 4.719835 39.733681 0.961567 1.451728 0.078581 -0.019303 -100286.000000 0 0 1
21.913943 31.122956 4.981535 38.388474 0.957318 1.440663 0.088439 -0.036335 84963.600000 0 0 1
22.497343 30.370156 6.032735 38.273629 0.933228 1.412515 0.068094 -0.038121 161853.000000 0 0 1
21.424043 29.670056 6.901235 37.241494 0.945407 1.384409 0.086063 -0.053916 -403336.000000 0 0 1
20.709843 28.822156 6.073635 36.006990 0.947736 1.401307 0.099882 -0.047937 -45197.300000 0 0 1
19.596943 28.273356 6.810835 35.068651 0.964700 1.375340 0.107808 -0.051751 712295.000000 0 0 1
18.239143 28.533456 6.113435 34.412186 1.002037 1.392195 0.104511 -0.045866 -130800.000000 0 0 1
17.823843 29.932856 6.017435 35.353568 1.033721 1.399756 0.098548 -0.052459 391135.000000 0 0 1
18.368543 30.490156 4.822935 35.920936 1.028583 1.436124 0.110874 -0.053056 -267288.000000 0 0 1
18.339743 32.050856 4.966535 37.259495 1.051063 1.437103 0.118669 -0.053666 -1095510.000000 0 0 1
17.111143 32.609456 5.167035 37.186907 1.087561 1.431398 0.116651 -0.045503 -1417550.000000 0 0 1
17.143143 -33.727190 5.415335 38.219583 -1.100540 1.428628 0.115125 -0.045776 -790389.000000 0 0 1
15.801543 -33.073190 5.686535 37.092605 -1.125086 1.416883 0.107848 -0.042391 -114474.000000 0 0 1
14.951943 -33.081190 4.524635 36.584123 -1.146299 1.446801 0.110147 -0.036851 648671.000000 0 0 1
13.834543 -32.169690 4.574835 35.315898 -1.164657 1.440891 0.106728 -0.033883 401383.000000 0 0 1
12.850643 -32.334690 3.431635 34.963514 -1.192511 1.472489 0.094795 -0.033689 -961569.000000 0 0 1
11.770643 -31.495490 3.599535 33.815242 -1.213144 1.464147 0.091884 -0.031562 -831786.000000 0 0 1
11.131143 -31.326490 2.358335 33.328862 -1.229384 1.499978 0.083994 -0.024395 -597714.000000 0 0 1
10.095043 -30.165090 2.364535 31.897235 -1.247852 1.496598 0.078779 -0.022745 235003.000000 0 0 1
9.578843 -29.845690 1.032035 31.362151 -1.260236 1.537883 0.075123 -0.011438 181467.000000 0 0 1
8.558143 -30.694090 0.563035 31.869829 -1.298882 1.553129 0.055402 -0.013026 -995231.000000 0 0 1
8.929043 -31.260090 -0.804165 32.520266 -1.292568 1.595527 0.066612 -0.005827 310274.000000 0 0 1
10.156643 -31.978090 -0.845765 33.562940 -1.263261 1.595998 0.069185 -0.015682 132791.000000 0 0 1
10.223743 -32.788490 -2.023865 34.405029 -1.268541 1.629655 0.064736 0.000128 -1387310.000000 0 0 1
11.464743 -33.582190 -2.027265 35.543123 -1.241809 1.627864 0.074204 -0.009277 -1436320.000000 0 0 1
11.636043 33.218256 -0.993665 35.211325 1.233863 1.599020 0.074489 -0.009414 63824.800000 0 0 1
12.877543 32.537556 -1.053265 35.009042 1.193938 1.600886 0.095592 -0.016377 -60677.600000 0 0 1
13.177543 31.617256 0.152135 34.253783 1.175906 1.566355 0.089987 -0.022354 -516772.000000 0 0 1
13.462843 32.245656 1.366835 34.969969 1.175288 1.531700 0.085468 -0.027682 111111.000000 0 0 1
14.761043 32.720356 1.652235 35.933827 1.147005 1.524800 0.104060 -0.031300 -431425.000000 0 0 1
15.933743 31.772556 1.742735 35.586747 1.105954 1.521805 0.093518 -0.035731 -1008190.000000 0 0 1
16.547243 31.348956 0.536535 35.452167 1.085125 1.555662 0.099714 -0.034505 -589796.000000 0 0 1
17.356443 30.281756 0.779435 34.911866 1.050342 1.548469 0.093986 -0.028045 -468303.000000 0 0 1
18.129343 29.781956 -0.471865 34.869193 1.023978 1.584329 0.095317 -0.022124 427371.000000 0 0 1
19.107943 30.593256 -1.141165 36.088267 1.012499 1.602423 0.091005 -0.015643 131076.000000 0 0 1
18.692743 31.787656 -1.823465 36.921521 1.039210 1.620204 0.094042 -0.021333 -521943.000000 0 0 1
19.764343 32.637156 -2.481665 38.235741 1.026285 1.635746 0.093143 -0.016521 -452255.000000 0 0 1
20.674043 33.349156 -1.707565 39.274649 1.015853 1.614288 0.082763 -0.016144 -40222.100000 0 0 1
21.637643 -33.716790 -2.539965 40.143006 -1.000245 1.634112 0.078779 -0.007183 -185993.000000 0 0 1
22.674543 -32.936190 -1.681065 40.021913 -0.967872 1.612812 0.070259 -0.002941 286256.000000 0 0 1
23.661343 -33.679990 -0.896265 41.170428 -0.958372 1.592568 0.062916 -0.008298 1287010.000000 0 0 1
24.559443 33.145556 -1.539665 41.281529 0.933108 1.608102 0.066113 -0.007569 494683.000000 0 0 1
25.507843 33.801356 -2.643265 42.428393 0.924332 1.633136 0.052543 -0.012112 -506990.000000 0 0 1
24.822943 -33.620990 -3.857365 41.969378 -0.934814 1.662835 0.074533 -0.028399 105849.000000 0 0 1
25.584243 -32.849090 -4.732965 41.904858 -0.909091 1.683983 0.070433 -0.027769 -36085.100000 0 0 1
24.681643 -32.448290 -5.929465 41.197495 -0.920517 1.715226 0.076181 -0.031947 317299.000000 0 0 1
23.651443 -31.510690 -5.652365 39.802808 -0.926921 1.713287 0.088591 -0.032699 251823.000000 0 0 1
22.965243 -31.238290 -6.843965 39.370966 -0.936859 1.745517 0.099218 -0.037130 -358708.000000 0 0 1
21.852343 -30.199990 -6.841265 37.899435 -0.944414 1.752302 0.115549 -0.043728 36491.800000 0 0 1
20.707443 -30.514790 -6.077865 37.375006 -0.974575 1.734140 0.122547 -0.038384 -172764.000000 0 0 1
19.916343 -29.340190 -5.967365 35.959935 -0.974436 1.737512 0.125650 -0.043900 830362.000000 0 0 1
18.726543 -29.333290 -4.920165 35.147309 -1.002615 1.711245 0.114259 -0.030217 1012520.000000 0 0 1
17.548743 -29.979390 -5.340565 35.146036 -1.041211 1.723341 0.107214 -0.033467 -266460.000000 0 0 1
16.540643 -29.884390 -4.339065 34.431049 -1.065279 1.697154 0.081746 -0.023957 1016830.000000 0 0 1
15.163543 -30.540090 -4.698865 34.419609 -1.109942 1.707741 0.068503 -0.019762 645033.000000 0 0 1
15.117143 -31.977590 -4.681265 35.679245 -1.129192 1.702380 0.077374 -0.009362 -148020.000000 0 0 1
13.796143 -32.467490 -4.788565 35.600587 -1.168992 1.705713 0.068345 -0.000953 18046.700000 0 0 1
13.680843 33.725456 -4.967565 36.732119 1.185426 1.706450 0.075748 -0.007193 -86973.600000 0 0 1
14.078143 32.915656 -3.877065 36.009251 1.166638 1.678674 0.095012 -0.017341 -102057.000000 0 0 1
14.549143 31.579956 -4.176765 35.020230 1.139073 1.690348 0.094324 -0.019551 640758.000000 0 0 1
13.506543 30.501956 -4.702365 33.688399 1.153938 1.710838 0.087199 -0.020050 1625760.000000 0 0 1
12.527143 29.901356 -3.754965 32.636179 1.174062 1.686107 0.079989 -0.017465 969639.000000 0 0 1
13.083343 29.019356 -2.788065 31.954189 1.147237 1.658159 0.088315 -0.019749 -240783.000000 0 0 1
12.098943 28.186756 -1.940765 30.735065 1.165338 1.633983 0.069027 -0.011163 -16953.900000 0 0 1
11.223043 28.965256 -1.170265 31.085564 1.201142 1.608452 0.059334 -0.006951 -520171.000000 0 0 1
10.362043 28.192056 -0.397365 30.038673 1.218571 1.584025 0.041494 -0.002651 -81742.700000 0 0 1
9.235643 29.053756 0.224335 30.487180 1.263017 1.563438 0.019586 0.007832 369779.000000 0 0 1
8.233743 28.333956 0.925035 29.520557 1.287989 1.539456 0.011965 -0.002622 557099.000000 0 0 1
7.053043 29.138856 1.084235 29.999898 1.333314 1.534647 0.022551 -0.001453 496704.000000 0 0 1
5.925943 28.370756 1.782435 29.037797 1.364882 1.509374 0.022407 -0.009099 -188848.000000 0 0 1
5.575143 27.182056 1.146135 27.771568 1.368498 1.529515 0.034242 -0.015617 -226532.000000 0 0 1
4.371743 26.658356 1.653835 27.065019 1.408252 1.509652 0.040432 -0.024098 26294.300000 0 0 1
3.698243 25.765056 0.568835 26.035335 1.428233 1.548946 0.046788 -0.026300 438823.000000 0 0 1
2.509243 25.152956 1.077035 25.300741 1.471366 1.528214 0.069404 -0.033930 428385.000000 0 0 1
1.865743 24.397156 0.069035 24.468490 1.494471 1.567975 0.054167 -0.031616 -540797.000000 0 1 0
0.547943 23.757356 0.430735 23.767577 1.547736 1.552673 0.054662 -0.027653 -662492.000000 0 1 0
-0.469957 24.648356 0.704935 24.662912 -1.551732 1.542210 0.065851 -0.035532 -1527.910000 0 1 0
-1.799657 24.130356 0.669435 24.206631 -1.496354 1.543138 0.058763 -0.028388 510454.000000 0 1 0
-2.874057 25.028256 1.265035 25.224475 -1.456465 1.520624 0.101922 -0.045545 -1272400.000000 0 0 1
-4.154157 24.698856 0.871835 25.060938 -1.404164 1.536001 0.101400 -0.029807 -755535.000000 0 0 1
-5.081057 25.117056 1.878835 25.694623 -1.371195 1.497609 0.109283 -0.041362 157735.000000 0 0 1
-6.451357 25.455156 1.256435 26.289991 -1.322583 1.522987 0.115575 -0.044645 -46561.500000 0 0 1
-6.345357 26.581056 0.453635 27.331701 -1.336465 1.554198 0.127191 -0.043926 532184.000000 0 0 1
-7.573257 26.754356 -0.266965 27.806853 -1.294946 1.580397 0.118272 -0.035048 383379.000000 0 0 1
-7.565657 27.857356 -1.342565 28.897646 -1.305607 1.617272 0.117955 -0.029744 -144229.000000 0 0 1
-7.497657 29.169756 -0.789665 30.128277 -1.319207 1.597009 0.146454 -0.046240 28161.800000 0 0 1
-7.500357 30.168756 -1.837165 31.141361 -1.327123 1.629825 0.139012 -0.045252 -17809.800000 0 0 1
-6.973857 31.503256 -1.355065 32.294365 -1.352940 1.612768 0.117361 -0.042867 -650775.000000 0 0 1
-7.302457 32.569756 -2.232365 33.452927 -1.350234 1.637577 0.122983 -0.026271 -149403.000000 0 0 1
-6.598457 32.749556 -3.462465 33.586630 -1.371976 1.674070 0.106637 -0.030188 -13253.800000 0 0 1
-5.085457 33.092456 -3.488465 33.662173 -1.418315 1.674614 0.124554 -0.036303 -160109.000000 0 0 1
-4.760557 -33.430290 -2.822865 33.885333 1.429345 1.654199 0.133947 -0.038886 3636.510000 0 0 1
-4.512557 -33.661290 -1.396965 33.991133 1.437533 1.611906 0.145391 -0.044888 -587517.000000 0 0 1
-4.291157 -32.415890 -0.545265 32.703230 1.439183 1.587470 0.146454 -0.036512 -607120.000000 0 0 1
-5.360557 -31.561790 -0.361665 32.015824 1.402559 1.582093 0.139210 -0.032266 -708076.000000 0 0 1
-5.517857 -30.697390 -1.464865 31.223746 1.392946 1.617729 0.149644 -0.030365 -41761.200000 0 0 1
-6.908457 -30.028890 -1.538165 30.851693 1.344671 1.620674 0.157476 -0.035630 12989.300000 0 0 1
-7.271957 -29.223390 -0.422265 30.117540 1.326909 1.584817 0.150015 -0.027052 -79442.100000 0 0 1
-8.473757 -28.515590 -0.668765 29.755515 1.281945 1.593274 0.119158 -0.023364 195686.000000 0 0 1
-8.805957 -27.568990 0.522035 28.945926 1.261624 1.552761 0.123720 -0.019260 -119654.000000 0 0 1
-7.905357 -26.523590 0.808935 27.688443 1.281129 1.541577 0.133267 -0.035256 -544083.000000 0 0 1
-7.573757 -26.473290 2.174135 27.621074 1.292149 1.492002 0.134209 -0.019827 512014.000000 0 0 1
-8.477557 -25.468490 3.011535 27.010781 1.249468 1.459070 0.110174 -0.020328 585769.000000 0 0 1
-8.247357 -24.076990 2.758935 25.599455 1.240782 1.462813 0.110973 -0.029035 163978.000000 0 0 1
-9.319357 -23.383790 3.386435 25.399213 1.191550 1.437070 0.094806 -0.027726 513560.000000 0 0 1
-8.750157 -22.018490 3.828135 24.000704 1.192533 1.410611 0.059791 -0.003372 220423.000000 0 1 0
-8.007857 -22.075390 5.005935 24.010581 1.222808 1.360767 0.051122 -0.006004 -682899.000000 0 1 0
-7.488557 -20.806890 5.372335 22.756695 1.225323 1.332469 0.038464 -0.004741 115687.000000 0 1 0
-8.436657 -19.643490 5.819035 22.156377 1.165130 1.305045 0.046347 -0.011851 107844.000000 0 1 0
-8.831257 -19.780490 7.179135 22.821018 1.150888 1.250778 0.062049 -0.013572 -182217.000000 0 1 0
-9.564657 -18.737390 7.722235 22.409939 1.098817 1.218995 0.051411 -0.017917 -734056.000000 0 1 0
-28.172867 28.824256 -5.268965 40.648618 -0.796826 1.700784 0.177950 -0.014054 -367028.000000 0 0 1
-27.094947 29.730856 -5.137165 40.551824 -0.831751 1.697819 0.167928 -0.026133 25139.000000 0 0 1
-26.021457 28.948156 -4.607965 39.196241 -0.838590 1.688630 0.146660 -0.019980 -290239.000000 0 0 1
-25.141937 29.780156 -3.705365 39.149769 -0.869649 1.665584 0.118118 -0.019749 -538516.000000 0 0 1
-25.724227 30.107656 -2.392465 39.672796 -0.863749 1.631138 0.096940 -0.025262 398379.000000 0 0 1
-25.139237 31.224256 -1.738865 40.124295 -0.892942 1.614147 0.090986 -0.023216 -154427.000000 0 0 1
-23.778457 31.056756 -1.042465 39.128300 -0.917357 1.597442 0.077212 -0.011156 197958.000000 0 0 1
-22.753557 30.529156 -1.885165 38.122271 -0.930306 1.620267 0.098298 -0.026350 -667600.000000 0 0 1
-21.572357 30.491956 -1.167465 37.369626 -0.955070 1.602042 0.077683 -0.019169 -746785.000000 0 0 1
-20.534757 29.522856 -1.831865 36.008763 -0.963060 1.621691 0.089076 -0.025903 -35754.100000 0 0 1
-19.381057 29.569856 -1.003765 35.369610 -0.990611 1.599179 0.092396 -0.026992 6149.900000 0 0 1
-18.362957 28.739656 -1.589865 34.142257 -1.002234 1.617379 0.094976 -0.027090 155025.000000 0 0 1
-16.991057 29.229156 -1.086165 33.826311 -1.044237 1.602912 0.108368 -0.031414 -302895.000000 0 0 1
-16.575657 28.612956 0.142235 33.067717 -1.045732 1.566495 0.096083 -0.036473 -373740.000000 0 0 1
-15.452557 29.283256 0.615635 33.116002 -1.085241 1.552205 0.109507 -0.043168 -307666.000000 0 0 1
-14.839157 28.550856 1.877435 32.231611 -1.091478 1.512515 0.102369 -0.039856 47458.500000 0 0 1
-15.662957 28.650256 3.033235 32.792772 -1.070494 1.478167 0.079467 -0.035405 -16474.900000 0 0 1
-15.185957 27.926356 4.149235 32.057929 -1.072737 1.441003 0.081905 -0.042410 1152600.000000 0 0 1
-13.894157 28.532456 4.865735 32.106448 -1.117635 1.418660 0.096302 -0.038842 985412.000000 0 0 1
-14.173557 29.705656 5.563635 33.380679 -1.125609 1.403343 0.076128 -0.035430 -229737.000000 0 0 1
-14.142757 30.885556 4.793235 34.306126 -1.141385 1.430618 0.083952 -0.037866 -110074.000000 0 0 1
-13.968357 32.180756 5.611635 35.527546 -1.161277 1.412180 0.088240 -0.037464 63503.400000 0 0 1
-15.101157 32.560556 6.368835 36.452665 -1.136537 1.395180 0.086009 -0.034987 12203.600000 0 0 1
-14.921357 33.810156 7.010235 37.615382 -1.155178 1.383334 0.114942 -0.048378 760250.000000 0 0 1
-16.140657 -33.483290 7.922735 38.005542 1.121611 1.360794 0.095573 -0.038513 762862.000000 0 0 1
-16.181857 33.464556 9.113635 38.272540 -1.120393 1.330362 0.075635 -0.036531 87491.400000 0 0 1
-17.364657 33.683656 9.860535 39.158015 -1.094809 1.316242 0.082827 -0.037780 -530878.000000 0 0 1
-17.470557 32.941356 11.239635 38.944611 -1.083162 1.278026 0.076734 -0.032277 285192.000000 0 0 1
-16.562957 33.295356 12.267535 39.158712 -1.109186 1.252154 0.086504 -0.036234 872959.000000 0 0 1
-15.172357 32.960856 12.089935 38.246372 -1.139398 1.249173 0.092360 -0.037607 650283.000000 0 0 1
-14.391257 33.085656 13.412435 38.492367 -1.160512 1.214886 0.094089 -0.032510 -293959.000000 0 0 1
-14.723557 32.157056 14.442335 38.202623 -1.141422 1.183112 0.078564 -0.032308 479222.000000 0 0 1
-14.069757 30.821756 14.441335 36.830570 -1.142560 1.167881 0.065677 -0.034883 220387.000000 0 0 1
-14.873557 29.701056 13.738835 35.946224 -1.106529 1.178615 0.067241 -0.036631 44704.400000 0 0 1
-14.877457 29.812256 12.322535 35.523995 -1.107918 1.216555 0.071450 -0.031450 1216760.000000 0 0 1
-16.179557 29.558656 11.742935 35.684573 -1.069974 1.235471 0.057667 -0.030001 974402.000000 0 0 1
-16.019457 29.420956 10.196535 35.016924 -1.072192 1.275327 0.051110 -0.028334 -160458.000000 0 0 1
-15.424157 28.219556 9.840435 33.631564 -1.070585 1.273857 0.048162 -0.022558 -16415.100000 0 0 1
-15.286557 28.153756 8.454735 33.132995 -1.073369 1.312767 0.035443 -0.020819 -703367.000000 0 0 1
-14.851657 26.773356 8.041735 31.655234 -1.064338 1.313940 0.045171 -0.024467 307394.000000 0 0 1
-13.441057 26.692856 8.177135 30.984450 -1.104317 1.303722 0.068331 -0.030333 274296.000000 0 0 1
-12.789557 25.476856 7.991635 29.605898 -1.105544 1.297472 0.073795 -0.034176 150937.000000 0 0 1
-11.415757 25.520456 7.302335 28.895281 -1.150175 1.315309 0.117979 -0.041558 -12877.300000 0 0 1
-11.640157 25.950056 5.957135 29.058323 -1.149141 1.364326 0.125236 -0.037198 435921.000000 0 0 1
-10.572657 25.587456 5.114935 28.154246 -1.178965 1.388106 0.158033 -0.034967 -108177.000000 0 0 1
-10.951957 25.993356 3.678535 28.445238 -1.172033 1.441113 0.148855 -0.036168 36747.400000 0 0 1
-10.574357 27.341456 3.394235 29.510898 -1.201763 1.455525 0.148473 -0.033978 160159.000000 0 0 1
-10.811657 27.686056 2.041635 29.792246 -1.198498 1.502214 0.149540 -0.041849 -48276.500000 0 0 1
-10.321557 29.113956 1.555235 30.928559 -1.230098 1.520490 0.168166 -0.035116 -175930.000000 0 0 1
-11.137557 30.137356 2.001435 32.191787 -1.216804 1.508584 0.139160 -0.037499 -326238.000000 0 0 1
-10.641157 31.429956 1.734235 33.227758 -1.244343 1.518580 0.137270 -0.038354 -494633.000000 0 0 1
-11.176057 32.415256 2.729035 34.396231 -1.238781 1.491372 0.122999 -0.038890 1540610.000000 0 0 1
-12.570657 32.853856 2.615335 35.273747 -1.205359 1.496584 0.134253 -0.042824 1460860.000000 0 0 1
-12.837257 33.663556 1.471435 36.058221 -1.206479 1.529978 0.132285 -0.038499 -438526.000000 0 0 1
-14.336957 33.826156 1.154335 36.757172 -1.169907 1.539387 0.133036 -0.040339 271966.000000 0 0 1
-15.032957 32.739956 0.508635 36.029894 -1.140349 1.556679 0.112095 -0.033796 247428.000000 0 0 1
-15.308357 32.953056 -0.866365 36.345568 -1.135908 1.594635 0.110030 -0.033714 317790.000000 0 0 1
-14.095257 32.700456 -1.821565 35.655493 -1.163820 1.621906 0.124695 -0.029641 362745.000000 0 0 1
-13.820957 31.355156 -2.153765 34.333706 -1.155630 1.633568 0.123075 -0.027937 -384278.000000 0 0 1
-12.457257 31.068356 -2.065565 33.536436 -1.189460 1.632427 0.127036 -0.024781 -649909.000000 0 0 1
-12.212857 29.507556 -2.162165 32.008197 -1.178374 1.638398 0.104602 -0.020631 -45417.800000 0 0 1
-12.142057 29.106856 -3.513565 31.733007 -1.175590 1.681747 0.093529 -0.027528 990931.000000 0 0 1
-10.893257 29.438156 -4.208165 31.669808 -1.216382 1.704067 0.073226 -0.019803 1250490.000000 0 0 1
-10.799957 28.832656 -5.657065 31.304369 -1.212399 1.752506 0.070386 -0.015786 75938.200000 0 0 1
-10.946357 27.453956 -5.624765 30.086216 -1.191397 1.758858 0.067592 -0.010990 1235.020000 0 0 1
-10.677757 26.941756 -6.926465 29.796789 -1.193460 1.805399 0.050762 -0.003173 120278.000000 0 0 1
-11.179557 25.469756 -7.182065 28.727566 -1.157182 1.823483 0.072672 -0.015127 455091.000000 0 0 1
-10.545757 24.526756 -6.312465 27.433957 -1.164724 1.802973 0.037627 -0.012347 361729.000000 0 0 1
-10.988457 23.218356 -6.741065 26.557112 -1.128764 1.827437 0.096190 -0.026614 138230.000000 0 0 1
-10.417157 22.169556 -5.720865 25.154218 -1.131529 1.800236 0.076358 -0.034032 15509.800000 0 0 1
-9.024357 21.976756 -5.917565 24.483350 -1.181158 1.814911 0.067660 -0.030054 260869.000000 0 1 0
-8.542857 20.742356 -5.337165 23.058861 -1.180111 1.804373 0.071630 -0.026418 -74404.800000 0 1 0
-8.455657 20.653256 -3.772565 22.633766 -1.182204 1.738257 0.078231 -0.038666 299415.000000 0 1 0
-9.737057 20.629656 -3.124865 23.025155 -1.129804 1.706932 0.095127 -0.038701 443232.000000 0 1 0
-10.241757 19.313956 -3.064065 22.075121 -1.083221 1.710048 0.090901 -0.040885 144377.000000 0 1 0
-11.626957 19.101756 -2.374665 22.487825 -1.024015 1.676591 0.090286 -0.044893 406474.000000 0 1 0
-11.669757 19.245856 -0.936265 22.526935 -1.025720 1.612370 0.102552 -0.041076 283472.000000 0 1 0
-11.202957 18.079156 -0.192065 21.269674 -1.016045 1.579826 0.082720 -0.027410 -191142.000000 0 1 0
-11.143657 18.132656 1.333835 21.324948 -1.019738 1.508207 0.095155 -0.032584 443023.000000 0 1 0
-12.446257 18.221356 1.913935 22.149273 -0.971531 1.484278 0.121024 -0.030265 576752.000000 0 1 0
-12.418557 18.407556 3.310335 22.450323 -0.977291 1.422805 0.125010 -0.022597 944265.000000 0 1 0
-13.809157 18.236656 4.053735 23.231470 -0.922691 1.395405 0.113292 -0.025971 932195.000000 0 1 0
-14.154257 16.906156 4.292835 22.463071 -0.873766 1.378507 0.095595 -0.029235 338353.000000 0 1 0
-15.305057 16.800256 5.115735 23.295152 -0.831936 1.349387 0.108712 -0.032199 116378.000000 0 1 0
-15.458057 15.457756 5.868135 22.634681 -0.785388 1.308546 0.083009 -0.031682 -707236.000000 0 1 0
-14.703957 15.236956 7.016435 22.306984 -0.803198 1.250824 0.087459 -0.020335 -472490.000000 0 1 0
-15.104057 15.933256 8.177635 23.428079 -0.812108 1.214236 0.075651 -0.018393 -617259.000000 0 1 0
-13.971157 16.024456 9.264735 23.190768 -0.853745 1.159824 0.063209 -0.005730 711898.000000 0 1 0
-12.835157 16.807756 8.980735 22.975977 -0.918620 1.169214 0.063350 -0.018726 -48589.700000 0 1 0
-12.025157 16.286556 7.948635 21.749416 -0.934794 1.196665 0.063764 -0.024620 -1668920.000000 0 1 0
-10.838557 17.165556 7.622535 21.684872 -1.007599 1.211609 0.079910 -0.026897 -204511.000000 0 1 0
-9.776957 17.202956 8.560935 21.559689 -1.053989 1.162463 0.064457 -0.029867 -354387.000000 0 1 0
-9.097757 18.362856 8.433035 22.160319 -1.110801 1.180409 0.065717 -0.035008 -1262850.000000 0 1 0
-7.932457 18.494956 9.380235 22.203065 -1.165628 1.134622 0.069947 -0.028976 -651582.000000 0 1 0
-6.863657 17.673656 8.981735 20.979501 -1.200369 1.128385 0.051431 -0.024994 989353.000000 0 1 0
-5.576757 17.836456 9.656235 21.035262 -1.267765 1.093871 0.046101 -0.023384 1707040.000000 0 1 0
-4.635257 18.859656 8.998335 21.404258 -1.329797 1.136911 0.041674 -0.024236 -910972.000000 0 1 0
-4.852557 20.212856 9.304235 22.774452 -1.335182 1.149944 0.050957 -0.027961 -15698.600000 0 1 0
-4.312857 21.073656 8.314935 23.061610 -1.368928 1.201936 0.057256 -0.036296 707829.000000 0 1 0
-2.882957 21.694656 8.563635 23.501178 -1.438682 1.197817 0.064575 -0.028031 772466.000000 0 1 0
-1.863757 20.704356 8.465935 22.445846 -1.481021 1.184056 0.052329 -0.012749 856074.000000 0 1 0
-0.664557 21.426356 8.035435 22.893199 -1.539790 1.212161 0.046768 -0.020802 1063270.000000 0 1 0
0.604943 20.574856 7.836035 22.024852 1.541403 1.207046 0.036953 -0.012282 176047.000000 0 1 0
1.030743 20.119656 9.072935 22.094821 1.519610 1.147645 0.031801 -0.006856 -923359.000000 0 1 0
2.381443 19.777056 9.114635 21.906159 1.450959 1.141670 0.026379 -0.002126 -524363.000000 0 1 0
2.884443 19.038256 10.395435 21.882419 1.420432 1.075766 0.017538 -0.020783 -532403.000000 0 1 0
4.282843 19.055556 10.431935 22.142317 1.349715 1.080224 0.037811 0.000552 -477317.000000 0 1 0
4.733743 18.443456 11.623435 22.308600 1.319557 1.022740 0.035456 -0.007035 565861.000000 0 1 0
6.281643 18.552756 11.809935 22.872218 1.244329 1.028220 0.048042 -0.009633 337193.000000 0 1 0
7.044443 17.668456 11.072835 22.009230 1.191410 1.043615 0.038239 -0.010219 -286008.000000 0 1 0
7.698343 16.718956 11.906935 21.921749 1.139281 0.996605 0.042085 -0.010753 852661.000000 0 1 0
9.018943 16.064556 11.312835 21.619240 1.059229 1.020105 0.045963 -0.018813 1341880.000000 0 1 0
10.075843 16.970256 11.016335 22.602474 1.034996 1.061692 0.060125 -0.025722 -529103.000000 0 1 0
11.140343 16.332956 10.429735 22.352898 0.972200 1.085360 0.065418 -0.031386 -475392.000000 0 1 0
12.212943 17.273156 9.868835 23.343346 0.955356 1.134298 0.071791 -0.029073 662466.000000 0 1 0
13.281643 16.740756 9.065935 23.213059 0.900110 1.169564 0.075784 -0.027405 532389.000000 0 1 0
14.004443 17.794556 8.420035 24.159214 0.904028 1.214802 0.087017 -0.025171 149922.000000 0 1 0
15.019643 17.241056 7.429835 24.042590 0.854148 1.256625 0.087905 -0.029233 106315.000000 0 1 0
16.281243 16.796556 7.900135 24.690389 0.800976 1.245101 0.104144 -0.030751 636896.000000 0 1 0
17.183343 16.531956 6.828035 24.803123 0.766080 1.291906 0.114437 -0.024548 1303470.000000 0 1 0
18.724743 16.517556 7.193535 25.984468 0.722851 1.290293 0.106289 -0.021875 949083.000000 0 0 1
19.025843 15.309856 7.866335 25.656454 0.677593 1.259175 0.109382 -0.022502 -781343.000000 0 0 1
20.026043 15.451856 8.775035 26.773186 0.657175 1.236870 0.108240 -0.024585 -983365.000000 0 0 1
20.219343 14.369756 9.807135 26.673800 0.617867 1.194295 0.090560 -0.024475 8557.310000 0 0 1
20.721843 13.161556 9.247735 26.232459 0.565868 1.210523 0.102570 -0.033547 367528.000000 0 0 1
20.693943 12.201056 10.299335 26.137738 0.532734 1.165772 0.096135 -0.037948 -383774.000000 0 0 1
21.606243 10.963256 10.136735 26.263589 0.469559 1.174546 0.080293 -0.021914 -1412980.000000 0 0 1
22.963343 11.239556 10.304335 27.564870 0.455177 1.187671 0.090825 -0.034030 -281864.000000 0 0 1
23.714943 10.559056 9.354635 27.593502 0.418896 1.224926 0.107619 -0.038523 -554726.000000 0 0 1
23.996143 9.007456 9.574935 27.361077 0.359096 1.213281 0.124501 -0.048921 -1620270.000000 0 0 1
23.046643 8.072456 9.258735 26.115828 0.336912 1.208389 0.128332 -0.048172 -371611.000000 0 0 1
23.432943 6.758256 9.526135 26.182515 0.280789 1.198414 0.122633 -0.048951 117989.000000 0 0 1
24.470043 6.051356 8.584135 26.628730 0.242433 1.242571 0.136031 -0.051482 303181.000000 0 0 1
24.019643 5.843256 7.276835 25.768958 0.238634 1.284514 0.119322 -0.031060 232415.000000 0 0 1
25.003943 5.272356 6.437235 26.352094 0.207817 1.324021 0.156860 -0.044865 -242553.000000 0 0 1
24.524043 5.160556 4.979635 25.551062 0.207402 1.374651 0.161894 -0.047192 -137574.000000 0 0 1
23.630543 4.052756 4.855435 24.462269 0.169853 1.370983 0.137035 -0.043438 466303.000000 0 1 0
23.317943 3.738456 3.535235 23.878869 0.158972 1.422201 0.157873 -0.041220 -700543.000000 0 1 0
22.356943 2.608356 3.328635 22.753378 0.116144 1.423978 0.151859 -0.030234 -444308.000000 0 1 0
22.896443 1.341456 3.817235 23.251191 0.058521 1.405876 0.175923 -0.029394 999890.000000 0 1 0
22.057443 0.229256 3.419835 22.322155 0.010393 1.416987 0.162728 -0.023738 376812.000000 0 1 0
22.709243 -1.166944 3.654135 23.030939 -0.051341 1.411461 0.187788 -0.029113 -230195.000000 0 1 0
22.936743 -1.458444 5.009835 23.522748 -0.063500 1.356174 0.182219 -0.024397 482453.000000 0 1 0
23.076643 -2.834044 5.288535 23.843906 -0.122198 1.347138 0.175033 -0.025203 -183443.000000 0 1 0
23.151743 -3.131744 6.838435 24.342868 -0.134454 1.286042 0.214174 -0.035501 25916.700000 0 1 0
22.974943 -4.516644 7.153535 24.483078 -0.194115 1.274288 0.187375 -0.035376 173526.000000 0 1 0
22.994543 -4.719444 8.521935 24.972896 -0.202431 1.222553 0.214489 -0.047686 -12417.200000 0 1 0
22.581143 -6.131344 8.927935 25.044149 -0.265133 1.206290 0.207356 -0.051150 606955.000000 0 0 1
21.242843 -6.433744 8.526735 23.777229 -0.294084 1.204019 0.214162 -0.054557 761443.000000 0 1 0
20.933043 -7.763644 8.811035 24.002100 -0.355154 1.194913 0.206695 -0.055658 -180112.000000 0 1 0
-27.730207 -32.994590 5.726335 43.478711 0.871874 1.438708 0.073345 -0.013008 55717.800000 0 0 1
-28.447597 33.549156 6.015335 44.395900 -0.867501 1.434885 0.077825 -0.016735 -3970.260000 0 0 1
-28.564667 33.343156 7.420535 44.528312 -0.862433 1.403368 0.082230 -0.021962 -245314.000000 0 0 1
-29.457547 32.153156 7.729335 44.286738 -0.829123 1.395369 0.105753 -0.028879 387316.000000 0 0 1
-30.846857 32.393556 7.459035 45.348741 -0.809851 1.405564 0.094960 -0.022207 306781.000000 0 0 1
-31.600467 31.259856 7.851335 45.137696 -0.779980 1.395965 0.112451 -0.032751 974075.000000 0 0 1
-33.148767 31.534156 7.787935 46.410082 -0.760441 1.402192 0.100872 -0.029737 708126.000000 0 0 1
-33.591267 31.725956 6.454435 46.653716 -0.756848 1.432003 0.083826 -0.025319 516881.000000 0 0 1
-35.023442 31.772156 6.455035 47.726081 -0.736761 1.435129 0.064978 -0.024551 705621.000000 0 0 1
-35.502915 31.812656 4.952635 47.927348 -0.730633 1.467275 0.046336 -0.016796 -146068.000000 0 0 1
-35.345657 30.557756 4.321335 46.922978 -0.712875 1.478571 0.058053 -0.023413 358128.000000 0 0 1
-36.042557 30.440256 3.073435 47.277068 -0.701330 1.505741 0.065355 -0.007182 285377.000000 0 0 1
-35.788889 29.028056 2.550635 46.151689 -0.681467 1.515502 0.075186 -0.019432 403717.000000 0 0 1
-36.431267 27.974556 3.325835 46.052950 -0.654842 1.498516 0.104257 -0.032882 535834.000000 0 0 1
-35.750769 26.765356 3.033935 44.762781 -0.642646 1.502966 0.098485 -0.034233 -247764.000000 0 0 1
-36.369197 25.569156 3.813535 44.621108 -0.612766 1.485227 0.111723 -0.038137 631032.000000 0 0 1
37.605368 25.416156 3.484735 45.522391 0.594344 1.494171 0.105546 -0.031171 345564.000000 0 0 1
37.087548 24.315356 4.183835 44.544666 0.580316 1.476733 0.104536 -0.027630 1113320.000000 0 0 1
35.596148 23.911256 3.813035 43.050821 0.591505 1.482110 0.128665 -0.023451 760493.000000 0 0 1
35.367268 22.917356 2.773535 42.234362 0.574955 1.505079 0.118926 -0.041630 256985.000000 0 0 1
35.834288 21.616156 3.066535 41.961388 0.542788 1.497651 0.104861 -0.033935 -1380760.000000 0 0 1
35.475238 20.589756 2.037335 41.068008 0.525882 1.521167 0.118608 -0.030584 -290935.000000 0 0 1
34.119318 20.213456 2.014535 39.708564 0.534838 1.520042 0.122035 -0.035053 126509.000000 0 0 1
33.694108 19.549356 3.186235 39.084810 0.525734 1.489185 0.113446 -0.038245 -1059490.000000 0 0 1
33.757128 18.046356 3.165335 38.408775 0.490938 1.488291 0.131685 -0.035043 -554466.000000 0 0 1
32.924838 17.388356 2.208635 37.299839 0.485892 1.511549 0.119858 -0.051623 481107.000000 0 0 1
32.876078 15.999256 2.319435 36.635945 0.452913 1.507444 0.117895 -0.041522 76134.800000 0 0 1
31.908368 15.365756 3.387435 35.577031 0.448786 1.475438 0.145946 -0.045322 -866765.000000 0 0 1
30.578188 15.603956 3.087135 34.467948 0.471851 1.481111 0.140467 -0.051306 -807000.000000 0 0 1
29.821158 14.680356 3.862535 33.462419 0.457452 1.455109 0.134402 -0.055030 -123995.000000 0 0 1
28.311158 14.994056 3.844535 32.266451 0.487059 1.451363 0.132750 -0.048343 -105568.000000 0 0 1
27.585858 14.377556 2.811835 31.234598 0.480458 1.480651 0.127605 -0.056717 -680619.000000 0 0 1
26.303658 14.913556 2.725335 30.359908 0.515783 1.480908 0.101622 -0.035898 -233215.000000 0 0 1
25.567358 14.476356 1.338335 29.411661 0.515199 1.525277 0.097843 -0.043639 82505.900000 0 0 1
26.131358 14.922956 0.123635 30.092487 0.518879 1.566688 0.117763 -0.045357 -198813.000000 0 0 1
27.375058 14.317556 -0.091965 30.893279 0.481889 1.573773 0.122369 -0.050896 -801380.000000 0 0 1
28.292458 14.934356 -1.167765 32.013464 0.485684 1.607282 0.143785 -0.045156 30335.400000 0 0 1
28.679158 16.297956 -1.028465 33.002655 0.516774 1.601964 0.113502 -0.041118 574956.000000 0 0 1
29.309558 16.714456 0.201735 33.741131 0.518275 1.564817 0.114818 -0.044096 -295358.000000 0 0 1
29.970458 18.103256 0.141035 35.013942 0.543382 1.566768 0.130552 -0.037448 -359640.000000 0 0 1
31.078638 18.182456 -0.703665 36.013589 0.529352 1.590336 0.138477 -0.039022 -369762.000000 0 0 1
31.588028 19.488456 -0.589365 37.120760 0.552795 1.586674 0.125381 -0.028574 -264397.000000 0 0 1
32.745768 19.811356 -1.534665 38.303138 0.544092 1.610873 0.113209 -0.026955 -166810.000000 0 0 1
33.195598 21.163356 -1.706865 39.404933 0.567563 1.614126 0.070781 -0.025980 857932.000000 0 0 1
32.254948 21.997056 -2.428365 39.117120 0.598526 1.632916 0.100144 -0.023676 152335.000000 0 0 1
32.774778 23.440256 -2.676265 40.383092 0.620849 1.637117 0.116020 -0.025623 -105410.000000 0 0 1
33.089338 24.198256 -1.507165 41.021110 0.631426 1.607546 0.126356 -0.024673 925792.000000 0 0 1
34.327568 23.879156 -0.847765 41.824810 0.607784 1.591067 0.140035 -0.016531 30592.700000 0 0 1
34.529298 24.827856 0.333535 42.530061 0.623389 1.562954 0.139704 -0.033111 -220632.000000 0 0 1
35.173008 26.075356 -0.004765 43.784298 0.637939 1.570905 0.153443 -0.025149 887193.000000 0 0 1
36.497358 26.022756 0.579035 44.828298 0.619400 1.557879 0.142958 -0.031144 995300.000000 0 0 1
37.390628 27.209156 0.067635 46.242857 0.629076 1.569334 0.108470 -0.030039 -49566.700000 0 0 1
-37.645097 27.263756 -1.306365 46.499165 -0.626804 1.598894 0.107405 -0.032465 946721.000000 0 0 1
36.579138 27.586856 -2.145465 45.865793 0.646164 1.617590 0.101000 -0.032186 701165.000000 0 0 1
36.826668 27.218756 -3.599665 45.934973 0.636491 1.649241 0.103354 -0.027237 33374.500000 0 0 1
37.580588 28.170556 -4.345665 47.167421 0.643248 1.663060 0.103449 -0.025881 357490.000000 0 0 1
-37.445817 27.834656 -5.710965 47.006089 -0.639220 1.692591 0.098060 -0.027511 143294.000000 0 0 1
36.708278 27.626056 -6.667365 46.423598 0.645153 1.714915 0.071397 -0.012046 50627.400000 0 0 1
35.893118 26.530356 -6.292965 45.075239 0.636520 1.710864 0.087971 -0.013352 -455360.000000 0 0 1
34.770558 26.575356 -7.148965 44.343534 0.652594 1.732721 0.066289 -0.009181 -9982.010000 0 0 1
33.564888 25.781456 -6.597865 42.834764 0.654990 1.725443 0.077388 -0.013214 -267623.000000 0 0 1
33.723938 24.364356 -6.641365 42.131147 0.625644 1.729092 0.063857 -0.011843 466094.000000 0 0 1
34.749368 23.809056 -5.791365 42.519756 0.600700 1.707425 0.071704 -0.017919 387572.000000 0 0 1
34.923558 22.275256 -5.901065 41.840943 0.567771 1.712304 0.070927 -0.017440 475960.000000 0 0 1
33.785678 21.567156 -5.398065 40.444448 0.568143 1.704664 0.065143 -0.010910 560436.000000 0 0 1
33.924938 20.219056 -5.687765 39.900656 0.537469 1.713832 0.065979 -0.019244 34562.000000 0 0 1
32.756448 19.296056 -5.231165 38.375614 0.532349 1.707537 0.089921 -0.015115 105054.000000 0 0 1
31.580678 19.418956 -5.993765 37.554764 0.551303 1.731082 0.063992 -0.016684 94145.300000 0 0 1
30.541078 18.623556 -5.433665 36.181750 0.547585 1.721544 0.099037 -0.028295 904458.000000 0 0 1
29.232258 18.462656 -6.277665 35.139773 0.563321 1.750409 0.057632 -0.024707 485616.000000 0 0 1
29.399058 17.472256 -7.310565 34.971827 0.536228 1.781391 0.032254 -0.015342 196379.000000 0 0 1
28.406358 17.604556 -8.312465 34.437460 0.554808 1.814583 0.057217 -0.022306 -236817.000000 0 0 1
28.351758 16.399056 -9.282665 34.042901 0.524396 1.846969 0.044083 -0.010933 20708.200000 0 0 1
27.477558 16.372356 -10.400465 33.633910 0.537358 1.885175 0.031708 -0.010848 377537.000000 0 0 1
27.837758 15.235656 -11.165065 33.641116 0.500769 1.909100 0.034304 -0.000706 80691.800000 0 0 1
27.235158 15.477156 -12.570365 33.753671 0.516768 1.952406 0.045459 0.002300 1441760.000000 0 0 1
25.780658 15.299756 -12.496865 32.479170 0.535596 1.965750 0.045081 -0.001562 1693850.000000 0 0 1
25.188258 15.376456 -13.761865 32.561829 0.548076 2.007150 0.037016 -0.011092 -545564.000000 0 0 1
25.216158 14.053656 -14.535365 32.320840 0.508451 2.037249 0.036318 -0.017169 -125982.000000 0 0 1
26.432658 13.522456 -15.077765 33.299868 0.472870 2.040686 0.059275 -0.020335 642494.000000 0 0 1
27.043958 14.187356 -16.175765 34.558821 0.483136 2.057896 0.071586 -0.026939 689402.000000 0 0 1
28.520058 13.831056 -16.567765 35.765663 0.451542 2.052434 0.109491 -0.023012 787441.000000 0 0 1
28.585758 12.496456 -16.968565 35.513929 0.412122 2.068945 0.107623 -0.029443 46710.700000 0 0 1
29.922058 12.052856 -17.091265 36.506332 0.382925 2.058018 0.105149 -0.019666 201183.000000 0 0 1
29.992658 10.627956 -17.694765 36.409033 0.340547 2.078303 0.070382 -0.012076 -196422.000000 0 0 1
29.315558 10.620956 -18.923565 36.473387 0.347588 2.116281 0.086761 -0.019389 -87406.800000 0 0 1
29.194058 9.481656 -19.675665 36.459932 0.314033 2.140820 0.093328 -0.018271 167878.000000 0 0 1
30.494798 8.967956 -20.363665 37.749646 0.286018 2.140568 0.077898 -0.017808 -217377.000000 0 0 1
30.989358 9.802556 -21.423165 38.927913 0.306361 2.153555 0.082757 -0.015969 305182.000000 0 0 1
31.557478 9.049756 -22.513265 39.807281 0.279276 2.171904 0.054060 -0.011562 -275407.000000 0 0 1
33.016718 8.611356 -22.260365 40.740434 0.255134 2.148850 0.037875 -0.002886 -41841.900000 0 0 1
34.036218 9.625156 -22.202665 41.762018 0.275595 2.131341 0.045072 -0.003953 -624136.000000 0 0 1
35.263838 9.015456 -22.173165 42.620019 0.250296 2.117943 0.029600 -0.004451 -1382650.000000 0 0 1
36.374328 10.046156 -22.101765 43.732197 0.269470 2.100629 0.053011 -0.010528 -576269.000000 0 0 1
36.348548 10.725656 -20.831365 43.245837 0.286935 2.073386 0.042842 -0.013765 43897.000000 0 0 1
37.408298 11.639656 -20.678665 44.299769 0.301656 2.056453 0.034003 -0.008334 -91390.200000 0 0 1
37.279788 12.455156 -19.322665 43.798161 0.322440 2.027704 0.045608 -0.016935 -83834.300000 0 0 1
37.452858 11.696556 -18.122965 43.219994 0.302703 2.003491 0.040745 -0.015341 161414.000000 0 0 1
37.591788 12.490356 -16.952565 43.087597 0.320787 1.975171 0.045397 -0.013830 -128336.000000 0 0 1
-37.235147 11.672556 -15.763765 42.085639 -0.303779 1.954723 0.055155 -0.012861 -67205.200000 0 0 1
37.162988 10.695756 -15.341365 41.603418 0.280233 1.948463 0.030349 -0.018212 579091.000000 0 0 1
-37.536827 9.718856 -14.610865 41.436058 -0.253352 1.931158 0.046666 -0.026490 20641.300000 0 0 1
36.927778 8.439556 -14.475865 40.551666 0.224683 1.935822 0.090040 -0.025797 968051.000000 0 0 1
35.743648 8.696456 -13.699865 39.254593 0.238664 1.927300 0.105284 -0.025015 922528.000000 0 0 1
35.998918 8.444756 -12.300565 38.968448 0.230417 1.891943 0.112013 -0.026086 -311618.000000 0 0 1
34.880138 8.950256 -11.368365 37.762029 0.251181 1.876593 0.139318 -0.022954 -186529.000000 0 0 1
34.673618 10.355656 -11.194365 37.878928 0.290228 1.870807 0.140025 -0.026026 253001.000000 0 0 1
33.717408 10.718356 -10.198665 36.820640 0.307786 1.851448 0.123909 -0.011170 84363.900000 0 0 1
34.148438 10.426556 -8.715465 36.753071 0.296340 1.810213 0.136640 -0.013475 464352.000000 0 0 1
35.248548 11.211556 -8.205765 37.887910 0.307953 1.789106 0.129018 -0.012432 625906.000000 0 0 1
34.992078 12.571456 -7.888665 38.009447 0.344905 1.779861 0.120506 -0.010884 -429796.000000 0 0 1
34.900308 12.808556 -6.343765 37.713843 0.351742 1.739808 0.111992 -0.017920 221254.000000 0 0 1
36.102398 12.477356 -5.655965 38.614214 0.332759 1.717799 0.129070 -0.018438 307114.000000 0 0 1
36.120428 12.909356 -4.301065 38.598393 0.343250 1.682459 0.138203 -0.022969 -506816.000000 0 0 1
37.433408 12.701156 -3.554165 39.688934 0.327111 1.660467 0.140123 -0.020783 -141185.000000 0 0 1
-37.013347 13.792856 -3.688465 39.671596 -0.356705 1.663906 0.144716 -0.020934 -397592.000000 0 0 1
-35.956476 13.682656 -2.814965 38.574698 -0.363613 1.643836 0.155884 -0.026962 -720776.000000 0 0 1
-34.965110 14.854456 -2.887465 38.099229 -0.401732 1.646657 0.140384 -0.027641 -250310.000000 0 0 1
-35.382029 16.048156 -2.265865 38.917418 -0.425817 1.629052 0.162450 -0.025070 -278378.000000 0 0 1
-34.421723 17.050256 -2.089065 38.469864 -0.459908 1.625127 0.126704 -0.029000 -300265.000000 0 0 1
-34.951279 18.228856 -1.251965 39.439201 -0.480739 1.602546 0.139030 -0.022091 -523883.000000 0 0 1
-36.002227 18.944556 -1.794165 40.721930 -0.484391 1.614870 0.118966 -0.026454 -352234.000000 0 0 1
-36.785047 19.511956 -0.760265 41.646538 -0.487696 1.589053 0.110546 -0.027487 -326221.000000 0 0 1
37.471198 20.399256 -1.292565 42.683616 0.498532 1.601083 0.110476 -0.028097 -375495.000000 0 0 1
-37.465747 21.733256 -1.506765 43.339208 -0.525646 1.605570 0.095893 -0.025164 -35311.000000 0 0 1
37.273468 22.256656 -2.655165 43.493908 0.538298 1.631881 0.082039 -0.016468 -202218.000000 0 0 1
-37.549987 23.601256 -3.189765 44.465666 -0.561133 1.642593 0.111024 -0.029063 342174.000000 0 0 1
-36.187067 23.485056 -3.600165 43.289870 -0.575665 1.654057 0.124383 -0.027599 513777.000000 0 0 1
-35.633306 24.612256 -4.249265 43.514962 -0.604463 1.668603 0.137186 -0.031448 569242.000000 0 0 1
-34.129394 24.484856 -4.631465 42.258422 -0.622317 1.680616 0.142330 -0.045193 368658.000000 0 0 1
-33.879737 23.579056 -5.705665 41.669690 -0.608012 1.708154 0.116532 -0.029186 164008.000000 0 0 1
-32.512877 23.625356 -6.095465 40.649715 -0.628386 1.721315 0.138367 -0.023991 230072.000000 0 0 1
-32.291977 22.427356 -7.012965 39.936697 -0.607037 1.747314 0.135843 -0.033718 -11361.800000 0 0 1
-33.094397 22.592956 -8.184965 40.898343 -0.599008 1.772286 0.124437 -0.042437 227290.000000 0 0 1
-32.531527 21.911056 -9.266165 40.302065 -0.592741 1.802790 0.071010 -0.035372 -600230.000000 0 0 1
-33.361457 22.095256 -10.529165 41.376932 -0.584973 1.828095 0.096862 -0.020177 -361909.000000 0 0 1
-33.464827 23.383156 -11.087565 42.303673 -0.609879 1.835988 0.074505 -0.018951 456966.000000 0 0 1
-34.194306 23.362156 -12.366365 43.219994 -0.599374 1.860978 0.034866 -0.008087 1685.750000 0 0 1
-34.740397 24.730956 -12.804965 44.525077 -0.618654 1.862506 0.053680 -0.006894 3209.940000 0 0 1
-33.800467 25.774256 -13.022965 44.456512 -0.651479 1.868094 0.048139 -0.005734 -4926.130000 0 0 1
-32.929207 25.574056 -14.165865 44.034495 -0.660332 1.898320 0.057249 -0.008459 42107.400000 0 0 1
-31.568527 26.273356 -13.969665 43.382170 -0.694107 1.898652 0.084812 -0.008580 -161809.000000 0 0 1
-30.638727 25.697256 -13.058265 42.066600 -0.697908 1.886430 0.076994 -0.010977 155446.000000 0 0 1
-31.008817 25.451356 -11.714165 41.791625 -0.687283 1.854902 0.092931 -0.014126 -963555.000000 0 0 1
-31.134797 26.784056 -10.932065 42.500251 -0.710421 1.830944 0.114530 -0.009761 -571433.000000 0 0 1
-29.967117 27.460156 -10.658265 42.020077 -0.741771 1.827245 0.115702 -0.010669 -1034180.000000 0 0 1
-30.275427 28.565356 -9.850465 42.773972 -0.756344 1.803173 0.097888 -0.015475 586721.000000 0 0 1
-29.022637 29.117256 -9.101265 42.106545 -0.787026 1.788664 0.112365 -0.018744 463252.000000 0 0 1
-29.087997 30.450156 -8.743765 43.009034 -0.808273 1.775524 0.116322 -0.028187 -684886.000000 0 0 1
-27.946557 30.902056 -8.088565 42.442573 -0.835578 1.762546 0.170018 -0.036737 -353806.000000 0 0 1
35.997978 -25.354664 33.530419 55.344398 -0.613630 0.919962 0.069059 -0.013397 -67472.800000 0 0 1
35.735788 -24.012644 33.783305 54.726276 -0.591651 0.905472 0.065664 -0.019144 1034140.000000 0 0 1
34.560548 -23.864044 -33.027845 53.429979 -0.604321 2.237186 0.050727 -0.005319 1002190.000000 0 0 1
34.202888 -22.397644 -32.747365 52.382077 -0.579775 2.246137 0.040823 -0.009193 -19021.500000 0 0 1
33.778598 -21.612644 -33.816435 52.456185 -0.569194 2.271376 0.036343 -0.013185 210942.000000 0 0 1
33.380898 -20.258244 -33.494395 51.444682 -0.545464 2.279797 0.029618 -0.009316 91613.500000 0 0 1
33.044928 -19.366244 32.957567 50.529396 -0.530105 0.860253 0.042132 -0.014886 629829.000000 0 0 1
34.207178 -19.056344 32.168067 50.676028 -0.508267 0.883074 0.067094 -0.024494 614215.000000 0 0 1
33.897248 -18.336844 30.960505 49.434969 -0.495871 0.894014 0.078323 -0.019625 7986.730000 0 0 1
35.134118 -18.163744 30.059315 49.677865 -0.477142 0.920924 0.073993 -0.021782 -328815.000000 0 0 1
36.045418 -17.183344 30.424395 50.201427 -0.444846 0.919716 0.068993 -0.030690 149705.000000 0 0 1
37.133068 -17.245444 29.489115 50.456694 -0.434783 0.946602 0.070916 -0.024477 39907.600000 0 0 1
-37.274407 -16.062244 29.655015 50.267256 0.406873 0.939803 0.067094 -0.025810 352029.000000 0 0 1
-35.907406 -16.493744 29.556715 49.345565 0.430595 0.928577 0.074362 -0.020904 723248.000000 0 0 1
-35.076530 -15.368244 29.839605 48.548407 0.412943 0.908872 0.083998 -0.024487 870709.000000 0 0 1
-33.547507 -15.693544 29.921055 47.612940 0.437558 0.891272 0.091620 -0.027648 893029.000000 0 0 1
-32.684087 -14.681444 30.418475 47.000829 0.422182 0.866904 0.088619 -0.027326 309914.000000 0 0 1
-31.409717 -15.137444 30.823475 46.538147 0.449091 0.846876 0.086577 -0.029046 116464.000000 0 0 1
-30.558157 -13.978244 31.383725 45.979674 0.429016 0.819541 0.078008 -0.026009 -440151.000000 0 0 1
-30.907587 -13.501544 32.643955 46.938241 0.411853 0.801728 0.090136 -0.023297 -305165.000000 0 0 1
-29.944517 -12.629844 33.095953 46.384579 0.399136 0.776298 0.080404 -0.022722 -426358.000000 0 0 1
-30.345237 -12.126044 -33.131155 46.535447 0.380164 2.363075 0.070019 -0.011217 48278.800000 0 0 1
-30.285877 -13.078144 -32.094285 46.025160 0.407636 2.342449 0.075766 -0.012580 54147.800000 0 0 1
-30.715807 -12.520844 -30.894555 45.328864 0.387071 2.320695 0.090983 -0.010028 -949704.000000 0 0 1
-30.900897 -13.519744 -29.747675 44.973026 0.412427 2.293555 0.100073 -0.015955 -333671.000000 0 0 1
-32.046327 -14.323444 -29.806935 46.049772 0.420323 2.274802 0.100735 -0.013027 -101586.000000 0 0 1
-32.433487 -14.942144 -28.565295 45.729365 0.431717 2.245492 0.112641 -0.020280 -232502.000000 0 0 1
-33.659157 -15.828244 -28.700465 46.980729 0.439566 2.227992 0.107811 -0.023326 -490026.000000 0 0 1
-33.418927 -17.036944 -29.305655 47.601508 0.471456 2.234001 0.111982 -0.020516 217089.000000 0 0 1
-34.525731 -17.930844 -29.216325 48.653211 0.479005 2.214924 0.090242 -0.015004 -25948.200000 0 0 1
-34.439907 -19.216244 -30.034515 49.572607 0.508937 2.221654 0.100814 -0.019189 578496.000000 0 0 1
-35.620573 -20.030644 -30.163415 50.792554 0.512263 2.206638 0.048611 -0.013654 757127.000000 0 0 1
-35.254753 -21.289044 -30.703305 51.369387 0.543255 2.211421 0.060984 -0.021873 -120965.000000 0 0 1
-36.520667 -22.074544 -31.057075 52.778656 0.543678 2.199924 0.074759 -0.020326 -140702.000000 0 0 1
-37.261907 -22.553044 -29.952355 52.860506 0.544276 2.173207 0.052232 -0.014241 509065.000000 0 0 1
37.148598 -23.595744 -30.336455 53.451642 -0.565880 2.174323 0.057132 -0.014073 665083.000000 0 0 1
-37.658607 -25.053454 -30.697215 54.664113 0.587041 2.167067 0.059489 -0.005903 468947.000000 0 0 1
-36.734597 -25.077004 -31.805085 54.679523 0.598989 2.191569 0.074467 -0.008286 534076.000000 0 0 1
-36.015527 -26.358804 -31.816725 54.810663 0.631799 2.190120 0.057282 -0.002255 171113.000000 0 0 1
-36.431457 -27.346114 -32.959795 56.226409 0.643897 2.197154 0.076819 -0.008873 426866.000000 0 0 1
37.623148 -27.882904 -32.744455 57.141552 -0.637787 2.181008 0.087989 -0.007601 224119.000000 0 0 1
37.362398 -29.046094 -33.492115 57.977117 -0.660817 2.186678 0.090445 -0.014849 140531.000000 0 0 1
-37.357987 -30.324784 -32.940395 58.311932 0.681856 2.171108 0.096426 -0.022338 35116.000000 0 0 1
37.488768 -30.580724 -31.650285 57.812879 -0.684259 2.150123 0.096163 -0.031331 768503.000000 0 0 1
-36.938907 -31.417194 -30.923645 57.513431 0.704795 2.138476 0.090090 -0.032606 621039.000000 0 0 1
-37.610367 -31.991784 -29.652585 57.595918 0.704849 2.111615 0.082861 -0.033095 423994.000000 0 0 1
36.877098 -33.100094 -29.917935 57.884535 -0.731476 2.113970 0.105922 -0.033470 551764.000000 0 0 1
36.254138 -33.476324 -28.674715 57.072464 -0.745583 2.097199 0.108135 -0.037489 85123.900000 0 0 1
35.089028 33.237883 -28.759845 56.241670 0.758312 2.107565 0.119205 -0.047818 343968.000000 0 0 1
33.947138 33.732287 -29.452515 56.193648 0.782224 2.122484 0.133109 -0.041142 380504.000000 0 0 1
32.740918 33.363449 -28.778055 54.893205 0.794815 2.122637 0.136656 -0.037155 440338.000000 0 0 1
31.522608 33.695164 -29.660615 54.852447 0.818698 2.142106 0.097047 -0.019922 -66381.700000 0 0 1
31.327128 32.864271 -30.790445 54.858917 0.809340 2.166711 0.104576 -0.009049 -117983.000000 0 0 1
30.111358 33.219848 -31.422135 54.750368 0.834442 2.182077 0.071394 -0.006388 238063.000000 0 0 1
29.926858 32.680634 -32.826505 55.147258 0.829355 2.208375 0.070984 -0.017434 113167.000000 0 0 1
29.442058 31.313782 -32.761895 54.043774 0.816196 2.222083 0.058329 -0.011527 38483.300000 0 0 1
29.148458 30.737752 33.651455 54.100484 0.811930 0.899479 0.065410 -0.013287 97146.500000 0 0 1
29.133158 29.188092 33.515241 53.140916 0.786340 0.888359 0.072390 -0.030648 312227.000000 0 0 1
30.454278 28.683512 33.661655 53.696498 0.755464 0.893245 0.081545 -0.027415 3929.210000 0 0 1
30.458458 27.318402 -33.603465 52.945308 0.731104 2.258394 0.064130 -0.031960 -155093.000000 0 0 1
31.818938 26.695782 -33.282615 53.224450 0.698068 2.246345 0.087236 -0.039459 62500.800000 0 0 1
32.476378 27.381042 -32.196205 53.301334 0.700478 2.219359 0.103990 -0.038771 530464.000000 0 0 1
33.740578 26.753322 -31.913475 53.596985 0.670404 2.208602 0.127105 -0.044948 841813.000000 0 0 1
34.365448 27.082852 -30.555535 53.367646 0.667433 2.180407 0.132818 -0.051092 -523048.000000 0 0 1
34.898488 28.405442 -30.468235 54.342313 0.683186 2.165994 0.109581 -0.048480 -317230.000000 0 0 1
34.102038 29.555852 -30.442545 54.435705 0.714103 2.164263 0.138693 -0.038745 -738947.000000 0 0 1
33.215788 29.763032 -29.246575 53.333749 0.730629 2.151209 0.146678 -0.027882 -363375.000000 0 0 1
33.876898 30.121612 -28.033695 53.299567 0.726788 2.124645 0.122248 -0.031874 -322684.000000 0 0 1
33.034488 30.103772 -26.926865 52.178258 0.739014 2.113036 0.126365 -0.034293 -585550.000000 0 0 1
33.832568 30.344912 -25.664495 52.193129 0.731108 2.084862 0.128638 -0.040951 -168082.000000 0 0 1
34.155928 31.722222 -25.639715 53.200769 0.748472 2.073667 0.131817 -0.039522 -134331.000000 0 0 1
34.913988 32.202030 -24.593765 53.486546 0.745013 2.048580 0.099437 -0.051689 -288221.000000 0 0 1
35.229198 33.703990 -24.633865 54.624927 0.763276 2.038641 0.111306 -0.045107 -291120.000000 0 0 1
34.072668 -33.275814 -24.382465 53.504496 -0.773567 2.043965 0.108453 -0.035693 113115.000000 0 0 1
34.368698 -31.875584 -24.259865 52.780691 -0.747781 2.048381 0.092075 -0.032488 -468395.000000 0 0 1
34.752308 -31.036924 -25.483435 53.107618 -0.728984 2.071275 0.086307 -0.037585 187645.000000 0 0 1
35.992718 -31.225644 -26.153915 54.355716 -0.714597 2.072776 0.106286 -0.041381 656179.000000 0 0 1
37.067648 -30.518394 -25.485745 54.359048 -0.688797 2.058774 0.103858 -0.044066 -285878.000000 0 0 1
-36.923697 -31.002664 -25.960795 54.758447 0.698450 2.064734 0.068663 -0.037671 -666252.000000 0 0 1
-36.597177 -32.389344 -25.709135 55.221215 0.724479 2.055071 0.063917 -0.038914 -58526.600000 0 0 1
-36.471457 -32.760804 -24.353865 54.740736 0.731852 2.031853 0.066075 -0.035192 481533.000000 0 0 1
-35.137599 -32.366534 -23.579265 53.274996 0.744371 2.029287 0.041772 -0.030275 820390.000000 0 0 1
-34.925981 -30.977214 -23.409365 52.224614 0.725552 2.035596 0.025430 -0.024870 -134429.000000 0 0 1
-34.476109 -30.638404 -22.116565 51.151309 0.726528 2.017922 0.048211 -0.020452 -652308.000000 0 0 1
-34.411482 -29.142114 -21.814265 50.092665 0.702675 2.021366 0.047080 -0.000163 224523.000000 0 0 1
-35.586036 -28.340744 -21.966865 50.518382 0.672542 2.020645 0.017714 -0.003147 133993.000000 0 0 1
-35.932184 -28.076844 -23.324765 51.219876 0.663286 2.043601 0.031862 -0.012581 -8677.160000 0 0 1
-37.190977 -27.172024 -23.502565 51.709363 0.630974 2.042621 0.026498 -0.002631 234061.000000 0 0 1
-36.997457 -25.811654 -23.059065 50.663338 0.609154 2.043329 0.012531 0.001012 221696.000000 0 0 1
37.480218 -24.784444 -23.582765 50.746253 -0.584255 2.054114 0.030020 0.000154 313510.000000 0 0 1
37.554608 -24.354744 -25.074265 51.305174 -0.575331 2.081427 0.042469 0.001853 -469219.000000 0 0 1
-36.599777 -23.688144 -25.308265 50.410119 0.574419 2.096761 0.030157 -0.012099 -392139.000000 0 0 1
-36.555797 -23.158744 -26.597035 50.794252 0.564701 2.121894 0.046833 -0.013103 207727.000000 0 0 1
-35.386375 -22.152344 -26.792275 49.605926 0.559328 2.141355 0.059351 -0.027758 -49894.800000 0 0 1
-35.289523 -20.895244 -26.131945 48.629623 0.534597 2.138108 0.049534 -0.020465 -291692.000000 0 0 1
-36.119927 -19.840844 -26.583415 49.040659 0.502309 2.143693 0.050652 -0.020028 510562.000000 0 0 1
-37.375797 -19.690644 -25.628835 49.411627 0.484880 2.116103 0.038068 -0.018306 479990.000000 0 0 1
-37.165667 -19.120544 -24.311265 48.352039 0.475155 2.097628 0.034356 -0.032097 227436.000000 0 0 1
-36.281487 -19.833944 -23.419065 47.520356 0.500282 2.086126 0.026570 -0.029635 213983.000000 0 0 1
-36.927437 -21.060044 -22.759365 48.219807 0.518302 2.062345 0.034180 -0.011736 124577.000000 0 0 1
37.454768 -20.712644 -21.806765 48.035490 -0.505147 2.042014 0.030672 -0.020231 41125.100000 0 0 1
36.857808 -21.866644 -21.231065 47.826836 -0.535457 2.030760 0.042984 -0.005855 375878.000000 0 0 1
35.761858 -21.553744 -20.167965 46.370478 -0.542404 2.020758 0.044484 -0.019356 -249187.000000 0 0 1
34.520298 -21.091544 -20.571465 45.383801 -0.548461 2.041235 0.059504 -0.015309 -521212.000000 0 0 1
33.565268 -21.087944 -19.517865 44.184564 -0.560945 2.028328 0.075830 -0.017640 294615.000000 0 0 1
32.158918 -20.680244 -19.977765 43.139073 -0.571484 2.052288 0.064971 -0.013071 -571963.000000 0 0 1
31.618108 -21.463744 -21.024665 43.616896 -0.596385 2.073767 0.062020 -0.005817 177488.000000 0 0 1
30.339758 -21.036544 -21.460965 42.703748 -0.606259 2.097347 0.103995 -0.007564 219663.000000 0 0 1
30.181458 -19.658544 -22.245665 42.334955 -0.577320 2.124061 0.080844 -0.003036 -426863.000000 0 0 1
30.476868 -18.592144 -21.408865 41.627477 -0.547770 2.110983 0.075355 -0.009374 -57391.200000 0 0 1
30.541138 -17.373744 -22.183665 41.553858 -0.517210 2.133947 0.053085 -0.004823 -33116.800000 0 0 1
31.118348 -16.137544 -21.436465 41.088854 -0.478406 2.119650 0.050757 -0.013374 -630429.000000 0 0 1
30.462268 -15.753744 -20.253165 39.828645 -0.477278 2.104247 0.042502 -0.014641 88294.100000 0 0 1
31.242768 -15.340544 -19.112565 39.708097 -0.456431 2.072964 0.030295 -0.006140 1225090.000000 0 0 1
32.400498 -16.339044 -18.558165 40.757357 -0.467069 2.043542 0.041644 -0.019333 1511390.000000 0 0 1
33.513988 -16.388444 -19.462965 42.078207 -0.454811 2.051657 0.037289 -0.017424 646098.000000 0 0 1
34.476238 -17.378744 -19.009265 43.034683 -0.466905 2.028311 0.038463 -0.027103 677246.000000 0 0 1
35.507858 -17.634144 -20.147065 44.471061 -0.460945 2.040966 0.036156 -0.034307 125808.000000 0 0 1
36.476568 -16.618744 -20.300365 44.931364 -0.427502 2.039588 0.046544 -0.037266 70793.000000 0 0 1
37.452188 -17.106744 -21.203765 46.313138 -0.428463 2.046355 0.068926 -0.049021 263779.000000 0 0 1
-36.992447 -15.985344 -21.830365 45.831618 0.407890 2.067257 0.102923 -0.045723 277926.000000 0 0 1
-36.090237 -15.454044 -20.867065 44.460849 0.404583 2.059335 0.139515 -0.054384 -108356.000000 0 0 1
-35.488802 -14.309844 -21.400865 43.843172 0.383280 2.080734 0.164634 -0.050258 -856927.000000 0 0 1
-34.349168 -13.773144 -20.484165 42.298533 0.381346 2.076332 0.172601 -0.053949 -101480.000000 0 0 1
-33.154597 -14.481544 -20.609365 41.637584 0.411813 2.088597 0.192183 -0.068691 -396718.000000 0 0 1
-33.104407 -15.693144 -19.885965 41.684867 0.442673 2.068097 0.169548 -0.071079 -319368.000000 0 0 1
-31.928787 -16.662244 -20.252265 41.318665 0.480980 2.083056 0.133319 -0.071049 312416.000000 0 0 1
-31.808807 -17.869544 -19.556665 41.395458 0.511842 2.062848 0.145078 -0.071560 276020.000000 0 0 1
-30.725497 -18.622044 -20.094165 41.165667 0.544877 2.080741 0.139362 -0.065628 76959.200000 0 0 1
-30.888187 -20.099544 -19.631565 41.754882 0.576881 2.060271 0.119435 -0.022757 -560980.000000 0 0 1
-31.849457 -20.869344 -20.292465 43.147440 0.580057 2.060433 0.112830 -0.021362 -48141.400000 0 0 1
-32.137547 -22.072844 -19.622065 43.646968 0.601828 2.037072 0.087683 0.005543 571329.000000 0 0 1
-33.356057 -22.731144 -20.398665 45.226508 0.598181 2.038719 0.047852 0.000506 522951.000000 0 0 1
-33.044897 -23.129244 -21.699765 45.801823 0.610682 2.064369 0.052439 -0.002791 158152.000000 0 0 1
-33.890247 -24.191744 -22.102165 47.141224 0.619945 2.058785 0.044172 0.002611 75963.600000 0 0 1
-33.628707 -24.569344 -23.632865 47.885853 0.630973 2.086934 0.047269 0.000136 505264.000000 0 0 1
-32.334737 -25.025684 -24.014765 47.418657 0.658658 2.101849 0.073599 -0.008155 175886.000000 0 0 1
-32.261767 -25.245854 -25.424145 48.213711 0.663998 2.126242 0.067413 -0.004001 222212.000000 0 0 1
-30.862777 -25.738304 -25.835905 47.775154 0.695108 2.142162 0.074035 -0.008464 1068480.000000 0 0 1
-29.771887 -24.790944 -25.817715 46.556531 0.694362 2.158613 0.083245 -0.011021 829025.000000 0 0 1
-28.476247 -25.316384 -26.026915 46.143431 0.726724 2.170071 0.076221 -0.012033 926581.000000 0 0 1
-27.349877 -24.222444 -26.059325 44.875728 0.724831 2.190384 0.086400 -0.013990 415062.000000 0 0 1
-27.280877 -23.593244 -27.312545 45.242265 0.713039 2.218925 0.085739 -0.024213 278543.000000 0 0 1
-26.331867 -22.525944 -27.275875 44.099419 0.707657 2.237640 0.105085 -0.018257 312888.000000 0 0 1
-26.195237 -21.756344 -28.609445 44.475041 0.693091 2.269557 0.067676 -0.013906 -195184.000000 0 0 1
-25.875637 -22.577644 -29.717995 45.414291 0.717438 2.284153 0.072360 -0.007695 199992.000000 0 0 1
-25.800217 -21.834444 -30.915275 45.805550 0.702336 2.311658 0.065932 0.000505 -333463.000000 0 0 1
-25.274267 -22.660944 -32.097125 46.717581 0.730934 2.328212 0.057643 -0.014194 160102.000000 0 0 1
-26.175577 -23.674444 -32.561215 48.019505 0.735267 2.315948 0.033401 -0.016744 -3689.600000 0 0 1
-25.641417 -24.441344 -33.571745 48.804955 0.761441 2.329355 0.072152 -0.004682 14727.500000 0 0 1
-19.559557 -14.881944 -11.336965 27.066129 0.650411 2.002988 0.077669 -0.006985 40040.700000 0 0 1
-20.327557 -14.457344 -10.234165 26.962242 0.618216 1.960132 0.082724 -0.017837 -141579.000000 0 0 1
-19.604857 -14.547544 -9.050265 26.036297 0.638386 1.925809 0.068311 -0.016578 6508.780000 0 0 1
-20.317057 -13.861544 -7.827965 25.810894 0.598721 1.878931 0.110580 -0.035909 60693.000000 0 0 1
-21.319457 -14.633544 -7.215065 26.846174 0.601536 1.842897 0.131894 -0.027576 -32146.700000 0 0 1
-21.782557 -14.019944 -6.033865 26.597860 0.571885 1.799644 0.132254 -0.027014 -379786.000000 0 0 1
-23.049857 -14.676444 -5.462765 27.866391 0.566987 1.768108 0.135373 -0.024962 -486084.000000 0 0 1
-22.995257 -15.970844 -4.879665 28.419374 0.607044 1.743353 0.105027 -0.021979 5718.920000 0 0 1
-22.293757 -16.001044 -3.670365 27.686036 0.622531 1.703759 0.105375 -0.024485 -354757.000000 0 0 1
-22.083057 -17.495144 -3.221965 28.357055 0.669993 1.684664 0.069202 -0.016278 370383.000000 0 0 1
-23.316157 -18.173744 -3.009465 29.715064 0.662083 1.672248 0.081874 -0.008372 668596.000000 0 0 1
-23.024957 -19.296644 -2.205665 30.122651 0.697530 1.644085 0.061308 -0.006542 863197.000000 0 0 1
-24.305357 -20.170544 -1.871965 31.640251 0.692697 1.629995 0.096278 -0.023769 788512.000000 0 0 1
-24.696357 -20.983344 -2.968665 32.542645 0.704293 1.662147 0.073430 -0.029393 1000110.000000 0 0 1
-25.682947 -22.018644 -2.615065 33.930415 0.708732 1.647944 0.102687 -0.024416 941325.000000 0 0 1
-25.558137 -23.171244 -3.650465 34.690789 0.736455 1.676220 0.113242 -0.026104 820986.000000 0 0 1
-24.283657 -23.835044 -3.552665 34.211500 0.776075 1.674828 0.109382 -0.029749 448298.000000 0 0 1
-24.096457 -24.618144 -4.689765 34.766164 0.796107 1.706103 0.124405 -0.039063 15506.400000 0 0 1
-22.669857 -24.710544 -5.321065 33.953603 0.828442 1.728161 0.107097 -0.024296 365568.000000 0 0 1
-22.212857 -23.609144 -6.085865 32.982427 0.815861 1.756378 0.080297 -0.010765 132521.000000 0 0 1
-21.991657 -22.470144 -5.315965 31.887299 0.796159 1.738289 0.056867 -0.012730 -856971.000000 0 0 1
-21.987957 -21.075544 -6.001165 31.042919 0.764214 1.765339 0.063401 -0.000749 -869069.000000 0 0 1
-20.825857 -20.740444 -6.671065 30.139434 0.783343 1.793985 0.027116 0.003554 -761900.000000 0 0 1
-20.847857 -19.480544 -7.277765 29.446402 0.751507 1.820537 0.017450 0.003185 154154.000000 0 0 1
-19.598157 -19.026444 -8.092765 28.488352 0.770597 1.858836 0.028963 0.005904 61153.200000 0 0 1
-19.410457 -19.714944 -9.317165 29.193397 0.793180 1.895632 0.035879 0.003732 626935.000000 0 0 1
-18.062657 -19.646444 -9.814965 28.435469 0.827374 1.923212 0.060564 0.001232 854924.000000 0 0 1
-17.508057 -18.302344 -10.382165 27.373294 0.807575 1.959815 0.065065 0.003013 -479011.000000 0 0 1
-17.157157 -17.165244 -9.554765 26.082699 0.785634 1.945854 0.079293 -0.002178 -382896.000000 0 0 1
-15.860657 -17.181144 -9.049265 25.072721 0.825341 1.940051 0.092086 -0.003544 -691753.000000 0 0 1
-15.627057 -16.088844 -8.091265 23.843750 0.799957 1.917017 0.078983 -0.006873 218709.000000 0 1 0
-16.487757 -16.241644 -6.957865 24.167106 0.777879 1.862836 0.066969 0.001315 455409.000000 0 1 0
-16.676257 -14.998244 -6.308865 23.299070 0.732471 1.844997 0.084820 -0.003470 32714.900000 0 1 0
-17.412957 -15.233544 -4.967365 23.663192 0.718739 1.782289 0.093241 -0.009215 -13913.500000 0 1 0
-17.768757 -14.025844 -4.399165 23.060913 0.668216 1.762736 0.091196 -0.009146 154766.000000 0 1 0
-18.370157 -14.258844 -3.140365 23.465703 0.660057 1.705027 0.088610 -0.008416 429634.000000 0 1 0
-19.352557 -13.121244 -2.679965 23.534458 0.595815 1.684918 0.107625 -0.006751 887318.000000 0 1 0
-20.657857 -12.994144 -3.270865 24.623026 0.561483 1.704028 0.133452 -0.018769 1043340.000000 0 1 0
-21.352757 -12.004644 -2.528865 24.626142 0.512166 1.673668 0.134424 -0.012161 -376702.000000 0 1 0
-22.834357 -11.903744 -2.919565 25.915842 0.480549 1.683692 0.124104 -0.005576 -265015.000000 0 0 1
-22.994757 -11.379344 -4.214465 26.000193 0.459533 1.733608 0.145190 -0.030457 1063610.000000 0 0 1
-24.416457 -11.266744 -4.410365 27.249848 0.432327 1.733361 0.148385 -0.019241 889746.000000 0 0 1
-24.877157 -10.956344 -5.852365 27.805838 0.414857 1.782855 0.161381 -0.032830 -99154.500000 0 0 1
-24.646457 -12.031844 -6.728865 28.239879 0.454145 1.811386 0.164162 -0.035653 242259.000000 0 0 1
-25.122667 -11.628544 -8.013665 28.819963 0.433505 1.852570 0.175547 -0.041969 -182743.000000 0 0 1
-24.194757 -11.980344 -9.166465 28.512085 0.459770 1.898103 0.173687 -0.056675 -805469.000000 0 0 1
-23.250357 -11.013744 -9.438165 27.403661 0.442389 1.922409 0.171183 -0.047612 -526350.000000 0 0 1
-22.435857 -11.320744 -10.528465 27.246569 0.467307 1.967537 0.140443 -0.039444 -688717.000000 0 0 1
-21.035157 -10.760844 -10.265965 25.761670 0.472857 1.980675 0.136161 -0.037964 -853322.000000 0 0 1
-21.011957 -9.318544 -10.328965 25.199705 0.417425 1.993124 0.131223 -0.050608 1811150.000000 0 0 1
-19.714157 -8.721444 -9.995365 23.761711 0.416512 2.004958 0.119233 -0.035727 1121140.000000 0 1 0
-19.558457 -7.249144 -10.463465 23.335969 0.354943 2.035752 0.071104 -0.038674 -246226.000000 0 1 0
-19.416357 -7.326644 -11.894565 23.919768 0.360824 2.091245 0.102532 -0.038390 493370.000000 0 1 0
-19.494057 -6.045544 -12.446165 23.905520 0.300717 2.118396 0.103191 -0.044245 -521352.000000 0 1 0
-18.936357 -6.011744 -13.867365 24.228712 0.307407 2.180168 0.127032 -0.037325 -159058.000000 0 1 0
-19.743957 -6.571644 -14.889265 25.587117 0.321309 2.191865 0.120703 -0.043740 342527.000000 0 0 1
-19.100357 -6.417144 -16.158865 25.828517 0.324122 2.246724 0.118562 -0.044934 -187463.000000 0 0 1
-19.649057 -7.241744 -17.337265 27.186560 0.353108 2.262324 0.105164 -0.035730 -589088.000000 0 0 1
-21.004757 -6.984144 -17.558365 28.253748 0.321003 2.241392 0.094914 -0.042909 -85166.900000 0 0 1
-21.513957 -7.793944 -18.635865 29.510869 0.347567 2.254272 0.092865 -0.044135 508699.000000 0 0 1
-22.960257 -7.349744 -19.053565 30.728334 0.309800 2.239622 0.086990 -0.041611 -7471.310000 0 0 1
-23.033157 -6.068444 -19.725965 30.926785 0.257611 2.262471 0.092682 -0.043289 1435490.000000 0 0 1
-24.239057 -5.856444 -20.516565 32.291783 0.237069 2.259257 0.070220 -0.034614 1379420.000000 0 0 1
-25.618677 -5.706944 -19.826265 32.893261 0.219186 2.217734 0.095228 -0.036308 -226454.000000 0 0 1
-25.793527 -4.376444 -19.439465 32.593743 0.168072 2.209826 0.102413 -0.037084 116993.000000 0 0 1
-26.879117 -4.353944 -18.544365 32.944457 0.160588 2.168684 0.140005 -0.034012 -496789.000000 0 0 1
-27.207817 -3.078044 -17.784665 32.650176 0.112652 2.146832 0.142214 -0.025326 -8260.520000 0 0 1
-27.512457 -1.952644 -18.586065 33.259434 0.070854 2.163760 0.140977 -0.027149 702107.000000 0 0 1
-28.846697 -1.927444 -19.105965 34.653786 0.066718 2.154764 0.147448 -0.021003 294931.000000 0 0 1
-29.087957 -0.604544 -19.869365 35.231611 0.020780 2.169975 0.140834 -0.017666 -29580.800000 0 0 1
-28.477267 -0.604844 -21.180665 35.495650 0.021236 2.210193 0.127689 -0.021233 455461.000000 0 0 1
-29.027037 -1.545044 -22.134165 36.535973 0.053178 2.221590 0.126454 -0.013727 340956.000000 0 0 1
-28.224787 -1.582244 -23.521465 36.775011 0.056000 2.264780 0.120434 -0.015643 -295048.000000 0 0 1
-28.231897 -0.503844 -24.463365 37.359739 0.017845 2.284722 0.124111 -0.011814 144994.000000 0 0 1
-27.849367 0.806256 -23.970465 36.753510 -0.028943 2.281273 0.116985 -0.004488 -485649.000000 0 0 1
-26.388217 0.827856 -23.510865 35.352286 -0.031362 2.298351 0.113180 -0.013931 -970585.000000 0 0 1
-25.474877 0.753156 -24.574365 35.403899 -0.029556 2.337986 0.098089 -0.012090 1053620.000000 0 0 1
-24.090957 0.864356 -24.157965 34.128121 -0.035863 2.357262 0.082210 -0.017219 1847650.000000 0 0 1
-22.988057 0.267756 -25.109095 34.043929 -0.011647 2.400231 0.071075 -0.014694 428770.000000 0 0 1
-22.913857 1.016856 -26.283585 34.884175 -0.044348 2.424094 0.053735 -0.010419 135206.000000 0 0 1
-21.984957 0.572456 -27.247345 35.015480 -0.026033 2.462513 0.035468 -0.013686 -134426.000000 0 0 1
-21.983257 1.314356 -28.577915 36.078919 -0.059718 2.485029 0.029544 0.000955 -476853.000000 0 0 1
-21.210657 2.479556 -28.516695 35.626424 -0.116373 2.498820 0.033006 0.001918 57776.400000 0 0 1
-21.112157 3.243556 -29.687745 36.573297 -0.152443 2.517909 0.019197 0.000768 -191418.000000 0 0 1
-20.516057 2.568456 -30.937975 37.211072 -0.124545 2.552452 0.014047 -0.003645 1500020.000000 0 0 1
-19.049957 2.623256 -30.919275 36.411316 -0.136843 2.585202 0.000769 0.000522 1691230.000000 0 0 1
-18.442457 2.001656 -32.001005 36.989122 -0.108112 2.616238 0.009203 -0.005783 -40031.200000 0 0 1
-16.908557 1.989556 -32.080425 36.318195 -0.117127 2.653685 0.012566 -0.018045 -230461.000000 0 0 1
-16.290657 3.221556 -32.312125 36.329566 -0.195236 2.666864 0.018982 -0.007020 520924.000000 0 0 1
-14.862857 3.098856 -32.392385 35.773930 -0.205552 2.703293 0.037701 -0.017310 748212.000000 0 0 1
-14.188957 4.455556 -32.642155 35.870444 -0.304265 2.714084 0.065291 -0.018185 -323201.000000 0 0 1
-14.058357 5.324256 -31.544175 34.943098 -0.362033 2.696869 0.071198 -0.025411 188786.000000 0 0 1
-13.726657 6.622356 -32.024705 35.466300 -0.449505 2.697408 0.105520 -0.023484 -196732.000000 0 0 1
-13.473257 7.677456 -30.877825 34.553033 -0.517940 2.676178 0.109476 -0.026768 77841.900000 0 0 1
-12.387957 7.507456 -29.965565 33.283006 -0.544840 2.691315 0.166703 -0.041378 448695.000000 0 0 1
-12.577057 6.456156 -29.038265 32.296829 -0.474253 2.688519 0.148357 -0.036764 1027960.000000 0 0 1
-11.128157 5.879656 -28.724235 31.360611 -0.486076 2.728624 0.175850 -0.038781 1826500.000000 0 0 1
-10.361857 5.219156 -29.779605 31.959858 -0.466595 2.770086 0.146780 -0.045513 770421.000000 0 0 1
-10.918957 3.931556 -30.139875 32.296948 -0.345615 2.774045 0.143311 -0.045587 -110327.000000 0 0 1
-10.352057 3.263956 -31.417445 33.239650 -0.305430 2.808941 0.121775 -0.036694 46548.500000 0 0 1
-10.833457 1.921756 -31.607645 33.467898 -0.175565 2.806612 0.114830 -0.030096 277443.000000 0 0 1
-10.441957 1.467556 -32.886575 34.535706 -0.139630 2.831314 0.090005 -0.024919 -542554.000000 0 0 1
-10.941257 2.033756 33.453779 35.256242 -0.183782 0.321143 0.092292 -0.029487 441455.000000 0 0 1
-12.363357 1.981756 33.271825 35.549884 -0.158941 0.359936 0.063687 -0.024131 512651.000000 0 0 1
-12.709257 1.801756 31.955019 34.436823 -0.140829 0.381971 0.059660 -0.020712 567805.000000 0 0 1
-14.195157 1.390956 31.672241 34.735689 -0.097676 0.423133 0.045617 -0.019873 -136106.000000 0 0 1
-15.090557 2.414156 31.578735 35.082325 -0.158634 0.450723 0.044114 -0.017109 -1117010.000000 0 0 1
-16.312757 1.801656 31.251855 35.299156 -0.109999 0.483565 0.028276 -0.012530 -1133870.000000 0 0 1
-17.386157 2.803256 30.967255 35.624536 -0.159859 0.517078 0.034229 -0.002897 -1066140.000000 0 0 1
-17.881557 3.513456 32.121719 36.931007 -0.194013 0.516047 0.020085 -0.010639 322413.000000 0 0 1
-17.222957 4.757856 32.423273 37.020752 -0.269529 0.503678 0.032822 -0.009675 -314488.000000 0 0 1
-17.797057 5.583956 33.582561 38.414895 -0.304030 0.506997 0.017786 -0.008042 387886.000000 0 0 1
-19.133657 6.055656 33.392645 38.959422 -0.306518 0.541157 0.013699 -0.003524 266799.000000 0 0 1
-19.952957 5.535756 -33.249805 39.170328 -0.270634 2.584606 0.004807 0.002419 -12725.300000 0 0 1
-21.376157 6.140956 -33.215635 39.974115 -0.279747 2.551571 0.011975 0.002272 -21124.500000 0 0 1
-21.469857 7.480756 -32.746345 39.865268 -0.335276 2.534702 0.014429 -0.004366 189568.000000 0 0 1
-21.142857 8.476156 -33.737875 40.707614 -0.381281 2.547730 0.009955 -0.003627 -346162.000000 0 0 1
-21.086957 9.908256 -33.164225 40.530225 -0.439259 2.529172 0.030066 -0.005519 267130.000000 0 0 1
-19.871757 10.212356 -32.460925 39.406733 -0.474716 2.538774 0.025722 0.002907 674181.000000 0 0 1
-19.823857 11.604056 -32.139095 39.503935 -0.529584 2.521057 0.053999 -0.007888 -357897.000000 0 0 1
-19.328957 12.598956 -33.169085 40.404585 -0.577652 2.533823 0.049907 -0.020178 -268075.000000 0 0 1
-20.177257 12.695956 33.362769 41.004675 -0.561629 0.620422 0.062971 -0.023834 -331808.000000 0 0 1
-19.441357 12.766956 32.221307 39.738824 -0.581064 0.625233 0.046999 -0.025848 -598682.000000 0 0 1
-20.163257 12.136556 31.002455 38.923067 -0.541826 0.649302 0.044227 -0.025223 -307321.000000 0 0 1
-20.203357 10.723456 30.962645 38.494851 -0.487964 0.636246 0.030148 -0.014365 752591.000000 0 0 1
-18.954857 10.198256 30.487315 37.319799 -0.493606 0.614745 0.026293 -0.022239 719700.000000 0 0 1
-18.899957 8.670856 30.666555 37.051717 -0.430128 0.595855 0.041662 -0.010375 126914.000000 0 0 1
-19.534057 8.011156 29.561925 36.327199 -0.389193 0.620189 0.042328 -0.018789 359441.000000 0 0 1
-19.579757 6.608356 29.710375 36.190380 -0.325504 0.607729 0.033279 -0.012738 -78013.200000 0 0 1
-20.224057 5.882356 28.486025 35.426942 -0.283050 0.636673 0.036071 -0.014577 988039.000000 0 0 1
-21.607057 6.177856 28.198915 36.058419 -0.278488 0.672873 0.052022 -0.023731 828242.000000 0 0 1
-22.206657 5.133356 27.475445 35.698558 -0.227173 0.692501 0.052940 -0.022254 -339109.000000 0 0 1
-23.704457 5.357756 27.256895 36.517737 -0.222288 0.728158 0.067850 -0.014944 -472445.000000 0 0 1
-23.991557 6.249956 26.228255 36.091247 -0.254842 0.757260 0.078151 -0.020548 -621915.000000 0 0 1
-25.355517 6.417556 26.038985 36.906856 -0.247897 0.787622 0.079149 -0.016904 -827991.000000 0 0 1
-25.764917 7.166956 24.698245 36.403290 -0.271308 0.825129 0.076075 -0.017529 -136242.000000 0 0 1
-25.809557 6.456256 23.486375 35.488396 -0.245120 0.847573 0.075266 -0.014067 1108730.000000 0 0 1
-26.837577 5.423556 23.381905 36.005333 -0.199403 0.864000 0.073745 -0.008365 533152.000000 0 0 1
-27.133897 4.787856 21.983125 35.248116 -0.174655 0.897370 0.084232 -0.003656 110202.000000 0 0 1
-27.640877 5.702256 20.980525 35.166976 -0.203444 0.931542 0.084946 -0.005508 199490.000000 0 0 1
-27.743127 5.051656 19.699925 34.398944 -0.180113 0.961013 0.103230 -0.019878 -106201.000000 0 0 1
-28.681067 5.782956 18.729925 34.739837 -0.198962 1.001371 0.140357 -0.028959 -251731.000000 0 0 1
-30.059937 5.656056 18.928925 35.970752 -0.185985 1.016634 0.148275 -0.027939 -158153.000000 0 0 1
-30.796177 6.209056 17.849725 36.132666 -0.198951 1.054106 0.162899 -0.020880 899027.000000 0 0 1
-32.355417 6.250256 18.091125 37.592918 -0.190824 1.068730 0.171665 -0.017578 1023810.000000 0 0 1
-32.797277 7.190856 19.032825 38.595573 -0.215836 1.055107 0.176229 -0.022513 221225.000000 0 0 1
-34.154083 7.000656 19.404825 39.900599 -0.202172 1.062913 0.193309 -0.019372 347145.000000 0 0 1
-34.709822 8.057156 20.376825 41.047588 -0.228089 1.051327 0.182079 -0.017497 29877.900000 0 0 1
-34.285064 7.738756 21.664025 41.287818 -0.221998 1.018425 0.154936 -0.018289 178437.000000 0 0 1
-34.654959 8.787956 22.584045 42.287509 -0.248349 1.007401 0.163852 -0.015217 227828.000000 0 0 1
0.318343 32.707656 12.056535 34.860467 1.561064 1.217650 0.122704 -0.044559 -135524.000000 0 0 1
0.089443 32.759656 13.426335 35.404372 1.568066 1.181834 0.121198 -0.043494 -109870.000000 0 0 1
-0.193657 -33.698290 13.908335 36.456193 1.565050 1.179369 0.116177 -0.049849 -19190.000000 0 0 1
-0.481457 -33.633590 15.474635 37.025863 1.556483 1.139618 0.110531 -0.047839 413404.000000 0 0 1
-1.749757 33.685756 15.963235 37.317780 -1.518899 1.128778 0.092914 -0.039331 -98820.400000 0 0 1
-1.857157 -33.597590 17.307135 37.838922 1.515576 1.095739 0.084703 -0.042815 218998.000000 0 0 1
-3.286757 -33.205390 17.753535 37.796676 1.472135 1.081832 0.094401 -0.034147 158237.000000 0 0 1
-4.153857 33.414556 17.962035 38.163094 -1.447118 1.080752 0.094512 -0.031599 638211.000000 0 0 1
-5.137057 33.732056 18.995935 39.052356 -1.419667 1.062806 0.082581 -0.025239 661905.000000 0 0 1
-6.172457 32.601156 19.198835 38.334447 -1.383679 1.046245 0.080000 -0.027857 618908.000000 0 0 1
-7.249957 32.576856 18.242835 38.034385 -1.351816 1.070551 0.079519 -0.035335 -42813.300000 0 0 1
-8.233157 31.667256 18.600235 37.637331 -1.316438 1.053886 0.062505 -0.042230 -554372.000000 0 0 1
-9.230057 31.536856 17.437035 37.199697 -1.286073 1.082931 0.063424 -0.049096 -854373.000000 0 0 1
-9.995557 32.705356 17.322735 38.335736 -1.274187 1.101937 0.068031 -0.037701 -376814.000000 0 0 1
-10.872757 32.744256 16.225835 38.127167 -1.250200 1.131203 0.072675 -0.040417 234896.000000 0 0 1
-11.831357 -33.741690 16.285535 39.289965 1.233547 1.143407 0.087885 -0.042130 75103.300000 0 0 1
-12.958357 33.861056 17.121035 40.095137 -1.205299 1.129612 0.080518 -0.037906 -170108.000000 0 0 1
-13.830257 -32.783090 16.887635 39.385267 1.171578 1.127654 0.069393 -0.033565 -779612.000000 0 0 1
-15.078957 -32.924790 17.726835 40.319442 1.141325 1.115577 0.089830 -0.037183 -720147.000000 0 0 1
-14.854557 -32.826090 19.109035 40.784375 1.145846 1.083161 0.076308 -0.030588 -543173.000000 0 0 1
-15.966257 -33.177890 19.859235 41.833993 1.122276 1.076156 0.081281 -0.035564 -335280.000000 0 0 1
-15.999457 -32.548290 21.274935 42.047553 1.113923 1.040286 0.082402 -0.035476 88753.300000 0 0 1
-16.035257 -31.110190 21.285835 40.964133 1.094878 1.024389 0.098286 -0.037863 -58068.500000 0 0 1
-16.333257 -30.623590 22.562535 41.396226 1.080822 0.994361 0.083617 -0.035775 200003.000000 0 0 1
-15.992057 -29.116290 22.734535 40.253737 1.068531 0.970629 0.099802 -0.046890 -187799.000000 0 0 1
-16.331057 -28.687590 24.026835 40.828545 1.053277 0.941617 0.089273 -0.041873 -175812.000000 0 0 1
-16.318957 -27.303390 24.153135 39.939422 1.032077 0.921352 0.077111 -0.043103 634177.000000 0 0 1
-17.664557 -26.560090 23.811435 39.805269 0.983894 0.929546 0.102306 -0.032293 853639.000000 0 0 1
-18.688857 -26.663890 24.798135 40.929011 0.959463 0.919923 0.099282 -0.026309 195862.000000 0 0 1
-19.811757 -25.889690 24.476635 40.766254 0.917614 0.926777 0.108133 -0.017539 -1640440.000000 0 0 1
-20.870657 -25.803590 25.564135 41.891939 0.890696 0.914433 0.099013 -0.008793 -518382.000000 0 0 1
-21.558857 -27.030590 25.778635 43.127429 0.897537 0.930127 0.088230 -0.006909 446643.000000 0 0 1
-22.267957 -27.593990 24.657535 43.188937 0.891810 0.963167 0.092660 -0.012335 -99420.000000 0 0 1
-23.629957 -26.907390 24.261735 43.255223 0.850159 0.975327 0.071835 -0.003785 278368.000000 0 0 1
-23.483657 -25.689990 23.530235 42.013447 0.830236 0.976333 0.080210 -0.006148 820462.000000 0 0 1
-24.768457 -25.329290 22.986335 42.230570 0.796592 0.995235 0.072726 -0.009824 743583.000000 0 0 1
-24.983357 -23.833990 22.607335 41.271283 0.761858 0.991095 0.057316 0.008837 -101261.000000 0 0 1
-25.154217 -23.038990 23.729335 41.552510 0.741536 0.962989 0.050308 0.012994 122704.000000 0 0 1
-25.872357 -21.873190 23.384935 41.166376 0.701833 0.966651 0.050995 0.011400 147671.000000 0 0 1
-26.557517 -21.150390 24.576035 41.912077 0.672542 0.944225 0.049769 0.018959 835400.000000 0 0 1
-27.712387 -21.855390 25.080835 43.297607 0.667782 0.952968 0.033512 0.021871 776101.000000 0 0 1
-28.067577 -21.382890 26.388235 44.060820 0.651033 0.928664 0.030862 0.013367 -355621.000000 0 0 1
-29.244787 -22.108690 27.097735 45.588803 0.647322 0.934284 0.032045 0.007711 1987270.000000 0 0 1
-30.639447 -21.733990 26.855635 46.177561 0.616971 0.950135 0.032360 -0.001810 1715480.000000 0 0 1
-31.058657 -22.187490 25.634335 45.978735 0.620308 0.979394 0.035691 -0.003370 -298522.000000 0 0 1
-32.589517 -22.521690 25.622735 47.178679 0.604709 0.996672 0.051665 -0.017927 648467.000000 0 0 1
-33.136577 -23.054990 24.418335 47.178601 0.607872 1.026785 0.041914 -0.016671 152146.000000 0 0 1
-32.815477 -24.444290 24.218535 47.549094 0.640230 1.036382 0.037695 -0.013865 -421108.000000 0 0 1
-33.322937 -24.971190 22.878435 47.512117 0.643097 1.068399 0.044697 -0.012324 -452295.000000 0 0 1
-34.676963 -25.290890 22.808635 48.604061 0.630139 1.082328 0.056403 -0.018773 -683449.000000 0 0 1
-34.927114 -25.977490 21.584135 48.586090 0.639497 1.110465 0.055500 -0.009906 -734904.000000 0 0 1
-36.263777 -26.652090 21.402935 49.834537 0.633800 1.126879 0.068897 -0.014222 -741268.000000 0 0 1
-36.591267 -27.804690 22.231835 51.051700 0.649789 1.120228 0.072052 -0.012813 189663.000000 0 0 1
-35.713638 -28.909990 22.091135 50.983034 0.680503 1.122641 0.055188 -0.013186 -237436.000000 0 0 1
-36.060367 -29.916090 20.983135 51.338236 0.692538 1.149742 0.068276 -0.014237 -139494.000000 0 0 1
-36.085527 -29.266990 19.730935 50.478033 0.681440 1.169207 0.050889 -0.013685 523953.000000 0 0 1
-36.693447 -30.134590 18.745735 51.048067 0.687566 1.194781 0.061927 -0.020291 -23167.200000 0 0 1
-37.019167 -29.470290 17.382035 50.408847 0.672347 1.218748 0.062853 -0.019910 -52751.200000 0 0 1
-35.844120 -29.480890 16.590735 49.286675 0.688296 1.227474 0.088545 -0.029942 500279.000000 0 0 1
-36.155317 -29.041590 15.277135 48.826343 0.676717 1.252565 0.090590 -0.034324 109923.000000 0 0 1
-36.858547 -30.097290 14.387435 49.713154 0.684758 1.277187 0.074509 -0.031300 -108277.000000 0 0 1
-35.967666 -31.021390 13.815035 49.465694 0.711695 1.287747 0.076215 -0.038251 -91741.700000 0 0 1
-36.450817 -31.739290 12.672935 49.966468 0.716414 1.314366 0.065991 -0.034821 46791.600000 0 0 1
-36.665077 -30.924190 11.355335 49.290740 0.700664 1.338334 0.062177 -0.033790 882012.000000 0 0 1
37.484558 -30.141290 11.333135 49.416894 -0.677235 1.339400 0.057353 -0.036845 878361.000000 0 0 1
37.500558 -29.299990 10.184435 48.667279 -0.663247 1.359971 0.041008 -0.028302 -82893.600000 0 0 1
36.205518 -28.490790 9.993035 47.142607 -0.666713 1.357201 0.078233 -0.025525 -40696.500000 0 0 1
36.343838 -27.489790 9.012335 46.451968 -0.647572 1.375544 0.089716 -0.060655 -156544.000000 0 0 1
35.169758 -26.746790 8.950235 45.082251 -0.650191 1.370937 0.081818 -0.051741 -456131.000000 0 0 1
35.308648 -25.610290 7.902835 44.328799 -0.627522 1.391561 0.076506 -0.039190 306718.000000 0 0 1
36.024018 -24.538890 8.533735 44.415219 -0.597984 1.377459 0.080884 -0.042809 250124.000000 0 0 1
36.143848 -23.584690 7.434135 43.793627 -0.578147 1.400216 0.080141 -0.034849 -38686.300000 0 0 1
36.561768 -22.144590 7.970035 43.481803 -0.544583 1.386458 0.091777 -0.034034 -246039.000000 0 0 1
35.649648 -21.453690 8.798935 42.527397 -0.541736 1.362391 0.064268 -0.029888 -110740.000000 0 0 1
35.916908 -20.086690 8.635135 42.048365 -0.509921 1.363963 0.088694 -0.023988 -148888.000000 0 0 1
35.247458 -19.246190 9.701635 41.314899 -0.499791 1.333761 0.084056 -0.012566 -448750.000000 0 0 1
35.789568 -19.277690 10.962435 42.103414 -0.494080 1.307392 0.064992 -0.030095 -525716.000000 0 0 1
35.099308 -18.529790 11.924935 41.442956 -0.485737 1.278927 0.072440 -0.018652 -471546.000000 0 0 1
35.748478 -18.450990 13.297435 42.369972 -0.476471 1.251561 0.054069 -0.037475 -346448.000000 0 0 1
36.977458 -17.771090 13.312735 43.132041 -0.448001 1.257022 0.031266 -0.026597 -76412.400000 0 0 1
37.580938 -17.925890 14.564935 44.111243 -0.445074 1.234295 0.022245 -0.004430 371646.000000 0 0 1
-36.386467 -17.305790 14.890435 42.955680 0.443946 1.216803 0.055655 -0.014313 483001.000000 0 0 1
-35.260153 -17.818090 14.210335 41.984478 0.467904 1.225510 0.053700 -0.012212 -548212.000000 0 0 1
-34.164597 -17.080490 14.651935 40.910170 0.463605 1.204512 0.066499 -0.010904 -315221.000000 0 0 1
-33.004967 -17.194490 13.612635 39.626786 0.480280 1.220133 0.098939 -0.014180 -143593.000000 0 0 1
-32.366107 -18.403890 13.426035 39.579369 0.517023 1.224711 0.103242 -0.027111 -63036.100000 0 0 1
-31.416647 -18.365190 12.395235 38.443826 0.528996 1.242507 0.092383 -0.022437 39315.200000 0 0 1
-30.657477 -19.696590 12.154935 38.413266 0.571065 1.248837 0.085198 -0.020306 248582.000000 0 0 1
-31.385247 -20.555790 11.288435 39.179115 0.579848 1.278529 0.112029 -0.026206 102509.000000 0 0 1
-30.491637 -21.448190 10.630835 38.765699 0.613012 1.293004 0.109193 -0.034049 -164992.000000 0 0 1
-31.133587 -22.499690 9.682935 39.614335 0.625787 1.323864 0.117516 -0.040056 373814.000000 0 0 1
-31.979097 -23.455890 10.332035 40.982830 0.632841 1.315940 0.112600 -0.037920 -221788.000000 0 0 1
-33.322157 -23.050290 10.389135 41.828413 0.605161 1.319794 0.112827 -0.041861 -626276.000000 0 0 1
-34.226948 -24.308390 10.443435 43.260226 0.617547 1.326978 0.129910 -0.044407 -48918.800000 0 0 1
-34.437097 -25.010190 9.192935 43.542317 0.628132 1.358069 0.114294 -0.038122 -102096.000000 0 0 1
-35.322143 -26.102590 9.357635 44.906173 0.636415 1.360876 0.107697 -0.034166 235003.000000 0 0 1
-35.287721 -27.040190 8.037935 45.177467 0.653838 1.391925 0.094908 -0.031316 745999.000000 0 0 1
-34.005515 -27.552790 7.662235 44.432434 0.680957 1.397483 0.099017 -0.031393 336856.000000 0 0 1
-34.135262 -28.103590 6.344335 44.668540 0.688788 1.428283 0.084683 -0.022277 626243.000000 0 0 1
-32.776477 -28.511690 5.659035 43.809116 0.715924 1.441260 0.097498 -0.019050 984326.000000 0 0 1
-31.942797 -27.401490 5.306735 42.418692 0.709022 1.445364 0.115449 -0.015452 126540.000000 0 0 1
-30.708107 -27.853590 4.779435 41.733120 0.736693 1.456021 0.116931 -0.025247 350382.000000 0 0 1
-29.858047 -26.713690 4.181535 40.281627 0.729874 1.466801 0.118783 -0.018660 41099.800000 0 0 1
-30.341397 -26.302990 2.939835 40.262766 0.714225 1.497715 0.119431 -0.014508 -302586.000000 0 0 1
-29.649227 -25.184890 2.474535 38.980491 0.704162 1.507272 0.120024 -0.022362 -389399.000000 0 0 1
-30.157367 -24.507390 1.217135 38.878791 0.682407 1.539485 0.124639 -0.024837 -228471.000000 0 0 1
-29.777287 -25.172290 -0.016265 38.991426 0.701789 1.571213 0.118148 -0.027631 -41954.400000 0 0 1
-30.047767 -24.470890 -1.214865 38.770719 0.683460 1.602136 0.113485 -0.034188 -68860.400000 0 0 1
-31.473847 -24.392790 -1.809765 39.860839 0.659321 1.616214 0.111519 -0.029667 328326.000000 0 0 1
-32.249007 -23.316990 -1.256165 39.815304 0.626016 1.602351 0.105476 -0.019415 630403.000000 0 0 1
-33.555617 -23.322790 -1.842465 40.906316 0.607395 1.615853 0.103944 -0.020129 420360.000000 0 0 1
-34.285501 -21.968190 -1.746465 40.757173 0.569840 1.613660 0.096129 -0.018050 -178988.000000 0 0 1
-34.577501 -21.553690 -0.451765 40.747629 0.557408 1.581883 0.097508 -0.029662 -266964.000000 0 0 1
-35.357318 -20.425890 -0.438165 40.835633 0.523860 1.581527 0.111382 -0.030530 -614723.000000 0 0 1
-35.662145 -19.997890 1.012635 40.899018 0.511066 1.546034 0.110979 -0.036945 102596.000000 0 0 1
-36.424827 -21.008090 1.708535 42.083571 0.523150 1.530187 0.099166 -0.038654 501180.000000 0 0 1
-36.554687 -20.575790 3.045135 42.058069 0.512676 1.498330 0.102247 -0.030684 -172301.000000 0 0 1
-37.599457 -21.426290 3.884135 43.449875 0.517960 1.481283 0.106400 -0.025400 2038250.000000 0 0 1
36.374588 -21.322490 3.473335 42.306303 -0.530205 1.488604 0.080906 -0.016999 1557730.000000 0 0 1
35.682248 -20.082190 3.714135 41.113404 -0.512622 1.480334 0.086299 -0.024076 -174831.000000 0 0 1
34.463108 -19.788990 2.834135 39.841464 -0.521239 1.499601 0.072517 -0.006414 -432398.000000 0 0 1
33.387018 -20.643290 2.958635 39.364857 -0.553769 1.495566 0.057693 0.000309 -547170.000000 0 0 1
32.262648 -20.170490 2.230535 38.114334 -0.558741 1.512241 0.103212 -0.008733 -297294.000000 0 0 1
30.969838 -20.889790 2.527135 37.441963 -0.593420 1.503250 0.104618 0.005620 -610833.000000 0 0 1
30.824728 -22.170790 1.910435 38.017858 -0.623531 1.520524 0.091711 -0.002526 -903914.000000 0 0 1
29.602258 -22.666390 2.320535 37.355640 -0.653472 1.508636 0.099389 0.000324 -591940.000000 0 0 1
29.190758 -23.904490 1.462535 37.757966 -0.686163 1.532052 0.084662 -0.002861 -84703.300000 0 0 1
28.931958 -23.670790 0.100135 37.381473 -0.685713 1.568118 0.084158 -0.008714 264574.000000 0 0 1
28.443658 -24.818090 -0.668665 37.754820 -0.717432 1.588508 0.070382 -0.014662 -146368.000000 0 0 1
27.452158 -24.430090 -1.782265 36.791667 -0.727215 1.619257 0.077338 -0.017305 -181735.000000 0 0 1
27.914158 -23.618890 -2.883965 36.679278 -0.702241 1.649504 0.068854 -0.034739 112505.000000 0 0 1
28.488558 -24.290990 -4.031665 37.655072 -0.706035 1.678070 0.071931 -0.036625 -697631.000000 0 0 1
27.536458 -25.089090 -4.971965 37.582435 -0.738926 1.703480 0.067791 -0.036461 -19109.600000 0 0 1
26.656158 -24.319290 -5.721565 36.533751 -0.739587 1.728054 0.068647 -0.046716 509177.000000 0 0 1
25.561558 -23.670290 -5.057465 35.203037 -0.747002 1.714961 0.082118 -0.048547 -284541.000000 0 0 1
24.792258 -22.719290 -5.993965 34.157720 -0.741795 1.747189 0.090336 -0.054925 -499015.000000 0 0 1
24.019458 -23.378990 -6.937865 34.229308 -0.771887 1.774898 0.088657 -0.049434 218532.000000 0 0 1
23.073758 -22.580190 -7.660665 33.180553 -0.774588 1.803776 0.090170 -0.045700 137064.000000 0 0 1
23.544758 -21.316490 -8.394065 32.851312 -0.735769 1.829179 0.103160 -0.042105 -632923.000000 0 0 1
23.948658 -21.582590 -9.752665 33.681759 -0.733479 1.864556 0.105714 -0.043524 143454.000000 0 0 1
23.909258 -20.328290 -10.451465 33.077562 -0.704626 1.892274 0.100587 -0.038737 -78543.500000 0 0 1
24.544158 -20.244090 -11.921565 33.975912 -0.689683 1.929310 0.098920 -0.036347 -336610.000000 0 0 1
25.924858 -20.388290 -11.818065 35.034944 -0.666416 1.914867 0.131227 -0.046095 -756584.000000 0 0 1
26.595658 -19.761190 -12.886465 35.551296 -0.639021 1.941719 0.123440 -0.046865 305923.000000 0 0 1
28.128158 -19.998590 -12.823265 36.818107 -0.618058 1.926539 0.099093 -0.042151 254487.000000 0 0 1
28.630258 -21.343390 -13.035565 38.015233 -0.640604 1.920803 0.077521 -0.039549 298313.000000 0 0 1
29.345858 -21.975590 -11.998165 38.575406 -0.642763 1.887074 0.103987 -0.044088 -77946.400000 0 0 1
29.647358 -23.499090 -12.278565 39.773562 -0.670225 1.884635 0.082136 -0.036549 126448.000000 0 0 1
30.710868 -23.716690 -13.204165 40.987666 -0.657594 1.898796 0.062717 -0.040661 522547.000000 0 0 1
31.056228 -25.073190 -13.375065 42.095683 -0.679206 1.894131 0.065567 -0.033050 -222656.000000 0 0 1
-3.832157 -9.281344 -27.397985 29.180102 1.179229 2.790295 0.069132 -0.033762 147742.000000 0 0 1
-3.708957 -7.929344 -26.964295 28.349675 1.133279 2.827679 0.073142 -0.026059 245279.000000 0 0 1
-4.716357 -7.094644 -27.544205 28.831601 0.984103 2.841631 0.065661 -0.027198 411133.000000 0 0 1
-4.598557 -5.703244 -26.883855 27.864231 0.892222 2.875539 0.063086 -0.028955 -336142.000000 0 0 1
-5.104557 -5.684344 -25.554375 26.671977 0.839086 2.851084 0.046270 -0.030387 190667.000000 0 0 1
-5.103257 -4.366444 -25.016765 25.902656 0.707747 2.879305 0.059626 -0.028191 126014.000000 0 0 1
-5.779957 -4.292444 -23.626665 24.699236 0.638776 2.845811 0.049762 -0.028560 -122953.000000 0 1 0
-5.020157 -4.965344 -22.691565 23.764758 0.779909 2.839920 0.044821 -0.045504 284951.000000 0 1 0
-5.678857 -4.964344 -21.418265 22.707624 0.718365 2.802988 0.041626 -0.032435 98458.700000 0 1 0
-5.001857 -5.956144 -20.497665 21.923697 0.872265 2.778928 0.034406 -0.033589 -275646.000000 0 1 0
-5.379357 -7.312744 -20.792165 22.687614 0.936566 2.729924 0.033839 -0.028592 378137.000000 0 1 0
-4.562757 -8.279644 -20.160265 22.266736 1.067123 2.703113 0.035716 -0.030670 -775694.000000 0 1 0
-5.242657 -9.695944 -20.091865 22.916802 1.075116 2.639819 0.049950 -0.027893 383524.000000 0 1 0
-6.371557 -9.812744 -19.234365 22.513274 0.994903 2.595108 0.051569 -0.025404 149927.000000 0 1 0
-7.561157 -9.294244 -19.788965 23.133465 0.887859 2.597169 0.048731 -0.024126 -1185590.000000 0 1 0
-8.685057 -9.357444 -18.764365 22.695669 0.822648 2.544159 0.041077 -0.013660 -631170.000000 0 1 0
-9.383657 -10.614944 -18.693665 23.455984 0.846889 2.493055 0.064689 -0.015478 308311.000000 0 1 0
-9.841357 -10.909344 -17.397465 22.771427 0.836820 2.440293 0.052156 -0.019054 -107440.000000 0 1 0
-10.796857 -12.148544 -17.396665 23.807629 0.844239 2.390170 0.068013 -0.010610 -382291.000000 0 1 0
-12.038357 -12.004644 -18.000765 24.760070 0.783996 2.384750 0.086957 -0.034475 -383205.000000 0 1 0
-12.031457 -11.987944 -19.437165 25.812209 0.783587 2.423439 0.088605 -0.035158 -1150770.000000 0 0 1
-13.417057 -11.793444 -20.086565 26.880715 0.721085 2.414708 0.079565 -0.032999 658407.000000 0 0 1
-14.316157 -12.940644 -20.207265 27.941836 0.734976 2.379207 0.081098 -0.028995 802152.000000 0 0 1
-14.989957 -13.180244 -18.939965 27.516176 0.721244 2.329968 0.074036 -0.022103 -904339.000000 0 0 1
-16.253857 -13.989344 -19.120665 28.731332 0.710661 2.298958 0.073248 -0.011961 -557563.000000 0 0 1
-15.986757 -15.266644 -19.525665 29.494040 0.762361 2.294308 0.080212 -0.017319 634239.000000 0 0 1
-16.971757 -15.650044 -20.531065 30.894806 0.744904 2.297684 0.059799 -0.011289 619676.000000 0 0 1
-16.721157 -17.071944 -20.988565 31.805161 0.795778 2.291496 0.036964 -0.000496 -62946.800000 0 0 1
-17.004357 -18.089844 -20.041165 31.906722 0.816319 2.249928 0.065958 -0.003053 137501.000000 0 0 1
-16.741257 -19.311544 -20.647465 32.856099 0.856570 2.250318 0.055344 -0.006185 -242238.000000 0 0 1
-17.352357 -20.447444 -19.848865 33.364348 0.867097 2.207953 0.063513 -0.017136 -183256.000000 0 0 1
-17.003957 -21.670944 -20.435165 34.298110 0.905490 2.209070 0.057112 -0.014842 123179.000000 0 0 1
-17.672557 -22.704844 -19.773565 34.911647 0.909390 2.172914 0.063812 -0.010853 -216743.000000 0 0 1
-17.117257 -24.128544 -20.031065 35.727170 0.953777 2.165988 0.074322 -0.016885 -78539.200000 0 0 1
-17.321357 -24.605744 -21.328065 36.883037 0.957420 2.187393 0.035236 -0.007833 247735.000000 0 0 1
-16.567157 -25.804834 -21.392865 37.390037 1.000053 2.179926 0.045263 -0.003427 -5646.550000 0 0 1
-16.627657 -26.269974 -22.859565 38.589509 1.006498 2.204803 0.038263 -0.004354 -264169.000000 0 0 1
-17.834357 -26.805814 -23.332665 39.762158 0.983729 2.197905 0.067458 -0.011442 -366071.000000 0 0 1
-17.923657 -28.197794 -23.129965 40.637032 1.004582 2.176310 0.080156 -0.016123 -548588.000000 0 0 1
-18.897257 -28.871464 -24.107665 42.093316 0.991243 2.180616 0.092314 -0.022920 -270134.000000 0 0 1
-18.603157 -28.854944 -25.532095 42.785198 0.998147 2.210242 0.083299 -0.017852 9348.620000 0 0 1
-18.774957 -27.631994 -26.255805 42.489921 0.973986 2.236904 0.092868 -0.016411 -283248.000000 0 0 1
-17.714757 -27.524594 -27.347365 42.653186 0.998935 2.266801 0.105234 -0.017990 -1067950.000000 0 0 1
-18.002057 -28.229564 -28.556905 44.005445 1.003115 2.276987 0.111169 -0.016597 502718.000000 0 0 1
-17.053457 -27.737294 -29.509845 43.943246 1.019551 2.307088 0.080268 -0.010855 392976.000000 0 0 1
-17.482257 -28.018944 -31.002595 45.297367 1.012957 2.324609 0.098007 -0.007779 -3936.030000 0 0 1
-17.220757 -29.325834 -31.418135 46.299657 1.039826 2.316627 0.088494 -0.008580 48923.000000 0 0 1
-17.695357 -29.463344 -32.715125 47.449907 1.029944 2.331549 0.098068 -0.006875 27190.800000 0 0 1
-17.544957 -30.864324 -33.363185 48.718930 1.053895 2.325139 0.087169 -0.013361 494619.000000 0 0 1
-16.209457 -31.130454 -33.819595 48.740298 1.090730 2.337650 0.089126 -0.014464 646604.000000 0 0 1
-16.203357 -32.286124 32.996154 48.925338 1.105656 0.830619 0.077770 -0.014959 39796.100000 0 0 1
-14.776757 -32.726464 32.602851 48.500721 1.146676 0.833601 0.059781 -0.011299 371618.000000 0 0 1
-13.993657 -33.422084 33.583581 49.403593 1.174278 0.823334 0.069376 -0.011482 423644.000000 0 0 1
-13.017257 33.465806 32.968821 48.747844 -1.199833 0.828050 0.062182 -0.009045 -227517.000000 0 0 1
-12.035257 32.804685 -33.772105 48.595780 -1.219167 2.339160 0.070391 -0.010566 -530166.000000 0 0 1
-11.129357 33.641443 -33.115545 48.499986 -1.251307 2.322378 0.074611 -0.008543 -270509.000000 0 0 1
-10.367757 32.930212 -32.186645 47.200311 -1.265781 2.321175 0.069574 -0.017438 141755.000000 0 0 1
-9.397257 33.800612 -31.381505 47.070040 -1.299624 2.300566 0.060661 -0.018932 247458.000000 0 0 1
-10.264357 -33.145844 -30.582605 46.252565 1.270489 2.293225 0.081704 -0.023075 175004.000000 0 0 1
-9.609557 -32.062854 -29.973315 44.930722 1.279606 2.301106 0.084993 -0.024837 -465393.000000 0 0 1
-10.440757 -31.107994 -29.082455 43.846390 1.246981 2.295990 0.102520 -0.030265 -75617.900000 0 0 1
-10.760557 -31.360454 -27.691095 43.197968 1.240259 2.266633 0.109683 -0.040357 162769.000000 0 0 1
-11.424657 -32.607024 -27.418605 44.108057 1.233788 2.241610 0.091573 -0.037253 -17390.200000 0 0 1
-11.621457 -32.723704 -25.921365 43.333777 1.229551 2.212023 0.091491 -0.033409 -26953.600000 0 0 1
-10.401457 -32.786344 -25.243275 42.665649 1.263590 2.203904 0.104121 -0.048096 -455892.000000 0 0 1
-10.748457 -32.746284 -23.879465 41.929432 1.253642 2.176713 0.104062 -0.059616 735488.000000 0 0 1
-9.518357 -32.780264 -22.911965 41.110862 1.288199 2.161953 0.116529 -0.070412 619270.000000 0 0 1
-8.756357 33.753952 -22.922965 41.730869 -1.316974 2.152328 0.093674 -0.054298 72230.500000 0 0 1
-8.042757 33.522439 -21.708965 40.739649 -1.335325 2.132786 0.111636 -0.057735 158850.000000 0 0 1
-7.341457 32.145690 -21.521465 39.375320 -1.346266 2.149062 0.109076 -0.057452 -325318.000000 0 0 1
-6.121857 32.048284 -22.197265 39.462491 -1.382050 2.168191 0.089606 -0.064807 -348377.000000 0 0 1
-5.478157 30.815842 -21.999665 38.257177 -1.394863 2.183458 0.069442 -0.051638 1812.890000 0 0 1
-4.004457 30.860602 -22.466065 38.381461 -1.441758 2.196091 0.091689 -0.060913 -203205.000000 0 0 1
-3.800457 31.090182 -23.875865 39.384005 -1.449160 2.222111 0.109767 -0.058416 184205.000000 0 0 1
-2.529457 30.623452 -24.299665 39.174835 -1.488385 2.239906 0.091439 -0.063971 170602.000000 0 0 1
-2.277557 30.797072 -25.853115 40.274439 -1.496977 2.267801 0.105940 -0.035839 87465.800000 0 0 1
-1.553157 31.983710 -26.341295 41.463645 -1.522274 2.259176 0.114360 -0.059122 307749.000000 0 0 1
-2.060357 33.238818 -25.989465 42.243537 -1.508889 2.233473 0.108393 -0.053162 -294653.000000 0 0 1
-1.243557 -33.269924 -26.498345 42.551105 1.533436 2.243038 0.058941 -0.032716 114892.000000 0 0 1
0.047543 -33.165394 -25.917875 42.091351 -1.569363 2.234138 0.108860 -0.045660 88333.700000 0 0 1
0.673943 -32.100784 -26.647335 41.725232 -1.549805 2.263524 0.079029 -0.027287 -867798.000000 0 0 1
1.967643 -31.575324 -26.077145 40.998661 -1.508561 2.260163 0.092807 -0.018758 -905704.000000 0 0 1
1.917043 -30.957474 -24.818165 39.723816 -1.508950 2.245631 0.079411 -0.010976 563091.000000 0 0 1
3.195743 -30.366234 -24.551265 39.180168 -1.465942 2.248011 0.062049 -0.011126 369290.000000 0 0 1
3.287943 -29.690884 -23.176365 37.808770 -1.460507 2.230635 0.076262 -0.015096 -132623.000000 0 0 1
3.234043 -30.574354 -22.081565 37.852948 -1.465412 2.193645 0.087397 -0.019344 474721.000000 0 0 1
3.441343 -29.795854 -20.930265 36.574742 -1.455808 2.180056 0.083934 -0.011036 -310533.000000 0 0 1
3.367943 -30.751844 -19.707865 36.679952 -1.461711 2.138020 0.084948 -0.010100 -280997.000000 0 0 1
2.100243 -31.206764 -19.274465 36.739327 -1.503597 2.123074 0.080509 -0.007985 85014.700000 0 0 1
1.860643 -32.604644 -19.393965 37.982242 -1.513791 2.106686 0.081748 -0.012084 -267806.000000 0 0 1
2.599543 -33.541814 -18.399865 38.345351 -1.493449 2.071276 0.053800 -0.021238 -45167.900000 0 0 1
3.975343 -33.690824 -18.658565 38.717141 -1.453345 2.073641 0.064484 -0.012096 -133853.000000 0 0 1
4.493043 33.034270 -17.737565 37.763364 1.435614 2.059751 0.069400 -0.024492 91856.200000 0 0 1
5.595043 32.162568 -18.353565 37.451150 1.398559 2.082963 0.091833 -0.028935 1427790.000000 0 0 1
6.890943 32.834415 -18.520465 38.322206 1.363929 2.075197 0.117622 -0.028047 1353760.000000 0 0 1
7.804843 31.920056 -19.130365 38.023367 1.330989 2.098003 0.114879 -0.048965 173023.000000 0 0 1
9.172843 32.555010 -19.445365 39.013997 1.296152 2.092572 0.113052 -0.050662 -146061.000000 0 0 1
10.023743 32.574084 -18.330465 38.698221 1.272271 2.064258 0.101315 -0.039848 1007850.000000 0 0 1
11.281043 33.267044 -18.604865 39.750461 1.243860 2.057870 0.104052 -0.031232 1285270.000000 0 0 1
12.190143 33.513937 -17.391065 39.676601 1.221940 2.024526 0.079891 -0.032688 -77951.300000 0 0 1
12.899743 32.370345 -16.955765 38.752298 1.191579 2.023660 0.080601 -0.039034 22166.200000 0 0 1
13.672743 32.605220 -15.793465 38.723091 1.173728 1.990902 0.071555 -0.036461 285025.000000 0 0 1
14.842443 31.601032 -15.551365 38.219999 1.131696 1.989844 0.079539 -0.038920 101365.000000 0 0 1
14.543643 30.288552 -15.162165 36.861975 1.123138 1.994701 0.083485 -0.043661 -492883.000000 0 0 1
15.718543 29.562412 -14.867465 36.634005 1.082106 1.988692 0.089366 -0.039557 -579743.000000 0 0 1
15.527243 28.205882 -14.223465 35.199063 1.067572 1.986776 0.096785 -0.041590 -220641.000000 0 0 1
15.200243 28.293132 -12.834165 34.587057 1.077801 1.950956 0.090298 -0.045591 -425846.000000 0 0 1
13.834643 28.530372 -12.618165 34.126200 1.119294 1.949536 0.110348 -0.048830 -403141.000000 0 0 1
13.100043 27.286242 -12.010365 32.563768 1.123198 1.948542 0.108048 -0.042320 -583817.000000 0 0 1
12.621943 26.414322 -13.034065 32.045541 1.125030 1.989674 0.083594 -0.040521 138293.000000 0 0 1
12.193943 25.135322 -12.517665 30.613209 1.119114 1.992042 0.107566 -0.038107 235775.000000 0 0 1
11.249143 25.046292 -11.301465 29.691465 1.148663 1.961274 0.112969 -0.041657 -988069.000000 0 0 1
10.027943 25.703672 -11.396865 29.851749 1.198822 1.962520 0.094394 -0.030471 -228314.000000 0 0 1
9.476143 25.964282 -10.094665 29.425219 1.220849 1.920971 0.072626 -0.021198 800092.000000 0 0 1
8.305743 27.032572 -10.071965 30.019823 1.272702 1.912943 0.079286 -0.023653 455470.000000 0 0 1
8.737543 28.309712 -10.520365 31.439824 1.271431 1.911997 0.077733 -0.032809 193082.000000 0 0 1
7.729143 29.273652 -10.774565 32.136857 1.312657 1.912689 0.060168 -0.031553 407241.000000 0 0 1
8.493943 30.594282 -11.175865 33.660914 1.299985 1.909233 0.076373 -0.032511 459612.000000 0 0 1
9.352943 31.079512 -10.103465 33.992552 1.278481 1.872582 0.064313 -0.028610 159788.000000 0 0 1
10.013543 32.255920 -10.443165 35.352159 1.269789 1.870675 0.075936 -0.030421 -239854.000000 0 0 1
11.078143 32.260800 -11.558065 36.014904 1.240019 1.897502 0.069918 -0.032975 -1219180.000000 0 0 1
12.337143 31.902033 -11.077065 35.953389 1.201791 1.883986 0.059321 -0.019862 -1237320.000000 0 0 1
13.284443 32.356125 -11.975065 36.970224 1.181212 1.900657 0.065531 -0.020941 -523819.000000 0 0 1
14.735043 32.302345 -11.462565 37.308891 1.142831 1.883082 0.086766 -0.024886 -67559.000000 0 0 1
15.016743 33.255969 -10.455665 37.957647 1.146654 1.849860 0.085360 -0.013908 -1191830.000000 0 0 1
16.394743 33.270486 -10.433965 38.530254 1.112948 1.845020 0.100814 -0.024753 -978689.000000 0 0 1
16.981243 -33.370164 -9.557165 38.642850 -1.100074 1.820710 0.105521 -0.019281 -95835.500000 0 0 1
16.749343 -33.649394 -8.203665 38.472358 -1.108942 1.785682 0.098789 -0.016294 44942.100000 0 0 1
17.518843 -32.873214 -7.303165 37.959113 -1.081160 1.764399 0.103507 -0.019688 -1018190.000000 0 0 1
17.935643 -33.600554 -6.001765 38.557823 -1.080483 1.727088 0.108055 -0.018974 637356.000000 0 0 1
19.000843 33.214387 -6.270365 38.775572 1.051169 1.733219 0.100152 -0.023844 346261.000000 0 0 1
20.283643 33.814662 -6.466765 39.958436 1.030489 1.733349 0.114391 -0.028101 -387330.000000 0 0 1
21.278443 32.798734 -7.094065 39.734806 0.995295 1.750294 0.088228 -0.020443 232448.000000 0 0 1
21.510143 31.618092 -6.328265 38.761281 0.973407 1.734793 0.080907 -0.010190 525053.000000 0 0 1
22.637943 31.793114 -5.426965 39.404701 0.952036 1.708959 0.075544 -0.010563 499825.000000 0 0 1
23.085643 30.499342 -4.746865 38.544643 0.922879 1.694262 0.043412 -0.009688 -559419.000000 0 0 1
23.739643 29.668042 -5.629165 38.411598 0.895948 1.717875 0.044569 -0.011077 -432731.000000 0 0 1
23.987243 28.425422 -5.013965 37.530418 0.869874 1.704794 0.042772 -0.002518 -343230.000000 0 0 1
24.878943 27.492912 -5.840665 37.535788 0.835268 1.727034 0.036679 0.000883 656714.000000 0 0 1
26.216643 28.012682 -6.033765 38.838499 0.818505 1.726783 0.050423 -0.001500 725829.000000 0 0 1
27.070843 27.073652 -6.633965 38.856436 0.785450 1.742367 0.031324 0.002749 247757.000000 0 0 1
27.833343 26.083422 -5.704065 38.569110 0.752954 1.719233 0.031975 0.009167 -428137.000000 0 0 1
28.853643 26.687182 -4.944965 39.613016 0.746411 1.695955 0.064221 0.000681 337607.000000 0 0 1
29.608243 25.660622 -4.197365 39.404739 0.714093 1.677518 0.076093 -0.004719 289928.000000 0 0 1
30.805743 26.376772 -3.551765 40.710477 0.708099 1.658152 0.086900 -0.013238 -351154.000000 0 0 1
30.432043 27.321142 -2.550665 40.976334 0.731585 1.633084 0.088479 -0.016164 -272784.000000 0 0 1
31.488943 27.603392 -1.680765 41.908540 0.719739 1.610913 0.096770 -0.024856 -170963.000000 0 0 1
31.282443 28.891132 -0.794865 42.590146 0.745679 1.589461 0.119348 -0.025445 32284.500000 0 0 1
31.510843 30.065402 -1.546465 43.580422 0.761928 1.606289 0.096542 -0.014074 -27159.500000 0 0 1
31.319843 31.172222 -0.689765 44.194069 0.783036 1.586405 0.103899 -0.015920 15464.100000 0 0 1
34.302458 22.009356 19.063825 44.994442 0.570466 1.133278 0.125282 -0.038060 -106100.000000 0 0 1
34.707148 21.902856 20.396725 45.829550 0.562957 1.109559 0.128434 -0.038112 241439.000000 0 0 1
35.460678 23.074856 20.704225 47.101737 0.576879 1.115683 0.147124 -0.027562 303427.000000 0 0 1
35.820288 23.286656 22.193025 48.144488 0.576443 1.091712 0.115132 -0.015739 1140100.000000 0 0 1
34.571718 23.669356 22.819735 47.709353 0.600346 1.072070 0.088636 -0.010165 1196990.000000 0 0 1
34.772018 24.093356 24.156155 48.714504 0.605942 1.051958 0.086536 -0.009124 -171356.000000 0 0 1
33.445958 24.382756 24.865105 48.284825 0.629938 1.029827 0.090677 -0.013947 9984.930000 0 0 1
33.053228 25.779656 24.714255 48.661082 0.662391 1.038068 0.078657 -0.015736 8373.950000 0 0 1
31.736938 26.079956 25.098655 48.138756 0.687866 1.022327 0.069212 -0.021680 -40334.600000 0 0 1
31.552058 27.583556 25.381185 48.995811 0.718390 1.026253 0.068496 -0.020405 -56344.200000 0 0 1
31.476978 28.449956 24.224095 48.857005 0.734929 1.052022 0.062996 -0.026877 113706.000000 0 0 1
31.077958 29.741356 24.556115 49.531712 0.763425 1.052080 0.073361 -0.032914 -230866.000000 0 0 1
31.367968 30.725256 23.408005 49.758672 0.775048 1.081018 0.071290 -0.026310 551365.000000 0 0 1
32.735408 31.100456 23.235295 50.781141 0.759792 1.095550 0.059071 -0.032742 309852.000000 0 0 1
32.883838 31.831456 22.019625 50.788308 0.769138 1.122360 0.048615 -0.021757 -726945.000000 0 0 1
34.278628 32.304856 21.712025 51.865596 0.755763 1.138870 0.040329 -0.034964 -902263.000000 0 0 1
34.960448 32.987556 22.702345 53.158332 0.756371 1.129546 0.045667 -0.015431 -631646.000000 0 0 1
36.314308 33.095256 22.366425 53.984089 0.739054 1.143606 0.052173 -0.007796 -377593.000000 0 0 1
37.005128 -33.395190 22.995425 54.894515 -0.734166 1.138561 0.063348 0.000695 -34016.700000 0 0 1
36.496278 -32.123890 22.545525 53.593128 -0.721765 1.136602 0.053259 -0.000972 239103.000000 0 0 1
36.744358 -31.082890 23.461915 53.542090 -0.702122 1.117206 0.066781 -0.000832 -237728.000000 0 0 1
35.735338 -29.911290 23.194565 52.054659 -0.696912 1.108973 0.064506 -0.005890 869012.000000 0 0 1
34.367428 -30.073290 23.547515 51.381012 -0.718860 1.094724 0.059254 -0.004597 574763.000000 0 0 1
33.595698 -30.677090 22.515625 50.761286 -0.740020 1.111231 0.057405 0.002567 -186095.000000 0 0 1
32.893268 -32.011190 22.976015 51.328166 -0.771809 1.106683 0.043641 -0.002518 -361573.000000 0 0 1
31.907028 -31.825390 23.933015 51.026494 -0.784117 1.082603 0.051522 -0.008300 -835472.000000 0 0 1
31.085578 -32.925190 23.937445 51.218967 -0.814129 1.084500 0.045547 -0.013431 -634146.000000 0 0 1
30.217258 -33.066890 25.182795 51.387499 -0.830397 1.058641 0.039332 -0.019946 -310199.000000 0 0 1
29.790458 33.353556 25.381345 51.421238 0.841767 1.054576 0.057500 -0.027203 -215112.000000 0 0 1
29.126958 33.136756 26.579225 51.506111 0.849710 1.028575 0.052018 -0.019970 -795331.000000 0 0 1
28.825158 31.613156 26.620485 50.387812 0.831495 1.014185 0.059123 -0.022061 544303.000000 0 0 1
27.870458 31.025356 25.731765 49.004682 0.838914 1.017978 0.060925 -0.024046 291798.000000 0 0 1
26.544358 31.505656 25.794795 48.606386 0.870657 1.011385 0.055327 -0.021395 -392126.000000 0 0 1
25.798958 31.335956 24.454615 47.387304 0.882007 1.028554 0.105025 -0.028696 35367.900000 0 0 1
26.256758 32.087356 23.320215 47.569404 0.885002 1.058436 0.104432 -0.037921 622832.000000 0 0 1
27.565758 31.871156 22.788185 47.905563 0.857708 1.075048 0.083954 -0.030440 356181.000000 0 0 1
27.879058 32.785756 21.609925 48.157414 0.866105 1.105447 0.102802 -0.027007 723112.000000 0 0 1
29.264858 32.825956 21.238725 48.837063 0.842688 1.120881 0.092057 -0.023343 832039.000000 0 0 1
29.305258 33.623256 20.080725 48.913771 0.853908 1.147758 0.086458 -0.026899 -223472.000000 0 0 1
30.719088 -33.665790 19.691625 49.646832 -0.831133 1.162949 0.081100 -0.034000 -4809.980000 0 0 1
31.531408 33.037056 19.108725 49.505759 0.808713 1.174516 0.075371 -0.031107 260098.000000 0 0 1
32.497988 33.588056 18.217325 50.161217 0.801891 1.199122 0.060189 -0.025036 -366697.000000 0 0 1
33.292348 32.568856 17.448625 49.734951 0.774414 1.212337 0.043493 -0.014633 -724696.000000 0 0 1
34.199598 31.942056 18.321925 50.255352 0.751279 1.197618 0.030602 -0.017741 -282828.000000 0 0 1
34.992208 31.028256 17.588325 49.965553 0.725429 1.211080 0.047544 -0.019750 -124222.000000 0 0 1
35.959038 30.240656 18.492325 50.492730 0.699231 1.195834 0.072249 -0.024740 238378.000000 0 0 1
36.922278 31.133656 19.065325 51.923461 0.700546 1.194819 0.078661 -0.027040 206809.000000 0 0 1
-37.601997 30.451556 19.985025 52.350823 -0.680711 1.179105 0.103284 -0.025092 39140.500000 0 0 1
-36.386527 31.240756 20.509425 52.159378 -0.709454 1.166680 0.135911 -0.022708 -405168.000000 0 0 1
-35.509378 31.519056 19.446725 51.308303 -0.725937 1.182062 0.135011 -0.027218 204842.000000 0 0 1
-34.339882 32.282056 19.775625 51.111975 -0.754520 1.173520 0.117890 -0.017103 518505.000000 0 0 1
-34.447432 33.691756 20.457425 52.347552 -0.774308 1.169296 0.096759 -0.016201 -557482.000000 0 0 1
-34.686132 33.589156 21.872725 53.007313 -0.769333 1.145450 0.100619 -0.011334 293293.000000 0 0 1
-34.276347 -32.935590 22.598115 52.633600 0.765453 1.127026 0.099704 -0.009552 108109.000000 0 0 1
-34.206026 -33.184590 24.163155 53.433391 0.770242 1.101554 0.103844 -0.019037 -240635.000000 0 0 1
-35.443958 -33.608790 24.657655 54.715856 0.758828 1.103304 0.097480 -0.012499 -435690.000000 0 0 1
-35.346255 33.717056 25.970145 55.323106 -0.761813 1.082155 0.110502 -0.014734 -133950.000000 0 0 1
-36.702947 33.373656 26.588695 56.283798 -0.737925 1.078780 0.093273 -0.021298 -73785.100000 0 0 1
-36.635687 32.956056 27.943915 56.649250 -0.732573 1.054940 0.114020 -0.019765 61560.300000 0 0 1
37.438838 32.888456 28.554455 57.434084 0.720785 1.050463 0.118060 -0.032450 451116.000000 0 0 1
37.395318 31.730656 29.613625 57.290585 0.703634 1.027568 0.125133 -0.028024 -82745.000000 0 0 1
37.296978 30.396756 29.241275 56.303459 0.683816 1.024705 0.118688 -0.032300 505220.000000 0 0 1
-36.948307 29.805156 28.567035 55.403973 -0.678796 1.029073 0.110224 -0.025486 228387.000000 0 0 1
-37.255847 28.365056 28.314075 54.719844 -0.650731 1.026943 0.117390 -0.023532 -509989.000000 0 0 1
37.061958 28.200356 27.395465 54.031105 0.650439 1.039059 0.102772 -0.019737 -64066.500000 0 0 1
36.801338 26.893856 26.914005 52.933748 0.631089 1.037416 0.111857 -0.023488 -31072.900000 0 0 1
36.143488 25.890356 27.892475 52.484783 0.621596 1.010498 0.108368 -0.028796 97347.500000 0 0 1
37.041278 25.501656 28.973905 53.496522 0.602943 0.998453 0.102028 -0.027663 509831.000000 0 0 1
36.844608 24.146756 29.463485 52.997056 0.580139 0.981296 0.102438 -0.021612 200465.000000 0 0 1
37.619248 23.015456 28.671105 52.601818 0.549051 0.994337 0.096981 -0.007578 334629.000000 0 0 1
37.171708 23.103956 27.326325 51.597061 0.556112 1.012655 0.097439 -0.013228 -158297.000000 0 0 1
-37.662937 22.032656 26.552545 51.078101 -0.529314 1.024130 0.101773 -0.017790 194524.000000 0 0 1
37.117378 20.530356 26.603065 50.069136 0.505235 1.010631 0.094044 -0.022721 515309.000000 0 0 1
35.748028 20.369456 26.209865 48.783125 0.517922 1.003596 0.112910 -0.017673 750241.000000 0 0 1
35.188728 19.097156 26.450475 47.985160 0.497226 0.986968 0.110317 -0.016833 -182649.000000 0 0 1
34.826048 18.692556 27.922605 48.393565 0.492606 0.955758 0.092604 0.001841 -304913.000000 0 0 1
33.845768 19.319256 28.732635 48.418323 0.518674 0.935489 0.081120 -0.010603 204586.000000 0 0 1
33.889428 20.726256 28.848115 49.094651 0.548894 0.942704 0.083951 -0.015352 -570547.000000 0 0 1
32.610738 21.249156 29.541725 48.864101 0.577499 0.921572 0.070486 -0.022943 628783.000000 0 0 1
31.369158 21.056656 28.840295 47.530721 0.591171 0.918803 0.088739 -0.024703 811614.000000 0 0 1
31.049528 21.910756 27.702965 47.027744 0.614522 0.940880 0.092381 -0.012740 -138280.000000 0 0 1
30.897878 23.432856 27.933345 47.791729 0.648854 0.946556 0.098020 -0.015364 519106.000000 0 0 1
32.200078 24.009856 28.134315 49.039350 0.640709 0.959769 0.084393 -0.022014 569388.000000 0 0 1
32.337878 25.252556 28.833305 50.147676 0.662984 0.958231 0.071120 -0.017055 -50296.000000 0 0 1
32.618988 25.316856 30.337335 51.237637 0.660021 0.937145 0.068648 -0.027937 1090070.000000 0 0 1
33.971088 24.910356 30.671235 52.108400 0.632715 0.941465 0.056139 -0.018106 807998.000000 0 0 1
34.215518 24.683956 32.081037 53.001814 0.624961 0.920676 0.072418 -0.020826 -53882.100000 0 0 1
33.666708 23.415756 32.787273 52.504763 0.607711 0.896353 0.074676 -0.023046 -328252.000000 0 0 1
34.090048 23.328056 -33.551735 53.216995 0.600116 2.252955 0.079480 -0.036990 432725.000000 0 0 1
33.342948 22.470056 -32.670635 51.807586 0.592999 2.253142 0.063074 -0.039220 423181.000000 0 0 1
34.088608 22.541856 -31.261915 51.453628 0.584259 2.223800 0.067330 -0.045386 492388.000000 0 0 1
33.627208 23.617856 -30.441295 51.139659 0.612297 2.208383 0.059265 -0.050877 148890.000000 0 0 1
34.033298 23.503856 -29.057165 50.547161 0.604398 2.183220 0.070305 -0.053154 -271320.000000 0 0 1
35.445028 23.988956 -28.707145 51.535621 0.594981 2.161608 0.080657 -0.027702 -387113.000000 0 0 1
35.888138 23.437356 -27.529025 50.942275 0.578528 2.141705 0.064569 -0.023056 -894827.000000 0 0 1
37.100758 24.022456 -27.208045 51.902046 0.574610 2.122594 0.075304 -0.007453 -482922.000000 0 0 1
-37.517577 23.279756 -26.049805 51.265076 -0.555359 2.103819 0.051701 0.001717 269072.000000 0 0 1
-36.669747 22.111356 -26.375295 50.291536 -0.542612 2.122863 0.033128 0.011370 583275.000000 0 0 1
-36.756917 21.022356 -25.504445 49.431641 -0.519523 2.112917 0.020187 0.015314 -258918.000000 0 0 1
-35.809013 19.850656 -25.811105 48.399867 -0.506175 2.133280 0.032368 0.030938 -715311.000000 0 0 1
-34.482156 20.062356 -25.421645 47.305151 -0.526943 2.138144 0.052530 0.029247 -932068.000000 0 0 1
-33.845157 18.825956 -25.383955 46.306117 -0.507620 2.150980 0.016830 0.017238 -118066.000000 0 0 1
-32.475197 19.023956 -24.714165 45.025985 -0.529913 2.151828 0.023046 0.008563 -217314.000000 0 0 1
-32.708017 19.292256 -23.380765 44.594458 -0.532910 2.122686 0.038235 0.004005 -17080.400000 0 0 1
-31.545047 19.319456 -22.587265 43.341850 -0.549517 2.118985 0.063307 0.006571 -125802.000000 0 0 1
-31.783797 19.659756 -21.077665 42.906686 -0.553945 2.084314 0.059237 0.008310 -676149.000000 0 0 1
-32.593687 18.761956 -20.470765 42.818357 -0.522309 2.069268 0.046953 0.000024 -576220.000000 0 0 1
-32.914637 19.305456 -19.173265 42.704661 -0.530457 2.036413 0.052225 0.001555 -957372.000000 0 0 1
-33.879537 18.385656 -18.444565 42.732393 -0.497204 2.017095 0.044603 -0.000520 -288667.000000 0 0 1
-34.619897 18.832356 -17.350565 43.060853 -0.498206 1.985514 0.062669 -0.011475 -12740.000000 0 0 1
-35.524168 19.880856 -17.570265 44.338800 -0.510217 1.978250 0.053616 -0.003112 -1177010.000000 0 0 1
-36.592637 19.851156 -16.466865 44.768819 -0.497059 1.947460 0.049173 -0.005059 -345044.000000 0 0 1
-36.270407 20.362956 -15.191365 44.282841 -0.511569 1.920962 0.051439 -0.006302 317367.000000 0 0 1
-37.431407 20.246956 -14.376165 44.919078 -0.495836 1.896574 0.067079 -0.006100 -71168.600000 0 0 1
-37.428097 21.197056 -13.104265 44.965536 -0.515302 1.866517 0.063499 -0.008567 -51842.200000 0 0 1
-37.612647 22.576256 -13.392865 45.866844 -0.540589 1.867108 0.077655 -0.022898 357384.000000 0 0 1
36.437128 22.889156 -13.827465 45.197086 0.560884 1.881719 0.065817 -0.011720 -73377.900000 0 0 1
36.234438 24.318956 -14.276865 45.914867 0.591104 1.886980 0.062429 -0.019462 -78604.600000 0 0 1
36.206718 25.304656 -13.293765 46.129993 0.609983 1.863123 0.066632 -0.016120 68554.000000 0 0 1
35.726948 26.571856 -13.775065 46.607197 0.639488 1.870834 0.039580 -0.000734 -354379.000000 0 0 1
36.769788 27.424156 -14.469565 48.098544 0.640829 1.876361 0.071811 -0.000232 -245618.000000 0 0 1
37.245698 27.040556 -15.743065 48.644402 0.627966 1.900366 0.074069 0.000176 42901.900000 0 0 1
-37.100127 27.906056 -16.208365 49.171928 -0.644896 1.906704 0.083122 -0.003772 -412792.000000 0 0 1
-36.718457 27.551156 -17.650165 49.181700 -0.643716 1.937860 0.085358 -0.007325 104262.000000 0 0 1
-35.974704 26.369556 -17.970065 48.088003 -0.632534 1.953782 0.087965 -0.008392 475048.000000 0 0 1
-34.635182 26.291456 -17.542565 46.888998 -0.649298 1.954254 0.105430 -0.000759 155292.000000 0 0 1
-33.856677 25.026956 -18.074765 45.818340 -0.636555 1.976306 0.095483 -0.001500 300171.000000 0 0 1
-33.969397 24.966656 -19.433565 46.421087 -0.633816 2.002740 0.076563 0.006241 695794.000000 0 0 1
-32.784507 24.441456 -20.031265 45.535264 -0.640627 2.026291 0.075569 0.011995 349403.000000 0 0 1
-32.924547 24.423756 -21.588965 46.331729 -0.638239 2.055521 0.074286 0.013834 -312294.000000 0 0 1
-33.988987 23.577856 -21.944565 46.826600 -0.606479 2.058541 0.075489 0.020950 -99121.700000 0 0 1
-34.136827 23.277156 -23.319565 47.444189 -0.598460 2.084626 0.053015 0.020582 -136409.000000 0 0 1
-34.910555 24.281656 -24.216665 48.936618 -0.607726 2.088467 0.046480 0.010310 -320579.000000 0 0 1
-34.112165 25.457556 -24.468665 49.096258 -0.641122 2.092527 0.054376 0.006562 485333.000000 0 0 1
-34.812222 26.402456 -25.303215 50.489932 -0.648871 2.095728 0.059188 -0.005603 -34686.700000 0 0 1
-34.108590 27.714056 -25.634965 50.878446 -0.682331 2.098843 0.057177 -0.011254 118416.000000 0 0 1
-33.000677 27.515556 -26.495705 50.479431 -0.695006 2.123372 0.044954 -0.013167 -243467.000000 0 0 1
-32.404747 28.776356 -26.830945 50.971030 -0.726162 2.125152 0.055322 -0.020485 271815.000000 0 0 1
-31.057157 28.659956 -27.575125 50.461150 -0.745277 2.148931 0.061910 -0.018000 127390.000000 0 0 1
-30.004977 28.194856 -26.741405 49.095329 -0.754306 2.146808 0.064963 -0.016157 1080160.000000 0 0 1
-28.682807 28.185456 -27.331755 48.622507 -0.776653 2.167745 0.073074 -0.012290 1590910.000000 0 0 1
-27.853507 29.514856 -27.385705 48.958364 -0.814349 2.164419 0.056507 -0.024381 4630.080000 0 0 1
-27.238257 29.972356 -26.160055 48.214243 -0.833152 2.144301 0.057062 -0.022297 221317.000000 0 0 1
-28.186627 30.260456 -25.131035 48.391632 -0.820865 2.116858 0.060795 -0.018317 -16841.700000 0 0 1
-27.681337 30.838456 -23.776165 47.776279 -0.839296 2.091691 0.039008 -0.018065 -89119.600000 0 0 1
-27.161087 32.148156 -23.846765 48.372480 -0.869287 2.086310 0.042666 -0.016265 -43170.300000 0 0 1
-26.449437 32.485556 -22.715965 47.653952 -0.887462 2.067677 0.049048 -0.004811 -304319.000000 0 0 1
-25.863307 -33.785690 -22.806365 48.275395 0.917442 2.062833 0.043683 0.015139 -391362.000000 0 0 1
-26.797987 -32.758790 -22.759165 48.054657 0.885152 2.064181 0.036070 -0.001565 -345279.000000 0 0 1
-26.218397 -31.477490 -22.846465 46.906265 0.876299 2.079524 0.064819 -0.013517 -360287.000000 0 0 1
17.681443 8.280056 -25.280215 31.941854 0.437960 2.483965 0.115070 -0.026907 -438638.000000 0 0 1
16.305943 8.050456 -25.282245 31.142985 0.458605 2.518045 0.093302 -0.032776 -519264.000000 0 0 1
16.119643 6.630156 -25.274385 30.701733 0.390217 2.537862 0.091719 -0.039249 593531.000000 0 0 1
14.649943 6.127656 -25.119205 29.717730 0.396158 2.577848 0.102076 -0.046468 834678.000000 0 0 1
13.949343 6.468056 -23.907365 28.425024 0.434173 2.570050 0.128037 -0.048739 1303030.000000 0 0 1
12.576743 6.025456 -23.948065 27.712640 0.446784 2.614269 0.134436 -0.049740 1001600.000000 0 0 1
11.779243 6.205556 -22.635165 26.260430 0.484874 2.609899 0.142572 -0.051412 -69655.300000 0 0 1
12.134043 5.206956 -21.670665 25.376468 0.405355 2.594359 0.131759 -0.036771 193868.000000 0 0 1
11.458943 5.332456 -20.435265 24.027953 0.435548 2.587691 0.133507 -0.033657 -123219.000000 0 1 0
11.886443 6.557856 -19.549965 23.801137 0.504154 2.534636 0.127028 -0.040483 -1370.590000 0 1 0
11.290343 6.518256 -18.265565 22.440819 0.523584 2.521705 0.113559 -0.037448 -188667.000000 0 1 0
11.273643 7.795956 -17.664665 22.358720 0.605012 2.481698 0.106008 -0.041741 35090.600000 0 1 0
12.621143 8.327056 -17.130065 22.848900 0.583213 2.418421 0.092632 -0.037714 -260838.000000 0 1 0
13.287943 7.454256 -16.284065 22.300362 0.511233 2.389433 0.121230 -0.043356 315625.000000 0 1 0
14.553543 7.988056 -15.913265 22.996666 0.501978 2.335026 0.108860 -0.039648 393509.000000 0 1 0
15.455643 7.278556 -14.867765 22.647400 0.440124 2.286951 0.131816 -0.041768 -472811.000000 0 1 0
16.570843 8.047056 -14.597165 23.503727 0.452074 2.240888 0.099304 -0.040756 -336970.000000 0 1 0
17.269943 7.626456 -13.422165 23.163943 0.415849 2.188840 0.099884 -0.040220 675816.000000 0 1 0
18.257843 8.803056 -12.998065 24.078877 0.449268 2.141010 0.138601 -0.040663 510008.000000 0 1 0
17.545543 10.017856 -12.732765 23.881516 0.518795 2.133132 0.185096 -0.040092 755767.000000 0 1 0
18.411443 11.073556 -12.299065 24.756249 0.541485 2.090711 0.224637 -0.061284 -365308.000000 0 1 0
17.644343 12.317656 -11.913765 24.596448 0.609455 2.076438 0.255533 -0.067376 -657238.000000 0 1 0
16.866343 12.186956 -10.746265 23.419599 0.625707 2.047506 0.298435 -0.053007 321911.000000 0 1 0
16.155543 13.357556 -10.369065 23.386820 0.690876 2.030154 0.181270 -0.039739 774995.000000 0 1 0
14.780743 13.545656 -11.119865 22.926111 0.741824 2.077194 0.141448 -0.050544 107580.000000 0 1 0
13.775243 14.410356 -10.660665 22.606757 0.807928 2.061866 0.176091 -0.062650 -101245.000000 0 1 0
14.094943 15.789956 -10.597765 23.670715 0.842056 2.035006 0.191316 -0.060263 -334955.000000 0 1 0
13.129043 16.628056 -9.716765 23.308358 0.902447 2.000805 0.179761 -0.051571 14781.600000 0 1 0
13.447343 16.707256 -8.349165 23.014604 0.893087 1.942042 0.176669 -0.042495 -61638.800000 0 1 0
12.391843 17.142356 -7.527765 22.451846 0.944880 1.912704 0.142179 -0.029028 -129802.000000 0 1 0
12.617143 17.137056 -5.996265 22.109414 0.936154 1.845445 0.115560 -0.018644 449699.000000 0 1 0
13.722643 17.961356 -5.625065 23.292973 0.918389 1.814699 0.135042 -0.021963 426917.000000 0 1 0
14.120643 17.789856 -4.284065 23.113302 0.899880 1.757225 0.126889 -0.015016 -69520.500000 0 1 0
15.315743 18.717656 -3.925865 24.501735 0.885025 1.731718 0.117406 -0.020960 -146777.000000 0 1 0
16.435343 18.484156 -4.733665 25.183171 0.844003 1.759891 0.130454 -0.034542 156033.000000 0 0 1
17.411943 19.529656 -4.723065 26.587413 0.842661 1.749387 0.085595 -0.030940 392971.000000 0 0 1
18.681443 19.329756 -5.575465 27.453990 0.802452 1.775303 0.086420 -0.019194 574525.000000 0 0 1
19.713043 18.597256 -4.869265 27.534918 0.756281 1.748571 0.090692 -0.028970 518390.000000 0 0 1
20.080643 17.486356 -5.655365 27.221095 0.716450 1.780077 0.130832 -0.036943 -480025.000000 0 0 1
21.090043 16.537556 -5.022865 27.267377 0.664995 1.756062 0.134324 -0.048099 -700327.000000 0 0 1
22.407743 16.977156 -5.045165 28.561941 0.648377 1.748367 0.101866 -0.044022 -124063.000000 0 0 1
23.296243 16.046356 -4.386465 28.625889 0.603167 1.724637 0.119656 -0.051388 829215.000000 0 0 1
24.806143 16.385856 -4.541065 30.074279 0.583760 1.722371 0.119999 -0.042017 334828.000000 0 0 1
25.201643 17.501156 -3.785465 30.915093 0.606988 1.693552 0.116812 -0.038682 150663.000000 0 0 1
26.619243 17.528356 -3.684865 32.084351 0.582317 1.685900 0.106891 -0.026048 423908.000000 0 0 1
27.150143 18.871856 -2.998965 33.200467 0.607425 1.661249 0.112529 -0.026821 -112566.000000 0 0 1
27.157543 19.942556 -3.883765 33.916387 0.633396 1.685558 0.106638 -0.032860 138433.000000 0 0 1
27.178943 21.221156 -3.151365 34.626052 0.662920 1.661934 0.123604 -0.012163 -188426.000000 0 0 1
27.246043 22.512856 -3.990365 35.568224 0.690561 1.683222 0.091541 -0.011881 301438.000000 0 0 1
28.496043 22.747156 -4.628265 36.754298 0.673677 1.697056 0.087739 -0.002185 409933.000000 0 0 1
28.851043 21.988156 -5.783565 36.732973 0.651217 1.728903 0.067236 0.000228 88424.200000 0 0 1
29.990643 22.656056 -6.564565 38.155328 0.646972 1.743705 0.063199 -0.000461 162423.000000 0 0 1
29.377743 23.620156 -7.426565 38.420273 0.677185 1.765319 0.032682 0.004820 995091.000000 0 0 1
30.323543 24.510256 -8.073765 39.817780 0.679776 1.774980 0.031562 0.001943 363392.000000 0 0 1
31.202243 23.881656 -9.174565 40.349549 0.653274 1.800180 0.030764 -0.011201 -38417.700000 0 0 1
30.567543 23.685356 -10.443765 40.055499 0.659218 1.834577 0.024870 -0.002232 123133.000000 0 0 1
31.427543 23.055656 -11.383965 40.606014 0.632931 1.854957 0.009617 -0.013136 114263.000000 0 0 1
30.812343 22.697256 -12.797365 40.352676 0.634888 1.893506 0.022356 -0.006886 95744.600000 0 0 1
30.624843 23.809856 -13.634865 41.118120 0.660851 1.908798 0.020384 -0.013406 44560.300000 0 0 1
30.500143 23.398056 -14.955465 41.247953 0.654384 1.941825 0.036601 -0.017033 -274938.000000 0 0 1
30.723943 24.462056 -16.000765 42.407279 0.672413 1.957688 0.039828 -0.011684 330827.000000 0 0 1
32.126943 24.788756 -16.099565 43.655685 0.657175 1.948498 0.036211 -0.007141 905058.000000 0 0 1
32.457843 25.231856 -17.416865 44.648688 0.660791 1.971522 0.043468 -0.004247 1078940.000000 0 0 1
33.995643 25.457256 -17.693365 46.009029 0.642758 1.965531 0.038949 0.000008 967116.000000 0 0 1
34.738343 24.285356 -17.909165 46.013793 0.610117 1.970573 0.054191 0.006661 477359.000000 0 0 1
36.116843 24.640156 -18.140165 47.335285 0.598703 1.964084 0.066420 0.004615 511299.000000 0 0 1
37.054243 23.459156 -17.917265 47.374859 0.564405 1.958650 0.062774 -0.003926 -317802.000000 0 0 1
37.263243 22.662056 -19.053965 47.593819 0.546399 1.982690 0.063226 0.005488 822688.000000 0 0 1
-36.781073 22.917156 -19.587065 47.557297 -0.557210 1.995293 0.080952 0.018774 677047.000000 0 0 1
-36.545873 22.176056 -20.922165 47.593227 -0.545405 2.025954 0.083641 0.011724 -259970.000000 0 0 1
-36.302773 20.793856 -20.715765 46.684244 -0.520172 2.030566 0.064944 0.011776 -41813.000000 0 0 1
-35.812073 20.136056 -21.880765 46.548181 -0.512215 2.060163 0.066313 0.011380 -19150.600000 0 0 1
-35.830873 18.606756 -21.805965 45.886413 -0.478963 2.066006 0.052115 0.006900 -315218.000000 0 0 1
-37.049573 18.002556 -21.472465 46.452445 -0.452308 2.051323 0.062863 -0.001548 -328002.000000 0 0 1
-36.943273 16.580056 -21.448665 45.823017 -0.421854 2.057909 0.049988 -0.008172 313238.000000 0 0 1
37.037243 15.868256 -21.325565 45.588799 0.404781 2.057575 0.054994 -0.011549 427832.000000 0 0 1
36.306743 15.907056 -22.558165 45.607947 0.412939 2.088183 0.067188 0.001683 815575.000000 0 0 1
35.234543 14.950256 -22.651865 44.475725 0.401283 2.105177 0.104073 -0.007510 473422.000000 0 0 1
35.726143 13.538256 -23.169565 44.681880 0.362225 2.115945 0.058104 -0.005508 -154059.000000 0 0 1
35.916143 13.582456 -24.573865 45.588675 0.361548 2.140087 0.074056 -0.007692 -30422.500000 0 0 1
36.539743 12.461756 -25.080565 46.037842 0.328676 2.146925 0.039069 0.001347 -502592.000000 0 0 1
36.732643 12.431456 -26.602935 47.027059 0.326331 2.172071 0.030661 0.006096 987416.000000 0 0 1
35.446543 12.157156 -27.223855 46.318378 0.330400 2.199077 0.024972 0.001241 1055520.000000 0 0 1
34.851043 13.311356 -27.718895 46.477140 0.364850 2.209803 0.042836 0.001275 -498909.000000 0 0 1
35.014043 13.592456 -29.271055 47.618617 0.370293 2.232799 0.052063 -0.001596 473060.000000 0 0 1
36.393543 13.859756 -29.546825 48.883511 0.363872 2.219851 0.039265 0.008684 312314.000000 0 0 1
36.681143 13.995756 -30.891055 49.956428 0.364502 2.237450 0.051186 0.005359 -528415.000000 0 0 1
-37.177173 14.245456 -31.039475 50.482910 -0.365921 2.232994 0.064685 0.001652 101721.000000 0 0 1
-36.223573 13.236256 -30.742205 49.319660 -0.350332 2.243785 0.067460 0.002974 285507.000000 0 0 1
-35.965673 13.061456 -29.362935 48.231869 -0.348354 2.225327 0.048150 0.004522 -70969.200000 0 0 1
-34.833973 11.981056 -29.187235 46.998362 -0.331273 2.240848 0.049408 -0.004122 566752.000000 0 0 1
-35.319173 10.673056 -29.444555 47.205295 -0.293464 2.244334 0.053112 -0.005244 763838.000000 0 0 1
-34.262773 9.704756 -29.366505 46.157464 -0.276015 2.260391 0.054668 -0.007793 549086.000000 0 0 1
-34.760473 8.353456 -29.879225 46.592261 -0.235843 2.266977 0.063857 -0.005590 -440141.000000 0 0 1
-34.795573 8.282056 -31.286075 47.519920 -0.233672 2.289458 0.078205 -0.010212 -33044.300000 0 0 1
-35.233973 7.092556 -31.868075 48.034481 -0.198644 2.296205 0.094004 -0.011737 455908.000000 0 0 1
-36.606473 6.448356 -31.482595 48.711076 -0.174365 2.273539 0.101449 -0.006411 41855.300000 0 0 1
-36.599173 5.844056 -30.196385 47.806632 -0.158341 2.254458 0.092936 -0.009412 -234968.000000 0 0 1
37.476243 5.561656 -29.718225 48.151570 0.147330 2.235951 0.076795 0.003101 -351515.000000 0 0 1
37.424943 5.010656 -28.289075 47.180555 0.133094 2.213787 0.080428 -0.004440 -161316.000000 0 0 1
-37.569073 3.647156 -28.240985 47.141173 -0.096775 2.213139 0.109247 0.001866 233240.000000 0 0 1
-37.647273 3.081156 -26.961765 46.408485 -0.081661 2.190712 0.120952 -0.003780 -138617.000000 0 0 1
-36.975373 1.666956 -26.846245 45.723930 -0.045052 2.198315 0.167044 -0.009385 829046.000000 0 0 1
-35.541873 1.752756 -26.745815 44.515565 -0.049275 2.215322 0.151099 -0.004370 920572.000000 0 0 1
-34.946273 0.488056 -26.650045 43.951167 -0.013965 2.222266 0.156712 -0.011714 -606929.000000 0 0 1
-33.742073 0.351456 -25.756745 42.450688 -0.010416 2.222756 0.145523 -0.011938 -723606.000000 0 0 1
-33.994173 0.371756 -24.340365 41.811426 -0.010935 2.192162 0.147175 -0.012015 639106.000000 0 0 1
-32.798873 0.182756 -23.568065 40.388775 -0.005572 2.193865 0.164594 -0.011270 523331.000000 0 0 1
-33.032773 0.240956 -22.042665 39.712734 -0.007294 2.159223 0.160407 -0.001417 -135852.000000 0 0 1
-33.375073 -1.076844 -21.489865 39.709815 0.032254 2.142627 0.170490 -0.019706 365455.000000 0 0 1
-33.913773 -0.977344 -20.180465 39.475947 0.028811 2.107387 0.158935 -0.021592 -99984.000000 0 0 1
-35.437473 -0.880344 -20.048265 40.724961 0.024837 2.085509 0.166872 -0.021799 -259534.000000 0 0 1
-36.181273 -2.057844 -20.342065 41.558619 0.056815 2.082288 0.156503 -0.020515 580152.000000 0 0 1
-37.485673 -2.045344 -19.761365 42.424882 0.054509 2.055331 0.151936 -0.016058 887992.000000 0 0 1
37.057343 -3.409244 -19.730165 42.120648 -0.091741 2.058298 0.146656 -0.021350 266231.000000 0 0 1
36.644143 -4.006244 -20.911565 42.380853 -0.108896 2.086814 0.131182 -0.013122 797772.000000 0 0 1
-37.608773 -4.616044 -21.579365 43.605007 0.122128 2.088496 0.130833 -0.021597 371658.000000 0 0 1
37.334443 -5.394844 -22.833765 44.094736 -0.143507 2.115114 0.117426 -0.016518 -266766.000000 0 0 1
36.640943 -6.599044 -22.545865 43.524959 -0.178190 2.115306 0.134529 -0.013884 443574.000000 0 0 1
36.144643 -7.350844 -23.643365 43.811857 -0.200637 2.140826 0.133535 -0.006947 933066.000000 0 0 1
34.732943 -6.931844 -24.215465 42.904738 -0.196987 2.170503 0.091925 0.006962 373564.000000 0 0 1
34.636543 -5.763844 -24.973265 43.088002 -0.164898 2.189019 0.108067 -0.004097 -220006.000000 0 0 1
33.293043 -5.434844 -25.200505 42.107359 -0.161815 2.212402 0.088886 -0.001853 -188288.000000 0 0 1
33.149743 -4.235044 -26.152815 42.435961 -0.127067 2.234818 0.128511 -0.037129 -31707.700000 0 0 1
33.147343 -4.671444 -27.511315 43.329449 -0.140008 2.258719 0.129161 -0.043213 265960.000000 0 0 1
32.885443 -3.571544 -28.350285 43.565433 -0.108182 2.279371 0.137838 -0.050235 -6059.070000 0 0 1
32.580843 -3.974944 -29.734695 44.288414 -0.121403 2.306876 0.145214 -0.047466 185916.000000 0 0 1
32.204943 -2.889444 -30.647055 44.550524 -0.089481 2.329411 0.124110 -0.063173 122784.000000 0 0 1
31.502143 -3.350344 -31.780145 44.873014 -0.105955 2.357776 0.112933 -0.062516 -560121.000000 0 0 1
30.902743 -2.255944 -32.665025 45.023024 -0.072872 2.382583 0.115377 -0.056603 -91752.500000 0 0 1
29.899743 -1.418544 -32.039715 43.846895 -0.047408 2.390169 0.107807 -0.057033 1018890.000000 0 0 1
28.583243 -1.927744 -31.844065 42.834127 -0.067341 2.408977 0.123951 -0.057709 400866.000000 0 0 1
27.745243 -2.163844 -33.115175 43.256162 -0.077832 2.442707 0.116289 -0.057595 -1243870.000000 0 0 1
28.219243 -3.242444 33.810895 44.158982 -0.114400 0.698725 0.113516 -0.054947 -89858.300000 0 0 1
27.524243 -3.469244 32.605374 42.810396 -0.125382 0.704983 0.089100 -0.038852 -648098.000000 0 0 1
28.186343 -4.646344 31.873433 42.801567 -0.163375 0.730742 0.067468 -0.041389 628120.000000 0 0 1
29.514343 -4.497644 31.378675 43.312197 -0.151225 0.760522 0.070881 -0.038123 229526.000000 0 0 1
29.731543 -3.467444 30.412625 42.672187 -0.116101 0.777451 0.085774 -0.041395 -840106.000000 0 0 1
30.534243 -2.268644 30.910675 43.508120 -0.074162 0.780648 0.085567 -0.044035 -1047390.000000 0 0 1
31.822043 -2.498344 31.359525 44.747111 -0.078349 0.794255 0.081300 -0.045305 -947645.000000 0 0 1
32.399343 -1.269844 31.713969 45.355327 -0.039173 0.796471 0.081237 -0.037908 -264455.000000 0 0 1
33.854643 -1.448444 32.177691 46.729419 -0.042758 0.811245 0.071439 -0.036622 243659.000000 0 0 1
34.752643 -1.732244 31.099955 46.668555 -0.049804 0.841426 0.083936 -0.039687 698461.000000 0 0 1
36.126943 -1.731044 31.484865 47.952572 -0.047879 0.854516 0.098429 -0.035108 951703.000000 0 0 1
37.143043 -2.193444 30.393615 48.043612 -0.058985 0.885858 0.115846 -0.033333 354851.000000 0 0 1
37.366843 -1.315644 29.293505 47.498645 -0.035194 0.906223 0.117069 -0.020054 611825.000000 0 0 1
-36.901873 -1.779344 28.483495 46.650013 0.048181 0.914005 0.132331 -0.016391 566318.000000 0 0 1
-36.742873 -1.086544 27.072465 45.652356 0.029563 0.936000 0.124971 -0.004873 -324796.000000 0 0 1
37.645543 -1.342944 26.131505 45.845893 -0.035658 0.964308 0.112941 -0.016478 -642065.000000 0 0 1
-37.224673 -1.018544 24.880105 44.785414 0.027355 0.981784 0.118148 -0.012997 58061.900000 0 0 1
-27.187887 15.147856 11.846735 33.301410 -0.508320 1.207088 0.123692 -0.019939 432914.000000 0 0 1
-28.332747 14.396256 12.248435 34.059080 -0.470117 1.202932 0.104035 -0.010782 -189586.000000 0 0 1
-29.365157 15.195456 12.672135 35.409001 -0.477522 1.204801 0.117918 -0.016318 -1210810.000000 0 0 1
-30.623227 14.390256 12.974435 36.238067 -0.439290 1.204636 0.125227 -0.005445 -996721.000000 0 0 1
-31.532657 15.195156 13.643635 37.567939 -0.449052 1.199126 0.123213 -0.012650 -644503.000000 0 0 1
-32.477887 14.371056 14.327835 38.296570 -0.416589 1.187340 0.143860 -0.022478 -82140.400000 0 0 1
-33.298407 15.219056 15.347935 39.698397 -0.428702 1.173840 0.111985 -0.022077 239313.000000 0 0 1
-32.619087 15.803556 16.452235 39.804940 -0.451161 1.144698 0.084980 -0.014567 -428068.000000 0 0 1
-33.591007 16.095056 17.425835 41.122577 -0.446827 1.133211 0.112316 -0.035772 143386.000000 0 0 1
-33.039907 16.388256 18.831535 41.410592 -0.460454 1.098703 0.147461 -0.023970 100923.000000 0 0 1
-32.479167 15.263056 19.528935 40.856291 -0.439307 1.072430 0.148847 -0.027034 52638.300000 0 0 1
-31.714927 15.647056 20.697235 40.976121 -0.458326 1.041293 0.119052 -0.017111 154722.000000 0 0 1
-32.454207 15.841856 22.024635 42.300408 -0.454106 1.023159 0.122782 -0.031619 -289008.000000 0 0 1
-33.309587 16.978956 21.932935 43.345902 -0.471403 1.040258 0.134484 -0.035890 126060.000000 0 0 1
-33.979127 17.401456 23.085735 44.613259 -0.473298 1.026912 0.154277 -0.043920 -439466.000000 0 0 1
-35.125087 16.491056 23.696035 45.466787 -0.438947 1.022572 0.139759 -0.051698 188823.000000 0 0 1
-36.303167 16.322956 22.950235 45.946405 -0.422545 1.047775 0.138078 -0.040191 274106.000000 0 0 1
-37.048537 17.562156 22.878035 46.951336 -0.442657 1.061834 0.137230 -0.040864 -1100330.000000 0 0 1
36.788798 17.441356 22.731335 46.629713 0.442709 1.061588 0.146223 -0.040873 29916.400000 0 0 1
36.177918 16.942656 23.927535 46.566321 0.437980 1.031144 0.144881 -0.050781 147225.000000 0 0 1
35.249228 15.912156 23.650635 45.332740 0.424033 1.021940 0.135426 -0.050899 -192847.000000 0 0 1
34.903498 15.028656 24.856335 45.408722 0.406585 0.991553 0.103639 -0.034800 -285780.000000 0 0 1
34.098118 15.757156 25.761835 45.548236 0.432881 0.969642 0.114554 -0.039114 165829.000000 0 0 1
33.859458 15.127356 26.961435 45.849959 0.420164 0.942168 0.104865 -0.027704 186362.000000 0 0 1
32.896868 13.903256 27.004735 44.774548 0.399863 0.923381 0.095806 -0.027944 -315018.000000 0 0 1
33.564078 12.699056 26.761235 44.765802 0.361707 0.930036 0.100336 -0.028306 -166563.000000 0 0 1
32.826328 11.553656 27.132635 44.127482 0.338423 0.908576 0.093998 -0.019930 65573.800000 0 0 1
33.549188 10.194256 26.830835 44.151609 0.294994 0.917638 0.090655 -0.017606 1022200.000000 0 0 1
34.701188 9.886656 27.673835 45.472624 0.277554 0.916524 0.102957 -0.015368 1145420.000000 0 0 1
35.219288 8.586056 27.388035 45.433722 0.239124 0.923774 0.113934 -0.007217 -499504.000000 0 0 1
36.383808 8.085956 28.207835 46.742338 0.218686 0.922944 0.113834 -0.007972 -796391.000000 0 0 1
37.604678 8.722356 27.963535 47.667081 0.227918 0.943890 0.122915 -0.015784 178503.000000 0 0 1
-36.730007 7.962156 28.637735 47.250494 -0.213472 0.919669 0.133392 -0.022267 507043.000000 0 0 1
-35.353281 8.654456 28.827635 46.430450 -0.240078 0.900934 0.141991 -0.027654 95319.300000 0 0 1
-34.759218 9.012556 27.649935 45.320507 -0.253699 0.914612 0.127872 -0.022857 -244534.000000 0 0 1
-33.427427 9.403956 27.917235 44.555575 -0.274237 0.893651 0.116734 -0.014749 112366.000000 0 0 1
-32.714697 10.210456 26.810135 43.511931 -0.302526 0.906944 0.103911 -0.014307 -72545.900000 0 0 1
-32.198617 9.400056 25.813635 42.325592 -0.284046 0.914884 0.097984 -0.009961 151757.000000 0 0 1
-31.402667 10.073256 24.849535 41.292825 -0.310408 0.925058 0.091889 -0.010196 199254.000000 0 0 1
-30.617337 9.098056 23.951535 39.923326 -0.288843 0.927372 0.092824 -0.007181 116552.000000 0 0 1
-29.576127 9.597056 23.147035 38.763849 -0.313767 0.930879 0.086588 -0.018589 291760.000000 0 0 1
-28.963127 8.571556 22.366135 37.584283 -0.287734 0.933415 0.074664 -0.009342 -235801.000000 0 0 1
-27.846307 9.009056 21.440335 36.280406 -0.312900 0.938546 0.068897 -0.010721 -957283.000000 0 0 1
-26.781747 9.689356 22.113535 36.057649 -0.347139 0.910586 0.066634 -0.013215 1186980.000000 0 0 1
-25.785487 10.327256 21.283035 34.993016 -0.380943 0.916995 0.055816 -0.006999 490349.000000 0 0 1
-25.059147 9.534056 20.232235 33.588725 -0.363551 0.924352 0.042322 -0.007981 -1356130.000000 0 0 1
-25.740267 9.354356 19.000135 33.332724 -0.348574 0.964273 0.049919 -0.009302 310119.000000 0 0 1
-25.067497 8.553056 18.030135 32.040911 -0.328815 0.973121 0.054069 -0.022410 -134480.000000 0 0 1
-24.766857 7.094956 18.306135 31.604591 -0.278998 0.953020 0.062590 -0.017758 -120608.000000 0 0 1
-23.585257 6.817656 19.045035 31.071822 -0.281394 0.911025 0.062581 -0.016132 662658.000000 0 0 1
-23.577857 5.442956 19.518535 31.088814 -0.226876 0.892032 0.083901 -0.021897 -251029.000000 0 0 1
-23.582557 4.220156 18.610235 30.336242 -0.177078 0.910355 0.095879 -0.029160 -79889.800000 0 0 1
-24.875557 3.953956 18.089035 31.010326 -0.157631 0.947983 0.116030 -0.035306 555874.000000 0 0 1
-24.783357 3.009456 17.034835 30.223455 -0.120839 0.972023 0.112445 -0.033528 -16075.900000 0 0 1
-24.782757 1.483056 17.316035 30.269284 -0.059771 0.961774 0.120266 -0.028235 -416461.000000 0 0 1
-23.580257 1.023756 17.860035 29.598268 -0.043389 0.923020 0.105890 -0.027431 16071.500000 0 0 1
-23.737157 -0.319444 18.328735 29.991619 0.013457 0.913311 0.119462 -0.026494 -104641.000000 0 0 1
-22.411957 -1.111344 18.566235 29.124491 0.049547 0.879575 0.115871 -0.016817 -626850.000000 0 0 1
-21.602957 -0.500444 19.444735 29.069502 0.023161 0.838062 0.103252 -0.021175 -654569.000000 0 0 1
-20.626757 -1.408344 19.915135 28.706430 0.068172 0.804111 0.108705 -0.017444 -7519.350000 0 0 1
-19.618257 -0.880044 20.938835 28.706886 0.044828 0.753350 0.112725 -0.023605 301317.000000 0 0 1
-20.171557 -0.864644 22.235735 30.034434 0.042838 0.737218 0.110084 -0.025449 -139055.000000 0 0 1
-19.156257 -0.577844 23.162835 30.063483 0.030156 0.691227 0.120480 -0.028478 -289516.000000 0 0 1
-19.589157 -0.538344 24.675535 31.510426 0.027475 0.671176 0.109164 -0.017722 431558.000000 0 0 1
-20.334657 0.601556 25.143935 32.343123 -0.029574 0.680255 0.105467 -0.033079 339416.000000 0 0 1
-21.714757 0.559956 24.817735 32.981270 -0.025781 0.718977 0.086081 -0.026993 190400.000000 0 0 1
-22.573157 1.732356 25.404735 34.028650 -0.076594 0.727906 0.075067 -0.028662 58967.500000 0 0 1
-22.284057 2.939356 24.684035 33.384437 -0.131147 0.738636 0.068712 -0.024589 780212.000000 0 0 1
-23.404357 3.398256 23.933035 33.646727 -0.144190 0.779445 0.072237 -0.026929 -422503.000000 0 0 1
-22.885157 4.401356 22.863535 32.647260 -0.190004 0.794950 0.079316 -0.022393 154803.000000 0 0 1
-22.140657 3.950856 21.758135 31.292721 -0.176585 0.801946 0.093068 -0.024879 -800186.000000 0 0 1
-20.895757 3.487756 22.076135 30.596615 -0.165388 0.764798 0.095392 -0.028526 -1993970.000000 0 0 1
-20.219057 2.702956 20.925435 29.223109 -0.132896 0.772658 0.093991 -0.031984 -651060.000000 0 0 1
-19.683257 3.480356 19.953235 28.243142 -0.175009 0.786283 0.094195 -0.022441 -340550.000000 0 0 1
-19.271657 2.659256 18.951135 27.159049 -0.137122 0.798498 0.099986 -0.030933 -104921.000000 0 0 1
-18.708357 3.311456 17.659835 25.939124 -0.175190 0.821917 0.078349 -0.027332 -137473.000000 0 0 1
-17.372757 3.753156 17.639935 25.041290 -0.212767 0.789171 0.096488 -0.036362 -101792.000000 0 0 1
-17.080457 4.427156 16.430535 24.110251 -0.253613 0.821020 0.095928 -0.031035 -616444.000000 0 1 0
-15.648257 4.908456 16.277235 23.106477 -0.303954 0.789156 0.093891 -0.026264 -811699.000000 0 1 0
-15.179257 5.986456 17.037335 23.590640 -0.375656 0.763808 0.089235 -0.033244 301670.000000 0 1 0
-15.814357 7.303556 16.910635 24.277673 -0.432649 0.800217 0.103533 -0.040750 -280179.000000 0 1 0
-15.469557 8.055256 15.615035 23.409905 -0.480083 0.840585 0.065334 -0.036900 71981.900000 0 1 0
-16.132457 7.664656 14.431535 22.962411 -0.443536 0.891192 0.108804 -0.031417 -151992.000000 0 1 0
-17.519557 7.836156 14.329535 23.951530 -0.420590 0.929453 0.072356 -0.030768 -716765.000000 0 1 0
-18.070057 7.041856 13.183735 23.450492 -0.371593 0.973759 0.078764 -0.027191 -251719.000000 0 1 0
-17.847657 5.647756 13.376635 23.008050 -0.306473 0.950361 0.085301 -0.025432 381502.000000 0 1 0
-18.300757 4.893256 12.242835 22.555458 -0.261268 0.997043 0.081641 -0.030628 262518.000000 0 1 0
-17.932957 3.375156 12.493735 22.115064 -0.186033 0.970433 0.077785 -0.015876 252633.000000 0 1 0
-18.597557 2.813556 13.637735 23.233016 -0.150148 0.943451 0.081745 -0.023908 341929.000000 0 1 0
-18.105057 1.508056 13.896435 22.873090 -0.083103 0.917830 0.075181 -0.017654 -130913.000000 0 1 0
-19.033757 0.715856 14.851835 24.153123 -0.037592 0.908533 0.093491 -0.023315 18097.600000 0 1 0
-20.287857 0.578456 14.234535 24.790195 -0.028505 0.959169 0.102856 -0.020871 167917.000000 0 1 0
-21.357157 0.273456 15.131635 26.175739 -0.012803 0.954424 0.110379 -0.031869 -47047.100000 0 0 1
-22.722157 0.108456 14.479035 26.943471 -0.004773 1.003462 0.118746 -0.030895 -654782.000000 0 0 1
-22.749557 -1.068744 13.665835 26.560113 0.046944 1.030343 0.126080 -0.027981 -775866.000000 0 0 1
-23.932957 -1.318944 13.025935 27.280048 0.055054 1.073001 0.138029 -0.025886 -1293310.000000 0 0 1
-23.795557 -2.486744 12.022135 26.775813 0.104127 1.105159 0.141529 -0.035165 -310580.000000 0 0 1
-23.733757 -3.772444 12.651835 27.158636 0.157630 1.086202 0.123578 -0.026446 195308.000000 0 0 1
-23.690957 -4.789844 11.682835 26.845720 0.199491 1.120553 0.120060 -0.026650 -60187.700000 0 0 1
-23.602457 -6.133244 12.336135 27.328975 0.254233 1.102469 0.112970 -0.021300 6189.410000 0 0 1
-24.756557 -6.412444 13.088635 28.728365 0.253450 1.097751 0.114490 -0.022670 75438.000000 0 0 1
-24.815357 -7.781244 13.419235 29.264750 0.303855 1.094438 0.120344 -0.028054 -601745.000000 0 0 1
-25.875427 -7.945044 14.462035 30.688954 0.297912 1.080094 0.144940 -0.018890 232860.000000 0 0 1
-27.222817 -7.675244 14.029835 31.572574 0.274808 1.110328 0.144760 -0.016936 567324.000000 0 0 1
-28.039487 -7.696144 15.153635 32.788354 0.267878 1.090361 0.151241 -0.005406 130010.000000 0 0 1
-29.401887 -6.905144 15.059035 33.747985 0.230673 1.108259 0.159465 -0.015732 1896750.000000 0 0 1
-30.523557 -7.321244 14.206135 34.454353 0.235408 1.145800 0.155711 0.001924 1575150.000000 0 0 1
-31.002677 -8.638644 14.148735 35.156491 0.271749 1.156605 0.151163 -0.007161 -365418.000000 0 0 1
-31.494777 -9.265044 15.448535 36.282493 0.286106 1.130967 0.142765 -0.009156 263677.000000 0 0 1
-30.430317 -9.594244 16.399335 35.874670 0.305421 1.096032 0.145677 0.008211 784059.000000 0 0 1
-30.883017 -10.252244 17.541735 36.967306 0.320523 1.076377 0.141315 0.011190 -186995.000000 0 0 1
-29.757417 -10.517744 18.559235 36.613823 0.339745 1.039222 0.177268 -0.013008 428947.000000 0 0 1
-28.743337 -11.332044 17.983035 35.748905 0.375539 1.043687 0.182392 -0.010877 435523.000000 0 0 1
-27.562627 -11.444044 18.784335 35.263519 0.393542 1.009027 0.178029 -0.025944 448307.000000 0 0 1
-26.537637 -12.419944 18.165635 34.474505 0.437732 1.015813 0.152773 -0.018557 -28619.700000 0 0 1
-25.727787 -11.897644 17.133835 33.121613 0.433153 1.027102 0.138010 -0.015016 224630.000000 0 0 1
-25.134907 -12.959944 16.389835 32.685630 0.476062 1.045536 0.119545 -0.022953 -129638.000000 0 0 1
-24.447057 -12.574244 15.075435 31.353452 0.475058 1.069204 0.109347 -0.020926 -499692.000000 0 0 1
-23.251457 -11.880344 15.249835 30.237895 0.472370 1.042192 0.101992 -0.025721 -361040.000000 0 0 1
-22.605157 -11.636244 13.981035 29.014904 0.475386 1.068024 0.109462 -0.013458 178942.000000 0 0 1
-21.311357 -10.846044 13.933635 27.675925 0.470768 1.043201 0.099203 -0.027473 -335542.000000 0 0 1
-21.565657 -9.463044 13.822435 27.307261 0.413502 1.040045 0.097268 -0.037152 804343.000000 0 0 1
-20.366257 -8.686344 13.578235 25.973168 0.403146 1.020688 0.098466 -0.035260 557493.000000 0 0 1
-20.021157 -8.652244 12.078535 24.931889 0.407915 1.065049 0.106190 -0.024600 -255600.000000 0 1 0
-19.318657 -9.773244 11.558735 24.542436 0.468354 1.080407 0.094974 -0.037134 73371.600000 0 1 0
-18.983657 -9.552044 10.240035 23.589809 0.466182 1.121772 0.099823 -0.027171 -416328.000000 0 1 0
-18.315057 -10.839444 9.640435 23.363922 0.534392 1.145467 0.072291 -0.023226 365680.000000 0 1 0
-16.961857 -11.134344 9.914035 22.582434 0.580885 1.116294 0.090852 -0.027987 210990.000000 0 1 0
-16.640957 -11.438244 11.260835 23.120581 0.602189 1.062090 0.098587 -0.019124 514109.000000 0 1 0
-15.123757 -11.842244 11.420435 22.347105 0.664303 1.034393 0.110714 -0.018765 1035860.000000 0 1 0
-14.721257 -13.030144 10.816135 22.438557 0.724535 1.067822 0.098766 -0.029176 390308.000000 0 1 0
-13.314557 -13.233144 10.866235 21.690288 0.782331 1.046074 0.117493 -0.035523 386169.000000 0 1 0
-13.064157 -14.772944 10.841335 22.504369 0.846706 1.068153 0.134844 -0.032654 -81914.100000 0 1 0
-13.284857 -15.466244 9.583335 22.528481 0.861124 1.131406 0.098350 -0.035006 155176.000000 0 1 0
-13.053657 -16.850444 9.730435 23.431107 0.911688 1.142547 0.074032 -0.023406 18079.000000 0 1 0
-13.361757 -17.749944 8.527935 23.797537 0.925520 1.204292 0.058953 -0.014562 191578.000000 0 1 0
-12.500157 -17.478844 7.413535 22.731573 0.949969 1.238585 0.073271 -0.026938 164285.000000 0 1 0
-12.811357 -18.330644 6.305735 23.235871 0.960806 1.295970 0.056704 -0.020764 -247607.000000 0 1 0
-11.904457 -18.023944 5.117035 22.198259 0.987089 1.338189 0.056428 -0.022319 -192056.000000 0 1 0
-12.218257 -18.915544 4.030435 22.876364 0.997282 1.393689 0.068485 -0.020219 287990.000000 0 1 0
-11.302657 -18.671144 2.995535 22.030318 1.026449 1.434401 0.073986 -0.031448 -111492.000000 0 1 0
-11.587057 -19.529444 1.795335 22.778988 1.035309 1.491899 0.086684 -0.031585 44363.000000 0 1 0
-11.361957 -20.902944 2.089135 23.882873 1.072913 1.483210 0.083939 -0.037167 36494.700000 0 1 0
-11.863557 -21.855244 1.112435 24.892432 1.073479 1.526092 0.094987 -0.040292 -249475.000000 0 1 0
-10.965557 -22.109344 -0.130265 24.679617 1.110378 1.576075 0.111624 -0.043618 12881.500000 0 1 0
-11.051857 -21.037644 -1.108065 23.789784 1.087085 1.617391 0.116415 -0.057002 968141.000000 0 1 0
-12.201457 -21.099744 -1.999765 24.455548 1.046504 1.652659 0.125792 -0.048481 1015280.000000 0 1 0
-13.485157 -20.334844 -1.653265 24.455851 0.985229 1.638450 0.147462 -0.035506 -49649.500000 0 1 0
-14.209857 -20.927944 -0.594565 25.303209 0.974311 1.594296 0.138545 -0.023716 509889.000000 0 0 1
-15.429157 -20.230344 -0.299665 25.444361 0.919233 1.582574 0.156769 0.000069 456521.000000 0 0 1
26.595143 -19.624744 -4.435465 33.348247 -0.635717 1.704196 0.112560 -0.023636 -428158.000000 0 0 1
25.527143 -19.803544 -3.541765 32.501684 -0.659800 1.679985 0.097785 -0.024865 -21028.800000 0 0 1
25.711343 -20.928744 -2.702565 33.262431 -0.683213 1.652136 0.097569 -0.026078 -142829.000000 0 0 1
24.403343 -21.238444 -1.943265 32.409426 -0.716167 1.630792 0.079850 -0.020630 236719.000000 0 0 1
23.469843 -21.887344 -2.804565 32.214204 -0.750523 1.657967 0.086426 -0.023515 -338608.000000 0 0 1
22.348343 -22.311144 -2.082365 31.647619 -0.784565 1.636642 0.062085 -0.017770 170168.000000 0 0 1
21.261443 -23.015644 -2.996865 31.476182 -0.824996 1.666151 0.073563 -0.023116 552742.000000 0 0 1
20.487843 -22.013044 -3.647465 30.292405 -0.821269 1.691498 0.075893 -0.026705 -155661.000000 0 0 1
19.518443 -22.543944 -4.530565 30.161648 -0.857203 1.721576 0.074979 -0.023291 -157446.000000 0 0 1
18.493043 -21.543344 -5.032365 28.834580 -0.861439 1.746220 0.059615 -0.010894 -1035840.000000 0 0 1
17.466443 -21.174744 -4.195765 27.767802 -0.881073 1.722479 0.058391 -0.003500 -388876.000000 0 0 1
17.793443 -20.198144 -3.240365 27.112204 -0.848609 1.690600 0.057861 -0.008989 -55304.100000 0 0 1
16.536743 -19.889944 -2.384065 25.976095 -0.877193 1.662705 0.052829 0.000903 153325.000000 0 0 1
16.230243 -20.779744 -1.355265 26.401805 -0.907711 1.622151 0.065422 -0.009849 -170152.000000 0 0 1
15.299743 -20.237944 -0.466865 25.374682 -0.923471 1.589196 0.064897 -0.001435 -309345.000000 0 0 1
14.975443 -21.188844 0.746135 25.957421 -0.955547 1.542048 0.079163 -0.002309 -251066.000000 0 0 1
14.158543 -22.295744 0.552735 26.417230 -1.005014 1.549872 0.068846 -0.002356 -457614.000000 0 0 1
13.347243 -22.433044 1.695235 26.158444 -1.034075 1.505944 0.066228 -0.003917 -184741.000000 0 0 1
12.485343 -23.684744 1.604235 26.822089 -1.085668 1.510950 0.074559 -0.004862 -26497.400000 0 0 1
13.161743 -24.875144 1.929335 28.208626 -1.084131 1.502348 0.095088 -0.015708 165437.000000 0 0 1
12.339443 -25.931204 1.532235 28.758250 -1.126652 1.517491 0.089757 -0.015309 137128.000000 0 0 1
12.785843 -27.236114 2.252835 30.172155 -1.131891 1.496061 0.097067 -0.013065 210033.000000 0 0 1
12.276043 -27.260314 3.582835 30.110839 -1.147671 1.451526 0.110993 -0.019946 439494.000000 0 0 1
12.888943 -28.345704 4.283635 31.431725 -1.144036 1.434087 0.102282 -0.021691 147145.000000 0 0 1
12.226443 -28.556554 5.637435 31.571242 -1.166262 1.391271 0.108414 -0.024607 -262371.000000 0 0 1
12.860443 -29.548834 6.362635 32.848253 -1.160296 1.375866 0.104724 -0.027703 -284242.000000 0 0 1
12.310443 -29.680214 7.631935 33.025877 -1.177623 1.337599 0.096412 -0.026837 -32487.500000 0 0 1
13.025443 -30.863514 8.372835 34.530031 -1.171441 1.325875 0.096032 -0.025925 164885.000000 0 0 1
12.649743 -31.091774 9.696535 34.939050 -1.184397 1.289577 0.086184 -0.021966 -311833.000000 0 0 1
11.832943 -32.185714 9.972635 35.712633 -1.218489 1.287787 0.078991 -0.022701 -18269.000000 0 0 1
11.653043 -32.397344 11.539335 36.311672 -1.225514 1.247403 0.073975 -0.016407 -79978.400000 0 0 1
12.794143 -33.013004 12.104635 37.417519 -1.201070 1.241368 0.073243 -0.018943 -30466.000000 0 0 1
12.776443 -33.188114 13.561835 38.060633 -1.203313 1.206468 0.077221 -0.018002 114101.000000 0 0 1
11.820243 33.463262 14.144035 38.204211 1.231247 1.191548 0.070750 -0.023215 232907.000000 0 0 1
12.084743 32.239999 13.500935 36.982885 1.212169 1.197100 0.081154 -0.025682 -249913.000000 0 0 1
10.986843 31.379212 13.629935 35.932448 1.234005 1.181734 0.079648 -0.027163 -89484.300000 0 0 1
10.993043 30.240132 12.523235 34.527438 1.222124 1.199629 0.082211 -0.026824 -255605.000000 0 0 1
10.614043 30.572902 11.218035 34.252074 1.236643 1.237125 0.069762 -0.021607 -218216.000000 0 0 1
11.279743 31.592712 10.514335 35.155132 1.227867 1.267064 0.051777 -0.019327 -155704.000000 0 0 1
10.733843 31.753093 9.056235 34.720163 1.244815 1.306909 0.040673 -0.013149 920634.000000 0 0 1
9.359843 32.175455 9.003335 34.697645 1.287709 1.308313 0.042591 -0.020749 576534.000000 0 0 1
8.862343 32.330017 7.675235 34.390120 1.303247 1.345719 0.030277 -0.016937 -388050.000000 0 0 1
9.383543 33.527228 6.884335 35.489716 1.297901 1.375578 0.049490 -0.011840 -373758.000000 0 0 1
8.891043 -32.944274 7.276135 34.890084 -1.307195 1.360710 0.052288 -0.017935 -100526.000000 0 0 1
9.503043 -31.944644 6.488335 33.953889 -1.281649 1.378521 0.078449 -0.029478 -143619.000000 0 0 1
8.792243 -30.622114 6.629235 32.541729 -1.291197 1.365645 0.074484 -0.025818 -377698.000000 0 0 1
8.803043 -30.063944 7.943835 32.317778 -1.285948 1.322447 0.089332 -0.027349 133185.000000 0 0 1
7.972443 -28.934074 8.107435 31.088116 -1.301930 1.306957 0.091517 -0.025511 272975.000000 0 0 1
8.711643 -27.595294 7.706435 29.946320 -1.265005 1.310526 0.114366 -0.030608 558093.000000 0 0 1
9.599443 -26.994084 8.704835 29.943347 -1.229130 1.275827 0.119107 -0.031877 1072570.000000 0 0 1
10.554343 -26.041194 8.234235 29.280378 -1.185734 1.285731 0.124523 -0.036059 384736.000000 0 0 1
9.961643 -24.797244 7.529935 27.763961 -1.188805 1.296144 0.109424 -0.037917 -404540.000000 0 0 1
9.694843 -25.166994 6.170235 27.666575 -1.203095 1.345884 0.101897 -0.033360 -298813.000000 0 0 1
9.075343 -24.194944 5.374835 26.394053 -1.211945 1.365724 0.098371 -0.030525 94068.300000 0 0 1
8.663443 -24.745744 3.986435 26.519780 -1.234034 1.419905 0.086295 -0.021071 75139.200000 0 0 1
7.664543 -25.729904 3.987635 27.141747 -1.281281 1.423344 0.067013 -0.023329 -365010.000000 0 0 1
8.153743 -27.077544 4.217235 28.591292 -1.278307 1.422755 0.071763 -0.021159 -19209.500000 0 0 1
7.243243 -28.286464 3.942735 29.464110 -1.320115 1.436579 0.064309 -0.018508 -367640.000000 0 0 1
6.181743 -28.583794 4.802435 29.636306 -1.357809 1.408033 0.055333 -0.014807 -35540.200000 0 0 1
5.155343 -29.394864 4.267535 30.147097 -1.397180 1.428762 0.046063 -0.014673 224064.000000 0 0 1
5.379643 -30.914594 4.379935 31.683379 -1.398505 1.432111 0.043572 -0.011977 476458.000000 0 0 1
6.508743 -31.328004 3.579935 32.196638 -1.365949 1.459376 0.043839 -0.005904 655557.000000 0 0 1
6.800743 -32.655874 3.846135 33.577507 -1.365476 1.455999 0.036597 -0.009928 -92296.200000 0 0 1
7.831443 -33.346754 2.938235 34.379801 -1.340128 1.485228 0.041099 -0.011558 108941.000000 0 0 1
7.282143 -33.607774 1.674735 34.428430 -1.357415 1.522133 0.047780 -0.010590 43030.900000 0 0 1
8.208243 33.247179 1.096335 34.262985 1.328751 1.538793 0.040566 -0.008375 -333562.000000 0 0 1
7.846443 32.795624 -0.323765 33.722758 1.335958 1.580397 0.051584 -0.005982 -174555.000000 0 0 1
6.728043 31.970132 -0.367265 32.672477 1.363375 1.582037 0.034526 -0.002693 -660779.000000 0 0 1
5.504843 32.604223 -0.633365 33.071737 1.403535 1.589949 0.042843 -0.008720 -403238.000000 0 0 1
4.269343 31.739562 -0.368865 32.027537 1.437087 1.582314 0.048795 -0.016478 -161619.000000 0 0 1
4.151243 30.632232 -1.242865 30.937213 1.436098 1.610981 0.051230 -0.011629 194634.000000 0 0 1
2.919843 29.973292 -0.969465 30.130775 1.473688 1.602977 0.056861 -0.022465 319047.000000 0 0 1
2.619043 28.786602 -1.900465 28.967907 1.480065 1.636449 0.052516 -0.023296 -146199.000000 0 0 1
2.222943 29.283852 -3.148465 29.536389 1.495031 1.677595 0.070168 -0.033440 65982.400000 0 0 1
2.104843 28.315042 -4.211965 28.703878 1.496596 1.718067 0.076295 -0.040503 -240970.000000 0 0 1
1.916743 28.955102 -5.598965 29.553684 1.504696 1.761399 0.086967 -0.044016 180822.000000 0 0 1
0.642243 29.563322 -5.737965 30.121865 1.549075 1.762459 0.102595 -0.044737 264498.000000 0 0 1
0.447543 30.378962 -6.899765 31.155872 1.556065 1.794107 0.096472 -0.039532 -161966.000000 0 0 1
0.453843 29.765552 -8.286665 30.900856 1.555550 1.842289 0.111368 -0.038816 -523807.000000 0 0 1
-0.747157 29.096392 -8.589165 30.346862 -1.545123 1.857751 0.105648 -0.029367 77947.400000 0 0 1
-1.050057 28.731932 -9.965065 30.429082 -1.534266 1.904437 0.107239 -0.023220 71456.000000 0 0 1
-1.135157 29.858962 -11.113665 31.880398 -1.532797 1.926879 0.083841 -0.019943 -63046.000000 0 0 1
0.125343 30.430302 -11.412265 32.500135 1.566677 1.929590 0.089332 -0.020618 -13515.300000 0 0 1
0.029943 31.876518 -11.653265 33.939827 1.569857 1.921279 0.075769 -0.029047 188417.000000 0 0 1
-0.347757 32.756396 -10.380465 34.363592 -1.560180 1.877667 0.079348 -0.038618 572807.000000 0 0 1
0.793043 32.977540 -9.535165 34.337537 1.546753 1.852184 0.073135 -0.043088 302327.000000 0 0 1
0.541343 33.846812 -8.440365 34.887526 1.554804 1.815152 0.072875 -0.034845 961475.000000 0 0 1
1.846843 -33.530274 -7.596865 34.429674 -1.515772 1.793276 0.062790 -0.032527 764197.000000 0 0 1
2.859143 -32.837054 -8.234665 33.974351 -1.483945 1.815613 0.064076 -0.026053 -316336.000000 0 0 1
3.810143 -32.339594 -7.285665 33.368360 -1.453520 1.790910 0.064454 -0.023707 267304.000000 0 0 1
5.032843 -31.597914 -7.984765 32.977479 -1.412845 1.815355 0.065761 -0.017449 1230410.000000 0 0 1
5.899443 -32.405594 -8.799765 34.093428 -1.390718 1.831859 0.076771 -0.017544 461172.000000 0 0 1
6.641543 -33.362544 -8.067065 34.960649 -1.374293 1.803642 0.079672 -0.007251 -1447600.000000 0 0 1
6.818343 32.946616 -8.688365 34.748482 1.366726 1.823514 0.068590 -0.018568 142797.000000 0 0 1
5.630643 32.175119 -8.794265 33.827230 1.397551 1.833794 0.058930 -0.023575 -223021.000000 0 0 1
4.721943 32.644074 -9.755465 34.396241 1.427143 1.858363 0.066376 -0.023518 -532048.000000 0 0 1
3.602543 31.626552 -9.976065 33.357742 1.457376 1.874507 0.055871 -0.035129 -379232.000000 0 0 1
4.177343 30.478132 -10.542465 32.519383 1.434585 1.900952 0.059535 -0.033756 -149391.000000 0 0 1
3.261743 29.442362 -10.585765 31.457115 1.460462 1.914009 0.061611 -0.033815 -515710.000000 0 0 1
3.784343 28.285982 -11.401965 30.731463 1.437797 1.950903 0.061669 -0.036424 16014.800000 0 0 1
3.992543 28.684232 -12.766765 31.649895 1.432495 1.985998 0.062485 -0.028585 46187.600000 0 0 1
4.994643 27.880232 -13.341165 31.308792 1.393530 2.010991 0.064053 -0.035973 3402.580000 0 0 1
5.269643 28.286802 -14.792665 32.353288 1.386614 2.045666 0.069867 -0.030008 -78076.300000 0 0 1
4.253443 27.821202 -15.660465 32.208093 1.419086 2.078564 0.069587 -0.022346 121642.000000 0 0 1
4.457443 28.266002 -17.011965 33.290278 1.414388 2.107166 0.110122 -0.025718 33533.400000 0 0 1
3.359143 27.784182 -17.972965 33.260669 1.450479 2.141669 0.093084 -0.028632 44107.200000 0 0 1
3.490843 26.393282 -18.210965 32.255706 1.439297 2.170722 0.114090 -0.020526 -289188.000000 0 0 1
2.671243 26.056242 -19.259465 32.511387 1.468635 2.204820 0.106232 -0.034112 -171403.000000 0 0 1
3.269243 24.840822 -20.083965 32.111058 1.439941 2.246509 0.121577 -0.039723 338415.000000 0 0 1
3.452943 23.731202 -19.206865 30.724525 1.426308 2.246096 0.116280 -0.038995 -42417.200000 0 0 1
4.504743 22.952922 -19.743265 30.609245 1.376999 2.271833 0.115341 -0.039878 361816.000000 0 0 1
5.043643 21.860602 -18.775965 29.255104 1.344046 2.267641 0.113792 -0.036866 6283.100000 0 0 1
4.066143 20.870502 -18.626065 28.267325 1.378379 2.290186 0.132406 -0.038250 -301822.000000 0 0 1
4.545843 19.823602 -17.840965 27.054388 1.345379 2.290881 0.120506 -0.032878 -333544.000000 0 0 1
3.546843 18.698602 -17.637865 25.948258 1.383339 2.318194 0.101598 -0.041105 -212317.000000 0 0 1
2.570543 19.016602 -16.653765 25.408399 1.436437 2.285566 0.103356 -0.040803 596971.000000 0 0 1
1.658443 17.904602 -16.373565 24.319104 1.478433 2.309432 0.064642 -0.030715 859093.000000 0 1 0
2.278243 16.800502 -15.399065 22.903678 1.436013 2.308162 0.058181 -0.028674 618319.000000 0 1 0
3.432443 16.105802 -15.902165 22.892299 1.360819 2.338731 0.074150 -0.038982 112811.000000 0 1 0
3.235443 15.007802 -16.781865 22.744960 1.358462 2.400643 0.085415 -0.043538 -262479.000000 0 1 0
3.153643 15.283002 -18.291665 24.043723 1.367303 2.435290 0.081458 -0.042519 102760.000000 0 1 0
4.398143 15.758002 -18.802265 24.923552 1.298617 2.425532 0.109446 -0.044567 139022.000000 0 1 0
4.508543 16.075202 -20.209665 26.213921 1.297356 2.451130 0.102010 -0.043676 -430349.000000 0 0 1
4.684443 14.918402 -21.221165 26.359829 1.266542 2.506568 0.111306 -0.050990 534009.000000 0 0 1
3.588643 14.052902 -21.519665 25.951077 1.320773 2.548542 0.087322 -0.040231 448594.000000 0 0 1
2.427743 14.556802 -22.168665 26.631638 1.405540 2.554254 0.084767 -0.042060 840764.000000 0 0 1
1.483843 13.353302 -22.642165 26.328314 1.460129 2.606052 0.074858 -0.031030 581758.000000 0 0 1
0.909243 12.654502 -21.510265 24.973078 1.499068 2.608694 0.073716 -0.024431 271002.000000 0 1 0
0.182643 11.504102 -21.903665 24.741630 1.554921 2.657926 0.038588 -0.024046 -99650.700000 0 1 0
-0.385857 10.648702 -20.727165 23.305774 -1.534577 2.666734 0.016316 -0.016058 -795374.000000 0 1 0
-1.503357 11.254202 -20.113665 23.097114 -1.438001 2.627685 0.020686 -0.013383 -11651.600000 0 1 0
-2.170057 10.363402 -19.236165 21.957671 -1.364382 2.638419 0.012633 -0.009001 588053.000000 0 1 0
-3.223057 9.350602 -19.829165 22.158918 -1.238860 2.678917 0.015893 -0.009678 305393.000000 0 1 0
-2.612557 8.274102 -20.580365 22.334674 -1.264952 2.742602 0.009689 -0.007245 -253275.000000 0 1 0
-3.616657 7.386802 -20.924565 22.482937 -1.115495 2.767081 0.019192 -0.004091 -480740.000000 0 1 0
-3.096657 6.148802 -21.718765 22.783806 -1.104257 2.834626 0.028327 -0.012711 -78539.100000 0 1 0
-2.311057 5.329902 -20.881265 21.674318 -1.161662 2.870245 0.025824 -0.010925 -12885.600000 0 1 0
-2.112857 4.116402 -21.570865 22.061531 -1.096583 2.930293 0.040339 -0.014892 -548427.000000 0 1 0
-1.289657 3.145002 -20.775165 21.051407 -1.181643 2.979413 0.034028 -0.016512 -851463.000000 0 1 0
0.084543 3.404602 -20.841765 21.118183 1.545970 2.979619 0.035835 -0.011190 88972.300000 0 1 0
0.810043 2.420002 -19.996965 20.159147 1.247791 3.014661 0.041273 -0.013203 263101.000000 0 1 0
2.328743 2.328902 -20.095165 20.363263 0.785432 2.979144 0.034222 -0.014678 -196574.000000 0 1 0
2.883743 1.784202 -21.291265 21.559622 0.554064 2.983649 0.052683 -0.015580 -999785.000000 0 1 0
4.261843 1.820102 -21.244065 21.743651 0.403622 2.926815 0.068895 -0.010597 -540791.000000 0 1 0
4.987343 1.078402 -22.464265 23.036487 0.212949 2.918239 0.076177 -0.011862 510977.000000 0 1 0
6.398943 1.030702 -22.326565 23.248319 0.159702 2.859058 0.080229 -0.019413 334903.000000 0 1 0
6.964543 0.562602 -23.567965 24.581911 0.080606 2.853376 0.084953 -0.019469 588322.000000 0 1 0
8.523243 0.509702 -23.569465 25.068409 0.059730 2.794030 0.084559 -0.026454 370221.000000 0 0 1
9.130443 1.747102 -23.582865 25.348942 0.189064 2.766106 0.094837 -0.036194 3197.860000 0 0 1
10.503443 1.651602 -23.237265 25.554267 0.155967 2.712468 0.109476 -0.041060 219791.000000 0 0 1
13.585243 -20.487844 22.282325 33.178496 -0.985275 0.834445 0.120669 -0.010109 -51774.300000 0 0 1
12.732343 -21.597044 22.054625 33.390887 -1.038103 0.849314 0.099838 -0.001872 -17945.600000 0 0 1
11.446343 -21.304844 21.553725 32.395651 -1.077783 0.842864 0.086255 0.008009 141190.000000 0 0 1
11.262443 -20.848544 20.027025 31.025572 -1.075506 0.869118 0.125718 -0.018295 -274237.000000 0 0 1
11.702043 -19.534244 19.838725 30.200985 -1.031074 0.854110 0.152416 -0.019455 -15953.100000 0 0 1
11.446543 -19.297644 18.468025 29.060116 -1.035423 0.882126 0.154698 -0.022486 108446.000000 0 0 1
11.524343 -17.832144 18.048825 27.866753 -0.997049 0.866257 0.181717 -0.039230 269585.000000 0 0 1
10.473443 -16.999644 18.514525 27.229920 -1.018624 0.823125 0.211219 -0.044266 -224123.000000 0 0 1
10.482443 -15.747944 17.933225 26.066835 -0.983506 0.812107 0.236617 -0.045549 264452.000000 0 0 1
9.330043 -14.923044 18.559625 25.577463 -1.012046 0.758855 0.193959 -0.044058 790485.000000 0 0 1
8.043743 -15.302144 18.054725 24.996610 -1.086831 0.763693 0.143232 -0.035979 -48137.000000 0 1 0
7.043743 -14.571244 18.726025 24.750747 -1.120517 0.712723 0.100279 -0.027584 -42230.700000 0 1 0
5.623143 -15.066644 18.418025 24.450913 -1.213589 0.717784 0.022366 -0.007977 -511592.000000 0 1 0
5.388343 -14.890144 17.013225 23.242212 -1.223584 0.749548 0.003649 -0.011583 869021.000000 0 1 0
4.025143 -15.160444 16.604525 22.841871 -1.311281 0.756950 -0.016236 -0.008182 1184240.000000 0 1 0
3.471543 -16.617244 16.768125 23.861149 -1.364846 0.791558 -0.021836 0.001209 -1002200.000000 0 1 0
2.152343 -16.728744 16.368725 23.503587 -1.442838 0.800378 -0.019853 0.007415 -1264400.000000 0 1 0
1.786443 -18.057744 16.054025 24.228190 -1.472188 0.846488 -0.002217 -0.014336 558840.000000 0 1 0
0.269743 -18.073344 15.726625 23.959241 -1.555873 0.854772 0.026514 -0.004363 -38769.800000 0 1 0
0.011643 -17.349744 14.493325 22.606862 -1.570125 0.874862 0.026594 -0.011704 -682028.000000 0 1 0
-1.282457 -17.472844 14.002325 22.427886 1.497531 0.896527 0.042334 -0.013476 -558609.000000 0 1 0
-1.687957 -18.842344 13.357125 23.158064 1.481452 0.956014 0.036789 0.003673 -674592.000000 0 1 0
-3.071557 -18.964444 13.178025 23.296887 1.410227 0.969568 0.051344 -0.008411 -368027.000000 0 1 0
-3.329757 -20.139144 12.539025 23.956201 1.406941 1.019943 0.063888 -0.018875 -415450.000000 0 1 0
-4.795957 -20.534444 12.449225 24.487707 1.341353 1.037486 0.070925 -0.025154 -398786.000000 0 1 0
-5.348257 -20.986044 13.651625 25.600483 1.321260 1.008351 0.075565 -0.031267 495226.000000 0 0 1
-6.769757 -21.099844 13.518325 25.957237 1.260328 1.023018 0.074028 -0.029342 814543.000000 0 0 1
-7.546657 -21.769744 14.672925 27.316085 1.237102 1.003738 0.073150 -0.023890 9740.740000 0 0 1
-8.936957 -21.726044 14.511925 27.613152 1.180546 1.017442 0.073292 -0.023363 -612815.000000 0 0 1
-9.670857 -22.566544 15.352025 28.956157 1.165924 1.011981 0.080927 -0.018749 282133.000000 0 0 1
-11.160857 -22.144344 15.329525 29.153577 1.103950 1.017118 0.089653 -0.021368 204270.000000 0 0 1
-11.351757 -20.912244 16.066525 28.710931 1.073476 0.976898 0.093693 -0.025736 642865.000000 0 0 1
-12.658557 -20.343244 15.832925 28.718777 1.014178 0.986864 0.076616 -0.020499 760811.000000 0 0 1
-12.953257 -19.098644 16.699325 28.485304 0.974832 0.944382 0.094396 -0.023875 -155839.000000 0 0 1
-13.102157 -19.450844 18.091725 29.619459 0.978007 0.913719 0.090862 -0.028844 -47205.400000 0 0 1
-13.481657 -18.346844 18.886425 29.581393 0.937080 0.878306 0.096760 -0.030130 -94014.700000 0 0 1
-13.877057 -18.802944 20.300125 30.955104 0.935003 0.855564 0.091793 -0.039724 -795057.000000 0 0 1
-15.123157 -19.386744 20.242625 31.848384 0.908322 0.882019 0.086548 -0.037930 -781182.000000 0 0 1
-15.628657 -19.927044 21.477925 33.206073 0.905706 0.867406 0.100316 -0.033213 856758.000000 0 0 1
-17.039357 -20.549244 21.127925 34.044094 0.878505 0.901283 0.109471 -0.037312 46894.400000 0 0 1
-17.093457 -21.765344 20.448325 34.410034 0.905051 0.934458 0.122494 -0.043001 39251.200000 0 0 1
-18.373857 -22.133744 19.987525 35.028594 0.877952 0.963553 0.100720 -0.029975 206559.000000 0 0 1
-19.423357 -22.590844 21.031625 36.468374 0.860647 0.956102 0.103040 -0.036811 -547657.000000 0 0 1
-20.088857 -21.572044 21.712425 36.610718 0.820985 0.935940 0.117879 -0.035355 203471.000000 0 0 1
-21.121457 -22.109044 22.550525 37.992788 0.808239 0.935337 0.090389 -0.030740 145201.000000 0 0 1
-21.763057 -21.028844 23.399585 38.254196 0.768242 0.912605 0.082034 -0.016733 -403046.000000 0 0 1
-22.582857 -20.298344 22.532925 37.811915 0.732173 0.932384 0.076499 -0.011378 -263092.000000 0 0 1
-22.802957 -19.049844 23.136085 37.658330 0.695963 0.909211 0.071015 -0.016097 -266243.000000 0 0 1
-23.632957 -18.047844 22.367525 37.209508 0.652194 0.925890 0.090300 -0.013194 -21141.500000 0 0 1
-23.026657 -17.590644 21.134025 35.865090 0.652354 0.940648 0.091907 -0.013624 56496.300000 0 0 1
-23.792757 -16.540744 20.606725 35.557399 0.607498 0.952639 0.105580 -0.017330 169171.000000 0 0 1
-23.216857 -15.958244 19.248925 34.120509 0.602189 0.971399 0.112204 -0.010661 723854.000000 0 0 1
-22.131157 -15.020744 19.340025 33.006778 0.596297 0.944756 0.114116 -0.012636 138037.000000 0 0 1
-21.722957 -14.532644 18.141825 31.815254 0.589616 0.964018 0.110527 -0.020820 126419.000000 0 0 1
-20.411457 -13.693344 18.169025 30.565482 0.590904 0.934240 0.097525 -0.028036 369860.000000 0 0 1
-19.809457 -13.802744 16.871325 29.454574 0.608559 0.960889 0.106407 -0.018346 -743830.000000 0 0 1
-18.877957 -12.819144 16.714225 28.285562 0.596529 0.938610 0.092287 -0.029505 -1222930.000000 0 0 1
-18.106057 -12.857544 15.364825 27.004140 0.617488 0.965531 0.064410 -0.031057 89892.100000 0 0 1
-17.771957 -11.564344 14.812225 25.864619 0.576872 0.961021 0.062095 -0.030469 257038.000000 0 0 1
-16.750057 -10.900844 15.528325 25.308530 0.576933 0.910234 0.066377 -0.038470 -427130.000000 0 0 1
-16.423457 -9.460544 14.974625 24.155149 0.522614 0.902136 0.081631 -0.043908 508640.000000 0 1 0
-17.501757 -8.511444 15.141125 24.657856 0.452643 0.909616 0.107871 -0.041025 718597.000000 0 1 0
-17.208357 -7.206044 14.606925 23.694237 0.396567 0.906537 0.109088 -0.039222 -723493.000000 0 1 0
-17.335357 -6.002544 15.643725 24.109568 0.333339 0.864712 0.113054 -0.029486 534848.000000 0 1 0
-16.421957 -6.004844 16.753625 24.216168 0.350557 0.806767 0.107006 -0.019400 -48172.400000 0 1 0
-15.078257 -5.802444 16.413725 23.031121 0.367354 0.777491 0.108910 -0.020598 -1048090.000000 0 1 0
-14.220757 -5.762344 17.690025 23.417334 0.384987 0.714495 0.097170 -0.019527 -199770.000000 0 1 0
-14.136957 -6.926144 18.487425 24.281884 0.455561 0.705377 0.074081 -0.017564 124728.000000 0 1 0
-13.749057 -8.080044 17.772025 23.878202 0.531311 0.731343 0.082788 -0.019679 -685072.000000 0 1 0
-13.762057 -9.306444 18.685525 25.003059 0.594601 0.726762 0.072013 -0.020429 714727.000000 0 0 1
-15.031557 -9.933144 18.823525 26.056480 0.583944 0.763511 0.072506 -0.021193 705705.000000 0 0 1
-15.987457 -9.358344 19.711725 27.050499 0.529582 0.754373 0.060413 -0.016351 -910627.000000 0 0 1
-17.320657 -10.064344 19.979825 28.292925 0.526377 0.786712 0.061179 -0.009527 15025.800000 0 0 1
-18.290457 -9.963744 18.965425 28.169209 0.498804 0.832177 0.064275 -0.016434 300616.000000 0 0 1
-18.806457 -8.641144 18.661625 27.867695 0.430707 0.837058 0.071321 -0.020123 -933100.000000 0 0 1
-19.933557 -8.588244 17.631825 27.964010 0.406810 0.888575 0.095835 -0.028008 -589381.000000 0 0 1
-21.168957 -9.044244 18.108025 29.288627 0.403767 0.904268 0.108496 -0.023301 -999439.000000 0 0 1
-22.084057 -8.750344 17.101025 29.269765 0.377251 0.946834 0.124565 -0.033288 -705690.000000 0 0 1
-23.498557 -9.140644 17.562025 30.727159 0.370977 0.962406 0.141322 -0.027345 -390895.000000 0 0 1
-24.143357 -8.228444 18.428125 31.467519 0.328470 0.945147 0.151355 -0.021007 749194.000000 0 0 1
-25.551007 -8.478544 18.439825 32.630765 0.320395 0.970235 0.172371 -0.021155 283752.000000 0 0 1
-26.237247 -7.314644 19.221425 33.337071 0.271885 0.956262 0.159928 -0.018371 -200384.000000 0 0 1
-26.293317 -7.408344 20.605325 34.216977 0.274638 0.924547 0.157882 -0.024223 22526.200000 0 0 1
-26.963187 -6.354044 21.182425 34.872374 0.231434 0.917979 0.152785 -0.025129 -909861.000000 0 0 1
-27.030457 -6.414344 22.722785 35.890310 0.232991 0.885222 0.146782 -0.020798 -296739.000000 0 0 1
-25.927597 -6.110344 23.504405 35.525113 0.231446 0.847809 0.127826 -0.028646 -153545.000000 0 0 1
-24.766457 -6.917444 23.355615 34.737777 0.272366 0.833430 0.128225 -0.026876 -161683.000000 0 0 1
-23.704557 -6.714144 24.460325 34.717334 0.276013 0.788998 0.115826 -0.019263 -48733.700000 0 0 1
-23.238257 -5.366544 24.466505 34.167620 0.226957 0.772636 0.094193 -0.019865 311489.000000 0 0 1
-22.356857 -5.086144 25.545245 34.325755 0.223691 0.731459 0.084778 -0.021575 -65946.400000 0 0 1
-21.874657 -3.588844 25.417025 33.725444 0.162615 0.717206 0.083949 -0.023921 1371350.000000 0 0 1
-20.747857 -3.270444 26.331345 33.682475 0.156342 0.673326 0.067613 -0.024354 1419970.000000 0 0 1
-21.101457 -3.181044 27.715375 34.979030 0.149623 0.656157 0.067398 -0.028760 -54054.300000 0 0 1
-21.871057 -1.890344 28.177015 35.719192 0.086217 0.661864 0.067013 -0.034660 1240190.000000 0 0 1
-23.189557 -1.981244 27.598475 36.102032 0.085230 0.700597 0.071587 -0.030843 462994.000000 0 0 1
-24.181357 -1.201044 28.243815 37.200721 0.049627 0.708671 0.055093 -0.023064 130323.000000 0 0 1
-25.433787 -1.029044 27.398265 37.397879 0.040438 0.748640 0.063384 -0.023264 -877777.000000 0 0 1
-25.133877 -0.325144 26.164105 36.281922 0.012936 0.765359 0.064496 -0.023858 593328.000000 0 0 1
-26.291647 0.174156 25.470995 36.606729 -0.006624 0.801262 0.082609 -0.012846 581423.000000 0 0 1
-27.161557 -0.953444 24.795045 36.789312 0.035088 0.831221 0.078345 -0.004083 155941.000000 0 0 1
-28.006687 -1.590844 25.772955 38.093969 0.056741 0.827712 0.072755 -0.005223 219988.000000 0 0 1
-28.417627 -2.934644 25.510875 38.301154 0.102904 0.841882 0.065875 -0.005458 277749.000000 0 0 1
-27.341537 -4.042544 25.736405 37.765915 0.146790 0.821025 0.082638 -0.019774 225741.000000 0 0 1
-27.065367 -4.294444 27.113905 38.550489 0.157358 0.790718 0.061835 -0.019371 122614.000000 0 0 1
-26.026747 -5.265344 27.180955 37.998944 0.199611 0.773731 0.094396 -0.026055 187769.000000 0 0 1
-25.738297 -5.663544 28.667765 38.940678 0.216592 0.743372 0.056338 -0.018441 -829634.000000 0 0 1
-26.820527 -6.297744 29.212755 40.154543 0.230632 0.756113 0.069603 -0.019765 -595929.000000 0 0 1
-26.493887 -7.107244 30.301765 40.873413 0.262089 0.735707 0.055100 -0.011788 423479.000000 0 0 1
-27.816617 -7.376744 31.113505 42.381962 0.259225 0.746425 0.069989 -0.019020 604666.000000 0 0 1
-28.651747 -8.257644 30.392175 42.576937 0.280603 0.775862 0.085595 -0.021067 439513.000000 0 0 1
-29.846887 -8.506344 31.153045 43.973933 0.277639 0.783506 0.099108 -0.019897 243218.000000 0 0 1
-30.942627 -9.233644 30.350515 44.315461 0.289999 0.816365 0.102323 -0.021965 -497722.000000 0 0 1
-30.672067 -10.516244 29.852955 44.074550 0.330300 0.826671 0.098350 -0.020654 248177.000000 0 0 1
-31.602777 -10.952944 28.873385 44.185686 0.333626 0.858656 0.096098 -0.021531 -29795.700000 0 0 1
-31.134697 -12.286044 28.289235 43.824617 0.375851 0.869105 0.087421 -0.025114 308783.000000 0 0 1
-30.081087 -11.978644 27.371585 42.397681 0.378964 0.868999 0.105611 -0.028612 383683.000000 0 0 1
-29.292737 -13.127444 27.092665 42.004842 0.421312 0.869787 0.105249 -0.028469 -71774.300000 0 0 1
-27.929067 -12.753744 26.458695 40.530893 0.428368 0.859517 0.115935 -0.025551 567769.000000 0 0 1
-26.878637 -12.259744 27.329575 40.245101 0.427927 0.824290 0.096873 -0.027228 764520.000000 0 0 1
-26.963177 -10.963744 27.865545 40.295225 0.386199 0.807185 0.102870 -0.032686 -441964.000000 0 0 1
-26.899337 -9.673444 26.958045 39.292315 0.345216 0.814696 0.123434 -0.030524 887999.000000 0 0 1
-25.658487 -9.517444 26.226385 37.904656 0.355196 0.806673 0.099256 -0.026094 715488.000000 0 0 1
-25.534397 -10.241344 24.985585 37.164096 0.381437 0.833479 0.093402 -0.027612 11865.800000 0 0 1
-26.440967 -9.873444 23.742565 36.882503 0.357380 0.871427 0.124187 -0.023926 176403.000000 0 0 1
-27.713257 -10.484644 23.820585 38.018057 0.361683 0.893665 0.134733 -0.025034 -226984.000000 0 0 1
-28.465047 -10.297944 22.659035 37.811882 0.347126 0.928224 0.160493 -0.020442 -78574.500000 0 0 1
-29.712157 -11.219644 22.627665 38.996204 0.361058 0.951757 0.156486 -0.027331 1218560.000000 0 0 1
-30.947667 -10.768144 23.242105 40.173455 0.334845 0.953854 0.140587 -0.027515 845989.000000 0 0 1
-30.936567 -10.772044 24.637835 40.989401 0.335068 0.925947 0.144618 -0.026169 -630368.000000 0 0 1
-32.321837 -10.539044 25.251695 42.348798 0.315196 0.931939 0.105575 -0.024594 -311429.000000 0 0 1
-32.848187 -9.260844 25.095005 42.361845 0.274796 0.936766 0.119873 -0.033889 -521777.000000 0 0 1
-34.181482 -8.952444 25.382355 43.506136 0.256156 0.947863 0.092579 -0.025960 -171217.000000 0 0 1
-34.679254 -9.032144 26.887775 44.801593 0.254788 0.927105 0.084271 -0.025030 -126025.000000 0 0 1
-35.271698 -10.274844 27.222675 45.724601 0.283461 0.933081 0.095757 -0.033251 90476.900000 0 0 1
-35.684208 -10.300244 28.512135 46.823067 0.281012 0.916081 0.096524 -0.032212 -765924.000000 0 0 1
-36.258457 -11.699544 29.022585 47.894316 0.312124 0.919810 0.079641 -0.024249 431564.000000 0 0 1
-37.493537 -12.134944 28.504635 48.636780 0.313014 0.944594 0.058231 -0.023846 1244670.000000 0 0 1
36.692798 -11.326744 28.807015 48.005215 -0.299411 0.927194 0.055960 -0.018848 1562170.000000 0 0 1
35.332878 -11.878444 28.213325 46.749347 -0.324316 0.922910 0.059729 -0.018291 785397.000000 0 0 1
35.296018 -11.681644 26.812865 45.838842 -0.319615 0.945993 0.054612 -0.013954 21345.500000 0 0 1
34.154688 -12.116644 26.084895 44.651736 -0.340907 0.946920 0.062634 -0.010715 80316.000000 0 0 1
34.225898 -11.543944 24.658265 43.734480 -0.325304 0.971796 0.045749 -0.012749 -163525.000000 0 0 1
33.948878 -10.172644 24.579205 43.129414 -0.291132 0.964419 0.051247 -0.017364 -31353.400000 0 0 1
34.043438 -9.711944 23.246615 42.351891 -0.277899 0.989758 0.043781 -0.009221 -216465.000000 0 0 1
33.651488 -8.168244 23.171645 41.666149 -0.238125 0.981079 0.065794 -0.008673 660201.000000 0 0 1
32.224038 -8.114444 23.205495 40.530579 -0.246685 0.961192 0.070304 -0.009648 281814.000000 0 0 1
31.766058 -6.818744 22.829185 39.708304 -0.211446 0.958287 0.089182 -0.007983 374111.000000 0 0 1
30.225458 -6.643744 22.906165 38.502078 -0.216365 0.933614 0.097113 -0.008965 310679.000000 0 0 1
29.621958 -7.345144 21.826125 37.520545 -0.243060 0.949965 0.103483 -0.008253 708359.000000 0 0 1
28.247758 -7.626344 22.145925 36.695217 -0.263694 0.922901 0.090355 -0.016121 615905.000000 0 0 1
15.328243 -17.370844 25.231395 34.253825 -0.847784 0.742766 0.122664 -0.015724 40421.200000 0 0 1
14.728143 -18.639244 25.262925 34.677874 -0.902079 0.754663 0.115595 -0.009048 -232428.000000 0 0 1
15.673743 -19.650244 25.443955 35.765809 -0.897498 0.779302 0.112115 -0.020358 -972294.000000 0 0 1
15.139843 -21.137644 25.533125 36.441121 -0.949247 0.794463 0.101201 -0.026117 -456727.000000 0 0 1
14.331143 -21.427444 26.576165 37.024445 -0.981303 0.770158 0.095462 -0.032433 319461.000000 0 0 1
13.050743 -20.785044 26.720275 36.281028 -1.010121 0.742943 0.098604 -0.023309 -21495.700000 0 0 1
12.433643 -21.143044 28.067105 37.274470 -1.039193 0.718210 0.101328 -0.028378 125798.000000 0 0 1
13.038043 -20.461144 29.191365 37.957670 -1.003465 0.693442 0.099252 -0.031910 537223.000000 0 0 1
12.149843 -19.479444 29.728505 37.561302 -1.013113 0.657592 0.097597 -0.031122 402893.000000 0 0 1
12.203143 -18.182544 28.935945 36.287884 -0.979699 0.647823 0.112392 -0.022150 895151.000000 0 0 1
13.304143 -17.317944 29.300405 36.543469 -0.915731 0.640502 0.094774 -0.009101 413462.000000 0 0 1
13.303043 -16.009444 28.742935 35.488442 -0.877466 0.626774 0.099541 -0.009462 273565.000000 0 0 1
14.300043 -15.104944 29.504215 36.099158 -0.812764 0.614069 0.092883 -0.009974 94227.500000 0 0 1
14.019043 -13.794144 29.102705 35.125196 -0.777312 0.594297 0.127950 -0.014872 612928.000000 0 0 1
14.804843 -12.725944 29.694755 35.537466 -0.710029 0.581590 0.113530 -0.013605 367490.000000 0 0 1
14.139043 -11.383244 29.275825 34.446548 -0.677839 0.555017 0.110492 -0.017644 171451.000000 0 0 1
14.197443 -10.959644 27.865815 33.138871 -0.657399 0.571889 0.145256 -0.028248 811029.000000 0 0 1
15.526043 -10.913744 27.304165 33.251845 -0.612691 0.607404 0.132220 -0.021658 483932.000000 0 0 1
15.572643 -9.683044 26.326585 32.083603 -0.556294 0.608403 0.130268 -0.024593 79074.300000 0 0 1
15.824143 -8.349244 26.765775 32.195032 -0.485504 0.589240 0.125516 -0.027715 858592.000000 0 0 1
17.196343 -8.248944 27.188695 33.211209 -0.447269 0.611722 0.122790 -0.029014 554385.000000 0 0 1
17.659843 -6.789044 27.478325 33.361947 -0.367016 0.602992 0.113098 -0.026103 1144490.000000 0 0 1
19.092543 -6.588644 27.480175 34.104185 -0.332294 0.633820 0.106245 -0.028842 1094670.000000 0 0 1
19.391643 -5.314744 26.975015 33.644223 -0.267505 0.640541 0.113376 -0.026956 -248624.000000 0 0 1
20.889343 -5.039944 26.767175 34.325607 -0.236744 0.676447 0.115185 -0.025175 -995728.000000 0 0 1
21.348743 -5.803744 25.662375 33.882292 -0.265439 0.711478 0.115315 -0.017982 2510400.000000 0 0 1
22.796943 -5.759544 25.320235 34.554120 -0.247467 0.748412 0.108550 -0.018462 2515290.000000 0 0 1
23.837743 -5.999644 26.421445 36.087760 -0.246566 0.749332 0.104713 -0.024634 -1037570.000000 0 0 1
24.120743 -4.821244 27.154785 36.639282 -0.197280 0.736032 0.110993 -0.028664 -319879.000000 0 0 1
25.030543 -5.037544 28.194105 38.036988 -0.198603 0.735897 0.100282 -0.036257 -218270.000000 0 0 1
25.600243 -3.679344 28.722635 38.650999 -0.142746 0.733064 0.106605 -0.037065 91614.900000 0 0 1
26.635643 -3.190144 27.882495 38.691963 -0.119202 0.766089 0.105626 -0.030400 153883.000000 0 0 1
26.938843 -1.837444 28.205105 39.046195 -0.068102 0.763599 0.100771 -0.036861 -144417.000000 0 0 1
28.035643 -1.219544 27.306275 39.155040 -0.043472 0.799049 0.099429 -0.036059 726478.000000 0 0 1
29.377043 -1.442144 27.767835 40.449265 -0.049051 0.814152 0.106249 -0.032212 99024.300000 0 0 1
30.248243 -0.876544 26.850775 40.456008 -0.028970 0.845038 0.105217 -0.018045 -447005.000000 0 0 1
31.722643 -0.844544 27.277615 41.846237 -0.026616 0.860770 0.092486 -0.022615 -143270.000000 0 0 1
32.033043 0.204456 28.166585 42.655763 0.006383 0.849547 0.073112 -0.008436 381326.000000 0 0 1
33.428943 0.239856 28.444435 43.893480 0.007175 0.865797 0.086690 -0.019506 518108.000000 0 0 1
33.893243 1.376756 29.393715 44.884717 0.040598 0.856784 0.103766 -0.020234 -23500.700000 0 0 1
33.736043 2.670656 28.821055 44.451166 0.078999 0.865347 0.092580 -0.013878 146951.000000 0 0 1
34.053943 3.628856 29.769245 45.376729 0.106161 0.855228 0.084169 -0.014149 -19746.900000 0 0 1
34.003843 5.095256 29.192235 45.104429 0.148737 0.866872 0.091780 -0.006535 -204747.000000 0 0 1
34.238743 6.107956 30.073905 45.978673 0.176536 0.857826 0.096381 -0.009439 235243.000000 0 0 1
33.078943 6.596656 30.733255 45.631845 0.196839 0.831857 0.087310 -0.007317 -33994.700000 0 0 1
33.350343 7.274656 32.065721 46.833497 0.214764 0.816639 0.087480 -0.016101 -89396.700000 0 0 1
33.872243 6.419356 33.075281 47.775633 0.187295 0.806119 0.077311 -0.014728 287879.000000 0 0 1
34.172243 7.231056 -33.483115 48.385425 0.208530 2.335064 0.072935 -0.023460 -382566.000000 0 0 1
34.523043 6.394356 -32.200295 47.640185 0.183144 2.312990 0.071301 -0.017918 -56964.800000 0 0 1
33.527043 5.584956 -31.575385 46.392448 0.165065 2.319398 0.048140 -0.013227 307824.000000 0 0 1
33.230143 4.337456 -32.167755 46.452345 0.129794 2.335730 0.077120 -0.027113 9270.600000 0 0 1
33.694243 3.168156 -31.264555 46.073980 0.093751 2.316614 0.071454 -0.031781 -146679.000000 0 0 1
33.648643 1.879056 -31.887585 46.395906 0.055785 2.328552 0.081541 -0.031675 92416.800000 0 0 1
33.976543 0.801356 -31.049765 46.034069 0.023581 2.311077 0.069413 -0.035384 -128581.000000 0 0 1
34.305843 -0.510544 -31.835285 46.804240 -0.014881 2.318804 0.071877 -0.057397 -185877.000000 0 0 1
35.522843 -0.536644 -32.602695 48.219250 -0.015106 2.313300 0.087931 -0.044275 931799.000000 0 0 1
36.503543 -1.487944 -32.164185 48.675018 -0.040739 2.292673 0.102822 -0.037672 738626.000000 0 0 1
37.125343 -1.295644 -30.747325 48.222067 -0.034885 2.262200 0.098666 -0.034512 -897332.000000 0 0 1
36.256643 -1.598144 -29.692195 46.890560 -0.044050 2.256507 0.099143 -0.036729 -40951.400000 0 0 1
37.033643 -1.630044 -28.524375 46.773793 -0.043987 2.226651 0.122396 -0.038519 -29081.500000 0 0 1
36.198943 -1.365344 -27.297195 45.358180 -0.037700 2.216567 0.127295 -0.037998 -144666.000000 0 0 1
35.727543 -0.015244 -27.164645 44.881795 -0.000427 2.220875 0.101430 -0.028844 1072030.000000 0 0 1
34.648143 0.184756 -26.212245 43.446631 0.005332 2.218455 0.103366 -0.023944 871065.000000 0 0 1
33.960943 1.582656 -26.280215 42.970922 0.046569 2.228854 0.067690 -0.015525 270978.000000 0 0 1
33.058443 1.813056 -27.349525 42.943502 0.054789 2.261231 0.093685 -0.036684 508919.000000 0 0 1
32.225143 2.939256 -27.080405 42.195348 0.090958 2.267622 0.065697 -0.017957 206914.000000 0 0 1
31.610243 3.455856 -28.407945 42.639908 0.108895 2.299937 0.082214 -0.029086 -122482.000000 0 0 1
30.733543 4.535856 -28.153885 41.925719 0.146529 2.307052 0.057534 -0.021144 92666.400000 0 0 1
30.036543 5.003156 -29.281565 42.244947 0.165054 2.336629 0.072706 -0.031314 150463.000000 0 0 1
28.891543 5.972956 -28.859595 41.270736 0.203865 2.345179 0.078259 -0.028793 -123418.000000 0 0 1
27.787343 5.321556 -28.298365 40.015657 0.189219 2.356301 0.084330 -0.031194 529075.000000 0 0 1
26.833243 6.219356 -27.695925 39.061075 0.227756 2.358934 0.103271 -0.033103 -107372.000000 0 0 1
25.498643 5.626356 -27.274235 37.758715 0.217173 2.377961 0.114131 -0.026939 -605689.000000 0 0 1
24.751643 5.232256 -28.425135 38.052708 0.208323 2.414325 0.128058 -0.028025 -221722.000000 0 0 1
23.434643 5.015756 -27.994245 36.851296 0.210850 2.433578 0.122618 -0.025724 -1092490.000000 0 0 1
22.517243 4.682056 -29.126735 37.112189 0.205011 2.473217 0.095452 -0.019816 -687012.000000 0 0 1
22.663943 3.345656 -29.658505 37.476321 0.146562 2.483881 0.080879 -0.023986 194187.000000 0 0 1
21.766643 2.969456 -30.704585 37.754151 0.135585 2.520558 0.055830 -0.028451 56619.700000 0 0 1
22.034443 3.671756 -32.082125 39.092982 0.165120 2.533365 0.077127 -0.019793 -512952.000000 0 0 1
23.290643 3.422356 -32.611475 40.220329 0.145897 2.516349 0.080140 -0.029975 -745094.000000 0 0 1
23.408143 4.002356 33.769145 41.283352 0.169344 0.612898 0.082564 -0.029089 533887.000000 0 0 1
24.814443 3.761556 33.122975 41.557639 0.150442 0.648423 0.080176 -0.021886 593568.000000 0 0 1
25.075443 2.354556 32.950984 41.473957 0.093624 0.652616 0.099584 -0.032667 -551538.000000 0 0 1
26.368343 2.128556 32.487427 41.895742 0.080549 0.683393 0.101858 -0.031362 -622961.000000 0 0 1
26.686943 0.591456 32.149902 41.787066 0.022159 0.692935 0.095110 -0.032038 -306974.000000 0 0 1
26.137743 0.016256 30.966205 40.522681 0.000622 0.701043 0.103045 -0.030955 -59703.800000 0 0 1
24.766543 -0.127144 30.723235 39.462830 -0.005134 0.678467 0.113755 -0.037431 -266029.000000 0 0 1
23.941243 -1.058544 31.660746 39.707763 -0.044185 0.647915 0.109961 -0.038853 -317398.000000 0 0 1
23.814943 -2.380544 31.247695 39.360347 -0.099629 0.653620 0.112628 -0.049205 101632.000000 0 0 1
23.360843 -3.193644 32.304840 39.994137 -0.135867 0.630489 0.106997 -0.034070 9920.870000 0 0 1
23.213343 -4.682244 31.836331 39.677886 -0.199034 0.639541 0.104372 -0.032885 -52454.400000 0 0 1
24.454643 -5.315344 31.984770 40.611672 -0.214026 0.663931 0.099041 -0.021391 -284283.000000 0 0 1
24.318543 -6.718244 31.840718 40.624594 -0.269537 0.670068 0.098444 -0.021812 458942.000000 0 0 1
25.598143 -7.642844 31.729511 41.478185 -0.290145 0.699804 0.088054 -0.025393 848664.000000 0 0 1
26.322243 -7.491044 30.523815 40.996091 -0.277260 0.730929 0.080734 -0.026422 144586.000000 0 0 1
27.575143 -8.151444 30.448465 41.880109 -0.287423 0.756797 0.075583 -0.029750 263356.000000 0 0 1
28.136443 -7.992844 29.024435 41.206344 -0.276783 0.789264 0.071426 -0.025416 324021.000000 0 0 1
27.398343 -8.716344 28.005795 40.136870 -0.308009 0.798534 0.061243 -0.020146 122011.000000 0 0 1
27.943143 -8.476544 26.729355 39.586986 -0.294527 0.829553 0.070406 -0.013014 -277306.000000 0 0 1
27.177743 -9.239444 25.713765 38.538224 -0.327706 0.840316 0.063253 -0.022220 149726.000000 0 0 1
25.872443 -8.733544 25.415945 37.304535 -0.325551 0.821246 0.063748 -0.032087 322121.000000 0 0 1
25.317643 -9.644744 24.450075 36.493976 -0.363976 0.836620 0.064758 -0.031608 -293559.000000 0 0 1
23.973143 -9.152444 23.913845 35.076356 -0.364701 0.820623 0.073505 -0.024066 -628915.000000 0 0 1
22.895343 -9.362744 24.789035 35.019337 -0.388187 0.784322 0.070213 -0.020459 -559454.000000 0 0 1
21.744943 -9.029744 24.043305 33.652033 -0.393590 0.774933 0.086230 -0.020976 135075.000000 0 0 1
20.425543 -8.882044 24.855475 33.374962 -0.410184 0.730660 0.107975 -0.017826 -207726.000000 0 0 1
19.835043 -10.024544 25.430085 33.772912 -0.467955 0.718228 0.117105 -0.025098 -92334.000000 0 0 1
20.580543 -10.848944 26.335615 35.140047 -0.485128 0.723569 0.079735 -0.027788 -752014.000000 0 0 1
19.741443 -11.762744 27.197675 35.606182 -0.537355 0.701543 0.085420 -0.031071 -652717.000000 0 0 1
18.908643 -12.545444 26.415665 34.824019 -0.585791 0.709716 0.107992 -0.032659 -334873.000000 0 0 1
18.145743 -13.467844 27.178875 35.346033 -0.638493 0.693619 0.099725 -0.030857 -248604.000000 0 0 1
18.852943 -14.644744 27.912475 36.728847 -0.660426 0.707544 0.101388 -0.015131 -598942.000000 0 0 1
17.925843 -15.660144 28.171605 36.881096 -0.718041 0.701540 0.084746 -0.012358 -123526.000000 0 0 1
18.448143 -16.855844 28.723835 38.072459 -0.740326 0.715978 0.072705 -0.009553 -259263.000000 0 0 1
19.018643 -17.829144 27.652075 38.002952 -0.753128 0.755936 0.087162 -0.016912 221810.000000 0 0 1
20.182343 -17.250444 27.064065 37.912641 -0.707233 0.775811 0.085275 -0.013181 131958.000000 0 0 1
20.570743 -18.198944 26.139325 37.915977 -0.724298 0.810134 0.074653 -0.007066 -315089.000000 0 0 1
21.785043 -17.911144 25.226005 37.838452 -0.688118 0.841056 0.080896 -0.016113 -94688.700000 0 0 1
22.960343 -17.735844 25.995065 38.954857 -0.657718 0.840202 0.072516 -0.015273 -663602.000000 0 0 1
23.970643 -17.434344 25.078445 38.826234 -0.628828 0.868575 0.042463 -0.011737 -259875.000000 0 0 1
25.362543 -17.196844 25.763325 40.034222 -0.595836 0.871692 0.052737 -0.019736 543623.000000 0 0 1
25.936443 -18.293444 26.449905 41.315210 -0.614286 0.876041 0.054395 -0.020015 138281.000000 0 0 1
26.624543 -19.179344 25.592055 41.613300 -0.624262 0.908414 0.037314 -0.026107 -869563.000000 0 0 1
27.055343 -20.449344 26.324205 42.931701 -0.647224 0.910736 0.044455 -0.027465 938470.000000 0 0 1
28.165243 -20.125844 27.239555 44.049107 -0.620433 0.904103 0.046168 -0.015550 1095410.000000 0 0 1
28.930143 -21.199644 27.725265 45.332862 -0.632394 0.912724 0.052353 -0.021149 -1597.180000 0 0 1
28.208843 -22.235044 28.631805 45.933824 -0.667523 0.897806 0.058598 -0.013092 -134562.000000 0 0 1
27.857543 -21.782244 29.897445 46.307300 -0.663616 0.868947 0.079734 -0.012507 -124282.000000 0 0 1
27.230143 -22.760144 30.699525 46.925107 -0.696218 0.857640 0.090905 -0.018306 -57652.400000 0 0 1
26.835943 -22.436644 32.185686 47.534084 -0.696349 0.826971 0.091373 -0.020625 101083.000000 0 0 1
26.457743 -23.660144 32.805517 48.332354 -0.729636 0.824739 0.086959 -0.024584 12714.700000 0 0 1
26.201843 -23.543644 -33.456475 48.581637 -0.732013 2.330443 0.103645 -0.025425 -540109.000000 0 0 1
25.836643 -24.878744 -32.802805 48.605638 -0.766513 2.311594 0.092925 -0.026932 853166.000000 0 0 1
24.575443 -25.517314 -33.106895 48.488681 -0.804198 2.322351 0.110445 -0.032433 706292.000000 0 0 1
24.266643 -25.751204 33.205227 48.524030 -0.815070 0.817146 0.103041 -0.040446 -596602.000000 0 0 1
22.902443 -26.424974 32.998080 48.079875 -0.856688 0.814382 0.123800 -0.053069 -86628.100000 0 0 1
22.873743 -27.821054 33.200819 48.984829 -0.882680 0.826061 0.121651 -0.039861 617261.000000 0 0 1
21.550643 -28.370294 33.206359 48.702834 -0.921167 0.820554 0.134256 -0.041479 747643.000000 0 0 1
21.654243 -29.877614 33.426746 49.788808 -0.943642 0.834740 0.112679 -0.037039 807.378000 0 0 1
22.154043 -30.269214 -32.985835 49.950898 -0.938980 2.292101 0.078202 -0.030199 21585.600000 0 0 1
23.076943 -31.336994 -33.154095 51.124813 -0.936048 2.276400 0.056047 -0.011205 -82491.300000 0 0 1
23.462043 -31.996184 -31.872875 50.893059 -0.938085 2.247558 0.035706 -0.001892 -153607.000000 0 0 1
24.440843 -33.029314 -32.130865 52.160166 -0.933743 2.234456 0.014892 0.000268 617978.000000 0 0 1
25.207243 -33.507774 -31.089035 52.198698 -0.925837 2.208797 0.013917 0.009337 572488.000000 0 0 1
26.248843 -32.505444 -30.412065 51.676874 -0.891486 2.200004 0.022785 0.002799 87592.100000 0 0 1
26.944943 -33.065104 -29.347995 51.774857 -0.887032 2.173460 0.041605 0.011733 -273807.000000 0 0 1
27.646943 -32.121494 -28.576845 51.115359 -0.860124 2.164055 0.053716 0.007837 -99301.200000 0 0 1
28.137743 -32.599164 -27.184935 50.926013 -0.858721 2.133899 0.048315 0.006090 10237.600000 0 0 1
29.265443 -33.433974 -27.170875 52.082177 -0.851785 2.119630 0.051793 0.007564 219610.000000 0 0 1
30.194043 -32.964654 -26.163185 51.796340 -0.829238 2.100313 0.054617 0.001935 605607.000000 0 0 1
-28.529967 -30.511390 9.049835 42.741122 0.818945 1.357445 0.107210 -0.032024 -231223.000000 0 0 1
-28.068427 -31.712790 9.637135 43.432845 0.846284 1.347048 0.105903 -0.038531 582112.000000 0 0 1
-26.680427 -31.676390 10.008835 42.607695 0.870801 1.333674 0.093970 -0.044339 842494.000000 0 0 1
-26.428077 -32.560590 11.248535 43.418485 0.888987 1.308735 0.095860 -0.046792 -104010.000000 0 0 1
-26.475457 33.731656 11.065035 44.285544 -0.905340 1.318264 0.093223 -0.031984 -690922.000000 0 0 1
-27.737297 33.143056 11.133635 44.629336 -0.873959 1.318664 0.074725 -0.036742 -518268.000000 0 0 1
-27.827287 31.588956 11.042735 43.521972 -0.848624 1.314264 0.082655 -0.025850 -15474.100000 0 0 1
-27.441307 31.137856 9.784435 42.641841 -0.848418 1.339277 0.116303 -0.036199 -302258.000000 0 0 1
-27.451367 29.752656 9.690235 41.625698 -0.825606 1.335846 0.133838 -0.033881 -181682.000000 0 0 1
-26.983737 29.202056 8.361435 40.629986 -0.824860 1.363521 0.114147 -0.023913 146317.000000 0 0 1
-25.572457 29.028556 8.294735 39.565266 -0.848611 1.359583 0.092410 -0.015565 286471.000000 0 0 1
-25.233707 29.002856 6.961835 39.068821 -0.854781 1.391645 0.087135 -0.010751 -273101.000000 0 0 1
-23.812357 28.439256 6.784135 37.707348 -0.873718 1.389896 0.092858 -0.012938 -107203.000000 0 0 1
-23.721257 27.030256 6.890635 36.617122 -0.850506 1.381487 0.094922 -0.018278 160850.000000 0 0 1
-24.148257 26.431256 5.695635 36.251757 -0.830504 1.413029 0.077568 -0.023626 -367582.000000 0 0 1
-24.514757 24.917356 5.776235 35.428983 -0.793542 1.407028 0.096871 -0.013322 -672111.000000 0 0 1
-25.482697 24.557256 6.710735 36.020281 -0.766906 1.383397 0.121706 -0.018225 31535.800000 0 0 1
-25.711427 23.164556 6.902535 35.289080 -0.733336 1.373927 0.129789 -0.017430 -321054.000000 0 0 1
-26.300677 22.337856 5.676635 34.970411 -0.704103 1.407748 0.124428 -0.032352 -915534.000000 0 0 1
-27.625947 22.688356 5.409235 36.155418 -0.687576 1.420622 0.131523 -0.039593 -421213.000000 0 0 1
-28.008507 22.231156 4.153135 35.999296 -0.670905 1.455172 0.120745 -0.034365 -121750.000000 0 0 1
-27.661077 23.171956 2.999235 36.208703 -0.697316 1.487869 0.112682 -0.039211 -407031.000000 0 0 1
-26.285807 23.264356 2.716735 35.207309 -0.724496 1.493556 0.108511 -0.038245 100435.000000 0 0 1
-25.893367 24.112956 1.597535 35.418261 -0.749809 1.525676 0.103661 -0.037170 343445.000000 0 0 1
-24.465557 24.682656 1.807035 34.800321 -0.789815 1.518847 0.076467 -0.023842 250134.000000 0 0 1
-24.014357 25.382156 0.661635 34.948261 -0.813081 1.551863 0.064254 -0.025162 -155566.000000 0 0 1
-22.800957 26.049656 0.906835 34.630775 -0.851803 1.544608 0.070704 -0.030650 -741098.000000 0 0 1
-22.177957 26.791556 -0.290965 34.781229 -0.879335 1.579162 0.086365 -0.029286 121163.000000 0 0 1
-21.778157 25.980556 -1.408665 33.930248 -0.873164 1.612325 0.086261 -0.028554 1290150.000000 0 0 1
-20.754857 24.953056 -1.110365 32.475406 -0.876990 1.604994 0.077891 -0.040427 610681.000000 0 0 1
-20.276657 24.090756 -2.299965 31.572095 -0.871154 1.643709 0.091887 -0.044273 149941.000000 0 0 1
-21.388357 23.451356 -2.911065 31.873221 -0.831374 1.662256 0.098752 -0.039955 526847.000000 0 0 1
-20.936757 22.348256 -3.652565 30.840454 -0.817996 1.689509 0.107537 -0.041054 83348.100000 0 0 1
-22.113057 21.646656 -4.379765 31.252958 -0.774740 1.711398 0.099651 -0.034311 247870.000000 0 0 1
-22.685957 22.490156 -5.388665 32.395949 -0.781064 1.737911 0.093579 -0.027343 16820.600000 0 0 1
-23.939457 22.010356 -5.802765 33.033702 -0.743440 1.747374 0.103087 -0.020862 -52461.800000 0 0 1
-24.258857 22.615156 -7.260365 33.950705 -0.750346 1.786311 0.117494 -0.020314 -29750.300000 0 0 1
-23.517657 21.984356 -8.270065 33.238323 -0.751713 1.822249 0.112750 -0.027646 193185.000000 0 0 1
-23.201157 22.869056 -9.381265 33.901262 -0.778190 1.851179 0.118275 -0.033488 -83488.100000 0 0 1
-22.814957 22.088156 -10.671165 33.500488 -0.769214 1.894983 0.120465 -0.036243 -146414.000000 0 0 1
-23.952157 21.531656 -11.273565 34.123472 -0.732232 1.907498 0.091686 -0.028665 -36555.000000 0 0 1
-23.638357 20.847956 -12.438065 33.883841 -0.722755 1.946664 0.088867 -0.025312 -254346.000000 0 0 1
-24.921057 20.605856 -13.241365 34.942727 -0.690897 1.959452 0.072081 -0.037242 95166.100000 0 0 1
-25.755447 19.642356 -12.614465 34.760465 -0.651547 1.942171 0.073755 -0.033821 883914.000000 0 0 1
-26.964777 19.409756 -13.379365 35.816829 -0.623904 1.953629 0.085827 -0.040349 1028260.000000 0 0 1
-27.426957 17.964856 -13.472665 35.446957 -0.579887 1.960679 0.153145 -0.046293 -286367.000000 0 0 1
-26.768957 17.416456 -14.564065 35.100171 -0.576812 1.998661 0.140538 -0.041966 -113936.000000 0 0 1
-27.117137 16.085656 -14.809665 34.834087 -0.535398 2.009922 0.130393 -0.053920 -657131.000000 0 0 1
-26.490027 15.306356 -16.017565 34.533585 -0.523948 2.053105 0.138986 -0.044154 767409.000000 0 0 1
-25.097017 15.014556 -15.833965 33.256753 -0.539140 2.067025 0.141399 -0.038013 530678.000000 0 0 1
-24.459957 14.650756 -16.982165 33.186264 -0.539661 2.107985 0.130616 -0.043778 -28231.400000 0 0 1
-23.635857 13.322356 -16.942265 31.987173 -0.513263 2.128994 0.137173 -0.039308 397466.000000 0 0 1
-22.442957 13.308956 -16.171665 30.697514 -0.535266 2.125636 0.132284 -0.037645 698033.000000 0 0 1
-21.634257 12.183956 -16.570165 29.850632 -0.512905 2.159283 0.127335 -0.036582 25488.600000 0 0 1
-20.250657 12.060056 -15.912465 28.438365 -0.537133 2.164630 0.127577 -0.038679 -475092.000000 0 0 1
-19.392257 13.094756 -16.322065 28.529670 -0.593926 2.179871 0.122548 -0.025987 79622.600000 0 0 1
-18.299457 13.092556 -15.403965 27.268430 -0.621028 2.171110 0.120363 -0.019063 204550.000000 0 0 1
-17.389757 14.348856 -15.627365 27.431877 -0.689879 2.176912 0.103016 -0.012780 384516.000000 0 0 1
-16.572857 14.335656 -16.813165 27.619796 -0.713143 2.225263 0.132826 -0.018113 434034.000000 0 0 1
-15.865657 15.538956 -16.922165 27.920206 -0.774996 2.221932 0.109451 -0.011999 -511475.000000 0 0 1
-14.878557 15.562856 -18.093465 28.123788 -0.807874 2.269664 0.120859 -0.018346 129386.000000 0 0 1
-13.933957 14.502356 -17.967265 26.968428 -0.805384 2.299943 0.111106 -0.019455 380936.000000 0 0 1
-12.855357 14.632156 -18.886465 27.130403 -0.849949 2.340798 0.132771 -0.027436 726169.000000 0 0 1
-11.877657 13.414356 -18.981865 26.102392 -0.846082 2.385042 0.123870 -0.036735 272295.000000 0 0 1
-12.339357 12.355456 -19.843765 26.432783 -0.786050 2.419956 0.148212 -0.030298 -44644.400000 0 0 1
-11.614157 11.190756 -19.659565 25.428727 -0.766834 2.454549 0.109941 -0.018180 -489067.000000 0 0 1
-12.034857 10.164756 -20.709565 26.020110 -0.701356 2.491299 0.140706 -0.028171 -118927.000000 0 0 1
-11.458657 10.186556 -21.987165 26.804891 -0.726695 2.532674 0.153644 -0.030876 -269673.000000 0 0 1
-11.829157 9.044156 -22.676665 27.128525 -0.652758 2.560562 0.144086 -0.017613 -78462.900000 0 0 1
-11.510357 9.030656 -24.190465 28.270473 -0.665260 2.597659 0.129717 -0.019013 667471.000000 0 0 1
-10.097157 9.036656 -24.451665 27.955280 -0.730029 2.635552 0.135515 -0.023579 516748.000000 0 0 1
-9.774857 8.407256 -25.650705 28.708683 -0.710323 2.675837 0.115448 -0.033568 -252116.000000 0 0 1
-9.673957 9.345356 -26.862385 30.041785 -0.768123 2.677364 0.162648 -0.039356 -532693.000000 0 0 1
-8.437157 9.976656 -27.005525 30.000295 -0.868810 2.690968 0.147846 -0.047949 -327135.000000 0 0 1
-8.133157 11.148856 -26.172025 29.587500 -0.940541 2.656354 0.106227 -0.036271 381170.000000 0 0 1
-6.628057 11.495756 -26.389555 29.537978 -1.047786 2.675678 0.078162 -0.038279 330582.000000 0 0 1
-6.334757 12.175356 -27.608415 30.831689 -1.091046 2.680250 0.069502 -0.052447 2287120.000000 0 0 1
-4.879457 12.438956 -27.527715 30.599213 -1.196970 2.689699 0.074175 -0.048142 1864100.000000 0 0 1
-4.291557 12.876856 -28.901875 31.930382 -1.249097 2.702535 0.084533 -0.046698 77532.500000 0 0 1
-2.893657 13.116456 -28.852435 31.825739 -1.353662 2.705894 0.105135 -0.057641 243472.000000 0 0 1
-2.381757 13.121456 -30.165665 32.982006 -1.391235 2.725338 0.112322 -0.057837 -48802.500000 0 0 1
-0.908557 12.671056 -30.118295 32.687809 -1.499215 2.742444 0.139368 -0.069519 -492949.000000 0 0 1
-0.676757 11.336356 -29.663325 31.762932 -1.511169 2.775960 0.107788 -0.043726 326069.000000 0 0 1
0.644743 10.847756 -29.870685 31.785961 1.511431 2.792679 0.101984 -0.045703 498970.000000 0 0 1
1.127643 10.526056 -31.310695 33.051915 1.464075 2.815554 0.121992 -0.046461 -267891.000000 0 0 1
1.455443 11.643156 -32.122525 34.198509 1.446437 2.791369 0.130883 -0.056453 163200.000000 0 0 1
1.646643 11.141456 -33.429135 35.275353 1.424064 2.816630 0.147314 -0.049749 -47505.800000 0 0 1
1.989843 12.141456 33.122092 35.333375 1.408352 0.355661 0.151782 -0.059846 -1490870.000000 0 0 1
3.243243 12.655056 33.250235 35.724602 1.319915 0.374371 0.157040 -0.055937 -1468700.000000 0 0 1
3.553343 13.432556 32.117401 34.994103 1.312188 0.408306 0.160586 -0.048498 -735781.000000 0 0 1
5.054243 13.605456 31.981865 35.121126 1.215110 0.426024 0.168743 -0.044437 -1000680.000000 0 0 1
5.638543 12.395456 31.664402 34.468461 1.143885 0.406150 0.169059 -0.046319 -3412.970000 0 0 1
7.003143 12.512256 31.290185 34.419126 1.060534 0.429695 0.137735 -0.033890 432249.000000 0 0 1
7.827443 11.248056 31.010265 33.903158 0.962832 0.416101 0.128406 -0.030334 -94527.400000 0 0 1
7.433243 10.528556 29.866375 32.528509 0.956050 0.407385 0.123099 -0.027845 -307444.000000 0 0 1
8.383843 9.591256 29.448795 32.086017 0.852469 0.408273 0.116639 -0.013800 -286524.000000 0 0 1
7.979543 8.742156 28.248485 30.628015 0.830973 0.396784 0.107853 -0.022770 28300.200000 0 0 1
6.998443 7.801456 28.633755 30.491520 0.839603 0.350874 0.107319 -0.024170 -89669.000000 0 0 1
6.560643 7.069656 27.504035 29.146080 0.822725 0.337270 0.100223 -0.022465 213220.000000 0 0 1
5.637043 5.884456 27.950165 29.113824 0.806869 0.283685 0.111128 -0.026803 4850.070000 0 0 1
6.304643 4.826456 28.548855 29.632420 0.653373 0.271263 0.091787 -0.023170 -288297.000000 0 0 1
5.469743 4.059856 29.406125 30.184776 0.638515 0.227631 0.107006 -0.032636 -282257.000000 0 0 1
6.151643 2.841556 30.075105 30.829030 0.432721 0.221609 0.115501 -0.025798 67706.400000 0 0 1
6.368743 1.712856 29.263125 29.997087 0.262730 0.221667 0.100457 -0.016152 567286.000000 0 0 1
7.640443 1.676156 28.583925 29.634888 0.215958 0.267116 0.095757 -0.012514 601224.000000 0 0 1
7.848543 0.275356 27.933495 29.016471 0.035069 0.274070 0.085039 -0.013775 -52379.800000 0 0 1
8.148043 -0.746744 28.843625 29.981710 -0.091392 0.276412 0.061378 -0.020741 56540.900000 0 0 1
8.163243 -2.046944 28.324425 29.548292 -0.245686 0.288819 0.074783 -0.023867 -459183.000000 0 0 1
8.782943 -3.088344 29.307565 30.750793 -0.338126 0.307587 0.063110 -0.021283 -52820.500000 0 0 1
10.178143 -3.053744 29.442695 31.301633 -0.291484 0.346367 0.054983 -0.020819 -437857.000000 0 0 1
10.908743 -3.725244 28.452325 30.698744 -0.329075 0.384933 0.077561 -0.015847 -920111.000000 0 0 1
12.405943 -3.654944 28.770525 31.543765 -0.286507 0.422461 0.060011 -0.011102 130171.000000 0 0 1
13.226643 -4.688044 28.189765 31.489437 -0.340624 0.461887 0.084685 -0.017812 297518.000000 0 0 1
13.388043 -5.844944 28.984075 32.457351 -0.411638 0.466852 0.091371 -0.015678 -73955.700000 0 0 1
12.552843 -7.076444 28.502065 31.937715 -0.513325 0.468101 0.113223 -0.022399 467986.000000 0 0 1
11.148943 -6.898244 28.608815 31.469810 -0.554082 0.429708 0.103988 -0.019688 -183403.000000 0 0 1
10.504343 -8.153644 28.480425 31.431795 -0.660070 0.436818 0.109253 -0.022352 304679.000000 0 0 1
9.009143 -7.891944 28.122875 30.567033 -0.719392 0.402615 0.123536 -0.028622 132817.000000 0 0 1
8.415343 -7.360344 29.265695 31.328478 -0.718623 0.364909 0.146246 -0.029437 192282.000000 0 0 1
7.003743 -7.191844 29.146865 30.827176 -0.798648 0.331693 0.145464 -0.039373 313638.000000 0 0 1
6.412743 -6.616144 30.413655 31.778720 -0.801008 0.294165 0.131714 -0.043369 -71250.300000 0 0 1
6.543043 -7.444244 31.555545 33.075377 -0.849739 0.304325 0.143566 -0.041032 -284325.000000 0 0 1
5.726543 -6.913344 32.538141 33.753788 -0.879017 0.269197 0.149903 -0.040805 -501344.000000 0 0 1
6.309943 -5.969944 33.560751 34.666693 -0.757718 0.253272 0.157940 -0.032219 -544753.000000 0 0 1
6.462043 -4.777044 32.883826 33.851501 -0.636583 0.239680 0.146665 -0.030083 -184245.000000 0 0 1
6.878743 -3.729244 33.704885 34.601208 -0.496789 0.228110 0.140836 -0.022236 -43598.500000 0 0 1
6.992043 -2.381844 32.931205 33.749460 -0.328322 0.220652 0.126175 -0.028845 -498800.000000 0 0 1
5.771643 -1.959344 32.420146 32.988130 -0.327270 0.185836 0.133072 -0.041280 -548142.000000 0 0 1
5.986343 -0.947244 31.482955 32.061036 -0.156933 0.190185 0.114534 -0.021456 203555.000000 0 0 1
4.685443 -0.517244 30.740585 31.099911 -0.109949 0.152159 0.143771 -0.031176 579761.000000 0 0 1
3.819343 0.198756 31.664542 31.894672 0.051992 0.120200 0.134654 -0.031272 -129175.000000 0 0 1
2.709843 0.701156 30.948815 31.075135 0.253191 0.090197 0.136720 -0.037185 435848.000000 0 0 1
1.534443 0.989056 31.977779 32.029847 0.572549 0.057027 0.127606 -0.040431 443065.000000 0 0 1
1.885743 1.989956 32.927244 33.041176 0.812281 0.083068 0.116390 -0.025349 -343403.000000 0 0 1
1.004643 2.208456 -33.682015 33.769287 1.143869 3.069684 0.090392 -0.029641 -667821.000000 0 0 1
1.570843 3.235256 -32.695375 32.892582 1.118784 3.032034 0.083459 -0.022907 303611.000000 0 0 1
2.584243 2.637556 -31.861335 32.074596 0.795608 3.026213 0.072407 -0.009594 180271.000000 0 0 1
2.951543 3.647156 -30.942405 31.296099 0.890427 2.991108 0.065715 -0.006558 196268.000000 0 0 1
4.155343 3.105356 -30.085655 30.529604 0.641781 2.970847 0.073100 -0.001680 148348.000000 0 0 1
3.837143 2.054856 -29.215045 29.537518 0.491656 2.993692 0.067475 -0.010317 -6184.290000 0 0 1
4.459243 2.196456 -27.931355 28.370228 0.457680 2.965470 0.087248 -0.018885 -241283.000000 0 0 1
3.785043 1.561456 -26.672545 26.984984 0.391264 2.989273 0.062184 -0.019857 -176665.000000 0 0 1
3.988443 0.145356 -26.582075 26.880021 0.036428 2.992564 0.085093 -0.015595 -38270.900000 0 0 1
3.409143 -0.526444 -25.509685 25.741861 -0.153211 3.007183 0.086596 -0.012867 -348643.000000 0 0 1
4.039643 -1.904544 -25.286125 25.677502 -0.440559 2.966773 0.100623 -0.036023 -58969.100000 0 0 1
5.406643 -1.891644 -24.948465 25.597578 -0.336563 2.915910 0.099113 -0.043909 -152287.000000 0 0 1
5.929243 -3.191144 -24.677865 25.579999 -0.493742 2.875223 0.110767 -0.051660 -158973.000000 0 0 1
7.376343 -3.152444 -24.159665 25.456586 -0.403878 2.821015 0.124845 -0.056935 -348.632000 0 0 1
8.284943 -2.812344 -25.186585 26.662963 -0.327248 2.807256 0.118142 -0.044860 235368.000000 0 0 1
9.645143 -2.892844 -24.732965 26.704248 -0.291390 2.754952 0.112530 -0.037799 961599.000000 0 0 1
-30.936087 -3.723344 17.648525 35.810267 0.119780 1.055452 0.174792 -0.017242 621223.000000 0 0 1
-32.335717 -3.886844 17.412925 36.931235 0.119629 1.079810 0.145135 -0.007146 273594.000000 0 0 1
-32.782847 -5.004244 18.142225 37.800765 0.151479 1.070206 0.129588 -0.017232 -1000740.000000 0 0 1
-34.169756 -4.771944 18.668625 39.228322 0.138757 1.074813 0.124967 -0.012978 -968736.000000 0 0 1
-35.183556 -4.859344 17.672425 39.671280 0.137246 1.109095 0.113150 -0.010236 -175832.000000 0 0 1
-36.424317 -4.697844 18.310425 41.037450 0.128267 1.108295 0.084932 -0.002860 160921.000000 0 0 1
-37.594807 -4.572244 17.255425 41.617600 0.121025 1.143273 0.071361 -0.004477 981429.000000 0 0 1
36.479058 -4.541244 17.870025 40.873982 -0.123852 1.118316 0.059614 -0.003852 -70529.300000 0 0 1
35.499188 -4.270444 16.912525 39.553287 -0.119722 1.128973 0.063593 -0.012945 757738.000000 0 0 1
34.047508 -4.803644 17.225225 38.457979 -0.140161 1.106384 0.063804 -0.004758 970539.000000 0 0 1
33.399218 -4.100244 18.288825 38.298837 -0.122153 1.072956 0.078263 -0.012771 34412.900000 0 0 1
32.394868 -4.907144 18.854125 37.801925 -0.150336 1.048628 0.103398 -0.013482 441662.000000 0 0 1
31.484678 -4.103544 19.908625 37.476358 -0.129604 1.010743 0.115370 -0.019137 1001420.000000 0 0 1
30.632258 -3.021144 19.426625 36.398576 -0.098308 1.007804 0.118906 -0.022081 713988.000000 0 0 1
31.248098 -1.885044 18.878025 36.556488 -0.060252 1.028147 0.119809 -0.017784 -71162.100000 0 0 1
30.207958 -0.744944 19.049925 35.720797 -0.024656 1.008299 0.114380 -0.012033 592715.000000 0 0 1
30.709728 0.516156 18.634625 35.924964 0.016806 1.025455 0.103641 -0.016872 321801.000000 0 0 1
29.666558 1.452456 18.793225 35.148252 0.048920 1.006662 0.084061 -0.021794 -73663.100000 0 0 1
30.090458 2.852656 18.379625 35.374905 0.094520 1.024453 0.084802 -0.017207 -211018.000000 0 0 1
30.025558 3.173956 17.011625 34.655498 0.105317 1.057699 0.101268 -0.016862 353650.000000 0 0 1
28.941458 4.078656 16.802225 33.712879 0.140006 1.049053 0.115759 -0.022544 220454.000000 0 0 1
28.605758 4.248956 15.310525 32.722396 0.147457 1.083893 0.130061 -0.021303 -367138.000000 0 0 1
28.016358 5.507056 14.911625 32.211808 0.194091 1.089505 0.159962 -0.037487 244941.000000 0 0 1
27.641958 5.465956 13.565225 31.272509 0.195223 1.122118 0.125881 -0.031023 -815698.000000 0 0 1
27.159158 6.820156 13.077725 30.905684 0.246031 1.133878 0.155900 -0.013862 -141347.000000 0 0 1
25.871758 7.128056 13.563125 30.068512 0.268845 1.102828 0.082441 -0.016085 205820.000000 0 0 1
25.279558 8.299756 13.094825 29.654957 0.317231 1.113445 0.127781 -0.039943 760404.000000 0 0 1
23.879958 8.744456 13.709325 28.890543 0.351019 1.076370 0.108293 -0.043631 695959.000000 0 0 1
22.729258 8.042756 13.324725 27.547294 0.340101 1.065915 0.114713 -0.032661 273029.000000 0 0 1
22.609758 6.658256 13.733525 27.278989 0.286390 1.043213 0.111145 -0.032839 -1948110.000000 0 0 1
21.299058 6.036756 13.379625 25.867096 0.276185 1.027168 0.126025 -0.024716 -1451430.000000 0 0 1
20.998258 5.973856 12.033225 24.928143 0.277170 1.067042 0.128840 -0.041586 84497.300000 0 1 0
20.112858 4.951756 11.771625 23.824737 0.241398 1.054006 0.131551 -0.031807 -768108.000000 0 1 0
19.873758 4.723556 10.278525 22.867582 0.233348 1.104613 0.147619 -0.036775 336153.000000 0 1 0
21.032958 4.263356 9.558825 23.493247 0.199989 1.151765 0.155730 -0.038631 944560.000000 0 1 0
20.757258 3.922756 8.217225 22.666596 0.186780 1.199820 0.182162 -0.039552 -53363.400000 0 1 0
21.844558 3.133856 7.434625 23.286894 0.142489 1.245845 0.177202 -0.034912 -1116910.000000 0 1 0
21.988358 1.799556 7.912325 23.437815 0.081659 1.226443 0.178284 -0.038336 886908.000000 0 1 0
22.895758 1.040556 7.112625 23.997665 0.045416 1.269888 0.169212 -0.026950 892454.000000 0 1 0
24.402358 1.481256 6.986525 25.425985 0.060627 1.292437 0.149541 -0.023206 785772.000000 0 0 1
25.282258 1.232756 8.139025 26.588644 0.048721 1.259693 0.153808 -0.003230 1070880.000000 0 0 1
25.170158 2.087756 9.242125 26.894469 0.082756 1.220002 0.154407 -0.008107 -658142.000000 0 0 1
25.763458 1.443356 10.481225 27.851304 0.055965 1.184967 0.122194 -0.001690 -44918.100000 0 0 1
27.178658 1.543756 10.424825 29.150294 0.056739 1.205075 0.124943 -0.012850 224344.000000 0 0 1
27.746558 0.835656 11.533825 30.059922 0.030108 1.177003 0.112495 -0.014676 457341.000000 0 0 1
29.285358 0.628056 11.363225 31.418936 0.021443 1.200740 0.186388 -0.019745 407233.000000 0 0 1
29.979458 1.828656 11.486225 32.156574 0.060921 1.205531 0.178065 -0.020424 -344129.000000 0 0 1
31.373258 1.680956 11.438625 33.435746 0.053528 1.221637 0.178980 -0.030583 -352296.000000 0 0 1
32.074948 2.906556 12.016925 34.375236 0.090371 1.213673 0.167734 -0.033765 392785.000000 0 0 1
33.454958 3.137256 11.713925 35.585006 0.093502 1.235360 0.184033 -0.049599 922993.000000 0 0 1
33.904578 4.337856 12.324625 36.335022 0.127252 1.224736 0.176315 -0.049076 -2225.510000 0 0 1
35.378848 4.598156 11.912025 37.612528 0.129245 1.248544 0.202204 -0.037600 -265486.000000 0 0 1
36.297698 3.752656 12.522525 38.580033 0.103020 1.240223 0.200476 -0.046349 459706.000000 0 0 1
37.611088 4.066256 12.048625 39.702616 0.107695 1.262462 0.199575 -0.035261 848674.000000 0 0 1
-36.574637 3.143456 12.500725 38.779550 -0.085736 1.242582 0.198452 -0.027323 -203590.000000 0 0 1
-36.462777 1.842856 11.961825 38.418947 -0.050498 1.254181 0.176656 -0.025110 73461.700000 0 0 1
-37.523647 0.930156 12.138225 39.449028 -0.024783 1.258028 0.176434 -0.031455 -209278.000000 0 0 1
37.298588 0.621156 13.561525 39.692386 0.016652 1.222108 0.164340 -0.027564 -183904.000000 0 0 1
-37.074527 0.008456 14.362525 39.759310 -0.000228 1.201202 0.137053 -0.025212 90918.200000 0 0 1
-37.437797 -0.015044 15.709625 40.600261 0.000402 1.173492 0.134626 -0.026404 341435.000000 0 0 1
-36.387677 -0.744244 16.621025 40.010941 0.020450 1.142401 0.121371 -0.015307 102898.000000 0 0 1
-35.205098 -0.040844 16.856925 39.032762 0.001160 1.124236 0.139240 -0.019266 -288649.000000 0 0 1
-34.192414 -0.699244 17.574325 38.450839 0.020447 1.096110 0.135223 -0.005639 123768.000000 0 0 1
-34.375974 -0.780144 19.168325 39.366749 0.022691 1.062240 0.121298 -0.005938 -5449.690000 0 0 1
-35.318064 -1.738844 19.661025 40.459179 0.049194 1.063350 0.102588 -0.012137 409392.000000 0 0 1
-35.525498 -1.623744 21.056325 41.328760 0.045675 1.036212 0.096756 -0.013379 -156405.000000 0 0 1
-36.151037 -2.838744 21.707725 42.263238 0.078364 1.031385 0.078829 -0.013610 -390039.000000 0 0 1
-35.299087 -3.951144 21.986525 41.773728 0.111469 1.016525 0.099637 -0.009621 340223.000000 0 0 1
-35.907775 -4.972844 22.805015 42.827167 0.137614 1.009257 0.090584 -0.017732 50894.700000 0 0 1
-35.915763 -4.755144 24.322195 43.636253 0.131632 0.979563 0.095318 -0.022823 -6029.470000 0 0 1
-34.630457 -4.809144 24.886465 42.915412 0.137988 0.952196 0.114503 -0.019851 -647619.000000 0 0 1
-34.613207 -4.527844 26.265195 43.685649 0.130074 0.925755 0.123191 -0.031950 -82017.600000 0 0 1
-33.424827 -3.762144 26.881275 43.057818 0.112084 0.896553 0.130134 -0.031965 -33581.400000 0 0 1
-33.210927 -2.359144 26.608535 42.620950 0.070916 0.896553 0.123065 -0.020838 -13414.300000 0 0 1
-32.946987 -2.038044 25.282785 41.579764 0.061780 0.917188 0.113535 -0.010271 -258150.000000 0 0 1
-32.695627 -0.536744 25.034605 41.182807 0.016415 0.917396 0.102576 -0.002807 226799.000000 0 0 1
-33.910637 0.166356 24.886915 42.063256 -0.004906 0.937687 0.118107 -0.009350 169407.000000 0 0 1
-33.667007 1.458156 24.369915 41.587093 -0.043284 0.944686 0.110938 -0.001928 817135.000000 0 0 1
-34.993571 2.249256 24.019875 42.503689 -0.064188 0.970212 0.145480 -0.006450 1027640.000000 0 0 1
-35.720784 1.627556 22.939095 42.483237 -0.045532 1.000411 0.145294 -0.003935 -79059.200000 0 0 1
-36.947557 2.228656 22.603495 43.370576 -0.060246 1.022574 0.134431 0.000510 76732.600000 0 0 1
-37.064587 3.631456 21.990225 43.249752 -0.097665 1.037416 0.135086 0.004547 -554615.000000 0 0 1
-36.519857 3.551356 20.690325 42.123647 -0.096940 1.057352 0.149972 -0.011635 -119305.000000 0 0 1
-37.399577 3.608656 19.584425 42.370986 -0.096191 1.090307 0.149613 -0.021538 113205.000000 0 0 1
-36.738287 2.951156 18.324225 41.160518 -0.080157 1.109411 0.169478 -0.021008 44472.700000 0 0 1
-35.739393 3.685956 17.700725 40.052542 -0.102771 1.113039 0.205653 -0.030929 -400005.000000 0 0 1
-35.149833 3.003056 16.652525 39.010713 -0.085229 1.129767 0.207504 -0.022915 -237471.000000 0 0 1
-34.136792 3.790356 15.790825 37.802613 -0.110581 1.139864 0.199249 -0.027493 34319.500000 0 0 1
-34.667545 4.938756 15.109225 38.138152 -0.141508 1.163454 0.218644 -0.033979 263595.000000 0 0 1
-33.690387 5.541556 14.277625 37.008129 -0.163025 1.174725 0.219907 -0.032290 55331.600000 0 0 1
-34.230498 6.739356 13.426125 37.381904 -0.194395 1.203427 0.235009 -0.030054 -395799.000000 0 0 1
-33.246957 7.356356 12.653325 36.326062 -0.217756 1.215011 0.257213 -0.030269 -212317.000000 0 0 1
-33.716097 8.433156 11.872225 36.726599 -0.245094 1.241624 0.224479 -0.025896 -142158.000000 0 0 1
-32.671747 9.029356 10.913425 35.610043 -0.269636 1.259314 0.245726 -0.030251 -128056.000000 0 0 1
-33.079717 10.291256 10.514725 36.204103 -0.301613 1.276121 0.211010 -0.003496 -272236.000000 0 0 1
-32.188557 10.920856 9.662025 35.337275 -0.327091 1.293846 0.198904 -0.019012 -357257.000000 0 0 1
-32.592047 12.398156 9.454125 36.129438 -0.363500 1.306040 0.165393 -0.016852 77732.100000 0 0 1
-31.688127 13.122556 8.644025 35.370299 -0.392616 1.323909 0.163441 -0.019344 170010.000000 0 0 1
-31.931227 14.497156 8.875525 36.173827 -0.426185 1.322908 0.144272 -0.010233 389618.000000 0 0 1
-30.923397 15.420856 8.097925 35.491347 -0.462590 1.340603 0.137464 -0.012981 -197893.000000 0 0 1
-29.613027 15.362656 8.561525 34.441868 -0.478559 1.319583 0.168041 -0.014491 -505547.000000 0 0 1
-28.820527 16.259456 7.801125 33.997798 -0.513651 1.339274 0.146314 -0.022967 869923.000000 0 0 1
-27.306397 16.476556 8.171625 32.922510 -0.542912 1.319967 0.148676 -0.009587 797412.000000 0 0 1
-27.135097 16.979656 9.514825 33.393923 -0.559135 1.281866 0.144868 -0.012129 185349.000000 0 0 1
-27.277127 18.376056 9.674525 34.282904 -0.592842 1.284713 0.144696 -0.015156 -253641.000000 0 0 1
-27.042617 18.821456 11.101325 34.767654 -0.608031 1.245805 0.146377 -0.008623 -791964.000000 0 0 1
-25.704127 18.658556 11.443625 33.760930 -0.627896 1.224984 0.131947 -0.003750 -520047.000000 0 0 1
-25.350297 19.118256 12.721525 34.205007 -0.646160 1.189720 0.133108 -0.014546 -181151.000000 0 0 1
-25.899497 18.444556 13.988025 34.736874 -0.618840 1.156348 0.113994 -0.012024 -149120.000000 0 0 1
-25.249827 17.213656 14.280425 33.731206 -0.598361 1.133646 0.114702 -0.016149 212688.000000 0 0 1
-25.806127 16.608456 15.429625 34.349241 -0.571853 1.104928 0.102494 -0.010783 -333187.000000 0 0 1
-24.881057 15.510556 16.000325 33.401418 -0.557439 1.071246 0.110450 -0.014773 -561129.000000 0 0 1
-23.767957 16.113456 16.616325 33.176219 -0.595773 1.046215 0.113894 -0.016754 162896.000000 0 0 1
-22.664357 15.211656 16.781625 32.042011 -0.591114 1.019563 0.089614 -0.032590 497213.000000 0 0 1
-22.991457 14.013856 17.778425 32.265580 -0.547393 0.987231 0.091265 -0.016774 -687314.000000 0 0 1
-23.237457 14.452356 19.062225 33.349939 -0.556397 0.962364 0.099744 -0.012825 92044.500000 0 0 1
-23.633857 13.340956 19.867225 33.634014 -0.513896 0.938885 0.097724 -0.014400 -442400.000000 0 0 1
-23.174657 13.405156 21.337725 34.235383 -0.524416 0.897885 0.090237 -0.010093 -446199.000000 0 0 1
-21.787657 13.355556 21.495425 33.393505 -0.549914 0.871472 0.096225 -0.006596 -319405.000000 0 0 1
-21.212557 14.649356 21.587025 33.624037 -0.604388 0.873677 0.108740 0.000980 427023.000000 0 0 1
-19.735057 14.728056 22.099825 33.087617 -0.641122 0.839388 0.109740 -0.014729 1123540.000000 0 0 1
-18.647757 14.275156 21.323325 31.720705 -0.653358 0.833592 0.093298 -0.017426 547910.000000 0 0 1
-18.090157 15.147256 20.281825 31.113431 -0.697087 0.860752 0.082889 -0.018730 -404554.000000 0 0 1
-16.830557 14.575656 19.567625 29.641345 -0.713723 0.849783 0.074653 -0.007065 1524480.000000 0 0 1
-15.619957 14.270656 20.298625 29.320110 -0.740287 0.806110 0.075608 -0.010290 1134090.000000 0 0 1
-15.122057 15.386556 21.098425 30.175590 -0.794068 0.796535 0.059521 -0.009424 -954272.000000 0 0 1
-13.978257 14.983956 22.056825 30.106712 -0.820109 0.748631 0.041548 -0.011784 346658.000000 0 0 1
-12.780357 14.602256 21.364525 28.861849 -0.851835 0.737378 0.042381 -0.008251 534627.000000 0 0 1
-11.851157 14.162756 22.354025 28.995448 -0.874025 0.690466 0.047198 -0.012142 -121917.000000 0 0 1
-10.455957 13.729256 21.915325 27.894461 -0.919924 0.667048 0.040432 -0.010589 -1055940.000000 0 0 1
-9.898657 12.812756 22.833015 27.991011 -0.913011 0.616812 0.038665 -0.015226 -493762.000000 0 0 1
-8.710357 12.188156 22.509225 27.038614 -0.950301 0.587220 0.045889 -0.002108 348949.000000 0 0 1
-7.386957 13.044156 22.476725 27.017037 -1.055522 0.588190 0.046411 0.001329 -219450.000000 0 0 1
-7.278657 13.847756 21.308625 26.434763 -1.086863 0.633292 0.039105 -0.005008 415722.000000 0 0 1
-6.374957 14.982956 21.391025 26.883173 -1.168519 0.650629 0.041308 -0.009172 252249.000000 0 0 1
-7.069057 16.166556 22.028125 28.223525 -1.158584 0.675350 0.049910 -0.005083 -366778.000000 0 0 1
-8.160457 16.683156 21.360025 28.304971 -1.115872 0.715693 0.020501 -0.008340 -932320.000000 0 0 1
-7.777257 17.872256 20.667325 28.408477 -1.160353 0.756117 0.026422 -0.007534 -1482110.000000 0 0 1
-8.815557 18.408256 19.662425 28.340587 -1.124178 0.804058 0.021138 -0.000786 989110.000000 0 0 1
-10.023557 18.987156 20.190225 29.472512 -1.085069 0.816120 0.016557 0.003282 356943.000000 0 0 1
-10.892957 18.024156 20.718625 29.542988 -1.027182 0.793571 0.022201 0.001013 465091.000000 0 0 1
-12.431957 18.462956 20.744825 30.426667 -0.978184 0.820579 0.028160 -0.004897 1748230.000000 0 0 1
-13.114357 18.490756 19.483025 29.891181 -0.953897 0.860843 0.031267 -0.006642 221099.000000 0 0 1
-14.407057 19.034356 19.663725 30.927853 -0.922895 0.881760 0.021634 -0.003188 -91821.700000 0 0 1
-15.270557 19.117156 18.417725 30.624633 -0.896795 0.925541 0.040996 -0.003056 -631625.000000 0 0 1
-15.982257 17.946556 18.121025 30.097890 -0.843228 0.924706 0.058767 -0.006795 12584.900000 0 0 1
-16.708857 18.085156 16.915225 29.872790 -0.824933 0.968857 0.074757 -0.026032 -1078970.000000 0 0 1
-17.622057 16.912856 16.505825 29.479210 -0.764865 0.976514 0.077885 -0.034465 677112.000000 0 0 1
-18.710057 16.596156 17.380025 30.455934 -0.725596 0.963485 0.070468 -0.026215 799250.000000 0 0 1
-19.693557 17.640256 17.536925 31.726307 -0.730455 0.985128 0.090278 -0.027508 -418877.000000 0 0 1
35.617458 -9.556744 11.947035 38.764240 -0.262142 1.257499 0.085710 -0.025514 796497.000000 0 0 1
34.234228 -9.957944 11.841035 37.567980 -0.283066 1.250140 0.083650 -0.014571 813440.000000 0 0 1
34.033818 -11.378644 11.999535 37.838646 -0.322650 1.248101 0.088001 -0.013839 -1175680.000000 0 0 1
32.563288 -11.714044 11.943435 36.609182 -0.345318 1.238472 0.109567 -0.011752 -1558220.000000 0 0 1
31.975058 -10.791844 12.826535 36.102469 -0.325503 1.207581 0.121303 -0.002535 206369.000000 0 0 1
30.549948 -10.929544 12.697635 34.842276 -0.343571 1.197774 0.130472 -0.016588 929780.000000 0 0 1
29.860158 -11.831844 13.759435 34.942004 -0.377262 1.166057 0.099233 -0.008107 -1043600.000000 0 0 1
29.924858 -11.215644 15.052335 35.325070 -0.358590 1.130609 0.114664 -0.009330 -272303.000000 0 0 1
28.913658 -11.600544 15.942135 34.996056 -0.381552 1.097817 0.105791 -0.012208 -287675.000000 0 0 1
27.537858 -11.028244 15.602135 33.516897 -0.380916 1.086596 0.106606 -0.028955 -955277.000000 0 0 1
27.402458 -9.712044 15.988735 33.179183 -0.340609 1.067985 0.096898 -0.014905 -672984.000000 0 0 1
26.373758 -9.030744 15.349735 31.823636 -0.329901 1.067475 0.125225 -0.018649 -266858.000000 0 0 1
26.247658 -7.602744 15.847035 31.589077 -0.281938 1.045278 0.159679 -0.035650 620123.000000 0 0 1
27.381258 -6.807244 15.489335 32.186820 -0.243670 1.068736 0.130363 -0.028914 388139.000000 0 0 1
27.285158 -5.611644 16.260735 32.254952 -0.202838 1.042420 0.144697 -0.027663 -20743.700000 0 0 1
28.595458 -4.816344 16.204135 33.218540 -0.166864 1.061224 0.133162 -0.024335 -49890.800000 0 0 1
28.982658 -4.410844 14.899435 32.885303 -0.151030 1.100587 0.154878 -0.020339 -431768.000000 0 0 1
30.153058 -3.670244 14.856035 33.813893 -0.121125 1.115925 0.132354 -0.015513 -443896.000000 0 0 1
30.447658 -2.998944 13.455935 33.423281 -0.098178 1.156450 0.143043 -0.019316 -82931.800000 0 0 1
30.793848 -3.919444 12.428735 33.437951 -0.126599 1.189962 0.129373 -0.013821 273786.000000 0 0 1
31.215018 -3.198644 11.278235 33.343774 -0.102115 1.225749 0.138903 -0.025154 -66243.000000 0 0 1
31.639558 -4.008944 10.036935 33.434613 -0.126035 1.265898 0.163200 -0.027131 967839.000000 0 0 1
32.967898 -4.571544 10.121135 34.788198 -0.137788 1.275591 0.149093 -0.032472 911686.000000 0 0 1
33.312398 -5.169544 8.910835 34.868941 -0.153956 1.312377 0.153171 -0.040805 789383.000000 0 0 1
34.734368 -5.848244 8.817235 36.310080 -0.166806 1.325513 0.131162 -0.040001 1507070.000000 0 0 1
35.871798 -4.967644 8.809435 37.270223 -0.137608 1.332172 0.138132 -0.045071 280368.000000 0 0 1
37.059168 -5.695844 8.625635 38.473707 -0.152503 1.344679 0.142439 -0.047361 -511816.000000 0 0 1
-37.127757 -4.828544 8.239835 38.336407 0.129326 1.354171 0.155613 -0.049409 -445480.000000 0 0 1
-37.231087 -4.310144 6.949035 38.118503 0.115254 1.387470 0.165031 -0.048439 -279642.000000 0 0 1
-36.110137 -3.508244 6.746135 36.902034 0.096850 1.386950 0.165974 -0.046938 -244407.000000 0 0 1
-36.070647 -3.036044 5.244935 36.576201 0.083971 1.426903 0.168650 -0.043739 25564.400000 0 0 1
-35.557807 -3.976244 4.312835 36.038434 0.111362 1.450836 0.188752 -0.054195 57514.500000 0 0 1
-35.715117 -3.398544 3.057335 36.006486 0.094871 1.485783 0.200491 -0.048405 -76795.600000 0 0 1
-35.045438 -4.231644 1.952735 35.353963 0.120166 1.515534 0.240450 -0.053474 -378064.000000 0 0 1
-35.557693 -5.505744 1.694035 36.021279 0.153620 1.523750 0.231163 -0.042641 -160795.000000 0 0 1
-36.694127 -5.608444 0.861535 37.130255 0.151669 1.547591 0.207842 -0.044805 -230130.000000 0 0 1
-36.390987 -5.843744 -0.610365 36.862255 0.159223 1.587355 0.247914 -0.050790 -694388.000000 0 0 1
-35.693090 -7.019744 -0.805165 36.385736 0.194191 1.592927 0.262862 -0.069745 229100.000000 0 0 1
-35.059157 -7.204444 -2.087465 35.852560 0.202673 1.629053 0.228198 -0.057928 -98919.600000 0 0 1
-33.633507 -6.630844 -2.191965 34.350919 0.194654 1.634651 0.214574 -0.056297 -131689.000000 0 0 1
-32.689827 -7.351844 -1.407765 33.535895 0.221216 1.612787 0.225148 -0.053260 39567.500000 0 0 1
-31.541597 -6.628244 -1.029565 32.246953 0.207129 1.602729 0.224344 -0.055872 280059.000000 0 0 1
-30.654827 -7.374044 -0.000065 31.529271 0.236066 1.570798 0.206605 -0.047687 334816.000000 0 0 1
-29.964587 -8.513244 -0.580265 31.155875 0.276816 1.589422 0.199536 -0.029879 535506.000000 0 0 1
-29.396177 -9.329844 0.418035 30.844059 0.307327 1.557243 0.220506 -0.037315 -11473.200000 0 0 1
-28.942067 -10.712444 -0.189065 30.861553 0.354498 1.576923 0.177917 -0.022120 434714.000000 0 0 1
-27.775207 -10.785244 -1.015765 29.813007 0.370384 1.604874 0.168810 -0.019087 675860.000000 0 0 1
-27.206117 -12.085444 -1.262065 29.796369 0.418035 1.613165 0.141937 -0.007418 191942.000000 0 0 1
-28.004607 -13.190344 -2.025365 31.021691 0.440185 1.636131 0.143408 -0.010897 -89634.300000 0 0 1
-29.146577 -13.717944 -1.375065 32.242763 0.439896 1.613457 0.176963 -0.027519 359976.000000 0 0 1
-29.617257 -14.869544 -2.051065 33.203797 0.465292 1.632608 0.159680 -0.017617 -137350.000000 0 0 1
-30.949027 -15.451644 -1.539365 34.626077 0.463056 1.615268 0.176321 -0.018513 -177410.000000 0 0 1
-30.778007 -16.010844 -0.260765 34.694392 0.479680 1.578312 0.128419 -0.011495 -528799.000000 0 0 1
-31.861187 -16.668644 0.277035 35.959084 0.482007 1.563092 0.171100 -0.019237 -821555.000000 0 0 1
-31.845437 -18.149844 0.028335 36.654461 0.518020 1.570023 0.159180 -0.022415 218221.000000 0 0 1
-30.771547 -18.954244 0.529335 36.144594 0.552077 1.556151 0.176062 -0.029540 513458.000000 0 0 1
-30.955497 -20.299744 0.278935 37.018917 0.580422 1.563261 0.153101 -0.025164 300794.000000 0 0 1
-31.953067 -21.057744 1.217935 38.287210 0.582691 1.538980 0.138942 -0.028153 41394.100000 0 0 1
-31.378067 -21.435844 2.491435 38.082618 0.599326 1.505328 0.146135 -0.026947 458636.000000 0 0 1
-32.356727 -21.723144 3.482535 39.127750 0.591248 1.481674 0.140071 -0.031650 324216.000000 0 0 1
-31.670617 -22.033144 4.859835 38.885800 0.607832 1.445492 0.133979 -0.033446 334382.000000 0 0 1
-31.105367 -20.867444 5.461835 37.852685 0.590902 1.425999 0.129283 -0.031781 -146496.000000 0 0 1
-29.982487 -21.211344 6.243135 37.253824 0.615714 1.402418 0.140566 -0.036755 -195591.000000 0 0 1
-29.464707 -19.841944 6.772735 36.162711 0.592659 1.382399 0.152590 -0.035266 510642.000000 0 0 1
-28.388757 -20.097544 7.707035 35.626271 0.616035 1.352742 0.157107 -0.048941 301312.000000 0 0 1
-27.900937 -18.867844 8.155635 34.655046 0.594604 1.333230 0.157118 -0.049265 249395.000000 0 0 1
-26.839617 -18.927944 9.260535 34.123154 0.614223 1.295964 0.161560 -0.047540 -14866.800000 0 0 1
-27.498407 -19.414744 10.422235 35.238015 0.614763 1.270538 0.140760 -0.046974 -13028.200000 0 0 1
-26.771477 -19.548044 11.619735 35.126290 0.630696 1.233646 0.127367 -0.032026 -499272.000000 0 0 1
-26.241657 -18.251044 12.244535 34.229429 0.607699 1.204972 0.106193 -0.028783 -276914.000000 0 0 1
-25.137897 -17.651044 11.530535 32.808939 0.612180 1.211682 0.107155 -0.030988 669495.000000 0 0 1
-24.658357 -16.433344 12.072635 31.997467 0.587846 1.183918 0.114347 -0.025164 -91329.000000 0 0 1
-24.056257 -16.532844 13.446235 32.137823 0.602123 1.139121 0.102560 -0.025652 -762082.000000 0 0 1
-24.982257 -16.705844 14.508435 33.372041 0.589415 1.121038 0.097491 -0.036635 223315.000000 0 0 1
-24.292657 -17.135444 15.656735 33.598958 0.614325 1.086045 0.110382 -0.032247 181973.000000 0 0 1
-25.311967 -17.675344 16.675135 35.088083 0.609584 1.075564 0.111292 -0.008237 4621.950000 0 0 1
-25.994297 -16.687244 17.422735 35.464338 0.570701 1.057244 0.126837 -0.018122 -168176.000000 0 0 1
-26.860877 -17.338544 18.321335 36.848381 0.573201 1.050418 0.106370 -0.000059 192078.000000 0 0 1
-27.846437 -16.348144 19.021035 37.476468 0.530867 1.038462 0.109540 0.002569 150821.000000 0 0 1
-27.187497 -15.782444 20.107635 37.317054 0.525961 1.001746 0.103936 -0.005318 304984.000000 0 0 1
-27.995037 -14.815144 20.728535 37.853438 0.486739 0.991303 0.121611 -0.011497 317180.000000 0 0 1
-27.169447 -14.116044 21.869335 37.625914 0.479170 0.950556 0.122566 -0.014970 -92136.900000 0 0 1
-26.169287 -13.297844 21.361435 36.303928 0.470144 0.941711 0.132961 -0.018403 -497978.000000 0 0 1
-25.101287 -13.230844 22.261935 36.065546 0.485090 0.905537 0.127386 -0.021365 212791.000000 0 0 1
-23.831157 -12.523044 21.673035 34.561122 0.483831 0.892981 0.123394 -0.023400 415039.000000 0 0 1
-23.942657 -11.088444 21.595335 34.096377 0.433715 0.884907 0.150758 -0.016384 584873.000000 0 0 1
-22.792457 -10.534844 20.946335 32.699052 0.432959 0.875544 0.127845 -0.020341 106921.000000 0 0 1
-22.333757 -9.171544 21.462835 32.304291 0.389661 0.844111 0.127403 -0.012648 -138318.000000 0 0 1
-21.785057 -9.048644 22.732635 32.760332 0.393677 0.803895 0.122274 -0.010776 -305421.000000 0 0 1
-20.423757 -9.355544 22.804535 32.010981 0.429546 0.777888 0.090784 -0.002526 -615751.000000 0 0 1
-19.973657 -9.461044 24.238635 32.801978 0.442368 0.739303 0.060358 -0.005753 45877.800000 0 0 1
-20.376157 -10.727244 24.674835 33.750689 0.484591 0.750876 0.069601 -0.005859 47996.000000 0 0 1
-19.691657 -11.027844 25.860935 34.324374 0.510508 0.717537 0.068352 -0.002623 -1041010.000000 0 0 1
-19.892957 -12.539144 26.258835 35.248919 0.562424 0.730330 0.083554 -0.032977 123690.000000 0 0 1
-21.016857 -12.907944 27.032935 36.593755 0.550774 0.739611 0.087426 -0.022107 -876190.000000 0 0 1
-22.179357 -12.920544 26.259935 36.721227 0.527488 0.774006 0.074704 -0.012386 -486301.000000 0 0 1
-23.425557 -13.254244 27.151435 38.231298 0.514895 0.781030 0.070617 -0.014484 354224.000000 0 0 1
-23.517957 -14.516244 27.846835 39.233428 0.553000 0.781620 0.064417 -0.012285 -135609.000000 0 0 1
-22.688657 -14.463144 29.009835 39.566757 0.567510 0.747799 0.057870 -0.014520 142893.000000 0 0 1
-23.191257 -15.289744 30.265135 41.080276 0.582878 0.742572 0.042748 -0.013622 -512646.000000 0 0 1
-23.075557 -16.711844 30.176035 41.501327 0.626799 0.756693 0.047404 -0.011992 -125884.000000 0 0 1
-23.409157 -17.455144 31.325235 42.824538 0.640714 0.750308 0.054963 -0.008005 -12095.400000 0 0 1
-24.880957 -17.479044 31.796335 43.995294 0.612406 0.763065 0.037491 -0.011593 -365629.000000 0 0 1
-25.309417 -16.400644 32.550435 44.374300 0.574972 0.747277 0.048950 -0.019469 -343000.000000 0 0 1
-26.563487 -16.781444 33.082535 45.625539 0.563437 0.759634 0.052968 -0.018644 -54958.600000 0 0 1
-27.271797 -15.634044 -33.819555 46.172898 0.520532 2.392717 0.060642 -0.015001 -204669.000000 0 0 1
-26.674907 -15.307044 -32.590955 44.811010 0.520960 2.385173 0.071756 -0.018086 -114781.000000 0 0 1
-27.559967 -14.563844 -31.783755 44.518136 0.486141 2.365921 0.067154 -0.019915 -476059.000000 0 0 1
-26.896607 -13.936044 -30.550055 43.022630 0.478049 2.360426 0.071283 -0.015638 -236801.000000 0 0 1
-26.519447 -14.883544 -29.597355 42.435885 0.511425 2.342644 0.102223 -0.012795 210184.000000 0 0 1
-26.037827 -14.301244 -28.384555 41.087431 0.502266 2.333437 0.118782 -0.010824 -168526.000000 0 0 1
-26.345587 -15.251644 -27.199855 40.823213 0.524766 2.300011 0.102134 -0.013249 1028300.000000 0 0 1
-27.699467 -15.153644 -26.683455 41.338846 0.500594 2.272450 0.112718 -0.022100 1130180.000000 0 0 1
-27.965717 -14.047544 -25.804955 40.562428 0.465496 2.260332 0.128374 -0.026320 -573737.000000 0 0 1
-27.193137 -13.912244 -24.506855 39.161246 0.472891 2.246945 0.117534 -0.038110 -113076.000000 0 0 1
-25.865957 -13.369644 -24.652855 38.151781 0.477062 2.273363 0.074364 -0.027521 1621600.000000 0 0 1
-24.927257 -13.813844 -23.630355 37.021401 0.506036 2.263070 0.056057 -0.027778 516197.000000 0 0 1
-24.457157 -15.230644 -23.684355 37.297101 0.556978 2.258829 0.038318 -0.018056 -1047470.000000 0 0 1
-23.573957 -15.398644 -24.782355 37.510196 0.578626 2.292525 0.038421 -0.006468 46305.900000 0 0 1
-23.056457 -16.711344 -24.808555 37.766832 0.627178 2.287479 0.050623 -0.008565 -194950.000000 0 0 1
-22.237257 -17.032144 -26.082555 38.273871 0.653618 2.320568 0.023668 -0.001533 38146.200000 0 0 1
-22.847157 -16.914944 -27.384155 39.471507 0.637298 2.337507 0.037143 -0.004439 240348.000000 0 0 1
-23.787357 -17.942844 -27.699455 40.682230 0.646249 2.319751 0.046027 0.000822 58196.000000 0 0 1
-24.459657 -17.862244 -29.079955 41.987836 0.630756 2.335857 0.062655 -0.009589 -83266.500000 0 0 1
-23.727957 -18.369144 -30.196455 42.570733 0.658783 2.359335 0.053804 -0.012532 400976.000000 0 0 1
-24.502857 -18.383144 -31.405355 43.870563 0.643658 2.368657 0.052034 -0.012885 -440153.000000 0 0 1
-23.664757 -18.901644 -32.573655 44.478488 0.673963 2.392558 0.052111 -0.018146 5030.780000 0 0 1
-22.559857 -18.053544 -32.981255 43.847928 0.674894 2.422151 0.049628 -0.014811 471528.000000 0 0 1
-21.373357 -18.388744 -32.308455 42.881261 0.710477 2.424075 0.055089 -0.022512 -841808.000000 0 0 1
-20.578457 -19.510444 -32.978855 43.494082 0.758763 2.431402 0.064830 -0.023340 -1108900.000000 0 0 1
-20.102057 -19.230844 33.389135 43.459779 0.763252 0.694652 0.071851 -0.024700 104229.000000 0 0 1
-19.874257 -20.386644 32.606835 43.287493 0.798124 0.717788 0.075822 -0.025350 569298.000000 0 0 1
-21.172057 -20.915944 31.864535 43.601391 0.779313 0.751282 0.067068 -0.016555 1070450.000000 0 0 1
-22.119757 -21.640944 32.613035 44.958027 0.774457 0.759165 0.069477 -0.009350 -113835.000000 0 0 1
-23.234657 -22.194844 31.952735 45.314873 0.762514 0.788194 0.064650 -0.002975 97671.300000 0 0 1
-23.076557 -23.358344 30.968235 45.135034 0.791467 0.814649 0.067692 0.002820 -438648.000000 0 0 1
-22.533057 -24.502344 31.592535 45.893265 0.827242 0.811527 0.082296 0.006856 -65059.900000 0 0 1
-22.438257 -25.642404 30.767935 45.909412 0.851941 0.836334 0.089013 0.017821 -21488.600000 0 0 1
-21.883157 -26.925724 31.443035 46.824477 0.888345 0.834554 0.076070 0.001228 630320.000000 0 0 1
-22.791057 -27.317614 32.535435 48.210360 0.875488 0.830016 0.094239 -0.003703 562541.000000 0 0 1
-22.462957 -28.428604 33.247335 49.174742 0.902088 0.828332 0.103334 -0.020135 -1328680.000000 0 0 1
-23.627957 -28.946264 -33.584255 50.240111 0.886213 2.302953 0.084614 -0.018820 -659092.000000 0 0 1
-24.681857 -29.540594 33.343335 50.927583 0.874767 0.856983 0.073788 -0.018674 531653.000000 0 0 1
-25.653857 -28.536754 32.982335 50.599418 0.838547 0.860798 0.076579 -0.012241 -389777.000000 0 0 1
-26.833047 -28.328164 -33.723055 51.572684 0.812496 2.283516 0.046661 -0.007179 -1157110.000000 0 0 1
-27.876787 -27.553804 33.493935 51.557454 0.779571 0.863682 0.039656 -0.005032 -582393.000000 0 0 1
-28.794677 -27.317684 -33.116455 51.692252 0.759082 2.266136 0.030577 0.006530 -83541.500000 0 0 1
-29.995627 -26.511794 -33.660055 52.303080 0.723823 2.269934 0.030879 0.001099 -493682.000000 0 0 1
-30.900127 -27.258114 33.270435 52.959838 0.722857 0.891533 0.026269 -0.002758 -1242620.000000 0 0 1
-32.082637 -26.557804 33.157135 53.235403 0.691460 0.898429 0.035868 -0.012368 -608552.000000 0 0 1
