# x y z rho theta phi s1 s2 stress_xx np intf bulk
-0.671867 -10.593978 -14.378513 17.872476 1.507461 2.505639 0.006129 -0.001235 -2519860.000000 1 0 0
2.267933 -13.396478 -12.930813 18.756734 -1.403093 2.331451 0.005576 0.006848 45943.600000 1 0 0
2.183033 -11.160178 -14.687913 18.575521 -1.377626 2.482770 0.004185 0.004951 859599.000000 1 0 0
-5.579867 -6.237978 -16.356013 18.372981 0.841029 2.668626 0.019510 -0.000771 -160820.000000 1 0 0
4.532733 -13.993278 -11.325513 18.564071 -1.257540 2.226954 -0.000358 0.003682 -577375.000000 1 0 0
14.156633 -10.610078 -7.774113 19.324100 -0.643167 1.984826 0.049294 -0.017870 -189345.000000 1 0 0
7.014133 10.811722 -10.808613 16.820152 0.995299 2.268682 0.031138 -0.012423 -216077.000000 1 0 0
5.718133 -4.249778 -12.585813 14.462376 -0.639142 2.626496 0.008662 -0.007225 2181480.000000 1 0 0
13.584633 0.557222 -10.159813 16.972759 0.040996 2.212543 0.025553 -0.004423 1122930.000000 1 0 0
14.074133 5.080922 -10.429813 18.239462 0.346451 2.179527 0.034019 0.000330 -918137.000000 1 0 0
4.077633 4.273722 -13.401613 14.645648 0.808874 2.726447 -0.001024 0.005575 1772190.000000 1 0 0
10.260033 -4.942478 -13.606013 17.743166 -0.448918 2.444686 0.025022 -0.011447 -475846.000000 1 0 0
2.533833 -7.541878 -11.979713 14.381020 -1.246676 2.555345 -0.000828 0.001093 2113180.000000 1 0 0
-5.634667 -1.944378 -15.045313 16.183062 0.332280 2.764380 0.013095 -0.005818 1070680.000000 1 0 0
10.619733 0.003222 -9.639313 14.342074 0.000303 2.307838 0.001503 -0.000676 371444.000000 1 0 0
-1.641867 -9.595778 -16.922913 19.523311 1.401334 2.619556 0.011751 -0.008497 1275160.000000 1 0 0
8.674533 1.683422 -18.003013 20.054673 0.191682 2.685310 0.032702 -0.004681 123036.000000 1 0 0
16.496033 -5.834678 -8.954913 19.655865 -0.339969 2.043825 0.096618 -0.011700 507223.000000 1 0 0
10.114233 7.525622 -9.949613 16.060121 0.639690 2.238931 0.021553 -0.002127 236272.000000 1 0 0
13.835333 -2.204378 -10.598413 17.567073 -0.158002 2.218443 0.047362 -0.011667 -1189820.000000 1 0 0
7.275633 -1.949278 -13.667113 15.605271 -0.261771 2.637889 0.013989 -0.008570 927153.000000 1 0 0
-2.782267 6.611722 -13.820813 15.571472 -1.172481 2.662845 0.007377 -0.001743 768792.000000 1 0 0
11.158433 1.766522 -13.833113 17.860185 0.157010 2.456756 0.021033 -0.005450 1443670.000000 1 0 0
-2.369367 10.706222 -12.947213 16.966656 -1.352999 2.438889 0.009700 0.002641 -870617.000000 1 0 0
2.838933 -1.146878 -15.206613 15.511800 -0.383934 2.942900 0.011358 -0.004378 124790.000000 1 0 0
-9.047867 0.468522 -15.235713 17.725980 -0.051736 2.605113 0.014277 -0.002506 -847864.000000 1 0 0
2.355633 -1.829278 -17.994113 18.239609 -0.660281 2.977338 0.033487 -0.016896 2263430.000000 1 0 0
0.988133 7.835822 -13.130913 15.323099 1.445354 2.600091 0.002871 -0.001124 -1418100.000000 1 0 0
9.413833 -9.072878 -9.785613 16.330817 -0.766957 2.213312 0.016713 -0.004718 -544490.000000 1 0 0
3.920733 7.233122 -13.446113 15.763507 1.074075 2.592484 -0.002010 0.001349 1357310.000000 1 0 0
-2.755367 9.050622 -15.510513 18.168154 -1.275272 2.593884 0.006694 0.001959 181986.000000 1 0 0
5.543433 -7.541578 -15.253913 17.896561 -0.936932 2.591235 0.033739 -0.011407 17071.000000 1 0 0
4.216633 7.327922 -16.341113 18.398652 1.048646 2.664141 -0.000256 0.004034 -380213.000000 1 0 0
-0.202067 5.050922 -13.421513 14.341884 -1.530812 2.781393 0.010530 -0.002584 2547190.000000 1 0 0
8.670433 4.261122 -16.547313 19.161083 0.456788 2.613143 0.019558 -0.007066 -342720.000000 1 0 0
5.387433 0.187422 -14.341613 15.321273 0.034775 2.782053 -0.001380 0.000727 1303780.000000 1 0 0
6.192933 7.897922 -11.560313 15.309161 0.905812 2.426639 -0.001263 0.001801 -1490270.000000 1 0 0
2.718833 -8.344978 -15.008313 17.386206 -1.255837 2.612432 0.013174 -0.005666 60114.200000 1 0 0
3.966733 11.451322 -13.781113 18.351752 1.237333 2.420285 0.014730 -0.009967 -1218200.000000 1 0 0
0.569833 -4.572978 -13.782113 14.532153 -1.446827 2.818908 0.006311 -0.002795 1143350.000000 1 0 0
8.415233 -0.177578 -11.631613 14.357649 -0.021099 2.515176 -0.001928 -0.002434 -885462.000000 1 0 0
-1.010967 -4.959378 -16.327713 17.094200 1.369702 2.840999 0.004421 -0.007521 279583.000000 1 0 0
4.493133 0.825022 -11.593813 12.461356 0.181596 2.766248 0.001678 -0.000543 681585.000000 1 0 0
-2.865967 -7.206978 -15.664713 17.479632 1.192304 2.681856 0.003777 0.000886 2146750.000000 1 0 0
11.468933 -3.759078 -11.346313 16.565201 -0.316728 2.325330 0.015373 -0.008948 -72581.200000 1 0 0
6.514833 -7.045878 -12.503513 15.761512 -0.824539 2.486997 0.021987 -0.006233 -1551810.000000 1 0 0
3.438433 -4.044678 -14.624213 15.557951 -0.866237 2.793377 0.016639 -0.007476 3248350.000000 1 0 0
-0.574467 -1.414278 -18.242213 18.305969 1.184964 3.058108 0.025556 -0.018321 -470846.000000 1 0 0
14.849133 2.965222 -8.532613 17.380874 0.197097 2.083941 0.018882 0.001539 348925.000000 1 0 0
6.879033 4.321122 -14.254113 16.406490 0.560867 2.623589 -0.001917 0.004372 2467840.000000 1 0 0
10.222633 -9.569278 -13.868613 19.708164 -0.752399 2.351387 0.050902 -0.010350 -1368620.000000 1 0 0
9.069533 -3.156878 -15.560913 18.285631 -0.334959 2.588666 0.039561 -0.016831 -419699.000000 1 0 0
-5.303667 -2.030478 -18.006113 18.880461 0.365630 2.836071 0.012160 0.000006 -283478.000000 1 0 0
4.982733 -9.060678 -11.064613 15.144278 -1.068007 2.390016 -0.001004 0.000068 2626180.000000 1 0 0
-2.359367 3.887222 -17.256013 17.845086 -1.025279 2.883935 0.024804 -0.001612 1982940.000000 1 0 0
9.173033 9.449522 -14.479413 19.572720 0.800244 2.403532 0.061687 -0.008677 -683102.000000 1 0 0
9.792433 9.973322 -11.586513 18.155059 0.794550 2.262951 0.041612 -0.014956 527936.000000 1 0 0
12.076733 -5.898478 -9.613113 16.524269 -0.454338 2.191684 0.025301 -0.008520 -495959.000000 1 0 0
8.061133 6.956722 -13.616013 17.285070 0.711990 2.477916 0.008288 0.002935 140695.000000 1 0 0
3.913233 -4.231078 -17.618513 18.537190 -0.824405 2.825449 0.044149 -0.018717 1279200.000000 1 0 0
9.342233 -7.446678 -12.188513 17.067225 -0.672969 2.366202 0.025789 -0.010571 1129910.000000 1 0 0
12.065033 -8.680078 -8.727713 17.236059 -0.623655 2.101759 0.033704 -0.012734 2067490.000000 1 0 0
-2.939967 -2.590178 -13.810413 14.355484 0.722231 2.865143 0.006039 -0.005785 -1978830.000000 1 0 0
-0.330067 6.069822 -17.617413 18.636655 -1.516471 2.809339 0.021424 -0.004243 1004410.000000 1 0 0
1.115333 -8.514078 -17.508113 19.500449 -1.440539 2.685616 0.016617 -0.010022 -55716.000000 1 0 0
0.011433 8.463322 -15.944813 18.051731 1.569445 2.653618 0.009392 -0.000081 -165638.000000 1 0 0
1.719233 3.353922 -14.922513 15.391099 1.097117 2.894202 0.009128 0.000368 786496.000000 1 0 0
-1.976967 -0.453078 -15.695513 15.826016 0.225288 3.013082 0.017604 -0.008348 1262290.000000 1 0 0
14.205633 -4.243378 -8.466813 17.073171 -0.290274 2.089683 0.043332 -0.004629 55272.200000 1 0 0
0.582933 0.600322 -14.592813 14.616784 0.800093 3.084314 0.008794 -0.001622 1792140.000000 1 0 0
8.707833 2.660222 -12.534613 15.492567 0.296493 2.513369 0.003569 0.002083 1466110.000000 1 0 0
6.010833 0.856222 -17.072513 18.119987 0.141495 2.799910 0.022684 -0.001436 584590.000000 1 0 0
15.219033 1.503922 -12.432713 19.709213 0.098499 2.253389 0.074824 -0.016933 339294.000000 1 0 0
8.898533 -11.236378 -11.913213 18.637723 -0.900990 2.264253 0.036212 0.001328 560870.000000 1 0 0
-4.600667 0.822622 -14.985313 15.697211 -0.176935 2.839272 0.015816 -0.008760 982582.000000 1 0 0
2.397433 5.063722 -17.239413 18.126950 1.128611 2.827372 0.010555 -0.001444 1704910.000000 1 0 0
5.983833 -11.644078 -12.200313 17.895207 -1.096095 2.320968 0.011805 -0.000165 832507.000000 1 0 0
12.762733 7.266622 -8.726813 17.083571 0.517587 2.106947 0.016781 -0.001587 -1039750.000000 1 0 0
-4.981967 3.664622 -15.811913 16.978399 -0.634207 2.768751 0.014969 -0.004267 1925140.000000 1 0 0
-0.605767 -4.303978 -19.106013 19.594155 1.430969 2.917911 0.013978 -0.012116 -2451530.000000 1 0 0
9.734333 4.409622 -10.297513 14.840511 0.425343 2.337658 -0.005330 0.004786 861190.000000 1 0 0
13.272533 3.670422 -12.806713 18.805425 0.269800 2.319940 0.057688 -0.009295 2007350.000000 1 0 0
-6.235167 5.813622 -17.276213 19.265073 -0.750426 2.683197 0.017328 0.005912 332408.000000 1 0 0
-10.109267 3.183222 -15.401913 18.696232 -0.305053 2.538874 0.029165 -0.010924 -935124.000000 1 0 0
10.586933 13.725622 -8.233013 19.190058 0.913786 2.014209 0.108203 -0.021911 394356.000000 1 0 0
7.281633 13.516922 -12.182513 19.599566 1.076666 2.241542 0.073998 -0.023487 -761265.000000 1 0 0
5.142133 15.280622 -11.177713 19.618364 1.246187 2.177007 0.038485 -0.013054 -447541.000000 1 0 0
14.174633 9.788622 -9.518613 19.680989 0.604371 2.075611 0.083593 -0.023567 1551650.000000 1 0 0
8.543633 -17.166978 -1.990813 19.278541 -1.109008 1.674246 0.034704 -0.008223 3853.450000 1 0 0
0.678033 -15.970578 0.002087 15.984965 -1.528367 1.570666 0.021093 -0.012759 2399010.000000 1 0 0
-9.117367 -11.762278 7.553287 16.689210 0.911401 1.101134 0.024293 -0.008134 989371.000000 1 0 0
2.147033 -15.887478 -2.616413 16.243993 -1.436470 1.732571 0.018372 -0.010012 2329030.000000 1 0 0
-1.270067 -10.982778 -9.428213 14.530164 1.455666 2.276897 -0.002218 -0.000617 -231822.000000 1 0 0
-4.629967 -12.697478 -13.106213 18.826454 1.221142 2.340830 0.044822 -0.004697 204463.000000 1 0 0
-8.204867 -17.821778 -1.825413 19.704511 1.139340 1.663569 0.031184 -0.023411 -732405.000000 1 0 0
-11.385967 -7.154478 -8.874113 16.111383 0.561011 2.154116 0.031109 -0.011489 1647860.000000 1 0 0
-13.569667 -11.692778 -4.738913 18.528740 0.711239 1.829430 0.040981 -0.009103 1013300.000000 1 0 0
-5.617767 -13.645878 9.773687 17.700120 1.180260 0.985817 0.019092 -0.004306 -393985.000000 1 0 0
0.227433 -14.054178 -3.635213 14.518485 -1.554615 1.823874 0.010805 -0.005745 954648.000000 1 0 0
-14.742067 -11.617378 1.979887 18.873579 0.667407 1.465700 0.015651 0.001944 1222780.000000 1 0 0
-3.878967 -16.456578 -7.561413 18.521347 1.339312 1.991337 0.020852 -0.014134 -1137070.000000 1 0 0
0.575633 -15.109878 -9.135513 17.666277 -1.532718 2.114274 -0.002257 -0.004625 81149.600000 1 0 0
4.647833 -14.234478 -2.576613 15.194132 -1.255191 1.741199 0.017935 -0.003223 -1165450.000000 1 0 0
-3.376067 -18.000978 -2.503713 18.485173 1.385401 1.706658 0.022675 -0.027929 640928.000000 1 0 0
-0.956967 -13.538478 0.680887 13.589326 1.500229 1.520671 0.012756 -0.006423 2624070.000000 1 0 0
-8.510667 -11.345478 -10.648613 17.735396 0.927207 2.214817 0.046359 -0.009263 2721300.000000 1 0 0
-3.731867 -14.193878 -0.372113 14.680990 1.313694 1.596146 0.010566 -0.006966 4238160.000000 1 0 0
-1.490667 -14.888178 -7.220713 16.613808 1.471005 2.020414 0.004399 -0.008171 171969.000000 1 0 0
-14.244467 -7.974678 -1.809913 16.424863 0.510369 1.681214 0.023016 -0.003201 1825570.000000 1 0 0
-10.713067 -7.361578 -11.709513 17.495009 0.602056 2.304071 0.041475 -0.011466 -7280.700000 1 0 0
-9.508567 -14.696778 6.808587 18.782039 0.996545 1.199842 0.019433 -0.005075 -636375.000000 1 0 0
-2.224267 -14.286578 -12.329013 19.001532 1.416347 2.276859 0.029581 -0.006064 -235329.000000 1 0 0
2.404933 -17.799878 -4.786013 18.588310 -1.436500 1.831204 0.028447 -0.018695 -453086.000000 1 0 0
-6.603067 -9.660678 -9.332213 14.967277 0.971231 2.244018 0.025091 -0.004173 351457.000000 1 0 0
-10.943567 -15.447378 0.184187 18.931906 0.954427 1.561067 0.019750 -0.013302 891240.000000 1 0 0
-12.559567 -11.037878 4.115087 17.219507 0.721002 1.329483 0.020695 -0.003794 1747740.000000 1 0 0
-17.072367 -8.876778 -1.498613 19.300486 0.479480 1.648521 0.018937 -0.002751 353526.000000 1 0 0
-1.102367 -19.161978 -3.828113 19.571690 1.513331 1.767660 0.035157 -0.029304 -1100470.000000 1 0 0
3.335233 -14.262578 -8.611713 16.991366 -1.341079 2.102298 0.002489 -0.004104 -271551.000000 1 0 0
-4.258467 -8.038778 -13.134713 15.977396 1.083640 2.535853 0.013517 0.001201 1097750.000000 1 0 0
5.689733 -16.572478 1.294687 17.569755 -1.240081 1.497041 0.025359 -0.005932 4380710.000000 1 0 0
-2.733867 -13.728878 -3.192913 14.357953 1.374235 1.795051 0.007402 -0.005081 -805915.000000 1 0 0
-0.310367 -14.085178 3.668887 14.558479 1.548765 1.316039 0.014677 -0.002362 -4675810.000000 1 0 0
1.292433 -16.234578 7.086587 17.760958 -1.491354 1.160372 0.023724 -0.009016 2089720.000000 1 0 0
-5.416467 -10.421378 -14.679713 18.799925 1.091477 2.466804 0.048128 -0.003569 -1107380.000000 1 0 0
-0.214967 -17.266978 -5.924313 18.256293 1.558347 1.901288 0.021344 -0.016832 580973.000000 1 0 0
-6.516367 -13.409978 -1.363513 14.971630 1.118465 1.661996 0.004962 -0.004877 3185850.000000 1 0 0
-1.703867 -17.754478 -0.109913 17.836388 1.475121 1.576959 0.021680 -0.018357 3554740.000000 1 0 0
-9.468967 -9.811278 -4.890013 14.485674 0.803151 1.915137 0.018822 -0.003052 1824070.000000 1 0 0
-0.704167 -16.775278 4.910387 17.493362 1.528844 1.286273 0.031616 -0.008083 1593490.000000 1 0 0
-6.791067 -9.880878 -6.407313 13.594263 0.968649 2.061589 0.015576 -0.005060 3506750.000000 1 0 0
-5.961867 -14.535478 -8.671513 17.944891 1.181562 2.075137 0.032283 -0.011053 -1598600.000000 1 0 0
-5.720367 -12.166878 -10.466213 17.038108 1.131305 2.232273 0.039215 -0.007038 880369.000000 1 0 0
-10.645567 -12.171378 -8.861113 18.438814 0.852171 2.072099 0.055369 -0.021641 -210901.000000 1 0 0
4.083933 -17.124178 6.651287 18.819022 -1.336680 1.209557 0.038513 -0.009972 381115.000000 1 0 0
-6.627667 -14.409278 -4.254513 16.421149 1.139692 1.832874 0.016813 -0.013501 -581351.000000 1 0 0
-2.764367 -12.215978 -7.088013 14.391378 1.348253 2.085777 0.002956 -0.003929 2100700.000000 1 0 0
-6.959867 -12.863178 4.369587 15.264154 1.074836 1.280470 0.006028 -0.001004 1469380.000000 1 0 0
2.710833 -16.442878 2.331687 16.827169 -1.407402 1.431782 0.021184 -0.011544 2375630.000000 1 0 0
-6.143567 -12.127378 7.261287 15.412430 1.101893 1.080223 0.008422 -0.001307 1752140.000000 1 0 0
-11.203367 -12.818778 -1.000413 17.053954 0.852544 1.629492 0.025462 -0.004505 -24945.500000 1 0 0
-14.184667 -8.660178 4.729387 17.279195 0.548127 1.293554 0.017960 -0.008197 580512.000000 1 0 0
-8.049467 -15.573578 4.393887 18.073088 1.093746 1.325218 0.011476 0.000311 1489240.000000 1 0 0
-16.450267 -9.093278 1.316787 18.842317 0.504970 1.500855 0.012692 0.002247 -1031770.000000 1 0 0
-6.748967 -17.108978 2.203287 18.523503 1.195067 1.451569 0.016084 -0.008100 3277530.000000 1 0 0
-11.420467 -15.038678 -4.675213 19.453702 0.921302 1.813497 0.058794 -0.015559 -849891.000000 1 0 0
-10.050367 -10.038678 -12.756313 19.092104 0.784816 2.302510 0.043996 -0.000847 -1565230.000000 1 0 0
-4.255067 -15.975278 -4.584413 17.156105 1.310487 1.841301 0.008156 -0.017704 -1608480.000000 1 0 0
-11.834567 -8.370178 0.025787 14.495431 0.615585 1.569017 0.005314 0.001702 2625120.000000 1 0 0
-9.538667 -11.247078 3.502787 15.157587 0.867405 1.337597 0.007824 0.000847 3208820.000000 1 0 0
-14.096767 -12.879578 -0.597013 19.103895 0.740308 1.602052 0.018228 -0.004165 -603683.000000 1 0 0
5.707133 -14.843378 -7.104213 17.417436 -1.203732 1.990927 0.013394 -0.014803 -29795.300000 1 0 0
-7.360067 -10.594078 -1.287013 12.963853 0.963613 1.670237 0.008799 -0.001522 3220150.000000 1 0 0
-11.660267 -8.322278 -6.081513 15.562999 0.619881 1.972261 0.023963 -0.007995 372340.000000 1 0 0
-14.436067 -6.651078 -9.256113 18.393273 0.431738 2.098133 0.040237 -0.019871 1474710.000000 1 0 0
-3.880567 -16.430078 1.467887 16.945824 1.338860 1.484065 0.018493 -0.013169 2212010.000000 1 0 0
-7.911067 -15.583278 0.044787 17.476428 1.101036 1.568234 0.021280 -0.011202 2311720.000000 1 0 0
1.197533 -18.621278 3.647487 19.012897 -1.506575 1.377757 0.033444 -0.014458 1773430.000000 1 0 0
-14.116367 -8.866778 -4.606213 17.294761 0.560840 1.840386 0.031009 -0.011774 114982.000000 1 0 0
-3.120067 -14.634078 11.167887 18.671175 1.360736 0.929624 0.009858 -0.006430 -42589.800000 1 0 0
-10.730567 -12.225078 -3.894413 16.726149 0.850411 1.805787 0.037315 -0.013827 1682000.000000 1 0 0
-9.929467 -10.743778 0.589887 14.641416 0.824767 1.530496 0.007057 0.002558 1698770.000000 1 0 0
0.063233 -13.026078 -11.109913 17.120539 -1.565942 2.276964 0.006624 -0.004492 188547.000000 1 0 0
-5.825567 -12.630678 -6.487913 15.348103 1.138648 2.007238 0.014398 -0.010455 2484800.000000 1 0 0
1.812033 -15.808678 9.902387 18.741799 -1.456672 1.014130 0.015853 -0.012845 293517.000000 1 0 0
-8.864767 -15.790678 -5.550013 18.940228 1.059249 1.868188 0.055768 -0.017459 496204.000000 1 0 0
-3.216267 -15.571178 5.872987 16.949866 1.367108 1.216968 0.016014 -0.004910 -199145.000000 1 0 0
-17.458267 -5.591278 -6.531913 19.460713 0.309944 1.913087 0.033509 -0.011441 180362.000000 1 0 0
18.874733 5.481522 -2.911013 19.868986 0.282641 1.717836 0.027251 -0.000692 -24723.100000 1 0 0
12.926433 -12.440978 -5.795613 18.853640 -0.766264 1.883256 0.036883 -0.010933 -1675870.000000 1 0 0
11.159133 -13.415378 -1.645313 17.527283 -0.876954 1.664806 0.035678 -0.011946 925600.000000 1 0 0
18.876133 -2.826078 4.539287 19.618875 -0.148613 1.337307 0.093047 -0.023970 252074.000000 1 0 0
8.769233 -16.841378 4.994587 19.633577 -1.090730 1.313579 0.055831 -0.019292 954711.000000 1 0 0
18.260733 -0.988178 6.642987 19.456622 -0.054062 1.222363 0.121601 -0.019460 -122579.000000 1 0 0
17.958433 -4.125378 -4.999513 19.092385 -0.225801 1.835744 0.085717 -0.011535 -1724330.000000 1 0 0
5.333033 -11.689678 14.754387 19.564809 -1.142784 0.716470 -0.004389 -0.001155 224141.000000 1 0 0
16.085433 -8.744878 -0.725613 18.323224 -0.497956 1.610407 0.048067 -0.010033 -399042.000000 1 0 0
14.034033 -12.503678 -1.483513 18.854624 -0.727795 1.649559 0.042182 -0.006102 754546.000000 1 0 0
11.407233 -1.810178 13.919987 18.087779 -0.157375 0.692614 0.045310 -0.009505 -408049.000000 1 0 0
16.917033 -5.942778 -1.419213 17.986572 -0.337823 1.649782 0.047425 -0.009380 -1814860.000000 1 0 0
17.760733 3.638422 -0.920013 18.152911 0.202062 1.621499 0.014232 -0.004045 678837.000000 1 0 0
9.897833 -10.968178 9.408487 17.515355 -0.836649 1.003734 0.024333 -0.002741 1174490.000000 1 0 0
9.094533 -11.025278 4.232187 14.905660 -0.881068 1.282904 0.011829 -0.004474 -1119690.000000 1 0 0
14.117133 -9.970178 6.830887 18.583835 -0.614906 1.194400 0.046913 -0.014042 1204280.000000 1 0 0
16.175533 -0.408778 -4.747213 16.862710 -0.025266 1.856176 0.017905 -0.000274 -325371.000000 1 0 0
15.818433 -0.348478 -1.686613 15.911911 -0.022026 1.676993 0.018614 -0.002683 -156176.000000 1 0 0
12.982933 -5.034978 -0.203513 13.926556 -0.369958 1.585410 0.014741 -0.007209 1022260.000000 1 0 0
14.379933 -7.439578 1.162187 16.232081 -0.477438 1.499137 0.038698 -0.006892 3119240.000000 1 0 0
15.603033 2.518722 3.637687 16.218242 0.160045 1.344576 0.034926 -0.011452 1220210.000000 1 0 0
16.038933 -6.998878 5.058587 18.215954 -0.411460 1.289396 0.068273 -0.021083 -1371480.000000 1 0 0
13.728633 -11.955578 3.231387 18.489269 -0.716475 1.395123 0.037428 -0.008123 504930.000000 1 0 0
14.049633 -0.882178 9.149587 16.789442 -0.062708 0.994454 0.067482 -0.015081 2031920.000000 1 0 0
14.234133 -2.712778 -1.581513 14.576381 -0.188324 1.679509 0.014030 -0.005074 279419.000000 1 0 0
15.061133 1.965722 9.083787 17.697937 0.129783 1.031808 0.085745 -0.017587 -1088080.000000 1 0 0
14.524233 -10.025878 -2.980813 17.898514 -0.604177 1.738116 0.044795 -0.010512 1164000.000000 1 0 0
7.400433 -12.522578 6.060187 15.757768 -1.037045 1.176039 -0.001213 -0.000775 -782781.000000 1 0 0
12.525633 -4.529678 7.041587 15.066301 -0.347000 1.084479 0.022409 -0.005345 2349170.000000 1 0 0
15.049133 -8.843278 -5.630113 18.340614 -0.531272 1.882809 0.061691 -0.011243 -410034.000000 1 0 0
14.457833 -4.487078 4.715787 15.855644 -0.300931 1.268807 0.029807 -0.008228 1231210.000000 1 0 0
17.205533 -4.118378 0.937987 17.716411 -0.234943 1.517827 0.039944 -0.013938 -14655.400000 1 0 0
10.305333 -14.396578 1.063887 17.736775 -0.949533 1.510778 0.049236 -0.015223 1790080.000000 1 0 0
16.515733 -2.410078 8.674987 18.810458 -0.144903 1.091473 0.102927 -0.013618 -388957.000000 1 0 0
16.197433 -2.525078 3.261387 16.714350 -0.154649 1.374411 0.038762 -0.009416 1021220.000000 1 0 0
7.908433 -15.221278 2.710187 17.365936 -1.091620 1.414092 0.023237 -0.008503 3661320.000000 1 0 0
16.761333 -6.936278 7.945387 19.803621 -0.392368 1.157960 0.093460 -0.020418 -1280950.000000 1 0 0
10.279633 -8.546478 5.214487 14.349356 -0.693596 1.198887 0.013636 -0.005993 2048270.000000 1 0 0
10.977433 -11.796278 2.096687 16.249686 -0.821338 1.441406 0.032174 -0.009960 267134.000000 1 0 0
12.465933 -7.155678 12.041787 18.751209 -0.521096 0.873448 0.053658 -0.018769 -217344.000000 1 0 0
15.314233 -9.782178 4.313587 18.676824 -0.568436 1.337733 0.051196 -0.013479 -1152090.000000 1 0 0
7.416933 -10.223678 7.753987 14.820891 -0.943183 1.020219 0.000504 0.002471 618275.000000 1 0 0
15.234733 -3.257678 -4.340713 16.172549 -0.210660 1.842528 0.037247 -0.002812 -1346040.000000 1 0 0
11.934633 -8.890278 9.822287 17.831148 -0.640238 0.987414 0.034670 -0.010055 -1109020.000000 1 0 0
17.070533 -6.574278 2.382987 18.447299 -0.367617 1.441256 0.066292 -0.015597 1260950.000000 1 0 0
17.578133 3.975122 2.037987 18.136861 0.222399 1.458191 0.029024 -0.008959 337097.000000 1 0 0
14.844433 -4.856578 8.863687 17.958521 -0.316189 1.054613 0.068445 -0.014787 385532.000000 1 0 0
12.980033 -12.497778 6.070687 19.013915 -0.766472 1.245831 0.049292 -0.008584 -1664700.000000 1 0 0
18.176933 0.760822 -0.719113 18.207055 0.041832 1.610303 0.025508 -0.010025 -780859.000000 1 0 0
11.842133 -2.034178 11.053087 16.326198 -0.170114 0.827097 0.032057 -0.005352 503165.000000 1 0 0
5.944233 -12.401078 10.617287 17.373757 -1.123819 0.913333 -0.001351 0.001240 -2272490.000000 1 0 0
10.846733 -4.876478 11.126987 16.286237 -0.422505 0.818641 0.030220 -0.006404 1390430.000000 1 0 0
17.916433 1.389722 5.170787 18.699383 0.077412 1.290623 0.076365 -0.014174 -1642240.000000 1 0 0
12.325133 -7.622578 7.172787 16.169770 -0.553881 1.111193 0.024888 -0.009637 78999.200000 1 0 0
10.748133 -7.775078 14.285887 19.495148 -0.626251 0.748380 0.068805 -0.017406 -231752.000000 1 0 0
14.273833 -0.155578 3.702487 14.747031 -0.010899 1.317014 0.010652 -0.005719 1178490.000000 1 0 0
11.697333 -7.612278 2.640987 14.203844 -0.576917 1.383773 0.014680 -0.005459 2953250.000000 1 0 0
9.261433 6.113622 3.472987 11.628076 0.583454 1.267495 0.010193 -0.004229 1895350.000000 1 0 0
-4.028167 14.777922 -9.910413 18.243612 -1.304681 2.145072 0.008940 0.000798 -34509.600000 1 0 0
8.980433 -6.345278 9.286187 14.392498 -0.615120 0.869498 0.008186 -0.001736 271828.000000 1 0 0
5.922133 -10.519778 -8.370913 14.690458 -1.058063 2.177083 0.000936 -0.006534 197392.000000 1 0 0
5.404833 1.121122 0.540287 5.546264 0.204529 1.473227 0.003752 -0.002203 3473870.000000 1 0 0
-0.618367 9.902722 10.947587 14.774842 -1.508433 0.736295 -0.000814 0.007135 1725560.000000 1 0 0
-6.322567 -5.272078 1.107687 8.306421 0.695044 1.437045 0.007148 -0.005226 3821540.000000 1 0 0
-1.033967 3.957922 -10.783213 11.533079 -1.315267 2.779003 0.009037 -0.006264 1181730.000000 1 0 0
11.008933 5.803722 1.189487 12.501787 0.485157 1.475507 0.010828 -0.004421 2516730.000000 1 0 0
-10.201667 -1.704578 -13.650513 17.126473 0.165559 2.493177 0.013112 -0.005348 648073.000000 1 0 0
7.401733 10.862222 -6.058713 14.473476 0.972649 2.002708 0.009625 -0.003195 94808.800000 1 0 0
-12.436667 -2.941478 -9.658413 16.018986 0.232249 2.217972 0.013761 -0.007119 1154910.000000 1 0 0
-3.854967 -8.709578 2.524687 9.853505 1.154103 1.311684 0.006459 -0.002762 -2396480.000000 1 0 0
8.044633 -6.570178 -5.877113 11.934145 -0.684851 2.085713 0.007875 -0.009032 2177980.000000 1 0 0
14.345333 3.265322 -4.260513 15.316751 0.223809 1.852675 0.006707 0.001557 864467.000000 1 0 0
-2.414167 -5.022978 9.795687 11.270049 1.122769 0.517257 0.001973 -0.001805 855021.000000 1 0 0
3.494833 -1.908978 -4.545713 6.043307 -0.499943 2.422175 0.002204 -0.004984 -2965310.000000 1 0 0
-4.120267 8.378022 -3.397913 9.935475 -1.113734 1.919839 0.002866 -0.000863 653218.000000 1 0 0
5.909233 0.138622 11.740687 13.144656 0.023454 0.466404 0.004986 -0.005145 -6560.120000 1 0 0
7.057633 4.822522 12.228987 14.920289 0.599434 0.610047 0.006249 0.001179 979219.000000 1 0 0
1.254833 -14.409378 12.491787 19.111503 -1.483931 0.858430 0.007233 -0.007324 934793.000000 1 0 0
2.911733 8.612722 -9.102713 12.865323 1.244786 2.356805 0.001660 -0.000762 -1590870.000000 1 0 0
-4.412267 -8.943578 -4.571313 10.970533 1.112487 2.000598 0.010718 -0.003557 1444390.000000 1 0 0
5.677133 -6.498578 -3.995913 9.509399 -0.852762 2.004469 0.003019 -0.008043 2059780.000000 1 0 0
-3.101067 3.396122 8.560787 9.717888 -0.830780 0.492971 0.003325 0.000805 1695840.000000 1 0 0
-3.811667 3.195522 -11.143913 12.203563 -0.697693 2.721788 0.007232 -0.009798 740417.000000 1 0 0
3.091033 -6.066578 8.525387 10.910549 -1.099563 0.673907 0.001650 0.000554 117934.000000 1 0 0
-5.030967 -8.665178 10.416787 14.453560 1.044767 0.765974 0.005505 -0.001873 708520.000000 1 0 0
-13.179567 -2.622378 6.603787 14.972904 0.196408 1.114029 0.013413 -0.009506 -727705.000000 1 0 0
4.053933 -6.017578 -8.280213 11.009429 -0.977953 2.422042 0.004336 -0.005045 3162290.000000 1 0 0
3.026533 -0.501578 12.306987 12.683589 -0.164234 0.244295 0.004572 -0.005454 2379790.000000 1 0 0
1.462733 -1.479978 -7.529013 7.811271 -0.791258 2.871947 0.003801 -0.007009 94873.900000 1 0 0
3.649933 -3.505778 3.464387 6.133064 -0.765255 0.970520 0.003196 -0.002899 3513650.000000 1 0 0
1.549333 0.346022 -11.809513 11.915735 0.219730 3.007968 0.006356 -0.006820 -719198.000000 1 0 0
4.025633 3.486722 -10.513413 11.785364 0.713784 2.672710 -0.001281 0.002787 808193.000000 1 0 0
2.812533 3.303822 3.408487 5.517551 0.865550 0.904913 -0.006296 0.002490 297687.000000 1 0 0
-5.308767 0.791922 2.559687 5.946608 -0.148081 1.125811 0.005469 -0.004220 2385620.000000 1 0 0
-9.382567 -9.356278 5.669287 14.412263 0.783995 1.166507 0.012712 -0.000944 -2876440.000000 1 0 0
-3.049767 3.749522 -0.579613 4.867848 -0.887953 1.690149 0.002565 -0.004456 379220.000000 1 0 0
-15.803867 -6.388878 5.137087 17.803641 0.384174 1.278093 0.033332 -0.017402 2529800.000000 1 0 0
1.039733 6.618322 -8.042213 10.467111 1.414971 2.447027 0.003428 -0.001605 315257.000000 1 0 0
-1.601467 6.508822 -9.436513 11.574853 -1.329543 2.523974 0.005023 -0.002506 1707890.000000 1 0 0
2.109533 -0.291078 5.320187 5.730554 -0.137116 0.380740 0.000181 -0.000208 3385660.000000 1 0 0
-3.389267 -0.541178 -6.357513 7.224816 0.158337 2.646564 0.007998 -0.009706 1197430.000000 1 0 0
1.876233 -1.064878 -2.459513 3.271608 -0.516226 2.421546 0.002233 -0.003056 1411570.000000 1 0 0
2.459733 -8.663078 -7.565613 11.761705 -1.294144 2.269520 -0.000793 -0.004055 3060120.000000 1 0 0
-2.576167 13.948822 -5.544413 15.229799 -1.388167 1.943409 0.008389 0.000756 4512780.000000 1 0 0
7.026533 -5.113178 -8.265513 11.993142 -0.629073 2.331162 0.004657 -0.009122 4449500.000000 1 0 0
-14.176067 -5.025778 -2.245513 15.207289 0.340701 1.718999 0.007768 -0.001899 -1246230.000000 1 0 0
-2.775267 6.817022 -6.786413 10.011458 -1.184177 2.315650 0.005785 -0.001069 -340958.000000 1 0 0
-5.671167 -1.134078 -8.107813 9.959161 0.197369 2.521984 0.014042 -0.011018 270757.000000 1 0 0
-5.651167 -10.634278 3.557987 12.557183 1.082337 1.283518 0.005951 -0.002914 -3389050.000000 1 0 0
8.119233 -7.477578 6.714887 12.919978 -0.744281 1.024263 0.004862 -0.004535 -764421.000000 1 0 0
8.902733 -5.860878 13.197187 16.963912 -0.582204 0.679389 0.035912 -0.008509 52832.600000 1 0 0
-4.909467 9.507422 -0.842013 10.733263 -1.094129 1.649326 0.003733 -0.001527 1326020.000000 1 0 0
2.743033 6.666522 12.074387 14.062630 1.180447 0.538234 0.002696 -0.000860 1726570.000000 1 0 0
6.110733 -2.812678 10.942287 12.844682 -0.431374 0.551208 0.011143 -0.003599 498355.000000 1 0 0
-9.690567 -6.590878 -1.138513 11.774675 0.597268 1.667639 0.008664 -0.002804 1218760.000000 1 0 0
0.967533 -13.378578 6.275887 14.809093 -1.498602 1.133175 0.007267 0.000133 1618400.000000 1 0 0
-0.497467 -3.134378 8.726287 9.285467 1.413396 0.348813 0.001121 -0.000919 1694400.000000 1 0 0
4.242233 0.730422 3.414287 5.494307 0.170507 0.900239 0.000111 0.000778 939199.000000 1 0 0
-10.281867 5.518322 8.332487 14.338724 -0.492578 0.950695 0.004697 -0.003472 1463530.000000 1 0 0
9.348733 7.966822 -0.000213 12.282877 0.705759 1.570814 0.006450 -0.004277 684984.000000 1 0 0
4.283233 2.865222 8.199687 9.684547 0.589574 0.561087 -0.004061 -0.000418 2752050.000000 1 0 0
1.308933 2.553122 -9.737513 10.151398 1.097057 2.855057 0.005846 -0.006498 1647180.000000 1 0 0
-1.336467 -10.185078 3.058687 10.718093 1.440324 1.281398 0.007278 -0.002839 -1649530.000000 1 0 0
-10.045067 9.560522 9.061687 16.565661 -0.760689 0.992000 0.020908 -0.005057 2165310.000000 1 0 0
9.887133 -1.969078 -7.599313 12.624667 -0.196584 2.216727 0.006411 -0.003027 -573336.000000 1 0 0
-5.138767 -1.898178 6.634187 8.603630 0.353838 0.690242 0.002331 -0.002236 -2004.060000 1 0 0
3.101833 -7.819978 -4.789513 9.680540 -1.193177 2.088351 -0.001081 -0.005926 1288110.000000 1 0 0
-5.097467 4.892722 -13.110613 14.893323 -0.764906 2.647293 0.007036 -0.007472 2555010.000000 1 0 0
-5.727567 9.586522 5.387487 12.398849 -1.032246 1.121296 0.004545 -0.000056 2329690.000000 1 0 0
-0.509167 -1.777878 -9.396813 9.577066 1.291872 2.947270 0.007699 -0.008656 -49538.000000 1 0 0
-16.711867 0.205322 6.369587 17.885757 -0.012285 1.206677 0.036216 -0.017630 70616.100000 1 0 0
-5.922367 -2.964578 4.100587 7.789607 0.464106 1.016415 0.000569 -0.004597 3385510.000000 1 0 0
0.997233 -5.691078 -5.063413 7.682512 -1.397330 2.290395 0.002580 -0.006033 547764.000000 1 0 0
-6.990867 1.346022 -8.523013 11.105212 -0.190212 2.445695 0.007225 -0.008632 313039.000000 1 0 0
7.970133 2.014122 4.691387 9.465137 0.247526 1.052214 0.006683 -0.002034 -502319.000000 1 0 0
0.545533 -8.080878 -0.400413 8.109163 -1.503390 1.620194 0.001191 -0.002791 1288000.000000 1 0 0
5.370333 5.517322 -3.342313 8.393591 0.798898 1.980348 0.001406 -0.002567 226218.000000 1 0 0
-0.789667 -0.385778 -1.244213 1.523307 0.454432 2.526611 0.000824 -0.004095 692872.000000 1 0 0
9.013233 6.388922 -6.276513 12.706349 0.616633 2.087442 0.000851 -0.001624 286638.000000 1 0 0
-14.974767 -6.988178 2.570387 16.723791 0.436625 1.416488 0.002406 -0.005354 -75416.500000 1 0 0
-6.487567 6.811822 8.821487 12.896049 -0.809775 0.817502 0.008578 0.000611 1506680.000000 1 0 0
-9.483667 -3.194878 -9.625613 13.885230 0.324941 2.336753 0.008370 -0.005103 718491.000000 1 0 0
14.838233 3.558422 -1.241013 15.309332 0.235369 1.651948 0.003984 -0.001904 1718050.000000 1 0 0
12.098533 1.654022 -5.807713 13.521827 0.135870 2.014743 0.005362 0.000005 -459255.000000 1 0 0
1.799333 -9.394878 12.798287 15.978032 -1.381565 0.641845 -0.006605 0.000109 -301386.000000 1 0 0
-3.663067 6.240022 7.770687 10.617887 -1.039970 0.749765 0.003384 0.003337 823693.000000 1 0 0
-4.145567 13.045822 -12.363413 18.445411 -1.263118 2.305369 0.006237 -0.000527 -198090.000000 1 0 0
-10.379267 7.785822 6.489187 14.507163 -0.643586 1.107042 0.007961 -0.003211 625697.000000 1 0 0
8.083633 -9.251678 -7.007013 14.143440 -0.852676 2.089120 0.008407 -0.008390 437142.000000 1 0 0
5.782633 -3.764178 -0.265913 6.904968 -0.577040 1.609316 0.006290 -0.004400 -1368930.000000 1 0 0
-1.558767 -4.534278 4.152687 6.343047 1.239679 0.857033 0.000454 -0.001583 1015870.000000 1 0 0
9.892433 -1.988978 -2.532213 10.403286 -0.198415 1.816671 0.004832 -0.002970 -1598580.000000 1 0 0
13.610233 7.139622 1.479687 15.440276 0.483116 1.474816 0.017389 -0.002887 -1366650.000000 1 0 0
5.318833 -3.688778 -3.161413 7.203582 -0.606371 2.025133 0.005792 -0.007181 -1946870.000000 1 0 0
-12.273967 -5.995078 1.894387 13.790574 0.454356 1.432992 0.001311 -0.000539 1047290.000000 1 0 0
3.705133 -5.714978 -0.228313 6.814771 -0.995603 1.604305 0.003401 -0.003902 -441148.000000 1 0 0
-5.244267 3.684222 -8.718613 10.820815 -0.612418 2.507697 0.007509 -0.008728 800711.000000 1 0 0
-1.642967 -9.335978 7.274587 11.949035 1.396598 0.916248 0.003480 -0.001956 2297930.000000 1 0 0
-7.392567 -7.537578 2.683787 10.893477 0.795110 1.321867 0.009752 -0.006035 -4567680.000000 1 0 0
-5.885567 12.996322 -8.522613 16.618640 -1.145563 2.109280 0.006605 -0.002476 1367810.000000 1 0 0
9.304033 -13.797178 -4.099613 17.138669 -0.977498 1.812341 0.021347 -0.006153 1462060.000000 1 0 0
-6.593667 -5.267278 -6.712213 10.783064 0.674033 2.242700 0.012002 -0.005735 991091.000000 1 0 0
3.422733 0.347122 -6.181913 7.074718 0.101071 2.633766 0.001523 -0.008120 1543560.000000 1 0 0
-3.603867 5.699822 4.824387 8.291595 -1.006981 0.949806 0.006285 0.002343 601053.000000 1 0 0
-2.631067 -10.783178 -2.810513 11.449822 1.331475 1.818794 0.011178 -0.002392 2111190.000000 1 0 0
-12.563767 -0.533378 1.713887 12.691341 0.042428 1.435339 -0.000699 -0.004538 150062.000000 1 0 0
8.446533 -11.895278 -5.994913 15.772778 -0.953341 1.960679 0.014197 -0.011234 -100206.000000 1 0 0
6.146933 4.025322 1.003987 7.415928 0.579778 1.434997 -0.000127 -0.002280 -390575.000000 1 0 0
3.445833 -4.847778 -10.908513 12.424587 -0.952854 2.642418 0.002764 -0.005060 -68057.200000 1 0 0
-7.639567 4.187722 8.620787 12.256344 -0.501431 0.790664 0.007910 0.000725 2576120.000000 1 0 0
8.165533 8.767322 4.011687 12.634694 0.820923 1.247690 0.006660 -0.003274 2593510.000000 1 0 0
0.138233 10.546622 -6.384713 12.329432 1.557690 2.115124 0.004958 0.001727 2060260.000000 1 0 0
5.375133 8.102322 3.205587 10.237942 0.985054 1.252332 0.002781 -0.001119 3241430.000000 1 0 0
8.048933 6.682422 -3.703413 11.097538 0.692901 1.911038 0.003169 -0.003252 1476530.000000 1 0 0
10.475933 2.491722 -8.263613 13.573546 0.233513 2.225347 -0.001981 0.001410 311827.000000 1 0 0
3.458133 -12.532178 -0.308513 13.004205 -1.301556 1.594523 0.005651 -0.005318 -2473440.000000 1 0 0
0.560533 2.098122 5.229787 5.662772 1.309734 0.393590 -0.002014 0.000896 1202120.000000 1 0 0
-4.979967 13.311722 1.436187 14.285120 -1.212812 1.470089 0.005347 -0.006409 1223420.000000 1 0 0
8.168433 4.076322 -8.039413 12.164368 0.462874 2.292812 -0.002610 -0.000627 795468.000000 1 0 0
-13.858067 -0.694278 -3.588913 14.332074 0.050057 1.823901 0.001055 -0.003534 589067.000000 1 0 0
-8.524067 -0.112378 -0.495013 8.539168 0.013183 1.628798 0.004484 -0.004834 -61849.200000 1 0 0
1.774533 -3.839078 -1.177413 4.390192 -1.137820 1.842312 0.002760 -0.003396 -1894020.000000 1 0 0
8.045433 -5.609378 -0.254313 9.811156 -0.608853 1.596720 0.011622 -0.005754 2879540.000000 1 0 0
-2.315867 -1.157778 7.424387 7.862901 0.463594 0.335548 0.003652 -0.001215 1909690.000000 1 0 0
-5.854967 8.775522 -11.729913 15.775971 -0.982429 2.409131 0.001962 -0.000270 -1115470.000000 1 0 0
-6.225267 9.130822 -8.881713 14.177824 -0.972399 2.247788 0.008170 -0.001007 1071500.000000 1 0 0
-1.707967 13.843922 -8.372313 16.268588 -1.448044 2.111373 0.008250 0.001475 662401.000000 1 0 0
-1.556267 7.173622 9.671587 12.141764 -1.357164 0.649220 -0.003487 0.002155 234953.000000 1 0 0
10.040533 2.402122 -4.026013 11.081122 0.234829 1.942627 0.002587 -0.000828 -2153060.000000 1 0 0
-2.967367 -7.473278 -6.889013 10.588373 1.192824 2.279198 0.010399 -0.004665 1434510.000000 1 0 0
-5.517467 -5.057578 -1.561213 7.645844 0.741937 1.776434 0.009069 -0.004234 -898944.000000 1 0 0
5.637533 7.377622 -8.784913 12.782244 0.918307 2.328527 -0.003143 0.003629 -77967.600000 1 0 0
-9.606867 5.159122 -7.484313 13.225860 -0.492827 2.172302 0.001042 0.000738 1010890.000000 1 0 0
-0.514467 6.042522 -5.312913 8.062493 -1.485860 2.290240 0.005278 -0.002245 -989444.000000 1 0 0
-8.275667 2.710222 -6.362613 10.784934 -0.316485 2.201798 0.004699 -0.002832 1253030.000000 1 0 0
3.682033 1.442722 -2.034113 4.447069 0.373441 2.045871 -0.000685 -0.005123 1197780.000000 1 0 0
-6.875267 12.436122 -3.416413 14.615003 -1.065770 1.806740 0.007995 -0.000229 1571680.000000 1 0 0
-6.617167 3.094522 -2.341613 7.671122 -0.437435 1.880998 0.003357 -0.001093 -289190.000000 1 0 0
12.046533 4.101622 -0.848813 12.753930 0.328170 1.637399 0.007366 -0.003793 -971418.000000 1 0 0
2.079733 12.370422 -5.526313 13.707398 1.404233 1.985767 0.006994 -0.003488 944269.000000 1 0 0
-9.190267 -1.501578 -4.309013 10.260767 0.161957 2.004187 0.006399 -0.001401 -711165.000000 1 0 0
-1.134467 5.799622 3.366387 6.801117 -1.377625 1.052990 0.002754 -0.000423 1444800.000000 1 0 0
11.527433 2.806322 11.988487 16.866564 0.238802 0.780184 0.055013 -0.006791 -902718.000000 1 0 0
-6.959967 -2.390778 -5.763913 9.347708 0.330876 2.235229 0.013613 -0.006749 1320850.000000 1 0 0
7.579533 -7.268078 10.915587 15.146760 -0.764424 0.766050 0.007924 -0.000892 -1124280.000000 1 0 0
-5.518767 -2.064978 -10.900213 12.390947 0.358046 2.646010 0.012867 -0.007168 -1011950.000000 1 0 0
0.847433 -6.229878 4.596187 7.788097 -1.435599 0.939545 0.000919 0.000484 724819.000000 1 0 0
-4.706567 -9.480578 7.415187 12.923550 1.109998 0.959691 0.002142 -0.002468 480994.000000 1 0 0
-8.871567 9.287122 1.640687 12.947864 -0.808279 1.443740 0.006550 -0.004338 977434.000000 1 0 0
-8.220967 7.113622 -9.170613 14.222800 -0.713311 2.271535 0.002842 -0.000252 -118873.000000 1 0 0
-1.205567 -10.656578 -0.074613 10.724813 1.458146 1.577753 0.007690 -0.003030 920754.000000 1 0 0
-3.995167 10.242022 7.725787 13.436821 -1.198874 0.958227 0.004777 0.000381 2005480.000000 1 0 0
-7.650467 12.014922 1.914887 14.372014 -1.003794 1.437162 0.004252 -0.008350 2645520.000000 1 0 0
-8.117267 -8.343078 -2.822813 11.977698 0.799116 1.808707 0.016286 -0.003826 206754.000000 1 0 0
5.327133 4.530622 -7.938813 10.579680 0.704773 2.419438 -0.000200 0.001893 1821680.000000 1 0 0
-8.949867 -0.193378 -10.248313 13.607550 0.021603 2.423610 0.005591 -0.006694 -1267050.000000 1 0 0
-15.277367 -2.304378 -1.541113 15.526852 0.149708 1.670215 0.007928 -0.003800 129070.000000 1 0 0
-7.103867 -5.789678 8.690687 12.629859 0.683823 0.811920 0.003121 -0.002718 -260352.000000 1 0 0
8.138533 3.457022 -1.033313 8.902497 0.401678 1.687129 0.002526 -0.002619 183596.000000 1 0 0
11.822333 7.286622 -5.907313 15.091678 0.552350 1.972980 0.007044 -0.000184 238479.000000 1 0 0
3.754433 13.306622 -9.518213 16.785658 1.295797 2.173709 0.005139 -0.005200 656654.000000 1 0 0
-9.846167 5.313222 -0.518013 11.200253 -0.494842 1.617063 0.002040 0.001250 1201230.000000 1 0 0
11.304433 -1.270678 -5.111913 12.471426 -0.111935 1.993130 0.010536 -0.003833 -30621.300000 1 0 0
10.579433 1.754022 -1.302213 10.802627 0.164301 1.691636 0.005368 -0.003507 720692.000000 1 0 0
14.631333 5.100122 4.807587 16.223441 0.335405 1.269942 0.029935 -0.013704 2366320.000000 1 0 0
0.883833 -0.806978 10.341787 10.410809 -0.739975 0.115214 0.002105 -0.001988 735625.000000 1 0 0
-7.940067 1.389322 -12.566213 14.929319 -0.173222 2.571246 0.005181 -0.007490 -931001.000000 1 0 0
3.212233 -11.491378 -7.732413 14.218313 -1.298220 2.145796 -0.002933 -0.005607 896698.000000 1 0 0
2.849233 4.976122 -6.674913 8.799680 1.050782 2.431866 0.002747 -0.001474 -1565720.000000 1 0 0
6.437333 8.013722 0.484287 10.290458 0.894053 1.523717 0.004994 -0.003629 67551.900000 1 0 0
-8.980167 -5.420878 6.640987 12.414992 0.543099 1.006387 0.005250 -0.005648 -2284860.000000 1 0 0
-0.276467 -6.814378 -11.733313 13.571397 1.530247 2.615074 -0.000776 0.003650 1853550.000000 1 0 0
6.478833 -13.320878 -4.628513 15.519156 -1.118115 1.873650 0.010513 -0.006406 2434070.000000 1 0 0
-3.175067 -0.285078 10.021387 10.516203 0.089546 0.307982 0.001983 -0.000757 -601777.000000 1 0 0
8.522233 8.544022 6.953387 13.927611 0.786675 1.048061 0.003962 -0.004713 -62673.000000 1 0 0
-8.059067 5.599422 -2.726913 10.185192 -0.607226 1.841836 0.004953 -0.001190 -219148.000000 1 0 0
-5.469267 5.792522 -6.483013 10.271107 -0.814094 2.253882 0.006939 -0.001428 -1379920.000000 1 0 0
3.390633 -13.622378 2.591287 14.275165 -1.326852 1.388260 0.009808 -0.005527 -1679030.000000 1 0 0
-11.179167 -7.083778 6.468587 14.730795 0.564802 1.116177 0.012754 -0.007409 -747649.000000 1 0 0
-12.927767 -3.806678 -6.860413 15.122276 0.286364 2.041667 0.010510 -0.005245 -754945.000000 1 0 0
6.104133 0.254722 -7.238113 9.471832 0.041705 2.440554 0.001199 -0.002632 1036180.000000 1 0 0
-1.440067 2.137922 -2.493813 3.586587 -0.978021 2.339656 0.003734 -0.005338 4423030.000000 1 0 0
7.620633 1.021822 -4.944913 9.141681 0.133291 2.142326 0.002588 -0.002059 293581.000000 1 0 0
3.785633 -4.537278 10.902287 12.400717 -0.875464 0.496687 0.003134 -0.001114 -1399120.000000 1 0 0
6.046633 -2.519778 2.075887 6.871707 -0.394840 1.263910 0.008424 -0.004496 -418641.000000 1 0 0
-6.411967 7.736622 1.128887 10.111530 -0.878751 1.458920 0.003233 -0.001001 -233202.000000 1 0 0
6.129433 -3.425978 7.999487 10.644204 -0.509680 0.720411 0.008312 -0.005414 1105100.000000 1 0 0
6.910033 -2.301178 -7.799613 10.671360 -0.321468 2.390424 0.001754 -0.005634 291377.000000 1 0 0
12.078333 -8.149378 -5.756813 15.666505 -0.593551 1.947073 0.027316 -0.009790 1048770.000000 1 0 0
5.728133 -9.588578 10.038987 15.017776 -1.032297 0.838642 -0.003273 0.004397 985202.000000 1 0 0
-6.749667 7.488222 -4.515113 11.046163 -0.837224 1.991880 0.006594 0.000100 309206.000000 1 0 0
-1.209967 -7.653378 9.753187 12.456439 1.413998 0.671348 0.001799 -0.000857 -602972.000000 1 0 0
10.120733 -9.164378 0.802487 13.676953 -0.735848 1.512088 0.012262 -0.005714 1238840.000000 1 0 0
11.085233 6.225022 9.662887 15.968866 0.511675 0.920895 0.014801 -0.009587 1246600.000000 1 0 0
-15.283567 -4.392878 -4.988113 16.666315 0.279880 1.874748 0.017592 -0.011045 1616110.000000 1 0 0
-4.614767 -4.690578 7.761987 10.175758 0.793545 0.703176 0.003648 -0.003106 -1003710.000000 1 0 0
2.917433 10.876322 -11.043013 15.771935 1.308728 2.346430 -0.003537 0.001401 -976878.000000 1 0 0
9.934133 -1.340578 1.567487 10.145992 -0.134136 1.415682 0.009031 -0.004410 539063.000000 1 0 0
-1.629967 -2.678078 0.653187 3.202429 1.024053 1.365389 0.000159 -0.003474 -647134.000000 1 0 0
1.619433 2.950322 0.859287 3.473519 1.068798 1.320819 -0.005335 -0.001975 -1235750.000000 1 0 0
-8.985867 -2.400878 4.221487 10.214254 0.261085 1.144728 0.002199 -0.002582 3415910.000000 1 0 0
9.912433 4.980022 -2.726913 11.423353 0.465567 1.811838 0.002267 -0.002507 750847.000000 1 0 0
2.556633 8.567222 2.514787 9.287509 1.280789 1.296603 -0.002431 -0.002190 1372420.000000 1 0 0
-8.143367 -0.188278 2.491487 8.518062 0.023116 1.273962 0.003089 -0.007020 1142680.000000 1 0 0
6.940733 2.204522 13.655487 15.475982 0.307543 0.489929 0.015542 -0.005857 -747457.000000 1 0 0
6.763033 4.448222 3.717987 8.907790 0.581787 1.140229 0.000455 -0.001396 622492.000000 1 0 0
-0.308367 3.418122 7.724987 8.453051 -1.480825 0.418081 -0.001691 -0.000507 65769.400000 1 0 0
2.943633 -10.247678 9.299487 14.147804 -1.291079 0.853553 -0.002273 -0.001051 770696.000000 1 0 0
1.368833 -4.455578 6.920087 8.343470 -1.272731 0.592761 -0.000521 0.000513 281812.000000 1 0 0
-0.260167 10.795822 -1.934113 10.970791 -1.546702 1.748019 0.007681 -0.003513 3428230.000000 1 0 0
8.769933 5.628622 7.925187 13.092047 0.570595 0.920599 0.009205 -0.005589 -779979.000000 1 0 0
2.528333 11.397322 -2.947313 12.040684 1.352496 1.818089 0.008750 -0.008074 2166730.000000 1 0 0
1.477633 2.395922 -6.680613 7.249443 1.018167 2.742811 0.003777 -0.005907 573337.000000 1 0 0
-13.590267 -2.264678 3.629087 14.247610 0.165122 1.313243 0.000891 -0.002616 -503221.000000 1 0 0
-0.911767 -10.647278 -5.228413 11.896728 1.485371 2.025820 0.005559 -0.004177 1452360.000000 1 0 0
-5.651267 2.776522 0.388687 6.308484 -0.456671 1.509144 0.007138 -0.002827 13017.100000 1 0 0
3.698433 7.241722 -5.014513 9.553339 1.098616 2.123390 0.003420 -0.001870 -3040510.000000 1 0 0
2.885533 9.807322 -6.474613 12.100846 1.284649 2.135369 0.003209 -0.000207 1780750.000000 1 0 0
-12.186967 1.547122 -2.577913 12.552346 -0.126273 1.777641 0.003659 -0.002265 1220970.000000 1 0 0
-2.572467 9.511822 -5.678413 11.372630 -1.306666 2.093593 0.001364 0.001911 1321590.000000 1 0 0
-1.290767 3.302422 1.698187 3.931401 -1.198199 1.124137 -0.000337 -0.001713 -509095.000000 1 0 0
12.803933 3.825122 9.593787 16.450319 0.290306 0.948137 0.050086 -0.012421 187912.000000 1 0 0
-2.493967 -9.606978 11.642387 15.298990 1.316803 0.705958 0.001758 -0.004226 1532140.000000 1 0 0
-0.395267 -8.899378 -7.436813 11.604368 1.526410 2.266419 0.004521 -0.002425 1303410.000000 1 0 0
2.273833 7.639622 -0.439113 7.982917 1.281509 1.625831 0.002693 -0.002592 1472960.000000 1 0 0
-11.831867 -1.344478 -5.576913 13.149245 0.113147 2.008791 0.005286 0.000021 -421459.000000 1 0 0
-6.174167 -7.145778 -11.026013 14.517418 0.858213 2.433344 0.014030 -0.003076 764118.000000 1 0 0
-4.661767 -2.364678 -1.414113 5.415117 0.469430 1.835001 0.005971 -0.004798 -3056610.000000 1 0 0
-10.554367 3.571122 4.498187 12.015876 -0.326263 1.187097 0.002815 -0.005715 4023160.000000 1 0 0
6.727633 9.321822 -3.598713 12.046084 0.945649 1.874174 0.001597 -0.002591 391396.000000 1 0 0
1.204933 -2.786878 -11.483613 11.878212 -1.162709 2.883113 0.006540 -0.006282 -1514900.000000 1 0 0
1.265333 8.769722 7.487387 11.600434 1.427501 0.869197 -0.004928 0.007561 1702500.000000 1 0 0
10.473033 0.526622 10.381787 14.756126 0.050241 0.790405 0.015883 -0.003228 1618590.000000 1 0 0
-5.127667 -0.849978 -3.928813 6.515443 0.164269 2.218053 0.012224 -0.007380 -52173.600000 1 0 0
11.719733 5.690522 5.355687 14.086077 0.452021 1.180771 0.009619 -0.006107 3235310.000000 1 0 0
10.084833 -3.395378 3.720387 11.272698 -0.324761 1.234455 0.016188 -0.008167 -1186170.000000 1 0 0
7.283633 -1.645878 -3.413113 8.210332 -0.222237 1.999519 0.006804 -0.003110 -3428290.000000 1 0 0
2.296333 9.261422 10.424787 14.132349 1.327752 0.741207 -0.002834 0.004586 1798300.000000 1 0 0
2.559333 -10.987578 6.425187 12.983069 -1.341947 1.053088 -0.003332 0.000527 2370900.000000 1 0 0
5.942933 -7.500878 -1.182813 9.642648 -0.900769 1.693771 0.003486 -0.007272 878930.000000 1 0 0
-0.233567 -5.616578 -2.231213 6.048042 1.529235 1.948638 0.001411 -0.002411 834059.000000 1 0 0
7.873733 -4.998778 2.629687 9.690134 -0.565664 1.295972 0.012431 -0.006072 2834660.000000 1 0 0
-2.593967 -12.580578 4.604487 13.645546 1.367458 1.226605 0.011681 -0.001401 -281509.000000 1 0 0
4.938833 -10.288678 -1.190713 11.474614 -1.123255 1.674753 0.005533 -0.008398 1637760.000000 1 0 0
0.967433 0.169822 1.042087 1.432031 0.173768 0.755835 -0.005337 -0.001134 -1293840.000000 1 0 0
-1.627567 8.620122 2.397087 9.094037 -1.384183 1.304055 0.003780 -0.001081 24688.600000 1 0 0
-7.555467 0.557022 -3.086013 8.180393 -0.073591 1.957616 0.003929 -0.001750 -113280.000000 1 0 0
4.512633 -6.308778 12.963487 15.106838 -0.949879 0.539198 0.009515 -0.006452 -582182.000000 1 0 0
-5.084967 12.974622 8.302787 16.221405 -1.197278 1.033469 0.013227 -0.008323 1692450.000000 1 0 0
0.576833 6.149722 8.143087 10.220650 1.477272 0.648933 -0.004858 0.003417 261779.000000 1 0 0
7.937533 -0.511378 -0.728613 7.987291 -0.064336 1.662145 0.007288 -0.004008 3159240.000000 1 0 0
2.438133 -9.213378 -2.305313 9.805371 -1.312097 1.808125 0.001451 -0.005524 1848680.000000 1 0 0
-7.287167 12.093222 4.792287 14.910226 -1.028480 1.243579 0.009075 -0.010520 654346.000000 1 0 0
-15.015267 0.195322 0.103187 15.016892 -0.013007 1.563925 0.005518 -0.006530 1310700.000000 1 0 0
6.848833 -0.510578 3.915987 7.905831 -0.074412 1.052583 0.007389 -0.001944 574874.000000 1 0 0
-4.140067 -5.075778 5.046387 8.268598 0.886584 0.914348 0.002269 -0.003648 -744656.000000 1 0 0
2.874933 5.096822 6.819787 8.986230 1.057220 0.709151 -0.007146 0.000617 -728068.000000 1 0 0
2.084633 -7.155078 1.878387 7.685647 -1.287294 1.323893 0.000414 -0.002506 2499970.000000 1 0 0
-2.531467 6.363622 -1.702613 7.057117 -1.192185 1.814462 0.005424 -0.001817 1538460.000000 1 0 0
2.733433 -3.899978 -6.554713 8.102206 -0.959477 2.513251 0.002137 -0.007006 30773.000000 1 0 0
-5.098867 0.874422 -12.105413 13.164501 -0.169841 2.737729 0.009586 -0.006971 279611.000000 1 0 0
-7.555167 6.301122 -11.964813 15.490043 -0.695140 2.453438 0.002201 -0.004456 2938540.000000 1 0 0
-1.086867 11.121322 -9.089013 14.404001 -1.473377 2.253646 0.004608 0.002177 1997380.000000 1 0 0
4.568533 5.875222 -0.591313 7.465881 0.909868 1.650081 -0.000103 -0.002199 1326560.000000 1 0 0
-2.739467 13.321722 3.537587 14.053024 -1.367984 1.316327 0.006618 -0.007093 1325850.000000 1 0 0
1.616833 -7.936478 10.253887 13.066906 -1.369825 0.668549 -0.002290 -0.001769 896383.000000 1 0 0
13.012733 -0.140778 -1.059313 13.056538 -0.010818 1.652018 0.010521 -0.006075 429901.000000 1 0 0
-1.016267 3.022922 -5.368413 6.244254 -1.246480 2.605550 0.004937 -0.007657 100307.000000 1 0 0
6.563533 1.108022 7.253587 9.844908 0.167238 0.742492 0.004053 -0.000664 1576650.000000 1 0 0
5.558433 -6.110078 6.859087 10.736681 -0.832639 0.877799 0.000816 -0.001871 1979120.000000 1 0 0
12.328633 -4.817578 2.691587 13.507364 -0.372518 1.370185 0.014525 -0.006984 366732.000000 1 0 0
4.494233 -9.075778 13.917187 17.212088 -1.111004 0.629078 -0.002269 -0.000996 -238879.000000 1 0 0
-2.748667 -4.402778 -1.364513 5.366705 1.012698 1.827874 0.005208 -0.004998 808906.000000 1 0 0
-9.354867 -5.214078 -7.499413 13.074454 0.508480 2.181682 0.010819 -0.004281 374871.000000 1 0 0
-10.524567 -3.188978 7.862587 13.518742 0.294210 0.950094 0.000149 -0.004158 132166.000000 1 0 0
12.114233 -0.586678 1.699387 12.246908 -0.048391 1.431587 0.010751 -0.005969 1251880.000000 1 0 0
-7.651667 4.608722 4.390487 9.953126 -0.542121 1.113954 0.007974 -0.002262 2622150.000000 1 0 0
-1.130867 10.577922 6.865387 12.661155 -1.464293 0.997695 -0.000559 0.004541 2473750.000000 1 0 0
7.386633 -9.931878 1.880887 12.519676 -0.931320 1.419991 0.008839 -0.007309 3792210.000000 1 0 0
-4.351267 -1.806278 1.664587 4.996701 0.393469 1.231167 -0.000080 -0.003575 1048920.000000 1 0 0
6.895733 -14.909578 -0.957713 16.454904 -1.137593 1.629031 0.028225 -0.008680 -236608.000000 1 0 0
-10.452967 1.537222 2.389887 10.832319 -0.146014 1.348340 0.001375 -0.002608 -243390.000000 1 0 0
-3.011867 8.255622 -11.423013 14.412212 -1.220975 2.485846 0.005230 0.000640 -267403.000000 1 0 0
-1.243867 -5.090378 -6.840613 8.617026 1.331136 2.487908 0.000094 -0.004977 512263.000000 1 0 0
12.973233 -0.365178 6.389687 14.466037 -0.028141 1.113301 0.020340 -0.007739 3172780.000000 1 0 0
5.947833 -13.226278 3.756487 14.980732 -1.148193 1.317337 0.003600 -0.002609 -138901.000000 1 0 0
-5.597767 3.464622 -4.980713 8.255065 -0.554222 2.218494 0.006271 -0.003789 1858070.000000 1 0 0
-4.481567 8.020422 3.252587 9.746329 -1.061245 1.230545 0.006422 -0.000418 854217.000000 1 0 0
13.929633 6.302722 -3.999613 15.803667 0.424905 1.826660 0.012848 0.001333 -581549.000000 1 0 0
-6.663367 -8.589478 5.430987 12.152169 0.911012 1.107482 0.009310 -0.004203 182732.000000 1 0 0
1.668633 11.496622 2.694187 11.925406 1.426662 1.342909 0.002103 -0.004061 859381.000000 1 0 0
-7.518067 7.227822 5.992787 12.028144 -0.765718 1.049240 0.006407 -0.000778 297159.000000 1 0 0
-17.313667 -3.961778 5.512587 18.596972 0.224951 1.269850 0.040573 -0.020410 -512017.000000 1 0 0
7.569633 -12.959478 -8.478713 17.237633 -1.042150 2.085035 0.016296 -0.008326 -323756.000000 1 0 0
-2.384367 12.827022 -2.787513 13.341212 -1.387008 1.781287 0.003509 -0.001245 646402.000000 1 0 0
-5.683767 13.776022 -5.714613 15.960601 -1.179489 1.936970 0.007386 0.000363 2648750.000000 1 0 0
-5.591567 2.391422 7.387487 9.568672 -0.404142 0.688737 0.007285 -0.000648 2371330.000000 1 0 0
-7.449267 5.051722 1.412687 9.110827 -0.595911 1.415112 0.006653 -0.000399 2459290.000000 1 0 0
10.770133 -5.639878 -4.996813 13.144281 -0.482395 1.960756 0.013470 -0.006326 2871870.000000 1 0 0
-9.572167 -0.754078 6.744287 11.733730 0.078616 0.958464 0.001758 -0.002721 513484.000000 1 0 0
-11.321567 -4.623778 -2.559913 12.494413 0.387730 1.777142 0.004736 -0.001669 262513.000000 1 0 0
6.579333 -4.242278 13.527287 15.629205 -0.572703 0.524622 0.019671 -0.009960 -981810.000000 1 0 0
0.197333 10.248722 -11.685913 15.544639 1.551544 2.421531 0.001660 0.003378 -922835.000000 1 0 0
-11.838967 -3.248478 1.432287 12.359822 0.267798 1.454653 0.004178 -0.003238 4325580.000000 1 0 0
5.186833 5.970822 5.414787 9.585086 0.855548 0.970462 -0.002921 0.000050 -5752190.000000 1 0 0
-7.134867 -0.050678 8.008487 10.725892 0.007103 0.727785 0.003555 -0.001261 1456110.000000 1 0 0
1.713833 2.097222 9.638187 10.011504 0.885660 0.273945 -0.002078 -0.003243 4318430.000000 1 0 0
10.537133 -4.873678 -1.961213 11.774135 -0.433220 1.738146 0.009915 -0.004246 1789040.000000 1 0 0
-9.614867 -2.467678 -1.687313 10.068869 0.251230 1.739168 0.005180 -0.003079 -152225.000000 1 0 0
-1.981767 -5.199178 -9.857713 11.319600 1.206628 2.627732 0.009504 -0.004512 219067.000000 1 0 0
7.707633 -1.611878 6.522987 10.225220 -0.206156 0.878987 0.010934 -0.004955 2636310.000000 1 0 0
1.620933 -11.883678 -2.487013 12.248855 -1.435233 1.775258 0.005330 -0.002241 -3009030.000000 1 0 0
-0.685967 -1.571478 4.799987 5.097055 1.159216 0.343096 0.000293 -0.001445 3657130.000000 1 0 0
7.664133 1.546622 9.869087 12.590864 0.199126 0.669988 0.006564 -0.002431 2861970.000000 1 0 0
-3.926667 10.640522 -7.998113 13.878373 -1.217270 2.184991 0.010038 0.003166 3020400.000000 1 0 0
-9.668267 12.586422 6.337087 17.089531 -0.915780 1.190908 0.014027 -0.009855 1864920.000000 1 0 0
-2.637167 -2.470978 -10.971913 11.551764 0.752875 2.823405 0.011738 -0.008570 -2583160.000000 1 0 0
1.272333 -11.839678 11.159087 16.319376 -1.463744 0.817847 -0.006390 -0.001181 2758910.000000 1 0 0
1.388433 3.465522 -1.967413 4.219988 1.189737 2.055801 0.000007 -0.004056 2083320.000000 1 0 0
-1.867767 -9.372478 -11.992413 15.334597 1.374091 2.468744 0.000917 -0.000602 703686.000000 1 0 0
1.295333 -2.716778 1.535287 3.378739 -1.125888 1.099102 0.004443 -0.003553 3449100.000000 1 0 0
-1.041267 -2.189978 -6.600513 7.031857 1.126965 2.789516 0.005368 -0.010436 380314.000000 1 0 0
1.817133 5.919022 4.057387 7.402647 1.272931 0.990706 -0.008137 0.002515 -2555070.000000 1 0 0
-11.052867 8.607722 3.614587 14.468033 -0.661666 1.318289 0.002322 -0.002705 76339.200000 1 0 0
-16.346367 -1.573578 3.933987 16.886566 0.095969 1.335670 0.024706 -0.015389 713321.000000 1 0 0
-12.269867 0.194022 6.787687 14.023551 -0.015812 1.065553 -0.001377 0.002124 -1185130.000000 1 0 0
-5.103667 2.944522 4.594487 7.471743 -0.523293 0.908518 0.006983 -0.001426 954619.000000 1 0 0
5.287333 -5.961578 3.938787 8.888776 -0.845265 1.111721 -0.000759 -0.003942 2555270.000000 1 0 0
9.891233 3.460922 6.195287 12.173580 0.336584 1.036875 0.007267 -0.001800 594894.000000 1 0 0
-12.214867 5.747722 3.091087 13.848975 -0.439812 1.345701 0.005213 -0.002598 1576080.000000 1 0 0
-4.984567 12.271522 -1.328513 13.311691 -1.184965 1.670763 0.003913 -0.001956 2052990.000000 1 0 0
-1.606667 -12.312678 10.369087 16.177187 1.441041 0.875035 0.010243 -0.003198 1069810.000000 1 0 0
5.163233 6.417022 13.907387 16.163309 0.893248 0.534684 0.010286 -0.003922 -260802.000000 1 0 0
13.001133 -3.746078 -5.924413 14.770282 -0.280536 1.983518 0.009830 -0.002999 357641.000000 1 0 0
3.570633 -2.533978 6.450187 7.795857 -0.617188 0.596358 0.000731 0.000506 751348.000000 1 0 0
7.360433 -11.762478 -0.694413 13.892950 -1.011654 1.620800 0.013144 -0.005977 -512087.000000 1 0 0
-6.109967 -6.639478 -4.097613 9.909833 0.826906 1.997080 0.012932 -0.003383 375625.000000 1 0 0
0.372633 -8.997978 5.182287 10.390311 -1.529407 1.048627 0.004206 -0.001850 2474940.000000 1 0 0
-10.239767 2.332722 -0.368913 10.508593 -0.223987 1.605909 0.004268 -0.002005 -839842.000000 1 0 0
-2.038667 8.989122 -0.337213 9.223567 -1.347776 1.607364 0.004405 -0.001717 611253.000000 1 0 0
-3.480367 2.301722 -6.680113 7.876216 -0.584309 2.583256 0.010989 -0.011336 332127.000000 1 0 0
-12.789267 2.905922 6.331087 14.563393 -0.223422 1.121062 0.003330 -0.006095 335360.000000 1 0 0
11.432433 1.701122 7.884187 13.991238 0.147714 0.972169 0.015281 -0.006310 -1893430.000000 1 0 0
5.960633 2.647522 -3.209713 7.269166 0.417993 2.028124 0.000509 -0.002975 2185180.000000 1 0 0
10.636833 -2.266178 6.414987 12.626553 -0.209912 1.037871 0.015673 -0.006035 4380960.000000 1 0 0
-1.001867 11.022722 3.996687 11.767653 -1.480154 1.224269 0.005601 -0.001573 1058290.000000 1 0 0
-1.544867 -12.306278 7.449387 14.468050 1.445915 1.029922 0.005833 -0.000369 -635288.000000 1 0 0
8.074133 8.609322 -7.829613 14.163858 0.817466 2.156503 0.005383 -0.000834 1966820.000000 1 0 0
-4.684867 -5.985878 -8.703713 11.555662 0.906723 2.423708 0.012076 -0.004301 1279300.000000 1 0 0
-8.559767 -5.363478 -11.628013 15.402830 0.559743 2.426339 0.015994 -0.004118 1454050.000000 1 0 0
6.065633 -0.727578 -9.885713 11.621041 -0.119381 2.588062 0.001464 -0.000665 -323616.000000 1 0 0
-11.294767 -5.543878 -5.409413 13.695550 0.456290 1.976838 0.007361 -0.006403 116078.000000 1 0 0
3.851233 8.868022 -2.734813 10.047537 1.161089 1.846462 0.007454 -0.005027 1424250.000000 1 0 0
11.782433 -10.319478 -3.975613 16.159296 -0.719303 1.819375 0.020463 -0.010687 -139499.000000 1 0 0
3.940933 -11.226078 3.870887 12.511577 -1.233185 1.256251 -0.001563 -0.000009 128330.000000 1 0 0
-1.009167 0.820022 3.195987 3.450390 -0.682361 0.386409 -0.000224 -0.002096 333487.000000 1 0 0
-10.566967 -5.134678 4.439787 12.559356 0.452319 1.209482 0.002829 -0.004566 2139180.000000 1 0 0
4.612933 -8.558578 2.760987 10.107000 -1.076450 1.294104 -0.000750 -0.003419 3493220.000000 1 0 0
-3.655767 -5.750678 2.616587 7.299415 1.004532 1.204173 0.001661 -0.002342 2512580.000000 1 0 0
9.924133 5.215222 12.236487 16.595740 0.483846 0.741691 0.023052 -0.003860 1382480.000000 1 0 0
1.757833 -12.255778 -5.186513 13.423635 -1.428339 1.967491 0.003605 -0.004628 1464080.000000 1 0 0
9.996433 -10.680378 -1.655513 14.722088 -0.818464 1.683486 0.015511 -0.009127 491737.000000 1 0 0
9.707433 -4.412378 -9.195013 14.080184 -0.426620 2.282396 0.010029 -0.008097 1532600.000000 1 0 0
-7.492867 -3.072178 -13.112013 15.411236 0.389109 2.588319 0.011575 -0.001039 2308030.000000 1 0 0
0.371733 6.238922 -2.481313 6.724526 1.511284 1.948723 0.003873 -0.003556 1959060.000000 1 0 0
-5.915767 -9.550178 1.078287 11.285606 1.016205 1.475105 0.009005 -0.003101 -1196950.000000 1 0 0
-8.959267 -4.188078 0.569787 9.906216 0.437276 1.513246 0.004371 -0.004270 3273080.000000 1 0 0
1.888733 3.842822 12.059687 12.797291 1.113975 0.341174 -0.000101 -0.007546 830602.000000 1 0 0
6.640133 4.303422 9.521787 12.380438 0.575033 0.693365 -0.002701 0.000251 3204870.000000 1 0 0
-8.403467 9.808622 -3.619813 13.413813 -0.862401 1.844041 0.003325 -0.002474 2913600.000000 1 0 0
16.406633 2.188522 -6.064513 17.627976 0.132610 1.921999 0.041914 0.001763 664168.000000 1 0 0
-11.001367 2.566722 -5.140413 12.411365 -0.229209 1.997827 0.001764 0.000372 1331510.000000 1 0 0
-13.772767 3.886122 1.455587 14.384359 -0.275010 1.469430 0.004922 -0.000117 -140426.000000 1 0 0
-17.621467 10.410822 3.410087 20.749217 -0.533630 1.405700 0.052179 -0.022241 -106083.000000 1 0 0
-14.351867 2.747622 -1.180813 14.660144 -0.189158 1.651429 0.005656 -0.003794 1095860.000000 1 0 0
-14.505967 5.051822 4.997787 16.153076 -0.335122 1.256233 0.009104 -0.007416 504883.000000 1 0 0
-17.649367 7.561022 3.055087 19.442293 -0.404749 1.413006 0.035565 -0.009839 -1135490.000000 1 0 0
-15.092667 12.361222 -3.366913 19.797083 -0.686232 1.741698 0.047184 -0.019485 -48328.100000 1 0 0
-8.636467 12.502622 -9.551113 17.947921 -0.966290 2.131943 0.013994 -0.009772 -780863.000000 1 0 0
-12.472367 8.795022 -9.935013 18.210350 -0.614181 2.147865 0.005610 -0.003638 -703519.000000 1 0 0
-13.918467 -3.595978 -12.205613 18.858202 0.252831 2.274743 0.031806 -0.008401 -1439360.000000 1 0 0
-14.857367 5.680922 -7.695613 17.670220 -0.365211 2.021405 0.016879 0.001811 -240116.000000 1 0 0
-10.953267 13.522122 -8.136713 19.210100 -0.889972 2.008173 0.022741 -0.017091 1538290.000000 1 0 0
-11.021367 13.538922 3.850887 17.877424 -0.887546 1.353690 0.012043 -0.006477 -1143190.000000 1 0 0
-15.241667 3.156422 2.982087 15.848163 -0.204205 1.381502 0.003995 -0.003174 1909230.000000 1 0 0
-11.226067 9.434122 -12.520513 19.281869 -0.698880 2.277514 0.021892 -0.008060 -1025630.000000 1 0 0
-13.043367 11.516622 -8.809413 19.503019 -0.723314 2.039460 0.024655 -0.027146 52982.600000 1 0 0
-8.984867 14.505022 -3.450813 17.407803 -1.016211 1.770352 0.012153 -0.007067 -572735.000000 1 0 0
-16.854267 8.171522 -4.170813 19.189470 -0.451441 1.789894 0.042307 -0.006899 -285321.000000 1 0 0
-17.006567 6.566322 0.359587 18.233738 -0.368471 1.551074 0.029632 -0.002121 -308793.000000 1 0 0
-10.509167 2.803022 -12.497113 16.567358 -0.260654 2.425416 0.008110 -0.006465 889839.000000 1 0 0
-17.000067 0.846722 2.265987 17.171311 -0.049766 1.438447 0.034150 -0.012965 -552147.000000 1 0 0
-12.665867 1.117922 -6.988213 14.508930 -0.088034 2.073332 0.003281 -0.000603 729557.000000 1 0 0
-12.415167 8.990222 -5.465013 16.273501 -0.626739 1.913275 0.013190 -0.001788 -1316120.000000 1 0 0
-9.761167 13.919722 1.160487 17.040709 -0.959234 1.502643 0.017930 -0.006168 -747404.000000 1 0 0
-12.305567 11.093722 2.786387 16.800643 -0.733655 1.404176 0.006973 -0.003590 1046400.000000 1 0 0
-12.662567 6.843722 -3.686813 14.858322 -0.495496 1.821547 0.003254 0.001329 519508.000000 1 0 0
-15.873667 3.520422 -9.415113 18.788588 -0.218245 2.095675 0.028411 -0.001538 -908395.000000 1 0 0
-15.189967 5.873222 -4.799413 16.978345 -0.368946 1.857382 0.021097 0.000009 1540320.000000 1 0 0
-18.072167 5.254422 7.466887 20.247632 -0.282946 1.193102 0.046469 -0.021559 -205339.000000 1 0 0
-15.933467 9.962522 -1.993413 18.897114 -0.558785 1.676481 0.033175 -0.008239 -909684.000000 1 0 0
-8.827067 9.872022 -8.359513 15.660632 -0.841223 2.133874 0.003420 -0.005467 -986583.000000 1 0 0
-17.050767 4.081322 -1.206113 17.573860 -0.234943 1.639481 0.020938 -0.002235 1337890.000000 1 0 0
-10.331867 5.312122 -4.596013 12.493576 -0.474903 1.947514 0.001567 -0.000227 -380717.000000 1 0 0
-18.209767 2.732022 5.982687 19.361098 -0.148920 1.256649 0.058465 -0.023998 -256712.000000 1 0 0
-10.454267 10.031422 -5.749513 15.587752 -0.764760 1.948566 0.006629 -0.006496 788600.000000 1 0 0
-15.298267 0.461922 -5.869013 16.391939 -0.030185 1.936967 0.005429 -0.000456 -17808.200000 1 0 0
-16.429867 -4.183478 -8.902113 19.149142 0.249328 2.054299 0.050577 -0.023644 -638211.000000 1 0 0
-10.067267 9.562422 -1.080413 13.926847 -0.759685 1.648452 0.003061 -0.001064 1941940.000000 1 0 0
-17.441667 -3.122578 -3.295613 18.022855 0.177153 1.754688 0.037115 -0.007898 239463.000000 1 0 0
-12.031767 5.008622 -11.495613 17.378113 -0.394464 2.293613 0.005606 -0.001539 417057.000000 1 0 0
-16.522567 6.982522 5.718387 18.826864 -0.399840 1.262185 0.033195 -0.013517 -49701.600000 1 0 0
-12.176767 6.026022 -8.777313 16.174913 -0.459542 2.144385 0.004995 0.001660 1767440.000000 1 0 0
-14.670667 8.179022 0.060687 16.796683 -0.508590 1.567183 0.027026 -0.002113 612521.000000 1 0 0
-15.074767 11.857422 3.947587 19.581382 -0.666501 1.367806 0.018850 -0.012250 2251450.000000 1 0 0
-17.267167 4.031222 -4.070413 18.192693 -0.229354 1.796445 0.025386 -0.003002 360608.000000 1 0 0
-13.918367 13.430322 -0.861313 19.360691 -0.767555 1.615299 0.033060 -0.008759 -673252.000000 1 0 0
-10.159067 6.801422 -13.067213 17.894637 -0.589957 2.389456 0.002274 -0.006668 1022240.000000 1 0 0
-15.878467 -1.186978 -8.379113 17.992892 0.074615 2.055211 0.023443 -0.010624 -865108.000000 1 0 0
-11.580467 11.861522 -0.057213 16.577280 -0.797387 1.574248 0.018728 -0.006549 1387740.000000 1 0 0
-12.035767 7.323922 -0.905413 14.118049 -0.546656 1.634972 0.004150 0.003563 2887870.000000 1 0 0
-11.485867 0.136722 -11.659613 16.367358 -0.011903 2.363666 0.008172 -0.010673 1990880.000000 1 0 0
-19.030667 -1.263278 -4.819713 19.672107 0.066284 1.818318 0.035377 -0.011642 -90713.400000 1 0 0
-17.898867 1.413722 -5.067513 18.656038 -0.078820 1.845881 0.015961 -0.003699 -561913.000000 1 0 0
-13.406767 -0.177078 -9.604613 16.493070 0.013207 2.192403 0.010566 -0.002895 -1705030.000000 1 0 0
-6.195467 11.247322 -13.242413 18.445800 -1.067309 2.371591 -0.002204 -0.000277 -497699.000000 1 0 0
16.376633 5.892522 7.069287 18.785386 0.345390 1.184977 0.075181 -0.023232 263570.000000 1 0 0
14.722133 10.284022 -5.424013 18.759590 0.609746 1.864117 0.055356 -0.014869 959331.000000 1 0 0
2.369633 16.870222 4.230587 17.553274 1.431247 1.327386 0.014040 -0.011064 3426250.000000 1 0 0
-4.172067 18.157622 -5.864913 19.532091 -1.344947 1.875773 0.016642 -0.005123 36880.400000 1 0 0
5.383733 14.600422 5.707587 16.575085 1.217527 1.219253 0.003838 -0.003322 607993.000000 1 0 0
9.825333 6.070422 15.004287 18.934514 0.553429 0.656013 0.044453 -0.012334 -743722.000000 1 0 0
4.590233 12.761822 -1.262113 13.620839 1.225520 1.663590 0.005510 -0.008954 2421680.000000 1 0 0
3.498033 13.718422 12.945087 19.183499 1.321129 0.830098 0.018552 -0.003237 -1776060.000000 1 0 0
-0.860467 12.349022 9.095587 15.361265 -1.501230 0.937119 -0.000285 0.007096 -196574.000000 1 0 0
-7.790267 13.816922 8.304687 17.904285 -1.057404 1.088474 0.025726 -0.022002 1644490.000000 1 0 0
11.314833 12.905222 -4.232613 17.677251 0.850968 1.812584 0.076544 -0.017895 1516960.000000 1 0 0
-5.867867 16.108122 0.873787 17.165866 -1.221457 1.519872 0.006328 -0.002612 1259810.000000 1 0 0
3.157933 10.649522 6.723087 12.984020 1.282523 1.026522 -0.000702 0.005263 1435310.000000 1 0 0
-1.290667 15.568422 2.427187 15.809264 -1.488083 1.416657 0.012455 -0.007632 -2707870.000000 1 0 0
9.933333 8.942322 9.481287 16.386917 0.732944 0.953799 0.015057 -0.008864 2868340.000000 1 0 0
7.109633 12.299222 6.166387 15.486836 1.046669 1.161276 0.003667 -0.002629 78741.100000 1 0 0
11.737633 13.932922 -1.579713 18.286438 0.870708 1.657291 0.070439 -0.018610 892858.000000 1 0 0
9.531833 15.816222 -1.324213 18.513840 1.028422 1.642383 0.057218 -0.021560 322976.000000 1 0 0
10.045333 13.728822 2.950487 17.265417 0.939113 1.399063 0.029959 -0.010085 2301910.000000 1 0 0
-6.093367 14.470022 6.121087 16.851658 -1.172231 1.199060 0.005431 -0.012701 621906.000000 1 0 0
-1.209067 18.156822 -6.359813 19.276391 -1.504304 1.907023 0.029150 0.000372 355583.000000 1 0 0
-3.625067 15.689322 5.423787 16.991569 -1.343728 1.245906 0.005336 -0.008621 879723.000000 1 0 0
6.919433 12.274022 10.499587 17.571895 1.057461 0.930390 0.008615 -0.003020 2874160.000000 1 0 0
1.391833 14.634522 6.190487 15.950817 1.475975 1.172229 0.003678 0.000786 1721060.000000 1 0 0
17.468333 7.642722 -1.563013 19.131044 0.412426 1.652588 0.023125 0.001153 1241250.000000 1 0 0
1.898033 16.243422 -3.474313 16.718915 1.454475 1.780129 0.013633 -0.014512 722774.000000 1 0 0
6.650833 11.164822 0.532087 13.006535 1.033548 1.529876 0.010494 -0.006085 1822900.000000 1 0 0
12.661533 9.326922 3.225387 16.053318 0.634892 1.368502 0.027917 -0.007496 -111565.000000 1 0 0
5.917933 14.343322 -3.541413 15.915226 1.179483 1.795192 0.014093 -0.011079 459153.000000 1 0 0
3.004533 16.518422 1.428287 16.850089 1.390873 1.485930 0.013498 -0.018171 -1219590.000000 1 0 0
2.786733 18.782722 -2.580813 19.162910 1.423504 1.705884 0.028843 -0.030558 1169400.000000 1 0 0
3.896133 11.954422 10.610087 16.451809 1.255737 0.869879 0.010985 0.003621 1455430.000000 1 0 0
7.896233 11.580822 3.333687 14.407616 0.972365 1.337297 0.004307 -0.001598 1467800.000000 1 0 0
0.732133 12.534822 0.179687 12.557471 1.512455 1.556487 0.007305 -0.007410 -593317.000000 1 0 0
11.939133 9.954422 -4.633713 16.220503 0.694993 1.860502 0.044662 -0.008634 -607090.000000 1 0 0
-1.293267 16.407722 9.928087 19.221155 -1.492138 1.028016 -0.001534 -0.002357 -1492570.000000 1 0 0
7.971233 14.887022 -7.995813 18.684138 1.079194 2.013016 0.059902 -0.009474 -121289.000000 1 0 0
14.461033 7.715022 -1.381313 16.448436 0.490090 1.654874 0.024146 -0.001424 1627330.000000 1 0 0
12.507833 8.373922 5.955587 16.187572 0.589958 1.194035 0.021145 -0.011474 -381002.000000 1 0 0
-3.121367 14.232222 10.110987 17.735026 -1.354898 0.964152 0.003604 -0.005444 1767660.000000 1 0 0
-4.874667 17.097622 -3.044713 18.037775 -1.293057 1.740405 0.020595 -0.005433 597722.000000 1 0 0
-7.348767 16.292422 -1.720113 17.955673 -1.147066 1.666741 0.019886 -0.003840 -357440.000000 1 0 0
8.295533 11.306122 -1.853713 14.144982 0.937796 1.702225 0.017714 -0.007641 -368334.000000 1 0 0
8.405333 12.967322 -4.237213 16.023577 0.995692 1.838416 0.047333 -0.009739 2343780.000000 1 0 0
2.429633 14.804422 -7.337013 16.700472 1.408131 2.025649 0.004318 -0.007301 1927270.000000 1 0 0
11.328733 11.436922 9.642887 18.765091 0.790150 1.031102 0.032906 -0.012298 881217.000000 1 0 0
8.535033 15.796222 1.390087 18.008325 1.075414 1.493528 0.017554 -0.013549 642778.000000 1 0 0
5.963333 9.945922 7.666787 13.901882 1.030689 0.986644 0.003334 0.004742 3139560.000000 1 0 0
14.458933 11.385122 2.563387 18.580977 0.667017 1.432397 0.050447 -0.006285 1547280.000000 1 0 0
12.075033 12.624122 1.109187 17.504433 0.807626 1.507388 0.054138 -0.008654 3353710.000000 1 0 0
5.001733 16.175122 8.165387 18.796953 1.270899 1.121425 0.013740 0.003959 642155.000000 1 0 0
11.515833 15.008622 5.130487 19.600894 0.916327 1.305964 0.046202 -0.011947 1175240.000000 1 0 0
5.871133 16.865222 1.574687 17.927229 1.235797 1.482845 0.007062 -0.021902 702522.000000 1 0 0
-0.816967 16.184722 -4.272913 16.759190 -1.520361 1.828602 0.014596 -0.006066 1312810.000000 1 0 0
16.046133 6.418622 2.555387 17.470177 0.380515 1.423998 0.018436 -0.010199 -2251130.000000 1 0 0
7.611833 16.680522 -3.222413 18.616223 1.142690 1.744770 0.040138 -0.027918 -634816.000000 1 0 0
14.870333 8.174722 7.457187 18.535440 0.502639 1.156746 0.060063 -0.022836 -115833.000000 1 0 0
1.971233 12.911022 8.549887 15.610279 1.419288 0.991173 0.004887 0.006069 1882870.000000 1 0 0
15.853033 7.594922 -5.836713 18.522114 0.446775 1.891381 0.021476 0.000656 -313159.000000 1 0 0
-3.099967 16.969922 0.610487 17.261539 -1.390114 1.535422 0.013666 -0.006341 388171.000000 1 0 0
-3.061267 18.476922 4.554787 19.274701 -1.406607 1.332231 0.016126 -0.008848 1707210.000000 1 0 0
-0.960567 19.054722 0.807987 19.096020 -1.520428 1.528472 0.023052 -0.013339 694153.000000 1 0 0
6.783333 16.888722 -6.069213 19.185356 1.188869 1.892672 0.039041 -0.019373 427101.000000 1 0 0
10.952233 10.063722 0.807087 14.895680 0.743145 1.516587 0.025640 -0.005204 -1649470.000000 1 0 0
9.037333 8.778022 14.287687 19.049017 0.770844 0.722661 0.042302 -0.015582 2042280.000000 1 0 0
6.297633 12.402822 -8.370013 16.234139 1.100962 2.112482 0.026459 -0.007675 175020.000000 1 0 0
6.245733 9.024622 13.228887 17.188846 0.965408 0.692550 0.018669 -0.010890 454951.000000 1 0 0
16.718933 9.471122 2.836287 19.423424 0.515416 1.424248 0.042567 -0.005928 -339712.000000 1 0 0
2.475633 14.774422 -0.925713 15.008972 1.404777 1.632513 0.008611 -0.012283 1381080.000000 1 0 0
9.054033 12.859322 8.269187 17.768431 0.957335 1.086725 0.014859 -0.007818 1897330.000000 1 0 0
7.171333 9.307022 10.438587 15.716640 0.914285 0.844408 0.009461 -0.002618 937789.000000 1 0 0
4.178233 15.826522 -5.327313 17.213852 1.312683 1.885441 0.023322 -0.015811 3167810.000000 1 0 0
-0.020567 16.254522 -8.270313 18.237543 -1.569531 2.041459 0.012273 0.000117 1024100.000000 1 0 0
-2.582267 15.700622 -2.023713 16.039733 -1.407787 1.697302 0.007606 -0.003166 1085380.000000 1 0 0
13.282233 10.521722 7.659787 18.595609 0.669945 1.146243 0.043741 -0.020965 2821460.000000 1 0 0
-1.140567 15.939422 6.972587 17.435109 -1.499362 1.159371 0.004759 -0.003683 2225760.000000 1 0 0
13.325433 13.286322 6.652787 19.958785 0.783928 1.230967 0.055809 -0.014234 -633869.000000 1 0 0
5.344933 17.367122 4.395387 18.695044 1.272234 1.333465 0.012763 -0.014883 1099850.000000 1 0 0
10.719233 9.586822 -1.855913 14.500121 0.729689 1.699141 0.024457 -0.005252 1731730.000000 1 0 0
3.135033 12.811322 4.728387 14.011283 1.330805 1.226568 -0.000816 0.003575 981256.000000 1 0 0
-0.283467 17.986822 3.496087 18.325631 -1.555038 1.378844 0.014546 -0.013770 2724880.000000 1 0 0
-7.786767 15.820822 -5.738813 18.543628 -1.113420 1.885439 0.034329 -0.012213 -853288.000000 1 0 0
-12.367667 -9.132478 8.246787 17.446227 0.636046 1.078447 0.031964 -0.014529 330160.000000 1 0 0
-13.169367 -11.724978 6.886887 18.929780 0.727442 1.198439 0.043507 -0.010173 -869807.000000 1 0 0
-6.389367 -12.356878 12.227287 18.520880 1.093586 0.849726 0.024403 -0.007061 -554432.000000 1 0 0
-1.718767 -10.668978 14.463987 18.055143 1.411069 0.641664 0.004133 -0.005255 825850.000000 1 0 0
-8.857067 2.923922 11.031387 14.446054 -0.318859 0.701885 0.010944 0.000961 1413100.000000 1 0 0
0.448333 10.028222 15.192487 18.209281 1.526119 0.583886 0.003020 0.000782 866623.000000 1 0 0
1.132733 -6.661078 16.590387 17.913514 -1.402355 0.386755 0.010064 -0.017761 1431890.000000 1 0 0
6.159733 2.292822 17.758887 18.936141 0.356338 0.354471 0.043752 -0.018883 1158610.000000 1 0 0
-5.002867 -3.057878 17.586187 18.537888 0.548632 0.321818 0.026022 -0.014708 724804.000000 1 0 0
-4.266567 8.165722 13.028987 15.957353 -1.089313 0.615495 0.001812 0.004968 -1944020.000000 1 0 0
0.205733 -4.801878 18.587487 19.198829 -1.527978 0.253034 0.025720 -0.022653 -497972.000000 1 0 0
-11.688567 2.154122 11.147887 16.295344 -0.182248 0.817407 0.014354 -0.004258 724053.000000 1 0 0
-3.397067 -6.167378 14.327287 15.963953 1.067330 0.456780 0.014322 -0.007538 787233.000000 1 0 0
-7.418767 -2.340478 14.569187 16.515967 0.305598 0.490436 0.018512 -0.002297 647488.000000 1 0 0
-6.022267 -1.100078 10.537387 12.186649 0.180676 0.526310 0.006751 0.000171 1634130.000000 1 0 0
-3.918267 2.452722 11.146987 12.067477 -0.559297 0.393112 0.003078 0.000759 297190.000000 1 0 0
-6.406167 6.276022 13.602587 16.292876 -0.775136 0.582883 0.003053 0.001361 629063.000000 1 0 0
-8.970367 5.550322 12.540887 16.387416 -0.554085 0.699327 0.005365 -0.002483 -1144740.000000 1 0 0
-12.245267 -2.224678 15.718087 20.048791 0.179716 0.669726 0.040363 -0.003321 997680.000000 1 0 0
-3.444167 -7.678578 16.982887 18.953662 1.149155 0.460070 0.034483 -0.013583 -783621.000000 1 0 0
-0.539767 -5.337578 14.394687 15.361905 1.470013 0.356747 0.004448 -0.004987 2596920.000000 1 0 0
-14.284467 -2.262478 13.598687 19.851678 0.157082 0.816173 0.042854 -0.007226 -420327.000000 1 0 0
-6.479567 1.462622 12.108487 13.810848 -0.222008 0.501760 0.008389 -0.001001 3451100.000000 1 0 0
2.264633 -2.200578 14.516087 14.855568 -0.771054 0.214195 0.004978 -0.005488 139961.000000 1 0 0
-12.708767 3.965522 9.062587 16.104925 -0.302457 0.973122 0.003199 -0.001374 -962703.000000 1 0 0
-8.999367 -3.085278 12.535487 15.736772 0.330276 0.649191 0.006527 -0.001010 -26870.300000 1 0 0
-7.127467 -7.318378 15.222887 18.332914 0.798613 0.591046 0.025886 -0.011681 -1109910.000000 1 0 0
-3.179667 6.028822 19.488087 20.645642 -1.085461 0.336451 0.027186 -0.010389 -92096.700000 1 0 0
0.619933 5.375622 16.140087 17.023045 1.455981 0.323490 0.004691 -0.009976 1268880.000000 1 0 0
3.493433 1.604922 16.805887 17.240003 0.430653 0.224887 0.022930 -0.012924 809765.000000 1 0 0
-11.824867 11.378222 7.824987 18.180260 -0.766151 1.125848 0.021271 -0.013291 445160.000000 1 0 0
0.701333 -9.394078 15.492987 18.132105 -1.496278 0.546304 -0.003992 -0.003218 106212.000000 1 0 0
-2.384267 -3.628578 18.862287 19.355547 0.989460 0.226244 0.037430 -0.023758 1481300.000000 1 0 0
-12.890467 2.460022 13.785687 19.033156 -0.188573 0.760780 0.012095 -0.007868 -228982.000000 1 0 0
-5.286467 -0.676278 15.717487 16.596491 0.127235 0.326917 0.018705 -0.003238 1712950.000000 1 0 0
-4.417467 -6.069078 11.680087 13.884242 0.941613 0.571209 0.003630 -0.001310 1021290.000000 1 0 0
2.513733 1.810222 13.965787 14.305208 0.624111 0.218273 0.005120 -0.010281 413164.000000 1 0 0
0.151133 3.175122 14.261487 14.611443 1.523233 0.219303 0.005794 -0.009304 -163467.000000 1 0 0
-13.170167 6.996722 12.177887 19.253788 -0.488338 0.886029 0.022682 -0.010064 278557.000000 1 0 0
0.862133 1.461922 18.164287 18.243405 1.037966 0.093166 0.014999 -0.014220 1539880.000000 1 0 0
-2.031967 6.384622 12.399887 14.094307 -1.262673 0.495397 -0.001506 0.000016 996358.000000 1 0 0
-13.463867 -2.707078 10.783587 17.461092 0.198417 0.905137 0.033410 -0.008226 389595.000000 1 0 0
-2.507867 3.613922 13.507987 14.206180 -0.964145 0.314818 0.002505 -0.001788 -772278.000000 1 0 0
3.526933 6.077422 16.322787 17.770979 1.044963 0.406506 0.011843 -0.010338 530112.000000 1 0 0
-3.807467 12.426922 12.242187 17.854869 -1.273489 0.815300 0.010564 -0.003174 -109186.000000 1 0 0
3.780133 -1.377678 17.001187 17.470769 -0.349491 0.232376 0.030834 -0.020567 -929279.000000 1 0 0
-15.777167 0.453422 9.248387 18.293640 -0.028731 1.040775 0.039177 -0.008279 645039.000000 1 0 0
-4.676867 4.619322 15.157387 16.521429 -0.779208 0.409203 0.010826 -0.001872 2162060.000000 1 0 0
-7.907767 -8.187978 10.456087 15.456569 0.802805 0.827821 0.013570 -0.006728 3598410.000000 1 0 0
-2.540967 -0.405778 14.714787 14.938077 0.158357 0.173119 0.014516 -0.003675 3262010.000000 1 0 0
-1.855567 1.114922 17.175387 17.311271 -0.541046 0.125377 0.017165 -0.012513 135527.000000 1 0 0
-0.666667 -2.434878 14.412087 14.631519 1.303547 0.173406 0.009556 -0.004030 472163.000000 1 0 0
5.069733 -8.144478 16.559287 19.137521 -1.014015 0.525090 0.004864 -0.010122 -783544.000000 1 0 0
-4.617367 9.957122 10.672387 15.308959 -1.136587 0.799405 0.004785 0.001412 -1117090.000000 1 0 0
-6.167367 2.012422 15.229787 16.553933 -0.315409 0.402690 0.014884 0.000479 -888628.000000 1 0 0
-5.055867 6.757522 17.313087 19.260553 -0.928459 0.453570 0.020694 -0.000444 -786869.000000 1 0 0
-3.984767 9.012522 15.755887 18.583646 -1.154501 0.558905 0.004061 -0.002731 884736.000000 1 0 0
-4.592967 -9.893078 18.496787 21.473227 1.136147 0.532800 0.053474 -0.015181 655231.000000 1 0 0
-6.716467 -4.116578 11.037287 13.560194 0.549857 0.619881 0.008448 0.000372 1518490.000000 1 0 0
-2.323167 -0.731978 19.483187 19.634854 0.305231 0.124373 0.032365 -0.015870 -142806.000000 1 0 0
-5.686667 -4.616478 15.169987 16.845729 0.681899 0.449823 0.022890 -0.007610 868353.000000 1 0 0
-12.866567 0.025422 9.778787 16.160875 -0.001976 0.920917 0.013823 0.000125 1796620.000000 1 0 0
-14.522967 8.838222 10.485787 19.974546 -0.546696 1.018131 0.018268 -0.010686 -117344.000000 1 0 0
-8.387667 10.388422 12.942287 18.595028 -0.891556 0.800974 0.025541 -0.016446 -1290760.000000 1 0 0
-10.613067 7.135922 10.814887 16.748742 -0.591942 0.868839 0.016470 -0.003300 -885185.000000 1 0 0
-9.811467 -6.649478 14.770387 18.937919 0.595619 0.676231 0.043996 -0.014901 -69141.300000 1 0 0
-0.567867 -13.393478 14.593887 19.816389 1.528423 0.742981 0.008606 -0.009049 1811890.000000 1 0 0
3.973033 -5.528478 16.993787 18.306771 -0.947664 0.381039 0.022045 -0.018408 1884200.000000 1 0 0
-7.401567 9.346322 10.385187 15.811042 -0.901000 0.854188 0.016757 -0.003189 725886.000000 1 0 0
-10.257467 -6.728478 11.771687 17.001784 0.580553 0.806015 0.038662 -0.017080 897859.000000 1 0 0
-10.860567 -3.973578 10.696487 15.752971 0.350744 0.824378 0.016510 -0.004596 335830.000000 1 0 0
-9.967367 -10.277378 9.809487 17.355084 0.800710 0.970093 0.027287 -0.013345 1360670.000000 1 0 0
-9.822567 -3.717078 15.154787 18.438196 0.361768 0.606016 0.038876 -0.017373 1361350.000000 1 0 0
5.746933 -3.201978 16.030787 17.328186 -0.508326 0.389424 0.030550 -0.017287 354650.000000 1 0 0
-11.298867 0.520922 15.135087 18.894619 -0.046071 0.641789 0.024657 -0.010416 -1549010.000000 1 0 0
-3.264967 3.221622 18.694387 19.248870 -0.778716 0.240605 0.026585 -0.013990 -239368.000000 1 0 0
0.390533 7.279822 13.940787 15.731938 1.517202 0.481836 -0.001973 -0.003592 1038310.000000 1 0 0
-13.026567 -7.553478 12.210887 19.386909 0.525473 0.889433 0.052116 -0.019026 -663840.000000 1 0 0
-1.493067 -1.100778 12.137487 12.278419 0.635297 0.151657 0.005362 -0.002932 874490.000000 1 0 0
2.074633 -4.867078 13.134687 14.160246 -1.167860 0.382927 0.003111 -0.005753 1767870.000000 1 0 0
-14.506167 -4.398378 8.677287 17.466251 0.294397 1.050885 0.034593 -0.015504 -130160.000000 1 0 0
8.126933 1.011922 15.989087 17.964463 0.123877 0.473364 0.051200 -0.017537 80093.500000 1 0 0
-1.369267 11.421422 13.339387 17.614285 -1.451480 0.711620 0.001208 0.006593 81463.900000 1 0 0
2.958333 -12.161878 -13.746513 18.591117 -1.332184 2.402994 0.006272 0.007140 207762.000000 1 0 0
0.814933 -10.686678 -14.001913 17.633002 -1.494687 2.488279 0.000015 0.005758 -3579570.000000 1 0 0
3.385433 -14.309278 -12.365313 19.212432 -1.338478 2.270002 0.010013 0.008159 -1670260.000000 1 0 0
-5.211967 -10.242778 -16.232113 19.888705 1.100099 2.525508 0.049471 -0.008903 -101709.000000 1 0 0
-1.073867 -11.938878 -15.125413 19.299433 1.481091 2.471434 0.024642 -0.003824 -158536.000000 1 0 0
5.782233 -14.851378 -11.836613 19.852029 -1.199513 2.209608 0.010096 0.006301 -162105.000000 1 0 0
2.009733 -11.947978 -16.059513 20.117185 -1.404149 2.495261 0.016881 0.003449 -634396.000000 1 0 0
1.317133 -14.300478 -13.884113 19.975162 -1.478951 2.339312 0.023554 0.007364 -277869.000000 1 0 0
-1.099767 -10.714078 -15.909513 19.212328 1.468508 2.546486 0.012064 -0.005592 -132068.000000 1 0 0
-5.910367 -5.566578 -14.946313 17.009159 0.755452 2.643973 0.018357 0.000319 5150.890000 1 0 0
-6.501967 -7.551078 -16.585213 19.348479 0.859914 2.600574 0.033776 0.001339 928791.000000 1 0 0
4.938933 -12.442878 -11.286513 17.510101 -1.192941 2.271259 -0.001812 0.004207 35247.000000 1 0 0
-1.530667 -15.408178 -13.252313 20.380841 1.471780 2.278689 0.028326 -0.001869 61145.600000 1 0 0
15.869533 -7.287178 -8.720313 19.518937 -0.430472 2.033939 0.079141 -0.010130 645375.000000 1 0 0
19.185133 -3.522778 -4.187113 19.950218 -0.181597 1.782247 0.104335 -0.019598 -20455.500000 1 0 0
14.916233 -11.700778 -8.714613 20.864963 -0.665176 2.001673 0.055292 -0.020922 220858.000000 1 0 0
17.952533 -3.409378 -6.419813 19.368306 -0.187676 1.908647 0.100866 -0.007217 698084.000000 1 0 0
9.716233 -9.000178 -15.284813 20.224586 -0.747159 2.427601 0.086455 -0.023095 167874.000000 1 0 0
1.301933 1.851722 -15.280013 15.446769 0.957998 2.994521 0.011661 -0.003114 -259204.000000 1 0 0
4.812033 -4.479778 -13.936413 15.409337 -0.749656 2.700799 0.015552 -0.006286 430610.000000 1 0 0
13.235333 -5.445878 -8.624013 16.709435 -0.390351 2.113107 0.029522 -0.005961 -1468230.000000 1 0 0
3.003633 0.826622 -12.136113 12.529579 0.268559 2.890321 0.003934 -0.002150 -3224030.000000 1 0 0
0.656333 6.293222 -12.869013 14.340394 1.466880 2.684628 0.010222 -0.002338 155664.000000 1 0 0
3.152633 -1.265378 -16.748013 17.089067 -0.381688 2.941472 0.020556 -0.008315 -112800.000000 1 0 0
13.102533 4.318522 -11.371213 17.878212 0.318382 2.260149 0.029782 -0.002952 -139278.000000 1 0 0
-3.939567 9.373322 -16.530113 19.406802 -1.172917 2.590149 0.009875 0.005731 -202369.000000 1 0 0
-0.205667 -4.946778 -17.706513 18.385687 1.529244 2.868939 0.008961 -0.009420 627431.000000 1 0 0
-0.428667 -8.752978 -17.545613 19.612417 1.521862 2.678371 0.011943 -0.008986 -2063710.000000 1 0 0
5.590533 -10.091378 -12.153613 16.757096 -1.064894 2.382240 0.009216 -0.001555 847122.000000 1 0 0
1.864033 -9.828178 -18.090013 20.671629 -1.383361 2.636466 0.038274 -0.015458 -451762.000000 1 0 0
10.665433 9.063622 -14.932913 20.466865 0.704385 2.388554 0.069389 -0.018100 -542397.000000 1 0 0
10.864033 -3.718478 -12.833113 17.220426 -0.329776 2.411670 0.013332 -0.011621 496045.000000 1 0 0
4.840533 7.384422 -12.175713 15.040227 0.990560 2.514170 -0.007715 0.003281 -1258660.000000 1 0 0
9.612233 -5.916078 -12.540213 16.871631 -0.551720 2.408745 0.019375 -0.010347 -1515650.000000 1 0 0
-3.352967 0.339922 -15.819413 16.174417 -0.101034 2.931691 0.016489 -0.006616 -1955350.000000 1 0 0
-0.780067 10.730222 -12.880813 16.782774 -1.498226 2.445732 0.004098 0.005211 -808749.000000 1 0 0
6.701433 -5.481178 -12.377813 15.105057 -0.685567 2.531244 0.014272 -0.009096 187249.000000 1 0 0
18.100433 -5.836878 -8.616313 20.879072 -0.311943 1.996187 0.118090 -0.016031 1967300.000000 1 0 0
12.935633 4.903122 -13.814913 19.550525 0.362308 2.355515 0.057148 -0.021049 383546.000000 1 0 0
14.014333 0.856522 -11.636913 18.236033 0.061042 2.262860 0.024125 -0.003696 -438852.000000 1 0 0
14.972033 6.086122 -11.260313 19.697647 0.386097 2.179321 0.060783 -0.009832 -278603.000000 1 0 0
8.198633 1.403922 -11.675913 14.335812 0.169594 2.522590 -0.008132 0.003855 461632.000000 1 0 0
9.905533 1.197722 -8.950813 13.404147 0.120330 2.301998 -0.003595 -0.000979 41603.400000 1 0 0
-0.149567 -5.800878 -12.963813 14.203274 1.545018 2.720723 0.002357 -0.002641 343081.000000 1 0 0
10.667633 -5.637678 -8.961513 15.029654 -0.486175 2.209625 0.014531 -0.010636 -1693910.000000 1 0 0
10.225833 8.444822 -11.276713 17.408243 0.690295 2.275463 0.037488 -0.012888 905795.000000 1 0 0
8.174533 8.214522 -14.558013 18.607447 0.787838 2.469267 0.033438 -0.007708 260546.000000 1 0 0
8.574433 10.543022 -10.666713 17.275849 0.888010 2.236274 0.054691 -0.014994 145147.000000 1 0 0
7.086633 1.591422 -17.951313 19.364984 0.220902 2.757126 0.021601 0.000700 -1432760.000000 1 0 0
12.013933 2.662922 -12.819513 17.769796 0.218126 2.376649 0.028967 -0.004789 -702291.000000 1 0 0
2.778933 -0.776778 -19.154713 19.370825 -0.272567 2.992077 0.046180 -0.026410 138996.000000 1 0 0
10.256433 -2.139478 -15.312113 18.553506 -0.205650 2.541520 0.040463 -0.019425 -741123.000000 1 0 0
8.369333 -0.884178 -13.086213 15.558807 -0.105255 2.570074 0.003143 -0.004056 864318.000000 1 0 0
0.583633 4.403922 -14.632213 15.291723 1.439038 2.846831 0.011210 -0.001546 -997861.000000 1 0 0
3.999533 -7.625078 -15.609013 17.826367 -1.087723 2.637501 0.030218 -0.013563 -1296710.000000 1 0 0
11.462133 -5.710778 -14.359013 19.239925 -0.462231 2.413302 0.061695 -0.012759 -538906.000000 1 0 0
-5.732567 4.319722 -17.016413 18.468368 -0.645763 2.742416 0.015804 -0.002680 -258965.000000 1 0 0
11.408533 7.884422 -9.117113 16.596399 0.604727 2.152374 0.028922 -0.007489 -3080850.000000 1 0 0
9.460233 6.205822 -13.313713 17.471782 0.580575 2.437211 0.009153 0.001336 -371889.000000 1 0 0
11.985733 0.569022 -10.203313 15.750846 0.047439 2.275482 0.002197 0.000849 -1717110.000000 1 0 0
5.518033 -7.308278 -13.691613 16.471790 -0.924078 2.552087 0.026686 -0.006736 -460555.000000 1 0 0
8.744233 -10.211078 -10.704713 17.184836 -0.862629 2.243261 0.017957 -0.003281 127451.000000 1 0 0
9.997433 4.754622 -15.794413 19.287783 0.443925 2.530256 0.048682 -0.014892 52147.800000 1 0 0
9.814733 -0.428278 -10.927513 14.694316 -0.043609 2.409318 -0.002627 -0.003151 -887742.000000 1 0 0
-1.719367 5.402822 -13.901013 15.012823 -1.262695 2.754320 0.011331 -0.004878 1217780.000000 1 0 0
1.343233 -0.743878 -14.943313 15.021991 -0.505754 3.039200 0.010212 -0.004181 -1545090.000000 1 0 0
11.536533 -10.445778 -14.028213 20.952246 -0.735819 2.304376 0.086893 -0.015766 -647160.000000 1 0 0
9.373133 -7.738678 -10.633213 16.149550 -0.690171 2.289516 0.017876 -0.007012 -241998.000000 1 0 0
14.034533 -0.896878 -9.790413 17.135480 -0.063818 2.178950 0.031172 -0.007988 622914.000000 1 0 0
3.950433 11.115722 -12.206513 16.975398 1.229327 2.373261 0.009902 -0.007025 -1063500.000000 1 0 0
-1.221767 2.768322 -16.890113 17.159027 -1.155169 2.964319 0.020905 -0.007683 474710.000000 1 0 0
5.907933 -0.637078 -17.601213 18.577196 -0.107419 2.816006 0.015750 -0.005151 30393.200000 1 0 0
6.213733 -6.265778 -15.917613 18.200023 -0.789569 2.635392 0.033325 -0.017221 -149125.000000 1 0 0
-1.864267 -5.083878 -19.674313 20.405879 1.219321 2.873015 0.011627 -0.017950 -1317040.000000 1 0 0
-0.132667 -4.267678 -15.182313 15.771281 1.539720 2.867443 0.006601 -0.007506 -61146.100000 1 0 0
0.617333 0.765222 -13.005813 13.042922 0.891961 3.066140 0.008305 -0.006743 188511.000000 1 0 0
15.423433 0.536622 -13.665413 20.613436 0.034779 2.295531 0.098037 -0.029004 448544.000000 1 0 0
-0.086067 6.913422 -16.255713 17.664965 -1.558348 2.739447 0.010371 0.001127 -301556.000000 1 0 0
-5.109767 -0.440978 -18.182113 18.891622 0.086088 2.866659 0.020970 -0.008531 -250652.000000 1 0 0
10.488133 -8.381478 -12.862513 18.592857 -0.674216 2.334773 0.029701 -0.015724 1087640.000000 1 0 0
4.007333 8.684522 -17.146013 19.633272 1.138475 2.632761 0.024026 -0.008123 -602001.000000 1 0 0
9.370133 0.453622 -17.204013 19.595490 0.048374 2.642376 0.033391 0.000040 343716.000000 1 0 0
3.358633 4.811822 -18.501913 19.410173 0.961417 2.834469 0.013895 -0.000926 -347209.000000 1 0 0
1.508333 -8.192978 -16.027013 18.062810 -1.388734 2.662240 0.009165 -0.009175 -227073.000000 1 0 0
4.576633 7.682822 -14.830513 17.318066 1.033547 2.598977 -0.000655 0.000549 353651.000000 1 0 0
-5.731967 -0.321778 -15.004913 16.065690 0.056079 2.776169 0.011701 -0.008659 -519791.000000 1 0 0
2.834733 3.350022 -13.807213 14.487839 0.868522 2.833854 0.001777 0.002748 -259217.000000 1 0 0
-2.299967 -10.487278 -18.110113 21.053480 1.354904 2.606450 0.017597 -0.008657 200597.000000 1 0 0
6.353833 -8.862978 -15.592113 19.027284 -0.948821 2.531266 0.042833 -0.006089 179735.000000 1 0 0
-1.746967 5.344722 -17.477413 18.359681 -1.254885 2.830322 0.022823 -0.001914 310970.000000 1 0 0
10.153333 -12.183778 -11.535513 19.611289 -0.876049 2.199637 0.053374 -0.005521 367722.000000 1 0 0
10.857333 3.591322 -9.416513 14.813844 0.319445 2.259655 -0.001525 0.002808 -146460.000000 1 0 0
4.765433 -0.548178 -10.832113 11.846709 -0.114529 2.724712 0.004805 -0.002546 900579.000000 1 0 0
6.226433 9.491322 -11.365813 16.063479 0.990205 2.356830 0.014392 -0.006170 499855.000000 1 0 0
10.874633 -9.528878 -9.354213 17.220872 -0.719537 2.145029 0.028794 -0.008567 -1161020.000000 1 0 0
3.176433 -2.480878 -14.448513 15.000133 -0.663064 2.869556 0.010551 -0.005137 37545.300000 1 0 0
9.249433 -4.507178 -14.769413 18.000061 -0.453430 2.533117 0.036257 -0.012805 45257.700000 1 0 0
-4.023867 -6.535278 -16.508113 18.204921 1.018902 2.706412 0.008355 -0.003650 -1173270.000000 1 0 0
5.862333 -7.734278 -11.234613 14.845960 -0.922215 2.429116 0.010203 -0.005827 358922.000000 1 0 0
5.473933 6.583022 -16.974013 19.010976 0.877128 2.674438 0.003945 0.007352 -1469460.000000 1 0 0
9.139633 1.536922 -19.523113 21.611269 0.166601 2.698375 0.056223 -0.016602 600125.000000 1 0 0
13.124833 5.880122 -9.413513 17.188697 0.421202 2.150358 0.016010 0.001248 613436.000000 1 0 0
-1.649367 -0.784378 -17.215013 17.311624 0.443908 3.035896 0.020087 -0.010690 906046.000000 1 0 0
-0.433267 -0.260078 -19.373913 19.380502 0.540619 3.115515 0.035145 -0.023822 39925.900000 1 0 0
2.917133 6.408722 -16.520413 17.958436 1.143642 2.738685 -0.000525 0.004492 -178494.000000 1 0 0
7.541433 3.705322 -15.581813 17.702980 0.456686 2.647038 0.007600 0.003844 -288564.000000 1 0 0
3.134533 -9.887478 -14.817513 18.087183 -1.263798 2.530858 0.014600 -0.002222 858783.000000 1 0 0
9.079033 -10.537878 -13.345913 19.276646 -0.859628 2.335517 0.048964 -0.001398 -154662.000000 1 0 0
3.837633 0.007422 -14.697713 15.190465 0.001934 2.886190 0.006081 -0.001797 -852388.000000 1 0 0
-1.134867 -2.746578 -18.891413 19.123731 1.178969 2.985562 0.029014 -0.011451 658454.000000 1 0 0
9.198233 10.174622 -13.066313 18.943573 0.835755 2.331939 0.062161 -0.017544 382401.000000 1 0 0
4.663033 2.098922 -10.697413 11.856812 0.422953 2.695678 -0.003267 0.001005 -145729.000000 1 0 0
-0.297767 7.012522 -18.921713 20.181559 -1.528360 2.786385 0.022237 -0.002239 243209.000000 1 0 0
0.778333 -1.760678 -17.610113 17.715018 -1.154561 3.032710 0.026509 -0.014188 -2094870.000000 1 0 0
-4.478367 -2.331878 -13.998313 14.881068 0.480069 2.795423 0.011841 -0.008635 -2530650.000000 1 0 0
10.084733 5.999722 -10.439413 15.706045 0.536684 2.297855 0.001745 0.007004 156128.000000 1 0 0
8.045433 5.407122 -17.464813 19.974625 0.591736 2.634891 0.035911 -0.015827 -445313.000000 1 0 0
11.366333 0.218522 -13.581613 17.711620 0.019223 2.444667 0.020176 -0.001064 348636.000000 1 0 0
6.688533 12.104622 -11.712913 18.123208 1.065990 2.273514 0.042860 -0.016578 -232264.000000 1 0 0
-0.940367 0.567122 -15.060713 15.100695 -0.542685 3.068807 0.014396 -0.006698 -626054.000000 1 0 0
-4.285067 -2.808078 -19.006513 19.684883 0.580104 2.878301 0.014130 -0.004160 268654.000000 1 0 0
5.939533 -12.031678 -13.737513 19.203088 -1.112235 2.367965 0.016684 0.003136 151173.000000 1 0 0
2.126333 -4.853578 -14.066013 15.031009 -1.157886 2.781317 0.007292 -0.004877 701174.000000 1 0 0
11.733733 2.146022 -15.285213 19.388750 0.180894 2.478926 0.060868 -0.017752 410081.000000 1 0 0
9.603533 2.250222 -13.785513 16.950861 0.230160 2.520535 0.008269 -0.003439 691662.000000 1 0 0
-2.368067 -4.113478 -16.433113 17.104842 1.048447 2.860413 0.006368 -0.006393 -701958.000000 1 0 0
-2.932567 10.051922 -14.260413 17.691819 -1.286933 2.508236 0.007683 -0.000967 59312.700000 1 0 0
3.507133 5.733422 -13.645313 15.210742 1.021818 2.683922 -0.003907 0.004663 37475.200000 1 0 0
-5.188667 -2.462978 -16.481013 17.453146 0.443191 2.806258 0.014630 -0.002631 480576.000000 1 0 0
-4.291467 6.173122 -13.574013 15.517021 -0.963309 2.635782 0.007034 -0.003220 -562017.000000 1 0 0
5.920933 -1.269578 -14.072213 15.319805 -0.211224 2.735227 0.007473 -0.003216 -1825660.000000 1 0 0
6.856133 -3.150378 -12.691413 14.764938 -0.430724 2.605213 0.010468 -0.008386 1119930.000000 1 0 0
2.926133 -3.248178 -18.412713 18.924611 -0.837510 2.908474 0.044024 -0.020792 -4868.040000 1 0 0
7.509133 -11.961678 -11.832213 18.424714 -1.010211 2.268151 0.017573 0.001940 -1061980.000000 1 0 0
-6.042167 -5.266778 -17.526013 19.271945 0.716941 2.712649 0.027968 -0.002910 421549.000000 1 0 0
0.455933 8.693222 -11.944213 14.779858 1.518397 2.511786 0.004867 0.001285 -325440.000000 1 0 0
0.359333 8.498722 -14.398013 16.723043 1.528541 2.607967 0.003677 -0.000689 147036.000000 1 0 0
7.710233 -2.442778 -15.086213 17.117496 -0.306818 2.649472 0.019270 -0.013521 72769.800000 1 0 0
14.057733 1.625422 -9.062613 16.804547 0.115114 2.140396 0.013334 -0.000062 777101.000000 1 0 0
2.601133 10.997222 -14.472313 18.361716 1.338538 2.478640 -0.001108 0.004675 -144349.000000 1 0 0
6.198033 0.989322 -15.507813 16.729812 0.158283 2.757014 0.009931 -0.000183 666524.000000 1 0 0
16.449833 -5.571778 -10.532513 20.311955 -0.326585 2.115936 0.114001 -0.015589 522342.000000 1 0 0
4.896333 -4.300478 -11.212513 12.968756 -0.720699 2.615108 0.004778 -0.004685 -1449910.000000 1 0 0
8.901233 -3.490878 -17.103213 19.594337 -0.373746 2.631840 0.042571 -0.016654 299437.000000 1 0 0
13.450833 -9.552178 -8.753313 18.675907 -0.617509 2.058610 0.058172 -0.013463 1143280.000000 1 0 0
2.299033 -7.780178 -13.563513 15.804607 -1.283474 2.602549 -0.001101 0.000911 105469.000000 1 0 0
-6.833867 -2.216078 -18.455913 19.804885 0.313579 2.770377 0.017792 -0.004024 -400065.000000 1 0 0
-1.449967 -6.438878 -15.880613 17.197541 1.349302 2.747703 -0.003413 -0.000387 1086660.000000 1 0 0
1.473533 -7.271078 -18.390213 19.830275 -1.370848 2.758146 0.031288 -0.019556 -201066.000000 1 0 0
5.242733 10.853222 -14.550313 18.894186 1.120794 2.449786 0.040360 -0.017198 -232590.000000 1 0 0
5.391333 -3.557778 -17.372913 18.534895 -0.583308 2.785621 0.037011 -0.019771 937366.000000 1 0 0
3.917833 13.041722 -13.914113 19.468910 1.278966 2.366968 0.021442 -0.016030 148394.000000 1 0 0
8.681933 10.577922 -15.437213 20.629492 0.883525 2.416304 0.073876 -0.024117 155508.000000 1 0 0
2.551433 3.869422 -16.209913 16.859523 0.987853 2.863094 0.008356 0.000396 786786.000000 1 0 0
16.585433 1.586922 -11.555213 20.276041 0.095391 2.177174 0.119538 -0.017309 798896.000000 1 0 0
10.157133 -3.602978 -10.463013 15.020767 -0.340877 2.341402 0.010352 -0.006905 -590622.000000 1 0 0
14.810733 -2.212278 -11.871313 19.109685 -0.148274 2.241095 0.091827 -0.015652 290200.000000 1 0 0
-2.741967 -8.692978 -16.173613 18.565344 1.265251 2.628381 0.007354 0.003224 219443.000000 1 0 0
13.947533 8.307822 -8.979113 18.552036 0.537213 2.076012 0.058333 -0.007824 410344.000000 1 0 0
-8.263867 0.073822 -16.565613 18.512603 -0.008933 2.678844 0.012528 -0.005284 -488902.000000 1 0 0
-3.404467 3.960922 -16.026913 16.856489 -0.860805 2.826559 0.015598 -0.004022 296283.000000 1 0 0
15.081733 4.079322 -9.691113 18.385244 0.264160 2.125997 0.031252 -0.001998 412746.000000 1 0 0
5.421433 0.896622 -12.918013 14.038195 0.163901 2.739399 -0.001301 0.002005 271664.000000 1 0 0
7.904533 -7.694778 -12.827513 16.918520 -0.771953 2.431334 0.029432 -0.007570 -2642240.000000 1 0 0
3.273533 -6.144478 -11.771113 13.675881 -1.081285 2.607480 0.004126 -0.003012 -1215850.000000 1 0 0
-3.113967 3.430822 -18.595113 19.163652 -0.833774 2.897398 0.028324 -0.005268 -111713.000000 1 0 0
0.916733 5.125122 -17.885213 18.627617 1.393798 2.858317 0.021105 -0.006380 -148538.000000 1 0 0
6.320933 7.192622 -10.167613 13.966687 0.849814 2.386182 -0.006038 0.004152 -83681.200000 1 0 0
9.668733 3.602122 -11.680013 15.584684 0.356624 2.418034 0.004017 0.002663 -523845.000000 1 0 0
4.541833 1.515522 -17.292013 17.942652 0.322063 2.871469 0.011473 -0.005710 667727.000000 1 0 0
2.550933 8.028522 -13.195513 15.655222 1.263150 2.573414 -0.005145 0.000332 -1262830.000000 1 0 0
14.448433 -3.400878 -9.802813 17.788151 -0.231172 2.154462 0.056005 -0.009643 417453.000000 1 0 0
-1.353467 9.221622 -16.226613 18.712914 -1.425066 2.620216 0.010139 0.003360 -1738400.000000 1 0 0
-5.255567 2.096122 -15.718513 16.705878 -0.379505 2.796066 0.019008 -0.008591 752124.000000 1 0 0
4.347333 4.273122 -11.846513 13.322865 0.776790 2.666361 -0.001073 0.003507 427085.000000 1 0 0
9.244833 3.073022 -17.474513 20.006724 0.320914 2.633003 0.035632 -0.013486 1115810.000000 1 0 0
-4.451367 14.260922 -13.375613 20.052321 -1.268242 2.301019 0.025852 -0.003578 -283010.000000 1 0 0
15.665633 -4.763478 -8.075213 18.256830 -0.295188 2.028971 0.072276 -0.008850 380170.000000 1 0 0
1.254333 9.151422 -16.740913 19.120147 1.434581 2.637398 0.004122 0.000629 -45228.200000 1 0 0
0.444533 -3.307878 -12.768613 13.197618 -1.437211 2.885921 0.005601 -0.004805 192659.000000 1 0 0
7.467033 3.587022 -12.986813 15.403915 0.447830 2.573791 -0.004439 0.006464 -17860.600000 1 0 0
-2.874867 7.508022 -15.133013 17.136024 -1.205112 2.653249 0.007350 0.001769 -427496.000000 1 0 0
12.161933 -5.175578 -11.051113 17.228648 -0.402341 2.267168 0.032672 -0.010061 -945299.000000 1 0 0
0.583533 -4.409678 -20.147313 20.632498 -1.439231 2.924299 0.038109 -0.015478 -777937.000000 1 0 0
3.449033 -4.629178 -16.149713 17.150462 -0.930462 2.798292 0.031031 -0.018257 235212.000000 1 0 0
-5.646267 4.158522 -14.392013 16.009487 -0.634810 2.688204 0.006850 -0.004036 961357.000000 1 0 0
12.292933 -7.466178 -9.735613 17.367849 -0.545810 2.165851 0.025052 -0.008575 160983.000000 1 0 0
-2.060067 -1.840078 -14.892313 15.146311 0.729052 2.958198 0.011206 -0.004662 331239.000000 1 0 0
7.080233 5.892322 -14.260113 16.976453 0.694082 2.568068 0.006378 0.003312 -545594.000000 1 0 0
4.208033 -5.617178 -18.339113 19.636275 -0.927848 2.776080 0.061961 -0.029240 141150.000000 1 0 0
7.493233 7.430222 -12.273813 16.186513 0.781176 2.431458 0.002731 0.000170 -1769930.000000 1 0 0
12.334733 -2.498478 -11.034213 16.737439 -0.199852 2.290622 0.015511 -0.006298 -1513710.000000 1 0 0
7.384133 -0.808878 -10.678913 13.008416 -0.109108 2.533823 0.000481 -0.004069 -3298440.000000 1 0 0
5.324533 3.947522 -14.346313 15.803489 0.637964 2.708790 -0.008403 0.008474 -862996.000000 1 0 0
14.702133 2.913022 -12.979613 19.826970 0.195603 2.284508 0.069845 -0.019551 1177070.000000 1 0 0
-6.741567 6.525022 -15.915513 18.475069 -0.769077 2.608932 0.014598 0.003144 606981.000000 1 0 0
-11.210667 3.807022 -16.352213 20.188297 -0.327370 2.514922 0.070234 -0.025343 -424073.000000 1 0 0
-4.966767 6.608722 -17.863413 19.683635 -0.926306 2.708152 0.021353 0.009919 206713.000000 1 0 0
-10.050567 1.628122 -15.611313 18.638073 -0.160598 2.563677 0.041618 -0.019648 -218056.000000 1 0 0
-7.541467 5.774922 -18.250513 20.574369 -0.653509 2.661714 0.025578 0.002880 908104.000000 1 0 0
-8.677667 3.828122 -15.711813 18.352588 -0.415467 2.598489 0.009916 -0.001657 -770068.000000 1 0 0
8.851833 13.503122 -11.981513 20.105867 0.990537 2.209209 0.108366 -0.035281 -1385640.000000 1 0 0
14.131833 9.853522 -11.122113 20.506145 0.608883 2.144063 0.091659 -0.014886 238083.000000 1 0 0
8.158533 15.969322 -9.166113 20.139477 1.098476 2.043316 0.080124 -0.022936 -219824.000000 1 0 0
6.947533 13.671022 -13.713013 20.572111 1.100615 2.300411 0.082454 -0.025758 -90096.300000 1 0 0
4.575833 16.099122 -12.434213 20.850171 1.293871 2.209755 0.050432 -0.021342 220728.000000 1 0 0
11.109333 10.839422 -11.574113 19.361571 0.773101 2.211535 0.097001 -0.022966 -827217.000000 1 0 0
15.691933 10.367422 -9.157313 20.918331 0.583850 2.023908 0.100162 -0.014502 2279280.000000 1 0 0
13.031333 10.727822 -8.934513 19.097835 0.688748 2.057629 0.093350 -0.025288 -598553.000000 1 0 0
10.323933 12.108822 -8.176513 17.890291 0.864797 2.045457 0.073907 -0.008955 199269.000000 1 0 0
5.127833 16.347622 -9.962613 19.819008 1.266842 2.097492 0.049164 -0.017787 -50452.600000 1 0 0
6.632333 14.773922 -11.422413 19.817369 1.148840 2.185093 0.056054 -0.009693 -616535.000000 1 0 0
10.681433 14.036022 -9.823313 20.189116 0.920291 2.078950 0.117661 -0.026226 -344245.000000 1 0 0
8.345133 -18.469378 -1.071413 20.295494 -1.146416 1.623612 0.061057 -0.010647 -491142.000000 1 0 0
7.616633 -17.311078 -3.275613 19.194170 -1.156301 1.742292 0.035908 -0.010173 -795110.000000 1 0 0
4.746233 -18.273578 5.711187 19.724808 -1.316679 1.277047 0.048713 -0.002983 159388.000000 1 0 0
10.080133 -17.207678 -2.488613 20.097424 -1.040889 1.694942 0.051247 -0.006987 -85492.800000 1 0 0
-9.692467 -12.285178 -10.114213 18.632413 0.902826 2.144598 0.058010 -0.013878 -339392.000000 1 0 0
-5.038567 -6.981578 -12.164913 14.903513 0.945658 2.525677 0.011410 -0.001012 1077430.000000 1 0 0
-10.811767 -9.572478 -5.733613 15.537083 0.724676 1.948759 0.022641 -0.007035 -668899.000000 1 0 0
-4.427767 -11.527578 -14.183613 18.805984 1.204070 2.425243 0.033607 -0.004897 -233760.000000 1 0 0
-2.868967 -15.669878 7.421087 17.574089 1.389714 1.134843 0.015606 -0.001011 153687.000000 1 0 0
-4.707567 -11.998478 -11.661113 17.381203 1.196905 2.306223 0.034816 -0.005621 309887.000000 1 0 0
-14.358667 -12.999078 -4.179613 19.814553 0.735742 1.783329 0.059479 -0.017215 279426.000000 1 0 0
-3.256267 -12.196278 -3.209313 13.025059 1.309893 1.819755 0.010533 -0.002721 859613.000000 1 0 0
-2.396867 -17.285378 -1.462613 17.511953 1.433011 1.654415 0.015242 -0.021621 -327751.000000 1 0 0
-5.716367 -12.252778 3.642187 14.002605 1.134276 1.307662 0.004880 0.001398 -354293.000000 1 0 0
-8.812467 -10.707878 -12.028513 18.357651 0.882194 2.285285 0.044989 -0.002964 11576.600000 1 0 0
-9.825967 -12.016378 -7.482613 17.231728 0.885347 2.019985 0.047897 -0.015299 -171380.000000 1 0 0
-10.957467 -15.139678 6.289287 19.718800 0.944303 1.246176 0.064309 -0.012396 -632453.000000 1 0 0
-9.447367 -15.945778 0.448287 18.539729 1.035933 1.546614 0.019134 -0.003086 186627.000000 1 0 0
-14.804667 -7.645078 -8.077013 18.516574 0.476679 2.022173 0.035120 -0.020368 -36207.800000 1 0 0
-2.277967 -16.665978 5.105187 17.578592 1.434954 1.276130 0.019056 -0.007774 -254917.000000 1 0 0
4.528633 -15.719978 6.070087 17.449131 -1.290310 1.215495 0.023600 -0.002115 6760.450000 1 0 0
4.133433 -14.689078 -9.922513 18.201938 -1.296495 2.147346 -0.003033 -0.002173 -168847.000000 1 0 0
-7.663967 -14.063978 -0.455213 16.023080 1.071849 1.599210 0.008283 -0.002375 786075.000000 1 0 0
3.029633 -14.803578 9.495287 17.846150 -1.368928 1.009760 0.014051 -0.011784 167234.000000 1 0 0
2.453233 -17.166878 10.465787 20.254697 -1.428852 1.027794 0.039494 -0.017242 -651503.000000 1 0 0
-8.065767 -17.173878 -5.592713 19.780726 1.131720 1.857441 0.057806 -0.019857 -223187.000000 1 0 0
-6.456467 -9.151878 -7.814413 13.656789 0.956402 2.179982 0.017086 -0.005597 377734.000000 1 0 0
-6.009567 -13.102078 -4.985513 15.252366 1.140754 1.903784 0.007245 -0.009271 585295.000000 1 0 0
2.322133 -19.385278 -4.866613 20.121263 -1.451576 1.815083 0.028410 -0.020820 -111714.000000 1 0 0
-5.409067 -13.166778 8.264087 16.459562 1.181004 1.044789 0.013850 0.001427 1355530.000000 1 0 0
2.339733 -17.481378 3.463587 17.974130 -1.437746 1.376885 0.024315 -0.012856 630114.000000 1 0 0
-17.770167 -10.119978 -2.314413 20.580313 0.517685 1.683492 0.056683 -0.010315 910206.000000 1 0 0
-3.499567 -15.379678 2.591887 15.984347 1.347061 1.407926 0.012124 -0.007702 -146008.000000 1 0 0
-9.948767 -10.332578 -14.305613 20.258102 0.804320 2.354867 0.051563 -0.008715 87857.700000 1 0 0
6.187033 -14.490678 -5.646513 16.737450 -1.167261 1.914905 0.010355 -0.013650 222726.000000 1 0 0
-7.252667 -12.329778 -10.908113 17.989206 1.039081 2.222284 0.047096 -0.009972 -286179.000000 1 0 0
-7.208167 -14.322078 3.810687 16.480320 1.104520 1.337458 0.006288 -0.000789 1293240.000000 1 0 0
3.360133 -14.951878 -3.085713 15.632363 -1.349739 1.769494 0.016183 -0.008828 -1348800.000000 1 0 0
-7.529267 -11.514778 7.770887 15.800844 0.991699 1.056638 0.013692 -0.007161 -266450.000000 1 0 0
-12.699567 -12.328878 -1.003313 17.728138 0.770589 1.627421 0.020898 0.000007 -3132040.000000 1 0 0
-1.795567 -13.794078 3.950487 14.460533 1.441355 1.294088 0.006044 -0.000858 -3956190.000000 1 0 0
-2.982767 -14.038878 5.308787 15.302621 1.361445 1.216511 0.009134 -0.001568 -117704.000000 1 0 0
-14.420267 -10.389478 -4.427213 18.316265 0.624337 1.814923 0.038239 -0.009490 576149.000000 1 0 0
-6.219467 -8.666478 -10.548213 15.001813 0.948325 2.350585 0.026590 -0.004182 375399.000000 1 0 0
0.883433 -19.536578 2.372087 19.699876 -1.525608 1.450092 0.040000 -0.017666 218272.000000 1 0 0
6.416833 -13.983578 -8.227313 17.447202 -1.140580 2.061849 0.012161 -0.007655 -2554430.000000 1 0 0
-3.926867 -16.667478 -5.979013 18.137632 1.339415 1.906726 0.012566 -0.015134 -117870.000000 1 0 0
-3.356867 -13.683578 -13.260113 19.347854 1.330226 2.325885 0.054205 -0.006167 -243007.000000 1 0 0
-8.138067 -14.743578 -4.571713 17.449980 1.066439 1.835880 0.024609 -0.015113 -1667370.000000 1 0 0
-4.336367 -14.474778 10.161487 18.209314 1.279724 0.978777 0.017944 -0.000883 -1450860.000000 1 0 0
-0.187667 -11.918778 -10.017713 15.570711 1.555052 2.269687 0.001701 -0.002809 -363982.000000 1 0 0
2.501033 -17.223678 6.776687 18.677091 -1.426595 1.199489 0.030310 -0.014691 -1439030.000000 1 0 0
-2.565267 -19.174978 -3.218413 19.611694 1.437804 1.735649 0.029987 -0.025574 -840601.000000 1 0 0
0.724233 -15.465678 -3.187313 15.807298 -1.524002 1.773824 0.014546 -0.005384 -402567.000000 1 0 0
6.110133 -17.938378 0.580287 18.959321 -1.242504 1.540185 0.029026 -0.007357 -521940.000000 1 0 0
-7.210967 -16.820378 3.730587 18.677271 1.165792 1.369704 0.012118 -0.002922 999965.000000 1 0 0
-5.275667 -13.492978 -9.668113 17.417391 1.198078 2.159260 0.034092 -0.008706 137708.000000 1 0 0
5.799633 -15.181878 -2.124913 16.390254 -1.205894 1.700807 0.021292 -0.004970 -442477.000000 1 0 0
-8.809567 -10.372978 -0.486113 13.617762 0.866720 1.606501 0.007603 0.000450 1892350.000000 1 0 0
-7.373467 -18.307478 -3.087713 19.976630 1.187915 1.725985 0.039586 -0.028623 -268384.000000 1 0 0
8.223333 -15.811778 -1.216713 17.863816 -1.091217 1.638960 0.026509 -0.008588 637756.000000 1 0 0
-8.085867 -10.142978 -9.641413 16.162243 0.897772 2.209979 0.040092 -0.009680 -1077080.000000 1 0 0
-9.084367 -15.154578 -7.017713 19.011451 1.030784 1.948870 0.062337 -0.018475 -259405.000000 1 0 0
-11.433767 -10.528378 -12.188613 19.751963 0.744197 2.235827 0.063996 0.002422 -1428910.000000 1 0 0
6.702233 -16.291978 2.493187 17.792258 -1.180516 1.430206 0.029982 -0.006178 384047.000000 1 0 0
-2.167367 -11.166578 -6.051913 12.884704 1.379086 2.059744 0.006737 -0.003622 -243899.000000 1 0 0
-12.276067 -15.407278 -3.336913 19.980516 0.898028 1.738591 0.045139 -0.018075 137903.000000 1 0 0
0.018533 -19.253378 -2.702113 19.442076 -1.569834 1.710230 0.045569 -0.036477 -728294.000000 1 0 0
-5.747767 -15.614178 -4.779413 17.311331 1.218078 1.850516 0.010539 -0.016301 -3663620.000000 1 0 0
1.892133 -15.968178 -1.030813 16.112897 -1.452852 1.634814 0.015263 -0.010674 665411.000000 1 0 0
-13.161867 -11.999978 5.281187 18.577545 0.739254 1.282543 0.032517 -0.003954 621899.000000 1 0 0
2.039633 -15.141078 -8.565013 17.514902 -1.436894 2.081754 0.001980 -0.002683 -2574210.000000 1 0 0
-11.916767 -16.631478 -0.271013 20.461888 0.949070 1.584041 0.069931 -0.027367 413301.000000 1 0 0
-7.447267 -16.612278 -1.072513 18.236772 1.149358 1.629641 0.023335 -0.012861 440496.000000 1 0 0
-2.990667 -14.414978 -1.776313 14.828721 1.366229 1.690873 0.010965 -0.007795 385005.000000 1 0 0
-1.684367 -10.447178 -13.170013 16.894669 1.410945 2.464722 0.006146 -0.000855 -151282.000000 1 0 0
1.682233 -19.537578 4.880887 20.208165 -1.484906 1.326854 0.043905 -0.021036 187452.000000 1 0 0
-17.375667 -9.215378 2.587187 19.837604 0.487640 1.440005 0.034544 -0.009360 -598433.000000 1 0 0
-2.633567 -15.650178 -8.020513 17.781799 1.404081 2.038740 0.007287 -0.011804 -1627640.000000 1 0 0
-10.470667 -12.183278 0.273687 16.066799 0.860853 1.553761 0.010126 0.004863 471148.000000 1 0 0
-6.856467 -11.449978 -6.775313 14.967231 1.031245 2.040561 0.024618 -0.005791 341523.000000 1 0 0
-2.244767 -13.648478 -6.627513 15.337661 1.407786 2.017624 -0.000875 -0.003176 401181.000000 1 0 0
-14.339667 -14.415978 -1.046613 20.360301 0.788052 1.622224 0.061454 -0.012234 172510.000000 1 0 0
-9.507767 -11.339878 -4.422813 15.445120 0.873054 1.861218 0.021074 -0.008593 897625.000000 1 0 0
9.434133 -15.073878 -5.137213 18.509879 -1.011579 1.852028 0.021888 -0.009115 177723.000000 1 0 0
-5.594167 -10.917378 -9.485113 15.506489 1.097271 2.228987 0.029960 -0.007399 128523.000000 1 0 0
-10.332967 -16.147378 -4.959413 19.801611 1.001543 1.823947 0.062236 -0.014743 -494117.000000 1 0 0
2.345033 -17.306778 -3.261513 17.766857 -1.436119 1.755416 0.023803 -0.015962 368437.000000 1 0 0
-0.360367 -14.303778 -8.170413 16.476759 1.545608 2.089638 -0.001390 -0.007899 -1117550.000000 1 0 0
-0.632967 -18.248778 -7.132413 19.603312 1.536125 1.943180 0.017592 -0.014399 40348.400000 1 0 0
-1.855067 -9.867778 -10.459613 14.498890 1.384973 2.376629 0.001761 -0.001471 512065.000000 1 0 0
-5.131167 -17.342678 1.993887 18.195410 1.283133 1.460994 0.020931 -0.014581 2269180.000000 1 0 0
0.375033 -12.871778 -2.579713 13.133097 -1.541669 1.768510 0.005808 -0.005950 -1310320.000000 1 0 0
2.717033 -14.996178 3.029887 15.538592 -1.391559 1.374548 0.016521 -0.004426 -1036900.000000 1 0 0
-9.442767 -13.101278 6.763387 17.508648 0.946278 1.174192 0.018987 -0.005068 -354584.000000 1 0 0
-0.892567 -17.779078 -4.613213 18.389508 1.520635 1.824366 0.026142 -0.024297 -383671.000000 1 0 0
-9.585867 -17.236478 -2.416613 19.870205 1.063253 1.692718 0.049726 -0.035617 -341311.000000 1 0 0
1.446733 -16.150978 1.405787 16.276467 -1.481459 1.484319 0.018755 -0.014759 308096.000000 1 0 0
-0.255167 -18.057178 4.083387 18.514882 1.556666 1.348422 0.036248 -0.015760 741001.000000 1 0 0
-17.342267 -9.166778 0.013387 19.615918 0.486249 1.570114 0.009797 -0.001786 404124.000000 1 0 0
-14.905167 -7.284878 -10.652313 19.715609 0.454606 2.141588 0.063014 -0.025509 684424.000000 1 0 0
2.979633 -12.727278 -8.760813 15.735744 -1.340824 2.161260 -0.004266 -0.003068 408409.000000 1 0 0
-11.663667 -14.864078 1.507587 18.954017 0.905462 1.491173 0.034588 -0.004210 367173.000000 1 0 0
-2.105767 -15.686778 10.586787 19.041778 1.437356 0.981259 0.026471 -0.008664 -508102.000000 1 0 0
-7.059267 -15.805778 1.336287 17.362072 1.150752 1.493754 0.016286 -0.011584 -1148840.000000 1 0 0
-12.423667 -15.086978 -5.928513 20.423312 0.881908 1.865317 0.062169 -0.019950 155119.000000 1 0 0
1.049833 -13.672178 -4.992613 14.593039 -1.494161 1.919972 0.007429 -0.007710 687135.000000 1 0 0
6.073433 -16.349278 -7.473013 18.974493 -1.215115 1.975607 0.032300 -0.018565 196630.000000 1 0 0
-6.503167 -12.965178 5.909087 15.662195 1.105880 1.183935 0.010558 -0.000899 380178.000000 1 0 0
-2.581467 -13.492478 0.547287 13.748107 1.381755 1.530978 0.012718 -0.004690 1910900.000000 1 0 0
-4.235067 -15.602478 0.177587 16.168013 1.305747 1.559812 0.012296 -0.009960 111550.000000 1 0 0
-17.664567 -7.477878 -2.006613 19.286837 0.400452 1.675025 0.009765 -0.002974 447494.000000 1 0 0
1.433233 -12.618678 -11.788613 17.327913 -1.457701 2.319002 0.003886 0.002010 -320881.000000 1 0 0
1.371233 -17.105678 -5.788013 18.110372 -1.490805 1.896100 0.027911 -0.017565 -541444.000000 1 0 0
-12.830467 -6.530478 -9.167013 17.067576 0.470807 2.137793 0.036358 -0.012077 76902.900000 1 0 0
-11.522967 -13.534078 -8.701613 19.790606 0.865488 2.026043 0.067412 -0.022845 476810.000000 1 0 0
-4.239867 -9.904178 3.638187 11.371263 1.166312 1.245124 0.009115 -0.004161 -3808910.000000 1 0 0
-6.941567 -14.514978 9.724087 18.799676 1.124712 1.027165 0.023402 -0.003563 -1209720.000000 1 0 0
-5.223567 -15.850478 -8.152413 18.573776 1.252452 2.025193 0.029186 -0.014226 -794880.000000 1 0 0
-0.282567 -13.523078 2.166187 13.698389 1.549904 1.411995 0.011927 -0.005994 798649.000000 1 0 0
-10.812167 -13.602778 -4.657513 17.989746 0.899204 1.832678 0.052692 -0.012586 -1176030.000000 1 0 0
-9.663867 -10.537178 6.668987 15.776497 0.828602 1.134355 0.023261 -0.005612 -435505.000000 1 0 0
-15.564067 -8.249778 -4.889313 18.281258 0.487400 1.841541 0.042104 -0.012523 -114890.000000 1 0 0
-14.432167 -7.274778 5.541787 17.085703 0.466896 1.240469 0.027019 -0.011158 1376220.000000 1 0 0
-1.633267 -19.331578 0.000487 19.400450 1.486509 1.570771 0.031537 -0.020284 -414119.000000 1 0 0
-15.218067 -12.051978 -1.435513 19.465365 0.669814 1.644610 0.030739 -0.005566 889287.000000 1 0 0
-4.350167 -12.122378 -6.966213 14.642545 1.226255 2.066615 0.009032 -0.006454 126167.000000 1 0 0
-7.479967 -18.469078 1.715287 19.999974 1.185987 1.484926 0.031363 -0.012061 -36285.900000 1 0 0
-2.335767 -11.860378 -8.621413 14.847664 1.376346 2.190333 0.002681 -0.003926 140401.000000 1 0 0
-0.875367 -20.466978 -4.703513 21.018718 1.528053 1.796485 0.041891 -0.019786 -216051.000000 1 0 0
-5.301467 -9.058278 -13.801813 17.339204 1.041284 2.491436 0.034462 -0.004355 578325.000000 1 0 0
-8.504967 -19.100278 -0.943013 20.929509 1.151875 1.615868 0.040366 -0.017340 37251.400000 1 0 0
-17.049767 -7.246378 5.714787 19.387196 0.401882 1.271580 0.050701 -0.021870 -227274.000000 1 0 0
-3.473367 -14.592178 -4.305213 15.605473 1.337115 1.850300 0.005582 -0.009879 -1829800.000000 1 0 0
-2.840467 -14.845578 -10.940413 18.658833 1.381747 2.197329 0.024131 -0.006231 270854.000000 1 0 0
0.003133 -16.819178 6.327787 17.970132 -1.570610 1.210953 0.035790 -0.010901 -527854.000000 1 0 0
-11.093567 -11.624578 3.812087 16.514541 0.808768 1.337863 0.017683 -0.001710 895116.000000 1 0 0
-0.290167 -14.686078 -0.156013 14.689773 1.551041 1.581417 0.012350 -0.008062 540519.000000 1 0 0
-7.182567 -9.578178 -2.463013 12.222815 0.927366 1.773695 0.012694 -0.001599 -192439.000000 1 0 0
-11.080967 -14.416578 -1.006213 18.210931 0.915480 1.626078 0.028615 -0.012016 150498.000000 1 0 0
0.449433 -14.461778 -10.539113 17.900221 -1.539729 2.200333 0.001166 -0.003865 -43293.400000 1 0 0
-1.324267 -13.896878 -3.843213 14.479198 1.475791 1.839446 0.005917 -0.003444 -3259410.000000 1 0 0
-11.289367 -8.142878 -7.602913 15.860661 0.624870 2.070718 0.026066 -0.010017 679562.000000 1 0 0
-0.129167 -17.292678 -0.186313 17.294164 1.563327 1.581570 0.028643 -0.017977 1185330.000000 1 0 0
-12.774667 -9.489878 4.619787 16.570828 0.638920 1.288262 0.020101 -0.007450 255527.000000 1 0 0
4.072933 -16.771678 1.529587 17.326789 -1.332562 1.482402 0.021600 -0.014386 2347090.000000 1 0 0
-3.719667 -17.882178 -8.239013 20.037204 1.365711 1.994551 0.038564 -0.019969 150881.000000 1 0 0
-13.384667 -11.226178 2.767887 17.687215 0.697917 1.413660 0.017534 -0.002267 343910.000000 1 0 0
-8.452467 -12.231278 4.185287 15.445549 0.966100 1.296395 0.012658 -0.003594 1141370.000000 1 0 0
-8.261867 -9.467578 -5.878013 13.872437 0.853300 2.008343 0.016025 -0.005507 331475.000000 1 0 0
3.901433 -17.538278 -5.321813 18.738572 -1.351908 1.858763 0.010021 -0.003578 -68150.600000 1 0 0
-2.388367 -13.258778 11.407887 17.653311 1.392573 0.868178 0.005067 -0.001482 279587.000000 1 0 0
0.067733 -16.624078 -9.398313 19.096933 -1.566722 2.085340 0.007565 -0.008261 -178303.000000 1 0 0
-6.921467 -10.981678 -14.593413 19.531299 1.008413 2.414606 0.054272 0.002222 -1025820.000000 1 0 0
-4.470067 -18.862078 -1.698713 19.458806 1.338102 1.658205 0.036746 -0.031531 -275209.000000 1 0 0
-2.524567 -17.229478 1.151687 17.451497 1.425306 1.504755 0.026105 -0.021873 439895.000000 1 0 0
4.150233 -14.583578 -7.266313 16.813818 -1.293543 2.017686 0.008571 -0.013791 -873500.000000 1 0 0
-0.946067 -15.845778 -6.077513 16.997643 1.511162 1.936440 0.009055 -0.010445 -311440.000000 1 0 0
-9.555867 -15.192378 8.348087 19.794280 1.009332 1.135430 0.041801 -0.013038 -171135.000000 1 0 0
-7.150867 -12.049478 -1.902213 14.140129 1.035201 1.705731 0.004565 -0.002278 782787.000000 1 0 0
-7.250067 -15.153278 -9.350113 19.225242 1.124538 2.078699 0.054501 -0.016720 -1247180.000000 1 0 0
-5.046267 -13.258778 -0.623713 14.200318 1.207127 1.614733 0.007517 -0.004401 2877870.000000 1 0 0
-6.411667 -13.752078 -7.375713 16.870989 1.134526 2.023261 0.025569 -0.011926 436907.000000 1 0 0
5.946933 -15.422678 0.210787 16.530863 -1.202768 1.558045 0.018985 -0.004221 553430.000000 1 0 0
-14.418667 -12.766278 0.938487 19.280990 0.724690 1.522103 0.015587 -0.002243 873889.000000 1 0 0
0.933733 -15.273778 11.129287 18.921448 -1.509739 0.941985 0.018666 -0.012731 41594.400000 1 0 0
-9.203467 -10.886978 1.979887 14.392708 0.868999 1.432797 0.007040 0.001176 -10915.800000 1 0 0
-9.411567 -8.967778 -3.554013 13.477004 0.761257 1.837662 0.011499 -0.002605 36850.200000 1 0 0
-12.228167 -7.292778 -12.245513 18.779384 0.537762 2.281111 0.057965 -0.016671 -388356.000000 1 0 0
-13.298367 -8.563078 -0.642313 15.829891 0.572089 1.611383 0.012573 -0.001092 710106.000000 1 0 0
-11.215067 -9.765778 0.588587 14.882694 0.716431 1.531238 0.003186 0.001794 1325070.000000 1 0 0
-15.806967 -12.160378 3.073587 20.178750 0.655742 1.417883 0.047682 -0.004027 312455.000000 1 0 0
-10.445367 -12.403978 -2.326413 16.382203 0.870908 1.713287 0.031060 -0.011760 526557.000000 1 0 0
-3.373367 -8.946778 -12.175913 15.481514 1.210231 2.475886 0.009856 0.001551 -1447670.000000 1 0 0
-0.173067 -15.616778 3.909987 16.099743 1.559715 1.325483 0.025720 -0.008282 -462061.000000 1 0 0
-15.711767 -7.650178 1.362987 17.528337 0.453119 1.492959 0.005317 -0.000467 317856.000000 1 0 0
-5.892367 -13.575978 -13.451813 19.999461 1.161303 2.308525 0.045231 -0.006463 -1096870.000000 1 0 0
-15.305467 -10.262978 1.263487 18.471125 0.590682 1.502339 0.015675 -0.000548 1158770.000000 1 0 0
-9.934867 -8.458278 -12.589213 18.130977 0.705291 2.338310 0.037050 -0.003030 581546.000000 1 0 0
-13.447467 -11.737978 -6.336613 18.941150 0.717626 1.911916 0.056763 -0.010443 221291.000000 1 0 0
-12.154267 -11.484678 -3.995113 17.192585 0.757080 1.805314 0.032542 -0.005538 -527424.000000 1 0 0
-11.661667 -10.941478 -9.037513 18.368099 0.753547 2.085207 0.060071 -0.025225 352570.000000 1 0 0
-13.219967 -8.586978 -5.926113 16.841097 0.576056 1.930379 0.026319 -0.010056 -1131470.000000 1 0 0
-13.596467 -8.257378 -3.234913 16.233080 0.545783 1.771418 0.026112 -0.006365 37417.300000 1 0 0
-4.186267 -17.031578 -3.418713 17.868606 1.329780 1.763308 0.011466 -0.022611 306776.000000 1 0 0
-15.502167 -8.968178 -1.754013 17.995054 0.524469 1.668423 0.021104 -0.002626 -1470770.000000 1 0 0
-9.444367 -15.602378 3.588487 18.587832 1.026477 1.376521 0.019590 -0.008982 -573440.000000 1 0 0
4.796433 -17.224578 8.083887 19.622464 -1.299212 1.146180 0.045043 -0.019377 307122.000000 1 0 0
-8.453767 -15.569778 5.983487 18.699901 1.073374 1.245094 0.016821 0.004975 -64331.600000 1 0 0
0.968033 -16.184878 8.636287 18.370433 -1.511057 1.081371 0.019236 -0.009229 -317190.000000 1 0 0
-10.809667 -7.824978 -10.155113 16.769183 0.626578 2.221293 0.035703 -0.014458 724131.000000 1 0 0
-4.739867 -16.008678 5.613887 17.614194 1.282939 1.246424 0.015825 -0.010776 -370358.000000 1 0 0
-1.163667 -13.144778 -12.065113 17.880331 1.482500 2.311449 0.010208 -0.004331 -1400650.000000 1 0 0
-6.365667 -14.313978 -2.706313 15.897667 1.152345 1.741863 0.009558 -0.008574 420776.000000 1 0 0
-17.769067 -7.047278 -7.183513 20.420743 0.377575 1.930263 0.060939 -0.022367 522763.000000 1 0 0
-17.271667 -4.208178 -10.246813 20.518685 0.238990 2.093690 0.077853 -0.026529 591961.000000 1 0 0
-15.182467 -5.262578 -9.011813 18.423214 0.333662 2.081917 0.029153 -0.027920 826516.000000 1 0 0
-16.070467 -5.565178 -5.728413 17.945635 0.333373 1.895691 0.023823 -0.010977 402758.000000 1 0 0
-15.049967 -4.657678 -12.320713 19.999886 0.300132 2.234501 0.065565 -0.026455 -1586000.000000 1 0 0
-18.738867 -5.251778 -5.619413 20.255965 0.273251 1.851904 0.053765 -0.016205 43776.400000 1 0 0
-17.402467 -4.516078 -7.677013 19.549357 0.253907 1.974361 0.048243 -0.022229 958039.000000 1 0 0
12.402833 -7.795978 8.770487 17.074220 -0.561158 1.031341 0.036234 -0.010017 191358.000000 1 0 0
16.090233 -3.245778 1.807687 16.513582 -0.199052 1.461110 0.034664 -0.008887 1395160.000000 1 0 0
12.190033 -2.063078 12.595087 17.649063 -0.167654 0.776115 0.060586 -0.009071 -29860.400000 1 0 0
9.659433 -10.015878 5.268387 14.878789 -0.803513 1.208859 0.009698 -0.003181 67997.800000 1 0 0
17.185433 -1.999478 7.270987 18.767106 -0.115826 1.172951 0.099802 -0.019032 600921.000000 1 0 0
5.478133 -12.827178 9.152787 16.682924 -1.167172 0.990069 0.002120 0.003347 -40072.900000 1 0 0
15.084433 -9.010878 -1.899513 17.673262 -0.538478 1.678484 0.036375 -0.005673 1437.290000 1 0 0
11.120533 -8.432078 6.531487 15.408651 -0.648756 1.133066 0.014130 -0.007578 -2553860.000000 1 0 0
20.080433 -3.089278 3.507087 20.617155 -0.152648 1.399860 0.127286 -0.027853 472821.000000 1 0 0
13.653033 -8.422878 6.710587 17.389139 -0.552770 1.174606 0.038799 -0.012775 -711114.000000 1 0 0
8.443633 -11.013278 8.711787 16.385435 -0.916707 1.010215 0.005236 0.001944 -38698.400000 1 0 0
16.773733 0.102422 -0.514713 16.781941 0.006106 1.601472 0.021304 -0.005059 -2149380.000000 1 0 0
12.470233 -12.219678 2.313187 17.611873 -0.775250 1.439073 0.032906 -0.010207 -2185370.000000 1 0 0
10.381033 -11.575578 3.536287 15.945695 -0.839749 1.347166 0.027008 -0.006957 -743986.000000 1 0 0
16.345433 3.050822 2.344187 16.792138 0.184524 1.430739 0.021739 -0.010554 -1394820.000000 1 0 0
18.360733 -3.112278 0.482287 18.628886 -0.167911 1.544904 0.057715 -0.016891 252789.000000 1 0 0
13.671933 -11.581678 -0.254713 17.919874 -0.702816 1.585011 0.044469 -0.007903 -224777.000000 1 0 0
16.964533 -7.414978 -0.867213 18.534544 -0.412064 1.617602 0.049569 -0.007920 638124.000000 1 0 0
10.278033 -5.547578 9.819887 15.259219 -0.494940 0.871685 0.021773 -0.006366 580604.000000 1 0 0
11.565033 -13.204578 6.136787 18.594919 -0.851494 1.234466 0.049340 -0.007880 -943156.000000 1 0 0
13.176033 -1.710178 10.250587 16.781153 -0.129073 0.913676 0.050310 -0.009246 93077.800000 1 0 0
15.611033 -1.924878 -1.417813 15.793027 -0.122683 1.660692 0.015191 -0.007333 -557622.000000 1 0 0
10.781233 -12.169378 8.786987 18.480798 -0.845809 1.075303 0.046403 -0.017768 331593.000000 1 0 0
14.649833 1.316322 3.230987 15.059535 0.089612 1.354568 0.014776 -0.006046 550182.000000 1 0 0
15.091133 -5.757578 5.372987 17.022367 -0.364475 1.249662 0.054320 -0.015749 -911747.000000 1 0 0
14.396933 -3.329578 -3.018013 15.081981 -0.227274 1.772264 0.019966 -0.004674 581080.000000 1 0 0
14.135433 0.705522 9.492287 17.041471 0.049870 0.980014 0.072839 -0.013160 273859.000000 1 0 0
15.568233 -3.366278 4.464887 16.541975 -0.212949 1.297494 0.043150 -0.010836 -366398.000000 1 0 0
18.652433 4.881122 -4.373213 19.770270 0.255949 1.793843 0.041017 0.002514 682800.000000 1 0 0
18.286633 -5.645778 -5.295813 19.857527 -0.299454 1.840754 0.097017 -0.012005 517196.000000 1 0 0
17.407333 0.099022 5.902187 18.380992 0.005688 1.243903 0.084805 -0.013318 480399.000000 1 0 0
17.115133 -6.545378 3.959687 18.746970 -0.365271 1.357976 0.082610 -0.023957 382769.000000 1 0 0
9.855233 -6.465778 14.302287 18.533411 -0.580634 0.689282 0.054918 -0.009923 -754925.000000 1 0 0
8.586733 -12.233478 5.071787 15.783314 -0.958793 1.243654 0.009940 -0.003718 -2023910.000000 1 0 0
17.185433 -9.920178 -0.598913 19.852147 -0.523519 1.600970 0.067528 -0.010790 722256.000000 1 0 0
15.219333 -8.685778 0.589287 17.533342 -0.518602 1.537180 0.053770 -0.012626 237206.000000 1 0 0
10.017133 -12.887078 1.432787 16.385134 -0.910051 1.483240 0.031541 -0.012700 314873.000000 1 0 0
16.996133 -8.208378 8.860087 20.850591 -0.449919 1.131909 0.095388 -0.026599 586711.000000 1 0 0
19.095333 -0.177578 -1.649613 19.167277 -0.009299 1.656967 0.078865 -0.012009 -682044.000000 1 0 0
13.501533 -1.120678 7.693187 15.579873 -0.082814 1.054353 0.034210 -0.010003 -309207.000000 1 0 0
12.948433 -9.681778 -3.116013 16.465366 -0.642039 1.761191 0.025959 -0.009217 -628609.000000 1 0 0
8.974333 -15.301978 1.456387 17.799164 -1.040376 1.488881 0.040060 -0.004358 1611180.000000 1 0 0
11.529133 -8.156678 11.194887 18.021593 -0.615731 0.900532 0.049527 -0.012852 421416.000000 1 0 0
13.979233 -3.821278 -0.464513 14.499548 -0.266835 1.602838 0.018105 -0.007995 -926575.000000 1 0 0
7.245333 -13.233778 11.004587 18.674278 -1.069884 0.940615 0.015345 0.010506 -427863.000000 1 0 0
15.518433 -6.603478 1.925687 16.974568 -0.402315 1.457106 0.037387 -0.011040 226263.000000 1 0 0
15.838833 -6.024078 -2.620313 17.147133 -0.363441 1.724211 0.057394 -0.007324 158604.000000 1 0 0
11.157333 -8.518678 3.868087 14.560771 -0.652088 1.301917 0.017146 -0.007311 364361.000000 1 0 0
10.839333 -14.404778 -0.461813 18.033359 -0.925709 1.596408 0.052041 -0.017984 506704.000000 1 0 0
13.588333 -12.668478 4.614787 19.142345 -0.750379 1.327320 0.045728 -0.010332 407028.000000 1 0 0
12.854233 -10.975878 6.599587 18.145406 -0.706738 1.198553 0.035808 -0.009903 971180.000000 1 0 0
10.972633 -10.375878 1.368587 15.163461 -0.757452 1.480418 0.022818 -0.007948 326727.000000 1 0 0
14.017933 -7.517578 11.920487 19.877486 -0.492251 0.927673 0.068222 -0.024398 -426622.000000 1 0 0
15.245033 -1.720378 -4.810913 16.078420 -0.112373 1.874667 0.024471 -0.001340 -259859.000000 1 0 0
13.040033 -11.468678 -7.012113 18.728127 -0.721372 1.954563 0.047851 -0.007945 234202.000000 1 0 0
17.879333 -5.287578 1.843387 18.735717 -0.287541 1.472248 0.093678 -0.014995 1398390.000000 1 0 0
10.632133 -9.588878 9.191187 17.013723 -0.733851 1.000095 0.022026 -0.007209 -853693.000000 1 0 0
16.381333 1.936122 9.997187 19.288349 0.117645 1.025932 0.121478 -0.017808 534126.000000 1 0 0
18.205933 3.806422 0.595187 18.609113 0.206107 1.538807 0.016209 -0.007339 221508.000000 1 0 0
13.397633 -3.980878 5.825087 15.141849 -0.288824 1.175912 0.024474 -0.010145 -872849.000000 1 0 0
12.153733 -6.073178 6.734487 15.164103 -0.463405 1.110619 0.019940 -0.009771 -1565.330000 1 0 0
16.702833 -10.162978 3.648287 19.889212 -0.546616 1.386321 0.054254 -0.013836 -747383.000000 1 0 0
16.267233 -7.867678 -5.566013 18.907769 -0.450484 1.869600 0.067555 -0.013091 -492870.000000 1 0 0
14.163333 -0.284178 5.261787 15.111822 -0.020062 1.215157 0.022630 -0.008304 1287530.000000 1 0 0
18.444133 -4.219478 5.194587 19.620748 -0.224901 1.302852 0.112812 -0.025351 118212.000000 1 0 0
13.938833 -13.312578 7.047687 20.522809 -0.762422 1.220254 0.081020 -0.017918 -84716.700000 1 0 0
15.181933 -13.506778 -1.057813 20.348049 -0.727074 1.622806 0.050162 -0.007925 121614.000000 1 0 0
17.978533 -5.975278 8.265587 20.670064 -0.320871 1.159408 0.117076 -0.016766 -577005.000000 1 0 0
14.275933 3.345222 9.172687 17.295403 0.230173 1.011778 0.061406 -0.021277 -213313.000000 1 0 0
18.739433 3.873222 3.190087 19.399609 0.203818 1.405605 0.060612 -0.016466 578969.000000 1 0 0
14.798133 -10.289778 8.230187 19.814143 -0.607594 1.142448 0.047249 -0.024604 -676306.000000 1 0 0
14.988733 -4.733678 10.442587 18.871074 -0.305903 0.984398 0.084948 -0.018876 217811.000000 1 0 0
17.823233 -7.872178 1.902087 19.576944 -0.415914 1.473483 0.093357 -0.021060 -614231.000000 1 0 0
18.400733 -5.626878 -1.898213 19.335251 -0.296766 1.669128 0.057551 -0.013861 -415073.000000 1 0 0
14.375133 -12.893178 -5.381413 20.045899 -0.731104 1.842585 0.055731 -0.017439 -1738930.000000 1 0 0
15.608333 -1.304178 9.232987 18.181556 -0.083363 1.038142 0.117686 -0.016273 -414355.000000 1 0 0
12.986733 -10.031878 10.231587 19.338541 -0.657728 1.013283 0.036921 -0.021261 -1607020.000000 1 0 0
16.623933 2.164822 4.806587 17.439750 0.129495 1.291571 0.053611 -0.015428 -1924830.000000 1 0 0
14.868533 2.555022 0.015587 15.086472 0.170179 1.569763 0.005308 -0.003528 -1159750.000000 1 0 0
15.177233 -9.825078 -6.861513 19.338069 -0.574515 1.933517 0.065562 -0.014768 529858.000000 1 0 0
16.248633 0.068822 -3.210713 16.562955 0.004236 1.765880 0.018515 0.001436 233822.000000 1 0 0
12.072233 2.745222 13.473587 18.297885 0.223597 0.743141 0.079476 -0.015335 -179743.000000 1 0 0
17.657733 -2.762278 9.726487 20.347734 -0.155177 1.072405 0.106692 -0.017185 -132519.000000 1 0 0
7.764133 -18.050678 4.568887 20.173831 -1.164589 1.342338 0.061151 -0.021340 -14481.400000 1 0 0
6.865433 -11.059678 6.522287 14.559907 -1.015250 1.106312 0.002961 -0.000208 258556.000000 1 0 0
17.932733 2.146422 -1.402313 18.115091 0.119126 1.648285 0.009929 -0.002398 241678.000000 1 0 0
17.694233 -2.195078 3.615987 18.192845 -0.123426 1.370705 0.051552 -0.013404 -1291010.000000 1 0 0
12.704133 -13.329178 -1.963913 18.518070 -0.809403 1.677050 0.036392 -0.006851 -139549.000000 1 0 0
15.237933 -8.221878 4.390287 17.862489 -0.494798 1.322469 0.048761 -0.011873 -438437.000000 1 0 0
12.083733 -2.632778 15.103387 19.520769 -0.214525 0.686122 0.080513 -0.020873 -43343.200000 1 0 0
12.205433 -13.769478 -6.338713 19.461511 -0.845539 1.902554 0.030836 -0.016606 -91682.400000 1 0 0
10.823233 -11.926878 -1.190813 16.149638 -0.833872 1.644599 0.026592 -0.009613 -1248720.000000 1 0 0
13.237733 -7.942078 2.218787 15.596063 -0.540388 1.428046 0.029157 -0.006838 1319420.000000 1 0 0
8.845933 -7.748278 10.101187 15.502268 -0.719348 0.861112 0.007928 0.000288 -1908670.000000 1 0 0
15.737933 -3.721378 8.247587 18.153619 -0.232194 1.099185 0.089846 -0.017545 -733704.000000 1 0 0
10.319133 -17.295378 5.190987 20.798100 -1.032850 1.318540 0.075478 -0.017998 714573.000000 1 0 0
15.370033 -6.298078 8.396787 18.612086 -0.388895 1.102746 0.068999 -0.012785 -122088.000000 1 0 0
16.570133 -4.819878 -0.364213 17.260741 -0.283067 1.591899 0.033231 -0.012217 -917395.000000 1 0 0
14.135433 -10.418278 3.435287 17.892797 -0.635150 1.377604 0.039700 -0.008148 426287.000000 1 0 0
15.300033 -9.740678 -4.336913 18.648877 -0.566929 1.805501 0.057158 -0.016896 1015850.000000 1 0 0
13.757433 -6.446478 0.037287 15.192940 -0.438198 1.568342 0.027480 -0.008420 354963.000000 1 0 0
17.718733 -0.809478 -5.002613 18.429186 -0.045653 1.845696 0.070044 -0.005045 262473.000000 1 0 0
14.433933 0.379222 -1.536113 14.520395 0.026267 1.676785 0.007679 -0.002938 -2104080.000000 1 0 0
4.824333 -12.705778 11.670787 17.914192 -1.207915 0.861259 -0.006540 -0.000508 -1059440.000000 1 0 0
12.121033 -7.426778 13.542887 19.633804 -0.549719 0.809619 0.064290 -0.017601 383485.000000 1 0 0
12.174733 -5.599878 11.676287 17.774095 -0.431105 0.854060 0.044638 -0.010701 921545.000000 1 0 0
13.350233 -4.563678 8.436687 16.438782 -0.329389 1.031866 0.037307 -0.010317 -1259060.000000 1 0 0
15.431833 -1.135978 3.191687 15.799328 -0.073480 1.367382 0.030529 -0.004727 204536.000000 1 0 0
15.298533 -10.298678 5.792187 19.330218 -0.592499 1.266477 0.057531 -0.017482 146468.000000 1 0 0
13.675233 -8.000678 -5.641913 16.818264 -0.529353 1.912893 0.041744 -0.007391 -166679.000000 1 0 0
9.843233 -2.218878 13.711787 17.024270 -0.221716 0.634403 0.034023 -0.003201 776016.000000 1 0 0
9.948233 -9.006378 13.658687 19.147896 -0.735749 0.776564 0.066990 -0.013261 -413932.000000 1 0 0
20.358433 6.126922 -2.814313 21.445869 0.292330 1.702405 0.140805 -0.005206 491328.000000 1 0 0
11.305933 -3.397578 10.603087 15.867990 -0.291927 0.839001 0.022470 -0.005691 750010.000000 1 0 0
10.348233 -13.947378 -2.910713 17.609302 -0.932468 1.736852 0.025546 -0.005850 137303.000000 1 0 0
15.007133 -12.558878 2.485087 19.726001 -0.696816 1.444480 0.043729 -0.010888 224436.000000 1 0 0
11.423533 -0.238678 14.210987 18.234753 -0.020890 0.677192 0.062991 -0.015127 408109.000000 1 0 0
19.271733 -1.773178 5.668187 20.166115 -0.091751 1.285882 0.139002 -0.022067 1050330.000000 1 0 0
19.065133 -0.314878 7.876887 20.630652 -0.016514 1.179048 0.147042 -0.022763 157640.000000 1 0 0
18.883233 0.843522 0.695587 18.914858 0.044641 1.534013 0.052663 -0.016122 -109941.000000 1 0 0
18.750333 0.930422 3.884787 19.171130 0.049581 1.366746 0.069134 -0.017350 346389.000000 1 0 0
16.664333 -3.838978 -4.193713 17.607526 -0.226421 1.811285 0.052917 -0.007699 -3538930.000000 1 0 0
11.102933 -8.205278 15.758887 20.950996 -0.636436 0.719435 0.102885 -0.018420 194271.000000 1 0 0
16.777133 -7.368678 6.382387 19.403723 -0.413844 1.235630 0.084341 -0.021760 42781.000000 1 0 0
18.804733 2.353822 6.117587 19.914400 0.124524 1.258553 0.083037 -0.018327 592208.000000 1 0 0
15.629933 1.829922 7.619187 17.484148 0.116547 1.119895 0.089249 -0.014591 71354.700000 1 0 0
8.740333 -15.619178 4.001687 18.340274 -1.060620 1.350836 0.043986 -0.017456 543757.000000 1 0 0
11.436433 -14.998878 2.060787 18.973803 -0.919352 1.461969 0.063741 -0.013229 268058.000000 1 0 0
8.199933 -16.133878 6.312287 19.167313 -1.100576 1.235207 0.042766 -0.007709 -289929.000000 1 0 0
14.713033 -11.567478 -2.610413 18.896935 -0.666273 1.709379 0.041629 -0.007502 898037.000000 1 0 0
13.834033 -4.822878 3.276087 15.012440 -0.335449 1.350801 0.024819 -0.006059 -576307.000000 1 0 0
-1.151267 10.195922 -5.512613 11.647795 -1.458358 2.063801 0.004135 0.003388 -1200400.000000 1 0 0
8.396133 -1.755778 -7.984913 11.719071 -0.206147 2.320416 0.001394 -0.004841 -4330890.000000 1 0 0
3.157233 -10.297978 7.717687 13.250629 -1.273307 0.949070 -0.002922 -0.000021 517024.000000 1 0 0
-6.272867 1.233922 8.254287 10.440531 -0.194228 0.659008 0.004959 -0.000521 -550526.000000 1 0 0
7.554433 -6.252178 -7.308613 12.230086 -0.691355 2.211292 0.003941 -0.008655 -51647.900000 1 0 0
-11.485767 -4.553378 -4.137513 13.029778 0.377431 1.893933 0.006979 -0.003300 106485.000000 1 0 0
2.113333 -3.269378 2.862087 4.831827 -0.996955 0.936835 0.003221 -0.002139 3139620.000000 1 0 0
-3.505667 -4.377278 8.840187 10.468963 0.895520 0.565317 0.001585 -0.001494 -1990030.000000 1 0 0
-4.742967 -1.129778 -2.404513 5.436342 0.233843 2.028962 0.005689 -0.004697 -175130.000000 1 0 0
4.883433 -5.176278 -3.616513 7.982539 -0.814501 2.040983 0.007187 -0.007888 34179.700000 1 0 0
2.612333 14.176222 -8.801513 16.889529 1.388565 2.118962 0.009668 -0.009227 167535.000000 1 0 0
5.559933 -5.410778 13.746487 15.784654 -0.771803 0.513813 0.018075 -0.009006 -1264310.000000 1 0 0
-4.642467 -0.804778 9.828187 10.899240 0.171646 0.447038 0.004367 -0.000091 -3529460.000000 1 0 0
-1.066867 12.089222 -2.460213 12.383059 -1.482775 1.770803 0.005354 -0.001915 -1367990.000000 1 0 0
2.969433 9.376922 -10.487613 14.378255 1.264113 2.388252 0.001866 0.001900 -649136.000000 1 0 0
-10.694167 2.526322 1.178287 11.051510 -0.231981 1.463976 0.002823 -0.001255 244434.000000 1 0 0
5.783033 -9.013778 -0.728113 10.734142 -1.000365 1.638680 0.002931 -0.007577 520807.000000 1 0 0
-7.058467 5.455222 9.403687 12.961896 -0.657973 0.759055 0.009622 -0.000033 -96632.800000 1 0 0
-5.430867 -1.876078 5.128887 7.701914 0.332613 0.842065 0.003467 -0.005122 618473.000000 1 0 0
6.702033 -3.800478 -7.400613 10.683162 -0.515849 2.336072 0.004164 -0.006682 576613.000000 1 0 0
6.146333 4.785922 10.972087 13.456194 0.661594 0.617388 0.001613 0.000456 187935.000000 1 0 0
3.796633 -9.776278 3.282587 10.989332 -1.200372 1.267459 -0.002447 -0.001576 521150.000000 1 0 0
-6.677567 6.590922 -5.818513 11.040165 -0.778868 2.125900 0.004376 -0.002438 -461892.000000 1 0 0
-11.137267 8.417322 5.255987 14.916951 -0.647190 1.210715 0.005487 -0.003104 -102990.000000 1 0 0
-9.124567 -5.543978 5.023487 11.799527 0.545980 1.131021 0.004992 -0.004220 -1340400.000000 1 0 0
3.200933 9.744422 -8.054913 13.041524 1.253412 2.236529 0.001658 -0.000143 790783.000000 1 0 0
-8.058167 -8.678778 6.140887 13.340380 0.822461 1.092437 0.010593 -0.003745 -3201550.000000 1 0 0
-7.862667 -5.767878 -7.538813 12.325731 0.632908 2.228918 0.008244 -0.003754 -1085280.000000 1 0 0
9.287933 -1.488678 6.911587 11.672699 -0.158929 0.937115 0.014502 -0.006228 2452520.000000 1 0 0
-4.040467 -0.309878 -4.924913 6.377787 0.076544 2.453089 0.007423 -0.008892 -1090500.000000 1 0 0
9.092233 1.190122 -4.448713 10.191964 0.130154 2.022492 0.000384 -0.001208 -3379600.000000 1 0 0
-2.081567 -10.813378 10.617687 15.296972 1.380623 0.803622 0.007030 -0.003679 677431.000000 1 0 0
-12.862067 0.116422 -2.637313 13.130184 -0.009051 1.773031 0.001965 -0.002658 -807045.000000 1 0 0
-9.845767 -5.197478 -6.007413 12.650767 0.485710 2.065607 0.009008 -0.004862 -425045.000000 1 0 0
-5.863967 8.407422 -0.193213 10.252228 -0.961767 1.589643 0.003415 -0.000597 427266.000000 1 0 0
6.230533 9.613422 0.280487 11.459323 0.995753 1.546317 0.010254 -0.005911 402911.000000 1 0 0
-0.474167 -12.089378 0.006287 12.098675 1.531595 1.570277 0.009812 -0.002811 -213318.000000 1 0 0
6.074433 4.811622 2.329087 8.091668 0.669912 1.278828 0.000419 -0.002330 248440.000000 1 0 0
3.561233 -7.590378 -8.140013 11.685719 -1.132110 2.341413 0.001228 -0.006751 1014160.000000 1 0 0
-6.472867 -9.982978 4.750687 12.811202 0.995553 1.190901 0.007449 -0.002280 -2640590.000000 1 0 0
-0.018467 6.516022 -9.193313 11.268357 -1.567962 2.524997 0.006102 -0.002573 -1065860.000000 1 0 0
-17.232967 -2.811778 4.429187 18.013855 0.161738 1.322372 0.045588 -0.018215 601677.000000 1 0 0
-8.299767 0.868722 -9.309713 12.502462 -0.104288 2.410777 0.005556 -0.007493 660890.000000 1 0 0
-10.054067 -5.860078 -11.817513 16.585487 0.527719 2.363881 0.020224 -0.005254 -685956.000000 1 0 0
2.110033 9.494122 6.288887 11.581912 1.352105 0.996800 -0.004557 0.005083 189631.000000 1 0 0
-11.358267 1.503622 -1.207013 11.520764 -0.131616 1.675757 0.004452 -0.003667 -726498.000000 1 0 0
-5.978967 -5.441378 -3.041613 8.637595 0.738360 1.930649 0.015680 -0.004674 660229.000000 1 0 0
-6.839367 -8.333178 1.420787 10.873704 0.883537 1.439759 0.010291 -0.003404 -777450.000000 1 0 0
-0.014967 10.994822 -7.908413 13.543608 -1.569435 2.194348 0.006004 0.002606 303737.000000 1 0 0
-3.009767 9.210622 -4.179413 10.552807 -1.254963 1.978005 0.004059 -0.000157 -201967.000000 1 0 0
3.460933 -4.788178 9.355287 11.064633 -0.944926 0.563272 0.004581 -0.002531 -846557.000000 1 0 0
-8.950867 1.423522 -0.356513 9.070366 -0.157716 1.610112 0.003778 -0.002373 -1995530.000000 1 0 0
2.433333 3.512222 -10.366813 11.212833 0.964906 2.750647 0.003157 -0.002708 -626114.000000 1 0 0
-13.779867 0.309922 1.089787 13.826367 -0.022487 1.491895 0.000133 -0.005599 -171256.000000 1 0 0
9.549333 -12.467378 -4.957013 16.468067 -0.917168 1.876545 0.023652 -0.010345 -927896.000000 1 0 0
-4.739367 9.329722 -8.365413 13.397218 -1.100780 2.245178 0.007783 -0.000582 -962110.000000 1 0 0
-2.465267 7.137722 8.353387 11.260715 -1.238238 0.735021 0.001470 0.002471 -818065.000000 1 0 0
-10.715267 -1.288078 -4.462413 11.678580 0.119636 1.962867 0.003691 -0.002279 -3742460.000000 1 0 0
2.836033 -7.158978 9.587787 12.297143 -1.193613 0.676648 0.000296 0.000540 -759621.000000 1 0 0
-16.052367 -6.297078 3.528387 17.600602 0.373837 1.368959 0.022364 -0.009061 140407.000000 1 0 0
-10.859667 -0.026578 6.140487 12.475523 0.002447 1.056178 -0.002586 -0.002980 -1882960.000000 1 0 0
-8.510067 9.945322 9.411587 16.121683 -0.863011 0.947414 0.019576 -0.005428 412220.000000 1 0 0
0.277633 -6.110978 -3.688413 7.143215 -1.525396 2.113382 0.001107 -0.002946 282307.000000 1 0 0
4.867433 1.526222 -3.021413 5.928760 0.303848 2.105539 0.001168 -0.003012 -1562640.000000 1 0 0
0.392233 5.476722 3.630387 6.582404 1.499300 0.986600 -0.001185 0.002711 -3076460.000000 1 0 0
6.143133 -11.282278 -1.649613 12.951799 -1.072190 1.698509 0.003132 -0.005356 -299983.000000 1 0 0
6.262033 -13.277678 5.305687 15.609616 -1.130108 1.223987 0.004307 -0.005378 -763902.000000 1 0 0
8.242433 -8.151578 -5.825113 12.973737 -0.779856 2.036434 0.007338 -0.009895 558935.000000 1 0 0
-13.121167 -1.445778 -4.721213 14.019456 0.109744 1.914272 0.002145 -0.001781 -3552060.000000 1 0 0
-6.770967 -1.580978 -7.112313 9.946380 0.229384 2.367514 0.010999 -0.007036 -893838.000000 1 0 0
-5.828367 12.744522 -4.526413 14.726884 -1.141869 1.883211 0.004128 0.000164 -327032.000000 1 0 0
-4.368667 6.841522 -6.798813 10.588462 -1.002511 2.268026 0.007275 -0.000411 -2078090.000000 1 0 0
-9.445267 -3.734278 -8.124013 13.006056 0.376500 2.245458 0.006890 -0.003216 534973.000000 1 0 0
-2.091967 -6.482578 9.180087 11.431279 1.258641 0.638371 0.001015 -0.000494 -572640.000000 1 0 0
7.602833 -5.916278 10.044387 13.917440 -0.661286 0.764523 0.009150 -0.000770 661028.000000 1 0 0
9.630233 -4.903678 12.161587 16.269347 -0.470977 0.726483 0.025147 -0.006207 -616848.000000 1 0 0
-6.462667 2.712222 -9.009513 11.414619 -0.397352 2.480458 0.006685 -0.008424 -868199.000000 1 0 0
7.397733 5.531722 8.785487 12.747988 0.642065 0.810458 0.001558 -0.003335 830189.000000 1 0 0
12.685033 3.521822 11.177087 17.269643 0.270815 0.866877 0.059884 -0.009739 -137224.000000 1 0 0
-7.516567 -7.347478 -3.826413 11.185958 0.774023 1.919918 0.015758 -0.006173 -925946.000000 1 0 0
2.278333 1.364722 -5.792213 6.372048 0.539684 2.711683 0.001361 -0.005243 -228305.000000 1 0 0
12.770133 7.022022 -7.135313 16.226453 0.502750 2.026098 0.009881 0.001345 -352551.000000 1 0 0
0.838033 -7.847478 1.166287 7.977809 -1.464409 1.424079 0.000177 -0.002594 659270.000000 1 0 0
-10.326067 -6.051578 -8.478413 14.667404 0.530098 2.187127 0.015140 -0.007022 -244278.000000 1 0 0
-6.707767 0.158922 3.114587 7.397300 -0.023688 1.136201 0.004599 -0.006264 687063.000000 1 0 0
10.811433 -7.839578 1.340387 13.421725 -0.627386 1.470763 0.014598 -0.006911 -74463.400000 1 0 0
6.244133 1.052922 10.480687 12.245107 0.167054 0.543492 0.007227 -0.003092 641862.000000 1 0 0
-12.958467 5.249622 1.761187 14.091919 -0.384905 1.445490 0.005910 -0.001059 25631.300000 1 0 0
2.132533 7.473022 3.653887 8.587470 1.292820 1.131292 -0.006231 0.000982 -441230.000000 1 0 0
10.115433 -9.315378 -0.759213 13.772242 -0.744247 1.625951 0.011198 -0.006714 801573.000000 1 0 0
6.946433 -11.572178 -8.999713 16.222301 -1.030178 2.158888 0.002840 -0.008313 -407107.000000 1 0 0
10.246133 3.706422 11.932187 16.158524 0.347094 0.740034 0.020071 -0.005455 -1722200.000000 1 0 0
-11.012767 -3.164678 -1.957813 11.624511 0.279825 1.740024 0.002000 -0.001651 -600957.000000 1 0 0
12.501133 1.126722 6.797287 14.274135 0.089887 1.074473 0.014989 -0.006364 439139.000000 1 0 0
-9.664867 9.101822 3.039587 13.619542 -0.755405 1.345722 0.003224 -0.001980 -524398.000000 1 0 0
-6.725567 7.625422 -8.909713 13.518997 -0.848020 2.290353 0.005324 -0.003050 -854484.000000 1 0 0
8.398433 5.666022 11.933487 15.653932 0.593511 0.703888 0.013745 -0.002814 -498510.000000 1 0 0
1.205733 4.894522 -2.642113 5.691300 1.329262 2.053569 0.002492 -0.003931 94389.100000 1 0 0
1.278433 0.544822 9.538587 9.639288 0.402856 0.144673 0.000195 -0.002303 678567.000000 1 0 0
2.422533 12.572522 -3.993913 13.412245 1.380444 1.873164 0.008743 -0.007485 393250.000000 1 0 0
2.128733 0.680422 12.913287 13.105246 0.309374 0.171367 0.005970 -0.010382 212184.000000 1 0 0
-12.260267 -1.861578 0.835787 12.428925 0.150687 1.503500 0.000840 -0.001984 -163702.000000 1 0 0
3.174933 8.693922 -1.276813 9.343165 1.220654 1.707883 0.005121 -0.003601 243399.000000 1 0 0
3.630833 -2.853178 -5.777813 7.396397 -0.666034 2.467327 0.002372 -0.005958 -1164140.000000 1 0 0
-7.651167 -7.201278 9.216487 13.976495 0.755117 0.850739 0.004956 -0.004345 -112565.000000 1 0 0
-7.181967 10.865322 -3.390413 13.458483 -0.986728 1.825456 0.008353 0.000153 786732.000000 1 0 0
0.423133 0.535622 2.504887 2.596227 0.902193 0.266044 -0.005155 -0.000977 -1018000.000000 1 0 0
-7.196467 4.519722 -2.019113 8.734635 -0.560788 1.804068 0.005274 -0.000791 -1259530.000000 1 0 0
-6.858467 -3.992578 -5.902013 9.890046 0.527183 2.210257 0.010025 -0.004921 43619.100000 1 0 0
3.057833 -6.081778 13.557687 15.170671 -1.104922 0.465321 0.002476 -0.005203 -761642.000000 1 0 0
-5.467467 -0.526678 -11.408513 12.661941 0.096033 2.692884 0.011164 -0.008934 -480545.000000 1 0 0
11.838533 2.551022 -0.639913 12.127162 0.212239 1.623588 0.006336 -0.004489 -519084.000000 1 0 0
6.328233 -10.875678 10.816787 16.593065 -1.043814 0.860727 0.000195 0.003191 659894.000000 1 0 0
-8.206367 6.218822 -10.519413 14.719927 -0.648477 2.366902 0.002781 -0.002174 448187.000000 1 0 0
2.940633 7.994322 11.161387 14.040409 1.218317 0.651875 0.000290 0.004121 1036560.000000 1 0 0
-6.160767 -10.209478 -0.341613 11.929174 1.027854 1.599437 0.013280 -0.001906 -278874.000000 1 0 0
11.233633 4.315622 5.945787 13.422797 0.366786 1.111897 0.007433 -0.005835 124514.000000 1 0 0
-8.056167 10.604622 1.346387 13.385537 -0.921126 1.470041 0.002490 -0.004150 131086.000000 1 0 0
4.284533 -2.549378 -3.418013 6.044780 -0.536749 2.171773 0.003760 -0.006340 -5605050.000000 1 0 0
6.358633 6.414022 6.270987 10.995325 0.789735 0.963886 0.000356 -0.001953 -5730680.000000 1 0 0
-0.500467 10.283722 -10.303113 14.565697 -1.522169 2.356545 0.003492 0.001488 -1102070.000000 1 0 0
13.948033 6.656022 -2.448413 15.647523 0.445243 1.727915 0.015888 0.002592 594722.000000 1 0 0
1.325733 9.488322 -6.171313 11.396092 1.431972 2.143051 0.005385 -0.000707 119610.000000 1 0 0
0.574433 7.362622 7.104787 10.247740 1.492934 0.804734 -0.005770 0.005334 500247.000000 1 0 0
12.382433 6.247422 1.862587 13.993718 0.467272 1.437298 0.014399 -0.003504 -1522340.000000 1 0 0
-7.019867 6.658322 -3.235113 10.201850 -0.758972 1.893477 0.003521 -0.001127 17069.000000 1 0 0
0.992733 9.831722 11.115987 14.873246 1.470165 0.726684 -0.004153 0.006138 -157348.000000 1 0 0
-3.666767 13.707622 -11.034413 17.975048 -1.309418 2.231755 0.002382 0.006291 -81466.800000 1 0 0
-10.111267 -5.643578 -2.338413 11.813377 0.509077 1.770059 0.004936 -0.002225 78810.000000 1 0 0
-4.018367 3.876022 -12.518013 13.706621 -0.767369 2.722067 0.007972 -0.009383 -265943.000000 1 0 0
-3.199967 8.655022 2.557287 9.575433 -1.216659 1.300448 0.004830 0.001522 -2079960.000000 1 0 0
6.969733 8.931922 6.965387 13.299362 0.908173 1.019563 0.007852 0.001314 -663388.000000 1 0 0
-1.388767 -2.210878 -8.160713 8.568190 1.009934 2.831951 0.006427 -0.009157 -1594460.000000 1 0 0
0.938433 -1.361078 4.880887 5.153276 -0.967167 0.326587 0.001033 -0.001110 1388830.000000 1 0 0
2.727433 -8.790678 -5.982213 10.977330 -1.269950 2.147138 -0.001951 -0.006053 272129.000000 1 0 0
5.256033 3.982622 8.766187 10.969649 0.648426 0.644948 -0.001465 -0.000279 123241.000000 1 0 0
6.188433 -7.355578 -2.748213 9.997695 -0.871360 1.849266 0.004250 -0.007963 518603.000000 1 0 0
1.748233 2.161822 -8.246413 8.702477 0.890782 2.816414 0.004070 -0.005520 141279.000000 1 0 0
-5.581667 10.921222 -0.707413 12.285297 -1.098320 1.628410 0.003416 -0.003463 558371.000000 1 0 0
-5.477667 3.206422 -3.418313 7.209080 -0.529587 2.064815 0.002146 0.000866 -94168.300000 1 0 0
1.907333 13.713722 -6.342013 15.229091 1.432601 2.000323 0.003881 -0.002562 148875.000000 1 0 0
-5.318467 -2.633978 2.666187 6.506342 0.459841 1.148580 -0.003092 -0.004458 216502.000000 1 0 0
10.422533 -3.302078 -1.801413 11.080523 -0.306817 1.734096 0.005045 -0.002789 187374.000000 1 0 0
2.329933 -3.251078 7.080087 8.131773 -0.948973 0.514234 0.000171 -0.000487 -2493670.000000 1 0 0
-2.896567 9.842622 -11.708613 15.567881 -1.284588 2.422040 0.006852 0.002101 -2624290.000000 1 0 0
0.513633 -1.965578 9.255087 9.475440 -1.315198 0.216082 0.001123 -0.002179 428003.000000 1 0 0
9.412733 2.617322 4.903287 10.931246 0.271211 1.105646 0.007061 -0.002892 -1024300.000000 1 0 0
13.369233 2.143122 -4.948513 14.415864 0.158950 1.921191 0.004883 0.001747 -958206.000000 1 0 0
-6.540467 3.661722 7.600687 10.675035 -0.510379 0.778446 0.007543 0.000084 99870.100000 1 0 0
10.643933 0.094022 1.896887 10.812045 0.008833 1.394442 0.010941 -0.002234 2106180.000000 1 0 0
15.268733 6.821222 -4.573413 17.337225 0.420143 1.837747 0.013927 0.000749 -1431360.000000 1 0 0
8.170333 -4.881378 -9.424713 13.394305 -0.538544 2.351298 0.007678 -0.008415 1817740.000000 1 0 0
4.368433 5.619722 -2.134013 7.430914 0.910026 1.862078 0.002141 -0.003334 -145777.000000 1 0 0
-1.595167 -10.477878 1.461287 10.698871 1.419715 1.433785 0.007871 -0.003604 -961866.000000 1 0 0
-2.889067 12.191522 -12.830213 17.933050 -1.338115 2.368065 0.006939 -0.000339 -62506.200000 1 0 0
8.308933 4.288222 -9.608913 13.407401 0.476443 2.369837 -0.002191 0.003301 -1119000.000000 1 0 0
4.102433 7.635522 -9.036813 12.521786 1.077769 2.377033 0.002456 0.000660 -2901150.000000 1 0 0
-1.750967 -5.153578 -2.321713 5.917398 1.243275 1.973985 0.002563 -0.004934 -1194330.000000 1 0 0
-3.224867 -9.239478 7.041887 12.056364 1.234985 0.947049 0.003838 -0.001769 -2337210.000000 1 0 0
1.008033 7.266922 -1.372913 7.463858 1.432961 1.755791 0.004313 -0.003610 659834.000000 1 0 0
0.313433 -0.710378 -2.280613 2.409164 -1.155268 2.813444 0.002707 -0.003765 -1235620.000000 1 0 0
4.119433 -6.566978 7.441787 10.745935 -1.010548 0.805818 0.003380 -0.001406 -203706.000000 1 0 0
-13.990067 3.819622 5.890987 15.652962 -0.266528 1.184943 0.000315 -0.005947 -724789.000000 1 0 0
4.190933 6.340422 12.655587 14.762410 0.986737 0.540824 0.006304 0.000148 -1521710.000000 1 0 0
8.255233 10.084322 -7.205913 14.891863 0.884804 2.075882 0.025303 -0.004744 105341.000000 1 0 0
12.416033 5.368322 9.396487 16.470298 0.408097 0.963668 0.037788 -0.011598 13171.100000 1 0 0
7.531533 4.062722 0.267287 8.561608 0.494691 1.539572 0.002141 -0.000965 -1708830.000000 1 0 0
-10.864067 -7.709078 -1.031613 13.361215 0.617136 1.648083 0.008594 -0.001352 -314926.000000 1 0 0
10.438433 6.832022 0.105387 12.475917 0.579537 1.562349 0.007945 -0.004856 -592313.000000 1 0 0
14.633933 3.638922 4.229187 15.661410 0.243720 1.297363 0.026576 -0.010842 657852.000000 1 0 0
2.080333 5.597522 8.154887 10.107533 1.214964 0.632059 -0.006671 0.001764 -120430.000000 1 0 0
4.361833 0.194722 11.729887 12.516140 0.044613 0.356337 0.007499 -0.004628 -2440550.000000 1 0 0
-1.497467 -1.659878 -0.546113 2.301270 0.836792 1.810391 0.003488 -0.005371 -907972.000000 1 0 0
3.169633 -5.376878 -9.428613 11.307348 -1.038138 2.556839 0.001059 -0.005496 348006.000000 1 0 0
-3.987467 -5.387378 -1.317713 6.830820 0.933629 1.764920 0.005456 -0.004186 -2090200.000000 1 0 0
-1.236167 -8.789178 8.693387 12.423878 1.431066 0.795774 0.003082 -0.001320 226416.000000 1 0 0
3.824533 8.629222 -5.847713 11.103435 1.153606 2.125461 0.004886 -0.001284 250299.000000 1 0 0
-14.286467 -1.892278 -2.691813 14.660481 0.131686 1.755454 0.002504 -0.005588 -835834.000000 1 0 0
8.903433 -10.481578 -6.568013 15.240518 -0.866630 2.016350 0.002679 -0.009693 -104128.000000 1 0 0
14.811033 6.178922 1.637287 16.131537 0.395232 1.469125 0.011454 -0.004351 -3262130.000000 1 0 0
-5.747267 0.377422 -8.534313 10.296020 -0.065576 2.547925 0.012147 -0.010665 -697642.000000 1 0 0
-8.059267 -4.543578 -13.008013 15.962590 0.513354 2.523364 0.014840 -0.002294 938780.000000 1 0 0
0.997133 -10.589678 12.079387 16.094942 -1.476912 0.721965 -0.004574 -0.001304 -219044.000000 1 0 0
0.207833 11.727222 3.263987 12.174750 1.553076 1.299381 0.003592 -0.001972 -1623130.000000 1 0 0
5.189333 -13.194278 -3.702213 14.653482 -1.196078 1.826215 0.011132 -0.005183 48524.800000 1 0 0
-7.609967 1.425522 -7.048613 10.470275 -0.185177 2.309327 0.001543 -0.003868 1078230.000000 1 0 0
1.414933 2.830122 4.054887 5.143320 1.107185 0.662626 -0.004172 0.000505 -369326.000000 1 0 0
17.169033 5.499422 2.035587 18.142848 0.309985 1.458362 0.019514 -0.013869 -1193070.000000 1 0 0
2.391133 -8.064978 -3.390813 9.069675 -1.282569 1.953967 -0.000874 -0.005459 106192.000000 1 0 0
-0.401667 -9.372978 -0.597013 9.400557 1.527969 1.634347 0.006123 -0.002274 -891234.000000 1 0 0
0.587433 11.808722 -5.576613 13.072475 1.521092 2.011518 0.005769 -0.001257 -894348.000000 1 0 0
6.164133 -5.038578 7.828787 11.165738 -0.685263 0.793796 0.004889 -0.002545 -1148090.000000 1 0 0
-6.018867 -2.072978 -9.354613 11.315157 0.331689 2.544072 0.014494 -0.008527 -125708.000000 1 0 0
2.198133 -1.222578 11.125087 11.405878 -0.507583 0.222350 0.000765 -0.004672 -426708.000000 1 0 0
18.009133 2.145422 -5.833313 19.051489 0.118571 1.881981 0.065028 -0.000129 484838.000000 1 0 0
-8.935467 4.755122 7.836187 12.800765 -0.489045 0.912000 0.008876 -0.003624 552594.000000 1 0 0
11.343533 -7.092078 -4.793713 14.211016 -0.558750 1.914869 0.019612 -0.006856 384982.000000 1 0 0
10.939733 0.581522 8.859187 14.089043 0.053107 0.890788 0.012439 -0.004028 -38945.800000 1 0 0
-8.402167 -7.448878 -1.559213 11.336372 0.725330 1.708774 0.012818 -0.003078 -474988.000000 1 0 0
10.402933 -10.402578 -3.191313 15.053874 -0.785381 1.784410 0.016688 -0.009614 200634.000000 1 0 0
7.732733 -13.802078 -3.736913 16.255984 -1.060111 1.802750 0.018403 -0.010078 -579113.000000 1 0 0
1.596033 -1.269878 -11.681013 11.857739 -0.672081 2.968728 0.008090 -0.007323 28326.700000 1 0 0
-11.856067 -2.713778 -6.385513 13.737019 0.225017 2.054250 0.006614 -0.003863 119286.000000 1 0 0
2.901733 -11.975878 -6.236713 13.810803 -1.333080 2.039334 0.003340 -0.005503 212376.000000 1 0 0
-5.612467 1.397422 1.097987 5.887118 -0.244023 1.383191 0.005286 -0.003697 562397.000000 1 0 0
0.067533 6.799022 -3.967313 7.872155 1.560864 2.098983 0.006425 -0.002706 1327880.000000 1 0 0
5.440133 -11.724478 3.607487 13.419106 -1.136363 1.298616 -0.002819 -0.004911 -2615580.000000 1 0 0
-4.372567 -9.301978 1.177787 10.345691 1.131379 1.456706 0.009096 -0.002528 -2002120.000000 1 0 0
6.924133 -6.042678 -4.871613 10.401451 -0.717525 2.058229 0.004545 -0.009848 -247341.000000 1 0 0
-6.959467 -6.051278 2.319087 9.509486 0.715708 1.324441 0.006665 -0.005941 348747.000000 1 0 0
-6.382867 -1.051878 7.030787 9.554026 0.163329 0.743805 0.003227 -0.003171 -1920060.000000 1 0 0
4.210833 -4.984178 3.198887 7.266775 -0.869306 1.114967 0.001669 -0.003527 -39987.200000 1 0 0
-2.531667 10.493022 -8.764413 13.904236 -1.334049 2.252789 0.002791 0.002469 127947.000000 1 0 0
-2.204467 -4.992578 2.764187 6.117699 1.154993 1.101976 0.001044 -0.000689 935723.000000 1 0 0
15.112433 5.107922 6.348987 17.169337 0.325940 1.192017 0.047241 -0.018810 1598360.000000 1 0 0
6.815533 0.405822 0.068987 6.827953 0.059473 1.560692 0.007587 -0.002947 3205020.000000 1 0 0
-9.810167 9.097322 0.389987 13.384795 -0.747714 1.541656 0.001283 -0.002369 -1854770.000000 1 0 0
7.182633 10.396222 -2.567413 12.894311 0.966212 1.771248 0.006282 -0.006032 -127467.000000 1 0 0
1.666033 -4.337578 -5.436513 7.151637 -1.204078 2.434382 0.002042 -0.006519 -559090.000000 1 0 0
0.942433 -8.086578 -7.771713 11.255241 -1.454777 2.332973 0.000108 -0.002387 921074.000000 1 0 0
-10.465967 0.195422 -10.410713 14.763387 -0.018670 2.353461 0.004636 -0.006734 -3289220.000000 1 0 0
5.755033 -2.384978 0.516887 6.251056 -0.392872 1.488014 0.004777 -0.003316 -37589.100000 1 0 0
-3.403567 5.197222 -1.079013 6.305526 -0.990997 1.742764 0.004588 -0.003393 921566.000000 1 0 0
-0.367367 4.441922 -5.004013 6.701177 -1.488280 2.413938 0.003279 -0.004458 -1114490.000000 1 0 0
4.152133 -9.664178 10.095587 14.579349 -1.165001 0.805906 -0.003769 0.001224 -3647960.000000 1 0 0
7.412733 -13.390378 -0.729813 15.322645 -1.065204 1.618444 0.019837 -0.008507 654891.000000 1 0 0
13.053133 -0.057178 0.526887 13.063887 -0.004380 1.530454 0.005574 -0.005948 506364.000000 1 0 0
9.303833 2.491422 -0.638713 9.652795 0.261646 1.637013 0.005386 -0.003211 -865503.000000 1 0 0
-0.700767 -5.838378 4.552387 7.436529 1.451340 0.912000 -0.000086 -0.000157 -413769.000000 1 0 0
11.617033 -3.653978 3.442687 12.655398 -0.304739 1.295291 0.015183 -0.008138 -1960680.000000 1 0 0
1.806633 -8.115678 11.818187 14.449834 -1.351758 0.613085 -0.006746 -0.000775 249607.000000 1 0 0
9.401033 -5.721478 -5.779713 12.430600 -0.546720 2.054384 0.006081 -0.010205 -1017050.000000 1 0 0
3.126433 6.332722 -0.078813 7.062872 1.112205 1.581955 -0.000507 -0.000847 -288705.000000 1 0 0
6.389233 -1.356578 11.478387 13.206664 -0.209216 0.517344 0.006982 -0.001981 230633.000000 1 0 0
-4.931567 -7.658778 -3.815513 9.876000 0.998714 1.967459 0.013167 -0.004089 -511205.000000 1 0 0
-3.336667 -8.437378 -5.678913 10.703866 1.194208 2.130043 0.012138 -0.001176 -130809.000000 1 0 0
9.822033 5.374422 2.180787 11.406690 0.500676 1.378427 0.007149 -0.005346 731960.000000 1 0 0
8.821333 -1.355578 0.346187 8.931593 -0.152478 1.532027 0.008072 -0.003316 1323760.000000 1 0 0
-4.070867 9.616722 9.196987 13.915383 -1.170357 0.848749 0.004095 0.002210 125747.000000 1 0 0
-14.317567 -3.638878 -6.093713 15.980222 0.248885 1.962029 0.013269 -0.006875 -180760.000000 1 0 0
10.556333 6.315022 -5.973913 13.674915 0.539111 2.022892 0.002757 -0.000851 -1772120.000000 1 0 0
-1.795967 4.519822 2.620087 5.524414 -1.192573 1.076657 0.001737 -0.000266 376567.000000 1 0 0
7.105033 -3.588678 2.612187 8.377567 -0.467711 1.253702 0.008470 -0.006264 -977584.000000 1 0 0
8.485933 -11.135278 -1.638413 14.095739 -0.919611 1.687294 0.013274 -0.008751 -2107310.000000 1 0 0
4.529733 0.510522 1.806787 4.903427 0.112231 1.193429 0.002497 -0.001190 492609.000000 1 0 0
-10.900967 2.184022 3.770387 11.739543 -0.197733 1.243832 0.003290 -0.003568 28040.300000 1 0 0
-0.789467 -3.129078 4.446287 5.493984 1.323654 0.627835 0.001202 -0.001681 513182.000000 1 0 0
8.644933 -8.669078 -8.436213 14.868001 -0.786793 2.174150 0.009642 -0.010342 -393167.000000 1 0 0
12.202333 -4.612478 1.104387 13.091660 -0.361398 1.486338 0.013097 -0.005602 129362.000000 1 0 0
2.902133 4.916122 3.483887 6.687907 1.037518 1.022864 -0.006211 0.000001 -932104.000000 1 0 0
6.016533 7.490722 1.897687 9.793406 0.894108 1.375791 0.001166 -0.002657 -400177.000000 1 0 0
-1.823967 -1.324478 -10.150113 10.397398 0.628063 2.923060 0.008581 -0.006387 1363050.000000 1 0 0
-0.881267 -8.601878 6.081687 10.571464 1.468702 0.957834 -0.000416 -0.000510 -514399.000000 1 0 0
-4.241867 -0.365678 2.288387 4.833619 0.085994 1.077614 0.001651 -0.003762 631291.000000 1 0 0
-8.440167 6.099822 -7.974613 13.116352 -0.625808 2.224323 0.001159 -0.001570 -924736.000000 1 0 0
6.421333 11.148522 -9.375913 15.919510 1.048225 2.200564 0.010675 -0.006300 24101.600000 1 0 0
-11.108367 -5.749778 3.050687 12.874877 0.477634 1.331572 0.007382 -0.003053 1261170.000000 1 0 0
1.555133 -6.250578 3.122587 7.158122 -1.326949 1.119392 0.000256 -0.001475 677636.000000 1 0 0
10.142833 2.268522 7.224687 12.657779 0.220036 0.963352 0.009269 -0.002047 -1682090.000000 1 0 0
-4.116267 -2.680778 -10.617613 11.698886 0.577264 2.708268 0.011331 -0.009302 -4696770.000000 1 0 0
-8.403167 11.722322 5.882887 15.576727 -0.948850 1.183516 0.011971 -0.007907 -37595.400000 1 0 0
6.803533 6.075722 -2.889513 9.568267 0.728948 1.877575 0.003355 -0.002399 -1559250.000000 1 0 0
3.928033 -9.802478 -2.296413 10.807013 -1.189671 1.784922 0.000761 -0.008130 -1527270.000000 1 0 0
8.608333 -12.855578 -7.253113 17.087332 -0.980753 2.009176 0.014253 -0.010274 1428150.000000 1 0 0
-1.077467 9.478622 3.606587 10.198661 -1.457609 1.209344 0.006574 -0.001312 -322485.000000 1 0 0
0.594133 -13.282878 4.712087 14.106439 -1.526097 1.230212 0.010252 -0.003076 -1001810.000000 1 0 0
-11.288167 -7.101678 -5.031913 14.254006 0.561561 1.931591 0.014886 -0.007233 151010.000000 1 0 0
3.492833 10.284922 -3.447713 11.395886 1.243410 1.878153 0.007987 -0.004714 -518662.000000 1 0 0
11.651233 -8.111178 -7.284613 15.956441 -0.608147 2.044889 0.029094 -0.009007 358242.000000 1 0 0
11.896333 -4.882278 -5.898013 14.147294 -0.389441 2.000829 0.011752 -0.003662 256628.000000 1 0 0
1.315833 -10.337778 -2.567713 10.732857 -1.444193 1.812378 0.001728 -0.003719 -562128.000000 1 0 0
2.515733 -12.070978 -3.806513 12.904533 -1.365326 1.870226 0.003398 -0.003526 -1498760.000000 1 0 0
-7.530867 -5.626578 7.145887 11.808304 0.641665 0.920832 0.005382 -0.001488 -3229670.000000 1 0 0
-7.201267 -0.734678 9.469187 11.919040 0.101669 0.652680 0.006085 -0.002018 1087910.000000 1 0 0
16.144533 2.625022 -7.577713 18.026603 0.161185 2.004641 0.053348 0.001084 1038210.000000 1 0 0
-2.084967 6.209922 -5.495213 8.550297 -1.246874 2.268804 0.002266 0.000946 -766761.000000 1 0 0
7.679933 1.262022 8.328087 11.398733 0.162872 0.751574 0.011310 -0.003942 -861161.000000 1 0 0
7.842533 8.247022 -3.768513 11.988343 0.810533 1.890566 0.005513 -0.001337 -870554.000000 1 0 0
7.964133 0.596922 3.987787 8.926711 0.074811 1.107695 0.003589 -0.003515 -111928.000000 1 0 0
-7.058967 5.750922 5.433687 10.603164 -0.683639 1.032750 0.008620 -0.003587 575069.000000 1 0 0
-5.970267 -1.992478 -4.568713 7.777351 0.322111 2.198686 0.010189 -0.007195 -688821.000000 1 0 0
-15.064067 -2.138878 3.131687 15.534104 0.141043 1.367804 0.009129 -0.007672 -2133190.000000 1 0 0
1.095933 1.194622 -10.551613 10.675426 0.828457 2.989143 0.006780 -0.008850 302439.000000 1 0 0
1.661733 -9.302878 9.449587 13.364116 -1.394035 0.785427 -0.001371 -0.000671 -145970.000000 1 0 0
-0.098967 -6.745078 -1.074513 6.830845 1.556125 1.728755 0.001401 -0.002612 655843.000000 1 0 0
-0.365767 -10.182378 -8.374513 13.188899 1.534890 2.258762 0.001381 -0.002638 -294016.000000 1 0 0
-4.270267 6.443522 3.569787 8.514549 -0.985529 1.138169 0.006155 0.002364 -507478.000000 1 0 0
10.825033 -1.172878 -8.603213 13.877040 -0.107928 2.239488 0.004441 -0.003061 245040.000000 1 0 0
3.159633 -0.987878 6.275987 7.095576 -0.303027 0.485390 0.000228 0.000344 431273.000000 1 0 0
2.184733 -12.454078 6.726987 14.322342 -1.397140 1.081863 -0.001567 0.000349 355132.000000 1 0 0
2.865133 -4.968978 -1.361613 5.895228 -1.047757 1.803869 0.007345 -0.004006 -1794240.000000 1 0 0
-1.253867 9.570022 -1.625813 9.787787 -1.440518 1.737676 0.005146 -0.002790 592292.000000 1 0 0
4.592133 -2.526278 2.696787 5.894271 -0.502944 1.095584 0.004435 -0.002237 -1599990.000000 1 0 0
17.730533 6.566222 -2.670113 19.094936 0.354674 1.711090 0.010863 -0.000052 263393.000000 1 0 0
-7.128067 3.393322 -5.474113 9.606762 -0.444305 2.177082 0.005003 -0.003030 -296657.000000 1 0 0
-13.780867 -5.953978 2.359987 15.196437 0.407824 1.414866 0.000947 -0.002460 -898468.000000 1 0 0
6.758233 -5.984778 3.251787 9.595072 -0.724776 1.225047 0.006163 -0.006173 1295130.000000 1 0 0
-4.590767 1.929822 3.486787 6.079230 -0.397943 0.959954 0.006608 -0.004213 842838.000000 1 0 0
6.988733 -11.953278 -5.321813 14.833912 -1.041725 1.937735 0.010501 -0.009117 -303936.000000 1 0 0
2.929833 -12.293478 3.282987 13.057240 -1.336837 1.316638 0.002903 -0.002941 -1040090.000000 1 0 0
3.170733 11.313422 -6.111113 13.243593 1.297544 2.050413 0.002476 0.000479 -121548.000000 1 0 0
-5.531967 -8.413678 6.555487 12.015284 0.989169 0.993697 0.005233 -0.003216 -246931.000000 1 0 0
-4.082867 6.431722 6.191787 9.817081 -1.005180 0.888321 0.007196 0.000920 528251.000000 1 0 0
4.262933 4.252022 -6.815313 9.093997 0.784117 2.417997 0.000865 -0.001087 -1708690.000000 1 0 0
-0.320367 -2.724778 1.560287 3.156192 1.453758 1.053701 0.000773 -0.002946 -410618.000000 1 0 0
-13.240767 -1.023478 6.797387 14.918777 0.077144 1.097721 0.005844 0.000192 -451923.000000 1 0 0
-0.520767 -9.233978 -5.850713 10.943874 1.514459 2.134843 0.003854 -0.002549 226577.000000 1 0 0
2.045433 -1.668578 -3.972613 4.769654 -0.684276 2.555111 0.002509 -0.004220 -1452470.000000 1 0 0
11.388833 -1.914578 1.136187 11.604398 -0.166553 1.472729 0.011579 -0.006183 1005290.000000 1 0 0
0.442833 -4.202178 -1.939513 4.649313 -1.465802 2.001116 0.000899 -0.003892 -1513550.000000 1 0 0
1.152533 -7.279178 -11.143913 13.360447 -1.413767 2.557291 -0.003156 0.000029 388264.000000 1 0 0
-4.483567 4.136622 -10.022113 11.732722 -0.745172 2.594810 0.007021 -0.008611 340393.000000 1 0 0
-1.130967 5.811522 -2.141713 6.296015 -1.378591 1.917894 0.003236 -0.003147 -1688320.000000 1 0 0
-11.252167 1.647822 -3.865613 12.011226 -0.145411 1.898462 0.003994 -0.000704 -85147.800000 1 0 0
-1.674267 -11.314978 4.130587 12.161153 1.423893 1.224247 0.013281 -0.001898 27102.200000 1 0 0
-3.510967 -5.499278 -9.648313 11.647269 1.002590 2.546998 0.007291 -0.001487 -1711320.000000 1 0 0
-12.868367 -3.787978 -8.424413 15.840277 0.286278 2.131562 0.018676 -0.004699 -349500.000000 1 0 0
11.287233 4.501722 0.445787 12.160010 0.379500 1.534128 0.008527 -0.003148 -288103.000000 1 0 0
-8.854467 -2.441378 -3.081913 9.688142 0.269038 1.894534 0.007606 -0.003045 109479.000000 1 0 0
-2.513867 -5.995678 -6.412913 9.131984 1.173781 2.349346 0.005386 -0.004804 261981.000000 1 0 0
0.033433 2.617122 -1.926013 3.249611 1.558022 2.205191 0.002685 -0.003415 839490.000000 1 0 0
7.998433 6.002422 -5.148913 11.247902 0.643789 2.046278 0.000843 -0.000588 -685193.000000 1 0 0
-9.753767 -1.068278 -0.883813 9.851818 0.109090 1.660628 0.002886 -0.004491 -165861.000000 1 0 0
6.202733 0.483522 -8.824513 10.797208 0.077796 2.527499 -0.001850 -0.001890 461093.000000 1 0 0
-4.076567 2.391122 7.890087 9.197247 -0.530473 0.539677 0.003608 0.001371 -1058460.000000 1 0 0
-10.178967 -3.406078 1.334887 10.816407 0.322907 1.447068 0.001923 -0.003867 3278150.000000 1 0 0
-1.749567 -8.120378 -7.723013 11.342242 1.358586 2.319797 0.004734 -0.003225 -272604.000000 1 0 0
-9.325267 -9.857478 4.181787 14.199219 0.813135 1.271855 0.006746 -0.000658 -345683.000000 1 0 0
-1.066067 -10.819578 7.356787 13.127151 1.472582 0.975897 0.007029 -0.001665 -210859.000000 1 0 0
9.533733 3.895922 -3.828513 10.987619 0.387938 1.926701 0.000407 -0.001912 -887486.000000 1 0 0
12.919933 -0.710278 3.079787 13.300912 -0.054920 1.337129 0.011042 -0.007086 -479059.000000 1 0 0
6.497233 11.891422 -6.843013 15.180473 1.070737 2.038432 0.011061 -0.002338 -167076.000000 1 0 0
-11.818267 -0.126078 -6.583613 13.528906 0.010668 2.079028 0.004461 -0.000167 186003.000000 1 0 0
-7.603867 -6.624678 -11.405313 15.224530 0.716688 2.417560 0.019381 -0.004336 -1943310.000000 1 0 0
4.120133 5.988122 6.538887 9.777021 0.968135 0.838201 -0.005052 0.000654 -3907970.000000 1 0 0
-4.251067 -1.462878 -7.397413 8.656402 0.331427 2.595499 0.009117 -0.010983 19674.100000 1 0 0
9.570633 9.291322 0.875687 13.367592 0.770591 1.505241 0.015026 -0.004891 -1784000.000000 1 0 0
-8.982667 3.873122 4.850887 10.918814 -0.407091 1.110438 0.006635 -0.003155 1062580.000000 1 0 0
-6.994367 7.784222 -12.179013 16.057510 -0.838793 2.431746 -0.000217 -0.003269 -506064.000000 1 0 0
11.297933 -3.489078 7.311187 13.902173 -0.299533 1.017020 0.019284 -0.007045 670376.000000 1 0 0
11.824433 6.958422 6.329987 15.109785 0.531905 1.138526 0.014481 -0.009589 316354.000000 1 0 0
-9.981667 -0.768378 -14.864513 17.921435 0.076827 2.548877 0.015491 0.000669 323084.000000 1 0 0
1.824633 -12.949078 12.094087 17.812211 -1.430810 0.824428 -0.001057 -0.002245 26831.500000 1 0 0
2.943033 3.095022 13.055387 13.736220 0.810565 0.316164 -0.000442 -0.006378 -953389.000000 1 0 0
-2.546767 -1.339578 10.999787 11.369952 0.484224 0.255870 0.005172 -0.001342 -783150.000000 1 0 0
2.542933 -10.106478 -8.232013 13.280566 -1.324299 2.239353 -0.003960 -0.003165 -782950.000000 1 0 0
13.893333 3.670522 -7.518113 16.217874 0.258292 2.052816 0.008136 0.002910 -2882530.000000 1 0 0
7.389733 -1.594778 4.955587 9.039320 -0.212550 0.990555 0.009413 -0.003458 493423.000000 1 0 0
-1.298967 8.711122 10.072087 13.379757 -1.422771 0.718513 -0.002294 0.002361 410400.000000 1 0 0
-12.274867 -4.708078 0.860487 13.174931 0.366249 1.505437 0.004736 -0.002213 227135.000000 1 0 0
-4.941767 4.851422 -5.324913 8.735677 -0.776173 2.226301 0.006316 -0.003946 -189312.000000 1 0 0
-11.232667 0.230622 1.971587 11.406715 -0.020528 1.397079 0.000044 -0.003319 -3004790.000000 1 0 0
-1.387967 2.151422 -4.089213 4.824596 -0.997846 2.582197 0.004474 -0.007163 742390.000000 1 0 0
3.306933 -9.746878 13.130787 16.683975 -1.243702 0.664817 -0.003506 -0.000867 -2921500.000000 1 0 0
8.945333 4.726022 -1.494113 10.226761 0.486048 1.717419 0.004281 -0.004463 -1392160.000000 1 0 0
4.048033 2.328422 3.808287 6.025875 0.521983 0.886679 -0.005177 0.002653 705768.000000 1 0 0
-5.347967 -3.302478 7.382487 9.695784 0.553203 0.705308 0.003140 -0.002945 -35459.600000 1 0 0
1.707433 -5.641378 7.889987 9.848471 -1.276899 0.641601 -0.000899 0.000695 -772440.000000 1 0 0
-5.868267 -6.378078 -9.684613 12.996467 0.827004 2.411590 0.013139 -0.003671 -191260.000000 1 0 0
-11.600867 -5.915778 5.449487 14.116425 0.471570 1.174463 0.003734 -0.006058 -1904610.000000 1 0 0
10.548633 6.195522 4.391787 12.997921 0.531051 1.226129 0.008110 -0.003503 -392179.000000 1 0 0
1.336933 -3.750878 0.352587 3.997598 -1.228403 1.482482 0.008511 -0.002726 -903752.000000 1 0 0
8.836033 4.461322 6.829587 12.025894 0.467561 0.966836 0.008750 -0.002307 -629454.000000 1 0 0
-8.074067 12.057722 3.399387 14.904196 -0.980753 1.340688 0.007453 -0.008577 -447039.000000 1 0 0
-6.336667 13.102422 -7.019313 16.158514 -1.120334 2.020172 0.011114 -0.003326 316458.000000 1 0 0
4.469533 -6.924678 -0.925613 8.293651 -0.997626 1.682634 0.002400 -0.006104 -110090.000000 1 0 0
-1.863967 -8.250078 11.081887 13.940817 1.348594 0.651914 0.001252 -0.001828 -535118.000000 1 0 0
11.577133 8.881822 -5.775413 15.693061 0.654410 1.947679 0.029851 -0.004716 200759.000000 1 0 0
-3.331767 -3.024478 -1.907513 4.887407 0.737091 1.971744 0.006624 -0.005991 -3625200.000000 1 0 0
-2.022167 5.928222 4.705687 7.834314 -1.242064 0.926481 0.001073 0.000734 74857.300000 1 0 0
0.555533 -11.270378 -5.520713 12.562178 -1.521545 2.025806 0.000538 -0.001696 945214.000000 1 0 0
-8.961567 6.180222 -1.578013 10.999771 -0.603737 1.714752 0.003061 0.001488 -158412.000000 1 0 0
2.933633 -0.025678 3.934287 4.907696 -0.008753 0.640735 -0.000339 -0.000033 -112779.000000 1 0 0
-10.088367 3.799922 -0.984513 10.825148 -0.360228 1.661869 0.006899 -0.000720 -132421.000000 1 0 0
6.432833 5.650322 13.464487 15.956187 0.720728 0.566394 0.017800 -0.005890 -1544440.000000 1 0 0
-8.855367 -1.588578 5.579387 10.586344 0.177504 1.015687 0.001197 -0.003214 -35539.100000 1 0 0
12.999233 -1.677078 -1.485513 13.190883 -0.128305 1.683652 0.008850 -0.005169 -1023900.000000 1 0 0
5.515233 -5.471078 5.419487 9.472134 -0.781379 0.961671 -0.001560 -0.003925 219339.000000 1 0 0
-9.116067 -1.307178 3.081387 9.711145 0.142422 1.247911 0.001698 -0.005126 199562.000000 1 0 0
1.945533 5.385722 5.555987 7.978728 1.224144 0.800497 -0.004355 0.001146 -1212140.000000 1 0 0
9.198833 2.993522 -7.455913 12.213531 0.314615 2.227442 -0.001781 -0.000480 -885841.000000 1 0 0
2.256133 -2.359078 -1.497713 3.591452 -0.807700 2.000962 0.002957 -0.004244 -68023.000000 1 0 0
-6.209567 0.284522 -3.922613 7.350277 -0.045788 2.133729 0.004358 -0.002564 -1086110.000000 1 0 0
-4.038067 4.122122 4.817287 7.516923 -0.795698 0.875180 0.005734 -0.001513 346153.000000 1 0 0
-6.447667 1.679422 -12.296613 13.985691 -0.254808 2.645036 0.008232 -0.005996 -3648650.000000 1 0 0
-0.118667 3.143122 6.166187 6.922078 -1.533060 0.471694 -0.002760 0.000592 843902.000000 1 0 0
-8.831867 9.338222 -2.122313 13.027221 -0.813258 1.734439 0.003787 -0.000136 823045.000000 1 0 0
-1.339667 -3.700578 -6.082213 7.244467 1.223457 2.567281 0.001008 -0.006725 446282.000000 1 0 0
-3.500267 7.052422 -2.829113 8.366146 -1.110096 1.915759 0.005350 0.000596 1166760.000000 1 0 0
6.997533 -0.271778 -4.209213 8.170483 -0.038820 2.112006 0.005315 -0.002426 -278081.000000 1 0 0
-5.078567 -10.990878 7.021287 13.996061 1.137950 1.045278 0.004653 -0.001917 -64594.000000 1 0 0
9.680433 8.405122 -1.493113 12.906829 0.714999 1.686740 0.009745 -0.002715 172838.000000 1 0 0
13.723833 4.747422 -4.286113 15.141082 0.333040 1.857799 0.003790 -0.000512 529794.000000 1 0 0
4.736833 0.961422 -6.815113 8.355099 0.200247 2.524705 -0.001306 -0.003053 -763861.000000 1 0 0
9.120233 -4.653878 3.592487 10.850954 -0.471838 1.233353 0.013397 -0.007747 88638.300000 1 0 0
-8.650867 -3.422278 -0.808813 9.338290 0.376707 1.657517 0.005685 -0.003502 811632.000000 1 0 0
-8.556567 -4.265778 -10.402413 14.128761 0.462478 2.398320 0.011177 -0.006157 164608.000000 1 0 0
10.636933 -0.998978 10.777187 15.175311 -0.093641 0.781044 0.023659 -0.004882 1142880.000000 1 0 0
2.409433 -11.597978 10.002087 15.503555 -1.365964 0.869579 -0.003369 0.000867 1146820.000000 1 0 0
-6.357367 -10.594378 2.137387 12.538955 1.030325 1.399500 0.009170 -0.001543 -1124270.000000 1 0 0
-3.774267 -1.169878 6.832587 7.892906 0.300571 0.524325 0.004929 0.000814 -2318230.000000 1 0 0
4.772133 -7.497878 3.903687 9.707224 -1.003995 1.156941 -0.001682 -0.001893 388205.000000 1 0 0
11.530633 -9.533578 -5.295813 15.871050 -0.690873 1.910998 0.020923 -0.011612 484209.000000 1 0 0
11.474833 1.338222 11.352487 16.196963 0.116098 0.794135 0.042069 -0.006040 417118.000000 1 0 0
-10.196667 -3.520378 4.283087 11.606460 0.332435 1.192835 0.000715 -0.002036 483415.000000 1 0 0
2.057033 8.779422 8.917687 12.682065 1.340646 0.790946 -0.004067 0.005240 -275442.000000 1 0 0
6.530033 8.892622 4.032787 11.746635 0.937406 1.220353 0.004583 -0.002752 1130610.000000 1 0 0
-4.196767 3.308822 0.428487 5.361414 -0.667641 1.490790 0.007284 -0.002067 -2655660.000000 1 0 0
4.831933 7.054922 4.303587 9.572897 0.970275 1.104524 -0.001464 -0.000265 -1486610.000000 1 0 0
-8.365067 13.183122 1.039587 15.647677 -1.005374 1.504310 0.006635 -0.003076 -167070.000000 1 0 0
8.873833 8.043322 -9.099513 15.041312 0.736345 2.220522 0.007442 -0.002304 -1412370.000000 1 0 0
7.015033 1.944222 5.955087 9.404985 0.270365 0.885136 0.000745 -0.000603 -520405.000000 1 0 0
11.629733 -6.134378 3.174687 13.526268 -0.485384 1.333881 0.015130 -0.005900 -187404.000000 1 0 0
11.401333 4.796322 -2.197213 12.562756 0.398207 1.746599 0.005844 -0.001433 -563497.000000 1 0 0
-4.152767 14.161922 -5.999413 15.931053 -1.285558 1.956905 0.006364 0.001261 1342830.000000 1 0 0
7.236733 -3.038278 6.982687 10.505206 -0.397493 0.843720 0.009718 -0.004926 -953999.000000 1 0 0
-7.916767 -0.620678 0.950787 7.997777 0.078240 1.451633 0.005097 -0.005224 467944.000000 1 0 0
-3.131167 1.161022 10.710187 11.218747 -0.355079 0.302251 0.002698 0.001198 -68312.400000 1 0 0
7.102933 -1.294578 -1.862913 7.456409 -0.180281 1.823312 0.009495 -0.002911 -2455220.000000 1 0 0
-7.814767 5.297322 2.957387 9.893349 -0.595712 1.267228 0.007143 -0.000644 890762.000000 1 0 0
9.562033 -2.158278 2.855287 10.209961 -0.221993 1.287359 0.009850 -0.006506 -1560200.000000 1 0 0
0.274233 3.272522 1.627287 3.665060 1.487193 1.110738 -0.001504 -0.000765 -4398840.000000 1 0 0
-7.551567 -3.124578 4.088587 9.138145 0.392317 1.106918 0.000994 -0.002260 1610960.000000 1 0 0
-2.294967 8.315322 -6.670213 10.904274 -1.301508 2.229012 0.003291 -0.000479 -436750.000000 1 0 0
4.404433 9.805322 7.289687 12.987799 1.148618 0.974874 -0.001362 0.005584 39801.900000 1 0 0
-11.738167 -3.194778 6.837587 13.955063 0.265733 1.058739 0.010350 -0.008879 -2265040.000000 1 0 0
-4.771567 2.327922 -5.723313 7.806624 -0.453900 2.393717 0.007228 -0.007977 122971.000000 1 0 0
-2.728167 2.890322 -1.873413 4.393920 -0.814251 2.011266 0.004538 -0.003809 1262680.000000 1 0 0
2.387633 5.255922 11.410987 12.788125 1.144393 0.468357 -0.001691 -0.004083 453477.000000 1 0 0
-0.758567 1.559722 4.599987 4.916100 -1.118130 0.360563 0.000471 -0.000832 -557723.000000 1 0 0
5.070633 1.567522 7.656487 9.316128 0.299818 0.606140 -0.002217 0.001545 595646.000000 1 0 0
3.481033 -8.005378 1.758787 8.904886 -1.160623 1.371981 0.000408 -0.001957 2151260.000000 1 0 0
4.962833 6.415522 -4.594413 9.321870 0.912382 2.086174 0.005689 -0.003184 -2786220.000000 1 0 0
-4.023467 2.900722 -8.015313 9.425906 -0.624649 2.587445 0.012269 -0.012552 797629.000000 1 0 0
-8.849067 -2.205478 -12.929513 15.822213 0.244256 2.527289 0.013466 -0.005195 495508.000000 1 0 0
-7.895467 8.066322 1.378887 11.371248 -0.796102 1.449236 0.005768 0.000024 -3244710.000000 1 0 0
7.431333 0.889322 -6.550813 9.946293 0.119106 2.289778 0.001030 -0.001114 927566.000000 1 0 0
8.881533 8.918322 5.436887 13.710501 0.787465 1.163042 0.006903 -0.002402 304849.000000 1 0 0
9.398133 -0.982878 -1.355313 9.546089 -0.104203 1.713253 0.006058 -0.002895 647613.000000 1 0 0
5.390533 0.067222 4.287387 6.887964 0.012470 0.898932 0.000940 -0.000254 -1287830.000000 1 0 0
-4.189267 -7.276578 -7.882713 11.516758 1.048422 2.324653 0.013339 -0.004497 -574050.000000 1 0 0
-2.228567 7.411122 -0.524013 7.756664 -1.278692 1.638404 0.005791 -0.002301 487894.000000 1 0 0
13.451733 -3.322178 -7.411013 15.713341 -0.242125 2.061944 0.020849 -0.007377 1059550.000000 1 0 0
-4.770667 -5.065078 1.660587 7.153449 0.815322 1.336521 0.003034 -0.003762 2422610.000000 1 0 0
-8.924867 1.204222 2.611587 9.376769 -0.134119 1.288547 0.004274 -0.003892 -1343280.000000 1 0 0
-1.153867 11.105522 10.023587 15.004544 -1.467267 0.839229 -0.004122 0.004426 612364.000000 1 0 0
-8.584667 0.305922 7.398287 11.336876 -0.035621 0.859804 0.001190 -0.002218 48732.500000 1 0 0
-6.238167 12.982422 -2.072813 14.551789 -1.122863 1.713726 0.003812 -0.000573 917134.000000 1 0 0
-12.985667 -0.854278 3.242687 13.411650 0.065692 1.326595 -0.001132 -0.003660 383280.000000 1 0 0
-6.654367 12.687122 8.575087 16.696580 -1.087743 1.031440 0.018880 -0.010929 889621.000000 1 0 0
-8.040467 0.962022 -14.098113 16.258271 -0.119081 2.620217 0.006252 -0.005225 -523091.000000 1 0 0
7.247033 2.945022 3.707687 8.656765 0.385991 1.128186 0.001935 -0.000822 -707710.000000 1 0 0
-1.792967 0.616822 -1.987513 2.746890 -0.331340 2.379728 0.002803 -0.005530 920682.000000 1 0 0
-6.359567 9.518222 -10.427113 15.484357 -0.981770 2.309590 0.002522 0.000061 -244770.000000 1 0 0
-10.229067 13.628722 5.236687 17.826912 -0.926942 1.272647 0.008385 -0.006260 241231.000000 1 0 0
-5.760267 8.339222 2.402387 10.416082 -0.966310 1.338059 0.003838 -0.001985 -1775290.000000 1 0 0
-2.468967 -10.737078 -1.186013 11.080942 1.344778 1.678033 0.009210 -0.001529 1812490.000000 1 0 0
-2.179767 -12.612178 8.888987 15.583084 1.399657 0.963773 0.007530 -0.000890 590609.000000 1 0 0
-14.723267 -6.402678 -1.614813 16.136186 0.410199 1.671038 0.017676 -0.002954 784463.000000 1 0 0
-2.652767 -9.311278 3.301387 10.229185 1.293251 1.242171 0.006448 -0.003055 -1079180.000000 1 0 0
4.724133 -2.707478 7.542487 9.302526 -0.520418 0.625279 0.004571 -0.000826 125815.000000 1 0 0
-15.062867 -1.367078 -0.246813 15.126790 0.090510 1.587113 0.002544 -0.005825 133378.000000 1 0 0
5.435033 8.716522 -2.876813 10.667398 1.013253 1.843860 0.004582 -0.003071 -1398310.000000 1 0 0
-5.547067 -5.805978 8.369487 11.598606 0.808200 0.764694 0.002140 -0.002839 -2386290.000000 1 0 0
3.409133 3.572922 7.027187 8.588907 0.808852 0.612575 -0.004305 0.000894 368375.000000 1 0 0
3.335133 2.333322 9.375887 10.221290 0.610470 0.409575 -0.000649 -0.003317 2067440.000000 1 0 0
10.047833 -3.190778 5.281187 11.791139 -0.307487 1.106387 0.017319 -0.008285 -441507.000000 1 0 0
6.559533 9.964622 -5.055113 12.956671 0.988621 1.971596 0.002308 -0.003290 -296706.000000 1 0 0
-4.680867 11.946922 -8.584313 15.437937 -1.197374 2.160426 0.005028 0.002036 -131171.000000 1 0 0
-3.400767 -7.244178 2.116687 8.277904 1.131887 1.312221 0.001969 -0.002552 854043.000000 1 0 0
-7.453167 -4.122878 1.191287 8.600406 0.505275 1.431834 0.005607 -0.005429 2433070.000000 1 0 0
-1.997567 -3.968378 -10.835413 11.710869 1.104455 2.752475 0.009764 -0.005553 -1397310.000000 1 0 0
-5.339367 8.168322 -4.372813 10.693541 -0.991847 1.992068 0.008466 -0.001215 -1871790.000000 1 0 0
-10.952767 -3.224178 -10.215513 15.320415 0.286285 2.300691 0.010274 -0.003661 -700342.000000 1 0 0
4.786133 -11.277778 -7.542213 14.386810 -1.169446 2.122625 0.001239 -0.008051 -990870.000000 1 0 0
-9.283667 -3.965678 7.251987 12.429980 0.403705 0.947854 0.003730 -0.002222 -578229.000000 1 0 0
-5.632167 -9.722778 -5.277513 12.413938 1.045755 2.009900 0.013865 -0.006022 990549.000000 1 0 0
4.796733 4.279722 -9.393313 11.382398 0.728498 2.541439 -0.001434 0.005638 -330182.000000 1 0 0
-3.284567 -7.281778 -14.154713 16.253263 1.147056 2.627795 0.005504 0.003745 155522.000000 1 0 0
0.573333 -0.804978 -8.717213 8.773055 -0.951907 3.028703 0.006822 -0.010298 412542.000000 1 0 0
-7.799867 2.133622 -2.910513 8.594263 -0.267014 1.916286 0.004823 -0.001268 474562.000000 1 0 0
-2.322567 7.525722 -12.643913 14.896286 -1.271453 2.584501 0.005039 -0.001548 -502829.000000 1 0 0
-9.971567 8.856122 7.593087 15.346597 -0.726222 1.053222 0.012086 -0.004695 -512173.000000 1 0 0
-10.823967 -2.998978 -14.324713 18.203009 0.270288 2.476634 0.022774 -0.001785 -330859.000000 1 0 0
-3.319867 4.710722 7.831987 9.723808 -0.956892 0.634371 0.004270 -0.000141 -581751.000000 1 0 0
8.676333 -2.261378 -3.525913 9.634555 -0.254965 1.945466 0.005710 -0.001838 -5116530.000000 1 0 0
1.989733 -8.517578 -0.952713 8.798627 -1.341309 1.679289 0.001817 -0.003165 -211031.000000 1 0 0
-13.510767 -2.861678 5.091587 14.719181 0.208722 1.217582 0.016415 -0.011463 437289.000000 1 0 0
7.092633 2.764722 -2.026013 7.877427 0.371684 1.830912 0.000664 -0.004091 1252900.000000 1 0 0
-11.258867 4.446822 8.862587 15.002725 -0.376156 0.938831 0.004920 -0.003252 -3703450.000000 1 0 0
-1.795167 -2.470278 8.067987 8.626547 0.942370 0.361829 0.001130 -0.001913 -603207.000000 1 0 0
3.089033 11.939822 -9.897213 15.813168 1.317631 2.247061 -0.000872 -0.001864 492000.000000 1 0 0
3.755233 -5.065578 -7.072913 9.475650 -0.932871 2.413478 0.001667 -0.006961 727567.000000 1 0 0
8.495333 -13.691278 -9.560313 18.735564 -1.015445 2.106302 0.018747 -0.002275 559827.000000 1 0 0
-6.222167 -5.863978 -0.376213 8.558221 0.755770 1.614770 0.012598 -0.004854 -247503.000000 1 0 0
-1.146567 -4.079178 9.871987 10.742925 1.296788 0.405439 0.002012 -0.001068 181711.000000 1 0 0
2.795333 3.243022 1.831287 4.656682 0.859404 1.166622 -0.006094 0.000305 -1062080.000000 1 0 0
-9.160967 13.221922 7.726387 17.844876 -0.964877 1.123006 0.020230 -0.023527 17962.200000 1 0 0
4.167533 -11.107978 -0.034513 11.864093 -1.211865 1.573705 0.002390 -0.006065 92894.700000 1 0 0
-12.555067 -1.439778 -9.149213 15.601627 0.114178 2.197437 0.008036 -0.003187 -62286.700000 1 0 0
-4.177767 0.909922 -13.435613 14.099553 -0.214452 2.833490 0.010862 -0.009585 945495.000000 1 0 0
3.905033 -3.151778 5.009787 7.090907 -0.679059 0.786244 0.001939 0.001924 -269819.000000 1 0 0
1.719033 -1.246878 1.088287 2.386241 -0.627529 1.097225 0.000470 -0.001981 450700.000000 1 0 0
8.207233 -8.909178 7.435887 14.213534 -0.826385 1.020247 0.007749 -0.000819 -1297780.000000 1 0 0
-0.035767 2.182822 -6.291613 6.659608 -1.554412 2.807604 0.003456 -0.008623 -1742990.000000 1 0 0
-3.691967 -9.649678 -3.321113 10.852497 1.205379 1.881809 0.012128 -0.001417 1002250.000000 1 0 0
-9.475067 2.259022 -5.465313 11.169141 -0.234048 2.082109 0.003293 -0.000948 -1623750.000000 1 0 0
8.932133 -7.589078 5.317187 12.870493 -0.704284 1.144908 0.009302 -0.005696 2412360.000000 1 0 0
-5.492067 -4.372178 4.698187 8.446994 0.672352 0.980994 0.001589 -0.003574 -1252820.000000 1 0 0
-0.028067 -12.449578 10.424787 16.237887 1.568542 0.873687 0.003169 -0.002790 -1259860.000000 1 0 0
-14.281367 -8.251878 3.232187 16.807676 0.523941 1.377287 0.007879 -0.004862 -1287190.000000 1 0 0
10.887833 -1.227978 -3.539413 11.514351 -0.112310 1.883247 0.007985 -0.001810 -263247.000000 1 0 0
-13.659367 2.850722 2.680287 14.208760 -0.205748 1.381023 0.004708 -0.003179 92539.600000 1 0 0
-6.331467 6.142522 1.055087 8.884327 -0.770252 1.451757 0.006156 0.000147 632203.000000 1 0 0
7.074033 -6.883978 -0.289913 9.874976 -0.771783 1.600159 0.006696 -0.006641 -737594.000000 1 0 0
-6.934267 7.820322 10.040787 14.493409 -0.845379 0.805455 0.010707 -0.000547 485155.000000 1 0 0
-12.652367 -5.140278 -1.961613 13.796839 0.385900 1.713458 0.002286 -0.003187 -4331290.000000 1 0 0
-9.366067 -5.659078 0.108287 10.943496 0.543510 1.560901 0.007425 -0.003820 -666435.000000 1 0 0
-1.757167 1.858222 2.176787 3.358427 -0.813342 0.865635 0.002665 -0.001277 -164727.000000 1 0 0
-7.266167 7.341022 7.565187 12.803119 -0.790523 0.938639 0.008309 -0.002290 -573612.000000 1 0 0
5.588033 7.125722 -0.503313 9.069473 0.905760 1.626320 0.004314 -0.004488 -1141540.000000 1 0 0
-0.088067 -3.989078 7.404287 8.410944 1.548723 0.494269 -0.000072 -0.000072 -209630.000000 1 0 0
6.604533 0.775122 13.039287 14.637065 0.116828 0.471605 0.009926 -0.004741 403058.000000 1 0 0
5.729533 6.059322 -7.873113 11.468602 0.813366 2.327451 -0.003146 0.002180 -251153.000000 1 0 0
9.967133 5.400822 8.904087 14.415110 0.496575 0.904993 0.010492 -0.005636 -2607030.000000 1 0 0
-1.177167 -5.015478 -8.466113 9.910389 1.340262 2.594934 0.008667 -0.004477 932903.000000 1 0 0
10.006033 -3.494978 -7.961413 13.255929 -0.336040 2.215038 0.008795 -0.009003 217291.000000 1 0 0
8.502133 -5.463278 1.232587 10.181009 -0.571139 1.449431 0.014592 -0.007026 1217040.000000 1 0 0
15.724033 3.268222 -5.044313 16.833644 0.204931 1.875129 0.007566 0.003439 -351879.000000 1 0 0
-6.856767 3.607622 1.069587 7.821394 -0.484341 1.433615 0.005575 -0.001603 919407.000000 1 0 0
-1.693967 3.769222 0.242487 4.139488 -1.148424 1.512184 0.004868 -0.004574 -697231.000000 1 0 0
-2.645567 9.972122 6.873087 12.396837 -1.311474 0.983127 0.002563 0.002592 1237970.000000 1 0 0
5.603733 -5.785578 -8.671213 11.834892 -0.801363 2.393051 0.003553 -0.007411 833739.000000 1 0 0
-1.234067 -0.957878 6.230287 6.423156 0.660057 0.245677 0.003317 -0.001911 1074270.000000 1 0 0
-5.749267 4.893622 -7.818413 10.868725 -0.705175 2.373662 0.006978 -0.005588 -231799.000000 1 0 0
6.763233 -1.200278 2.469587 7.299373 -0.175642 1.225656 0.006989 -0.003140 -1393520.000000 1 0 0
8.715033 7.535822 3.137387 11.940838 0.712962 1.304931 0.010049 -0.004136 -284877.000000 1 0 0
-5.371967 -4.913778 -7.731313 10.619625 0.740882 2.386227 0.012374 -0.008203 1389650.000000 1 0 0
-2.244667 7.824322 -10.088213 12.962661 -1.291416 2.462673 0.004236 -0.002042 361199.000000 1 0 0
-2.852567 -2.319378 1.643687 4.027203 0.682668 1.150374 -0.000637 -0.001291 -506622.000000 1 0 0
6.108933 -2.135378 -9.178113 11.230167 -0.336274 2.527459 0.000613 -0.004763 883071.000000 1 0 0
1.266133 -7.636878 5.190787 9.320369 -1.406499 0.980112 0.000779 0.000209 868201.000000 1 0 0
1.827233 12.085722 1.208587 12.282676 1.420743 1.472239 0.005072 -0.007770 -47813.700000 1 0 0
-1.143767 7.106922 2.424487 7.595702 -1.411228 1.245920 0.001660 0.000314 550701.000000 1 0 0
8.559833 7.855022 -6.553713 13.338788 0.742487 2.084410 0.008935 -0.001485 -76081.200000 1 0 0
3.806933 -11.155578 5.445887 12.984504 -1.241930 1.137996 0.001214 0.001822 402406.000000 1 0 0
8.037633 -6.976578 12.410887 16.349505 -0.714845 0.708869 0.019507 -0.006317 240735.000000 1 0 0
-8.730467 -0.023278 -3.909913 9.566034 0.002666 1.991857 0.005346 -0.002366 -1530620.000000 1 0 0
-3.141767 -5.192278 11.211087 12.748291 1.026647 0.496156 0.004975 -0.003518 816715.000000 1 0 0
-8.267767 0.118522 -11.654913 14.290102 -0.014334 2.524550 0.006141 -0.006948 -1577930.000000 1 0 0
1.495333 -5.021778 5.403987 7.527108 -1.281387 0.769963 0.000983 -0.000118 -450688.000000 1 0 0
6.680433 3.685822 -7.664113 10.814439 0.504174 2.358440 -0.001327 0.000419 -233608.000000 1 0 0
16.286133 4.220222 -1.190913 16.866140 0.253553 1.641465 0.005914 0.002918 -467901.000000 1 0 0
7.890133 7.445922 0.278687 10.852355 0.756441 1.545114 0.005623 -0.003127 -2664550.000000 1 0 0
5.504733 -10.315078 13.932687 18.188532 -1.080586 0.698178 -0.004293 -0.000111 6931.030000 1 0 0
-5.015467 -9.319678 8.982687 13.881642 1.077090 0.867033 0.001467 -0.004101 506685.000000 1 0 0
-12.569867 -3.213078 2.883787 13.290661 0.250259 1.352078 0.001437 -0.003276 -589024.000000 1 0 0
-2.023067 -1.213878 -5.865413 6.322133 0.540433 2.759157 0.007745 -0.011140 -593269.000000 1 0 0
-2.400867 12.917122 -4.365613 13.844666 -1.387026 1.891599 0.006488 0.001227 588979.000000 1 0 0
3.970433 -0.466678 -4.977213 6.383946 -0.117001 2.464895 0.002114 -0.004220 -409006.000000 1 0 0
-8.883967 3.710522 -7.435013 12.164385 -0.395641 2.228387 0.003223 -0.002714 539558.000000 1 0 0
-4.569367 7.924822 -11.386513 14.605978 -1.047769 2.464790 0.005130 -0.000432 -2050570.000000 1 0 0
-9.936567 -6.476378 7.330187 13.943116 0.577620 1.017234 0.004490 -0.004948 -1070840.000000 1 0 0
8.059833 5.330322 4.100987 10.497206 0.584309 1.169432 0.003735 -0.002801 -1116140.000000 1 0 0
-6.642267 -7.640578 4.087387 10.918099 0.855180 1.187081 0.009708 -0.003399 -820280.000000 1 0 0
-4.122367 11.754722 8.048087 14.830344 -1.233499 0.997175 0.001866 -0.001191 -629016.000000 1 0 0
-7.306167 9.899322 -7.925513 14.635245 -0.934989 2.143059 0.005841 -0.004477 -1076630.000000 1 0 0
13.114533 5.560522 4.570787 14.960029 0.401021 1.260298 0.011940 -0.006967 106908.000000 1 0 0
5.252933 4.006422 -3.694613 7.569338 0.651581 2.080711 0.003302 -0.002814 668938.000000 1 0 0
-2.783767 -4.272578 5.107787 7.217602 0.993337 0.784580 0.001898 -0.001634 -2219340.000000 1 0 0
12.421433 -2.435078 -5.209013 13.687783 -0.193583 1.961197 0.009353 -0.003134 -1444120.000000 1 0 0
-5.283767 9.771722 6.916687 13.086073 -1.075106 1.013901 0.004232 0.001937 -273551.000000 1 0 0
1.711433 3.793722 -0.475013 4.188910 1.147009 1.684438 -0.000445 -0.003141 400629.000000 1 0 0
-0.067167 9.649022 7.569287 12.263859 -1.563835 0.905614 -0.003029 0.005857 -654244.000000 1 0 0
-5.441067 2.071022 5.859687 8.260162 -0.363696 0.782162 0.007985 -0.002448 688458.000000 1 0 0
8.943633 0.960122 10.657887 13.946360 0.106943 0.700987 0.014803 -0.002071 360454.000000 1 0 0
0.343633 -2.880078 -10.169513 10.575061 -1.452044 2.863754 0.006980 -0.006277 -3080850.000000 1 0 0
1.109433 10.590022 -2.744913 10.996088 1.466415 1.823091 0.008596 -0.004025 1268980.000000 1 0 0
2.473133 -4.318578 11.713687 12.727018 -1.050713 0.401746 0.003504 -0.003330 -1760520.000000 1 0 0
6.662533 -2.954978 9.448787 11.933182 -0.417454 0.657033 0.009705 -0.003678 540823.000000 1 0 0
-10.568267 -8.312878 5.653987 14.586288 0.666510 1.172744 0.008224 -0.003707 -1426060.000000 1 0 0
-2.939267 0.831422 -6.960013 7.600811 -0.275665 2.728026 0.009265 -0.009549 742302.000000 1 0 0
11.033633 2.569822 -5.164613 12.450633 0.228829 1.998527 0.003140 0.000614 -3399140.000000 1 0 0
-2.027667 -4.121478 0.057087 4.593612 1.113589 1.558368 -0.000988 -0.003049 993240.000000 1 0 0
-1.226467 -6.398278 -10.541813 12.392417 1.381407 2.588048 0.006771 -0.001538 254610.000000 1 0 0
0.314733 6.715822 -6.549313 9.385884 1.523966 2.343094 0.004606 0.000157 -2431090.000000 1 0 0
2.033333 3.774822 -6.082313 7.441656 1.076704 2.527563 0.002092 -0.004430 -1974230.000000 1 0 0
1.630933 -14.785878 6.467887 16.220841 -1.460937 1.160655 0.014558 -0.004537 -154179.000000 1 0 0
-1.599467 5.406122 -10.565413 11.975491 -1.283140 2.651423 0.006925 -0.005465 -207748.000000 1 0 0
13.588433 4.466622 -0.822813 14.327360 0.317582 1.628257 0.007657 -0.003706 -827701.000000 1 0 0
-2.336767 3.225522 -6.185513 7.356972 -0.943841 2.569498 0.009443 -0.008719 -2091270.000000 1 0 0
5.612033 7.919222 14.160587 17.167738 0.954282 0.600882 0.017386 -0.005850 359205.000000 1 0 0
15.716133 0.780922 -5.752613 16.754081 0.049648 1.921284 0.006883 0.000333 -273.833000 1 0 0
6.283933 -8.182078 10.541287 14.749676 -0.915867 0.774631 0.000103 0.003165 895954.000000 1 0 0
0.051033 -5.889378 -6.327413 8.644277 -1.562131 2.392016 0.002645 -0.005170 -747198.000000 1 0 0
8.723833 5.418222 -7.481513 12.705724 0.555777 2.200407 -0.004806 0.001811 54756.000000 1 0 0
-15.962067 -0.699878 5.262987 16.821904 0.043818 1.252588 0.024108 -0.018740 65084.100000 1 0 0
-0.324067 3.973722 -12.224713 12.858425 -1.489424 2.826334 0.006753 -0.004764 643984.000000 1 0 0
-11.409567 3.540122 5.825987 13.291080 -0.300858 1.117047 0.004603 -0.005365 -566800.000000 1 0 0
5.291133 -9.573278 -9.535613 14.511087 -1.065884 2.287796 -0.002140 -0.003955 314084.000000 1 0 0
1.467633 11.202622 -11.587213 16.183825 1.440530 2.368816 -0.001306 0.002464 -1907610.000000 1 0 0
5.882633 2.480322 1.188487 6.493833 0.399017 1.386741 0.002885 -0.001282 -161929.000000 1 0 0
5.691333 4.589022 4.842787 8.769435 0.678581 0.985754 -0.002921 0.000571 -1009710.000000 1 0 0
0.425233 -1.550578 -6.344713 6.545265 -1.303135 2.893405 0.002829 -0.007952 -568865.000000 1 0 0
12.579033 6.941622 -4.556513 15.072491 0.504255 1.877908 0.008704 -0.002690 -118007.000000 1 0 0
7.412033 3.334322 12.640887 15.028239 0.422731 0.571404 0.009841 0.000403 -622090.000000 1 0 0
-2.367567 -0.131678 8.647587 8.966799 0.055560 0.267629 -0.001222 -0.000504 604554.000000 1 0 0
2.401133 -15.134678 13.433087 20.378218 -1.413457 0.851057 0.005645 -0.003588 971215.000000 1 0 0
18.806533 4.345722 -1.857013 19.391222 0.227089 1.666709 0.014994 -0.001582 220183.000000 1 0 0
-0.347267 -13.307778 7.205187 15.137116 1.544707 1.074702 0.005101 -0.001112 -1011040.000000 1 0 0
4.341033 1.600422 -0.582113 4.663129 0.353212 1.695956 0.000644 -0.003622 260489.000000 1 0 0
2.771033 -0.547378 -7.386213 7.907868 -0.195025 2.776339 0.001265 -0.005723 975689.000000 1 0 0
7.263333 -11.176478 0.870287 13.357659 -0.994508 1.505597 0.006108 -0.005399 217168.000000 1 0 0
-11.865767 -7.462878 1.314587 14.079031 0.561429 1.477288 0.006673 0.002881 580394.000000 1 0 0
0.261133 -7.104978 9.993387 12.264448 -1.534059 0.618368 -0.001463 -0.001121 -1111980.000000 1 0 0
-4.550167 -7.180278 10.555587 13.552890 1.005963 0.677976 0.003759 -0.000180 -1444330.000000 1 0 0
11.844933 0.825422 -1.585913 11.979102 0.069573 1.703576 0.006799 -0.003642 -446926.000000 1 0 0
6.528133 -9.540978 -7.288513 13.666353 -0.970739 2.133315 -0.000391 -0.009986 -342171.000000 1 0 0
-11.069467 4.704122 3.479487 12.520731 -0.401840 1.289191 0.003033 -0.005011 -5746.820000 1 0 0
5.994733 -9.036278 2.052887 11.036552 -0.985054 1.383699 0.001584 -0.005615 2677080.000000 1 0 0
11.692033 -1.169778 5.821287 13.113329 -0.099717 1.110826 0.015546 -0.007343 592733.000000 1 0 0
-6.485767 3.535122 4.114187 8.455105 -0.499041 1.062612 0.007732 -0.002920 -901744.000000 1 0 0
9.518833 6.390422 -3.174413 11.896326 0.591235 1.840909 0.004039 -0.002814 -323555.000000 1 0 0
-2.299867 6.452022 10.841387 12.823949 -1.228381 0.563480 -0.001250 0.001338 -15307.700000 1 0 0
1.826633 9.923422 2.888487 10.495440 1.388761 1.291984 -0.001136 -0.002022 -507559.000000 1 0 0
2.809933 6.117122 -5.575813 8.740972 1.140190 2.262557 0.002758 -0.002160 -2926270.000000 1 0 0
11.968233 0.074822 -5.763813 13.284040 0.006252 2.019602 0.006740 -0.002606 637469.000000 1 0 0
-2.538867 -12.574678 6.225887 14.259385 1.371571 1.118962 0.010183 -0.002007 -73617.300000 1 0 0
10.849233 1.880822 -2.826913 11.368148 0.171654 1.822103 0.006073 -0.001618 -142161.000000 1 0 0
-8.893667 5.267822 0.727787 10.362284 -0.534747 1.500504 0.002284 -0.000532 336117.000000 1 0 0
1.266333 -10.193178 5.818087 11.804856 -1.447196 1.055428 -0.000000 -0.002135 630395.000000 1 0 0
9.364533 -5.688878 -1.197413 11.022323 -0.545910 1.679646 0.012013 -0.007462 1504860.000000 1 0 0
-7.859567 8.599322 -4.564713 12.512303 -0.830314 1.944234 0.005476 -0.003101 -738039.000000 1 0 0
-7.483867 -0.153978 -1.667713 7.668979 0.020572 1.790010 0.004369 -0.002529 -1810940.000000 1 0 0
4.127533 8.938722 2.604987 10.184461 1.138207 1.312141 0.002253 -0.003930 277420.000000 1 0 0
-1.279967 -10.558878 -3.680613 11.255005 1.450163 1.903945 0.009161 -0.003227 -227934.000000 1 0 0
3.119933 7.788222 -3.652813 9.150597 1.189776 1.981428 0.005842 -0.003985 -463778.000000 1 0 0
-4.339467 1.720422 -11.063013 12.007542 -0.377450 2.742306 0.008355 -0.010693 -748394.000000 1 0 0
1.278233 2.882422 10.941987 11.387244 1.153396 0.280567 -0.001008 -0.004983 523893.000000 1 0 0
2.176833 5.507722 -8.065013 10.005900 1.194406 2.508203 0.001464 -0.000660 -320713.000000 1 0 0
15.658133 6.068922 4.044187 17.273228 0.369762 1.334472 0.031501 -0.015072 90323.000000 1 0 0
-4.513067 8.953522 4.581287 11.023680 -1.103910 1.142209 0.005970 0.000496 26265.500000 1 0 0
-0.984967 -8.071178 -12.376613 14.808599 1.449362 2.560334 0.000301 0.000856 -80261.900000 1 0 0
14.311333 -4.225978 -5.207813 15.804887 -0.287129 1.906577 0.030662 -0.000166 -592255.000000 1 0 0
-6.105167 -6.298678 -5.638813 10.427973 0.800998 2.142112 0.013520 -0.004477 373107.000000 1 0 0
-8.950267 2.593622 -12.191913 15.345256 -0.282056 2.488992 0.004923 -0.006583 89767.400000 1 0 0
10.496133 5.595922 13.652687 18.107430 0.489808 0.716692 0.028686 -0.006529 501070.000000 1 0 0
-0.511267 10.944422 5.487287 12.253656 -1.524115 1.106484 0.000507 0.003575 423806.000000 1 0 0
0.368033 11.198022 -0.537613 11.216959 1.537942 1.618743 0.006664 -0.004481 150225.000000 1 0 0
-1.415167 -0.677178 3.640387 3.964050 0.446312 0.406904 0.000496 -0.001815 468355.000000 1 0 0
-4.886467 6.642522 8.663887 11.960920 -0.936553 0.760706 0.005725 0.004405 -735261.000000 1 0 0
3.409933 -8.747978 -11.367113 14.743338 -1.199117 2.451206 -0.003764 -0.000656 1406150.000000 1 0 0
6.794133 -3.828578 11.983587 14.297714 -0.513158 0.576919 0.018031 -0.005357 -646529.000000 1 0 0
-2.606567 -1.855678 -12.456113 12.860501 0.618684 2.890155 0.007153 -0.008912 863675.000000 1 0 0
-15.984767 -4.877678 5.652487 17.642424 0.296171 1.244653 0.026001 -0.015829 595679.000000 1 0 0
-9.075567 7.231222 5.754687 12.952719 -0.672774 1.110421 0.002589 -0.000669 -2932340.000000 1 0 0
-12.963967 1.357222 5.962887 14.333964 -0.104312 1.141757 0.002458 -0.002045 164904.000000 1 0 0
-3.530667 3.579322 10.125487 11.304984 -0.792241 0.460870 0.004149 0.000461 635339.000000 1 0 0
2.133533 -12.348378 -1.083013 12.578049 -1.399707 1.657006 0.010288 -0.002909 -3390540.000000 1 0 0
10.418933 -4.982278 -3.568713 12.087720 -0.446052 1.870497 0.011852 -0.005500 769600.000000 1 0 0
3.298733 -13.436378 1.004287 13.871787 -1.330050 1.498335 0.010607 -0.001039 537816.000000 1 0 0
10.093433 -1.653578 -6.050513 11.883619 -0.162385 2.104990 0.007261 -0.002996 -565918.000000 1 0 0
11.969333 -5.307878 -1.432113 13.171539 -0.417399 1.679740 0.017807 -0.006253 -500584.000000 1 0 0
1.508433 1.008322 5.987287 6.256172 0.589241 0.294247 -0.000487 -0.001080 553547.000000 1 0 0
-10.836267 11.525922 6.587587 17.136740 -0.816229 1.176224 0.011452 -0.009095 -331721.000000 1 0 0
4.791233 -14.117378 3.216387 15.251276 -1.243609 1.358308 0.006600 -0.003374 -2938330.000000 1 0 0
5.178233 -3.416878 -1.660013 6.422211 -0.583271 1.832245 0.008328 -0.004784 -1563400.000000 1 0 0
2.054633 -2.970478 -7.669013 8.476969 -0.965673 2.701443 0.003033 -0.006410 209257.000000 1 0 0
-2.993367 14.728022 -8.770813 17.401208 -1.370284 2.099060 0.005133 -0.001903 -2254300.000000 1 0 0
-2.325867 6.072322 -8.092113 10.380994 -1.205006 2.464683 0.007192 -0.005043 -359761.000000 1 0 0
2.546233 -3.551378 -11.157513 11.982724 -0.948771 2.768304 0.004662 -0.003321 -1150210.000000 1 0 0
14.591133 2.829522 -2.699613 15.106133 0.191543 1.750471 0.010487 0.001575 751976.000000 1 0 0
-3.647567 13.031422 2.265187 13.720560 -1.297875 1.404943 0.004055 -0.006627 -802212.000000 1 0 0
7.959733 -4.869378 14.009287 16.832359 -0.549015 0.587583 0.031391 -0.010927 -866238.000000 1 0 0
-11.673267 7.271322 2.888187 14.052719 -0.557090 1.363796 0.001770 -0.000642 1199560.000000 1 0 0
-2.373367 11.856122 4.016887 12.741110 -1.373227 1.250055 0.004580 -0.004915 20635.900000 1 0 0
1.852633 1.385722 0.638987 2.400162 0.642203 1.301320 -0.007554 -0.001993 -1794030.000000 1 0 0
-6.967867 8.546722 5.296887 12.233342 -0.886815 1.122992 0.003658 -0.001253 -117644.000000 1 0 0
-1.255567 9.291522 1.012387 9.430470 -1.436480 1.463236 0.003726 -0.001548 184222.000000 1 0 0
4.841533 12.960722 -8.417213 16.194759 1.213294 2.117354 0.020133 -0.014449 -3001160.000000 1 0 0
8.880133 7.005322 7.149587 13.380878 0.667921 1.007101 0.006090 -0.005072 -1257960.000000 1 0 0
7.235833 -13.724678 2.919487 15.787573 -1.085616 1.384803 0.018653 -0.006196 677911.000000 1 0 0
4.372733 -13.338478 -1.296313 14.096674 -1.254008 1.662885 0.005959 -0.002409 -3306550.000000 1 0 0
12.251033 -11.787578 -4.475513 17.580245 -0.766121 1.828206 0.025785 -0.008835 -896494.000000 1 0 0
2.968633 0.000222 -2.026813 3.594544 0.000075 2.169846 0.000476 -0.004028 672105.000000 1 0 0
-13.628267 -3.261978 -10.680513 17.619407 0.234934 2.222044 0.024207 -0.011244 603096.000000 1 0 0
-6.762067 13.595722 4.915687 15.960363 -1.109257 1.257713 0.013679 -0.012069 417330.000000 1 0 0
7.230033 -4.284478 -0.579013 8.424095 -0.534957 1.639583 0.004920 -0.002875 -1770570.000000 1 0 0
11.670233 2.079422 -7.289213 13.915852 0.176331 2.122110 0.005491 0.000242 -894312.000000 1 0 0
-7.398267 -4.563578 9.671987 13.004151 0.552713 0.732116 0.007835 -0.001947 409659.000000 1 0 0
1.014933 2.944022 8.486687 9.039979 1.238812 0.351681 -0.003695 -0.001924 -1465750.000000 1 0 0
1.582133 7.979022 -8.623813 11.854876 1.375049 2.385393 0.003710 -0.000512 -1898100.000000 1 0 0
-8.541167 -2.109178 -5.575713 10.415793 0.242099 2.135675 0.012157 -0.004529 238082.000000 1 0 0
6.716333 -0.460078 7.114887 9.795020 -0.068395 0.757759 0.007806 -0.002965 736317.000000 1 0 0
-11.006867 6.462322 7.198787 14.653848 -0.530893 1.057265 0.008569 -0.002489 847301.000000 1 0 0
-6.127867 10.996022 4.757887 13.457368 -1.062381 1.209430 0.002912 -0.004339 -256004.000000 1 0 0
6.114833 -1.310178 -6.823513 9.255705 -0.211071 2.399746 0.003708 -0.003178 -179472.000000 1 0 0
4.593233 -5.793678 11.490587 13.663751 -0.900461 0.571752 0.006295 -0.006572 -1478230.000000 1 0 0
-8.939167 -7.383778 2.780587 11.923110 0.690396 1.335419 0.009780 -0.003437 -3097120.000000 1 0 0
-1.474467 12.620922 -9.350313 15.776250 -1.454496 2.205182 0.011164 0.001185 530819.000000 1 0 0
-4.798567 9.339522 -2.373913 10.765146 -1.096176 1.793142 0.002903 -0.002157 131584.000000 1 0 0
-3.468167 9.644422 -0.161613 10.250326 -1.225592 1.586564 0.006707 -0.003358 -1754360.000000 1 0 0
-3.537367 10.537822 -6.433213 12.843087 -1.246933 2.095445 0.009645 0.003305 471611.000000 1 0 0
4.852833 -4.865978 0.423987 6.885310 -0.786751 1.509179 0.005213 -0.005160 -1202540.000000 1 0 0
-2.258167 2.968122 -10.895313 11.515941 -0.920415 2.811792 0.009247 -0.008608 -1360840.000000 1 0 0
-3.688467 12.046822 -2.246913 12.797630 -1.273682 1.747284 0.002762 -0.001665 20094.200000 1 0 0
-0.244267 0.363622 0.053387 0.441291 -0.979275 1.449519 -0.004411 -0.002273 -1458500.000000 1 0 0
-4.777267 -1.771778 0.115587 5.096552 0.355151 1.548115 0.001799 -0.003416 -73889.900000 1 0 0
2.581033 2.526922 -2.496213 4.390688 0.774805 2.175507 -0.005283 -0.004110 742953.000000 1 0 0
6.140233 -9.743978 8.532387 14.333499 -1.008497 0.933187 -0.001722 0.003003 -1016450.000000 1 0 0
-4.113067 -5.492678 6.537787 9.477842 0.928046 0.809588 0.004626 -0.002953 23486.200000 1 0 0
-6.368667 5.217622 -12.170813 14.693950 -0.686378 2.546840 0.002923 -0.004069 1079950.000000 1 0 0
-13.111467 3.047422 7.868287 15.591899 -0.228370 1.041832 0.004311 -0.006270 616938.000000 1 0 0
4.652833 -7.496678 -4.721213 10.006942 -1.015329 2.062120 0.001386 -0.007597 -442234.000000 1 0 0
-5.954667 2.373422 -1.101113 6.504125 -0.379283 1.740910 0.003099 -0.002359 -508194.000000 1 0 0
-6.954467 -2.709178 -14.573713 16.373679 0.371474 2.668294 0.014960 0.000802 -314126.000000 1 0 0
2.687133 -6.100578 0.911587 6.728204 -1.155894 1.434891 0.000735 -0.002332 -256447.000000 1 0 0
5.006733 -7.823678 13.028887 16.000913 -1.001521 0.619345 0.004344 -0.005421 91352.800000 1 0 0
-10.037467 -1.678678 7.990287 12.938833 0.165708 0.905181 0.002260 0.000044 -279181.000000 1 0 0
-4.519367 13.184722 -0.105813 13.938177 -1.240574 1.578388 0.001469 -0.003629 704198.000000 1 0 0
6.829033 2.335722 -4.524913 8.518575 0.329555 2.130791 0.000705 -0.002266 -516203.000000 1 0 0
4.961233 4.547722 0.121687 6.731301 0.741939 1.552717 -0.001404 -0.002319 -994057.000000 1 0 0
-6.035967 12.209622 1.820187 13.741210 -1.111670 1.437944 0.004391 -0.007754 27130.900000 1 0 0
6.563633 -7.310878 6.648187 11.862909 -0.839204 0.975906 0.001547 -0.003576 -1959840.000000 1 0 0
-0.408067 5.036322 7.634687 9.155300 -1.489948 0.584643 -0.003912 0.000254 -1256820.000000 1 0 0
-5.778267 -3.489878 -1.501413 6.915335 0.543331 1.789653 0.006801 -0.005404 -1184600.000000 1 0 0
2.287333 -6.547478 -5.207013 8.672620 -1.234705 2.214793 -0.000674 -0.003810 -1332750.000000 1 0 0
-14.533867 -5.046478 -3.784613 15.843722 0.334198 1.812000 0.012032 -0.008770 -503143.000000 1 0 0
-12.427467 -5.246478 -6.475113 14.963106 0.399469 2.018325 0.017553 -0.012113 -1649250.000000 1 0 0
-14.818967 -3.855678 -1.346513 15.371439 0.254542 1.658507 0.006096 -0.004219 633926.000000 1 0 0
11.817633 3.004422 8.717987 14.989540 0.248958 0.950096 0.021969 -0.006438 -1774040.000000 1 0 0
8.829433 -6.466178 7.682687 13.371388 -0.632105 0.958728 0.010449 -0.006548 -168581.000000 1 0 0
-8.801967 -1.730278 -9.774113 13.266566 0.194104 2.399044 0.006141 -0.006314 -101708.000000 1 0 0
-8.990367 5.011322 -3.851013 10.989556 -0.508515 1.928821 0.004315 -0.001703 -1756170.000000 1 0 0
-4.087467 -6.330478 4.076787 8.567528 0.997464 1.074876 0.001351 -0.002193 -1071170.000000 1 0 0
-0.113667 -9.363078 3.671987 10.058014 1.558657 1.197077 0.002173 -0.002608 208068.000000 1 0 0
7.919133 -10.430078 3.322887 13.510765 -0.921396 1.322303 0.006749 -0.005073 123267.000000 1 0 0
-0.078767 6.568722 9.532987 11.577226 -1.558806 0.603374 -0.004940 0.000902 17404.900000 1 0 0
0.012433 3.487322 -9.686513 10.295149 1.567231 2.796019 0.006301 -0.005761 -551160.000000 1 0 0
4.549933 -3.175278 10.960387 12.284721 -0.609297 0.468611 0.006126 -0.003964 -1661350.000000 1 0 0
8.606733 -9.043978 1.327487 12.555143 -0.810165 1.464866 0.010029 -0.006812 207905.000000 1 0 0
-0.175667 -0.464378 11.454687 11.465442 1.209149 0.043317 0.005365 -0.002112 -1504330.000000 1 0 0
10.718333 6.150122 11.224487 16.694184 0.520928 0.833405 0.024211 -0.009606 -4020.160000 1 0 0
-6.463967 -2.912678 -11.872313 13.828173 0.423355 2.603250 0.012493 -0.005562 -264755.000000 1 0 0
-1.610267 2.822822 8.423487 9.028645 -1.052391 0.368209 0.003685 -0.001321 -534182.000000 1 0 0
-1.778067 13.406822 -6.807613 15.140937 -1.438942 2.037132 0.010673 0.001685 363817.000000 1 0 0
7.747633 3.144222 9.708387 12.812679 0.385522 0.710988 0.007102 -0.001511 927576.000000 1 0 0
6.474533 8.442022 -7.985713 13.302591 0.916541 2.214688 0.000557 0.001672 360343.000000 1 0 0
6.590833 -3.049378 -3.841913 8.215721 -0.433340 2.057403 0.006891 -0.004037 -1812920.000000 1 0 0
1.932533 8.256322 1.025587 8.541274 1.340869 1.450432 0.001871 -0.000977 906773.000000 1 0 0
-17.843067 6.279122 6.261387 19.925044 -0.338374 1.251133 0.045482 -0.020078 63026.100000 1 0 0
-14.555567 3.008822 -10.177113 18.013638 -0.203842 2.171190 0.018308 -0.005155 -316132.000000 1 0 0
-18.141967 0.004222 -4.401213 18.668199 -0.000233 1.808797 0.033936 -0.009637 -179367.000000 1 0 0
-13.120367 7.852922 0.160687 15.291770 -0.539337 1.560288 0.010264 0.001331 -510859.000000 1 0 0
-12.628067 -4.373178 -12.779513 18.490774 0.333380 2.333847 0.034992 -0.005479 -476212.000000 1 0 0
-17.350567 -0.601078 -8.603613 19.375903 0.034629 2.030895 0.043351 -0.021292 -572639.000000 1 0 0
-16.744267 -2.206278 -2.167613 17.027527 0.131008 1.698443 0.029805 -0.008829 62682.000000 1 0 0
-15.365767 3.991022 1.644087 15.960516 -0.254119 1.467604 0.008714 -0.002151 -1041280.000000 1 0 0
-13.328167 5.826922 4.256187 15.156127 -0.412149 1.286145 0.004628 -0.003231 85224.600000 1 0 0
-10.078267 14.166022 2.739587 17.599801 -0.952434 1.414501 0.019061 -0.007344 265351.000000 1 0 0
-11.805567 2.324422 -6.522313 13.686304 -0.194405 2.067531 0.001722 0.003921 -364962.000000 1 0 0
-16.106467 10.621822 3.934987 19.690747 -0.583008 1.369602 0.028421 -0.012688 716764.000000 1 0 0
-12.928867 1.004822 -8.561013 15.538861 -0.077563 2.154289 0.006318 -0.000800 613882.000000 1 0 0
-12.320767 14.443122 4.140987 19.430719 -0.864532 1.356034 0.026864 -0.010190 -229939.000000 1 0 0
-10.474767 11.112622 -1.001213 15.304037 -0.814937 1.636265 0.008513 -0.004818 772415.000000 1 0 0
-17.215367 5.774422 8.743987 20.153663 -0.323630 1.122017 0.047791 -0.021228 346683.000000 1 0 0
-11.779167 12.458822 -9.026613 19.376552 -0.813432 2.055394 0.021066 -0.016788 -1531910.000000 1 0 0
-17.209267 -0.533178 3.069287 17.488959 0.030972 1.394384 0.038479 -0.011302 658148.000000 1 0 0
-13.285267 14.927422 -0.664613 19.994198 -0.843539 1.604043 0.042844 -0.009114 294796.000000 1 0 0
-16.714867 4.456622 -10.407413 20.188177 -0.260565 2.112411 0.065649 -0.006708 474549.000000 1 0 0
-11.950167 7.610822 -9.004013 16.786999 -0.567097 2.136924 0.005187 -0.000299 -358838.000000 1 0 0
-14.835067 13.335922 -2.137513 20.062278 -0.732232 1.677543 0.048500 -0.021571 87949.300000 1 0 0
-11.978367 10.525722 -5.517113 16.873371 -0.720937 1.903894 0.022208 -0.011098 716324.000000 1 0 0
-17.712867 2.742722 -0.737913 17.939139 -0.153623 1.611942 0.040581 -0.005985 -496556.000000 1 0 0
-9.606667 15.410722 0.525587 18.167406 -1.013366 1.541862 0.024581 -0.006457 46335.500000 1 0 0
-8.307867 13.089422 -3.765913 15.954176 -1.005252 1.809091 0.007147 -0.004547 78156.300000 1 0 0
-18.135067 11.503622 2.390887 21.608571 -0.565281 1.459924 0.102197 -0.011831 -54166.200000 1 0 0
-8.197467 15.720722 -7.259513 19.158290 -1.090142 1.959428 0.049066 -0.019560 -381075.000000 1 0 0
-6.397967 15.191822 -5.384313 17.341172 -1.172195 1.886508 0.006767 -0.001704 -1519990.000000 1 0 0
-17.518867 5.145922 -0.122813 18.259417 -0.285700 1.577522 0.044561 -0.004540 759891.000000 1 0 0
-5.469767 12.217322 -12.180813 18.098439 -1.149852 2.309096 -0.001500 -0.003814 -983592.000000 1 0 0
-11.183867 3.684522 -11.353413 16.357095 -0.318251 2.337961 0.008971 -0.005697 -205606.000000 1 0 0
-12.025067 10.947722 1.193087 16.305776 -0.738536 1.497561 0.010851 -0.003230 486759.000000 1 0 0
-13.036167 0.132722 -11.092513 17.117333 -0.010181 2.275789 0.018112 -0.010147 2238690.000000 1 0 0
-14.240467 -2.269078 -13.099813 19.481907 0.158012 2.308255 0.062611 -0.011651 148743.000000 1 0 0
-18.752667 -2.435978 -3.834513 19.295077 0.129177 1.770858 0.037326 -0.009991 291836.000000 1 0 0
-18.276667 4.726522 -5.103913 19.555728 -0.253065 1.834847 0.054604 -0.009655 -279001.000000 1 0 0
-8.421167 15.249622 -2.189813 17.557400 -1.066249 1.695845 0.019703 -0.010182 -884678.000000 1 0 0
-16.276667 9.102122 -5.413613 19.418695 -0.509889 1.853324 0.040557 -0.005635 33723.500000 1 0 0
-18.394367 1.583722 2.111587 18.582780 -0.085886 1.456919 0.072487 -0.013137 -728431.000000 1 0 0
-15.775867 -2.740178 -8.612013 18.181125 0.171978 2.064260 0.025176 -0.014577 256168.000000 1 0 0
-9.694467 10.361222 -7.124213 15.877406 -0.818631 2.036108 0.012100 -0.010467 148788.000000 1 0 0
-13.910767 11.894322 -7.464413 19.766178 -0.707415 1.958038 0.039411 -0.027054 355443.000000 1 0 0
-11.137367 6.473422 -3.908413 13.461866 -0.526507 1.865370 0.000015 0.001059 -1402860.000000 1 0 0
-13.134667 4.899522 -12.706913 18.920635 -0.357036 2.307149 0.029865 -0.010646 680286.000000 1 0 0
-17.618967 9.026522 2.545987 19.959663 -0.473454 1.442891 0.027403 -0.021187 591758.000000 1 0 0
-13.531567 8.605422 -6.529113 17.314327 -0.566436 1.957452 0.011332 -0.002228 -949134.000000 1 0 0
-15.996867 6.891822 -3.860313 17.840936 -0.406793 1.788895 0.027768 0.000210 -769908.000000 1 0 0
-14.927367 -0.452878 -9.422413 17.658235 0.030329 2.133646 0.025600 -0.012006 -2051940.000000 1 0 0
-10.000567 5.785222 -6.088813 13.059624 -0.524453 2.055823 0.002830 -0.000232 400849.000000 1 0 0
-12.861467 12.202422 -0.939213 17.753832 -0.759110 1.623723 0.023321 -0.008929 -549720.000000 1 0 0
-10.623467 3.491922 -13.929913 17.863203 -0.317574 2.465159 0.019825 -0.010800 388912.000000 1 0 0
-11.140667 6.277022 -11.907313 17.472824 -0.513098 2.320574 0.004663 -0.003158 -590015.000000 1 0 0
-5.907267 11.558322 -14.786413 19.675584 -1.098321 2.421145 0.015755 -0.004412 -111017.000000 1 0 0
-15.663167 13.290422 3.470787 20.833062 -0.703631 1.403416 0.022430 -0.018091 254518.000000 1 0 0
-15.020967 10.805422 -2.984913 18.742900 -0.623599 1.730733 0.031186 -0.011050 324719.000000 1 0 0
-18.344767 7.735022 -4.617713 20.437327 -0.399027 1.798709 0.052050 -0.005176 144679.000000 1 0 0
-4.015667 16.317322 -10.430913 19.778385 -1.329493 2.126321 0.021319 -0.003949 -8290.730000 1 0 0
-15.723867 4.422022 -4.408113 16.918207 -0.274149 1.834393 0.020783 0.002188 1087890.000000 1 0 0
-18.697667 -1.914578 -6.210513 19.794919 0.102041 1.889929 0.040437 -0.014200 257359.000000 1 0 0
-10.933767 8.521122 -5.861813 15.050503 -0.662016 1.970859 0.004313 -0.000538 -45496.900000 1 0 0
-11.232567 13.532022 -6.552913 18.767708 -0.877985 1.927470 0.028114 -0.014399 -68856.400000 1 0 0
-9.622167 10.444522 -4.440813 14.879347 -0.826356 1.873870 0.000195 -0.003522 -482964.000000 1 0 0
-11.169167 6.126722 -0.241813 12.741487 -0.501721 1.589776 0.002298 0.002103 -1250390.000000 1 0 0
-14.954867 8.938122 -1.297513 17.470593 -0.538707 1.645133 0.029783 -0.005165 -23374.500000 1 0 0
-18.556967 3.582622 4.618087 19.455666 -0.190714 1.331144 0.046953 -0.023986 336422.000000 1 0 0
-14.806967 13.102222 0.372887 19.775074 -0.724392 1.551939 0.021345 -0.008188 -815762.000000 1 0 0
-16.794467 2.242122 -9.125913 19.244831 -0.132719 2.064852 0.038145 -0.006913 455145.000000 1 0 0
-9.201667 8.379622 -8.908813 15.305414 -0.738675 2.192068 0.006161 -0.001565 -1859500.000000 1 0 0
-17.698867 4.488622 -2.611413 18.444975 -0.248374 1.712852 0.033554 -0.001539 972462.000000 1 0 0
-13.608567 5.895722 -4.569313 15.518739 -0.408826 1.869664 0.010826 0.000910 -865085.000000 1 0 0
-12.246467 9.614322 3.439587 15.944965 -0.665570 1.353371 0.005508 0.001185 445760.000000 1 0 0
-17.405167 2.460922 -3.972813 18.021632 -0.140459 1.793069 0.023843 -0.002770 981909.000000 1 0 0
-11.253967 1.405622 -12.591813 16.946424 -0.124257 2.408393 0.014033 -0.005616 -584.982000 1 0 0
-11.217567 12.019622 3.441887 16.797372 -0.819900 1.364428 0.008737 -0.006394 -652563.000000 1 0 0
-16.521567 12.652522 -4.074013 21.204860 -0.653548 1.764125 0.069193 -0.024603 560855.000000 1 0 0
-11.250867 4.027122 -4.625413 12.813827 -0.343730 1.940105 -0.001171 0.000422 -81571.700000 1 0 0
-11.237567 15.054522 -8.631713 20.674332 -0.929566 2.001498 0.047369 -0.016477 287881.000000 1 0 0
-15.473967 6.840322 -0.016813 16.918450 -0.416226 1.571790 0.018695 0.001432 -759976.000000 1 0 0
-12.816367 8.380722 -4.028813 15.834365 -0.579117 1.828059 0.011665 -0.000602 659235.000000 1 0 0
-19.180367 1.991122 -5.834713 20.146834 -0.103440 1.864615 0.075410 -0.015576 32992.000000 1 0 0
-12.644967 9.946622 -8.831013 18.352582 -0.666521 2.072804 0.015444 -0.015412 590730.000000 1 0 0
-16.783067 10.925022 -0.999213 20.050583 -0.577046 1.620652 0.036708 -0.011028 528207.000000 1 0 0
-10.711867 6.552722 -14.564013 19.229995 -0.548997 2.430056 0.027687 -0.010883 -178314.000000 1 0 0
-13.955067 12.704922 -4.450713 19.389889 -0.738540 1.802399 0.043150 -0.017891 71196.800000 1 0 0
-17.997267 7.566222 -0.385913 19.526860 -0.397976 1.590561 0.055709 -0.007937 -229957.000000 1 0 0
-12.932067 6.709722 -2.119413 14.722454 -0.478609 1.715256 0.003410 0.002747 689417.000000 1 0 0
-13.900467 8.466322 -10.612113 19.429836 -0.547060 2.148589 0.011582 -0.008395 -96739.100000 1 0 0
-14.998667 1.262022 -1.035613 15.087253 -0.083945 1.639492 0.005404 -0.002871 -652908.000000 1 0 0
-13.277567 2.718822 -2.360713 13.757134 -0.201976 1.743249 0.001579 0.000812 384817.000000 1 0 0
-11.330067 9.281322 -10.925213 18.272209 -0.686325 2.211693 0.007911 -0.008838 -190816.000000 1 0 0
-15.395867 4.242922 -8.045013 17.881760 -0.268913 2.037450 0.013123 0.000458 938121.000000 1 0 0
-18.633167 10.381222 4.663987 21.833861 -0.508306 1.355525 0.094814 -0.041580 238848.000000 1 0 0
-15.460767 6.190722 -6.332113 17.817295 -0.380864 1.934129 0.023523 0.003446 459716.000000 1 0 0
-7.770267 11.379922 -12.931213 18.896982 -0.971704 2.324440 0.000049 -0.000509 -437993.000000 1 0 0
-16.947567 9.173922 -2.913613 19.490254 -0.496149 1.720850 0.041777 -0.006498 248591.000000 1 0 0
-20.631767 -0.973678 -4.789613 21.202789 0.047158 1.798658 0.076609 -0.019303 1382850.000000 1 0 0
-15.523967 4.234422 4.119387 16.610034 -0.266289 1.320175 0.016727 -0.004662 -611008.000000 1 0 0
-7.080367 12.592922 -9.469313 17.273713 -1.058597 2.150997 0.010309 -0.001966 -2468300.000000 1 0 0
-17.062567 1.625422 5.773487 18.086082 -0.094976 1.245887 0.037846 -0.019288 355735.000000 1 0 0
-10.484967 14.203622 -3.080013 17.921046 -0.934897 1.743520 0.030033 -0.015502 -1306710.000000 1 0 0
-10.101367 8.403522 -12.952113 18.450312 -0.693903 2.348998 0.002059 -0.006702 -151117.000000 1 0 0
-13.829767 11.626322 2.949987 18.306727 -0.699055 1.408948 0.016435 -0.005810 1192480.000000 1 0 0
-17.157567 6.560922 1.918387 18.469110 -0.365236 1.466739 0.030712 -0.005239 1023990.000000 1 0 0
-9.394767 13.194322 -8.370213 18.232176 -0.952041 2.047767 0.026245 -0.015240 -371797.000000 1 0 0
-5.745267 9.723122 -13.002113 17.222141 -1.037104 2.426397 0.003874 0.000783 46433.100000 1 0 0
-16.021567 1.730422 3.127187 16.415367 -0.107589 1.379121 0.010245 -0.007029 -536356.000000 1 0 0
-18.646767 -4.787478 5.161787 19.931531 0.251317 1.308834 0.063036 -0.013520 330914.000000 1 0 0
-5.361367 14.430022 -9.084113 17.874308 -1.215060 2.103915 0.007586 -0.001168 -126253.000000 1 0 0
-15.387467 -0.813178 -6.885613 16.877413 0.052798 1.991035 0.010592 -0.004755 579206.000000 1 0 0
-8.980067 10.962922 -9.567413 17.098615 -0.884499 2.164631 0.001964 -0.008530 290525.000000 1 0 0
-16.647167 1.348322 -6.034713 17.758488 -0.080818 1.917523 0.006422 -0.001795 201325.000000 1 0 0
-11.269667 8.618422 -1.511313 14.267679 -0.652871 1.676921 0.004100 -0.001040 -1195470.000000 1 0 0
-10.706967 10.876022 -12.847013 19.949254 -0.793231 2.270492 0.026606 -0.009222 -539728.000000 1 0 0
-13.927867 11.737422 -10.101413 20.827652 -0.700258 2.077160 0.051557 -0.023183 -639013.000000 1 0 0
-13.265367 5.732622 -7.653713 16.352744 -0.407911 2.057866 0.006610 0.004302 -676080.000000 1 0 0
-8.995067 15.372222 -4.798813 18.445732 -1.041367 1.833983 0.029824 -0.010831 348217.000000 1 0 0
-8.755967 6.037522 -12.989213 16.788040 -0.603666 2.455486 0.005719 -0.006098 -298981.000000 1 0 0
-16.549767 7.413822 4.208087 18.616325 -0.421166 1.342783 0.028193 -0.008101 454239.000000 1 0 0
-12.723667 5.371122 -10.097213 17.108313 -0.399443 2.202095 0.007521 -0.002176 -35617.500000 1 0 0
-12.569667 9.121422 -13.294213 20.443409 -0.627747 2.278767 0.052121 -0.014241 -1228490.000000 1 0 0
-10.839167 5.170322 -8.491313 14.707895 -0.445082 2.186252 0.001479 0.001705 -625098.000000 1 0 0
-17.941667 -4.509478 -2.657113 18.689544 0.246240 1.713451 0.038857 -0.006924 869253.000000 1 0 0
-9.122067 13.235922 -10.911313 19.428291 -0.967362 2.167139 0.032737 -0.006658 185736.000000 1 0 0
-15.251167 6.048722 5.970787 17.459537 -0.377578 1.221775 0.025207 -0.013345 -529466.000000 1 0 0
-16.322667 -3.308578 -4.464113 17.242519 0.199989 1.832681 0.014177 -0.007673 110457.000000 1 0 0
-11.174267 -1.153978 -12.512513 16.815436 0.102906 2.409996 0.009467 -0.005493 86466.900000 1 0 0
-15.483167 6.744422 -8.743513 19.017484 -0.410812 2.048523 0.014059 0.002421 304047.000000 1 0 0
-15.028767 9.110722 1.308887 17.623345 -0.544980 1.496458 0.027205 -0.006793 -544336.000000 1 0 0
-19.620067 5.175422 7.900187 21.774871 -0.257907 1.199512 0.093139 -0.043782 -138569.000000 1 0 0
-16.424167 0.502922 0.804387 16.451542 -0.030611 1.521882 0.026903 -0.009014 417906.000000 1 0 0
-17.567767 3.808422 6.986687 19.285858 -0.213481 1.200094 0.039594 -0.020478 850497.000000 1 0 0
-15.432367 3.924022 -1.346513 15.980269 -0.248995 1.655157 0.011625 -0.001584 503381.000000 1 0 0
-10.982867 13.206122 0.492787 17.183360 -0.877053 1.542114 0.021031 -0.011478 -1382700.000000 1 0 0
-13.462767 3.223022 0.023587 13.843212 -0.234980 1.569092 0.005636 -0.002156 -441044.000000 1 0 0
-15.061367 0.067522 -4.332713 15.672324 -0.004483 1.850901 0.006019 -0.001847 -140072.000000 1 0 0
-19.158867 7.176722 3.491487 20.754711 -0.358411 1.401766 0.060111 -0.014768 883428.000000 1 0 0
-14.098667 1.367922 -6.296513 15.501281 -0.096722 1.989080 0.009324 0.001550 -872656.000000 1 0 0
-14.475567 12.105722 5.450187 19.641667 -0.696479 1.289625 0.021329 -0.011725 586335.000000 1 0 0
17.715433 5.542022 6.293787 19.600059 0.303191 1.243894 0.076883 -0.027450 -523554.000000 1 0 0
18.523633 7.571722 -0.292213 20.013529 0.388035 1.585398 0.038846 -0.004918 896618.000000 1 0 0
16.635433 5.286722 8.500187 19.414949 0.307705 1.117628 0.093917 -0.023179 241275.000000 1 0 0
11.525333 12.476422 10.850987 20.155355 0.825003 1.002298 0.035255 -0.017731 482487.000000 1 0 0
-2.355367 16.255322 -0.567313 16.434874 -1.426900 1.605322 0.009439 -0.006673 7978.510000 1 0 0
14.977333 12.694322 3.314887 19.911172 0.703081 1.403534 0.068734 -0.010615 222754.000000 1 0 0
13.546633 11.753922 6.686087 19.140786 0.714660 1.213961 0.048691 -0.014031 499771.000000 1 0 0
-0.773767 15.850422 8.508287 18.006264 -1.522018 1.078650 0.004403 -0.000395 52328.700000 1 0 0
0.620133 12.799922 9.393987 15.889291 1.522386 0.938232 -0.000959 0.005722 -1681650.000000 1 0 0
0.560233 15.502522 -3.908313 15.997405 1.534674 1.817604 0.011123 -0.007940 -1118420.000000 1 0 0
5.391133 10.353022 13.342187 17.727474 1.090702 0.718753 0.022156 -0.012160 -284078.000000 1 0 0
-1.589467 16.589622 -2.934113 16.921908 -1.475277 1.745068 0.011153 -0.000523 -125549.000000 1 0 0
8.502233 10.088622 3.265287 13.591555 0.870524 1.328179 0.008646 -0.003041 373559.000000 1 0 0
12.517533 13.710222 -4.963413 19.217031 0.830841 1.832040 0.103378 -0.029275 701806.000000 1 0 0
2.317433 11.581322 7.715287 14.107557 1.373304 0.992151 0.002855 0.006414 115679.000000 1 0 0
-0.451367 14.793222 -8.656313 17.145696 -1.540294 2.100025 0.011547 -0.001209 -1165300.000000 1 0 0
2.290633 15.978722 0.129487 16.142593 1.428411 1.562775 0.012353 -0.013574 -507495.000000 1 0 0
1.781233 13.436522 5.265287 14.540845 1.438998 1.200273 0.002619 0.002284 -154807.000000 1 0 0
17.539533 9.060522 -2.271013 19.871733 0.476821 1.685330 0.022673 -0.000158 310811.000000 1 0 0
-7.280267 14.799822 7.149987 17.976633 -1.113637 1.161746 0.019342 -0.021314 -646961.000000 1 0 0
8.425433 15.845122 -0.205713 17.947092 1.082083 1.582259 0.028984 -0.020741 -890363.000000 1 0 0
15.642833 10.421022 2.087287 18.911708 0.587669 1.460201 0.050610 -0.007118 79375.800000 1 0 0
14.292933 7.494022 8.812687 18.387815 0.482911 1.070976 0.062561 -0.018154 -1032590.000000 1 0 0
4.142733 18.173522 -1.862213 18.732511 1.346672 1.670372 0.027923 -0.038379 919310.000000 1 0 0
-0.562367 17.556622 -5.017513 18.268187 -1.538776 1.849031 0.024599 -0.002512 135451.000000 1 0 0
1.270433 13.712922 -0.834913 13.796931 1.478415 1.631348 0.009401 -0.010379 232683.000000 1 0 0
10.232333 14.632922 4.232887 18.350487 0.960562 1.338031 0.030124 -0.016323 539974.000000 1 0 0
-1.812867 15.295622 -5.217113 16.262251 -1.452825 1.897382 0.012457 -0.001511 807847.000000 1 0 0
14.934133 8.904222 -6.173013 18.450463 0.537645 1.911948 0.035525 -0.007789 322356.000000 1 0 0
-2.444167 18.397822 0.809287 18.577103 -1.438719 1.527219 0.021182 -0.012247 311573.000000 1 0 0
-3.909867 19.246422 3.452787 19.940751 -1.370376 1.396767 0.028100 -0.015177 -201006.000000 1 0 0
1.668633 17.676322 -2.831113 17.979207 1.476676 1.728920 0.018292 -0.017806 -390671.000000 1 0 0
2.866233 12.308522 3.292587 13.059714 1.342008 1.315928 0.001929 0.000318 -264323.000000 1 0 0
-2.625467 16.094622 1.832787 16.410029 -1.409094 1.458876 0.013030 -0.010292 -2068730.000000 1 0 0
11.649433 12.786822 -2.687513 17.505280 0.831910 1.724932 0.052424 -0.012452 -105269.000000 1 0 0
7.065433 11.669922 4.702287 14.429793 1.026387 1.238861 0.005107 -0.000874 -140181.000000 1 0 0
6.996133 15.730422 1.780587 17.307875 1.152315 1.467737 0.009508 -0.017461 -830053.000000 1 0 0
5.366433 12.225722 10.091987 16.736639 1.157173 0.923555 0.008992 0.005287 -1046990.000000 1 0 0
-1.455067 14.138822 3.080287 14.543441 -1.468244 1.357381 0.006476 -0.007377 -699870.000000 1 0 0
4.522233 16.097522 1.317187 16.772471 1.296928 1.492183 0.009332 -0.021327 -2885690.000000 1 0 0
7.162533 13.103122 11.834787 19.054025 1.070546 0.900629 0.021230 -0.008414 157336.000000 1 0 0
0.429233 17.174422 -9.508713 19.635698 1.545809 2.076309 0.013390 -0.002383 194246.000000 1 0 0
9.677033 9.684222 15.446287 20.640177 0.785769 0.725210 0.049236 -0.021506 -379952.000000 1 0 0
13.548833 7.672322 -0.048913 15.570414 0.515250 1.573938 0.016279 -0.001890 347273.000000 1 0 0
12.441133 13.480022 -0.194813 18.344774 0.825456 1.581416 0.068366 -0.015467 1006070.000000 1 0 0
9.260933 12.419122 3.335587 15.846943 0.930053 1.358722 0.016240 -0.004012 300087.000000 1 0 0
-0.720467 12.886522 0.775287 12.929911 -1.514946 1.510800 0.008619 -0.007207 -117994.000000 1 0 0
15.999733 7.417222 -1.003813 17.663926 0.434093 1.627655 0.020622 -0.000488 -756566.000000 1 0 0
-4.521467 18.380422 -2.232113 19.059536 -1.329592 1.688178 0.026348 -0.009245 -23826.400000 1 0 0
11.427733 9.305122 -3.258913 15.093008 0.683375 1.788432 0.027374 -0.006539 82178.100000 1 0 0
14.739033 9.727322 7.810387 19.309636 0.583352 1.154385 0.055931 -0.022423 1823930.000000 1 0 0
4.411333 13.754322 4.727787 15.198461 1.260437 1.254477 0.003393 0.001867 -167929.000000 1 0 0
2.141733 15.952322 5.581387 17.035712 1.437336 1.237004 0.007292 -0.000445 470230.000000 1 0 0
6.096733 18.457422 5.237487 20.131514 1.251766 1.307605 0.025114 -0.019683 -686942.000000 1 0 0
10.538333 17.031522 -1.016613 20.053995 1.016701 1.621512 0.085062 -0.033758 -1167310.000000 1 0 0
9.863233 13.554922 -4.567613 17.374762 0.941754 1.836810 0.077801 -0.017959 854698.000000 1 0 0
16.557633 7.950922 2.357387 18.518360 0.447680 1.443150 0.021153 -0.006884 -385854.000000 1 0 0
3.901333 14.051222 -0.681513 14.598688 1.299967 1.617496 0.005535 -0.011296 608295.000000 1 0 0
5.487333 13.170222 -2.539813 14.491936 1.176022 1.746963 0.005103 -0.009484 -400875.000000 1 0 0
-6.437667 16.764422 -2.934513 18.196175 -1.204152 1.732775 0.019467 -0.003748 -1073460.000000 1 0 0
18.243833 9.790522 2.428687 20.846829 0.492535 1.454030 0.069074 -0.017662 376821.000000 1 0 0
7.880533 12.897722 9.380187 17.788815 1.022326 1.015367 0.019562 -0.005640 652346.000000 1 0 0
-2.720467 15.821922 6.730587 17.407899 -1.400518 1.173811 0.007055 -0.002385 -254843.000000 1 0 0
11.018333 15.999722 6.257387 20.409548 0.967723 1.259187 0.044709 -0.016374 -481984.000000 1 0 0
13.510133 11.916922 1.405387 18.069638 0.722822 1.492942 0.057540 -0.010432 502493.000000 1 0 0
17.364133 8.111922 -5.659413 19.983627 0.437037 1.857928 0.030036 0.013984 -374115.000000 1 0 0
9.392333 9.388122 8.014987 15.511053 0.785174 1.027772 0.011543 -0.003954 43531.400000 1 0 0
-2.272467 14.184022 -1.940313 14.495358 -1.411933 1.705057 0.008056 -0.004895 292683.000000 1 0 0
10.868633 11.612822 0.818287 15.926532 0.818488 1.519395 0.032580 -0.006268 187171.000000 1 0 0
11.699933 9.811222 -0.573013 15.279949 0.697821 1.608306 0.028022 -0.005073 -1111100.000000 1 0 0
-0.323967 15.836622 11.039487 19.307352 -1.550342 0.962127 0.007591 -0.009839 -974403.000000 1 0 0
2.160133 19.940222 -1.659913 20.125455 1.462887 1.653368 0.042293 -0.033036 -296018.000000 1 0 0
9.174833 14.439322 1.805587 17.202666 1.004749 1.465643 0.019940 -0.013017 -299787.000000 1 0 0
8.422033 11.655522 -5.118113 15.263581 0.945077 1.912736 0.035323 -0.006969 -1000140.000000 1 0 0
10.548833 10.216022 10.238587 17.901778 0.769372 0.961938 0.018681 -0.009427 46823.200000 1 0 0
-5.173867 15.739822 5.737887 17.533803 -1.253211 1.237407 0.002180 -0.008607 -720832.000000 1 0 0
14.444133 9.188722 -2.005913 17.236278 0.566581 1.687438 0.039994 -0.003729 -329413.000000 1 0 0
12.221733 9.553322 6.960487 17.002503 0.663462 1.149022 0.026962 -0.013610 -1879540.000000 1 0 0
3.097533 12.983422 9.689487 16.493942 1.336598 0.942883 0.007142 0.002646 -404119.000000 1 0 0
8.371533 12.648722 -2.630713 15.394589 0.986137 1.742525 0.036627 -0.011283 -959330.000000 1 0 0
9.256933 17.082922 1.996587 19.532112 1.074207 1.468397 0.019855 -0.016865 -467329.000000 1 0 0
9.399733 14.514622 -7.483213 18.842179 0.996107 1.979208 0.098803 -0.022906 -1303590.000000 1 0 0
6.269433 11.480422 7.232587 14.947113 1.070954 1.065715 0.001606 0.001650 -1477880.000000 1 0 0
5.291833 16.965022 -5.548713 18.617295 1.268434 1.873436 0.050281 -0.018010 -1390540.000000 1 0 0
-4.389267 17.260222 -4.558813 18.383789 -1.321775 1.821391 0.016552 0.002110 260547.000000 1 0 0
-0.222667 18.545822 -0.516513 18.554349 -1.558791 1.598638 0.021799 -0.017551 -367436.000000 1 0 0
6.431233 15.653422 -2.843113 17.160235 1.180970 1.737244 0.026060 -0.015243 -216276.000000 1 0 0
-1.024567 20.642522 0.814287 20.683968 -1.521203 1.531418 0.027552 -0.012285 -28066.100000 1 0 0
-1.465867 18.726822 4.273087 19.264005 -1.492679 1.347119 0.014112 -0.011556 1004620.000000 1 0 0
7.083733 13.805022 -4.527913 16.163536 1.096702 1.854727 0.030180 -0.009937 -39955.200000 1 0 0
-1.037767 11.964122 7.577587 14.199895 -1.484273 1.007901 -0.000934 0.004321 238932.000000 1 0 0
7.518733 10.814322 10.804187 17.035591 0.963261 0.883807 0.014558 -0.007752 245677.000000 1 0 0
1.312833 16.023622 -7.391813 17.695166 1.489048 2.001742 0.008967 -0.004533 1211420.000000 1 0 0
8.806033 7.270522 14.754387 18.657402 0.690175 0.658671 0.037244 -0.010674 85663.700000 1 0 0
11.299533 11.416422 -4.792013 16.762384 0.790544 1.860720 0.065084 -0.013250 -599500.000000 1 0 0
-3.480167 16.955622 4.474187 17.878004 -1.368356 1.317845 0.009053 -0.006592 -396321.000000 1 0 0
3.852433 15.346822 -6.790413 17.218475 1.324853 1.976176 0.028637 -0.015595 392619.000000 1 0 0
-4.492767 14.052722 9.318087 17.449662 -1.261358 1.007474 0.016147 -0.009612 -630918.000000 1 0 0
6.142033 17.778122 0.347587 18.812416 1.238152 1.552319 0.011372 -0.026604 -422645.000000 1 0 0
9.760833 10.815222 -2.144413 14.725535 0.836597 1.716941 0.037742 -0.008301 -2103560.000000 1 0 0
7.426133 18.115822 -2.478913 19.735133 1.181763 1.696738 0.050440 -0.025638 -93971.400000 1 0 0
3.430733 10.411322 10.404987 15.113878 1.252482 0.811461 0.004223 0.004960 712974.000000 1 0 0
-0.084467 18.567722 2.015687 18.677003 -1.566247 1.462662 0.019603 -0.016362 15581.300000 1 0 0
-1.138367 17.043622 -7.469213 18.643231 -1.504104 1.983011 0.025708 -0.000736 -314962.000000 1 0 0
10.044433 8.860522 13.041287 18.694241 0.722855 0.798740 0.033767 -0.014832 47362.800000 1 0 0
3.613933 11.518322 5.518087 13.273339 1.266768 1.142054 -0.000734 0.002927 447259.000000 1 0 0
12.943633 13.826422 8.107287 20.601837 0.818363 1.166336 0.052758 -0.023859 -221458.000000 1 0 0
-0.593867 17.435522 6.724587 18.696796 -1.536749 1.202887 0.006060 -0.003912 -203486.000000 1 0 0
12.069833 13.671322 5.790187 19.134058 0.847533 1.263365 0.042844 -0.008724 -1059540.000000 1 0 0
4.688933 14.628922 -4.460413 15.996460 1.260617 1.853380 0.014858 -0.011754 -1479290.000000 1 0 0
3.750933 17.607822 4.591987 18.579323 1.360907 1.321052 0.017056 -0.010780 281346.000000 1 0 0
6.949733 11.704222 2.030787 13.762692 1.034963 1.422698 0.010802 -0.002956 532434.000000 1 0 0
6.376933 8.613322 11.667687 15.842649 0.933495 0.742954 0.010364 -0.004176 621196.000000 1 0 0
-5.426667 14.811622 1.678487 15.863486 -1.219605 1.464790 0.006658 -0.005235 -164336.000000 1 0 0
6.755033 13.822122 6.022087 16.521110 1.116220 1.197691 0.002749 0.000355 113565.000000 1 0 0
5.786233 15.910922 4.854487 17.612608 1.222001 1.291556 0.003700 -0.009190 571910.000000 1 0 0
1.166133 18.022422 4.194887 18.540891 1.506182 1.342570 0.020793 -0.011880 1663440.000000 1 0 0
7.090133 18.200022 -6.975013 20.740337 1.199316 1.913784 0.056250 -0.023957 410447.000000 1 0 0
-2.685467 18.621622 -6.050413 19.763199 -1.427571 1.881938 0.026882 -0.000460 -2965810.000000 1 0 0
13.454833 10.265322 -4.470613 17.504163 0.651736 1.829061 0.039903 -0.005395 -3164380.000000 1 0 0
-1.392767 17.973522 10.032687 20.631096 -1.493461 1.062958 0.006023 -0.002545 -11180.800000 1 0 0
3.344533 11.820422 -1.674413 12.398062 1.295059 1.706265 0.008067 -0.009309 82698.200000 1 0 0
4.220133 14.049822 -10.831413 18.235310 1.279001 2.206794 0.016981 -0.011631 -722289.000000 1 0 0
11.483533 13.432622 2.320887 17.823955 0.863465 1.440214 0.046290 -0.011767 -32856.900000 1 0 0
15.824933 6.592622 -7.082313 18.548593 0.394732 1.962566 0.019230 0.003469 120850.000000 1 0 0
2.493733 15.938622 2.858487 16.383813 1.415596 1.395429 0.010959 -0.012526 125224.000000 1 0 0
13.490633 10.653122 3.587187 17.560014 0.668409 1.365067 0.038399 -0.006510 -456178.000000 1 0 0
-5.117367 19.474022 -5.784013 20.949458 -1.313827 1.850524 0.016101 -0.007493 287941.000000 1 0 0
5.376833 12.025322 0.004787 13.172651 1.150335 1.570433 0.007190 -0.007673 1166100.000000 1 0 0
4.357933 15.718122 9.582887 18.917787 1.300335 1.039613 0.009158 0.008529 290276.000000 1 0 0
7.615933 9.477422 13.930087 18.489762 0.893872 0.717587 0.025591 -0.015371 -200002.000000 1 0 0
-5.136467 13.429922 6.820387 15.914264 -1.205498 1.127886 0.005095 -0.008966 -2067160.000000 1 0 0
-4.664667 17.103522 0.522687 17.735918 -1.304540 1.541321 0.013890 -0.005061 -1636320.000000 1 0 0
-0.749067 16.468122 3.575387 16.868418 -1.525342 1.357219 0.013510 -0.012800 -1205360.000000 1 0 0
7.776933 16.969922 -4.775613 19.268249 1.141080 1.821255 0.051945 -0.025884 1097920.000000 1 0 0
2.826933 16.542922 -4.715013 17.432474 1.401546 1.844681 0.009784 -0.010037 906974.000000 1 0 0
9.476433 14.379822 8.029587 19.001482 0.988114 1.134510 0.022156 -0.008642 4485.420000 1 0 0
12.774733 10.954522 9.135287 19.148076 0.708841 1.073460 0.040782 -0.021031 325699.000000 1 0 0
3.755533 12.428622 12.129487 17.767924 1.277352 0.819397 0.017566 0.000350 303692.000000 1 0 0
-3.439067 19.035822 5.998287 20.252633 -1.392061 1.270113 0.020431 -0.007294 -154901.000000 1 0 0
-2.723467 15.783322 10.044487 18.905614 -1.399925 1.010666 0.004827 -0.007489 -1667860.000000 1 0 0
1.935433 14.203722 7.640487 16.244035 1.435368 1.081102 0.008046 0.002458 -75629.300000 1 0 0
4.271433 17.548022 7.721687 19.641860 1.332026 1.166770 0.020321 -0.003616 398895.000000 1 0 0
-1.956767 13.417622 9.391587 16.494345 -1.425982 0.965042 -0.003050 0.001324 -1558970.000000 1 0 0
5.793633 17.701922 2.911187 18.852035 1.254496 1.415753 0.004702 -0.022641 490757.000000 1 0 0
7.020033 15.517522 -6.878113 18.367983 1.145953 1.954613 0.031999 -0.011050 -294592.000000 1 0 0
11.039333 7.786922 9.270787 16.384460 0.614327 0.969359 0.019715 -0.013191 264757.000000 1 0 0
8.923033 15.947322 -2.758013 18.480915 1.060665 1.720592 0.063886 -0.040687 -1391130.000000 1 0 0
14.601533 11.585622 -6.370613 19.698124 0.670736 1.900130 0.091621 -0.016245 208510.000000 1 0 0
11.011833 6.537822 16.009987 20.501787 0.535781 0.674680 0.078512 -0.033875 391933.000000 1 0 0
8.519133 8.500322 10.164887 15.752969 0.784293 0.869422 0.012450 -0.005799 565917.000000 1 0 0
16.596433 9.468322 4.413287 19.610401 0.518448 1.343804 0.060491 -0.015610 -2616.960000 1 0 0
-3.367467 14.242822 4.687987 15.367987 -1.338627 1.260807 0.001445 -0.008417 -1537320.000000 1 0 0
4.505233 14.838722 12.533487 19.939235 1.276028 0.891065 0.018088 0.000937 -1483380.000000 1 0 0
16.018533 10.574922 -4.498813 19.714504 0.583490 1.801023 0.066259 -0.021214 61698.200000 1 0 0
14.640633 14.012522 6.106287 21.165671 0.763480 1.278137 0.069082 -0.012538 -724486.000000 1 0 0
6.153733 9.446322 9.219787 14.563856 0.993408 0.885297 0.003825 0.002080 471539.000000 1 0 0
10.405533 12.055922 8.498787 18.051309 0.858743 1.080584 0.026641 -0.014026 -329490.000000 1 0 0
7.924933 11.523422 -0.338613 13.989584 0.968357 1.595003 0.011474 -0.005212 -646886.000000 1 0 0
7.289833 13.624722 -8.631213 17.699507 1.079508 2.080195 0.049629 -0.011750 -831053.000000 1 0 0
2.646133 15.331822 -2.381713 15.739738 1.399889 1.722698 0.012540 -0.015148 333865.000000 1 0 0
12.046133 14.073422 -7.703613 20.062806 0.862859 1.964894 0.119128 -0.032470 -553196.000000 1 0 0
-8.111567 14.721522 9.615087 19.364159 -1.067185 1.051188 0.045661 -0.024857 234868.000000 1 0 0
11.483033 9.669322 2.224487 15.175776 0.699862 1.423685 0.032031 -0.005541 -1591300.000000 1 0 0
12.008833 8.862122 4.549687 15.602850 0.635755 1.274904 0.019932 -0.007311 -17497.000000 1 0 0
14.065533 8.084022 6.063987 17.319427 0.521639 1.213090 0.030840 -0.015555 -2353620.000000 1 0 0
16.265933 7.479922 7.129087 19.270539 0.431017 1.191844 0.080624 -0.028736 -346262.000000 1 0 0
13.664533 8.251422 2.608087 16.174286 0.543251 1.408840 0.024923 -0.005533 -2347530.000000 1 0 0
-4.471167 17.145722 -7.096913 19.087517 -1.315703 1.951753 0.017032 -0.015739 -75240.800000 1 0 0
3.206233 19.426022 -4.000313 20.091111 1.407223 1.771245 0.042088 -0.025220 377471.000000 1 0 0
-0.212067 14.868022 6.257787 16.132667 -1.556534 1.172449 0.001213 -0.000187 641421.000000 1 0 0
6.598433 16.362122 8.426487 19.551574 1.187470 1.125209 0.019086 0.002057 335908.000000 1 0 0
12.728433 15.089122 -2.118813 19.854067 0.870059 1.677719 0.114416 -0.033041 76382.200000 1 0 0
12.614533 15.798422 4.222787 20.653051 0.896990 1.364881 0.063836 -0.014682 431873.000000 1 0 0
2.837533 18.148522 1.338787 18.417730 1.415701 1.498042 0.016921 -0.023807 -522483.000000 1 0 0
10.264133 14.437922 -1.265913 17.759745 0.952782 1.642137 0.060605 -0.015835 -1539790.000000 1 0 0
-6.517467 15.639122 -0.523113 16.950904 -1.175942 1.601662 0.011126 -0.006993 -369596.000000 1 0 0
-4.123767 15.827122 -2.454213 16.538634 -1.315913 1.719739 0.011065 -0.002444 -656016.000000 1 0 0
-6.901667 16.890522 1.841187 18.338831 -1.182888 1.470229 0.013453 -0.006744 58985.000000 1 0 0
-0.379467 19.400922 -6.841113 20.575242 -1.551240 1.909741 0.035769 -0.005254 -566244.000000 1 0 0
4.652233 15.064822 7.042487 17.268143 1.271273 1.150719 0.011029 0.003827 -555969.000000 1 0 0
8.508033 12.199522 6.910487 16.400299 0.961813 1.135848 0.011429 -0.004803 -1214820.000000 1 0 0
-7.611067 17.381822 -5.472813 19.748614 -1.158071 1.851596 0.039832 -0.019705 -10689.800000 1 0 0
-8.088267 17.618822 -1.211413 19.424481 -1.140426 1.633202 0.042461 -0.011810 -121882.000000 1 0 0
-13.823767 -9.062578 8.877987 18.762876 0.580288 1.077913 0.062035 -0.031066 -367146.000000 1 0 0
-12.570967 -13.001678 7.648487 19.635993 0.802239 1.170693 0.059925 -0.015210 -144161.000000 1 0 0
-3.665667 -15.147178 12.610587 20.047470 1.333358 0.890483 0.019393 -0.009221 199726.000000 1 0 0
-1.956467 -14.033378 15.119187 20.720842 1.432274 0.752970 0.038984 -0.005210 -93316.000000 1 0 0
-6.986367 -13.778978 12.738787 20.023643 1.101540 0.881250 0.031865 -0.007758 -15141.000000 1 0 0
-9.773967 -11.628578 8.999887 17.656507 0.871836 1.035936 0.031129 -0.010636 485596.000000 1 0 0
-10.400567 -10.725878 11.327087 18.748844 0.800795 0.922099 0.057334 -0.019334 337597.000000 1 0 0
-5.846067 -12.416878 10.733787 17.423248 1.130767 0.907064 0.020970 -0.001129 625878.000000 1 0 0
-12.375267 -10.447078 7.329187 17.776548 0.701111 1.145824 0.028148 -0.011350 -802747.000000 1 0 0
-7.512367 -11.209378 12.388887 18.318579 0.980361 0.828066 0.024595 -0.014962 67818.500000 1 0 0
-14.722967 -11.598978 7.349287 20.132414 0.667267 1.197112 0.059543 -0.010119 772600.000000 1 0 0
-11.062067 -9.259778 9.210787 17.115824 0.696942 1.002562 0.031088 -0.010395 932803.000000 1 0 0
-5.162867 -12.068478 13.202787 18.617652 1.166558 0.782498 0.024710 -0.007785 -779978.000000 1 0 0
3.883633 -12.392578 14.661287 19.586014 -1.267107 0.724910 -0.008609 -0.001780 -240232.000000 1 0 0
6.505733 -12.735378 14.394487 20.290778 -1.098515 0.782135 0.014357 0.003400 302371.000000 1 0 0
6.585233 -8.656278 16.375687 19.658575 -0.920453 0.586280 0.007712 -0.000232 -60702.600000 1 0 0
0.773033 -1.717278 14.427287 14.549682 -1.147818 0.129800 0.006395 -0.005144 -1913430.000000 1 0 0
-0.022067 -6.198978 15.620087 16.805206 1.567237 0.377798 0.008543 -0.009143 -434787.000000 1 0 0
-1.324367 -4.633178 18.235587 18.861520 1.292377 0.258344 0.031404 -0.027964 -2041460.000000 1 0 0
-5.247067 12.659222 12.908587 18.826026 -1.177865 0.815262 0.024428 -0.009428 -153534.000000 1 0 0
-4.013367 8.854722 11.628887 15.157316 -1.145246 0.696312 0.001699 0.008725 -234445.000000 1 0 0
-0.707267 -3.890378 15.010587 15.522661 1.390961 0.257572 0.007489 -0.007121 132652.000000 1 0 0
-4.295867 9.163322 14.210887 17.446211 -1.132410 0.618836 0.000650 -0.001552 355882.000000 1 0 0
-13.427467 -2.486678 16.770887 21.627369 0.183119 0.683373 0.056287 -0.000139 -72473.400000 1 0 0
-0.288567 0.945922 17.212687 17.241074 -1.274700 0.057392 0.014590 -0.011375 -1771450.000000 1 0 0
-3.293567 -7.361778 15.421187 17.402769 1.150117 0.481861 0.021293 -0.008465 409023.000000 1 0 0
-7.431167 5.724722 12.539287 15.659771 -0.656409 0.642279 0.008836 0.001090 -2949180.000000 1 0 0
-9.890867 10.008022 13.387987 19.422357 -0.791286 0.810263 0.035568 -0.022047 399035.000000 1 0 0
-5.488867 2.267422 11.176387 12.656244 -0.391744 0.488425 0.006692 -0.000857 -1674080.000000 1 0 0
-7.270867 -7.445778 16.808887 19.769770 0.797283 0.554371 0.034501 -0.018624 -51550.700000 1 0 0
-4.853467 3.155322 18.628787 19.507535 -0.576458 0.301294 0.021007 -0.003161 -794849.000000 1 0 0
1.128433 -8.256778 16.588687 18.564275 -1.434970 0.465536 0.011164 -0.012581 680176.000000 1 0 0
-15.018267 -3.686978 13.741687 20.687584 0.240738 0.844309 0.075192 -0.018223 74114.700000 1 0 0
-14.308967 2.438322 13.048787 19.518269 -0.168784 0.838549 0.024146 -0.001903 -938899.000000 1 0 0
-5.427767 0.851822 16.057987 16.971895 -0.155668 0.329662 0.021869 -0.006914 338483.000000 1 0 0
4.514733 5.681022 15.140187 16.789345 0.899293 0.446941 0.010258 -0.007402 162942.000000 1 0 0
-0.800367 -11.914678 14.067887 18.452794 1.503722 0.703826 -0.004342 -0.005853 -211183.000000 1 0 0
-5.725767 -4.171078 16.683287 18.124966 0.629582 0.401543 0.028340 -0.014266 200978.000000 1 0 0
-12.860867 -1.554178 9.874287 16.288613 0.120262 0.919512 0.011573 -0.001160 -512158.000000 1 0 0
-14.652167 10.452022 10.276387 20.725224 -0.619625 1.051995 0.029533 -0.007516 550984.000000 1 0 0
-3.461067 -3.439678 17.732687 18.391807 0.782299 0.268529 0.028156 -0.016535 -1756380.000000 1 0 0
-7.957767 9.305322 11.849687 17.039078 -0.863300 0.801762 0.014573 -0.006060 -171930.000000 1 0 0
-4.118867 10.504522 16.392187 19.900097 -1.197115 0.602848 -0.001844 -0.003717 337425.000000 1 0 0
-12.543367 12.824822 8.185787 19.718500 -0.796493 1.142708 0.030464 -0.017464 353112.000000 1 0 0
-12.716967 3.172822 10.437687 16.755100 -0.244503 0.898281 0.009289 0.000720 445896.000000 1 0 0
-10.072967 -3.521578 13.619687 17.302083 0.336325 0.664589 0.026673 -0.008390 -1282370.000000 1 0 0
-4.192467 -6.474678 17.774487 19.376033 0.996168 0.409440 0.040353 -0.016841 -76935.800000 1 0 0
0.996833 -3.668478 17.828887 18.229664 -1.305473 0.210076 0.018626 -0.023610 -1051860.000000 1 0 0
-5.963667 1.802622 13.615587 14.973276 -0.293536 0.429135 0.010075 0.000370 -398860.000000 1 0 0
-10.664467 8.661122 10.241487 17.135751 -0.682104 0.930207 0.021970 -0.008881 -14936.500000 1 0 0
4.663733 2.562522 17.257687 18.059477 0.502426 0.299097 0.030344 -0.016229 -1108650.000000 1 0 0
0.533133 -5.261778 13.195087 14.215515 -1.469819 0.381204 0.001423 -0.003441 -363757.000000 1 0 0
-3.913567 5.743722 20.851187 21.979044 -0.972687 0.321745 0.038852 -0.011018 -239696.000000 1 0 0
-10.912367 10.890522 9.061787 17.882931 -0.784396 1.039411 0.029748 -0.013197 355124.000000 1 0 0
0.660733 4.107522 13.040287 13.687856 1.411303 0.308829 0.004794 -0.007029 -2620240.000000 1 0 0
-3.191367 7.063722 13.263687 15.362500 -1.146449 0.528864 0.001540 0.003837 -1865790.000000 1 0 0
0.607833 8.798722 14.151587 16.674963 1.501824 0.557325 -0.001019 0.003952 622294.000000 1 0 0
-4.129467 -6.792578 13.054787 15.284603 1.024560 0.546952 0.012942 -0.004865 -278035.000000 1 0 0
-5.135167 8.146422 16.528887 19.129513 -1.008353 0.527533 0.013986 0.000094 957099.000000 1 0 0
1.583233 -10.698478 15.771387 19.123303 -1.423876 0.601088 -0.003213 -0.005232 -395708.000000 1 0 0
-15.084467 -1.029278 14.280187 20.797219 0.068129 0.813940 0.043603 0.002068 27348.500000 1 0 0
-13.325367 -5.469878 8.828487 16.894590 0.389513 1.020942 0.029454 -0.011410 -855816.000000 1 0 0
-14.141267 -1.995678 12.036887 18.677388 0.140199 0.870475 0.038142 -0.010339 379260.000000 1 0 0
9.359333 1.492222 16.901887 19.377761 0.158106 0.511051 0.069736 -0.020897 -492686.000000 1 0 0
5.117233 -6.584078 16.741887 18.703661 -0.910105 0.462112 0.021004 -0.021200 -76725.400000 1 0 0
-6.028167 -2.665678 10.974087 12.801376 0.416352 0.540875 0.006905 -0.000539 207172.000000 1 0 0
0.725033 -6.229078 18.076487 19.133387 -1.454923 0.333930 0.025011 -0.023027 136902.000000 1 0 0
-8.547067 11.854522 12.329787 19.120819 -0.946117 0.869988 0.038001 -0.012898 457426.000000 1 0 0
-6.635967 -5.850678 14.798787 17.241537 0.722591 0.538806 0.025921 -0.007342 -752316.000000 1 0 0
-4.348467 -8.959578 17.207187 19.881411 1.118943 0.524666 0.041240 -0.015759 227977.000000 1 0 0
2.588733 -6.046378 16.337887 17.612121 -1.166264 0.382726 0.010486 -0.013764 -408030.000000 1 0 0
2.212033 5.225722 16.094287 17.065384 1.170369 0.338976 0.009130 -0.008371 -1352080.000000 1 0 0
1.094733 -8.789478 14.051087 16.609829 -1.446884 0.562452 -0.005926 -0.002516 -571942.000000 1 0 0
-9.829067 -2.862978 11.222187 15.190283 0.283435 0.739547 0.003348 -0.002126 -67014.300000 1 0 0
-1.336367 10.214322 12.335687 16.071323 -1.440703 0.695772 -0.004185 0.006902 -425671.000000 1 0 0
-12.353367 -3.737278 11.296087 17.151517 0.293777 0.851832 0.028537 -0.008380 225232.000000 1 0 0
-1.887167 6.937722 19.841287 21.103793 -1.305207 0.347649 0.026280 -0.012642 37887.200000 1 0 0
0.510133 -13.404778 15.816887 20.739389 -1.532759 0.703397 0.007898 -0.007956 -218505.000000 1 0 0
4.147633 -8.563078 15.356287 18.065014 -1.119737 0.554703 0.003308 -0.008422 -948697.000000 1 0 0
4.519133 -4.256478 16.245587 17.391356 -0.755477 0.365015 0.024841 -0.012467 567526.000000 1 0 0
8.081133 1.940922 14.717187 16.901701 0.235715 0.514067 0.018205 -0.005099 -204119.000000 1 0 0
-6.301467 -0.060278 11.734187 13.319282 0.009565 0.492841 0.009232 0.000941 402079.000000 1 0 0
-3.588467 -11.148978 18.460587 21.862527 1.259402 0.565363 0.069765 -0.017755 -44899.400000 1 0 0
3.310733 -1.476578 13.538487 14.015416 -0.419520 0.261624 0.004794 -0.005869 642408.000000 1 0 0
-2.490867 8.422222 15.958987 18.216134 -1.283244 0.503103 0.006508 -0.004048 -537387.000000 1 0 0
-3.208867 4.067822 14.876487 15.752901 -0.902896 0.335138 0.008329 -0.001195 -396280.000000 1 0 0
-4.448267 -9.044878 19.806187 22.223455 1.113731 0.470749 0.069500 -0.027104 -88733.600000 1 0 0
-5.729467 -2.991878 18.992387 20.062126 0.481243 0.328031 0.037741 -0.023966 -738016.000000 1 0 0
-6.495767 -8.658078 11.042587 15.462731 0.927132 0.775399 0.012929 -0.007267 -1036640.000000 1 0 0
-11.740767 2.572422 12.682387 17.473005 -0.215693 0.758560 0.012864 -0.005950 -202430.000000 1 0 0
-11.604867 -7.507378 11.474687 17.963912 0.574204 0.877906 0.045894 -0.021365 -516313.000000 1 0 0
-10.909167 -7.431078 15.664387 20.484235 0.597981 0.700214 0.060483 -0.024673 374720.000000 1 0 0
0.185333 5.566622 17.629087 18.488006 1.537515 0.306014 0.009001 -0.012560 -378033.000000 1 0 0
-2.175167 -0.081878 13.191087 13.369474 0.037624 0.163540 0.006658 -0.000987 215935.000000 1 0 0
-6.138167 -10.407378 18.369987 21.987429 1.037918 0.581796 0.083021 -0.025595 678041.000000 1 0 0
0.302233 2.598622 19.172887 19.350550 1.455011 0.135612 0.024361 -0.017553 -213621.000000 1 0 0
-0.825067 10.923222 14.743987 18.367980 -1.495406 0.638987 0.007442 0.002526 682421.000000 1 0 0
-12.838067 -2.329078 14.265987 19.332847 0.179468 0.740821 0.038912 -0.007563 -710833.000000 1 0 0
-13.794867 8.376022 11.839187 20.015556 -0.545685 0.937879 0.024176 -0.015296 231485.000000 1 0 0
-17.987267 -0.486578 7.031287 19.318839 0.027045 1.198280 0.079461 -0.031807 -971475.000000 1 0 0
-1.993967 -7.838878 17.639687 19.405733 1.321710 0.429933 0.030073 -0.019858 -1090440.000000 1 0 0
5.703333 2.726622 14.514487 15.831387 0.445954 0.410761 0.018633 -0.006884 -2447910.000000 1 0 0
-14.253867 -7.449678 11.191487 19.593872 0.481597 0.962862 0.076583 -0.016956 309260.000000 1 0 0
3.147833 7.621922 16.274687 18.244670 1.179136 0.468992 0.015182 -0.015219 -277837.000000 1 0 0
1.072733 1.949122 14.629187 14.797397 1.067671 0.150925 0.007362 -0.011304 -1743770.000000 1 0 0
-14.329367 0.646122 9.858987 17.405398 -0.045060 0.968626 0.024908 -0.001500 -2083620.000000 1 0 0
-9.584267 -5.239478 15.471887 18.939103 0.500287 0.614732 0.040390 -0.012518 -233604.000000 1 0 0
-2.599267 0.068422 18.144487 18.329847 -0.026317 0.142334 0.024029 -0.013538 201119.000000 1 0 0
6.873633 3.754422 17.626187 19.287950 0.499926 0.418143 0.054166 -0.013644 -86234.900000 1 0 0
-4.114167 -0.893378 14.670687 15.262816 0.213827 0.279460 0.018384 -0.001590 1124600.000000 1 0 0
4.436833 -8.654378 17.897687 20.369363 -1.097065 0.497754 0.009723 -0.011239 -511474.000000 1 0 0
1.818433 6.859522 13.378087 15.143743 1.311661 0.487713 0.001262 -0.001892 -854829.000000 1 0 0
-3.667667 -0.933678 20.362887 20.711608 0.249275 0.183763 0.039867 -0.012095 -563954.000000 1 0 0
-10.688867 1.613222 16.130887 19.418030 -0.149795 0.590402 0.026313 -0.010755 -605496.000000 1 0 0
-4.201567 6.908022 18.668487 20.344197 -1.024358 0.408716 0.025739 -0.003616 -396962.000000 1 0 0
-12.610467 1.111722 14.534087 19.274322 -0.087931 0.716567 0.023254 -0.006882 -1154000.000000 1 0 0
-15.942767 -5.156678 8.506787 18.791716 0.312829 1.101019 0.066432 -0.029221 290590.000000 1 0 0
-2.346867 0.864922 15.708587 15.906464 -0.353098 0.157898 0.017010 -0.005275 -156244.000000 1 0 0
-13.050967 -8.930478 12.990687 20.465560 0.600096 0.883100 0.053370 -0.029650 732722.000000 1 0 0
6.140433 -3.096778 14.510987 16.058135 -0.467102 0.442572 0.021721 -0.013235 728468.000000 1 0 0
-15.711167 0.448322 7.642187 17.476979 -0.028528 1.118234 0.034086 -0.015578 685533.000000 1 0 0
-14.356067 5.937822 12.154787 19.725447 -0.392184 0.906890 0.041615 -0.020487 -569351.000000 1 0 0
0.321933 9.475622 16.665287 19.173494 1.536835 0.517247 0.010048 -0.007059 -173596.000000 1 0 0
-10.262467 -5.434478 10.892487 15.921623 0.487006 0.817384 0.020770 -0.011602 73281.900000 1 0 0
-3.128367 -11.098878 15.051887 18.961305 1.296061 0.653729 0.024278 -0.008063 -1190190.000000 1 0 0
-3.439667 2.692722 12.675687 13.407278 -0.664192 0.331874 0.003721 -0.001771 -1803130.000000 1 0 0
-12.263367 -7.741778 7.413187 16.287438 0.563112 1.098258 0.027808 -0.015729 -358743.000000 1 0 0
-8.118167 -1.921278 13.167387 15.587689 0.232388 0.564736 0.014345 0.001661 -268457.000000 1 0 0
-9.943467 6.391222 9.582787 15.216769 -0.571266 0.889563 0.011839 -0.002363 -492457.000000 1 0 0
-17.725567 -3.355578 6.948187 19.332174 0.187093 1.203160 0.069823 -0.032090 698997.000000 1 0 0
-1.273867 0.019822 20.448287 20.487938 -0.015559 0.062224 0.036188 -0.016491 -672727.000000 1 0 0
-2.873367 2.611322 20.164187 20.534598 -0.737657 0.190225 0.037487 -0.013269 -327304.000000 1 0 0
-3.945467 11.323122 11.126687 16.357964 -1.235509 0.822761 0.007304 -0.002908 -406122.000000 1 0 0
-4.131867 -4.845378 14.891187 16.195601 0.864711 0.404095 0.017196 -0.008497 -83806.400000 1 0 0
-0.112167 -14.272578 13.295687 19.506265 1.562938 0.820834 0.017302 -0.011765 -587605.000000 1 0 0
-12.141567 0.461222 8.366187 14.752067 -0.037969 0.967792 0.003139 0.000819 -121474.000000 1 0 0
-7.736767 2.032922 15.374787 17.331313 -0.256953 0.479750 0.017260 -0.001762 -1616620.000000 1 0 0
3.722033 -2.102578 18.409387 18.899204 -0.514211 0.228167 0.036944 -0.020350 -193128.000000 1 0 0
-2.039467 4.791522 12.569887 13.605888 -1.168383 0.392759 0.000639 -0.000825 -754399.000000 1 0 0
-10.312867 -6.306778 13.320987 17.988312 0.548865 0.736929 0.032242 -0.012819 -943538.000000 1 0 0
2.270933 -3.732978 14.272287 14.926167 -1.024264 0.297090 0.005639 -0.004709 -696297.000000 1 0 0
6.832933 1.108522 16.917787 18.279205 0.160831 0.388387 0.036856 -0.015387 -1037410.000000 1 0 0
-1.930667 -5.864378 13.831987 15.147352 1.252753 0.419821 0.007670 -0.003770 -1804490.000000 1 0 0
-12.795167 3.803822 14.691287 19.849919 -0.288965 0.737550 0.002963 0.000145 107527.000000 1 0 0
-13.192067 -6.380678 13.310987 19.797123 0.450503 0.833391 0.060889 -0.032997 -515237.000000 1 0 0
-9.678167 6.892822 12.056287 16.927256 -0.618869 0.778110 0.015303 0.000717 -648844.000000 1 0 0
-1.010767 -2.460778 12.827187 13.100146 1.181056 0.204495 0.004047 -0.001889 603273.000000 1 0 0
0.011233 6.552922 15.312087 16.655358 1.569082 0.404374 0.004575 -0.007658 211790.000000 1 0 0
-16.406767 -0.941578 9.700987 19.083441 0.057327 1.037534 0.064336 -0.012432 -30901.800000 1 0 0
-1.281967 2.681022 13.822887 14.138725 -1.124770 0.211765 0.003537 -0.004827 -2309310.000000 1 0 0
-11.090367 -3.289678 16.042487 19.778262 0.288357 0.624737 0.037580 -0.015344 82635.700000 1 0 0
-4.937967 -1.592278 16.996487 17.770747 0.311929 0.296275 0.021733 -0.009580 505794.000000 1 0 0
-12.049667 6.582822 11.122287 17.670125 -0.500004 0.889964 0.017599 -0.004117 -2361120.000000 1 0 0
-2.772467 4.706922 18.671987 19.454686 -1.038490 0.284621 0.023670 -0.010399 217262.000000 1 0 0
5.174033 -1.733278 16.398987 17.282988 -0.323246 0.321218 0.031766 -0.017248 -1104690.000000 1 0 0
-7.955667 -4.180078 12.086787 15.061744 0.483777 0.639352 0.013017 -0.005218 -1191640.000000 1 0 0
-11.691767 -0.757478 15.986587 19.820246 0.064697 0.632455 0.043742 -0.007845 468719.000000 1 0 0
2.110233 2.133822 17.370187 17.627526 0.790956 0.171081 0.012806 -0.014197 -380817.000000 1 0 0
-8.955067 -7.622778 11.548487 16.482340 0.705205 0.794477 0.024266 -0.010002 468298.000000 1 0 0
-7.201967 6.808122 14.890087 17.886687 -0.757294 0.587250 0.008520 -0.004218 -946463.000000 1 0 0
-5.677367 3.447822 15.732687 17.077395 -0.545764 0.399494 0.012759 -0.003568 951567.000000 1 0 0
-9.386667 4.312322 11.645487 15.566728 -0.430651 0.725600 0.007531 -0.003441 100331.000000 1 0 0
-10.323167 0.050922 13.941187 17.347250 -0.004933 0.637386 0.022248 -0.006966 -429516.000000 1 0 0
8.352333 -0.541878 15.532187 17.643807 -0.064787 0.494261 0.045262 -0.017704 156056.000000 1 0 0
-8.523167 -7.593178 14.559587 18.500873 0.727757 0.664918 0.040985 -0.011017 -1864160.000000 1 0 0
-0.044067 4.045822 15.553087 16.070754 -1.559905 0.254504 0.005130 -0.012340 15509.200000 1 0 0
-8.155167 3.062422 9.639387 12.992420 -0.359226 0.734861 0.006322 0.001141 -416297.000000 1 0 0
-1.945967 -9.768478 13.150487 16.496826 1.374162 0.648232 0.005113 -0.002218 613763.000000 1 0 0
-6.154367 10.260922 10.515787 15.929361 -1.030533 0.849776 0.019611 -0.002772 -3291470.000000 1 0 0
-8.501667 -2.938678 15.588787 17.997902 0.332802 0.523360 0.026458 -0.009622 -738078.000000 1 0 0
4.215533 5.768622 17.723887 19.109786 0.939717 0.383189 0.025481 -0.013116 14421.600000 1 0 0
-6.762967 -1.066078 15.236887 16.704400 0.156348 0.422301 0.017541 0.000756 181851.000000 1 0 0
-0.859967 -9.712978 15.487687 18.301638 1.482489 0.561897 -0.001084 -0.008327 6001.370000 1 0 0
-4.382867 5.726122 16.237087 17.766288 -0.917502 0.417940 0.012900 -0.000136 200814.000000 1 0 0
3.744433 0.158922 17.402887 17.801869 0.042417 0.212116 0.032067 -0.015811 -902214.000000 1 0 0
1.436533 0.317622 19.075487 19.132139 0.217602 0.076974 0.019814 -0.021362 -729334.000000 1 0 0
-6.507767 6.221722 17.647887 19.811835 -0.762931 0.471749 0.030619 -0.012639 -1872260.000000 1 0 0
-12.054867 0.588222 11.024687 16.346546 -0.048757 0.830597 0.014327 -0.000783 -220579.000000 1 0 0
-5.376667 5.122422 13.821187 15.689901 -0.761187 0.493042 0.006449 0.000296 -1145220.000000 1 0 0
-8.590067 -9.477978 9.799787 16.113881 0.834501 0.917058 0.022543 -0.012124 -320834.000000 1 0 0
7.055033 -3.495378 16.873887 18.620398 -0.459997 0.436577 0.048580 -0.022420 -781695.000000 1 0 0
-16.761967 1.686422 9.697887 19.438533 -0.100273 1.048467 0.061554 -0.013655 756099.000000 1 0 0
-4.098067 -9.517078 11.421987 15.421761 1.164191 0.736773 0.006919 -0.003644 793189.000000 1 0 0
-10.972667 -4.003378 9.099387 14.806259 0.349843 0.908964 0.008763 -0.003596 -483585.000000 1 0 0
3.807633 -5.269278 18.545587 19.652027 -0.945057 0.337159 0.025496 -0.019936 -178134.000000 1 0 0
2.571933 -1.789978 16.027087 16.330536 -0.608014 0.193078 0.011111 -0.011766 16322.800000 1 0 0
-2.971367 -4.248478 20.218687 20.872803 0.960476 0.251011 0.050851 -0.025788 -638836.000000 1 0 0
-6.284767 -3.412778 14.326887 16.012653 0.497471 0.462986 0.017926 -0.001585 -687314.000000 1 0 0
-9.529167 5.179922 14.004487 17.713336 -0.497906 0.658978 0.015641 -0.004841 51326.900000 1 0 0
-5.791267 -5.227078 11.750487 14.104435 0.734238 0.586097 0.005238 -0.001005 175235.000000 1 0 0
6.145233 1.940822 19.306387 20.353557 0.305912 0.322169 0.080251 -0.033095 216728.000000 1 0 0
-2.867967 11.897622 13.379387 18.132475 -1.334255 0.740889 0.007725 -0.005931 -2125620.000000 1 0 0
3.444033 1.397222 15.222987 15.670129 0.385405 0.239463 0.009471 -0.011632 -643489.000000 1 0 0
-5.619067 7.478622 12.900187 15.934822 -0.926431 0.627395 -0.002522 -0.000690 -2725770.000000 1 0 0
-1.715467 -1.630978 15.281187 15.463428 0.760156 0.153678 0.015198 -0.003506 -667663.000000 1 0 0
-7.391367 10.355422 14.136687 19.018754 -0.950890 0.732803 0.046434 -0.019057 -539022.000000 1 0 0
-10.209367 2.247322 10.575787 14.870404 -0.216668 0.779597 0.008062 -0.000207 -1732960.000000 1 0 0
-13.803367 5.139022 9.160287 17.345125 -0.356403 1.014413 0.014502 -0.004103 56014.500000 1 0 0
0.585133 -4.787578 20.154887 20.723966 -1.449181 0.234889 0.040412 -0.028683 -71775.300000 1 0 0
-14.288767 -3.342878 7.507487 16.483509 0.229818 1.097914 0.023862 -0.009669 431494.000000 1 0 0
-2.341967 2.591822 17.512787 17.857774 -0.835997 0.196881 0.014465 -0.013309 809484.000000 1 0 0
-6.122167 -8.419678 14.635587 17.960299 0.942096 0.618265 0.013671 -0.006418 -405943.000000 1 0 0
-8.037367 1.979122 12.024987 14.598511 -0.241437 0.602867 0.007509 -0.002208 1698280.000000 1 0 0
-14.608867 -3.486078 9.976287 18.030476 0.234247 0.984474 0.041326 -0.014869 819982.000000 1 0 0
-0.629367 7.058922 12.749687 14.586947 -1.481872 0.507324 -0.001127 -0.001272 -1121050.000000 1 0 0
-1.754567 -2.174278 19.114687 19.317797 0.891823 0.145138 0.034929 -0.025551 75314.200000 1 0 0
-12.946467 10.317022 7.426687 18.144080 -0.672847 1.149091 0.015307 -0.011237 -201105.000000 1 0 0
-19.566367 2.134722 6.593887 20.757628 -0.108672 1.247535 0.098041 -0.037165 337649.000000 1 0 0
-16.324867 8.311222 6.600087 19.471488 -0.470912 1.224983 0.033668 -0.014365 471343.000000 1 0 0
-12.682867 7.000122 13.694887 19.935064 -0.504328 0.813478 0.043345 -0.017718 29802.100000 1 0 0
-16.033667 8.256722 10.457087 20.847125 -0.475545 1.045340 0.040225 -0.014212 177613.000000 1 0 0
1.848333 10.829022 15.037687 18.622999 1.401742 0.630930 0.013719 -0.007577 212034.000000 1 0 0
2.079233 14.361822 12.627487 19.236387 1.427020 0.854710 0.005201 -0.000988 -1571050.000000 1 0 0
-3.246767 13.784022 11.631687 18.325854 -1.339467 0.883157 -0.001330 -0.002523 18353.100000 1 0 0
9.072833 4.848622 15.640787 18.720568 0.490796 0.581778 0.045751 -0.010205 -182882.000000 1 0 0
-0.421567 12.581622 12.807987 17.958827 -1.537302 0.776763 -0.002889 0.002304 -520805.000000 1 0 0
3.759633 13.397622 14.486787 20.087263 1.297213 0.765274 0.026803 -0.004145 218998.000000 1 0 0
-2.782367 -4.204078 -13.639013 14.540925 0.986153 2.787537 0.003891 -0.003352 -578576.000000 1 0 0
5.667833 -11.364578 16.320087 20.679053 -1.108167 0.661277 0.003088 -0.009076 346413.000000 1 0 0
8.017933 -13.467678 7.246287 17.267724 -1.033806 1.137744 0.002937 0.000868 74964.000000 1 0 0
-0.197867 15.600822 1.299587 15.656108 -1.558114 1.487692 0.011897 -0.010938 -2606220.000000 1 0 0
-13.688067 8.227922 9.227487 18.444739 -0.541229 1.046877 0.007988 -0.001841 480893.000000 1 0 0
-15.370267 -9.729278 4.994987 18.864089 0.564327 1.302812 0.031216 -0.010125 -750712.000000 1 0 0
9.714133 -11.247778 10.983387 18.480035 -0.858431 0.934354 0.030664 -0.005124 174878.000000 1 0 0
-5.947167 -10.355878 -16.823013 20.630724 1.049504 2.524276 0.065205 -0.009553 -50517.400000 1 0 0
-0.963267 -12.661878 -14.519213 19.288820 1.494866 2.422991 0.037286 -0.011642 25868.100000 1 0 0
5.610433 -15.599278 -12.396613 20.700010 -1.225542 2.212886 0.025632 0.004107 5353.920000 1 0 0
1.160333 -11.864078 -16.476613 20.336703 -1.473304 2.515274 0.024529 -0.002045 248166.000000 1 0 0
0.907333 -15.040078 -13.451013 20.197944 -1.510542 2.299576 0.048130 0.019139 250424.000000 1 0 0
-6.651567 -6.065778 -14.623813 17.172446 0.739368 2.589799 0.022819 0.002274 -38609.900000 1 0 0
-6.218167 -8.039278 -17.349213 20.106983 0.912441 2.611668 0.036208 -0.003934 15369.700000 1 0 0
-2.131067 -16.112578 -13.466313 21.106828 1.439298 2.262704 0.029560 -0.005433 253106.000000 1 0 0
16.472933 -7.989878 -8.931513 20.370753 -0.451601 2.024667 0.107540 -0.020491 -45710.700000 1 0 0
19.023133 -2.993478 -3.415013 19.557679 -0.156080 1.746308 0.110100 -0.022484 87581.600000 1 0 0
15.121333 -12.489178 -8.225913 21.267344 -0.690354 1.967940 0.028697 0.000652 -15373.900000 1 0 0
18.407233 -2.575378 -6.411513 19.661289 -0.139009 1.902970 0.168214 -0.004451 -315947.000000 1 0 0
8.897733 -9.383778 -15.577013 20.245203 -0.811979 2.448725 0.072692 -0.014732 163471.000000 1 0 0
-4.827067 9.316022 -16.196213 19.297827 -1.092737 2.566747 0.006891 -0.002259 562653.000000 1 0 0
2.683233 -9.546578 -18.479913 20.972460 -1.296798 2.649088 0.051275 -0.010271 236706.000000 1 0 0
11.322533 9.636222 -14.554813 20.806227 0.705113 2.345552 0.110410 -0.033732 303808.000000 1 0 0
18.685833 -5.955578 -9.355013 21.728910 -0.308543 2.015880 0.114549 -0.017072 234288.000000 1 0 0
12.393233 5.565122 -13.402513 19.083767 0.422060 2.349418 0.065341 -0.025059 49101.000000 1 0 0
15.589133 6.515722 -10.679713 19.988295 0.395897 2.134474 0.040628 -0.018975 207603.000000 1 0 0
3.450833 -0.139178 -18.943613 19.255858 -0.040310 2.961262 0.047103 -0.023743 102168.000000 1 0 0
10.026633 -1.217978 -15.289513 18.324465 -0.120882 2.557798 0.020980 0.003938 92620.300000 1 0 0
12.274233 -5.854378 -13.887613 19.436983 -0.445050 2.366697 0.060007 -0.008959 256960.000000 1 0 0
10.264233 6.515522 -13.713813 18.326897 0.565601 2.416275 0.037319 0.013435 517163.000000 1 0 0
10.757633 4.926922 -16.337413 20.172067 0.429481 2.514783 0.078246 -0.029061 527889.000000 1 0 0
12.319433 -9.969078 -14.277913 21.330957 -0.680335 2.304132 0.115542 -0.016888 357380.000000 1 0 0
-1.126567 2.100022 -17.558513 17.719498 -1.078412 3.006693 0.023497 -0.010051 240800.000000 1 0 0
6.451633 -1.252178 -17.123213 18.341099 -0.191704 2.775122 0.026599 0.002750 63594.800000 1 0 0
6.762433 -5.641278 -15.457913 17.790491 -0.695254 2.623744 0.023166 -0.018708 273784.000000 1 0 0
-2.431067 -4.420278 -20.049613 20.674523 1.067968 2.895099 0.023670 -0.027155 177763.000000 1 0 0
15.782133 -0.311878 -13.433513 20.727572 -0.019759 2.275882 0.095480 -0.018193 109795.000000 1 0 0
-4.198067 -0.277078 -18.393113 18.868151 0.065906 2.916723 0.023470 -0.015048 200053.000000 1 0 0
4.353833 8.685822 -18.030613 20.481757 1.106143 2.647344 0.038480 -0.010076 173005.000000 1 0 0
9.994033 -0.062778 -17.700713 20.327318 -0.006281 2.627592 0.051275 0.002420 -3873.360000 1 0 0
4.290733 4.858122 -18.324313 19.436876 0.847336 2.801609 0.012379 0.000174 465155.000000 1 0 0
-2.557167 -11.381878 -17.920613 21.383045 1.349796 2.564543 0.033301 -0.017758 65057.400000 1 0 0
5.909633 -9.409078 -16.230013 19.668956 -1.009987 2.541280 0.044416 -0.008852 144585.000000 1 0 0
10.303433 -12.363178 -10.614713 19.279031 -0.876021 2.153859 0.035146 -0.001524 134637.000000 1 0 0
6.247733 7.128122 -16.892213 19.369851 0.851123 2.630249 0.030425 -0.006878 403086.000000 1 0 0
8.417533 1.846022 -20.057413 21.830310 0.215889 2.735794 0.062232 -0.027224 177315.000000 1 0 0
-0.963667 -0.562378 -20.101813 20.132754 0.528259 3.086144 0.040485 -0.021636 218443.000000 1 0 0
-0.791567 6.678622 -19.661413 20.779839 -1.452824 2.812009 0.024226 -0.008054 60243.800000 1 0 0
8.621833 5.981422 -17.955213 20.796708 0.606521 2.612703 0.071721 -0.027242 27098.900000 1 0 0
11.792433 -0.025878 -12.768413 17.380866 -0.002194 2.395910 0.002639 -0.011048 -111179.000000 1 0 0
-4.175967 -2.439778 -19.875413 20.455396 0.528753 2.902894 0.001763 -0.011282 357890.000000 1 0 0
5.767033 -11.237378 -14.229313 19.026578 -1.096644 2.415637 0.020733 -0.004199 125615.000000 1 0 0
11.081833 2.166622 -15.975913 19.563513 0.193076 2.526323 0.041670 -0.010694 -227967.000000 1 0 0
-2.742067 -4.025278 -17.302013 17.974466 0.972791 2.867194 -0.000107 -0.000531 -48118.000000 1 0 0
-6.822367 -4.758078 -17.338713 19.230573 0.608995 2.694302 0.028084 -0.006872 19704.400000 1 0 0
2.868533 10.433922 -15.189113 18.649513 1.302501 2.522579 -0.003543 -0.008229 383014.000000 1 0 0
16.802033 -6.253978 -11.092113 21.082113 -0.356327 2.124850 0.115988 -0.018748 -111143.000000 1 0 0
9.709333 -3.371378 -17.588213 20.371121 -0.334206 2.612746 0.047644 -0.024738 109292.000000 1 0 0
-7.302267 -1.435878 -18.728713 20.153152 0.194157 2.763361 0.018894 -0.002423 504671.000000 1 0 0
1.614233 -7.457878 -19.311013 20.763933 -1.357638 2.765282 0.046141 -0.026718 194320.000000 1 0 0
6.079033 11.242322 -14.323113 19.196250 1.075100 2.413044 0.036773 0.002785 507823.000000 1 0 0
6.000333 -3.856878 -18.037913 19.397056 -0.571281 2.765020 0.048466 -0.027457 378360.000000 1 0 0
4.330533 13.384822 -14.697913 20.345408 1.257885 2.378091 0.039617 -0.014453 68827.000000 1 0 0
9.424633 11.115522 -15.686013 21.410967 0.867534 2.392953 0.110643 -0.020121 145906.000000 1 0 0
16.801533 0.684022 -11.353613 20.289502 0.040689 2.164676 0.129192 -0.023525 112005.000000 1 0 0
15.010533 -3.055378 -12.260913 19.620943 -0.200806 2.245786 0.111003 -0.015226 147832.000000 1 0 0
-8.685167 0.464122 -17.322413 19.383331 -0.053388 2.676268 0.031380 -0.017798 485247.000000 1 0 0
-3.373867 4.168922 -19.133713 19.871131 -0.890416 2.868309 0.039476 -0.010240 100584.000000 1 0 0
4.488533 2.411322 -16.980413 17.728390 0.492977 2.850076 0.008520 -0.004444 465158.000000 1 0 0
-5.040067 14.018022 -14.080613 20.498070 -1.225646 2.328044 0.024205 -0.005849 193133.000000 1 0 0
1.099833 9.189622 -17.677413 19.953689 1.451681 2.659274 0.010870 -0.010258 405009.000000 1 0 0
0.791633 -5.269778 -20.493013 21.174532 -1.421690 2.887192 0.037905 0.003874 321625.000000 1 0 0
3.640533 -6.272978 -17.951413 19.361223 -1.044949 2.757620 0.051942 -0.034788 33174.300000 1 0 0
-7.247967 7.323922 -16.003713 19.033961 -0.790611 2.569552 0.018467 0.003816 147867.000000 1 0 0
-11.898467 3.187022 -16.564413 20.642442 -0.261708 2.502177 0.094147 -0.034592 318009.000000 1 0 0
-4.181267 6.616222 -17.329113 19.014614 -1.007199 2.717367 0.012658 0.010138 478134.000000 1 0 0
-8.271867 5.336422 -17.830113 20.366986 -0.572943 2.637146 0.033187 -0.007480 390891.000000 1 0 0
-8.343067 4.228522 -14.918013 17.607790 -0.469097 2.581563 -0.002252 -0.021365 468248.000000 1 0 0
9.384433 13.685922 -12.746713 20.924883 0.969732 2.225804 0.116024 -0.042664 513578.000000 1 0 0
14.890333 10.272422 -11.511513 21.442005 0.603896 2.137516 0.161677 -0.034996 169788.000000 1 0 0
8.919233 15.884222 -9.728713 20.652096 1.059155 2.061307 0.111795 -0.020244 14909.000000 1 0 0
7.138533 14.515822 -14.103313 21.460922 1.113750 2.287844 0.127896 -0.035395 233355.000000 1 0 0
3.762433 15.745322 -12.774613 20.621877 1.336239 2.238862 0.038893 -0.022194 145021.000000 1 0 0
11.047233 11.773522 -11.412913 19.771488 0.817213 2.186142 0.105730 -0.025058 299640.000000 1 0 0
15.658933 11.228222 -8.756813 21.164993 0.622077 1.997355 0.092631 -0.047400 449093.000000 1 0 0
12.206033 10.746922 -9.404613 18.786439 0.721914 2.095096 0.073446 -0.040690 247094.000000 1 0 0
10.308533 11.709822 -7.314513 17.230435 0.848954 2.009218 0.072883 -0.017205 120410.000000 1 0 0
5.406333 17.221622 -10.209513 20.737571 1.266612 2.085549 0.060103 -0.008861 13346.700000 1 0 0
11.571533 14.155522 -10.133113 20.903568 0.885501 2.076880 0.166485 -0.045520 -169862.000000 1 0 0
7.988833 -19.179078 -1.592713 20.837351 -1.176114 1.647306 0.044376 -0.014366 165837.000000 1 0 0
7.882333 -16.970378 -4.121613 19.160182 -1.135970 1.787604 0.038249 -0.011018 142567.000000 1 0 0
4.278533 -19.100478 5.711687 20.390132 -1.350433 1.286877 0.057620 -0.010824 307005.000000 1 0 0
10.609833 -17.950078 -2.222813 20.969376 -1.036966 1.676999 0.059809 -0.015347 683322.000000 1 0 0
-3.192167 -15.030078 8.044587 17.343834 1.361521 1.088483 0.031223 -0.026527 24368.700000 1 0 0
-15.255567 -12.823178 -3.920713 20.311037 0.698986 1.765049 0.060822 -0.025219 185908.000000 1 0 0
-9.240167 -12.763378 -7.445613 17.427612 0.944171 2.012224 0.047671 -0.010745 114558.000000 1 0 0
-11.607767 -15.313478 6.959687 20.437224 0.922189 1.223305 0.072826 -0.012652 216529.000000 1 0 0
-14.305667 -8.444378 -7.956413 18.419124 0.533243 2.017466 0.038484 -0.021122 -372499.000000 1 0 0
3.948233 -15.250478 5.482487 16.680027 -1.317466 1.235885 0.009580 -0.011049 -132177.000000 1 0 0
2.808533 -13.957478 9.124287 16.910106 -1.372227 1.000863 0.007429 -0.008658 423094.000000 1 0 0
3.374133 -17.251578 10.248287 20.347705 -1.377650 1.042968 0.033457 -0.019337 295282.000000 1 0 0
-8.577367 -17.905778 -5.268413 20.541282 1.124067 1.830174 0.058754 -0.013995 28902.900000 1 0 0
2.067233 -19.740978 -4.023413 20.252593 -1.466459 1.770788 0.039890 -0.024256 -3066.440000 1 0 0
-17.241467 -10.908978 -2.334613 20.535930 0.564130 1.684727 -0.035694 -0.005408 -166996.000000 1 0 0
-4.188167 -14.776478 2.845587 15.619936 1.294605 1.387597 0.009440 -0.001467 116190.000000 1 0 0
-10.722867 -10.002678 -14.746413 20.796397 0.750663 2.358996 0.063627 -0.003141 116980.000000 1 0 0
0.205033 -20.172178 2.567687 20.335974 -1.560633 1.444195 0.042234 -0.023127 330833.000000 1 0 0
6.788133 -18.502778 0.932787 19.730728 -1.219171 1.523503 0.047703 -0.004727 245349.000000 1 0 0
-6.912067 -17.558978 -3.447413 19.182780 1.195777 1.751492 0.005938 -0.061974 16673.600000 1 0 0
-8.644467 -15.605978 -7.728413 19.442266 1.064948 1.979593 0.073988 -0.020690 -728037.000000 1 0 0
-12.113967 -10.811778 -12.788213 20.668360 0.728659 2.237926 0.086278 -0.002109 553172.000000 1 0 0
-13.171567 -15.094678 -3.283013 20.300681 0.853329 1.733229 0.058019 -0.023099 214492.000000 1 0 0
-0.104567 -19.985378 -2.109113 20.096632 1.565564 1.675938 0.056389 -0.039772 314734.000000 1 0 0
-12.020567 -16.587478 -1.214313 20.521038 0.943700 1.630005 0.059948 -0.023208 223927.000000 1 0 0
1.044433 -20.160278 5.209387 20.848630 -1.519036 1.318253 0.063259 -0.026466 132576.000000 1 0 0
-18.079567 -8.577378 2.578087 20.176439 0.442978 1.442669 0.051436 -0.010627 -14289.100000 1 0 0
-15.230167 -14.680378 -0.847913 21.170509 0.767019 1.610859 0.086247 -0.017779 -53999.700000 1 0 0
10.307033 -15.442778 -5.204613 19.282176 -0.982263 1.844105 0.026278 -0.005669 1627.180000 1 0 0
-0.264267 -19.123178 -7.089313 20.396670 1.556978 1.925777 0.027169 -0.015808 137519.000000 1 0 0
-10.246167 -17.881678 -2.640813 20.777686 1.050468 1.698240 0.054766 0.010874 501905.000000 1 0 0
-14.527567 -6.748278 -11.339313 19.625735 0.434859 2.186800 0.058843 -0.027541 -44579.900000 1 0 0
-12.153867 -15.562778 1.924687 19.839883 0.907775 1.473632 0.057853 -0.012743 190907.000000 1 0 0
-2.568567 -16.481778 10.349687 19.630654 1.416197 1.015470 0.035375 -0.017275 400423.000000 1 0 0
-12.042767 -15.023778 -6.796513 20.418980 0.895092 1.910123 0.045688 -0.005561 81755.500000 1 0 0
5.465933 -17.053978 -7.281013 19.332039 -1.260633 1.956951 0.023912 -0.013946 -115991.000000 1 0 0
-17.237967 -7.255878 -2.825913 18.915101 0.398413 1.720758 -0.012438 -0.009991 -102851.000000 1 0 0
-12.400567 -13.485678 -9.062113 20.439165 0.827292 2.030151 0.096485 -0.037558 207855.000000 1 0 0
-7.711767 -14.026178 9.989287 18.867721 1.068097 1.012858 0.035503 -0.005036 533972.000000 1 0 0
-15.760867 -8.321278 -5.816013 18.747656 0.485773 1.886227 0.047760 -0.008539 189075.000000 1 0 0
-0.771967 -19.627578 0.270987 19.644622 1.531486 1.557001 0.039145 -0.018778 239269.000000 1 0 0
-14.815267 -11.314978 -1.879313 18.736400 0.652235 1.671268 0.016936 -0.005199 61170.600000 1 0 0
-7.260567 -19.309378 2.100287 20.735938 1.211138 1.469335 0.042430 -0.018246 163828.000000 1 0 0
-1.214767 -21.251578 -4.289313 21.714130 1.513697 1.769640 0.033944 -0.023956 127489.000000 1 0 0
-8.345867 -19.895478 -1.437613 21.622911 1.173606 1.637331 0.027116 -0.011675 221153.000000 1 0 0
-17.660167 -7.522478 5.041387 19.846530 0.402681 1.313963 0.053264 -0.019133 72341.900000 1 0 0
-2.591667 -15.737978 -10.730013 19.223264 1.407585 2.162985 0.027280 -0.003912 -69639.000000 1 0 0
-2.806367 -17.946978 -8.492313 20.052159 1.415683 2.008114 0.021449 -0.017186 198888.000000 1 0 0
4.139833 -18.186878 -5.973713 19.585351 -1.346982 1.880744 0.014430 0.028574 377823.000000 1 0 0
0.831833 -17.089578 -9.717613 19.676829 -1.522160 2.087320 0.017372 -0.005210 -209824.000000 1 0 0
-7.513967 -10.240778 -14.543413 19.309171 0.937790 2.423690 0.043299 -0.014173 67168.700000 1 0 0
-4.866167 -19.570578 -2.192213 20.285288 1.327091 1.679077 0.038457 -0.028707 343254.000000 1 0 0
-9.845667 -16.083278 8.505587 20.687049 1.021478 1.147075 0.044129 -0.011098 218457.000000 1 0 0
-7.081967 -15.412378 -10.248513 19.817358 1.140071 2.114312 0.045711 -0.009122 213630.000000 1 0 0
-12.537367 -8.189878 -12.200913 19.316365 0.578648 2.254458 0.064440 -0.021274 215237.000000 1 0 0
-15.497167 -12.898378 3.585287 20.478883 0.694131 1.394817 0.056142 -0.007935 46716.100000 1 0 0
-5.853367 -14.431478 -13.040613 20.312239 1.185474 2.267910 0.021179 -0.003227 391499.000000 1 0 0
-14.338067 -11.612878 -6.642613 19.610288 0.680769 1.916364 0.071928 -0.021578 317251.000000 1 0 0
-11.714067 -10.385778 -8.268813 17.704717 0.725366 2.056737 0.045765 -0.016934 301573.000000 1 0 0
-9.975367 -14.818978 3.506287 18.204508 0.978320 1.376980 0.014717 -0.002880 593866.000000 1 0 0
5.244533 -18.053478 8.204787 20.512234 -1.288078 1.159285 0.056786 -0.025001 255070.000000 1 0 0
-4.895667 -16.572978 4.865787 17.952912 1.283565 1.296333 0.015500 -0.007112 416374.000000 1 0 0
-18.553467 -7.507078 -6.908213 21.173350 0.384482 1.903150 0.070037 -0.025263 -3612.330000 1 0 0
-16.972667 -4.805578 -10.922313 20.747576 0.275915 2.125202 0.089055 -0.014009 -407686.000000 1 0 0
-15.789767 -4.461578 -12.883513 20.861623 0.275382 2.236446 0.087283 -0.033739 326719.000000 1 0 0
-19.545267 -5.236878 -6.121513 21.140371 0.261787 1.864569 0.077296 -0.016896 -56836.800000 1 0 0
6.051533 -13.489778 8.785887 17.198459 -1.149106 1.034619 0.027161 -0.000283 201774.000000 1 0 0
19.888633 -3.634378 2.753087 20.404556 -0.180742 1.435458 0.093599 -0.022235 -144339.000000 1 0 0
17.914833 -2.285678 0.339487 18.063245 -0.126900 1.552001 0.038435 -0.024824 445123.000000 1 0 0
14.430333 -11.179178 0.151887 18.254632 -0.659123 1.562476 0.042167 -0.007240 39013.400000 1 0 0
11.203533 -13.455678 5.294887 18.292355 -0.876476 1.277135 0.037923 -0.006608 435492.000000 1 0 0
10.246633 -12.932978 8.603887 18.608662 -0.900776 1.090142 0.040510 -0.014379 198853.000000 1 0 0
18.706533 3.933422 -4.413113 19.618403 0.207251 1.797686 0.069131 0.003118 -83268.900000 1 0 0
19.190333 -5.910578 -5.421613 20.798983 -0.298778 1.834510 0.109440 -0.012232 -110420.000000 1 0 0
18.092333 -9.663878 -0.479213 20.517132 -0.490587 1.594155 0.080972 -0.018004 423332.000000 1 0 0
17.522933 -8.895178 8.468487 21.398426 -0.469733 1.163909 0.122109 -0.037382 -36392.000000 1 0 0
19.770433 0.323922 -2.091513 19.883394 0.016383 1.676180 0.108318 -0.012460 -105375.000000 1 0 0
7.589233 -12.967678 11.849187 19.135317 -1.041299 0.903033 0.026059 -0.001277 301469.000000 1 0 0
16.038133 -6.649378 -3.307213 17.674094 -0.393027 1.759028 0.057099 -0.006358 365892.000000 1 0 0
14.530933 -7.170678 11.200087 19.697934 -0.458415 0.966003 0.088552 -0.052592 444978.000000 1 0 0
16.272833 1.453722 10.808387 19.589273 0.089098 0.986335 0.128316 -0.033537 304102.000000 1 0 0
16.871933 -9.906478 2.749387 19.757519 -0.530923 1.431187 0.048870 -0.019568 219610.000000 1 0 0
16.101633 -7.070778 -6.056013 18.599295 -0.413781 1.902447 0.070724 -0.006009 277204.000000 1 0 0
17.962733 -4.157178 6.011187 19.392686 -0.227429 1.255633 0.104606 -0.023394 36805.600000 1 0 0
13.732833 -13.150078 7.960787 20.612845 -0.763724 1.174282 0.080269 -0.025565 233638.000000 1 0 0
15.326233 -14.244378 -1.638913 20.987657 -0.748829 1.648965 0.049455 -0.008544 177438.000000 1 0 0
18.758033 -6.394778 8.610287 21.607731 -0.328553 1.160935 0.163314 -0.033386 102920.000000 1 0 0
19.522633 3.390222 2.953787 20.033763 0.171941 1.422816 0.074254 -0.013973 224718.000000 1 0 0
15.670433 -10.660378 8.165287 20.636813 -0.597372 1.164003 0.077005 -0.036646 252949.000000 1 0 0
14.340633 -4.178378 10.859887 18.467532 -0.283517 0.942147 0.075238 -0.014607 -57844.000000 1 0 0
18.734933 -7.716678 1.685187 20.331864 -0.390712 1.487817 0.097713 -0.026388 -37414.900000 1 0 0
18.991233 -5.437978 -1.178313 19.789567 -0.278879 1.630374 0.069484 -0.018679 197734.000000 1 0 0
14.751833 -13.554578 -5.949913 20.898436 -0.743127 1.859496 0.073505 -0.023533 486091.000000 1 0 0
13.854733 -9.725978 10.467287 19.902572 -0.612065 1.016992 0.046986 -0.013289 366039.000000 1 0 0
14.026233 2.290022 0.366087 14.216660 0.161839 1.545043 -0.002218 -0.007416 -411280.000000 1 0 0
12.999733 2.539822 13.467887 18.889885 0.192944 0.777074 0.078269 -0.019273 -60196.700000 1 0 0
18.513933 -2.554978 9.370887 20.907108 -0.137137 1.106028 0.147125 -0.028224 143645.000000 1 0 0
7.109233 -18.205778 5.239487 20.234717 -1.198512 1.308876 0.053644 -0.032335 177376.000000 1 0 0
12.990333 -2.367678 15.205587 20.138633 -0.180286 0.715073 0.090348 -0.009144 332329.000000 1 0 0
11.303733 -13.691178 -6.627413 18.951130 -0.880627 1.928059 0.026136 -0.016220 123717.000000 1 0 0
10.786933 -17.521778 4.395687 21.040264 -1.018963 1.360328 0.074655 -0.022546 604005.000000 1 0 0
18.306833 -0.225878 -4.537613 18.862160 -0.012338 1.813746 0.100759 -0.015396 99739.600000 1 0 0
4.521533 -13.600178 11.775187 18.548966 -1.249831 0.883025 0.004032 -0.001541 383030.000000 1 0 0
9.629333 -2.957278 14.269987 17.467172 -0.297968 0.614676 0.050090 -0.008556 350743.000000 1 0 0
9.098233 -9.031278 14.082187 19.043367 -0.781705 0.738499 0.049217 -0.012434 288118.000000 1 0 0
21.076033 5.509822 -2.732813 21.955081 0.255703 1.695593 0.175003 -0.003658 543981.000000 1 0 0
14.790733 -13.309578 1.944687 19.992310 -0.732737 1.473371 0.043532 -0.011165 63790.300000 1 0 0
11.445433 0.049522 15.115987 18.960313 0.004327 0.648081 0.068019 -0.017247 -31660.400000 1 0 0
19.536533 0.457822 7.588487 20.963560 0.023430 1.200400 0.157546 -0.028119 71571.600000 1 0 0
19.809833 1.044922 0.636987 19.847597 0.052699 1.538697 0.084011 -0.019414 192518.000000 1 0 0
18.270933 0.438822 3.228287 18.559132 0.024013 1.395961 0.061281 -0.013701 72487.800000 1 0 0
10.406633 -8.165678 16.403987 21.072900 -0.665318 0.678620 0.082152 -0.011503 62873.700000 1 0 0
18.891233 3.254322 5.827787 20.035778 0.170592 1.275661 0.066275 -0.012152 37913.300000 1 0 0
16.109833 2.620422 7.401687 17.921448 0.161248 1.145043 0.090338 -0.017177 97177.100000 1 0 0
11.351133 -15.941878 2.138287 19.686644 -0.952041 1.461965 0.042204 -0.008334 216415.000000 1 0 0
7.262233 -16.239978 6.421687 18.913355 -1.150288 1.224377 0.007709 -0.009098 351113.000000 1 0 0
6.047533 6.719822 7.114887 11.504359 0.838006 0.904026 0.002652 -0.000871 -1292060.000000 1 0 0
18.475533 1.880422 -6.617313 19.714718 0.101430 1.913095 0.094933 -0.000183 268006.000000 1 0 0
14.101233 4.476322 -7.060013 16.392864 0.307381 2.016038 0.008266 -0.003761 258192.000000 1 0 0
-10.557167 -3.797378 -13.884413 17.850792 0.345287 2.461960 0.019351 -0.006488 -310813.000000 1 0 0
7.973433 -13.922178 -10.319713 19.076141 -1.050681 2.142392 0.022181 -0.003280 148253.000000 1 0 0
2.101433 -15.942978 13.832287 21.211477 -1.439743 0.860428 0.010448 -0.010326 365347.000000 1 0 0
-9.480567 -7.892678 2.188687 12.528602 0.694253 1.395200 0.007473 0.002875 418693.000000 1 0 0
-13.727867 2.880822 -9.728713 17.070481 -0.206851 2.177198 0.013440 -0.001660 471651.000000 1 0 0
-12.750467 -4.728178 -13.652113 19.269413 0.355104 2.358147 0.039185 -0.006592 101473.000000 1 0 0
-18.001667 -1.288478 -8.525213 19.959946 0.071454 2.012097 0.076411 -0.033105 358298.000000 1 0 0
-12.776267 14.813922 3.394287 19.854634 -0.859119 1.398995 0.038669 -0.027176 399449.000000 1 0 0
-17.542367 6.590522 9.103887 20.833876 -0.359377 1.118563 0.056720 -0.023853 232119.000000 1 0 0
-13.867167 15.369722 -0.057813 20.700967 -0.836745 1.573589 0.053757 -0.025130 311872.000000 1 0 0
-16.180767 5.044022 -10.929113 20.166926 -0.302183 2.143531 0.046037 -0.000865 71851.600000 1 0 0
-18.479767 2.892822 -0.197613 18.705862 -0.155280 1.581361 0.080889 -0.011071 -22847.000000 1 0 0
-10.138367 15.417222 -0.261613 18.453879 -0.989097 1.584973 0.026887 -0.008678 90771.200000 1 0 0
-19.055767 11.686022 2.537087 22.497160 -0.550108 1.457782 0.149177 -0.038522 -198366.000000 1 0 0
-9.053167 16.086422 -7.450413 19.905815 -1.058192 1.954420 0.068246 -0.035435 260296.000000 1 0 0
-15.148067 -2.025678 -12.959913 20.038130 0.132937 2.274128 0.080843 -0.028718 33386.300000 1 0 0
-19.083067 5.038922 -4.710513 20.291454 -0.258160 1.805076 0.092660 -0.011210 51625.600000 1 0 0
-16.949267 9.387622 -6.020713 20.289260 -0.505806 1.872077 0.049891 0.005651 -30761.700000 1 0 0
-19.072867 1.080622 2.546287 19.272405 -0.056597 1.438288 0.082980 -0.022383 -46386.400000 1 0 0
-14.728967 11.427822 -7.340213 20.035376 -0.659856 1.945893 0.050264 -0.019914 268325.000000 1 0 0
-12.796067 5.229722 -13.530813 19.343532 -0.387982 2.345495 0.044233 -0.018976 -96438.700000 1 0 0
-14.213467 9.265422 -6.571913 18.195074 -0.577693 1.940342 0.024102 -0.010795 95151.900000 1 0 0
-6.628367 11.409922 -15.386813 20.270066 -1.044517 2.432711 0.027047 -0.019079 -121256.000000 1 0 0
-15.252867 13.661522 2.698587 20.653559 -0.730417 1.439762 0.045227 -0.030780 -190196.000000 1 0 0
-18.898467 8.506822 -4.632613 21.236270 -0.422964 1.790711 0.092854 -0.012619 121118.000000 1 0 0
-4.769067 16.575022 -10.948913 20.429245 -1.290638 2.136421 0.018038 0.004463 -7336.340000 1 0 0
-19.261067 -2.615478 -6.516813 20.501178 0.134965 1.894284 0.043014 -0.018896 -152929.000000 1 0 0
-12.166467 13.510622 -6.380113 19.268255 -0.837699 1.908287 0.058518 -0.022610 189608.000000 1 0 0
-19.353767 3.331222 4.165987 20.075378 -0.170452 1.361760 0.080406 -0.027037 69520.800000 1 0 0
-15.145067 12.214522 0.387987 19.460682 -0.678693 1.550858 0.018946 -0.014433 27239.500000 1 0 0
-17.286367 2.290422 -8.314613 19.318315 -0.131731 2.015733 0.026538 -0.014827 106674.000000 1 0 0
-16.837267 13.546422 -4.135213 22.002252 -0.677509 1.759866 0.065997 0.012482 356481.000000 1 0 0
-10.619967 15.271722 -9.320213 20.805662 -0.963164 2.035284 0.045141 -0.016601 218312.000000 1 0 0
-19.181367 1.913722 -6.781613 20.434712 -0.099441 1.909079 0.073167 -0.025317 269224.000000 1 0 0
-17.459067 10.504722 -0.480813 20.381349 -0.541652 1.594389 0.058716 -0.007665 81006.600000 1 0 0
-11.609867 6.768722 -14.786613 19.981204 -0.527837 2.403905 0.036447 -0.014581 295416.000000 1 0 0
-13.787767 12.003022 -5.068713 18.970158 -0.716307 1.841276 0.046585 -0.025184 195385.000000 1 0 0
-18.887767 7.304922 -0.182513 20.251986 -0.369036 1.579809 0.078082 -0.013628 19620.800000 1 0 0
-14.343867 9.231922 -10.958213 20.274549 -0.571873 2.141817 0.006510 0.004350 471410.000000 1 0 0
-18.770467 11.250522 5.021687 22.452662 -0.539959 1.345232 0.093935 -0.044181 -25394.900000 1 0 0
-8.164967 12.184822 -13.245613 19.763168 -0.980425 2.305298 0.005784 0.000946 389411.000000 1 0 0
-21.057267 -1.236178 -5.597413 21.823558 0.058638 1.830180 0.089227 -0.018098 184328.000000 1 0 0
-10.924967 13.764322 -3.798313 17.978839 -0.899899 1.783666 0.022021 0.003665 501835.000000 1 0 0
-18.805167 -4.838378 4.226487 19.872277 0.251828 1.356477 0.062146 -0.017032 -4705.200000 1 0 0
-10.927867 11.291022 -13.672513 20.828900 -0.801741 2.286860 0.035078 -0.005335 328385.000000 1 0 0
-14.862567 11.838322 -9.964613 21.455425 -0.672615 2.053791 0.035097 -0.003079 267059.000000 1 0 0
-12.777867 9.532622 -14.124913 21.299247 -0.640953 2.295836 0.071810 -0.017171 303607.000000 1 0 0
-18.307267 -5.041278 -3.354313 19.282685 0.268710 1.745640 0.022644 -0.010080 -264644.000000 1 0 0
-9.851467 12.798922 -11.335113 19.731918 -0.914799 2.182735 0.036557 -0.004918 209074.000000 1 0 0
-15.508467 7.659222 -8.488513 19.267358 -0.458734 2.027024 0.005558 0.001896 -63589.900000 1 0 0
-14.801167 8.745922 2.156087 17.326697 -0.533697 1.446036 0.025861 -0.003593 -44309.100000 1 0 0
-20.009267 6.035222 7.792087 22.304961 -0.292944 1.213926 0.099664 -0.042926 285598.000000 1 0 0
-19.293267 6.293722 3.814987 20.649340 -0.315329 1.384978 0.062721 -0.012046 232108.000000 1 0 0
-14.992067 12.791122 5.857787 20.559391 -0.706345 1.281873 0.041828 -0.018049 112424.000000 1 0 0
17.835033 5.988122 5.463587 19.590732 0.323924 1.288162 0.063673 -0.032249 211172.000000 1 0 0
18.197233 7.264822 0.545587 19.601392 0.379840 1.542959 0.040669 -0.012248 -138896.000000 1 0 0
16.078133 5.472622 9.246787 19.338020 0.328076 1.072231 0.074361 -0.003562 -58293.500000 1 0 0
12.224433 13.082322 10.634887 20.825099 0.819285 1.034825 0.059896 -0.023681 166659.000000 1 0 0
14.337933 13.396722 3.295187 19.897405 0.751475 1.404421 0.043851 0.007068 35376.900000 1 0 0
5.445633 10.725322 14.214387 18.620855 1.100979 0.702300 0.027220 -0.005086 84068.400000 1 0 0
12.254433 14.537122 -5.350113 19.751525 0.870395 1.845094 0.077328 0.008614 329022.000000 1 0 0
17.910133 9.105722 -3.144513 20.336543 0.470354 1.726043 0.033591 -0.001118 -49599.300000 1 0 0
14.774633 7.695122 9.606487 19.229906 0.480175 1.047706 0.083405 -0.022099 43413.300000 1 0 0
4.790533 18.845222 -1.684413 19.517398 1.321865 1.657207 0.030184 -0.036883 509018.000000 1 0 0
-4.308767 18.616422 2.864187 19.322014 -1.343351 1.422014 0.010762 -0.036591 210025.000000 1 0 0
8.066533 13.373022 11.946287 19.662666 1.028031 0.917809 0.068469 -0.000828 157071.000000 1 0 0
0.666733 16.653322 -10.266813 19.575114 1.530782 2.122904 0.010924 -0.004016 82380.700000 1 0 0
10.566133 9.496322 15.723187 21.190609 0.732125 0.734765 0.069652 -0.023790 -183288.000000 1 0 0
-1.492067 12.579822 0.313887 12.671887 -1.452740 1.546023 0.000021 -0.001105 609367.000000 1 0 0
-5.115867 19.101422 -2.403113 19.920125 -1.309111 1.691728 0.028333 -0.002586 51026.000000 1 0 0
5.884833 18.547422 6.159187 20.410137 1.263557 1.264247 0.023470 -0.011447 214855.000000 1 0 0
11.144033 17.183122 -1.732613 20.553615 0.995444 1.655194 0.099801 -0.033393 513652.000000 1 0 0
18.597633 10.542722 2.888487 21.572304 0.515714 1.436495 0.074052 -0.015160 325447.000000 1 0 0
11.627733 16.658522 6.569187 21.350989 0.961410 1.258047 0.056394 -0.007046 -25615.400000 1 0 0
17.957133 7.381622 -5.526813 20.186446 0.390012 1.848126 0.039650 0.010317 321044.000000 1 0 0
0.565233 15.769522 10.711887 19.072017 1.534968 0.974412 -0.000963 0.000647 434315.000000 1 0 0
1.253533 20.152022 -1.848713 20.275430 1.508673 1.662103 0.037455 -0.022150 340283.000000 1 0 0
14.730733 9.853922 -1.391113 17.777217 0.589572 1.649129 0.051689 -0.008259 156134.000000 1 0 0
9.502733 17.659922 1.283087 20.095300 1.077138 1.506903 0.035665 -0.024443 288064.000000 1 0 0
0.188633 17.693822 -0.430413 17.700061 1.560136 1.595116 0.017987 -0.011868 126767.000000 1 0 0
-0.175267 20.984222 1.068387 21.012133 -1.562444 1.519928 0.034452 -0.014060 221748.000000 1 0 0
6.138533 17.318522 -0.483813 18.380611 1.230164 1.597121 0.018175 -0.035827 -34369.600000 1 0 0
6.822633 18.670022 -2.959813 20.096729 1.220440 1.718612 0.038902 -0.038435 100451.000000 1 0 0
9.996033 9.753522 12.720887 18.891078 0.773119 0.832024 0.031849 -0.014835 248932.000000 1 0 0
12.312333 14.536222 8.115687 20.706513 0.868040 1.168058 0.060869 -0.026119 350161.000000 1 0 0
0.225033 17.759922 7.080587 19.120674 1.558126 1.191453 0.007695 -0.000598 349676.000000 1 0 0
6.714933 18.069322 -7.838013 20.809257 1.214992 1.956984 0.057830 -0.026837 65579.300000 1 0 0
-1.571267 18.381122 9.193387 20.611960 -1.485521 1.108481 0.039880 -0.016068 80460.900000 1 0 0
15.866333 6.968922 -7.953613 19.067416 0.413859 2.001083 0.049484 0.006405 -162766.000000 1 0 0
-5.226067 19.924322 -6.613413 21.633946 -1.314279 1.881466 0.013641 -0.005836 284008.000000 1 0 0
4.014633 16.427522 10.113387 19.704349 1.331110 1.031821 0.019017 0.014334 205428.000000 1 0 0
8.998333 14.758322 7.301087 18.763900 1.023266 1.171139 0.018888 -0.010016 173654.000000 1 0 0
-2.737067 19.507622 6.430887 20.721852 -1.431399 1.255242 0.022794 -0.004040 160333.000000 1 0 0
4.608233 18.269822 8.239387 20.564769 1.323718 1.158564 0.024161 -0.002551 51536.700000 1 0 0
15.362833 12.143022 -6.480613 20.626875 0.668869 1.890392 0.118320 -0.020174 103307.000000 1 0 0
11.527833 7.289022 15.741887 20.828533 0.563830 0.713945 0.080817 -0.026317 232304.000000 1 0 0
17.371033 9.123522 4.841687 20.209735 0.483615 1.328871 0.080016 -0.027432 223203.000000 1 0 0
5.372033 14.711922 12.900887 20.291187 1.220691 0.881768 0.023516 -0.003709 249993.000000 1 0 0
15.829133 10.842422 -3.607213 19.522591 0.600565 1.756635 0.066829 -0.019804 318238.000000 1 0 0
15.459133 13.590722 6.340287 21.538147 0.721169 1.271995 0.084350 -0.014215 434317.000000 1 0 0
12.766633 13.811922 -8.264813 20.544177 0.824706 1.984818 0.182294 -0.059362 414505.000000 1 0 0
-8.777467 15.381622 9.462387 20.079218 -1.052240 1.080086 0.061913 -0.025688 92695.100000 1 0 0
-4.459667 17.506122 -7.975813 19.747570 -1.321353 1.986560 0.006466 0.034588 10251.500000 1 0 0
2.544433 19.360022 -4.678713 20.079217 1.440118 1.805971 0.042060 -0.031322 140097.000000 1 0 0
6.794833 17.049822 9.051787 20.464629 1.191559 1.112619 0.020680 0.008525 456641.000000 1 0 0
13.643233 15.065822 -1.863713 20.410542 0.834910 1.662235 0.141934 -0.039807 363108.000000 1 0 0
12.138733 16.537522 3.862487 20.874800 0.937607 1.384693 0.076799 -0.029346 549895.000000 1 0 0
2.494433 18.599122 0.576087 18.774488 1.437476 1.540107 0.019181 -0.023882 -13283.000000 1 0 0
-7.748867 16.472322 1.940287 18.307022 -1.131094 1.464611 0.022046 -0.016846 243166.000000 1 0 0
0.356733 19.574022 -6.266113 20.555626 1.552574 1.880563 0.048643 -0.009943 161952.000000 1 0 0
-7.930067 17.968322 -6.148613 20.580379 -1.155171 1.874190 0.063396 -0.023549 223971.000000 1 0 0
-7.561367 18.408722 -1.242213 19.939870 -1.181058 1.633135 0.041865 -0.007125 24475.400000 1 0 0
-14.528067 -9.158078 8.247587 19.051452 0.562453 1.123077 0.068287 -0.040790 477350.000000 1 0 0
-13.113167 -13.770478 7.780987 20.545680 0.809844 1.182387 0.066315 -0.013161 -60554.800000 1 0 0
-3.779967 -16.089678 12.645687 20.810557 1.340050 0.917689 0.045220 -0.008974 9748.100000 1 0 0
-1.865467 -14.940478 15.386287 21.527557 1.446579 0.774565 0.040992 -0.006888 524605.000000 1 0 0
-7.344767 -13.833278 13.616887 20.753911 1.082697 0.855141 0.031976 -0.004606 303061.000000 1 0 0
-9.828367 -10.285178 11.944287 18.575459 0.808106 0.872369 0.056230 -0.026700 6334.700000 1 0 0
-7.231267 -10.537278 12.998487 18.228717 0.969354 0.776918 0.027365 -0.009401 394733.000000 1 0 0
-14.858067 -11.950378 8.221487 20.764550 0.677359 1.163707 0.057398 0.003143 320078.000000 1 0 0
-4.317567 -12.330978 12.857587 18.330629 1.233997 0.793399 0.022380 -0.018065 289331.000000 1 0 0
3.391433 -12.092278 13.906187 18.737851 -1.297359 0.734532 -0.006486 -0.004943 469110.000000 1 0 0
6.286633 -13.628678 14.631787 20.960721 -1.138602 0.798115 0.004539 0.000096 328570.000000 1 0 0
6.838733 -9.211778 17.103387 20.594926 -0.932183 0.590853 0.032332 -0.004829 466632.000000 1 0 0
-5.217067 13.253722 13.648987 19.727488 -1.195793 0.806711 0.020812 -0.006443 429946.000000 1 0 0
-13.701667 -1.770178 17.331187 22.163918 0.128483 0.673000 0.067790 -0.010422 399890.000000 1 0 0
-10.507267 10.689922 13.628087 20.258378 -0.794015 0.832926 0.035023 0.019383 467061.000000 1 0 0
-7.489467 -8.329878 17.079287 20.425010 0.838474 0.580489 0.043405 -0.017428 212707.000000 1 0 0
-5.121467 2.390722 18.132687 18.993139 -0.436740 0.302157 0.031462 -0.009862 576934.000000 1 0 0
-15.814367 -3.718078 14.259087 21.615732 0.230914 0.850427 0.097664 -0.022055 193160.000000 1 0 0
-14.416067 3.028222 12.311787 19.198261 -0.207049 0.874609 0.027942 -0.003699 176932.000000 1 0 0
-13.797367 10.794222 10.042587 20.192477 -0.663879 1.050263 -0.033169 0.015232 -90091.200000 1 0 0
-3.472267 11.114622 16.057487 19.835180 -1.267998 0.627418 -0.029711 0.001473 198411.000000 1 0 0
-13.220667 12.985722 7.539387 20.006433 -0.776433 1.184405 0.037438 -0.035837 98900.900000 1 0 0
-3.778467 -6.281078 18.607287 19.998998 1.029228 0.375264 0.046683 -0.023249 271172.000000 1 0 0
0.710233 -2.805478 18.103687 18.333539 -1.322846 0.158515 0.019107 -0.019303 82687.800000 1 0 0
-4.461367 6.474722 21.112187 22.528877 -0.967461 0.356521 0.050251 -0.012427 283363.000000 1 0 0
2.223633 -10.638978 16.470587 19.733541 -1.364754 0.583300 0.003320 -0.010064 300477.000000 1 0 0
-14.761067 -0.153878 14.102087 20.415231 0.010424 0.808253 0.024211 0.002101 -98974.500000 1 0 0
-13.722567 -6.266078 9.161287 17.649413 0.428350 1.025033 0.034522 -0.007558 375472.000000 1 0 0
10.148833 1.584422 16.381587 19.335605 0.154869 0.560059 0.066692 -0.012360 265045.000000 1 0 0
-7.801367 12.117022 11.802987 18.627777 -0.998767 0.884569 0.042279 -0.020362 169835.000000 1 0 0
-2.099367 7.689622 20.381787 21.885038 -1.304278 0.372799 0.038333 -0.008167 540811.000000 1 0 0
1.354133 -13.774878 15.585987 20.844758 -1.472807 0.726179 0.001594 -0.003718 529617.000000 1 0 0
-3.968367 -11.827478 17.914887 21.830721 1.247078 0.608288 0.070595 -0.014816 401231.000000 1 0 0
-2.300867 8.501422 16.886487 19.045252 -1.306483 0.480745 0.013088 -0.011441 557796.000000 1 0 0
-5.085067 -9.299678 20.463487 23.045525 1.070413 0.477908 0.120483 -0.037971 152562.000000 1 0 0
-6.676767 -2.974078 18.923987 20.286490 0.419053 0.368588 0.040443 -0.026569 370735.000000 1 0 0
-10.529767 -8.073078 16.252887 20.981109 0.654098 0.684645 0.063823 -0.025517 162935.000000 1 0 0
-0.690967 5.931822 17.663887 18.646095 -1.454834 0.326023 0.019491 -0.023370 -64074.500000 1 0 0
-6.503967 -10.865078 19.117687 22.931147 1.031398 0.585023 0.111476 -0.030176 535867.000000 1 0 0
0.406733 3.421122 18.709287 19.023852 1.452463 0.182105 0.019287 -0.016738 100003.000000 1 0 0
-18.458467 -0.076478 7.747087 20.018447 0.004143 1.173423 0.081780 -0.031775 131653.000000 1 0 0
-1.680667 -8.732878 17.710987 19.818347 1.380668 0.465346 0.025493 -0.014035 367341.000000 1 0 0
5.226133 3.540222 14.401787 15.724412 0.595402 0.413084 0.021297 -0.011873 185532.000000 1 0 0
-14.646867 -8.262778 10.896687 20.038513 0.513629 0.995853 0.101946 0.012745 234510.000000 1 0 0
3.510033 8.196022 16.939287 19.142481 1.166167 0.484505 0.027556 -0.009030 202957.000000 1 0 0
6.541033 4.173222 16.840987 18.542377 0.567898 0.431730 0.066596 -0.056852 245610.000000 1 0 0
4.096233 -9.532278 17.772087 20.578886 -1.164933 0.528414 -0.019321 -0.016893 365269.000000 1 0 0
-4.444067 -0.638778 19.901587 20.401739 0.142759 0.221883 0.034296 -0.010663 732804.000000 1 0 0
-11.295267 2.105422 16.671887 20.247659 -0.184284 0.603423 0.049445 -0.015802 -43670.900000 1 0 0
-16.610767 -4.664078 8.968887 19.445106 0.273738 1.091403 0.066390 -0.026700 118147.000000 1 0 0
-12.559167 -8.925078 13.803487 20.686371 0.617833 0.840253 0.058786 -0.036843 -21106.600000 1 0 0
-15.042567 6.066622 12.798687 20.661295 -0.383345 0.902751 0.050240 -0.025287 345385.000000 1 0 0
1.165833 9.225522 17.022587 19.396853 1.445092 0.499973 0.015318 -0.015225 90061.600000 1 0 0
-3.716267 -10.353378 15.084887 18.669679 1.226177 0.630066 0.030815 -0.012023 594784.000000 1 0 0
-17.072667 -2.849778 7.417587 18.831298 0.165396 1.165929 0.035406 -0.025101 -70451.400000 1 0 0
-0.538367 -0.455778 20.816187 20.828136 0.702513 0.033874 0.046698 -0.025886 443881.000000 1 0 0
-1.931967 2.528322 20.260987 20.509328 -0.918313 0.155777 0.027675 -0.017443 131668.000000 1 0 0
-8.090667 2.048722 16.256287 18.273561 -0.248007 0.474312 0.018884 0.007374 589087.000000 1 0 0
2.899233 -2.562778 18.526387 18.926183 -0.723877 0.205907 0.025169 -0.024052 -519768.000000 1 0 0
-12.172867 4.438522 14.355887 19.338321 -0.349643 0.734219 -0.004025 -0.005058 213613.000000 1 0 0
-13.283867 -5.554578 12.850887 19.299217 0.396050 0.842129 0.053438 -0.027687 -16795.300000 1 0 0
-17.314567 -1.113178 9.479887 19.771233 0.064203 1.070736 0.080630 -0.031422 287027.000000 1 0 0
-7.746467 7.566022 14.712687 18.267885 -0.773615 0.634471 0.026176 -0.014181 189393.000000 1 0 0
-9.494967 0.514322 13.985587 16.911995 -0.054115 0.597112 0.021901 -0.005458 245307.000000 1 0 0
7.687133 -0.903978 14.958687 16.842551 -0.117059 0.477496 0.034785 -0.012995 110102.000000 1 0 0
3.713033 6.058222 18.476387 19.795594 1.020952 0.367138 0.024097 -0.016723 -137145.000000 1 0 0
1.694833 0.648922 19.927487 20.009955 0.365663 0.090820 0.033049 -0.018535 134639.000000 1 0 0
-7.155767 6.781222 17.236187 19.856388 -0.758530 0.519550 0.026634 -0.019771 439577.000000 1 0 0
7.577033 -2.701678 16.884187 18.702574 -0.342508 0.444622 0.039504 -0.008519 347095.000000 1 0 0
-16.644667 2.477722 9.185587 19.171830 -0.147775 1.071146 0.051307 -0.014845 296642.000000 1 0 0
3.916633 -6.066378 19.050787 20.373352 -0.997500 0.362301 0.030958 -0.031301 152775.000000 1 0 0
-3.781767 -3.840878 20.500987 21.197750 0.793153 0.257104 0.047856 -0.025246 459429.000000 1 0 0
-9.870167 5.939122 14.462487 18.489373 -0.541687 0.672598 0.023852 -0.007424 8125.120000 1 0 0
6.669933 2.530322 19.835087 21.078929 0.362590 0.345249 0.108985 -0.034636 -87193.300000 1 0 0
-7.270567 11.189722 14.574687 19.760884 -0.994594 0.741358 0.044539 -0.023726 273319.000000 1 0 0
-14.722367 4.900022 9.130787 18.003599 -0.321296 1.038905 0.022530 -0.010421 433919.000000 1 0 0
0.646733 -5.634978 20.579787 21.347105 -1.456525 0.268932 0.038000 -0.021762 82525.500000 1 0 0
-5.874367 -8.218678 13.740787 17.054738 0.950234 0.633961 0.005269 -0.003175 90834.100000 1 0 0
-12.819667 9.932922 6.567087 17.496669 -0.659197 1.186040 -0.002709 -0.019245 166261.000000 1 0 0
-19.639267 2.130422 7.541087 21.144917 -0.108055 1.206129 0.089225 -0.039841 -1338.700000 1 0 0
-15.570367 8.757522 6.233887 18.920673 -0.512350 1.235049 0.009225 -0.024162 48563.800000 1 0 0
-13.248967 7.520722 14.252487 20.862162 -0.516290 0.818696 0.045947 -0.021705 135688.000000 1 0 0
-16.665867 8.965622 10.445587 21.615823 -0.493555 1.066447 0.064572 -0.034639 277004.000000 1 0 0
2.602633 10.255922 15.108487 18.445163 1.322274 0.610951 0.016380 -0.026251 471647.000000 1 0 0
1.423333 14.134122 13.275887 19.443469 1.470433 0.819216 0.010956 -0.018293 388983.000000 1 0 0
8.828033 4.971722 16.550387 19.405347 0.512902 0.549324 0.055496 -0.018160 126992.000000 1 0 0
-0.648867 13.436322 13.154687 18.814930 -1.522542 0.796571 -0.003694 0.009287 119039.000000 1 0 0
3.762733 12.463422 14.658987 19.605636 1.277595 0.726216 0.023719 -0.005424 10792.400000 1 0 0
-3.536667 -4.684278 -13.959913 15.143633 0.924098 2.743582 0.002957 -0.002891 60418.800000 1 0 0
5.883433 -12.142678 16.820687 21.563741 -1.119605 0.676059 0.001852 0.008360 170174.000000 1 0 0
8.824833 -13.913178 7.016287 17.907610 -1.005552 1.168204 0.012709 0.001294 308673.000000 1 0 0
-0.511167 15.220722 0.487187 15.237094 -1.537225 1.538817 0.012517 -0.010029 -243955.000000 1 0 0
-14.140967 7.565422 8.719087 18.254453 -0.491254 1.072828 0.012591 -0.003790 141180.000000 1 0 0
-16.266667 -9.578478 4.719287 19.458247 0.532174 1.325819 0.047328 -0.011427 241815.000000 1 0 0
9.089733 -10.673478 11.410887 18.076358 -0.865363 0.887619 0.016463 0.003053 126377.000000 1 0 0
-26.798467 5.824422 30.725754 41.184386 -0.214013 0.728681 0.061341 -0.026207 261196.000000 0 0 1
-25.569387 5.134722 30.479094 40.114014 -0.198179 0.707773 0.070211 -0.026306 -78181.300000 0 0 1
-24.710067 5.367722 31.557045 40.438186 -0.213905 0.675527 0.056836 -0.015467 -203565.000000 0 0 1
-23.344867 4.746722 31.176684 39.236460 -0.200596 0.652473 0.066499 -0.016079 -314664.000000 0 0 1
-23.234267 3.334622 31.438032 39.233923 -0.142548 0.641336 0.060968 -0.014227 565649.000000 0 0 1
-22.028167 2.699922 30.976054 38.105716 -0.121959 0.621686 0.068508 -0.013995 658043.000000 0 0 1
-21.557967 1.440822 31.729710 38.387451 -0.066736 0.597820 0.063104 -0.015838 -44121.700000 0 0 1
-22.305467 0.287622 31.397580 38.515252 -0.012894 0.617724 0.059023 -0.008504 248470.000000 0 0 1
-22.228467 -0.702978 32.385292 39.286207 0.031615 0.601757 0.056468 -0.010822 -97924.800000 0 0 1
-23.024867 -1.992178 32.035404 39.501650 0.086308 0.624956 0.073269 -0.031703 -327769.000000 0 0 1
-22.321167 -2.854378 31.127864 38.409971 0.127187 0.625943 0.125951 -0.046862 416961.000000 0 0 1
-22.726467 -4.242678 31.104644 38.755535 0.184560 0.639179 0.133342 -0.054115 847641.000000 0 0 1
-24.239667 -4.626478 30.766064 39.440036 0.188596 0.676016 0.091010 -0.042820 1294670.000000 0 0 1
-25.202747 -4.202778 31.708354 40.721757 0.165238 0.678271 0.062945 -0.038495 2527.230000 0 0 1
-25.242457 -4.882978 32.948661 41.792815 0.191083 0.662624 0.051825 -0.042799 -556401.000000 0 0 1
-26.285187 -4.283078 -33.459563 42.764450 0.161527 2.469331 0.058325 -0.031826 36644.700000 0 0 1
-26.340437 -4.908578 -32.194753 41.885736 0.184238 2.447498 0.055996 -0.031835 125401.000000 0 0 1
-27.214117 -4.212178 -31.342713 41.721892 0.153561 2.420719 0.069440 -0.026796 -139001.000000 0 0 1
-27.270007 -4.963078 -30.011623 40.853187 0.180027 2.395905 0.060093 -0.017503 -229053.000000 0 0 1
-27.600637 -6.321978 -30.068883 41.302546 0.225168 2.386219 0.066238 -0.019108 448050.000000 0 0 1
-27.269577 -6.939878 -28.834103 40.288922 0.249202 2.368398 0.053050 -0.007137 -187641.000000 0 0 1
-27.683337 -8.437678 -28.828453 40.849005 0.295848 2.354252 0.050315 0.000789 -62520.400000 0 0 1
-29.055447 -8.640978 -28.579313 41.661284 0.289066 2.326763 0.063013 0.003282 -262786.000000 0 0 1
-29.406217 -10.010978 -28.635093 42.248240 0.328131 2.315538 0.055763 0.006698 1246430.000000 0 0 1
-30.757867 -10.462978 -27.930723 42.844434 0.327893 2.280897 0.090248 0.002078 1246250.000000 0 0 1
-30.649417 -10.862178 -26.587213 42.003018 0.340590 2.256197 0.117075 -0.008204 -151876.000000 0 0 1
-31.950687 -11.010378 -26.052893 42.671162 0.331861 2.227552 0.131062 -0.018457 -52633.200000 0 0 1
-32.142727 -11.842578 -24.752513 42.262140 0.353005 2.196527 0.142804 -0.017252 112051.000000 0 0 1
-31.314577 -11.371678 -23.684213 40.876151 0.348335 2.188806 0.148097 -0.021907 582065.000000 0 0 1
-31.373557 -12.238278 -22.557813 40.533078 0.371928 2.160998 0.163859 -0.028861 -308235.000000 0 0 1
-30.855807 -11.408678 -21.329513 39.206975 0.354153 2.146021 0.178832 -0.035956 162214.000000 0 0 1
-30.520187 -11.923578 -20.098313 38.439507 0.372445 2.120994 0.189044 -0.039382 -204219.000000 0 0 1
-29.383357 -12.739978 -20.095313 37.808865 0.409114 2.131164 0.187253 -0.040981 -427680.000000 0 0 1
-28.996017 -13.113378 -18.615913 36.868440 0.424721 2.100095 0.170358 -0.038604 62986.000000 0 0 1
-28.494617 -11.998378 -17.838013 35.694523 0.398542 2.094096 0.152178 -0.041955 151601.000000 0 0 1
-28.177997 -12.387178 -16.518513 34.932835 0.414176 2.063336 0.147501 -0.044141 -22923.900000 0 0 1
-27.939717 -11.127178 -15.715613 33.932615 0.379003 2.052333 0.137596 -0.033928 1242250.000000 0 0 1
-26.592897 -10.561978 -15.842513 32.706617 0.378067 2.076454 0.111774 -0.032435 1640530.000000 0 0 1
-26.503547 -9.186578 -15.376313 31.988470 0.333658 2.072230 0.093693 -0.040407 548869.000000 0 0 1
-25.067087 -8.565078 -15.501313 30.692183 0.329249 2.100245 0.080304 -0.037642 971723.000000 0 0 1
-24.048967 -9.244578 -14.777613 29.701732 0.366992 2.091550 0.079725 -0.039711 268422.000000 0 0 1
-22.895367 -8.446678 -14.660913 28.469046 0.353434 2.111778 0.115539 -0.062946 549746.000000 0 0 1
-21.839367 -8.982178 -13.615513 27.258387 0.390196 2.093816 0.101859 -0.043272 283941.000000 0 0 1
-21.344667 -10.249078 -13.775713 27.393588 0.447658 2.097725 0.083644 -0.036149 294037.000000 0 0 1
-20.099267 -10.414178 -13.114713 26.161639 0.478052 2.095892 0.115981 -0.039867 762924.000000 0 0 1
-19.235367 -11.649478 -13.712613 26.339048 0.544548 2.118372 0.114185 -0.028131 201423.000000 0 0 1
-18.564167 -11.331178 -14.897413 26.362033 0.548016 2.171361 0.140506 -0.030711 286528.000000 0 0 1
-19.314867 -11.435078 -16.069213 27.605157 0.534542 2.192116 0.116784 -0.035417 7763.650000 0 0 1
-18.317867 -10.970078 -17.177013 27.403223 0.539590 2.248267 0.134777 -0.043524 156384.000000 0 0 1
-18.767667 -11.178378 -18.502313 28.627208 0.537192 2.273547 0.086517 -0.028144 227354.000000 0 0 1
-18.138967 -10.463378 -19.539913 28.641100 0.523220 2.321609 0.086044 -0.033165 -320458.000000 0 0 1
-18.877767 -10.793078 -20.873213 30.142190 0.519377 2.335733 0.101674 -0.031535 -31734.800000 0 0 1
-20.058867 -10.042678 -20.950513 30.694259 0.464176 2.322049 0.092766 -0.039307 191503.000000 0 0 1
-21.027667 -10.610578 -21.839913 32.120538 0.467321 2.318472 0.084549 -0.030062 1047480.000000 0 0 1
-22.253967 -9.690378 -22.175613 32.877048 0.410684 2.311085 0.053528 -0.025142 464571.000000 0 0 1
-21.883167 -8.620278 -22.913113 32.835848 0.375256 2.343129 0.055745 -0.028300 -255143.000000 0 0 1
-22.833467 -8.336578 -23.891213 34.083072 0.350066 2.347553 0.052987 -0.026244 -376922.000000 0 0 1
-22.265967 -7.564478 -25.075313 34.376822 0.327499 2.388277 0.055967 -0.031364 -223371.000000 0 0 1
-21.433567 -8.364878 -25.869813 34.621037 0.372090 2.414678 0.071606 -0.036123 -61026.000000 0 0 1
-20.976267 -7.681978 -27.017543 35.056585 0.351053 2.450710 0.058168 -0.040425 -485862.000000 0 0 1
-19.807567 -8.367678 -27.711013 35.075033 0.399708 2.481686 0.102289 -0.049399 -489733.000000 0 0 1
-20.177067 -9.556178 -28.414963 36.136473 0.442318 2.475632 0.109792 -0.048086 -108243.000000 0 0 1
-19.140867 -10.043578 -29.212493 36.340280 0.483227 2.504553 0.090342 -0.043539 -488488.000000 0 0 1
-19.530467 -11.167178 -30.219093 37.674110 0.519413 2.501630 0.096567 -0.034563 -106820.000000 0 0 1
-20.144167 -10.706478 -31.418823 38.827291 0.488523 2.513576 0.109226 -0.029926 339122.000000 0 0 1
-20.166267 -11.808178 -32.337993 39.898085 0.529720 2.515827 0.100709 -0.028853 519154.000000 0 0 1
-20.891467 -11.367978 -33.680633 41.231897 0.498337 2.526740 0.100622 -0.037314 767603.000000 0 0 1
-19.996167 -10.556078 32.904848 39.925011 0.485722 0.602068 0.095303 -0.038560 630789.000000 0 0 1
-20.366067 -10.479378 31.511013 38.955590 0.475220 0.628525 0.095474 -0.039134 -139001.000000 0 0 1
-19.967767 -11.769678 30.699914 38.467151 0.532614 0.646692 0.095927 -0.029320 24890.800000 0 0 1
-18.545867 -11.704578 30.540024 37.598396 0.562985 0.622764 0.088460 -0.033732 1008280.000000 0 0 1
-17.965367 -12.658878 29.622964 36.885249 0.613824 0.638297 0.082980 -0.027871 86056.900000 0 0 1
-18.092367 -14.083078 30.051754 37.799137 0.661430 0.651726 0.076339 -0.015426 -940391.000000 0 0 1
-19.312967 -14.770678 29.862034 38.508501 0.652910 0.683344 0.073818 -0.019050 -120398.000000 0 0 1
-19.376667 -16.035278 30.411784 39.464693 0.691319 0.691003 0.068791 -0.020006 -144442.000000 0 0 1
-19.505767 -16.143578 32.010476 40.813731 0.691364 0.669219 0.053910 -0.026136 -575332.000000 0 0 1
-18.346267 -15.855078 32.711399 40.718603 0.712688 0.637892 0.074310 -0.022886 -519580.000000 0 0 1
-18.751167 -15.441978 -33.358223 41.265385 0.688919 2.512196 0.070861 -0.019641 106512.000000 0 0 1
-17.614767 -14.925878 -32.470853 39.842416 0.702954 2.523494 0.074801 -0.021720 -283003.000000 0 0 1
-16.996167 -13.736278 -32.909883 39.504625 0.679720 2.555420 0.079287 -0.018580 -17620.800000 0 0 1
-15.800267 -13.303678 -32.299053 38.338820 0.699826 2.572636 0.078905 -0.013599 13542.500000 0 0 1
-15.999667 -12.867878 -30.848833 37.057012 0.677333 2.554346 0.098564 -0.021510 -469168.000000 0 0 1
-16.165367 -13.957678 -29.994013 36.820873 0.712240 2.522823 0.088768 -0.025806 -133060.000000 0 0 1
-16.615267 -13.643578 -28.676673 35.840841 0.687503 2.498278 0.074044 -0.024601 -217024.000000 0 0 1
-17.025167 -14.953778 -27.957703 35.987566 0.720715 2.460478 0.075167 -0.023329 661788.000000 0 0 1
-15.962267 -15.781478 -27.440513 35.451809 0.779703 2.455967 0.106385 -0.042816 45758.400000 0 0 1
-15.076867 -16.261778 -28.401003 36.032961 0.823190 2.478667 0.109285 -0.046033 -593696.000000 0 0 1
-13.758267 -16.817278 -27.826003 35.304351 0.885114 2.478634 0.155570 -0.041682 -216713.000000 0 0 1
-12.959767 -15.884078 -27.118303 33.995027 0.886437 2.494291 0.136747 -0.042937 559004.000000 0 0 1
-11.812367 -16.506578 -26.493083 33.374879 0.949667 2.487833 0.176049 -0.049951 1529720.000000 0 0 1
-10.457467 -15.914478 -27.023783 33.059251 0.989443 2.527740 0.135257 -0.046585 548075.000000 0 0 1
-10.150267 -14.561278 -26.818153 32.160100 0.962038 2.556924 0.133497 -0.046969 -175778.000000 0 0 1
-8.818967 -14.321878 -27.231963 32.007345 1.018863 2.588309 0.162073 -0.050641 241755.000000 0 0 1
-8.517267 -12.881978 -27.540223 31.574563 0.986604 2.630536 0.126197 -0.047354 -359007.000000 0 0 1
-9.277067 -12.348878 -28.562203 32.470882 0.926497 2.645870 0.148866 -0.047264 -169019.000000 0 0 1
-8.862667 -11.029578 -28.882383 32.161942 0.893903 2.686067 0.122255 -0.039968 -31641.900000 0 0 1
-7.742467 -10.866678 -29.920553 32.760799 0.951733 2.722119 0.115768 -0.024445 -1091490.000000 0 0 1
-6.439267 -11.081078 -29.499803 32.163532 1.044386 2.731745 0.096307 -0.030584 198554.000000 0 0 1
-5.431867 -10.872278 -30.521253 32.852069 1.107463 2.762636 0.092057 -0.022712 657821.000000 0 0 1
-5.196767 -9.370878 -30.883973 32.690052 1.064455 2.807632 0.089944 -0.026639 -1017230.000000 0 0 1
-3.967367 -8.981178 -31.459473 32.956031 1.154831 2.839074 0.122182 -0.041654 184436.000000 0 0 1
-4.030967 -7.669178 -31.892963 33.048843 1.086874 2.876335 0.135486 -0.042360 -20732.200000 0 0 1
-2.652567 -7.106478 -32.294333 33.173213 1.213552 2.910892 0.129480 -0.052857 23975.100000 0 0 1
-2.081667 -7.681178 -33.464513 34.397782 1.306144 2.908118 0.139640 -0.053773 -919124.000000 0 0 1
-0.859267 -7.102978 33.655054 34.407169 1.450409 0.209473 0.177645 -0.048069 -741439.000000 0 0 1
-0.214967 -7.680678 32.386141 33.285149 1.542816 0.232945 0.166351 -0.047902 -95414.500000 0 0 1
-0.789067 -7.220178 31.173204 32.008159 1.461942 0.228910 0.171184 -0.049285 107117.000000 0 0 1
-0.156567 -7.862178 30.095474 31.105882 1.550885 0.255579 0.146302 -0.047668 68067.500000 0 0 1
-0.623267 -7.317478 28.724854 29.648797 1.485826 0.250304 0.129838 -0.040128 -40732.900000 0 0 1
0.025233 -6.112178 28.399744 29.050040 -1.566668 0.211988 0.142455 -0.043074 -25154.300000 0 0 1
-0.191467 -5.707778 27.025124 27.621960 1.537264 0.208257 0.143726 -0.038687 820298.000000 0 0 1
-1.416567 -4.697778 26.847364 27.292063 1.277927 0.180768 0.105415 -0.024415 708596.000000 0 0 1
-2.644167 -5.307478 27.086464 27.727918 1.108593 0.215516 0.074071 -0.011857 -479253.000000 0 0 1
-3.729767 -4.457878 26.706384 27.331571 0.874093 0.214298 0.067135 -0.017293 651912.000000 0 0 1
-5.155967 -4.915278 27.091224 28.012111 0.761504 0.257124 0.057506 -0.011533 115143.000000 0 0 1
-5.534567 -6.067478 26.405844 27.653468 0.831298 0.301529 0.056729 -0.008622 -458976.000000 0 0 1
-6.862567 -6.417378 26.722574 28.326198 0.751887 0.338098 0.049050 -0.015736 223593.000000 0 0 1
-7.200167 -7.898878 26.576264 28.644938 0.831640 0.382372 0.055490 -0.018383 137403.000000 0 0 1
-6.634167 -8.613378 27.644464 29.705535 0.914482 0.374702 0.050323 -0.020064 -113559.000000 0 0 1
-6.716767 -10.016578 27.437054 29.970631 0.980100 0.414135 0.059507 -0.024121 84.543500 0 0 1
-5.906867 -10.743878 28.530494 31.053358 1.068115 0.405875 0.051933 -0.019296 -84823.300000 0 0 1
-6.027767 -12.157178 28.484454 31.551467 1.110499 0.444575 0.073125 -0.024201 106152.000000 0 0 1
-5.522467 -12.782478 29.653514 32.760041 1.162983 0.439009 0.077494 -0.023946 28533.200000 0 0 1
-5.433767 -14.328178 29.574114 33.308418 1.208317 0.478064 0.128711 -0.051361 -246349.000000 0 0 1
-6.746267 -14.795178 29.609334 33.780498 1.142983 0.502209 0.142253 -0.054648 -534226.000000 0 0 1
-6.806667 -16.142078 29.181454 34.036078 1.171748 0.540662 0.180603 -0.058948 134806.000000 0 0 1
-7.014767 -17.151378 30.345514 35.555969 1.182563 0.548212 0.182968 -0.051755 -49662.100000 0 0 1
-8.304267 -17.079978 30.911724 36.279762 1.118250 0.550931 0.178142 -0.056327 -254603.000000 0 0 1
-8.264867 -17.467378 32.263873 37.608175 1.128850 0.539637 0.196376 -0.054942 116971.000000 0 0 1
-9.667667 -17.528878 32.945295 38.550198 1.066781 0.546002 0.189941 -0.043750 1221940.000000 0 0 1
-10.653767 -18.455078 32.456398 38.826671 1.047249 0.580970 0.216662 -0.048721 423113.000000 0 0 1
-11.332567 -18.023478 31.310229 37.862954 1.009493 0.597160 0.183410 -0.060982 -411423.000000 0 0 1
-12.271967 -19.212078 30.855464 38.363586 1.002361 0.636316 0.170543 -0.056000 1259270.000000 0 0 1
-13.423867 -19.416278 31.741794 39.556713 0.965885 0.639427 0.158578 -0.051746 995434.000000 0 0 1
-13.766467 -20.768578 31.833323 40.425362 0.985440 0.664120 0.157187 -0.047014 -277617.000000 0 0 1
-12.935167 -21.652678 32.794627 41.372026 1.032296 0.655610 0.194228 -0.045659 591138.000000 0 0 1
-11.562167 -21.844178 32.431102 40.775338 1.083983 0.651194 0.194355 -0.056233 930811.000000 0 0 1
-10.656267 -22.390478 33.396824 41.596122 1.126591 0.638680 0.215381 -0.070135 507003.000000 0 0 1
-10.709267 -23.882178 -33.637193 42.620506 1.149256 2.480343 0.206742 -0.047480 -202751.000000 0 0 1
-10.484367 -24.772478 32.676293 42.324198 1.170429 0.688740 0.199328 -0.047994 -55116.900000 0 0 1
-10.433767 -26.083158 33.148684 43.451466 1.190273 0.703025 0.196054 -0.050867 -806406.000000 0 0 1
-9.820067 -27.146918 32.207899 43.252025 1.223703 0.730776 0.166060 -0.043866 875417.000000 0 0 1
-8.440667 -26.956508 31.858584 42.577782 1.267345 0.725385 0.188772 -0.055874 407360.000000 0 0 1
-7.515567 -27.301418 32.853328 43.372714 1.302169 0.711374 0.165058 -0.055815 -1119100.000000 0 0 1
-6.089767 -27.114178 32.355154 42.651142 1.349865 0.709635 0.166374 -0.063807 -487194.000000 0 0 1
-5.407167 -26.041928 32.992802 42.378585 1.366072 0.678484 0.187665 -0.062178 -428357.000000 0 0 1
-4.390667 -25.635658 32.115494 41.326382 1.401170 0.680722 0.253724 -0.048534 -342566.000000 0 0 1
-3.829667 -24.314378 32.609852 40.856551 1.414573 0.646570 0.254477 -0.058380 -371768.000000 0 0 1
-3.051467 -24.395778 -33.608013 41.640893 1.446361 2.510006 0.202870 -0.062732 -204152.000000 0 0 1
-2.487367 -23.128978 -33.341123 40.654238 1.463665 2.532407 0.186241 -0.060591 -7936.700000 0 0 1
35.723732 -15.875478 2.410887 39.166672 -0.418184 1.509203 0.238696 -0.065944 -215329.000000 0 0 1
36.625872 -15.856278 3.475887 40.061925 -0.408565 1.483924 0.185947 -0.062444 199558.000000 0 0 1
36.055802 -16.323278 4.688387 39.855379 -0.425116 1.452888 0.161052 -0.054734 -23563.700000 0 0 1
37.081932 -16.107878 5.809387 40.844613 -0.409794 1.428081 0.134570 -0.031815 287422.000000 0 0 1
-37.814307 -17.013778 5.665587 41.850799 0.422795 1.435004 0.140728 -0.034983 120920.000000 0 0 1
-36.941217 -16.846478 6.768587 41.161525 0.427861 1.405606 0.141552 -0.029147 -555300.000000 0 0 1
-35.700353 -17.703278 6.747587 40.415977 0.460350 1.403057 0.119443 -0.029971 -898859.000000 0 0 1
-35.945288 -19.090178 6.701987 41.248215 0.488209 1.407593 0.107735 -0.024354 328573.000000 0 0 1
-34.785904 -19.879378 6.979287 40.668898 0.519183 1.398330 0.081278 -0.008074 313001.000000 0 0 1
-35.055255 -21.377578 7.084287 41.666040 0.547613 1.399941 0.073014 -0.003378 -222599.000000 0 0 1
-35.019556 -22.060978 5.844187 41.799648 0.562159 1.430522 0.088128 -0.005985 240133.000000 0 0 1
-35.328967 -23.440278 5.946087 42.812831 0.585797 1.431460 0.096401 -0.011832 -49042.300000 0 0 1
-34.890023 -24.309578 4.725087 42.785462 0.608541 1.460134 0.097179 -0.017157 14809.000000 0 0 1
-35.595371 -24.013878 3.566587 43.086162 0.593499 1.487923 0.088530 -0.012282 94901.000000 0 0 1
-35.024969 -24.811678 2.510887 42.996190 0.616341 1.512365 0.097615 -0.012317 378817.000000 0 0 1
-35.627164 -24.546078 1.103787 43.278437 0.603285 1.545289 0.088548 -0.012014 -442666.000000 0 0 1
-36.776697 -25.260568 0.710187 44.622036 0.601855 1.554880 0.084606 -0.013888 74288.800000 0 0 1
-37.298227 -24.730978 -0.513713 44.755368 0.585502 1.582275 0.077702 -0.013401 -256612.000000 0 0 1
37.739142 -23.555878 -0.399113 44.489117 -0.558007 1.579767 0.090749 -0.021861 -823593.000000 0 0 1
36.363122 -23.865078 -0.213813 43.495566 -0.580791 1.575712 0.065452 -0.009330 299887.000000 0 0 1
35.710002 -22.642378 0.209587 42.283867 -0.565090 1.565840 0.084980 -0.015738 46921.200000 0 0 1
34.190512 -22.811178 0.035087 41.101608 -0.588357 1.569943 0.063005 -0.009293 -316452.000000 0 0 1
33.828122 -22.881778 -1.268613 40.859845 -0.594720 1.601849 0.069350 -0.024798 380924.000000 0 0 1
32.402362 -22.894678 -1.364813 39.698137 -0.615125 1.605183 0.068147 -0.014662 662846.000000 0 0 1
32.002592 -22.851178 -2.844313 39.426290 -0.620088 1.643002 0.080234 -0.009265 -125230.000000 0 0 1
32.323542 -21.582278 -3.372113 39.012527 -0.588714 1.657341 0.120711 -0.022764 190232.000000 0 0 1
32.084032 -21.337578 -4.765313 38.825063 -0.586885 1.693845 0.133751 -0.043891 -35494.100000 0 0 1
32.225122 -19.801078 -4.913813 38.140356 -0.550985 1.699990 0.161798 -0.053473 451408.000000 0 0 1
31.156582 -19.180478 -4.203913 36.827927 -0.551823 1.685196 0.199238 -0.053783 464797.000000 0 0 1
31.244842 -17.770978 -4.297813 36.201091 -0.517136 1.689798 0.211772 -0.051367 738534.000000 0 0 1
30.149872 -17.214178 -3.285013 34.873113 -0.518788 1.665135 0.208095 -0.037205 593706.000000 0 0 1
30.546572 -17.157578 -1.894713 35.086543 -0.511771 1.624824 0.199414 -0.032411 181438.000000 0 0 1
30.960072 -18.325278 -1.181313 35.996352 -0.534443 1.603620 0.178385 -0.026368 -586754.000000 0 0 1
29.980272 -19.493578 -1.129513 35.778375 -0.576525 1.602371 0.154452 -0.017454 -360253.000000 0 0 1
28.860672 -19.120478 -0.340413 34.621481 -0.585119 1.580629 0.138873 0.002370 253172.000000 0 0 1
28.193772 -20.309578 0.132187 34.747449 -0.624258 1.566992 0.117620 -0.008334 -350003.000000 0 0 1
27.161072 -19.929878 1.206987 33.710246 -0.633030 1.534984 0.111683 -0.005563 -385019.000000 0 0 1
26.380272 -21.051378 1.666687 33.791376 -0.673518 1.521453 0.096305 0.001012 998956.000000 0 0 1
25.342072 -20.723878 2.611387 32.840814 -0.685480 1.491196 0.083347 -0.001785 309578.000000 0 0 1
24.045272 -20.106678 2.092487 31.413884 -0.696428 1.504137 0.057256 -0.002816 -930559.000000 0 0 1
23.979472 -18.763378 1.807187 30.501563 -0.663964 1.511513 0.098263 -0.019453 215581.000000 0 0 1
24.014772 -17.870878 2.886887 30.073438 -0.639754 1.474654 0.125405 -0.018891 -455867.000000 0 0 1
23.738572 -16.396378 2.643987 28.971567 -0.604461 1.479408 0.113563 0.001283 -370215.000000 0 0 1
22.467772 -16.238978 2.059287 27.798306 -0.625843 1.496649 0.091821 -0.002487 -199317.000000 0 0 1
22.277972 -14.929478 1.530387 26.861486 -0.590407 1.513792 0.103206 -0.018448 -25112.300000 0 0 1
20.901372 -14.613578 0.893087 25.519044 -0.610168 1.535792 0.071694 -0.010711 513966.000000 0 0 1
19.892972 -14.444978 1.908287 24.658250 -0.628052 1.493329 0.073711 -0.015409 1206320.000000 0 1 0
18.857772 -13.461278 1.668587 23.229416 -0.619949 1.498904 0.090572 -0.022558 517097.000000 0 1 0
19.190172 -12.027678 2.114087 22.746365 -0.559866 1.477720 0.092599 -0.026259 -264432.000000 0 1 0
20.132372 -11.399778 1.255087 23.169864 -0.515227 1.516601 0.096914 -0.029495 496812.000000 0 1 0
20.336072 -10.156178 1.777787 22.800533 -0.463181 1.492746 0.121185 -0.027636 -341782.000000 0 1 0
21.156372 -9.259678 0.832487 23.109019 -0.412560 1.534764 0.124401 -0.027458 -232187.000000 0 1 0
20.469672 -8.865078 -0.327013 22.309281 -0.408698 1.585455 0.126564 -0.028842 820737.000000 0 1 0
21.404372 -8.270578 -1.192813 22.977650 -0.368725 1.622732 0.113087 -0.018361 -122365.000000 0 1 0
20.836172 -8.200278 -2.633613 22.546098 -0.374942 1.687874 0.118975 -0.016914 404436.000000 0 1 0
21.762372 -7.647078 -3.617113 23.348707 -0.337913 1.726340 0.145930 -0.025475 880337.000000 0 1 0
22.729772 -8.543278 -4.133113 24.631540 -0.359527 1.739391 0.135881 -0.027718 -507457.000000 0 1 0
22.269572 -9.676078 -5.126213 24.816091 -0.409888 1.778862 0.113989 -0.030787 -384401.000000 0 1 0
21.861972 -9.253178 -6.467613 24.604819 -0.400391 1.836781 0.132611 -0.038334 -429050.000000 0 1 0
20.499072 -8.992278 -6.419113 23.286864 -0.413390 1.850066 0.126030 -0.022247 -774315.000000 0 1 0
19.744372 -8.888078 -7.810313 23.018235 -0.422985 1.916979 0.126372 -0.020519 112654.000000 0 1 0
19.664972 -10.117778 -8.506713 23.694825 -0.475186 1.938005 0.126173 -0.026044 946064.000000 0 1 0
20.925772 -10.527478 -9.052313 25.112947 -0.466114 1.939562 0.136058 -0.032495 350022.000000 0 0 1
20.899572 -11.997878 -9.589613 25.936496 -0.521137 1.949519 0.119833 -0.032506 -719538.000000 0 0 1
20.044672 -12.284278 -10.612513 25.793755 -0.549811 1.994827 0.154921 -0.034567 -521802.000000 0 0 1
19.909772 -13.696278 -10.881413 26.502683 -0.602571 1.993884 0.139616 -0.031493 -574304.000000 0 0 1
18.750772 -13.924678 -11.834213 26.182756 -0.638760 2.039786 0.139491 -0.027848 -434249.000000 0 0 1
18.629572 -15.236678 -12.372113 27.060792 -0.685546 2.045637 0.132056 -0.031793 110441.000000 0 0 1
17.486272 -15.348778 -13.182613 26.742026 -0.720392 2.086279 0.125772 -0.030866 -329600.000000 0 0 1
17.200172 -16.791978 -13.627713 27.632064 -0.773390 2.086543 0.116441 -0.034817 -417924.000000 0 0 1
16.709772 -17.619378 -12.583513 27.349657 -0.811889 2.048901 0.109597 -0.030412 327953.000000 0 0 1
16.667272 -18.960278 -13.057513 28.421624 -0.849670 2.048140 0.108580 -0.037768 -650373.000000 0 0 1
15.721172 -19.777678 -12.194213 28.053709 -0.899176 2.020472 0.098734 -0.038960 -614146.000000 0 0 1
14.378772 -19.586378 -12.532013 27.339104 -0.937535 2.046981 0.083787 -0.035786 -645744.000000 0 0 1
13.471072 -20.209078 -11.672213 26.946561 -0.982850 2.018794 0.073136 -0.027395 422504.000000 0 0 1
12.024472 -20.336178 -12.216613 26.596874 -1.036810 2.048032 0.052576 -0.028364 103584.000000 0 0 1
11.081872 -20.698778 -11.282413 26.048803 -1.079241 2.018754 0.059699 -0.037295 -521232.000000 0 0 1
9.737572 -20.638278 -11.724713 25.655949 -1.129945 2.045413 0.053094 -0.023362 400196.000000 0 0 1
8.805972 -21.193778 -10.632113 25.293540 -1.177001 2.004626 0.039312 -0.016975 -448241.000000 0 0 1
8.966572 -22.637878 -10.543513 26.533726 -1.193668 1.979437 0.059869 -0.025200 104696.000000 0 0 1
8.044372 -23.128278 -9.597913 26.301123 -1.236069 1.944348 0.056857 -0.031060 -10873.000000 0 0 1
8.220672 -24.669178 -9.475313 27.675428 -1.249133 1.920237 0.059680 -0.026061 14071.600000 0 0 1
9.447272 -25.081178 -8.937313 28.252292 -1.210564 1.892665 0.055903 -0.025442 -666654.000000 0 0 1
9.753372 -26.332928 -9.512013 29.648436 -1.216076 1.897399 0.044917 -0.025874 11014.800000 0 0 1
11.241772 -26.599608 -9.218313 30.313262 -1.170935 1.879792 0.028650 -0.019573 -95404.300000 0 0 1
11.555672 -26.886168 -7.888713 30.308932 -1.164867 1.834105 0.040471 -0.028126 -270248.000000 0 0 1
12.948372 -27.086698 -7.771413 31.012004 -1.124875 1.824090 0.060927 -0.019964 -59655.500000 0 0 1
13.356772 -27.412968 -6.296313 31.137080 -1.117406 1.774413 0.062356 -0.024970 20477.200000 0 0 1
12.898872 -28.603708 -5.659913 31.883971 -1.147152 1.749258 0.060568 -0.027574 -1031980.000000 0 0 1
11.535172 -28.690308 -5.455613 31.399963 -1.188517 1.745428 0.059613 -0.029973 -1030360.000000 0 0 1
11.097472 -29.834598 -4.550513 32.155315 -1.214688 1.712790 0.076394 -0.037678 -193096.000000 0 0 1
11.120872 -31.190378 -4.913813 33.476246 -1.228300 1.718114 0.081753 -0.033373 21985.100000 0 0 1
10.254072 -31.581098 -5.986613 33.739462 -1.256845 1.749177 0.082317 -0.032332 229420.000000 0 0 1
10.329772 -33.135958 -6.170613 35.252977 -1.268605 1.746741 0.083994 -0.029510 -110378.000000 0 0 1
9.832072 33.644303 -5.127413 35.424556 1.286478 1.716048 0.086426 -0.026490 -91043.200000 0 0 1
10.141872 32.297177 -5.382113 34.277287 1.266530 1.728466 0.086400 -0.024169 103717.000000 0 0 1
9.726072 31.346683 -4.222613 33.091411 1.269940 1.698750 0.070546 -0.020028 -291840.000000 0 0 1
8.380172 31.006883 -4.343713 32.411756 1.306835 1.705217 0.061497 -0.020330 -809220.000000 0 0 1
7.966972 30.022573 -3.363113 31.243209 1.311409 1.678648 0.049882 -0.015222 1464580.000000 0 0 1
6.529072 29.397313 -3.667013 30.336081 1.352246 1.691972 0.054782 -0.017294 1358070.000000 0 0 1
6.478672 28.741603 -4.959113 29.877178 1.349091 1.737551 0.061995 -0.025891 217995.000000 0 0 1
5.907172 29.661863 -5.921713 30.818623 1.374218 1.764146 0.063257 -0.028023 -100109.000000 0 0 1
6.010672 29.076443 -7.378713 30.594332 1.366948 1.814377 0.064156 -0.030916 -50750.400000 0 0 1
5.202872 27.985253 -7.765113 29.504936 1.386980 1.837113 0.078828 -0.034443 -184417.000000 0 0 1
5.619472 26.778683 -7.181113 28.288597 1.363949 1.827457 0.080469 -0.031497 -800005.000000 0 0 1
4.914472 25.503673 -7.624913 27.068962 1.380433 1.856346 0.086445 -0.036621 323935.000000 0 0 1
3.548772 25.295403 -7.264413 26.556033 1.431413 1.847879 0.086199 -0.033242 537033.000000 0 0 1
2.625472 26.101943 -8.018313 27.431695 1.470548 1.867428 0.099542 -0.036967 292204.000000 0 0 1
1.956672 25.422193 -9.254513 27.124942 1.493981 1.918969 0.103659 -0.036949 773277.000000 0 0 1
3.023272 25.270793 -10.220913 27.426634 1.451727 1.952674 0.093779 -0.035481 1061740.000000 0 0 1
2.563972 24.713073 -11.467113 27.364295 1.467417 2.003199 0.096025 -0.036890 -211736.000000 0 0 1
2.247072 23.185343 -11.464013 25.962147 1.474180 2.028140 0.098870 -0.030415 708634.000000 0 0 1
1.020672 22.888613 -10.763013 25.313491 1.526233 2.009967 0.117926 -0.027290 456248.000000 0 0 1
0.862872 21.546693 -10.420813 23.949904 1.530771 2.020955 0.075489 -0.021161 -90285.600000 0 1 0
-0.316628 21.128893 -9.509013 23.172219 -1.555812 1.993648 0.082664 -0.014561 297390.000000 0 1 0
-1.561728 21.031393 -10.181713 23.418492 -1.496675 2.020582 0.090532 -0.023875 42958.900000 0 1 0
-2.530928 20.449893 -9.299913 22.607346 -1.447660 1.994749 0.070350 -0.012274 -602949.000000 0 1 0
-3.775928 20.143993 -10.079713 22.839411 -1.385500 2.027876 0.062845 -0.020317 -683853.000000 0 1 0
-4.838828 19.638393 -9.264913 22.246783 -1.329212 2.000345 0.057023 -0.020778 -166833.000000 0 1 0
-5.880028 19.307893 -10.133313 22.584364 -1.275180 2.036092 0.064417 -0.016779 -675480.000000 0 1 0
-6.858028 18.238893 -9.559313 21.704153 -1.211139 2.026882 0.055469 -0.018776 437237.000000 0 1 0
-7.844128 18.787093 -8.659513 22.124023 -1.175272 1.972957 0.070277 -0.015155 -399976.000000 0 1 0
-9.094128 18.792493 -9.244913 22.832639 -1.120092 1.987665 0.078540 -0.023493 -849253.000000 0 1 0
-10.238128 19.124093 -8.275013 23.216935 -1.079268 1.935231 0.097255 -0.030963 122228.000000 0 1 0
-10.409728 18.132893 -7.291813 22.143505 -1.049654 1.906356 0.085031 -0.023752 -1390190.000000 0 1 0
-11.650228 18.216793 -6.712413 22.641463 -1.001815 1.871786 0.108164 -0.026416 -967470.000000 0 1 0
-11.951228 17.177893 -5.619513 21.667736 -0.962940 1.833145 0.074031 -0.026871 370956.000000 0 1 0
-13.239828 17.338593 -5.031413 22.388278 -0.918645 1.797467 0.099770 -0.020254 441387.000000 0 1 0
-13.606628 16.135293 -4.344913 21.549160 -0.870214 1.773816 0.088555 -0.024098 649963.000000 0 1 0
-14.827828 16.442093 -3.426913 22.404255 -0.836976 1.724357 0.080089 -0.029242 1986140.000000 0 1 0
-16.209728 16.242493 -3.866413 23.270647 -0.786408 1.737720 0.135047 -0.056516 1719760.000000 0 1 0
-17.059228 16.812893 -2.900813 24.126860 -0.778126 1.691320 0.129457 -0.045766 -1339350.000000 0 1 0
-18.415228 17.211393 -3.361613 25.429375 -0.751621 1.703378 0.136184 -0.051841 -1323930.000000 0 0 1
-18.474528 18.191693 -4.319513 26.285054 -0.777685 1.735879 0.135015 -0.051992 845159.000000 0 0 1
-19.824328 18.447993 -4.753913 27.494220 -0.749452 1.744576 0.118500 -0.054122 888373.000000 0 0 1
-19.865028 19.477793 -5.891013 28.437788 -0.775556 1.779462 0.101812 -0.032531 118525.000000 0 0 1
-19.443628 20.858293 -5.611813 29.062270 -0.820485 1.765113 0.111306 -0.052833 255861.000000 0 0 1
-19.684028 21.677793 -6.737013 30.046215 -0.833564 1.796941 0.088636 -0.021675 -244445.000000 0 0 1
-19.292728 23.196133 -6.443413 30.851054 -0.877010 1.781201 0.096106 -0.033946 161682.000000 0 0 1
-17.902528 23.411713 -6.341413 30.146681 -0.917964 1.782731 0.093975 -0.033274 -34702.000000 0 0 1
-17.435028 23.331763 -4.989613 29.550764 -0.929047 1.740458 0.117871 -0.050946 -85117.900000 0 0 1
-16.201928 24.270813 -4.967113 29.601471 -0.982184 1.739393 0.097126 -0.047446 -357911.000000 0 0 1
-15.887028 24.759193 -3.669713 29.645946 -1.000305 1.694899 0.094998 -0.049553 312389.000000 0 0 1
-14.676328 25.491133 -3.532213 29.625479 -1.048404 1.690310 0.135292 -0.067115 88147.300000 0 0 1
-14.450128 26.770193 -4.389713 30.736282 -1.075830 1.714105 0.130806 -0.057214 30976.100000 0 0 1
-15.447728 27.795223 -4.199813 32.075617 -1.063535 1.702108 0.147819 -0.054861 660364.000000 0 0 1
-15.108328 28.921133 -4.992513 33.009373 -1.089392 1.722624 0.109160 -0.053322 483966.000000 0 0 1
-16.115928 30.116623 -4.817913 34.495600 -1.079451 1.710922 0.111294 -0.045864 416721.000000 0 0 1
-17.358328 29.970313 -5.458913 35.061816 -1.045823 1.727126 0.128980 -0.044534 -211134.000000 0 0 1
-18.222128 31.059623 -5.205913 36.384718 -1.040227 1.714369 0.151771 -0.036381 83918.100000 0 0 1
13.161833 -8.825178 18.184354 24.120289 -0.590661 0.716814 0.168589 -0.022624 39078.300000 0 1 0
13.997733 -9.806378 18.752954 25.372718 -0.611108 0.739064 0.158346 -0.026762 -156098.000000 0 0 1
14.300033 -10.764478 17.776954 25.226673 -0.645265 0.788812 0.168398 -0.024277 38428.300000 0 0 1
15.084333 -11.924878 18.457954 26.654003 -0.668950 0.805845 0.196095 -0.034591 1564190.000000 0 0 1
16.540733 -11.739378 18.440054 27.412486 -0.617223 0.832961 0.179741 -0.019683 2378280.000000 0 0 1
17.283133 -12.797778 19.123754 28.778599 -0.637379 0.843954 0.170003 -0.025991 399185.000000 0 0 1
17.411233 -14.162978 18.324054 28.974332 -0.682882 0.886118 0.156115 -0.036262 -675266.000000 0 0 1
16.232233 -14.939078 18.206154 28.602893 -0.743937 0.880826 0.172643 -0.042115 162806.000000 0 0 1
16.374533 -16.115378 17.425254 28.835225 -0.777422 0.921904 0.179180 -0.052486 -638208.000000 0 0 1
15.722933 -16.118778 16.048954 27.651303 -0.797829 0.951570 0.164109 -0.060437 -455598.000000 0 0 1
14.314333 -16.044778 16.163554 26.899730 -0.842336 0.926193 0.194850 -0.060030 9783.620000 0 0 1
13.727733 -15.904678 14.885354 25.748460 -0.858731 0.954390 0.219474 -0.064142 -85687.400000 0 0 1
13.217433 -17.200278 14.212754 25.933616 -0.915596 0.990773 0.159420 -0.046287 245007.000000 0 0 1
14.319333 -18.072978 13.935254 26.941921 -0.900764 1.027181 0.158532 -0.045653 525848.000000 0 0 1
13.831833 -19.283678 13.399554 27.253034 -0.948566 1.056788 0.139205 -0.042067 -439130.000000 0 0 1
14.845933 -20.136478 12.660054 28.038481 -0.935495 1.102323 0.140033 -0.041390 -848547.000000 0 0 1
15.815133 -20.652278 13.507454 29.310174 -0.917271 1.091849 0.122773 -0.035853 -534898.000000 0 0 1
16.176133 -21.925778 13.098154 30.231914 -0.935170 1.122694 0.086873 -0.036526 -34822.400000 0 0 1
17.015133 -22.766678 14.084454 31.720785 -0.928981 1.110723 0.086744 -0.039353 783489.000000 0 0 1
18.340933 -22.274978 14.278354 32.193724 -0.881957 1.111281 0.070470 -0.032434 766283.000000 0 0 1
19.153533 -23.001478 15.220754 33.579713 -0.876427 1.100363 0.074880 -0.042771 312446.000000 0 0 1
20.489033 -22.284878 15.514554 34.016432 -0.827358 1.097200 0.052212 -0.028482 -486791.000000 0 0 1
21.374633 -22.616278 14.521454 34.340116 -0.813616 1.134185 0.041667 -0.026553 -73630.400000 0 0 1
22.698733 -22.171978 14.860454 35.038010 -0.773659 1.132802 0.053428 -0.021560 1136260.000000 0 0 1
23.937633 -22.849078 14.218654 36.017506 -0.762136 1.164978 0.055442 -0.027296 292567.000000 0 0 1
24.192533 -24.071878 14.885354 37.233153 -0.782898 1.159511 0.049098 -0.026799 173268.000000 0 0 1
25.375033 -24.576278 14.292454 38.107217 -0.769409 1.186336 0.061135 -0.029415 194486.000000 0 0 1
25.989933 -25.855998 14.958654 39.595083 -0.782815 1.183387 0.074545 -0.024064 201681.000000 0 0 1
26.555733 -25.585748 16.254854 40.299599 -0.766797 1.155621 0.095784 -0.025884 388401.000000 0 0 1
27.211533 -26.659598 16.910654 41.679394 -0.775153 1.153017 0.133393 -0.025925 84701.900000 0 0 1
27.599533 -26.360508 18.330554 42.339341 -0.762440 1.123040 0.116720 -0.019290 -664239.000000 0 0 1
26.544633 -26.109678 19.186854 41.886372 -0.777138 1.094975 0.117752 -0.013863 -729304.000000 0 0 1
26.877233 -25.687968 20.476054 42.444389 -0.762777 1.067380 0.117535 -0.011745 312788.000000 0 0 1
25.565533 -25.349748 21.263054 41.812960 -0.781160 1.037322 0.100507 -0.012583 461531.000000 0 0 1
24.904233 -26.507828 21.623554 42.313873 -0.816579 1.034417 0.104523 -0.011600 -711375.000000 0 0 1
23.896733 -26.300978 22.552904 42.088345 -0.833257 1.005286 0.103969 -0.010497 -85680.100000 0 0 1
23.051033 -27.574148 22.867114 42.597989 -0.874507 1.004142 0.111647 -0.015220 362502.000000 0 0 1
23.853733 -28.501138 23.613744 44.033218 -0.873933 1.004783 0.120072 -0.014608 610176.000000 0 0 1
23.662933 -29.793928 23.053674 44.486901 -0.899590 1.026037 0.136695 -0.023681 -126322.000000 0 0 1
24.761933 -30.803488 23.463994 45.962672 -0.893701 1.035029 0.117090 -0.014268 -35437.000000 0 0 1
24.787733 -31.004438 24.862234 46.838419 -0.896367 1.011242 0.106366 -0.015140 302777.000000 0 0 1
25.958533 -31.639118 25.349484 48.140166 -0.883706 1.016228 0.095244 -0.014843 -275883.000000 0 0 1
25.826133 -32.204228 26.770024 49.200972 -0.894868 0.995486 0.092893 -0.034235 470505.000000 0 0 1
25.104233 -33.443778 26.970394 49.760536 -0.926886 0.997977 0.096141 -0.025354 1632140.000000 0 0 1
23.695733 -33.522048 26.653474 48.945103 -0.955474 0.994934 0.095384 -0.023696 704852.000000 0 0 1
22.991133 32.739418 27.044614 48.289469 0.958564 0.976348 0.120585 -0.042087 -277856.000000 0 0 1
22.393333 32.878747 28.329104 48.836580 0.972876 0.951970 0.100014 -0.027204 232422.000000 0 0 1
21.949133 31.613952 28.829544 48.086890 0.963915 0.927882 0.110111 -0.037211 109505.000000 0 0 1
21.670933 31.721843 30.384254 48.980685 0.971465 0.901631 0.094686 -0.041243 287377.000000 0 0 1
22.865533 31.945588 31.118914 50.117262 0.949568 0.900878 0.090220 -0.034592 125033.000000 0 0 1
22.626633 32.691301 32.329584 51.243416 0.965372 0.888081 0.071098 -0.036182 -184851.000000 0 0 1
23.795633 32.466747 33.293384 52.237642 0.938314 0.879749 0.045704 -0.017816 -25818.000000 0 0 1
24.078033 31.160253 -33.629203 51.784518 0.912915 2.277600 0.058918 -0.017297 -369042.000000 0 0 1
25.191633 31.157403 -32.779173 51.767522 0.890877 2.256476 0.042575 -0.010680 -196296.000000 0 0 1
25.597933 29.627913 -32.569483 50.929742 0.858242 2.264642 0.058279 -0.011994 2507.600000 0 0 1
26.025133 29.001893 33.619874 51.465651 0.839442 0.858929 0.060007 -0.021089 345241.000000 0 0 1
25.558533 27.635093 33.669454 50.503159 0.824416 0.841051 0.080184 -0.031530 1104.720000 0 0 1
25.914333 26.790973 32.393697 49.382795 0.802030 0.855328 0.112748 -0.031713 -736247.000000 0 0 1
27.199933 26.287803 32.407122 49.810707 0.768347 0.862415 0.097458 -0.035513 -718016.000000 0 0 1
27.418133 25.590473 31.231934 48.806352 0.750933 0.876408 0.126927 -0.048053 -368095.000000 0 0 1
28.657633 24.688783 31.099864 48.969352 0.711137 0.882673 0.090178 -0.033242 -222271.000000 0 0 1
28.684733 23.645973 32.068021 49.094846 0.689407 0.859013 0.102194 -0.040697 71658.800000 0 0 1
29.487533 24.016523 33.140514 50.444045 0.683498 0.853996 0.099203 -0.047171 -1435970.000000 0 0 1
29.301833 23.128023 -32.971033 49.805540 0.668184 2.294274 0.095778 -0.051022 887358.000000 0 0 1
28.195233 23.568943 -32.079313 48.780616 0.696263 2.288457 0.085283 -0.044170 2201980.000000 0 0 1
26.861733 23.522073 -32.600673 48.349193 0.719211 2.310779 0.077257 -0.036292 26098.800000 0 0 1
26.302333 22.091493 -32.735903 47.449827 0.698605 2.332155 0.059177 -0.031606 -1269040.000000 0 0 1
26.177233 21.417393 -31.519343 46.232253 0.685722 2.320963 0.035773 -0.044543 244235.000000 0 0 1
26.169933 19.999493 -31.646923 45.676830 0.652538 2.336222 0.047821 -0.036290 -263402.000000 0 0 1
25.905833 19.303493 -30.286473 44.283264 0.640384 2.323927 0.061395 -0.039872 530342.000000 0 0 1
24.561933 19.388493 -29.789193 43.204146 0.668227 2.331593 0.054526 -0.029395 796093.000000 0 0 1
24.490833 18.599793 -28.613663 42.005891 0.649528 2.320172 0.063334 -0.031419 703430.000000 0 0 1
23.109333 18.794693 -27.874853 40.795700 0.682795 2.323041 0.064043 -0.025226 812951.000000 0 0 1
22.957033 18.065793 -26.673573 39.558535 0.666726 2.310787 0.069585 -0.023346 350441.000000 0 0 1
23.737233 18.599693 -25.565233 39.534617 0.664640 2.273986 0.082183 -0.010512 428551.000000 0 0 1
23.577433 17.811193 -24.256713 38.229858 0.646970 2.258153 0.111009 -0.012563 311454.000000 0 0 1
24.395433 16.640493 -24.356713 38.279141 0.598622 2.260479 0.100838 -0.028812 380900.000000 0 0 1
24.376233 15.967093 -23.137813 37.208966 0.579901 2.241879 0.133317 -0.031601 403477.000000 0 0 1
25.445433 14.795693 -23.248813 37.508531 0.526681 2.239319 0.143892 -0.037399 913961.000000 0 0 1
26.788533 15.271193 -23.136813 38.550576 0.518117 2.214507 0.165621 -0.046834 1073690.000000 0 0 1
27.832433 14.282193 -23.002113 38.829403 0.474112 2.204817 0.171405 -0.055262 763834.000000 0 0 1
27.926533 13.451393 -21.718913 37.848942 0.448877 2.181973 0.158307 -0.041229 480978.000000 0 0 1
26.757133 12.600293 -21.502413 36.565903 0.440109 2.199436 0.152380 -0.033002 934509.000000 0 0 1
26.577333 12.091193 -20.204913 35.507606 0.426958 2.176123 0.130302 -0.042827 -531178.000000 0 0 1
25.158933 11.541693 -20.007913 34.154050 0.430108 2.196680 0.137428 -0.029922 -306070.000000 0 0 1
24.179533 12.564593 -20.014013 33.809459 0.479234 2.204291 0.158250 -0.031808 -970066.000000 0 0 1
23.069833 12.049193 -20.652313 33.225265 0.481322 2.241560 0.136532 -0.032125 -861027.000000 0 0 1
21.829833 12.939593 -20.614213 32.694349 0.535070 2.253010 0.119470 -0.027664 -998952.000000 0 0 1
22.086033 14.162393 -21.248213 33.761706 0.570191 2.251524 0.117424 -0.027552 355203.000000 0 0 1
21.093733 15.208693 -21.180213 33.538803 0.624685 2.254300 0.091182 -0.018943 541596.000000 0 0 1
19.861333 14.945493 -22.109713 33.266796 0.645094 2.297779 0.064434 -0.000097 236866.000000 0 0 1
18.893933 14.055293 -21.543713 31.916509 0.639589 2.311764 0.048956 -0.001849 407664.000000 0 0 1
17.789233 13.948693 -22.434213 31.848340 0.664976 2.352385 0.052468 -0.013069 202607.000000 0 0 1
16.602633 13.127493 -21.860613 30.428028 0.669037 2.372349 0.040915 -0.008372 368635.000000 0 0 1
15.543833 13.179993 -22.810813 30.588497 0.703288 2.412429 0.045033 -0.009937 -390198.000000 0 0 1
14.310933 12.729093 -22.314613 29.407049 0.726965 2.432293 0.065454 -0.017133 -1240010.000000 0 0 1
13.192433 13.011793 -23.249513 29.730235 0.778505 2.468690 0.073436 -0.024489 -1417350.000000 0 0 1
12.867233 14.335293 -23.331813 30.256236 0.839314 2.451427 0.090529 -0.011590 60625.200000 0 0 1
12.542133 14.799493 -24.624213 31.347758 0.867773 2.474328 0.076618 -0.024261 -724696.000000 0 0 1
12.131033 16.261293 -24.667513 31.938657 0.929856 2.453314 0.087892 -0.034490 -597607.000000 0 0 1
13.029333 17.368193 -24.572713 32.790789 0.927178 2.417919 0.071327 -0.016274 190388.000000 0 0 1
14.138633 17.357893 -25.482983 33.920198 0.887254 2.420770 0.091025 -0.031857 386957.000000 0 0 1
13.807333 17.293593 -26.981013 34.895356 0.897027 2.454665 0.128592 -0.040591 -834326.000000 0 0 1
15.003433 17.114793 -27.676603 35.833134 0.851041 2.453368 0.122704 -0.042242 -155855.000000 0 0 1
14.812133 17.172493 -29.071963 36.871029 0.859061 2.479125 0.168245 -0.046259 -153510.000000 0 0 1
16.118933 17.537993 -29.802303 38.152044 0.827536 2.467295 0.150432 -0.059873 213566.000000 0 0 1
17.104033 16.532693 -29.799683 38.130027 0.768414 2.467908 0.099266 -0.053524 -225185.000000 0 0 1
18.290133 16.996493 -30.399853 39.339049 0.748754 2.453983 0.091053 -0.045022 -507630.000000 0 0 1
19.375133 15.953293 -30.509773 39.506323 0.688841 2.453212 0.089685 -0.039346 -855265.000000 0 0 1
20.635633 16.464893 -30.804583 40.569007 0.673451 2.433053 0.077464 -0.040946 -172419.000000 0 0 1
21.676233 15.496693 -30.790573 40.719356 0.620667 2.428230 0.086410 -0.038222 264309.000000 0 0 1
23.052633 16.046193 -31.176933 41.963142 0.608082 2.408278 0.088558 -0.031556 -231992.000000 0 0 1
22.945233 16.557393 -32.490783 43.084590 0.625079 2.425103 0.105788 -0.035352 517223.000000 0 0 1
24.133333 17.250693 -32.886863 44.289388 0.620595 2.407658 0.094267 -0.034387 308124.000000 0 0 1
24.047133 17.962293 33.075215 44.664062 0.641554 0.736933 0.069259 -0.017272 538349.000000 0 0 1
25.203733 18.760693 32.770950 45.399636 0.639883 0.764349 0.064921 -0.014335 551883.000000 0 0 1
25.200533 19.228193 31.436120 44.643251 0.651774 0.789553 0.093323 -0.021981 -290516.000000 0 0 1
26.350133 20.188093 31.112534 45.495916 0.653756 0.817765 0.120339 -0.027369 -521470.000000 0 0 1
27.622633 19.628593 31.125834 46.012053 0.617803 0.827836 0.088075 -0.018809 -677509.000000 0 0 1
28.592133 20.644093 30.977024 46.938946 0.625352 0.850054 0.073886 -0.030764 -911251.000000 0 0 1
29.950133 20.186793 31.433384 47.880838 0.593072 0.854638 0.103237 -0.024500 -1081570.000000 0 0 1
30.055333 19.989793 32.815446 48.782869 0.586917 0.832966 0.084938 -0.034749 117726.000000 0 0 1
31.399533 19.754593 33.179208 49.769815 0.561568 0.841087 0.087051 -0.025002 20296.100000 0 0 1
31.557833 19.355793 -32.725933 49.411843 0.550173 2.294693 0.072444 -0.007441 -258719.000000 0 0 1
30.986733 20.343493 -31.852013 48.873163 0.580947 2.280657 0.060064 -0.031041 240615.000000 0 0 1
30.594733 19.833293 -30.577693 47.585633 0.575150 2.268660 0.080739 -0.040855 416116.000000 0 0 1
31.650433 19.999893 -29.395803 47.601038 0.563545 2.236414 0.098614 -0.053397 1002990.000000 0 0 1
32.918933 19.460193 -29.771303 48.463241 0.533890 2.232304 0.103559 -0.057442 -234303.000000 0 0 1
33.746133 19.271793 -28.643813 48.277029 0.518884 2.205976 0.127146 -0.063750 477990.000000 0 0 1
35.106233 18.663293 -29.176733 49.315797 0.488625 2.203876 0.090124 -0.050909 1007590.000000 0 0 1
35.932933 19.588693 -29.917683 50.694776 0.499109 2.202045 0.093240 -0.054268 696399.000000 0 0 1
36.902533 20.304493 -29.131863 51.212643 0.503012 2.175893 0.065933 -0.030474 -87009.200000 0 0 1
37.862933 21.179993 -29.913303 52.697244 0.510021 2.174438 0.063918 -0.032290 -16868.000000 0 0 1
-37.235706 20.438293 -30.721803 52.421854 -0.501990 2.196971 0.045341 -0.032729 363460.000000 0 0 1
-36.023206 21.101993 -31.050833 52.029989 -0.529905 2.210287 0.051081 -0.032935 33318.500000 0 0 1
-35.236206 20.398193 -32.126753 51.863328 -0.524759 2.238839 0.059669 -0.038017 -722023.000000 0 0 1
-34.673206 19.231093 -31.704193 50.766347 -0.506397 2.245303 0.072271 -0.032149 53644.500000 0 0 1
-33.885206 18.704793 -32.771003 50.715038 -0.504381 2.273364 0.084060 -0.027460 32260.800000 0 0 1
-33.138006 17.374593 -32.526903 49.578255 -0.482906 2.286398 0.069898 -0.014938 176633.000000 0 0 1
-34.008706 16.258393 -32.332103 49.661779 -0.445947 2.279758 0.070901 -0.008532 691180.000000 0 0 1
-33.277506 15.023493 -32.332723 48.769896 -0.424068 2.295568 0.060066 0.005069 362373.000000 0 0 1
-34.213806 13.901393 -32.807563 49.398071 -0.385934 2.297148 0.079390 0.001965 -98341.700000 0 0 1
-33.559306 12.682093 -32.746893 48.573877 -0.361312 2.310632 0.100510 -0.011158 411694.000000 0 0 1
-34.508506 11.609593 -32.831663 49.025888 -0.324532 2.304574 0.099990 -0.017620 30868.500000 0 0 1
-33.902406 10.226893 -32.823663 48.284110 -0.292976 2.318290 0.111125 -0.010298 -32452.200000 0 0 1
-33.238806 9.833993 33.330064 48.087616 -0.287653 0.805000 0.092000 -0.009957 208424.000000 0 0 1
-33.478606 8.495793 32.973545 47.751966 -0.248522 0.808593 0.124535 -0.027061 -483362.000000 0 0 1
-32.461806 7.942493 31.978081 46.254186 -0.239958 0.807433 0.131575 -0.032164 -399634.000000 0 0 1
-31.198406 7.882293 32.561366 45.778965 -0.247472 0.779488 0.088815 -0.016308 -869884.000000 0 0 1
-30.199006 7.276793 31.798038 44.452749 -0.236454 0.773711 0.080385 -0.016010 -138691.000000 0 0 1
22.085033 -3.816878 -31.462393 38.628997 -0.171136 2.522622 0.107427 -0.051738 40364.800000 0 0 1
23.402833 -4.085378 -31.924523 39.793945 -0.172826 2.501844 0.095592 -0.046790 676540.000000 0 0 1
24.453233 -3.190378 -31.545413 40.040631 -0.129736 2.478082 0.096035 -0.044011 373187.000000 0 0 1
24.362833 -1.724478 -31.972833 40.234108 -0.070665 2.489260 0.092921 -0.038818 8626.400000 0 0 1
25.283933 -0.742878 -31.362983 40.292255 -0.029373 2.462889 0.094785 -0.030603 848248.000000 0 0 1
25.014033 0.613222 -31.760383 40.432657 0.024510 2.474321 0.086196 -0.031201 -620442.000000 0 0 1
26.095133 1.589322 -31.319173 40.796721 0.060830 2.446023 0.082591 -0.018669 -338416.000000 0 0 1
27.297333 1.365322 -32.012403 42.092783 0.049975 2.434910 0.087361 -0.023854 301838.000000 0 0 1
28.396533 2.082322 -31.382503 42.374056 0.073199 2.404769 0.084980 -0.026736 575286.000000 0 0 1
29.802033 1.709422 -31.856193 43.656618 0.057296 2.388678 0.084974 -0.029756 -115777.000000 0 0 1
30.137933 2.223122 -33.135763 44.846583 0.073632 2.402187 0.086798 -0.020144 21314.500000 0 0 1
29.781133 1.277622 33.262394 44.664695 0.042874 0.730691 0.078971 -0.024982 -314641.000000 0 0 1
30.209933 1.692422 31.834162 43.919451 0.055964 0.760008 0.068884 -0.035134 -125606.000000 0 0 1
29.523233 2.825222 31.274033 43.100676 0.095404 0.758884 0.065125 -0.017682 453831.000000 0 0 1
30.011733 4.191822 31.594468 43.777687 0.138775 0.764538 0.089959 -0.017453 365209.000000 0 0 1
29.265033 5.324622 30.786074 42.808598 0.179976 0.768209 0.088294 -0.013654 282725.000000 0 0 1
29.695533 6.612322 31.201674 43.578572 0.219096 0.772760 0.116625 -0.013541 107680.000000 0 0 1
29.016633 7.609722 30.484344 42.768774 0.256478 0.777355 0.109226 -0.016537 -123494.000000 0 0 1
29.429233 9.053422 30.871124 43.601267 0.298445 0.784088 0.100832 -0.014609 223051.000000 0 0 1
30.773933 9.333922 30.530184 44.342408 0.294487 0.811364 0.102410 -0.016157 3739.670000 0 0 1
31.051733 10.687222 30.701094 44.955355 0.331476 0.819038 0.092759 -0.011388 -6441.140000 0 0 1
32.497633 10.960022 30.243714 45.726365 0.325277 0.848104 0.107500 -0.014682 -223049.000000 0 0 1
33.523733 10.596722 31.160534 46.979890 0.306158 0.845611 0.118012 -0.019707 275136.000000 0 0 1
34.809433 10.559922 30.570214 47.515750 0.294540 0.871904 0.126458 -0.027062 124328.000000 0 0 1
35.551933 11.900722 30.492444 48.325524 0.323018 0.887980 0.111849 -0.016643 -741677.000000 0 0 1
36.005333 12.269322 31.817772 49.591238 0.328423 0.874213 0.107827 -0.021899 -115743.000000 0 0 1
36.386633 13.598922 32.041814 50.354697 0.357660 0.881075 0.108215 -0.012596 426233.000000 0 0 1
35.365333 14.815722 31.879787 49.865150 0.396721 0.877183 0.100935 -0.006763 -538677.000000 0 0 1
35.182633 15.167022 30.496744 48.968435 0.407021 0.898501 0.111798 -0.024226 99222.000000 0 0 1
34.202233 16.176022 30.356094 48.507204 0.441776 0.894632 0.107634 -0.019175 -933427.000000 0 0 1
32.782133 15.759622 30.568564 47.512851 0.448120 0.871898 0.101714 -0.014136 -1917220.000000 0 0 1
32.209633 15.053022 29.465624 46.176584 0.437184 0.878759 0.116268 -0.016428 -261311.000000 0 0 1
30.847633 14.815222 29.671374 45.293020 0.447740 0.856484 0.092516 -0.022280 -177600.000000 0 0 1
30.077133 14.219122 28.460054 43.781183 0.441615 0.863143 0.100666 -0.014346 80035.000000 0 0 1
30.005033 12.806322 28.378554 43.239405 0.403399 0.854876 0.103640 -0.021474 -52694.600000 0 0 1
29.136433 12.487122 27.328024 41.853086 0.404894 0.859322 0.115463 -0.030972 76803.500000 0 0 1
28.817933 10.972422 27.277464 41.169495 0.363802 0.846558 0.108790 -0.019032 281921.000000 0 0 1
29.873633 10.210122 26.704734 41.350010 0.329331 0.868697 0.109642 -0.022650 410870.000000 0 0 1
29.400333 8.885122 26.412744 40.508740 0.293485 0.860543 0.101799 -0.018223 156050.000000 0 0 1
30.513833 7.926422 25.960834 40.839773 0.254148 0.881913 0.110592 -0.025743 -273182.000000 0 0 1
31.021333 8.249322 24.749554 40.532886 0.259909 0.913973 0.116970 -0.029183 -76314.700000 0 0 1
32.179133 7.470022 24.505244 41.131555 0.228099 0.932563 0.131958 -0.024977 265687.000000 0 0 1
32.924233 7.730422 23.172744 40.996836 0.230617 0.970081 0.145506 -0.028588 147658.000000 0 0 1
33.561233 9.012122 23.095354 41.724933 0.262339 0.984218 0.142787 -0.035625 -35042.000000 0 0 1
32.740333 10.074422 22.713154 41.101225 0.298512 0.985298 0.157673 -0.038165 -125003.000000 0 0 1
32.280433 10.031822 21.220254 39.911940 0.301309 1.010217 0.151642 -0.018532 432402.000000 0 0 1
33.424233 10.176822 20.374054 40.445631 0.295557 1.042874 0.152803 -0.030248 420706.000000 0 0 1
33.086433 10.049522 19.001654 39.455897 0.294880 1.068326 0.168151 -0.037511 -1091250.000000 0 0 1
33.983633 10.743022 17.968454 39.914473 0.306182 1.103836 0.183693 -0.064459 1202570.000000 0 0 1
35.301533 10.202022 17.704554 40.788855 0.281332 1.121809 0.183985 -0.051464 1118050.000000 0 0 1
36.217933 10.169922 18.779054 42.045438 0.273749 1.107793 0.170790 -0.046669 -1062450.000000 0 0 1
37.622133 9.698822 18.389654 42.984548 0.252302 1.128717 0.164648 -0.041262 -381776.000000 0 0 1
37.766933 8.297722 18.200854 42.737156 0.216272 1.130863 0.142993 -0.033508 100143.000000 0 0 1
-37.199006 8.018722 17.262454 41.785862 -0.212314 1.144922 0.153604 -0.031769 -156497.000000 0 0 1
-37.128006 6.528422 16.798254 41.270940 -0.174056 1.151603 0.153649 -0.029561 19474.600000 0 0 1
37.613833 6.247522 16.184754 41.421953 0.164594 1.169373 0.150426 -0.032231 191669.000000 0 0 1
37.577933 5.033722 15.451454 40.941260 0.133162 1.183803 0.166858 -0.034150 -311103.000000 0 0 1
36.274133 4.275922 15.746054 39.774796 0.117337 1.163770 0.151705 -0.035404 -318102.000000 0 0 1
36.344433 3.526722 16.951754 40.258136 0.096733 1.136165 0.150828 -0.029161 665151.000000 0 0 1
35.120133 2.796722 17.154254 39.185633 0.079465 1.117681 0.132720 -0.028676 743819.000000 0 0 1
35.050633 2.093222 18.531454 39.703189 0.059649 1.085184 0.136654 -0.039867 321406.000000 0 0 1
35.840433 0.875322 18.614854 40.395737 0.024418 1.091886 0.155624 -0.034073 342550.000000 0 0 1
35.509333 0.162322 19.757754 40.636288 0.004571 1.063049 0.147085 -0.026795 34985.900000 0 0 1
36.323233 -1.164178 19.859254 41.414038 -0.032040 1.070678 0.136572 -0.031999 442069.000000 0 0 1
35.701033 -2.046178 20.788954 41.363404 -0.057252 1.044201 0.149210 -0.017279 332208.000000 0 0 1
36.248733 -3.376178 20.714054 41.886050 -0.092871 1.053498 0.104075 -0.014351 157924.000000 0 0 1
35.693333 -4.310978 21.830054 42.061262 -0.120196 1.025109 0.102902 -0.016112 58082.400000 0 0 1
36.032933 -3.813178 23.069344 42.954711 -0.105432 1.003846 0.098582 -0.021311 61645.500000 0 0 1
35.360533 -4.496578 24.105544 43.030962 -0.126485 0.976180 0.091771 -0.025197 -23048.400000 0 0 1
35.707433 -4.050478 25.543794 44.089823 -0.112952 0.952855 0.090433 -0.026275 4789.580000 0 0 1
34.802833 -4.498478 26.509634 43.979929 -0.128543 0.923832 0.089946 -0.040381 -237839.000000 0 0 1
35.088833 -3.812678 27.742924 44.893569 -0.108233 0.904637 0.095659 -0.032456 161661.000000 0 0 1
34.112633 -4.170178 28.878624 44.889164 -0.121644 0.871954 0.084064 -0.036645 39691.100000 0 0 1
34.341133 -5.503478 29.244874 45.440778 -0.158908 0.871627 0.090518 -0.044475 334036.000000 0 0 1
33.208633 -6.036978 29.908004 45.097085 -0.179826 0.845721 0.094080 -0.058690 -50463.000000 0 0 1
33.465633 -7.534678 30.116844 45.648047 -0.221454 0.850294 0.087994 -0.047147 302130.000000 0 0 1
34.561133 -7.691378 30.988884 47.052525 -0.218976 0.851837 0.079931 -0.044626 -354370.000000 0 0 1
35.566733 -8.551878 30.537924 47.651777 -0.235967 0.875184 0.079385 -0.028792 701259.000000 0 0 1
36.933633 -8.399178 31.293903 49.131942 -0.223610 0.880279 0.096259 -0.026935 718169.000000 0 0 1
36.729633 -8.833778 32.631133 49.918858 -0.236025 0.858355 0.078254 -0.022096 -323574.000000 0 0 1
37.896433 -8.841378 33.396254 51.279814 -0.229204 0.861559 0.065195 -0.013252 -291991.000000 0 0 1
37.575333 -9.285778 -32.525643 50.557381 -0.242270 2.269651 0.089155 -0.018841 -71865.300000 0 0 1
37.012933 -8.389978 -31.567793 49.364709 -0.222910 2.264619 0.091187 -0.028346 563362.000000 0 0 1
37.640533 -7.063278 -31.479703 49.574906 -0.185494 2.258795 0.083837 -0.024280 174278.000000 0 0 1
36.956833 -6.083778 -30.476783 48.287205 -0.163155 2.253840 0.100677 -0.018007 -3210.410000 0 0 1
37.382133 -6.267178 -29.137763 47.809106 -0.166107 2.226176 0.101863 -0.011094 144225.000000 0 0 1
36.868133 -5.314378 -28.232063 46.739183 -0.143159 2.219350 0.111538 -0.026105 -12713.000000 0 0 1
37.726733 -5.273478 -26.939003 46.656466 -0.138881 2.186325 0.117682 -0.030958 193682.000000 0 0 1
-36.990506 -4.691078 -27.147523 46.122573 0.126145 2.200116 0.123008 -0.027595 -308083.000000 0 0 1
-36.494006 -4.291878 -25.912873 44.963426 0.117067 2.185003 0.130494 -0.026333 415522.000000 0 0 1
-34.966706 -3.943178 -26.013113 43.759584 0.112295 2.207384 0.165690 -0.018856 -378606.000000 0 0 1
-34.442206 -3.679578 -24.696813 42.541009 0.106430 2.190190 0.177394 -0.029637 -458965.000000 0 0 1
-33.134706 -4.070878 -24.457813 41.384362 0.122246 2.203084 0.202526 -0.026878 -668238.000000 0 0 1
-32.100306 -3.175778 -25.170953 40.915670 0.098612 2.233425 0.184630 -0.020594 -1239940.000000 0 0 1
-31.890806 -3.469578 -26.544043 41.637095 0.108369 2.262058 0.178976 -0.017457 170149.000000 0 0 1
-31.074306 -2.528078 -27.245023 41.404045 0.081177 2.288993 0.170469 -0.006646 248163.000000 0 0 1
-30.718606 -3.093678 -28.606663 42.089723 0.100372 2.318094 0.133807 -0.018693 -135465.000000 0 0 1
-31.838706 -3.081678 -29.445733 43.477018 0.096490 2.314844 0.159695 -0.022936 -127861.000000 0 0 1
-31.504506 -3.838378 -30.580073 44.072757 0.121238 2.337624 0.117387 -0.010382 -1134360.000000 0 0 1
-32.699706 -4.201778 -31.429683 45.549431 0.127796 2.332303 0.101596 -0.016723 -1046790.000000 0 0 1
-33.665206 -5.056078 -30.860903 45.948943 0.149073 2.307209 0.105649 -0.016758 234010.000000 0 0 1
-34.513106 -4.555278 -29.849053 45.857071 0.131228 2.279585 0.130315 -0.024602 -574143.000000 0 0 1
-35.644506 -3.580478 -30.288033 46.911785 0.100114 2.272655 0.150980 -0.029844 -568461.000000 0 0 1
-35.292606 -2.372878 -30.966953 47.012240 0.067133 2.289886 0.168291 -0.032988 -70394.000000 0 0 1
-34.799506 -1.288578 -30.153443 46.064044 0.037012 2.284447 0.176892 -0.027374 262837.000000 0 0 1
-34.392506 -0.074778 -31.043693 46.330993 0.002174 2.305061 0.176568 -0.028317 486172.000000 0 0 1
-35.574306 0.456922 -31.636013 47.608585 -0.012843 2.297624 0.186005 -0.033599 448540.000000 0 0 1
-35.424606 1.820322 -32.005343 47.776126 -0.051341 2.304874 0.187218 -0.031792 659211.000000 0 0 1
-36.841406 2.453422 -32.233033 49.013028 -0.066496 2.288481 0.165315 -0.037672 462261.000000 0 0 1
-37.413006 2.090222 -33.454843 50.232744 -0.055811 2.299626 0.167812 -0.035288 -119294.000000 0 0 1
37.393533 2.854222 -33.592663 50.347690 0.076182 2.301258 0.149821 -0.033550 -222788.000000 0 0 1
36.458133 2.624422 32.592548 48.973025 0.071861 0.842605 0.120246 -0.028750 -137023.000000 0 0 1
36.920933 3.108822 31.341325 48.529359 0.084004 0.868697 0.142305 -0.036119 731344.000000 0 0 1
37.871633 2.161622 30.770774 48.844382 0.057016 0.889274 0.133329 -0.039895 325886.000000 0 0 1
-37.805106 2.293522 29.292864 47.880666 -0.060593 0.912476 0.142724 -0.039338 -55276.600000 0 0 1
-36.776006 3.226422 29.041154 46.970981 -0.087508 0.904246 0.153787 -0.045816 177696.000000 0 0 1
-36.439806 3.390822 27.640904 45.862585 -0.092786 0.923929 0.143251 -0.043028 236089.000000 0 0 1
-35.591206 4.676622 27.428404 45.176566 -0.130650 0.918343 0.128006 -0.036524 -61022.400000 0 0 1
-35.284406 4.901022 26.115214 44.170281 -0.138017 0.938201 0.120998 -0.024503 -248019.000000 0 0 1
-34.463406 5.999522 25.991254 43.580568 -0.172357 0.931793 0.122042 -0.027371 -131393.000000 0 0 1
-33.459006 5.992122 24.790304 42.071009 -0.177210 0.940667 0.099244 -0.018859 510049.000000 0 0 1
-32.306706 5.143922 24.936884 41.134309 -0.157896 0.919484 0.091494 -0.016872 1101810.000000 0 0 1
-31.281506 5.281222 23.948684 39.748753 -0.167252 0.924165 0.090583 -0.014687 407463.000000 0 0 1
-31.753006 5.068822 22.499884 39.245269 -0.158297 0.960251 0.104261 -0.019574 -576855.000000 0 0 1
-32.083606 3.779422 22.185554 39.189802 -0.117259 0.969023 0.078988 -0.010122 -241997.000000 0 0 1
-32.746006 3.783022 20.930654 39.047464 -0.115016 1.005068 0.110959 -0.022343 43431.600000 0 0 1
-32.922506 2.325322 20.436954 38.819681 -0.070513 1.016367 0.088998 -0.010957 452237.000000 0 0 1
-31.714406 1.732622 19.940654 37.502469 -0.054578 1.010171 0.101826 -0.016457 399746.000000 0 0 1
-31.550306 2.044522 18.563854 36.663586 -0.064711 1.039873 0.111193 -0.024968 260064.000000 0 0 1
-30.166806 1.579922 18.020454 35.174836 -0.052325 1.032923 0.118096 -0.036583 167335.000000 0 0 1
-30.007706 0.172922 17.946854 34.965439 -0.005763 1.031801 0.133888 -0.035723 475571.000000 0 0 1
-28.766006 -0.329878 17.437654 33.640210 0.011467 1.025867 0.147791 -0.037799 234226.000000 0 0 1
-28.406206 -0.238178 15.922854 32.565420 0.008385 1.059911 0.172231 -0.027530 -139675.000000 0 0 1
-27.971606 1.086122 15.542454 32.018093 -0.038810 1.063945 0.173348 -0.037508 373169.000000 0 0 1
-28.344506 1.359822 14.197854 31.730730 -0.047938 1.106887 0.190524 -0.036555 -44478.800000 0 0 1
-27.666106 2.624122 13.649354 30.961336 -0.094567 1.114249 0.185816 -0.034014 -52071.700000 0 0 1
-26.270806 2.507522 13.485454 29.636133 -0.095161 1.098386 0.179585 -0.045842 -238847.000000 0 0 1
-25.814006 3.696322 12.903654 29.095188 -0.142224 1.111299 0.181430 -0.048233 -645251.000000 0 0 1
-24.332306 3.602722 12.540254 27.609757 -0.146995 1.099326 0.174983 -0.054000 -661029.000000 0 0 1
-23.557906 3.670322 13.703154 27.499502 -0.154557 1.049153 0.146546 -0.041993 -313705.000000 0 0 1
-22.224206 4.016022 13.422154 26.271619 -0.178776 1.034566 0.147249 -0.040217 -38299.100000 0 0 1
-21.450406 4.589622 14.633554 26.369024 -0.210786 0.982491 0.119530 -0.044803 24052.700000 0 0 1
-21.648206 5.986422 14.843754 26.922465 -0.269790 0.986812 0.108797 -0.039546 246632.000000 0 0 1
-20.815706 6.376922 15.895354 26.955909 -0.297274 0.940134 0.079936 -0.030571 -302981.000000 0 0 1
-20.953606 7.818022 16.440454 27.757226 -0.357114 0.936893 0.080274 -0.036932 -244928.000000 0 0 1
-20.493206 8.810022 15.511054 27.169482 -0.406013 0.963195 0.092751 -0.042746 571767.000000 0 0 1
-20.810306 10.166322 15.876154 28.079801 -0.454424 0.969885 0.102426 -0.031429 -200684.000000 0 0 1
-20.037906 10.883922 17.039154 28.465948 -0.497582 0.929069 0.100691 -0.032918 -290969.000000 0 0 1
-20.306006 10.448822 18.328954 29.282457 -0.475234 0.894465 0.094449 -0.042505 340691.000000 0 0 1
-19.953206 11.436122 19.306454 30.027562 -0.520441 0.872443 0.110310 -0.034274 -191038.000000 0 0 1
-12.766267 -33.297549 -20.095413 40.933238 1.204682 2.083955 0.140111 -0.055161 -794168.000000 0 0 1
-13.828367 -33.478849 -19.265013 41.026794 1.179093 2.059602 0.158876 -0.046596 -1147920.000000 0 0 1
-14.986667 -32.795849 -19.660313 41.069403 1.142163 2.069981 0.139580 -0.059126 835905.000000 0 0 1
-16.232767 -33.173249 -18.738913 41.413936 1.115719 2.040339 0.126498 -0.052245 359336.000000 0 0 1
-16.626467 33.026622 -18.906113 41.528764 -1.104412 2.043453 0.109248 -0.061170 -14657.100000 0 0 1
-17.540067 32.398122 -18.041213 41.021673 -1.074586 2.026169 0.122011 -0.058905 592488.000000 0 0 1
-18.992067 32.941722 -17.880413 42.018625 -1.047809 2.010350 0.104492 -0.048243 -240053.000000 0 0 1
-19.100967 -33.389249 -17.162913 42.121900 1.051167 1.990465 0.121604 -0.044173 403733.000000 0 0 1
-20.370567 -33.109849 -16.576813 42.261245 1.019245 1.973869 0.091739 -0.040205 147473.000000 0 0 1
-20.733467 -33.779149 -15.188213 42.445134 1.020295 1.936741 0.101860 -0.040346 -461478.000000 0 0 1
-20.774067 32.357922 -15.259313 41.369598 -1.000059 1.948571 0.108388 -0.043025 245527.000000 0 0 1
-21.239767 31.866122 -13.975313 40.766246 -0.982887 1.920709 0.117708 -0.040616 38662.200000 0 0 1
-21.311567 30.346722 -13.803213 39.568107 -0.958549 1.927137 0.121811 -0.043193 -1193780.000000 0 0 1
-20.134767 29.778822 -13.453213 38.381975 -0.976261 1.928910 0.139493 -0.049446 -1361400.000000 0 0 1
-20.204567 28.329022 -13.454613 37.306630 -0.951259 1.939760 0.137156 -0.054530 292039.000000 0 0 1
-18.909567 27.612022 -12.931113 35.877697 -0.970324 1.939517 0.124505 -0.051734 227638.000000 0 0 1
-17.790667 27.865222 -13.759813 35.809369 -1.002581 1.965194 0.165551 -0.057499 -317923.000000 0 0 1
-16.781067 26.974822 -13.350413 34.459814 -1.014284 1.968627 0.164849 -0.060961 -254426.000000 0 0 1
-15.371467 27.363322 -13.830613 34.297511 -1.058973 1.985866 0.140774 -0.058701 -152969.000000 0 0 1
-15.157067 27.266022 -15.210813 34.706505 -1.063438 2.024469 0.129238 -0.051843 -494210.000000 0 0 1
-13.859067 27.666822 -15.533813 34.624068 -1.106407 2.036042 0.171177 -0.054978 -542340.000000 0 0 1
-13.794667 27.868822 -17.076213 35.476205 -1.111168 2.072982 0.183358 -0.068510 178278.000000 0 0 1
-14.228567 26.682022 -17.747313 35.062081 -1.080893 2.101532 0.150773 -0.069750 172415.000000 0 0 1
-14.516367 26.867922 -19.100313 36.019885 -1.075442 2.129717 0.133686 -0.066489 -189177.000000 0 0 1
-13.713867 26.016422 -20.085713 35.614045 -1.085686 2.169997 0.119379 -0.039658 -374735.000000 0 0 1
-12.407867 26.391522 -20.428313 35.605948 -1.131316 2.181853 0.093834 -0.026846 -385453.000000 0 0 1
-11.770467 25.266222 -20.980813 34.887252 -1.134834 2.216035 0.082085 -0.027084 -123656.000000 0 0 1
-10.483767 25.688822 -21.714113 35.232480 -1.183321 2.234844 0.100865 -0.030193 -35796.200000 0 0 1
-10.671467 26.329222 -22.970613 36.534329 -1.185722 2.250729 0.081986 -0.023830 -513387.000000 0 0 1
-9.430867 26.376122 -23.590013 36.621439 -1.227408 2.270719 0.088044 -0.028405 -432800.000000 0 0 1
-9.546067 26.984222 -25.010813 38.010740 -1.230772 2.288947 0.078393 -0.016402 -387416.000000 0 0 1
-10.206667 26.181622 -25.927463 38.234627 -1.199078 2.315991 0.070139 -0.013246 -332467.000000 0 0 1
-10.549267 26.784122 -27.153183 39.572358 -1.195592 2.327001 0.079966 -0.015221 -340688.000000 0 0 1
-11.845667 26.322522 -27.804353 40.078386 -1.147926 2.337478 0.046922 -0.007710 -197741.000000 0 0 1
-12.213567 27.009222 -29.051643 41.505027 -1.146114 2.346131 0.048119 -0.001327 940879.000000 0 0 1
-13.415067 26.455822 -29.656273 41.944833 -1.101505 2.356086 0.051325 0.000619 880219.000000 0 0 1
-13.586067 26.751322 -31.133333 43.237702 -1.100876 2.374672 0.048831 -0.001027 -264092.000000 0 0 1
-12.696267 26.238922 -32.086993 43.350332 -1.120135 2.404132 0.059694 -0.006326 -284431.000000 0 0 1
-12.641267 24.801922 -32.259963 42.610353 -1.099428 2.429647 0.075524 -0.006719 206902.000000 0 0 1
-12.129367 24.303622 33.684024 43.271250 -1.107888 0.678621 0.058597 -0.007564 605928.000000 0 0 1
-13.098467 24.368722 32.646986 42.792875 -1.077592 0.702999 0.063886 -0.010990 423131.000000 0 0 1
-12.504267 23.637822 31.576676 41.378615 -1.084223 0.702676 0.059265 -0.013251 329740.000000 0 0 1
-13.360367 23.563322 30.248054 40.603871 -1.054996 0.730329 0.072715 -0.004498 -564416.000000 0 0 1
-14.534267 22.872222 30.351534 40.689053 -1.004714 0.728853 0.081244 -0.019324 -966604.000000 0 0 1
-15.301867 22.801722 29.161364 40.055596 -0.979742 0.755364 0.100016 -0.018191 -239910.000000 0 0 1
-16.454367 21.853822 29.378134 40.142377 -0.925424 0.749766 0.108417 -0.022322 -214032.000000 0 0 1
-15.899467 20.554422 29.602994 39.390539 -0.912405 0.720425 0.100160 -0.026508 1256240.000000 0 0 1
-16.962667 19.693122 30.083384 39.756271 -0.859750 0.712553 0.094164 -0.021827 769461.000000 0 0 1
-16.439567 18.258622 30.105864 38.858714 -0.837775 0.684474 0.080336 -0.027181 87341.100000 0 0 1
-16.240867 17.704322 28.804514 37.508783 -0.828484 0.695177 0.109556 -0.030607 355954.000000 0 0 1
-15.522667 16.465022 28.876364 36.686435 -0.814850 0.664682 0.087994 -0.039541 284412.000000 0 0 1
-15.070567 15.826622 27.532924 35.152039 -0.809863 0.670916 0.097904 -0.032154 46150.600000 0 0 1
-14.110767 16.581722 26.837134 34.558631 -0.865732 0.681596 0.086619 -0.029339 -251774.000000 0 0 1
-13.591567 15.838722 25.752914 33.148279 -0.861605 0.681068 0.061409 -0.018365 316597.000000 0 0 1
-12.388467 16.516122 25.039094 32.453237 -0.927242 0.689532 0.060765 -0.014606 265666.000000 0 0 1
-12.751067 17.518122 24.067334 32.383806 -0.941604 0.732970 0.064073 -0.017728 -272359.000000 0 0 1
-13.065167 18.810822 24.584714 33.599907 -0.963733 0.749998 0.067472 -0.022367 164138.000000 0 0 1
-11.997967 19.639022 25.378124 34.259182 -1.022383 0.736583 0.060803 -0.021713 234682.000000 0 0 1
-11.690167 19.190022 26.681264 34.882758 -1.023655 0.699935 0.067050 -0.023158 470565.000000 0 0 1
-12.709767 19.588922 27.628864 36.174828 -0.995248 0.701679 0.094078 -0.027463 617614.000000 0 0 1
-12.313267 19.245522 29.067774 36.972180 -1.001626 0.666150 0.097923 -0.027523 -250318.000000 0 0 1
-11.158067 19.919522 29.461834 37.273173 -1.060188 0.659286 0.078332 -0.032119 -441004.000000 0 0 1
-11.156767 20.110722 30.833984 38.466208 -1.064301 0.640853 0.079224 -0.032752 390017.000000 0 0 1
-9.934467 20.890622 31.430225 39.025258 -1.126902 0.634477 0.055387 -0.022368 -376348.000000 0 0 1
-8.791467 20.170822 31.650802 38.547700 -1.159771 0.607493 0.073278 -0.029997 -1190050.000000 0 0 1
-7.758967 20.996522 32.114667 39.145975 -1.216825 0.608717 0.081363 -0.024622 -437936.000000 0 0 1
-6.524067 20.164722 32.474098 38.778170 -1.257887 0.578228 0.077074 -0.018311 -735097.000000 0 0 1
-6.502367 19.501722 -33.661363 39.442176 -1.248963 2.593338 0.079271 -0.019569 706960.000000 0 0 1
-5.187867 19.046222 -33.292793 38.705072 -1.304865 2.606392 0.079446 -0.017325 1142980.000000 0 0 1
-4.524867 17.850522 33.310754 38.062079 -1.322539 0.505011 0.055431 -0.021715 313798.000000 0 0 1
-5.216567 16.586422 33.555814 37.793050 -1.266083 0.478073 0.057191 -0.017378 424538.000000 0 0 1
-5.119667 15.856522 32.335398 36.376067 -1.258488 0.475815 0.057943 -0.021085 -217764.000000 0 0 1
-5.660167 14.394322 32.350206 35.857633 -1.196146 0.445989 0.060916 -0.026191 43571.900000 0 0 1
-4.969967 13.371722 33.106898 36.049552 -1.214942 0.406850 0.062351 -0.022149 413631.000000 0 0 1
-5.641167 12.082722 32.945819 35.542114 -1.133995 0.384592 0.070550 -0.025912 647947.000000 0 0 1
-4.752967 10.904722 33.455434 35.507319 -1.159761 0.341623 0.087455 -0.041079 260116.000000 0 0 1
-4.649567 10.811122 -32.501643 34.566683 -1.164637 2.794187 0.100198 -0.044914 251615.000000 0 0 1
-3.677667 9.821822 -32.128713 33.797154 -1.212518 2.826068 0.122077 -0.046646 490385.000000 0 0 1
-3.688667 9.452222 -30.649133 32.284982 -1.198729 2.821896 0.137264 -0.046896 392123.000000 0 0 1
-4.842667 8.653322 -30.424043 31.999278 -1.060589 2.826517 0.142283 -0.045041 119251.000000 0 0 1
-5.318867 8.816522 -29.124273 30.890851 -1.027966 2.801765 0.170733 -0.051042 -190119.000000 0 0 1
-6.394967 7.806822 -28.709063 30.431108 -0.884486 2.803568 0.170883 -0.050218 -159802.000000 0 0 1
-5.891267 6.531822 -28.320323 29.654888 -0.836914 2.840445 0.177081 -0.043128 53410.100000 0 0 1
-6.949067 5.668222 -27.903053 29.308678 -0.684230 2.830634 0.190198 -0.060651 16285.300000 0 0 1
-6.752467 5.016922 -26.513353 27.815880 -0.638991 2.834357 0.180651 -0.060581 -271603.000000 0 0 1
-6.769367 5.882022 -25.407023 26.943261 -0.715375 2.802276 0.151242 -0.046052 471464.000000 0 0 1
-5.640367 6.751422 -25.229873 26.719691 -0.874820 2.806083 0.141783 -0.043119 202042.000000 0 0 1
-5.773167 7.811522 -24.182613 26.060470 -0.934335 2.759650 0.097783 -0.023316 54868.100000 0 0 1
-6.011567 7.401122 -22.838113 24.748635 -0.888630 2.746090 0.086904 -0.017904 3668.780000 0 1 0
-7.324467 7.752022 -22.429913 24.836317 -0.813750 2.697753 0.093096 -0.013529 189150.000000 0 1 0
-7.545567 7.929422 -20.931113 23.620389 -0.810198 2.659757 0.071046 -0.008909 -96100.000000 0 1 0
-6.817967 9.042922 -20.466613 23.391053 -0.924768 2.636183 0.049932 0.001319 -84863.500000 0 1 0
-6.819067 9.206422 -19.005313 22.191435 -0.933283 2.599102 0.039574 -0.001106 -474949.000000 0 1 0
-8.126667 9.592722 -18.296713 22.199836 -0.867947 2.539553 0.041441 0.008348 -802939.000000 0 1 0
-8.041967 9.616722 -16.919913 21.057968 -0.874340 2.503935 0.029645 0.009814 316834.000000 0 1 0
-9.184467 9.972722 -16.121313 21.064338 -0.826522 2.442361 0.035763 0.001482 429977.000000 0 1 0
-9.717767 11.371922 -16.377813 22.180810 -0.863672 2.401458 0.064617 -0.006178 213779.000000 0 1 0
-8.661767 12.262822 -15.973913 21.921882 -0.955826 2.387181 0.037909 -0.003742 601166.000000 0 1 0
-9.024467 13.636022 -16.122813 22.963606 -0.986163 2.349143 0.066290 -0.010184 485065.000000 0 1 0
-7.840767 14.650422 -15.921113 23.012916 -1.079394 2.334822 0.072905 -0.010653 423384.000000 0 1 0
-7.273167 14.792822 -14.604313 22.022999 -1.113836 2.295801 0.065930 -0.006425 -285009.000000 0 1 0
-8.109367 15.275022 -13.599013 22.000484 -1.082743 2.237149 0.054762 -0.019969 -1303500.000000 0 1 0
-7.348267 15.863722 -12.382413 21.423792 -1.137010 2.187041 0.032578 -0.020279 39441.900000 0 1 0
-6.692767 17.114822 -12.484313 22.216398 -1.198028 2.167527 0.049586 -0.028320 866531.000000 0 1 0
-5.806967 17.251422 -13.648613 22.751199 -1.246101 2.214182 0.059238 -0.022124 -189483.000000 0 1 0
-5.895167 18.680422 -14.252713 24.225007 -1.265108 2.199810 0.115663 -0.016222 256151.000000 0 1 0
-5.449967 19.657722 -13.308613 24.356669 -1.300346 2.148862 0.115892 -0.023992 153571.000000 0 1 0
-5.792667 20.966422 -13.744213 25.730317 -1.301238 2.134315 0.133307 -0.022566 -41214.300000 0 0 1
-5.343667 22.037422 -12.724213 26.002083 -1.332906 2.082145 0.133718 -0.021949 -709626.000000 0 0 1
-5.619667 23.392822 -13.151013 27.418131 -1.335033 2.071048 0.126498 -0.029320 265696.000000 0 0 1
-6.969167 23.850122 -13.137713 28.106887 -1.286505 2.057166 0.138175 -0.033364 227242.000000 0 0 1
-7.614467 23.900022 -11.741813 27.695872 -1.262367 2.008604 0.092151 -0.031562 -655318.000000 0 0 1
-7.957367 22.588622 -11.267013 26.467170 -1.232098 2.010529 0.100180 -0.025322 -92328.900000 0 0 1
-8.545867 22.523622 -9.952513 26.065262 -1.208158 1.962572 0.094821 -0.023998 660184.000000 0 0 1
-7.550267 22.702722 -8.723613 25.466086 -1.249732 1.920435 0.089436 -0.024110 521884.000000 0 0 1
-7.056067 24.046422 -8.579213 26.488137 -1.285373 1.900633 0.087582 -0.018663 -50818.400000 0 0 1
-6.503167 24.440322 -7.348613 26.336716 -1.310738 1.853575 0.079918 -0.021656 107393.000000 0 0 1
-6.603367 25.976222 -7.118413 27.731577 -1.321861 1.830392 0.078515 -0.019154 192705.000000 0 0 1
-5.802367 26.821922 -7.942613 28.568655 -1.357750 1.852527 0.085689 -0.023228 99938.600000 0 0 1
-6.259767 26.937622 -9.293513 29.175153 -1.342469 1.894987 0.088298 -0.026553 59749.200000 0 0 1
-5.652867 28.090122 -10.128013 30.390566 -1.372208 1.910557 0.093157 -0.020923 31264.500000 0 0 1
-6.292467 29.321422 -9.958513 31.599255 -1.359400 1.891411 0.084790 -0.018883 239282.000000 0 0 1
-7.239567 29.591722 -11.020513 32.396497 -1.330861 1.917900 0.094566 -0.019987 690301.000000 0 0 1
-8.267667 30.710122 -10.654113 33.540662 -1.307815 1.894044 0.094990 -0.024719 -287517.000000 0 0 1
-9.247267 30.318822 -9.772013 33.169793 -1.274758 1.869839 0.110421 -0.025998 -475210.000000 0 0 1
-10.297867 31.283722 -9.789113 34.359046 -1.252792 1.859705 0.095252 -0.031852 958880.000000 0 0 1
-11.529267 30.941522 -8.871013 34.190593 -1.214118 1.833257 0.121486 -0.038302 799077.000000 0 0 1
-12.286367 29.794022 -9.224213 33.522003 -1.179666 1.849562 0.121978 -0.044505 566790.000000 0 0 1
-13.445267 29.635122 -8.389813 33.606616 -1.144875 1.823113 0.127577 -0.037080 254485.000000 0 0 1
-14.501567 28.672322 -8.890113 33.338140 -1.102544 1.840727 0.129531 -0.045447 -160140.000000 0 0 1
-14.151667 27.295022 -8.715313 31.956918 -1.092482 1.847016 0.120727 -0.041560 -379893.000000 0 0 1
-15.193067 26.540322 -9.225113 31.942459 -1.050879 1.863774 0.136181 -0.039188 -478891.000000 0 0 1
-15.336067 25.148722 -8.619313 30.691134 -1.023191 1.855466 0.126991 -0.037079 -335499.000000 0 0 1
-14.402667 24.197522 -8.998513 29.562309 -1.033904 1.880096 0.126536 -0.029792 -14697.400000 0 0 1
-14.900267 22.914422 -8.564213 28.643227 -0.994240 1.874437 0.133621 -0.029363 856963.000000 0 0 1
-13.960567 21.693322 -8.998713 27.321685 -0.998974 1.906424 0.131581 -0.020504 465641.000000 0 0 1
-13.872767 21.475922 -10.405313 27.603250 -0.997260 1.957308 0.122983 -0.010055 284514.000000 0 0 1
-13.158567 20.284222 -10.727213 26.451288 -0.995329 1.988372 0.118702 -0.011626 25318.400000 0 0 1
-13.296067 20.020822 -12.288413 26.993032 -0.984564 2.043442 0.123562 -0.008222 -263300.000000 0 0 1
-14.583767 19.767222 -12.773713 27.687489 -0.935165 2.050316 0.140751 -0.001065 -470113.000000 0 0 1
-14.591067 19.472022 -14.170113 28.157609 -0.927721 2.098144 0.133985 0.007498 1119300.000000 0 0 1
-16.002467 18.987622 -14.674113 28.843341 -0.870506 2.104531 0.119819 -0.004434 1285720.000000 0 0 1
-17.098767 19.882722 -14.623713 30.025713 -0.860536 2.079493 0.102913 -0.010462 391793.000000 0 0 1
-18.336467 19.229822 -14.892813 30.459940 -0.809174 2.081660 0.104797 -0.012890 774600.000000 0 0 1
-19.426567 20.225322 -15.441413 32.013940 -0.805540 2.074114 0.096013 -0.022991 413382.000000 0 0 1
-19.820167 21.315022 -14.557513 32.543669 -0.821722 2.034566 0.098095 -0.032164 358038.000000 0 0 1
-20.348967 22.420922 -15.273813 33.912646 -0.833805 2.037995 0.105248 -0.033753 -70872.500000 0 0 1
-20.796667 23.576822 -14.366713 34.565450 -0.847970 1.999440 0.103093 -0.031893 51048.800000 0 0 1
-22.049867 23.307522 -13.763113 34.912183 -0.813119 1.976016 0.116835 -0.036122 44845.000000 0 0 1
-22.600867 24.467522 -13.218413 35.835531 -0.825036 1.948582 0.112181 -0.042941 27454.400000 0 0 1
-26.245147 -0.406878 3.872587 26.532437 0.015502 1.424316 0.230269 -0.064972 -145433.000000 0 0 1
-27.042917 -0.009678 4.955487 27.493205 0.000358 1.389562 0.261413 -0.063213 -651004.000000 0 0 1
-28.402997 -0.106178 4.710287 28.791115 0.003738 1.406455 0.264553 -0.062603 -753263.000000 0 0 1
-29.249807 0.588522 5.781187 29.821464 -0.020118 1.375701 0.256155 -0.045500 -372224.000000 0 0 1
-29.569547 1.943822 5.495787 30.138684 -0.065643 1.387420 0.298568 -0.059087 200116.000000 0 0 1
-30.039727 2.590722 6.674887 30.881243 -0.086030 1.352930 0.301874 -0.051066 92551.700000 0 0 1
-28.913647 3.111322 7.622287 30.062910 -0.107195 1.314454 0.309733 -0.051025 184448.000000 0 0 1
-28.008377 2.178922 8.128387 29.245300 -0.077639 1.289149 0.271254 -0.061067 407116.000000 0 0 1
-27.062417 2.701122 9.055887 28.664954 -0.099481 1.249368 0.262726 -0.073732 702705.000000 0 0 1
-26.106957 1.596922 9.687587 27.892162 -0.061092 1.216082 0.236622 -0.064273 730711.000000 0 0 1
-25.021807 1.107122 8.908087 26.583276 -0.044217 1.229084 0.253809 -0.067554 810327.000000 0 0 1
-25.377367 -0.151878 8.329687 26.709877 0.005985 1.253648 0.224595 -0.059777 1112340.000000 0 0 1
-24.041067 -0.780478 7.769487 25.277401 0.032453 1.258369 0.199038 -0.065044 1274360.000000 0 0 1
-23.070367 -1.290478 8.666287 24.678163 0.055878 1.211973 0.209959 -0.082711 267713.000000 0 1 0
-21.897967 -1.692178 8.027587 23.384324 0.077122 1.220380 0.220273 -0.074486 278036.000000 0 1 0
-20.573867 -2.003978 8.805687 22.468646 0.097098 1.168090 0.165053 -0.053086 365822.000000 0 1 0
-19.969767 -0.851178 9.289387 22.041071 0.042598 1.135744 0.143498 -0.052860 357346.000000 0 1 0
-20.618867 -0.238978 10.412987 23.100327 0.011590 1.103166 0.171643 -0.055088 -423679.000000 0 1 0
-20.299567 1.285722 10.542687 22.910124 -0.063253 1.092603 0.134023 -0.040986 -1264.970000 0 1 0
-20.704367 2.124922 9.475987 22.868766 -0.102273 1.143553 0.147498 -0.047304 -289042.000000 0 1 0
-22.071667 2.322722 9.312087 24.067997 -0.104850 1.173521 0.175766 -0.055569 -972514.000000 0 1 0
-22.548467 3.754222 8.903087 24.531460 -0.164982 1.199391 0.163818 -0.065266 -259147.000000 0 1 0
-22.501867 4.675022 9.957587 25.046824 -0.204847 1.161941 0.150862 -0.060286 386977.000000 0 0 1
-22.751267 5.989222 9.539687 25.386937 -0.257408 1.185567 0.130030 -0.056090 -216270.000000 0 0 1
-22.835467 6.987022 10.687787 26.163062 -0.296927 1.149979 0.130318 -0.061058 -88543.300000 0 0 1
-23.954667 6.746222 11.502587 27.416183 -0.274514 1.137842 0.142361 -0.056002 89927.700000 0 0 1
-23.925367 7.682322 12.605787 28.113113 -0.310696 1.105827 0.131284 -0.045182 1771.430000 0 0 1
-24.839267 7.251022 13.779087 29.316033 -0.284025 1.081484 0.150469 -0.042161 -185042.000000 0 0 1
-26.202287 7.266822 13.438487 30.330834 -0.270536 1.111783 0.135248 -0.038360 -351048.000000 0 0 1
-26.925107 6.794522 14.557187 31.353447 -0.247188 1.087960 0.133071 -0.041954 -645448.000000 0 0 1
-28.423977 6.705322 14.308887 32.521194 -0.231668 1.115213 0.144469 -0.034443 -618551.000000 0 0 1
-28.833567 5.708222 13.353787 32.284393 -0.195444 1.144359 0.168167 -0.025582 -147993.000000 0 0 1
-30.126557 6.031722 12.916787 33.329184 -0.197600 1.172822 0.214348 -0.025073 -867615.000000 0 0 1
-30.657147 5.025522 11.969687 33.292491 -0.162481 1.203031 0.245632 -0.029464 -606118.000000 0 0 1
-31.195147 3.846222 12.519687 33.833019 -0.122676 1.191741 0.217509 -0.031296 560088.000000 0 0 1
-32.007077 3.186722 11.507587 34.161861 -0.099236 1.227222 0.215158 -0.021683 -167259.000000 0 0 1
-33.031657 2.194122 11.998387 35.211729 -0.066327 1.223082 0.174003 -0.010966 -303028.000000 0 0 1
-32.574237 1.058922 12.690687 34.975074 -0.032497 1.199472 0.168067 -0.012306 395538.000000 0 0 1
-33.794187 0.340722 12.865987 36.162091 -0.010082 1.207041 0.141365 -0.019032 701377.000000 0 0 1
-33.857667 -0.627578 14.069187 36.669845 0.018534 1.177027 0.125404 -0.023808 117295.000000 0 0 1
-33.401097 -1.930778 13.636487 36.129143 0.057742 1.183769 0.148963 -0.020200 367809.000000 0 0 1
-33.770627 -2.879878 14.620587 36.912200 0.085072 1.163541 0.146478 -0.014895 -120227.000000 0 0 1
-33.731847 -4.352678 14.120087 36.826080 0.128329 1.177293 0.154961 -0.014940 95859.500000 0 0 1
-34.777444 -4.755378 13.244587 37.516707 0.135895 1.209987 0.137762 -0.023777 82161.600000 0 0 1
-34.674188 -6.112678 12.803487 37.464563 0.174496 1.222019 0.159121 -0.022334 -570524.000000 0 0 1
-35.910721 -6.654678 12.014487 38.447530 0.183233 1.252983 0.154651 -0.027363 587158.000000 0 0 1
-37.169117 -6.691878 12.656487 39.831033 0.178130 1.247436 0.130833 -0.030296 248508.000000 0 0 1
-37.736767 -5.442278 12.951587 40.266929 0.143229 1.243332 0.130360 -0.033972 -783875.000000 0 0 1
36.727902 -5.377678 12.691187 39.229127 -0.145386 1.241355 0.135719 -0.034649 7622.260000 0 0 1
35.776722 -6.063178 13.456687 38.701659 -0.167878 1.215676 0.124042 -0.032652 -46945.100000 0 0 1
34.568132 -5.920278 12.726187 37.308997 -0.169618 1.222707 0.138016 -0.028242 876551.000000 0 0 1
33.347462 -6.814678 13.214787 36.511966 -0.201578 1.200459 0.121666 -0.018868 776130.000000 0 0 1
32.900552 -6.613578 14.529987 36.569198 -0.198373 1.162192 0.125376 -0.011500 338094.000000 0 0 1
31.769222 -7.447278 14.768287 35.816864 -0.230260 1.145789 0.122881 -0.013909 265079.000000 0 0 1
31.251682 -7.284678 16.187187 35.941052 -0.229008 1.103604 0.114730 -0.006183 -293027.000000 0 0 1
32.178692 -7.802078 17.113387 37.272090 -0.237871 1.093761 0.094038 0.003926 -6082.380000 0 0 1
31.629072 -8.164278 18.345087 37.464595 -0.252612 1.059091 0.085836 0.000329 -647054.000000 0 0 1
32.716062 -8.752478 19.234387 38.947506 -0.261407 1.054280 0.082386 -0.001962 181319.000000 0 0 1
33.718022 -7.785778 19.585087 39.763035 -0.226931 1.055785 0.082565 0.004507 -477207.000000 0 0 1
34.928232 -8.221878 19.069687 40.635374 -0.231185 1.082312 0.050712 0.011900 -1029590.000000 0 0 1
36.211282 -7.717278 19.723887 41.950507 -0.209977 1.081312 0.042726 0.000006 -141692.000000 0 0 1
36.433632 -8.203078 21.042787 42.866058 -0.221458 1.057678 0.045908 -0.010156 670775.000000 0 0 1
37.749292 -7.915878 21.573687 44.193825 -0.206701 1.060815 0.037780 -0.013079 963750.000000 0 0 1
-37.989307 -8.635678 22.950987 45.216261 0.223520 1.038420 0.040808 -0.015254 -196262.000000 0 0 1
37.580362 -7.875478 24.066787 45.315748 -0.206574 1.010909 0.044878 -0.010964 113797.000000 0 0 1
37.352722 -8.629878 25.190987 45.872502 -0.227054 0.989447 0.049935 -0.024430 -183422.000000 0 0 1
37.018542 -7.814378 26.484287 46.182837 -0.208039 0.960066 0.069593 -0.023164 798496.000000 0 0 1
-37.871237 -7.011878 26.969987 47.018903 0.183077 0.959904 0.052381 -0.038820 521749.000000 0 0 1
37.717742 -6.371178 28.145687 47.491048 -0.167338 0.936448 0.061069 -0.049284 -758120.000000 0 0 1
-37.090387 -5.894178 28.928787 47.405832 0.157596 0.914437 0.078745 -0.041023 -587754.000000 0 0 1
-36.533167 -6.907278 29.748287 47.616629 0.186863 0.895990 0.075686 -0.036401 -444036.000000 0 0 1
-35.146147 -6.717678 29.846587 46.596112 0.188858 0.875597 0.075047 -0.038944 -300307.000000 0 0 1
-34.533727 -7.463878 31.024887 47.019479 0.212859 0.850203 0.066325 -0.023810 -191097.000000 0 0 1
-34.466417 -8.856278 30.989487 47.188091 0.251513 0.854332 0.061539 -0.021402 310105.000000 0 0 1
-33.918967 -9.462478 32.152587 47.684628 0.272056 0.830813 0.051785 -0.009964 -279586.000000 0 0 1
-34.220812 -10.965278 32.185987 48.241467 0.310090 0.840373 0.054051 -0.011915 700926.000000 0 0 1
-35.617805 -11.233578 32.374687 49.426124 0.305518 0.856598 0.044641 -0.014846 756985.000000 0 0 1
-35.914079 -12.620478 32.315387 49.933774 0.337928 0.866937 0.046387 -0.017754 621529.000000 0 0 1
-37.431577 -12.922078 32.523687 51.243471 0.332409 0.883190 0.068209 -0.017684 643417.000000 0 0 1
-37.825837 -14.317778 32.615187 51.957128 0.361852 0.892159 0.075648 -0.026715 371209.000000 0 0 1
36.844672 -14.446078 33.139887 51.618516 -0.373661 0.873672 0.067715 -0.025109 218583.000000 0 0 1
36.389862 -15.939778 33.268887 51.818119 -0.412854 0.873651 0.063482 -0.015553 77897.600000 0 0 1
37.070432 -16.626078 -33.069279 52.385309 -0.421606 2.253986 0.073946 -0.025259 161564.000000 0 0 1
36.725032 -17.947278 -33.130979 52.616485 -0.454561 2.251924 0.080892 -0.038383 -181818.000000 0 0 1
37.183342 -18.686378 -31.891679 52.429580 -0.465683 2.224684 0.111589 -0.032916 -236879.000000 0 0 1
36.389302 -18.458078 -30.776479 51.108449 -0.469422 2.217025 0.124293 -0.027463 -421563.000000 0 0 1
36.752832 -19.195678 -29.611179 50.951610 -0.481321 2.190953 0.127853 -0.025709 -1157010.000000 0 0 1
35.798172 -19.073378 -28.401179 49.516965 -0.489544 2.181647 0.123747 -0.018510 336968.000000 0 0 1
34.590732 -19.795478 -28.603179 49.056310 -0.519785 2.193297 0.120433 -0.019542 170551.000000 0 0 1
33.630512 -19.115278 -29.398979 48.587088 -0.516853 2.220660 0.102022 -0.013534 -1046560.000000 0 0 1
32.349912 -19.972078 -29.542779 48.147445 -0.553099 2.231395 0.077344 -0.008817 -273636.000000 0 0 1
31.426552 -19.387278 -30.409379 47.835395 -0.552759 2.259723 0.054842 -0.000555 41020.400000 0 0 1
30.283572 -20.200578 -30.609879 47.561778 -0.588266 2.269965 0.047846 0.001571 131102.000000 0 0 1
29.176472 -19.648378 -31.516779 47.229573 -0.592672 2.301388 0.024527 0.010539 49207.000000 0 0 1
29.447972 -19.712178 -32.932979 48.377000 -0.589886 2.319592 0.026414 0.008632 -80075.200000 0 0 1
28.414672 -19.110278 -33.682379 48.032270 -0.592064 2.347938 0.054656 -0.000268 -54810.400000 0 0 1
28.559572 -19.279778 32.239087 47.188110 -0.593799 0.818656 0.055079 -0.006516 -65886.400000 0 0 1
29.680772 -18.579578 31.734687 47.257162 -0.559304 0.834522 0.058341 -0.010191 -8408.630000 0 0 1
29.806972 -18.420078 30.343887 46.351983 -0.553534 0.857089 0.058161 -0.020251 360127.000000 0 0 1
28.604872 -17.742678 29.575287 44.807800 -0.555189 0.849914 0.064806 -0.014207 439871.000000 0 0 1
28.385772 -16.444678 30.153087 44.557695 -0.525081 0.827498 0.072620 -0.020416 517561.000000 0 0 1
27.601672 -15.749578 29.134387 43.112806 -0.518523 0.828786 0.076728 -0.023308 543186.000000 0 0 1
27.284772 -14.287978 29.535887 42.672869 -0.482397 0.806337 0.093324 -0.031606 -334134.000000 0 0 1
28.484472 -13.571778 29.588187 43.255279 -0.444641 0.817514 0.096510 -0.023300 -190064.000000 0 0 1
28.368872 -12.256878 30.109787 43.146532 -0.407830 0.798406 0.123749 -0.036095 -78222.300000 0 0 1
29.737972 -11.554378 30.226187 43.948527 -0.370588 0.812393 0.121346 -0.033468 40826.300000 0 0 1
30.275372 -11.255378 28.933987 43.364240 -0.355933 0.840311 0.115488 -0.036529 -448148.000000 0 0 1
31.629472 -10.951178 29.075187 44.336422 -0.333315 0.855574 0.106217 -0.031189 -653617.000000 0 0 1
32.263432 -10.338078 27.832787 43.845968 -0.310090 0.883065 0.112364 -0.033016 -391297.000000 0 0 1
31.877412 -8.973278 27.630587 43.129323 -0.274393 0.875458 0.101698 -0.034176 113590.000000 0 0 1
32.497842 -8.483778 26.457087 42.755838 -0.255358 0.903589 0.110708 -0.035661 76834.400000 0 0 1
32.526892 -6.962278 26.279387 42.391959 -0.210865 0.902163 0.114682 -0.035644 471626.000000 0 0 1
31.235062 -6.398078 26.079987 41.191385 -0.202042 0.885191 0.118197 -0.036158 168129.000000 0 0 1
31.315592 -4.981078 26.106687 41.073551 -0.157739 0.882000 0.113231 -0.035004 13885.700000 0 0 1
29.946572 -4.287478 26.055287 39.925651 -0.142205 0.859792 0.104870 -0.030411 -121905.000000 0 0 1
29.233072 -4.483678 24.877887 38.646929 -0.152191 0.871444 0.117637 -0.023728 -796017.000000 0 0 1
27.885172 -4.180078 25.017387 37.695166 -0.148795 0.845074 0.110764 -0.025406 -680729.000000 0 0 1
26.980972 -4.593478 23.848387 36.301769 -0.168632 0.854032 0.120215 -0.008870 -271664.000000 0 0 1
27.226672 -3.866178 22.641287 35.621158 -0.141057 0.881993 0.134440 -0.001010 243140.000000 0 0 1
26.337372 -4.291778 21.609687 34.337372 -0.161534 0.890100 0.138793 -0.004901 133136.000000 0 0 1
26.640272 -3.626678 20.234787 33.649718 -0.135303 0.925624 0.151416 -0.001622 19272.700000 0 0 1
26.151772 -2.329178 20.183687 33.116785 -0.088829 0.915404 0.131201 -0.000231 -115694.000000 0 0 1
26.611872 -1.651978 19.029587 32.757380 -0.061997 0.950931 0.143792 -0.001919 276544.000000 0 0 1
25.519072 -0.733578 18.374287 31.454342 -0.028738 0.946955 0.127350 -0.011443 -559503.000000 0 0 1
24.517372 -1.479478 17.827587 30.349848 -0.060271 0.942950 0.120293 -0.003985 -876807.000000 0 0 1
23.596072 -0.589978 17.204387 29.208109 -0.024998 0.940941 0.139811 -0.012768 1259130.000000 0 0 1
22.242472 -1.196578 16.641987 27.804947 -0.053745 0.929136 0.146083 -0.020134 1094730.000000 0 0 1
22.446572 -1.890478 15.411387 27.293467 -0.084023 0.970781 0.187672 -0.038646 668789.000000 0 0 1
21.229072 -2.479078 14.951687 26.083947 -0.116251 0.960373 0.197578 -0.039505 543153.000000 0 0 1
21.540872 -3.261178 13.657787 25.713413 -0.150254 1.010834 0.218852 -0.052034 -62096.000000 0 0 1
20.344872 -3.817578 13.176087 24.537665 -0.185486 1.003950 0.227215 -0.057691 508833.000000 0 1 0
20.487072 -4.452778 11.907687 24.111001 -0.214017 1.054262 0.221794 -0.055246 607955.000000 0 1 0
19.162672 -5.277578 11.694087 23.061060 -0.268747 1.038988 0.184529 -0.052686 538719.000000 0 1 0
19.192072 -6.506878 12.386187 23.750636 -0.326878 1.022177 0.205450 -0.062702 -161713.000000 0 1 0
18.110672 -7.289978 12.073687 22.954610 -0.382680 1.016928 0.176624 -0.046769 -1093800.000000 0 1 0
18.251072 -8.784078 12.296887 23.695466 -0.448569 1.025168 0.194337 -0.067371 -438215.000000 0 1 0
19.118772 -9.473678 11.431087 24.206358 -0.460055 1.078972 0.181810 -0.074403 585335.000000 0 1 0
18.822772 -10.844378 11.485187 24.572481 -0.522684 1.084448 0.191196 -0.074209 88677.400000 0 1 0
19.447972 -11.494678 10.214487 24.792882 -0.533811 1.146156 0.187392 -0.077889 215107.000000 0 1 0
18.731072 -11.050378 9.080887 23.567487 -0.532996 1.175248 0.158552 -0.062589 552359.000000 0 1 0
19.309272 -11.523678 7.887987 23.829886 -0.538060 1.233420 0.168711 -0.069800 4875.810000 0 1 0
18.636072 -10.974778 6.579487 22.606162 -0.532218 1.275474 0.133802 -0.043189 -207294.000000 0 1 0
18.801272 -9.568378 6.433087 22.055074 -0.470760 1.274811 0.103272 -0.043213 198062.000000 0 1 0
19.430072 -9.286978 5.267587 22.170321 -0.445868 1.330906 0.092562 -0.037356 -975060.000000 0 1 0
20.143372 -7.928678 5.269987 22.279859 -0.374988 1.331997 0.135809 -0.036529 -295514.000000 0 1 0
20.905272 -7.676178 4.088187 22.642159 -0.351905 1.389244 0.139292 -0.034176 633667.000000 0 1 0
21.491072 -6.426578 4.137387 22.809758 -0.290571 1.388400 0.171533 -0.032618 -405873.000000 0 1 0
22.394172 -6.129878 2.939987 23.403373 -0.267182 1.444841 0.200553 -0.039593 -96694.400000 0 1 0
21.620072 -6.062278 1.726287 22.520186 -0.273380 1.494066 0.165703 -0.048218 1069600.000000 0 1 0
22.306272 -5.420978 0.662287 22.965091 -0.238403 1.541953 0.193717 -0.039339 25177.500000 0 1 0
-25.422707 -14.180078 -0.130213 29.110232 0.508791 1.575269 0.168171 -0.035231 -355018.000000 0 0 1
-24.143767 -13.950478 -0.721913 27.893700 0.523943 1.596680 0.125300 -0.022884 681996.000000 0 0 1
-23.026067 -14.577278 -0.147013 27.252861 0.564387 1.576191 0.130307 -0.013622 227938.000000 0 0 1
-22.723067 -14.203378 1.391787 26.833017 0.558646 1.518905 0.150115 -0.030578 -144936.000000 0 0 1
-23.694867 -14.758678 2.329787 28.012376 0.557062 1.487530 0.145448 -0.013907 772328.000000 0 0 1
-23.226767 -14.604878 3.651187 27.678807 0.561324 1.438498 0.144377 -0.009499 -137994.000000 0 0 1
-24.210867 -15.152678 4.709487 28.947349 0.559219 1.407378 0.174711 -0.007000 -133616.000000 0 0 1
-24.359967 -16.546978 4.520987 29.793452 0.596677 1.418464 0.224205 -0.040069 233922.000000 0 0 1
-24.781567 -17.303578 5.638587 30.746277 0.609546 1.386362 0.214880 -0.036318 -121821.000000 0 0 1
-25.039357 -18.781678 5.293887 31.745017 0.643556 1.403251 0.164954 -0.030863 -34027.100000 0 0 1
-25.443597 -19.561478 6.385387 32.723099 0.655436 1.374402 0.163035 -0.042137 44624.400000 0 0 1
-25.794327 -20.857578 5.971587 33.705278 0.679970 1.392685 0.158084 -0.051603 -223298.000000 0 0 1
-26.039897 -21.619978 7.279487 34.619223 0.692924 1.358942 0.134976 -0.041394 111095.000000 0 0 1
-24.967417 -21.926178 8.144187 34.211942 0.720635 1.330438 0.130349 -0.035309 8273.160000 0 0 1
-25.543937 -22.522878 9.280487 35.297312 0.722629 1.304745 0.116825 -0.032722 757047.000000 0 0 1
-24.393767 -22.884678 10.278087 34.991477 0.753490 1.272668 0.126666 -0.040386 678908.000000 0 0 1
-23.839367 -21.738078 10.972187 34.077094 0.739327 1.242975 0.110606 -0.036553 260242.000000 0 0 1
-23.137667 -22.146178 12.141187 34.252201 0.763507 1.208455 0.120006 -0.037589 -506024.000000 0 0 1
-23.529767 -21.366778 13.364987 34.479154 0.737258 1.172742 0.083604 -0.024068 612254.000000 0 0 1
-24.869967 -21.812878 13.656987 35.788688 0.720005 1.179269 0.073182 -0.021037 874115.000000 0 0 1
-25.280627 -21.212878 14.917087 36.216237 0.698130 1.146270 0.063013 -0.009552 371260.000000 0 0 1
-26.749267 -21.578178 15.297787 37.618657 0.678803 1.152007 0.054303 -0.005169 -95121.700000 0 0 1
-27.762647 -21.077278 14.430387 37.726016 0.649360 1.178290 0.071395 -0.006545 301285.000000 0 0 1
-28.300337 -22.057578 13.604487 38.373531 0.662060 1.208387 0.065922 -0.011989 125947.000000 0 0 1
-29.369117 -22.989578 14.284087 39.938714 0.664153 1.205046 0.052729 -0.014294 -17361.800000 0 0 1
-28.763617 -23.820878 15.268787 40.347438 0.691677 1.182694 0.037514 -0.008287 398246.000000 0 0 1
-29.704037 -24.850578 15.654087 41.772377 0.696667 1.186672 0.036447 -0.007913 365931.000000 0 0 1
-29.620537 -26.206198 14.916287 42.268625 0.724315 1.210135 0.045709 -0.011030 -91724.000000 0 0 1
-30.171587 -26.211318 13.610587 42.220918 0.715275 1.242568 0.059379 -0.020967 907629.000000 0 0 1
-31.513447 -26.754458 13.649887 43.534099 0.703905 1.251873 0.086258 -0.034337 1119330.000000 0 0 1
-32.230927 -26.986878 12.285487 43.795633 0.697073 1.286462 0.129207 -0.042952 131014.000000 0 0 1
-31.833017 -28.202428 11.719487 44.114219 0.724998 1.301905 0.102443 -0.038218 172916.000000 0 0 1
-32.667047 -28.432998 10.611587 44.588980 0.716212 1.330504 0.109068 -0.028586 98905.500000 0 0 1
-32.344427 -29.744168 9.866387 45.035798 0.743543 1.349926 0.096358 -0.032405 42134.300000 0 0 1
-32.539777 -30.858838 10.695187 46.103059 0.758891 1.336679 0.101437 -0.025112 448322.000000 0 0 1
-31.832497 -31.962228 10.096187 46.225803 0.787432 1.350611 0.113411 -0.034106 301430.000000 0 0 1
-31.680427 -33.173788 11.053787 47.184064 0.808421 1.334329 0.114013 -0.031985 399939.000000 0 0 1
-32.946217 33.760923 11.267887 48.499675 -0.797611 1.336325 0.090293 -0.019171 585883.000000 0 0 1
-32.805587 32.373110 11.609287 47.528943 -0.778763 1.324043 0.122537 -0.025553 -52628.700000 0 0 1
-34.115658 31.850045 12.264387 48.256800 -0.751066 1.313829 0.109103 -0.018215 862332.000000 0 0 1
-35.271953 31.616715 11.466187 48.736032 -0.730806 1.333299 0.073135 -0.023276 812615.000000 0 0 1
-35.988337 32.783862 11.043287 49.918897 -0.738836 1.347726 0.098094 -0.024107 -597820.000000 0 0 1
-37.446427 32.566253 10.625587 50.751343 -0.715807 1.359870 0.100344 -0.005330 -393974.000000 0 0 1
-37.664497 31.881833 9.393387 50.232473 -0.702441 1.382691 0.078113 -0.004967 66051.100000 0 0 1
36.947292 31.990827 9.094887 49.711492 0.713624 1.386807 0.064859 -0.003171 12482.800000 0 0 1
36.537582 31.395133 7.701987 48.784935 0.709843 1.412257 0.062766 -0.008523 -23259.700000 0 0 1
36.798172 30.001103 7.654787 48.091241 0.683994 1.410944 0.101129 -0.020275 164297.000000 0 0 1
36.456452 29.522063 6.351887 47.338901 0.680682 1.436211 0.116562 -0.014368 105523.000000 0 0 1
36.434792 27.954233 6.155187 46.333784 0.654444 1.437558 0.136040 -0.017881 403145.000000 0 0 1
35.413092 27.243533 6.859687 45.203457 0.655743 1.418456 0.147432 -0.027804 348566.000000 0 0 1
35.909472 26.583073 8.008087 45.390301 0.637251 1.393441 0.132949 -0.031956 294350.000000 0 0 1
34.895562 25.517113 8.553487 44.067964 0.631388 1.375459 0.125459 -0.025540 373462.000000 0 0 1
34.942112 24.379963 7.680087 43.293389 0.609197 1.392456 0.139734 -0.031787 -501462.000000 0 0 1
33.938672 23.450383 7.850587 41.992686 0.604635 1.382739 0.137914 -0.034208 -1176880.000000 0 0 1
34.271152 22.126293 7.069187 41.401185 0.573293 1.399207 0.125267 -0.031171 367788.000000 0 0 1
35.342562 21.277493 7.478087 41.925532 0.541915 1.391471 0.135481 -0.027988 322611.000000 0 0 1
36.606762 21.912193 7.242487 43.274159 0.539377 1.402642 0.122284 -0.028197 -108993.000000 0 0 1
37.676872 20.781093 7.018587 43.596572 0.504041 1.409103 0.098502 -0.024433 26261.300000 0 0 1
37.384992 19.860393 5.983987 42.753724 0.488326 1.430371 0.126796 -0.029629 7802.860000 0 0 1
-37.913227 18.630093 6.137687 42.686817 -0.456734 1.426512 0.144157 -0.042881 230163.000000 0 0 1
37.473322 17.508993 5.169087 41.683740 0.437097 1.446469 0.144755 -0.048444 526399.000000 0 0 1
-37.930147 17.439193 3.832787 41.922688 -0.430950 1.479243 0.165077 -0.043817 396259.000000 0 0 1
37.432532 16.370093 3.120087 40.974496 0.412262 1.494575 0.154227 -0.044062 -1333080.000000 0 0 1
-37.969567 15.940893 1.781087 41.218593 -0.397486 1.527572 0.190150 -0.038720 -926778.000000 0 0 1
-36.789767 15.240293 1.903887 39.867008 -0.392733 1.523022 0.192216 -0.053775 -780171.000000 0 0 1
-35.666324 16.079993 2.084787 39.179066 -0.423557 1.517559 0.212995 -0.058949 -838443.000000 0 0 1
-34.357516 15.241993 2.180487 37.649858 -0.417543 1.512849 0.228747 -0.056292 41777.000000 0 0 1
-34.265883 14.396993 3.331187 37.316497 -0.397760 1.481409 0.224859 -0.055830 1116250.000000 0 0 1
-32.862627 14.181793 3.586887 35.971395 -0.407404 1.470915 0.229128 -0.063942 918168.000000 0 0 1
-32.592497 13.344993 4.793987 35.543523 -0.388626 1.435507 0.233865 -0.048102 -158167.000000 0 0 1
-33.049897 12.012693 4.745887 35.484137 -0.348625 1.436648 0.260514 -0.047859 120769.000000 0 0 1
-32.722657 11.253993 5.883487 35.100429 -0.331249 1.402383 0.220675 -0.029684 -57393.800000 0 0 1
-32.866677 9.727393 5.722487 34.750360 -0.287751 1.405369 0.256083 -0.040726 328730.000000 0 0 1
-34.186943 9.304793 6.036487 35.941139 -0.265737 1.402042 0.246070 -0.015544 250648.000000 0 0 1
-34.392659 7.951793 5.646087 35.748627 -0.227214 1.412194 0.281110 -0.026044 474549.000000 0 0 1
-35.868793 7.496793 5.882987 37.113094 -0.206040 1.411610 0.239430 -0.010807 407695.000000 0 0 1
-36.267787 7.384193 7.177487 37.701393 -0.200857 1.379250 0.213282 -0.005069 112190.000000 0 0 1
-37.611987 6.908093 7.196087 38.912299 -0.181643 1.384795 0.150729 -0.008334 532443.000000 0 0 1
37.936582 6.369193 8.575087 39.411711 0.166339 1.351465 0.137472 -0.013363 75061.300000 0 0 1
37.433242 7.238993 9.603187 39.317577 0.191026 1.324054 0.150673 -0.015154 603824.000000 0 0 1
-37.536937 7.997993 10.236287 39.721167 -0.209931 1.310152 0.162169 -0.016489 211350.000000 0 0 1
37.770132 8.885893 11.283187 40.408567 0.231061 1.287807 0.132548 -0.021197 -51793.500000 0 0 1
37.287532 8.169393 12.410887 40.138873 0.215684 1.256446 0.116194 -0.023565 520535.000000 0 0 1
36.824422 9.072993 13.416287 40.228771 0.241574 1.230783 0.137840 -0.036910 -278831.000000 0 0 1
36.132812 8.414393 14.655987 39.889599 0.228796 1.194570 0.167395 -0.050041 -50316.700000 0 0 1
34.768762 8.043693 14.588187 38.553638 0.227349 1.182743 0.171861 -0.052061 391201.000000 0 0 1
34.311822 7.366493 15.769387 38.473886 0.211482 1.148482 0.168214 -0.049819 925723.000000 0 0 1
32.750012 7.227093 15.821187 37.082396 0.217194 1.130011 0.182115 -0.040941 502903.000000 0 0 1
31.984172 8.299893 16.306587 36.848070 0.253900 1.112372 0.168317 -0.042073 494833.000000 0 0 1
30.585772 8.008093 16.282587 35.563206 0.256076 1.095222 0.166906 -0.035639 540818.000000 0 0 1
30.103672 7.409393 17.646287 35.672421 0.241332 1.053334 0.163134 -0.053582 -517632.000000 0 0 1
30.205572 8.290493 18.749787 36.505662 0.267872 1.031406 0.198726 -0.054278 792539.000000 0 0 1
29.261272 8.043293 19.820587 36.245997 0.268253 0.992217 0.185390 -0.036890 559884.000000 0 0 1
29.755372 6.839593 20.688487 36.880560 0.225936 0.975252 0.179332 -0.036371 331584.000000 0 0 1
28.828572 6.637093 21.752187 36.719140 0.226283 0.936770 0.145474 -0.028599 264204.000000 0 0 1
29.121472 5.425093 22.446387 37.166276 0.184181 0.922355 0.141743 -0.028485 -243199.000000 0 0 1
28.120372 5.079593 23.625187 37.077042 0.178710 0.879947 0.134294 -0.025304 -450715.000000 0 0 1
26.853172 4.819093 23.170187 35.793492 0.177571 0.866721 0.099647 -0.016252 -1266990.000000 0 0 1
26.046072 5.969993 23.169087 35.367291 0.225317 0.856482 0.115804 -0.013394 412944.000000 0 0 1
24.515872 5.780993 22.823487 33.990579 0.231576 0.834612 0.099880 -0.023982 937892.000000 0 0 1
24.285672 5.476993 21.480587 32.881712 0.221813 0.858903 0.110873 -0.015084 24393.100000 0 0 1
22.941572 5.270493 21.129987 31.631791 0.225817 0.839280 0.101582 -0.014280 -863874.000000 0 0 1
22.133472 3.974793 21.471587 31.092099 0.177689 0.808505 0.103958 -0.015492 808358.000000 0 0 1
20.879372 3.919393 20.757587 29.701637 0.185557 0.796980 0.099336 -0.020704 1484890.000000 0 0 1
19.841772 4.686293 21.431687 29.579968 0.231933 0.760439 0.114815 -0.025441 644432.000000 0 0 1
18.460872 4.559193 20.670387 28.086562 0.242120 0.743723 0.166761 -0.035175 736960.000000 0 0 1
17.877172 3.267693 20.817087 27.633715 0.180790 0.717697 0.158531 -0.033962 437252.000000 0 0 1
16.711072 3.088793 20.009087 26.251936 0.182772 0.704100 0.178271 -0.044168 1258540.000000 0 0 1
15.672672 1.970293 20.552487 25.921409 0.125059 0.655281 0.203728 -0.044883 400587.000000 0 0 1
16.136872 0.642293 20.622887 26.193790 0.039782 0.664347 0.151239 -0.033889 42880.100000 0 0 1
15.166972 -0.184807 21.250287 26.108349 -0.012184 0.619917 0.184658 -0.042621 11555.600000 0 0 1
15.399972 -1.693407 21.282587 26.324424 -0.109522 0.629243 0.145148 -0.024327 -27878.600000 0 0 1
14.896472 -2.218607 20.068887 25.091579 -0.147848 0.643792 0.160216 -0.022668 138387.000000 0 0 1
15.033972 -3.619007 19.987087 25.270560 -0.236227 0.658479 0.126223 -0.013494 -179010.000000 0 0 1
14.518572 -4.350807 18.722987 24.088767 -0.291156 0.680514 0.137581 -0.019124 525807.000000 0 1 0
13.107172 -4.267907 18.549287 23.110367 -0.314789 0.639089 0.138007 -0.025596 264395.000000 0 1 0
12.684872 -5.110107 17.513787 22.220529 -0.382961 0.662949 0.137088 -0.026064 317123.000000 0 1 0
11.154872 -5.028807 17.289287 21.181112 -0.423533 0.615890 0.120628 -0.021605 385295.000000 0 1 0
10.332872 -5.740707 18.194587 21.697165 -0.507115 0.576144 0.114759 -0.014770 -646083.000000 0 1 0
9.025772 -5.790607 17.707087 20.701126 -0.570422 0.544535 0.091204 -0.035116 -635424.000000 0 1 0
7.967072 -6.341207 18.657787 21.255544 -0.672252 0.499579 0.074322 -0.037834 -797862.000000 0 1 0
7.898572 -7.802607 18.833887 21.862832 -0.779286 0.532665 0.072478 -0.033986 177144.000000 0 1 0
9.050172 -8.490107 19.326287 22.967214 -0.753479 0.570793 0.119311 -0.033263 241286.000000 0 1 0
9.176972 -10.016207 18.993887 23.351851 -0.829096 0.620860 0.141670 -0.039874 -26145.100000 0 1 0
9.446972 -10.226007 17.599687 22.440265 -0.824977 0.669245 0.115782 -0.026855 82107.900000 0 1 0
9.782672 -11.553607 17.266087 22.963107 -0.868209 0.719849 0.133844 -0.033222 218520.000000 0 1 0
9.901472 -11.776107 15.722187 21.997796 -0.871662 0.774578 0.122873 -0.035708 199179.000000 0 1 0
10.313972 -13.016607 15.234587 22.536697 -0.900725 0.828489 0.102288 -0.030640 -106896.000000 0 1 0
10.071072 -13.138907 13.836687 21.575710 -0.916814 0.874594 0.075697 -0.018762 -206834.000000 0 1 0
10.601772 -14.505607 13.304287 22.356526 -0.939649 0.933411 0.088305 -0.020972 -68146.300000 0 1 0
11.928072 -14.437607 12.846187 22.710084 -0.880294 0.969563 0.063164 -0.019110 -557733.000000 0 1 0
12.026472 -13.994107 11.494387 21.739181 -0.860873 1.013680 0.022151 -0.012950 127750.000000 0 1 0
13.362172 -13.278807 11.093787 21.861987 -0.782269 1.038578 0.077510 -0.032191 343264.000000 0 1 0
14.481272 -14.128007 11.066287 23.060150 -0.773051 1.070269 0.101194 -0.025921 -216317.000000 0 1 0
15.522672 -13.474607 10.350087 23.013967 -0.714886 1.104333 0.107356 -0.052158 303479.000000 0 1 0
16.540072 -14.429407 9.677587 23.988277 -0.717350 1.155534 0.103041 -0.057531 1115.110000 0 1 0
17.244772 -15.249207 10.536687 25.316837 -0.724062 1.141542 0.104054 -0.047284 246676.000000 0 0 1
16.551572 -16.508207 10.746387 25.728588 -0.784086 1.139903 0.154870 -0.041458 206961.000000 0 0 1
16.947772 -17.281107 11.988287 27.010788 -0.795136 1.110924 0.122894 -0.038698 239895.000000 0 0 1
18.261072 -17.807607 11.817787 28.111167 -0.772827 1.136916 0.154262 -0.050686 424026.000000 0 0 1
18.711872 -18.469807 13.006587 29.333244 -0.778888 1.111399 0.123038 -0.043382 308607.000000 0 0 1
20.080272 -19.202307 12.916287 30.639458 -0.763052 1.135634 0.084497 -0.040926 419479.000000 0 0 1
21.139572 -18.283707 12.759787 30.724381 -0.713083 1.142525 0.089940 -0.045465 186266.000000 0 0 1
22.388772 -18.939707 12.503987 31.879763 -0.702136 1.167749 0.078755 -0.044278 828610.000000 0 0 1
23.255872 -18.245707 11.431087 31.692446 -0.665257 1.201791 0.128409 -0.050817 -264773.000000 0 0 1
22.927472 -18.514407 10.098387 31.151720 -0.679310 1.240664 0.111854 -0.039021 419403.000000 0 0 1
21.670572 -18.116907 9.531187 29.810728 -0.696318 1.245359 0.115999 -0.044154 645324.000000 0 0 1
21.234272 -16.625907 9.507087 28.595450 -0.664273 1.231877 0.175551 -0.062607 -331263.000000 0 0 1
22.087872 -15.927207 8.656287 28.574137 -0.624736 1.263019 0.179164 -0.049621 -71475.500000 0 0 1
21.877772 -14.550907 8.732387 27.687910 -0.586917 1.249933 0.192928 -0.061827 -4954.460000 0 0 1
-36.069087 24.581922 8.123687 44.398696 -0.598218 1.386788 0.140501 -0.025963 -442490.000000 0 0 1
-35.084059 23.897022 8.822687 43.356645 -0.597953 1.365874 0.143716 -0.042286 -890778.000000 0 0 1
-34.135326 24.727922 9.328487 43.170723 -0.626920 1.352995 0.175425 -0.037467 -855814.000000 0 0 1
-32.908247 23.988322 9.932887 41.917235 -0.629890 1.331556 0.188660 -0.047752 35375.200000 0 0 1
-32.174087 23.361022 8.902987 40.745213 -0.628017 1.350515 0.187367 -0.046705 -55385.100000 0 0 1
-31.737767 22.125322 9.441887 39.824176 -0.608797 1.331428 0.172822 -0.046103 13203.800000 0 0 1
-31.128227 21.182522 8.374087 38.571895 -0.597513 1.351950 0.154794 -0.058046 146993.000000 0 0 1
-32.104167 20.561422 7.566687 38.867781 -0.569639 1.374868 0.163978 -0.062306 685691.000000 0 0 1
-31.427067 19.779622 6.537887 37.704615 -0.561744 1.396518 0.176476 -0.060599 691060.000000 0 0 1
-32.434237 19.021422 5.585287 38.013020 -0.530405 1.423332 0.173797 -0.051303 528177.000000 0 0 1
-33.090457 17.915522 6.246887 38.144041 -0.496225 1.406284 0.185085 -0.055890 374993.000000 0 0 1
-34.081597 17.304322 5.441887 38.608405 -0.469814 1.429375 0.151843 -0.058222 -159111.000000 0 0 1
-34.755056 16.121222 6.140987 38.801024 -0.434314 1.411859 0.146921 -0.047362 -503516.000000 0 0 1
-35.489607 16.570122 7.253987 39.833422 -0.436819 1.387666 0.114628 -0.034521 14777.600000 0 0 1
-36.094677 15.449122 7.904987 40.049843 -0.404423 1.372113 0.119351 -0.035307 60305.000000 0 0 1
-36.892127 15.995922 9.124087 41.232845 -0.409121 1.347667 0.085837 -0.029669 24544.900000 0 0 1
37.894702 16.663722 8.787287 42.319079 0.414287 1.361631 0.110589 -0.031219 342970.000000 0 0 1
37.288702 17.318322 9.928687 42.295986 0.434796 1.333842 0.114878 -0.027347 485872.000000 0 0 1
36.154622 18.353022 9.742387 41.700170 0.469730 1.334988 0.083645 -0.032721 424482.000000 0 0 1
34.878662 17.825022 9.398487 40.281311 0.472455 1.335304 0.102832 -0.036652 -31365.200000 0 0 1
33.995332 18.925222 9.411887 40.030366 0.507973 1.333456 0.110886 -0.034461 1243010.000000 0 0 1
32.498052 18.707522 8.919487 38.544157 0.522323 1.337270 0.110635 -0.041895 1516250.000000 0 0 1
31.783122 19.964322 8.877787 38.568849 0.560856 1.338533 0.111105 -0.038096 1116970.000000 0 0 1
30.430372 20.010222 8.369687 37.369348 0.581681 1.344908 0.090222 -0.034363 1094420.000000 0 0 1
30.180572 19.546322 6.919887 36.617079 0.574718 1.380673 0.069819 -0.027026 -937476.000000 0 0 1
29.959772 18.138322 6.783987 35.673648 0.544397 1.379463 0.087708 -0.028713 197074.000000 0 0 1
29.747072 17.811622 5.411687 35.091716 0.539514 1.415963 0.074332 -0.034022 193634.000000 0 0 1
28.358272 18.237822 4.840487 34.062297 0.571525 1.428207 0.093793 -0.033474 -1076040.000000 0 0 1
27.298572 17.478422 5.443587 32.868525 0.569504 1.404413 0.101924 -0.030450 840004.000000 0 0 1
26.017072 17.871922 4.928587 31.946590 0.601901 1.415902 0.141481 -0.029413 560324.000000 0 0 1
25.519572 19.301022 5.273287 32.428160 0.647535 1.407457 0.138517 -0.023767 -1666230.000000 0 0 1
26.230472 20.347322 4.676287 33.524899 0.659755 1.430853 0.118859 -0.033505 -175560.000000 0 0 1
25.775972 21.630922 5.029087 34.023363 0.698184 1.422440 0.129528 -0.025828 -396829.000000 0 0 1
26.728272 22.752322 4.583187 35.398789 0.705217 1.440959 0.083813 -0.018175 -1101310.000000 0 0 1
27.929372 22.713822 5.236687 36.378433 0.682774 1.426344 0.081527 -0.022879 -904905.000000 0 0 1
28.732372 23.854222 4.934387 37.668571 0.692899 1.439424 0.067471 -0.008702 -149097.000000 0 0 1
30.033472 23.873022 5.807487 38.802803 0.671612 1.420565 0.071503 -0.016215 1051680.000000 0 0 1
31.047462 22.862822 5.482787 38.945019 0.634729 1.429544 0.065676 -0.020066 1156650.000000 0 0 1
31.516542 22.606222 4.152387 39.007384 0.622230 1.464143 0.064037 -0.017740 -614092.000000 0 0 1
32.337702 23.706922 3.494487 40.248684 0.632600 1.483864 0.073231 -0.021278 -166748.000000 0 0 1
31.524972 24.884322 3.270087 40.295742 0.668215 1.489555 0.052633 -0.017882 515834.000000 0 0 1
32.304302 25.767322 2.498387 41.397642 0.673303 1.510409 0.088739 -0.007500 -277848.000000 0 0 1
31.832262 27.267122 2.493487 41.988169 0.708306 1.511376 0.074603 -0.001321 1162450.000000 0 0 1
30.528572 27.627722 1.993087 41.222047 0.735559 1.522427 0.095722 0.000774 1428710.000000 0 0 1
29.409172 27.267622 2.806687 40.203235 0.747631 1.500927 0.076782 -0.003553 699496.000000 0 0 1
28.018472 27.843122 2.393287 39.572744 0.782259 1.510281 0.051436 -0.001375 671000.000000 0 0 1
28.019772 29.235622 2.613887 40.579079 0.806631 1.506337 0.048468 -0.005520 103808.000000 0 0 1
26.748572 29.685722 2.197087 40.019438 0.837397 1.515868 0.048333 0.002828 193382.000000 0 0 1
26.530072 31.200622 2.550387 41.034473 0.866125 1.508604 0.051440 -0.003833 -163670.000000 0 0 1
26.208872 31.428222 3.905887 41.108321 0.875707 1.475638 0.045588 -0.018984 581810.000000 0 0 1
27.296772 31.304422 4.855787 41.816973 0.853680 1.454414 0.040888 -0.016642 233941.000000 0 0 1
26.877172 30.889322 6.327387 41.431491 0.854741 1.417477 0.041956 -0.026367 -202386.000000 0 0 1
26.323072 29.635222 6.579387 40.180080 0.844519 1.406308 0.052553 -0.032110 81897.900000 0 0 1
27.128272 28.464722 6.417087 39.841719 0.809433 1.409027 0.068989 -0.040006 -122394.000000 0 0 1
26.373672 27.220222 6.851787 38.515686 0.801192 1.391948 0.095227 -0.039625 -490887.000000 0 0 1
25.330872 26.848222 6.021387 37.399695 0.814470 1.409092 0.062660 -0.042603 -608090.000000 0 0 1
24.618372 25.769822 6.489787 36.225203 0.808246 1.390673 0.069368 -0.038793 454170.000000 0 0 1
23.313772 25.438022 5.657087 34.966092 0.828943 1.408294 0.080301 -0.027042 682554.000000 0 0 1
23.596272 24.997622 4.313387 34.644920 0.814228 1.445970 0.094179 -0.031077 126751.000000 0 0 1
24.028572 25.978422 3.447687 35.554707 0.824370 1.473675 0.077422 -0.035600 -257017.000000 0 0 1
24.388372 25.513822 1.975487 35.350394 0.807947 1.514884 0.082494 -0.024897 1411560.000000 0 0 1
25.722672 24.926422 1.807787 35.864334 0.769679 1.520369 0.059280 -0.000173 1576230.000000 0 0 1
25.949672 24.593122 0.470687 35.755121 0.758565 1.557632 0.062922 -0.007991 -946115.000000 0 0 1
27.231772 23.887322 0.121887 36.224141 0.720067 1.567432 0.087699 -0.008511 -1233390.000000 0 0 1
28.334872 24.783422 0.272787 37.645151 0.718638 1.563550 0.110298 -0.011950 681127.000000 0 0 1
29.612072 24.341722 -0.160513 38.333014 0.688024 1.574984 0.099561 0.001946 826371.000000 0 0 1
30.257872 23.078922 0.601187 38.059649 0.651606 1.555000 0.079295 -0.001351 -911834.000000 0 0 1
29.536872 21.899422 0.347087 36.771347 0.637992 1.561357 0.071340 -0.004571 86129.900000 0 0 1
29.666472 20.894822 1.343287 36.311122 0.613622 1.533794 0.068669 -0.010102 -1829850.000000 0 0 1
28.352672 20.410722 1.781287 34.980631 0.623949 1.519852 0.068927 -0.023248 -1651780.000000 0 0 1
27.685072 19.673722 0.777687 33.972391 0.617822 1.547903 0.087508 -0.035519 322927.000000 0 0 1
26.479672 19.124722 1.277687 32.688844 0.625498 1.531700 0.118487 -0.038948 -118042.000000 0 0 1
25.828472 18.166222 0.225287 31.578036 0.612965 1.563662 0.107983 -0.031735 499201.000000 0 0 1
24.509272 17.816322 0.682287 30.308270 0.628567 1.548283 0.128937 -0.030924 591533.000000 0 0 1
24.015172 16.841122 -0.206913 29.332485 0.611578 1.577850 0.144269 -0.044156 184403.000000 0 0 1
22.477972 16.650422 -0.146713 27.973511 0.637551 1.576041 0.122585 -0.027840 -246429.000000 0 0 1
21.941872 15.750422 -1.066513 27.030704 0.622589 1.610262 0.137486 -0.029915 410335.000000 0 0 1
20.603072 15.385222 -0.735513 25.724164 0.641414 1.599393 0.153757 -0.032763 330694.000000 0 0 1
19.477972 16.218122 -1.350013 25.381911 0.694328 1.624009 0.174093 -0.037862 -729185.000000 0 0 1
19.281172 17.446222 -0.701013 26.012029 0.735478 1.597749 0.146711 -0.028734 -60136.100000 0 0 1
18.336372 18.302822 -1.281013 25.939484 0.784482 1.620201 0.129548 -0.037321 -105813.000000 0 0 1
18.444872 19.776922 -0.851613 27.056703 0.820235 1.602277 0.130711 -0.032055 -43022.900000 0 0 1
17.979772 19.847422 0.480587 26.784759 0.834731 1.552853 0.134556 -0.026586 -21184.000000 0 0 1
18.059372 21.157422 1.061587 27.837104 0.864232 1.532651 0.139170 -0.032315 1194.350000 0 0 1
16.941872 22.160022 0.678387 27.902577 0.918064 1.546481 0.121648 -0.041550 226692.000000 0 0 1
15.677772 21.834522 1.234887 26.908434 0.948074 1.524888 0.115420 -0.038242 22270.000000 0 0 1
14.726472 22.820522 0.853887 27.173044 0.997720 1.539367 0.095553 -0.039084 116591.000000 0 0 1
13.323672 22.467722 1.392787 26.158337 1.035529 1.517527 0.082353 -0.043027 51473.200000 0 0 1
13.241272 22.842422 2.784287 26.549195 1.045453 1.465730 0.080044 -0.029084 19120.400000 0 0 1
11.904072 23.099022 3.150787 26.176310 1.094945 1.450136 0.061204 -0.031825 162748.000000 0 0 1
11.815972 23.445622 4.606687 26.655880 1.103975 1.397104 0.085260 -0.035154 -42675.100000 0 0 1
12.158572 22.406222 5.487087 26.076384 1.073619 1.358788 0.100426 -0.050084 72310.000000 0 0 1
11.360372 22.405422 6.676087 25.992905 1.101535 1.311042 0.083324 -0.038776 -382979.000000 0 0 1
11.812072 21.288622 7.678287 25.528152 1.064234 1.265289 0.094298 -0.041854 663851.000000 0 0 1
13.107372 21.332422 8.265887 26.366652 1.019831 1.251922 0.116614 -0.048203 1418100.000000 0 0 1
14.252772 21.262922 7.361487 26.635406 0.980275 1.290771 0.121612 -0.040169 353502.000000 0 0 1
15.618272 21.352322 8.053587 27.653433 0.939270 1.275281 0.129456 -0.041990 -545975.000000 0 0 1
16.009472 20.107022 8.659787 27.121715 0.898369 1.245812 0.136800 -0.041391 -38463.900000 0 0 1
17.366772 20.072222 9.018087 28.032566 0.857536 1.243272 0.123882 -0.049463 265.312000 0 0 1
17.772872 20.886222 10.259887 29.280959 0.865758 1.212804 0.096726 -0.034651 -796117.000000 0 0 1
17.063472 20.436422 11.359087 28.945436 0.875102 1.167523 0.104677 -0.049937 -82240.700000 0 0 1
17.063672 21.320422 12.458987 30.015923 0.895846 1.142766 0.101933 -0.046934 -31771.900000 0 0 1
18.023372 20.952922 13.637087 30.819426 0.860419 1.112430 0.124228 -0.034731 923013.000000 0 0 1
19.394572 21.184522 13.268487 31.638365 0.829480 1.138034 0.119562 -0.038867 435607.000000 0 0 1
20.195472 20.862222 14.386687 32.404724 0.801636 1.110773 0.108785 -0.044867 287138.000000 0 0 1
21.613272 21.494522 14.435387 33.727265 0.782643 1.128514 0.115558 -0.049360 445792.000000 0 0 1
22.496272 20.947022 13.456387 33.554945 0.749752 1.158160 0.126193 -0.050454 -95574.600000 0 0 1
23.663672 21.735422 13.410787 34.817340 0.742950 1.175398 0.149736 -0.060572 -549126.000000 0 0 1
24.780172 21.180522 12.550987 34.931343 0.707238 1.203274 0.152586 -0.055610 -511081.000000 0 0 1
24.490372 21.245222 11.176087 34.293479 0.714562 1.238838 0.161020 -0.051463 229559.000000 0 0 1
25.368372 20.457922 10.379987 34.202705 0.678652 1.262449 0.170856 -0.068977 -54856.100000 0 0 1
25.398272 20.875222 8.858587 34.048813 0.687962 1.307595 0.140813 -0.056826 -14652.800000 0 0 1
25.704472 22.228022 8.683987 35.074442 0.712997 1.320607 0.112924 -0.040518 -646150.000000 0 0 1
27.043772 22.543722 8.548687 36.230720 0.694896 1.332599 0.102206 -0.047306 -1100630.000000 0 0 1
27.426072 23.883922 9.201087 37.513880 0.716473 1.322997 0.135334 -0.050742 517845.000000 0 0 1
28.771572 24.278522 8.893487 38.682607 0.700905 1.338812 0.122758 -0.041985 754532.000000 0 0 1
28.952172 25.518522 9.487787 39.742186 0.722445 1.329735 0.131858 -0.041810 -208778.000000 0 0 1
30.285372 26.161122 9.111687 41.044255 0.712463 1.346935 0.125810 -0.043884 -192574.000000 0 0 1
30.219572 26.824822 7.856887 41.164600 0.725958 1.378753 0.118959 -0.043417 670519.000000 0 0 1
31.520352 27.283122 7.473287 42.352702 0.713465 1.393414 0.132890 -0.041146 568760.000000 0 0 1
31.530932 28.066322 6.158187 42.659599 0.727330 1.425934 0.151096 -0.015802 33604.600000 0 0 1
31.095112 29.398822 6.256087 43.247374 0.757365 1.425629 0.148570 -0.021549 98506.200000 0 0 1
31.030772 30.056222 5.030687 43.492449 0.769446 1.454869 0.146184 -0.010448 -90872.900000 0 0 1
31.150272 31.571522 5.153287 44.650384 0.792114 1.455124 0.096251 -0.002235 194551.000000 0 0 1
30.130672 32.127422 5.979287 44.449753 0.817459 1.435869 0.094213 -0.017231 193573.000000 0 0 1
30.293572 33.573522 6.042587 45.622305 0.836709 1.437958 0.073199 -0.005688 60828.300000 0 0 1
29.088972 -33.294049 6.724487 44.720026 -0.852704 1.419855 0.085482 -0.019398 -68290.500000 0 0 1
27.941272 -33.329449 5.940287 43.895944 -0.873113 1.435053 0.071319 -0.014815 -1396210.000000 0 0 1
26.930972 -32.517149 6.369787 42.699139 -0.879090 1.421059 0.063825 -0.022341 -163730.000000 0 0 1
25.722372 -32.506549 5.377687 41.799948 -0.901384 1.441786 0.068036 -0.020693 393500.000000 0 0 1
26.032972 -31.695249 4.247787 41.235278 -0.883171 1.467600 0.040107 0.000799 -104332.000000 0 0 1
25.017072 -31.763749 3.271387 40.564660 -0.903663 1.490062 0.047832 -0.009808 -91914.700000 0 0 1
25.465172 -31.184749 1.860987 40.304179 -0.886021 1.524606 0.054816 0.006632 -384605.000000 0 0 1
25.643972 -29.757449 1.865587 39.326829 -0.859511 1.523340 0.066784 0.008199 -56146.800000 0 0 1
26.237972 -29.278149 0.702487 39.320919 -0.840106 1.552930 0.048659 0.013203 -588784.000000 0 0 1
26.418272 -27.711249 0.770587 38.294024 -0.809280 1.550672 0.060830 0.000597 399796.000000 0 0 1
25.256872 -26.876249 0.835287 36.890921 -0.816451 1.548152 0.060300 0.002980 489358.000000 0 0 1
24.394972 -26.852749 -0.331113 36.280772 -0.833320 1.579923 0.064103 0.004503 189266.000000 0 0 1
23.199672 -25.921049 -0.089213 34.786974 -0.840743 1.573361 0.055229 0.014225 -477158.000000 0 0 1
23.501572 -24.554649 0.085387 33.989145 -0.807308 1.568284 0.069979 -0.004440 -364381.000000 0 0 1
23.769972 -24.098149 1.421887 33.878520 -0.792254 1.528814 0.061888 -0.002041 -47299.300000 0 0 1
22.567772 -23.732149 2.335187 32.832489 -0.810541 1.499612 0.060338 -0.007723 -16851.400000 0 0 1
22.719172 -22.923349 3.469387 32.460397 -0.789872 1.463711 0.064424 -0.018513 -244548.000000 0 0 1
21.467472 -22.746749 4.110087 31.546153 -0.814324 1.440137 0.059021 -0.015629 175092.000000 0 0 1
21.462172 -21.916749 5.452687 31.156067 -0.795877 1.394878 0.055040 -0.021367 -558262.000000 0 0 1
21.624672 -20.513449 5.316587 30.276957 -0.759033 1.394283 0.092378 -0.018314 81375.000000 0 0 1
20.636972 -19.747549 4.637687 28.937147 -0.763378 1.409835 0.064069 -0.011203 -439100.000000 0 0 1
20.593872 -18.314749 5.264887 28.058094 -0.726889 1.382035 0.075238 -0.009562 110311.000000 0 0 1
20.086772 -18.171549 6.576587 27.873556 -0.735380 1.332607 0.109113 -0.025916 -122540.000000 0 0 1
18.678572 -18.217449 6.659387 26.927903 -0.772901 1.320899 0.084966 -0.014799 37086.100000 0 0 1
20.040433 -25.819758 -12.062713 34.839459 -0.910758 1.924353 0.137778 -0.049703 168552.000000 0 0 1
19.814833 -24.510178 -12.526713 33.915998 -0.890935 1.949101 0.169593 -0.049015 1493080.000000 0 0 1
18.422833 -24.140878 -12.830313 32.966645 -0.918939 1.970549 0.129410 -0.050367 1672550.000000 0 0 1
18.300233 -22.607378 -13.185913 31.935252 -0.890301 1.996427 0.126333 -0.048768 -183089.000000 0 0 1
18.334333 -21.685678 -12.059013 30.851842 -0.868945 1.972371 0.141413 -0.057039 -762472.000000 0 0 1
19.538833 -21.575878 -11.361113 31.246750 -0.834903 1.942919 0.125377 -0.055935 -923988.000000 0 0 1
19.533433 -22.235178 -9.961713 31.228094 -0.849992 1.895469 0.142879 -0.043290 38206.500000 0 0 1
18.771333 -21.662778 -8.901913 30.014712 -0.856787 1.871911 0.132659 -0.047865 776737.000000 0 0 1
17.370533 -21.913478 -9.088213 29.402917 -0.900530 1.885035 0.125336 -0.028122 -84480.000000 0 0 1
16.456533 -21.344978 -8.036213 28.124834 -0.914003 1.860568 0.105628 -0.034301 -1531540.000000 0 0 1
16.320933 -19.925978 -8.056813 26.987584 -0.884530 1.873956 0.090318 -0.038310 641900.000000 0 0 1
15.314533 -19.439778 -7.141413 25.757322 -0.903543 1.851735 0.086750 -0.042477 -300763.000000 0 0 1
13.930033 -19.629278 -7.705613 25.273125 -0.953619 1.880623 0.066959 -0.025450 -1682600.000000 0 0 1
13.443233 -20.940778 -7.816213 26.083134 -1.000091 1.875138 0.070643 -0.030536 -505145.000000 0 0 1
12.074733 -20.900778 -8.152713 25.477606 -1.046923 1.896521 0.067277 -0.028816 203693.000000 0 0 1
11.333533 -22.279278 -7.934313 26.225341 -1.100211 1.878157 0.064599 -0.026105 16101.100000 0 0 1
11.350433 -22.560278 -6.537813 26.087190 -1.104659 1.824111 0.075825 -0.028753 145730.000000 0 0 1
10.789233 -23.811878 -6.210013 26.869636 -1.145365 1.804021 0.058405 -0.024338 143798.000000 0 0 1
11.206733 -24.157178 -4.703013 27.042160 -1.136436 1.745599 0.079651 -0.030155 288874.000000 0 0 1
10.579133 -25.279088 -4.036413 27.699151 -1.174450 1.717040 0.063887 -0.027612 496775.000000 0 0 1
11.378533 -25.846448 -2.953413 28.394234 -1.156092 1.674999 0.065882 -0.025954 234278.000000 0 0 1
10.499033 -26.684318 -2.047813 28.748497 -1.195946 1.642089 0.074794 -0.027605 876634.000000 0 0 1
9.501133 -25.841158 -1.387313 27.567401 -1.218463 1.621142 0.060749 -0.019976 589182.000000 0 0 1
8.819133 -26.560368 -0.372413 27.988729 -1.250209 1.584103 0.064818 -0.027793 -83723.400000 0 0 1
8.009133 -25.717268 0.573487 26.941659 -1.268886 1.549508 0.074223 -0.024529 30726.300000 0 0 1
6.723833 -25.289568 0.151687 26.168592 -1.310934 1.565000 0.075540 -0.025874 -50354.800000 0 0 1
5.967033 -24.990008 1.315787 25.726198 -1.336408 1.519628 0.082204 -0.026625 -783683.000000 0 0 1
4.553433 -24.526678 1.047787 24.967770 -1.387234 1.528818 0.076036 -0.030945 -821538.000000 0 1 0
3.717933 -25.624408 0.789287 25.904754 -1.426708 1.540323 0.083324 -0.030754 -1949970.000000 0 0 1
2.425933 -25.252458 0.956287 25.386734 -1.475023 1.533119 0.088610 -0.031378 -1018200.000000 0 0 1
1.272733 -26.087088 0.308987 26.119944 -1.522047 1.558966 0.111409 -0.026695 390175.000000 0 0 1
1.002533 -27.324388 0.947987 27.359202 -1.534123 1.536140 0.113760 -0.023513 321460.000000 0 0 1
1.964233 -28.396618 0.914987 28.479174 -1.501735 1.538662 0.093256 -0.020422 265737.000000 0 0 1
1.347733 -29.527448 1.811387 29.613640 -1.525185 1.509591 0.145298 -0.030085 453203.000000 0 0 1
1.323533 -29.298658 3.236187 29.506542 -1.525653 1.460898 0.133864 -0.031368 97581.900000 0 0 1
0.612933 -30.320468 3.917487 30.578639 -1.550584 1.442331 0.166555 -0.039102 55567.700000 0 0 1
0.922733 -30.258668 5.435587 30.756853 -1.540311 1.393136 0.163671 -0.043968 -1174470.000000 0 0 1
2.222933 -30.570138 5.756887 31.186800 -1.498208 1.385138 0.096294 -0.021351 -1080510.000000 0 0 1
2.459833 -30.309038 7.112387 31.229387 -1.489815 1.341033 0.101156 -0.025390 -264789.000000 0 0 1
3.938533 -30.569448 7.396287 31.697133 -1.442663 1.335283 0.097963 -0.020942 -293446.000000 0 0 1
4.257633 -31.954828 7.376187 33.070328 -1.438337 1.345859 0.100814 -0.021794 -597277.000000 0 0 1
5.597333 -32.190548 7.694787 33.567414 -1.398636 1.339506 0.076878 -0.014044 -217512.000000 0 0 1
5.763033 -33.685378 7.582787 35.005941 -1.401353 1.352451 0.072421 -0.009226 11449.600000 0 0 1
5.726633 33.476819 6.258887 34.534989 1.401374 1.388556 0.065294 -0.003758 -98418.300000 0 0 1
5.803333 32.050299 6.094287 33.136697 1.391668 1.385830 0.045275 -0.006962 -455329.000000 0 0 1
5.927833 31.594728 4.596687 32.472998 1.385332 1.428765 0.054382 -0.010199 1626070.000000 0 0 1
7.287433 31.425673 4.063887 32.514532 1.342930 1.445482 0.052353 -0.006130 1161210.000000 0 0 1
7.898333 30.236803 4.394887 31.558881 1.315290 1.431082 0.044908 -0.010648 110683.000000 0 0 1
9.307733 30.146093 3.746887 31.772000 1.271328 1.452591 0.035366 -0.007572 610303.000000 0 0 1
10.328633 30.988413 4.255187 32.940386 1.249070 1.441256 0.036938 -0.008613 311090.000000 0 0 1
11.533233 31.026913 3.484787 33.284059 1.214907 1.465906 0.036019 -0.016826 225307.000000 0 0 1
12.701533 31.405253 4.380287 34.158539 1.186468 1.442208 0.040621 -0.019583 -498281.000000 0 0 1
13.247233 30.440453 5.249987 33.610605 1.160331 1.413954 0.046200 -0.023597 -7735.320000 0 0 1
14.270833 30.943283 6.082187 34.614108 1.138673 1.394165 0.075080 -0.030983 -25898.100000 0 0 1
14.971233 29.827253 6.873587 34.074170 1.105605 1.367678 0.067523 -0.026901 -470853.000000 0 0 1
14.270833 29.404903 8.013487 33.652949 1.118960 1.330365 0.056754 -0.017890 -28389.200000 0 0 1
15.070333 28.483793 8.728487 33.386044 1.084153 1.306281 0.050353 -0.027960 255776.000000 0 0 1
14.831033 28.569683 10.218087 33.772706 1.091972 1.263425 0.021623 -0.005150 -48353.700000 0 0 1
15.446933 29.698763 10.782487 35.169395 1.091182 1.259191 0.011417 -0.012527 57385.500000 0 0 1
15.043433 29.812473 12.122587 35.525281 1.103474 1.222562 -0.006863 -0.004172 -462182.000000 0 0 1
15.796333 30.861703 12.927687 37.001270 1.097720 1.213882 -0.009134 -0.002899 602409.000000 0 0 1
17.063733 30.353523 13.386987 37.305747 1.058660 1.203766 -0.001687 -0.006479 647901.000000 0 0 1
17.595533 31.234973 14.380587 38.626774 1.057778 1.189315 0.014870 -0.003251 -156262.000000 0 0 1
18.756933 30.525593 15.125887 38.889933 1.019808 1.171315 0.024201 -0.009371 -710154.000000 0 0 1
19.888633 30.373133 14.356387 39.040886 0.991047 1.194233 0.046223 -0.016342 -694448.000000 0 0 1
20.492133 29.135813 14.643187 38.512934 0.957838 1.180768 0.030718 -0.007319 -715772.000000 0 0 1
21.808133 28.747593 13.966387 38.692102 0.921809 1.201497 0.075288 -0.021154 -775962.000000 0 0 1
22.804933 28.996873 14.914187 39.790911 0.904365 1.186600 0.102269 -0.027427 547597.000000 0 0 1
24.107633 28.767883 14.280787 40.158560 0.873307 1.207230 0.121240 -0.030613 1266930.000000 0 0 1
25.294033 29.098103 15.213187 41.447905 0.855222 1.194968 0.163174 -0.042917 4287.100000 0 0 1
25.793133 27.938283 15.941187 41.230509 0.825301 1.173816 0.152229 -0.032870 29345.200000 0 0 1
26.615433 28.289043 17.029487 42.410549 0.815871 1.157600 0.132157 -0.034420 107747.000000 0 0 1
27.637333 27.178323 17.451587 42.509309 0.777025 1.147755 0.089497 -0.018433 -198125.000000 0 0 1
27.123533 25.978853 17.917187 41.612648 0.763845 1.125671 0.100767 -0.015574 -105751.000000 0 0 1
26.915533 25.963403 19.283187 42.075950 0.767394 1.094721 0.112805 -0.018501 -17291.800000 0 0 1
26.377933 24.616183 19.821787 41.166189 0.750864 1.068424 0.115238 -0.018937 213981.000000 0 0 1
27.400333 23.634293 19.750587 41.224310 0.711738 1.071167 0.088988 -0.023216 206053.000000 0 0 1
26.942733 22.346593 20.147087 40.387946 0.692419 1.048538 0.090497 -0.021533 17045.300000 0 0 1
27.811633 21.116293 19.855287 40.169854 0.649402 1.053786 0.060072 -0.024840 78595.500000 0 0 1
26.972733 19.955693 20.009287 39.065709 0.636971 1.033057 0.045186 -0.010780 432449.000000 0 0 1
27.575933 18.675893 19.746887 38.718996 0.595296 1.035606 0.051215 -0.021490 448587.000000 0 0 1
28.383033 18.088093 21.002987 39.672423 0.567385 1.012891 0.109774 -0.013293 642585.000000 0 0 1
27.502533 17.860093 22.132787 39.563020 0.575952 0.977097 0.075572 -0.012647 424959.000000 0 0 1
28.124033 17.405193 23.322787 40.470414 0.554181 0.956612 0.123032 -0.018717 57581.600000 0 0 1
27.092533 16.773593 24.327787 40.089899 0.554362 0.918729 0.103095 -0.007156 316929.000000 0 0 1
26.891733 15.409593 24.010687 39.206300 0.520348 0.911679 0.097185 -0.016894 -615879.000000 0 0 1
25.801833 14.870693 24.643787 38.654733 0.522843 0.879500 0.093053 -0.019498 -732508.000000 0 0 1
25.287533 13.517793 24.070787 37.437853 0.490915 0.872448 0.094525 -0.020125 652104.000000 0 0 1
24.017733 13.101293 24.593487 36.787702 0.499370 0.838573 0.070684 -0.021615 804612.000000 0 0 1
23.417133 12.040293 23.842987 35.522089 0.474916 0.834949 0.083183 -0.015716 815863.000000 0 0 1
22.017633 11.543893 24.363487 34.808291 0.482900 0.795492 0.097397 -0.023928 615463.000000 0 0 1
21.018733 12.526293 24.226887 34.433083 0.537443 0.790355 0.121534 -0.024876 148338.000000 0 0 1
19.735933 11.894993 24.189387 33.408448 0.542408 0.761140 0.131370 -0.029522 294235.000000 0 0 1
18.513633 12.802093 24.126487 32.995994 0.604995 0.750725 0.119553 -0.037095 -267045.000000 0 0 1
18.306433 13.415793 25.379087 34.047130 0.632432 0.729646 0.141373 -0.029885 1290220.000000 0 0 1
17.025633 14.125693 25.401587 33.684537 0.692574 0.716510 0.146106 -0.031502 1224270.000000 0 0 1
16.614833 14.482593 26.821987 34.716238 0.716939 0.687860 0.132856 -0.023556 -360176.000000 0 0 1
16.204033 13.316393 27.513887 34.596402 0.687890 0.651324 0.142547 -0.023595 8589.550000 0 0 1
16.290433 13.309793 28.911187 35.754518 0.685040 0.629024 0.122503 -0.031344 -199976.000000 0 0 1
17.737533 13.126393 29.436187 36.788740 0.637093 0.643266 0.122997 -0.025010 -179988.000000 0 0 1
18.452833 14.332793 29.209187 37.404714 0.660387 0.674698 0.141019 -0.040532 -1755770.000000 0 0 1
19.762333 13.985093 29.406387 38.090265 0.615851 0.688786 0.127751 -0.025664 -1613480.000000 0 0 1
20.613733 15.261593 29.003387 38.717421 0.637303 0.724087 0.142275 -0.021363 -288438.000000 0 0 1
20.517533 15.831793 27.687287 37.923617 0.657197 0.752357 0.151950 -0.031698 294728.000000 0 0 1
20.913733 14.884393 26.683287 37.026034 0.618538 0.766038 0.136593 -0.028793 -188029.000000 0 0 1
20.894733 15.637193 25.295387 36.345128 0.642463 0.801016 0.125399 -0.038383 -452826.000000 0 0 1
22.028033 16.438893 25.159887 37.262466 0.641111 0.829551 0.115237 -0.028569 -175905.000000 0 0 1
21.968933 17.210793 24.003787 36.810695 0.664546 0.860462 0.099696 -0.031119 -772751.000000 0 0 1
23.325233 17.791793 23.698087 37.712249 0.651624 0.891312 0.095393 -0.027861 -1031890.000000 0 0 1
23.346033 18.195093 22.330487 37.077612 0.662032 0.924463 0.102671 -0.030380 -628185.000000 0 0 1
24.438933 18.960493 21.968287 37.938996 0.659829 0.953243 0.072036 -0.032101 -824156.000000 0 0 1
24.594533 20.328993 22.540187 39.066854 0.690731 0.955789 0.091806 -0.033129 -135377.000000 0 0 1
23.554333 21.214493 22.137687 38.664435 0.733181 0.961172 0.105322 -0.026289 229394.000000 0 0 1
23.633633 22.445693 22.894387 39.831027 0.759624 0.958452 0.130316 -0.027655 348805.000000 0 0 1
22.585233 23.531153 22.507887 39.628436 0.805907 0.966755 0.141259 -0.033067 133620.000000 0 0 1
22.838033 24.003273 21.217987 39.343816 0.810269 1.001195 0.151387 -0.029475 66447.200000 0 0 1
22.251233 25.250913 20.886687 39.610348 0.848463 1.015372 0.145110 -0.032951 -204865.000000 0 0 1
22.764533 25.905953 19.586287 39.660623 0.849853 1.054288 0.144031 -0.036753 -89396.100000 0 0 1
22.364233 25.213823 18.436687 38.416237 0.845220 1.070234 0.122784 -0.035853 67717.200000 0 0 1
22.908533 25.901323 17.353987 38.689021 0.846637 1.105653 0.114028 -0.048235 -6879.830000 0 0 1
22.693633 25.271423 15.938687 37.519163 0.839090 1.132039 0.083297 -0.025119 -585233.000000 0 0 1
21.332033 25.307903 15.608887 36.594849 0.870439 1.130141 0.071519 -0.024570 -420082.000000 0 0 1
21.149333 24.987193 14.261587 35.707800 0.868392 1.159937 0.082770 -0.019944 -316995.000000 0 0 1
19.668733 24.868113 13.889687 34.615106 0.901615 1.157903 0.069738 -0.018821 -863506.000000 0 0 1
19.049633 26.117393 13.703987 35.111338 0.940620 1.169838 0.039507 -0.011981 29807.000000 0 0 1
17.963633 26.347453 14.584387 35.065435 0.972391 1.141843 0.049992 0.000408 1227620.000000 0 0 1
16.560233 25.656453 14.266987 33.705220 0.997619 1.133726 0.039355 -0.010636 230677.000000 0 0 1
16.468133 24.225033 14.374487 32.629397 0.973758 1.114599 0.038043 -0.013919 -197092.000000 0 0 1
16.408033 23.592183 15.635887 32.715373 0.963106 1.072492 0.048001 -0.010681 -221672.000000 0 0 1
15.320533 24.084583 16.604087 33.022441 1.004245 1.043947 0.087262 -0.026163 -285216.000000 0 0 1
15.597733 25.399933 17.028187 34.327905 1.020084 1.051758 0.062963 -0.022889 -507502.000000 0 0 1
14.528033 26.022663 17.663187 34.644349 1.061615 1.035794 0.052959 -0.035195 -355276.000000 0 0 1
14.913533 27.393023 18.390887 36.207954 1.072241 1.038023 0.061784 -0.033747 -263629.000000 0 0 1
15.261733 28.430363 17.502587 36.708945 1.078135 1.073793 0.044216 -0.018072 280726.000000 0 0 1
15.683933 29.576363 18.209387 38.109432 1.083214 1.072627 0.021541 -0.009287 -602413.000000 0 0 1
15.725133 30.845533 17.441587 38.767715 1.099337 1.104143 -0.010528 -0.002565 -274124.000000 0 0 1
14.470933 31.468733 17.245087 38.692145 1.139780 1.108840 0.005279 -0.005260 83307.600000 0 0 1
14.684433 32.697895 16.622187 39.510531 1.148696 1.136577 -0.006197 0.000508 631485.000000 0 0 1
13.347333 33.310084 16.019187 39.297931 1.189687 1.150934 0.017971 -0.003020 742485.000000 0 0 1
13.423633 -32.899648 15.525387 38.776519 -1.183397 1.158864 0.047484 -0.019407 -163573.000000 0 0 1
13.873933 -31.801828 16.363187 38.361389 -1.159425 1.130117 0.032803 -0.011836 -174738.000000 0 0 1
13.477533 -31.653798 17.867487 38.766660 -1.168266 1.091789 0.036706 -0.012764 -74708.700000 0 0 1
14.124733 -32.563138 18.738087 40.137040 -1.161526 1.085068 0.034248 -0.011287 110571.000000 0 0 1
13.731733 -32.269778 20.030287 40.387021 -1.168478 1.051858 0.035621 -0.026261 -14819.000000 0 0 1
14.786333 -32.835248 21.035087 41.704485 -1.147677 1.042128 0.062959 -0.016504 -379440.000000 0 0 1
16.013533 -32.179888 20.961787 41.609794 -1.109050 1.042838 0.068047 -0.015919 -1116770.000000 0 0 1
16.721733 -32.594838 22.047387 42.756603 -1.096789 1.029032 0.061936 -0.012375 -330488.000000 0 0 1
18.226133 -32.208678 21.991587 43.049051 -1.055846 1.034624 0.099758 -0.021100 430262.000000 0 0 1
18.331233 -30.769658 22.144887 42.109405 -1.033503 1.017036 0.096567 -0.025118 -13217.100000 0 0 1
19.697233 -30.514028 21.930387 42.426746 -0.997581 1.027571 0.097340 -0.024176 -32301.000000 0 0 1
-4.920267 13.051022 18.129154 22.873662 -1.210271 0.655772 0.025852 -0.004354 -199107.000000 0 1 0
-4.627367 14.361122 17.637154 23.210419 -1.259086 0.707666 0.028304 -0.006644 -311138.000000 0 1 0
-5.740267 14.967522 17.061654 23.411053 -1.204582 0.754249 0.029819 -0.012143 -588589.000000 0 1 0
-5.533567 16.516122 16.964354 24.314439 -1.247510 0.798605 0.046699 -0.021053 -111269.000000 0 1 0
-5.368667 17.183022 18.169554 25.577559 -1.267966 0.780771 0.051809 -0.008176 147125.000000 0 0 1
-5.155867 18.544622 17.992854 26.348221 -1.299620 0.819089 0.064349 -0.012461 -451338.000000 0 0 1
-4.628867 19.130922 19.304654 27.569698 -1.333401 0.795101 0.076056 -0.011164 287184.000000 0 0 1
-5.568767 19.312422 20.359654 28.609374 -1.290060 0.778963 0.061860 -0.005134 308388.000000 0 0 1
-4.858767 20.064022 21.311354 29.670632 -1.333207 0.769492 0.074327 -0.001566 110309.000000 0 0 1
-5.664067 20.255422 22.613624 30.882677 -1.298129 0.749187 0.050456 -0.001611 79422.700000 0 0 1
-5.887767 18.997122 23.272694 30.613309 -1.270255 0.707153 0.040132 -0.009202 -243506.000000 0 0 1
-6.496767 19.091422 24.524244 31.751046 -1.242791 0.688198 0.026771 -0.010110 -52982.000000 0 0 1
-5.680467 19.756322 25.685314 32.898561 -1.290822 0.674943 0.024256 -0.006760 -597142.000000 0 0 1
-5.504367 21.161422 25.477994 33.574276 -1.316322 0.709244 0.038305 -0.014218 679535.000000 0 0 1
-4.447767 21.710222 26.290614 34.384775 -1.368723 0.700375 0.053566 -0.018293 474920.000000 0 0 1
-2.980667 21.343922 26.078604 33.831065 -1.432044 0.690625 0.083357 -0.017747 -788583.000000 0 0 1
-2.556767 20.092722 26.656184 33.478451 -1.444228 0.649776 0.090149 -0.019277 192464.000000 0 0 1
-1.309467 19.785622 26.052304 32.740007 -1.504710 0.650579 0.090729 -0.013762 231310.000000 0 0 1
-0.494867 18.638622 26.728894 32.589521 -1.544252 0.609091 0.093093 -0.012342 -461819.000000 0 0 1
-0.753267 17.282222 26.405164 31.566997 -1.527238 0.579968 0.092693 -0.006936 -223798.000000 0 0 1
0.184633 16.317922 26.842614 31.413923 1.559482 0.546245 0.090709 -0.016742 487870.000000 0 0 1
1.639333 16.400822 26.262544 31.006380 1.471173 0.560472 0.094142 -0.009462 39568.600000 0 0 1
1.900133 16.007422 24.922184 29.681026 1.452646 0.574126 0.065897 0.000853 -245062.000000 0 0 1
1.618033 14.650422 24.680264 28.746623 1.460799 0.538372 0.082954 -0.003489 -62708.000000 0 0 1
1.520433 14.239022 23.201574 27.264895 1.464420 0.552969 0.084150 -0.008971 433589.000000 0 0 1
2.824133 14.161022 22.652884 26.863794 1.373949 0.567496 0.056074 -0.009966 52228.300000 0 0 1
2.795533 13.450122 21.430754 25.455805 1.365870 0.570037 0.052495 -0.014455 23838.900000 0 0 1
4.236833 13.278522 20.927254 25.143982 1.261933 0.587558 0.051979 -0.016859 -133993.000000 0 0 1
4.577133 14.340422 20.087454 25.101865 1.261840 0.643105 0.052282 -0.015283 -268785.000000 0 0 1
5.974633 14.412622 19.923654 25.305570 1.177817 0.664342 0.051349 -0.021912 -102861.000000 0 0 1
6.447033 15.468822 18.885954 25.249315 1.175912 0.725785 0.059694 -0.023083 -42720.000000 0 0 1
6.159833 15.106522 17.582654 23.985418 1.183618 0.747992 0.067569 -0.037438 197755.000000 0 1 0
6.658233 16.095322 16.666354 24.107235 1.178557 0.807451 0.070656 -0.033975 -154537.000000 0 1 0
6.746633 15.515822 15.217654 22.755983 1.160635 0.838294 0.069037 -0.030736 670733.000000 0 1 0
7.989333 14.921722 14.801154 22.484692 1.079219 0.852269 0.067766 -0.028834 662253.000000 0 1 0
8.230533 13.727022 15.487854 22.272099 1.030681 0.801830 0.071555 -0.028950 -249007.000000 0 1 0
9.320133 12.808722 14.848954 21.712201 0.941760 0.817703 0.078872 -0.037350 1052200.000000 0 1 0
10.609033 13.426722 15.025254 22.772498 0.902095 0.850246 0.076121 -0.039151 681138.000000 0 1 0
11.649333 12.777122 14.289854 22.431267 0.831536 0.880130 0.096215 -0.033097 845305.000000 0 1 0
12.969233 13.618022 14.288354 23.617971 0.809796 0.921058 0.100188 -0.027441 -1159.140000 0 1 0
13.809333 13.436522 15.407354 24.670313 0.771716 0.896267 0.108074 -0.038658 46921.300000 0 1 0
15.103533 13.971322 15.354954 25.672731 0.746477 0.929664 0.103805 -0.031981 -279579.000000 0 0 1
16.131833 13.205722 14.537554 25.415892 0.685988 0.961870 0.105735 -0.030865 -1360340.000000 0 0 1
17.377233 13.835922 14.536554 26.546419 0.672426 0.991315 0.103220 -0.038616 676238.000000 0 0 1
18.314233 13.254322 13.575254 26.369977 0.626467 1.030022 0.116577 -0.034805 447476.000000 0 0 1
19.677133 13.948422 13.481754 27.631607 0.616651 1.061102 0.102924 -0.033246 198868.000000 0 0 1
20.552633 13.588222 14.538654 28.608092 0.584169 1.037702 0.087299 -0.025654 1312780.000000 0 0 1
21.943033 13.969222 14.373654 29.719316 0.566907 1.065980 0.119153 -0.046972 1218480.000000 0 0 1
22.767633 13.667122 15.626254 30.811283 0.540631 1.038910 0.123204 -0.026323 -347796.000000 0 0 1
23.011033 12.268022 15.766254 30.472721 0.489804 1.026999 0.136992 -0.021053 344057.000000 0 0 1
23.663933 12.074422 17.004554 31.542483 0.471811 1.001428 0.104745 -0.021770 -208779.000000 0 0 1
23.967333 10.558922 17.306654 31.391785 0.414972 0.986861 0.131734 -0.016506 185051.000000 0 0 1
22.801033 9.795922 17.613554 30.431636 0.405783 0.953551 0.108732 0.000036 663362.000000 0 0 1
23.010833 8.436522 17.262354 29.977695 0.351415 0.957165 0.100095 -0.002258 -532374.000000 0 0 1
21.696633 7.679822 17.334854 28.813550 0.340202 0.925267 0.135395 -0.000676 -760907.000000 0 0 1
21.830633 6.311222 17.031054 28.398325 0.281426 0.927645 0.151359 -0.019801 23307.600000 0 0 1
20.810433 5.591422 17.650654 27.854689 0.262484 0.884510 0.165595 -0.022129 -524219.000000 0 0 1
20.694133 4.140022 17.157654 27.198750 0.197451 0.888180 0.186699 -0.019191 -358345.000000 0 0 1
20.003933 4.071022 15.905654 25.878956 0.200769 0.908896 0.203722 -0.030694 606557.000000 0 0 1
19.867333 2.738322 15.355454 25.258648 0.136967 0.917347 0.187750 -0.033107 -282082.000000 0 0 1
18.853833 1.813822 16.023654 24.809563 0.095909 0.868639 0.204145 -0.035028 -370935.000000 0 1 0
19.407333 1.179222 17.167754 25.937750 0.060687 0.847468 0.203464 -0.041779 960661.000000 0 0 1
18.367533 0.453722 17.841154 25.610133 0.024697 0.800087 0.174522 -0.035193 400981.000000 0 0 1
18.871733 -0.288678 19.102454 26.853852 -0.015296 0.779381 0.171799 -0.032364 17220.700000 0 0 1
19.628133 -1.452678 18.801454 27.218900 -0.073875 0.808271 0.176191 -0.027924 447493.000000 0 0 1
19.036333 -2.584678 19.458354 27.343922 -0.134951 0.779002 0.122005 -0.012469 182186.000000 0 0 1
19.208433 -3.898678 18.697154 27.087767 -0.200247 0.808971 0.114953 -0.008064 -81761.100000 0 0 1
18.701933 -3.764878 17.413254 25.829402 -0.198654 0.830964 0.150903 -0.020522 248361.000000 0 0 1
18.433033 -5.013478 16.814654 25.448855 -0.265559 0.849014 0.157169 -0.022968 -82012.300000 0 0 1
17.874533 -4.931778 15.326554 24.056696 -0.269213 0.880065 0.148429 -0.027256 802670.000000 0 1 0
16.522633 -4.432878 15.319054 22.963475 -0.262119 0.840480 0.142548 -0.031799 1021330.000000 0 1 0
15.888933 -4.414078 14.035254 21.654806 -0.270975 0.865663 0.132810 -0.037238 336204.000000 0 1 0
16.160233 -3.115378 13.211854 21.104781 -0.190444 0.894367 0.123952 -0.034871 29403.800000 0 1 0
15.394033 -2.031978 13.707454 20.712302 -0.131239 0.847576 0.123106 -0.024962 419490.000000 0 1 0
15.851733 -0.902278 13.070754 20.565411 -0.056858 0.882050 0.133236 -0.026032 17474.900000 0 1 0
14.762533 0.174222 13.213154 19.812879 0.011801 0.840759 0.131350 -0.018855 -474404.000000 0 1 0
15.062433 1.490622 12.844854 19.851678 0.098642 0.867099 0.134964 -0.019179 -346809.000000 0 1 0
15.882733 2.146722 13.740554 21.110955 0.134347 0.862062 0.161514 -0.026671 -777304.000000 0 1 0
16.112233 3.586122 13.346254 21.227030 0.219002 0.890866 0.138847 -0.025648 -499393.000000 0 1 0
15.019333 4.433422 13.429754 20.629927 0.287030 0.861916 0.111479 -0.018547 -146655.000000 0 1 0
15.281933 5.515922 12.559654 20.535524 0.346391 0.912707 0.138776 -0.032387 8343.230000 0 1 0
14.127933 6.515622 12.656154 20.055674 0.432118 0.887889 0.102295 -0.031448 -243261.000000 0 1 0
14.307933 7.669122 11.855654 20.101962 0.492035 0.940015 0.080984 -0.039091 427850.000000 0 1 0
13.252933 8.625422 11.952954 19.821989 0.576959 0.923521 0.058079 -0.036798 -134254.000000 0 1 0
13.449933 9.644522 13.093254 21.103336 0.622090 0.901499 0.053427 -0.041317 -124675.000000 0 1 0
13.375533 9.071122 14.352654 21.614551 0.595936 0.844604 0.085096 -0.040398 466602.000000 0 1 0
13.916033 9.924322 15.322754 22.955063 0.619502 0.839936 0.113781 -0.046910 -155608.000000 0 1 0
13.525433 9.374822 16.692154 23.440406 0.606097 0.778297 0.104313 -0.046464 -624840.000000 0 1 0
12.195433 9.506922 17.085154 23.043711 0.662145 0.735607 0.094155 -0.056106 -890130.000000 0 1 0
11.791733 8.868522 18.314754 23.518628 0.644842 0.678151 0.127100 -0.042867 -84113.700000 0 1 0
12.684233 9.158422 19.552154 25.041030 0.625360 0.674844 0.157225 -0.042783 -1057000.000000 0 0 1
13.916033 8.551422 19.429054 25.382492 0.551014 0.699054 0.183528 -0.059621 -952894.000000 0 0 1
14.602633 8.733022 20.665854 26.769013 0.538980 0.688804 0.160945 -0.037351 608064.000000 0 0 1
16.130433 8.361922 20.608254 27.473855 0.478254 0.722577 0.146208 -0.035511 312169.000000 0 0 1
16.849933 9.386122 20.060254 27.828642 0.508234 0.765770 0.156040 -0.036997 -501674.000000 0 0 1
17.802733 8.840122 19.167154 27.612766 0.460892 0.803570 0.124494 -0.022086 -213664.000000 0 0 1
18.671633 9.927822 18.555654 28.133677 0.488690 0.850572 0.136318 -0.027717 146078.000000 0 0 1
19.405033 10.767722 19.487354 29.533982 0.506592 0.850206 0.117945 -0.022216 461752.000000 0 0 1
20.125033 11.797722 18.897954 30.022256 0.530226 0.889932 0.098663 -0.020968 -21245.600000 0 0 1
21.147833 12.586622 19.747554 31.553443 0.536863 0.894582 0.099309 -0.016266 -190080.000000 0 0 1
20.553733 13.594722 20.566254 32.097402 0.584364 0.875328 0.091449 -0.022582 736151.000000 0 0 1
21.516933 14.251822 21.392154 33.521889 0.585011 0.878697 0.082326 -0.015068 474298.000000 0 0 1
22.638533 15.166422 20.803054 34.282511 0.590264 0.918752 0.056840 -0.020764 656823.000000 0 0 1
23.812933 14.362622 20.537454 34.570619 0.542728 0.934684 0.031576 -0.013174 714273.000000 0 0 1
24.901533 15.264022 20.330354 35.586514 0.549905 0.962715 0.027406 -0.022952 451397.000000 0 0 1
26.314833 14.638222 20.444554 36.396810 0.507646 0.974342 0.032688 -0.021383 198650.000000 0 0 1
26.705233 13.916522 19.280354 35.757112 0.480397 1.001305 0.071641 -0.034667 461872.000000 0 0 1
27.624033 12.839722 19.487754 36.162386 0.435095 1.001671 0.112851 -0.040959 226786.000000 0 0 1
27.839133 11.935022 18.283654 35.380136 0.405012 1.027714 0.168366 -0.046298 470526.000000 0 0 1
28.733333 12.469322 17.255054 35.760667 0.409441 1.067273 0.183165 -0.058394 718009.000000 0 0 1
28.990933 11.696222 16.100054 35.163725 0.383472 1.095210 0.233858 -0.070863 -539658.000000 0 0 1
27.897033 11.508122 15.061254 33.727180 0.391254 1.107878 0.216003 -0.067066 -462445.000000 0 0 1
27.573233 12.715422 14.424154 33.615790 0.432088 1.127313 0.237453 -0.064082 827196.000000 0 0 1
26.426533 12.479422 13.572054 32.222636 0.441186 1.136032 0.235951 -0.059672 708973.000000 0 0 1
26.021233 13.570022 12.607754 31.940656 0.480698 1.165029 0.215657 -0.064788 129233.000000 0 0 1
25.254233 14.626522 13.209654 32.034456 0.524963 1.145756 0.186886 -0.060729 314497.000000 0 0 1
25.284233 15.833822 12.449854 32.326478 0.559486 1.175449 0.183213 -0.057922 -397255.000000 0 0 1
24.235333 16.862322 12.827354 32.190531 0.607884 1.160935 0.164331 -0.056431 -695828.000000 0 0 1
22.958433 16.663622 12.303454 30.921528 0.627844 1.161577 0.175231 -0.073503 43150.300000 0 0 1
21.978933 17.513322 12.912454 30.927680 0.672801 1.140099 0.140800 -0.060929 -9418.190000 0 0 1
21.023633 18.188722 11.904454 30.241342 0.713227 1.166199 0.163559 -0.054509 146267.000000 0 0 1
19.944933 17.468222 11.340154 28.836404 0.719296 1.166624 0.147737 -0.053610 1185250.000000 0 0 1
18.778433 17.535222 12.227954 28.454110 0.751176 1.126588 0.129729 -0.043080 1436250.000000 0 0 1
17.396633 17.007922 11.696654 26.994887 0.774100 1.122655 0.121226 -0.031158 627612.000000 0 0 1
17.304233 15.633422 11.458054 25.983213 0.734715 1.114107 0.121831 -0.032507 1833690.000000 0 0 1
15.926533 15.362822 11.028954 24.724655 0.767384 1.108426 0.114751 -0.030932 1703380.000000 0 1 0
15.921633 14.042322 10.209754 23.556831 0.722761 1.122524 0.112221 -0.035880 -175499.000000 0 1 0
16.101633 12.898222 10.979554 23.370437 0.675381 1.081726 0.107666 -0.028563 393098.000000 0 1 0
16.177733 11.690922 10.139154 22.387477 0.625770 1.100788 0.087368 -0.024104 -50085.500000 0 1 0
16.686133 10.446122 10.954554 22.528887 0.559344 1.063009 0.108903 -0.034052 -1038470.000000 0 1 0
17.162333 9.433622 10.139054 22.053102 0.502590 1.093076 0.096839 -0.032862 381924.000000 0 1 0
17.867333 8.386922 10.800954 22.499836 0.438869 1.070089 0.104744 -0.035310 550212.000000 0 1 0
19.252333 8.753722 11.405054 24.028217 0.426742 1.076227 0.123998 -0.039219 -552110.000000 0 1 0
19.168733 9.638622 12.530454 24.846642 0.465909 1.042212 0.120862 -0.039351 311956.000000 0 1 0
20.349333 9.647222 13.349754 26.179766 0.442698 1.035697 0.145409 -0.034707 -310623.000000 0 0 1
19.964433 9.877722 14.831354 26.760363 0.459452 0.983361 0.113186 -0.020022 205455.000000 0 0 1
19.397233 8.699622 15.453354 26.281975 0.421604 0.942233 0.122163 -0.021494 921034.000000 0 0 1
18.061733 8.427622 14.999154 24.944451 0.436573 0.925666 0.132403 -0.032891 -93823.600000 0 1 0
17.626233 7.025622 15.430554 24.457012 0.379289 0.888051 0.171800 -0.041661 171553.000000 0 1 0
16.637033 7.000522 16.459754 24.427887 0.398290 0.831443 0.177547 -0.043029 206982.000000 0 1 0
16.154633 5.736822 16.754354 23.970641 0.341228 0.796864 0.168356 -0.028258 -616357.000000 0 1 0
14.845033 5.782822 17.574454 23.720823 0.371462 0.736406 0.150046 -0.032948 145076.000000 0 1 0
14.165133 4.558722 17.760154 23.170153 0.311359 0.697407 0.134729 -0.032812 520290.000000 0 1 0
13.575833 3.992722 16.576154 21.794814 0.286040 0.706629 0.123583 -0.030377 -689216.000000 0 1 0
13.348133 2.457722 16.745054 21.554811 0.182085 0.681134 0.123588 -0.026611 387652.000000 0 1 0
14.571533 1.716822 16.848354 22.341532 0.117280 0.716472 0.142099 -0.020087 806033.000000 0 1 0
14.368633 0.286022 16.752954 22.072627 0.019903 0.709032 0.140396 -0.021649 -355945.000000 0 1 0
13.544333 -0.469978 17.766254 22.345237 -0.034685 0.651657 0.125748 -0.027064 -1071980.000000 0 1 0
12.183033 -0.269478 17.681854 21.474330 -0.022116 0.603429 0.114331 -0.015745 -1173230.000000 0 1 0
11.481433 -1.131878 18.534654 21.832037 -0.098266 0.556771 0.112631 -0.025036 9380.160000 0 1 0
-26.528587 14.161222 28.205164 41.229084 -0.490328 0.817416 0.062424 -0.011668 -423010.000000 0 0 1
-25.703357 14.013322 29.341674 41.448397 -0.499146 0.784264 0.065439 -0.008996 213604.000000 0 0 1
-25.068547 12.746422 29.355514 40.652792 -0.470395 0.763958 0.050878 -0.004335 -777222.000000 0 0 1
-23.828467 12.834322 30.218394 40.566821 -0.494059 0.730405 0.050866 -0.012277 -988882.000000 0 0 1
-24.070767 12.847022 31.602837 41.751492 -0.490257 0.712198 0.051492 -0.015468 129374.000000 0 0 1
-22.924267 12.853822 32.440729 41.750972 -0.511027 0.680902 0.039730 -0.010526 -47014.300000 0 0 1
-23.346867 13.221622 -33.499703 42.919897 -0.515281 2.466288 0.050083 -0.007773 270238.000000 0 0 1
-24.031467 12.186622 -32.747553 42.407869 -0.469320 2.453100 0.039501 -0.011430 220433.000000 0 0 1
-24.608767 12.567122 -31.575263 41.958565 -0.472152 2.422698 0.040316 -0.010677 -308887.000000 0 0 1
-25.479657 11.509222 -30.867993 41.647426 -0.424269 2.405614 0.036607 -0.014062 -47103.300000 0 0 1
-24.812767 10.410222 -30.236943 40.476151 -0.397246 2.414381 0.042475 -0.018260 137712.000000 0 0 1
-24.614067 9.184022 -30.949223 40.596218 -0.357122 2.437759 0.043620 -0.015365 194179.000000 0 0 1
-23.877667 8.122222 -30.061543 39.240411 -0.327882 2.443526 0.064260 -0.013829 541241.000000 0 0 1
-24.712267 7.495822 -29.058863 38.875455 -0.294503 2.415066 0.059008 -0.013489 576915.000000 0 0 1
-23.936667 6.644222 -28.256463 37.623628 -0.270759 2.420417 0.063786 -0.003208 -96596.900000 0 0 1
-24.750467 5.786422 -27.268143 37.277606 -0.229665 2.391299 0.065415 -0.001570 -194081.000000 0 0 1
-25.485557 4.699022 -27.739043 37.961150 -0.182332 2.390175 0.073891 -0.005033 44996.700000 0 0 1
-25.979007 3.893422 -26.676373 37.439236 -0.148761 2.363886 0.104512 -0.006040 -989591.000000 0 0 1
-26.755827 2.656022 -27.143173 38.205766 -0.098945 2.360930 0.128222 -0.008981 389874.000000 0 0 1
-28.084187 2.783222 -27.630873 39.495987 -0.098780 2.345615 0.134766 -0.018757 459751.000000 0 0 1
-28.319267 3.839722 -28.578993 40.416373 -0.134765 2.356205 0.133702 -0.021822 -697345.000000 0 0 1
-29.596627 3.518022 -29.429983 41.886283 -0.118311 2.349864 0.140065 -0.028687 897840.000000 0 0 1
-30.882267 3.856222 -28.887733 42.462760 -0.124226 2.318978 0.137194 -0.024672 1225910.000000 0 0 1
-31.952257 3.868322 -29.833923 43.885916 -0.120479 2.318295 0.130926 -0.029598 482474.000000 0 0 1
-32.065577 5.294922 -30.500973 44.570694 -0.163651 2.324478 0.120132 -0.043298 -248580.000000 0 0 1
-30.983207 5.636522 -31.392263 44.465758 -0.179954 2.354613 0.129186 -0.044380 764053.000000 0 0 1
-31.209487 6.928922 -31.980003 45.219051 -0.218470 2.356360 0.113424 -0.035288 -524711.000000 0 0 1
-30.772947 8.167322 -31.207113 44.582096 -0.259425 2.346183 0.090545 -0.026017 781247.000000 0 0 1
-29.356507 8.159122 -30.907343 43.400917 -0.271090 2.363332 0.045946 -0.024883 1159470.000000 0 0 1
-28.969067 7.790022 -29.566993 42.120047 -0.262694 2.348956 0.044132 -0.030399 -303721.000000 0 0 1
-29.225197 8.798822 -28.379393 41.676388 -0.292438 2.319851 0.034391 -0.022287 312087.000000 0 0 1
-30.584477 8.912422 -27.961793 42.387538 -0.283552 2.291176 0.050558 -0.025568 552876.000000 0 0 1
-30.924887 7.878622 -27.025833 41.818859 -0.249460 2.273469 0.054729 -0.015700 -247379.000000 0 0 1
-32.405007 7.996922 -26.591293 42.674724 -0.241946 2.243516 0.058689 -0.007847 2604.590000 0 0 1
-32.621757 8.832422 -25.454683 42.309947 -0.264413 2.216329 0.041459 -0.003245 62884.600000 0 0 1
-32.353137 8.257622 -24.195613 41.235197 -0.249899 2.197862 0.052366 0.003561 -172444.000000 0 0 1
-31.865667 9.189222 -23.071313 40.399852 -0.280757 2.178610 0.062354 -0.003779 -93174.300000 0 0 1
-32.825877 10.113922 -22.586113 41.109149 -0.298879 2.152464 0.069362 0.000480 258858.000000 0 0 1
-32.232197 11.128422 -21.762013 40.451718 -0.332444 2.138829 0.090119 -0.007951 -407234.000000 0 0 1
-33.225447 12.051722 -21.058313 41.141547 -0.347966 2.108134 0.076106 -0.013966 229034.000000 0 0 1
-33.982918 11.345322 -20.006513 41.034322 -0.322219 2.080084 0.084605 -0.019229 442594.000000 0 0 1
-34.494477 12.164722 -18.936513 41.187874 -0.339040 2.048521 0.060181 -0.018618 37739.400000 0 0 1
-33.592287 13.092122 -18.031913 40.311230 -0.371627 2.034560 0.071882 -0.027107 281315.000000 0 0 1
-32.727277 12.431222 -17.076113 38.951297 -0.363010 2.024610 0.121410 -0.025775 605068.000000 0 0 1
-33.454297 11.712822 -16.087313 38.925337 -0.336776 1.996857 0.125411 -0.025044 -89005.900000 0 0 1
-34.182860 12.581822 -15.019613 39.399987 -0.352685 1.961900 0.106746 -0.019464 215505.000000 0 0 1
-35.127342 13.439322 -15.672213 40.745108 -0.365407 1.965614 0.067441 -0.022638 55809.200000 0 0 1
-35.844289 14.198122 -14.707313 41.263843 -0.377145 1.935231 0.041354 -0.021099 90372.900000 0 0 1
-36.483737 15.472322 -15.339713 42.494266 -0.401098 1.940118 0.021865 -0.018965 517348.000000 0 0 1
-37.450697 15.216522 -16.366913 43.611616 -0.385933 1.955504 0.026427 -0.026836 718837.000000 0 0 1
37.744922 16.363022 -16.673313 44.389492 0.409061 1.955855 0.027964 -0.028326 -437363.000000 0 0 1
37.334852 16.288722 -18.141713 44.590754 0.411392 1.989799 0.038803 -0.024221 42728.600000 0 0 1
36.357002 15.321022 -18.533213 43.589509 0.398822 2.009953 0.073919 -0.030846 665492.000000 0 0 1
35.055772 15.904022 -18.379913 42.657546 0.425908 2.016254 0.120189 -0.040261 369805.000000 0 0 1
33.957452 14.808022 -18.710913 41.502823 0.411214 2.038497 0.138814 -0.047512 256034.000000 0 0 1
33.804292 14.409722 -20.060713 41.866483 0.402945 2.070493 0.143765 -0.037683 308450.000000 0 0 1
32.949792 13.266022 -20.161713 40.843246 0.382757 2.087062 0.101613 -0.031188 298435.000000 0 0 1
33.555412 11.916022 -19.646113 40.668501 0.341224 2.074965 0.107844 -0.017813 -251285.000000 0 0 1
33.441982 11.777822 -18.246213 39.874898 0.338622 2.046075 0.126533 -0.019879 353580.000000 0 0 1
34.061782 10.567222 -17.738913 39.831397 0.300822 2.032361 0.117607 -0.026933 103168.000000 0 0 1
34.018702 10.563222 -16.202813 39.132913 0.301073 1.997690 0.094065 -0.018582 -244735.000000 0 0 1
32.714502 10.390722 -15.712613 37.750390 0.307541 2.000085 0.113993 -0.021527 -58736.400000 0 0 1
32.741372 10.152322 -14.315213 37.148249 0.300675 1.966387 0.088707 -0.012356 -29251.400000 0 0 1
32.089512 11.309822 -13.505713 36.606736 0.338852 1.948665 0.102830 -0.020115 -795363.000000 0 0 1
30.702172 11.215322 -13.623113 35.411806 0.350234 1.965685 0.106642 -0.017743 -732344.000000 0 0 1
30.091972 12.142122 -12.773813 34.873029 0.383520 1.945820 0.128054 -0.021338 525750.000000 0 0 1
28.535172 12.003822 -12.909413 33.541030 0.398195 1.965879 0.146852 -0.014459 228796.000000 0 0 1
27.999272 10.874222 -12.219013 32.427029 0.370445 1.957152 0.133667 -0.019671 -160234.000000 0 0 1
26.628872 10.635622 -12.382213 31.233515 0.379991 1.978432 0.149566 -0.010926 -82546.900000 0 0 1
26.095472 10.172222 -13.801913 31.224038 0.371689 2.028655 0.115787 -0.029384 -589272.000000 0 0 1
26.367972 8.809022 -14.171713 31.204266 0.322423 2.042225 0.117707 -0.020544 427040.000000 0 0 1
27.621672 8.623922 -14.829113 32.515094 0.302626 2.044369 0.122655 -0.023275 808444.000000 0 0 1
28.681272 7.872022 -13.914613 32.835964 0.267869 2.008390 0.115450 -0.024161 154322.000000 0 0 1
28.533372 6.465222 -13.785213 32.341683 0.222822 2.011125 0.119008 -0.038105 495360.000000 0 0 1
27.571272 6.088422 -12.791613 30.997891 0.217337 1.996170 0.136085 -0.036218 210866.000000 0 0 1
27.289872 4.559522 -12.906613 30.530427 0.165548 2.007269 0.139097 -0.035682 26902.400000 0 0 1
26.590672 4.057322 -11.742313 29.349746 0.151417 1.982403 0.184068 -0.036754 560629.000000 0 0 1
26.355172 2.656722 -11.827713 29.009447 0.100465 1.990751 0.202611 -0.045713 54487.700000 0 0 1
25.516872 2.029322 -10.680213 27.736183 0.079362 1.966074 0.268954 -0.035128 -15314.300000 0 0 1
26.290472 1.905722 -9.488413 28.015186 0.072361 1.916319 0.278533 -0.029908 264057.000000 0 0 1
26.010672 0.764822 -8.726013 27.446007 0.029396 1.894346 0.322592 -0.018012 -121022.000000 0 0 1
27.041672 0.364622 -7.585013 28.087673 0.013483 1.844239 0.375495 -0.014123 154461.000000 0 0 1
26.853772 -0.891778 -6.902013 27.740910 -0.033196 1.822240 0.334325 -0.023500 282585.000000 0 0 1
26.757772 -2.049378 -7.704113 27.920094 -0.076441 1.850358 0.258321 -0.027064 -307650.000000 0 0 1
27.076772 -3.173478 -6.705913 28.074754 -0.116671 1.811987 0.237860 -0.034698 352500.000000 0 0 1
28.483872 -3.172678 -6.474913 29.382330 -0.110928 1.792988 0.241886 -0.044076 769041.000000 0 0 1
28.828272 -4.267778 -5.607613 29.677070 -0.146974 1.760894 0.243668 -0.066145 506568.000000 0 0 1
30.328972 -4.441378 -5.187513 31.088304 -0.145407 1.738444 0.197409 -0.055333 1054600.000000 0 0 1
31.181482 -4.971378 -6.232613 32.184544 -0.158103 1.765680 0.159779 -0.043521 1119000.000000 0 0 1
32.470242 -5.361178 -5.739613 33.406616 -0.163634 1.743464 0.204319 -0.046238 870983.000000 0 0 1
33.472892 -5.800278 -6.859413 34.657312 -0.171579 1.770033 0.214695 -0.052571 156940.000000 0 0 1
33.223522 -7.082278 -7.396313 34.765881 -0.210027 1.785181 0.225837 -0.057163 -39132.500000 0 0 1
33.586882 -7.044078 -8.770413 35.420584 -0.206731 1.821007 0.235206 -0.045603 -628216.000000 0 0 1
32.499302 -7.668278 -9.681213 34.766837 -0.231714 1.852988 0.198714 -0.047872 757651.000000 0 0 1
31.388272 -6.812378 -9.956113 33.626720 -0.213721 1.871380 0.153618 -0.054633 795820.000000 0 0 1
30.414072 -6.737578 -8.905013 32.399228 -0.218008 1.849233 0.153275 -0.052159 -1144830.000000 0 0 1
29.267272 -5.796178 -9.139713 31.204218 -0.195513 1.868055 0.144541 -0.051148 20766.200000 0 0 1
28.204172 -6.385278 -9.933313 30.576425 -0.222642 1.901669 0.130371 -0.046660 1279480.000000 0 0 1
27.086372 -5.514378 -10.143613 29.444402 -0.200840 1.922503 0.177658 -0.046846 1578560.000000 0 0 1
25.687072 -6.244578 -10.258213 28.355799 -0.238476 1.940960 0.219338 -0.044313 410902.000000 0 0 1
25.448272 -7.119478 -9.101313 27.948800 -0.272789 1.902487 0.200983 -0.054378 502252.000000 0 0 1
24.141772 -7.650978 -8.968613 26.866310 -0.306905 1.911153 0.186380 -0.043956 101195.000000 0 0 1
23.150372 -6.657178 -8.261213 25.465769 -0.280008 1.901179 0.201772 -0.036645 -407858.000000 0 0 1
22.862572 -5.580878 -9.085213 25.226662 -0.239423 1.939218 0.219114 -0.029894 164347.000000 0 0 1
22.464772 -4.395278 -8.429113 24.393327 -0.193211 1.923621 0.231347 -0.036150 -186684.000000 0 1 0
22.618372 -3.145478 -9.330513 24.668669 -0.138181 1.958683 0.264989 -0.031129 344049.000000 0 1 0
23.947172 -2.825778 -9.745313 26.008137 -0.117457 1.954872 0.255712 -0.040595 925895.000000 0 0 1
23.999872 -2.048078 -10.942213 26.456010 -0.085131 1.997201 0.267936 -0.040772 141120.000000 0 0 1
25.392072 -1.958978 -11.632613 27.998439 -0.076997 1.999260 0.210528 -0.036953 927707.000000 0 0 1
26.454872 -1.319078 -10.889813 28.638929 -0.049820 1.960858 0.207632 -0.039042 75224.700000 0 0 1
27.643372 -1.464578 -11.551713 29.995717 -0.052932 1.966126 0.156837 -0.033986 -1310870.000000 0 0 1
28.791772 -0.526478 -11.169813 30.887020 -0.018284 1.940817 0.119238 -0.014615 -696916.000000 0 0 1
29.975872 -1.010478 -11.784313 32.224897 -0.033697 1.945170 0.091612 -0.019074 1049260.000000 0 0 1
31.114552 -0.124278 -11.590713 33.203545 -0.003994 1.927386 0.104669 -0.017703 801600.000000 0 0 1
31.017372 1.267222 -12.357513 33.412443 0.040833 1.949641 0.102098 -0.016198 -748123.000000 0 0 1
31.022372 1.154522 -13.742413 33.949586 0.037199 1.987544 0.084238 -0.019736 408111.000000 0 0 1
31.237892 2.376722 -14.413213 34.484712 0.075938 2.001994 0.107222 -0.025597 -173653.000000 0 0 1
31.531292 2.199722 -15.917013 35.389440 0.069650 2.037301 0.107217 -0.015016 -620521.000000 0 0 1
30.428472 2.071922 -16.742113 34.791998 0.067987 2.072826 0.099700 -0.007186 -900338.000000 0 0 1
30.821572 1.725422 -18.068713 35.769047 0.055923 2.100351 0.091824 -0.018853 -449462.000000 0 0 1
29.858572 1.181022 -19.121513 35.476208 0.039533 2.140040 0.076863 -0.013476 -385026.000000 0 0 1
29.620372 -0.187478 -18.947013 35.162350 -0.006329 2.139860 0.078151 -0.013671 28364.800000 0 0 1
29.025872 -0.729278 -20.106413 35.317148 -0.025120 2.176463 0.061298 -0.014523 -68817.400000 0 0 1
28.804672 -2.273978 -20.098413 35.196964 -0.078781 2.178553 0.079068 -0.010312 173659.000000 0 0 1
27.597372 -2.644878 -19.432513 33.856061 -0.095546 2.182147 0.080364 -0.009106 503078.000000 0 0 1
27.457472 -4.043278 -19.501813 33.920223 -0.146205 2.183317 0.077655 -0.016087 57695.500000 0 0 1
28.207972 -4.861478 -18.389513 34.022020 -0.170668 2.141849 0.070629 -0.011206 408963.000000 0 0 1
29.610772 -4.900778 -18.575213 35.296656 -0.164020 2.124992 0.079436 -0.015371 -45513.700000 0 0 1
30.262572 -5.337478 -17.420213 35.323869 -0.174577 2.086511 0.078833 -0.010342 575172.000000 0 0 1
31.816052 -5.195678 -17.518013 36.689740 -0.161875 2.068562 0.104333 -0.013784 867379.000000 0 0 1
32.524472 -6.045378 -18.442513 37.874980 -0.183774 2.079369 0.086392 -0.020130 -395965.000000 0 0 1
33.840442 -5.651478 -18.638813 39.045103 -0.165477 2.068451 0.112105 -0.014391 -982319.000000 0 0 1
34.692742 -6.779278 -19.171213 40.212937 -0.192977 2.067741 0.106087 -0.009217 -645214.000000 0 0 1
35.123232 -7.717678 -18.258213 40.330712 -0.216294 2.040601 0.111073 -0.022520 98957.400000 0 0 1
35.576522 -8.895178 -18.936013 41.272093 -0.245006 2.047451 0.103835 -0.015833 -244302.000000 0 0 1
36.486992 -9.737878 -18.019113 41.842744 -0.260807 2.015997 0.117030 -0.023181 -377934.000000 0 0 1
35.808912 -10.243378 -16.860813 40.883884 -0.278616 1.995891 0.110687 -0.020279 125115.000000 0 0 1
36.543732 -11.063978 -16.011913 41.403349 -0.293987 1.967879 0.109845 -0.035553 -654606.000000 0 0 1
37.721432 -10.492178 -15.175613 41.991564 -0.271291 1.940562 0.125407 -0.039135 -286554.000000 0 0 1
-37.822537 -11.264578 -14.070913 41.897800 0.289462 1.913292 0.116114 -0.036162 298757.000000 0 0 1
-37.252287 -12.540378 -14.309913 41.830223 0.324718 1.919942 0.099511 -0.030023 -387183.000000 0 0 1
-35.800763 -12.580178 -14.868913 40.755860 0.337916 1.944245 0.121528 -0.034199 108413.000000 0 0 1
-35.729366 -12.241178 -16.296613 41.134093 0.330075 1.978152 0.145103 -0.025773 720450.000000 0 0 1
-34.342939 -12.112478 -16.663713 40.047833 0.339071 1.999943 0.173218 -0.036353 838223.000000 0 0 1
-34.029728 -11.340678 -17.962013 40.115674 0.321683 2.035050 0.217438 -0.038777 198607.000000 0 0 1
-33.990169 -9.935378 -17.948213 39.701155 0.284379 2.039895 0.210429 -0.033170 150165.000000 0 0 1
-35.317562 -9.450778 -17.885713 40.700689 0.261468 2.025777 0.192137 -0.032418 -79325.500000 0 0 1
-35.516707 -7.952378 -18.009513 40.608119 0.220272 2.030291 0.219789 -0.024894 -741652.000000 0 0 1
-36.834827 -7.675878 -18.335013 41.855660 0.205446 2.024228 0.198878 -0.021725 -678690.000000 0 0 1
-37.154297 -6.307878 -18.520413 41.990913 0.168172 2.027573 0.181722 -0.024903 5428.130000 0 0 1
26.136633 27.218322 -26.561923 46.146466 0.805669 2.184134 0.086444 -0.005131 11844.200000 0 0 1
26.645733 26.324622 -25.593333 45.365179 0.779336 2.170215 0.092307 -0.018758 1280780.000000 0 0 1
27.841433 25.684522 -26.154533 46.031507 0.745123 2.175098 0.083191 -0.017259 1006010.000000 0 0 1
28.482733 24.652122 -25.214273 45.329380 0.713430 2.160658 0.082552 -0.024709 -165473.000000 0 0 1
29.057833 25.182122 -24.031713 45.343358 0.714064 2.129390 0.089534 -0.020492 218340.000000 0 0 1
29.201133 24.188522 -23.024413 44.361180 0.691785 2.116502 0.091565 -0.024056 -42617.100000 0 0 1
29.788833 24.783922 -21.741413 44.433167 0.693943 2.082090 0.091380 -0.017377 -443620.000000 0 0 1
28.998633 25.706622 -21.112413 44.130319 0.725293 2.069640 0.101233 -0.021258 -547255.000000 0 0 1
29.597033 26.083622 -19.896413 44.183786 0.722382 2.037909 0.083250 -0.018409 50160.600000 0 0 1
28.794033 27.124022 -19.073913 43.916091 0.755542 2.020087 0.098878 -0.015200 -339816.000000 0 0 1
27.708833 26.582722 -18.365813 42.564347 0.764659 2.016933 0.117468 -0.010548 -197471.000000 0 0 1
26.872633 27.653822 -17.991513 42.550755 0.799724 2.007356 0.111341 -0.011421 -164373.000000 0 0 1
25.679733 27.284822 -17.108313 41.189860 0.815694 1.999127 0.101026 -0.004392 -374497.000000 0 0 1
24.641433 26.558922 -17.725113 40.333065 0.822831 2.025803 0.117740 -0.009787 -457761.000000 0 0 1
23.636533 26.482422 -16.754013 39.251768 0.842120 2.011786 0.090653 0.001956 -411362.000000 0 0 1
22.588333 25.431822 -17.182513 38.108386 0.844544 2.038553 0.101753 -0.007699 -147417.000000 0 0 1
21.879533 25.693322 -18.372913 38.424272 0.865394 2.069354 0.095193 -0.015485 48823.700000 0 0 1
20.982833 24.639922 -18.741613 37.398570 0.865386 2.095702 0.104887 -0.013525 537868.000000 0 0 1
20.087133 25.088122 -19.912313 37.807499 0.895651 2.125482 0.086926 -0.015817 93600.700000 0 0 1
19.075733 26.018622 -19.616813 37.758067 0.938162 2.117108 0.068114 -0.009993 64675.700000 0 0 1
18.174633 26.187422 -20.739513 38.029275 0.964094 2.147611 0.065077 -0.011732 263360.000000 0 0 1
17.266233 27.398822 -20.565113 38.363291 1.008480 2.136562 0.066066 -0.012549 -193053.000000 0 0 1
16.409433 27.223822 -19.460313 37.270762 1.028350 2.120147 0.076573 -0.009218 -532236.000000 0 0 1
15.552833 28.294522 -19.260613 37.595768 1.068202 2.108666 0.072745 -0.025424 -333312.000000 0 0 1
14.768533 28.261922 -17.945313 36.590710 1.089265 2.083384 0.075890 -0.022335 -169203.000000 0 0 1
13.807033 27.244122 -17.925113 35.414489 1.101732 2.101513 0.080441 -0.024614 -444804.000000 0 0 1
13.248733 27.218622 -16.636513 34.542088 1.117803 2.073310 0.097651 -0.028041 -262650.000000 0 0 1
12.358933 26.051722 -16.296913 33.121365 1.127838 2.085224 0.110749 -0.024891 -83661.300000 0 0 1
13.085433 24.898422 -15.921513 32.321116 1.086916 2.085876 0.105773 -0.019769 -89843.100000 0 0 1
12.238133 23.770722 -15.778113 31.044612 1.095347 2.103936 0.122575 -0.014756 55727.500000 0 0 1
13.014233 22.464222 -15.764613 30.373254 1.045713 2.116511 0.107999 -0.012147 -134778.000000 0 0 1
13.678033 22.363922 -16.970613 31.228757 1.021883 2.145313 0.092467 -0.009064 -606546.000000 0 0 1
14.602633 21.316522 -17.157813 31.016472 0.970183 2.156978 0.099099 -0.007520 -328366.000000 0 0 1
14.064633 19.952822 -17.567913 30.075913 0.956793 2.194591 0.104465 -0.008472 -72848.000000 0 0 1
13.376733 19.227822 -16.542613 28.675846 0.962964 2.185704 0.110084 -0.017919 27183.700000 0 0 1
13.035233 17.878322 -16.857713 27.816077 0.940801 2.221872 0.096347 -0.018352 391075.000000 0 0 1
14.179633 16.784022 -16.858313 27.694189 0.869312 2.225257 0.127118 -0.018013 267411.000000 0 0 1
14.584333 16.491922 -15.575813 26.968355 0.846705 2.186532 0.148728 -0.026786 40480.100000 0 0 1
15.619333 15.509322 -15.595313 26.976219 0.781864 2.187211 0.147615 -0.032903 -616129.000000 0 0 1
16.223233 15.104922 -14.238613 26.345589 0.749717 2.141774 0.216793 -0.042206 -188247.000000 0 0 1
17.188633 16.047122 -13.681713 27.205670 0.751066 2.097746 0.182098 -0.040134 1188370.000000 0 0 1
18.444033 16.191022 -14.320413 28.414886 0.720440 2.098992 0.147577 -0.032664 -137649.000000 0 0 1
19.284433 14.914122 -14.720913 28.478512 0.658295 2.114037 0.140554 -0.035204 -811702.000000 0 0 1
19.882833 14.158622 -13.685813 27.983836 0.618803 2.081810 0.175396 -0.043385 -725546.000000 0 0 1
21.092033 14.593422 -13.210413 28.850595 0.605264 2.046417 0.168593 -0.038510 -1470190.000000 0 0 1
21.864933 13.411422 -12.663713 28.606138 0.550197 2.029395 0.184591 -0.051543 -455666.000000 0 0 1
21.350533 12.980622 -11.415413 27.470956 0.546264 1.999338 0.270934 -0.052609 582575.000000 0 0 1
22.076733 11.867922 -10.836813 27.306889 0.493255 1.978882 0.284225 -0.020426 129233.000000 0 0 1
21.868133 10.416922 -11.402013 26.771877 0.444551 2.010747 0.232844 -0.018843 -552094.000000 0 0 1
22.700833 10.146522 -12.487613 27.824812 0.420329 2.036212 0.200381 -0.014835 71396.500000 0 0 1
22.519133 8.958922 -13.251613 27.622072 0.378639 2.071163 0.183296 -0.016717 -239976.000000 0 0 1
22.856133 7.601822 -12.479713 27.128099 0.321085 2.048824 0.207176 0.000428 -141495.000000 0 0 1
21.755133 7.100022 -11.736313 25.718420 0.315462 2.044673 0.203573 -0.017821 325460.000000 0 0 1
22.014333 6.150822 -10.666913 25.223927 0.272453 2.007427 0.215539 -0.005687 -752510.000000 0 0 1
22.360733 4.748522 -11.223413 25.465974 0.209251 2.027199 0.236110 -0.019412 47753.100000 0 0 1
21.286833 3.936422 -11.692813 24.603791 0.182857 2.066038 0.215242 -0.033797 566048.000000 0 1 0
20.674833 4.461022 -12.871013 24.759087 0.212513 2.117472 0.163251 -0.042643 -470011.000000 0 1 0
19.704833 3.483822 -13.555213 24.169428 0.174992 2.166198 0.158820 -0.053590 -252062.000000 0 1 0
20.310133 2.370022 -14.145413 24.863853 0.116166 2.175982 0.184468 -0.073803 192154.000000 0 1 0
20.288033 1.287322 -13.246613 24.263846 0.063367 2.148307 0.224415 -0.077592 -341880.000000 0 1 0
21.256933 0.213722 -13.730013 25.306444 0.010054 2.144266 0.244359 -0.066997 -437221.000000 0 0 1
22.615333 0.456622 -13.408113 26.295233 0.020188 2.105873 0.285073 -0.049344 571860.000000 0 0 1
23.580833 0.522122 -14.431213 27.651188 0.022138 2.119876 0.193577 -0.044995 59594.800000 0 0 1
23.873733 -0.767778 -15.216213 28.320977 -0.032149 2.138002 0.156924 -0.028885 -705985.000000 0 0 1
22.732833 -1.330278 -15.855113 27.747719 -0.058451 2.179010 0.175997 -0.030991 270980.000000 0 0 1
23.150133 -2.178878 -16.938113 28.767617 -0.093843 2.200359 0.124367 -0.018498 357117.000000 0 0 1
21.987533 -2.814078 -17.764413 28.406777 -0.127293 2.246387 0.134019 -0.021537 410453.000000 0 0 1
21.308133 -3.865378 -17.066813 27.572700 -0.179452 2.238233 0.162987 -0.017356 476018.000000 0 0 1
20.289233 -4.489878 -17.839113 27.386966 -0.217784 2.280188 0.123359 -0.012033 -181846.000000 0 0 1
19.742633 -5.618878 -16.973513 26.635380 -0.277275 2.261727 0.131022 -0.014777 -315076.000000 0 0 1
20.675033 -6.575278 -16.477413 27.243282 -0.307915 2.220342 0.144861 -0.014821 -165463.000000 0 0 1
20.067833 -7.523278 -15.732713 26.586385 -0.358676 2.204035 0.149373 -0.013305 -276076.000000 0 0 1
20.969033 -8.735978 -15.305713 27.391285 -0.394746 2.163711 0.193207 -0.014339 36222.000000 0 0 1
21.442833 -9.490878 -16.388013 28.608369 -0.416694 2.180763 0.148515 -0.021972 11449.600000 0 0 1
22.246933 -10.495778 -15.888513 29.283651 -0.440822 2.144293 0.122405 -0.031841 -617112.000000 0 0 1
22.795233 -11.364978 -17.077413 30.666323 -0.462502 2.161419 0.095090 -0.029362 179125.000000 0 0 1
23.798233 -10.713578 -17.879613 31.635695 -0.423007 2.171438 0.070493 -0.018213 571337.000000 0 0 1
24.289733 -11.678478 -18.789413 32.854528 -0.448169 2.179613 0.062893 -0.017617 -818747.000000 0 0 1
23.548833 -11.703278 -20.166213 33.138956 -0.461228 2.225009 0.079093 -0.021676 473709.000000 0 0 1
22.183033 -12.077978 -20.224213 32.357121 -0.498587 2.245968 0.098286 -0.032347 180322.000000 0 0 1
21.863133 -13.396978 -19.776813 32.382062 -0.549753 2.227783 0.080842 -0.015834 -192302.000000 0 0 1
20.325133 -13.528378 -19.554713 31.281222 -0.587263 2.246090 0.082909 -0.017109 452388.000000 0 0 1
19.679233 -13.462178 -20.816513 31.651692 -0.599962 2.288524 0.083764 -0.007845 1615560.000000 0 0 1
18.219033 -13.419378 -20.768513 30.713905 -0.634843 2.313378 0.098640 -0.003140 1689530.000000 0 0 1
17.618233 -12.848878 -22.036213 31.001459 -0.630117 2.361448 0.108103 -0.010067 -186488.000000 0 0 1
17.875933 -13.583478 -23.210113 32.291937 -0.649791 2.372812 0.088565 0.001355 236629.000000 0 0 1
17.104433 -13.095778 -24.266413 32.448726 -0.653434 2.415597 0.110046 -0.013654 -310253.000000 0 0 1
17.008933 -13.931478 -25.530093 33.692366 -0.686260 2.430641 0.099851 -0.011233 -414435.000000 0 0 1
16.064833 -14.967178 -25.518193 33.664127 -0.750041 2.431073 0.100710 -0.003314 -95529.100000 0 0 1
16.120933 -15.733678 -26.688773 34.924543 -0.773242 2.440571 0.108206 -0.004936 195592.000000 0 0 1
17.165933 -16.905178 -26.758933 36.006871 -0.777745 2.408580 0.095305 -0.009076 1084250.000000 0 0 1
18.533533 -16.461378 -26.821673 36.522198 -0.726254 2.395569 0.078834 -0.002841 735220.000000 0 0 1
19.395233 -17.578778 -26.826933 37.481633 -0.736310 2.368473 0.081528 -0.004267 423929.000000 0 0 1
20.886133 -17.265878 -27.154913 38.363138 -0.690791 2.357230 0.056251 0.009070 485550.000000 0 0 1
21.478433 -16.570678 -26.043843 37.605747 -0.657122 2.335814 0.058105 0.009275 -158717.000000 0 0 1
22.860133 -16.410178 -26.343003 38.546510 -0.622607 2.323217 0.056884 0.007691 -45802.000000 0 0 1
23.522833 -15.986778 -24.994713 37.863391 -0.596922 2.291786 0.069563 0.001770 -482876.000000 0 0 1
23.299933 -14.721578 -24.421113 36.823939 -0.563495 2.295864 0.078448 -0.013121 -26486.000000 0 0 1
21.979233 -14.363178 -24.050313 35.606251 -0.578824 2.312374 0.086719 -0.009239 290332.000000 0 0 1
21.983433 -13.020378 -23.332513 34.600689 -0.534725 2.310862 0.092893 -0.013524 120410.000000 0 0 1
22.436333 -11.942078 -24.109713 35.032563 -0.489125 2.329813 0.093966 -0.022233 189262.000000 0 0 1
22.175933 -10.750878 -23.390513 33.977484 -0.451413 2.330094 0.111566 -0.029207 -100190.000000 0 0 1
22.630533 -9.474878 -24.078013 34.375355 -0.396503 2.346816 0.110216 -0.032950 -298150.000000 0 0 1
22.069133 -8.274978 -23.630713 33.375627 -0.358733 2.357491 0.130019 -0.035871 -383906.000000 0 0 1
21.524333 -7.570378 -24.677913 33.609625 -0.338200 2.395360 0.110528 -0.031804 -343307.000000 0 0 1
20.868233 -6.252878 -24.197413 32.559122 -0.291123 2.408613 0.116151 -0.038739 820335.000000 0 0 1
19.582633 -6.519078 -23.595313 31.348312 -0.321361 2.422923 0.137653 -0.044355 705860.000000 0 0 1
19.032333 -5.460778 -22.828413 30.218971 -0.279415 2.427111 0.129733 -0.039667 94870.300000 0 0 1
19.681433 -5.340878 -21.422513 29.577150 -0.264985 2.380804 0.113645 -0.027858 -213903.000000 0 0 1
19.463333 -6.301378 -20.402913 28.893036 -0.313107 2.354847 0.127939 -0.034386 144251.000000 0 0 1
20.206833 -7.513278 -20.526513 29.767485 -0.355979 2.331680 0.116422 -0.029439 -338907.000000 0 0 1
19.891133 -8.558878 -19.504413 29.143330 -0.406339 2.304006 0.130843 -0.028620 1291130.000000 0 0 1
18.542833 -9.097278 -19.682813 28.530864 -0.456107 2.332117 0.167104 -0.032499 1282390.000000 0 0 1
18.331733 -9.926378 -18.640513 27.965230 -0.496283 2.300381 0.156101 -0.031201 504342.000000 0 0 1
16.805233 -10.106378 -18.377413 26.875342 -0.541436 2.323757 0.170628 -0.026479 406588.000000 0 0 1
16.119833 -8.969678 -17.907613 25.709662 -0.507772 2.341350 0.166406 -0.014747 720628.000000 0 0 1
14.711233 -9.249578 -17.946313 24.980897 -0.561286 2.372298 0.151886 -0.034823 1062210.000000 0 1 0
13.824433 -8.007278 -17.541413 23.726201 -0.524994 2.402866 0.170713 -0.019315 -42287.200000 0 1 0
12.525033 -7.993078 -18.064013 23.389619 -0.568013 2.453264 0.158928 -0.031262 -643880.000000 0 1 0
11.795733 -7.036378 -17.351513 22.129729 -0.537856 2.472011 0.152239 -0.039753 -1165840.000000 0 1 0
10.318633 -6.996578 -17.617713 21.582634 -0.595844 2.525757 0.133857 -0.036569 -940340.000000 0 1 0
10.015133 -6.290178 -18.844413 22.248171 -0.560802 2.581130 0.132235 -0.050908 193719.000000 0 1 0
8.601633 -6.170078 -18.860413 21.628063 -0.622252 2.630140 0.114323 -0.058436 397972.000000 0 1 0
7.915833 -5.582578 -20.105813 22.317466 -0.614235 2.692636 0.118979 -0.072182 4032.610000 0 1 0
8.015233 -6.413778 -21.273713 23.620994 -0.674862 2.692007 0.122929 -0.052574 -316439.000000 0 1 0
7.059333 -6.140078 -22.236413 24.124527 -0.715867 2.743326 0.126673 -0.060965 -399448.000000 0 1 0
6.966733 -7.164278 -23.382813 25.428688 -0.799377 2.737716 0.119393 -0.053363 -56629.200000 0 0 1
6.449733 -8.460778 -23.058713 25.394646 -0.919463 2.709317 0.118707 -0.042208 19519.000000 0 0 1
6.239333 -9.262978 -24.229913 26.679968 -0.978025 2.709685 0.099655 -0.026918 -141089.000000 0 0 1
5.643933 -10.664978 -24.122313 26.971869 -1.084061 2.677774 0.111953 -0.026864 -56281.200000 0 0 1
6.364133 -11.608678 -23.359313 26.849973 -1.069319 2.625986 0.102363 -0.026111 -75187.500000 0 0 1
5.661833 -12.832378 -23.249513 27.152645 -1.155272 2.598767 0.123881 -0.029628 36323.600000 0 0 1
6.531933 -13.825878 -22.461713 27.172589 -1.129437 2.543891 0.122709 -0.024603 276811.000000 0 0 1
7.653133 -14.478178 -23.063713 28.286444 -1.084533 2.524152 0.089497 -0.012943 915248.000000 0 0 1
8.905633 -13.782778 -23.183513 28.403354 -0.997138 2.525642 0.101752 -0.016639 1118040.000000 0 0 1
9.667233 -13.434978 -21.858813 27.418273 -0.947065 2.493498 0.105442 -0.010310 -381662.000000 0 0 1
10.068833 -14.603678 -21.094713 27.561490 -0.967171 2.442411 0.097662 0.002847 322054.000000 0 0 1
8.987433 -15.286978 -20.482313 27.092264 -1.039311 2.428008 0.090894 -0.003328 -279416.000000 0 0 1
9.249333 -15.776878 -19.025113 26.389675 -1.040542 2.375940 0.102126 0.001804 241557.000000 0 0 1
10.175133 -16.851078 -18.854913 27.258024 -1.027568 2.334664 0.102002 0.003347 -360428.000000 0 0 1
10.422333 -17.285778 -17.545513 26.744498 -1.028216 2.286359 0.092856 0.005548 -439775.000000 0 0 1
9.346333 -17.877178 -16.600613 26.125232 -1.089069 2.259354 0.067342 -0.010645 -335186.000000 0 0 1
8.845533 -19.200578 -16.751413 26.972495 -1.139087 2.240885 0.111744 -0.023075 334390.000000 0 0 1
8.298933 -19.685378 -18.027213 27.952939 -1.171827 2.271706 0.106020 -0.014257 783127.000000 0 0 1
6.780133 -19.321078 -18.204313 27.398380 -1.233303 2.297528 0.111887 -0.014351 518063.000000 0 0 1
6.532133 -17.918578 -18.058813 26.265280 -1.221223 2.328912 0.115301 -0.011162 -38269.000000 0 0 1
5.172333 -17.595578 -18.275913 25.891434 -1.284893 2.354443 0.103220 -0.003257 210747.000000 0 0 1
5.038733 -16.084378 -17.847213 24.548300 -1.267211 2.384774 0.074649 0.007933 -5529.910000 0 1 0
5.116633 -15.946578 -16.430713 23.461492 -1.260313 2.346652 0.032468 0.014871 161736.000000 0 1 0
4.589833 -14.716778 -15.978513 22.202770 -1.268479 2.374113 0.017437 0.019035 191380.000000 0 1 0
10.947133 29.684622 -17.929913 36.366169 1.217489 2.086375 0.101561 -0.039261 -633127.000000 0 0 1
10.036733 29.251022 -18.877513 36.231461 1.240260 2.118848 0.134662 -0.045314 -1026220.000000 0 0 1
8.957933 28.720822 -18.192913 35.158388 1.268461 2.114671 0.123439 -0.038659 339313.000000 0 0 1
7.751533 28.174422 -19.064213 34.890235 1.302312 2.148863 0.128410 -0.037751 1201840.000000 0 0 1
6.937933 29.123122 -19.745713 35.863412 1.336928 2.153856 0.132013 -0.040324 -9615.480000 0 0 1
6.083533 28.579022 -20.702213 35.809935 1.361060 2.187211 0.119940 -0.042698 115932.000000 0 0 1
5.065833 29.541022 -21.390813 36.822568 1.400964 2.190650 0.100079 -0.042787 9169.190000 0 0 1
4.014533 29.874522 -20.525113 36.467572 1.437217 2.168604 0.106200 -0.034882 -718942.000000 0 0 1
3.058733 30.646022 -21.185313 37.381171 1.471317 2.173337 0.113157 -0.054930 -1179770.000000 0 0 1
1.681333 30.494822 -20.521813 36.795459 1.515717 2.162441 0.113577 -0.043557 -192198.000000 0 0 1
0.903433 29.343622 -20.890913 36.031855 1.540018 2.189267 0.120786 -0.050505 421618.000000 0 0 1
0.606433 29.076122 -22.252713 36.619282 1.549943 2.223929 0.161126 -0.074825 -749629.000000 0 0 1
-0.071967 27.711422 -22.477613 35.681524 -1.568199 2.252286 0.153053 -0.059792 53773.800000 0 0 1
-1.415467 27.691522 -22.057813 35.431216 -1.519725 2.242797 0.158794 -0.048155 217833.000000 0 0 1
-2.083467 26.419622 -22.245313 34.600451 -1.492099 2.269101 0.171438 -0.058648 78412.200000 0 0 1
-2.938467 26.037922 -21.051313 33.611988 -1.458418 2.247599 0.144695 -0.051431 -194891.000000 0 0 1
-4.112067 26.800722 -20.884213 34.224817 -1.418552 2.227118 0.140807 -0.044500 -70332.400000 0 0 1
-5.011267 26.209622 -20.003013 33.349327 -1.381877 2.214051 0.138488 -0.045040 -489.421000 0 0 1
-6.271167 27.059722 -19.683613 34.044099 -1.343064 2.187292 0.138415 -0.051861 737840.000000 0 0 1
-7.299167 26.280522 -19.031713 33.258830 -1.299884 2.180019 0.127348 -0.045304 196419.000000 0 0 1
-8.217567 27.172122 -18.417413 33.838642 -1.277115 2.146317 0.119514 -0.057878 -568159.000000 0 0 1
-9.483067 26.451822 -18.015413 33.379373 -1.226566 2.140897 0.153380 -0.056524 -783663.000000 0 0 1
-9.440067 25.603322 -16.874813 32.084331 -1.217556 2.124630 0.153773 -0.062576 374935.000000 0 0 1
-10.750367 25.179122 -16.479213 31.955016 -1.167270 2.112621 0.124004 -0.053447 547499.000000 0 0 1
-10.708267 24.332522 -15.195713 30.621043 -1.156222 2.090071 0.122628 -0.040647 201175.000000 0 0 1
-10.111667 23.015122 -15.285113 29.420678 -1.156835 2.117105 0.136739 -0.043406 -6038.750000 0 0 1
-10.283167 22.314522 -14.062713 28.309739 -1.138974 2.090640 0.139082 -0.031075 -218823.000000 0 0 1
-9.744367 20.903922 -14.072013 27.017553 -1.134593 2.118639 0.150075 -0.017509 152640.000000 0 0 1
-10.478967 19.838822 -14.739413 26.844700 -1.084840 2.152038 0.122667 -0.006723 -210703.000000 0 0 1
-10.736367 19.852322 -16.157213 27.756797 -1.075035 2.192104 0.144928 -0.008780 -291738.000000 0 0 1
-9.563867 19.974822 -17.138413 28.003326 -1.124255 2.229400 0.145657 -0.020537 -461567.000000 0 0 1
-8.853167 18.798622 -17.244313 27.002464 -1.130660 2.263500 0.133384 -0.014015 -314965.000000 0 0 1
-7.934167 18.750822 -18.323213 27.391321 -1.170505 2.303581 0.138948 -0.025097 309752.000000 0 0 1
-7.166867 17.397822 -18.478913 26.372683 -1.180039 2.347152 0.130625 -0.024909 282469.000000 0 0 1
-7.972167 16.274922 -18.882713 26.172225 -1.115307 2.376732 0.125663 -0.025099 -13634.700000 0 0 1
-7.540067 15.501822 -20.003513 26.406431 -1.118089 2.430309 0.113657 -0.024715 -111094.000000 0 0 1
-6.272767 14.643822 -19.895313 25.487499 -1.166087 2.466407 0.082707 -0.012478 -189169.000000 0 0 1
-6.505767 13.551022 -19.021713 24.244190 -1.123200 2.472828 0.066652 -0.007646 93101.300000 0 1 0
-5.307067 12.825422 -18.847813 23.407188 -1.178456 2.506834 0.057776 0.003597 256413.000000 0 1 0
-4.516167 13.283822 -17.600913 22.508839 -1.243080 2.468593 0.039289 0.011882 -153084.000000 0 1 0
-4.073467 14.640522 -17.634913 23.279351 -1.299427 2.430324 0.058726 -0.000078 -324176.000000 0 1 0
-3.553067 15.019922 -16.381713 22.507395 -1.338509 2.385959 0.051251 0.002808 -241214.000000 0 1 0
-2.590467 16.182022 -16.500013 23.255511 -1.412060 2.359599 0.068225 -0.004175 -345920.000000 0 1 0
-3.235367 17.357622 -16.804713 24.375254 -1.386516 2.331480 0.084365 -0.009201 -142067.000000 0 1 0
-2.330367 18.443922 -16.705613 24.993726 -1.445114 2.302841 0.097370 -0.020402 408675.000000 0 1 0
-2.938467 19.736122 -17.310713 26.416091 -1.422994 2.285388 0.111550 -0.024428 471339.000000 0 0 1
-3.292167 19.701322 -18.717413 27.373746 -1.405222 2.323716 0.131535 -0.024809 -131898.000000 0 0 1
-3.817667 20.925822 -19.191813 28.649438 -1.390343 2.304849 0.160817 -0.026691 -282367.000000 0 0 1
-2.835567 22.081222 -19.420113 29.542538 -1.443080 2.288108 0.132739 -0.038283 158512.000000 0 0 1
-1.912567 21.822422 -20.504013 30.004842 -1.483377 2.323147 0.152697 -0.034681 1163660.000000 0 0 1
-0.666067 22.536922 -20.499213 30.472516 -1.541250 2.308664 0.136656 -0.041315 1682300.000000 0 0 1
0.461033 22.107522 -19.469513 29.462128 1.549945 2.292723 0.129823 -0.041809 322265.000000 0 0 1
0.170533 22.348322 -18.116713 28.769634 1.563166 2.251985 0.121930 -0.037807 -123004.000000 0 0 1
1.285833 22.079122 -17.295813 28.076434 1.512625 2.234484 0.115737 -0.036050 118315.000000 0 0 1
0.754333 22.129122 -15.856813 27.234272 1.536722 2.192274 0.121220 -0.033737 96746.000000 0 0 1
-0.057867 21.042022 -15.447013 26.103261 -1.568046 2.204044 0.109751 -0.023762 -18410.600000 0 0 1
-0.232667 21.013922 -14.069013 25.289843 -1.559725 2.160736 0.108677 -0.022720 51455.200000 0 0 1
-1.183167 19.913022 -13.540213 24.109452 -1.511449 2.167132 0.087185 -0.015794 214013.000000 0 1 0
-0.673267 18.608522 -13.571313 23.041504 -1.534632 2.200610 0.057601 -0.013282 117655.000000 0 1 0
-1.607267 17.812922 -12.879713 22.040202 -1.480810 2.194904 0.041830 -0.005627 170515.000000 0 1 0
-1.364667 16.272822 -12.955213 20.844774 -1.487130 2.241464 0.022500 -0.000021 -641411.000000 0 1 0
-0.238567 15.857722 -12.249913 20.039576 -1.555753 2.228481 0.019811 -0.002638 -149830.000000 0 1 0
0.015833 14.427922 -12.409513 19.030533 1.569699 2.281127 0.014337 0.003021 104279.000000 0 1 0
0.609133 13.815722 -13.681713 19.453392 1.526735 2.350836 0.008029 0.003261 -493136.000000 0 1 0
-0.237267 13.845322 -14.805513 20.271962 -1.553661 2.389622 0.010517 0.002239 86535.000000 0 1 0
0.112433 12.778122 -15.653413 20.206988 1.561998 2.456963 0.012003 -0.000244 -271653.000000 0 1 0
-0.454267 12.786622 -17.055713 21.321383 -1.535285 2.497983 0.013065 0.007576 -330071.000000 0 1 0
-0.029767 13.883422 -17.814613 22.585631 -1.568652 2.479583 0.027187 0.006337 -33098.800000 0 1 0
-0.497767 13.923722 -19.129313 23.665342 -1.535062 2.512100 0.039425 0.003075 -260594.000000 0 1 0
-0.912567 15.310722 -19.689613 24.958602 -1.511264 2.479798 0.055194 0.000192 -241319.000000 0 1 0
0.097133 16.270222 -19.621013 25.489482 1.564826 2.449275 0.061241 -0.014193 -601323.000000 0 0 1
-0.377367 17.506422 -20.004913 26.585969 -1.549244 2.422587 0.113581 -0.024688 -185197.000000 0 0 1
0.709433 18.575722 -20.256513 27.493400 1.532623 2.399088 0.138774 -0.034638 101490.000000 0 0 1
1.405733 18.306422 -21.479613 28.257299 1.494158 2.434331 0.153226 -0.046650 -149838.000000 0 0 1
2.199833 19.390722 -21.842513 29.290523 1.457832 2.412410 0.151791 -0.044060 70787.400000 0 0 1
2.899133 19.176222 -23.261513 30.285812 1.420749 2.446612 0.171359 -0.056698 -108509.000000 0 0 1
3.872433 18.189922 -23.214813 29.745529 1.361039 2.466177 0.152602 -0.049266 -640999.000000 0 0 1
4.312933 17.922422 -24.505513 30.664878 1.334642 2.496659 0.156239 -0.060732 653702.000000 0 0 1
5.454133 16.832122 -24.638213 30.333305 1.257441 2.518795 0.117215 -0.049375 47592.300000 0 0 1
6.667033 17.200822 -24.012513 30.280660 1.201025 2.486511 0.114835 -0.039103 646900.000000 0 0 1
7.721533 16.214122 -24.113213 30.066041 1.126351 2.501446 0.120604 -0.035375 847824.000000 0 0 1
8.290133 15.904522 -25.514653 31.187780 1.090299 2.528892 0.105256 -0.037138 -1201760.000000 0 0 1
9.205833 16.876722 -25.991723 32.328637 1.071434 2.504762 0.092201 -0.034004 153605.000000 0 0 1
9.327233 16.992622 -27.413043 33.574118 1.068799 2.526107 0.107287 -0.037662 16680.200000 0 0 1
9.683433 15.697822 -28.230063 33.721313 1.018068 2.562863 0.130557 -0.050195 -878111.000000 0 0 1
10.960533 15.207522 -28.017773 33.710497 0.946292 2.551931 0.112984 -0.048492 -734066.000000 0 0 1
11.118433 13.827522 -28.193103 33.311724 0.893573 2.579876 0.101107 -0.040827 -60025.100000 0 0 1
10.459933 12.790122 -27.222893 31.844675 0.885288 2.596087 0.092958 -0.035569 -654600.000000 0 0 1
9.075633 12.835522 -27.201773 31.417418 0.955340 2.617580 0.109902 -0.036934 -864402.000000 0 0 1
8.487833 11.845722 -26.308593 30.075014 0.949061 2.635749 0.119701 -0.031851 -403087.000000 0 0 1
6.977133 11.912522 -26.204613 29.618749 1.040960 2.656712 0.120082 -0.042430 -1384170.000000 0 0 1
6.522533 12.890222 -25.312723 29.145071 1.102355 2.622980 0.143888 -0.036104 -787495.000000 0 0 1
5.130833 12.840822 -25.221333 28.763306 1.190659 2.640083 0.148318 -0.050000 -62320.000000 0 0 1
4.385533 13.651422 -26.386833 30.030970 1.259959 2.643832 0.154002 -0.037704 -432022.000000 0 0 1
4.374633 13.015122 -27.637943 30.860763 1.246541 2.680505 0.154948 -0.043499 163035.000000 0 0 1
4.251133 13.938722 -28.751973 32.234082 1.274770 2.672490 0.162265 -0.058434 -87179.200000 0 0 1
4.218733 13.332122 -30.153553 33.238230 1.264332 2.707364 0.183219 -0.051008 219688.000000 0 0 1
5.464733 12.854222 -30.648983 33.681664 1.168814 2.713985 0.164119 -0.046054 161651.000000 0 0 1
5.434933 12.502822 -32.019383 34.800861 1.160741 2.739067 0.159497 -0.052312 -796154.000000 0 0 1
6.657133 11.706822 -32.537033 35.213997 1.053744 2.749156 0.155872 -0.044341 264060.000000 0 0 1
7.907233 12.402322 -32.482143 35.657138 1.003216 2.716396 0.179850 -0.046226 784152.000000 0 0 1
8.490033 12.563522 -31.147563 34.642364 0.976519 2.688546 0.171502 -0.045288 -638185.000000 0 0 1
8.810233 11.316422 -30.282643 33.507015 0.909281 2.699294 0.164070 -0.041194 -761035.000000 0 0 1
9.900933 10.524122 -30.615913 33.854390 0.815900 2.700629 0.128141 -0.041556 -532446.000000 0 0 1
9.858333 9.446122 -29.771983 32.753426 0.764048 2.711610 0.112111 -0.032477 525766.000000 0 0 1
10.922533 8.302122 -30.022923 33.009133 0.649928 2.712957 0.071149 -0.024233 -162353.000000 0 0 1
12.198533 8.571322 -29.563023 33.109577 0.612504 2.674507 0.062571 -0.023911 -737265.000000 0 0 1
12.868733 7.346722 -29.305833 32.839160 0.518745 2.673444 0.026376 -0.009232 -464707.000000 0 0 1
14.254533 7.512722 -28.657613 32.876914 0.485046 2.629383 0.028995 0.002736 271183.000000 0 0 1
14.994633 6.322922 -28.342163 32.681746 0.399054 2.620382 0.013104 0.012770 351608.000000 0 0 1
15.617833 5.698922 -29.479083 33.843917 0.349885 2.628092 0.014164 0.009434 -554673.000000 0 0 1
16.429233 4.500522 -28.953473 33.592826 0.267375 2.609790 0.026542 0.007430 -244140.000000 0 0 1
17.336733 4.836522 -27.943373 33.238326 0.272058 2.569366 0.021732 0.010040 -15558.400000 0 0 1
18.071633 3.742422 -27.459913 33.085290 0.204202 2.549856 0.036388 0.005637 -81854.400000 0 0 1
18.788433 4.098622 -26.136903 32.449061 0.214781 2.507273 0.065761 0.011731 256266.000000 0 0 1
19.895633 4.987522 -26.262693 33.323274 0.245623 2.478543 0.090355 0.008545 413743.000000 0 0 1
20.522333 5.216322 -25.029113 32.784640 0.248907 2.439419 0.108135 -0.001566 -532377.000000 0 0 1
21.451533 6.406522 -25.132513 33.657911 0.290219 2.413890 0.117985 -0.010939 -393400.000000 0 0 1
20.838533 7.702322 -25.383333 33.732533 0.354045 2.422628 0.115377 -0.005993 726608.000000 0 0 1
21.761233 8.570422 -26.056683 35.013627 0.375184 2.410113 0.112844 -0.023847 -225412.000000 0 0 1
21.935933 8.376822 -27.628543 36.258691 0.364786 2.437168 0.157634 -0.037594 1465990.000000 0 0 1
20.758733 8.675222 -28.456343 36.275996 0.395848 2.472589 0.115274 -0.019512 2153000.000000 0 0 1
19.521833 7.979522 -28.198313 35.212492 0.388025 2.499433 0.109311 -0.008751 962786.000000 0 0 1
18.288033 8.558222 -28.973533 35.315165 0.437696 2.532955 0.060648 0.004388 -139945.000000 0 0 1
18.242733 8.359222 -30.341283 36.376741 0.429670 2.557268 0.062251 0.002115 165920.000000 0 0 1
17.304933 9.228822 -30.927153 36.621314 0.489936 2.576450 0.042943 0.006244 -610882.000000 0 0 1
17.119333 8.843122 -32.402623 37.698837 0.476806 2.605111 0.019502 0.014865 -70999.700000 0 0 1
16.394433 7.669822 -32.720343 37.392839 0.437583 2.636321 0.019457 0.018762 -334098.000000 0 0 1
15.015333 7.879922 -32.658893 36.798868 0.483284 2.662682 0.023291 0.007192 -574312.000000 0 0 1
14.122533 6.675522 -33.089433 36.591243 0.441559 2.700532 0.033726 -0.006304 123106.000000 0 0 1
14.063033 5.596122 -32.166973 35.549959 0.378722 2.701797 0.031558 -0.001968 -107926.000000 0 0 1
13.307933 4.542922 -32.708743 35.603385 0.328966 2.735566 0.040481 -0.017197 -15052.500000 0 0 1
13.045533 3.322322 -31.756953 34.492431 0.249370 2.740650 0.050080 -0.023097 349879.000000 0 0 1
14.225033 2.601022 -31.416773 34.585119 0.180850 2.710213 0.035860 -0.022318 304779.000000 0 0 1
13.963833 1.567822 -30.497693 33.579100 0.111809 2.709842 0.058843 -0.022279 294167.000000 0 0 1
13.104733 0.340722 -30.920013 33.584182 0.025994 2.740595 0.074858 -0.027157 517434.000000 0 0 1
13.914633 -0.541378 -31.685753 34.610649 -0.038887 2.727524 0.079866 -0.029715 570837.000000 0 0 1
14.853133 -1.273878 -30.891163 34.300178 -0.085556 2.691973 0.081741 -0.033021 116872.000000 0 0 1
15.303433 -2.558278 -31.539283 35.149199 -0.165639 2.684405 0.096172 -0.040648 721048.000000 0 0 1
14.280033 -3.608678 -31.516363 34.788260 -0.247526 2.704410 0.106876 -0.043719 922424.000000 0 0 1
14.564233 -4.657678 -32.408523 35.834664 -0.309524 2.700745 0.120411 -0.050308 -74096.700000 0 0 1
13.686333 -5.925178 -32.165833 35.455102 -0.408565 2.707441 0.128767 -0.051489 87279.400000 0 0 1
13.793433 -6.438378 -30.867243 34.416539 -0.436713 2.683443 0.133594 -0.043214 466918.000000 0 0 1
13.138433 -7.741278 -30.758153 34.330886 -0.532447 2.681322 0.161445 -0.053789 240448.000000 0 0 1
13.274233 -8.471978 -29.427063 33.375615 -0.568055 2.650236 0.141897 -0.046635 2230420.000000 0 0 1
14.707933 -8.720678 -29.095093 33.747562 -0.535200 2.610273 0.131592 -0.042496 2563870.000000 0 0 1
15.010033 -9.514678 -27.976623 33.143953 -0.564965 2.575670 0.144760 -0.047743 -35186.500000 0 0 1
14.867933 -11.058478 -28.099883 33.659304 -0.639509 2.558625 0.125301 -0.029478 -473209.000000 0 0 1
13.536433 -11.472578 -28.045433 33.187367 -0.703060 2.577480 0.099823 -0.033863 -431329.000000 0 0 1
13.405333 -12.839178 -28.497773 34.009859 -0.763829 2.564270 0.085359 -0.031258 162283.000000 0 0 1
-10.036267 -2.816378 -17.967613 20.772428 0.273584 2.615895 0.029034 0.004140 -35743.600000 0 1 0
-11.121667 -2.492278 -18.800413 21.985414 0.220450 2.596600 0.059953 -0.006217 -193313.000000 0 1 0
-11.791067 -3.540478 -19.399213 22.975937 0.291702 2.576105 0.050578 -0.003672 -834104.000000 0 1 0
-12.757467 -3.003878 -20.396413 24.244379 0.231248 2.570451 0.073376 -0.021766 -509067.000000 0 1 0
-13.785067 -2.179178 -19.872813 24.283854 0.156785 2.529339 0.082300 -0.018897 535097.000000 0 1 0
-14.648467 -1.689678 -20.929113 25.601960 0.114841 2.527820 0.081139 -0.013368 776013.000000 0 0 1
-15.568667 -0.525278 -20.450713 25.707800 0.033727 2.490639 0.095562 -0.011688 30847.600000 0 0 1
-14.958867 0.718622 -20.535313 25.416199 -0.048003 2.511481 0.107924 -0.019479 -41446.000000 0 0 1
-15.705867 1.647022 -19.782913 25.313051 -0.104485 2.467911 0.121531 -0.017219 -220262.000000 0 0 1
-15.479467 2.997522 -20.374213 25.762523 -0.191278 2.482988 0.149889 -0.027798 -18052.400000 0 0 1
-14.161067 3.457022 -20.205113 24.914522 -0.239438 2.516617 0.154044 -0.033678 41318.900000 0 1 0
-14.034067 4.721122 -20.769813 25.507433 -0.324512 2.522258 0.169923 -0.043155 -138726.000000 0 0 1
-12.655467 5.404922 -20.679813 24.840062 -0.403633 2.554435 0.148631 -0.040157 -156952.000000 0 1 0
-12.500367 6.089222 -19.417613 23.882661 -0.453293 2.520155 0.142637 -0.047745 335270.000000 0 1 0
-11.176067 6.558022 -19.291413 23.239422 -0.530651 2.550112 0.111471 -0.028760 -389125.000000 0 1 0
-10.935667 7.139022 -17.898013 22.156112 -0.578355 2.511230 0.090907 -0.023799 -183398.000000 0 1 0
-11.635267 8.346422 -17.653013 22.730399 -0.622268 2.460088 0.101852 -0.035278 -418951.000000 0 1 0
-12.887567 8.157622 -17.067613 22.889727 -0.564320 2.412299 0.136757 -0.031512 -654978.000000 0 1 0
-13.666667 9.506622 -17.004013 23.796851 -0.607771 2.366775 0.145237 -0.034262 -60857.000000 0 1 0
-13.082267 10.535922 -16.170813 23.316229 -0.678000 2.337192 0.106621 -0.024681 245004.000000 0 1 0
-13.887967 11.698122 -16.134013 24.290493 -0.700019 2.297234 0.116799 -0.027151 -264089.000000 0 1 0
-13.313367 12.933322 -15.432513 24.138745 -0.770919 2.264417 0.112585 -0.019698 -312509.000000 0 1 0
-13.127167 12.756622 -14.041113 23.069607 -0.771083 2.225143 0.125150 -0.027087 141192.000000 0 1 0
-12.552567 13.935922 -13.520013 23.120718 -0.837576 2.195377 0.116017 -0.023518 -919290.000000 0 1 0
-12.918467 14.135022 -12.034713 22.616807 -0.830336 2.131891 0.091689 -0.027126 739223.000000 0 1 0
-14.207467 14.687522 -11.777113 23.585500 -0.802010 2.093630 0.083007 -0.022888 889345.000000 0 1 0
-15.345267 13.916622 -12.157313 24.019780 -0.736614 2.101497 0.078099 -0.018266 -352644.000000 0 1 0
-16.622067 14.319822 -11.370313 24.711018 -0.711130 2.048939 0.038553 -0.008404 260285.000000 0 1 0
-17.760867 13.598222 -11.805313 25.292794 -0.653428 2.056404 0.037771 -0.007702 -2470.640000 0 0 1
-18.879167 13.823722 -10.968213 25.842212 -0.632025 2.009129 0.119979 -0.018209 5987.480000 0 0 1
-20.170867 13.261922 -11.598013 26.781642 -0.581615 2.018679 0.108336 -0.030131 -223112.000000 0 0 1
-20.184267 11.876022 -11.612713 26.140001 -0.531832 2.031134 0.119006 -0.030561 609535.000000 0 0 1
-21.461967 11.455122 -12.089213 27.165878 -0.490274 2.031987 0.169841 -0.037948 441206.000000 0 0 1
-21.775067 10.034122 -11.566213 26.619813 -0.431805 2.020275 0.164768 -0.034320 -160765.000000 0 0 1
-20.874067 9.115622 -12.131913 25.807064 -0.411735 2.060201 0.124406 -0.034548 210943.000000 0 0 1
-21.113367 7.846222 -11.537113 25.306964 -0.355807 2.044165 0.098602 -0.031286 175823.000000 0 0 1
-19.973767 6.775622 -11.689913 24.114611 -0.327045 2.076890 0.107106 -0.030971 155502.000000 0 1 0
-19.935667 6.080622 -12.862013 24.491553 -0.296049 2.123701 0.110055 -0.032611 223561.000000 0 1 0
-19.120867 4.934122 -12.875213 23.573804 -0.252540 2.148577 0.132935 -0.033735 -676370.000000 0 1 0
-19.739967 3.711522 -13.465813 24.182014 -0.185851 2.161388 0.179529 -0.054692 402147.000000 0 1 0
-20.883767 3.081422 -12.814113 24.694703 -0.146494 2.116361 0.178504 -0.053095 1277490.000000 0 1 0
-21.599167 2.393222 -13.805313 25.745644 -0.110351 2.136748 0.167665 -0.049214 -229130.000000 0 0 1
-22.464367 1.248022 -13.189013 26.079789 -0.055499 2.101010 0.212966 -0.053677 60818.300000 0 0 1
-23.387567 0.839422 -14.182613 27.364748 -0.035876 2.115635 0.137669 -0.041990 65168.900000 0 0 1
-23.930067 -0.389278 -13.913913 27.683869 0.016266 2.097400 0.129264 -0.050682 -4256.630000 0 0 1
-25.165257 -0.795578 -14.779413 29.195105 0.031604 2.101603 0.112357 -0.032271 258909.000000 0 0 1
-26.289517 0.031122 -14.634913 30.088542 -0.001184 2.078755 0.121802 -0.048610 -96084.400000 0 0 1
-27.395187 -0.445278 -15.369213 31.415080 0.016252 2.082003 0.115719 -0.029931 224665.000000 0 0 1
-28.763087 -0.099178 -14.736113 32.318385 0.003448 2.044255 0.120012 -0.036477 -195643.000000 0 0 1
-29.057597 -0.726578 -13.554813 32.071870 0.025000 2.007151 0.136795 -0.029472 -442777.000000 0 0 1
-30.226927 -0.327878 -12.930413 32.878111 0.010847 1.974996 0.186250 -0.041460 -731638.000000 0 0 1
-30.178437 -0.735378 -11.466513 32.291791 0.024363 1.933807 0.186102 -0.041055 49192.200000 0 0 1
-30.458447 -2.123878 -11.217813 32.527945 0.069618 1.922893 0.198461 -0.026614 655417.000000 0 0 1
-29.321177 -2.937578 -11.443613 31.611977 0.099853 1.941211 0.192500 -0.039365 -194366.000000 0 0 1
-29.586107 -4.309378 -10.847913 31.805435 0.144638 1.918852 0.192026 -0.037039 -225130.000000 0 0 1
-30.730447 -4.930978 -11.392513 33.143088 0.159103 1.921690 0.192768 -0.033089 179676.000000 0 0 1
-30.978857 -6.160878 -10.833713 33.391845 0.196312 1.901218 0.195395 -0.039976 -173875.000000 0 0 1
-30.357627 -7.404378 -11.560813 33.317604 0.239234 1.925154 0.196249 -0.040106 698713.000000 0 0 1
-28.953557 -7.426778 -11.278713 31.948002 0.251093 1.931608 0.125104 -0.039185 727961.000000 0 0 1
-28.329237 -8.589478 -11.857213 31.889156 0.294392 1.951771 0.116846 -0.043848 -173762.000000 0 0 1
-26.966527 -8.943278 -11.249313 30.556879 0.320229 1.947808 0.112536 -0.052807 -681711.000000 0 0 1
-26.003347 -7.970878 -11.562013 29.553157 0.297439 1.972762 0.098887 -0.043988 519171.000000 0 0 1
-24.708467 -8.100578 -10.987813 28.228704 0.316804 1.970605 0.114766 -0.043929 232551.000000 0 0 1
-24.647067 -7.745478 -9.489413 27.523069 0.304483 1.922801 0.124282 -0.050508 -645133.000000 0 0 1
-24.918367 -6.422878 -9.078213 27.287219 0.252266 1.909952 0.124877 -0.037782 645476.000000 0 0 1
-26.303877 -6.133778 -9.096413 28.500209 0.229095 1.895650 0.129183 -0.044833 -280621.000000 0 0 1
-26.563977 -4.687378 -8.521013 28.288232 0.174658 1.876769 0.143356 -0.038238 -230144.000000 0 0 1
-26.155877 -4.657578 -7.134213 27.508543 0.176223 1.833141 0.138836 -0.035749 505892.000000 0 0 1
-26.217567 -3.296578 -6.692713 27.258405 0.125083 1.818861 0.182077 -0.048692 -65128.300000 0 0 1
-25.852917 -3.059478 -5.226413 26.552761 0.117794 1.768921 0.175157 -0.044392 22723.700000 0 0 1
-24.534667 -3.310478 -4.792313 25.216570 0.134121 1.762005 0.135236 -0.032002 -152993.000000 0 0 1
-24.293067 -2.899978 -3.487413 24.712852 0.118812 1.712386 0.118716 -0.024435 -639984.000000 0 1 0
-22.954067 -3.397178 -2.987413 23.395612 0.146932 1.698837 0.099690 -0.015230 -603706.000000 0 1 0
-22.779967 -4.818578 -2.949213 23.470054 0.208454 1.696788 0.111921 -0.015292 295796.000000 0 1 0
-21.463567 -5.106478 -2.522813 22.206427 0.233571 1.684649 0.083902 -0.014100 -80645.500000 0 1 0
-21.280567 -6.618978 -2.349713 22.409698 0.301549 1.675842 0.094109 -0.010828 38534.900000 0 1 0
-21.951567 -7.077078 -1.187913 23.094750 0.311874 1.622256 0.098332 -0.002926 1204720.000000 0 1 0
-22.901367 -8.171178 -1.329113 24.351741 0.342719 1.625403 0.124652 -0.010885 555847.000000 0 1 0
-22.990367 -9.069978 -0.098413 24.714999 0.375766 1.574778 0.120453 -0.024128 -604032.000000 0 1 0
-21.760067 -9.638478 0.206287 23.800070 0.416970 1.562129 0.085546 -0.013074 -257307.000000 0 1 0
-21.822167 -10.443178 1.353187 24.230107 0.446348 1.514920 0.047591 -0.014707 350757.000000 0 1 0
-20.443867 -11.058978 1.736087 23.308082 0.495864 1.496243 0.057071 -0.011320 72118.700000 0 1 0
-19.899267 -11.960978 0.821787 23.231900 0.541211 1.535416 0.058837 -0.001459 173689.000000 0 1 0
-18.739767 -12.509578 1.399687 22.574932 0.588608 1.508755 0.036325 -0.013351 -446019.000000 0 1 0
-18.189967 -13.682678 0.626687 22.770229 0.644914 1.543271 0.039907 -0.005350 -374460.000000 0 1 0
-19.056967 -14.794078 0.762687 24.137407 0.660127 1.539193 0.075704 -0.006529 523902.000000 0 1 0
-18.621667 -16.007278 0.122087 24.556350 0.710044 1.565825 0.077032 -0.022357 219451.000000 0 1 0
-17.452367 -16.775978 0.811887 24.221431 0.765640 1.537271 0.093325 -0.018864 6944.060000 0 1 0
-16.218567 -16.097778 0.755587 22.863755 0.781660 1.537743 0.087839 -0.011993 -525856.000000 0 1 0
-15.275267 -16.617578 1.649687 22.631817 0.827461 1.497839 0.101143 -0.021265 -165286.000000 0 1 0
-15.471567 -16.307878 3.184187 22.703641 0.811708 1.430082 0.122305 -0.026222 -300608.000000 0 1 0
-14.817667 -15.073278 3.482087 21.421762 0.793949 1.407523 0.071428 -0.022259 135124.000000 0 1 0
-14.103067 -15.137378 4.725687 21.221895 0.820756 1.346234 0.049703 -0.017076 -185851.000000 0 1 0
-14.736867 -15.462378 6.126587 22.221509 0.809418 1.291473 0.118572 -0.023511 -642998.000000 0 1 0
-15.749267 -14.518678 6.523987 22.391825 0.744764 1.275153 0.105561 -0.024211 874125.000000 0 1 0
-16.266067 -14.741778 7.840187 23.310373 0.736280 1.227770 0.131628 -0.029219 688667.000000 0 1 0
-17.198967 -16.019378 8.044787 24.842374 0.749903 1.241018 0.121203 -0.026258 249468.000000 0 1 0
-16.423267 -17.234878 8.007487 25.117416 0.809507 1.246331 0.125369 -0.017927 689527.000000 0 0 1
-17.138467 -18.428978 8.455287 26.548939 0.821666 1.246672 0.125943 -0.029504 274991.000000 0 0 1
-16.870167 -18.762878 9.931987 27.116278 0.838465 1.195795 0.148601 -0.030042 964932.000000 0 0 1
-15.507167 -19.137878 10.222287 26.668816 0.889814 1.177425 0.101899 -0.025009 912914.000000 0 0 1
-15.292767 -19.498578 11.594187 27.358517 0.905701 1.133174 0.112392 -0.025199 64548.300000 0 0 1
-13.955667 -20.223878 11.845287 27.277770 0.966773 1.121594 0.105239 -0.021053 1056980.000000 0 0 1
-12.779267 -19.404378 11.629287 25.982299 0.988416 1.106733 0.098903 -0.025712 1066100.000000 0 0 1
-11.575267 -20.148678 11.846787 26.082607 1.049343 1.099319 0.105884 -0.024536 1204490.000000 0 0 1
-10.344167 -19.251978 12.238787 25.048520 1.077753 1.060308 0.111010 -0.032748 613335.000000 0 0 1
-9.718367 -18.493478 11.203487 23.705981 1.086956 1.078556 0.099495 -0.036306 121964.000000 0 1 0
-8.558167 -17.885178 11.745987 23.045391 1.124491 1.035973 0.085182 -0.028654 508458.000000 0 1 0
-7.513567 -17.476278 10.673787 21.812926 1.164758 1.059471 0.057837 -0.018634 344263.000000 0 1 0
-6.626867 -18.392078 10.063087 21.987488 1.224965 1.095420 0.054602 -0.021932 -146410.000000 0 1 0
-5.884467 -17.744178 9.078487 20.782246 1.250581 1.118715 0.041798 -0.008895 -374515.000000 0 1 0
-4.757867 -18.569778 8.488487 20.964932 1.319976 1.153938 0.043113 -0.011256 -387511.000000 0 1 0
-3.514367 -18.449178 9.105687 20.871907 1.382562 1.119352 0.048645 -0.015186 -736230.000000 0 1 0
-2.476167 -19.121778 8.454987 21.053755 1.442018 1.157543 0.056472 -0.016869 477429.000000 0 1 0
-1.135167 -19.095278 9.260687 21.252731 1.511419 1.119935 0.058184 -0.024073 632535.000000 0 1 0
-0.074167 -19.603778 8.468287 21.354754 1.567013 1.163038 0.063825 -0.021296 134777.000000 0 1 0
1.138733 -19.735378 9.212087 21.809274 -1.513160 1.134712 0.077821 -0.029823 886081.000000 0 1 0
2.324833 -20.279578 8.345987 22.052701 -1.456655 1.182668 0.072285 -0.042405 460427.000000 0 1 0
2.109933 -21.633978 7.941987 23.142083 -1.473575 1.220492 0.095508 -0.040624 -284036.000000 0 1 0
2.657333 -22.584478 8.783987 24.377828 -1.453673 1.202178 0.113234 -0.049554 -473182.000000 0 1 0
2.554133 -24.008478 8.262287 25.518542 -1.464810 1.241079 0.135779 -0.048337 7767.350000 0 0 1
2.875433 -24.945178 9.213187 26.747203 -1.456033 1.219139 0.130335 -0.053573 -208708.000000 0 0 1
2.547633 -26.260198 8.831887 27.822485 -1.474084 1.247771 0.143066 -0.050808 -913940.000000 0 0 1
2.273133 -27.176108 10.054087 29.065317 -1.487346 1.217584 0.155026 -0.055618 435266.000000 0 0 1
1.160433 -26.961298 10.897487 29.103495 -1.527782 1.187004 0.166039 -0.057884 417584.000000 0 0 1
-0.139567 -26.896548 10.299087 28.801302 1.565607 1.205109 0.161734 -0.044622 -42552.600000 0 0 1
-1.229967 -26.851838 11.351687 29.178671 1.525023 1.171206 0.149891 -0.048832 -225645.000000 0 0 1
-1.176167 -28.057478 12.104987 30.579996 1.528901 1.163807 0.163490 -0.057122 -263368.000000 0 0 1
-1.910367 -28.003768 13.339987 31.077577 1.502684 1.127136 0.139862 -0.062676 158173.000000 0 0 1
-1.761567 -29.314548 14.167887 32.606363 1.510777 1.121299 0.123400 -0.053748 126847.000000 0 0 1
-1.970567 -29.025268 15.515987 32.971127 1.503009 1.080833 0.135328 -0.060194 -74300.900000 0 0 1
-1.733567 -30.119008 16.350687 34.314791 1.513303 1.074137 0.143246 -0.058349 24524.600000 0 0 1
-1.828967 -29.738528 17.854087 34.734617 1.509372 1.030938 0.141246 -0.051127 818253.000000 0 0 1
-3.140167 -29.517188 18.424187 34.936739 1.464811 1.015308 0.147675 -0.044277 735197.000000 0 0 1
-3.111267 -29.171118 19.783187 35.383734 1.464542 0.977492 0.130064 -0.043340 144014.000000 0 0 1
-4.564667 -29.086348 20.309087 35.767455 1.415131 0.966954 0.135886 -0.040393 -21543.700000 0 0 1
-5.355167 -28.079548 19.709587 34.721847 1.382345 0.967157 0.111628 -0.032670 125280.000000 0 0 1
-6.506467 -27.760118 20.478087 35.104278 1.340570 0.947949 0.110657 -0.034221 178251.000000 0 0 1
-6.277867 -26.714878 21.621287 34.936748 1.339989 0.903494 0.159284 -0.043433 -850602.000000 0 0 1
-5.305067 -27.118588 22.544487 35.662522 1.377611 0.886456 0.176592 -0.043209 -76883.600000 0 0 1
-5.229667 -26.338268 23.715887 35.825928 1.374788 0.847345 0.197969 -0.051577 20517.200000 0 0 1
-4.012367 -26.765578 24.594987 36.570598 1.421997 0.833168 0.223408 -0.051065 242924.000000 0 0 1
-4.112367 -28.006868 25.302587 37.967317 1.425004 0.841385 0.210701 -0.052688 203752.000000 0 0 1
-3.360267 -29.055558 24.705387 38.286721 1.455658 0.869416 0.199164 -0.043536 125493.000000 0 0 1
-3.663167 -30.334438 25.492187 39.792569 1.450619 0.875482 0.184110 -0.034998 112192.000000 0 0 1
-3.282667 -30.423478 26.880587 40.729963 1.463313 0.850016 0.179956 -0.049733 248860.000000 0 0 1
-3.985367 -31.413018 27.632787 42.026561 1.444601 0.853290 0.151292 -0.045760 -186835.000000 0 0 1
-3.520367 -31.368088 29.126987 42.950336 1.459036 0.825547 0.180212 -0.046809 -190907.000000 0 0 1
-2.151867 -31.696248 29.201587 43.151076 1.503010 0.827486 0.176683 -0.048890 -65812.200000 0 0 1
-1.656367 -31.556268 30.501387 43.918974 1.518355 0.803082 0.181324 -0.059978 -224674.000000 0 0 1
-28.896027 2.705622 -9.471813 30.528937 -0.093361 1.886260 0.216290 -0.037039 -1134940.000000 0 0 1
-29.659667 2.439922 -10.564413 31.579359 -0.082079 1.911908 0.202264 -0.042973 -415472.000000 0 0 1
-30.531917 3.498822 -10.861113 32.594532 -0.114098 1.910512 0.193804 -0.040829 173313.000000 0 0 1
-31.340177 3.233022 -12.198813 33.785650 -0.102795 1.940206 0.181048 -0.044136 960114.000000 0 0 1
-32.463137 2.315122 -12.062513 34.709066 -0.071195 1.925734 0.201161 -0.045880 1077320.000000 0 0 1
-33.165097 2.315222 -13.308813 35.810730 -0.069696 1.951575 0.199049 -0.046089 -138253.000000 0 0 1
-34.541337 1.626722 -13.232813 37.025093 -0.047060 1.936280 0.217138 -0.043668 -298347.000000 0 0 1
-34.593373 0.299522 -12.732713 36.863439 -0.008658 1.923464 0.225526 -0.042976 -725143.000000 0 0 1
-35.854987 -0.277578 -12.680313 38.032190 0.007742 1.910715 0.221567 -0.037250 -433419.000000 0 0 1
-35.827531 -1.731478 -12.193613 37.885277 0.048291 1.898486 0.218574 -0.033605 106654.000000 0 0 1
-35.428071 -2.668978 -13.219313 37.908072 0.075193 1.927002 0.213037 -0.027878 89867.800000 0 0 1
-35.275600 -3.894678 -12.556713 37.645817 0.109962 1.910862 0.219448 -0.031312 61705.500000 0 0 1
-34.989604 -5.037678 -13.600013 37.876259 0.142994 1.938061 0.223976 -0.031847 69429.200000 0 0 1
-34.853608 -6.349078 -13.053213 37.755412 0.180188 1.923814 0.212787 -0.041909 150851.000000 0 0 1
-35.215355 -7.292178 -14.015813 38.597151 0.204188 1.942422 0.205984 -0.031752 -668008.000000 0 0 1
-35.019968 -8.777678 -13.565113 38.567578 0.245588 1.930208 0.183925 -0.036245 87429.700000 0 0 1
-33.682707 -9.187278 -13.352313 37.379340 0.266282 1.936077 0.180502 -0.037016 398394.000000 0 0 1
-32.956177 -9.364878 -14.572613 37.231325 0.276864 1.972957 0.179140 -0.036524 -567296.000000 0 0 1
-31.716027 -10.231578 -14.365313 36.289858 0.312059 1.977789 0.162137 -0.035422 -398763.000000 0 0 1
-32.122457 -11.553578 -14.132613 36.946829 0.345266 1.963310 0.136957 -0.033772 969852.000000 0 0 1
-31.007017 -12.451078 -13.959713 36.212402 0.381848 1.966541 0.150143 -0.035903 428207.000000 0 0 1
-31.408597 -13.879578 -14.448913 37.254714 0.416101 1.969085 0.154727 -0.029202 -22976.200000 0 0 1
-31.497067 -14.000778 -15.892013 37.955804 0.418280 2.002807 0.157919 -0.030289 60042.000000 0 0 1
-31.590117 -15.343778 -16.396613 38.758430 0.452154 2.007601 0.164879 -0.034861 120504.000000 0 0 1
-30.450477 -16.345278 -16.015713 38.090717 0.492639 2.004751 0.130295 -0.020038 1083870.000000 0 0 1
-29.181057 -15.872278 -16.513413 37.096578 0.498166 2.032134 0.142508 -0.027859 -50033.500000 0 0 1
-28.183127 -16.840678 -16.415513 36.706486 0.538612 2.034440 0.141257 -0.022776 124533.000000 0 0 1
-26.782077 -16.261178 -16.716313 35.512542 0.545672 2.060898 0.143798 -0.029820 152849.000000 0 0 1
-26.856157 -15.722478 -18.057713 35.979584 0.529640 2.096576 0.135078 -0.032720 1106650.000000 0 0 1
-25.565387 -15.446078 -18.681213 35.230073 0.543487 2.129707 0.099079 -0.028675 1131050.000000 0 0 1
-25.858257 -14.960378 -20.148813 36.033832 0.524501 2.164173 0.099566 -0.037565 48912.300000 0 0 1
-26.201897 -16.089178 -20.898213 37.177094 0.550684 2.167751 0.099183 -0.039890 -1595740.000000 0 0 1
-27.523427 -16.202978 -21.154113 38.308903 0.532068 2.155795 0.130943 -0.050951 -1979120.000000 0 0 1
-27.866117 -17.508178 -21.892413 39.526377 0.560966 2.157800 0.131695 -0.047874 -434078.000000 0 0 1
-27.389567 -17.562778 -23.228613 39.977594 0.570179 2.190803 0.118275 -0.041083 321489.000000 0 0 1
-27.874697 -18.834278 -23.743913 41.176476 0.594214 2.185404 0.121703 -0.046899 -254387.000000 0 0 1
-27.213077 -19.272178 -25.063213 41.714902 0.616205 2.215325 0.102496 -0.046504 1699120.000000 0 0 1
-25.764847 -19.406378 -24.927513 40.765374 0.645553 2.228735 0.097912 -0.039424 1426890.000000 0 0 1
-25.377367 -20.687578 -24.403213 40.835076 0.683940 2.211306 0.099572 -0.035762 494076.000000 0 0 1
-23.829267 -20.965678 -24.459513 40.070705 0.721558 2.227373 0.095526 -0.020300 806188.000000 0 0 1
-23.354367 -21.037078 -25.763033 40.641346 0.733244 2.257397 0.089184 -0.022350 -282010.000000 0 0 1
-21.955967 -21.211078 -25.677273 39.891060 0.768144 2.270100 0.069877 -0.018046 172583.000000 0 0 1
-21.218767 -21.066978 -27.055973 40.324674 0.781809 2.306290 0.051822 -0.012757 -198611.000000 0 0 1
-21.466767 -22.192378 -27.937083 41.638976 0.802017 2.306266 0.075649 -0.015134 -213750.000000 0 0 1
-22.039767 -21.765778 -29.130563 42.521643 0.779144 2.325505 0.090963 -0.008606 30133.300000 0 0 1
-21.046767 -21.804078 -30.324663 42.871545 0.803070 2.356521 0.078125 -0.019052 295160.000000 0 0 1
-20.805567 -23.124878 -30.789183 43.767629 0.838144 2.351063 0.079289 -0.028846 -18186.100000 0 0 1
-20.089867 -22.985878 -31.994473 44.222162 0.852528 2.379647 0.076520 -0.026321 -190476.000000 0 0 1
-19.924167 -24.358778 -32.598743 45.310049 0.885208 2.373820 0.094475 -0.027749 48390.000000 0 0 1
-19.320067 -24.472478 33.487074 45.755342 0.902515 0.749731 0.095330 -0.030807 -125470.000000 0 0 1
-20.214067 -24.219378 32.448283 45.255694 0.875297 0.771309 0.086526 -0.019219 -713801.000000 0 0 1
-19.479167 -24.081778 31.120064 43.907042 0.890667 0.783041 0.085770 -0.016382 2491.200000 0 0 1
-18.874167 -22.811278 30.919094 42.808632 0.879567 0.763727 0.065841 -0.018296 -134471.000000 0 0 1
-17.970767 -22.827378 29.838574 41.645866 0.903881 0.772048 0.068242 -0.015090 119483.000000 0 0 1
-17.165867 -21.494578 29.782874 40.542613 0.896901 0.745710 0.056905 -0.010159 385741.000000 0 0 1
-17.926367 -20.314178 29.359454 39.949944 0.847759 0.745268 0.050575 -0.013889 424870.000000 0 0 1
-17.157867 -19.106078 29.189774 38.877725 0.839070 0.721509 0.059148 -0.015920 -10938.900000 0 0 1
-16.526967 -18.515178 30.461574 39.291983 0.842075 0.683667 0.069654 -0.022171 -117701.000000 0 0 1
-15.889167 -17.288078 30.243474 38.288523 0.827538 0.660177 0.081825 -0.026067 -314789.000000 0 0 1
-15.410267 -16.732678 31.431947 38.799821 0.826517 0.626464 0.077283 -0.028567 -286598.000000 0 0 1
-14.685467 -15.402578 31.172564 37.744285 0.809227 0.599020 0.085267 -0.033164 243445.000000 0 0 1
-13.444167 -15.631178 30.501974 36.816433 0.860476 0.594394 0.098479 -0.041398 329360.000000 0 0 1
-12.965367 -14.401478 29.954364 35.675863 0.837826 0.574203 0.077511 -0.035843 1211190.000000 0 0 1
-11.395367 -14.373278 29.726364 34.929961 0.900451 0.552857 0.116594 -0.041876 1291560.000000 0 0 1
-10.965867 -13.094378 29.293004 33.908598 0.873634 0.527871 0.124514 -0.041003 809653.000000 0 0 1
-9.703067 -12.714978 29.891074 33.901275 0.918951 0.491323 0.110781 -0.039526 954953.000000 0 0 1
-9.555667 -11.222078 29.676194 33.134910 0.865429 0.460980 0.084342 -0.028397 160778.000000 0 0 1
-10.369267 -10.478178 30.602134 33.967698 0.790622 0.448915 0.071616 -0.023233 548595.000000 0 0 1
-9.966167 -9.108478 30.581574 33.429351 0.740464 0.415754 0.037320 -0.012410 -200697.000000 0 0 1
-10.679667 -8.306078 31.651342 34.421703 0.661024 0.403946 0.022476 -0.013143 -227817.000000 0 0 1
-12.009367 -8.046078 31.246534 34.428333 0.590295 0.433308 0.052491 -0.026556 -300756.000000 0 0 1
-12.838567 -7.417778 32.192995 35.443492 0.523916 0.431616 0.051051 -0.024548 -332980.000000 0 0 1
-12.572867 -6.003678 32.717186 35.560306 0.445495 0.402594 0.035469 -0.021984 -529914.000000 0 0 1
-12.668667 -4.977078 31.718856 34.515971 0.374341 0.405357 0.035221 -0.032051 180557.000000 0 0 1
-12.834567 -3.736678 32.291856 34.949290 0.283310 0.392480 0.047535 -0.036906 -417535.000000 0 0 1
-12.307267 -2.576778 31.413909 33.836996 0.206389 0.380741 0.059145 -0.030548 40492.300000 0 0 1
-10.895867 -2.565578 31.373213 33.310368 0.231251 0.342716 0.063518 -0.033304 90224.400000 0 0 1
-10.411567 -1.478678 30.573064 32.331091 0.141079 0.331288 0.068389 -0.026968 -27992.400000 0 0 1
-8.928267 -1.085978 30.699534 31.989915 0.121039 0.284996 0.085226 -0.026657 106656.000000 0 0 1
-8.603367 -0.590978 31.997015 33.138741 0.068584 0.263259 0.106256 -0.041713 -918881.000000 0 0 1
-7.251067 -0.338078 32.142126 32.951609 0.046591 0.222113 0.122622 -0.040434 -750188.000000 0 0 1
-6.961067 0.299622 33.524414 34.240802 -0.043016 0.204917 0.154856 -0.058279 -567606.000000 0 0 1
-7.569567 1.543422 -33.553833 34.431674 -0.201141 2.915300 0.152686 -0.056333 -158106.000000 0 0 1
-7.157567 2.567622 32.958133 33.823985 -0.344429 0.226754 0.155111 -0.052433 592200.000000 0 0 1
-7.937567 3.987322 33.164191 34.333180 -0.465514 0.261700 0.148904 -0.050651 1640050.000000 0 0 1
-9.224667 3.964022 32.506243 34.021519 -0.405862 0.299578 0.114501 -0.036495 587257.000000 0 0 1
-9.986767 5.084922 32.810392 34.671512 -0.470953 0.329138 0.101756 -0.022417 148113.000000 0 0 1
-11.164867 5.282522 31.799649 34.114175 -0.441928 0.370480 0.088676 -0.014616 502022.000000 0 0 1
-11.943667 6.413022 32.144525 34.886222 -0.492760 0.399102 0.091862 -0.013843 765862.000000 0 0 1
-13.059767 6.651422 31.235104 34.502618 -0.471065 0.438719 0.063737 -0.008653 793180.000000 0 0 1
-13.793867 7.936922 31.626755 35.405044 -0.522131 0.466198 0.084191 -0.019503 -263608.000000 0 0 1
-14.582867 7.861422 32.782209 36.730575 -0.494425 0.467928 0.074320 -0.020077 61352.000000 0 0 1
-14.974367 9.217122 33.181243 37.552388 -0.551758 0.487303 0.083829 -0.017092 156851.000000 0 0 1
-15.934667 9.219822 -33.005673 37.792766 -0.524537 2.632800 0.069160 -0.011241 73398.800000 0 0 1
-15.179167 9.158422 -31.815613 36.421381 -0.542883 2.633229 0.070221 -0.015694 194995.000000 0 0 1
-15.969467 9.524822 -30.671403 35.867549 -0.537797 2.596597 0.072367 -0.015910 -981320.000000 0 0 1
-15.129267 9.848222 -29.447583 34.540445 -0.577035 2.591648 0.083426 -0.026993 -12069.500000 0 0 1
-14.286767 10.958422 -29.530943 34.587213 -0.654313 2.594059 0.103863 -0.029412 -786.854000 0 0 1
-13.194567 10.861722 -30.419013 34.891115 -0.688726 2.629716 0.104193 -0.035745 -646436.000000 0 0 1
-12.374467 12.197322 -30.554723 35.149583 -0.778189 2.624534 0.101645 -0.029489 421615.000000 0 0 1
-12.928867 13.094122 -31.550953 36.524981 -0.791748 2.613597 0.096586 -0.029681 225227.000000 0 0 1
-12.248367 14.323422 -31.594723 36.788713 -0.863332 2.603750 0.095658 -0.034534 40380.700000 0 0 1
-12.840767 15.380922 -30.626953 36.598747 -0.875163 2.562264 0.113202 -0.031375 627355.000000 0 0 1
-14.145367 15.889522 -30.902423 37.517037 -0.843404 2.538685 0.097499 -0.027904 624045.000000 0 0 1
-14.502367 16.910722 -29.992453 37.360921 -0.861916 2.502733 0.071687 -0.021731 450243.000000 0 0 1
-15.893367 17.544422 -30.323413 38.469666 -0.834735 2.478743 0.063423 -0.028951 86205.200000 0 0 1
-15.857267 18.496022 -31.352543 39.705638 -0.862060 2.480993 0.067215 -0.032274 -51350.100000 0 0 1
-17.070767 19.125222 -31.713233 40.778847 -0.842097 2.461777 0.059279 -0.030834 148813.000000 0 0 1
-17.667067 20.064722 -30.665013 40.682445 -0.848858 2.424569 0.032507 -0.030571 -764994.000000 0 0 1
-17.010567 21.304422 -30.765993 41.106983 -0.897000 2.416499 0.035384 -0.023669 -111775.000000 0 0 1
-17.521067 22.377622 -30.046263 41.358477 -0.906524 2.383987 0.020075 -0.017757 -832558.000000 0 0 1
-18.876967 22.933922 -30.480533 42.560164 -0.882126 2.369103 0.032127 -0.011985 -993503.000000 0 0 1
-19.875067 22.062922 -30.049233 42.246268 -0.837520 2.362124 0.042040 -0.020377 -842204.000000 0 0 1
-20.973267 22.189622 -30.921023 43.455344 -0.813571 2.362510 0.068334 -0.028069 -871510.000000 0 0 1
-22.231767 21.405722 -30.447593 43.353342 -0.766471 2.349437 0.076277 -0.036539 -396315.000000 0 0 1
-23.057767 22.093022 -29.533193 43.496801 -0.764034 2.317160 0.129924 -0.030994 579065.000000 0 0 1
-23.960967 22.999522 -30.188243 44.882468 -0.764928 2.308522 0.138344 -0.028158 -400583.000000 0 0 1
-25.291307 22.462422 -30.738013 45.705974 -0.726228 2.308400 0.152645 -0.044467 -595801.000000 0 0 1
-25.202727 21.859022 -31.994353 46.223727 -0.714468 2.335278 0.151324 -0.041908 787112.000000 0 0 1
-26.518077 21.564122 -32.470353 47.143860 -0.682729 2.330560 0.168648 -0.040461 277300.000000 0 0 1
-26.404517 20.749022 33.585184 47.494052 -0.666030 0.785344 0.151771 -0.027091 29227.800000 0 0 1
-25.948327 19.425322 -33.539853 46.643119 -0.642614 2.373265 0.146532 -0.032547 169424.000000 0 0 1
-25.641447 18.781922 32.618874 45.543774 -0.632196 0.772441 0.131077 -0.039548 -162202.000000 0 0 1
-24.873467 17.432722 32.787215 44.694414 -0.611300 0.747212 0.100741 -0.018853 -418279.000000 0 0 1
-25.557337 16.294222 33.294584 45.024532 -0.567577 0.738504 0.110616 -0.015473 299918.000000 0 0 1
-26.054257 15.403922 32.286515 44.255216 -0.533942 0.753129 0.097090 -0.015313 -312737.000000 0 0 1
-26.934957 14.248422 32.795333 44.766542 -0.486573 0.748683 0.081290 -0.004919 307705.000000 0 0 1
-28.254587 14.694822 33.158012 45.975137 -0.479587 0.765240 0.087269 -0.004370 629723.000000 0 0 1
-29.306977 13.818722 32.824933 46.123012 -0.440602 0.778906 0.082023 0.005281 254444.000000 0 0 1
-29.528057 12.450022 33.601384 46.432340 -0.399016 0.761701 0.078709 -0.002059 -248665.000000 0 0 1
-28.497887 11.519122 33.317434 45.330686 -0.384130 0.745150 0.072021 -0.002735 -145381.000000 0 0 1
-28.909757 10.160522 33.406024 45.331807 -0.337972 0.742290 0.078972 -0.010141 -152959.000000 0 0 1
-27.772197 9.154322 -33.544543 44.500931 -0.318406 2.424613 0.061090 -0.013167 1078850.000000 0 0 1
-26.700337 8.981722 32.875904 43.294392 -0.324499 0.708472 0.053523 -0.009755 1357420.000000 0 0 1
-25.741397 10.067722 32.698742 42.815724 -0.372819 0.701758 0.047912 -0.005855 -15090.700000 0 0 1
-24.506767 9.555122 31.935569 41.373452 -0.371767 0.688995 0.041321 -0.003121 -299316.000000 0 0 1
-24.732167 9.349622 30.558224 40.409164 -0.361429 0.713279 0.042561 -0.006264 -541554.000000 0 0 1
-23.504967 9.248322 29.918764 39.155426 -0.374858 0.701147 0.052283 -0.011716 -346674.000000 0 0 1
-23.537267 9.132622 28.382374 37.986404 -0.370125 0.727000 0.074019 -0.021130 -137308.000000 0 0 1
-23.999367 10.290522 27.697854 38.066200 -0.405071 0.755945 0.051960 -0.017129 80910.800000 0 0 1
-23.934667 10.200322 26.302984 36.996781 -0.402864 0.779943 0.060621 -0.017866 -586837.000000 0 0 1
-24.381467 11.476922 25.541364 37.128654 -0.439953 0.812184 0.059911 -0.015376 576003.000000 0 0 1
-25.678777 11.998622 25.808214 38.333150 -0.437113 0.832186 0.055803 -0.015446 96254.700000 0 0 1
-26.705367 11.409722 25.035444 38.342298 -0.403770 0.859329 0.067755 -0.015748 1392.050000 0 0 1
-28.049807 12.149122 25.257224 39.652493 -0.408734 0.880242 0.067875 -0.016263 110676.000000 0 0 1
-27.953947 13.462422 24.766304 39.699241 -0.448814 0.897139 0.073518 -0.018541 669604.000000 0 0 1
-29.139197 14.191322 25.162474 41.032140 -0.453208 0.910643 0.067097 -0.024494 802193.000000 0 0 1
-29.311267 15.575022 24.416394 41.205485 -0.488425 0.936573 0.077263 -0.022266 -31969.200000 0 0 1
-28.422637 16.574422 24.895564 41.259506 -0.527931 0.923051 0.085301 -0.018441 242468.000000 0 0 1
-28.549117 17.745522 24.153694 41.392711 -0.556135 0.947733 0.068289 -0.024521 -207321.000000 0 0 1
-23.978567 -8.510578 31.405524 40.419161 0.341055 0.680917 0.112466 -0.030180 512622.000000 0 0 1
-22.791367 -8.145378 30.696324 39.090381 0.343242 0.667672 0.118949 -0.043830 488410.000000 0 0 1
-22.952667 -8.390978 29.267034 38.128634 0.350484 0.695729 0.109795 -0.038682 -42811.000000 0 0 1
-21.634767 -8.131078 28.534104 36.720194 0.359502 0.680802 0.133091 -0.042760 -1233160.000000 0 0 1
-21.303167 -6.766478 28.585484 36.286913 0.307550 0.663628 0.134340 -0.042477 337013.000000 0 0 1
-19.952967 -6.341378 28.731104 35.550110 0.307721 0.629731 0.126603 -0.034952 1532660.000000 0 0 1
-18.853567 -6.978978 27.696524 34.223684 0.354527 0.627872 0.110891 -0.041371 -5040.610000 0 0 1
-18.623567 -8.369178 27.784114 34.479521 0.422344 0.633746 0.109812 -0.046028 435724.000000 0 0 1
-18.020067 -9.005878 28.983604 35.296996 0.463463 0.607399 0.100974 -0.046237 98593.900000 0 0 1
-16.573667 -8.584478 29.336294 34.770646 0.477911 0.566641 0.080471 -0.042053 -150934.000000 0 0 1
-15.537267 -8.875878 28.448224 33.607876 0.519022 0.561467 0.068270 -0.028682 -706365.000000 0 0 1
-14.278267 -8.675678 29.014654 33.481135 0.545999 0.522454 0.066173 -0.041773 -466858.000000 0 0 1
-13.172667 -9.551378 28.456934 32.780254 0.627368 0.519410 0.063939 -0.032859 -570931.000000 0 0 1
-12.870067 -9.298978 27.140024 31.443449 0.625686 0.529346 0.080540 -0.037026 -303665.000000 0 0 1
-11.714867 -9.987478 26.741624 30.856154 0.705971 0.522339 0.100985 -0.035957 -305569.000000 0 0 1
-11.400367 -9.796678 25.280864 29.411993 0.709886 0.536422 0.087654 -0.033446 -467225.000000 0 0 1
-12.308867 -10.391178 24.429174 29.262080 0.701119 0.582953 0.084022 -0.038460 -432059.000000 0 0 1
-11.971167 -10.090878 23.069864 27.881056 0.700376 0.596265 0.101134 -0.047701 472342.000000 0 0 1
-13.014267 -10.658978 22.046254 27.731251 0.686233 0.651794 0.129163 -0.059046 -614954.000000 0 0 1
-13.111667 -12.130078 22.068054 28.391083 0.746530 0.680452 0.116881 -0.051291 342340.000000 0 0 1
-14.272667 -12.673078 21.448754 28.711757 0.726104 0.727202 0.116948 -0.050791 290764.000000 0 0 1
-15.539167 -12.360678 22.292734 29.853275 0.671962 0.727644 0.114151 -0.049371 -656499.000000 0 0 1
-16.773767 -12.921078 21.872554 30.442111 0.656376 0.769158 0.077418 -0.037767 103861.000000 0 0 1
-17.755967 -12.595678 22.803354 31.526472 0.616992 0.762215 0.070214 -0.031036 -974818.000000 0 0 1
-19.120067 -13.237778 22.681764 32.485045 0.605573 0.797886 0.082865 -0.030610 -989536.000000 0 0 1
-19.111367 -14.650078 22.806594 33.166396 0.654018 0.812561 0.075211 -0.028825 -239783.000000 0 0 1
-20.307967 -15.264678 22.408234 33.875550 0.644562 0.847997 0.062907 -0.019500 -250626.000000 0 0 1
-21.385167 -15.346878 23.491844 35.280572 0.622468 0.842153 0.067929 -0.022800 -791014.000000 0 0 1
-20.893867 -16.188978 24.478514 36.025468 0.659197 0.823745 0.064600 -0.020230 -70249.400000 0 0 1
-21.439867 -16.036778 25.750984 37.147804 0.642213 0.804872 0.054734 -0.019889 -208094.000000 0 0 1
-20.713967 -16.994078 26.802804 37.897987 0.687067 0.785216 0.051298 -0.015774 332767.000000 0 0 1
-20.944267 -18.364378 26.589714 38.508773 0.719861 0.808638 0.057216 -0.006753 214693.000000 0 0 1
-20.414867 -19.172978 27.638404 39.347824 0.754038 0.792015 0.057337 -0.007161 -346450.000000 0 0 1
-20.563967 -20.641378 27.339934 39.955165 0.787277 0.817201 0.056209 -0.002557 452503.000000 0 0 1
-21.917567 -21.099078 27.309534 40.882288 0.766373 0.839273 0.056535 -0.000183 486042.000000 0 0 1
-21.891867 -22.484078 26.891574 41.327283 0.798743 0.862293 0.067296 0.002676 551899.000000 0 0 1
-23.289867 -23.064878 26.515624 42.160228 0.780545 0.890627 0.070375 0.007561 370899.000000 0 0 1
-24.079567 -23.521778 27.586574 43.521473 0.773681 0.884261 0.062829 0.012907 -810556.000000 0 0 1
-25.182767 -24.152378 27.042574 44.145327 0.764516 0.911475 0.048575 0.014252 -668351.000000 0 0 1
-25.852737 -25.113778 28.046224 45.668989 0.770900 0.909526 0.034837 0.011877 -306051.000000 0 0 1
-26.640527 -24.462578 29.007264 46.363313 0.742805 0.894830 0.027480 0.019103 172597.000000 0 0 1
-27.213937 -25.425878 29.909834 47.766848 0.751443 0.894174 0.009763 0.023306 295779.000000 0 0 1
-28.395637 -24.854278 30.741114 48.673026 0.718991 0.887201 0.033132 0.007040 -283688.000000 0 0 1
-29.569517 -24.648378 30.036344 48.827050 0.694880 0.908210 0.036018 0.003554 -295658.000000 0 0 1
-30.468057 -23.828278 30.772754 49.427236 0.663715 0.898752 0.054379 -0.016601 -814515.000000 0 0 1
-31.648747 -23.276678 30.054064 49.464065 0.634136 0.917769 0.071144 -0.024820 -701638.000000 0 0 1
-32.797297 -24.134878 30.030564 50.596342 0.634403 0.935356 0.081880 -0.025986 131492.000000 0 0 1
-33.739467 -23.592578 29.137044 50.437374 0.610228 0.954903 0.082054 -0.024793 -1136980.000000 0 0 1
-35.084872 -24.178378 29.479074 51.812720 0.603400 0.965563 0.085596 -0.023955 -1080660.000000 0 0 1
-35.243782 -25.573838 29.261344 52.463050 0.627719 0.979122 0.088522 -0.028987 40630.900000 0 0 1
-36.411487 -26.072768 29.889154 53.841872 0.621423 0.982279 0.094268 -0.021864 187377.000000 0 0 1
-36.302047 -27.551868 30.265814 54.707984 0.649212 0.984566 0.095107 -0.027509 -123773.000000 0 0 1
-35.278762 -27.914298 31.159094 54.723744 0.669382 0.965034 0.091715 -0.028458 -62267.000000 0 0 1
-35.022997 -29.312618 31.011254 55.204508 0.696871 0.974294 0.089457 -0.042031 -162787.000000 0 0 1
-33.987078 -29.779508 32.019348 55.382120 0.719510 0.954333 0.079464 -0.028810 -451781.000000 0 0 1
-34.481694 -29.729848 33.362614 56.443911 0.711530 0.938405 0.091477 -0.021427 171578.000000 0 0 1
-33.487487 -30.001338 -33.038613 55.794641 0.730544 2.204517 0.072413 -0.024848 109935.000000 0 0 1
-33.928927 -29.777698 -31.561003 55.081578 0.720328 2.180942 0.075517 -0.026924 7942.370000 0 0 1
-33.908207 -28.419968 -31.133263 54.099364 0.697571 2.183991 0.069729 -0.016104 641899.000000 0 0 1
-32.619307 -27.815938 -30.880383 52.833168 0.706085 2.195046 0.057714 -0.016131 646334.000000 0 0 1
-32.643187 -26.267438 -30.769873 51.984046 0.677590 2.204223 0.054595 -0.013685 -223357.000000 0 0 1
-33.476987 -25.807798 -29.725903 51.675723 0.656751 2.183693 0.053464 -0.022149 -9432.640000 0 0 1
-33.423827 -24.389278 -29.636003 50.894811 0.630380 2.192350 0.047509 -0.016200 597293.000000 0 0 1
-32.227507 -23.846078 -28.765893 49.342925 0.637025 2.193187 0.054323 -0.024916 443265.000000 0 0 1
-32.239877 -22.412678 -28.772933 48.678737 0.607487 2.203191 0.051530 -0.019484 713887.000000 0 0 1
-31.118547 -21.909078 -28.021983 47.261011 0.613440 2.205476 0.083318 -0.025986 566772.000000 0 0 1
-31.032677 -20.392478 -28.286193 46.679641 0.581371 2.221774 0.096779 -0.039686 -114113.000000 0 0 1
-30.513797 -20.009878 -29.548963 46.953469 0.580417 2.251480 0.099767 -0.023847 340333.000000 0 0 1
-30.390737 -18.634878 -29.614493 46.345159 0.550052 2.263992 0.080660 -0.028557 -456663.000000 0 0 1
-29.724477 -18.123878 -30.906653 46.553632 0.547543 2.296810 0.094073 -0.023505 -67579.500000 0 0 1
-30.525557 -17.889778 -32.056993 47.744157 0.530106 2.306937 0.082054 -0.029414 -118898.000000 0 0 1
-31.364697 -16.790078 -31.839673 47.743227 0.491501 2.300829 0.080209 -0.025571 -568342.000000 0 0 1
-31.923107 -16.115578 -33.111723 48.735847 0.467500 2.317757 0.080159 -0.037283 629057.000000 0 0 1
-32.849897 -16.821678 33.386984 49.767211 0.473262 0.835424 0.088836 -0.042757 546386.000000 0 0 1
-34.181663 -16.414978 33.590354 50.657176 0.447705 0.845855 0.089448 -0.034629 56902.600000 0 0 1
-35.164217 -17.268878 32.724279 51.045222 0.456496 0.874886 0.096025 -0.040824 97124.100000 0 0 1
-35.363689 -18.579778 33.172951 51.925363 0.483754 0.877783 0.086747 -0.040389 -177722.000000 0 0 1
-36.209457 -19.150678 32.221953 52.116480 0.486489 0.904259 0.098950 -0.041971 -293734.000000 0 0 1
-36.706997 -20.594378 32.549603 53.207224 0.511286 0.912523 0.093137 -0.036145 672137.000000 0 0 1
-35.588259 -21.472278 32.359979 52.675907 0.542881 0.909270 0.097991 -0.039061 683300.000000 0 0 1
-35.837255 -22.719678 33.033199 53.774388 0.565022 0.909307 0.100568 -0.037129 -401837.000000 0 0 1
-34.588676 -23.609678 33.242183 53.468085 0.598942 0.899859 0.101033 -0.030201 192251.000000 0 0 1
-33.687497 -23.329678 -33.095413 52.672836 0.605696 2.250189 0.072048 -0.032760 116804.000000 0 0 1
-32.929267 -22.137978 -33.126233 51.689206 0.591885 2.266432 0.065850 -0.036079 -825189.000000 0 0 1
-31.599467 -22.153478 -32.364613 50.366368 0.611445 2.268662 0.065870 -0.020400 -280978.000000 0 0 1
-30.589177 -22.969678 -33.005913 50.524194 0.644082 2.282691 0.060494 -0.015131 1798700.000000 0 0 1
-29.261447 -22.853978 -32.427123 49.295587 0.663064 2.288704 0.064291 -0.015679 1310580.000000 0 0 1
-29.151527 -23.523178 -31.044633 48.651009 0.678951 2.262836 0.065959 -0.006278 -957167.000000 0 0 1
-29.299297 -24.928078 -31.091963 49.462794 0.704963 2.250539 0.057830 -0.014030 29748.000000 0 0 1
-28.947467 -25.449268 -29.794763 48.717030 0.721178 2.228863 0.062621 -0.017490 -102468.000000 0 0 1
-28.526797 -26.919368 -29.561083 49.115050 0.756415 2.216642 0.063902 -0.016049 219830.000000 0 0 1
-29.593087 -27.855348 -29.507303 50.223024 0.755159 2.198794 0.051244 -0.009925 213435.000000 0 0 1
-29.164097 -29.089108 -28.911013 50.324620 0.784111 2.182778 0.057645 -0.011997 17514.300000 0 0 1
-29.685977 -30.292918 -29.706183 51.781999 0.795517 2.181785 0.040602 0.000719 -35089.800000 0 0 1
-29.003557 -30.590668 -30.907163 52.270910 0.812024 2.203451 0.057207 -0.017163 -120650.000000 0 0 1
-29.493187 -31.818368 -31.412733 53.563200 0.823304 2.197479 0.060487 -0.008546 -305971.000000 0 0 1
-29.077887 -32.074088 -32.870943 54.357792 0.834355 2.220204 0.063483 -0.024109 -318310.000000 0 0 1
-27.686997 -32.270698 -32.941563 53.787678 0.861699 2.229936 0.062999 -0.027142 -531188.000000 0 0 1
-27.345787 -32.703258 33.148751 54.001248 0.874381 0.909866 0.080238 -0.031741 695826.000000 0 0 1
-25.796887 -32.915928 32.973428 53.255841 0.906061 0.903135 0.095091 -0.036167 800167.000000 0 0 1
-25.447247 -33.634018 31.839583 52.844759 0.923089 0.924152 0.095151 -0.027365 -1391.710000 0 0 1
-24.569367 32.852020 32.051663 52.059755 -0.928653 0.907560 0.088450 -0.014499 -463773.000000 0 0 1
-24.571867 31.989988 30.770474 50.734190 -0.915804 0.919141 0.095409 -0.024852 -7987.620000 0 0 1
-25.832157 31.411673 30.461514 50.812374 -0.882561 0.927932 0.104522 -0.046127 403325.000000 0 0 1
-25.765007 30.591883 29.281354 49.569109 -0.870838 0.938848 0.108259 -0.038572 -514454.000000 0 0 1
-27.091497 29.917503 28.944294 49.666673 -0.834929 0.948662 0.114720 -0.031776 -263538.000000 0 0 1
-27.462747 28.891453 29.883584 49.819144 -0.810745 0.927493 0.122194 -0.030949 -122231.000000 0 0 1
-28.798067 28.504523 29.702834 50.240371 -0.780276 0.938233 0.120116 -0.030921 107722.000000 0 0 1
-29.267957 27.276493 30.608634 50.373692 -0.750193 0.917722 0.120805 -0.044035 -127366.000000 0 0 1
-28.415927 26.201473 30.348134 49.142561 -0.744876 0.905169 0.118921 -0.036967 -198799.000000 0 0 1
-28.709757 24.924823 30.900204 48.993056 -0.714946 0.888334 0.113138 -0.036344 -419470.000000 0 0 1
-29.846157 24.207993 30.201574 48.876938 -0.681468 0.904714 0.119621 -0.035511 -221992.000000 0 0 1
-29.556507 24.158433 28.792194 47.814302 -0.685240 0.924584 0.107792 -0.029478 552252.000000 0 0 1
-30.552637 23.468073 27.968004 47.606967 -0.654997 0.942859 0.106355 -0.021609 640043.000000 0 0 1
-30.103017 23.329983 26.490444 46.392062 -0.659313 0.963058 0.105341 -0.034609 -200690.000000 0 0 1
-28.959807 22.516393 26.566534 45.292815 -0.660873 0.944003 0.097687 -0.030681 -224257.000000 0 0 1
-28.402237 22.225793 25.270894 44.037382 -0.664002 0.959596 0.097743 -0.023904 197960.000000 0 0 1
-26.952447 21.686693 25.347404 42.886338 -0.677557 0.938453 0.089547 -0.019218 -248176.000000 0 0 1
-26.835117 20.417893 26.043104 42.605834 -0.650418 0.913149 0.096221 -0.027979 79083.900000 0 0 1
-25.577087 19.882793 26.375704 41.775479 -0.660787 0.887480 0.085867 -0.013874 -396573.000000 0 0 1
-25.690087 18.654593 27.257704 41.844436 -0.628055 0.861361 0.101219 -0.018117 218517.000000 0 0 1
-24.432867 18.054893 27.559494 41.017921 -0.636398 0.834040 0.097654 -0.010492 430847.000000 0 0 1
-24.497167 17.112193 28.610814 41.370485 -0.609744 0.807128 0.088226 -0.013869 -564904.000000 0 0 1
-23.327567 16.145293 28.731494 40.377526 -0.605412 0.779064 0.079254 -0.019729 -135832.000000 0 0 1
-22.197467 16.654093 29.441364 40.458377 -0.643674 0.755841 0.100146 -0.015133 353597.000000 0 0 1
-21.205667 15.671493 29.595594 39.638052 -0.636439 0.727791 0.080953 -0.017785 -323410.000000 0 0 1
-19.918467 16.064193 30.306504 39.664692 -0.678690 0.701202 0.073201 -0.025917 -397734.000000 0 0 1
-20.070167 16.008993 31.704666 40.795653 -0.673307 0.680659 0.060328 -0.019270 73314.000000 0 0 1
-18.931767 16.532193 32.319941 40.942689 -0.717839 0.660974 0.057757 -0.024526 -880684.000000 0 0 1
-18.971167 16.265993 -33.527563 41.816088 -0.708778 2.501075 0.052432 -0.024709 280930.000000 0 0 1
-19.977267 16.917093 -32.746483 41.923876 -0.702643 2.467212 0.058994 -0.031401 788556.000000 0 0 1
-21.242767 16.261893 -32.831693 42.351203 -0.653364 2.457867 0.065382 -0.019484 640490.000000 0 0 1
-22.459867 17.083993 -32.245823 42.849755 -0.650279 2.422695 0.077118 -0.035634 257898.000000 0 0 1
-22.521767 16.911993 -30.850333 41.773060 -0.644088 2.401672 0.069090 -0.035916 277415.000000 0 0 1
-23.511067 17.788993 -30.324873 42.294402 -0.647726 2.370278 0.077512 -0.029845 -100582.000000 0 0 1
-23.730567 17.894093 -28.794943 41.382208 -0.646090 2.340370 0.084754 -0.033437 199672.000000 0 0 1
-24.280867 16.746393 -28.173203 40.788865 -0.603776 2.333264 0.079720 -0.035530 954909.000000 0 0 1
-25.692957 16.496593 -28.334823 41.654865 -0.570778 2.318871 0.102651 -0.034759 1100500.000000 0 0 1
-26.402397 15.519593 -27.318353 41.039454 -0.531408 2.299175 0.097309 -0.030494 353569.000000 0 0 1
-26.111617 14.138793 -27.478093 40.456985 -0.496275 2.317459 0.060252 -0.012779 82711.100000 0 0 1
-27.185477 13.367493 -26.982563 40.568445 -0.456997 2.298440 0.042665 -0.016463 260657.000000 0 0 1
-26.907097 11.856193 -27.267093 40.100568 -0.415038 2.318515 0.059908 -0.015547 -304597.000000 0 0 1
-25.886387 11.365693 -26.483293 38.738209 -0.413720 2.323546 0.055586 -0.020878 -617663.000000 0 0 1
-25.177667 10.286193 -27.055683 38.363142 -0.387850 2.353575 0.047291 -0.011685 -13745.300000 0 0 1
-24.043267 9.792593 -26.132533 36.835891 -0.386775 2.359487 0.076741 -0.019105 -50649.300000 0 0 1
-24.410867 8.911293 -25.140873 36.157504 -0.350023 2.339655 0.071064 -0.018988 -301840.000000 0 0 1
-23.236667 8.446093 -24.553013 34.844363 -0.348634 2.352723 0.111320 -0.008376 -131654.000000 0 0 1
-23.549067 7.259593 -23.563213 34.095238 -0.299031 2.333806 0.114736 -0.003979 229390.000000 0 0 1
-24.069467 6.108093 -24.202413 34.675710 -0.248523 2.343347 0.118729 -0.020477 275763.000000 0 0 1
-24.382467 5.078493 -23.368913 34.152626 -0.205349 2.324370 0.121837 -0.004168 -162007.000000 0 0 1
36.593222 24.642622 -9.909113 45.216294 0.592664 1.791739 0.046704 -0.002000 154240.000000 0 0 1
37.455422 24.048722 -8.962313 45.404545 0.570775 1.769489 0.060807 -0.007016 104524.000000 0 0 1
-37.765027 23.006622 -9.540113 45.238431 -0.547160 1.783277 0.079252 -0.015088 227894.000000 0 0 1
-36.804597 22.248022 -8.588913 43.855698 -0.543715 1.767915 0.130755 -0.021947 247610.000000 0 0 1
-37.455487 21.383122 -7.682313 43.808325 -0.518743 1.747070 0.074445 -0.011344 312683.000000 0 0 1
-36.477017 20.817022 -6.813113 42.548087 -0.518588 1.731616 0.152415 -0.017317 130009.000000 0 0 1
-37.090747 20.194322 -5.558213 42.596102 -0.498578 1.701656 0.105212 -0.004025 -89305.700000 0 0 1
-37.902047 19.106622 -5.985313 42.865512 -0.466926 1.710884 0.062819 0.004063 198003.000000 0 0 1
37.548852 18.424322 -4.867613 42.107785 0.456161 1.686654 0.074163 -0.004689 -497324.000000 0 0 1
36.969622 17.074522 -5.256513 41.059995 0.432667 1.699169 0.055393 0.001072 -210596.000000 0 0 1
36.064102 17.354622 -6.302513 40.515725 0.448508 1.726988 0.056667 0.000785 -331072.000000 0 0 1
35.505092 16.179722 -6.841813 39.613197 0.427585 1.744382 0.068129 -0.004898 177708.000000 0 0 1
34.559032 16.453322 -8.027813 39.108621 0.444340 1.777536 0.045640 -0.009726 146433.000000 0 0 1
33.975022 15.343622 -8.695713 38.279815 0.424196 1.799959 0.075427 -0.013995 4903.060000 0 0 1
33.304692 15.729622 -9.852513 38.127359 0.441239 1.832173 0.049914 -0.008419 -382591.000000 0 0 1
32.766572 14.556722 -10.682713 37.412120 0.418066 1.860368 0.063752 -0.020619 -356354.000000 0 0 1
31.610572 13.892822 -10.268113 36.023227 0.414087 1.859846 0.075593 -0.015461 -20638.900000 0 0 1
31.739152 13.120822 -9.073313 35.522595 0.392001 1.829082 0.079343 -0.019139 252873.000000 0 0 1
30.633572 11.988222 -8.995113 34.103449 0.373021 1.837714 0.109329 -0.008908 306848.000000 0 0 1
30.999472 10.871822 -9.735513 34.262866 0.337307 1.858908 0.107093 -0.009365 179021.000000 0 0 1
30.081272 9.810922 -9.899713 33.153302 0.315269 1.874026 0.161590 -0.007656 -500525.000000 0 0 1
30.709372 8.638922 -10.674313 33.639819 0.274225 1.893690 0.155171 -0.006842 563714.000000 0 0 1
31.819322 8.044622 -9.955413 34.297164 0.247633 1.865305 0.134019 -0.017354 856411.000000 0 0 1
31.502682 6.916822 -9.171113 33.531637 0.216133 1.847833 0.158700 -0.018539 -103564.000000 0 0 1
32.584262 6.628522 -8.077413 34.218650 0.200689 1.809098 0.161796 -0.015380 549889.000000 0 0 1
33.893902 6.492222 -8.579913 35.560658 0.189253 1.814476 0.123715 -0.011897 -519578.000000 0 0 1
34.860262 6.256622 -7.644813 36.232945 0.177586 1.783385 0.120465 -0.012146 1425560.000000 0 0 1
36.377822 6.470922 -8.154013 37.837900 0.176040 1.787999 0.124287 -0.013848 1904780.000000 0 0 1
36.802202 5.538522 -9.142013 38.323018 0.149373 1.811670 0.154659 -0.020406 -339741.000000 0 0 1
-37.887677 5.854322 -9.545813 39.507869 -0.153305 1.814829 0.169209 -0.022212 -1080660.000000 0 0 1
-37.308887 4.868522 -10.563213 39.079880 -0.129759 1.844499 0.168146 -0.033029 212674.000000 0 0 1
-35.980157 4.993322 -11.066113 37.973199 -0.137899 1.866506 0.186957 -0.038513 816391.000000 0 0 1
-35.576263 6.151022 -11.814013 37.987846 -0.171204 1.887036 0.175093 -0.037800 -232238.000000 0 0 1
-34.762251 7.188422 -11.013713 37.167047 -0.203914 1.871644 0.168901 -0.020447 -411112.000000 0 0 1
-35.563760 7.964522 -10.146913 37.830867 -0.220315 1.842339 0.170663 -0.014426 419115.000000 0 0 1
-36.184687 9.118622 -10.699713 38.819643 -0.246862 1.850037 0.150684 -0.020531 479814.000000 0 0 1
-37.077567 9.928922 -9.723413 39.596392 -0.261649 1.818897 0.110648 -0.018340 454559.000000 0 0 1
-36.217047 10.458522 -8.712813 38.690674 -0.281126 1.797936 0.134836 -0.009091 588092.000000 0 0 1
-36.880767 11.358022 -7.829113 39.376270 -0.298749 1.770958 0.105539 -0.011520 -176033.000000 0 0 1
-35.831587 12.170322 -7.017313 38.487167 -0.327428 1.754151 0.135918 -0.016779 498835.000000 0 0 1
-35.056340 13.094922 -7.778313 38.222063 -0.357489 1.775731 0.134279 -0.022156 -121172.000000 0 0 1
-34.508523 14.008622 -6.900013 37.877300 -0.385622 1.753987 0.168329 -0.023265 -181939.000000 0 0 1
-33.679077 15.087422 -7.579013 37.674288 -0.421170 1.773351 0.138889 -0.020704 -426380.000000 0 0 1
-34.513682 15.959722 -8.267813 38.913541 -0.433132 1.784894 0.111925 -0.016851 -370393.000000 0 0 1
-34.020331 17.235422 -8.453413 39.062807 -0.468931 1.788928 0.104643 -0.012461 -197343.000000 0 0 1
-34.629675 17.905422 -9.677713 40.168105 -0.477198 1.814121 0.086002 -0.017083 -82798.200000 0 0 1
-34.059438 17.472822 -10.872713 39.793978 -0.474001 1.847540 0.071972 -0.018372 -342539.000000 0 0 1
-34.872418 17.807622 -11.930113 40.933172 -0.472132 1.866542 0.062917 -0.013202 -190896.000000 0 0 1
-34.056196 18.063222 -13.230613 40.757252 -0.487667 1.901406 0.028413 -0.016762 219428.000000 0 0 1
-33.276397 19.244422 -13.150513 40.627606 -0.524326 1.900417 0.037187 -0.020381 69845.400000 0 0 1
-32.821107 19.637122 -14.421113 40.875544 -0.539174 1.931364 0.019147 -0.012782 -29801.100000 0 0 1
-32.015847 20.993822 -14.406913 40.906163 -0.580394 1.930711 0.024927 -0.008332 -154356.000000 0 0 1
-30.690197 20.966122 -13.923713 39.690506 -0.599330 1.929229 0.042267 -0.010231 129045.000000 0 0 1
-30.134057 22.256422 -13.808613 39.926025 -0.636152 1.923946 0.057215 -0.010749 55551.300000 0 0 1
-29.462137 22.855622 -15.062613 40.215411 -0.659786 1.954706 0.056566 -0.012443 -969766.000000 0 0 1
-30.366457 23.165122 -16.106513 41.450746 -0.651676 1.969875 0.059935 0.006909 91654.800000 0 0 1
-29.810067 23.667922 -17.328113 41.821933 -0.671046 1.998004 0.070493 0.009289 176021.000000 0 0 1
-29.129077 25.046022 -17.399813 42.172975 -0.710173 1.996083 0.085670 0.006144 753765.000000 0 0 1
-30.112017 26.094622 -17.273213 43.428409 -0.714044 1.979849 0.106640 -0.001533 929403.000000 0 0 1
-29.505767 27.390022 -17.424713 43.868260 -0.748229 1.979266 0.114005 -0.009567 718183.000000 0 0 1
-30.464087 28.570022 -16.941813 45.070298 -0.753325 1.956161 0.118558 -0.015085 422405.000000 0 0 1
-30.622237 28.945222 -15.591613 44.929341 -0.757252 1.925194 0.104213 -0.021738 795092.000000 0 0 1
-29.395637 29.323222 -14.940913 44.126927 -0.784165 1.916214 0.105082 -0.020427 602369.000000 0 0 1
-29.639787 29.755822 -13.453813 44.101372 -0.787352 1.880804 0.120602 -0.023286 -275698.000000 0 0 1
-30.439257 30.897922 -13.364013 45.385315 -0.792876 1.869683 0.111924 -0.019199 -356147.000000 0 0 1
-30.254507 31.664722 -12.149913 45.448985 -0.808169 1.841418 0.113413 -0.020358 -177133.000000 0 0 1
-29.018387 32.568122 -12.111213 45.270640 -0.842973 1.841624 0.112483 -0.024311 -149714.000000 0 0 1
-29.233207 33.576322 -13.115013 46.410703 -0.854436 1.857285 0.103562 -0.031250 -641189.000000 0 0 1
-28.311467 -32.972449 -13.171113 45.411450 0.861308 1.865064 0.117460 -0.029903 -622024.000000 0 0 1
-28.509097 -31.992549 -14.438813 45.219146 0.842911 1.895795 0.101735 -0.030756 99479.000000 0 0 1
-28.088157 -32.632849 -15.624413 45.803599 0.860104 1.918902 0.091204 -0.029279 -128490.000000 0 0 1
-28.353227 -31.847749 -16.815513 45.836079 0.843381 1.946430 0.096821 -0.019988 211704.000000 0 0 1
-27.448157 -32.148949 -18.086013 45.978910 0.864111 1.975074 0.092454 -0.020412 308124.000000 0 0 1
-27.592257 -33.411849 -18.749913 47.214866 0.880507 1.979172 0.099675 -0.015324 7438.550000 0 0 1
-26.950877 33.092822 -18.009813 46.323191 -0.887335 1.970110 0.072578 -0.027830 -358052.000000 0 0 1
-27.226817 31.671422 -18.609013 45.723888 -0.860718 1.989949 0.087622 -0.034334 262564.000000 0 0 1
-28.564977 31.230422 -18.635113 46.244617 -0.829945 1.985554 0.113667 -0.033707 449641.000000 0 0 1
-29.430797 31.826222 -19.645213 47.592170 -0.824483 1.996303 0.103262 -0.035230 1122760.000000 0 0 1
-30.948677 31.440522 -19.475013 48.224508 -0.793281 1.986507 0.102684 -0.042812 881561.000000 0 0 1
-31.320267 30.120222 -19.797713 47.750773 -0.765869 1.998305 0.106224 -0.034118 999711.000000 0 0 1
-32.741337 30.083522 -20.025813 48.765219 -0.743118 1.993972 0.109141 -0.033500 775775.000000 0 0 1
-33.096117 28.823922 -20.832913 48.581701 -0.716512 2.013985 0.113682 -0.029263 -361884.000000 0 0 1
-34.459261 28.511622 -21.012413 49.415329 -0.691227 2.010002 0.103939 -0.026634 146542.000000 0 0 1
-34.547033 27.367422 -21.780013 49.161390 -0.669954 2.029773 0.112816 -0.019306 -526764.000000 0 0 1
-35.930480 26.757622 -21.991713 49.905963 -0.640104 2.027133 0.116501 -0.023912 -962639.000000 0 0 1
-36.786447 27.529722 -22.749013 51.270321 -0.642454 2.030528 0.102026 -0.017879 -598754.000000 0 0 1
-37.909667 26.717422 -23.012913 51.774102 -0.613917 2.031398 0.103478 -0.012756 -180038.000000 0 0 1
37.103032 27.225622 -24.092213 51.945204 0.633042 2.053077 0.105920 -0.010040 -315966.000000 0 0 1
37.569492 27.293022 -25.437443 52.947514 0.628270 2.071938 0.125174 -0.025988 -523739.000000 0 0 1
36.604592 27.399622 -26.463993 52.829711 0.642559 2.095469 0.113338 -0.020125 -221516.000000 0 0 1
37.165502 27.479222 -27.906353 53.992098 0.636666 2.113975 0.109546 -0.026322 198444.000000 0 0 1
37.722182 26.213422 -28.299233 53.953249 0.607300 2.122940 0.103845 -0.021247 187065.000000 0 0 1
-37.577797 26.312822 -29.546483 54.566016 -0.610875 2.142995 0.079133 -0.016005 -572475.000000 0 0 1
-37.016477 24.945622 -30.127213 53.853065 -0.592998 2.164499 0.062758 -0.008961 927983.000000 0 0 1
-35.818759 24.352222 -29.618003 52.471328 -0.597090 2.170576 0.076426 -0.007979 686165.000000 0 0 1
-34.658009 25.172222 -29.742333 52.148104 -0.628162 2.177720 0.067160 -0.003951 -173527.000000 0 0 1
-33.507597 24.727222 -28.814003 50.640313 -0.635750 2.176078 0.072965 -0.007661 718.867000 0 0 1
-32.974087 23.411322 -29.041463 49.787418 -0.617400 2.193593 0.089831 -0.016814 207293.000000 0 0 1
-33.495167 22.475022 -28.169733 49.199458 -0.590992 2.180424 0.060494 -0.011043 -208273.000000 0 0 1
-33.160387 21.058822 -28.625503 48.605603 -0.565800 2.200536 0.061721 -0.021094 1306660.000000 0 0 1
-31.746537 20.782622 -28.832973 47.656063 -0.579632 2.220590 0.106656 -0.025967 1289390.000000 0 0 1
-31.552787 19.416722 -29.175603 47.157218 -0.551646 2.237868 0.096006 -0.026326 -379849.000000 0 0 1
-30.089107 18.968422 -29.166873 45.998498 -0.562479 2.257619 0.122570 -0.030040 -239905.000000 0 0 1
-29.356037 19.341522 -30.338283 46.435792 -0.582579 2.282782 0.138112 -0.036837 972608.000000 0 0 1
-28.015417 18.810622 -30.360523 45.392339 -0.591299 2.303453 0.139762 -0.042346 876350.000000 0 0 1
-27.792947 17.438522 -31.107613 45.213201 -0.560355 2.329554 0.127632 -0.035199 22458.200000 0 0 1
-28.494277 16.434522 -30.356113 44.760596 -0.523160 2.316091 0.097979 -0.020152 312153.000000 0 0 1
-28.651057 15.259822 -31.035613 44.910516 -0.489394 2.333743 0.065231 -0.011951 -112454.000000 0 0 1
-29.200077 14.069422 -30.275223 44.352928 -0.449005 2.322108 0.067565 -0.003314 426497.000000 0 0 1
-30.616807 14.153422 -30.076533 45.191880 -0.433016 2.298999 0.071175 -0.004944 669142.000000 0 0 1
-31.289617 12.922422 -29.913053 45.175434 -0.391658 2.294485 0.062948 -0.003844 -3679.440000 0 0 1
-30.991477 12.059022 -28.692663 43.922210 -0.371081 2.282680 0.054758 -0.022117 -557836.000000 0 0 1
-31.098587 12.765622 -27.478873 43.418564 -0.389516 2.256068 0.034615 -0.020496 250955.000000 0 0 1
-31.278187 11.834622 -26.442663 42.633293 -0.361719 2.239839 0.042662 -0.006610 4820.830000 0 0 1
-31.212427 12.488122 -25.056613 41.928542 -0.380593 2.211304 0.042148 -0.018524 662251.000000 0 0 1
-29.855377 12.755422 -24.687013 40.785940 -0.403767 2.220917 0.043960 -0.023854 461227.000000 0 0 1
-29.664077 13.320522 -23.374013 40.046701 -0.422060 2.194036 0.042702 -0.012817 395137.000000 0 0 1
-28.147597 13.372622 -23.014213 38.739750 -0.443521 2.206908 0.065475 -0.013088 96711.000000 0 0 1
-27.287767 14.190722 -23.795613 38.887402 -0.479551 2.229270 0.087851 -0.018273 201845.000000 0 0 1
-25.932407 14.202922 -23.405313 37.709699 -0.501068 2.240394 0.083856 -0.026551 188208.000000 0 0 1
-25.657877 14.907622 -22.026913 36.956038 -0.526343 2.209344 0.085142 -0.020669 -1105570.000000 0 0 1
-25.795607 16.298922 -22.003813 37.619622 -0.563509 2.195556 0.101764 -0.018112 166236.000000 0 0 1
-26.191427 16.791122 -20.755113 37.399296 -0.570088 2.159111 0.101135 -0.009508 235074.000000 0 0 1
-27.717567 17.075922 -20.636113 38.544776 -0.552151 2.135754 0.098791 -0.016022 272854.000000 0 0 1
-28.464657 15.861322 -20.541913 38.519974 -0.508376 2.133269 0.092497 -0.019440 675148.000000 0 0 1
-29.758827 16.183722 -20.007613 39.342156 -0.498093 2.104301 0.074023 -0.011044 -135960.000000 0 0 1
-30.832787 15.076922 -20.056713 39.752309 -0.454801 2.099648 0.057105 -0.015060 216582.000000 0 0 1
-31.372417 14.872622 -21.387613 40.778100 -0.442687 2.122910 0.053469 -0.011878 224297.000000 0 0 1
-32.353797 15.851522 -21.700213 42.058747 -0.455570 2.112913 0.043207 -0.011187 -753323.000000 0 0 1
-32.794687 15.797522 -23.164613 43.146871 -0.448909 2.137529 0.032828 -0.010310 324713.000000 0 0 1
-33.972403 14.984122 -23.269713 43.819261 -0.415401 2.130622 0.045188 -0.011436 440556.000000 0 0 1
-34.610684 15.239222 -24.493813 45.056411 -0.414762 2.145547 0.038689 -0.016032 -415827.000000 0 0 1
-35.902191 14.491322 -24.793213 45.974658 -0.383635 2.140378 0.046674 -0.024644 -392189.000000 0 0 1
-35.816202 13.121222 -25.183613 45.707561 -0.351165 2.154326 0.050911 -0.021650 31570.500000 0 0 1
-35.300436 12.145722 -24.251213 44.516971 -0.331380 2.146903 0.046583 -0.019939 -32152.900000 0 0 1
-35.402134 10.731422 -24.889413 44.586516 -0.294325 2.163044 0.052126 -0.021189 -156802.000000 0 0 1
-36.733547 10.362522 -25.139003 45.702350 -0.274955 2.153232 0.063151 -0.012881 -19002.300000 0 0 1
-36.581377 9.072722 -25.696453 45.615996 -0.243109 2.169196 0.065781 -0.003860 626331.000000 0 0 1
-37.896737 8.314322 -26.096563 46.758114 -0.215972 2.162913 0.093916 -0.009785 337554.000000 0 0 1
37.322432 7.874222 -24.980113 45.595760 0.207929 2.150601 0.081775 -0.005565 236182.000000 0 0 1
36.153052 7.258122 -25.519633 44.843897 0.198127 2.176179 0.101936 -0.009145 98812.000000 0 0 1
35.427852 6.488922 -24.414313 43.512038 0.181151 2.166502 0.100372 -0.018191 -271901.000000 0 0 1
36.140752 5.377322 -23.947013 43.686714 0.147705 2.150951 0.076899 -0.019480 -54554.300000 0 0 1
35.363762 4.597022 -23.066113 42.470858 0.129268 2.144926 0.092394 -0.017174 -157742.000000 0 0 1
36.133472 3.566822 -22.228413 42.572906 0.098394 2.120138 0.061061 -0.016239 -415515.000000 0 0 1
36.670842 2.526122 -23.001513 43.361291 0.068778 2.129942 0.072860 -0.020483 266303.000000 0 0 1
37.671092 1.745822 -22.367213 43.845767 0.046311 2.106137 0.099900 -0.022028 202933.000000 0 0 1
-37.737677 0.599022 -23.209713 44.307808 -0.015872 2.122136 0.117566 -0.016564 156941.000000 0 0 1
37.228832 -0.298978 -23.633313 44.097718 -0.008031 2.136406 0.101086 -0.023860 78979.800000 0 0 1
37.729602 -1.325178 -24.424513 44.964828 -0.035109 2.145030 0.115556 -0.021512 -108254.000000 0 0 1
-23.776067 28.884122 26.835234 46.040457 -0.882096 0.948550 0.093511 -0.028974 -201471.000000 0 0 1
-24.998367 29.390422 26.290434 46.689422 -0.865976 0.972674 0.083403 -0.035712 865624.000000 0 0 1
-25.300007 29.057022 24.937824 45.894400 -0.854406 0.996345 0.081330 -0.031115 -196113.000000 0 0 1
-25.730607 27.588122 24.643024 45.060484 -0.820222 0.992154 0.077437 -0.022747 674645.000000 0 0 1
-27.042887 27.194322 25.120914 45.846583 -0.788190 0.990904 0.087755 -0.026097 1146270.000000 0 0 1
-27.184837 26.885222 26.510954 46.525920 -0.779857 0.964521 0.090607 -0.027947 -587448.000000 0 0 1
-26.619727 25.535122 27.098994 45.771255 -0.764605 0.937193 0.090055 -0.028125 -558040.000000 0 0 1
-25.292817 25.511522 27.491464 45.236544 -0.789703 0.917601 0.091096 -0.024856 -866848.000000 0 0 1
-25.154897 25.919022 28.829644 46.213774 -0.800358 0.897160 0.090449 -0.024160 46540.400000 0 0 1
-23.772667 25.652222 29.479074 45.740485 -0.823408 0.870446 0.094179 -0.013906 588925.000000 0 0 1
-22.720867 26.548522 28.990774 45.404039 -0.862931 0.878240 0.088345 -0.021464 1215130.000000 0 0 1
-21.417667 26.350822 29.505224 44.984892 -0.888306 0.855433 0.102725 -0.022426 584119.000000 0 0 1
-20.679467 24.977922 29.378414 43.756464 -0.879267 0.834690 0.107954 -0.009149 -755087.000000 0 0 1
-20.127667 24.909722 28.084254 42.595100 -0.891181 0.850868 0.096427 -0.018099 45608.700000 0 0 1
-20.841767 24.078622 27.154864 41.851474 -0.857331 0.864739 0.106407 -0.021469 45504.600000 0 0 1
-20.575367 22.561322 27.221934 40.907122 -0.831404 0.842690 0.109048 -0.011569 150059.000000 0 0 1
-21.065967 21.827022 28.363244 41.529116 -0.803139 0.818972 0.088518 -0.011964 217140.000000 0 0 1
-20.681067 20.461222 28.307024 40.591326 -0.780055 0.799080 0.098204 -0.009456 96937.600000 0 0 1
-21.025967 19.815922 29.693474 41.430236 -0.755779 0.771723 0.096325 -0.010530 -247286.000000 0 0 1
-20.152867 20.224622 30.696404 41.921863 -0.787175 0.749207 0.089085 -0.021565 -209248.000000 0 0 1
-20.632867 19.872322 31.999017 42.948358 -0.766624 0.730175 0.073731 -0.020092 -489603.000000 0 0 1
-19.885067 20.480822 33.173609 43.764921 -0.800156 0.710562 0.076130 -0.025128 -665520.000000 0 0 1
-19.998767 21.905822 33.254684 44.561078 -0.830876 0.728353 0.054872 -0.023255 145347.000000 0 0 1
-19.128367 22.602322 32.388991 43.884007 -0.868454 0.740607 0.088790 -0.014318 265756.000000 0 0 1
-17.643267 22.737822 32.842126 43.668051 -0.910897 0.719575 0.077677 -0.012594 402324.000000 0 0 1
-16.857067 21.549022 32.815200 42.724213 -0.906963 0.694974 0.100483 -0.030416 -380681.000000 0 0 1
-15.536667 21.802222 33.213167 42.659575 -0.951652 0.678424 0.075498 -0.023948 -826248.000000 0 0 1
-14.647567 20.572422 32.847607 41.433574 -0.952062 0.655444 0.076607 -0.031377 666369.000000 0 0 1
-13.272867 20.572822 33.271054 41.308268 -0.997827 0.634390 0.068670 -0.025066 840838.000000 0 0 1
-13.045767 20.449122 -32.730233 40.738517 -1.002930 2.503817 0.078952 -0.027831 -525414.000000 0 0 1
-11.584667 20.278222 -32.268113 39.832674 -1.051758 2.515105 0.084745 -0.024068 3029.520000 0 0 1
-10.878767 21.486822 -32.415923 40.383451 -1.102122 2.502610 0.085758 -0.020358 -323039.000000 0 0 1
-9.612267 21.371322 -31.793643 39.496390 -1.148130 2.506431 0.081671 -0.023996 45309.100000 0 0 1
-8.754667 22.657122 -31.933443 40.121492 -1.202071 2.491320 0.086910 -0.017804 28701.200000 0 0 1
-8.744467 23.607922 -30.873573 39.836882 -1.216061 2.457511 0.078578 -0.016306 199544.000000 0 0 1
-7.992167 23.167622 -29.732533 38.530987 -1.238608 2.452232 0.069347 -0.018938 100822.000000 0 0 1
-7.650067 24.199322 -28.596883 38.234963 -1.264610 2.415727 0.074235 -0.020257 873456.000000 0 0 1
-6.474367 24.966122 -28.930603 38.758282 -1.317060 2.413487 0.090081 -0.014001 638082.000000 0 0 1
-6.142767 26.043922 -28.047593 38.764506 -1.339168 2.379710 0.108846 -0.015937 -257897.000000 0 0 1
-4.966667 26.879722 -28.573423 39.542733 -1.388083 2.378347 0.119776 -0.028784 -176739.000000 0 0 1
-3.773567 26.129322 -28.382733 38.762879 -1.427369 2.392364 0.107056 -0.016808 373729.000000 0 0 1
-2.632167 26.495222 -29.143323 39.474781 -1.471776 2.401309 0.120539 -0.018039 674126.000000 0 0 1
-1.753767 27.725122 -28.830203 40.036716 -1.507625 2.374734 0.127171 -0.026086 -215959.000000 0 0 1
-0.936767 27.606122 -27.696863 39.116387 -1.536876 2.357548 0.141002 -0.044870 278564.000000 0 0 1
0.020333 28.659322 -27.612343 39.796967 1.570087 2.337591 0.136892 -0.040186 -201105.000000 0 0 1
0.702933 28.671322 -26.196603 38.843285 1.546284 2.310972 0.150489 -0.055670 363884.000000 0 0 1
1.699433 27.693122 -25.927403 37.974034 1.509507 2.322339 0.192052 -0.063360 1232410.000000 0 0 1
2.971333 27.914222 -26.563413 38.647736 1.464751 2.328591 0.171167 -0.061515 460848.000000 0 0 1
4.227633 28.108622 -25.695613 38.317516 1.421512 2.305810 0.167313 -0.066781 -118011.000000 0 0 1
4.591533 26.932422 -25.015613 37.043466 1.401936 2.312174 0.163189 -0.056061 -94498.000000 0 0 1
5.762033 27.032222 -24.259413 36.775823 1.360785 2.291158 0.122106 -0.047401 -221569.000000 0 0 1
6.407533 25.810422 -23.620913 35.569395 1.327462 2.297059 0.123074 -0.039815 809502.000000 0 0 1
7.703433 26.067722 -23.039913 35.632942 1.283458 2.273902 0.116053 -0.043747 538580.000000 0 0 1
8.185333 24.898722 -22.412313 34.485617 1.253181 2.278253 0.107490 -0.033353 729802.000000 0 0 1
9.719833 24.953422 -22.114713 34.730519 1.199358 2.261074 0.102397 -0.012650 -142048.000000 0 0 1
9.946833 25.764922 -20.954313 34.667765 1.202364 2.219849 0.110399 -0.022269 651681.000000 0 0 1
11.308933 26.078222 -20.637913 35.126757 1.161618 2.198795 0.128681 -0.028286 708982.000000 0 0 1
12.171533 24.915322 -20.093713 34.244368 1.116378 2.197866 0.091248 -0.009776 -394195.000000 0 0 1
12.366233 23.946322 -21.032613 34.186559 1.094103 2.233475 0.077961 -0.006864 -506638.000000 0 0 1
12.963533 22.809322 -20.590113 33.350728 1.053979 2.236206 0.057322 0.005161 -509871.000000 0 0 1
12.835533 21.604322 -21.501913 33.073099 1.034712 2.278556 0.066132 -0.000919 286085.000000 0 0 1
11.542033 20.987822 -21.550513 32.220053 1.068000 2.303463 0.066760 -0.012846 368977.000000 0 0 1
11.389133 19.908222 -22.399213 32.058920 1.051158 2.344360 0.086614 -0.010004 -343875.000000 0 0 1
10.806233 20.141822 -23.790513 32.991759 1.078371 2.376192 0.094847 -0.016730 -413934.000000 0 0 1
9.405733 20.143122 -23.881813 32.627506 1.133941 2.391981 0.086163 -0.025985 -507943.000000 0 0 1
9.038633 20.137822 -25.262713 33.547480 1.148909 2.423472 0.090324 -0.030913 846739.000000 0 0 1
7.464533 20.122722 -25.471443 33.308221 1.215581 2.441402 0.106384 -0.042464 1306090.000000 0 0 1
6.748633 21.295322 -25.122813 33.618306 1.263902 2.414779 0.120609 -0.048420 -21812.900000 0 0 1
6.711533 21.538422 -23.718313 32.733876 1.268725 2.381221 0.122140 -0.048568 -1525890.000000 0 0 1
5.363433 21.885322 -23.116213 32.281465 1.330463 2.368971 0.139353 -0.051442 -776198.000000 0 0 1
4.773233 23.006622 -23.687113 33.364168 1.366226 2.360233 0.132793 -0.047561 332925.000000 0 0 1
3.370933 23.031222 -23.406213 33.009865 1.425465 2.358971 0.161573 -0.047443 787321.000000 0 0 1
2.583833 24.096222 -24.261813 34.291977 1.463975 2.356761 0.148799 -0.035024 496703.000000 0 0 1
1.170933 23.886922 -24.249113 34.058414 1.521816 2.363119 0.183434 -0.055625 464156.000000 0 0 1
0.571533 24.813922 -25.128213 35.319746 1.547768 2.362355 0.176728 -0.042478 -250826.000000 0 0 1
-0.952667 24.688222 -25.228163 35.311132 -1.532228 2.366639 0.187044 -0.041139 -219330.000000 0 0 1
-1.353667 23.458922 -25.890773 34.964061 -1.513157 2.404605 0.190248 -0.046245 1301350.000000 0 0 1
-2.628267 23.666122 -26.591243 35.694359 -1.460193 2.411287 0.180438 -0.035225 1788970.000000 0 0 1
-3.362567 22.361822 -27.118763 35.309846 -1.421544 2.446544 0.180566 -0.040062 229762.000000 0 0 1
-2.673767 21.675322 -28.179633 35.651933 -1.448061 2.482274 0.202698 -0.048118 142025.000000 0 0 1
-3.404467 20.574222 -28.706383 35.481621 -1.406810 2.513329 0.163041 -0.037117 366586.000000 0 0 1
-4.503767 20.881122 -29.793443 36.659984 -1.358364 2.519561 0.133882 -0.034441 512030.000000 0 0 1
-4.040467 21.265322 -31.106583 37.896686 -1.383032 2.533652 0.130413 -0.035269 -169769.000000 0 0 1
-3.507567 22.544922 -31.193493 38.647258 -1.416452 2.510077 0.150033 -0.035775 -204469.000000 0 0 1
-2.856167 22.769722 -32.585003 39.854740 -1.446011 2.528017 0.119087 -0.029274 -1088480.000000 0 0 1
-1.750067 22.018822 -32.841703 39.578639 -1.491483 2.549516 0.111996 -0.031030 -991688.000000 0 0 1
-1.407667 22.324822 33.211749 40.042471 -1.507826 0.592740 0.106184 -0.024980 594404.000000 0 0 1
-0.208367 21.457222 32.663281 39.081270 -1.561086 0.581247 0.105432 -0.027056 702542.000000 0 0 1
-0.693067 20.152822 32.345626 38.116350 -1.536419 0.557458 0.091070 -0.026974 752686.000000 0 0 1
0.337133 19.346522 31.790459 37.216056 1.553372 0.546760 0.095630 -0.025949 524991.000000 0 0 1
-0.305167 17.962022 31.476624 36.242312 -1.553808 0.518618 0.088086 -0.022562 364934.000000 0 0 1
-1.235867 17.864322 30.425454 35.303960 -1.501726 0.531961 0.083312 -0.021832 100657.000000 0 0 1
-1.906467 16.631622 30.512744 34.803347 -1.456665 0.501799 0.071446 -0.018658 -360255.000000 0 0 1
-2.713067 16.366922 29.204304 33.587620 -1.406525 0.516615 0.077180 -0.018201 1211670.000000 0 0 1
-4.103867 16.779322 29.250304 33.970099 -1.330926 0.533445 0.060142 -0.021052 1052600.000000 0 0 1
-4.324967 18.175422 28.990054 34.488759 -1.337184 0.572470 0.064376 -0.022488 -300176.000000 0 0 1
-5.776267 18.619522 29.262204 35.161462 -1.269984 0.587690 0.044758 -0.020685 453583.000000 0 0 1
-6.685667 17.999522 28.341284 34.233161 -1.215154 0.595461 0.036542 -0.013069 -1113210.000000 0 0 1
-7.989567 18.233122 28.724864 34.948501 -1.157807 0.606023 0.051341 -0.025483 -1212370.000000 0 0 1
-8.998267 17.652922 27.683204 34.043417 -1.099393 0.621212 0.046899 -0.022572 -25004.600000 0 0 1
-9.275467 16.287122 27.756924 33.492558 -1.053108 0.593928 0.051444 -0.028537 5392.850000 0 0 1
-10.073367 15.987022 28.889554 34.520485 -1.008540 0.579235 0.063790 -0.027230 -743452.000000 0 0 1
-10.592967 14.562322 29.072024 34.197291 -0.941902 0.554571 0.055358 -0.024730 131102.000000 0 0 1
-9.655067 13.513822 29.335214 33.710510 -0.950432 0.515168 0.065156 -0.024945 -26441.900000 0 0 1
-9.047767 13.442322 30.607004 34.631586 -0.978366 0.486898 0.063342 -0.024531 -28715.400000 0 0 1
-9.926767 13.133922 31.872907 35.873706 -0.923586 0.476784 0.099172 -0.031921 -82906.800000 0 0 1
-10.156767 11.774322 32.008647 35.585784 -0.859021 0.452222 0.091678 -0.023855 115207.000000 0 0 1
-10.496167 11.498522 33.347354 36.802602 -0.830939 0.436791 0.089491 -0.021063 -158016.000000 0 0 1
-10.866267 9.997822 33.535694 36.642529 -0.743798 0.414762 0.094128 -0.024860 34674.500000 0 0 1
-9.721967 9.152822 33.382914 35.954273 -0.755254 0.380491 0.098179 -0.030108 382105.000000 0 0 1
-9.653367 8.266822 -32.931243 35.298648 -0.708179 2.773269 0.140667 -0.041372 248171.000000 0 0 1
-8.732967 8.766322 -31.784903 34.108549 -0.787304 2.770344 0.133981 -0.044970 116896.000000 0 0 1
-9.421967 9.857422 -31.150583 34.004427 -0.807981 2.728975 0.124964 -0.040714 256134.000000 0 0 1
-8.658267 10.715522 -30.341773 33.322832 -0.891189 2.715385 0.129912 -0.041931 -186838.000000 0 0 1
-7.776267 11.790322 -31.009043 34.074077 -0.987739 2.714196 0.096842 -0.034361 6401.140000 0 0 1
-8.392867 13.012522 -31.204753 34.835363 -0.997955 2.680975 0.087002 -0.028731 -104986.000000 0 0 1
-7.400567 13.907122 -31.655103 35.358478 -1.081767 2.679815 0.069777 -0.022268 70385.800000 0 0 1
-7.867767 15.326922 -32.114803 36.444161 -1.096542 2.649203 0.075907 -0.017098 93593.300000 0 0 1
-8.528367 15.383422 -33.384523 37.734720 -1.064591 2.656681 0.069613 -0.026762 33214.800000 0 0 1
-8.834867 16.687222 -33.673663 38.606137 -1.083876 2.630552 0.094892 -0.024016 -951762.000000 0 0 1
-9.437467 16.935522 32.315479 37.685115 -1.062397 0.540380 0.093779 -0.033740 1820070.000000 0 0 1
-10.800367 16.579722 31.923011 37.558138 -0.993423 0.554882 0.076506 -0.033829 2049280.000000 0 0 1
-11.848367 16.937522 32.830117 38.795361 -0.960383 0.561911 0.083607 -0.040383 -515186.000000 0 0 1
-13.246367 16.445722 32.475092 38.737057 -0.892735 0.576553 0.099394 -0.043755 -405443.000000 0 0 1
-13.431467 15.053222 32.522414 38.271545 -0.842271 0.555228 0.099910 -0.043728 501110.000000 0 0 1
-14.749267 14.696222 32.939629 38.968435 -0.783597 0.563689 0.099088 -0.035028 322526.000000 0 0 1
-15.059967 13.199822 32.870960 38.490751 -0.719670 0.547178 0.102876 -0.028772 -125677.000000 0 0 1
-14.939267 12.587222 31.586808 37.139551 -0.700159 0.553881 0.090264 -0.029623 376548.000000 0 0 1
-13.646267 12.095922 31.238354 36.171352 -0.725245 0.528387 0.076889 -0.017190 143089.000000 0 0 1
-13.502267 11.481722 29.814314 34.684787 -0.704700 0.536351 0.082709 -0.012268 261831.000000 0 0 1
-14.392267 10.386422 29.609364 34.521436 -0.625120 0.539998 0.080349 -0.006300 154037.000000 0 0 1
-14.325467 9.985222 28.283884 33.240062 -0.608727 0.553105 0.068401 -0.006471 -84125.300000 0 0 1
-15.161067 8.773522 27.970204 33.002499 -0.524601 0.559505 0.082901 -0.001925 -70121.100000 0 0 1
-14.545567 7.657322 28.480594 32.883922 -0.484573 0.523460 0.061007 -0.011132 193070.000000 0 0 1
-15.260567 6.593422 27.837914 32.423873 -0.407832 0.538337 0.074227 -0.006276 386126.000000 0 0 1
-14.601267 5.209522 28.081374 32.076466 -0.342707 0.504428 0.076061 -0.009029 729559.000000 0 0 1
-13.547367 4.960322 27.139784 30.736034 -0.350986 0.488590 0.071449 -0.017952 628030.000000 0 0 1
-14.115567 4.553022 25.887494 29.835240 -0.312017 0.520277 0.071165 -0.009559 -206090.000000 0 0 1
-13.031967 4.375522 24.825074 28.377132 -0.323927 0.505718 0.065519 -0.006631 -589187.000000 0 0 1
-12.289867 3.227022 25.086104 28.120581 -0.256779 0.468846 0.060920 -0.011006 -343249.000000 0 0 1
-11.869767 2.665822 23.863454 26.785489 -0.220923 0.471452 0.055520 -0.005455 -279322.000000 0 0 1
-10.813267 1.567122 24.009994 26.379204 -0.143924 0.427062 0.050131 -0.005192 -342716.000000 0 0 1
-9.469167 1.969122 24.095224 25.963867 -0.205029 0.381710 0.045155 -0.013641 147876.000000 0 0 1
-8.682767 0.854122 24.537344 26.042296 -0.098054 0.341626 0.036529 -0.005277 376993.000000 0 0 1
-7.152467 0.962122 24.346244 25.393366 -0.133713 0.288176 0.055590 -0.014178 -135605.000000 0 0 1
-6.705967 0.932722 22.966574 23.943756 -0.138202 0.286678 0.058596 -0.012238 -89146.800000 0 1 0
-5.325467 1.123422 22.791414 23.432269 -0.207905 0.234413 0.054754 -0.014593 61438.500000 0 1 0
-4.656967 2.503422 23.109664 23.706772 -0.493246 0.224916 0.069421 -0.016809 -355629.000000 0 1 0
-4.392467 2.641022 24.524764 25.054596 -0.541347 0.206020 0.071324 -0.016090 -10770.600000 0 0 1
-4.320667 3.968522 24.922444 25.603623 -0.742941 0.231187 0.065092 -0.018756 90810.900000 0 0 1
4.871233 -23.583378 12.805187 27.274117 -1.367107 1.082072 0.141576 -0.047406 319867.000000 0 0 1
4.388133 -24.715578 13.516887 28.510029 -1.395082 1.076843 0.170734 -0.061907 -518671.000000 0 0 1
2.999933 -24.764578 13.302287 28.270741 -1.450246 1.080903 0.161063 -0.057601 -141916.000000 0 0 1
2.324033 -26.058668 13.856887 29.605213 -1.481847 1.083707 0.151957 -0.051360 -45711.300000 0 0 1
2.316233 -26.092998 15.276487 30.324587 -1.482260 1.042844 0.173510 -0.053214 -105377.000000 0 0 1
1.937933 -27.334838 15.816887 31.640526 -1.500019 1.047321 0.188301 -0.056470 104373.000000 0 0 1
1.579633 -27.259038 17.338387 32.344552 -1.512912 1.005042 0.173262 -0.060204 544832.000000 0 0 1
2.701433 -26.820638 18.115387 32.477864 -1.470413 0.979092 0.191218 -0.058992 570893.000000 0 0 1
2.334233 -26.710318 19.442287 33.119364 -1.483627 0.943403 0.191967 -0.061058 539360.000000 0 0 1
3.517433 -26.113338 20.261987 33.238936 -1.436904 0.915258 0.164308 -0.056498 425086.000000 0 0 1
3.057533 -25.039658 21.035687 32.845595 -1.449290 0.875723 0.153154 -0.042880 871455.000000 0 0 1
4.148833 -24.202878 21.488087 32.630201 -1.401027 0.851928 0.126259 -0.047525 870700.000000 0 0 1
3.553833 -23.006078 22.265087 32.212474 -1.417534 0.807656 0.135499 -0.047935 23373.700000 0 0 1
2.951333 -21.896478 21.632787 30.921572 -1.436818 0.795956 0.138507 -0.042431 -368020.000000 0 0 1
3.757033 -21.232978 20.723387 29.906746 -1.395666 0.805246 0.113728 -0.032938 -514249.000000 0 0 1
3.021433 -20.209278 19.863987 28.497754 -1.422388 0.799540 0.076862 -0.029875 -187097.000000 0 0 1
2.751833 -19.067578 20.624687 28.222736 -1.427466 0.751328 0.057136 -0.030811 -272773.000000 0 0 1
2.311533 -17.989078 19.950987 26.962789 -1.443000 0.737807 0.039339 -0.035085 116361.000000 0 0 1
1.724233 -16.740278 20.707787 26.683747 -1.468159 0.682426 0.074022 -0.040121 99376.500000 0 0 1
2.744333 -15.891578 21.148787 26.595955 -1.399792 0.651479 0.025666 -0.001840 -330542.000000 0 0 1
2.248833 -14.619378 21.465287 26.068027 -1.418167 0.603360 0.048618 -0.004444 390465.000000 0 0 1
3.242433 -13.437378 21.194987 25.304229 -1.334023 0.577909 -0.007566 0.012990 -558229.000000 0 0 1
3.733533 -13.177678 19.890987 24.150401 -1.294709 0.603015 -0.027432 0.007869 246558.000000 0 1 0
2.759033 -12.860878 18.859487 22.993362 -1.359470 0.609011 -0.016524 0.006103 697182.000000 0 1 0
1.706733 -11.793778 19.194187 22.592542 -1.427079 0.555607 0.000821 -0.004574 -315627.000000 0 1 0
2.377733 -10.547778 19.366087 22.180049 -1.349077 0.509208 0.003689 0.006979 -289342.000000 0 1 0
1.815733 -9.640678 20.279087 22.527338 -1.384636 0.450570 0.016893 -0.014856 -420854.000000 0 1 0
0.439933 -9.048778 19.957687 21.917646 -1.522217 0.426120 0.038020 -0.029328 47321.600000 0 1 0
-0.029667 -8.163378 20.995687 22.526884 1.567162 0.370827 0.055161 -0.038291 -108950.000000 0 1 0
-1.379467 -7.771278 20.806587 22.253309 1.395118 0.362570 0.060008 -0.040857 324926.000000 0 1 0
-1.903467 -6.989578 22.103387 23.260205 1.304915 0.316707 0.063528 -0.035204 72666.800000 0 1 0
-2.064167 -7.921678 23.151087 24.555786 1.315893 0.339877 0.061073 -0.028997 -29018.900000 0 1 0
-2.311367 -7.185778 24.321087 25.465528 1.259590 0.300937 0.068167 -0.022549 -822.756000 0 0 1
-2.666667 -8.092178 25.505887 26.891351 1.252467 0.322395 0.062063 -0.024389 303300.000000 0 0 1
-1.599967 -8.999478 25.750687 27.324868 1.394850 0.341091 0.069870 -0.027451 404269.000000 0 0 1
-2.012067 -9.908778 26.742587 28.590178 1.370461 0.361473 0.080060 -0.035241 267992.000000 0 0 1
-0.928667 -11.001478 26.919487 29.095597 1.486583 0.389212 0.101799 -0.039597 75162.300000 0 0 1
0.269733 -10.617778 27.543787 29.520674 -1.545398 0.368041 0.107464 -0.037121 -613043.000000 0 0 1
1.076833 -11.718978 27.737487 30.130752 -1.479166 0.401257 0.127672 -0.051087 -1349120.000000 0 0 1
2.259533 -11.374678 28.587087 30.849803 -1.374703 0.385385 0.162916 -0.061064 -807490.000000 0 0 1
1.915133 -10.886178 29.897287 31.875138 -1.396655 0.354126 0.161431 -0.063959 919617.000000 0 0 1
3.121433 -10.572378 30.611887 32.536229 -1.283708 0.345650 0.215152 -0.060139 953835.000000 0 0 1
2.660933 -10.000178 31.963987 33.597331 -1.310734 0.313095 0.202894 -0.068999 -337143.000000 0 0 1
1.917033 -10.863378 32.744187 34.552421 -1.396127 0.324949 0.205365 -0.070537 -279435.000000 0 0 1
1.989233 -10.657778 -33.207979 34.933009 -1.386273 2.826020 0.180463 -0.072690 -455709.000000 0 0 1
3.298833 -11.095378 -32.491179 34.491541 -1.281804 2.799350 0.165927 -0.047859 311426.000000 0 0 1
4.340233 -10.185078 -32.868879 34.683377 -1.167964 2.816697 0.154378 -0.060968 45299.100000 0 0 1
4.822833 -9.411478 -31.785579 33.498637 -1.097245 2.820407 0.161267 -0.056938 -724251.000000 0 0 1
3.965533 -8.269778 -31.270879 32.588074 -1.123666 2.856304 0.149816 -0.046614 -474572.000000 0 0 1
4.016433 -7.068078 -32.043079 33.058257 -1.054050 2.893128 0.177515 -0.055776 235542.000000 0 0 1
3.259933 -6.069178 -31.369579 32.117169 -1.077888 2.925408 0.159213 -0.031395 205988.000000 0 0 1
3.361633 -4.717278 -32.106279 32.624629 -0.951650 2.963096 0.164153 -0.037770 117491.000000 0 0 1
2.436433 -4.589878 -33.157679 33.562402 -1.082792 2.986138 0.174046 -0.048538 -203558.000000 0 0 1
2.749133 -3.489378 33.388287 33.682506 -0.903503 0.132271 0.173549 -0.029097 169331.000000 0 0 1
2.002633 -3.510678 32.036587 32.290530 -1.052395 0.125496 0.193213 -0.036587 1219860.000000 0 0 1
0.563733 -3.480178 32.108487 32.301461 -1.410207 0.109363 0.187407 -0.036025 522159.000000 0 0 1
0.166033 -4.000778 30.858187 31.116901 -1.529320 0.129041 0.173957 -0.033095 377759.000000 0 0 1
-1.378567 -4.135278 30.790087 31.097113 1.249015 0.140637 0.152760 -0.032964 107603.000000 0 0 1
-2.162267 -3.020278 30.563387 30.788279 0.949468 0.120941 0.144680 -0.032850 -303098.000000 0 0 1
-3.515267 -3.351178 30.365187 30.751132 0.761505 0.158600 0.102480 -0.029492 286866.000000 0 0 1
-4.473167 -2.233478 29.870487 30.286031 0.463092 0.165844 0.067037 -0.013126 261880.000000 0 0 1
-4.292667 -1.947478 28.475187 28.862709 0.425906 0.164052 0.076262 -0.020527 -191768.000000 0 0 1
-5.321367 -1.168178 27.906987 28.433810 0.216098 0.192798 0.060995 -0.020586 85386.500000 0 0 1
-5.296267 0.370922 28.227487 28.722449 -0.069920 0.185916 0.081053 -0.022171 -520545.000000 0 0 1
-6.306967 0.704522 29.108587 29.792349 -0.111244 0.214659 0.075728 -0.018306 -662082.000000 0 0 1
-6.626967 2.138822 29.083087 29.905137 -0.312191 0.235013 0.083460 -0.022707 -669064.000000 0 0 1
-8.012167 2.509722 29.550087 30.719720 -0.303558 0.276834 0.079751 -0.025793 -655227.000000 0 0 1
-9.071967 2.063522 28.736487 30.205040 -0.223656 0.313109 0.063601 -0.020815 -345892.000000 0 0 1
-10.228767 2.854822 28.861487 30.753262 -0.272171 0.352579 0.074124 -0.017996 -463954.000000 0 0 1
-11.302267 2.321722 27.929287 30.218814 -0.202602 0.391769 0.072640 -0.005845 -540847.000000 0 0 1
-11.728667 0.998222 28.307387 30.657238 -0.084905 0.394078 0.064070 -0.009137 131561.000000 0 0 1
-12.209167 0.291522 27.166787 29.785619 -0.023873 0.422474 0.053188 -0.004138 -1017630.000000 0 0 1
-12.492667 -1.174578 27.425987 30.160092 0.093746 0.429085 0.055905 -0.014293 -83426.500000 0 0 1
-11.395667 -2.017078 27.761687 30.077253 0.175189 0.394958 0.054557 -0.018926 817004.000000 0 0 1
-10.251467 -1.949578 26.890987 28.844733 0.187931 0.370167 0.041517 -0.012316 -197033.000000 0 0 1
-10.418867 -2.697878 25.535587 27.710965 0.253376 0.398877 0.041364 -0.012224 -435955.000000 0 0 1
-11.120667 -1.901878 24.571987 27.038287 0.169383 0.430434 0.036921 -0.011176 497787.000000 0 0 1
-11.171367 -2.499178 23.278187 25.940689 0.220089 0.457042 0.041826 -0.009912 -32104.200000 0 0 1
-9.959867 -2.077978 22.392487 24.595537 0.205685 0.426477 0.039895 -0.012467 850835.000000 0 1 0
-8.708667 -2.610478 22.823887 24.567973 0.291233 0.379068 0.054399 -0.013117 -430141.000000 0 1 0
-7.731467 -2.327278 21.898887 23.339946 0.292387 0.353237 0.044284 -0.015057 401840.000000 0 1 0
-6.234567 -2.427178 22.406587 23.384101 0.371257 0.290162 0.055060 -0.018497 1215590.000000 0 1 0
-5.613767 -3.686878 22.517687 23.497951 0.581110 0.289863 0.058349 -0.018672 -127.948000 0 1 0
-6.201467 -4.515678 23.505187 24.725359 0.629378 0.315469 0.065959 -0.020418 -204477.000000 0 1 0
-5.918067 -6.014878 23.264887 24.747874 0.793511 0.347943 0.077792 -0.023198 -194078.000000 0 1 0
-6.590667 -6.667878 22.228187 24.124465 0.791222 0.399139 0.066510 -0.025612 22722.000000 0 1 0
-6.111967 -6.255378 20.903087 22.658883 0.796994 0.396258 0.052581 -0.023094 549451.000000 0 1 0
-7.222767 -6.292278 19.786587 21.983407 0.716658 0.450868 0.054693 -0.023772 377907.000000 0 1 0
-8.095867 -5.198078 19.866687 22.073703 0.570777 0.450990 0.050026 -0.024838 -784054.000000 0 1 0
-9.064567 -5.141278 18.891787 21.575420 0.515941 0.504086 0.059246 -0.022172 -410262.000000 0 1 0
-9.890367 -3.869578 19.035787 21.798032 0.372938 0.508902 0.056616 -0.016845 -913047.000000 0 1 0
-9.075167 -2.814978 18.682387 20.959827 0.300774 0.470498 0.047149 -0.016034 -213882.000000 0 1 0
-9.686167 -1.534778 18.612587 21.038198 0.157144 0.484937 0.041343 -0.020879 -506471.000000 0 1 0
-8.653967 -0.481478 18.253087 20.206389 0.055579 0.443320 0.031254 -0.013878 332609.000000 0 1 0
-7.659967 -0.167778 19.225187 20.695678 0.021900 0.379238 0.037188 -0.001535 702177.000000 0 1 0
-8.234267 0.641822 20.256387 21.875473 -0.077788 0.387157 0.062962 -0.004265 -66469.300000 0 1 0
-8.088267 2.191322 20.020987 21.703960 -0.264575 0.396398 0.058738 -0.013167 153753.000000 0 1 0
-8.963167 2.736622 19.059487 21.238915 -0.296329 0.456989 0.041727 -0.019039 342545.000000 0 1 0
-8.517267 4.067722 18.768687 21.008423 -0.445556 0.465964 0.036712 -0.018219 107229.000000 0 1 0
-9.350967 4.748722 17.643187 20.524936 -0.469894 0.536315 0.032165 -0.009777 -573475.000000 0 1 0
-10.680067 4.947422 18.039487 21.539822 -0.433809 0.578114 0.027191 0.000873 54660.800000 0 1 0
-11.517167 5.564922 17.027787 21.296926 -0.450105 0.644264 0.023447 0.008118 346583.000000 0 1 0
-11.542467 7.099122 17.072087 21.796382 -0.551408 0.670915 0.030183 0.004151 -167445.000000 0 1 0
-10.251867 7.662222 16.818787 21.134854 -0.641834 0.650495 0.030952 -0.000760 589904.000000 0 1 0
-10.264767 9.084222 16.748287 21.642404 -0.724460 0.685876 0.026655 -0.013768 -796830.000000 0 1 0
-8.949567 9.732922 17.062887 21.586261 -0.827304 0.659251 0.031696 -0.005945 -755992.000000 0 1 0
-8.887267 10.213522 18.409987 22.852291 -0.854721 0.634095 0.049699 0.012720 -178721.000000 0 1 0
-8.259267 11.494022 18.621787 23.390148 -0.947715 0.649910 0.072237 0.006036 -71378.400000 0 1 0
-8.916767 12.803122 18.099387 23.895951 -0.962455 0.711436 0.073669 -0.000403 29243.500000 0 1 0
-8.529867 12.942422 16.740387 22.814589 -0.988077 0.746960 0.058003 -0.013896 -281971.000000 0 1 0
-9.337367 13.802722 15.986087 23.092348 -0.976026 0.806170 0.076817 -0.034507 -289965.000000 0 1 0
-8.851967 14.139722 14.538887 22.128450 -1.011453 0.853934 0.090169 -0.034301 1004780.000000 0 1 0
-7.699267 15.015022 14.496587 22.245913 -1.096984 0.861036 0.069386 -0.021060 843363.000000 0 1 0
-7.213267 15.323522 13.188287 21.465611 -1.130836 0.909182 0.060236 -0.032146 -57930.400000 0 1 0
-6.326567 16.555622 12.955087 21.953322 -1.205781 0.939589 0.022717 -0.022181 530277.000000 0 1 0
-5.034467 16.333422 13.519587 21.792333 -1.271805 0.901566 0.005832 -0.015661 -474357.000000 0 1 0
-4.240467 17.471622 13.348487 22.392437 -1.332694 0.932142 0.007292 -0.017493 -998457.000000 0 1 0
-2.768867 17.195422 13.505387 22.039616 -1.411143 0.911225 0.011649 -0.016344 -1014780.000000 0 1 0
-2.182767 16.781422 14.719187 22.428443 -1.441452 0.854927 0.021152 -0.010613 -191874.000000 0 1 0
-2.585067 15.425922 15.067287 21.717845 -1.404760 0.804079 0.017121 -0.003479 -272141.000000 0 1 0
-1.613167 14.711522 16.073587 21.849288 -1.461579 0.744160 0.018056 0.003197 1146570.000000 0 1 0
-0.360067 14.274022 15.446887 21.035296 -1.545576 0.746115 0.015324 -0.008711 1367290.000000 0 1 0
0.637633 13.768622 16.357187 21.390164 1.524519 0.700211 0.023152 0.001953 681261.000000 0 1 0
1.467633 14.871722 17.029387 22.656613 1.472429 0.720267 0.026137 -0.000656 -380475.000000 0 1 0
0.656033 15.753822 17.770087 23.756879 1.529178 0.725756 0.020145 -0.006573 -757206.000000 0 1 0
1.460433 16.691622 18.357387 24.854311 1.483524 0.739805 0.046703 -0.009432 -384939.000000 0 1 0
0.741133 18.024422 18.776787 26.038372 1.529701 0.765379 0.057458 -0.009022 428636.000000 0 0 1
0.269033 18.854722 17.665887 25.839050 1.556529 0.817990 0.051067 -0.010390 392863.000000 0 0 1
-0.941967 18.463222 17.037087 25.140410 -1.519822 0.826197 0.049721 -0.006126 105810.000000 0 0 1
-1.772767 19.564222 16.291087 25.520600 -1.480430 0.878443 0.049251 -0.007879 280236.000000 0 0 1
-2.121567 20.617922 17.158587 26.907562 -1.468258 0.879305 0.045886 -0.013603 270301.000000 0 0 1
-2.879967 21.639922 16.498787 27.364035 -1.438488 0.923619 0.052881 -0.018416 -426659.000000 0 0 1
-3.600767 22.639622 17.402787 28.781505 -1.413070 0.921468 0.052733 -0.010889 -417259.000000 0 0 1
-4.802167 22.086322 17.861287 28.807846 -1.356701 0.902035 0.070093 -0.009501 -531896.000000 0 0 1
-5.432167 22.974522 18.754087 30.150504 -1.338617 0.899482 0.075882 -0.005082 279823.000000 0 0 1
-6.651767 22.415722 19.534787 30.468320 -1.282328 0.874799 0.063924 -0.012633 981.066000 0 0 1
-7.896267 22.476522 18.870787 30.391639 -1.232953 0.900880 0.057511 -0.016064 299503.000000 0 0 1
-8.860867 21.857222 19.773187 30.777135 -1.185645 0.873088 0.033268 -0.013019 869797.000000 0 0 1
-10.332667 22.119122 19.336387 31.143466 -1.133783 0.900930 0.041978 -0.013442 237989.000000 0 0 1
-10.667467 23.480622 19.580887 32.381254 -1.144364 0.921409 0.051308 -0.015265 14293.100000 0 0 1
-11.857467 23.767522 18.881487 32.588421 -1.108034 0.952813 0.045802 -0.021305 -90994.200000 0 0 1
-12.498867 25.137922 19.081287 33.944548 -1.109382 0.973836 0.055815 -0.023351 -150754.000000 0 0 1
-13.234067 25.315722 20.260187 35.021444 -1.089106 0.953898 0.060894 -0.019660 80496.300000 0 0 1
-13.888867 26.564122 20.230387 36.163819 -1.089042 0.977123 0.064356 -0.014967 -342644.000000 0 0 1
-14.836667 26.891822 21.389387 37.427299 -1.066636 0.962474 0.083095 -0.019220 -206302.000000 0 0 1
-16.103867 26.271922 21.453287 37.547197 -1.020896 0.962624 0.078295 -0.029124 -219174.000000 0 0 1
-16.750967 26.656622 22.606887 38.758764 -1.009757 0.948046 0.073706 -0.020956 23189.000000 0 0 1
-18.173267 26.020222 22.601387 38.963346 -0.961126 0.951984 0.087172 -0.022273 61476.000000 0 0 1
-18.229567 24.620022 22.870187 38.229675 -0.933444 0.929504 0.093746 -0.020828 -295699.000000 0 0 1
-19.544867 24.175622 23.133887 38.750991 -0.890922 0.931055 0.097080 -0.015522 166950.000000 0 0 1
28.896133 23.821822 23.196334 44.051511 0.689440 1.016232 0.094740 -0.017293 -41237.600000 0 0 1
28.678833 23.250622 24.457914 44.286075 0.681246 0.985710 0.096195 -0.023796 109971.000000 0 0 1
28.598633 21.857622 24.354874 43.460296 0.652584 0.975935 0.097992 -0.021184 -502995.000000 0 0 1
28.099133 21.177722 25.660914 43.549279 0.645851 0.940680 0.118114 -0.032340 -298238.000000 0 0 1
26.788133 21.548722 25.980624 43.092276 0.677426 0.923657 0.120618 -0.021722 -226358.000000 0 0 1
26.374133 20.953122 27.199564 43.294855 0.671352 0.891507 0.124917 -0.032180 748166.000000 0 0 1
24.935733 21.342522 27.698574 42.947701 0.707910 0.869855 0.146982 -0.032887 629199.000000 0 0 1
24.830233 22.661422 28.200434 43.878753 0.739763 0.872792 0.146122 -0.044197 -316039.000000 0 0 1
23.563133 22.841922 28.760484 43.636453 0.769858 0.851184 0.179953 -0.037112 -507213.000000 0 0 1
23.356733 24.232322 29.404854 44.692145 0.803795 0.852713 0.172874 -0.032197 -42662.100000 0 0 1
22.765733 25.277122 28.570494 44.423919 0.837625 0.872214 0.175396 -0.045686 349301.000000 0 0 1
22.313933 26.429622 29.278044 45.317109 0.869634 0.868371 0.156019 -0.044600 512440.000000 0 0 1
20.974233 26.301622 30.074104 45.123669 0.897612 0.841317 0.164582 -0.043258 -126444.000000 0 0 1
19.839533 26.127922 29.208774 43.925253 0.921355 0.843349 0.168420 -0.039751 1070100.000000 0 0 1
18.596733 26.372222 29.888324 43.984593 0.956613 0.823691 0.155333 -0.035286 627311.000000 0 0 1
18.057533 25.291822 30.821164 43.768652 0.950758 0.789524 0.140238 -0.023961 -938948.000000 0 0 1
18.787433 25.028322 31.982228 44.746479 0.926881 0.774540 0.130423 -0.025400 -244109.000000 0 0 1
18.099933 24.156122 32.833825 44.600290 0.927750 0.743388 0.146236 -0.024849 253616.000000 0 0 1
18.827133 24.059822 -33.144873 45.076807 0.906809 2.396902 0.172090 -0.034546 128422.000000 0 0 1
18.518333 25.201022 -32.365403 45.005993 0.937078 2.373354 0.142460 -0.038420 176159.000000 0 0 1
18.656033 24.965822 -30.992123 43.952833 0.929049 2.353392 0.101124 -0.027366 -94287.900000 0 0 1
18.796533 26.223622 -30.119603 44.138175 0.948898 2.321828 0.083849 -0.019095 -859755.000000 0 0 1
17.714733 27.078922 -30.190543 44.255493 0.991482 2.321547 0.118154 -0.026032 -517986.000000 0 0 1
17.829733 28.243022 -29.448783 44.528625 1.007682 2.293407 0.106127 -0.024029 -115487.000000 0 0 1
17.168133 28.205822 -28.053913 43.328226 1.024024 2.275062 0.116089 -0.027322 -181611.000000 0 0 1
17.807333 27.295822 -27.170063 42.430830 0.992748 2.265734 0.090023 -0.014680 58705.300000 0 0 1
17.586233 27.605722 -25.837073 41.700189 1.003579 2.239018 0.083649 -0.014563 -142991.000000 0 0 1
18.400533 26.858822 -24.753313 40.898685 0.970152 2.220857 0.079790 -0.021570 1075870.000000 0 0 1
19.822833 27.071422 -24.824713 41.738147 0.938758 2.207779 0.091860 -0.015717 758502.000000 0 0 1
20.562333 26.283822 -23.881713 41.036387 0.906930 2.191938 0.094963 -0.016877 893884.000000 0 0 1
22.106633 26.425522 -24.096713 42.043584 0.874155 2.181125 0.090849 -0.012048 557940.000000 0 0 1
22.789133 25.856922 -23.007913 41.440186 0.848378 2.159409 0.092689 -0.012435 367433.000000 0 0 1
24.202933 25.887222 -23.261513 42.391369 0.819011 2.151643 0.104652 -0.008945 967495.000000 0 0 1
25.065733 25.641722 -21.972213 42.054334 0.796757 2.120544 0.124093 -0.015620 248493.000000 0 0 1
24.989633 24.343422 -21.388713 40.921400 0.772300 2.120785 0.143672 -0.023848 235597.000000 0 0 1
25.691133 24.486522 -20.176613 40.825479 0.761396 2.087729 0.140868 -0.019277 -186719.000000 0 0 1
25.016133 23.570722 -19.186913 39.363987 0.755658 2.079932 0.123844 -0.015129 -504585.000000 0 0 1
25.210833 22.197422 -19.449213 38.814733 0.721921 2.095640 0.132473 -0.014803 305748.000000 0 0 1
24.766333 21.318522 -18.448713 37.526066 0.710723 2.084750 0.135463 -0.020837 -781630.000000 0 0 1
24.912333 19.803322 -18.855013 36.990639 0.671636 2.105660 0.150678 -0.025577 -150154.000000 0 0 1
24.171333 19.275822 -19.924213 36.780224 0.673194 2.143266 0.138319 -0.025330 921381.000000 0 0 1
22.754033 19.342122 -19.685413 35.768410 0.704525 2.153589 0.129682 -0.024648 346854.000000 0 0 1
21.848933 19.171622 -20.921913 35.814151 0.720223 2.194666 0.107520 -0.009986 -119228.000000 0 0 1
22.065433 20.080022 -22.019913 37.080550 0.738324 2.206619 0.100797 -0.009649 -62784.400000 0 0 1
21.880833 21.433722 -21.722013 37.550248 0.775076 2.187659 0.103233 -0.004496 -166434.000000 0 0 1
21.219633 22.199422 -22.869213 38.289529 0.807960 2.210890 0.115716 -0.020604 839984.000000 0 0 1
19.787833 22.203922 -22.786813 37.467470 0.842872 2.224557 0.118028 -0.012292 284545.000000 0 0 1
19.278633 22.664022 -24.003413 38.229405 0.865938 2.249620 0.116103 -0.015735 -93822.800000 0 0 1
17.745133 22.780022 -24.034613 37.569692 0.909006 2.264949 0.110048 -0.018362 -174513.000000 0 0 1
17.151133 23.798022 -23.316413 37.472154 0.946315 2.242388 0.098074 -0.028145 153501.000000 0 0 1
15.763133 23.980322 -23.553513 37.125465 0.989281 2.258067 0.091627 -0.025305 496575.000000 0 0 1
15.066633 25.134922 -22.813013 37.137599 1.030796 2.232274 0.083231 -0.027022 -132672.000000 0 0 1
15.235433 26.380322 -23.454113 38.446524 1.047063 2.226914 0.077379 -0.020421 -327283.000000 0 0 1
14.191133 27.264122 -23.194613 38.505982 1.090879 2.217256 0.093707 -0.019093 -256101.000000 0 0 1
14.228233 28.655022 -23.892213 39.929822 1.109924 2.212243 0.091027 -0.021285 -158776.000000 0 0 1
14.209033 28.511422 -25.344063 40.707730 1.108459 2.242839 0.091434 -0.037235 -114870.000000 0 0 1
13.823833 29.737722 -25.954383 41.821770 1.135655 2.240298 0.115007 -0.046027 -377542.000000 0 0 1
14.738333 30.949722 -25.805393 42.907133 1.126367 2.216079 0.116655 -0.040345 -392177.000000 0 0 1
15.899533 30.841522 -26.599823 43.721221 1.094807 2.224834 0.096455 -0.024715 -694462.000000 0 0 1
16.480033 32.072022 -26.755403 44.900531 1.096135 2.209159 0.098646 -0.031529 75014.200000 0 0 1
17.948133 31.918822 -27.247743 45.644125 1.058555 2.210504 0.092624 -0.012605 747755.000000 0 0 1
18.827733 31.275522 -26.280403 44.981122 1.028911 2.194757 0.047251 -0.010855 748295.000000 0 0 1
20.122333 31.121422 -26.863203 45.772075 0.996833 2.198010 0.066804 -0.007934 291445.000000 0 0 1
21.096133 30.344722 -25.891893 45.124706 0.963288 2.181917 0.041616 -0.000933 -307749.000000 0 0 1
21.520433 30.973622 -24.683713 45.075270 0.963570 2.150303 0.045768 0.000234 -47228.000000 0 0 1
22.263133 32.163822 -24.868013 46.352741 0.965338 2.137075 0.045745 -0.009907 -72324.500000 0 0 1
23.764933 31.952722 -25.224953 47.138590 0.931305 2.135450 0.040114 -0.002765 -122939.000000 0 0 1
23.904333 31.483522 -26.514633 47.598897 0.921392 2.161617 0.037236 0.004761 -501573.000000 0 0 1
25.216733 31.617622 -26.980173 48.615711 0.897549 2.159121 0.036455 0.011343 -692236.000000 0 0 1
25.443933 30.985822 -28.380613 49.122032 0.883293 2.186775 0.040443 0.008852 -14334.700000 0 0 1
24.627333 31.469122 -29.411863 49.617223 0.906763 2.205297 0.063722 -0.003916 1341660.000000 0 0 1
23.243533 31.010022 -29.394313 48.640609 0.927584 2.219704 0.053321 -0.003659 1217210.000000 0 0 1
22.293633 31.567422 -30.477703 49.217868 0.955906 2.238572 0.050249 -0.002246 -137577.000000 0 0 1
21.878633 32.885522 -30.194693 49.717719 0.983743 2.223482 0.072225 -0.014200 -512515.000000 0 0 1
20.999533 33.441922 -31.078583 50.251575 1.010085 2.237578 0.076337 -0.023191 -447489.000000 0 0 1
19.530433 33.541122 -30.588733 49.417762 1.043506 2.238243 0.072374 -0.028180 408822.000000 0 0 1
18.699933 32.361622 -30.446463 48.207356 1.046828 2.254377 0.109681 -0.028325 785531.000000 0 0 1
18.393033 31.455122 -31.547703 48.197364 1.041674 2.284387 0.110511 -0.027541 -258871.000000 0 0 1
17.764433 32.061722 -32.840853 49.214334 1.064834 2.301377 0.119951 -0.043897 -248046.000000 0 0 1
18.585633 33.066522 -33.441123 50.568066 1.058735 2.293359 0.110779 -0.037028 137903.000000 0 0 1
18.642633 33.131622 32.505406 50.018532 1.058267 0.863387 0.097910 -0.029397 -233085.000000 0 0 1
17.384433 33.750422 31.843775 49.551342 1.095151 0.872855 0.098423 -0.038783 314320.000000 0 0 1
16.310333 32.788822 31.956817 48.604238 1.109202 0.853313 0.111753 -0.031887 1902670.000000 0 0 1
14.943133 33.317322 32.029415 48.571850 1.149183 0.850745 0.098796 -0.027317 2160730.000000 0 0 1
14.339433 -33.455449 30.793804 47.677508 -1.165870 0.868625 0.072916 -0.018861 -378867.000000 0 0 1
15.042133 -32.268949 30.430724 46.835668 -1.134594 0.863562 0.078221 -0.012531 451853.000000 0 0 1
14.358733 -31.597249 29.369884 45.465915 -1.144265 0.868495 0.066337 -0.015466 -4108.520000 0 0 1
14.920333 -30.233649 29.114254 44.545815 -1.112362 0.858491 0.068735 -0.017892 -294099.000000 0 0 1
14.651533 -29.382449 30.258534 44.649464 -1.108230 0.826178 0.068644 -0.010067 286754.000000 0 0 1
14.933833 -28.052149 29.897614 43.632668 -1.081597 0.815902 0.084970 -0.030797 -750187.000000 0 0 1
14.439833 -26.993549 30.865134 43.472025 -1.079592 0.781298 0.096661 -0.032180 93184.800000 0 0 1
13.056333 -26.725949 30.728364 42.766535 -1.116370 0.769133 0.077390 -0.026101 151466.000000 0 0 1
12.581933 -25.945749 29.625944 41.342272 -1.119275 0.771878 0.073808 -0.026355 -520387.000000 0 0 1
12.807433 -24.422149 29.822624 40.618476 -1.087805 0.746289 0.087123 -0.029117 -85664.800000 0 0 1
11.938433 -23.846949 30.745344 40.699869 -1.106647 0.714507 0.097562 -0.038105 498688.000000 0 0 1
12.671833 -22.729649 31.266222 40.679097 -1.062211 0.694136 0.102101 -0.040591 740107.000000 0 0 1
11.804533 -22.046649 32.345455 40.885574 -1.079205 0.658156 0.098240 -0.039343 12302.800000 0 0 1
11.586433 -22.767249 33.581744 42.193916 -1.100048 0.650319 0.099939 -0.042474 379308.000000 0 0 1
12.664033 -22.963649 -32.876093 42.054065 -1.066816 2.468276 0.110353 -0.040031 271224.000000 0 0 1
13.310633 -21.785449 -32.164463 41.064966 -1.022337 2.470685 0.115447 -0.035397 -147823.000000 0 0 1
14.068333 -20.896449 -32.928283 41.459033 -0.978257 2.488547 0.102935 -0.033177 156192.000000 0 0 1
14.863433 -19.991349 -32.181543 40.696773 -0.931473 2.482852 0.099630 -0.034220 47415.200000 0 0 1
15.171033 -18.730949 -33.019023 40.881103 -0.890021 2.511010 0.082160 -0.026509 -206752.000000 0 0 1
15.935133 -18.986749 33.185539 41.421071 -0.872561 0.641540 0.098048 -0.016788 284506.000000 0 0 1
15.628833 -18.224049 32.030364 40.028997 -0.861910 0.643203 0.074948 -0.011616 59428.000000 0 0 1
16.473233 -16.908049 31.898367 39.683187 -0.798423 0.637098 0.081490 -0.009950 -488305.000000 0 0 1
16.314333 -16.018849 33.013286 40.157665 -0.776260 0.605721 0.067562 -0.010105 270665.000000 0 0 1
16.955333 -14.772349 32.800228 39.768839 -0.716703 0.600997 0.090347 -0.017720 -456016.000000 0 0 1
18.454133 -14.738949 33.127959 40.684804 -0.673936 0.619345 0.082394 -0.010287 -382964.000000 0 0 1
19.165033 -15.507849 32.158154 40.520843 -0.680310 0.654060 0.084917 -0.013672 818654.000000 0 0 1
20.556133 -15.663549 32.551623 41.563319 -0.651130 0.671030 0.096510 -0.011301 1016070.000000 0 0 1
21.352633 -16.319349 31.437821 41.359312 -0.652577 0.707307 0.124006 -0.019845 -440161.000000 0 0 1
21.922033 -15.431249 30.506634 40.612236 -0.613349 0.720966 0.101674 -0.021753 50292.900000 0 0 1
22.346333 -16.204749 29.440304 40.356957 -0.627415 0.753209 0.093831 -0.025188 -225488.000000 0 0 1
22.689233 -15.320049 28.222294 39.319245 -0.593896 0.770198 0.087387 -0.017798 -281547.000000 0 0 1
23.672033 -14.362149 28.491714 39.729262 -0.545342 0.771097 0.084396 -0.024427 -85163.300000 0 0 1
24.037733 -13.707449 27.337984 38.898228 -0.518255 0.791459 0.077755 -0.029509 -192908.000000 0 0 1
24.828633 -12.427049 27.445934 39.040643 -0.464058 0.791176 0.068346 -0.025051 -353964.000000 0 0 1
23.987833 -11.392349 27.809114 38.451899 -0.443385 0.762345 0.075580 -0.026861 158719.000000 0 0 1
24.639733 -10.130149 27.655994 38.400395 -0.390065 0.766705 0.077944 -0.036807 194759.000000 0 0 1
23.628533 -8.987149 27.736354 37.528412 -0.363454 0.739099 0.087707 -0.035951 -94387.700000 0 0 1
22.873133 -8.906749 28.920404 37.932837 -0.371333 0.703766 0.097817 -0.043309 -959125.000000 0 0 1
21.842533 -8.033549 28.669054 36.926262 -0.352438 0.681884 0.091062 -0.043294 -784215.000000 0 0 1
20.727433 -8.078349 29.746034 37.144484 -0.371632 0.642134 0.074770 -0.033491 -184312.000000 0 0 1
20.965333 -7.454049 30.982844 38.145047 -0.341603 0.622818 0.094788 -0.039845 31002.800000 0 0 1
21.373033 -8.424549 31.956417 39.357237 -0.375468 0.623298 0.111816 -0.038356 -171122.000000 0 0 1
21.382733 -7.919149 33.421434 40.458947 -0.354690 0.598720 0.130910 -0.044310 437736.000000 0 0 1
20.051733 -7.593549 -33.566443 39.830140 -0.362009 2.573149 0.114443 -0.051970 445197.000000 0 0 1
20.062733 -7.105549 -32.231853 38.625049 -0.340382 2.557986 0.125806 -0.053792 511073.000000 0 0 1
18.639833 -6.756349 -31.685773 37.377531 -0.347739 2.582473 0.122021 -0.049509 420411.000000 0 0 1
18.682433 -5.892849 -30.542133 36.284719 -0.305545 2.571286 0.128308 -0.047463 -29901.100000 0 0 1
17.431833 -5.853549 -29.908653 35.109263 -0.323966 2.590348 0.124702 -0.044137 -159938.000000 0 0 1
17.393333 -4.813649 -28.742963 33.939021 -0.269995 2.580925 0.111351 -0.041783 -71029.400000 0 0 1
18.200233 -5.042749 -27.588313 33.433408 -0.270290 2.541303 0.110921 -0.036730 283516.000000 0 0 1
17.894633 -6.216449 -26.786023 32.807821 -0.334349 2.526036 0.132170 -0.043280 -504681.000000 0 0 1
16.503433 -6.161649 -26.160723 31.539065 -0.357328 2.548955 0.131823 -0.045458 -425387.000000 0 0 1
16.254233 -5.151749 -25.163893 30.396745 -0.306932 2.546057 0.121878 -0.043479 270854.000000 0 0 1
14.889533 -4.998149 -24.780513 29.338601 -0.323863 2.576686 0.117925 -0.047057 334368.000000 0 0 1
14.765333 -3.827449 -23.819413 28.284781 -0.253636 2.572014 0.105937 -0.039318 77741.400000 0 0 1
15.050333 -2.543249 -24.364313 28.750658 -0.167401 2.581931 0.077782 -0.041243 -7564.970000 0 0 1
14.666533 -1.508149 -23.438013 27.689748 -0.102469 2.580081 0.089291 -0.039479 1895.330000 0 0 1
15.170733 -0.119149 -23.870413 28.283598 -0.007854 2.575432 0.067207 -0.037072 -34857.900000 0 0 1
14.461733 0.544851 -24.921213 28.818491 0.037658 2.615478 0.071417 -0.035420 96705.500000 0 0 1
15.156233 1.666851 -25.403703 29.628329 0.109538 2.601017 0.050489 -0.013643 -86748.000000 0 0 1
14.429633 2.372851 -26.585253 30.341727 0.162984 2.638705 0.034995 -0.005631 291222.000000 0 0 1
13.164033 2.962851 -26.304363 29.563317 0.221383 2.667623 0.067378 -0.023352 419320.000000 0 0 1
12.702833 3.667851 -27.436293 30.455956 0.281097 2.692523 0.077436 -0.023451 -538092.000000 0 0 1
11.316333 4.281851 -27.304973 29.865618 0.361729 2.724477 0.090240 -0.033140 -596241.000000 0 0 1
11.205533 5.471851 -26.574163 29.354578 0.454257 2.702839 0.061893 -0.028277 -1061140.000000 0 0 1
9.941433 5.986851 -26.450723 28.884515 0.542044 2.728144 0.071181 -0.035793 -1115130.000000 0 0 1
9.119633 5.127322 -31.011303 32.728551 0.512184 2.816217 0.094309 -0.038337 -21796.200000 0 0 1
9.025533 4.326522 -29.884953 31.516494 0.447004 2.818418 0.088685 -0.022581 400730.000000 0 0 1
8.474333 3.084322 -30.295843 31.609578 0.349057 2.852275 0.081027 -0.016481 -214729.000000 0 0 1
8.430433 2.121022 -29.144623 30.413483 0.246476 2.851718 0.088531 -0.018657 -343025.000000 0 0 1
9.663233 1.601622 -28.724113 30.348277 0.164251 2.812954 0.102604 -0.031468 -151171.000000 0 0 1
9.503233 0.762722 -27.619733 29.218878 0.080088 2.809218 0.118916 -0.035996 734816.000000 0 0 1
10.904233 0.357622 -27.017493 29.137177 0.032785 2.757801 0.107476 -0.047615 748051.000000 0 0 1
11.509333 -0.579078 -27.846723 30.137021 -0.050271 2.749218 0.078888 -0.032043 -162882.000000 0 0 1
12.707233 -1.099678 -27.302423 30.134786 -0.086324 2.704557 0.085606 -0.040632 256115.000000 0 0 1
13.137233 -2.491978 -27.853493 30.896827 -0.187461 2.694020 0.077913 -0.041152 -406563.000000 0 0 1
12.304633 -3.492178 -27.433013 30.268292 -0.276538 2.705309 0.090251 -0.038696 -307873.000000 0 0 1
12.799933 -4.784378 -27.793733 30.971279 -0.357702 2.684645 0.110530 -0.042990 -132203.000000 0 0 1
11.968333 -5.898478 -27.160213 30.260704 -0.457904 2.684956 0.102256 -0.047053 -115472.000000 0 0 1
11.960833 -5.752378 -25.804623 29.017752 -0.448279 2.666543 0.118570 -0.040202 -41471.500000 0 0 1
11.070233 -6.642478 -25.176213 28.293360 -0.540442 2.667763 0.125008 -0.044189 -34495.900000 0 0 1
10.966833 -6.424678 -23.610713 26.814430 -0.529934 2.647760 0.128249 -0.048020 -142539.000000 0 0 1
12.234233 -6.581378 -23.029813 26.895413 -0.493543 2.598806 0.145871 -0.048603 -160978.000000 0 0 1
12.098233 -6.421478 -21.621313 25.594604 -0.487966 2.576914 0.155390 -0.056925 363444.000000 0 0 1
13.465233 -6.289178 -20.907713 25.651485 -0.436957 2.523643 0.165650 -0.053240 519707.000000 0 0 1
14.168033 -5.054578 -20.883313 25.737029 -0.342684 2.517359 0.143503 -0.051041 -190316.000000 0 0 1
15.311633 -5.104378 -20.081613 25.763772 -0.321780 2.464586 0.147972 -0.042213 -8091.220000 0 0 1
15.935633 -3.728278 -19.630613 25.557883 -0.229825 2.446641 0.149650 -0.031452 725597.000000 0 0 1
16.844333 -3.152378 -20.615913 26.808299 -0.185008 2.448091 0.130831 -0.029354 803801.000000 0 0 1
17.289033 -1.879878 -20.197013 26.652653 -0.108307 2.430710 0.140150 -0.011600 234505.000000 0 0 1
18.388333 -1.171678 -21.035313 27.964048 -0.063633 2.422232 0.103201 -0.013174 1261920.000000 0 0 1
19.710433 -1.750478 -20.932213 28.804910 -0.088577 2.384286 0.122231 -0.026113 1015220.000000 0 0 1
20.648533 -0.917878 -21.596913 29.893662 -0.044423 2.378147 0.114377 -0.010355 980565.000000 0 0 1
22.050333 -1.583978 -21.855613 31.086878 -0.071711 2.350473 0.083859 -0.016740 145005.000000 0 0 1
22.865133 -1.858878 -20.720413 30.912865 -0.081119 2.305388 0.088808 -0.013161 1027870.000000 0 0 1
24.116233 -2.519178 -21.001013 32.077741 -0.104082 2.284570 0.065572 -0.012459 804593.000000 0 0 1
25.205733 -1.693578 -21.675813 33.287205 -0.067089 2.279929 0.068941 -0.016229 -1373470.000000 0 0 1
25.003933 -1.549578 -23.043813 34.038436 -0.061894 2.314467 0.078288 -0.020226 -107289.000000 0 0 1
25.918233 -0.685978 -23.671813 35.108120 -0.026461 2.310751 0.087402 -0.022162 -557009.000000 0 0 1
27.024533 -1.434178 -24.417713 36.450061 -0.053020 2.304864 0.090500 -0.023540 -531485.000000 0 0 1
27.997733 -1.973978 -23.496513 36.604040 -0.070388 2.267783 0.088014 -0.014864 271915.000000 0 0 1
29.066533 -2.587478 -24.157713 37.883419 -0.088785 2.262286 0.070270 -0.007730 908187.000000 0 0 1
30.190933 -1.771678 -24.935013 39.196762 -0.058615 2.260294 0.069972 -0.016222 46372.400000 0 0 1
29.711733 -1.279478 -26.143983 39.597121 -0.043036 2.291947 0.063359 -0.022512 -116140.000000 0 0 1
30.643233 -0.500878 -26.838063 40.737454 -0.016344 2.290026 0.077051 -0.024366 -953267.000000 0 0 1
30.107433 -0.128378 -28.268273 41.298538 -0.004264 2.324695 0.071068 -0.028498 955809.000000 0 0 1
28.771333 0.402222 -28.328853 40.379144 0.013979 2.348397 0.077501 -0.030711 784643.000000 0 0 1
28.585033 1.619822 -27.608833 39.774056 0.056606 2.338023 0.071575 -0.028782 -58708.800000 0 0 1
27.090833 2.074522 -27.809183 38.878882 0.076427 2.367817 0.096193 -0.026878 425526.000000 0 0 1
26.222933 1.380922 -26.971333 37.643086 0.052612 2.369571 0.104416 -0.018228 -217578.000000 0 0 1
24.931733 1.947522 -27.024933 36.820254 0.077956 2.394944 0.095068 -0.021658 404498.000000 0 0 1
23.860733 1.412322 -26.001223 35.318448 0.059121 2.398225 0.095364 -0.019641 479819.000000 0 0 1
23.967033 2.040722 -24.742013 34.507251 0.084942 2.370298 0.101517 -0.019947 190237.000000 0 0 1
22.935533 1.652822 -23.871813 33.145647 0.071939 2.374901 0.086917 -0.008148 -384257.000000 0 0 1
22.966633 2.323122 -22.487813 32.226772 0.100809 2.343117 0.092474 -0.013307 -434847.000000 0 0 1
22.380133 3.574022 -22.387813 31.856838 0.158359 2.350070 0.106525 -0.012781 287601.000000 0 0 1
22.477133 4.067622 -21.079313 31.082221 0.179030 2.316078 0.106128 -0.026816 -196465.000000 0 0 1
21.854933 5.449422 -20.905813 30.730885 0.244362 2.318950 0.116291 -0.022804 -57025.600000 0 0 1
22.678733 6.458922 -21.500613 31.911110 0.277455 2.310089 0.112462 -0.016560 646277.000000 0 0 1
22.582033 7.772522 -20.951213 31.769696 0.331490 2.290912 0.113903 -0.015432 -278334.000000 0 0 1
22.980733 8.031922 -19.457513 31.164413 0.336235 2.245096 0.114300 -0.031255 566272.000000 0 0 1
24.398433 7.999522 -19.197313 32.059518 0.316826 2.212801 0.099913 -0.028651 1398550.000000 0 0 1
24.843033 8.095522 -17.820913 31.627499 0.315016 2.169367 0.111865 -0.044157 -92895.900000 0 0 1
24.621233 9.422922 -17.094013 31.419768 0.365518 2.146056 0.110203 -0.051714 541783.000000 0 0 1
23.219033 9.666822 -16.864513 30.281722 0.394506 2.161470 0.122178 -0.058137 1035630.000000 0 0 1
22.923733 11.026722 -16.519913 30.331397 0.448347 2.146765 0.096161 -0.056442 -847866.000000 0 0 1
21.480133 11.477722 -16.343913 29.330150 0.490742 2.161854 0.100389 -0.055924 290541.000000 0 0 1
20.550233 11.400622 -17.457713 29.275553 0.506497 2.209710 0.103398 -0.063266 963832.000000 0 0 1
20.153233 10.031922 -17.825213 28.714638 0.461872 2.240522 0.105594 -0.055546 -804084.000000 0 0 1
19.259033 9.965122 -19.029913 28.850504 0.477491 2.291088 0.117676 -0.038933 -167926.000000 0 0 1
19.977533 10.205522 -20.229513 30.207411 0.472290 2.304584 0.113244 -0.034221 489182.000000 0 0 1
19.076633 10.145222 -21.318113 30.353013 0.488774 2.349475 0.098005 -0.025291 -215128.000000 0 0 1
19.724933 10.224222 -22.670713 31.742226 0.478212 2.366295 0.100995 -0.016791 -546730.000000 0 0 1
20.333033 11.444522 -22.935013 32.717337 0.512658 2.347602 0.085129 -0.021880 244890.000000 0 0 1
20.841233 11.602522 -24.285813 34.040802 0.507980 2.365181 0.106957 -0.022852 121800.000000 0 0 1
21.362633 13.007822 -24.633613 35.105276 0.546942 2.348587 0.111278 -0.035269 20040.900000 0 0 1
21.878833 13.076922 -25.965123 36.385118 0.538725 2.365448 0.120349 -0.038434 99173.900000 0 0 1
22.195033 14.418322 -26.359333 37.354008 0.576108 2.354154 0.113580 -0.028383 -425176.000000 0 0 1
21.073933 15.213222 -27.029213 37.498415 0.625272 2.375766 0.081229 -0.029651 191649.000000 0 0 1
19.997233 15.422822 -26.097333 36.315610 0.656962 2.372620 0.076566 -0.029276 389541.000000 0 0 1
18.806833 15.756022 -26.802153 36.335996 0.697358 2.400335 0.085919 -0.032388 247036.000000 0 0 1
17.462733 15.304922 -26.237873 35.037318 0.719641 2.417129 0.087160 -0.038576 -164157.000000 0 0 1
17.378133 13.897422 -26.169573 34.350901 0.674563 2.436931 0.087311 -0.028629 -172800.000000 0 0 1
16.051933 13.517622 -25.913693 33.345316 0.699900 2.460891 0.058733 -0.029782 -333942.000000 0 0 1
15.882033 11.996422 -25.962333 32.713848 0.646913 2.487531 0.044926 -0.022565 1176790.000000 0 0 1
14.480533 11.622922 -25.877283 31.849834 0.676360 2.519186 0.036712 -0.019122 1308320.000000 0 0 1
14.322833 10.236622 -25.742383 31.186571 0.620528 2.541763 0.041343 -0.021625 -548435.000000 0 0 1
12.871533 9.770922 -25.688153 30.348451 0.649307 2.580061 0.084869 -0.036586 -521435.000000 0 0 1
12.231333 10.009922 -24.462313 29.124024 0.685850 2.567961 0.116150 -0.043218 -243961.000000 0 0 1
10.984433 9.349022 -24.472113 28.406800 0.705141 2.608989 0.119598 -0.045663 -491097.000000 0 0 1
10.079133 9.811522 -23.350013 27.259456 0.771945 2.599409 0.119566 -0.048060 -541429.000000 0 0 1
9.501033 11.039622 -23.707413 27.824167 0.860163 2.590674 0.125208 -0.050198 -510136.000000 0 0 1
8.894833 11.750022 -22.675213 27.043416 0.922827 2.565274 0.130501 -0.042902 -253593.000000 0 0 1
9.800533 12.509422 -21.701713 26.897963 0.906227 2.509540 0.117645 -0.036288 -204761.000000 0 0 1
10.621733 11.659822 -20.912413 26.193542 0.831954 2.495397 0.149654 -0.035684 211030.000000 0 0 1
11.500733 12.466822 -20.100913 26.300859 0.825685 2.440702 0.186551 -0.045174 -247509.000000 0 0 1
12.268033 11.544022 -19.132513 25.491609 0.755002 2.419678 0.180445 -0.045345 127105.000000 0 0 1
13.332433 10.717422 -19.612513 26.024364 0.677091 2.424350 0.150094 -0.045342 454171.000000 0 0 1
13.018333 9.869522 -20.703013 26.372318 0.648681 2.473538 0.144834 -0.052447 383084.000000 0 0 1
14.275333 9.009222 -21.244013 27.134098 0.562977 2.470153 0.152758 -0.041800 1275810.000000 0 0 1
14.748733 8.128722 -20.224413 26.317829 0.503724 2.447240 0.171167 -0.060235 403014.000000 0 0 1
15.665233 7.134322 -20.656313 26.888312 0.427355 2.446862 0.124053 -0.058250 -70171.600000 0 0 1
16.192833 6.297722 -19.485613 26.106670 0.370919 2.413409 0.192348 -0.065170 180944.000000 0 0 1
17.143333 7.081522 -18.733613 26.362664 0.391729 2.361163 0.154572 -0.046734 470171.000000 0 0 1
17.500833 6.476822 -17.534013 25.606053 0.354456 2.325071 0.165065 -0.068925 167032.000000 0 0 1
18.844133 6.861022 -16.825213 26.177524 0.349174 2.268859 0.227794 -0.049012 1254550.000000 0 0 1
20.072233 6.241322 -17.254513 27.194978 0.301466 2.258124 0.176068 -0.064241 1386420.000000 0 0 1
21.052633 6.284122 -16.205413 27.300530 0.290076 2.206313 0.158714 -0.081844 222436.000000 0 0 1
22.293133 5.388622 -16.408313 28.200244 0.237168 2.191798 0.150910 -0.070125 -883232.000000 0 0 1
23.122133 5.470122 -15.312013 28.266818 0.232304 2.143249 0.124415 -0.068375 -4898.660000 0 0 1
23.857433 4.291322 -15.065113 28.540325 0.177970 2.126868 0.197941 -0.079212 759016.000000 0 0 1
25.210833 3.985322 -15.830513 30.034547 0.156782 2.125953 0.068313 -0.015276 263084.000000 0 0 1
25.695633 2.756622 -15.412113 30.089828 0.106871 2.108545 0.087386 -0.030031 154509.000000 0 0 1
26.874533 2.407322 -16.140813 31.441399 0.089338 2.109894 0.070645 -0.029861 -31815.000000 0 0 1
27.498233 1.152822 -15.615113 31.643539 0.041899 2.086870 0.087902 -0.040679 -514614.000000 0 0 1
26.917833 -0.072878 -15.948013 31.287604 -0.002707 2.105659 0.108128 -0.035112 62534.300000 0 0 1
27.820533 -1.073778 -15.524713 31.877135 -0.038577 2.079468 0.105321 -0.026550 56883.800000 0 0 1
27.248333 -2.529578 -15.775213 31.586829 -0.092569 2.093730 0.089722 -0.021721 200147.000000 0 0 1
26.475633 -3.079278 -14.711713 30.444631 -0.115786 2.075135 0.102481 -0.024376 367741.000000 0 0 1
26.072733 -4.376078 -14.982413 30.387664 -0.166291 2.086380 0.093612 -0.021035 -1321180.000000 0 0 1
25.498633 -5.156878 -13.726313 29.414033 -0.199550 2.056305 0.115021 -0.029226 447311.000000 0 0 1
24.206133 -4.880778 -13.220113 28.009467 -0.198966 2.062340 0.170088 -0.026191 28151.600000 0 0 1
23.207733 -4.943278 -14.197013 27.651221 -0.209865 2.109975 0.180927 -0.037325 -1764690.000000 0 0 1
21.813033 -4.747978 -13.570013 26.124642 -0.214324 2.116984 0.199223 -0.040738 -437209.000000 0 0 1
21.281133 -5.983578 -13.162613 25.728276 -0.274092 2.107843 0.212461 -0.036910 335192.000000 0 0 1
21.357733 -6.164278 -11.768313 25.152420 -0.280984 2.057687 0.232143 -0.035900 -325646.000000 0 0 1
20.843833 -7.567578 -11.300213 24.888319 -0.348263 2.042087 0.183473 -0.026746 876709.000000 0 1 0
19.407533 -7.627878 -11.213913 23.676754 -0.374489 2.064199 0.181343 -0.023909 1421930.000000 0 1 0
18.971033 -8.866578 -11.800713 24.036911 -0.437208 2.083966 0.159068 -0.035814 135283.000000 0 1 0
17.531233 -9.382678 -11.487613 22.963972 -0.491408 2.094678 0.144006 -0.038828 82576.700000 0 1 0
16.619633 -8.453178 -11.966913 22.155708 -0.470525 2.141385 0.135490 -0.025472 -837222.000000 0 1 0
15.312733 -8.931978 -11.909813 21.356583 -0.528053 2.162366 0.123454 -0.023993 474587.000000 0 1 0
14.155433 -7.889178 -12.271313 20.327334 -0.508450 2.218912 0.096160 -0.016456 488950.000000 0 1 0
14.263633 -7.169878 -13.462313 20.882821 -0.465780 2.271374 0.096070 -0.017262 298106.000000 0 1 0
15.244433 -6.134478 -13.509013 21.272470 -0.382580 2.258865 0.093517 -0.014638 -155808.000000 0 1 0
14.998033 -5.058478 -14.545313 21.496402 -0.325295 2.313985 0.089803 -0.019765 538699.000000 0 1 0
13.953333 -4.086978 -14.237713 20.349726 -0.284933 2.345706 0.094788 -0.022326 831062.000000 0 1 0
13.671333 -3.115978 -15.259413 20.723521 -0.224093 2.398431 0.079300 -0.023970 289720.000000 0 1 0
14.835733 -2.102678 -15.533813 21.582853 -0.140793 2.374209 0.125958 -0.021273 196422.000000 0 1 0
15.922933 -2.641478 -16.283913 22.927778 -0.164394 2.360616 0.130008 -0.020398 304373.000000 0 1 0
17.074733 -1.835478 -16.208813 23.614425 -0.107086 2.327316 0.153530 -0.028195 -66709.800000 0 1 0
18.068033 -2.244778 -15.101613 23.654842 -0.123607 2.263234 0.181253 -0.034731 -791726.000000 0 1 0
17.740933 -1.994078 -13.757013 22.538244 -0.111930 2.227343 0.165637 -0.026831 879558.000000 0 1 0
18.691533 -2.626678 -12.824813 22.819918 -0.139613 2.167599 0.178492 -0.030253 722913.000000 0 1 0
18.123433 -2.820078 -11.385813 21.588154 -0.154366 2.126346 0.173953 -0.029041 -294196.000000 0 1 0
18.064433 -1.599078 -10.651213 21.031622 -0.088291 2.101845 0.167734 -0.026426 541754.000000 0 1 0
17.560833 -1.868778 -9.382013 19.997433 -0.106018 2.059137 0.140933 -0.019848 -1009880.000000 0 1 0
17.509533 -0.550178 -8.561913 19.498533 -0.031411 2.025399 0.120753 -0.015354 -315063.000000 0 1 0
18.699733 0.061022 -8.125513 20.388911 0.003263 1.980706 0.139637 -0.013422 452248.000000 0 1 0
19.616533 0.644522 -9.023013 21.601818 0.032844 2.001705 0.166573 -0.010320 -203770.000000 0 1 0
19.174433 1.964522 -9.642513 21.552175 0.102099 2.034656 0.170673 -0.015733 -641874.000000 0 1 0
19.239233 3.149922 -8.913713 21.436519 0.162284 1.999640 0.147434 0.002921 450912.000000 0 1 0
18.571933 4.169222 -9.630213 21.331669 0.220829 2.039188 0.139801 -0.009645 -308889.000000 0 1 0
18.646833 5.594822 -8.997113 21.446548 0.291495 2.003705 0.127440 0.006687 -49709.200000 0 1 0
17.872333 6.564022 -9.743813 21.388047 0.351979 2.043812 0.095649 0.003908 739767.000000 0 1 0
18.207133 7.880822 -9.479813 21.988040 0.408495 2.016547 0.110287 0.010269 -203059.000000 0 1 0
-27.677607 -28.758008 5.328187 40.267388 0.804540 1.438087 0.130946 -0.016929 -131280.000000 0 0 1
-27.971297 -27.639148 6.113187 39.795565 0.779425 1.416571 0.116692 -0.012383 -965950.000000 0 0 1
-27.161567 -26.586728 5.883187 38.460587 0.774704 1.417227 0.147038 -0.025919 -1377540.000000 0 0 1
-27.405387 -25.275048 6.685287 37.875802 0.744981 1.393361 0.111190 -0.021130 513914.000000 0 0 1
-28.738337 -24.734078 6.500087 38.469699 0.710653 1.401015 0.090945 -0.025744 1612130.000000 0 0 1
-29.773527 -25.418858 7.260187 39.815720 0.706661 1.387426 0.094579 -0.020219 322437.000000 0 0 1
-29.665137 -25.282478 8.820687 39.962840 0.705806 1.348241 0.102948 -0.020746 -249887.000000 0 0 1
-28.533407 -25.932828 9.388687 39.683931 0.737688 1.331945 0.097588 -0.027959 -40416.000000 0 0 1
-28.755987 -26.287968 10.727987 40.411060 0.740591 1.302103 0.080165 -0.026684 249881.000000 0 0 1
-27.481717 -26.962078 11.346787 40.136617 0.775854 1.284184 0.055257 -0.020835 300976.000000 0 0 1
-26.462637 -26.115888 11.772787 38.998837 0.778803 1.264137 0.058736 -0.006560 -545928.000000 0 0 1
-26.690857 -25.362288 12.960287 39.033531 0.759880 1.232342 0.065662 -0.010424 -1698050.000000 0 0 1
-25.478197 -24.963178 13.730387 38.220705 0.775188 1.203343 0.073033 -0.019202 -576476.000000 0 0 1
-24.772267 -26.082058 14.320987 38.717304 0.811148 1.191910 0.053667 -0.014586 229963.000000 0 0 1
-23.503667 -25.771608 14.842587 37.906471 0.831392 1.168472 0.064777 -0.018783 -64270.900000 0 0 1
-22.810267 -26.998698 15.503587 38.595326 0.869291 1.157428 0.059959 -0.020996 -417617.000000 0 0 1
-23.495467 -27.595508 16.577887 39.854428 0.865476 1.141797 0.050107 -0.013524 -178391.000000 0 0 1
-22.850267 -28.730128 17.033587 40.468482 0.898902 1.136348 0.053096 -0.009779 -302712.000000 0 0 1
-23.761367 -29.713298 17.807687 42.007099 0.896246 1.133026 0.065260 -0.021531 79920.800000 0 0 1
-24.697167 -30.362498 16.949587 42.651141 0.887932 1.162114 0.037916 -0.012419 170609.000000 0 0 1
-25.379467 -31.324238 17.679887 44.021627 0.889856 1.157513 0.056365 -0.014937 51809.700000 0 0 1
-26.269937 -32.286598 16.811187 44.890423 0.887788 1.186945 0.053614 -0.018348 453873.000000 0 0 1
-25.425467 -33.148988 16.102587 44.772794 0.916500 1.202902 0.055862 -0.019038 403644.000000 0 0 1
-26.235997 33.471118 15.409587 45.233823 -0.905987 1.223172 0.062290 -0.025632 -373736.000000 0 0 1
-25.530617 32.716779 14.205287 43.863313 -0.908151 1.240997 0.079850 -0.030365 279225.000000 0 0 1
-24.427367 31.899761 14.556487 42.733855 -0.917289 1.223208 0.067946 -0.022633 176346.000000 0 0 1
-23.239067 32.666375 14.655187 42.683965 -0.952456 1.220324 0.065618 -0.025620 -967128.000000 0 0 1
-22.004567 31.780931 14.483587 41.279570 -0.965201 1.212301 0.068547 -0.034988 -637975.000000 0 0 1
-21.922367 31.219063 13.213187 40.370886 -0.958588 1.237357 0.054475 -0.020989 -397884.000000 0 0 1
-20.904267 30.288243 13.098187 39.063136 -0.966693 1.228864 0.068521 -0.027994 -423629.000000 0 0 1
-20.853967 29.574563 11.711387 38.035501 -0.956634 1.257804 0.067263 -0.025342 11603.100000 0 0 1
-20.441967 30.534483 10.694687 38.270159 -0.980854 1.287573 0.057409 -0.018239 23920.800000 0 0 1
-20.861567 30.129363 9.409487 37.835459 -0.965189 1.319464 0.075594 -0.025278 98725.200000 0 0 1
-20.165367 30.976383 8.305787 37.883565 -0.993724 1.349756 0.068176 -0.020700 -357815.000000 0 0 1
-18.858767 30.560823 8.101987 36.813846 -1.017906 1.348900 0.073027 -0.027234 -988269.000000 0 0 1
-18.266367 30.994453 6.889887 36.630409 -1.038250 1.381577 0.099305 -0.029689 258498.000000 0 0 1
-17.391167 29.858563 6.280187 35.120183 -1.043380 1.391009 0.109221 -0.034365 -84885.100000 0 0 1
-18.079067 28.721013 5.779487 34.426033 -1.008988 1.402116 0.107460 -0.022652 -170995.000000 0 0 1
-18.481367 27.706813 6.695587 33.971449 -0.982540 1.372403 0.073841 -0.022962 -362358.000000 0 0 1
-19.636267 26.870463 6.173887 33.848511 -0.939713 1.387372 0.064274 -0.011128 -261609.000000 0 0 1
-19.317267 26.210533 4.964487 32.936226 -0.935665 1.419489 0.077958 -0.022461 784761.000000 0 0 1
-20.449767 25.386173 4.632187 32.925794 -0.892682 1.429642 0.068450 -0.021791 150648.000000 0 0 1
-20.338267 24.631463 3.296987 32.112680 -0.880578 1.467946 0.092435 -0.037822 -1169040.000000 0 0 1
-20.318267 25.400943 2.086987 32.594408 -0.896115 1.506723 0.109164 -0.045950 782260.000000 0 0 1
-19.204067 26.271983 1.763987 32.590259 -0.939585 1.516644 0.105085 -0.043265 1437520.000000 0 0 1
-17.749867 25.662883 1.909087 31.261574 -0.965693 1.509690 0.101259 -0.050323 123184.000000 0 0 1
-17.346067 24.495083 1.152787 30.037045 -0.954625 1.532408 0.148569 -0.059277 188025.000000 0 0 1
-17.480367 24.570273 -0.262813 30.155110 -0.952431 1.579512 0.131513 -0.056708 -428259.000000 0 0 1
-16.875467 23.442233 -1.073413 28.904531 -0.946856 1.607941 0.147511 -0.061845 -637416.000000 0 0 1
-17.752767 22.363293 -1.108713 28.574585 -0.899826 1.609607 0.165731 -0.072853 -36792.900000 0 0 1
-17.432867 21.209593 -1.930513 27.522329 -0.882824 1.640997 0.163242 -0.060451 -61592.700000 0 0 1
-16.195667 20.362093 -1.559713 26.064290 -0.898877 1.630673 0.159153 -0.054523 197451.000000 0 0 1
-16.512867 19.493193 -0.489313 25.551884 -0.867983 1.589947 0.159743 -0.057850 85469.300000 0 0 1
-15.397167 18.740693 -0.104713 24.254841 -0.883029 1.575114 0.145085 -0.048990 -61479.100000 0 1 0
-15.855267 17.696293 0.891087 23.776929 -0.840215 1.533311 0.109248 -0.040055 111082.000000 0 1 0
-16.453767 16.567393 0.275587 23.351251 -0.788839 1.558994 0.098338 -0.040507 600607.000000 0 1 0
-17.120767 15.758993 1.274387 23.304304 -0.744005 1.516084 0.114329 -0.057693 207162.000000 0 1 0
-17.832167 14.472493 0.809187 22.980297 -0.681771 1.535577 0.112359 -0.055416 146145.000000 0 1 0
-18.975667 14.708093 -0.021713 24.008424 -0.659374 1.571701 0.165144 -0.065272 381735.000000 0 1 0
-19.564167 13.477493 -0.304913 23.759050 -0.603228 1.583630 0.169306 -0.055515 -1174.630000 0 1 0
-20.913967 13.677593 -1.103613 25.013767 -0.579177 1.614931 0.179395 -0.050465 4798.440000 0 0 1
-21.634967 12.506393 -1.381313 25.027779 -0.524134 1.626016 0.172559 -0.055365 394989.000000 0 0 1
-22.426967 12.087993 -0.297113 25.478947 -0.494354 1.582458 0.187200 -0.057348 -1038390.000000 0 0 1
-23.832367 12.674793 -0.113713 26.993426 -0.488787 1.575009 0.217066 -0.059337 -816669.000000 0 0 1
-23.889967 14.089393 -0.026813 27.735217 -0.532858 1.571763 0.227689 -0.064129 -63316.100000 0 0 1
-25.185047 14.529993 0.308387 29.077524 -0.523283 1.560190 0.220363 -0.055999 -97878.200000 0 0 1
-25.239907 16.004293 0.845387 29.898244 -0.565107 1.542517 0.213661 -0.057328 -125812.000000 0 0 1
-24.907867 16.184993 2.231287 29.788160 -0.576231 1.495821 0.204299 -0.056506 -86314.800000 0 0 1
-24.873667 17.551593 2.662087 30.558869 -0.614494 1.483572 0.183112 -0.051832 121340.000000 0 0 1
-26.137757 18.462293 2.722387 32.116196 -0.614972 1.485928 0.214408 -0.048576 522191.000000 0 0 1
-27.125117 17.998293 3.683087 32.760886 -0.585827 1.458135 0.221447 -0.060020 684313.000000 0 0 1
-28.373377 18.636493 3.729087 34.150747 -0.581162 1.461383 0.202021 -0.056959 807147.000000 0 0 1
-29.368947 18.489893 2.475987 34.792840 -0.561881 1.499572 0.194905 -0.057933 577282.000000 0 0 1
-30.628177 19.105193 2.775287 36.204915 -0.557720 1.494066 0.176102 -0.057035 794293.000000 0 0 1
-31.420077 19.190993 1.562687 36.850475 -0.548314 1.528377 0.162052 -0.047758 994667.000000 0 0 1
-32.790117 19.913993 1.837887 38.407509 -0.545782 1.522926 0.166303 -0.046892 1175970.000000 0 0 1
-33.950897 19.116293 2.181587 39.023780 -0.512813 1.514863 0.189837 -0.043338 1735810.000000 0 0 1
-35.133843 19.930993 2.380387 40.463535 -0.516019 1.511934 0.179530 -0.040978 826485.000000 0 0 1
-35.351046 20.583993 3.765187 41.080091 -0.527284 1.479013 0.161955 -0.045001 -473290.000000 0 0 1
-34.364276 21.513493 4.162487 40.756106 -0.559349 1.468486 0.166911 -0.045206 232117.000000 0 0 1
-34.767190 22.092593 5.376787 41.542148 -0.566074 1.441003 0.161445 -0.044374 -373690.000000 0 0 1
-33.678777 22.929953 6.054387 41.190999 -0.597753 1.423279 0.171519 -0.052469 -653483.000000 0 0 1
-33.370257 24.022773 5.195487 41.444672 -0.623948 1.445106 0.166733 -0.041382 430826.000000 0 0 1
-32.409687 24.868823 5.791987 41.260069 -0.654498 1.429954 0.160944 -0.044941 47489.700000 0 0 1
-32.826927 26.359663 5.488987 42.456660 -0.676561 1.441149 0.160810 -0.040724 184600.000000 0 0 1
-33.829987 26.843083 6.366487 43.652621 -0.670747 1.424430 0.161986 -0.033833 242753.000000 0 0 1
-34.288120 28.148623 6.095587 44.779196 -0.687382 1.434247 0.149624 -0.027599 -746279.000000 0 0 1
-35.363053 28.582323 7.021687 46.008682 -0.679754 1.417581 0.135740 -0.025751 -1108360.000000 0 0 1
-34.848295 28.726033 8.375387 45.931860 -0.689393 1.387427 0.141353 -0.031509 881820.000000 0 0 1
-35.799019 29.350293 9.275187 47.212695 -0.686736 1.373055 0.146381 -0.027948 310290.000000 0 0 1
-37.080077 28.567953 9.562687 47.775570 -0.656455 1.369277 0.144123 -0.031153 -637600.000000 0 0 1
-36.661007 27.390583 10.130987 46.871211 -0.641663 1.352932 0.150929 -0.044576 278900.000000 0 0 1
-37.726737 26.636823 10.690487 47.403730 -0.614772 1.343320 0.159728 -0.047853 235242.000000 0 0 1
-37.168527 25.323653 11.385887 46.394237 -0.598079 1.322848 0.159542 -0.049002 471309.000000 0 0 1
-36.346727 25.603563 12.536587 46.192998 -0.613690 1.295953 0.176107 -0.050458 358934.000000 0 0 1
-35.870757 24.477863 13.326587 45.425488 -0.598809 1.273044 0.162190 -0.038287 320260.000000 0 0 1
-34.506445 24.841553 13.965787 44.753109 -0.623964 1.253433 0.169214 -0.036837 114446.000000 0 0 1
-34.640957 25.821413 14.976087 45.727721 -0.640551 1.237134 0.157055 -0.030134 -440225.000000 0 0 1
-33.441807 26.115973 15.618687 45.214400 -0.663009 1.218093 0.189004 -0.025400 -268313.000000 0 0 1
-33.689347 27.255393 16.592287 46.401860 -0.680217 1.205123 0.185560 -0.017022 189195.000000 0 0 1
-33.347857 28.496073 15.991787 46.688789 -0.707106 1.221200 0.197552 -0.019893 89592.700000 0 0 1
-33.784697 29.586003 16.791587 47.944705 -0.719239 1.212982 0.164182 -0.014822 25063.100000 0 0 1
-33.512847 30.977063 16.195387 48.424993 -0.746098 1.229782 0.138269 -0.014273 -881577.000000 0 0 1
-32.159627 31.171583 16.022787 47.567205 -0.769798 1.227232 0.135567 -0.010516 -1150730.000000 0 0 1
-31.777687 32.379368 15.448787 47.926088 -0.794776 1.242589 0.107618 -0.005552 6637.270000 0 0 1
-30.292787 32.496601 14.995087 46.888535 -0.820482 1.245275 0.134651 -0.016002 338572.000000 0 0 1
-29.823437 31.741866 13.905887 45.720424 -0.816549 1.261750 0.125865 -0.014517 17936.800000 0 0 1
-29.710907 30.359643 14.079987 44.751447 -0.796197 1.250733 0.144455 -0.020019 -822574.000000 0 0 1
-30.852857 29.542113 13.518487 44.803848 -0.763699 1.264294 0.174195 -0.021997 -392764.000000 0 0 1
-30.868777 29.561743 12.084187 44.416277 -0.763773 1.295256 0.175955 -0.029335 -313778.000000 0 0 1
-31.898857 28.683523 11.741387 44.476306 -0.732374 1.303638 0.167411 -0.032653 -71409.300000 0 0 1
-31.980857 28.425803 10.217387 43.990869 -0.726614 1.336394 0.168059 -0.032851 -170642.000000 0 0 1
-30.961267 27.579893 9.783387 42.602409 -0.727702 1.339084 0.157857 -0.030130 -506728.000000 0 0 1
-30.759137 27.514683 8.407987 42.117414 -0.729780 1.369814 0.151180 -0.034613 253472.000000 0 0 1
-29.617147 26.580763 7.931087 40.578498 -0.731420 1.374080 0.168625 -0.035369 303899.000000 0 0 1
-29.392877 26.754833 6.531687 40.279341 -0.738449 1.407917 0.170082 -0.039197 -618087.000000 0 0 1
-28.246407 26.107143 6.088887 38.942483 -0.746060 1.413796 0.146938 -0.031558 -226656.000000 0 0 1
-27.738297 26.429603 4.640987 38.593728 -0.761243 1.450252 0.139459 -0.023321 116850.000000 0 0 1
-27.028667 27.661353 4.416587 38.925642 -0.796966 1.457089 0.110243 -0.014098 399876.000000 0 0 1
-26.795797 27.916283 3.044787 38.815002 -0.805875 1.492272 0.108806 -0.013376 -462190.000000 0 0 1
-25.776877 28.980523 2.688987 38.878642 -0.843838 1.501577 0.093236 -0.012299 -213925.000000 0 0 1
-24.439567 28.711423 3.043587 37.827261 -0.865598 1.490249 0.075090 -0.010355 -306612.000000 0 0 1
-23.564267 29.629113 2.431587 37.935098 -0.898923 1.506654 0.083275 0.007360 754315.000000 0 0 1
-22.108867 29.389493 2.968687 36.896578 -0.925843 1.490250 0.064732 -0.010776 1191500.000000 0 0 1
-21.092867 30.333153 2.577887 37.035858 -0.963182 1.501135 0.084030 -0.011402 501151.000000 0 0 1
-19.824967 29.876313 3.016487 35.982254 -0.984942 1.486865 0.102142 -0.031775 248041.000000 0 0 1
-18.604267 30.710693 2.616887 36.001577 -1.026129 1.498044 0.105967 -0.028633 103011.000000 0 0 1
-18.651867 32.025172 3.201387 37.198827 -1.043409 1.484628 0.125028 -0.025903 756152.000000 0 0 1
-17.453667 32.739113 2.821487 37.208075 -1.081010 1.494893 0.130740 -0.019359 701140.000000 0 0 1
-17.246267 -33.571988 3.665787 37.920313 1.096241 1.473974 0.139668 -0.026041 -279829.000000 0 0 1
-17.976267 -32.423978 3.336387 37.223541 1.064572 1.481045 0.161206 -0.027296 -120539.000000 0 0 1
-17.779567 -31.488048 4.373787 36.424445 1.056779 1.450428 0.147523 -0.045748 265185.000000 0 0 1
-18.877667 -30.393598 4.623287 36.076473 1.015002 1.442291 0.178709 -0.039264 198679.000000 0 0 1
-19.142567 -29.562228 3.537987 35.396053 0.996156 1.470675 0.206169 -0.040375 479003.000000 0 0 1
-20.341667 -28.827138 3.769287 35.482317 0.956293 1.464365 0.219534 -0.055930 222919.000000 0 0 1
-20.620367 -27.880128 2.565687 34.771883 0.933979 1.496943 0.200278 -0.066957 -318357.000000 0 0 1
-19.635867 -26.888908 2.488887 33.388250 0.940050 1.496183 0.219088 -0.068508 -85152.700000 0 0 1
-20.039367 -25.681948 1.813187 32.625547 0.908190 1.515192 0.183366 -0.070781 -559102.000000 0 0 1
-18.946367 -24.643578 1.722087 31.132561 0.915362 1.515453 0.147291 -0.051245 -415983.000000 0 0 1
-17.839167 -25.055728 0.948787 30.772156 0.952076 1.539959 0.203376 -0.054969 -369474.000000 0 0 1
-16.804467 -24.095178 1.111087 29.397317 0.961804 1.532992 0.164593 -0.044235 822844.000000 0 0 1
-15.536367 -24.514578 0.256487 29.024283 1.005922 1.561959 0.132676 -0.036894 406055.000000 0 0 1
-15.777267 -24.639478 -1.150413 29.280531 1.001253 1.610096 0.115629 -0.032793 178881.000000 0 0 1
-15.544867 -23.442178 -1.833513 28.187593 0.985256 1.635889 0.125570 -0.035535 -94211.800000 0 0 1
-15.628867 -23.599078 -3.371913 28.505224 0.985847 1.689365 0.071428 -0.023418 221189.000000 0 0 1
-14.425967 -24.119378 -3.907113 28.374609 1.031770 1.708933 0.105750 -0.023279 77479.100000 0 0 1
-14.477267 -24.051578 -5.334713 28.574969 1.028962 1.758590 0.075867 -0.017242 286258.000000 0 0 1
-13.167767 -24.528778 -6.003813 28.479761 1.078121 1.783200 0.110082 -0.026986 184001.000000 0 0 1
-13.187767 -25.928948 -6.272213 29.758498 1.100283 1.783159 0.090193 -0.031530 -1049600.000000 0 0 1
-12.063267 -26.282638 -6.950113 29.742285 1.140498 1.806655 0.109409 -0.034446 -920912.000000 0 0 1
24.561233 13.148722 27.609014 39.222451 0.491522 0.789911 0.089401 -0.018900 -1161.210000 0 0 1
25.514233 12.092322 27.708924 39.559888 0.442587 0.794797 0.093429 -0.025683 309286.000000 0 0 1
25.363633 11.170622 28.771444 39.948625 0.414858 0.766690 0.102060 -0.030119 -261445.000000 0 0 1
25.333533 11.521222 30.227464 41.088027 0.426823 0.744133 0.122441 -0.033225 -151495.000000 0 0 1
24.272833 12.362122 30.580064 40.952811 0.471059 0.727687 0.120823 -0.026958 -126901.000000 0 0 1
24.416333 12.829922 31.900583 42.171215 0.483811 0.712922 0.104325 -0.024659 -710618.000000 0 0 1
23.335533 13.885222 32.096019 42.041657 0.536753 0.702183 0.100892 -0.023583 -115567.000000 0 0 1
22.037133 13.321622 32.170276 41.207129 0.543728 0.675016 0.123604 -0.020775 -17735.300000 0 0 1
21.384533 13.977222 33.251120 41.932063 0.578911 0.655118 0.107993 -0.022078 -551195.000000 0 0 1
20.299433 13.121222 -33.488763 41.300492 0.573829 2.516410 0.100726 -0.023038 133809.000000 0 0 1
19.103733 12.924022 33.122575 40.361961 0.594792 0.608269 0.101070 -0.013915 63267.100000 0 0 1
18.120833 12.341922 -33.440063 39.986565 0.597922 2.561264 0.074248 -0.016431 -368697.000000 0 0 1
16.761033 12.483222 33.227824 39.253679 0.640150 0.561440 0.056577 -0.012838 -226529.000000 0 0 1
16.484933 11.553522 32.235216 38.004553 0.611299 0.558231 0.056347 -0.004195 -943731.000000 0 0 1
15.127833 11.277922 32.207880 37.328145 0.640620 0.529953 0.074577 -0.007089 -666244.000000 0 0 1
14.749733 10.262122 31.135584 35.948440 0.607868 0.523414 0.094582 -0.007402 -82074.800000 0 0 1
15.049833 8.872322 31.524742 36.041988 0.532685 0.506048 0.060001 -0.008560 353738.000000 0 0 1
15.717233 8.274222 30.382734 35.193816 0.484577 0.529029 0.067279 -0.021790 272613.000000 0 0 1
16.135733 6.799722 30.552064 35.214013 0.398824 0.520419 0.092340 -0.029211 410077.000000 0 0 1
15.041433 5.888622 30.659274 34.654172 0.373152 0.484901 0.088893 -0.023767 212886.000000 0 0 1
15.530033 4.600422 31.024044 34.997673 0.287992 0.481157 0.092530 -0.036660 316571.000000 0 0 1
14.432633 3.516222 31.264811 34.614348 0.238974 0.443553 0.068883 -0.029793 183108.000000 0 0 1
14.968633 2.400822 31.875602 35.296996 0.159036 0.443935 0.071373 -0.034790 598589.000000 0 0 1
13.912433 1.423722 32.028805 34.948921 0.101980 0.411689 0.071345 -0.040021 637952.000000 0 0 1
14.433033 0.082522 32.591608 35.644525 0.005718 0.416894 0.056821 -0.042537 -106806.000000 0 0 1
14.968633 -0.803378 31.611258 34.985383 -0.053619 0.442798 0.066064 -0.048677 -101565.000000 0 0 1
15.226633 -2.081178 32.131326 35.617464 -0.135838 0.446132 0.106926 -0.053404 -121849.000000 0 0 1
15.824433 -3.117578 31.144364 35.072829 -0.194519 0.477838 0.115812 -0.057115 -914680.000000 0 0 1
16.003733 -4.473178 31.605465 35.707621 -0.272553 0.484048 0.125524 -0.054461 566472.000000 0 0 1
17.168833 -4.702278 32.420266 36.985860 -0.267329 0.502132 0.092669 -0.052361 59771.900000 0 0 1
18.524333 -4.578178 31.735597 37.030511 -0.242289 0.541353 0.103654 -0.051113 -967629.000000 0 0 1
18.903633 -3.172078 31.599465 36.958566 -0.166254 0.545251 0.110715 -0.052416 -204449.000000 0 0 1
20.047133 -2.833478 30.870354 36.917406 -0.140411 0.580478 0.117925 -0.057512 -343794.000000 0 0 1
20.247833 -1.336978 30.677504 36.781401 -0.065935 0.584389 0.106740 -0.053175 -535922.000000 0 0 1
20.367833 -0.689078 31.928025 37.877727 -0.033819 0.568102 0.110633 -0.050340 107278.000000 0 0 1
20.359033 0.748122 31.930981 37.876608 0.036730 0.567911 0.090709 -0.040223 -916359.000000 0 0 1
21.438533 1.477822 31.196334 37.881471 0.068824 0.603199 0.111387 -0.033451 -1105030.000000 0 0 1
21.442233 1.342522 29.782694 36.723025 0.062529 0.624922 0.109843 -0.041343 -199858.000000 0 0 1
22.316033 2.290922 29.198784 36.821497 0.102300 0.655108 0.084646 -0.033449 -293168.000000 0 0 1
21.788933 3.668122 28.919034 36.394000 0.166784 0.652432 0.073239 -0.021840 -392869.000000 0 0 1
21.337833 4.293622 30.099604 37.144642 0.198569 0.626073 0.089545 -0.024044 146995.000000 0 0 1
20.896733 5.627722 30.000184 36.991292 0.263070 0.624926 0.090516 -0.022810 -30288.800000 0 0 1
20.441733 6.114622 31.444375 38.000023 0.290653 0.596186 0.097204 -0.018957 440701.000000 0 0 1
19.184733 5.645822 31.919666 37.666886 0.286208 0.559690 0.089394 -0.011263 384436.000000 0 0 1
19.026233 5.837222 33.310884 38.803166 0.297682 0.538541 0.080488 -0.009871 -168068.000000 0 0 1
17.897733 4.977522 -33.524323 38.327337 0.271254 2.635581 0.080866 -0.008805 -132543.000000 0 0 1
18.346933 3.660322 -33.433083 38.311603 0.196920 2.631424 0.075922 -0.005023 499304.000000 0 0 1
17.216033 2.884522 -33.084553 37.407217 0.166007 2.656095 0.058894 -0.010795 182848.000000 0 0 1
17.462133 1.363722 -33.226073 37.560055 0.077938 2.656457 0.059471 -0.027605 138078.000000 0 0 1
18.335233 0.760922 -32.238583 37.095633 0.041477 2.624109 0.062013 -0.022486 557450.000000 0 0 1
18.408833 -0.594678 -32.534993 37.386689 -0.032293 2.626464 0.076500 -0.027568 -354917.000000 0 0 1
19.411133 -1.330078 -31.629083 37.134351 -0.068414 2.590107 0.085346 -0.029681 -369414.000000 0 0 1
19.059033 -1.405078 -30.262743 35.791823 -0.073589 2.578337 0.084561 -0.033384 320129.000000 0 0 1
18.927033 -0.200078 -29.548323 35.090967 -0.010571 2.571867 0.063089 -0.019585 -181463.000000 0 0 1
18.587233 -0.519478 -28.084303 33.682089 -0.027941 2.556761 0.081414 -0.022392 478175.000000 0 0 1
17.265333 -1.030578 -27.891233 32.818816 -0.059620 2.586506 0.101644 -0.024474 355459.000000 0 0 1
16.992233 -1.539678 -26.586983 31.590730 -0.090364 2.571048 0.086851 -0.022763 -190601.000000 0 0 1
17.970933 -2.537078 -25.843763 31.579919 -0.140250 2.529349 0.105079 -0.030538 4649.760000 0 0 1
19.081933 -1.740378 -25.383863 31.803924 -0.090954 2.494992 0.105938 -0.017013 1419010.000000 0 0 1
20.231633 -2.572178 -24.980213 32.248195 -0.126458 2.456916 0.085518 -0.020874 1555090.000000 0 0 1
21.167833 -3.055778 -26.119513 33.758612 -0.143369 2.455479 0.105783 -0.039750 138226.000000 0 0 1
21.990133 -1.960978 -26.603793 34.571276 -0.088940 2.448908 0.113498 -0.026295 63474.200000 0 0 1
22.569333 -2.211978 -27.866803 35.928071 -0.097696 2.458505 0.119385 -0.032553 -100440.000000 0 0 1
23.931433 -1.559078 -28.088023 36.933470 -0.065056 2.434884 0.105093 -0.036827 478230.000000 0 0 1
25.049233 -2.292978 -27.557423 37.311303 -0.091284 2.401760 0.098326 -0.041902 599005.000000 0 0 1
26.286733 -1.799178 -28.064893 38.495033 -0.068338 2.387733 0.067959 -0.039663 771240.000000 0 0 1
27.469633 -2.789578 -27.820543 39.196238 -0.101204 2.359976 0.069485 -0.030026 -43402.700000 0 0 1
27.466933 -3.925578 -28.707023 39.924124 -0.141959 2.373216 0.093305 -0.041310 753886.000000 0 0 1
28.672933 -4.707278 -28.630653 40.792276 -0.162720 2.348808 0.087814 -0.039448 626482.000000 0 0 1
28.668233 -5.832378 -27.567723 40.197805 -0.200705 2.326501 0.080282 -0.030007 -240731.000000 0 0 1
28.760233 -5.345478 -26.252123 39.305204 -0.183767 2.302186 0.072552 -0.016435 276007.000000 0 0 1
28.569733 -6.388778 -25.308773 38.698580 -0.220001 2.283653 0.042434 -0.013381 -360087.000000 0 0 1
28.768533 -6.109978 -23.782713 37.822979 -0.209274 2.250792 0.036018 -0.005134 697103.000000 0 0 1
30.158233 -6.022278 -23.427313 38.660391 -0.197097 2.221790 0.044999 -0.006815 946643.000000 0 0 1
30.255233 -5.560078 -22.050413 37.848570 -0.181745 2.192715 0.055350 -0.011355 203075.000000 0 0 1
31.683733 -5.150278 -21.594213 38.687134 -0.161143 2.162982 0.063031 -0.011470 168233.000000 0 0 1
32.100633 -3.914478 -22.200813 39.225627 -0.121345 2.172414 0.077734 -0.022540 464919.000000 0 0 1
33.403633 -3.544478 -21.752213 40.019055 -0.105715 2.145453 0.099220 -0.020099 609348.000000 0 0 1
33.987633 -2.368178 -22.592213 40.880014 -0.069565 2.156333 0.097376 -0.021893 94182.000000 0 0 1
33.378833 -1.132478 -22.248713 40.130216 -0.033915 2.158454 0.087173 -0.020542 382108.000000 0 0 1
34.046333 -0.057878 -22.910413 41.037095 -0.001700 2.163114 0.076783 -0.018697 262317.000000 0 0 1
33.148933 1.240322 -22.836613 40.272832 0.037399 2.173713 0.084267 -0.013534 580420.000000 0 0 1
31.982533 1.018722 -23.616013 39.769791 0.031842 2.206592 0.075096 -0.016030 84768.400000 0 0 1
30.849233 1.567722 -22.995213 38.508606 0.050775 2.210733 0.070087 -0.013200 182036.000000 0 0 1
29.581233 1.824522 -23.845413 38.039215 0.061600 2.248318 0.072237 -0.012231 -110474.000000 0 0 1
28.558833 2.523622 -23.217213 36.891931 0.088137 2.251488 0.075740 -0.011143 174712.000000 0 0 1
27.592533 2.949922 -24.196813 36.817600 0.106506 2.287904 0.111525 -0.017702 388070.000000 0 0 1
26.486833 3.908222 -23.689813 35.749598 0.146496 2.295161 0.103780 -0.010337 123828.000000 0 0 1
27.004433 5.077122 -23.070213 35.878284 0.185841 2.269223 0.084950 -0.010827 301005.000000 0 0 1
25.937533 6.005622 -22.960113 35.156648 0.227532 2.282441 0.102345 -0.017837 250875.000000 0 0 1
26.346833 7.477822 -22.651113 35.540770 0.276550 2.261822 0.116489 -0.013478 -23045.700000 0 0 1
27.003933 8.200122 -23.683613 36.842474 0.294815 2.268989 0.114557 -0.013951 178554.000000 0 0 1
27.392733 9.438022 -23.138913 37.078934 0.331807 2.244705 0.135586 -0.020963 348976.000000 0 0 1
28.451433 10.244522 -24.005513 38.609570 0.345618 2.241772 0.171407 -0.022882 315277.000000 0 0 1
28.025033 10.677122 -25.305383 39.239849 0.364008 2.271676 0.178184 -0.040071 271018.000000 0 0 1
26.928233 11.564322 -25.405953 38.785638 0.405634 2.285025 0.173573 -0.038454 41140.400000 0 0 1
26.688833 11.976022 -26.848313 39.705803 0.421795 2.313363 0.155178 -0.033778 -595319.000000 0 0 1
26.118733 11.067722 -27.781463 39.705067 0.400808 2.345768 0.130262 -0.031362 247693.000000 0 0 1
26.812233 9.830622 -28.076183 40.047584 0.351427 2.347694 0.136699 -0.045887 538934.000000 0 0 1
28.002333 10.013122 -29.086903 41.598572 0.343413 2.345114 0.136301 -0.042834 -396857.000000 0 0 1
29.168633 10.698222 -28.632563 42.250263 0.351537 2.315412 0.135406 -0.045706 649241.000000 0 0 1
30.138333 10.932422 -29.610023 43.641613 0.347980 2.316490 0.145564 -0.045666 88587.300000 0 0 1
30.819733 9.729822 -30.266733 44.278668 0.305798 2.323413 0.116585 -0.032812 -711575.000000 0 0 1
29.936733 9.144722 -31.235813 44.221148 0.296466 2.355131 0.102475 -0.028547 465465.000000 0 0 1
30.586733 8.053422 -31.842983 44.881860 0.257455 2.359563 0.101173 -0.020678 -111618.000000 0 0 1
29.619733 7.151322 -32.643033 44.654648 0.236904 2.390599 0.098378 -0.030616 481504.000000 0 0 1
28.665533 6.617822 -31.710873 43.256072 0.226888 2.393660 0.108752 -0.034614 -29109.900000 0 0 1
27.497933 6.128122 -32.322343 42.876847 0.219274 2.424685 0.085911 -0.024289 -33578.700000 0 0 1
26.259833 6.147322 -31.401113 41.393215 0.229955 2.431966 0.115188 -0.016677 -658181.000000 0 0 1
25.764433 7.432022 -31.270793 41.193488 0.280837 2.432756 0.121237 -0.015907 -478389.000000 0 0 1
24.636133 7.586822 -30.473553 39.914112 0.298739 2.439478 0.124271 -0.022516 -38724.500000 0 0 1
23.260133 7.375922 -31.152663 39.571788 0.307075 2.477124 0.135785 -0.023523 -90811.700000 0 0 1
22.879933 8.414122 -32.065853 40.280363 0.352400 2.491564 0.123067 -0.022008 -204891.000000 0 0 1
21.556733 8.219222 -32.502923 39.858353 0.364268 2.524321 0.110913 -0.017538 58523.300000 0 0 1
21.089833 9.232822 -33.588703 40.721333 0.412650 2.540721 0.114895 -0.011135 68214.000000 0 0 1
21.686533 8.942322 32.520936 40.098405 0.391103 0.624889 0.103977 -0.010466 88608.300000 0 0 1
21.495933 9.995422 31.578862 39.486809 0.435251 0.643948 0.105886 -0.019958 -479622.000000 0 0 1
20.243933 9.922922 30.734734 38.116992 0.455751 0.632882 0.093593 -0.017792 -526005.000000 0 0 1
20.258233 8.883822 29.712224 37.042334 0.413274 0.639967 0.087926 -0.023090 428861.000000 0 0 1
21.211733 9.002922 28.619494 36.743239 0.401389 0.677878 0.100394 -0.021844 -115195.000000 0 0 1
20.906533 10.047622 27.548364 36.013194 0.448005 0.699830 0.112424 -0.024000 -217682.000000 0 0 1
19.857733 9.822622 26.651524 34.657137 0.459358 0.693513 0.112529 -0.010765 80818.500000 0 0 1
18.591933 10.197522 27.164704 34.461145 0.501685 0.662803 0.113037 -0.027303 739868.000000 0 0 1
17.296733 9.483322 26.595504 33.112402 0.501516 0.638168 0.123479 -0.027013 744687.000000 0 0 1
17.020433 9.774122 25.223764 31.960395 0.521277 0.661259 0.127484 -0.025013 -263088.000000 0 0 1
15.812233 9.215722 24.792824 30.816235 0.527693 0.635900 0.153797 -0.027912 -131539.000000 0 0 1
15.702233 7.694322 24.510434 30.108538 0.455627 0.619672 0.152710 -0.028400 -164305.000000 0 0 1
15.695933 6.932822 25.662404 30.870460 0.415926 0.589366 0.128486 -0.024164 17418.900000 0 0 1
15.713033 5.550122 25.474784 30.441220 0.339539 0.579290 0.130421 -0.032345 -174632.000000 0 0 1
16.065633 4.767722 26.710634 31.532423 0.288487 0.560321 0.087611 -0.032102 241269.000000 0 0 1
17.400633 4.951122 27.195174 32.663023 0.277211 0.587014 0.095703 -0.026232 641949.000000 0 0 1
17.871633 4.174522 28.303114 33.732598 0.229469 0.575274 0.094368 -0.032634 -533941.000000 0 0 1
18.127933 2.689322 27.984704 33.451428 0.147278 0.579791 0.093740 -0.036239 -786969.000000 0 0 1
17.055933 1.862222 27.593554 32.492721 0.108752 0.556285 0.089773 -0.043931 -98132.000000 0 0 1
16.308833 1.351622 28.654854 32.998569 0.082688 0.518897 0.078102 -0.043634 -280749.000000 0 0 1
16.747133 -0.087878 29.003064 33.491072 -0.005247 0.523662 0.090801 -0.045434 -187797.000000 0 0 1
16.143033 -1.105378 28.157004 32.475163 -0.068367 0.521582 0.098713 -0.040585 265484.000000 0 0 1
16.549533 -1.048578 26.813354 31.526853 -0.063275 0.553875 0.112511 -0.038011 -126501.000000 0 0 1
17.835833 -1.915478 26.626364 32.105283 -0.106985 0.592862 0.097948 -0.035957 527481.000000 0 0 1
19.068833 -1.673378 27.281994 33.327582 -0.087530 0.611825 0.100861 -0.043601 181773.000000 0 0 1
19.730633 -0.541578 26.783714 33.270986 -0.027442 0.635092 0.098183 -0.038691 -861041.000000 0 0 1
21.217733 -0.460578 27.167044 34.473941 -0.021704 0.663168 0.080068 -0.030608 288627.000000 0 0 1
22.074633 -1.177778 26.275224 34.337501 -0.053304 0.699437 0.072180 -0.029801 -1330630.000000 0 0 1
23.400433 -1.023078 26.568874 35.419373 -0.043693 0.722549 0.069988 -0.035527 -1286200.000000 0 0 1
24.359533 -1.485378 25.489894 35.289203 -0.060902 0.763653 0.079478 -0.018398 -248041.000000 0 0 1
24.239633 -0.754078 24.232054 34.282953 -0.031099 0.785796 0.094121 -0.003273 199681.000000 0 0 1
23.637133 -1.539378 23.189854 33.148952 -0.065034 0.796007 0.102691 0.001606 -167099.000000 0 0 1
23.559433 -0.749678 21.829854 32.127113 -0.031810 0.823737 0.108430 -0.007284 -563084.000000 0 0 1
22.637833 0.261622 21.823554 31.445308 0.011556 0.803744 0.081936 -0.001588 -745373.000000 0 0 1
22.359633 0.616822 20.509554 30.347577 0.027579 0.828717 0.087897 0.003213 116944.000000 0 0 1
-32.140607 -26.796249 -9.793713 42.976440 0.694966 1.800702 0.073288 0.004442 -61118.900000 0 0 1
-32.024027 -25.744449 -8.852313 42.031874 0.677121 1.782995 0.073747 0.004477 -245353.000000 0 0 1
-32.378937 -26.070349 -7.546913 42.249433 0.677882 1.750388 0.091226 0.000889 -585107.000000 0 0 1
-32.473527 -24.848449 -6.651013 41.427182 0.653153 1.732041 0.131741 -0.015289 1121910.000000 0 0 1
-31.260527 -24.123049 -6.313913 39.987593 0.657231 1.729357 0.135181 -0.012301 650116.000000 0 0 1
-30.322477 -24.859649 -5.495513 39.593629 0.686723 1.710044 0.159859 -0.018706 834722.000000 0 0 1
-28.958997 -24.103949 -5.311213 38.050399 0.694156 1.710837 0.153735 -0.033355 341089.000000 0 0 1
-29.053427 -22.912949 -4.514013 37.275745 0.667781 1.692192 0.172036 -0.034503 452584.000000 0 0 1
-29.845597 -21.829949 -5.056713 37.321263 0.631510 1.706706 0.165663 -0.030790 -106800.000000 0 0 1
-29.873057 -20.493549 -4.277913 36.478564 0.601282 1.688339 0.166782 -0.038415 -150661.000000 0 0 1
-28.721367 -19.676349 -4.177213 35.064580 0.600640 1.690209 0.187797 -0.041307 118996.000000 0 0 1
-28.919567 -18.575049 -3.320413 34.531130 0.570943 1.667102 0.195747 -0.037167 39599.300000 0 0 1
-27.628647 -17.739949 -3.265513 32.995629 0.570791 1.669927 0.192361 -0.031947 134572.000000 0 0 1
-27.683197 -16.846549 -4.360813 32.698354 0.546681 1.704560 0.175723 -0.041973 -89567.200000 0 0 1
-26.774577 -15.772149 -4.314013 31.372749 0.532345 1.708742 0.148546 -0.039628 -128438.000000 0 0 1
-27.130107 -14.751249 -5.389913 31.347938 0.498011 1.743593 0.147218 -0.048172 1008920.000000 0 0 1
-28.458917 -14.227549 -5.147013 32.230806 0.463594 1.731175 0.122936 -0.030293 809843.000000 0 0 1
-28.765357 -13.212649 -6.022213 32.222460 0.430582 1.758797 0.131271 -0.048272 129588.000000 0 0 1
-30.223017 -12.697449 -6.022713 33.330602 0.397734 1.752491 0.117426 -0.042679 518983.000000 0 0 1
-31.259777 -13.559049 -6.492013 34.686708 0.409262 1.759068 0.114801 -0.041013 565195.000000 0 0 1
-32.416647 -12.781949 -6.772513 35.497664 0.375585 1.762761 0.134955 -0.037515 362812.000000 0 0 1
-33.536197 -13.550349 -7.537313 36.947254 0.383994 1.776240 0.106824 -0.037771 -44739.000000 0 0 1
-34.380485 -14.395149 -6.773413 37.882941 0.396523 1.750561 0.096142 -0.032264 406639.000000 0 0 1
-34.794092 -15.594249 -7.450913 38.850039 0.421345 1.763778 0.099333 -0.031579 -484220.000000 0 0 1
-35.879398 -16.420449 -6.720113 40.026520 0.429203 1.739487 0.101251 -0.039995 290055.000000 0 0 1
-37.219597 -15.995849 -6.910613 41.096498 0.405904 1.739755 0.092154 -0.041935 289696.000000 0 0 1
-37.596677 -14.899649 -6.056113 40.892373 0.377315 1.719442 0.129748 -0.045636 -752025.000000 0 0 1
36.877812 -14.909449 -5.808713 40.199575 -0.384202 1.715801 0.184210 -0.046068 -1415700.000000 0 0 1
36.091892 -14.514749 -6.877613 39.504483 -0.382368 1.745785 0.225114 -0.050219 549009.000000 0 0 1
34.714462 -14.876149 -6.780713 38.371497 -0.404856 1.748441 0.227286 -0.051883 552840.000000 0 0 1
33.853772 -14.128649 -5.745513 37.130951 -0.395368 1.726157 0.271515 -0.062007 -1019210.000000 0 0 1
33.849502 -14.724649 -4.467213 37.182793 -0.410313 1.691229 0.248679 -0.057376 180283.000000 0 0 1
33.083042 -14.044349 -3.529013 36.113506 -0.401462 1.668673 0.297213 -0.050716 -810146.000000 0 0 1
33.271732 -14.708149 -2.116213 36.439212 -0.416233 1.628904 0.280856 -0.044777 345244.000000 0 0 1
34.498312 -14.419249 -1.387413 37.416216 -0.395901 1.607885 0.297709 -0.035760 1017150.000000 0 0 1
35.666692 -15.050649 -1.851813 38.756473 -0.399310 1.618595 0.235018 -0.035878 -781784.000000 0 0 1
35.694822 -16.560849 -2.032813 39.401959 -0.434399 1.622411 0.186051 -0.034703 -1440290.000000 0 0 1
35.784632 -17.403349 -0.858913 39.801434 -0.452657 1.592378 0.146699 -0.025284 514569.000000 0 0 1
35.305972 -18.746749 -1.072813 39.988788 -0.488123 1.597627 0.115395 -0.027673 -30030.300000 0 0 1
36.256852 -19.569249 -1.946313 41.246854 -0.494931 1.618001 0.090697 -0.038365 -179737.000000 0 0 1
36.424042 -19.088849 -3.219513 41.248761 -0.482720 1.648927 0.067792 -0.038889 40820.800000 0 0 1
37.331652 -19.787549 -4.044113 42.444719 -0.487396 1.666221 0.085013 -0.033886 -80791.400000 0 0 1
37.592782 -19.149549 -5.445513 42.539113 -0.471135 1.699160 0.113752 -0.043323 -621508.000000 0 0 1
36.439882 -19.148549 -6.228313 41.633206 -0.483826 1.720960 0.095142 -0.051281 -87907.900000 0 0 1
36.521562 -18.252749 -7.271413 41.471204 -0.463472 1.747044 0.120006 -0.053927 -137476.000000 0 0 1
35.306822 -18.429049 -8.217813 40.666128 -0.481068 1.774278 0.124725 -0.057140 -81613.700000 0 0 1
35.401002 -19.356249 -9.239313 41.391548 -0.500361 1.795910 0.121266 -0.055181 -307852.000000 0 0 1
34.271302 -19.365849 -10.042513 40.625242 -0.514343 1.820585 0.130567 -0.066256 -838293.000000 0 0 1
34.119322 -20.645449 -10.932413 41.350700 -0.544158 1.838360 0.125482 -0.048682 -81910.200000 0 0 1
33.790782 -21.801249 -10.148913 41.474231 -0.572982 1.818011 0.112430 -0.051985 407261.000000 0 0 1
33.314902 -22.939949 -10.886713 41.888477 -0.603020 1.833712 0.098518 -0.046339 -160090.000000 0 0 1
32.718522 -24.043649 -9.985913 41.812883 -0.633743 1.811951 0.109947 -0.035900 -489022.000000 0 0 1
31.390252 -23.789449 -9.628213 40.546126 -0.648513 1.810550 0.115316 -0.039633 -343258.000000 0 0 1
30.858072 -24.979849 -9.039613 40.717663 -0.680512 1.794669 0.079426 -0.022853 -87421.600000 0 0 1
29.379972 -24.820949 -8.621213 39.415575 -0.701482 1.791305 0.058838 -0.031184 198136.000000 0 0 1
28.547472 -24.507449 -9.731313 38.862214 -0.709397 1.823895 0.062675 -0.033913 -798056.000000 0 0 1
27.298472 -24.057249 -9.378713 37.575498 -0.722369 1.823060 0.088319 -0.039940 -747189.000000 0 0 1
26.387972 -23.568549 -10.522113 36.912280 -0.729020 1.859862 0.173902 -0.060354 -266506.000000 0 0 1
25.896072 -24.601449 -11.397913 37.493336 -0.759766 1.879683 0.141651 -0.051044 386653.000000 0 0 1
25.217072 -23.922949 -12.456713 36.923948 -0.759069 1.914909 0.152227 -0.041658 231710.000000 0 0 1
24.196472 -24.747549 -13.314213 37.083402 -0.796657 1.938029 0.143718 -0.054858 200443.000000 0 0 1
24.759972 -25.793249 -14.093913 38.431579 -0.805835 1.946285 0.154069 -0.049259 -31878.300000 0 0 1
24.241372 -27.025349 -13.768513 38.827639 -0.839649 1.933289 0.146888 -0.031893 -408194.000000 0 0 1
25.135672 -28.165649 -14.267813 40.356862 -0.842183 1.932150 0.129545 -0.036677 -441553.000000 0 0 1
25.220872 -28.349749 -15.707113 41.067190 -0.843738 1.963268 0.137135 -0.030214 278786.000000 0 0 1
25.548872 -29.666749 -16.066913 42.320285 -0.859838 1.960215 0.133071 -0.025215 -329550.000000 0 0 1
25.443672 -29.792649 -17.615413 42.956782 -0.863970 1.993330 0.131222 -0.021186 -296340.000000 0 0 1
24.118972 -29.667149 -18.053713 42.282397 -0.888187 2.011946 0.139158 -0.024340 -84013.300000 0 0 1
24.057072 -29.556049 -19.450713 42.785897 -0.887608 2.042726 0.134007 -0.020451 385420.000000 0 0 1
22.587172 -29.522049 -19.972513 42.197547 -0.917704 2.063841 0.103732 -0.013570 540503.000000 0 0 1
22.586972 -29.590449 -21.411113 42.944170 -0.918825 2.092756 0.089112 -0.010527 1352600.000000 0 0 1
21.194972 -29.513549 -21.854813 42.401760 -0.947997 2.112297 0.088595 -0.018494 1332000.000000 0 0 1
20.928772 -29.603449 -23.373813 43.135981 -0.955407 2.143449 0.071896 -0.017610 -486131.000000 0 0 1
21.319572 -28.521449 -24.162613 43.032884 -0.928902 2.166984 0.081793 -0.018115 344811.000000 0 0 1
21.168672 -28.901049 -25.486793 43.965440 -0.938620 2.189158 0.072818 -0.020399 -331280.000000 0 0 1
21.683872 -27.843849 -26.507583 44.137537 -0.909137 2.215007 0.073933 -0.027217 -387797.000000 0 0 1
20.857172 -26.755149 -26.689543 43.164700 -0.908645 2.237398 0.091901 -0.038017 -254005.000000 0 0 1
19.802272 -26.900949 -27.621203 43.344225 -0.936239 2.261724 0.114027 -0.048825 -312592.000000 0 0 1
19.122072 -25.569249 -27.812053 42.343245 -0.928670 2.287395 0.110966 -0.044450 -769840.000000 0 0 1
18.215772 -25.287149 -26.798993 41.102801 -0.946538 2.281014 0.088283 -0.018492 -510197.000000 0 0 1
17.661072 -24.000349 -26.995683 40.208172 -0.936402 2.306890 0.074424 -0.010117 -365813.000000 0 0 1
16.504772 -23.742549 -26.031063 38.906714 -0.963329 2.303744 0.079358 -0.007243 -802578.000000 0 0 1
15.306172 -24.396649 -26.351453 39.036835 -1.010481 2.311816 0.128713 -0.026220 207727.000000 0 0 1
14.142672 -23.899949 -25.656003 37.808110 -1.036469 2.316630 0.103240 -0.019872 934719.000000 0 0 1
13.940972 -24.124549 -24.138813 36.864981 -1.046804 2.284701 0.087336 -0.010616 569256.000000 0 0 1
14.955872 -23.408449 -23.318813 36.268452 -1.002257 2.269140 0.050906 -0.008043 934203.000000 0 0 1
14.853772 -23.711349 -21.930113 35.549859 -1.011161 2.235573 0.072940 -0.017962 65078.000000 0 0 1
16.162672 -23.406149 -21.181213 35.464398 -0.966454 2.210868 0.041870 -0.027205 65126.700000 0 0 1
16.406472 -22.019749 -20.889513 34.502368 -0.930452 2.221129 0.038216 -0.024157 343612.000000 0 0 1
17.625372 -21.646449 -20.245313 34.483260 -0.887433 2.198275 0.058658 -0.024094 -108235.000000 0 0 1
17.658472 -20.202849 -19.668113 33.268775 -0.852500 2.203328 0.077192 -0.006053 447544.000000 0 0 1
16.831272 -19.809849 -18.548413 31.933767 -0.866510 2.190557 0.069629 -0.017629 407712.000000 0 0 1
15.435072 -19.874049 -18.776213 31.396902 -0.910460 2.211834 0.065196 -0.017711 -300813.000000 0 0 1
14.666472 -19.905249 -17.451813 30.263676 -0.935788 2.185429 0.064779 -0.021722 -272205.000000 0 0 1
14.714672 -18.646549 -16.799613 29.093682 -0.902715 2.186376 0.084730 -0.023663 177790.000000 0 0 1
13.882872 -18.678849 -15.658313 28.050246 -0.931636 2.163040 0.084961 -0.031028 -85534.800000 0 0 1
13.775472 -17.352149 -14.910413 26.705451 -0.899800 2.163166 0.097333 -0.026985 -569948.000000 0 0 1
12.659572 -16.629149 -15.361313 25.937681 -0.920110 2.204631 0.095190 -0.031463 -48395.700000 0 0 1
12.640672 -15.384449 -14.672413 24.733531 -0.882991 2.205848 0.082234 -0.025736 -288120.000000 0 1 0
11.219272 -14.892849 -14.349013 23.527924 -0.925166 2.226695 0.082101 -0.013723 -431650.000000 0 1 0
10.651972 -14.228649 -15.423613 23.533100 -0.928174 2.285509 0.108659 -0.009335 -817270.000000 0 1 0
9.543872 -13.514149 -15.005513 22.335692 -0.955913 2.307456 0.108635 -0.017227 -824534.000000 0 1 0
8.727072 -12.938649 -16.173713 22.475752 -0.977393 2.374033 0.091855 -0.008141 -169223.000000 0 1 0
9.106872 -11.792349 -16.953513 22.570251 -0.913194 2.420590 0.084956 -0.000366 195215.000000 0 1 0
10.329472 -11.855649 -17.690913 23.669026 -0.854083 2.414980 0.121425 -0.004961 457432.000000 0 1 0
10.405672 -10.622349 -18.606313 23.818211 -0.795702 2.467350 0.117700 -0.013702 -91320.300000 0 1 0
9.598272 -10.737349 -19.743013 24.437759 -0.841354 2.511359 0.127726 -0.015452 -38062.700000 0 1 0
9.733072 -9.535149 -20.453413 24.576286 -0.775127 2.553935 0.129513 -0.030386 69231.600000 0 1 0
9.522072 -9.636149 -21.987513 25.825877 -0.791353 2.589398 0.139390 -0.025751 362843.000000 0 0 1
10.592572 -10.319349 -22.643513 27.044782 -0.772334 2.563049 0.128762 -0.023687 38633.000000 0 0 1
10.421872 -10.292249 -24.045413 28.155420 -0.779141 2.594469 0.112236 -0.019212 -552345.000000 0 0 1
11.613972 -10.895249 -24.724513 29.409052 -0.753479 2.569391 0.121201 -0.012889 -712031.000000 0 0 1
11.815372 -12.289749 -24.436713 29.795870 -0.805075 2.532448 0.110269 -0.009485 917343.000000 0 0 1
13.063572 -12.861449 -24.900513 30.921017 -0.777602 2.506968 0.093058 -0.014691 930174.000000 0 0 1
13.001372 -14.408349 -24.610113 31.341567 -0.836684 2.473852 0.078954 -0.007335 867022.000000 0 0 1
12.011872 -15.181249 -25.383783 31.923218 -0.901425 2.490053 0.076884 -0.006192 647738.000000 0 0 1
11.999372 -16.543049 -24.978113 32.273263 -0.943264 2.455862 0.067937 -0.008795 490350.000000 0 0 1
10.706872 -17.368549 -25.290033 32.494451 -1.018368 2.462731 0.073782 -0.014553 466933.000000 0 0 1
10.642972 -17.887749 -26.628763 33.798453 -1.034071 2.478138 0.078885 -0.026245 -663513.000000 0 0 1
9.588672 -18.765349 -26.805733 34.097335 -1.098405 2.475356 0.095539 -0.025058 -808810.000000 0 0 1
9.604272 -19.776349 -27.974413 35.579682 -1.118699 2.475508 0.108350 -0.031442 257425.000000 0 0 1
10.716872 -20.682949 -27.923033 36.363876 -1.092734 2.446319 0.091865 -0.032475 482377.000000 0 0 1
10.754772 -21.570549 -29.045093 37.743491 -1.108281 2.448915 0.103449 -0.038255 -50289.500000 0 0 1
11.660672 -22.785649 -28.780053 38.515562 -1.097789 2.414683 0.085720 -0.029903 -7006.680000 0 0 1
11.581172 -23.822849 -29.784383 39.859267 -1.118300 2.414693 0.093942 -0.028332 301064.000000 0 0 1
12.389872 -24.974849 -29.470853 40.568253 -1.110278 2.383940 0.122403 -0.029908 523111.000000 0 0 1
11.695072 -25.993449 -28.469873 40.286074 -1.148006 2.355609 0.114050 -0.031758 249249.000000 0 0 1
11.452072 -25.361549 -27.275683 38.965639 -1.146652 2.346184 0.120464 -0.034427 -412634.000000 0 0 1
10.743072 -26.168549 -26.348293 38.657976 -1.181242 2.320709 0.109738 -0.025668 421289.000000 0 0 1
9.863972 -25.254049 -25.418443 37.163990 -1.198428 2.323965 0.094274 -0.022823 44764.300000 0 0 1
10.562172 -24.352749 -24.661813 36.232870 -1.161567 2.319442 0.088759 -0.020033 -133245.000000 0 0 1
9.814172 -23.129249 -24.665813 35.209125 -1.169503 2.346967 0.087337 -0.014129 954076.000000 0 0 1
10.822572 -21.931649 -24.421513 34.562054 -1.112388 2.355477 0.101487 -0.011432 454075.000000 0 0 1
11.292472 -21.796349 -23.137313 33.733307 -1.092782 2.326621 0.096790 -0.017311 -183972.000000 0 0 1
12.218172 -20.736449 -23.101313 33.360976 -1.038347 2.335697 0.082195 -0.020698 -99728.500000 0 0 1
12.833472 -20.515449 -21.710613 32.510496 -1.011800 2.302050 0.060059 -0.008570 319145.000000 0 0 1
11.920772 -19.896649 -20.762513 31.129783 -1.031013 2.300926 0.063927 -0.005546 395192.000000 0 0 1
11.751672 -18.495549 -20.949413 30.316085 -1.004769 2.333713 0.060418 -0.003611 73040.500000 0 0 1
12.895472 -17.566249 -20.382713 29.838252 -0.937546 2.322805 0.067377 -0.005825 -319353.000000 0 0 1
14.003372 -17.753649 -21.188113 30.987459 -0.902947 2.323705 0.060636 0.000986 -1070000.000000 0 0 1
14.734472 -16.541749 -21.293313 30.726850 -0.843118 2.336421 0.068268 -0.004716 97895.500000 0 0 1
15.806572 -16.494549 -22.407813 32.000437 -0.806694 2.346522 0.056990 0.007359 383750.000000 0 0 1
17.012872 -17.160149 -22.073113 32.728135 -0.789708 2.311000 0.051014 0.011405 604894.000000 0 0 1
18.040472 -16.990549 -23.033413 33.833053 -0.755436 2.319645 0.057150 0.010399 1587530.000000 0 0 1
19.540672 -17.235949 -22.553013 34.460908 -0.722812 2.284254 0.058026 -0.000140 1366170.000000 0 0 1
19.905472 -18.553549 -22.246513 35.147821 -0.750260 2.256143 0.057327 -0.010704 336442.000000 0 0 1
21.295572 -18.599149 -21.942513 35.789714 -0.717912 2.230769 0.047964 -0.023118 532636.000000 0 0 1
21.783572 -20.038049 -21.590213 36.635839 -0.743685 2.201013 0.073707 -0.029403 -65012.200000 0 0 1
21.311772 -20.551949 -20.328213 35.913931 -0.767250 2.172473 0.077338 -0.032142 262011.000000 0 0 1
21.661272 -21.894849 -20.124313 36.791073 -0.790761 2.149560 0.103667 -0.030652 -76596.000000 0 0 1
-17.175667 12.571722 27.896634 35.089513 -0.631848 0.651767 0.099586 -0.035035 -361979.000000 0 0 1
-18.442767 13.078522 27.609514 35.685692 -0.616835 0.686158 0.095693 -0.032686 -505919.000000 0 0 1
-18.549167 13.426822 26.230874 34.819677 -0.626554 0.717678 0.101948 -0.028785 -79263.600000 0 0 1
-19.869267 14.103222 25.823124 35.503836 -0.617273 0.756368 0.123081 -0.029842 -98897.100000 0 0 1
-20.063667 15.385422 26.270354 36.460848 -0.654186 0.766261 0.116469 -0.023635 -299344.000000 0 0 1
-20.884767 16.109622 25.383644 36.606322 -0.657030 0.804568 0.114275 -0.020348 -332385.000000 0 0 1
-20.796567 17.604322 25.730744 37.476400 -0.702459 0.814014 0.105623 -0.009965 435768.000000 0 0 1
-19.598467 18.269122 25.347444 36.882972 -0.750307 0.813114 0.092020 -0.007108 16885.400000 0 0 1
-18.609167 18.283622 26.335454 37.069503 -0.776574 0.780681 0.102207 -0.003876 -662838.000000 0 0 1
-17.316967 18.994422 25.965324 36.535783 -0.831562 0.780329 0.104792 -0.004773 -268505.000000 0 0 1
-17.561367 20.340622 25.630504 37.135768 -0.858595 0.809053 0.110612 -0.008867 269571.000000 0 0 1
-16.359467 20.961522 25.203354 36.636411 -0.908089 0.812161 0.123806 -0.019686 187446.000000 0 0 1
-16.448167 22.514322 25.082954 37.504553 -0.939850 0.838206 0.114038 -0.019979 34578.200000 0 0 1
-16.032767 23.374122 26.138614 38.556793 -0.969583 0.825860 0.120385 -0.021846 31238.300000 0 0 1
-16.254067 24.757722 25.835584 39.301614 -0.989848 0.853477 0.110070 -0.023740 -214369.000000 0 0 1
-15.820867 25.683022 26.944794 40.446747 -1.018692 0.841722 0.093106 -0.015302 -447654.000000 0 0 1
-14.427967 25.790722 26.891724 39.956131 -1.060746 0.832497 0.090095 -0.021831 -565550.000000 0 0 1
-13.901767 26.562522 27.931824 40.975767 -1.088636 0.820758 0.101251 -0.015158 280838.000000 0 0 1
-12.355267 26.571722 27.971264 40.510500 -1.135557 0.808658 0.111609 -0.020777 273738.000000 0 0 1
-11.691167 27.221822 26.917194 40.028069 -1.165139 0.833272 0.102190 -0.015807 -581725.000000 0 0 1
-10.346667 27.458222 27.170384 39.990464 -1.210435 0.823822 0.083328 -0.008945 -1095460.000000 0 0 1
-9.496567 27.964822 26.079064 39.399665 -1.243426 0.847431 0.088899 -0.011387 -67378.300000 0 0 1
-8.087967 27.922222 26.315054 39.211577 -1.288852 0.835099 0.079504 -0.011902 859313.000000 0 0 1
-7.448367 28.317522 25.082764 38.555223 -1.313592 0.862465 0.096674 -0.016145 1412930.000000 0 0 1
-5.869667 28.130722 25.048844 38.121321 -1.365091 0.853855 0.097217 -0.022397 1016720.000000 0 0 1
-5.162167 28.977522 25.948094 39.238353 -1.394502 0.848254 0.117277 -0.022722 -69769.700000 0 0 1
-3.779867 28.727122 25.941844 38.891055 -1.439970 0.840569 0.121508 -0.013890 -138282.000000 0 0 1
-2.975567 29.532722 24.912934 38.751644 -1.470380 0.872535 0.133824 -0.010893 -661431.000000 0 0 1
-3.030467 29.029422 23.571284 37.516616 -1.466780 0.891444 0.144487 -0.018465 58859.400000 0 0 1
-2.767467 30.096822 22.650664 37.769434 -1.479102 0.927659 0.141281 -0.028288 -383704.000000 0 0 1
-3.110467 29.815322 21.132454 36.677091 -1.466848 0.956754 0.145720 -0.022753 277494.000000 0 0 1
-4.486967 29.959122 20.869454 36.786084 -1.422132 0.967549 0.142061 -0.015412 235185.000000 0 0 1
-5.306567 28.802622 21.144854 36.122784 -1.388600 0.945472 0.146988 -0.011287 118399.000000 0 0 1
-6.747467 29.053122 20.625754 36.263396 -1.342596 0.965779 0.127056 -0.016929 -333379.000000 0 0 1
-6.833067 28.939422 19.200554 35.395511 -1.338927 0.997437 0.106256 -0.019524 659948.000000 0 0 1
-7.817767 27.947122 18.838254 34.598250 -1.298034 0.995020 0.074346 -0.020003 -410154.000000 0 0 1
-7.301667 26.490922 18.918254 33.361409 -1.301845 0.967852 0.064618 -0.020825 1158030.000000 0 0 1
-6.201467 26.179222 17.988154 32.363305 -1.338199 0.981448 0.065641 -0.022770 957362.000000 0 0 1
-4.946367 26.580122 18.465254 32.740419 -1.386808 0.971587 0.092720 -0.018194 -1119470.000000 0 0 1
-3.911267 26.922622 17.410054 32.299157 -1.426528 1.001517 0.086544 -0.023284 -394823.000000 0 0 1
-3.406767 25.804822 16.781354 30.969481 -1.439535 0.998139 0.083641 -0.025806 -8909.840000 0 0 1
-2.409467 26.184722 15.836654 30.696006 -1.479037 1.028716 0.082821 -0.035253 388120.000000 0 0 1
-1.795267 25.000022 15.023154 29.221896 -1.499109 1.030831 0.075415 -0.032048 -719819.000000 0 0 1
-0.818767 24.253822 15.660654 28.882076 -1.537051 0.997711 0.081804 -0.032319 -514029.000000 0 0 1
-0.313367 23.315722 14.772554 27.603432 -1.557357 1.006086 0.070954 -0.043289 -1144010.000000 0 0 1
0.943633 22.599322 15.222254 27.264204 1.529066 0.978432 0.065371 -0.043342 -425931.000000 0 0 1
2.022233 23.501322 15.307054 28.119521 1.484960 0.995174 0.067556 -0.045510 -24732.200000 0 0 1
3.291633 22.890422 15.408454 27.788967 1.427976 0.983057 0.065645 -0.044609 156466.000000 0 0 1
4.469733 23.887622 15.371054 28.755283 1.385820 1.006825 0.104821 -0.060581 363548.000000 0 0 1
5.721733 23.210722 15.453854 28.465724 1.329103 0.996918 0.104771 -0.054100 -94366.100000 0 0 1
6.769233 24.142222 15.375354 29.412088 1.297426 1.020715 0.128080 -0.052789 782993.000000 0 0 1
8.236133 23.546922 15.509854 29.374257 1.234322 1.014543 0.153430 -0.055695 1208350.000000 0 0 1
8.621933 22.663422 14.490854 28.248066 1.207270 1.032137 0.128622 -0.055498 -116824.000000 0 0 1
8.938633 23.227922 13.233154 28.187796 1.203442 1.082113 0.135921 -0.057342 -490317.000000 0 0 1
9.473333 22.260422 12.185554 27.087970 1.168444 1.104198 0.104455 -0.047440 -943060.000000 0 0 1
10.760233 21.809222 12.372854 27.285752 1.112459 1.100159 0.100696 -0.035678 -990669.000000 0 0 1
11.150533 20.832322 11.476754 26.268534 1.079347 1.118646 0.091741 -0.046985 306084.000000 0 0 1
12.598833 20.307922 11.698554 26.608240 1.015519 1.115577 0.132769 -0.042060 472155.000000 0 0 1
12.728133 19.469122 12.848854 26.573391 0.991782 1.066121 0.123509 -0.041020 -541137.000000 0 0 1
14.051833 19.062222 13.010254 27.020159 0.935566 1.068429 0.104027 -0.035769 -622201.000000 0 0 1
14.345533 18.570022 14.404654 27.534235 0.913044 1.020248 0.121326 -0.035513 -974541.000000 0 0 1
15.645733 18.102722 14.452354 27.952961 0.858073 1.027426 0.125237 -0.035369 -603751.000000 0 0 1
16.042033 17.803422 15.774854 28.690672 0.837393 0.988641 0.122451 -0.046197 473707.000000 0 0 1
17.435933 17.113122 15.807354 29.098851 0.776055 0.996517 0.106807 -0.042950 112071.000000 0 0 1
18.133233 16.824522 16.971354 29.998425 0.747979 0.969464 0.104597 -0.047815 734772.000000 0 0 1
19.327733 16.083322 16.613254 30.136932 0.694032 0.986924 0.101462 -0.041959 1497890.000000 0 0 1
20.363433 15.830422 17.793754 31.335113 0.660804 0.966901 0.110772 -0.044729 654963.000000 0 0 1
20.796033 17.004522 18.557554 32.649832 0.685429 0.966259 0.129825 -0.033767 -141172.000000 0 0 1
19.815533 17.503922 19.378554 32.780649 0.723536 0.938302 0.113747 -0.034178 -755525.000000 0 0 1
20.294733 18.747822 20.167554 34.206538 0.745798 0.940255 0.109083 -0.030799 662297.000000 0 0 1
19.189233 19.325522 20.907554 34.334068 0.788937 0.916067 0.144863 -0.041989 858272.000000 0 0 1
19.619633 20.407722 21.759054 35.705203 0.805084 0.915482 0.132258 -0.031247 -185520.000000 0 0 1
18.476433 21.260122 22.305854 35.929409 0.855338 0.901002 0.151201 -0.038094 -208606.000000 0 0 1
17.729233 20.587222 23.314734 35.801344 0.859849 0.861599 0.162427 -0.033567 60535.700000 0 0 1
17.054833 21.613722 23.986954 36.515671 0.902753 0.854103 0.140484 -0.041404 -282134.000000 0 0 1
16.509033 21.346422 25.394254 37.055175 0.912495 0.815768 0.159790 -0.035879 411420.000000 0 0 1
15.339333 20.537722 25.328294 36.036310 0.929291 0.791393 0.163970 -0.038935 130826.000000 0 0 1
14.715533 20.337222 26.596284 36.572009 0.944422 0.756518 0.153074 -0.030708 -362491.000000 0 0 1
13.534633 19.395922 26.566164 35.568935 0.961543 0.727420 0.161481 -0.023661 -784716.000000 0 0 1
13.744333 17.989922 26.420394 34.793407 0.918394 0.708482 0.143915 -0.033932 -68887.200000 0 0 1
14.347033 17.546022 25.211944 33.901952 0.885367 0.732250 0.166416 -0.045116 93599.700000 0 0 1
13.321433 17.437822 24.053384 32.559230 0.918434 0.739571 0.170553 -0.040795 -238560.000000 0 0 1
12.995133 18.549122 23.253374 32.460172 0.959682 0.772216 0.164980 -0.039643 -378688.000000 0 0 1
13.968533 19.169422 22.452664 32.660508 0.941075 0.812816 0.169371 -0.048626 -544441.000000 0 0 1
14.508933 18.301522 21.323654 31.625196 0.900478 0.830832 0.186269 -0.057965 -472970.000000 0 0 1
13.670033 18.000622 20.226554 30.331595 0.921294 0.840826 0.149859 -0.048618 -257098.000000 0 0 1
14.237633 17.015222 19.358854 29.444748 0.874040 0.853349 0.123807 -0.050507 -447685.000000 0 0 1
13.279333 16.239722 18.495754 27.967162 0.885351 0.848195 0.132421 -0.046426 -507735.000000 0 0 1
12.709133 16.951822 17.427254 27.433474 0.927474 0.882458 0.147923 -0.046453 146102.000000 0 0 1
11.795133 16.146422 16.704454 26.055151 0.939886 0.874841 0.121839 -0.046325 -19033.100000 0 0 1
11.092733 16.698622 15.493454 25.336531 0.984441 0.912833 0.106875 -0.036556 -405661.000000 0 0 1
10.252133 17.769522 15.807354 25.898544 1.047498 0.914285 0.104950 -0.040732 -71282.600000 0 0 1
9.686633 18.252222 14.571554 25.284474 1.082884 0.956597 0.094523 -0.025487 -364493.000000 0 0 1
8.686633 19.380222 14.742554 25.853307 1.149422 0.964000 0.096495 -0.033704 -27119.300000 0 0 1
7.384933 18.993422 15.137254 25.385503 1.199969 0.931918 0.064128 -0.028788 -391315.000000 0 0 1
6.567133 20.074022 15.416554 26.148876 1.254625 0.940272 0.079907 -0.037246 301912.000000 0 0 1
5.159033 19.642022 15.962654 25.830814 1.313945 0.904639 0.058762 -0.039788 583170.000000 0 0 1
4.263633 19.323022 14.906054 24.773942 1.353626 0.925190 0.041198 -0.031775 244434.000000 0 1 0
3.071633 18.793622 15.518654 24.565500 1.408789 0.887019 0.026137 -0.028343 1435060.000000 0 1 0
1.905233 18.340122 14.539654 23.481727 1.467284 0.903085 0.026324 -0.026592 767578.000000 0 1 0
1.257833 19.457322 13.999754 24.003388 1.506240 0.948084 0.027310 -0.031562 -183542.000000 0 1 0
0.302033 19.089722 13.021454 23.109889 1.554976 0.972231 0.020473 -0.030735 41899.700000 0 1 0
-0.528867 20.234422 12.374754 23.724377 -1.544665 1.022065 0.019958 -0.026660 -254685.000000 0 1 0
-1.658767 20.618122 13.086154 24.476639 -1.490517 1.006716 0.029933 -0.027361 -296720.000000 0 1 0
-2.570267 21.295422 12.199454 24.676465 -1.450682 1.053679 0.024957 -0.020278 964175.000000 0 1 0
-3.790567 21.901322 12.970654 25.734688 -1.399419 1.042556 0.026325 -0.022089 787874.000000 0 0 1
-4.734667 21.030922 13.583354 25.479879 -1.349359 1.008535 0.037651 -0.023969 208454.000000 0 0 1
-5.780067 21.742622 14.208254 26.608744 -1.310966 1.007508 0.043420 -0.018134 203385.000000 0 0 1
-6.637667 20.859022 15.158454 26.625855 -1.262713 0.965126 0.046874 -0.022101 -925561.000000 0 0 1
-7.470067 19.859522 14.640854 25.779005 -1.211022 0.966799 0.052166 -0.024881 6203.230000 0 0 1
-8.208967 19.188122 15.651254 26.087026 -1.166544 0.927341 0.047788 -0.012755 604122.000000 0 0 1
-9.368467 20.065422 16.289554 27.490706 -1.133981 0.936578 0.048826 -0.005692 15670.100000 0 0 1
-10.485967 20.222622 15.434154 27.515869 -1.092438 0.975302 0.045523 -0.020507 651222.000000 0 0 1
-11.693167 19.570822 15.858854 27.771397 -1.032232 0.963012 0.039367 -0.009452 1312520.000000 0 0 1
-12.885567 19.628322 14.831154 27.771784 -0.989880 1.007428 0.051351 -0.018679 602851.000000 0 0 1
-13.515467 20.913122 14.787954 28.960492 -0.997050 1.034885 0.033387 -0.011106 -56824.100000 0 0 1
-14.539667 20.904822 13.831454 28.977968 -0.963085 1.073206 0.034619 -0.022116 -1085680.000000 0 0 1
-15.492567 22.048522 13.931454 30.335497 -0.958289 1.093650 0.030279 -0.020131 -818465.000000 0 0 1
-16.596767 21.690822 14.722654 31.027423 -0.917669 1.076395 0.021228 -0.030276 -965840.000000 0 0 1
-17.550567 22.661422 14.692954 32.209398 -0.911818 1.097110 0.047266 -0.041498 -234490.000000 0 0 1
-18.901867 22.387422 15.412454 33.106207 -0.869616 1.086545 0.121781 -0.035453 -231868.000000 0 0 1
-19.729667 21.406822 14.833054 32.673097 -0.826146 1.099565 0.113924 -0.036932 536575.000000 0 0 1
-20.889867 21.231222 15.658254 33.650145 -0.793502 1.086795 0.131395 -0.031399 1320020.000000 0 0 1
-22.146967 22.184622 15.514754 34.976466 -0.786248 1.111211 0.138970 -0.038253 231326.000000 0 0 1
-22.871467 21.960222 14.301154 34.783306 -0.765075 1.147081 0.161146 -0.043051 360633.000000 0 0 1
-23.715467 23.089022 14.009554 35.941535 -0.772015 1.170396 0.182776 -0.053211 661510.000000 0 0 1
-22.939767 24.319222 13.363554 36.003362 -0.814579 1.190522 0.165219 -0.051190 124394.000000 0 0 1
-21.889167 24.877322 14.118154 36.018593 -0.849207 1.168026 0.118387 -0.050205 38054.900000 0 0 1
-21.476667 26.086122 13.547854 36.404359 -0.882010 1.189473 0.097323 -0.039773 252206.000000 0 0 1
-19.992067 26.433022 13.890754 35.935226 -0.923257 1.173909 0.072630 -0.030798 334274.000000 0 0 1
-19.051367 25.847622 13.035554 34.655156 -0.935625 1.185158 0.068630 -0.026466 323235.000000 0 0 1
-17.762067 26.461422 13.157754 34.479332 -0.979632 1.179256 0.034656 -0.030210 526469.000000 0 0 1
-16.676367 25.726722 12.340454 33.049240 -0.995679 1.188129 0.043930 -0.030977 -146631.000000 0 0 1
-15.426567 26.349122 12.433354 32.967309 -1.041131 1.184088 0.033887 -0.026639 -118902.000000 0 0 1
-14.389467 25.779322 11.655854 31.740969 -1.061696 1.194780 0.030079 -0.019108 716182.000000 0 0 1
-13.004567 26.451522 11.904754 31.788755 -1.113861 1.186943 0.029255 -0.016593 371309.000000 0 0 1
-11.857167 25.568322 11.937454 30.607749 -1.136571 1.170149 0.017913 -0.012844 1042650.000000 0 0 1
-10.592367 26.159922 12.155054 30.729222 -1.186066 1.164126 0.031504 -0.017757 346607.000000 0 0 1
-10.118167 27.209022 11.129554 31.089792 -1.214774 1.204692 0.042843 -0.022387 -1384350.000000 0 0 1
-8.954067 27.880822 11.502554 31.461473 -1.260046 1.196511 0.060049 -0.025063 -198374.000000 0 0 1
-8.856167 29.058222 10.689154 32.203571 -1.274966 1.232453 0.066074 -0.026323 -224245.000000 0 0 1
-7.674567 29.908122 11.218954 32.852088 -1.319611 1.222285 0.062265 -0.025778 -525782.000000 0 0 1
-6.457567 29.342422 10.874354 31.951987 -1.354173 1.223524 0.068894 -0.026670 -1338260.000000 0 0 1
-5.431467 29.925522 11.584554 32.545961 -1.391251 1.206872 0.126333 -0.041416 -1070150.000000 0 0 1
-4.018267 29.422522 11.358554 31.793836 -1.435065 1.205467 0.128005 -0.045702 -545617.000000 0 0 1
-3.651667 29.700222 10.015254 31.555398 -1.448459 1.247824 0.118857 -0.043298 494087.000000 0 0 1
-2.307067 29.364422 9.677154 31.003857 -1.492391 1.253365 0.153735 -0.041280 533849.000000 0 0 1
-1.853867 30.112422 8.406354 31.318709 -1.509309 1.299051 0.155879 -0.045219 -301204.000000 0 0 1
-2.523067 29.764222 7.268154 30.742492 -1.486230 1.332116 0.155172 -0.044415 -298202.000000 0 0 1
-2.329767 30.724522 6.275854 31.445356 -1.495114 1.369867 0.171424 -0.037831 66693.900000 0 0 1
12.288233 -33.754349 -26.543803 44.664642 -1.221661 2.207180 0.197999 -0.055518 381907.000000 0 0 1
13.081033 -33.690249 -25.338883 44.138479 -1.200440 2.182273 0.174571 -0.049815 770828.000000 0 0 1
14.032133 -32.638249 -25.236613 43.578007 -1.164758 2.188437 0.166447 -0.040173 479134.000000 0 0 1
14.725433 -32.571849 -23.808213 42.948745 -1.146205 2.158366 0.125073 -0.034516 -123194.000000 0 0 1
13.879933 -32.024449 -22.797113 41.688443 -1.161818 2.149387 0.133928 -0.035676 286406.000000 0 0 1
14.301733 -32.168049 -21.435313 41.216448 -1.152447 2.117726 0.097614 -0.027720 -408291.000000 0 0 1
15.707933 -31.677249 -21.048513 41.148842 -1.110455 2.107751 0.049874 -0.013101 -377970.000000 0 0 1
16.680933 -32.541649 -21.559813 42.450418 -1.097118 2.103521 0.072784 -0.012937 -626658.000000 0 0 1
17.985833 -32.178249 -21.152713 42.501378 -1.061112 2.091735 0.056803 -0.017616 -317182.000000 0 0 1
18.948933 -33.289149 -21.547113 43.948920 -1.053315 2.083203 0.029517 -0.007441 -269150.000000 0 0 1
20.299533 -32.971049 -21.230113 44.157432 -1.018929 2.072343 0.049984 -0.000503 830244.000000 0 0 1
21.146433 33.445922 -21.465513 45.017436 1.006995 2.067837 0.045546 0.010336 1375690.000000 0 0 1
22.683133 33.573322 -21.118913 45.691366 0.976614 2.051280 0.090623 0.012367 1278450.000000 0 0 1
23.481333 -33.618649 -22.266013 46.662211 -0.961104 2.068233 0.077852 0.006922 1051940.000000 0 0 1
24.860233 -33.654149 -21.864113 47.208817 -0.934568 2.052327 0.086307 0.008270 779007.000000 0 0 1
25.877833 -32.917649 -22.757713 47.656556 -0.904565 2.068644 0.117799 -0.001315 6582.100000 0 0 1
25.780133 -31.519349 -22.796113 46.666341 -0.885227 2.081156 0.121311 -0.009296 168162.000000 0 0 1
24.748233 -30.983449 -23.621413 46.156476 -0.896814 2.108038 0.088169 -0.006485 109405.000000 0 0 1
24.722733 -29.467949 -23.532313 45.092608 -0.872741 2.119834 0.088888 -0.026944 -739888.000000 0 0 1
25.793733 -28.739949 -24.051313 45.494692 -0.839371 2.127820 0.091896 -0.033830 -385214.000000 0 0 1
25.678633 -27.376049 -23.748213 44.416414 -0.817381 2.134916 0.103482 -0.027224 297996.000000 0 0 1
26.443233 -26.623349 -24.862113 45.013020 -0.788792 2.155955 0.094831 -0.029775 306499.000000 0 0 1
25.640033 -26.316749 -25.970433 44.993843 -0.798422 2.186092 0.075526 -0.028429 138185.000000 0 0 1
26.462233 -25.810949 -27.039213 45.799278 -0.772940 2.202332 0.071120 -0.025532 266017.000000 0 0 1
25.554233 -25.303849 -28.204693 45.703482 -0.780475 2.235878 0.064923 -0.019435 1097600.000000 0 0 1
24.655233 -24.209349 -27.828463 44.366614 -0.776274 2.248799 0.073946 -0.017698 -103850.000000 0 0 1
23.401033 -24.663549 -27.402583 43.666927 -0.811659 2.249181 0.077401 -0.020196 -659806.000000 0 0 1
22.469533 -23.423749 -27.245333 42.377589 -0.806187 2.269099 0.077745 -0.014114 -28812.800000 0 0 1
22.334633 -22.735949 -28.503693 42.757686 -0.794302 2.300479 0.096393 -0.022892 428754.000000 0 0 1
21.592033 -21.516649 -28.328203 41.613329 -0.783649 2.319580 0.082590 -0.008114 -194839.000000 0 0 1
20.754533 -21.017049 -29.498993 41.745150 -0.791683 2.355541 0.103248 -0.019012 105529.000000 0 0 1
19.584333 -21.827649 -29.572523 41.647647 -0.839516 2.360386 0.097158 -0.031307 344488.000000 0 0 1
18.545733 -21.205849 -30.316013 41.384694 -0.852217 2.392845 0.086065 -0.037609 670521.000000 0 0 1
17.212333 -22.039349 -30.235113 41.184455 -0.907760 2.395194 0.099279 -0.042675 340661.000000 0 0 1
17.161933 -23.185149 -31.035143 42.370546 -0.933589 2.392739 0.099622 -0.030913 -624104.000000 0 0 1
16.218233 -23.979349 -30.469363 42.028827 -0.976126 2.381778 0.102282 -0.040881 -829902.000000 0 0 1
16.332133 -25.404149 -31.004173 43.282422 -0.999434 2.369314 0.123857 -0.042114 214120.000000 0 0 1
15.277433 -26.216549 -30.512223 43.031420 -1.043165 2.358973 0.133319 -0.042431 279906.000000 0 0 1
15.408333 -27.554149 -31.045153 44.276962 -1.060916 2.347817 0.183800 -0.049898 7228.230000 0 0 1
14.860333 -28.643649 -30.092853 44.123326 -1.092222 2.321313 0.163654 -0.053923 -34492.200000 0 0 1
15.470833 -28.765449 -28.804823 43.549002 -1.077347 2.293526 0.195624 -0.064507 -147324.000000 0 0 1
15.166033 -27.691249 -27.866993 42.111556 -1.069734 2.293936 0.163831 -0.058189 -435241.000000 0 0 1
16.072333 -27.641549 -26.660313 41.631087 -1.044124 2.265808 0.130511 -0.033752 -559145.000000 0 0 1
15.961133 -28.683449 -25.682083 41.678141 -1.063009 2.234705 0.115666 -0.032545 104386.000000 0 0 1
16.830733 -28.429249 -24.580313 41.178727 -1.036264 2.210450 0.118597 -0.032947 -877481.000000 0 0 1
16.298933 -27.501449 -23.506513 39.680487 -1.035793 2.204824 0.097911 -0.027042 500666.000000 0 0 1
15.246833 -27.904049 -22.606313 39.014706 -1.070720 2.188826 0.101739 -0.030684 1022070.000000 0 0 1
14.011333 -28.095649 -23.326813 39.112954 -1.108188 2.209800 0.112736 -0.025593 -48585.200000 0 0 1
12.730433 -27.927749 -22.471013 38.039053 -1.143101 2.202766 0.087194 -0.015575 222803.000000 0 0 1
12.482733 -26.568449 -22.144613 36.770708 -1.131572 2.217094 0.066785 -0.015891 178513.000000 0 0 1
11.169833 -26.404049 -21.632013 35.914941 -1.170591 2.217191 0.065456 -0.019390 173158.000000 0 0 1
10.732733 -24.981649 -21.324513 34.554438 -1.165015 2.235884 0.080097 -0.023136 163399.000000 0 0 1
11.400033 -24.349149 -20.200913 33.629135 -1.132919 2.215169 0.078380 -0.023754 408041.000000 0 0 1
10.980633 -23.007949 -20.056013 32.437381 -1.125511 2.237373 0.089352 -0.031107 -310466.000000 0 0 1
11.570933 -22.360349 -18.778113 31.408426 -1.093266 2.211636 0.084530 -0.034279 247163.000000 0 0 1
10.843433 -22.698549 -17.579213 30.689296 -1.125135 2.180729 0.092159 -0.038875 539325.000000 0 0 1
11.204633 -21.835949 -16.529713 29.590267 -1.096702 2.163517 0.082774 -0.039550 -94022.600000 0 0 1
10.299833 -22.162649 -15.334313 28.851529 -1.135754 2.131155 0.069817 -0.028327 62104.200000 0 0 1
10.473433 -23.509349 -14.924713 29.751124 -1.151690 2.096304 0.057658 -0.022252 1837.330000 0 0 1
9.754033 -23.856949 -13.764813 29.219262 -1.182680 2.061319 0.048669 -0.020970 -182630.000000 0 0 1
9.999533 -25.321149 -13.404513 30.345217 -1.194687 2.028327 0.058541 -0.022690 386562.000000 0 0 1
11.311133 -25.727949 -13.038413 30.981758 -1.156588 2.005169 0.038476 -0.025345 -36671.800000 0 0 1
11.460733 -27.129449 -13.020513 32.200764 -1.171091 1.987069 0.039775 -0.028341 -1295480.000000 0 0 1
12.814733 -27.552349 -12.405013 32.821238 -1.135452 1.958385 0.041989 -0.028357 -747757.000000 0 0 1
13.887733 -27.015149 -13.068613 33.067750 -1.095955 1.977090 0.056234 -0.027861 -912022.000000 0 0 1
14.193233 -27.723849 -14.233513 34.244015 -1.097634 1.999453 0.061956 -0.027719 -1879710.000000 0 0 1
15.358833 -27.259349 -15.068113 34.727711 -1.057698 2.019606 0.045209 -0.030241 -1200700.000000 0 0 1
16.597733 -27.675649 -14.596213 35.418579 -1.030580 1.995561 0.107383 -0.034602 -775662.000000 0 0 1
17.619733 -27.132049 -15.392313 35.826336 -0.994838 2.014887 0.137741 -0.044872 236923.000000 0 0 1
19.003933 -27.796349 -15.158613 36.926549 -0.971105 1.993806 0.123406 -0.045607 281135.000000 0 0 1
19.244033 -29.043949 -15.757613 38.238543 -0.985626 1.995540 0.110244 -0.030673 136753.000000 0 0 1
20.593733 -29.490049 -15.737113 39.260942 -0.961193 1.983223 0.123691 -0.026371 501312.000000 0 0 1
20.940333 -30.619349 -16.773913 40.711254 -0.970963 1.995468 0.114784 -0.024812 155376.000000 0 0 1
20.489933 -31.926749 -16.461913 41.353951 -1.000222 1.980212 0.089922 -0.010846 153818.000000 0 0 1
21.112433 -32.738749 -17.440013 42.681548 -0.998032 1.991724 0.083345 -0.008904 197686.000000 0 0 1
21.085533 33.307722 -17.132913 42.983028 1.006427 1.980783 0.061272 0.001547 -24268.300000 0 0 1
21.932933 32.919322 -16.063413 42.693893 0.983073 1.956538 0.088410 -0.000171 192300.000000 0 0 1
21.749133 31.589722 -15.688913 41.437631 0.967839 1.959096 0.075208 -0.005683 194967.000000 0 0 1
22.848233 31.145122 -14.669513 41.318942 0.937871 1.933744 0.062451 -0.010501 713715.000000 0 0 1
24.148433 30.830222 -15.169013 41.997004 0.906339 1.940343 0.079223 -0.006278 1086990.000000 0 0 1
25.151333 30.490422 -14.184913 41.993656 0.881060 1.915361 0.092068 -0.007746 726488.000000 0 0 1
24.927733 29.266622 -13.243313 40.660944 0.865289 1.902549 0.083665 -0.003820 -960423.000000 0 0 1
25.064133 28.020722 -13.910713 40.085902 0.841036 1.925191 0.092435 0.000749 138681.000000 0 0 1
24.651933 26.887122 -13.127813 38.768216 0.828740 1.916249 0.063940 -0.000294 -67325.500000 0 0 1
23.151433 26.729122 -12.827813 37.616321 0.857001 1.918795 0.055777 -0.003181 -1114840.000000 0 0 1
22.424733 25.968322 -13.706513 36.947136 0.858493 1.950856 0.068776 -0.006137 1813930.000000 0 0 1
20.962433 26.108922 -13.630113 36.150787 0.894299 1.957389 0.067934 -0.013942 1865280.000000 0 0 1
20.198333 27.406022 -13.792313 36.732691 0.935665 1.955709 0.065971 -0.017985 -793446.000000 0 0 1
20.278533 28.173822 -15.011613 37.819726 0.946928 1.978961 0.071426 -0.017593 411185.000000 0 0 1
19.513133 27.529022 -16.062713 37.371381 0.954175 2.015082 0.075803 -0.015766 112657.000000 0 0 1
19.474233 28.323822 -17.325113 38.492131 0.968470 2.037668 0.066681 -0.006847 315979.000000 0 0 1
18.605733 29.468922 -17.318213 38.916721 1.007631 2.031978 0.062470 -0.008855 264365.000000 0 0 1
18.755433 30.302622 -18.463013 40.135994 1.016568 2.048804 0.054191 -0.011802 -204784.000000 0 0 1
17.740033 31.464722 -18.557813 40.609480 1.057415 2.045396 0.043055 -0.007068 -347384.000000 0 0 1
17.852233 32.528622 -17.678413 41.101578 1.068862 2.015417 0.053630 -0.024601 -40228.700000 0 0 1
17.131033 33.642022 -18.147513 41.887828 1.099804 2.018882 0.047683 -0.019159 -80694.500000 0 0 1
16.585833 -32.911449 -17.100513 40.628572 -1.103991 2.005232 0.063770 -0.010087 85056.800000 0 0 1
15.789633 -31.916649 -17.724813 39.776299 -1.111386 2.032655 0.041774 -0.014387 223130.000000 0 0 1
15.095633 -31.153949 -16.715813 38.443011 -1.119585 2.020635 0.047537 -0.013191 -338618.000000 0 0 1
14.059033 -30.211049 -17.245713 37.520375 -1.135242 2.048382 0.040582 -0.015577 -775583.000000 0 0 1
12.941833 -30.834049 -17.797813 37.881285 -1.173402 2.059896 0.036537 -0.011644 -450108.000000 0 0 1
11.812933 -29.982949 -17.716613 36.775005 -1.195483 2.073455 0.025184 -0.006162 -114992.000000 0 0 1
10.487533 -30.584349 -18.156713 37.081761 -1.240456 2.082473 0.042217 -0.017091 -1433200.000000 0 0 1
9.755233 -31.134649 -17.089813 36.831952 -1.267161 2.053295 0.045645 -0.013085 1468250.000000 0 0 1
8.518833 -31.872749 -17.417813 37.307142 -1.309625 2.056551 0.072570 -0.014399 1934750.000000 0 0 1
7.373633 -31.114649 -18.134713 36.760844 -1.338106 2.086694 0.078362 -0.008645 -886619.000000 0 0 1
7.686933 -30.593149 -19.422413 37.044026 -1.324629 2.122696 0.072402 -0.005585 -382690.000000 0 0 1
7.662733 -31.525649 -20.499913 38.377473 -1.332357 2.134316 0.091621 -0.025478 -787582.000000 0 0 1
8.051433 -30.967149 -21.875213 38.759706 -1.316429 2.170479 0.104681 -0.019144 -71474.000000 0 0 1
9.397333 -30.851249 -22.273613 39.194684 -1.275123 2.175212 0.088952 -0.015313 137892.000000 0 0 1
10.260233 -31.983349 -22.300013 40.317460 -1.260369 2.156890 0.109257 -0.022966 -112727.000000 0 0 1
9.931633 -33.106149 -23.331313 41.701374 -1.279345 2.164561 0.141202 -0.040443 159279.000000 0 0 1
8.823233 33.610922 -22.999513 41.671586 1.314078 2.155465 0.144623 -0.057096 245182.000000 0 0 1
8.485833 32.596122 -23.945213 41.326623 1.316117 2.188806 0.149228 -0.066035 -111161.000000 0 0 1
7.227833 31.802622 -23.519913 40.209882 1.347321 2.195588 0.147044 -0.067674 1205140.000000 0 0 1
5.952733 32.487222 -23.610813 40.599570 1.389574 2.191433 0.142793 -0.064987 1117310.000000 0 0 1
5.652533 33.342222 -22.486613 40.611607 1.402862 2.157596 0.108427 -0.058493 14026.700000 0 0 1
4.360333 -33.360449 -22.725613 40.600315 -1.440829 2.164868 0.105610 -0.052590 825038.000000 0 0 1
3.167833 33.512822 -22.381113 40.423491 1.476550 2.157556 0.104327 -0.055960 -370421.000000 0 0 1
2.028733 -33.323649 -22.693813 40.368187 -1.509992 2.167805 0.108560 -0.048608 395340.000000 0 0 1
0.701333 33.650722 -22.056613 40.241237 1.549958 2.150899 0.084950 -0.053695 731080.000000 0 0 1
0.474833 -33.765249 -20.681913 39.598725 -1.556734 2.120327 0.079618 -0.048266 48156.700000 0 0 1
-0.732867 33.125522 -20.328113 38.872477 -1.548676 2.121097 0.090898 -0.056607 334863.000000 0 0 1
-0.976867 33.162022 -18.771613 38.118859 -1.541347 2.085698 0.107968 -0.044534 -272884.000000 0 0 1
-0.071267 32.373922 -18.105913 37.093126 -1.568595 2.080731 0.108397 -0.052857 -639111.000000 0 0 1
-0.603867 31.992322 -16.856313 36.166401 -1.551923 2.055647 0.078216 -0.040542 335698.000000 0 0 1
0.357333 31.144122 -15.962913 34.998551 1.559323 2.044407 0.033376 -0.037570 213268.000000 0 0 1
1.299833 31.931522 -15.280813 35.423366 1.530112 2.016814 0.054350 -0.026028 -832775.000000 0 0 1
2.116933 31.052722 -14.577813 34.369544 1.502729 2.008818 0.069001 -0.015919 388120.000000 0 0 1
3.159833 31.758422 -13.600813 34.692420 1.471627 1.973644 0.093413 -0.029745 757602.000000 0 0 1
4.288833 32.299922 -14.265913 35.569584 1.438787 1.983482 0.085762 -0.031180 37629.100000 0 0 1
5.065933 33.169122 -13.463013 36.153935 1.419237 1.952369 0.098540 -0.041790 -275973.000000 0 0 1
6.445333 33.448122 -14.060213 36.851170 1.380433 1.962259 0.082408 -0.045928 -69013.000000 0 0 1
7.318233 32.312322 -14.061813 35.991350 1.348070 1.972188 0.086917 -0.033693 -97786.600000 0 0 1
8.393433 32.595322 -14.920313 36.817393 1.318767 1.988051 0.083233 -0.020106 179886.000000 0 0 1
9.525633 31.543122 -15.070913 36.233115 1.277517 1.999776 0.078917 -0.033104 298338.000000 0 0 1
10.137233 31.242722 -13.839613 35.642756 1.257047 1.969568 0.077656 -0.033951 -509794.000000 0 0 1
10.997533 30.142022 -13.990513 35.003166 1.220948 1.981978 0.095283 -0.036532 -71167.300000 0 0 1
10.390433 28.748722 -13.681813 33.490926 1.223982 1.991632 0.098211 -0.033753 81887.100000 0 0 1
9.604933 28.166022 -14.730813 33.205065 1.242152 2.030443 0.110902 -0.040814 212101.000000 0 0 1
9.083533 26.912922 -14.289913 31.796502 1.245286 2.036910 0.098966 -0.024972 188508.000000 0 0 1
8.136233 26.242422 -15.322213 31.458436 1.270153 2.079519 0.098859 -0.022020 159960.000000 0 0 1
8.940633 25.638422 -16.315313 31.677327 1.235262 2.111859 0.117323 -0.022182 109812.000000 0 0 1
8.220333 24.627322 -17.031713 31.050895 1.248636 2.151377 0.093980 -0.017970 102679.000000 0 0 1
8.999833 23.774422 -18.062613 31.184581 1.208916 2.188563 0.103076 -0.016180 -101087.000000 0 0 1
8.255133 22.776422 -18.726913 30.620416 1.223081 2.228856 0.101931 -0.020175 -663338.000000 0 0 1
9.126633 21.947922 -19.397513 30.680127 1.176717 2.255250 0.095906 -0.018238 -613142.000000 0 0 1
8.555933 20.963022 -20.393413 30.472013 1.183289 2.303996 0.080402 -0.030523 -769320.000000 0 0 1
7.729233 19.971522 -19.872013 29.214716 1.201536 2.318839 0.097368 -0.036607 -128143.000000 0 0 1
7.434733 19.048322 -20.931413 29.261542 1.198672 2.367881 0.098748 -0.039227 89281.300000 0 0 1
25.689733 -12.711078 -9.278313 30.126748 -0.459473 1.883861 0.133613 -0.035825 -11597.200000 0 0 1
26.155233 -12.000378 -8.144713 29.907217 -0.430159 1.846613 0.149583 -0.049670 -93668.600000 0 0 1
25.180533 -11.979378 -7.180413 28.794497 -0.444052 1.822823 0.116145 -0.034868 -1199290.000000 0 0 1
25.660033 -11.294378 -5.885113 28.646724 -0.414636 1.777707 0.107807 -0.039699 -295002.000000 0 0 1
25.516833 -9.896878 -5.819813 27.980836 -0.369995 1.780319 0.135266 -0.061753 603339.000000 0 0 1
26.481333 -9.211578 -6.617413 28.808060 -0.334760 1.802573 0.091640 -0.065161 -1379830.000000 0 0 1
26.783633 -7.780378 -6.151613 28.561156 -0.282709 1.787881 0.136631 -0.062811 -66773.500000 0 0 1
27.422433 -7.640578 -4.887513 28.883491 -0.271733 1.740829 0.167112 -0.071701 933804.000000 0 0 1
28.674433 -8.330178 -4.810113 30.244870 -0.282727 1.730513 0.168060 -0.077227 -314725.000000 0 0 1
29.472433 -8.134078 -3.488513 30.772670 -0.269286 1.684405 0.192531 -0.089548 -254918.000000 0 0 1
30.034533 -6.870778 -3.216913 30.977884 -0.224893 1.674829 0.206510 -0.072609 352016.000000 0 0 1
30.818433 -6.984278 -2.048813 31.666284 -0.222862 1.635542 0.261101 -0.073516 186999.000000 0 0 1
31.602733 -5.668778 -1.684313 32.151278 -0.177489 1.623207 0.247433 -0.073073 275514.000000 0 0 1
30.716333 -4.643878 -1.290613 31.092192 -0.150050 1.612317 0.258997 -0.062938 127107.000000 0 0 1
31.474033 -3.538878 -0.945813 31.686479 -0.111968 1.600650 0.239944 -0.037613 142921.000000 0 0 1
32.193833 -3.510478 0.438887 32.387636 -0.108613 1.557245 0.210545 -0.045584 160807.000000 0 0 1
31.227233 -3.444778 1.472087 31.451130 -0.109869 1.523974 0.250557 -0.071386 229074.000000 0 0 1
31.797833 -3.104778 2.729987 32.065474 -0.097333 1.485555 0.180448 -0.055114 -338149.000000 0 0 1
31.140033 -3.712978 3.942287 31.607428 -0.118675 1.445744 0.189207 -0.056138 -448903.000000 0 0 1
31.471933 -5.091178 4.076887 32.140685 -0.160379 1.443609 0.169265 -0.053657 137999.000000 0 0 1
31.384033 -5.536178 5.387987 32.320848 -0.174605 1.403311 0.155409 -0.041738 -181808.000000 0 0 1
31.875033 -7.004378 5.557787 33.105408 -0.216307 1.402116 0.117972 -0.027764 332074.000000 0 0 1
33.234433 -7.006778 5.149487 34.353161 -0.207786 1.420331 0.135427 -0.047380 428643.000000 0 0 1
33.941333 -8.254678 5.303487 35.331017 -0.238573 1.420118 0.131799 -0.043551 549068.000000 0 0 1
35.469733 -8.109778 5.455887 36.791808 -0.224776 1.421957 0.212954 -0.059895 301077.000000 0 0 1
36.251833 -7.801478 4.289187 37.329018 -0.211970 1.455640 0.226189 -0.066890 32525.200000 0 0 1
37.588533 -7.687678 4.712987 38.655018 -0.201740 1.448568 0.253312 -0.066896 -7791.400000 0 0 1
-37.293906 -7.880378 3.651687 38.291913 0.208241 1.475287 0.277551 -0.066527 157545.000000 0 0 1
-37.029506 -9.240778 3.234587 38.301943 0.244557 1.486246 0.342905 -0.084459 -117784.000000 0 0 1
-36.067406 -9.245278 2.225687 37.299955 0.250930 1.511091 0.370070 -0.089736 -323911.000000 0 0 1
-35.759306 -10.577178 1.545187 37.322812 0.287588 1.529384 0.365179 -0.070631 -456463.000000 0 0 1
-34.865706 -11.390678 2.246087 36.747924 0.315770 1.509637 0.344422 -0.073124 -504232.000000 0 0 1
-34.180006 -12.095678 1.271987 36.279418 0.340129 1.535728 0.344322 -0.068024 -501603.000000 0 0 1
-33.292706 -13.235778 1.875387 35.876276 0.378399 1.518499 0.214385 -0.069556 617743.000000 0 0 1
-32.029106 -12.858078 2.429387 34.599071 0.381756 1.500523 0.238118 -0.057047 539619.000000 0 0 1
-30.991406 -12.894378 1.489687 33.599872 0.394277 1.526446 0.246707 -0.038314 -329853.000000 0 0 1
-29.558206 -13.056378 2.059187 32.378956 0.415945 1.507157 0.251575 -0.044501 247030.000000 0 0 1
-29.037806 -11.924978 2.780587 31.513980 0.389671 1.482448 0.235456 -0.057483 -148898.000000 0 0 1
-27.729006 -12.258778 3.148587 30.480962 0.416258 1.467315 0.217613 -0.031529 -374864.000000 0 0 1
-26.806406 -11.117878 3.639987 29.247908 0.393154 1.446020 0.200777 -0.031187 -542577.000000 0 0 1
-25.577606 -11.650278 4.034887 28.394070 0.427408 1.428211 0.159733 -0.014988 -631648.000000 0 0 1
-24.854406 -10.653978 4.701487 27.447272 0.404963 1.398656 0.159884 -0.022815 555044.000000 0 0 1
-23.459206 -11.182278 5.219287 26.506955 0.444809 1.372599 0.135665 -0.008658 797172.000000 0 0 1
-23.533006 -12.103178 6.295087 27.201423 0.475027 1.337254 0.137671 -0.010537 511742.000000 0 0 1
-22.221606 -12.431378 6.773587 26.348063 0.510052 1.310796 0.116304 -0.005867 486120.000000 0 0 1
-21.794706 -11.918678 8.179587 26.152815 0.500430 1.252698 0.133310 -0.017541 -538479.000000 0 0 1
-21.711706 -10.508578 8.312587 25.513281 0.450770 1.238924 0.122536 -0.006530 1130030.000000 0 0 1
-22.978006 -9.872678 8.593387 26.444373 0.405809 1.239826 0.148628 -0.023886 176482.000000 0 0 1
-23.362406 -9.933578 10.094487 27.319895 0.402036 1.192334 0.116049 -0.008139 -735575.000000 0 0 1
-23.848506 -11.203178 10.527087 28.373967 0.439168 1.190698 0.100160 -0.016929 434788.000000 0 0 1
-25.112506 -11.646978 10.065887 29.455257 0.434264 1.222034 0.100643 -0.020183 -381918.000000 0 0 1
-26.333106 -11.090878 10.803787 30.547698 0.398627 1.209305 0.114569 -0.023809 -618237.000000 0 0 1
-26.464806 -11.620078 12.104487 31.335775 0.413733 1.174198 0.094743 -0.027524 -677058.000000 0 0 1
-27.594606 -11.082278 12.675387 32.325603 0.381894 1.167866 0.101893 -0.035327 -682112.000000 0 0 1
-27.925006 -11.728578 14.075587 33.398917 0.397630 1.135765 0.097094 -0.032375 -181157.000000 0 0 1
-28.172006 -13.065778 13.908587 34.026832 0.434259 1.149708 0.095067 -0.033748 313561.000000 0 0 1
-28.022406 -13.683378 15.202987 34.693240 0.454245 1.117188 0.067665 -0.024718 -459410.000000 0 0 1
-27.812206 -15.222578 15.132887 35.131894 0.500794 1.125478 0.089908 -0.018133 -780811.000000 0 0 1
-28.987506 -15.950778 15.098087 36.368325 0.503046 1.142695 0.108858 -0.025230 -306089.000000 0 0 1
-28.618506 -17.321778 15.163187 36.728533 0.544282 1.145221 0.085684 -0.018591 -278231.000000 0 0 1
-29.748706 -18.193378 15.691387 38.238778 0.548883 1.147955 0.071198 -0.002124 -336649.000000 0 0 1
-30.001506 -18.066078 17.102087 38.973773 0.542015 1.116522 0.069866 0.004753 -154104.000000 0 0 1
-30.453106 -19.295378 17.664387 40.146406 0.564766 1.115199 0.071852 0.019138 546720.000000 0 0 1
-29.400906 -20.468878 17.936987 40.063996 0.608170 1.106595 0.033561 0.025592 411847.000000 0 0 1
-28.374806 -20.282378 18.873487 39.657446 0.620591 1.074795 0.041859 0.022423 -204672.000000 0 0 1
-27.678206 -21.478278 19.060587 39.883650 0.659934 1.072528 0.034185 0.024400 190105.000000 0 0 1
-26.301606 -21.258378 19.765387 39.170954 0.679754 1.041886 0.026545 0.021990 1258000.000000 0 0 1
-25.231106 -20.919378 18.835987 37.802427 0.692241 1.049189 0.030409 0.008936 1755810.000000 0 0 1
-23.934606 -20.956378 19.472487 37.298967 0.719152 1.021526 0.052444 0.001087 1850270.000000 0 0 1
-22.682206 -20.692478 18.542687 35.867707 0.739557 1.027484 0.066582 -0.012890 663847.000000 0 0 1
-22.501706 -21.680378 17.540287 35.833326 0.766811 1.059284 0.069152 -0.017406 916713.000000 0 0 1
-21.211306 -21.643278 16.902387 34.699304 0.795478 1.062018 0.080073 -0.017922 681602.000000 0 0 1
-21.007206 -22.778878 15.887587 34.822341 0.825838 1.097023 0.081522 -0.013476 -665716.000000 0 0 1
-21.016506 -24.111978 16.246687 35.875282 0.853883 1.100819 0.074264 -0.021959 287583.000000 0 0 1
-19.974006 -24.656678 17.041087 36.018209 0.889936 1.077963 0.097770 -0.031099 -76632.400000 0 0 1
-18.545406 -24.736478 16.484287 35.036512 0.927475 1.080952 0.097104 -0.028790 -381818.000000 0 0 1
-17.843506 -23.533878 16.473987 33.817546 0.922065 1.061981 0.106803 -0.035899 -104472.000000 0 0 1
-16.537706 -23.710478 15.958587 33.020585 0.961760 1.066385 0.117127 -0.038961 -48940.300000 0 0 1
-15.772206 -22.377778 15.764187 31.591724 0.956846 1.048355 0.107830 -0.031684 -434570.000000 0 0 1
-16.122106 -21.472978 14.724387 30.623825 0.926778 1.069213 0.120665 -0.025954 -41062.100000 0 0 1
-17.332406 -20.767478 14.895287 30.879929 0.875315 1.067448 0.095867 -0.018571 -111116.000000 0 0 1
-17.112706 -19.533678 15.798787 30.397549 0.851365 1.024251 0.112003 -0.019435 -165562.000000 0 0 1
-16.490706 -18.413078 15.155687 28.994477 0.840419 1.020770 0.118110 -0.021847 137452.000000 0 0 1
-16.343606 -17.339078 16.044687 28.726105 0.814944 0.978171 0.120508 -0.030316 -263905.000000 0 0 1
-15.595506 -16.167078 15.363387 27.214480 0.803391 0.970933 0.119262 -0.024415 -158462.000000 0 0 1
-16.271806 -15.496478 14.346887 26.659814 0.760997 1.002560 0.123491 -0.021846 -116959.000000 0 0 1
-16.256506 -16.176378 13.102687 26.412679 0.782928 1.051723 0.154716 -0.024083 76451.500000 0 0 1
-17.205606 -15.474978 12.096587 26.111975 0.732492 1.089128 0.135331 -0.016399 -154872.000000 0 0 1
-18.574006 -15.669478 12.289587 27.231603 0.700781 1.102576 0.119660 -0.016748 -270558.000000 0 0 1
-19.358106 -14.658378 11.650587 26.932146 0.648107 1.123432 0.152149 -0.025056 -48740.600000 0 0 1
-20.897206 -14.729878 11.841787 28.176062 0.613989 1.137044 0.108702 -0.024675 233989.000000 0 0 1
-21.545006 -15.750678 11.098387 28.904072 0.631268 1.176701 0.106260 -0.034047 127648.000000 0 0 1
-21.487106 -15.674178 9.669687 28.299796 0.630231 1.222084 0.147898 -0.039144 -851246.000000 0 0 1
-22.295406 -16.764178 8.996687 29.309780 0.644724 1.258808 0.142029 -0.027460 91744.900000 0 0 1
-21.648106 -18.028178 8.968587 29.565035 0.694413 1.262589 0.147764 -0.018251 276522.000000 0 0 1
-22.514006 -18.927078 8.297487 30.560809 0.699058 1.295837 0.137651 -0.034479 177798.000000 0 0 1
-22.052006 -20.368978 8.460087 31.189090 0.745745 1.296103 0.156662 -0.035099 101399.000000 0 0 1
-20.824506 -20.572378 7.785087 30.290104 0.779308 1.310862 0.179542 -0.032995 -175306.000000 0 0 1
-20.421206 -21.907078 7.971487 30.991779 0.820487 1.310659 0.171298 -0.037937 -676828.000000 0 0 1
-19.129806 -22.291178 7.297287 30.267086 0.861573 1.327301 0.178983 -0.046719 -689392.000000 0 0 1
-17.981206 -21.844978 7.965287 29.393412 0.882111 1.296376 0.147749 -0.041493 351431.000000 0 0 1
-16.741506 -22.205078 7.336487 28.760521 0.924772 1.312857 0.158131 -0.035442 -69788.400000 0 0 1
-15.541506 -21.739678 8.108587 27.926711 0.950146 1.276201 0.122789 -0.021294 -870514.000000 0 0 1
-14.335306 -22.026178 7.435687 27.311957 0.993838 1.295065 0.119009 -0.015993 924809.000000 0 0 1
-13.197106 -21.746578 8.291587 26.754956 1.025349 1.255700 0.103288 -0.014458 10508.300000 0 0 1
-11.792606 -21.990678 7.840487 26.155855 1.078567 1.266355 0.096279 -0.020384 -757093.000000 0 0 1
-11.430806 -23.352778 7.698587 27.116117 1.115597 1.282925 0.083730 -0.008458 -971398.000000 0 0 1
-10.351206 -23.556678 6.878387 26.634128 1.156778 1.309581 0.095466 -0.022921 -684179.000000 0 0 1
-10.072206 -25.080598 6.706187 27.847059 1.188917 1.327584 0.111113 -0.018098 -391326.000000 0 0 1
-11.051606 -25.826988 6.059187 28.738216 1.166464 1.358361 0.116118 -0.025176 -720950.000000 0 0 1
-11.023206 -27.230908 6.216487 30.027956 1.186155 1.362265 0.124985 -0.021798 245484.000000 0 0 1
-9.981206 -28.016998 5.318987 30.213710 1.228560 1.393829 0.143666 -0.027778 -99101.800000 0 0 1
-8.642206 -27.761468 5.655487 29.620455 1.269003 1.378685 0.145355 -0.034692 -237582.000000 0 0 1
-7.687206 -28.708248 5.193887 30.170070 1.309164 1.397781 0.172885 -0.032861 352019.000000 0 0 1
-7.796206 -30.119378 5.852687 31.657728 1.317512 1.384853 0.200273 -0.042712 -691958.000000 0 0 1
-7.280206 -30.001328 7.166187 31.692828 1.332735 1.342710 0.184939 -0.041951 191758.000000 0 0 1
-7.476206 -31.213408 7.867687 33.046498 1.335706 1.330409 0.207441 -0.050221 -172753.000000 0 0 1
-7.902206 -31.104518 9.335487 33.422855 1.322006 1.287716 0.159338 -0.054916 148689.000000 0 0 1
-6.876206 -30.550528 10.173887 32.926053 1.349409 1.256663 0.161016 -0.051733 593440.000000 0 0 1
-7.029206 -30.940578 11.528687 33.758551 1.347404 1.222279 0.127972 -0.046865 -487514.000000 0 0 1
-6.086206 -30.264118 12.511687 33.309174 1.372340 1.185728 0.117742 -0.037064 -95794.500000 0 0 1
-6.452206 -28.888578 12.641687 32.186848 1.351055 1.167166 0.121665 -0.036993 496036.000000 0 0 1
-5.570206 -28.267618 13.612187 31.864982 1.376236 1.129421 0.110916 -0.036500 155283.000000 0 0 1
-6.189206 -27.551258 14.841287 31.900500 1.349821 1.086894 0.105808 -0.034795 -76377.200000 0 0 1
-6.873206 -28.439108 15.763087 33.234000 1.333662 1.076621 0.087637 -0.031218 380015.000000 0 0 1
-6.030206 -29.251708 16.562487 34.151747 1.367495 1.064470 0.076095 -0.032387 -153273.000000 0 0 1
-6.772206 -30.508418 17.018287 35.584385 1.352360 1.072134 0.074761 -0.027123 13436.900000 0 0 1
-7.320206 -31.039218 15.830887 35.603869 1.339191 1.110025 0.084700 -0.027527 103586.000000 0 0 1
-7.756206 -32.366848 15.954487 36.909582 1.335597 1.123800 0.083153 -0.035009 -515782.000000 0 0 1
-6.740206 -33.357228 15.445787 37.372549 1.371419 1.144730 0.097501 -0.039720 -313276.000000 0 0 1
-6.340206 -33.255998 14.057487 36.657504 1.382409 1.177233 0.085600 -0.044089 -237049.000000 0 0 1
-5.453206 33.277661 13.758187 36.420158 -1.408370 1.183417 0.119348 -0.052057 -448265.000000 0 0 1
-4.425206 -33.753708 12.731087 36.345231 1.440437 1.212924 0.161463 -0.058404 -413299.000000 0 0 1
-4.854206 -33.616958 11.395687 35.826315 1.427390 1.247091 0.148454 -0.050685 -198696.000000 0 0 1
-3.810206 -33.177378 10.576287 35.030186 1.456454 1.264091 0.176573 -0.053880 -635433.000000 0 0 1
-4.204206 -32.928288 9.134687 34.429493 1.443806 1.302265 0.181694 -0.062413 -684122.000000 0 0 1
-4.395206 33.493232 8.260387 34.775688 -1.440315 1.330971 0.188828 -0.063082 531388.000000 0 0 1
-5.213206 32.343015 8.561187 33.860628 -1.410986 1.315186 0.186684 -0.061294 712313.000000 0 0 1
-6.691206 32.617629 8.980487 34.486680 -1.368463 1.307355 0.163952 -0.054274 165772.000000 0 0 1
-7.600206 33.042234 7.973187 34.829931 -1.344714 1.339831 0.166002 -0.048829 -365246.000000 0 0 1
-8.884206 33.083796 8.548387 35.306397 -1.308449 1.326246 0.112077 -0.045755 178981.000000 0 0 1
-10.024206 33.273991 7.496787 35.550598 -1.278182 1.358325 0.117511 -0.056450 129910.000000 0 0 1
-10.070206 -32.974058 6.981687 35.177287 1.274395 1.370998 0.133101 -0.047802 -288737.000000 0 0 1
-11.017406 -32.955408 5.965187 35.256568 1.248165 1.400785 0.122254 -0.037682 -325313.000000 0 0 1
-11.343506 -31.565058 5.349587 33.965366 1.225799 1.412637 0.104581 -0.038939 510521.000000 0 0 1
-12.287106 -30.880108 6.208587 33.809771 1.192104 1.386115 0.100278 -0.034639 600915.000000 0 0 1
-13.125406 -29.988878 5.466687 33.188760 1.158238 1.405327 0.104859 -0.031297 248605.000000 0 0 1
-14.285106 -29.433418 6.351487 33.327642 1.118948 1.379046 0.094339 -0.028122 43740.800000 0 0 1
-15.206006 -30.382878 6.809287 34.651238 1.106765 1.373000 0.103623 -0.038766 -435987.000000 0 0 1
-16.261706 -29.827938 7.511387 34.793245 1.071658 1.353197 0.105739 -0.040540 -415833.000000 0 0 1
35.472682 -12.649078 -12.767313 39.765747 -0.342530 1.897648 0.153533 -0.048113 -355641.000000 0 0 1
34.368372 -12.663478 -11.883413 38.506677 -0.353027 1.884524 0.186865 -0.055960 125418.000000 0 0 1
34.081112 -13.824978 -11.170013 38.437240 -0.385367 1.865654 0.185798 -0.055938 -125383.000000 0 0 1
35.175032 -14.280878 -10.196213 39.308893 -0.385664 1.833184 0.164450 -0.055437 661451.000000 0 0 1
36.410452 -14.718378 -10.781913 40.725929 -0.384152 1.838734 0.163116 -0.055555 522312.000000 0 0 1
37.344492 -15.082678 -9.785913 41.447103 -0.383846 1.809153 0.133569 -0.043775 889133.000000 0 0 1
-37.176227 -15.326678 -10.322713 41.515507 0.391040 1.822080 0.094957 -0.042923 892362.000000 0 0 1
-36.568387 -14.139678 -10.850413 40.680571 0.368957 1.840787 0.097092 -0.050352 -650290.000000 0 0 1
-35.211337 -14.383578 -11.020613 39.600246 0.387806 1.852816 0.083691 -0.044051 -756266.000000 0 0 1
-34.453792 -13.104778 -11.383413 38.579542 0.363460 1.870318 0.093305 -0.047752 -273636.000000 0 0 1
-34.309755 -12.197378 -10.305313 37.843557 0.341573 1.846593 0.116263 -0.046026 868540.000000 0 0 1
-33.427327 -11.102678 -10.732813 36.821854 0.320680 1.866569 0.127067 -0.038066 452591.000000 0 0 1
-33.570217 -9.823578 -9.965913 36.370064 0.284680 1.848361 0.142099 -0.040953 47850.000000 0 0 1
-32.917937 -9.677478 -8.701913 35.397280 0.285932 1.819178 0.152701 -0.039105 289001.000000 0 0 1
-33.442677 -8.525878 -8.136213 35.458443 0.249623 1.802317 0.197923 -0.050614 -9853.560000 0 0 1
-33.011367 -8.412178 -6.639213 34.707265 0.249516 1.763274 0.178010 -0.046896 -623818.000000 0 0 1
-31.678827 -8.009678 -6.472213 33.310547 0.247650 1.766339 0.153965 -0.051346 -363225.000000 0 0 1
-31.379807 -7.878778 -5.078313 32.749911 0.245993 1.726488 0.191093 -0.043269 -818105.000000 0 0 1
-31.020057 -9.172878 -4.270813 32.628599 0.287515 1.702065 0.167397 -0.041012 -526742.000000 0 0 1
-32.100547 -10.070678 -4.156713 33.898996 0.303999 1.693726 0.185527 -0.041499 237192.000000 0 0 1
-32.013287 -10.714778 -2.880313 33.881458 0.322978 1.655911 0.186667 -0.053174 -244633.000000 0 0 1
-32.804887 -11.997878 -2.739113 35.037301 0.350623 1.649053 0.200551 -0.049801 -835322.000000 0 0 1
-34.187548 -11.815378 -2.747713 36.275908 0.332754 1.646614 0.231907 -0.057030 -198048.000000 0 0 1
-34.855973 -13.033378 -2.402913 37.290506 0.357824 1.635279 0.244720 -0.060893 -586495.000000 0 0 1
-36.368047 -12.978478 -2.303813 38.683114 0.342777 1.630388 0.247845 -0.052873 -611533.000000 0 0 1
-36.958007 -12.041478 -1.407513 38.895663 0.314969 1.606991 0.283195 -0.072491 -338471.000000 0 0 1
37.640772 -12.050678 -1.451213 39.549369 -0.309839 1.607498 0.332498 -0.067362 -728542.000000 0 0 1
36.974142 -11.242178 -0.336313 38.646951 -0.295173 1.579499 0.310277 -0.085274 -135176.000000 0 0 1
37.147532 -11.804178 0.953487 38.989574 -0.307674 1.546339 0.325767 -0.082816 232441.000000 0 0 1
36.187632 -11.272478 1.844387 37.947533 -0.301974 1.522174 0.335872 -0.072528 46420.800000 0 0 1
36.496552 -11.625678 3.353187 38.449949 -0.308380 1.483476 0.292208 -0.073760 -623011.000000 0 0 1
35.477282 -11.465778 4.263487 37.527042 -0.312591 1.456939 0.249182 -0.066489 -541720.000000 0 0 1
35.793062 -12.240778 5.445487 38.218232 -0.329519 1.427826 0.248079 -0.065313 -431922.000000 0 0 1
34.684512 -12.206578 6.470987 37.334831 -0.338395 1.396594 0.189746 -0.046438 -706541.000000 0 0 1
34.369182 -10.937478 6.865087 36.715099 -0.308101 1.382707 0.165924 -0.035944 -93403.100000 0 0 1
33.653032 -11.078978 8.072787 36.337862 -0.318037 1.346768 0.142860 -0.030689 -348395.000000 0 0 1
32.974692 -9.818978 8.630587 35.471533 -0.289413 1.325019 0.124532 -0.035379 -1159170.000000 0 0 1
31.604482 -9.764178 8.479987 34.148099 -0.299647 1.319841 0.137066 -0.027890 -1136090.000000 0 0 1
31.021872 -8.662878 9.170987 33.488938 -0.272314 1.293401 0.147311 -0.020912 -407011.000000 0 0 1
29.581972 -8.745778 8.646087 32.036487 -0.287457 1.297525 0.135323 -0.011543 -704829.000000 0 0 1
29.400172 -8.422578 7.331287 31.449288 -0.279008 1.335517 0.143692 -0.014140 186643.000000 0 0 1
28.136472 -8.898878 6.894287 30.304823 -0.306321 1.341289 0.180692 -0.024984 493249.000000 0 0 1
27.393472 -8.142078 5.743087 29.149250 -0.288911 1.372475 0.186916 -0.030178 143320.000000 0 0 1
26.427472 -7.197478 6.137387 28.069244 -0.265899 1.350364 0.208346 -0.035813 520325.000000 0 0 1
25.651072 -6.596578 5.093987 26.971115 -0.251711 1.380787 0.242333 -0.053192 780.511000 0 0 1
26.371772 -5.532878 4.218987 27.274218 -0.206804 1.415485 0.255072 -0.059397 -191775.000000 0 0 1
27.301972 -6.021178 3.275287 28.149241 -0.217065 1.454178 0.244509 -0.053067 110739.000000 0 0 1
27.969972 -4.932478 2.700387 28.529647 -0.174554 1.476002 0.252061 -0.062542 -344987.000000 0 0 1
28.180372 -4.983678 1.167787 28.641476 -0.175039 1.530012 0.226942 -0.075845 317046.000000 0 0 1
27.007072 -4.837778 0.369287 27.439431 -0.177250 1.557338 0.232652 -0.078858 321247.000000 0 0 1
27.384472 -4.914678 -1.014013 27.840467 -0.177579 1.607227 0.233698 -0.081912 -121042.000000 0 0 1
26.426472 -5.547278 -2.047113 27.079907 -0.206910 1.646464 0.224423 -0.062295 -51952.600000 0 0 1
25.214472 -4.831878 -2.193113 25.766769 -0.189336 1.656013 0.258359 -0.056274 286443.000000 0 0 1
24.516172 -5.264178 -3.371513 25.300620 -0.211511 1.704452 0.255649 -0.050233 -407660.000000 0 0 1
23.060072 -4.809578 -3.477713 23.811624 -0.205620 1.717372 0.204191 -0.039855 -411748.000000 0 1 0
22.705172 -3.417878 -3.572213 23.237199 -0.149411 1.725137 0.219218 -0.042688 271418.000000 0 1 0
23.144672 -2.874078 -4.818813 23.815061 -0.123546 1.774546 0.246074 -0.039876 -348878.000000 0 1 0
22.137972 -1.892978 -5.426013 22.871703 -0.085301 1.810317 0.197399 -0.022920 -168070.000000 0 1 0
22.202872 -0.628178 -4.784013 22.721111 -0.028285 1.782938 0.217322 -0.011469 364422.000000 0 1 0
21.294772 0.278322 -5.357013 21.960017 0.013069 1.817227 0.201217 -0.006763 -516033.000000 0 1 0
21.070472 1.543822 -4.418913 21.584137 0.073139 1.776984 0.174403 0.001646 -85940.800000 0 1 0
22.068572 2.529322 -4.568313 22.677937 0.114114 1.773627 0.228461 -0.003184 655451.000000 0 1 0
23.276372 2.342022 -3.856313 23.709612 0.100280 1.734170 0.274952 -0.003614 -128149.000000 0 1 0
24.259072 3.505222 -4.004013 24.835887 0.143498 1.732722 0.298931 -0.008551 -391448.000000 0 1 0
23.858472 4.627222 -3.260813 24.520823 0.191566 1.704173 0.252359 -0.001590 -51846.100000 0 1 0
24.815772 5.610822 -3.192913 25.641734 0.222360 1.695641 0.247026 -0.003128 -650866.000000 0 0 1
24.200072 7.012122 -3.314313 25.412556 0.282033 1.701589 0.217309 -0.006463 29917.300000 0 0 1
23.351172 7.391322 -2.234113 24.594717 0.306551 1.661759 0.234702 -0.016884 533661.000000 0 1 0
22.825772 8.672422 -2.411113 24.536508 0.363095 1.669221 0.213135 -0.012561 -154314.000000 0 1 0
21.762972 9.097422 -1.362713 23.627252 0.395946 1.628504 0.153540 -0.011330 -86876.200000 0 1 0
22.264472 9.350022 -0.064913 24.148164 0.397588 1.573484 0.127114 -0.025645 638870.000000 0 1 0
21.245072 9.840022 0.814087 23.427374 0.433750 1.536040 0.090535 -0.025754 236476.000000 0 1 0
21.828972 10.269522 2.192587 24.223429 0.439732 1.480157 0.115160 -0.022876 101035.000000 0 1 0
22.674172 11.428322 2.173287 25.484266 0.466861 1.485413 0.134899 -0.030477 541875.000000 0 0 1
22.107872 12.639422 1.692987 25.522131 0.519363 1.504413 0.129573 -0.025082 466535.000000 0 0 1
20.993772 13.316722 2.615087 24.998244 0.565272 1.465994 0.120155 -0.015751 158237.000000 0 1 0
19.670072 12.886022 2.433887 23.640751 0.579958 1.467661 0.134448 -0.018651 45541.500000 0 1 0
18.743972 13.575522 3.257587 23.371845 0.626823 1.430960 0.130792 -0.021529 112386.000000 0 1 0
18.697972 13.214022 4.769187 23.387383 0.615214 1.365435 0.133407 -0.024016 -569205.000000 0 1 0
18.297972 11.947022 5.162887 22.454454 0.578422 1.338794 0.101663 -0.020810 109894.000000 0 1 0
18.422872 11.911322 6.547487 22.894353 0.573947 1.280760 0.111528 -0.026955 40261.200000 0 1 0
18.427472 10.446122 7.174787 22.364498 0.515709 1.244210 0.082335 -0.034427 -635016.000000 0 1 0
19.455972 9.716822 6.606787 22.728861 0.463188 1.275861 0.077682 -0.050585 -230477.000000 0 1 0
19.569372 8.422122 7.174787 22.480437 0.406412 1.245957 0.091670 -0.043875 -21790.600000 0 1 0
20.605972 7.681822 6.312887 22.879445 0.356837 1.291250 0.110926 -0.048906 151813.000000 0 1 0
20.038872 7.425822 5.046387 21.958261 0.354882 1.338906 0.079112 -0.046412 639157.000000 0 1 0
20.928872 6.657822 4.269287 22.373446 0.307994 1.378800 0.093880 -0.047544 -77019.100000 0 1 0
20.626972 6.608222 2.765987 21.835550 0.310037 1.443781 0.097639 -0.032495 -533312.000000 0 1 0
21.537172 5.839422 2.053887 22.409085 0.264767 1.479013 0.100107 -0.033798 129022.000000 0 1 0
21.224072 5.855522 0.648987 22.026565 0.269194 1.541328 0.100048 -0.018241 549313.000000 0 1 0
22.189472 4.822822 -0.109413 22.707801 0.214019 1.575615 0.179592 -0.027415 625213.000000 0 1 0
22.056072 3.496422 0.377287 22.334673 0.157216 1.553903 0.154031 -0.022225 538067.000000 0 1 0
23.095572 2.647622 -0.084913 23.246990 0.114139 1.574449 0.211357 -0.021743 58016.300000 0 1 0
22.912672 1.164822 0.183587 22.942996 0.050794 1.562794 0.237581 -0.027523 25887.600000 0 1 0
21.901372 0.656022 -0.684113 21.921872 0.029945 1.602008 0.144983 -0.032683 893107.000000 0 1 0
22.286872 -0.615478 -1.219513 22.328696 -0.027609 1.625440 0.207250 -0.040002 -1568200.000000 0 1 0
22.122272 -1.829178 -0.269213 22.199398 -0.082497 1.582924 0.226895 -0.035542 -346421.000000 0 1 0
23.030372 -1.955578 0.802687 23.127184 -0.084710 1.536082 0.226976 -0.037477 250359.000000 0 1 0
24.315272 -2.252278 0.234487 24.420487 -0.092365 1.561194 0.252608 -0.056683 -597979.000000 0 1 0
25.375472 -1.991178 1.338487 25.488643 -0.078308 1.518259 0.265274 -0.048951 -461071.000000 0 0 1
25.555672 -0.616878 1.706587 25.620018 -0.024134 1.504135 0.260395 -0.039951 550391.000000 0 0 1
26.433672 -0.423378 2.827087 26.587792 -0.016015 1.464265 0.253915 -0.044187 17641.500000 0 0 1
26.614472 1.004222 3.359687 26.844479 0.037714 1.445314 0.238432 -0.039911 270076.000000 0 0 1
27.220972 2.029122 2.553187 27.415642 0.074405 1.477532 0.279799 -0.031451 -256313.000000 0 0 1
28.620072 2.035422 2.490087 28.800208 0.070999 1.484227 0.264406 -0.031542 -198574.000000 0 0 1
29.067172 3.153222 1.548487 29.278680 0.108058 1.517884 0.301935 -0.035202 -169424.000000 0 0 1
28.670072 2.758022 0.251687 28.803525 0.095904 1.562058 0.359316 -0.028805 79812.100000 0 0 1
29.113972 3.730122 -0.708213 29.360496 0.127427 1.594920 0.350808 -0.021274 640029.000000 0 0 1
30.575672 3.545422 -1.249813 30.805905 0.115440 1.611378 0.306275 -0.008589 11650.500000 0 0 1
31.520202 4.062922 -0.355013 31.782959 0.128192 1.581966 0.238651 -0.008128 -47950.400000 0 0 1
32.800912 3.878522 -0.983913 33.044074 0.117698 1.600576 0.188802 0.000248 472415.000000 0 0 1
33.948762 4.234022 -0.015413 34.211776 0.124077 1.571247 0.099078 0.010647 -196997.000000 0 0 1
34.060482 3.422922 1.099587 34.249699 0.100159 1.538686 0.127496 -0.004129 -93378.300000 0 0 1
33.319412 3.787522 2.245587 33.609094 0.113187 1.503932 0.120642 0.000048 -156227.000000 0 0 1
33.371542 2.838222 3.452287 33.669476 0.084845 1.468081 0.145748 -0.014479 -146364.000000 0 0 1
32.491772 1.719322 3.346087 32.708831 0.052866 1.468318 0.188153 -0.019837 280579.000000 0 0 1
32.733372 0.772522 4.370787 33.032926 0.023596 1.438091 0.166001 -0.025515 -354337.000000 0 0 1
33.960382 -0.110578 4.218787 34.221600 -0.003256 1.447203 0.154973 -0.025848 -727507.000000 0 0 1
35.184232 0.546322 4.358887 35.457419 0.015526 1.447552 0.137162 -0.025559 -873992.000000 0 0 1
36.211192 -0.404678 4.392887 36.478920 -0.011175 1.450081 0.105394 -0.031678 -116138.000000 0 0 1
37.600352 0.257922 4.719687 37.896285 0.006859 1.445930 0.159625 -0.047504 472275.000000 0 0 1
-37.767887 0.908822 3.666087 37.956284 -0.024059 1.474058 0.124794 -0.038400 -56973.100000 0 0 1
-36.864557 0.069422 2.958887 36.983177 -0.001883 1.490704 0.159064 -0.038469 -311398.000000 0 0 1
-36.352327 0.787322 1.715287 36.401288 -0.021655 1.523657 0.157106 -0.041188 -184212.000000 0 0 1
-35.478073 1.799122 2.160187 35.589281 -0.050667 1.510061 0.190966 -0.073989 78576.900000 0 0 1
-34.824603 2.454622 1.077287 34.927621 -0.070369 1.539948 0.259500 -0.054183 -299277.000000 0 0 1
-33.839717 3.528222 1.528187 34.057454 -0.103887 1.525910 0.288660 -0.055602 -332527.000000 0 0 1
-32.770797 3.014222 2.294287 32.989005 -0.091721 1.501193 0.287771 -0.069402 51689.000000 0 0 1
-31.961367 4.023122 2.859687 32.340258 -0.125216 1.482256 0.295158 -0.055574 -137456.000000 0 0 1
-32.277097 4.176222 4.461687 32.850548 -0.128672 1.434558 0.303374 -0.056419 109378.000000 0 0 1
-33.527307 4.792722 4.735287 34.197565 -0.141988 1.431881 0.289663 -0.028219 1085730.000000 0 0 1
-34.766123 4.070822 4.700587 35.317849 -0.116561 1.437306 0.264130 -0.029504 633593.000000 0 0 1
-34.935273 3.022822 5.885987 35.556373 -0.086311 1.404491 0.210346 -0.023232 -625641.000000 0 0 1
-35.235693 3.651622 7.104787 36.129855 -0.103266 1.372860 0.207896 -0.020255 47677.700000 0 0 1
-35.084073 2.924022 8.283687 36.167134 -0.083151 1.339706 0.165142 -0.024977 -479469.000000 0 0 1
-36.101627 1.865822 8.705487 37.183253 -0.051637 1.334479 0.149223 -0.023263 -502249.000000 0 0 1
-36.114847 0.655122 7.920787 36.979051 -0.018138 1.354927 0.146558 -0.034862 266383.000000 0 0 1
-36.991487 -0.359778 8.397687 37.934427 0.009726 1.347573 0.143595 -0.034367 -90984.800000 0 0 1
-36.483857 -0.987778 9.759987 37.779689 0.027068 1.309493 0.148810 -0.033267 -282065.000000 0 0 1
-35.292673 -1.693078 9.537987 36.597985 0.047936 1.307137 0.150446 -0.034220 -297509.000000 0 0 1
-35.034249 -2.502578 10.608387 36.690590 0.071311 1.277477 0.139022 -0.027304 146889.000000 0 0 1
-33.774757 -3.389278 10.382987 35.496871 0.100015 1.273952 0.165843 -0.017202 106842.000000 0 0 1
-33.943067 -4.314378 9.327187 35.464660 0.126428 1.304666 0.183197 -0.033543 296665.000000 0 0 1
-32.860547 -5.229778 9.238587 34.532849 0.157827 1.299967 0.211728 -0.042957 182993.000000 0 0 1
-33.115737 -6.266778 8.085087 34.659677 0.187027 1.335356 0.227323 -0.033450 -528661.000000 0 0 1
-34.178347 -7.075078 8.391587 35.897561 0.204122 1.334848 0.239928 -0.040412 -767243.000000 0 0 1
-34.404105 -7.899778 7.295387 36.045411 0.225705 1.366994 0.247291 -0.056343 457826.000000 0 0 1
-35.509539 -8.972078 7.613887 37.408513 0.247487 1.365831 0.249672 -0.065550 56705.200000 0 0 1
-36.731487 -8.418878 8.013787 38.526620 0.225309 1.361260 0.233513 -0.059593 -197499.000000 0 0 1
-37.599097 -9.512078 8.301187 39.662091 0.247788 1.359940 0.220889 -0.063529 4538.860000 0 0 1
8.835033 -23.705578 10.748487 27.487128 -1.214045 1.169038 0.137234 -0.047380 175608.000000 0 0 1
8.126933 -24.303578 9.642287 27.380370 -1.248093 1.210918 0.130025 -0.045249 367901.000000 0 0 1
6.892633 -24.904378 10.015687 27.713723 -1.300791 1.201029 0.129310 -0.048105 686889.000000 0 0 1
6.370233 -25.837198 8.861687 28.047641 -1.329065 1.249337 0.119295 -0.038192 40650.300000 0 0 1
5.847733 -25.236208 7.711087 27.028190 -1.343095 1.281479 0.117913 -0.035063 -395602.000000 0 0 1
5.761433 -26.108978 6.615987 27.543495 -1.353608 1.328223 0.108540 -0.032841 -673259.000000 0 0 1
4.974933 -25.523158 5.462687 26.571084 -1.378292 1.363732 0.100970 -0.029837 812094.000000 0 0 1
3.545033 -25.544258 5.581387 26.386138 -1.432897 1.357659 0.105988 -0.040152 526684.000000 0 0 1
2.915033 -26.766138 5.197987 27.421572 -1.462316 1.380084 0.113382 -0.035329 -125672.000000 0 0 1
1.387433 -26.577308 5.105287 27.098750 -1.518640 1.381268 0.137213 -0.045338 -361109.000000 0 0 1
0.672933 -26.275848 6.276687 27.023505 -1.545192 1.336388 0.132598 -0.046848 567812.000000 0 0 1
-0.739567 -26.162068 6.044787 26.861501 1.542535 1.343817 0.156671 -0.047758 1239820.000000 0 0 1
-1.566767 -27.460638 6.173987 28.189706 1.513803 1.349991 0.181375 -0.047795 -276746.000000 0 0 1
-1.399967 -28.082798 7.427287 29.082092 1.520986 1.312545 0.169388 -0.056029 -154305.000000 0 0 1
-2.012667 -29.340198 7.421287 30.331066 1.502306 1.323611 0.199237 -0.057872 -219911.000000 0 0 1
-1.941267 -30.056858 8.759987 31.367509 1.506299 1.287763 0.182272 -0.058808 -250317.000000 0 0 1
-0.617067 -30.346608 9.110887 31.690782 1.550465 1.279188 0.175453 -0.049410 -269886.000000 0 0 1
-0.596167 -30.898918 10.420587 32.614218 1.551505 1.245583 0.169138 -0.038143 641469.000000 0 0 1
0.823233 -30.878978 11.095287 32.822163 -1.544143 1.225960 0.169450 -0.038564 769072.000000 0 0 1
1.630333 -31.972748 10.650287 33.739342 -1.519849 1.249640 0.171781 -0.031966 -846172.000000 0 0 1
2.973333 -31.819778 10.912187 33.770028 -1.477624 1.241759 0.174100 -0.024548 -767835.000000 0 0 1
3.559933 -32.467548 12.177087 34.858231 -1.461587 1.213938 0.195783 -0.024587 -233204.000000 0 0 1
3.163833 -31.823178 13.365787 34.660767 -1.471703 1.174920 0.205566 -0.039261 187367.000000 0 0 1
3.928233 -32.325528 14.427787 35.616454 -1.449868 1.153722 0.195821 -0.046999 -44307.600000 0 0 1
3.503233 -31.547798 15.674087 35.400752 -1.460204 1.112120 0.222646 -0.062663 82339.400000 0 0 1
4.004733 -30.185718 15.734787 34.275341 -1.438897 1.093848 0.221332 -0.058410 110785.000000 0 0 1
5.340933 -29.996058 16.115587 34.467394 -1.394588 1.084267 0.195749 -0.043524 -185600.000000 0 0 1
5.943433 -28.682818 15.524587 33.151791 -1.366476 1.083444 0.192538 -0.041042 -58493.600000 0 0 1
6.207733 -28.683478 14.130487 32.572205 -1.357661 1.122068 0.168800 -0.026960 59936.900000 0 0 1
5.103533 -28.449838 13.255587 31.798584 -1.393297 1.140807 0.177281 -0.019688 -322182.000000 0 0 1
5.443133 -28.659748 11.715387 31.436589 -1.383109 1.188915 0.144584 -0.017291 74608.500000 0 0 1
5.836433 -29.955718 11.307987 32.546575 -1.378372 1.215957 0.122279 -0.014769 -515530.000000 0 0 1
7.051033 -30.394528 11.815987 33.364082 -1.342845 1.208788 0.114838 -0.002592 -963722.000000 0 0 1
7.583833 -31.668308 11.185787 34.431353 -1.335746 1.239920 0.103464 -0.004736 -342738.000000 0 0 1
6.963733 -32.763568 11.707787 35.482633 -1.361368 1.234537 0.100793 -0.024919 23644.600000 0 0 1
7.626233 33.591283 11.255087 36.238250 1.347550 1.254987 0.114447 -0.018703 278037.000000 0 0 1
7.287833 32.399961 12.081187 35.338720 1.349545 1.221892 0.103449 -0.014994 -418263.000000 0 0 1
5.912033 32.134076 12.123287 34.850037 1.388851 1.215498 0.149318 -0.022641 -304711.000000 0 0 1
5.715333 30.900843 12.773087 33.921659 1.387906 1.184731 0.150689 -0.020004 -9110.600000 0 0 1
4.848933 31.040773 14.037187 34.410527 1.415837 1.150607 0.172546 -0.045394 -20697.100000 0 0 1
5.570833 31.535243 15.125787 35.416030 1.395946 1.129526 0.135784 -0.045522 349244.000000 0 0 1
4.691933 31.606336 16.243287 35.844374 1.423423 1.100488 0.189107 -0.059409 10024.100000 0 0 1
5.326933 32.266308 17.455987 37.070236 1.407179 1.080497 0.237697 -0.057054 -276327.000000 0 0 1
5.506433 33.653433 17.433787 38.298973 1.408612 1.098197 0.276759 -0.053598 139006.000000 0 0 1
5.800433 -33.525368 18.770987 38.858015 -1.399476 1.066643 0.226763 -0.043430 -108956.000000 0 0 1
5.253133 -32.066838 19.024987 37.654052 -1.408420 1.041116 0.213493 -0.053321 111587.000000 0 0 1
3.843233 -32.059288 18.931887 37.429731 -1.451487 1.040489 0.243829 -0.061601 -48590.100000 0 0 1
3.284533 -30.874278 19.483487 36.655361 -1.464811 1.010388 0.209346 -0.051234 -85973.600000 0 0 1
1.782833 -30.727738 19.098787 36.223419 -1.512841 1.015436 0.206712 -0.053063 741301.000000 0 0 1
0.864433 -31.639808 19.712187 37.288001 -1.543482 1.013791 0.220099 -0.054892 264982.000000 0 0 1
0.496133 -31.258658 21.022287 37.673418 -1.554926 0.978806 0.183848 -0.043147 -627951.000000 0 0 1
-0.417867 -32.300668 21.717787 38.925185 1.557860 0.978899 0.203371 -0.036638 375358.000000 0 0 1
-1.815967 -31.956948 21.633087 38.633337 1.514032 0.976460 0.188868 -0.038887 704615.000000 0 0 1
-2.550967 -33.139738 21.948387 39.830659 1.493972 0.987183 0.184214 -0.028025 114858.000000 0 0 1
-3.923367 -32.811858 22.549487 40.006127 1.451790 0.971997 0.175514 -0.020201 386314.000000 0 0 1
-4.962767 -32.402988 21.658287 39.289491 1.418820 0.986936 0.154461 -0.029940 -157049.000000 0 0 1
-6.116667 -32.027918 22.343487 39.527618 1.382089 0.970045 0.130312 -0.021216 -545348.000000 0 0 1
-7.295867 -31.645648 21.456587 38.923796 1.344207 0.986939 0.107065 -0.025218 45942.100000 0 0 1
-8.086167 -32.717468 20.949187 39.682329 1.328501 1.014644 0.093029 -0.017763 634412.000000 0 0 1
-9.228367 -32.280108 20.206787 39.185232 1.292340 1.029003 0.091529 -0.024081 821154.000000 0 0 1
-10.404867 -33.313168 20.145487 40.297259 1.268062 1.047288 0.090749 -0.022489 542079.000000 0 0 1
-10.994467 -33.542348 21.422587 41.290370 1.254053 1.025317 0.092331 -0.018068 555155.000000 0 0 1
-12.414867 -33.668638 21.369987 41.765805 1.217528 1.033678 0.082558 -0.022174 775809.000000 0 0 1
-13.158667 33.755653 22.734487 42.772089 -1.199096 1.010395 0.086433 -0.018178 98153.600000 0 0 1
-13.083767 -32.657048 23.665387 42.399508 1.189737 0.978639 0.094735 -0.021994 882365.000000 0 0 1
-11.742867 -32.523918 24.194587 42.202823 1.224309 0.960277 0.096647 -0.019821 779617.000000 0 0 1
-11.518167 -31.213078 25.017687 41.627024 1.217281 0.926049 0.102248 -0.033999 -375231.000000 0 0 1
-12.163867 -31.276508 26.291187 42.631047 1.199883 0.906234 0.120925 -0.030907 111204.000000 0 0 1
-13.355767 -30.527368 26.262287 42.426459 1.158385 0.903318 0.125429 -0.036840 -55191.300000 0 0 1
-13.996367 -30.380528 27.691487 43.424570 1.139078 0.879298 0.114342 -0.037178 131423.000000 0 0 1
-13.287667 -29.479298 28.507287 43.107500 1.147322 0.848237 0.100125 -0.032232 695076.000000 0 0 1
-14.048267 -29.300388 29.742687 44.051039 1.123718 0.829578 0.109911 -0.031517 451612.000000 0 0 1
-13.422867 -28.499668 30.892587 44.122063 1.130630 0.795172 0.097247 -0.030232 -1169870.000000 0 0 1
-14.379267 -28.205378 31.837787 44.899347 1.099335 0.782586 0.097490 -0.034135 -287520.000000 0 0 1
-14.040167 -27.964038 33.211687 45.630362 1.105487 0.755627 0.087069 -0.026496 -541217.000000 0 0 1
-13.308567 -29.040548 -33.335379 46.170541 1.141082 2.377493 0.091322 -0.022645 1222660.000000 0 0 1
-11.893667 -29.137348 -33.647679 46.071799 1.183247 2.389603 0.101804 -0.026769 988176.000000 0 0 1
-11.445567 -30.421768 -33.240979 46.491372 1.210948 2.367410 0.102623 -0.026253 -182544.000000 0 0 1
-9.945767 -30.690368 -33.384179 46.425428 1.257408 2.373292 0.110619 -0.033432 16462.100000 0 0 1
-9.048967 -29.894408 -32.621479 45.163263 1.276866 2.377920 0.139943 -0.043919 -119791.000000 0 0 1
-7.740067 -30.386208 -32.594079 45.228357 1.321377 2.375544 0.150521 -0.052760 235241.000000 0 0 1
-6.820267 -29.696488 -31.510579 43.832796 1.345045 2.372988 0.174100 -0.049763 263254.000000 0 0 1
-7.160067 -30.021328 -30.196279 43.178258 1.336671 2.345270 0.188135 -0.057306 -318601.000000 0 0 1
-6.408167 -29.308058 -29.268879 41.912935 1.355535 2.343852 0.184196 -0.056609 63818.300000 0 0 1
-6.926667 -29.473768 -27.797579 41.102154 1.339974 2.313531 0.188743 -0.056981 266413.000000 0 0 1
-6.427167 -30.689648 -27.278679 41.560670 1.364355 2.286778 0.164041 -0.053283 358877.000000 0 0 1
-7.276567 -31.168398 -26.220379 41.375424 1.341444 2.257147 0.179812 -0.056592 469254.000000 0 0 1
-6.534267 -32.053958 -25.215979 41.303734 1.369700 2.227490 0.166106 -0.060263 -152421.000000 0 0 1
-5.646467 -31.380258 -24.383879 40.139466 1.392764 2.223679 0.135328 -0.059920 -180832.000000 0 0 1
-5.021367 -32.405548 -23.583179 40.391831 1.417065 2.194272 0.148060 -0.067796 -505937.000000 0 0 1
-4.331067 -31.969778 -22.255279 39.193396 1.436142 2.174666 0.170178 -0.084077 -164604.000000 0 0 1
-5.157467 -31.439088 -21.254479 38.298415 1.408198 2.159123 0.173381 -0.072963 -204655.000000 0 0 1
-5.093967 -30.013918 -21.155379 37.072009 1.402678 2.178101 0.159772 -0.055470 315629.000000 0 0 1
-6.019667 -29.469358 -19.972279 36.105005 1.369300 2.156963 0.198897 -0.080733 779567.000000 0 0 1
-7.422967 -29.696568 -20.037479 36.585341 1.325855 2.150399 0.216839 -0.090350 358869.000000 0 0 1
-8.212667 -28.608308 -20.423079 36.096888 1.291241 2.172181 0.210867 -0.083892 86269.600000 0 0 1
-8.239567 -28.289288 -21.962979 36.749785 1.287376 2.211345 0.228163 -0.097812 -426991.000000 0 0 1
-6.981767 -27.776028 -22.362179 36.336206 1.324539 2.233720 0.230641 -0.067291 -240371.000000 0 0 1
-6.964367 -27.708588 -23.742179 37.147804 1.324554 2.264159 0.264164 -0.073157 -180123.000000 0 0 1
-5.539267 -27.676428 -24.387479 37.301706 1.373262 2.283379 0.250012 -0.069426 278785.000000 0 0 1
-4.780767 -26.478758 -24.311879 36.263588 1.392170 2.305573 0.235529 -0.071733 112768.000000 0 0 1
-4.333567 -26.248868 -22.968979 35.147644 1.407177 2.282995 0.175598 -0.061788 -309682.000000 0 0 1
-2.838667 -26.651378 -22.668679 35.103034 1.464685 2.272835 0.144868 -0.052344 887632.000000 0 0 1
-1.785967 -25.707578 -22.725679 34.358779 1.501435 2.293510 0.135307 -0.051799 399641.000000 0 0 1
-1.827067 -24.600378 -21.813479 32.929389 1.496663 2.294857 0.131858 -0.059355 -1140380.000000 0 0 1
-1.230667 -23.366178 -22.450479 32.427100 1.518176 2.335519 0.126706 -0.053746 -120848.000000 0 0 1
-1.915967 -22.826078 -23.589479 32.881063 1.487055 2.370886 0.193927 -0.059564 871768.000000 0 0 1
-3.265567 -22.435178 -23.251579 32.475176 1.426256 2.368823 0.197926 -0.064143 587896.000000 0 0 1
-4.195267 -22.310378 -24.518779 33.414424 1.384926 2.394663 0.185951 -0.069157 329504.000000 0 0 1
-3.821367 -21.145778 -25.267179 33.168918 1.392011 2.436841 0.181306 -0.062263 -29378.900000 0 0 1
-4.661967 -20.909378 -26.343979 33.954988 1.351424 2.458858 0.252902 -0.064792 -175216.000000 0 0 1
-4.199267 -21.614478 -27.696179 35.382168 1.378906 2.469905 0.212318 -0.049379 -333695.000000 0 0 1
-5.075567 -21.556278 -28.769579 36.305966 1.339552 2.485563 0.228016 -0.045434 -788059.000000 0 0 1
-4.492567 -22.042478 -29.948279 37.456020 1.369736 2.497356 0.240518 -0.042047 -241820.000000 0 0 1
-5.360267 -22.233478 -31.194579 38.680250 1.334221 2.508959 0.274352 -0.061309 -291600.000000 0 0 1
-5.656967 -21.120178 -31.970879 38.732419 1.309093 2.541759 0.300627 -0.070159 -179997.000000 0 0 1
-6.581367 -21.513978 -32.962879 39.908859 1.273925 2.542689 0.290529 -0.061948 190054.000000 0 0 1
-6.540467 -20.645278 33.154287 39.600656 1.263997 0.578625 0.254647 -0.055552 194338.000000 0 0 1
-5.261767 -20.880678 32.608487 39.076878 1.323944 0.583626 0.258652 -0.065012 -135203.000000 0 0 1
-4.946367 -20.168278 31.435587 37.675219 1.330289 0.583783 0.253278 -0.054971 -116617.000000 0 0 1
-3.508767 -20.372578 30.945787 37.215523 1.400240 0.588942 0.194668 -0.059289 -1505030.000000 0 0 1
-3.109867 -21.694678 30.502387 37.559632 1.428419 0.623045 0.253332 -0.057932 143611.000000 0 0 1
-1.771067 -21.938378 30.135787 37.317486 1.490242 0.630808 0.229239 -0.049152 606404.000000 0 0 1
-0.588567 -21.327378 30.953887 37.594502 1.543207 0.603486 0.158048 -0.052545 -805796.000000 0 0 1
-0.333367 -19.992478 30.644187 36.590662 1.554123 0.578129 0.116042 -0.053357 -162385.000000 0 0 1
0.378233 -19.285078 31.660087 37.073150 -1.551186 0.547190 0.125306 -0.052264 -231742.000000 0 0 1
-0.358067 -18.965378 32.962787 38.031029 1.551919 0.522180 0.116741 -0.052329 -197754.000000 0 0 1
-1.394267 -18.017878 32.771387 37.423946 1.493568 0.503955 0.123777 -0.054906 -192768.000000 0 0 1
-2.122867 -17.970178 -33.409679 37.995269 1.453209 2.645211 0.130827 -0.061758 -33591.400000 0 0 1
-3.346167 -17.060278 -33.242579 37.514250 1.377117 2.659727 0.133240 -0.065685 286478.000000 0 0 1
-2.982567 -15.691678 -33.303379 36.935613 1.382964 2.694390 0.118604 -0.051516 -35390.900000 0 0 1
-4.097367 -14.938978 -32.902979 36.367121 1.303106 2.701578 0.148300 -0.053549 51399.300000 0 0 1
-3.831967 -13.387578 -33.089279 35.900022 1.292017 2.743253 0.123453 -0.061824 -219100.000000 0 0 1
-2.822467 -12.869478 -32.224579 34.813981 1.354900 2.753472 0.116860 -0.052838 433622.000000 0 0 1
-2.302867 -11.608278 -32.713479 34.788317 1.374958 2.794478 0.119264 -0.045184 145755.000000 0 0 1
-1.695867 -11.406778 33.241887 35.185418 1.423206 0.333925 0.132244 -0.050178 -198685.000000 0 0 1
-2.627067 -11.447378 32.151287 34.229362 1.345212 0.350242 0.116712 -0.041432 216423.000000 0 0 1
-1.970467 -11.176778 30.917787 32.934977 1.396289 0.351805 0.130447 -0.036201 -12325.100000 0 0 1
-1.152067 -12.285478 30.300687 32.716844 1.477295 0.386724 0.118388 -0.048763 -108830.000000 0 0 1
-1.900167 -13.474678 30.026387 32.966066 1.430702 0.425513 0.120535 -0.055069 431823.000000 0 0 1
-0.912567 -14.452778 29.797687 33.130315 1.507739 0.452382 0.115858 -0.055930 65804.300000 0 0 1
-1.368467 -15.904678 29.985087 33.969648 1.484966 0.489214 0.097631 -0.047868 6020.580000 0 0 1
-2.091467 -16.466578 28.910187 33.336487 1.444460 0.521197 0.124772 -0.048093 183150.000000 0 0 1
-2.381967 -17.866278 29.169487 34.289017 1.438256 0.553491 0.152148 -0.042582 -148275.000000 0 0 1
-2.657567 -18.735678 27.904687 33.715870 1.429891 0.595902 0.166539 -0.045369 -691668.000000 0 0 1
-3.928567 -18.494978 27.413087 33.301279 1.361495 0.603800 0.195700 -0.054198 -672090.000000 0 0 1
-4.512467 -19.547778 26.656287 33.362189 1.343927 0.645171 0.207597 -0.055244 439147.000000 0 0 1
-4.104167 -19.608278 25.128987 32.137124 1.364467 0.673040 0.196883 -0.061030 -182897.000000 0 0 1
-5.075267 -20.346678 24.442487 32.205292 1.326345 0.709084 0.229227 -0.056642 -104863.000000 0 0 1
-4.583267 -21.653678 24.225687 32.814205 1.362213 0.740297 0.222136 -0.061227 75957.100000 0 0 1
-31.117147 -32.817149 -0.717113 45.230039 0.811982 1.586652 0.122969 -0.018814 457544.000000 0 0 1
-30.161727 -31.925049 -0.165113 43.919994 0.813791 1.574556 0.122859 -0.016787 254994.000000 0 0 1
-30.791417 -31.311449 0.923887 43.924615 0.793772 1.549761 0.092863 -0.002774 330063.000000 0 0 1
-30.218957 -29.896649 1.181487 42.525180 0.780037 1.543010 0.102483 -0.013726 257994.000000 0 0 1
-28.822787 -29.875749 1.410787 41.536776 0.803335 1.536825 0.136235 -0.018424 -293497.000000 0 0 1
-28.470437 -28.522049 1.637687 40.333052 0.786304 1.530181 0.136317 -0.022144 1066650.000000 0 0 1
-26.906897 -28.304549 1.553187 39.083769 0.810707 1.531046 0.169135 -0.031279 823794.000000 0 0 1
-26.255837 -29.056849 2.579787 39.246972 0.835995 1.505017 0.145455 -0.011806 -557940.000000 0 0 1
-24.885367 -28.774249 2.438287 38.120653 0.857745 1.506790 0.170394 -0.015148 -291031.000000 0 0 1
-24.092867 -29.600549 3.475887 38.324151 0.887617 1.479974 0.164472 -0.023471 -212814.000000 0 0 1
-24.435867 -29.204049 4.780587 38.377625 0.874058 1.445905 0.136698 -0.016008 293879.000000 0 0 1
-23.691967 -30.012449 5.686887 38.657433 0.902549 1.423151 0.121398 -0.017190 358659.000000 0 0 1
-24.246567 -29.768649 7.120487 39.048302 0.887276 1.387420 0.110747 -0.001992 193316.000000 0 0 1
-23.656267 -28.680549 7.784187 37.984029 0.881104 1.364401 0.117707 -0.026282 202750.000000 0 0 1
-24.404567 -28.416749 8.948387 38.511923 0.861210 1.336299 0.074883 -0.011346 51955.600000 0 0 1
-23.845967 -27.148849 9.619187 37.392766 0.850077 1.310624 0.080783 -0.020750 223335.000000 0 0 1
-22.666467 -27.490749 10.327687 37.096781 0.881286 1.288670 0.088382 -0.034434 -105041.000000 0 0 1
-22.308467 -26.423449 11.197987 36.349158 0.869640 1.257635 0.102411 -0.035349 -743589.000000 0 0 1
-20.920867 -26.395349 11.772587 35.678999 0.900586 1.234537 0.087085 -0.037428 -1082490.000000 0 0 1
-20.674767 -27.376949 12.811387 36.620691 0.923983 1.213396 0.076880 -0.022790 -379393.000000 0 0 1
-19.468767 -27.249349 13.517887 36.115000 0.950427 1.187153 0.083660 -0.039389 -202307.000000 0 0 1
-19.206767 -28.274349 14.588087 37.163840 0.974098 1.167411 0.097174 -0.038276 -27782.500000 0 0 1
-18.919267 -29.546949 14.020287 37.782659 1.001262 1.190627 0.086040 -0.032243 27111.700000 0 0 1
-18.828867 -30.539049 15.039187 38.901632 1.018296 1.173859 0.086784 -0.033181 76740.800000 0 0 1
-18.709767 -31.955649 14.476687 39.759193 1.041113 1.198120 0.072981 -0.038063 -8154.070000 0 0 1
-18.625467 -33.010149 15.417387 40.917891 1.057090 1.184470 0.073159 -0.031642 111439.000000 0 0 1
-18.476367 33.337622 14.726287 40.861189 -1.064719 1.202102 0.059333 -0.030727 -91399.200000 0 0 1
-18.195467 32.222222 15.758687 40.220428 -1.056747 1.168200 0.062397 -0.022060 752261.000000 0 0 1
-19.319267 31.960622 16.645787 40.887623 -1.027096 1.151508 0.070437 -0.034107 966680.000000 0 0 1
-19.180067 30.765222 17.404787 40.215675 -1.013324 1.123215 0.042774 -0.015212 -212064.000000 0 0 1
-19.924067 30.873922 18.719487 41.238171 -0.997707 1.099619 0.043577 -0.030533 -37907.000000 0 0 1
-19.264267 31.723822 19.700187 42.019165 -1.025064 1.082821 0.047581 -0.023848 537708.000000 0 0 1
-20.028067 31.923522 20.906787 43.096734 -1.010490 1.064304 0.049942 -0.020751 97802.900000 0 0 1
-19.502267 33.082422 21.739687 44.129345 -1.038129 1.055681 0.045141 -0.015707 136862.000000 0 0 1
-18.263767 32.781122 22.369087 43.686877 -1.062486 1.033247 0.043298 -0.019562 237883.000000 0 0 1
-18.242467 33.252922 23.715487 44.732189 -1.069031 1.012000 0.048589 -0.024600 179582.000000 0 0 1
-19.094967 32.418122 24.758887 45.039482 -1.038488 0.988773 0.057538 -0.024863 273404.000000 0 0 1
-20.479667 32.664122 24.661687 45.766368 -1.010776 1.001713 0.057489 -0.031413 -235022.000000 0 0 1
-21.300167 31.735222 25.322387 45.848061 -0.979673 0.985662 0.069152 -0.030653 -912638.000000 0 0 1
-22.748067 31.963422 24.974787 46.506719 -0.952267 1.003902 0.119967 -0.046197 -1057490.000000 0 0 1
-22.972167 31.413222 23.685887 45.558010 -0.939378 1.024055 0.114984 -0.031256 -455046.000000 0 0 1
-24.222467 31.863122 23.263387 46.294402 -0.920797 1.044297 0.101925 -0.040376 -493588.000000 0 0 1
-24.535767 31.459822 21.795987 45.461955 -0.908427 1.070787 0.086775 -0.036885 -61793.900000 0 0 1
-24.068067 32.366522 20.822987 45.392295 -0.931397 1.094226 0.079297 -0.038145 -302.984000 0 0 1
-24.085167 31.965622 19.478887 44.512058 -0.925078 1.117858 0.054192 -0.024096 -51469.100000 0 0 1
-23.598367 33.022122 18.443987 44.581657 -0.950324 1.144268 0.047627 -0.014593 -908788.000000 0 0 1
-22.296667 33.371222 18.738187 44.293335 -0.981774 1.133990 0.035131 -0.014673 -1012890.000000 0 0 1
-21.758867 -33.360149 17.703087 43.586089 0.992847 1.152544 0.051977 -0.005791 615470.000000 0 0 1
-20.471867 -32.585449 18.135587 42.541843 1.009862 1.130398 0.050209 -0.012953 242005.000000 0 0 1
-20.770567 -31.529149 18.986787 42.261115 0.988278 1.104845 0.062415 -0.030154 337638.000000 0 0 1
-19.660167 -30.872549 19.577087 41.507817 1.003744 1.079637 0.056819 -0.041240 -361616.000000 0 0 1
-20.129367 -30.033149 20.755187 41.688839 0.980325 1.049667 0.059857 -0.032212 -88982.900000 0 0 1
-20.712367 -28.847949 20.198287 40.855565 0.948102 1.053672 0.087796 -0.038267 201513.000000 0 0 1
-21.324567 -28.110249 21.200487 41.162895 0.921811 1.029743 0.099850 -0.030911 -660847.000000 0 0 1
-22.362867 -27.119249 20.738887 40.812412 0.881227 1.037759 0.089189 -0.037911 -1169210.000000 0 0 1
-21.751767 -25.962249 20.259187 39.466599 0.873414 1.031742 0.088119 -0.034216 467971.000000 0 0 1
-22.538367 -24.861849 19.722687 38.923951 0.834377 1.039446 0.069369 -0.015630 251043.000000 0 0 1
-23.682167 -25.107249 18.671087 39.240649 0.814599 1.074912 0.046062 -0.018492 1559830.000000 0 0 1
-25.023657 -25.339649 19.196487 40.457217 0.791672 1.076413 0.049660 -0.012560 1003750.000000 0 0 1
-25.879657 -25.216449 18.088287 40.408070 0.772419 1.106671 0.024716 -0.000356 23600.300000 0 0 1
-27.386687 -25.412049 18.481787 41.681883 0.748016 1.111407 0.014639 0.002728 393139.000000 0 0 1
-27.713597 -26.733749 18.984287 42.931806 0.767404 1.112750 0.011459 0.000637 -35512.800000 0 0 1
-27.554047 -27.746649 18.029887 43.060178 0.788881 1.138768 0.023788 -0.000872 -1362160.000000 0 0 1
-28.260987 -28.978849 18.557187 44.528938 0.797939 1.140935 0.044582 -0.010221 -395890.000000 0 0 1
-29.639847 -28.737549 18.709387 45.325583 0.769943 1.145295 0.036910 -0.004687 -157930.000000 0 0 1
-30.412067 -29.003549 17.543887 45.539957 0.761696 1.175327 0.042675 -0.001170 -412664.000000 0 0 1
-31.884907 -28.568049 17.713187 46.330743 0.730586 1.178490 0.036492 -0.002207 150322.000000 0 0 1
-32.106817 -27.132449 17.610087 45.575571 0.701624 1.174079 0.037108 -0.002969 461512.000000 0 0 1
-33.488407 -26.854849 17.846887 46.488361 0.675907 1.176780 0.063406 0.002341 564502.000000 0 0 1
-34.092985 -25.606649 17.137987 45.953702 0.644194 1.188620 0.080186 -0.015034 -141945.000000 0 0 1
-34.350788 -25.759549 15.754987 45.735661 0.643435 1.219112 0.094492 -0.033758 576785.000000 0 0 1
-34.975954 -24.607749 15.126787 45.361640 0.613113 1.230813 0.108374 -0.030756 260757.000000 0 0 1
-34.009372 -23.432649 14.786587 43.867638 0.603309 1.226990 0.108624 -0.026510 57745.500000 0 0 1
-33.509507 -22.722549 15.878287 43.489324 0.595871 1.197048 0.087467 -0.007365 18131.600000 0 0 1
-33.309777 -21.385849 15.612187 42.551571 0.570751 1.195122 0.093246 -0.001822 -385301.000000 0 0 1
-34.561149 -20.495949 15.685887 43.134720 0.535282 1.198614 0.107247 -0.010638 -155887.000000 0 0 1
-35.046978 -20.238049 16.975887 43.886787 0.523677 1.173626 0.114268 -0.005397 -54127.000000 0 0 1
-35.955727 -19.203749 17.124887 44.213800 0.490550 1.173073 0.135837 -0.012184 -512934.000000 0 0 1
-36.185127 -18.814849 18.557287 44.807755 0.479488 1.143784 0.092988 -0.013305 -808062.000000 0 0 1
-36.891207 -19.700549 19.279987 46.052044 0.490490 1.138831 0.092274 -0.011247 -392784.000000 0 0 1
-36.977517 -19.261149 20.598887 46.504224 0.480218 1.111914 0.094270 -0.011677 -1440840.000000 0 0 1
37.676432 -19.472949 21.259087 47.441101 -0.477034 1.106140 0.083809 -0.016218 -1122180.000000 0 0 1
37.212622 -20.781449 21.354587 47.672490 -0.509309 1.106332 0.097944 -0.024488 -293231.000000 0 0 1
37.795082 -21.632449 22.291387 48.921744 -0.519849 1.097690 0.078203 -0.011198 -431448.000000 0 0 1
37.124002 -23.055949 22.388287 49.101973 -0.555756 1.097351 0.082882 -0.007002 -654158.000000 0 0 1
35.872902 -23.016449 22.965987 48.415479 -0.570455 1.076568 0.101075 -0.024214 -875470.000000 0 0 1
35.482462 -24.260549 23.495987 48.986129 -0.599725 1.070545 0.096667 -0.035793 -314032.000000 0 0 1
34.608302 -24.107849 24.724687 48.890011 -0.608435 1.040579 0.109897 -0.041508 -45018.600000 0 0 1
33.355942 -23.487549 24.537287 47.606326 -0.613505 1.029298 0.108933 -0.038123 -54638.300000 0 0 1
32.575612 -23.478949 25.686687 47.667992 -0.624518 1.001705 0.083230 -0.024145 119153.000000 0 0 1
31.156002 -24.088849 25.647987 46.997749 -0.658165 0.993539 0.082501 -0.016582 -47120.400000 0 0 1
30.216172 -23.364849 24.901287 45.596133 -0.658220 0.993062 0.096973 -0.018213 -22738.400000 0 0 1
29.011972 -24.111349 24.768087 45.127706 -0.693409 0.989815 0.095477 -0.011183 1219250.000000 0 0 1
27.821172 -23.268549 24.120587 43.557384 -0.696523 0.983916 0.094199 -0.012701 737055.000000 0 0 1
27.963372 -23.017249 22.771787 42.781985 -0.688681 1.009511 0.093908 -0.014156 -270498.000000 0 0 1
28.962472 -22.073449 22.475687 42.792739 -0.651225 1.017820 0.110485 -0.012882 -154159.000000 0 0 1
28.942572 -21.342449 21.121287 41.704693 -0.635393 1.039735 0.119913 -0.025380 20117.000000 0 0 1
28.116572 -20.200349 21.191487 40.591562 -0.623001 1.021524 0.116338 -0.024458 -80948.200000 0 0 1
27.850772 -19.571149 19.932487 39.446159 -0.612546 1.041057 0.115820 -0.029635 194366.000000 0 0 1
26.636172 -18.604949 20.024287 38.165454 -0.609708 1.018468 0.093541 -0.022661 77058.900000 0 0 1
26.931472 -17.353449 20.616987 38.098642 -0.572397 0.998995 0.084290 -0.026624 93869.100000 0 0 1
26.935172 -17.355749 22.011187 38.874386 -0.572395 0.968892 0.083550 -0.024558 -132612.000000 0 0 1
27.045572 -15.967349 22.655387 38.725777 -0.533321 0.945891 0.089330 -0.021399 71959.300000 0 0 1
25.873972 -15.207549 22.430687 37.468223 -0.531367 0.928970 0.060425 -0.019927 -155743.000000 0 0 1
26.028272 -13.998449 23.156387 37.545250 -0.493442 0.906177 0.065315 -0.021434 191955.000000 0 0 1
24.782472 -13.084049 23.142587 36.344774 -0.485761 0.880518 0.065651 -0.017824 540183.000000 0 0 1
23.755172 -13.643449 23.966887 36.398676 -0.521335 0.852032 0.071854 -0.018063 862314.000000 0 0 1
22.533972 -12.849849 23.984287 35.329089 -0.518252 0.824557 0.067704 -0.026264 1208150.000000 0 0 1
21.367772 -13.742649 24.507787 35.299770 -0.571544 0.803383 0.065647 -0.012109 40611.400000 0 0 1
20.986972 -14.665349 23.492887 34.748255 -0.609909 0.828356 0.076010 -0.017083 89240.400000 0 0 1
19.636572 -15.051749 23.678487 34.246473 -0.653988 0.807352 0.103496 -0.022716 293709.000000 0 0 1
18.993172 -16.119249 22.794887 33.766517 -0.703731 0.829732 0.129045 -0.030092 -113862.000000 0 0 1
19.501172 -17.396049 23.047587 34.844074 -0.728406 0.848047 0.113331 -0.024032 172335.000000 0 0 1
19.054772 -18.267349 21.991487 34.357036 -0.764303 0.876185 0.134517 -0.022224 -59319.000000 0 0 1
19.458772 -19.740849 22.275387 35.560341 -0.792594 0.893856 0.107248 -0.021024 -150182.000000 0 0 1
18.870572 -20.164849 23.466887 36.241060 -0.818543 0.866468 0.109376 -0.026152 166337.000000 0 0 1
19.225672 -21.519349 23.878787 37.455378 -0.841632 0.879513 0.109255 -0.025815 -262473.000000 0 0 1
18.771172 -22.747949 23.044587 37.428320 -0.880889 0.907523 0.092696 -0.025995 -204441.000000 0 0 1
19.456472 -22.889649 21.842587 37.142819 -0.866295 0.942125 0.097514 -0.015673 534420.000000 0 0 1
20.658272 -23.681949 22.015287 38.370194 -0.853485 0.959707 0.101535 -0.018804 835199.000000 0 0 1
21.463972 -23.892849 20.682487 38.201252 -0.838898 0.998685 0.088497 -0.016131 -96402.700000 0 0 1
20.779872 -24.659449 19.727387 37.802928 -0.870571 1.021780 0.074752 -0.021656 64262.400000 0 0 1
21.643972 -25.037949 18.653187 37.990812 -0.857975 1.057568 0.083200 -0.018631 255094.000000 0 0 1
20.991672 -25.751649 17.419487 37.513148 -0.886881 1.087888 0.070013 -0.023530 82623.700000 0 0 1
20.445872 -26.988849 17.823687 38.263762 -0.922470 1.086245 0.086617 -0.035662 -23453.600000 0 0 1
19.635272 -27.664349 16.884087 37.893701 -0.953545 1.108992 0.090531 -0.038882 -49685.400000 0 0 1
18.854172 -28.790149 17.605487 38.656250 -0.990996 1.097933 0.081136 -0.031240 -162777.000000 0 0 1
17.793272 -28.332349 18.403787 38.184053 -1.010029 1.067888 0.083182 -0.037995 -104966.000000 0 0 1
17.113572 -29.396749 19.061087 38.991900 -1.043599 1.060028 0.084419 -0.039660 -33396.600000 0 0 1
15.804072 -28.950349 19.728087 38.432914 -1.071104 1.031756 0.080500 -0.031407 53275.000000 0 0 1
14.862972 -28.420549 18.797587 37.175057 -1.088945 1.040660 0.088787 -0.038275 -359742.000000 0 0 1
13.646972 -28.048449 19.385887 36.725577 -1.117967 1.014720 0.064826 -0.035655 -493683.000000 0 0 1
12.658072 -27.722949 18.278987 35.537446 -1.142474 1.030537 0.089493 -0.048733 -729153.000000 0 0 1
12.199672 -28.758049 17.546887 35.829466 -1.169589 1.059012 0.084744 -0.041699 -314790.000000 0 0 1
11.429472 -28.223849 16.508187 34.637245 -1.186023 1.074011 0.139232 -0.042725 -292674.000000 0 0 1
11.170372 -29.170949 15.420687 34.835601 -1.205093 1.112222 0.114774 -0.036162 -231575.000000 0 0 1
10.287572 -30.199949 15.785787 35.595817 -1.242477 1.111326 0.129108 -0.041102 -23847.000000 0 0 1
9.974072 -31.086249 14.663087 35.788869 -1.260321 1.148659 0.094381 -0.016044 819072.000000 0 0 1
9.041872 -32.328049 15.055887 36.790460 -1.298074 1.149183 0.110531 -0.020943 725581.000000 0 0 1
9.712172 -33.399049 15.708887 38.165324 -1.287809 1.146586 0.101771 -0.023874 -169259.000000 0 0 1
8.925572 32.977422 15.750787 37.619988 1.306472 1.138804 0.128804 -0.018534 259107.000000 0 0 1
9.615072 31.819322 16.522687 37.120319 1.277343 1.109497 0.146120 -0.025101 198860.000000 0 0 1
10.629572 31.188922 15.787387 36.537354 1.242330 1.123988 0.080818 -0.025818 -12535.900000 0 0 1
11.423872 30.284522 16.562187 36.358811 1.210082 1.097839 0.136630 -0.027381 84538.000000 0 0 1
12.546072 29.565922 15.809987 35.798092 1.169483 1.113367 0.019164 -0.041585 -460102.000000 0 0 1
12.095672 28.467122 15.010087 34.380009 1.169011 1.118988 0.109426 -0.027742 -27198.200000 0 0 1
13.158372 27.891322 14.285987 33.987616 1.129984 1.136988 0.059353 -0.037153 -254963.000000 0 0 1
12.779972 26.558722 13.533187 32.432091 1.122304 1.140349 0.047596 -0.034424 -58532.600000 0 0 1
12.644672 25.432722 14.337287 31.816173 1.109406 1.103327 0.083830 -0.036586 104466.000000 0 0 1
12.608872 24.248322 13.610087 30.531938 1.091285 1.108767 0.084951 -0.034298 -125022.000000 0 0 1
-9.493867 -9.178378 19.144554 23.257043 0.768504 0.603821 0.092482 -0.040459 70812.400000 0 1 0
-9.647167 -9.519178 17.770854 22.349179 0.778720 0.651549 0.087067 -0.035893 1619.510000 0 1 0
-9.585467 -10.889478 17.490054 22.723642 0.849000 0.692448 0.096804 -0.034097 135835.000000 0 1 0
-9.743367 -11.215078 15.977954 21.817566 0.855504 0.749039 0.091428 -0.029540 -337128.000000 0 1 0
-11.039467 -11.013678 15.494854 21.983208 0.784229 0.788585 0.109841 -0.036846 -199528.000000 0 1 0
-11.350567 -11.679678 14.264754 21.650253 0.799688 0.851478 0.109316 -0.032449 -74.969800 0 1 0
-11.416967 -13.265978 14.187054 22.530109 0.860169 0.889638 0.087516 -0.026881 203124.000000 0 1 0
-10.128067 -13.899578 14.195054 22.299676 0.941093 0.880768 0.083179 -0.014160 636976.000000 0 1 0
-10.104167 -15.320278 14.416954 23.337816 0.987751 0.904917 0.095237 -0.021762 48390.900000 0 1 0
-10.038667 -15.672178 15.948954 24.510429 1.001100 0.862289 0.124727 -0.031502 320537.000000 0 1 0
-11.323767 -15.378678 16.472754 25.220687 0.936102 0.859067 0.160979 -0.039159 242106.000000 0 0 1
-11.162867 -15.190478 17.834454 25.950491 0.937056 0.813101 0.175530 -0.043835 -31469.300000 0 0 1
-12.451267 -14.703278 18.538354 26.737446 0.868142 0.804672 0.138518 -0.046356 -482354.000000 0 0 1
-12.845267 -13.360078 18.226254 25.994017 0.805041 0.793758 0.135290 -0.045651 86938.100000 0 0 1
-13.813167 -13.295278 17.183954 25.745995 0.766296 0.840028 0.150564 -0.057486 -92055.800000 0 0 1
-15.239867 -13.258178 17.773454 26.905919 0.715972 0.849208 0.107108 -0.046899 -663854.000000 0 0 1
-15.590367 -14.500078 18.292654 28.070144 0.749180 0.861004 0.116190 -0.037655 -115845.000000 0 0 1
-16.708367 -14.381078 19.162854 29.209586 0.710680 0.855228 0.106246 -0.037804 584180.000000 0 0 1
-17.490567 -15.740778 19.480854 30.548252 0.732792 0.879278 0.090442 -0.029155 -125690.000000 0 0 1
-18.473267 -16.183878 18.611054 30.814783 0.719436 0.922330 0.071399 -0.023522 -368582.000000 0 0 1
-18.954667 -17.389378 19.179654 32.086274 0.742356 0.930102 0.081346 -0.026634 71255.200000 0 0 1
-20.223767 -18.050678 18.575254 32.861342 0.728683 0.970046 0.074911 -0.018569 -1490.160000 0 0 1
-20.120167 -18.403378 17.214054 32.246381 0.740863 1.007674 0.081347 -0.020784 -16297.000000 0 0 1
-20.509767 -17.355478 16.352254 31.452494 0.702287 1.024059 0.063897 -0.019234 -299403.000000 0 0 1
-19.959167 -17.480678 14.875354 30.417406 0.719295 1.059807 0.084637 -0.025070 -208237.000000 0 0 1
-20.484867 -18.565678 14.124654 31.045451 0.736291 1.098461 0.088177 -0.020840 -7723.770000 0 0 1
-20.019767 -18.480478 12.799854 30.102415 0.745438 1.131602 0.116653 -0.027511 50559.900000 0 0 1
-20.137067 -19.751478 11.898054 30.613494 0.775732 1.171626 0.139990 -0.035190 347552.000000 0 0 1
-19.249367 -20.831178 12.306754 30.918155 0.824843 1.161414 0.134296 -0.034504 391861.000000 0 0 1
-19.417567 -22.090178 11.674454 31.643495 0.849698 1.192931 0.118734 -0.025494 -518675.000000 0 0 1
-18.463667 -23.217678 12.096554 32.035827 0.898963 1.183599 0.099625 -0.019985 -113540.000000 0 0 1
-18.654467 -24.393378 11.309554 32.725098 0.917931 1.217926 0.115988 -0.042297 -140972.000000 0 0 1
-17.805567 -24.449878 10.186554 31.915523 0.941363 1.245940 0.109906 -0.033715 -365507.000000 0 0 1
-18.194067 -25.583848 9.185154 32.709699 0.952623 1.286160 0.128522 -0.040472 132354.000000 0 0 1
-19.399967 -25.202918 8.549654 32.933909 0.914774 1.308188 0.126043 -0.043042 -39870.500000 0 0 1
-19.803767 -26.186238 7.567254 33.692307 0.923297 1.344265 0.154797 -0.052937 -70079.000000 0 0 1
-21.096667 -25.780388 6.862454 34.011631 0.884983 1.367634 0.149146 -0.052939 -190770.000000 0 0 1
-20.968867 -24.784678 5.830854 32.984428 0.868605 1.393086 0.177200 -0.056661 -187789.000000 0 0 1
-22.256067 -24.361678 5.460654 33.446115 0.830535 1.406795 0.186323 -0.057433 -194745.000000 0 0 1
-22.292067 -23.520278 4.161854 32.672018 0.812201 1.443066 0.189329 -0.059926 541124.000000 0 0 1
-23.481967 -22.690578 4.102554 32.910425 0.768260 1.445813 0.198858 -0.058417 952544.000000 0 0 1
-23.601667 -21.689478 3.105154 32.204256 0.743203 1.474226 0.187755 -0.053472 -167322.000000 0 0 1
-23.767567 -22.153278 1.636454 32.532183 0.750259 1.520472 0.165132 -0.051646 -137687.000000 0 0 1
-22.606567 -22.662878 1.009354 32.026266 0.786642 1.539275 0.167731 -0.063255 73468.000000 0 0 1
-22.718067 -22.760978 -0.378246 32.160780 0.786342 1.582558 0.151127 -0.054451 -506930.000000 0 0 1
-21.841567 -23.824578 -0.998046 32.336677 0.828795 1.601665 0.155449 -0.051267 35791.200000 0 0 1
-20.444367 -23.525878 -0.991346 31.183679 0.855365 1.602592 0.148535 -0.054700 537707.000000 0 0 1
-19.689667 -24.038678 -2.083146 31.142905 0.884527 1.637736 0.133207 -0.045905 294908.000000 0 0 1
-19.420567 -25.591388 -2.168746 32.199084 0.921642 1.638202 0.152860 -0.038520 -909230.000000 0 0 1
-20.497567 -26.293228 -2.664046 33.445198 0.908634 1.650535 0.207899 -0.045172 -721556.000000 0 0 1
-20.015367 -27.502538 -3.232046 34.167977 0.941679 1.665531 0.188139 -0.036195 -522515.000000 0 0 1
-21.053267 -28.432418 -3.861446 35.588667 0.933424 1.679512 0.195351 -0.045864 -259265.000000 0 0 1
-21.613367 -27.872248 -5.034246 35.627847 0.911209 1.712572 0.167979 -0.034823 -104355.000000 0 0 1
-22.495367 -28.773368 -5.652846 36.958124 0.907244 1.724352 0.180275 -0.057448 -310916.000000 0 0 1
-23.076767 -28.331488 -7.008346 37.206549 0.887260 1.760292 0.157100 -0.018457 -324993.000000 0 0 1
-22.194167 -28.041998 -8.092146 36.666300 0.901283 1.793325 0.153423 -0.017321 -57385.300000 0 0 1
-22.717967 -28.057288 -9.419146 37.310022 0.890169 1.826014 0.140424 -0.010898 -422399.000000 0 0 1
-23.636767 -26.868028 -9.774346 37.096166 0.849290 1.837431 0.123343 -0.004516 -199131.000000 0 0 1
-23.065267 -25.608558 -10.093646 35.912205 0.837602 1.855699 0.120923 -0.010838 -194173.000000 0 0 1
-22.560967 -24.933678 -8.995446 34.808097 0.835314 1.832193 0.115336 -0.009185 -282118.000000 0 0 1
-22.334867 -23.455978 -9.331446 33.706158 0.809877 1.851308 0.097494 -0.014726 60837.400000 0 0 1
-23.498167 -22.719778 -9.657646 34.082581 0.768558 1.858092 0.105975 -0.019423 163152.000000 0 0 1
-23.155267 -21.399278 -10.073746 33.099484 0.746006 1.880050 0.113736 -0.019045 627983.000000 0 0 1
-24.417067 -20.485578 -10.276146 33.488076 0.698065 1.882688 0.131618 -0.012818 790942.000000 0 0 1
-25.182147 -20.869478 -11.467046 34.657882 0.692022 1.908015 0.124525 -0.005023 1237710.000000 0 0 1
-26.373987 -20.102178 -11.740346 35.178409 0.651262 1.911062 0.109736 -0.003512 514581.000000 0 0 1
-26.380987 -18.589178 -11.851846 34.379940 0.613835 1.922749 0.117941 -0.018920 -155507.000000 0 0 1
-25.474297 -18.091178 -12.910146 33.806840 0.617521 1.962626 0.144117 -0.009468 1272640.000000 0 0 1
-25.193257 -16.722378 -12.930046 32.886536 0.585990 1.974875 0.123302 -0.028553 -136904.000000 0 0 1
-24.529367 -16.026978 -11.700846 31.550970 0.578747 1.950726 0.124345 -0.027551 -23611.600000 0 0 1
-25.411647 -15.854578 -10.573446 31.763457 0.557815 1.910153 0.144569 -0.034079 553526.000000 0 0 1
-24.736767 -16.070878 -9.378046 30.953651 0.576147 1.878605 0.151191 -0.039866 44909.900000 0 0 1
-25.734417 -16.434578 -8.246046 31.628355 0.568335 1.834561 0.151263 -0.050035 260731.000000 0 0 1
-25.865057 -17.875678 -8.091546 32.465584 0.604737 1.822686 0.136424 -0.038834 -145221.000000 0 0 1
-26.802277 -18.219578 -7.116246 33.180658 0.597024 1.786945 0.146024 -0.034025 -113001.000000 0 0 1
-27.298957 -19.699578 -7.190346 34.423938 0.625092 1.781222 0.146365 -0.030830 157970.000000 0 0 1
-28.051137 -20.002078 -8.373646 35.455146 0.619436 1.809225 0.145244 -0.028253 227095.000000 0 0 1
-28.533427 -21.348478 -8.411646 36.615158 0.642343 1.802598 0.148936 -0.019456 -53326.200000 0 0 1
-27.506847 -22.467778 -8.740146 36.576192 0.684905 1.812088 0.123882 -0.014436 -124776.000000 0 0 1
-27.806667 -23.709578 -8.222946 37.456264 0.706035 1.792134 0.146199 -0.010497 180482.000000 0 0 1
-26.876377 -24.702378 -8.710946 37.529025 0.743274 1.805045 0.122933 0.001437 535257.000000 0 0 1
-27.381877 -26.127958 -8.366346 38.761232 0.761969 1.788352 0.155330 -0.009545 94399.800000 0 0 1
-27.241737 -26.513918 -7.025046 38.658135 0.771860 1.753534 0.184539 -0.031995 76503.900000 0 0 1
-27.521857 -27.867418 -6.793146 39.751635 0.791637 1.742529 0.185581 -0.029766 -142211.000000 0 0 1
-27.484377 -28.051258 -5.264346 39.622940 0.795605 1.704051 0.215124 -0.046376 -791051.000000 0 0 1
-28.597337 -27.634688 -4.552546 40.027607 0.768281 1.684778 0.178116 -0.043729 -519482.000000 0 0 1
-28.475727 -27.933328 -3.184746 40.016003 0.775783 1.650467 0.184453 -0.045828 31091.300000 0 0 1
-29.077417 -29.301998 -2.794446 41.375261 0.789245 1.638387 0.153501 -0.026156 -343340.000000 0 0 1
-28.258117 -30.303388 -3.388746 41.572829 0.820309 1.652400 0.204591 -0.050787 206535.000000 0 0 1
-28.003237 -31.451138 -2.593846 42.191035 0.843326 1.632314 0.191297 -0.053446 -158463.000000 0 0 1
-26.950507 -31.229278 -1.495346 41.277521 0.858810 1.607031 0.205759 -0.056471 1168350.000000 0 0 1
-25.621847 -30.841758 -1.987746 40.145289 0.877583 1.620330 0.224970 -0.069212 1426940.000000 0 0 1
-24.710667 -30.840258 -0.906446 39.529233 0.895295 1.593729 0.253077 -0.045868 740904.000000 0 0 1
-23.614467 -29.702178 -0.943346 37.957244 0.899086 1.595652 0.259190 -0.040929 581172.000000 0 0 1
-24.099967 -28.408558 -0.751646 37.261502 0.867270 1.590970 0.234361 -0.059458 -233085.000000 0 0 1
-24.563267 -27.777148 -1.935046 37.130425 0.846725 1.622935 0.258236 -0.069225 198735.000000 0 0 1
-25.199607 -26.375688 -1.683946 36.517568 0.808197 1.616926 0.166412 -0.047982 844804.000000 0 0 1
-26.504297 -26.347368 -1.084146 37.387658 0.782429 1.599798 0.190288 -0.052417 770690.000000 0 0 1
-27.102867 -25.054888 -0.896146 36.920400 0.746153 1.595071 0.184708 -0.083085 345543.000000 0 0 1
-26.719877 -24.365078 0.487754 36.164164 0.739335 1.557309 0.189141 -0.068300 -105636.000000 0 0 1
-27.166837 -25.009068 1.679954 36.963668 0.744066 1.525332 0.157435 -0.068612 -112559.000000 0 0 1
-26.968737 -24.269678 2.891254 36.396283 0.732770 1.491274 0.165669 -0.060035 176774.000000 0 0 1
-27.675117 -22.867378 3.178254 36.040677 0.690561 1.482496 0.170661 -0.061955 134295.000000 0 0 1
-27.212867 -21.872178 2.296154 34.988636 0.677020 1.505123 0.170170 -0.063481 476404.000000 0 0 1
-28.104347 -20.727278 2.300754 34.996683 0.635460 1.505007 0.136090 -0.061459 597758.000000 0 0 1
-27.706887 -19.631878 1.288254 33.981492 0.616445 1.532877 0.151680 -0.044685 -31945.300000 0 0 1
-26.540487 -19.034878 1.779454 32.709181 0.622178 1.516367 0.127459 -0.038787 -496716.000000 0 0 1
-26.047437 -17.979178 0.939054 31.663886 0.604151 1.541135 0.107992 -0.036493 1396480.000000 0 0 1
-24.534967 -17.618478 1.259454 30.231798 0.622768 1.529124 0.139578 -0.035808 836716.000000 0 0 1
-23.571967 -18.632178 1.029154 30.064179 0.668883 1.536558 0.148052 -0.044777 -318945.000000 0 0 1
-22.363267 -18.086078 1.512254 28.801195 0.680048 1.518266 0.145391 -0.037894 -113472.000000 0 0 1
-21.207767 -19.131578 1.403454 28.596439 0.733975 1.521699 0.133282 -0.048579 -124367.000000 0 0 1
-20.684567 -19.153878 0.079354 28.190932 0.746995 1.567981 0.079083 -0.032206 115322.000000 0 0 1
-19.763167 -20.212278 -0.032546 28.268711 0.796632 1.571948 0.116585 -0.030415 -164810.000000 0 0 1
-19.286667 -20.603778 -1.431946 28.258480 0.818404 1.621491 0.107557 -0.034923 19207.200000 0 0 1
-18.500267 -19.553878 -1.960046 26.989921 0.813078 1.643482 0.106977 -0.036518 3977.280000 0 0 1
-18.362267 -19.742478 -3.355846 27.169836 0.821604 1.694626 0.113653 -0.034207 -51782.700000 0 0 1
-17.536567 -18.696578 -4.119846 25.962788 0.817402 1.730153 0.121508 -0.025796 -177381.000000 0 0 1
-16.147367 -18.860578 -4.069546 25.159890 0.862746 1.733257 0.159642 -0.039723 -255179.000000 0 0 1
-15.482367 -18.268978 -5.154846 24.495544 0.867774 1.782822 0.151831 -0.028599 -45440.600000 0 1 0
-13.971067 -18.051478 -4.942546 23.355414 0.912138 1.784032 0.166293 -0.041758 74406.300000 0 1 0
-13.122067 -19.158278 -5.185246 23.793172 0.970257 1.790489 0.137476 -0.039589 129899.000000 0 1 0
-12.044367 -18.887578 -6.053746 23.204638 1.003126 1.834735 0.128539 -0.045479 373372.000000 0 1 0
-10.932967 -19.998278 -6.033946 23.576883 1.070494 1.829602 0.127006 -0.050320 396213.000000 0 1 0
-11.178967 -21.135378 -6.808946 24.860315 1.084280 1.848230 0.121586 -0.041037 144432.000000 0 1 0
-9.979067 -21.864378 -7.054446 25.047915 1.142627 1.856297 0.125348 -0.035130 493787.000000 0 0 1
-10.203667 -23.129878 -7.930446 26.495246 1.155329 1.874772 0.129638 -0.029054 -71097.300000 0 0 1
-10.749467 -22.860278 -9.203646 26.885878 1.131251 1.920184 0.124821 -0.029774 239084.000000 0 0 1
-10.505967 -23.998578 -10.078046 28.069095 1.158155 1.938040 0.149965 -0.025501 -169213.000000 0 0 1
-11.137967 -23.697578 -11.416246 28.565017 1.131432 1.981940 0.186384 -0.039264 -575220.000000 0 0 1
-10.517967 -22.715478 -12.186846 27.841333 1.137159 2.023863 0.158291 -0.028949 -296616.000000 0 0 1
-11.201767 -22.399778 -13.354146 28.382439 1.107082 2.060662 0.164469 -0.033614 -992919.000000 0 0 1
-10.659567 -21.147378 -14.049146 27.535731 1.103905 2.106231 0.127587 -0.016335 -282853.000000 0 0 1
-10.792067 -20.082278 -13.202846 26.345431 1.077684 2.095716 0.132007 -0.020537 183296.000000 0 0 1
-10.428667 -18.847378 -13.815646 25.590093 1.065406 2.141094 0.119281 -0.010519 -96503.400000 0 0 1
-10.455167 -17.674378 -12.815446 24.205987 1.036618 2.128728 0.122311 -0.005792 500400.000000 0 1 0
-11.783567 -17.320978 -12.382546 24.335081 0.973410 2.104628 0.148730 -0.016228 713253.000000 0 1 0
-11.853567 -16.155478 -11.540446 23.123331 0.937797 2.093336 0.158795 -0.019964 96452.600000 0 1 0
-11.650467 -14.779378 -12.238546 22.448729 0.903235 2.147397 0.165553 -0.010815 241152.000000 0 1 0
-12.784467 -14.394878 -12.973646 23.215741 0.844580 2.163770 0.159535 0.003548 316090.000000 0 1 0
-12.233967 -13.681878 -14.069346 23.125965 0.841210 2.224813 0.163776 -0.016349 898088.000000 0 1 0
-13.406067 -12.941478 -14.816346 23.806062 0.767767 2.242572 0.157211 -0.012489 555612.000000 0 1 0
-14.009867 -11.984478 -13.999446 23.149268 0.707639 2.220244 0.159790 -0.008199 171339.000000 0 1 0
-14.954467 -11.149878 -14.647746 23.717343 0.640672 2.236479 0.144160 -0.018375 7757.470000 0 1 0
-14.862267 -9.742978 -13.975246 22.607966 0.580268 2.237191 0.121821 -0.031502 -232583.000000 0 1 0
-13.692667 -9.008578 -14.201246 21.686840 0.581918 2.284757 0.098584 -0.021135 56832.200000 0 1 0
-13.571267 -8.404978 -15.502346 22.251869 0.554505 2.341550 0.096243 -0.028046 -468352.000000 0 1 0
-12.495967 -7.342278 -15.669346 21.344476 0.531231 2.395162 0.080607 -0.002708 -1340890.000000 0 1 0
-11.206367 -7.801978 -15.780646 20.868213 0.608177 2.428290 0.073402 -0.003200 -818067.000000 0 1 0
-10.340167 -6.663678 -15.725046 19.964988 0.572461 2.477751 0.051802 0.008115 288662.000000 0 1 0
11.755533 21.334722 15.870554 29.072967 1.067182 0.993349 0.142265 -0.037148 205015.000000 0 0 1
12.797433 21.641522 16.805154 30.241411 1.036771 0.981592 0.149068 -0.047258 405980.000000 0 0 1
13.219633 20.380122 17.334754 29.842951 0.995368 0.951004 0.144694 -0.046475 55469.900000 0 0 1
14.372233 20.532522 18.368854 31.073466 0.960088 0.938321 0.160460 -0.050532 1348690.000000 0 0 1
15.646933 20.846622 17.761654 31.541790 0.926928 0.972646 0.139865 -0.033086 864704.000000 0 0 1
16.785233 20.523022 18.518754 32.340110 0.885252 0.961092 0.146831 -0.046925 1268660.000000 0 0 1
18.190033 20.889622 17.886454 32.972395 0.854368 0.997425 0.124588 -0.034078 546357.000000 0 0 1
18.449133 22.299922 18.064354 34.117120 0.879618 1.012808 0.125376 -0.038893 -642599.000000 0 0 1
19.658933 22.781622 17.575754 34.847999 0.858844 1.042162 0.115629 -0.035076 538816.000000 0 0 1
20.878333 22.481922 18.560054 35.858293 0.822364 1.026759 0.105041 -0.034628 380825.000000 0 0 1
21.493533 21.234522 18.364854 35.357386 0.779336 1.024640 0.119670 -0.027351 1843300.000000 0 0 1
22.884033 21.181822 18.849554 36.436990 0.746789 1.027081 0.126423 -0.037635 2117600.000000 0 0 1
23.714633 19.938322 18.397954 36.033390 0.699105 1.034936 0.107765 -0.040825 200708.000000 0 0 1
24.017533 19.886422 17.026654 35.527716 0.691580 1.070996 0.108681 -0.051085 122313.000000 0 0 1
23.435333 18.720022 16.430854 34.199810 0.674006 1.069643 0.088171 -0.033359 -96861.700000 0 0 1
23.948733 17.314522 16.769854 33.978853 0.625985 1.054643 0.090626 -0.040572 244499.000000 0 0 1
25.274133 17.097622 16.303954 34.596667 0.594771 1.080080 0.111374 -0.050437 390462.000000 0 0 1
25.825933 15.877822 16.726454 34.624533 0.551232 1.066626 0.086079 -0.035859 -436426.000000 0 0 1
27.267033 15.567022 16.298054 35.375836 0.518755 1.092000 0.241344 -0.063338 -972197.000000 0 0 1
28.148633 16.560422 16.793454 36.723469 0.531787 1.095845 0.199278 -0.060978 360384.000000 0 0 1
29.361233 16.044422 17.313254 37.672991 0.500113 1.093289 0.187656 -0.063631 708882.000000 0 0 1
30.413233 15.349122 16.366954 37.794675 0.467389 1.122923 0.168112 -0.068851 -329493.000000 0 0 1
31.343033 16.263522 15.776054 38.675208 0.478644 1.150631 0.214922 -0.071943 1321280.000000 0 0 1
32.454433 15.574522 15.124554 39.046230 0.447430 1.173041 0.204016 -0.066577 1211540.000000 0 0 1
32.027733 14.935822 13.745454 37.918227 0.436359 1.199845 0.182674 -0.073514 -339448.000000 0 0 1
32.055233 15.979922 12.773954 38.027224 0.462457 1.228219 0.180371 -0.063704 -180390.000000 0 0 1
31.555933 15.616622 11.507654 37.041623 0.459549 1.254900 0.190697 -0.060027 1444130.000000 0 0 1
30.037333 16.105022 11.364854 35.927329 0.492161 1.248939 0.185383 -0.064866 1138450.000000 0 0 1
29.906333 17.540822 11.166654 36.424763 0.530453 1.259211 0.186442 -0.063494 -49084.000000 0 0 1
30.212333 18.414322 12.172454 37.417121 0.547373 1.239449 0.201978 -0.075018 -337976.000000 0 0 1
29.364633 18.292022 13.484854 37.131133 0.557107 1.199130 0.200494 -0.078359 672468.000000 0 0 1
28.127433 19.022622 13.390954 36.501099 0.594643 1.195160 0.208421 -0.064446 957719.000000 0 0 1
27.328833 18.991322 14.586054 36.335773 0.607308 1.157725 0.183735 -0.063330 166774.000000 0 0 1
27.849833 19.748722 15.859454 37.645019 0.616817 1.135930 0.162870 -0.059242 -135119.000000 0 0 1
27.828233 21.185022 15.685954 38.330991 0.650680 1.149193 0.140785 -0.054755 -117692.000000 0 0 1
26.597833 21.691622 16.132154 37.923839 0.684146 1.131411 0.116834 -0.047460 -315168.000000 0 0 1
26.465433 23.231222 16.067454 38.707517 0.720411 1.142745 0.114622 -0.036913 -135163.000000 0 0 1
26.247733 23.625522 14.756954 38.273704 0.732869 1.174978 0.147556 -0.049962 136718.000000 0 0 1
25.988433 24.998022 14.636454 38.916905 0.765976 1.185218 0.146986 -0.050998 -548318.000000 0 0 1
25.603933 25.477822 13.243354 38.471642 0.782929 1.219371 0.137841 -0.046650 330421.000000 0 0 1
24.350533 24.962622 12.800154 37.147340 0.797810 1.219007 0.123637 -0.040597 393284.000000 0 0 1
24.220133 25.198022 11.427754 36.771575 0.805184 1.254786 0.112715 -0.047365 -202433.000000 0 0 1
23.408433 24.132122 10.717454 35.287078 0.800620 1.262200 0.115246 -0.047435 -983918.000000 0 0 1
22.029733 24.176922 10.965054 34.497320 0.831834 1.247333 0.097318 -0.039559 -657496.000000 0 0 1
21.433433 22.954522 10.780154 33.204124 0.819653 1.240141 0.115942 -0.039734 -265700.000000 0 0 1
21.366633 22.245122 9.372954 32.237101 0.805539 1.275785 0.140513 -0.044259 -1178000.000000 0 0 1
20.226333 22.680222 8.730454 31.618315 0.842527 1.291041 0.133761 -0.038853 -758164.000000 0 0 1
20.497633 22.984722 7.374454 31.667538 0.842534 1.335767 0.118465 -0.044902 -692876.000000 0 0 1
19.368133 23.268422 6.415054 30.946679 0.876622 1.361989 0.117331 -0.042435 -967500.000000 0 0 1
18.725733 22.133522 5.819354 29.570437 0.868609 1.372707 0.117927 -0.031057 607372.000000 0 0 1
18.016433 22.348322 4.606454 29.073334 0.892308 1.411683 0.142891 -0.043467 -146773.000000 0 0 1
16.636633 23.026322 4.669154 28.788714 0.945125 1.407890 0.117602 -0.034479 -491437.000000 0 0 1
16.583133 24.414522 4.949154 29.925964 0.974145 1.404653 0.116699 -0.044808 639217.000000 0 0 1
15.277133 24.799222 5.386154 29.620987 1.018671 1.387943 0.114920 -0.043550 373871.000000 0 0 1
15.135633 26.326522 5.178554 30.805690 1.049022 1.401891 0.092881 -0.042580 -136548.000000 0 0 1
14.781533 26.532622 3.794354 30.608346 1.062512 1.446512 0.084009 -0.033963 432766.000000 0 0 1
14.606833 27.902922 3.488854 31.687611 1.088536 1.460471 0.078084 -0.030396 -293959.000000 0 0 1
14.245733 28.319322 2.031354 31.765568 1.104720 1.506804 0.085882 -0.030948 -29743.100000 0 0 1
15.209833 28.008722 1.034454 31.888832 1.073313 1.538351 0.101591 -0.035511 73576.300000 0 0 1
15.180033 26.651922 0.741354 30.680742 1.053055 1.546630 0.091476 -0.030843 241695.000000 0 0 1
16.084433 26.209222 -0.468346 30.754701 1.020369 1.586025 0.099540 -0.036602 453723.000000 0 0 1
15.815033 26.812222 -1.716546 31.176226 1.037878 1.625884 0.095615 -0.022888 367687.000000 0 0 1
16.927533 26.494522 -2.576646 31.545842 1.002259 1.652567 0.094338 -0.019461 730736.000000 0 0 1
16.816633 27.078222 -4.013446 32.126889 1.015050 1.696048 0.102462 -0.021569 -452892.000000 0 0 1
15.793833 26.428522 -4.725846 31.148765 1.032139 1.723103 0.131825 -0.029102 -392820.000000 0 0 1
15.654133 27.096022 -5.980846 31.859328 1.046914 1.759644 0.114490 -0.021930 -330493.000000 0 0 1
14.355933 26.633522 -6.611246 30.970080 1.076424 1.785924 0.127730 -0.040937 -419819.000000 0 0 1
14.267233 25.253922 -6.879646 29.810133 1.056547 1.803678 0.152620 -0.040844 674164.000000 0 0 1
13.023133 24.959522 -7.570046 29.152793 1.089885 1.833475 0.126480 -0.043471 1087400.000000 0 0 1
12.838733 23.401322 -7.785046 27.803990 1.069003 1.854588 0.151865 -0.044529 -96537.000000 0 0 1
13.427533 22.997922 -9.005946 28.112455 1.042330 1.896900 0.154808 -0.046200 -1266.060000 0 0 1
12.753833 21.902822 -9.617246 27.108768 1.043499 1.933459 0.162409 -0.038066 226550.000000 0 0 1
13.413933 21.307722 -10.943546 27.453849 1.008943 1.980804 0.158612 -0.032721 197501.000000 0 0 1
12.900633 19.987622 -11.302446 26.337742 0.997640 2.014331 0.177422 -0.042082 11644.800000 0 0 1
12.913433 19.803222 -12.688846 26.831533 0.992955 2.063385 0.160658 -0.034700 537567.000000 0 0 1
14.262233 19.369722 -13.339046 27.505046 0.936111 2.077122 0.157879 -0.030857 404850.000000 0 0 1
15.395733 20.158422 -13.072446 28.535582 0.918561 2.046665 0.131866 -0.026391 -316397.000000 0 0 1
16.567133 19.518222 -13.563246 28.972272 0.866997 2.057988 0.122632 -0.020836 489862.000000 0 0 1
17.800133 20.360822 -13.110746 30.054941 0.852400 2.022197 0.130393 -0.018515 -33986.700000 0 0 1
18.226633 21.491522 -13.823546 31.387674 0.867415 2.026855 0.110862 -0.020050 66717.600000 0 0 1
17.281033 22.548422 -13.726346 31.551197 0.916884 2.020890 0.110874 -0.023970 50799.300000 0 0 1
17.785133 23.946922 -14.179446 33.027605 0.931990 2.014537 0.109272 -0.026427 -141573.000000 0 0 1
17.851133 24.146622 -15.562446 33.821769 0.934191 2.048939 0.098544 -0.019409 -192025.000000 0 0 1
16.661433 24.410122 -16.294646 33.748673 0.971870 2.074672 0.102484 -0.017873 273674.000000 0 0 1
16.785233 24.267622 -17.818846 34.469883 0.965682 2.114068 0.089333 -0.009730 101429.000000 0 0 1
16.978133 22.959722 -18.317346 33.925374 0.934066 2.141151 0.106877 -0.007483 -256177.000000 0 0 1
16.835133 23.027222 -19.730846 34.684016 0.939503 2.175933 0.106180 -0.008030 -234790.000000 0 0 1
17.092533 21.740122 -20.508446 34.429405 0.904514 2.208892 0.103715 -0.001350 -4208.480000 0 0 1
15.976733 20.904022 -20.705146 33.480400 0.918212 2.237534 0.079241 0.011181 -39268.800000 0 0 1
16.410833 19.740322 -21.431946 33.441353 0.877238 2.266442 0.089445 0.009078 327447.000000 0 0 1
15.325033 18.634022 -21.646746 32.413964 0.882532 2.302075 0.083734 0.005697 -212086.000000 0 0 1
15.123933 17.805722 -20.501846 31.082194 0.866659 2.291084 0.088051 0.000153 188994.000000 0 0 1
14.598833 16.506722 -20.820946 30.316820 0.846657 2.327844 0.070245 -0.009719 -618540.000000 0 0 1
13.098933 16.471122 -21.075446 29.783457 0.898948 2.356924 0.080601 -0.014992 -1027030.000000 0 0 1
12.326033 16.385522 -19.885146 28.562834 0.925856 2.340872 0.066034 -0.006119 62829.200000 0 0 1
11.035833 16.910422 -20.181246 28.548812 0.992592 2.355907 0.078569 -0.013277 332918.000000 0 0 1
10.029833 16.577022 -19.037646 27.162974 1.026676 2.347409 0.102216 -0.026701 -425858.000000 0 0 1
9.540533 15.280622 -19.105046 26.258750 1.012661 2.385568 0.129476 -0.037302 -439042.000000 0 0 1
8.171533 15.057922 -18.954146 25.549455 1.073596 2.406638 0.134677 -0.025258 159704.000000 0 0 1
7.439333 15.334422 -17.585646 24.489653 1.119108 2.371843 0.136610 -0.028205 9857.100000 0 1 0
7.400033 16.686422 -17.262946 25.123823 1.153381 2.328307 0.147473 -0.030578 -374633.000000 0 0 1
6.774233 16.897522 -16.047646 24.268157 1.189514 2.293298 0.119842 -0.033582 -461384.000000 0 1 0
6.478733 18.328322 -15.633146 24.945874 1.231023 2.248085 0.093925 -0.027289 -292330.000000 0 1 0
7.598433 19.026722 -15.148246 25.479829 1.190845 2.207464 0.102368 -0.027432 -3846.650000 0 0 1
8.432533 19.541722 -16.189946 26.741370 1.163421 2.221099 0.121736 -0.026180 674730.000000 0 0 1
9.641733 20.474622 -15.789046 27.594694 1.130689 2.179954 0.125575 -0.016443 718900.000000 0 0 1
9.290133 21.625522 -15.039446 27.931250 1.165043 2.139387 0.111442 -0.021474 -90373.200000 0 0 1
8.904733 21.429322 -13.712146 26.954277 1.176966 2.104492 0.120161 -0.037400 -89012.700000 0 0 1
8.645633 22.738622 -12.863946 27.518594 1.207459 2.057216 0.119010 -0.034133 39531.500000 0 0 1
7.509833 23.536322 -13.179046 28.000773 1.261933 2.060843 0.094746 -0.027178 280558.000000 0 0 1
7.026133 24.426622 -12.130346 28.163304 1.290715 2.016081 0.090685 -0.026260 674374.000000 0 0 1
6.325033 23.773822 -10.892146 26.904266 1.310769 1.987609 0.074961 -0.030915 43138.600000 0 0 1
7.302933 23.375022 -9.953446 26.434742 1.267980 1.956843 0.074842 -0.027276 32446.300000 0 0 1
6.741633 22.645122 -8.917046 25.254007 1.281444 1.931673 0.085740 -0.040534 390904.000000 0 0 1
7.777433 22.514422 -7.751746 25.049496 1.238188 1.885418 0.081562 -0.046604 501206.000000 0 0 1
7.947333 23.778322 -7.057146 26.045576 1.248243 1.845180 0.070536 -0.039606 -414254.000000 0 0 1
9.035433 23.685322 -6.205346 26.098656 1.206358 1.810861 0.082088 -0.045633 -524845.000000 0 0 1
9.353933 24.930122 -5.407346 27.170691 1.211845 1.771148 0.058166 -0.037538 242247.000000 0 0 1
9.947433 25.902522 -6.307946 28.454916 1.204130 1.794336 0.075499 -0.033023 77541.000000 0 0 1
10.172933 27.162122 -5.638646 29.547652 1.212441 1.762806 0.064873 -0.028512 231073.000000 0 0 1
10.461333 28.378922 -6.564046 30.949788 1.217622 1.784506 0.068453 -0.023133 -846717.000000 0 0 1
11.598433 28.262822 -7.298346 31.409817 1.181376 1.805298 0.088185 -0.031896 -1342490.000000 0 0 1
11.748233 29.447722 -8.094246 32.721646 1.191194 1.820758 0.087804 -0.024729 -143066.000000 0 0 1
13.118933 29.577222 -8.760246 33.521044 1.153320 1.835202 0.091443 -0.025985 376589.000000 0 0 1
14.278533 29.466822 -7.938546 33.692590 1.119574 1.808650 0.083043 -0.018099 446643.000000 0 0 1
15.413233 29.992122 -8.639546 34.810011 1.096083 1.821609 0.075401 -0.016695 1142370.000000 0 0 1
16.594433 30.490722 -7.733146 35.564883 1.072382 1.789985 0.069884 -0.014359 652060.000000 0 0 1
17.530033 29.513522 -7.364346 35.108170 1.034825 1.782127 0.075305 -0.015409 321278.000000 0 0 1
18.709433 30.045722 -6.738846 36.030547 1.013854 1.758936 0.061759 -0.008363 910830.000000 0 0 1
19.750633 28.950922 -6.359046 35.618546 0.972109 1.750290 0.061698 -0.011164 -64715.700000 0 0 1
19.418233 28.031822 -5.321346 34.513295 0.964972 1.725596 0.083089 -0.014295 -666334.000000 0 0 1
20.525533 27.265022 -4.970346 34.487436 0.925496 1.715420 0.076753 -0.014595 -403671.000000 0 0 1
20.860933 26.001522 -5.813246 33.838610 0.894657 1.743446 0.088988 -0.012011 389297.000000 0 0 1
21.543733 26.290122 -7.095346 34.722426 0.884301 1.776591 0.073060 -0.008243 744830.000000 0 0 1
21.348833 25.167822 -7.950046 33.946946 0.867314 1.807182 0.082555 -0.021010 -591794.000000 0 0 1
21.866833 25.510122 -9.375346 34.882973 0.862147 1.842908 0.083084 -0.020398 2217880.000000 0 0 1
23.324733 25.614322 -9.568146 35.940034 0.832149 1.840271 0.075330 -0.011988 1850090.000000 0 0 1
24.037733 24.428622 -9.536946 35.574197 0.793463 1.842202 0.081805 -0.012019 -115025.000000 0 0 1
25.575133 24.675622 -9.607246 36.814032 0.767500 1.834820 0.038891 0.000912 261571.000000 0 0 1
26.157933 25.195122 -10.763846 37.879968 0.766652 1.858923 0.047494 -0.002781 93572.500000 0 0 1
27.524333 25.459922 -10.452846 38.923753 0.746455 1.842680 0.037859 0.008091 459734.000000 0 0 1
28.437033 25.594422 -11.675546 40.000721 0.732836 1.866992 0.059613 -0.001145 701.940000 0 0 1
28.345533 26.833122 -12.309446 40.926863 0.757996 1.876293 0.056520 0.002048 -90115.400000 0 0 1
29.257433 26.840822 -13.390146 41.901350 0.742347 1.896065 0.070369 0.009683 262965.000000 0 0 1
29.051733 28.004922 -14.346846 42.826520 0.767053 1.912401 0.085460 -0.006749 231869.000000 0 0 1
29.697533 29.175722 -13.854046 43.875971 0.776535 1.892048 0.084023 -0.016716 23461.600000 0 0 1
29.786233 30.068122 -14.991846 44.900636 0.790108 1.911223 0.100373 -0.009225 -68755.600000 0 0 1
30.163333 31.520122 -14.729246 46.046666 0.807391 1.896395 0.092024 -0.016327 513400.000000 0 0 1
31.564533 31.602722 -14.470546 46.951555 0.786003 1.884098 0.095048 -0.020730 592419.000000 0 0 1
31.978833 32.960422 -14.426546 48.136892 0.800513 1.875173 0.104509 -0.021205 -170152.000000 0 0 1
17.027633 -31.489749 -27.818743 45.336818 -1.075094 2.231410 0.107990 -0.051165 430218.000000 0 0 1
18.245133 -32.149149 -27.450923 46.043521 -1.054605 2.209550 0.084064 -0.033550 643465.000000 0 0 1
18.601433 -31.821249 -26.130343 45.181855 -1.041807 2.187485 0.084582 -0.039072 -480951.000000 0 0 1
19.875933 -32.504549 -25.591103 45.896655 -1.021977 2.162265 0.015143 -0.025482 908173.000000 0 0 1
21.126233 -31.925049 -26.034893 46.296243 -0.986209 2.168027 0.043401 -0.030708 1165090.000000 0 0 1
21.580133 -32.356349 -27.328183 47.533831 -0.982596 2.183304 0.061022 -0.029529 32780.500000 0 0 1
23.023033 -31.882949 -27.686383 48.094888 -0.945384 2.184209 0.076274 -0.025032 353473.000000 0 0 1
23.158833 -30.478549 -27.828823 47.325647 -0.921027 2.199415 0.077989 -0.046111 -55324.700000 0 0 1
24.490533 -30.212249 -27.452183 47.604501 -0.889616 2.185446 0.049189 -0.027775 -298655.000000 0 0 1
25.077133 -28.980849 -28.207413 47.585821 -0.857487 2.205289 0.031462 -0.016230 -9759.630000 0 0 1
25.299933 -29.304149 -29.581203 48.722349 -0.858599 2.223250 0.028764 -0.024508 -481536.000000 0 0 1
26.049333 -28.378349 -30.241443 48.973904 -0.828163 2.236358 0.030756 -0.030886 -336633.000000 0 0 1
26.291233 -28.791349 -31.697583 50.248457 -0.830756 2.253402 0.040548 -0.020502 24097.900000 0 0 1
27.104733 -29.934349 -31.838403 51.423883 -0.834966 2.238439 0.044269 -0.029800 -200029.000000 0 0 1
27.385833 -30.174349 -33.201953 52.562771 -0.833806 2.254493 0.041973 -0.035617 -314989.000000 0 0 1
28.645333 -31.014949 -33.416143 53.843484 -0.825096 2.240325 0.040307 -0.038051 793974.000000 0 0 1
29.869933 -30.247049 -33.306033 54.003599 -0.791671 2.235387 0.053278 -0.038705 1390320.000000 0 0 1
31.006833 -31.012349 33.589634 55.239958 -0.785487 0.917172 0.060422 -0.031115 389948.000000 0 0 1
32.254833 -30.203349 33.335754 55.352408 -0.752564 0.924485 0.076111 -0.035908 -594132.000000 0 0 1
32.317633 -29.501649 32.141592 54.294186 -0.739878 0.937271 0.082697 -0.029248 -307680.000000 0 0 1
33.471433 -28.697849 32.161140 54.573275 -0.708765 0.940579 0.088502 -0.034987 -140396.000000 0 0 1
33.681933 -27.983049 30.816794 53.546227 -0.693243 0.957559 0.083226 -0.029362 280298.000000 0 0 1
34.715233 -26.959449 30.966774 53.767094 -0.660302 0.957039 0.099010 -0.034798 918070.000000 0 0 1
34.830933 -26.046149 29.887324 52.771658 -0.642084 0.968724 0.087905 -0.031431 -349596.000000 0 0 1
35.469833 -26.475149 28.496644 52.641251 -0.641202 0.998770 0.091360 -0.024089 24493.100000 0 0 1
34.838833 -27.491849 27.708794 52.319435 -0.668068 1.012658 0.070753 -0.026108 576088.000000 0 0 1
33.699633 -27.075649 26.965004 50.949656 -0.676835 1.013082 0.083118 -0.024192 -45313.900000 0 0 1
33.141733 -28.139149 26.029414 50.672641 -0.703945 1.031330 0.072709 -0.017201 442044.000000 0 0 1
31.919233 -27.672349 25.440224 49.313298 -0.714252 1.028750 0.079415 -0.010058 418471.000000 0 0 1
31.195233 -28.747949 24.908584 49.193746 -0.744594 1.039865 0.068154 -0.003644 -585774.000000 0 0 1
29.888033 -28.339449 24.246724 47.794587 -0.758809 1.038735 0.075315 0.004201 -1058840.000000 0 0 1
28.841533 -28.209549 25.137474 47.534254 -0.774321 1.013577 0.079494 -0.002872 -1129710.000000 0 0 1
27.680133 -27.918349 24.418854 46.280713 -0.789683 1.014994 0.086854 0.001042 -116923.000000 0 0 1
26.414833 -27.828149 25.301464 45.959910 -0.811448 0.987819 0.098925 -0.003107 -18834.800000 0 0 1
26.538633 -26.718449 26.160614 45.853596 -0.788775 0.963652 0.091115 -0.010317 -549496.000000 0 0 1
25.408833 -26.703349 26.949924 45.661538 -0.810234 0.939477 0.094947 -0.022001 -798419.000000 0 0 1
25.317733 -25.627249 27.988214 45.618895 -0.791474 0.910283 0.091322 -0.023766 -786054.000000 0 0 1
24.074833 -25.584549 28.603944 45.302895 -0.815790 0.887448 0.087889 -0.020132 -388419.000000 0 0 1
24.096033 -24.671249 29.692964 45.507817 -0.797193 0.859943 0.083514 -0.020576 -6256.850000 0 0 1
23.576033 -23.188349 29.455024 44.284617 -0.777108 0.843129 0.084170 -0.014687 -62247.400000 0 0 1
24.337433 -22.540749 28.424054 43.684355 -0.747090 0.862331 0.096673 -0.016811 529831.000000 0 0 1
23.818033 -21.254049 28.024594 42.478361 -0.728573 0.850326 0.102775 -0.015923 -2781.920000 0 0 1
24.399433 -20.027649 28.740894 42.690491 -0.687310 0.832216 0.100263 -0.012058 -35481.500000 0 0 1
24.276233 -20.119949 30.116624 43.602281 -0.692052 0.808323 0.093805 -0.012346 -45370.100000 0 0 1
24.938233 -19.067549 30.741604 43.937832 -0.652774 0.795873 0.082806 -0.012051 -303612.000000 0 0 1
24.436433 -18.727549 32.152219 44.515453 -0.653901 0.763716 0.091421 -0.008332 -879.986000 0 0 1
24.938733 -19.606349 33.174415 45.900884 -0.666258 0.763037 0.073732 -0.002326 199247.000000 0 0 1
24.298233 -19.352749 -32.973273 45.300880 -0.672583 2.386011 0.083689 -0.001340 -72387.900000 0 0 1
24.222033 -20.552949 -32.045353 45.122447 -0.703636 2.360559 0.042360 0.006971 -171784.000000 0 0 1
25.463633 -20.945549 -31.526843 45.618576 -0.688351 2.333802 0.015994 0.015990 -301830.000000 0 0 1
25.268133 -21.908449 -30.510583 45.269795 -0.714303 2.310369 0.023056 -0.000659 -150239.000000 0 0 1
26.526533 -22.262649 -29.716643 45.632898 -0.698226 2.279975 0.030258 0.009127 147014.000000 0 0 1
27.526133 -22.971449 -30.462763 47.046311 -0.695446 2.275103 0.022523 0.013764 381013.000000 0 0 1
28.488933 -23.462549 -29.509053 47.253515 -0.688947 2.245267 0.043534 -0.004250 995026.000000 0 0 1
29.638633 -24.314749 -30.224813 48.817977 -0.687041 2.238434 0.052461 -0.012668 992275.000000 0 0 1
30.643233 -23.582949 -30.953173 49.530416 -0.655926 2.245842 0.054832 -0.008950 488482.000000 0 0 1
30.441833 -23.370549 -32.359613 50.199923 -0.654741 2.271316 0.042484 -0.006260 -85738.400000 0 0 1
30.613133 -24.648949 -33.202733 51.450521 -0.677889 2.272256 0.040339 -0.005541 -236111.000000 0 0 1
29.477933 -25.474649 -33.097193 51.120744 -0.712677 2.275006 0.046587 -0.017551 -133978.000000 0 0 1
29.565533 -26.704349 33.570424 52.098142 -0.734594 0.870599 0.054731 -0.027085 -231841.000000 0 0 1
29.242733 -26.569749 32.054103 50.877839 -0.737543 0.889216 0.052692 -0.035870 -724321.000000 0 0 1
30.195733 -25.982149 31.230524 50.618178 -0.710534 0.905894 0.041594 -0.030689 -436927.000000 0 0 1
29.910633 -26.081549 29.862534 49.665522 -0.717118 0.925703 0.047065 -0.025619 -632966.000000 0 0 1
31.131533 -25.585949 29.089824 49.699406 -0.687932 0.945527 0.057441 -0.019500 -480584.000000 0 0 1
31.416233 -24.198649 29.124304 49.201416 -0.656342 0.937332 0.060093 -0.022538 316216.000000 0 0 1
31.775633 -23.607149 30.415054 49.920575 -0.638963 0.915658 0.056242 -0.015899 -1869510.000000 0 0 1
32.177233 -22.153849 30.274854 49.424024 -0.602962 0.911509 0.052419 -0.015829 1004720.000000 0 0 1
33.461233 -21.903449 29.658514 49.789985 -0.579596 0.932694 0.073093 -0.029447 1332460.000000 0 0 1
34.546533 -22.404349 30.462454 51.218931 -0.575339 0.933842 0.069876 -0.025346 -1011530.000000 0 0 1
35.910533 -21.778249 30.166814 51.709720 -0.545155 0.947903 0.070442 -0.027680 -255366.000000 0 0 1
36.408533 -22.147049 28.891054 51.485591 -0.546495 0.975024 0.085731 -0.037684 -25209.300000 0 0 1
37.669733 -21.564949 28.661894 52.014997 -0.519934 0.987197 0.078525 -0.037944 422977.000000 0 0 1
-37.652106 -21.871849 27.222984 51.353186 0.526252 1.012063 0.092654 -0.037335 193737.000000 0 0 1
-37.533606 -23.222049 26.934434 51.705888 0.554056 1.022872 0.095433 -0.028380 40923.100000 0 0 1
-37.075906 -23.505049 25.652824 50.844641 0.565024 1.041955 0.078810 -0.020886 -24648.300000 0 0 1
-36.852506 -25.081949 25.607934 51.409899 0.597589 1.049375 0.075736 -0.026234 140440.000000 0 0 1
37.917033 -25.806949 25.709024 52.579976 -0.597598 1.059910 0.081927 -0.022318 120400.000000 0 0 1
-37.988706 -27.247349 25.436154 53.221779 0.622209 1.072502 0.076518 -0.015181 851891.000000 0 0 1
-36.788606 -28.017349 26.159744 53.129141 0.650869 1.055974 0.070332 -0.021030 -253588.000000 0 0 1
-36.565106 -29.308049 25.667794 53.430370 0.675674 1.069689 0.071909 -0.018303 456956.000000 0 0 1
-35.384406 -29.975549 26.103534 53.216391 0.702831 1.058114 0.068103 -0.032493 5811.060000 0 0 1
-34.060906 -29.302249 25.790334 51.806452 0.710438 1.049712 0.065486 -0.030463 -1777050.000000 0 0 1
-33.537906 -29.508549 24.494414 50.946265 0.721574 1.069242 0.064896 -0.030496 1136680.000000 0 0 1
-32.263006 -28.801749 24.452134 49.682484 0.728777 1.056218 0.041143 -0.023875 1012540.000000 0 0 1
-31.658206 -28.832449 23.008014 48.609884 0.738718 1.077741 0.049174 -0.023217 -230672.000000 0 0 1
-31.261706 -30.126249 22.561014 48.927339 0.766904 1.091548 0.065261 -0.026930 361272.000000 0 0 1
-30.771306 -30.093549 21.265754 48.007575 0.774263 1.111891 0.061032 -0.019712 -899982.000000 0 0 1
-30.754106 -31.545049 20.708554 48.680072 0.798093 1.131391 0.089410 -0.017278 514096.000000 0 0 1
-29.833406 -32.541049 21.197554 48.972322 0.828780 1.123147 0.083756 -0.034101 -9196.620000 0 0 1
-28.467306 -32.287949 21.008454 47.898375 0.848201 1.116751 0.110808 -0.028968 -514661.000000 0 0 1
-27.686106 -33.635149 21.091554 48.401419 0.882110 1.119910 0.114934 -0.020998 -213892.000000 0 0 1
-27.860906 33.133622 19.895754 47.643552 -0.871630 1.139998 0.105500 -0.020747 78618.500000 0 0 1
-29.062106 32.391322 19.814654 47.816569 -0.839520 1.143525 0.114638 -0.012575 158327.000000 0 0 1
-29.218106 31.183922 20.846854 47.547093 -0.817932 1.116927 0.121663 -0.014896 55440.600000 0 0 1
-28.108906 30.327222 20.633554 46.212493 -0.823341 1.107954 0.114156 -0.018221 338771.000000 0 0 1
-28.163306 29.193722 21.470454 45.895812 -0.803361 1.083987 0.119742 -0.024410 -446421.000000 0 0 1
-27.133406 28.192422 21.062954 44.437399 -0.804537 1.076978 0.105246 -0.020774 -458365.000000 0 0 1
-25.770106 28.395022 21.368154 43.897308 -0.833822 1.062401 0.094786 -0.024649 -348821.000000 0 0 1
-24.997006 27.519822 20.626154 42.516222 -0.833399 1.064278 0.086774 -0.022448 -556619.000000 0 0 1
-23.553806 28.072422 20.582054 42.029318 -0.872701 1.059043 0.064294 -0.018878 -165106.000000 0 0 1
-22.936206 27.823822 21.858054 42.166446 -0.881391 1.025846 0.071504 -0.019465 209811.000000 0 0 1
-21.612306 28.301322 21.871254 41.790051 -0.918616 1.020007 0.068609 -0.022673 -170370.000000 0 0 1
-21.067206 28.390522 23.318904 42.351153 -0.932402 0.987703 0.066290 -0.021441 -585784.000000 0 0 1
-21.028506 27.162022 24.034694 41.924217 -0.911994 0.960282 0.072476 -0.027675 285915.000000 0 0 1
-20.715506 27.273022 25.418274 42.650188 -0.921205 0.932322 0.074194 -0.026926 572779.000000 0 0 1
-19.254606 27.701522 25.813494 42.478826 -0.963384 0.917661 0.094967 -0.022987 -18590.100000 0 0 1
-18.905006 29.033422 25.431804 42.978081 -0.993616 0.937582 0.066195 -0.019631 1822980.000000 0 0 1
-17.523206 29.391822 25.808714 42.860607 -1.033181 0.924599 0.077350 -0.014351 1660380.000000 0 0 1
-17.350006 29.650622 27.339944 43.905064 -1.041369 0.898600 0.066270 -0.007640 -525361.000000 0 0 1
-17.363706 28.436322 28.105014 43.589156 -1.022607 0.870073 0.070727 -0.011190 59709.600000 0 0 1
-17.663406 28.714622 29.402664 44.733009 -1.019321 0.853576 0.068005 -0.002881 -204316.000000 0 0 1
-17.414806 27.513222 30.359004 44.518782 -1.006492 0.820389 0.066317 0.000729 1277760.000000 0 0 1
-15.994606 27.348922 30.635524 44.071831 -1.041602 0.802200 0.066783 0.001060 1455240.000000 0 0 1
-15.603906 26.340022 31.568102 43.975262 -1.035982 0.770072 0.081973 -0.000312 -193488.000000 0 0 1
-15.997306 26.468122 33.064125 45.273741 -1.027149 0.752012 0.085562 0.001693 797375.000000 0 0 1
-17.381206 26.145322 33.292784 45.761268 -0.984093 0.756079 0.079756 0.002734 644905.000000 0 0 1
-17.992406 26.842622 -33.035323 46.212396 -0.980288 2.367218 0.071601 0.004131 252626.000000 0 0 1
-19.318306 26.171722 -32.595833 46.050454 -0.934931 2.357216 0.057945 0.007908 128352.000000 0 0 1
-20.405706 26.272822 -33.468553 47.188961 -0.910434 2.359224 0.061135 0.003743 -346138.000000 0 0 1
-21.594006 25.775322 -32.892383 47.038039 -0.873441 2.345175 0.078841 -0.002979 -55485.000000 0 0 1
-22.785706 25.839222 33.506654 48.057774 -0.848113 0.799290 0.103649 -0.024252 -359099.000000 0 0 1
-22.656006 24.851422 32.460375 46.739317 -0.831577 0.803074 0.101268 -0.017961 68083.300000 0 0 1
-23.000306 23.544022 32.825747 46.485102 -0.797079 0.786741 0.086262 -0.019540 -263156.000000 0 0 1
-23.210306 22.587622 31.649957 45.283979 -0.771803 0.796908 0.095366 -0.021759 -891234.000000 0 0 1
-24.486906 22.632422 31.133714 45.619549 -0.746061 0.819667 0.111086 -0.028674 -976045.000000 0 0 1
-24.743606 21.779322 30.017074 44.582616 -0.721768 0.832145 0.115017 -0.024600 1163220.000000 0 0 1
-26.292006 21.738022 29.700934 45.232252 -0.690865 0.854452 0.109687 -0.026701 938979.000000 0 0 1
-26.974706 20.649522 30.286664 45.511752 -0.653357 0.842674 0.117012 -0.036617 -496335.000000 0 0 1
-28.287206 20.652122 29.801154 45.986791 -0.630635 0.865792 0.123427 -0.035022 -660834.000000 0 0 1
-28.945006 19.316722 30.118134 46.022289 -0.588482 0.857374 0.139955 -0.037432 -364463.000000 0 0 1
-29.468806 19.173122 31.468705 47.183668 -0.576814 0.840701 0.137852 -0.036732 221772.000000 0 0 1
-29.629506 17.855622 31.970070 47.104312 -0.542351 0.824794 0.117195 -0.023948 27157.000000 0 0 1
-30.478106 16.803422 31.202964 46.742859 -0.503862 0.839890 0.091269 -0.020615 808474.000000 0 0 1
-31.881906 17.118322 31.238884 47.805447 -0.492753 0.858652 0.084526 -0.022616 654960.000000 0 0 1
-32.612506 16.115322 30.520304 47.484398 -0.458953 0.872722 0.090099 -0.002862 1521760.000000 0 0 1
-34.172906 16.437122 30.536844 48.687425 -0.448331 0.892841 0.077462 -0.003809 1317970.000000 0 0 1
-34.748106 16.329522 31.851169 49.885680 -0.439312 0.878270 0.084816 -0.004032 1376450.000000 0 0 1
-36.174406 16.531122 31.881635 50.973565 -0.428647 0.895083 0.088584 -0.009869 890355.000000 0 0 1
-36.796806 16.528722 33.282864 52.296774 -0.422179 0.880945 0.085782 -0.016458 -81176.700000 0 0 1
37.883533 17.079022 33.343834 53.279136 0.423544 0.894597 0.069048 -0.015657 52966.800000 0 0 1
37.551233 17.481722 -32.735303 52.794940 0.435704 2.239598 0.076571 -0.024777 -779910.000000 0 0 1
36.051333 17.628722 -32.651313 51.735661 0.454800 2.253790 0.068577 -0.030585 -712397.000000 0 0 1
35.291133 16.432922 -32.604763 50.779676 0.435783 2.268008 0.078587 -0.023201 129996.000000 0 0 1
34.048733 16.641022 -31.973393 49.583643 0.454600 2.271607 0.087187 -0.023403 -358848.000000 0 0 1
33.058133 15.501222 -31.896613 48.482181 0.438466 2.288828 0.096054 -0.017490 -101501.000000 0 0 1
32.331333 15.275022 -33.106273 48.730552 0.441368 2.317706 0.099538 -0.024378 -237814.000000 0 0 1
31.655833 14.054922 -33.152853 47.945221 0.417846 2.334323 0.095980 -0.024759 -25531.100000 0 0 1
32.517433 12.767922 -33.322253 48.278109 0.374153 2.332582 0.100419 -0.017670 229702.000000 0 0 1
33.138333 12.304922 -32.122483 47.764151 0.355540 2.308409 0.096263 -0.016355 -218771.000000 0 0 1
34.005633 11.258122 -32.382663 48.288355 0.319709 2.305827 0.105248 -0.015182 -491847.000000 0 0 1
18.727033 -20.788178 9.697387 29.612319 -0.837512 1.237163 0.068668 -0.035977 109820.000000 0 0 1
18.589333 -22.027878 10.362687 30.629659 -0.869854 1.225663 0.054414 -0.034585 -76999.200000 0 0 1
19.834433 -22.657778 10.486887 31.886587 -0.851744 1.235678 0.055814 -0.036307 -585841.000000 0 0 1
19.724133 -24.009278 11.177987 33.021724 -0.883070 1.225470 0.063621 -0.025906 96844.700000 0 0 1
18.921733 -25.057628 10.621487 33.147137 -0.924021 1.244608 0.050693 -0.031041 756152.000000 0 0 1
17.569133 -24.990358 11.087287 32.498006 -0.958035 1.222637 0.053949 -0.024193 808971.000000 0 0 1
16.494033 -25.844988 10.333587 32.354282 -1.002768 1.245712 0.068402 -0.024270 398490.000000 0 0 1
16.339733 -25.357088 9.030587 31.488415 -0.998378 1.279921 0.063800 -0.033419 -205210.000000 0 0 1
15.389633 -26.083338 8.317187 31.406320 -1.037749 1.302774 0.074792 -0.020842 -385075.000000 0 0 1
15.144933 -25.587718 6.894587 30.522707 -1.036367 1.342946 0.075400 -0.020336 80675.100000 0 0 1
14.278033 -24.446978 6.831987 29.123753 -1.042194 1.334005 0.082830 -0.030036 335983.000000 0 0 1
14.040333 -23.951678 5.531287 28.309168 -1.040590 1.374143 0.103489 -0.017473 267273.000000 0 0 1
13.005833 -22.781778 5.674887 26.839625 -1.052058 1.357751 0.129924 -0.029429 17122.800000 0 0 1
12.657633 -22.102778 4.451687 25.856643 -1.050714 1.397766 0.130946 -0.031128 3354.760000 0 0 1
11.747133 -21.085878 4.784687 24.606963 -1.062512 1.375105 0.143444 -0.033234 358841.000000 0 1 0
10.728833 -20.570278 3.711887 23.495155 -1.090042 1.412146 0.124004 -0.031174 473599.000000 0 1 0
11.378033 -19.695278 2.801187 22.917466 -1.046933 1.448261 0.112417 -0.030244 -65437.800000 0 1 0
10.569133 -19.183378 1.780187 21.974477 -1.067222 1.489696 0.076660 -0.018764 139105.000000 0 1 0
11.425733 -18.806678 0.513287 22.011406 -1.024854 1.547475 0.071210 -0.013363 737533.000000 0 1 0
12.416833 -17.821178 0.854987 21.737137 -0.962258 1.531453 0.078686 -0.012063 65132.400000 0 1 0
13.093733 -17.463178 -0.282813 21.828614 -0.927429 1.583753 0.085664 -0.020368 -763358.000000 0 1 0
14.317233 -16.568478 -0.106913 21.897695 -0.858159 1.575679 0.078750 -0.007889 -309637.000000 0 1 0
15.416533 -17.251378 0.424087 23.139995 -0.841506 1.552468 0.093281 -0.013323 -566317.000000 0 1 0
16.605433 -16.528078 0.309387 23.431037 -0.783064 1.557592 0.091272 -0.018440 252390.000000 0 1 0
17.841133 -17.111678 1.077287 24.744213 -0.764531 1.527246 0.082318 -0.015317 518138.000000 0 1 0
18.386333 -18.269378 0.402787 25.922763 -0.782208 1.555258 0.080754 -0.017231 124333.000000 0 0 1
19.501533 -18.766578 1.102687 27.087085 -0.766195 1.530076 0.066715 -0.010942 63335.600000 0 0 1
19.813733 -20.133078 0.432087 28.250868 -0.793392 1.555501 0.047464 -0.006103 23651.600000 0 0 1
18.981333 -21.159078 0.946587 28.441055 -0.839598 1.537508 0.055390 -0.006399 163793.000000 0 0 1
19.062633 -22.350378 0.264287 29.376746 -0.864621 1.561800 0.055471 -0.003366 -419724.000000 0 0 1
17.996933 -23.327278 0.708687 29.471236 -0.913678 1.546747 0.061237 -0.005911 -303702.000000 0 0 1
18.265933 -23.940278 1.993787 30.178741 -0.919040 1.504682 0.049080 0.002083 -479826.000000 0 0 1
17.237633 -24.769478 2.396087 30.272170 -0.962812 1.491562 0.049304 0.001498 -720421.000000 0 0 1
17.589433 -25.561588 3.718787 31.250797 -0.968088 1.451516 0.041725 -0.008293 775200.000000 0 0 1
18.636333 -26.555948 3.631787 32.645385 -0.958879 1.459316 0.025541 0.000824 871920.000000 0 0 1
19.941033 -26.050198 3.875187 33.034447 -0.917458 1.453218 0.038943 0.006582 213488.000000 0 0 1
21.019833 -27.173468 3.986287 34.584986 -0.912397 1.455279 0.048950 0.002230 116392.000000 0 0 1
21.135633 -27.827278 2.723487 35.049818 -0.921224 1.493015 0.045300 0.010660 -147373.000000 0 0 1
21.967633 -28.951768 2.679487 36.441205 -0.921708 1.497201 0.074298 0.007386 121519.000000 0 0 1
21.233833 -30.278348 3.149287 37.115657 -0.959207 1.485844 0.067589 0.004081 157184.000000 0 0 1
21.373733 -30.506748 4.490687 37.518854 -0.959652 1.450817 0.093589 -0.000734 -184506.000000 0 0 1
20.693833 -31.687238 4.809387 38.150308 -0.992269 1.444396 0.078117 -0.015655 -266874.000000 0 0 1
20.594833 -32.096728 6.246287 38.644058 -1.000314 1.408448 0.091370 -0.024672 253436.000000 0 0 1
21.788333 -32.686858 6.764287 39.861231 -0.982855 1.400275 0.083503 -0.035861 299182.000000 0 0 1
21.547833 -33.433098 7.946887 40.561486 -0.998293 1.373599 0.072133 -0.031433 -90869.700000 0 0 1
22.766533 33.303516 8.367487 41.200171 0.971157 1.366280 0.097973 -0.038586 -527619.000000 0 0 1
23.776133 -33.550028 8.983087 42.090435 -0.954271 1.355718 0.097515 -0.035217 -1190280.000000 0 0 1
24.884233 33.197041 9.162987 42.487986 0.927556 1.353428 0.132038 -0.041748 -902764.000000 0 0 1
25.888833 -33.699918 10.107687 43.681592 -0.915738 1.337285 0.126308 -0.034698 -826412.000000 0 0 1
26.587633 -32.702628 9.413987 43.185498 -0.888171 1.351042 0.094266 -0.017753 -317299.000000 0 0 1
27.153733 -31.810428 10.312587 43.076420 -0.864210 1.329046 0.091270 -0.016888 61186.600000 0 0 1
28.010333 -30.761168 9.578087 42.691544 -0.832170 1.344515 0.076330 -0.017998 62724.400000 0 0 1
27.156233 -29.747608 9.119087 41.298171 -0.830906 1.348150 0.068837 -0.025230 101375.000000 0 0 1
27.699133 -29.061698 8.011187 40.939020 -0.809399 1.373840 0.073255 -0.025125 117462.000000 0 0 1
27.129333 -27.622698 7.903087 39.515477 -0.794409 1.369439 0.067278 -0.028092 55747.700000 0 0 1
27.537033 -26.782048 8.948187 39.441556 -0.771500 1.341932 0.060001 -0.029865 44483.500000 0 0 1
27.046833 -25.470638 8.791887 38.178290 -0.755394 1.338426 0.067583 -0.030113 -126414.000000 0 0 1
27.714233 -24.566278 9.815187 38.313426 -0.725258 1.311727 0.085258 -0.048857 -751637.000000 0 0 1
29.049233 -24.315878 9.577787 39.074977 -0.696932 1.323160 0.104161 -0.039770 -922196.000000 0 0 1
29.656833 -23.331278 10.458387 39.156789 -0.666584 1.300424 0.070772 -0.047256 846883.000000 0 0 1
31.196933 -23.155678 10.237287 40.177557 -0.638518 1.313154 0.073038 -0.044467 745493.000000 0 0 1
31.427533 -22.457578 9.051587 39.673213 -0.620446 1.340615 0.085414 -0.039968 311709.000000 0 0 1
32.815533 -22.444578 8.692987 40.696269 -0.599881 1.355531 0.094010 -0.042198 876226.000000 0 0 1
33.039433 -21.496178 7.481887 40.120673 -0.576812 1.383214 0.085773 -0.015098 -107016.000000 0 0 1
32.667533 -20.177178 7.708487 39.162571 -0.553298 1.372670 0.089554 -0.014178 -143863.000000 0 0 1
32.718133 -19.497078 6.464487 38.631617 -0.537407 1.402669 0.076065 -0.012263 -116221.000000 0 0 1
32.301233 -18.041878 6.500487 37.565081 -0.509384 1.396875 0.093839 -0.009728 83798.300000 0 0 1
33.117633 -17.217878 7.329487 38.038853 -0.479441 1.376899 0.101261 -0.013364 179821.000000 0 0 1
32.597233 -15.922578 7.470187 37.039327 -0.454376 1.367721 0.106401 -0.012710 105384.000000 0 0 1
33.249133 -15.189778 8.695087 37.574443 -0.428534 1.337270 0.103025 -0.038057 -720978.000000 0 0 1
34.595833 -14.952678 8.521687 38.640308 -0.407962 1.348429 0.108961 -0.040783 -1184870.000000 0 0 1
35.203633 -14.714478 9.776687 39.387755 -0.395911 1.319958 0.099715 -0.053050 842495.000000 0 0 1
36.770433 -14.766078 9.705987 40.795931 -0.381863 1.330577 0.100520 -0.060688 831127.000000 0 0 1
37.366033 -13.692078 8.973987 40.794924 -0.351237 1.349004 0.147533 -0.044413 561543.000000 0 0 1
-37.221006 -13.908778 8.770087 40.691176 0.357614 1.353564 0.138675 -0.047234 621681.000000 0 0 1
-36.643306 -13.020278 7.705387 39.643821 0.341411 1.375186 0.167186 -0.064287 -458972.000000 0 0 1
-37.077206 -13.173378 6.345587 39.856287 0.341385 1.410904 0.215590 -0.077730 283943.000000 0 0 1
-36.270806 -12.419778 5.422287 38.719807 0.329904 1.430295 0.244986 -0.065198 648205.000000 0 0 1
-34.937806 -13.115378 5.028987 37.655732 0.359114 1.436844 0.238052 -0.052190 -236282.000000 0 0 1
-33.998506 -13.342578 5.996087 37.011834 0.373977 1.408075 0.209711 -0.050908 -1035960.000000 0 0 1
-32.945406 -14.131178 5.562287 36.277114 0.405192 1.416861 0.199751 -0.026159 382141.000000 0 0 1
-32.084706 -14.802578 6.721087 35.968288 0.432260 1.382830 0.142271 -0.016460 903618.000000 0 0 1
-32.944206 -15.718078 7.369087 37.238181 0.445170 1.371591 0.122797 -0.029668 552452.000000 0 0 1
-32.349806 -16.067978 8.622787 37.135459 0.461000 1.336459 0.102828 -0.030246 456425.000000 0 0 1
-33.373306 -16.888778 9.468087 38.583067 0.468481 1.322869 0.058691 -0.019879 -607895.000000 0 0 1
-34.386506 -16.009978 9.923787 39.207560 0.435742 1.314904 0.073911 -0.020087 428789.000000 0 0 1
-35.283106 -16.577678 10.881487 40.473742 0.439236 1.298594 0.076240 -0.019703 479289.000000 0 0 1
-36.203806 -17.788878 10.510587 41.684916 0.456707 1.315901 0.083512 -0.027241 -562900.000000 0 0 1
-35.515706 -19.014278 10.306187 41.582757 0.491547 1.320338 0.100932 -0.022827 -199483.000000 0 0 1
-35.206506 -19.779078 11.412387 41.963706 0.511859 1.295369 0.101849 -0.031920 10342.300000 0 0 1
-36.419806 -20.548978 11.978487 43.498815 0.513699 1.291817 0.096105 -0.038352 137636.000000 0 0 1
-36.714006 -21.879478 11.539987 44.269641 0.537432 1.307075 0.120196 -0.042400 -48557.400000 0 0 1
37.903933 -22.181178 11.708787 45.451166 -0.529462 1.310246 0.117213 -0.043298 59037.200000 0 0 1
37.542233 -23.687878 11.564287 45.872296 -0.562878 1.315949 0.122230 -0.046487 -646921.000000 0 0 1
-37.850406 -24.469978 12.606087 46.801138 0.573905 1.298074 0.122982 -0.043517 270336.000000 0 0 1
37.642533 -25.789798 12.824187 47.397613 -0.600672 1.296815 0.118797 -0.047799 -517651.000000 0 0 1
36.184433 -25.945828 13.257287 46.457021 -0.622073 1.281407 0.118916 -0.056529 -521709.000000 0 0 1
35.257433 -25.584188 12.227687 45.245481 -0.627727 1.297141 0.115471 -0.056530 365407.000000 0 0 1
33.979733 -25.159788 12.676087 44.139782 -0.637351 1.279514 0.115519 -0.024310 293866.000000 0 0 1
33.937733 -23.657178 13.177287 43.417424 -0.608761 1.262430 0.118126 -0.032311 -776091.000000 0 0 1
34.758033 -23.459278 14.279887 44.298688 -0.593702 1.242580 0.116912 -0.039978 -313892.000000 0 0 1
34.982933 -22.129778 14.596787 43.893039 -0.564037 1.231786 0.109027 -0.042490 9905.070000 0 0 1
36.194433 -21.880178 15.521087 45.052007 -0.543735 1.219074 0.078491 -0.035834 9644.920000 0 0 1
36.324233 -20.517478 15.918487 44.652156 -0.514167 1.206277 0.099226 -0.013602 109254.000000 0 0 1
35.648833 -20.255578 17.139887 44.439886 -0.516707 1.174844 0.100939 -0.026391 50888.900000 0 0 1
35.930833 -18.852078 17.733087 44.281915 -0.483194 1.158779 0.095348 -0.013125 -107849.000000 0 0 1
35.417133 -17.809378 16.872287 43.083887 -0.465922 1.168410 0.070313 -0.022574 222450.000000 0 0 1
35.347833 -16.514178 17.463787 42.745424 -0.437057 1.149928 0.069515 -0.022626 -194896.000000 0 0 1
36.621633 -15.747978 17.869087 43.685777 -0.406114 1.149398 0.051980 -0.022391 -370747.000000 0 0 1
37.230733 -16.111278 19.063987 44.823391 -0.408409 1.131488 0.079569 -0.012389 952220.000000 0 0 1
-37.610606 -15.257278 19.354087 44.965797 0.385380 1.125841 0.082440 -0.019439 770431.000000 0 0 1
-37.060606 -15.339078 20.780987 45.173281 0.392424 1.092769 0.084910 -0.010742 221978.000000 0 0 1
-36.150406 -16.417878 21.075087 44.950616 0.426304 1.082808 0.088841 -0.006259 552999.000000 0 0 1
-35.614806 -16.292578 22.390687 45.113251 0.429046 1.051440 0.082848 -0.008458 -30200.900000 0 0 1
-34.542106 -17.331078 22.732287 44.836149 0.465037 1.039086 0.088670 -0.003090 -884398.000000 0 0 1
-35.062006 -18.650978 22.782987 45.785017 0.488874 1.049957 0.088455 -0.007101 166786.000000 0 0 1
-34.212106 -19.608578 23.383387 45.844818 0.520441 1.035547 0.069077 0.004335 -18065.700000 0 0 1
-32.937206 -20.023378 22.612587 44.689197 0.546227 1.040259 0.053497 0.011317 389321.000000 0 0 1
-31.863306 -19.099678 22.580087 43.473306 0.539997 1.024646 0.061231 0.027088 1605930.000000 0 0 1
-30.603406 -19.665678 22.106487 42.567642 0.571154 1.024734 0.050944 0.027631 2002920.000000 0 0 1
-29.335206 -18.740978 22.086287 41.225995 0.568501 1.005416 0.062010 0.029827 543573.000000 0 0 1
-28.798306 -18.585878 23.388287 41.494449 0.573121 0.972000 0.050856 0.018218 550781.000000 0 0 1
-27.659306 -17.723878 23.263787 40.253905 0.569875 0.954611 0.053725 0.008200 192033.000000 0 0 1
-27.363306 -16.992478 24.579287 40.517110 0.555714 0.918970 0.057787 -0.012511 -622162.000000 0 0 1
-26.313406 -16.055878 24.528987 39.393626 0.547870 0.898654 0.063661 -0.021763 144886.000000 0 0 1
-25.821506 -15.569878 25.761887 39.659124 0.542609 0.863761 0.067403 -0.031570 350972.000000 0 0 1
-24.870406 -16.544278 26.577887 39.982926 0.587000 0.843663 0.046197 -0.017869 -416924.000000 0 0 1
-25.428706 -17.788578 26.960087 41.108380 0.610422 0.855515 0.053927 -0.015265 -764776.000000 0 0 1
-24.530406 -18.562778 27.662787 41.370852 0.647791 0.838399 0.038886 -0.011015 -553482.000000 0 0 1
-25.029706 -19.924978 28.249487 42.679321 0.672330 0.847444 0.034948 0.001959 154142.000000 0 0 1
-26.055506 -19.756478 29.238487 43.864530 0.648758 0.841207 0.040172 -0.005718 473659.000000 0 0 1
-26.468906 -21.057778 29.668787 44.991888 0.672032 0.850742 0.036023 -0.003188 -1212080.000000 0 0 1
-27.629606 -21.024278 30.631387 46.300079 0.650462 0.847867 0.050820 -0.009704 -1249670.000000 0 0 1
-27.394106 -20.291178 31.807287 46.624806 0.637531 0.820034 0.059523 -0.020504 249854.000000 0 0 1
-28.504406 -20.144078 32.683487 47.817313 0.615209 0.818239 0.067451 -0.025828 469675.000000 0 0 1
-29.708406 -19.270378 32.269487 47.908837 0.575426 0.831781 0.055624 -0.032215 9944.640000 0 0 1
-30.657506 -19.860178 31.402487 48.170796 0.574833 0.860710 0.073368 -0.038489 907359.000000 0 0 1
-31.962406 -19.302878 31.675187 48.964416 0.543300 0.867281 0.097932 -0.044366 1241090.000000 0 0 1
-33.040606 -19.974078 30.719687 49.339078 0.543745 0.898705 0.093345 -0.020249 382.508000 0 0 1
-33.325806 -19.122178 29.629487 48.519827 0.520928 0.913893 0.087294 -0.039427 490417.000000 0 0 1
-34.283706 -19.718578 28.761587 48.902185 0.521954 0.942033 0.086840 -0.037210 76651.500000 0 0 1
-34.954006 -18.741078 27.802687 48.435524 0.492159 0.959396 0.075769 -0.030310 -507400.000000 0 0 1
-36.005606 -19.311878 27.096187 49.026071 0.492309 0.985209 0.065338 -0.031901 -238447.000000 0 0 1
-36.554106 -18.331878 26.219287 48.576861 0.464847 1.000658 0.086593 -0.027044 20338.800000 0 0 1
-37.690106 -18.767978 25.251887 49.096221 0.462010 1.030565 0.067482 -0.029877 232570.000000 0 0 1
37.153833 -19.128678 25.981987 49.207492 -0.475457 1.014542 0.061315 -0.029785 874860.000000 0 0 1
36.016933 -19.666478 25.236087 48.175200 -0.499793 1.019444 0.092818 -0.031736 1686080.000000 0 0 1
34.765533 -20.043678 26.089287 47.864833 -0.522990 0.994334 0.087107 -0.028531 316306.000000 0 0 1
33.991833 -18.988778 26.560087 47.132331 -0.509443 0.972154 0.087438 -0.034675 455671.000000 0 0 1
32.837833 -19.418178 27.288287 46.904579 -0.534024 0.949877 0.084243 -0.029730 411389.000000 0 0 1
-30.341097 -5.129278 33.183493 45.255230 0.167470 0.747704 0.063144 -0.021524 -716683.000000 0 0 1
-31.490267 -5.161678 32.419879 45.489871 0.162469 0.777480 0.078434 -0.019718 -338664.000000 0 0 1
-31.620427 -3.966378 31.662625 44.923328 0.124785 0.788634 0.076717 -0.024338 -274772.000000 0 0 1
-32.464217 -4.164378 30.408264 44.675832 0.127579 0.822157 0.074224 -0.027616 -241709.000000 0 0 1
-32.042777 -5.087978 29.396484 43.781050 0.157472 0.834642 0.056937 -0.026414 -382437.000000 0 0 1
-30.851727 -4.805478 28.721174 42.424374 0.154519 0.827122 0.066709 -0.027840 -232860.000000 0 0 1
-30.459247 -5.745178 27.561874 41.478063 0.186428 0.843981 0.070090 -0.027822 -491670.000000 0 0 1
-31.320657 -5.556178 26.501544 41.402735 0.175570 0.876179 0.057867 -0.027591 -410920.000000 0 0 1
-30.928217 -6.419578 25.436624 40.555979 0.204658 0.892846 0.078148 -0.027363 241301.000000 0 0 1
-31.672297 -6.044478 24.161364 40.291955 0.188577 0.927724 0.086543 -0.023623 14469.300000 0 0 1
-31.162197 -4.811978 23.638364 39.408247 0.153207 0.927504 0.106593 -0.031769 107.267000 0 0 1
-31.837347 -4.465578 22.462484 39.218889 0.139353 0.960944 0.112018 -0.026117 -284437.000000 0 0 1
-31.334067 -3.204878 21.776454 38.292414 0.101927 0.965886 0.113289 -0.027421 286340.000000 0 0 1
-30.096387 -3.475678 21.136554 36.940855 0.114976 0.961644 0.132629 -0.028225 31913.600000 0 0 1
-29.408467 -2.357078 20.686854 36.032758 0.079979 0.959277 0.135168 -0.031912 -657878.000000 0 0 1
-27.923797 -2.515878 20.429854 34.690734 0.089855 0.941082 0.137922 -0.035190 -785535.000000 0 0 1
-27.729917 -3.004878 19.121154 33.817098 0.107941 0.969844 0.155951 -0.032654 267000.000000 0 0 1
-26.411577 -2.703778 18.657854 32.449920 0.102016 0.958224 0.149468 -0.030621 181902.000000 0 0 1
-26.022397 -3.351078 17.338054 31.448418 0.128072 0.986854 0.155545 -0.038469 -246159.000000 0 0 1
-26.913417 -3.026478 16.284154 31.601665 0.111982 1.029445 0.160666 -0.027587 9964.800000 0 0 1
-26.659027 -3.573778 15.009054 30.801742 0.133261 1.061825 0.162654 -0.027934 139542.000000 0 0 1
-27.950347 -3.781078 14.155554 31.557854 0.134462 1.105644 0.180687 -0.023364 774367.000000 0 0 1
-28.494207 -2.500478 13.644854 31.691549 0.087530 1.125692 0.179363 -0.028578 739556.000000 0 0 1
-29.771947 -2.645878 13.020254 32.602094 0.088639 1.159968 0.179447 -0.027989 634185.000000 0 0 1
-30.184927 -1.438078 12.165454 32.576006 0.047606 1.188073 0.184245 -0.027249 -25203.200000 0 0 1
-29.543457 -1.382478 10.882254 31.514291 0.046761 1.218225 0.217154 -0.032372 218719.000000 0 0 1
-29.796907 -0.169478 10.132954 31.473181 0.005688 1.243002 0.210592 -0.026575 -438673.000000 0 0 1
-31.109687 -0.114678 9.357054 32.486616 0.003686 1.278629 0.207907 -0.021275 -326219.000000 0 0 1
-31.296877 -1.057878 8.346654 32.408028 0.033789 1.310312 0.220741 -0.035665 -1308680.000000 0 0 1
-32.565677 -0.988078 7.845554 33.511973 0.030332 1.334491 0.208363 -0.044094 -1131270.000000 0 0 1
-32.744127 -1.870378 6.573154 33.449701 0.057059 1.373001 0.251532 -0.053968 -184031.000000 0 0 1
-32.164567 -1.297878 5.416754 32.643301 0.040329 1.404088 0.269455 -0.064367 208095.000000 0 0 1
-32.950377 -0.351578 4.698054 33.285472 0.010670 1.429179 0.242789 -0.050101 23460.700000 0 0 1
-32.481907 -0.081778 3.220054 32.641227 0.002518 1.471986 0.249245 -0.044495 -43760.500000 0 0 1
-32.948217 -1.117578 2.446154 33.057793 0.033906 1.496732 0.227374 -0.062295 172175.000000 0 0 1
-32.645157 -0.801178 1.111754 32.673907 0.024537 1.536764 0.225961 -0.069023 -162520.000000 0 0 1
-33.200167 -1.785978 0.071154 33.248246 0.053742 1.568656 0.195081 -0.064323 1113340.000000 0 0 1
-34.626642 -1.601278 -0.080246 34.663740 0.046211 1.573111 0.213875 -0.060947 1067560.000000 0 0 1
-35.117775 -2.306978 -1.195646 35.213774 0.065598 1.604757 0.220465 -0.068381 -111472.000000 0 0 1
-36.626117 -2.082178 -1.431146 36.713160 0.056788 1.609788 0.204922 -0.051955 -351852.000000 0 0 1
-37.469007 -2.800878 -0.581746 37.578050 0.074613 1.586278 0.214163 -0.053763 -418551.000000 0 0 1
37.266312 -2.150278 -0.498946 37.331631 -0.057636 1.584162 0.161864 -0.042602 -16567.200000 0 0 1
36.253352 -3.016678 0.301354 36.379894 -0.083020 1.562513 0.190325 -0.048513 5573.220000 0 0 1
36.510962 -3.057578 1.722754 36.679245 -0.083549 1.523811 0.188275 -0.053502 791996.000000 0 0 1
35.579912 -4.075878 2.186054 35.879266 -0.114058 1.509831 0.185583 -0.054209 495760.000000 0 0 1
35.459002 -4.407178 3.690554 35.921918 -0.123655 1.467877 0.166906 -0.048338 194121.000000 0 0 1
34.935142 -3.294478 4.437754 35.369639 -0.094025 1.444997 0.159364 -0.051253 191056.000000 0 0 1
34.969442 -3.685578 5.796054 35.637615 -0.105007 1.407432 0.145078 -0.051675 -187945.000000 0 0 1
34.471712 -2.617778 6.735354 35.220969 -0.075794 1.378380 0.137269 -0.043064 -456604.000000 0 0 1
33.079882 -2.466678 6.781454 33.857809 -0.074430 1.369140 0.163661 -0.045274 -297457.000000 0 0 1
32.663512 -1.418178 7.627354 33.572202 -0.043391 1.341602 0.163529 -0.042122 -234304.000000 0 0 1
31.155432 -1.253478 7.813754 32.144780 -0.040211 1.325256 0.166748 -0.042122 -686671.000000 0 0 1
30.354972 -0.841578 6.722554 31.101854 -0.027717 1.352930 0.216982 -0.046371 21119.000000 0 0 1
28.997472 -0.793478 7.084354 29.860861 -0.027357 1.331267 0.200750 -0.034006 36810.100000 0 0 1
28.177272 -2.110678 6.951054 29.098638 -0.074767 1.329585 0.261865 -0.049309 -610437.000000 0 0 1
28.352672 -3.078278 7.956454 29.608359 -0.108147 1.298729 0.202026 -0.052612 242966.000000 0 0 1
27.937572 -4.368078 7.629154 29.288087 -0.155096 1.307270 0.234319 -0.060923 -254179.000000 0 0 1
28.043072 -5.399878 8.778254 29.876919 -0.190228 1.272582 0.193854 -0.039561 -253497.000000 0 0 1
27.023172 -5.314678 9.729654 29.208967 -0.194193 1.231202 0.195460 -0.033863 356778.000000 0 0 1
27.341972 -6.246078 10.750354 30.036095 -0.224589 1.204763 0.172270 -0.028791 -411068.000000 0 0 1
26.215272 -6.269878 11.756554 29.406945 -0.234759 1.159510 0.156885 -0.030391 -554575.000000 0 0 1
25.153372 -7.065578 11.325554 28.476002 -0.273843 1.161763 0.193968 -0.043113 388303.000000 0 0 1
23.957772 -6.907978 12.110254 27.719185 -0.280725 1.118657 0.199701 -0.047541 640682.000000 0 0 1
23.024172 -8.114278 12.002854 27.203354 -0.338833 1.113831 0.192084 -0.045268 -394289.000000 0 0 1
23.443272 -9.169578 12.812754 28.245970 -0.372844 1.099980 0.175830 -0.047255 240759.000000 0 0 1
22.525872 -10.250078 12.973154 27.942472 -0.427034 1.087974 0.223942 -0.068744 -180835.000000 0 0 1
22.985772 -11.317478 13.966254 29.180255 -0.457524 1.071714 0.167619 -0.060847 -408370.000000 0 0 1
22.877672 -10.838978 15.286354 29.572689 -0.442452 1.027562 0.130959 -0.048114 206231.000000 0 0 1
23.370472 -11.790778 16.163554 30.764620 -0.467254 1.017618 0.133214 -0.043650 -267052.000000 0 0 1
23.041072 -11.473078 17.653854 31.211874 -0.461998 0.969619 0.127695 -0.029334 149376.000000 0 0 1
21.642572 -11.625778 17.849654 30.367248 -0.492941 0.942468 0.110463 -0.026458 192931.000000 0 0 1
21.335372 -11.977178 19.189754 31.094976 -0.511536 0.905702 0.117695 -0.018688 59053.000000 0 0 1
21.477272 -10.978578 20.365654 31.568374 -0.472545 0.869605 0.104299 -0.020579 192036.000000 0 0 1
20.549072 -9.879278 20.393354 30.590086 -0.448142 0.841070 0.092842 -0.019700 513149.000000 0 0 1
20.889672 -8.839778 19.463554 29.888961 -0.400315 0.861638 0.116275 -0.013361 -768378.000000 0 0 1
21.754872 -7.708678 20.068254 30.584849 -0.340538 0.855091 0.119864 -0.005466 228781.000000 0 0 1
23.067672 -8.030978 20.477654 31.873945 -0.335025 0.873096 0.129904 -0.014853 373373.000000 0 0 1
23.983672 -8.076578 19.366254 31.866901 -0.324825 0.917606 0.145575 -0.011451 -360760.000000 0 0 1
25.384372 -8.541378 19.818054 33.317814 -0.324581 0.933756 0.180235 -0.009075 -22968.900000 0 0 1
25.543072 -9.964578 20.034054 33.957394 -0.371951 0.939767 0.138406 -0.023124 6246.190000 0 0 1
26.793472 -10.461678 19.601454 34.807382 -0.372252 0.972615 0.122904 -0.026222 176626.000000 0 0 1
26.942572 -12.013278 19.807654 35.532579 -0.419426 0.979485 0.095890 -0.024454 237013.000000 0 0 1
26.061372 -12.749678 18.957654 34.657496 -0.454984 0.992020 0.113063 -0.032269 227375.000000 0 0 1
26.146572 -14.171778 19.245254 35.424036 -0.496690 0.996454 0.094085 -0.027304 136275.000000 0 0 1
25.086172 -15.040078 18.520954 34.620019 -0.540079 1.006314 0.115865 -0.028476 -116250.000000 0 0 1
25.209072 -15.094878 17.114654 34.003882 -0.539528 1.043366 0.136284 -0.043750 55948.800000 0 0 1
24.121172 -15.676378 16.435954 33.131863 -0.576306 1.051722 0.132485 -0.054469 -37212.300000 0 0 1
23.916972 -17.188578 16.574154 33.796025 -0.623151 1.058228 0.102698 -0.038543 505840.000000 0 0 1
25.029972 -17.847178 15.930654 34.623792 -0.619419 1.092680 0.155388 -0.047063 742381.000000 0 0 1
24.941672 -19.242178 16.074354 35.365707 -0.657112 1.098965 0.124356 -0.029983 220772.000000 0 0 1
26.242572 -20.014778 15.681054 36.539833 -0.651569 1.127245 0.118262 -0.022652 243857.000000 0 0 1
26.479472 -20.025878 14.313654 36.153546 -0.647508 1.163735 0.122672 -0.034964 -196161.000000 0 0 1
27.513272 -20.908778 13.942554 37.263279 -0.649840 1.187302 0.117441 -0.040855 -217601.000000 0 0 1
27.848872 -20.789178 12.434854 36.910367 -0.641257 1.227181 0.097524 -0.055067 -510549.000000 0 0 1
26.848972 -21.078478 11.503854 36.020941 -0.665574 1.245736 0.105448 -0.046967 -241506.000000 0 0 1
27.257572 -20.761378 10.194254 35.748187 -0.650931 1.281614 0.127561 -0.038325 -958027.000000 0 0 1
26.091172 -20.736578 9.225454 34.581265 -0.671546 1.300750 0.079805 -0.044172 -364103.000000 0 0 1
25.606672 -22.071278 9.000354 34.983558 -0.711382 1.310596 0.056404 -0.041559 144177.000000 0 0 1
24.276772 -22.168178 9.494754 34.219002 -0.740029 1.289636 0.034829 -0.029437 221437.000000 0 0 1
23.377072 -23.101378 8.621254 33.977745 -0.779467 1.314259 0.034764 -0.027005 -400956.000000 0 0 1
23.678172 -24.461978 8.753554 35.152082 -0.801678 1.319129 0.034348 -0.021598 30216.000000 0 0 1
23.185772 -25.359258 7.736154 35.221017 -0.830141 1.349345 0.042113 -0.010087 239136.000000 0 0 1
21.673172 -25.678218 7.639254 34.459476 -0.869779 1.347251 0.044498 -0.002408 152017.000000 0 0 1
20.877172 -24.532078 7.478654 33.069766 -0.865713 1.342675 0.046037 -0.008816 -477328.000000 0 0 1
19.512572 -24.908778 7.441354 32.504791 -0.906284 1.339817 0.047257 -0.026601 177396.000000 0 0 1
18.551872 -23.696578 7.461654 31.006064 -0.906574 1.327759 0.054940 -0.022267 -284896.000000 0 0 1
18.524772 -23.142078 6.189154 30.282480 -0.895763 1.364965 0.060126 -0.017201 54233.200000 0 0 1
17.592772 -22.091278 6.104654 28.892853 -0.898274 1.357906 0.079316 -0.020163 -210714.000000 0 0 1
17.351072 -21.532878 4.713054 28.052405 -0.892532 1.401987 0.093156 -0.011627 -332816.000000 0 0 1
16.484072 -20.442078 4.830254 26.700834 -0.892178 1.388892 0.148031 -0.019244 31696.700000 0 0 1
16.045772 -19.909978 3.558454 25.817370 -0.892458 1.432524 0.153403 -0.019970 146500.000000 0 0 1
15.048772 -18.775478 3.636454 24.335322 -0.895134 1.420803 0.159073 -0.019864 -435870.000000 0 1 0
15.741572 -17.682678 4.089954 24.025027 -0.843408 1.399726 0.121955 -0.015471 16092.100000 0 1 0
15.007572 -16.495278 4.046854 22.664916 -0.832588 1.391282 0.093534 -0.010460 -325120.000000 0 1 0
15.942672 -15.336278 4.298954 22.535554 -0.766014 1.378857 0.081157 -0.014278 -660672.000000 0 1 0
16.577772 -15.321378 5.565954 23.249666 -0.746032 1.329049 0.115298 -0.024444 349411.000000 0 1 0
17.526572 -14.272478 5.678054 23.305035 -0.683420 1.324678 0.101539 -0.026196 -1281290.000000 0 1 0
18.912172 -14.617378 5.283654 24.479685 -0.658002 1.353246 0.124798 -0.040309 -2119680.000000 0 1 0
19.760772 -13.523778 5.421454 24.551432 -0.600162 1.348141 0.136703 -0.035560 1511.880000 0 1 0
21.109072 -13.837778 5.136054 25.757641 -0.580258 1.370052 0.150284 -0.027234 16696.000000 0 0 1
22.075172 -12.653478 5.050054 25.940832 -0.520480 1.374869 0.150621 -0.026916 -237390.000000 0 0 1
22.398172 -11.931278 6.189454 26.121693 -0.489456 1.331574 0.187811 -0.044119 426635.000000 0 0 1
23.429372 -10.990178 6.022754 26.570530 -0.438605 1.342139 0.187101 -0.050210 -100631.000000 0 0 1
23.894872 -10.409878 7.362154 27.083792 -0.410859 1.295503 0.222042 -0.051350 -215511.000000 0 0 1
24.191672 -11.395178 8.288254 27.996111 -0.440210 1.270242 0.227238 -0.037195 341033.000000 0 0 1
24.603472 -10.804078 9.509754 28.504286 -0.413776 1.230650 0.253322 -0.061215 -202847.000000 0 0 1
25.049472 -11.839478 10.527954 29.639283 -0.441524 1.207665 0.217774 -0.054241 -619466.000000 0 0 1
24.067772 -12.723678 10.930654 29.336476 -0.486312 1.188991 0.227495 -0.060151 -193802.000000 0 0 1
24.661872 -13.701978 11.699054 30.542102 -0.507128 1.177704 0.223265 -0.067557 533059.000000 0 0 1
23.556072 -14.777178 12.018754 30.293629 -0.560265 1.162832 0.188412 -0.072180 788789.000000 0 0 1
22.500272 -14.204478 12.780354 29.518924 -0.563119 1.123028 0.169623 -0.065888 531074.000000 0 0 1
21.386672 -15.137378 12.838054 29.177827 -0.615938 1.115205 0.129291 -0.061918 524018.000000 0 0 1
20.193172 -14.460378 13.541554 28.288521 -0.621451 1.071629 0.111152 -0.061102 -824293.000000 0 0 1
20.302572 -14.020978 14.877354 28.811767 -0.604390 1.028197 0.113655 -0.062180 -118679.000000 0 0 1
19.771072 -12.741378 15.186454 27.997614 -0.572461 0.997482 0.138499 -0.069664 1526020.000000 0 0 1
18.171672 -12.679778 15.223754 26.883993 -0.609233 0.968816 0.157087 -0.066684 1130740.000000 0 0 1
17.555572 -12.799578 13.961554 25.825419 -0.629983 0.999631 0.170042 -0.085383 1797000.000000 0 0 1
16.084572 -12.776778 14.030554 24.876011 -0.671286 0.971551 0.213100 -0.077110 2134420.000000 0 1 0
15.613472 -11.310978 13.668754 23.633738 -0.626939 0.954082 0.180671 -0.076842 -445504.000000 0 1 0
15.701972 -10.478978 14.767454 23.967448 -0.588487 0.906956 0.154639 -0.057004 147518.000000 0 1 0
15.277272 -9.173678 14.522554 22.988170 -0.540771 0.887000 0.147318 -0.048007 -698376.000000 0 1 0
15.913672 -8.100378 15.470254 23.626041 -0.470838 0.856883 0.167177 -0.042475 -491676.000000 0 1 0
17.304072 -8.094878 15.388654 24.530973 -0.437559 0.892695 0.155123 -0.048826 -567845.000000 0 1 0
17.995572 -8.728878 16.428754 25.883158 -0.451622 0.883140 0.155891 -0.043121 -1352920.000000 0 0 1
19.447772 -8.865878 16.092954 26.754491 -0.427734 0.925413 0.118345 -0.035027 -893654.000000 0 0 1
20.268372 -7.712378 16.264454 27.107566 -0.363595 0.927299 0.111295 -0.029139 137913.000000 0 0 1
21.457772 -7.747378 15.531454 27.598621 -0.346487 0.973073 0.110499 -0.017550 -271359.000000 0 0 1
22.341872 -6.501278 15.703454 28.071771 -0.283171 0.977130 0.105422 0.000335 -4411.540000 0 0 1
22.899472 -6.301978 17.008654 29.212926 -0.268554 0.949327 0.136779 -0.010384 751100.000000 0 0 1
23.559272 -4.996278 17.116554 29.546209 -0.208977 0.952909 0.140338 -0.013705 354049.000000 0 0 1
-5.084867 -32.593149 -6.228713 33.570316 1.416034 1.757420 0.093125 -0.040157 -271331.000000 0 0 1
-6.000867 -31.590149 -6.483213 32.802134 1.383073 1.769752 0.080130 -0.036513 -2833.390000 0 0 1
-5.534567 -30.427349 -5.752713 31.457093 1.390869 1.754706 0.101117 -0.046888 -277814.000000 0 0 1
-6.481867 -29.217349 -5.938413 30.511192 1.352482 1.766677 0.091913 -0.047031 1032820.000000 0 0 1
-7.789467 -29.383549 -5.359313 30.867313 1.311661 1.745305 0.079014 -0.045333 768112.000000 0 0 1
-8.715367 -29.994149 -6.243613 31.852619 1.288014 1.768089 0.079118 -0.037668 -315870.000000 0 0 1
-10.174067 -29.678149 -5.843213 31.913122 1.240538 1.754933 0.106117 -0.036308 276136.000000 0 0 1
-11.184767 -30.091649 -6.754613 32.805962 1.214931 1.778175 0.083291 -0.034548 274192.000000 0 0 1
-12.470267 -29.831349 -6.200013 32.921986 1.174848 1.760252 0.086867 -0.032230 391467.000000 0 0 1
-13.618567 -30.414349 -7.048013 34.061305 1.149800 1.779224 0.093975 -0.039027 -40359.200000 0 0 1
-13.761967 -29.792749 -8.288413 33.848153 1.138071 1.818182 0.126884 -0.056765 -148611.000000 0 0 1
-14.819767 -30.382549 -9.000113 34.981807 1.116979 1.831003 0.122416 -0.049272 81867.800000 0 0 1
-15.214667 -29.564449 -10.262013 34.797294 1.095516 1.870156 0.152283 -0.040167 -114642.000000 0 0 1
-15.826567 -28.299249 -10.073413 33.952929 1.060873 1.872019 0.152145 -0.044969 178232.000000 0 0 1
-14.907967 -27.258549 -9.751913 32.563412 1.070329 1.874938 0.145006 -0.046402 -114692.000000 0 0 1
-15.429167 -25.822049 -9.485913 31.540767 1.032203 1.876276 0.138213 -0.034457 -362534.000000 0 0 1
-15.920267 -25.115849 -10.564213 31.557303 1.005842 1.912150 0.156841 -0.046470 75188.900000 0 0 1
-16.260767 -23.825849 -10.081613 30.556874 0.971923 1.907025 0.113368 -0.020932 -73848.200000 0 0 1
-17.089167 -23.036749 -11.146813 30.773087 0.932550 1.941451 0.144277 -0.030440 524004.000000 0 0 1
-18.476767 -23.348149 -11.182113 31.805136 0.901347 1.930057 0.146090 -0.034570 662706.000000 0 0 1
-19.169867 -22.794249 -12.329013 32.234549 0.871553 1.963273 0.161735 -0.036805 298023.000000 0 0 1
-20.585367 -23.343949 -12.601113 33.578049 0.848112 1.955493 0.137439 -0.034572 -304275.000000 0 0 1
-20.744667 -24.687149 -12.914613 34.735915 0.871959 1.951737 0.163761 -0.034651 -95900.100000 0 0 1
-20.414767 -25.646749 -11.897813 34.872287 0.898500 1.918971 0.157261 -0.034916 -1556740.000000 0 0 1
-20.395067 -27.176449 -12.325913 36.144796 0.926995 1.918793 0.151089 -0.038539 935162.000000 0 0 1
-19.305467 -27.474949 -13.230113 36.091686 0.958289 1.946116 0.145454 -0.046126 49422.500000 0 0 1
-17.997867 -27.070249 -12.977313 35.001890 0.984047 1.950624 0.162693 -0.051050 -1209390.000000 0 0 1
-17.085067 -28.200749 -13.546713 35.646812 1.026096 1.960621 0.139881 -0.044431 -429594.000000 0 0 1
-17.154067 -28.411749 -14.954413 36.402252 1.027612 1.994139 0.141608 -0.055987 -211112.000000 0 0 1
-16.449067 -29.576049 -15.402513 37.182683 1.063235 1.997903 0.176371 -0.055273 -77947.000000 0 0 1
-17.165367 -30.943149 -15.359113 38.575001 1.064322 1.980309 0.149631 -0.054270 -250969.000000 0 0 1
-17.331467 -31.294349 -13.965213 38.402386 1.065024 1.942985 0.155245 -0.049453 94432.900000 0 0 1
-17.606367 -32.624549 -13.827713 39.567045 1.075922 1.927808 0.130515 -0.049308 -919646.000000 0 0 1
-18.050067 -33.049249 -12.380013 39.639911 1.070909 1.888422 0.166368 -0.048985 579981.000000 0 0 1
-19.385867 -32.675649 -12.012713 39.847399 1.035331 1.877028 0.187677 -0.049574 862314.000000 0 0 1
-19.711467 -31.248249 -11.932213 38.824898 1.008035 1.883187 0.180842 -0.052214 -487175.000000 0 0 1
-19.034567 -30.331949 -10.854713 37.418801 1.010371 1.865114 0.182153 -0.048094 -373335.000000 0 0 1
-19.423667 -30.486249 -9.511613 37.378617 1.003523 1.828093 0.188782 -0.050932 7442.730000 0 0 1
-19.000167 -29.470449 -8.654013 36.116557 0.998142 1.812764 0.174028 -0.041565 -186840.000000 0 0 1
-18.991367 -29.791249 -7.165113 36.048986 1.003272 1.770889 0.201389 -0.048972 404316.000000 0 0 1
-18.053067 -30.804849 -6.757213 36.338848 1.040700 1.757835 0.180459 -0.047459 317406.000000 0 0 1
-18.374167 -31.302749 -5.460913 36.705500 1.040003 1.720127 0.212157 -0.052713 -812230.000000 0 0 1
-17.520767 -32.482249 -4.952413 37.237081 1.076131 1.704188 0.188019 -0.041821 647741.000000 0 0 1
-16.213567 -32.024049 -4.547613 36.181491 1.102127 1.696819 0.179995 -0.034934 770514.000000 0 0 1
-16.095567 -31.499649 -3.236113 35.521369 1.098406 1.662026 0.160739 -0.039377 -123752.000000 0 0 1
-14.740267 -30.802149 -2.943713 34.274091 1.124458 1.656790 0.148994 -0.042478 -370089.000000 0 0 1
-13.597567 -31.569349 -3.098113 34.512548 1.164090 1.660685 0.088903 -0.042660 -1015510.000000 0 0 1
-12.532567 -30.753949 -2.650613 33.315108 1.183832 1.650442 0.094768 -0.030106 675999.000000 0 0 1
-11.139067 -31.473449 -2.829113 33.506130 1.230634 1.655333 0.092925 -0.037660 319512.000000 0 0 1
-11.191767 -32.526749 -1.890813 34.450258 1.239406 1.625709 0.098215 -0.027202 -389904.000000 0 0 1
-10.065967 -33.316349 -1.602913 34.840668 1.277384 1.616820 0.112292 -0.031900 -64531.200000 0 0 1
-8.964967 -32.627549 -0.752913 33.845155 1.302647 1.593044 0.131007 -0.034929 -575626.000000 0 0 1
-9.478967 -32.080649 0.467487 33.455006 1.283498 1.556822 0.136194 -0.037805 -471850.000000 0 0 1
-8.574367 -31.548849 1.409487 32.723636 1.305426 1.527711 0.138742 -0.033270 -117895.000000 0 0 1
-7.607567 -32.615649 1.981587 33.549700 1.341644 1.511698 0.158797 -0.041723 -520358.000000 0 0 1
-8.176767 -33.564149 2.863187 34.664239 1.331835 1.488104 0.161414 -0.053730 -200480.000000 0 0 1
-7.306967 32.940422 3.287987 33.900944 -1.352507 1.473656 0.170809 -0.048734 -127683.000000 0 0 1
-6.558867 33.249422 4.596387 34.200432 -1.376034 1.435993 0.181312 -0.049011 -564745.000000 0 0 1
-5.418767 -33.581249 4.278087 34.283602 1.410812 1.445685 0.199791 -0.047500 -712018.000000 0 0 1
-4.981267 -32.962349 5.491087 33.785819 1.420811 1.407546 0.213076 -0.053450 468697.000000 0 0 1
-3.571567 -32.270649 5.363987 32.907800 1.460570 1.407065 0.218364 -0.051084 686027.000000 0 0 1
-3.396267 -31.048749 4.626087 31.574676 1.461844 1.423754 0.222538 -0.047680 30164.600000 0 0 1
-3.646667 -31.174949 3.223687 31.552620 1.454351 1.468449 0.221144 -0.052476 -100238.000000 0 0 1
-3.785567 -29.757449 2.636387 30.112902 1.444262 1.483134 0.203283 -0.050046 1723220.000000 0 0 1
-2.456267 -29.137649 2.548787 29.351868 1.486696 1.483851 0.178348 -0.041351 1467230.000000 0 0 1
-2.524867 -27.978549 1.759087 28.147266 1.480797 1.508260 0.174477 -0.040155 281988.000000 0 0 1
-2.902867 -26.690849 2.519787 26.966227 1.462463 1.477217 0.179309 -0.042135 -263318.000000 0 0 1
-2.989767 -25.592249 1.661787 25.819827 1.454500 1.506391 0.166468 -0.044840 -172867.000000 0 0 1
-3.093767 -24.341549 2.357987 24.650406 1.444376 1.474993 0.134638 -0.040371 581575.000000 0 1 0
-4.426667 -24.066949 3.149187 24.672471 1.388898 1.442807 0.122165 -0.035997 408351.000000 0 1 0
-4.412567 -24.824549 4.359587 25.587790 1.394883 1.399583 0.161338 -0.035413 42601.800000 0 0 1
-5.545967 -24.435849 5.109087 25.572862 1.347617 1.369657 0.128724 -0.031973 378.813000 0 0 1
-6.093167 -25.509749 6.076187 26.922000 1.336333 1.343139 0.152668 -0.039620 -595005.000000 0 0 1
-5.257967 -25.902949 7.098887 27.367923 1.370530 1.308409 0.160448 -0.038944 -406498.000000 0 0 1
-5.854567 -26.841149 7.958587 28.601790 1.356041 1.288820 0.157911 -0.041474 399244.000000 0 0 1
-4.786167 -27.214049 9.021387 29.067117 1.396705 1.255220 0.150760 -0.044396 389125.000000 0 0 1
-4.513267 -26.290749 10.095687 28.521851 1.400786 1.208991 0.139586 -0.048568 346972.000000 0 0 1
-5.666967 -25.834749 10.812987 28.573930 1.354862 1.182706 0.134317 -0.049313 625961.000000 0 0 1
-5.232967 -24.734049 11.820787 27.908568 1.362302 1.133431 0.115076 -0.045471 1048540.000000 0 0 1
-4.236867 -25.174449 12.788787 28.552706 1.404059 1.106380 0.094300 -0.046517 464376.000000 0 0 1
-3.677967 -24.064049 13.422987 27.798966 1.419129 1.066879 0.097791 -0.046755 26621.500000 0 0 1
-2.727767 -24.387349 14.589087 28.548643 1.459408 1.034419 0.094704 -0.046602 100617.000000 0 0 1
-3.360067 -24.735949 15.814487 29.550893 1.435785 1.006098 0.089722 -0.053131 108687.000000 0 0 1
-2.511967 -25.605749 16.549987 30.591935 1.473008 0.999180 0.111285 -0.047763 143160.000000 0 0 1
-3.045067 -25.888449 17.930087 31.638146 1.453712 0.968272 0.127162 -0.042760 -119247.000000 0 0 1
-2.851867 -24.849849 18.862187 31.327788 1.456532 0.924679 0.131744 -0.037532 -285215.000000 0 0 1
-3.460867 -25.039049 20.111187 32.301571 1.433448 0.898726 0.164742 -0.045410 -430174.000000 0 0 1
-2.911567 -24.034249 21.132287 32.135587 1.450241 0.853171 0.149160 -0.050292 -759557.000000 0 0 1
-1.709967 -24.500449 21.689787 32.766490 1.501116 0.847379 0.104984 -0.068582 -386474.000000 0 0 1
-1.171967 -23.586149 22.616787 32.698609 1.521148 0.806992 0.119072 -0.065374 499718.000000 0 0 1
-0.469967 -22.285649 22.047587 31.352307 1.549711 0.790879 0.118679 -0.070410 -13267.400000 0 0 1
-1.411367 -21.392449 21.475987 30.345459 1.504917 0.784535 0.158539 -0.063531 -148091.000000 0 0 1
-0.783867 -20.364449 20.736087 29.074225 1.532323 0.776726 0.168824 -0.054621 156101.000000 0 0 1
-1.806567 -19.287049 20.259787 28.030572 1.477401 0.762987 0.155499 -0.028274 -293695.000000 0 0 1
-2.431667 -18.550649 21.274987 28.331338 1.440457 0.721320 0.162691 -0.057687 77169.500000 0 0 1
-3.713567 -18.959349 21.708287 29.060235 1.377375 0.727243 0.199881 -0.070013 419711.000000 0 0 1
-4.960767 -18.886449 20.788187 28.521149 1.313936 0.754127 0.181469 -0.065850 -156560.000000 0 0 1
-4.975967 -19.735849 19.654987 28.294567 1.323816 0.802855 0.170432 -0.065608 -359580.000000 0 0 1
-5.614567 -20.989349 19.855087 29.432986 1.309420 0.830392 0.175767 -0.063850 154627.000000 0 0 1
-5.816067 -21.747849 18.495187 29.135332 1.309480 0.883043 0.135986 -0.061041 225679.000000 0 0 1
-6.552167 -22.948949 18.583387 30.247768 1.292685 0.909206 0.123234 -0.067812 -66399.700000 0 0 1
-6.353467 -23.627349 17.364187 30.002220 1.308107 0.953585 0.111084 -0.059737 294993.000000 0 0 1
-7.040467 -25.031649 17.345787 31.257447 1.296617 0.982514 0.094956 -0.052632 -39741.100000 0 0 1
-8.429867 -25.025349 17.495187 31.676685 1.245881 0.985670 0.118938 -0.053465 -700683.000000 0 0 1
-8.962167 -26.303449 17.133587 32.645853 1.242411 1.018279 0.121616 -0.051432 84414.000000 0 0 1
-10.483467 -26.475649 17.297987 33.317915 1.193772 1.024905 0.115317 -0.053310 -182296.000000 0 0 1
-11.255267 -25.798249 16.303687 32.527541 1.159410 1.045780 0.128502 -0.054171 -63973.500000 0 0 1
-12.640567 -25.823849 16.532087 33.165721 1.115590 1.048964 0.126491 -0.052000 221238.000000 0 0 1
-13.272667 -24.949349 17.682787 33.336387 1.081890 1.011683 0.122757 -0.048094 -466849.000000 0 0 1
-13.138567 -23.524049 17.497587 32.127378 1.061438 0.994846 0.118002 -0.040476 70670.400000 0 0 1
-13.436767 -22.807149 18.657487 32.385407 1.038395 0.956837 0.117253 -0.037619 -465438.000000 0 0 1
-12.222967 -22.218049 19.383387 31.917994 1.067848 0.918155 0.125163 -0.044984 -474314.000000 0 0 1
-11.474767 -23.123349 20.122187 32.730139 1.110160 0.908676 0.137701 -0.048563 949981.000000 0 0 1
-10.063867 -22.939749 19.804487 31.933231 1.157372 0.901819 0.158027 -0.059153 1235890.000000 0 0 1
-9.240667 -23.798449 20.777287 32.915829 1.200427 0.887665 0.160428 -0.062380 -238355.000000 0 0 1
-9.194467 -23.251749 22.029487 33.323871 1.194235 0.848549 0.173627 -0.063500 519728.000000 0 0 1
-8.333367 -24.029449 22.881687 34.211563 1.236977 0.838164 0.173614 -0.065742 268942.000000 0 0 1
-8.171367 -23.377149 24.262887 34.669152 1.234527 0.795622 0.198645 -0.062608 86163.700000 0 0 1
-7.158467 -24.050549 24.993387 35.416691 1.281504 0.787393 0.212268 -0.060801 -9364.680000 0 0 1
-7.010967 -23.433349 26.209787 35.850083 1.280085 0.750872 0.228827 -0.064373 378523.000000 0 0 1
-5.761967 -23.974949 26.993687 36.560329 1.334937 0.740201 0.216673 -0.064058 1606600.000000 0 0 1
-4.461267 -23.669849 26.467787 35.786987 1.384503 0.738332 0.213187 -0.058502 541215.000000 0 0 1
-3.402867 -23.910549 27.372387 36.503993 1.429429 0.722966 0.186135 -0.050299 660154.000000 0 0 1
-1.996767 -23.699149 26.730687 35.779413 1.486740 0.727113 0.168855 -0.046889 165043.000000 0 0 1
-1.806467 -22.323549 26.558087 34.740987 1.490050 0.700593 0.171263 -0.048640 -1001420.000000 0 0 1
-0.610767 -22.055549 25.942287 34.056168 1.543111 0.704786 0.157055 -0.053773 -631221.000000 0 0 1
0.548433 -21.613549 26.863687 34.483387 -1.545427 0.677675 0.130013 -0.039171 -144878.000000 0 0 1
1.040333 -22.687549 27.654087 35.784854 -1.524974 0.687575 0.127123 -0.034725 -38990.400000 0 0 1
2.012833 -22.140649 28.531487 36.170508 -1.480134 0.661934 0.105538 -0.047633 -284931.000000 0 0 1
2.759833 -23.177449 29.357587 37.505717 -1.452280 0.671724 0.111355 -0.054384 -999968.000000 0 0 1
3.599833 -23.986649 28.581687 37.486411 -1.421832 0.703698 0.098723 -0.050906 225141.000000 0 0 1
4.481533 -24.814449 29.344187 38.690081 -1.392121 0.709877 0.104250 -0.044695 -167007.000000 0 0 1
5.730133 -24.093049 29.937187 38.852859 -1.337301 0.691128 0.088410 -0.049576 21040.100000 0 0 1
6.873533 -23.816649 29.126487 38.246967 -1.289829 0.705115 0.095582 -0.039430 592920.000000 0 0 1
7.514533 -25.008049 28.650687 38.765096 -1.278895 0.739086 0.091335 -0.033194 -853475.000000 0 0 1
8.900433 -24.727849 28.034987 38.427136 -1.225298 0.753115 0.083869 -0.030189 -93036.200000 0 0 1
8.825833 -23.819849 26.978387 37.055552 -1.215955 0.755320 0.083751 -0.042773 749274.000000 0 0 1
9.971933 -23.949349 26.112287 36.808455 -1.176253 0.782136 0.076081 -0.031625 540398.000000 0 0 1
9.885533 -22.855849 25.037687 35.312879 -1.162576 0.782683 0.088839 -0.027929 200052.000000 0 0 1
8.899733 -23.093949 24.043987 34.505783 -1.202965 0.799855 0.081605 -0.023069 116574.000000 0 0 1
8.644133 -21.844349 23.486687 33.219288 -1.193990 0.785521 0.080176 -0.020201 157771.000000 0 0 1
7.762133 -21.959449 22.232087 32.198351 -1.231028 0.808654 0.080386 -0.018034 152307.000000 0 0 1
8.539133 -22.576849 21.236287 32.149818 -1.209201 0.849257 0.083494 -0.012311 239218.000000 0 0 1
7.799033 -22.791149 20.049587 31.340826 -1.241091 0.876653 0.087339 -0.011448 -105214.000000 0 0 1
8.516733 -23.707749 19.080487 31.601537 -1.225915 0.922557 0.136879 -0.033980 16275.700000 0 0 1
9.750033 -23.205249 18.614387 31.305625 -1.173028 0.934026 0.133445 -0.034621 -260740.000000 0 0 1
10.465633 -24.200149 17.921187 31.880177 -1.162623 0.973823 0.140793 -0.039785 170431.000000 0 0 1
11.895233 -23.716949 17.566487 31.820932 -1.105910 0.985985 0.132541 -0.041519 281095.000000 0 0 1
11.836233 -22.611949 16.661887 30.479750 -1.088565 0.992433 0.131138 -0.033825 72706.400000 0 0 1
13.125233 -22.184149 16.249487 30.470544 -1.036540 1.008317 0.124926 -0.037780 391914.000000 0 0 1
-12.444767 22.597722 11.343387 28.181585 -1.067409 1.156539 0.047615 -0.025844 78469.200000 0 0 1
-13.554467 21.854822 10.830187 27.904297 -1.015653 1.172207 0.042383 -0.033242 209223.000000 0 0 1
-13.240667 20.533622 10.330987 26.526858 -0.998065 1.170758 0.070050 -0.035085 -308510.000000 0 0 1
-14.305267 19.824522 9.459587 26.213282 -0.945724 1.201596 0.074933 -0.037873 -574197.000000 0 0 1
-14.630567 20.619822 8.370987 26.632762 -0.953697 1.251065 0.079202 -0.041793 -241621.000000 0 0 1
-15.060467 19.855822 7.234987 25.950267 -0.921883 1.288250 0.080176 -0.036596 321394.000000 0 0 1
-16.600767 19.644922 7.243087 26.720231 -0.869188 1.296291 0.073465 -0.037767 -209712.000000 0 0 1
-17.114967 18.924922 8.307087 26.834353 -0.835577 1.256056 0.064459 -0.036522 -569837.000000 0 0 1
-18.507467 19.106322 8.335387 27.875734 -0.801318 1.267131 0.077130 -0.031077 -354379.000000 0 0 1
-19.263867 17.998022 9.089187 27.886174 -0.751440 1.238792 0.085334 -0.027466 -165165.000000 0 0 1
-19.335267 16.731622 8.432087 26.923964 -0.713334 1.252255 0.091324 -0.035196 -17729.600000 0 0 1
-19.791067 15.680622 9.228387 26.883664 -0.670033 1.220399 0.108108 -0.041719 -16099.500000 0 0 1
-18.799467 15.126022 10.326387 26.245967 -0.677539 1.166419 0.095088 -0.031703 835165.000000 0 0 1
-17.673567 14.362322 9.910587 24.836486 -0.682403 1.160334 0.062964 -0.013437 670028.000000 0 1 0
-16.964967 13.506722 10.845387 24.245909 -0.672391 1.107043 0.069557 -0.022590 802222.000000 0 1 0
-17.876867 12.482322 11.606487 24.700229 -0.609543 1.081626 0.073152 -0.022576 73125.500000 0 1 0
-18.507867 11.480622 10.851187 24.332984 -0.555220 1.108566 0.062393 -0.027111 -199686.000000 0 1 0
-19.341867 10.708022 11.666687 24.997623 -0.505617 1.085227 0.089668 -0.030329 -6760.300000 0 1 0
-20.260567 9.663622 10.939487 24.970954 -0.445052 1.117325 0.098740 -0.038143 -82447.000000 0 1 0
-19.653767 8.641222 10.165087 23.754374 -0.414233 1.128601 0.072844 -0.034940 511386.000000 0 1 0
-19.007767 9.042222 8.902787 22.854247 -0.444029 1.170657 0.075836 -0.036673 -53959.000000 0 1 0
-19.994467 9.327122 7.738387 23.380688 -0.436478 1.233461 0.083683 -0.040465 -99165.800000 0 1 0
-20.736567 8.200322 7.387487 23.490966 -0.376580 1.250885 0.074273 -0.040798 -105508.000000 0 1 0
-21.739467 8.572522 6.485187 24.251809 -0.375609 1.300092 0.112308 -0.037832 -256089.000000 0 1 0
-22.110067 7.414522 5.590687 23.980951 -0.323561 1.335501 0.140701 -0.038773 -566459.000000 0 1 0
-22.791467 6.366222 6.184687 24.458743 -0.272382 1.315159 0.161121 -0.047587 63210.100000 0 1 0
-22.546667 5.168822 5.483887 23.772714 -0.225356 1.338020 0.162783 -0.051508 -70147.300000 0 1 0
-23.633067 4.063822 5.597087 24.624457 -0.170290 1.341494 0.188244 -0.052357 -568280.000000 0 1 0
-24.865067 4.411522 5.070187 25.757327 -0.175591 1.372658 0.245192 -0.055973 -923215.000000 0 0 1
-25.756647 3.369722 5.128987 26.477659 -0.130090 1.375854 0.260382 -0.058240 -364692.000000 0 0 1
-26.932537 3.408622 4.122787 27.458653 -0.125892 1.420081 0.274279 -0.060246 17833.300000 0 0 1
-26.528637 3.392222 2.750587 26.885712 -0.127180 1.468310 0.271463 -0.050743 300419.000000 0 0 1
-27.682727 3.309322 1.944587 27.947565 -0.118980 1.501160 0.277765 -0.048084 -47406.500000 0 0 1
-27.453807 3.432322 0.434487 27.670944 -0.124376 1.555094 0.289062 -0.047140 -487594.000000 0 0 1
-27.181037 4.724422 -0.068313 27.588650 -0.172094 1.573272 0.290087 -0.047037 148395.000000 0 0 1
-27.458547 4.860022 -1.450613 27.923035 -0.175181 1.622770 0.332232 -0.040121 -541202.000000 0 0 1
-28.921967 5.082122 -1.813513 29.421030 -0.173943 1.632475 0.310322 -0.055357 -719061.000000 0 0 1
-29.685127 3.903122 -1.751313 29.991803 -0.130734 1.629223 0.256248 -0.056595 234109.000000 0 0 1
-31.069217 4.238022 -1.827913 31.410163 -0.135569 1.629024 0.228955 -0.022559 -118438.000000 0 0 1
-31.917177 2.964522 -1.969413 32.114999 -0.092616 1.632159 0.182910 -0.018755 -818169.000000 0 0 1
-31.779517 2.274122 -3.210913 32.022169 -0.071438 1.671237 0.170804 -0.036331 575055.000000 0 0 1
-32.620527 1.129622 -3.365113 32.813089 -0.034615 1.673531 0.164877 -0.046488 -27829.400000 0 0 1
-32.707477 0.753822 -4.867213 33.076231 -0.023043 1.718484 0.175292 -0.056559 -697549.000000 0 0 1
-31.458067 0.443722 -5.418213 31.924347 -0.014104 1.741342 0.191220 -0.062071 -184122.000000 0 0 1
-31.470167 -0.146678 -6.709313 32.177753 0.004661 1.780845 0.197539 -0.066447 -320100.000000 0 0 1
-31.836657 0.798322 -7.893813 32.810400 -0.025070 1.813769 0.190208 -0.057398 -429758.000000 0 0 1
-33.225427 0.840322 -8.086413 34.205631 -0.025286 1.809462 0.207660 -0.051874 -237468.000000 0 0 1
-33.646717 1.669922 -9.122213 34.901361 -0.049590 1.835239 0.229610 -0.044986 372161.000000 0 0 1
-35.205594 1.783922 -9.109613 36.408808 -0.050628 1.823687 0.228622 -0.042115 374526.000000 0 0 1
-35.655614 2.281422 -7.893113 36.590011 -0.063898 1.788223 0.178287 -0.037108 -950678.000000 0 0 1
-37.006907 2.053822 -7.716213 37.858543 -0.055441 1.776051 0.176821 -0.031511 -1009050.000000 0 0 1
-37.616267 2.958322 -6.657213 38.315189 -0.078483 1.745431 0.168176 -0.019961 -445824.000000 0 0 1
36.982172 2.736322 -6.580913 37.662673 0.073856 1.746431 0.172123 -0.014239 -55978.400000 0 0 1
36.434272 3.354622 -5.444013 36.991174 0.091814 1.718503 0.162363 -0.013513 -325026.000000 0 0 1
34.996702 2.861422 -5.261113 35.505439 0.081581 1.719522 0.185155 -0.014475 -383284.000000 0 0 1
34.886612 1.719122 -4.514313 35.219456 0.049238 1.699327 0.180330 -0.013987 -766306.000000 0 0 1
33.597492 1.226622 -4.375513 33.903409 0.036493 1.700215 0.221941 -0.024790 -601855.000000 0 0 1
33.547802 -0.008278 -3.402913 33.719948 -0.000247 1.671885 0.286910 -0.035498 -103359.000000 0 0 1
34.298072 -1.088378 -3.888113 34.534906 -0.031722 1.683621 0.177385 -0.035281 -17404.400000 0 0 1
34.164722 -2.247778 -3.073413 34.376250 -0.065698 1.660321 0.202612 -0.036109 -498677.000000 0 0 1
34.949432 -3.474278 -3.450113 35.290745 -0.099083 1.668715 0.148759 -0.032601 -206370.000000 0 0 1
34.739322 -4.449878 -2.459013 35.109381 -0.127400 1.640892 0.153878 -0.047589 629769.000000 0 0 1
35.701002 -5.499778 -2.682513 36.221609 -0.152850 1.644923 0.195540 -0.046959 593863.000000 0 0 1
35.451012 -6.651878 -1.677213 36.108652 -0.185479 1.617262 0.247374 -0.065001 -25009.800000 0 0 1
35.604342 -6.369378 -0.330413 36.171084 -0.177021 1.579931 0.232262 -0.086541 63479.000000 0 0 1
35.324582 -7.486778 0.493387 36.112621 -0.208852 1.557133 0.273296 -0.087180 17764.900000 0 0 1
34.060242 -7.332178 1.375987 34.867668 -0.212035 1.531323 0.268431 -0.075959 -1373600.000000 0 0 1
32.933992 -7.467178 0.598387 33.775207 -0.222962 1.553079 0.224105 -0.066119 -346143.000000 0 0 1
31.743312 -7.308478 1.397987 32.603774 -0.226293 1.527905 0.278585 -0.070167 117595.000000 0 0 1
31.252552 -8.572378 2.105387 32.475226 -0.267709 1.505920 0.224152 -0.056715 -1019600.000000 0 0 1
30.185172 -9.309478 1.575087 31.627391 -0.299157 1.520974 0.199960 -0.047960 726814.000000 0 0 1
28.926572 -8.810178 2.090987 30.310692 -0.295645 1.501756 0.213027 -0.043647 1150250.000000 0 0 1
27.699672 -9.778978 1.777087 29.428868 -0.339377 1.510374 0.169809 -0.033343 1817680.000000 0 0 1
26.325572 -9.367178 1.993387 28.013449 -0.341851 1.499578 0.128163 -0.040751 1810640.000000 0 0 1
25.771472 -8.460378 1.044287 27.144747 -0.317200 1.532316 0.155493 -0.052867 -463936.000000 0 0 1
25.422072 -8.966178 -0.362813 26.959335 -0.339072 1.584255 0.126629 -0.041604 -153395.000000 0 0 1
26.525072 -9.514878 -1.102413 28.201554 -0.344415 1.609897 0.130880 -0.056288 856521.000000 0 0 1
26.101272 -10.129278 -2.349013 28.096201 -0.370185 1.654500 0.122350 -0.060910 -210007.000000 0 0 1
25.254872 -11.425178 -2.255113 27.810588 -0.424844 1.651974 0.100353 -0.041119 837974.000000 0 0 1
23.870072 -11.158778 -1.984213 26.424151 -0.437295 1.645958 0.077135 -0.017923 614221.000000 0 0 1
23.150472 -12.334378 -1.730313 26.288309 -0.489536 1.636665 0.067072 -0.012582 1158820.000000 0 0 1
21.603772 -12.047978 -1.517413 24.782641 -0.508720 1.632063 0.058020 -0.020263 1002050.000000 0 1 0
20.865172 -11.605078 -2.661413 24.023246 -0.507586 1.681809 0.076546 -0.019287 -1154880.000000 0 1 0
19.554872 -11.759578 -2.327613 22.936836 -0.541421 1.672451 0.087365 -0.026388 -1887370.000000 0 1 0
18.586972 -11.401578 -3.442313 22.075349 -0.550227 1.727370 0.077207 -0.017529 -408054.000000 0 1 0
18.710972 -12.268278 -4.545513 22.831399 -0.580353 1.771226 0.085849 -0.016171 421081.000000 0 1 0
17.960372 -11.781178 -5.645813 22.209149 -0.580549 1.827828 0.090788 -0.016539 -214147.000000 0 1 0
18.059972 -12.632678 -6.917713 23.099824 -0.610380 1.874934 0.102322 -0.023312 -150040.000000 0 1 0
17.073072 -13.635978 -7.094013 22.972912 -0.673938 1.884726 0.077799 -0.026052 625889.000000 0 1 0
17.503572 -14.575678 -8.078313 24.167841 -0.694380 1.911615 0.098587 -0.027701 -734505.000000 0 1 0
16.534972 -15.711178 -8.326013 24.281040 -0.759857 1.920801 0.093235 -0.032409 -637452.000000 0 1 0
15.440972 -15.272578 -9.081113 23.540218 -0.779915 1.966839 0.106882 -0.019745 -37308.700000 0 1 0
14.907272 -16.316278 -9.878513 24.208112 -0.830494 1.991131 0.102470 -0.016240 -95057.900000 0 1 0
14.186572 -15.917278 -11.180013 24.075117 -0.842826 2.053731 0.100553 -0.030354 -16235.100000 0 1 0
13.014672 -15.140278 -11.024013 22.806546 -0.860752 2.075297 0.068597 -0.027021 224042.000000 0 1 0
13.255572 -13.704478 -10.712413 21.869584 -0.802047 2.082693 0.064569 -0.024645 -268184.000000 0 1 0
13.491972 -12.683978 -11.876213 21.999114 -0.754540 2.141055 0.081415 -0.015539 -7857.410000 0 1 0
14.711672 -12.852878 -12.579113 23.234970 -0.718066 2.142882 0.108561 -0.016670 258143.000000 0 1 0
14.494572 -12.380778 -13.908213 23.596920 -0.706908 2.201122 0.130841 -0.016790 -34716.300000 0 1 0
15.711572 -11.787278 -14.651813 24.504469 -0.643648 2.211705 0.141193 -0.029420 -323569.000000 0 1 0
16.754372 -12.690678 -14.866713 25.744542 -0.648255 2.186423 0.141785 -0.028326 -162266.000000 0 0 1
17.787072 -12.061678 -15.602213 26.557354 -0.595886 2.198751 0.132136 -0.027273 194672.000000 0 0 1
18.955872 -13.050178 -15.919713 27.983378 -0.602932 2.175963 0.104602 -0.020329 94069.400000 0 0 1
19.749872 -13.331278 -14.783713 28.041729 -0.593754 2.126103 0.106032 -0.043116 702187.000000 0 0 1
20.849572 -14.206778 -15.058213 29.381745 -0.598129 2.108893 0.078314 -0.033439 3471.690000 0 0 1
22.007672 -14.172278 -14.101313 29.732778 -0.572124 2.064929 0.098179 -0.037816 -249449.000000 0 0 1
22.799172 -12.987878 -14.023013 29.751170 -0.517815 2.061610 0.097821 -0.033800 -5449.820000 0 0 1
24.014472 -13.204178 -13.366013 30.490908 -0.502722 2.024570 0.122685 -0.037067 -361957.000000 0 0 1
24.957472 -12.036478 -13.281313 30.726950 -0.449371 2.017768 0.122536 -0.035757 -585960.000000 0 0 1
24.326172 -10.911578 -12.638413 29.505163 -0.421650 2.013458 0.130850 -0.034508 401809.000000 0 0 1
25.075972 -9.698678 -12.648713 29.712937 -0.369051 2.010529 0.150752 -0.040683 532358.000000 0 0 1
26.265772 -9.627878 -11.639213 30.299473 -0.351347 1.965072 0.161683 -0.041548 986403.000000 0 0 1
27.481272 -10.337278 -11.926413 31.690991 -0.359785 1.956633 0.156351 -0.046440 1434360.000000 0 0 1
28.517972 -9.975778 -10.988413 32.148656 -0.336503 1.919628 0.170060 -0.046840 1073320.000000 0 0 1
29.939372 -10.564478 -11.246513 33.681719 -0.339223 1.911240 0.186526 -0.049457 682075.000000 0 0 1
30.625272 -10.002678 -12.356813 34.505821 -0.315692 1.937037 0.163000 -0.045243 -136505.000000 0 0 1
31.776522 -10.667278 -12.780913 35.873248 -0.323876 1.935080 0.168444 -0.044748 -253699.000000 0 0 1
32.413862 -10.032478 -14.044213 36.722595 -0.300160 1.963233 0.129430 -0.035400 84524.900000 0 0 1
31.706422 -10.230578 -15.275713 36.651184 -0.312119 2.000703 0.117303 -0.023888 492197.000000 0 0 1
32.411412 -9.570878 -16.324113 37.531027 -0.287133 2.020779 0.084095 -0.021393 -191599.000000 0 0 1
32.147832 -10.153378 -17.727413 38.089832 -0.305919 2.054895 0.055866 -0.012904 -430736.000000 0 0 1
30.860172 -10.061078 -18.252513 37.238820 -0.315155 2.083055 0.066709 -0.007570 -350023.000000 0 0 1
30.470072 -8.810678 -18.707113 36.824033 -0.281481 2.103673 0.048518 -0.005024 1664860.000000 0 0 1
28.953172 -8.766278 -19.289213 35.877674 -0.294000 2.138430 0.034606 -0.007075 2049420.000000 0 0 1
28.611072 -9.282178 -20.577413 36.444234 -0.313713 2.170778 0.013314 0.000619 -318523.000000 0 0 1
27.219272 -9.184078 -20.678513 35.395437 -0.325416 2.194708 0.025982 0.004982 -424402.000000 0 0 1
26.807572 -9.601778 -22.086913 36.037089 -0.343938 2.230514 0.046011 -0.008206 -157021.000000 0 0 1
26.797772 -11.010178 -22.288713 36.553130 -0.389835 2.226557 0.042342 -0.009891 147878.000000 0 0 1
26.179372 -11.285278 -23.540513 36.971242 -0.407005 2.261040 0.061118 -0.022138 -738531.000000 0 0 1
26.524372 -12.709178 -24.034613 37.983261 -0.446830 2.255920 0.059420 -0.011373 622379.000000 0 0 1
27.794972 -12.838078 -24.645113 39.303413 -0.432693 2.248554 0.046214 -0.003220 1017330.000000 0 0 1
28.970772 -12.693478 -23.816113 39.593399 -0.412954 2.216195 0.021458 0.002138 36634.200000 0 0 1
30.254572 -13.279778 -24.398513 41.072850 -0.413614 2.206856 0.041928 0.008542 -243013.000000 0 0 1
30.589272 -12.790978 -25.679443 41.937411 -0.396056 2.229798 0.062796 -0.005976 536434.000000 0 0 1
31.944472 -13.164778 -25.925823 43.196168 -0.390906 2.214532 0.058239 -0.008397 138341.000000 0 0 1
32.448222 -12.601478 -27.268833 44.218476 -0.370429 2.235320 0.079525 -0.013425 69857.300000 0 0 1
32.153792 -13.432078 -28.412463 44.961707 -0.395709 2.254832 0.088991 -0.014690 99053.800000 0 0 1
32.965262 -13.023878 -29.473653 46.098005 -0.376257 2.264474 0.089803 -0.018894 -31837.400000 0 0 1
32.818792 -13.962578 -30.677433 47.043932 -0.402247 2.281150 0.086224 -0.020315 -62555.600000 0 0 1
33.280552 -15.290178 -30.353173 47.567844 -0.430671 2.262828 0.109954 -0.014407 15488.200000 0 0 1
33.279572 -16.296078 -31.354803 48.540866 -0.455351 2.273059 0.100423 -0.020004 220597.000000 0 0 1
31.904922 -16.648578 -31.989453 48.150018 -0.480950 2.297448 0.080885 -0.012569 44793.700000 0 0 1
31.467152 -15.721578 -32.904053 48.166652 -0.463343 2.322835 0.063992 -0.011751 -382476.000000 0 0 1
30.416272 -16.163678 33.661564 48.161343 -0.488463 0.796891 0.045277 -0.009611 -402648.000000 0 0 1
29.820172 -15.091178 32.768515 46.805575 -0.468494 0.795261 0.077522 -0.008393 -389568.000000 0 0 1
29.196972 -13.975978 33.397674 46.510168 -0.446446 0.769767 0.090034 -0.010704 -86022.600000 0 0 1
30.036672 -13.014878 -33.380033 46.752703 -0.408879 2.365948 0.095120 -0.017037 -415113.000000 0 0 1
29.328772 -11.744778 -32.881173 45.599212 -0.380896 2.376172 0.106257 -0.027136 32935.700000 0 0 1
29.132772 -10.827278 33.416974 45.635978 -0.355833 0.749175 0.130118 -0.024362 -206987.000000 0 0 1
28.396672 -9.699078 -33.573623 45.029226 -0.329133 2.412225 0.123740 -0.035758 122869.000000 0 0 1
21.965233 -29.463249 9.029487 37.842914 -0.930173 1.329868 0.053663 -0.022268 44314.400000 0 0 1
22.358033 -28.787149 7.861187 37.287798 -0.910446 1.358378 0.060579 -0.022009 297337.000000 0 0 1
23.399133 -29.549049 7.260487 38.384638 -0.901030 1.380499 0.071323 -0.020355 269239.000000 0 0 1
23.956433 -29.186849 5.880687 38.214727 -0.883503 1.416297 0.068119 -0.016943 86755.300000 0 0 1
24.498333 -27.854549 5.822687 37.549273 -0.849418 1.415100 0.072084 -0.009537 193668.000000 0 0 1
24.963633 -27.557949 4.538487 37.459597 -0.834753 1.449341 0.066359 -0.004654 -202024.000000 0 0 1
25.267633 -26.043949 4.307287 36.541665 -0.800526 1.452648 0.064252 -0.012405 273062.000000 0 0 1
26.346333 -25.500949 5.059687 37.013891 -0.769094 1.433670 0.059892 -0.018171 296626.000000 0 0 1
26.369433 -24.107749 5.002887 36.077132 -0.740622 1.431676 0.057117 -0.019055 -298236.000000 0 0 1
27.221833 -23.416349 6.063487 36.415923 -0.710389 1.403511 0.067022 -0.017051 -467715.000000 0 0 1
28.547833 -23.334849 5.596187 37.293582 -0.685258 1.420170 0.060011 -0.014049 59153.200000 0 0 1
29.412933 -22.386549 6.257587 37.489140 -0.650575 1.403094 0.066257 -0.024025 282034.000000 0 0 1
28.974633 -20.914049 6.286487 36.282871 -0.625211 1.396654 0.085424 -0.021955 -483077.000000 0 0 1
28.868033 -20.200249 5.070787 35.596717 -0.610555 1.427859 0.081805 -0.003520 -58281.400000 0 0 1
28.271333 -18.966649 5.258387 34.447826 -0.590913 1.417549 0.097764 -0.003387 -267603.000000 0 0 1
28.537433 -18.009249 4.058287 33.988054 -0.562956 1.451107 0.111754 0.000651 705642.000000 0 0 1
29.908433 -17.637649 3.866787 34.936415 -0.532828 1.459888 0.131129 0.007350 742511.000000 0 0 1
29.970433 -16.711249 2.819387 34.430243 -0.508653 1.488818 0.137728 0.021749 -5833.170000 0 0 1
31.030533 -15.616649 3.015387 34.869274 -0.466258 1.484211 0.154054 0.005134 14095.100000 0 0 1
30.621933 -14.583549 3.921887 34.143285 -0.444464 1.455677 0.162247 0.003303 209576.000000 0 0 1
31.654933 -13.648949 4.038187 34.707860 -0.407093 1.454184 0.166125 -0.009826 138023.000000 0 0 1
31.226133 -12.674349 5.160287 34.093094 -0.385573 1.418854 0.165819 -0.010559 140148.000000 0 0 1
31.132133 -13.251649 6.446087 34.443692 -0.402428 1.382538 0.141849 -0.012268 673863.000000 0 0 1
30.095833 -12.562649 7.186687 33.395026 -0.395434 1.353897 0.132406 -0.002672 484288.000000 0 0 1
30.138933 -12.796149 8.734187 33.887796 -0.401508 1.310116 0.149803 -0.009326 -237259.000000 0 0 1
29.699233 -13.995649 9.312387 34.126869 -0.440381 1.294416 0.116186 -0.001615 -90386.200000 0 0 1
29.497133 -13.888649 10.684487 34.309382 -0.440055 1.254114 0.167785 -0.017998 235597.000000 0 0 1
30.356133 -14.909349 11.507887 35.724151 -0.456541 1.242816 0.160318 -0.031195 763696.000000 0 0 1
31.569633 -14.414149 12.104687 36.755039 -0.428315 1.235198 0.116372 -0.020530 515349.000000 0 0 1
31.971133 -15.498049 12.958087 37.818711 -0.451374 1.221074 0.131742 -0.025723 288744.000000 0 0 1
33.133933 -15.034049 13.880587 38.942918 -0.425956 1.206348 0.116755 -0.027396 191746.000000 0 0 1
34.361533 -14.774149 13.244487 39.678796 -0.406066 1.230472 0.077252 -0.029054 160636.000000 0 0 1
35.324333 -14.336949 14.184987 40.676412 -0.385553 1.214583 0.042194 -0.029603 420522.000000 0 0 1
36.769433 -14.054549 13.687487 41.675759 -0.365098 1.236158 0.073989 -0.025584 198681.000000 0 0 1
37.044433 -12.822349 12.969387 41.290527 -0.333227 1.251287 0.098265 -0.034432 -335140.000000 0 0 1
-37.650206 -12.900449 12.449487 41.700712 0.330103 1.267630 0.123060 -0.034466 -569422.000000 0 0 1
-37.056806 -11.478749 12.154487 40.653415 0.300388 1.267175 0.147253 -0.043163 -668033.000000 0 0 1
-35.759606 -11.533249 11.652787 39.338947 0.311989 1.270069 0.147874 -0.039756 -839992.000000 0 0 1
-35.134006 -10.292849 11.760987 38.453374 0.284985 1.259965 0.152617 -0.048975 -45122.100000 0 0 1
-33.741906 -10.383349 11.074087 36.999535 0.298532 1.266834 0.176747 -0.043880 1011950.000000 0 0 1
-32.692106 -11.153049 11.712987 36.474078 0.328773 1.243872 0.161843 -0.045627 860860.000000 0 0 1
-32.861206 -12.511149 11.366587 36.953850 0.363782 1.258138 0.155521 -0.039829 -452415.000000 0 0 1
-31.733006 -13.398949 11.923187 36.451035 0.399531 1.237562 0.107827 -0.032131 -158988.000000 0 0 1
-30.512906 -13.353849 11.240387 35.152654 0.412533 1.245321 0.131233 -0.034982 -567071.000000 0 0 1
-29.875806 -14.596349 11.417687 35.156519 0.454460 1.240031 0.124498 -0.028077 1289310.000000 0 0 1
-28.480606 -14.612049 10.615387 33.724522 0.474035 1.250585 0.119577 -0.015141 1085030.000000 0 0 1
-28.683006 -14.578149 9.223087 33.470922 0.470226 1.291629 0.123846 -0.021362 797786.000000 0 0 1
-27.453706 -14.547749 8.487387 32.208365 0.487281 1.304132 0.089879 -0.014878 500749.000000 0 0 1
-27.757106 -14.475049 6.972987 32.071897 0.480691 1.351629 0.138438 -0.013606 50568.700000 0 0 1
-28.025406 -15.683949 6.322587 32.732015 0.510209 1.376412 0.140045 0.001052 94926.600000 0 0 1
-28.127306 -15.451449 4.923787 32.467466 0.502336 1.418556 0.166147 -0.001875 -240930.000000 0 0 1
-28.725206 -16.629149 4.145987 33.449294 0.524764 1.446528 0.143723 -0.002724 -274864.000000 0 0 1
-30.120606 -16.635949 4.251787 34.671075 0.504616 1.447855 0.112717 -0.015964 -399097.000000 0 0 1
-30.668006 -17.749349 3.500387 35.606442 0.524654 1.472330 0.116374 -0.014391 326431.000000 0 0 1
-32.161106 -18.004449 3.836187 37.056893 0.510352 1.467089 0.142906 -0.030860 289653.000000 0 0 1
-32.993406 -17.065249 3.225987 37.285313 0.477338 1.484166 0.184642 -0.032362 873665.000000 0 0 1
-34.401306 -17.114449 3.539287 38.586018 0.461641 1.478943 0.179706 -0.035071 1338670.000000 0 0 1
-35.379806 -16.097549 2.949987 38.981588 0.426998 1.495047 0.173204 -0.040933 46115.000000 0 0 1
-35.526806 -16.370949 1.565287 39.148590 0.431803 1.530802 0.163566 -0.038342 -81372.600000 0 0 1
-36.389206 -15.459249 0.932887 39.547857 0.401727 1.547205 0.198809 -0.041877 -350039.000000 0 0 1
-36.858806 -15.954149 -0.428113 40.165778 0.408497 1.581455 0.158700 -0.035821 -701929.000000 0 0 1
-35.893606 -16.096749 -1.442613 39.364164 0.421570 1.607452 0.173349 -0.029789 -127090.000000 0 0 1
-36.243206 -16.974049 -2.483913 40.098107 0.437998 1.632782 0.134075 -0.021654 -147206.000000 0 0 1
-35.042806 -17.730549 -3.121613 39.396892 0.468411 1.650114 0.122398 -0.021973 152757.000000 0 0 1
-35.429506 -18.747149 -3.975013 40.280346 0.486687 1.669641 0.106189 -0.023768 -708408.000000 0 0 1
-34.290106 -19.321249 -4.465813 39.611432 0.513122 1.683777 0.101773 -0.025484 -840733.000000 0 0 1
-34.623606 -20.387449 -5.583913 40.566270 0.532166 1.708884 0.093170 -0.027644 -248137.000000 0 0 1
-35.384006 -21.429849 -5.071913 41.677220 0.544554 1.692794 0.112559 -0.030388 -99904.600000 0 0 1
-35.655906 -22.394049 -6.044313 42.536700 0.560797 1.713375 0.114354 -0.023034 231070.000000 0 0 1
-36.452806 -23.623349 -5.532013 43.788958 0.575005 1.697468 0.118058 -0.027280 403970.000000 0 0 1
-35.625606 -24.574349 -4.839413 43.548851 0.603844 1.682152 0.152621 -0.028459 668865.000000 0 0 1
-36.383306 -25.795149 -4.669213 44.843464 0.616729 1.675108 0.129073 -0.019921 638793.000000 0 0 1
-35.515306 -26.952149 -4.104313 44.772768 0.649165 1.662595 0.110519 -0.016222 -461786.000000 0 0 1
-34.378206 -27.165049 -4.908713 44.089641 0.668726 1.682362 0.114359 -0.018654 -177920.000000 0 0 1
-33.560606 -28.223249 -4.523013 44.083146 0.699225 1.673579 0.116207 -0.022448 118100.000000 0 0 1
-32.545606 -27.967549 -3.380913 43.044522 0.709888 1.649422 0.131929 -0.034294 -848301.000000 0 0 1
-33.216806 -27.756349 -2.181913 43.342034 0.696081 1.621159 0.097130 -0.030756 24805.500000 0 0 1
-32.389906 -27.439049 -1.047713 42.462986 0.702836 1.595472 0.111240 -0.041280 -74456.300000 0 0 1
-33.123306 -27.464649 0.279087 43.029505 0.692273 1.564310 0.087301 -0.024295 -200871.000000 0 0 1
-33.350406 -28.748149 0.851887 44.038976 0.711421 1.551451 0.086732 -0.009345 -205401.000000 0 0 1
-34.130106 -28.725649 1.997987 44.654440 0.699627 1.526038 0.082781 -0.001451 -481159.000000 0 0 1
-34.672206 -30.130949 2.336187 45.994497 0.715435 1.519982 0.076415 -0.004613 -654443.000000 0 0 1
-35.496306 -30.002149 3.477187 46.606948 0.701712 1.496120 0.066974 -0.000944 3516.350000 0 0 1
-36.113706 -31.213349 3.855187 47.888782 0.712742 1.490206 0.053843 0.004125 170635.000000 0 0 1
-37.399606 -31.583949 3.055387 49.047037 0.701292 1.508461 0.045039 0.013500 -310595.000000 0 0 1
37.913933 -32.669049 3.631887 50.178917 -0.711226 1.498354 0.072533 0.010494 -141605.000000 0 0 1
36.979533 -33.216349 2.703587 49.780730 -0.731840 1.516460 0.069246 0.009800 -403172.000000 0 0 1
35.834433 33.543822 3.450387 49.205688 0.752394 1.500617 0.069012 0.007720 406259.000000 0 0 1
34.940933 -33.328849 4.333987 48.481589 -0.761789 1.481282 0.065499 0.010081 487465.000000 0 0 1
34.272333 -32.251849 3.727787 47.208802 -0.755035 1.491750 0.063974 0.011575 -382359.000000 0 0 1
33.169733 -32.422049 2.611087 46.456843 -0.774000 1.514562 0.056361 0.002217 25002.100000 0 0 1
33.683133 -32.848549 1.377687 47.068871 -0.772855 1.541523 0.061545 0.004865 9382.350000 0 0 1
32.802333 -32.525549 0.303987 46.195203 -0.781161 1.564216 0.052994 0.004763 -529596.000000 0 0 1
33.214833 -33.253849 -1.037413 47.011912 -0.785985 1.592865 0.058018 -0.002786 674493.000000 0 0 1
34.284933 -32.763849 -1.840413 47.458546 -0.762716 1.609585 0.049886 0.001035 554422.000000 0 0 1
35.529733 -32.640749 -1.162013 48.261068 -0.743045 1.594876 0.048847 0.009679 -296442.000000 0 0 1
36.827033 -32.424649 -1.963013 49.106432 -0.721913 1.610782 0.043844 0.006422 10446.200000 0 0 1
37.263133 -33.640949 -2.578013 50.268287 -0.734357 1.622104 0.039584 -0.000606 333032.000000 0 0 1
37.990233 -33.394149 -3.784413 50.722271 -0.721102 1.645476 0.055385 0.003585 -406544.000000 0 0 1
-37.384206 32.922822 -4.409713 50.009366 -0.722027 1.659089 0.055032 -0.004310 61747.900000 0 0 1
-36.179906 32.559122 -3.747513 48.817270 -0.732772 1.647638 0.081850 0.004116 422961.000000 0 0 1
-35.557806 31.394022 -4.339213 47.631617 -0.723287 1.662022 0.105227 -0.012222 499639.000000 0 0 1
-34.194506 30.951122 -3.752213 46.274348 -0.735653 1.651972 0.129268 -0.021280 -158092.000000 0 0 1
-33.122906 31.865822 -3.888113 46.126727 -0.766057 1.655188 0.122505 -0.026733 -615555.000000 0 0 1
-31.869806 31.374022 -3.596813 44.865921 -0.777559 1.651050 0.176825 -0.036364 -485000.000000 0 0 1
-31.498906 31.229622 -2.105813 44.406135 -0.781105 1.618236 0.165192 -0.020965 -676536.000000 0 0 1
-32.339406 30.347222 -1.425713 44.371429 -0.753629 1.602933 0.142191 -0.009326 -179551.000000 0 0 1
-31.971806 30.326922 -0.049413 44.067233 -0.759001 1.571918 0.143560 -0.012683 -88881.300000 0 0 1
-33.082406 29.650322 0.743587 44.431297 -0.730743 1.554060 0.145210 -0.015676 -134874.000000 0 0 1
-33.355906 28.303822 0.404087 43.747984 -0.703646 1.561559 0.145094 -0.022204 129913.000000 0 0 1
-34.644306 28.171122 -0.170013 44.652760 -0.682710 1.574604 0.128182 -0.012284 72360.700000 0 0 1
-35.013506 26.813522 -0.843613 44.109208 -0.653540 1.589923 0.135593 -0.003185 201837.000000 0 0 1
-35.179906 25.731222 0.065587 43.585845 -0.631502 1.569292 0.125341 -0.016468 -125642.000000 0 0 1
-35.365606 24.486922 -0.635013 43.020213 -0.605603 1.585558 0.141718 -0.016855 -177249.000000 0 0 1
-35.196906 23.300722 0.260687 42.211536 -0.584772 1.564621 0.155142 -0.025008 684929.000000 0 0 1
-33.904806 23.022322 0.827587 40.990829 -0.596512 1.550605 0.166512 -0.033624 665379.000000 0 0 1
-33.452906 23.806122 1.925487 41.103964 -0.618489 1.523935 0.162932 -0.039352 530736.000000 0 0 1
-31.905006 23.500222 2.141987 39.683472 -0.634849 1.516793 0.141384 -0.044611 1646870.000000 0 0 1
-31.026106 24.308722 1.357787 39.438266 -0.664594 1.536361 0.156857 -0.039514 150083.000000 0 0 1
-30.828306 25.603522 2.002787 40.124007 -0.693076 1.520861 0.134831 -0.036983 -427301.000000 0 0 1
-30.295106 26.705322 1.075387 40.399556 -0.722503 1.544174 0.127918 -0.026346 1439020.000000 0 0 1
-28.999206 26.368822 0.497387 39.198420 -0.737927 1.558107 0.125781 -0.027435 1066310.000000 0 0 1
-28.549806 27.310722 -0.476413 39.511947 -0.763220 1.582854 0.121694 -0.019070 59841.300000 0 0 1
-27.480906 26.715722 -1.410413 38.352565 -0.771280 1.607580 0.112706 -0.022343 -691318.000000 0 0 1
-27.854706 25.720922 -2.394913 37.989289 -0.745592 1.633880 0.126236 -0.029515 -211029.000000 0 0 1
-26.849706 25.219222 -3.284513 36.982481 -0.754094 1.659726 0.119241 -0.010353 262683.000000 0 0 1
-25.698206 24.443422 -2.628713 35.563869 -0.760379 1.644779 0.107748 -0.021664 -265748.000000 0 0 1
-26.029506 23.146522 -2.250613 34.905042 -0.726839 1.635319 0.087259 -0.013844 -135174.000000 0 0 1
-25.078506 22.542622 -1.368013 33.748670 -0.732197 1.611343 0.093831 -0.035176 -667536.000000 0 0 1
-25.502706 21.111722 -0.883113 33.119069 -0.691477 1.597464 0.120642 -0.043362 -217743.000000 0 0 1
-26.427006 20.959222 0.177887 33.729917 -0.670519 1.565522 0.113254 -0.039557 154425.000000 0 0 1
-27.769506 21.341422 -0.024913 35.022884 -0.655249 1.571508 0.106725 -0.043086 -32690.700000 0 0 1
-28.646306 20.623822 -1.058313 35.313920 -0.623988 1.600770 0.131037 -0.045312 -798931.000000 0 0 1
-28.968306 19.314122 -0.641613 34.822546 -0.588048 1.589223 0.166825 -0.054918 93751.100000 0 0 1
-29.617506 18.645222 -1.728613 35.040392 -0.561853 1.620148 0.184912 -0.049215 109469.000000 0 0 1
-29.990106 17.177722 -1.493013 34.593492 -0.520164 1.613969 0.173974 -0.047960 118549.000000 0 0 1
-30.974006 16.990522 -0.488613 35.331369 -0.501723 1.584626 0.181714 -0.047940 237292.000000 0 0 1
-31.305706 15.648722 -0.146813 34.999304 -0.463542 1.574991 0.189919 -0.058008 28270.100000 0 0 1
-30.200306 14.820622 0.559687 33.645543 -0.456216 1.554161 0.241541 -0.056255 -101098.000000 0 0 1
-29.815406 15.129722 1.921087 33.489663 -0.469587 1.513401 0.267634 -0.052169 434997.000000 0 0 1
-28.630106 14.540222 2.433687 32.202855 -0.469920 1.495151 0.295296 -0.060537 132025.000000 0 0 1
-28.580006 12.984222 2.486187 31.489489 -0.426433 1.491761 0.313589 -0.056939 -491313.000000 0 0 1
-28.369506 12.322722 1.234387 30.954839 -0.409776 1.530909 0.295438 -0.058373 377353.000000 0 0 1
-28.316306 10.939422 1.389287 30.387732 -0.368666 1.525062 0.347938 -0.061108 -135831.000000 0 0 1
-28.049306 10.359922 0.018287 29.901369 -0.353805 1.570185 0.316195 -0.048177 800491.000000 0 0 1
-29.262106 10.206822 -0.757013 31.000373 -0.335611 1.595218 0.300340 -0.042570 1195880.000000 0 0 1
-28.947306 9.412222 -1.903513 30.498522 -0.314368 1.633250 0.306906 -0.044669 554903.000000 0 0 1
-30.213506 9.018022 -2.745213 31.649911 -0.290059 1.657642 0.281341 -0.043675 341222.000000 0 0 1
-30.016306 8.008322 -3.653113 31.280299 -0.260726 1.687850 0.293476 -0.041744 21490.300000 0 0 1
-31.106806 7.828522 -4.527113 32.394658 -0.246546 1.711004 0.256806 -0.041423 -2576.290000 0 0 1
-11.714067 18.185622 -19.591513 29.184989 -0.998552 2.306741 0.174903 -0.016724 268663.000000 0 0 1
-12.012167 17.501022 -20.852013 29.755409 -0.969277 2.347287 0.165112 -0.019989 -794630.000000 0 0 1
-10.877267 16.912722 -21.379813 29.350494 -0.999258 2.386826 0.168644 -0.030527 -699377.000000 0 0 1
-11.106067 15.681722 -22.273613 29.417256 -0.954577 2.429753 0.152318 -0.026695 613402.000000 0 0 1
-9.995567 14.741222 -22.282613 28.525950 -0.974941 2.467278 0.190679 -0.036856 744080.000000 0 0 1
-10.186667 13.684622 -23.174713 28.776803 -0.930897 2.507022 0.174441 -0.039131 231401.000000 0 0 1
-9.221667 12.490722 -22.923613 27.686627 -0.934837 2.546269 0.160949 -0.032687 1293470.000000 0 0 1
-7.851667 12.591522 -23.358113 27.673029 -1.013228 2.575634 0.128281 -0.025441 600416.000000 0 0 1
-7.093667 11.597422 -22.766413 26.516596 -1.021848 2.603275 0.120348 -0.016340 940191.000000 0 0 1
-5.518067 11.644522 -22.786413 26.177558 -1.128265 2.626924 0.086678 -0.010561 1223250.000000 0 0 1
-4.984467 11.114622 -23.996413 26.911105 -1.149224 2.671866 0.079038 -0.023028 -1044090.000000 0 0 1
-3.602467 11.251922 -23.979213 26.731744 -1.260944 2.683802 0.063216 -0.014970 -801597.000000 0 0 1
-2.904667 10.794222 -25.232453 27.597626 -1.307929 2.724568 0.092196 -0.032793 -592525.000000 0 0 1
-2.739467 9.409122 -25.404613 27.229223 -1.287478 2.773431 0.102059 -0.042980 145007.000000 0 0 1
-2.016167 9.189922 -26.596143 28.211246 -1.354829 2.801578 0.109804 -0.045683 -574696.000000 0 0 1
-1.675167 7.717222 -27.013533 28.144140 -1.357044 2.857185 0.110759 -0.027773 420638.000000 0 0 1
-0.657667 6.967222 -26.331773 27.245861 -1.476681 2.881828 0.105947 -0.036435 352163.000000 0 0 1
-0.763967 6.809622 -24.920313 25.845243 -1.459074 2.873254 0.115756 -0.049494 -428512.000000 0 0 1
0.269233 5.887122 -24.254013 24.959724 1.525096 2.903231 0.051168 -0.038576 -61812.800000 0 1 0
1.605033 6.381222 -24.332013 25.206010 1.324383 2.877485 0.064738 -0.015296 415616.000000 0 0 1
2.514233 5.657722 -23.529113 24.330029 1.152618 2.884295 0.061859 0.005846 104730.000000 0 1 0
2.467933 6.107122 -22.036613 22.999998 1.186754 2.851138 0.043364 -0.005473 -272759.000000 0 1 0
3.071833 7.390122 -21.852013 23.271453 1.176857 2.790522 0.058104 -0.021697 514644.000000 0 1 0
2.688033 7.912522 -20.579613 22.211573 1.243310 2.755869 0.060001 -0.019153 107102.000000 0 1 0
3.153233 9.359422 -20.486313 22.742706 1.245835 2.692373 0.048642 -0.029117 -261086.000000 0 1 0
2.333133 10.094622 -19.588013 22.159313 1.343658 2.655068 0.055631 -0.026920 588386.000000 0 1 0
2.848033 11.458422 -19.403413 22.713413 1.327179 2.594943 0.059065 -0.025133 -178726.000000 0 1 0
4.067433 11.648022 -18.504213 22.240196 1.234839 2.553529 0.059189 -0.032820 434495.000000 0 1 0
5.247533 11.033422 -19.027113 22.612032 1.126856 2.570775 0.064371 -0.027042 498979.000000 0 1 0
6.367233 11.039822 -18.136613 22.166552 1.047647 2.529065 0.067234 -0.013519 917508.000000 0 1 0
7.556833 10.127122 -18.602513 22.488170 0.929733 2.544926 0.109456 -0.029208 391775.000000 0 1 0
7.291433 8.733922 -18.793513 21.969126 0.875169 2.597218 0.081686 -0.019246 181036.000000 0 1 0
6.896433 8.434822 -20.135513 22.894232 0.885407 2.645610 0.063285 -0.012649 -35583.300000 0 1 0
6.597833 6.926522 -20.310813 22.450773 0.809697 2.701429 0.074192 -0.017028 -581129.000000 0 1 0
7.747033 6.133622 -20.354713 22.626360 0.669683 2.689653 0.073219 -0.019219 -368581.000000 0 1 0
7.645433 4.786922 -20.646813 22.531270 0.559401 2.729695 0.062145 -0.009660 -342021.000000 0 1 0
7.852633 4.356822 -22.142413 23.894187 0.506539 2.756294 0.088409 -0.025397 -185727.000000 0 1 0
6.812433 4.861622 -22.947313 24.425883 0.619822 2.791868 0.079454 -0.024281 84129.800000 0 1 0
7.082933 4.625522 -24.274913 25.706707 0.578518 2.806265 0.080877 -0.034104 -42919.300000 0 0 1
6.136033 5.403722 -25.233243 26.524849 0.722023 2.828241 0.075842 -0.032563 4093.040000 0 0 1
6.324133 6.833522 -25.246193 26.908399 0.824093 2.788267 0.067048 -0.041383 178374.000000 0 0 1
6.044133 7.554122 -24.033713 25.907830 0.895988 2.758899 0.088366 -0.043485 -748305.000000 0 0 1
5.878333 9.044522 -24.304613 26.590832 0.994468 2.723887 0.102943 -0.049424 267634.000000 0 0 1
4.656633 9.491022 -24.854013 27.008992 1.114668 2.739419 0.106353 -0.054742 384712.000000 0 0 1
3.514633 9.531122 -24.002913 26.064051 1.217513 2.741231 0.101038 -0.056313 78929.200000 0 0 1
2.204733 9.628722 -24.824813 26.717868 1.345702 2.762894 0.116299 -0.043092 -186888.000000 0 0 1
1.995533 10.931422 -25.342463 27.671620 1.390234 2.728363 0.140758 -0.048370 -607042.000000 0 0 1
0.954533 10.825722 -26.234463 28.396380 1.482851 2.748859 0.157099 -0.055138 -1160330.000000 0 0 1
0.458733 12.163622 -26.763023 29.401080 1.533101 2.714740 0.146219 -0.049717 5662.810000 0 0 1
-0.084867 13.019122 -25.793793 28.893329 -1.564278 2.674153 0.137002 -0.043947 112506.000000 0 0 1
-0.592767 14.259422 -26.251953 29.880554 -1.529250 2.643642 0.133890 -0.044504 -70999.000000 0 0 1
-0.992967 15.257522 -25.212993 29.486827 -1.505807 2.596462 0.134167 -0.052555 -23744.700000 0 0 1
-2.188767 14.834422 -24.580313 28.793099 -1.424307 2.593822 0.113144 -0.038160 -41843.500000 0 0 1
-2.470367 15.602422 -23.403713 28.236006 -1.413768 2.547864 0.102892 -0.038430 -1190400.000000 0 0 1
-3.660467 15.073622 -22.619713 27.427441 -1.332568 2.540487 0.090772 -0.035314 482487.000000 0 0 1
-4.939167 15.593422 -23.028013 28.246054 -1.264047 2.523983 0.099070 -0.032632 635985.000000 0 0 1
-5.423867 15.095222 -24.285813 29.104720 -1.225852 2.557892 0.113419 -0.039599 -941684.000000 0 0 1
-6.909867 15.324522 -24.576513 29.775698 -1.147192 2.541686 0.100703 -0.039724 -301558.000000 0 0 1
-7.298967 16.656522 -24.802913 30.755473 -1.157795 2.508929 0.105004 -0.039036 1133380.000000 0 0 1
-8.752767 16.634722 -24.889113 31.189627 -1.086429 2.494754 0.131258 -0.039217 1170910.000000 0 0 1
-9.535667 17.840222 -25.353623 32.434683 -1.079928 2.468155 0.133174 -0.039273 -348155.000000 0 0 1
-9.798567 18.745422 -24.336413 32.243817 -1.089140 2.426088 0.133091 -0.043344 354098.000000 0 0 1
-10.916767 19.526022 -24.783713 33.386730 -1.061002 2.407326 0.112218 -0.029883 680220.000000 0 0 1
-11.519767 20.470422 -23.713713 33.377888 -1.058216 2.360950 0.102955 -0.031023 104726.000000 0 0 1
-10.717667 21.634322 -23.517613 33.704456 -1.110835 2.343062 0.123838 -0.024727 361679.000000 0 0 1
-11.165867 22.800622 -24.255613 35.112387 -1.115408 2.333390 0.098207 -0.026949 -80962.900000 0 0 1
-10.990267 23.024422 -25.813773 36.294088 -1.125448 2.362056 0.080449 -0.022998 -157372.000000 0 0 1
-11.835367 22.180822 -26.569013 36.578371 -1.080643 2.383805 0.089253 -0.021951 80315.400000 0 0 1
-11.966567 22.584422 -27.890813 37.830573 -1.083548 2.399796 0.087912 -0.011858 -368640.000000 0 0 1
-12.852567 21.620722 -28.658413 38.130679 -1.034463 2.421257 0.101863 -0.007292 -370723.000000 0 0 1
-12.300267 20.410422 -29.193263 37.684592 -1.028433 2.456995 0.136531 -0.016962 -92040.100000 0 0 1
-11.818667 19.454922 -28.197223 36.238905 -1.024888 2.462420 0.128236 -0.021519 105421.000000 0 0 1
-10.729067 18.551922 -28.781693 35.884154 -1.046466 2.501554 0.112867 -0.023615 -541573.000000 0 0 1
-9.445267 19.102122 -28.933443 35.933943 -1.111589 2.506782 0.099989 -0.029580 352296.000000 0 0 1
-8.384567 18.259522 -29.415583 35.622852 -1.140327 2.542328 0.092115 -0.028143 1081460.000000 0 0 1
-7.967967 17.005922 -28.590103 34.206488 -1.132631 2.560402 0.111844 -0.038724 -657045.000000 0 0 1
-8.891467 15.951322 -28.763973 34.071527 -1.062280 2.575910 0.087150 -0.028482 -84044.800000 0 0 1
-8.589567 14.749522 -28.132893 32.905755 -1.043447 2.596258 0.101712 -0.038961 -4935.300000 0 0 1
-9.808867 13.776022 -28.093423 32.790746 -0.952046 2.599728 0.096558 -0.029658 603498.000000 0 0 1
-10.773167 14.214922 -27.113953 32.454454 -0.922273 2.559741 0.111033 -0.031183 -673748.000000 0 0 1
-11.889267 13.417322 -27.231803 32.602918 -0.845707 2.559396 0.142952 -0.037252 -1209850.000000 0 0 1
-13.034667 13.840322 -26.354833 32.496681 -0.815367 2.516657 0.133731 -0.034263 -331698.000000 0 0 1
-13.676467 15.068822 -26.734183 33.598090 -0.833798 2.490968 0.132006 -0.032242 35862.700000 0 0 1
-14.631567 15.491522 -25.758193 33.429844 -0.813938 2.450445 0.103042 -0.031389 190717.000000 0 0 1
-15.506167 16.607822 -26.316733 34.768253 -0.819689 2.429381 0.081069 -0.021959 -49095.300000 0 0 1
-14.888967 17.904222 -26.328003 35.148346 -0.877088 2.417429 0.083366 -0.024857 206783.000000 0 0 1
-15.877167 18.878722 -26.595453 36.274077 -0.871545 2.393784 0.056069 -0.020757 -368424.000000 0 0 1
-15.473267 20.288422 -26.265673 36.618679 -0.919239 2.370680 0.065742 -0.020241 -205919.000000 0 0 1
-16.399867 21.324322 -26.567963 37.809245 -0.915203 2.349960 0.023716 -0.009156 177033.000000 0 0 1
-15.827967 22.609922 -26.555433 38.300445 -0.960040 2.336917 0.033410 -0.009640 -224976.000000 0 0 1
-15.184367 23.186722 -25.316633 37.538260 -0.991003 2.310978 0.009587 -0.011495 50679.500000 0 0 1
-14.546567 24.445422 -25.520823 38.216406 -1.034015 2.302042 0.033100 -0.013696 68197.600000 0 0 1
-14.145467 25.052922 -24.321913 37.673579 -1.056795 2.272600 0.034798 -0.013874 -474246.000000 0 0 1
-13.599967 26.462222 -24.629013 38.623782 -1.096060 2.262259 0.052982 -0.009596 -60062.000000 0 0 1
-14.486567 27.476022 -25.072513 39.917707 -1.085592 2.249912 0.066779 -0.014711 36446.700000 0 0 1
-15.147067 28.291722 -24.091513 40.127997 -1.079240 2.214756 0.067236 -0.017603 649824.000000 0 0 1
-16.306267 29.194022 -24.628313 41.529978 -1.061414 2.205607 0.060629 -0.017121 830136.000000 0 0 1
-17.493067 28.504622 -25.019513 41.767175 -1.020370 2.213077 0.040118 -0.005037 368517.000000 0 0 1
-18.634667 29.296922 -24.692413 42.606052 -1.004282 2.188975 0.043983 -0.006865 1246910.000000 0 0 1
-19.983467 28.482122 -24.857313 42.760452 -0.958988 2.191141 0.070077 0.015015 1016170.000000 0 0 1
-20.539267 27.863422 -23.692513 41.947192 -0.935576 2.171009 0.059405 0.007442 273021.000000 0 0 1
-21.639867 27.011422 -23.991513 42.112866 -0.895362 2.176932 0.059634 -0.006784 335492.000000 0 0 1
-22.244167 26.344022 -22.712013 41.287359 -0.869578 2.153276 0.062038 -0.004419 -74949.700000 0 0 1
-23.147867 27.201122 -22.071713 41.986728 -0.865728 2.124314 0.066229 -0.002416 -179435.000000 0 0 1
-23.498167 26.849522 -20.766413 41.283224 -0.851864 2.097889 0.053998 -0.000317 -439237.000000 0 0 1
-24.571067 27.724322 -20.119813 42.156639 -0.845622 2.068334 0.047693 -0.001139 38517.800000 0 0 1
-25.890167 27.452622 -20.544513 42.965384 -0.814681 2.069360 0.077478 -0.012173 -110534.000000 0 0 1
-26.813407 28.476522 -20.341813 44.086965 -0.815469 2.050371 0.084289 -0.014769 14246.900000 0 0 1
-28.257137 28.098622 -20.726013 44.917324 -0.782585 2.050398 0.088262 -0.012365 18012.700000 0 0 1
-28.467717 27.901622 -22.144713 45.599339 -0.775356 2.077888 0.085295 -0.015378 -418327.000000 0 0 1
-29.832037 27.720822 -22.412713 46.483590 -0.748732 2.073919 0.092324 -0.014792 -272923.000000 0 0 1
-30.155917 27.289622 -23.883313 47.164769 -0.735544 2.101778 0.090545 -0.012891 32614.500000 0 0 1
-30.038477 25.893122 -24.095613 46.404336 -0.711419 2.116774 0.098159 0.012390 -42415.100000 0 0 1
-30.238387 25.552922 -25.452313 47.065190 -0.701613 2.142171 0.121795 0.011855 260.585000 0 0 1
-30.511617 24.006122 -25.699403 46.558694 -0.666632 2.155532 0.106003 0.002686 -503556.000000 0 0 1
-29.463907 23.145122 -25.465133 45.302224 -0.665862 2.167739 0.128267 -0.010395 -691594.000000 0 0 1
-29.809627 21.883422 -26.033663 45.224436 -0.633251 2.184201 0.119245 -0.016595 98907.000000 0 0 1
-28.783157 20.736622 -25.865903 43.903560 -0.624315 2.200806 0.127984 -0.020070 -24294.600000 0 0 1
-28.699717 20.165422 -24.574713 42.827964 -0.612492 2.181935 0.114948 -0.008699 71261.100000 0 0 1
-27.932367 18.989922 -24.496513 41.724254 -0.597077 2.198274 0.111239 -0.013498 293035.000000 0 0 1
-28.810077 17.704922 -24.748813 41.904517 -0.551042 2.202599 0.099095 -0.012331 519081.000000 0 0 1
-29.373157 17.492822 -26.056133 42.984919 -0.537132 2.222031 0.098067 -0.018744 566120.000000 0 0 1
-30.112287 16.268522 -26.110123 43.048265 -0.495336 2.222487 0.073559 -0.020039 9956.260000 0 0 1
-30.886147 15.918722 -27.384013 44.240750 -0.475892 2.238236 0.060529 -0.019782 302447.000000 0 0 1
-32.121197 16.597222 -27.490733 45.420034 -0.476923 2.220883 0.052938 -0.016900 -99447.900000 0 0 1
-33.027977 16.042422 -28.377843 46.405910 -0.452160 2.228768 0.052303 -0.010650 871023.000000 0 0 1
-34.253065 16.858822 -28.993453 47.938634 -0.457376 2.220315 0.053073 -0.012313 1535740.000000 0 0 1
-35.405654 16.697622 -28.140393 48.210503 -0.440678 2.194072 0.026407 -0.011000 67819.500000 0 0 1
-36.518137 17.342222 -28.681593 49.567739 -0.443361 2.187849 0.042701 -0.010450 -273743.000000 0 0 1
-37.846597 16.730822 -28.174163 50.060651 -0.416239 2.168566 0.055505 -0.024727 -269052.000000 0 0 1
37.876982 17.184922 -26.881473 49.523740 0.425930 2.144563 0.060983 -0.035407 -95697.700000 0 0 1
36.714372 16.534622 -26.415253 48.157080 0.423152 2.151393 0.076184 -0.033460 -137480.000000 0 0 1
36.085922 17.381722 -25.296473 47.373300 0.448881 2.134099 0.080484 -0.029513 -283454.000000 0 0 1
35.536232 18.589722 -25.709983 47.638270 0.481972 2.140867 0.079251 -0.042658 11179.400000 0 0 1
34.848672 19.225522 -24.642313 46.811261 0.504137 2.125179 0.103684 -0.030489 -19390.500000 0 0 1
34.106022 20.557422 -24.911813 46.972617 0.542439 2.129807 0.109636 -0.036934 34180.700000 0 0 1
32.899492 20.362322 -25.634223 46.412435 0.554219 2.155933 0.116893 -0.047020 -826284.000000 0 0 1
31.984772 21.179122 -24.977013 45.775889 0.584878 2.147945 0.134254 -0.036626 -585765.000000 0 0 1
30.641172 21.174122 -25.747393 45.278616 0.604684 2.175652 0.095467 -0.041048 87897.200000 0 0 1
30.011972 19.914222 -25.607433 44.193159 0.585837 2.188842 0.123629 -0.058429 -721481.000000 0 0 1
28.766072 19.927822 -26.241973 43.740669 0.605847 2.214228 0.117514 -0.057652 -211598.000000 0 0 1
28.007672 18.553422 -26.380793 42.715400 0.585071 2.236477 0.130009 -0.046124 243219.000000 0 0 1
28.651872 17.669722 -27.281753 43.329469 0.552611 2.251880 0.131314 -0.053217 1263740.000000 0 0 1
29.899272 17.090122 -26.816773 43.648345 0.519268 2.232399 0.143428 -0.049076 820894.000000 0 0 1
30.625172 16.184322 -27.824463 44.430104 0.486159 2.247533 0.112161 -0.041327 -245027.000000 0 0 1
30.013372 14.933822 -28.145003 43.771711 0.461704 2.269199 0.124502 -0.048963 42817.000000 0 0 1
29.676872 13.944622 -27.131023 42.558919 0.439264 2.262037 0.139714 -0.040611 -719593.000000 0 0 1
30.730272 13.319822 -26.212723 42.530860 0.409000 2.234860 0.129865 -0.031569 -444673.000000 0 0 1
30.927272 14.177522 -25.084913 42.269979 0.429830 2.206129 0.129538 -0.041815 -40982.800000 0 0 1
31.923332 13.531822 -24.331013 42.358087 0.400926 2.182683 0.101286 -0.031099 -30678.000000 0 0 1
-16.231867 -30.805649 -23.314913 41.905211 1.085852 2.160810 0.118613 -0.016874 536004.000000 0 0 1
-15.201667 -29.982649 -23.901713 41.247325 1.101552 2.188878 0.116407 -0.035479 734478.000000 0 0 1
-15.430867 -29.828649 -25.283163 42.036868 1.093391 2.216114 0.101505 -0.026416 -108727.000000 0 0 1
-14.483867 -28.797249 -25.903753 41.352973 1.104783 2.247730 0.113805 -0.034168 -296589.000000 0 0 1
-14.811867 -27.471049 -25.593973 40.362128 1.076297 2.257651 0.106055 -0.016482 -376045.000000 0 0 1
-13.915667 -26.570049 -26.151373 39.793311 1.088341 2.287868 0.100640 -0.021931 -704932.000000 0 0 1
-14.267067 -25.059149 -25.860973 38.733707 1.053229 2.301858 0.067589 -0.011196 -265460.000000 0 0 1
-14.046467 -24.614649 -24.541113 37.489337 1.052234 2.284471 0.108949 -0.037344 -37687.900000 0 0 1
-14.363367 -23.235849 -24.351713 36.595313 1.017134 2.298869 0.080460 -0.033603 -102017.000000 0 0 1
-14.075767 -22.697149 -22.919713 35.193764 1.015688 2.280018 0.101388 -0.031440 1235410.000000 0 0 1
-12.646567 -22.586249 -22.730113 34.448982 1.060366 2.291375 0.139054 -0.049324 913793.000000 0 0 1
-12.210067 -21.633249 -21.754313 33.020196 1.056956 2.290043 0.110227 -0.039115 275570.000000 0 0 1
-10.669467 -21.536449 -21.724213 32.397494 1.110824 2.305749 0.125049 -0.050212 14541.400000 0 0 1
-10.179667 -20.712749 -22.803313 32.444332 1.113997 2.350184 0.149121 -0.057470 2845.780000 0 0 1
-8.773967 -20.566749 -22.788713 31.926464 1.167563 2.365688 0.179624 -0.060216 -152278.000000 0 0 1
-8.337867 -19.432749 -23.797513 31.835097 1.165490 2.415124 0.212484 -0.052346 -191653.000000 0 0 1
-8.628067 -18.150749 -23.193413 30.689210 1.127058 2.427597 0.156284 -0.049648 -114488.000000 0 0 1
-8.491067 -16.944649 -23.975113 30.561829 1.106264 2.472652 0.155019 -0.046635 285093.000000 0 0 1
-7.120867 -16.551249 -24.606413 30.497970 1.164503 2.509548 0.186445 -0.054278 351815.000000 0 0 1
-6.736367 -17.293349 -25.754653 31.744932 1.199344 2.517168 0.206921 -0.057365 112595.000000 0 0 1
-5.522467 -16.761249 -26.273023 31.649784 1.252519 2.550114 0.164639 -0.061679 304409.000000 0 0 1
-5.118367 -17.530249 -27.582413 33.080157 1.286720 2.556762 0.165270 -0.045779 201195.000000 0 0 1
-6.085367 -17.377449 -28.634313 34.043080 1.233954 2.570147 0.211531 -0.044177 196714.000000 0 0 1
-5.852567 -18.287049 -29.668973 35.340015 1.261058 2.567212 0.201906 -0.047889 -420179.000000 0 0 1
-6.931967 -18.376449 -30.784503 36.516184 1.210081 2.573702 0.225697 -0.049074 93394.400000 0 0 1
-7.260067 -17.301949 -31.628543 36.775409 1.173500 2.606156 0.177113 -0.043796 -78593.400000 0 0 1
-7.645567 -16.120049 -30.972313 35.743459 1.127928 2.618978 0.140020 -0.031344 -377268.000000 0 0 1
-8.362967 -15.206949 -31.925843 36.337996 1.067996 2.643677 0.098441 -0.029850 62373.400000 0 0 1
-7.374767 -14.807349 -32.874103 36.801514 1.108712 2.675389 0.116951 -0.045820 362579.000000 0 0 1
-7.857867 -13.916249 33.513944 37.129402 1.056772 0.444966 0.106801 -0.027963 -232692.000000 0 0 1
-7.937967 -12.425349 -33.344483 36.458952 1.002298 2.725255 0.075050 -0.018687 77072.600000 0 0 1
-6.758767 -11.637249 -33.373883 35.985032 1.044624 2.758299 0.079039 -0.020463 -198762.000000 0 0 1
-6.721567 -10.834349 32.880258 35.265762 1.015516 0.369920 0.055454 -0.023845 988341.000000 0 0 1
-5.411767 -9.953949 32.755708 34.659843 1.072818 0.333011 0.083133 -0.034680 618316.000000 0 0 1
-5.505167 -9.105549 31.624550 33.366601 1.027005 0.324562 0.058891 -0.025663 537334.000000 0 0 1
-4.467467 -8.084849 31.618903 32.940523 1.065980 0.284227 0.067885 -0.037703 -182126.000000 0 0 1
-4.495667 -7.025249 30.539784 31.658230 1.001533 0.266604 0.063294 -0.030956 439688.000000 0 0 1
-5.570867 -6.091649 30.541164 31.637089 0.830023 0.263979 0.040448 -0.023804 -693954.000000 0 0 1
-6.790767 -6.597749 30.164614 31.615641 0.770982 0.304142 0.044429 -0.019867 -1267420.000000 0 0 1
-7.956167 -5.611049 29.992534 31.533102 0.614238 0.313875 0.033349 -0.013456 -37381.500000 0 0 1
-9.126867 -6.216449 29.489944 31.489692 0.597939 0.358298 0.045816 -0.013308 -270391.000000 0 0 1
-10.188767 -5.269049 29.510564 31.661447 0.477268 0.370722 0.042377 -0.019593 -1060050.000000 0 0 1
-11.320767 -5.715849 28.696464 31.373838 0.467560 0.416125 0.044453 -0.021589 -1445690.000000 0 0 1
-11.025067 -5.553849 27.328594 29.987487 0.466641 0.424285 0.047344 -0.020546 171909.000000 0 0 1
-12.005567 -6.179949 26.555784 29.791527 0.475383 0.470400 0.042160 -0.022889 -373285.000000 0 0 1
-11.720867 -6.107649 25.015694 28.292526 0.480378 0.486060 0.041802 -0.024244 80853.300000 0 0 1
-10.603967 -6.918849 24.668494 27.728130 0.578115 0.474205 0.046909 -0.021941 10812.200000 0 0 1
-9.912467 -6.478549 23.538404 26.349289 0.578885 0.466113 0.057420 -0.023303 -608838.000000 0 0 1
-10.545367 -6.516449 22.172154 25.402230 0.553509 0.509799 0.076128 -0.034932 -54525.300000 0 0 1
-11.647867 -5.600249 22.051654 25.559950 0.448167 0.530128 0.049487 -0.026073 282115.000000 0 0 1
-12.171267 -5.742849 20.767254 24.746694 0.440864 0.574999 0.056606 -0.031762 -31191.500000 0 1 0
-13.351767 -4.761749 20.435954 24.871111 0.342576 0.606454 0.060652 -0.031277 523737.000000 0 1 0
-12.915967 -3.431949 20.444354 24.424825 0.259712 0.578961 0.038531 -0.021055 290905.000000 0 1 0
-14.067567 -2.608249 20.577954 25.062952 0.183327 0.607547 0.058342 -0.015096 410972.000000 0 0 1
-13.920167 -1.208149 20.006954 24.403050 0.086574 0.609639 0.039783 -0.009111 315960.000000 0 1 0
-12.962767 -0.326149 20.619454 24.357783 0.025155 0.561374 0.040580 -0.005992 317952.000000 0 1 0
-13.106767 1.049851 20.297954 24.184633 -0.079929 0.574818 0.045765 -0.018039 -232812.000000 0 1 0
-12.760467 1.543851 18.810154 22.782337 -0.120402 0.599449 0.051811 -0.028638 379050.000000 0 1 0
-13.685067 1.100851 17.811054 22.488365 -0.080269 0.656699 0.062956 -0.015864 143773.000000 0 1 0
-14.980867 1.630851 17.861254 23.369006 -0.108435 0.700820 0.055279 -0.013285 -222577.000000 0 1 0
-16.044667 0.900851 17.005354 23.397114 -0.056088 0.757124 0.095167 -0.008313 1129.500000 0 1 0
-16.235567 -0.443149 17.470854 23.854156 0.027288 0.748952 0.073209 -0.009733 290021.000000 0 1 0
-17.169467 -1.216149 16.747954 24.015903 0.070714 0.799076 0.092954 -0.004621 -53506.800000 0 1 0
-17.089367 -2.710549 17.116454 24.338581 0.157300 0.790818 0.084533 -0.002027 128905.000000 0 1 0
-17.817967 -3.065349 18.288254 25.716464 0.170369 0.779664 0.099302 -0.004808 156547.000000 0 0 1
-17.709267 -4.470049 18.660754 26.111745 0.247248 0.774673 0.119168 -0.018384 327160.000000 0 0 1
-18.613367 -4.867649 19.887654 27.670747 0.255785 0.768830 0.119206 -0.018900 141119.000000 0 0 1
-18.150867 -4.280249 21.140054 28.190005 0.231584 0.722866 0.107568 -0.012468 417692.000000 0 0 1
-18.923067 -4.507849 22.350474 29.630168 0.233861 0.716187 0.105845 -0.017263 -492036.000000 0 0 1
-18.951567 -6.020449 22.822824 30.270266 0.307593 0.716714 0.123054 -0.019412 1058870.000000 0 0 1
-17.709467 -6.658349 23.215984 29.948969 0.359627 0.683789 0.064608 -0.028310 997615.000000 0 0 1
-16.654167 -6.688449 22.267194 28.599380 0.381892 0.678380 0.076293 -0.022259 -329065.000000 0 0 1
-15.355267 -7.188649 22.937474 28.523475 0.437849 0.636533 0.087670 -0.025770 -151631.000000 0 0 1
-15.455767 -8.515649 23.316374 29.241243 0.503587 0.647856 0.091887 -0.036906 35408.900000 0 0 1
-15.418667 -8.608649 24.711674 30.372865 0.509213 0.620462 0.085536 -0.033731 -268967.000000 0 0 1
-16.615467 -9.236049 25.427024 31.747628 0.507339 0.641981 0.072206 -0.023146 -502061.000000 0 0 1
-16.668567 -10.664349 25.568124 32.331075 0.569163 0.658646 0.077987 -0.038192 387841.000000 0 0 1
-15.810867 -11.254749 26.595254 32.923554 0.618626 0.630406 0.062718 -0.034554 343311.000000 0 0 1
-15.762767 -12.755149 26.387064 33.278158 0.680322 0.655203 0.059598 -0.035376 -255102.000000 0 0 1
-16.986767 -13.387249 26.644084 34.317283 0.667442 0.681856 0.067987 -0.029685 -299164.000000 0 0 1
-17.033167 -14.796449 26.293004 34.646583 0.715242 0.709187 0.073796 -0.025763 167794.000000 0 0 1
-16.144367 -15.841949 27.078484 35.282463 0.775944 0.695900 0.070884 -0.019633 -271035.000000 0 0 1
-14.828167 -15.876249 26.625974 34.363823 0.819519 0.684357 0.087182 -0.035764 -418489.000000 0 0 1
-14.098767 -16.811249 27.451904 35.142572 0.872928 0.674278 0.099276 -0.036165 -107582.000000 0 0 1
-12.660567 -16.985949 26.929254 34.263642 0.930274 0.666577 0.116570 -0.043224 -273284.000000 0 0 1
-11.943267 -17.956049 27.692564 35.098995 0.983852 0.661642 0.155034 -0.052459 868389.000000 0 0 1
-10.751067 -18.334749 26.960594 34.331066 1.040454 0.667597 0.154190 -0.057872 375248.000000 0 0 1
-9.622667 -18.905449 27.810804 34.977886 1.099983 0.651629 0.204917 -0.071206 -431635.000000 0 0 1
-9.757867 -20.237749 28.190674 36.048531 1.121521 0.672896 0.207601 -0.060532 -69007.400000 0 0 1
-8.725367 -20.680849 29.032684 36.697769 1.171550 0.658143 0.231422 -0.063731 50764.900000 0 0 1
-9.021767 -22.131949 29.500654 37.967144 1.183725 0.680903 0.229010 -0.061835 202729.000000 0 0 1
-8.804467 -23.211149 28.652204 37.910749 1.208243 0.713951 0.246542 -0.064906 -83049.800000 0 0 1
-9.298067 -24.371949 29.336414 39.256479 1.206333 0.726805 0.208881 -0.055037 80296.800000 0 0 1
-9.479167 -25.593849 28.417854 39.401449 1.216092 0.765207 0.194224 -0.046260 30623.500000 0 0 1
-10.655467 -25.468449 27.637154 39.063962 1.174547 0.784864 0.171476 -0.047135 292978.000000 0 0 1
-10.991667 -26.683449 26.911794 39.459699 1.180049 0.820293 0.150896 -0.042444 547525.000000 0 0 1
-12.466567 -26.823849 26.384274 39.636651 1.135739 0.842427 0.129190 -0.039572 629173.000000 0 0 1
-12.674267 -26.185049 25.126124 38.439770 1.120009 0.858400 0.141984 -0.049809 204356.000000 0 0 1
-12.615667 -24.796649 25.043344 37.432579 1.100161 0.837900 0.121569 -0.031716 -420991.000000 0 0 1
-12.705967 -24.357349 23.592374 36.212183 1.089981 0.861231 0.128748 -0.053534 802969.000000 0 0 1
-14.004367 -24.667349 23.042764 36.545443 1.054444 0.888569 0.103071 -0.038575 970082.000000 0 0 1
-14.192867 -24.192149 21.750454 35.493377 1.040234 0.911193 0.115100 -0.047096 234240.000000 0 0 1
-15.699467 -24.040549 21.357354 35.784883 0.992286 0.931257 0.101851 -0.047961 152577.000000 0 0 1
-16.236867 -25.364649 21.251954 36.859827 1.001385 0.956282 0.114760 -0.051699 -52955.600000 0 0 1
-17.318267 -25.362049 20.353054 36.842947 0.971679 0.985523 0.108715 -0.052807 -339888.000000 0 0 1
-17.565967 -26.822949 19.934854 37.754897 0.990994 1.014544 0.099382 -0.054744 -13233.600000 0 0 1
-16.610967 -27.344249 19.036054 37.229069 1.024898 1.034074 0.100614 -0.054925 133257.000000 0 0 1
-16.784367 -28.755149 18.817454 38.244871 1.042449 1.056381 0.103649 -0.045210 -672734.000000 0 0 1
-15.808167 -29.242649 17.810854 37.712825 1.075209 1.078925 0.107499 -0.044209 -467419.000000 0 0 1
-16.104867 -28.753449 16.485654 36.849754 1.060230 1.106968 0.103737 -0.051812 -88385.900000 0 0 1
-15.022967 -29.039749 15.648354 36.247311 1.093386 1.124408 0.105712 -0.056350 -141441.000000 0 0 1
-15.246767 -28.571249 14.231754 35.374044 1.080600 1.156745 0.103300 -0.046849 -145404.000000 0 0 1
-15.113167 -27.157949 14.176754 34.160538 1.062983 1.142849 0.113942 -0.050386 23659.900000 0 0 1
-15.441367 -26.627149 12.924254 33.383787 1.045279 1.173267 0.118630 -0.044998 421600.000000 0 0 1
-14.257267 -26.680049 11.909454 32.510457 1.080025 1.195738 0.108439 -0.045834 571204.000000 0 0 1
-14.672867 -26.088049 10.665854 31.774830 1.058455 1.228480 0.101948 -0.035188 276188.000000 0 0 1
-13.807667 -26.465749 9.586554 31.352665 1.089925 1.260054 0.099196 -0.031710 203560.000000 0 0 1
-13.957167 -25.737849 8.234254 30.414509 1.073898 1.296640 0.110360 -0.025381 27123.300000 0 0 1
-15.146367 -26.076049 7.545954 31.085595 1.044574 1.325599 0.104445 -0.038563 90551.200000 0 0 1
-15.353067 -25.262149 6.429854 30.252866 1.024698 1.356626 0.114109 -0.041055 -183358.000000 0 0 1
-16.231167 -25.841849 5.345454 30.981056 1.009974 1.397389 0.116174 -0.046729 -258730.000000 0 0 1
-15.571667 -26.888749 4.596954 31.410407 1.045875 1.423917 0.090647 -0.033735 429939.000000 0 0 1
-16.321367 -27.378749 3.476354 32.063499 1.033225 1.462162 0.146872 -0.036465 -10127.300000 0 0 1
-15.653767 -28.573949 2.834754 32.703927 1.069618 1.484008 0.145753 -0.032471 -225353.000000 0 0 1
-14.457267 -28.310049 2.156154 31.860955 1.098644 1.503071 0.080518 -0.010821 -89181.300000 0 0 1
-13.806367 -29.422749 1.529454 32.536951 1.132057 1.523772 0.076132 -0.016509 21725.200000 0 0 1
-12.416867 -29.115949 0.955254 31.667485 1.167687 1.540627 0.074778 -0.018359 -302217.000000 0 0 1
-12.316467 -28.370849 -0.223446 30.929765 1.161223 1.578021 0.083832 -0.020512 -125870.000000 0 0 1
-12.578567 -27.000849 -0.066046 29.787088 1.134833 1.573014 0.076342 -0.021004 -483878.000000 0 0 1
-12.472367 -26.295749 -1.478046 29.141225 1.127910 1.621538 0.087718 -0.031699 378789.000000 0 0 1
-11.228967 -26.556549 -2.126146 28.911253 1.170763 1.644403 0.095947 -0.034975 -49925.900000 0 0 1
-10.962867 -25.832449 -3.187946 28.242927 1.169448 1.683913 0.115676 -0.039536 313828.000000 0 0 1
-9.646467 -26.362449 -3.809746 28.329265 1.220013 1.705686 0.103497 -0.036827 228202.000000 0 0 1
-8.976667 -25.516049 -4.689746 27.452560 1.232515 1.742469 0.109691 -0.041230 -183633.000000 0 0 1
-7.652967 -25.959249 -4.913046 27.506155 1.284111 1.750376 0.125844 -0.029649 188294.000000 0 0 1
-6.711967 -24.978949 -5.603446 26.465015 1.308292 1.784141 0.098576 -0.027367 -128431.000000 0 0 1
-6.980067 -24.886749 -6.997546 26.777552 1.297349 1.835187 0.115004 -0.026182 -76170.600000 0 0 1
-6.248867 -23.836449 -7.608246 25.789728 1.314410 1.870263 0.092283 -0.018778 -49843.800000 0 0 1
-6.502667 -23.660549 -9.131646 26.181926 1.302587 1.927062 0.109263 -0.026473 242698.000000 0 0 1
-5.817067 -24.687649 -9.904846 27.229107 1.339391 1.943097 0.086504 -0.024178 220427.000000 0 0 1
-5.922867 -24.547249 -11.324146 27.674611 1.334037 1.992361 0.075584 -0.005066 186436.000000 0 0 1
-7.184167 -25.126949 -12.032846 28.770910 1.292311 2.002292 0.107248 -0.014864 270378.000000 0 0 1
-7.371767 -24.790949 -13.399046 29.128484 1.281766 2.048789 0.119429 -0.021923 408651.000000 0 0 1
-8.424467 -25.619549 -13.914746 30.347210 1.253105 2.047123 0.158711 -0.028087 159921.000000 0 0 1
-8.505367 -25.461649 -15.450746 30.973576 1.248404 2.093052 0.162979 -0.035629 1249720.000000 0 0 1
-7.375367 -26.118549 -16.127746 31.570221 1.295582 2.106973 0.143478 -0.049458 1554870.000000 0 0 1
-6.295267 -25.229949 -16.389546 30.737566 1.326274 2.133186 0.141189 -0.038528 457266.000000 0 0 1
-4.987467 -25.797849 -17.023846 31.308389 1.379824 2.145692 0.143832 -0.036302 362148.000000 0 0 1
-5.189767 -26.233649 -18.363946 32.440292 1.375489 2.172545 0.207833 -0.054026 637792.000000 0 0 1
-3.921367 -26.713849 -18.806446 32.904244 1.425046 2.179191 0.199145 -0.059665 541591.000000 0 0 1
-26.919747 14.721922 -4.161113 30.963246 -0.500446 1.705593 0.188217 -0.050731 -165708.000000 0 0 1
-26.529627 13.424222 -3.843813 29.980089 -0.468443 1.699362 0.201297 -0.047516 -108322.000000 0 0 1
-25.163737 13.307322 -4.152313 28.766998 -0.486444 1.715645 0.226342 -0.039407 -241255.000000 0 0 1
-24.524267 11.930422 -3.866913 27.545012 -0.452768 1.711647 0.227086 -0.042990 -6025.620000 0 0 1
-24.807367 10.920822 -4.839913 27.533517 -0.414695 1.747497 0.222466 -0.020699 554713.000000 0 0 1
-26.157967 10.459422 -4.916213 28.597341 -0.380382 1.743566 0.243444 -0.034987 386119.000000 0 0 1
-26.453027 9.656422 -6.187113 28.832091 -0.350010 1.787070 0.256727 -0.028515 -99436.000000 0 0 1
-26.559177 10.445622 -7.329013 29.465494 -0.374714 1.822167 0.283842 -0.030340 36410.900000 0 0 1
-26.776997 9.597122 -8.401313 29.659642 -0.344147 1.857985 0.268755 -0.033106 -81131.800000 0 0 1
-27.139477 10.337522 -9.713513 30.622996 -0.363936 1.893568 0.269314 -0.035851 680711.000000 0 0 1
-26.068897 11.159822 -10.257613 30.155392 -0.404485 1.917882 0.229522 -0.036371 784627.000000 0 0 1
-26.420247 11.874422 -11.428113 31.138932 -0.422391 1.946583 0.225365 -0.041251 -831662.000000 0 0 1
-25.423817 12.888122 -11.868713 30.876213 -0.469177 1.965350 0.172510 -0.030181 -739988.000000 0 0 1
-25.238157 13.947622 -10.969313 30.851686 -0.504868 1.934299 0.159876 -0.037093 131576.000000 0 0 1
-24.922967 15.128322 -11.694713 31.413162 -0.545553 1.952268 0.131112 -0.028150 -65241.400000 0 0 1
-24.965537 16.492522 -10.970513 31.869005 -0.583799 1.922223 0.144918 -0.037589 126679.000000 0 0 1
-23.872467 16.725822 -10.101713 30.849512 -0.611150 1.904401 0.117751 -0.026406 188552.000000 0 0 1
-23.959667 18.071322 -9.675313 31.531730 -0.646209 1.882671 0.084858 -0.018002 60263.500000 0 0 1
-22.870567 18.384722 -8.619713 30.583661 -0.677090 1.856508 0.088542 -0.022237 -287995.000000 0 0 1
-22.834067 17.734622 -7.360013 29.834229 -0.660355 1.820067 0.110615 -0.034252 531562.000000 0 0 1
-23.911967 18.237122 -6.562013 30.780429 -0.651566 1.785633 0.117133 -0.037084 305099.000000 0 0 1
-24.194267 17.479822 -5.218313 30.300784 -0.625653 1.743876 0.126027 -0.026920 -354744.000000 0 0 1
-23.244567 17.666022 -4.215713 29.498652 -0.649875 1.714199 0.122254 -0.036876 -98393.800000 0 0 1
-23.652967 17.106422 -2.986913 29.343043 -0.626144 1.672766 0.133702 -0.036620 -614683.000000 0 0 1
-22.515067 16.822422 -2.029113 28.178705 -0.641683 1.642867 0.144355 -0.050979 -725445.000000 0 0 1
-21.978667 17.944922 -1.424913 28.409724 -0.684703 1.620973 0.134215 -0.046220 -106209.000000 0 0 1
-20.889767 17.705622 -0.582713 27.389979 -0.703084 1.592073 0.184317 -0.068816 -132946.000000 0 0 1
-20.139267 18.965222 -0.062213 27.663579 -0.755384 1.573045 0.151765 -0.057669 -181856.000000 0 0 1
-20.937467 19.706622 0.801587 28.764058 -0.755124 1.542925 0.130747 -0.045513 -3647.890000 0 0 1
-20.764267 21.107922 0.691687 29.617184 -0.793605 1.547440 0.156537 -0.047420 214571.000000 0 0 1
-21.839967 21.770422 1.591587 30.878287 -0.783803 1.519230 0.118204 -0.031320 279019.000000 0 0 1
-21.573367 21.634522 2.952687 30.694968 -0.786814 1.474453 0.123275 -0.031838 406289.000000 0 0 1
-22.758867 21.817022 3.713987 31.744955 -0.764272 1.453533 0.100291 -0.028633 237663.000000 0 0 1
-22.543167 21.473322 5.190687 31.563288 -0.761097 1.405593 0.118982 -0.035143 73907.500000 0 0 1
-21.745867 22.469822 5.882587 31.817927 -0.801770 1.384844 0.097927 -0.029736 81480.200000 0 0 1
-20.969867 21.899222 6.871787 31.089109 -0.807074 1.347921 0.092283 -0.031560 -549782.000000 0 0 1
-21.634967 21.709622 8.241387 31.737989 -0.787121 1.308116 0.110461 -0.043216 -1036860.000000 0 0 1
-22.627167 20.738222 8.192587 31.767610 -0.741867 1.309957 0.136549 -0.047029 171028.000000 0 0 1
-23.136067 20.356322 9.510787 32.250776 -0.721572 1.271444 0.161138 -0.047297 650149.000000 0 0 1
-23.996367 21.356222 10.397387 33.764175 -0.727250 1.257768 0.172138 -0.044578 939758.000000 0 0 1
-25.319207 21.646522 9.895887 34.750004 -0.707358 1.282026 0.195210 -0.043990 1231280.000000 0 0 1
-26.030507 22.576822 10.719687 36.086173 -0.714465 1.269186 0.200671 -0.044954 -226813.000000 0 0 1
-27.555937 22.454722 10.519887 37.070369 -0.683747 1.283061 0.195388 -0.043142 234888.000000 0 0 1
-28.359197 23.224722 11.445787 38.401013 -0.686189 1.268137 0.188558 -0.038811 444138.000000 0 0 1
-28.445597 24.597622 11.239387 39.249444 -0.712981 1.280373 0.172827 -0.036137 -412217.000000 0 0 1
-28.868427 25.338122 12.516087 40.398749 -0.720363 1.255799 0.167484 -0.031577 224528.000000 0 0 1
-27.909437 25.159622 13.556187 39.946383 -0.733629 1.224560 0.157492 -0.037393 226304.000000 0 0 1
-28.262497 25.837722 14.754987 41.037377 -0.740608 1.203011 0.141496 -0.025743 -293799.000000 0 0 1
-27.152007 25.946022 15.789287 40.739774 -0.762690 1.172808 0.133827 -0.029370 -239721.000000 0 0 1
-26.647857 24.717722 16.278087 39.825246 -0.747839 1.149726 0.142530 -0.033493 436689.000000 0 0 1
-25.472377 25.005322 17.033387 39.550530 -0.776146 1.125557 0.123894 -0.024921 180839.000000 0 0 1
-24.805267 23.828422 17.733287 38.698378 -0.765315 1.094778 0.131289 -0.019458 92491.700000 0 0 1
-23.563167 24.149822 18.349687 38.407653 -0.797693 1.072692 0.128185 -0.033908 535006.000000 0 0 1
-23.199467 23.152122 19.270687 38.020987 -0.784377 1.039277 0.134297 -0.036014 -347836.000000 0 0 1
-21.714167 23.190422 19.667587 37.364619 -0.818262 1.016472 0.102614 -0.039950 -595380.000000 0 0 1
-20.827967 22.984622 18.599287 36.166705 -0.834583 1.030645 0.114061 -0.040680 495497.000000 0 0 1
-19.552767 22.477922 19.014187 35.342708 -0.854882 1.002740 0.096314 -0.035487 387632.000000 0 0 1
-19.516667 20.880622 19.205387 34.434686 -0.819149 0.979143 0.108876 -0.019089 -387876.000000 0 0 1
-20.164867 20.362122 20.338287 35.140914 -0.790265 0.953584 0.119309 -0.015032 -488347.000000 0 0 1
-19.447867 20.528122 21.510187 35.529023 -0.812414 0.920496 0.107144 -0.012347 -590237.000000 0 0 1
-20.185567 20.299622 22.821587 36.610881 -0.788215 0.897770 0.108991 -0.006421 21547.200000 0 0 1
-21.302867 21.173022 22.915587 37.778739 -0.782341 0.919053 0.108334 -0.013435 418843.000000 0 0 1
-22.094367 20.994422 24.099587 38.855076 -0.759876 0.901744 0.097147 -0.008575 285884.000000 0 0 1
-23.233167 22.019522 24.246387 40.156279 -0.758585 0.922536 0.100827 -0.010377 -768705.000000 0 0 1
-22.809167 23.370422 24.440787 40.789543 -0.797551 0.928304 0.098029 -0.017504 -38226.400000 0 0 1
-23.852867 24.297622 24.479287 41.935298 -0.794635 0.947470 0.102899 -0.020512 -442386.000000 0 0 1
-24.619267 24.539222 23.189687 41.785683 -0.783770 0.982473 0.092116 -0.026882 -902504.000000 0 0 1
-25.540607 23.595022 22.808187 41.584385 -0.745823 0.990251 0.082937 -0.024400 -99541.200000 0 0 1
-26.286047 24.126222 21.676887 41.748273 -0.742581 1.024849 0.086455 -0.031016 538056.000000 0 0 1
-27.413417 23.159422 21.180287 41.670839 -0.701480 1.037615 0.097010 -0.030000 -183452.000000 0 0 1
-28.608357 23.251822 21.897487 42.878728 -0.682475 1.034816 0.085771 -0.029220 516752.000000 0 0 1
-29.559177 22.270522 21.358287 42.730522 -0.645687 1.047386 0.094949 -0.031037 504543.000000 0 0 1
-30.995247 22.364622 21.888587 44.045339 -0.625043 1.050709 0.104640 -0.029523 -662214.000000 0 0 1
-31.697387 23.407522 21.200187 44.744658 -0.636080 1.077191 0.120197 -0.032267 716721.000000 0 0 1
-33.066687 23.624022 21.566687 46.006763 -0.620349 1.082896 0.113243 -0.033415 812358.000000 0 0 1
-34.004019 22.687722 20.763887 45.849156 -0.588377 1.100810 0.120316 -0.042662 -1356260.000000 0 0 1
-33.871817 21.349222 21.231387 45.319544 -0.562398 1.083225 0.105349 -0.041948 144041.000000 0 0 1
-34.564555 20.401522 20.453887 45.047665 -0.533215 1.099491 0.101756 -0.029625 800529.000000 0 0 1
-36.133427 20.499322 20.586787 46.364454 -0.516046 1.110715 0.141809 -0.036149 370596.000000 0 0 1
-36.833257 19.690322 19.691487 46.175235 -0.490927 1.130231 0.125434 -0.024225 -807042.000000 0 0 1
37.789062 19.926122 19.650987 47.023663 0.485247 1.139668 0.161114 -0.044915 -501919.000000 0 0 1
37.057102 19.181822 18.513487 45.649976 0.477651 1.153213 0.163022 -0.043286 36147.500000 0 0 1
37.356252 17.797522 18.407987 45.289020 0.444612 1.152225 0.161261 -0.045273 205611.000000 0 0 1
36.615742 17.145422 17.386087 44.010841 0.437929 1.164684 0.183787 -0.057560 70240.700000 0 0 1
36.882072 15.591022 17.397687 43.658295 0.399943 1.160919 0.187300 -0.066458 -224231.000000 0 0 1
36.202662 14.797022 16.490187 42.444209 0.388007 1.171778 0.212338 -0.066818 -120173.000000 0 0 1
36.690992 13.445922 16.480487 42.410237 0.351266 1.171688 0.193372 -0.056706 212156.000000 0 0 1
35.895152 12.561722 15.492287 41.064215 0.336636 1.183950 0.184917 -0.066672 -107721.000000 0 0 1
36.068052 12.872722 14.110087 40.813060 0.342809 1.217785 0.181616 -0.066850 551614.000000 0 0 1
35.106042 12.172622 13.301587 39.465670 0.333766 1.227023 0.183982 -0.056109 115448.000000 0 0 1
34.924302 12.702922 11.853987 39.007539 0.348851 1.262024 0.196564 -0.058400 452280.000000 0 0 1
36.094652 12.440522 11.051387 39.745737 0.331913 1.289031 0.165773 -0.044192 1016560.000000 0 0 1
35.807702 12.642522 9.697987 39.192803 0.339405 1.320756 0.156688 -0.038090 -340159.000000 0 0 1
37.118212 12.653422 8.912387 40.215686 0.328541 1.347326 0.095147 -0.011631 -756266.000000 0 0 1
37.724442 11.389722 8.886787 40.395969 0.293216 1.348990 0.141853 -0.024740 573966.000000 0 0 1
-36.860197 11.472422 8.620687 39.555112 -0.301738 1.351092 0.187551 -0.032016 714912.000000 0 0 1
-36.585777 11.332622 7.100887 38.953434 -0.300382 1.387480 0.162168 -0.044256 -533524.000000 0 0 1
-37.088757 12.400022 6.353787 39.619529 -0.322651 1.409731 0.152910 -0.052638 -19953.300000 0 0 1
-36.887197 12.181822 4.992487 39.166147 -0.318969 1.442979 0.190852 -0.060124 -75712.500000 0 0 1
-37.877117 12.980222 4.120387 40.250960 -0.330150 1.468249 0.176434 -0.068452 1180120.000000 0 0 1
36.763702 12.439922 4.143487 39.031909 0.326281 1.464440 0.152301 -0.063891 1229650.000000 0 0 1
35.694632 13.374022 4.258687 38.355021 0.358489 1.459534 0.149669 -0.055460 388643.000000 0 0 1
35.299652 13.848722 5.685487 38.342891 0.373867 1.421967 0.119883 -0.039798 -570734.000000 0 0 1
34.492442 15.017622 5.697387 38.048886 0.410637 1.420492 0.104647 -0.033708 -22551.500000 0 0 1
34.117372 15.470522 7.036987 38.116287 0.425719 1.385112 0.094331 -0.030051 1117130.000000 0 0 1
32.847922 14.780322 7.687187 36.831192 0.422822 1.360536 0.159522 -0.040848 628812.000000 0 0 1
33.087612 13.405522 7.861287 36.555409 0.384940 1.354052 0.180029 -0.042496 -182259.000000 0 0 1
31.905022 12.650722 7.977387 35.236485 0.377496 1.342421 0.195978 -0.038928 -272335.000000 0 0 1
31.804972 11.413422 7.112187 34.531227 0.344543 1.363348 0.196327 -0.037070 -274753.000000 0 0 1
31.569072 11.672922 5.728587 34.142058 0.354167 1.402212 0.157532 -0.037599 254860.000000 0 0 1
31.915002 10.585022 4.898387 33.979468 0.320246 1.426135 0.164164 -0.040812 -121037.000000 0 0 1
31.429192 10.786122 3.440087 33.406118 0.330593 1.467636 0.145213 -0.053030 1708580.000000 0 0 1
29.989872 10.680722 3.194087 31.994881 0.342138 1.470799 0.131696 -0.043317 1756740.000000 0 0 1
29.718272 11.067622 1.857487 31.766621 0.356505 1.512290 0.156928 -0.055914 241938.000000 0 0 1
28.224072 10.846622 1.469787 30.272227 0.366902 1.522225 0.168041 -0.040879 264024.000000 0 0 1
27.934172 9.515022 1.231987 29.535934 0.328297 1.529073 0.179420 -0.041527 810304.000000 0 0 1
26.531172 9.271722 1.447387 28.141834 0.336198 1.519342 0.184313 -0.035786 782359.000000 0 0 1
26.147172 7.765722 1.448987 27.314476 0.288703 1.517723 0.209678 -0.040181 110383.000000 0 0 1
26.547372 7.051822 2.605187 27.591269 0.259636 1.476235 0.227239 -0.033905 1166260.000000 0 0 1
27.954572 6.710722 2.516387 28.858692 0.235600 1.483489 0.247337 -0.042677 887487.000000 0 0 1
28.489672 6.193022 3.872187 29.411031 0.214048 1.438755 0.241411 -0.047813 350881.000000 0 0 1
29.909472 6.129922 4.023587 30.795157 0.202150 1.439765 0.257131 -0.046084 770128.000000 0 0 1
30.221972 5.689022 5.340087 31.212963 0.186064 1.398865 0.236978 -0.031577 358505.000000 0 0 1
31.734122 5.728222 5.688987 32.744948 0.178584 1.396174 0.187057 -0.035126 623986.000000 0 0 1
32.337452 7.030222 5.759487 33.590274 0.214071 1.398482 0.187678 -0.042796 -672581.000000 0 0 1
33.701692 7.059022 6.011987 34.953939 0.206471 1.397939 0.169995 -0.034746 -376787.000000 0 0 1
34.203482 8.242722 6.869187 35.846986 0.236482 1.377979 0.129927 -0.030814 -71419.800000 0 0 1
33.707592 8.255122 8.181087 35.654999 0.240177 1.339282 0.149894 -0.035128 -46528.800000 0 0 1
34.320862 9.200722 9.012287 36.657825 0.261921 1.322401 0.177097 -0.038126 -102777.000000 0 0 1
33.956692 8.993122 10.507287 36.665191 0.258897 1.280147 0.182308 -0.042240 296514.000000 0 0 1
32.651332 9.410322 10.888487 35.682248 0.280602 1.260699 0.199134 -0.044563 480745.000000 0 0 1
32.546072 9.145522 12.285187 35.969615 0.273938 1.222238 0.205834 -0.049984 -353773.000000 0 0 1
31.292482 9.751422 12.946487 35.240902 0.302085 1.194615 0.189815 -0.047885 -488865.000000 0 0 1
31.103612 11.135922 12.990287 35.499169 0.343808 1.196162 0.241403 -0.072717 239500.000000 0 0 1
30.912872 11.847022 11.742487 35.126110 0.365974 1.229939 0.230363 -0.067325 -426546.000000 0 0 1
29.590072 11.583522 10.991387 33.623815 0.373128 1.237782 0.193233 -0.050859 -325814.000000 0 0 1
29.367372 12.542922 10.024887 33.470372 0.403651 1.266612 0.179632 -0.037656 386529.000000 0 0 1
28.018072 12.521322 9.581087 32.149543 0.420274 1.268182 0.179263 -0.034845 140928.000000 0 0 1
27.719272 13.644322 8.622087 32.075940 0.457414 1.298647 0.175822 -0.032580 -162587.000000 0 0 1
27.599072 14.894322 9.282687 32.706542 0.494876 1.283023 0.169516 -0.029432 184901.000000 0 0 1
27.606972 15.966622 8.399287 32.979174 0.524352 1.313275 0.149278 -0.028571 -2186700.000000 0 0 1
27.004572 17.260722 8.987687 33.286002 0.568730 1.297389 0.163744 -0.041102 1407060.000000 0 0 1
25.634772 17.529522 8.571487 32.216394 0.599783 1.301493 0.184672 -0.047051 1251910.000000 0 0 1
24.703572 16.453222 8.760387 30.947041 0.587559 1.283796 0.206439 -0.044134 -1250250.000000 0 0 1
23.294972 17.086922 8.997187 30.258354 0.632859 1.268885 0.191906 -0.060615 206923.000000 0 0 1
22.695272 17.643722 7.827487 29.793386 0.660819 1.304950 0.187945 -0.051712 322936.000000 0 0 1
21.741472 18.654222 8.202687 29.798585 0.709121 1.291925 0.212589 -0.055639 412879.000000 0 0 1
21.303672 19.339122 6.881987 29.583945 0.737099 1.336020 0.195393 -0.044575 -39661.500000 0 0 1
22.389172 19.949622 6.226687 30.627342 0.727842 1.366064 0.125904 -0.030305 -124171.000000 0 0 1
21.993172 20.578322 5.021687 30.534968 0.752176 1.405589 0.159419 -0.035395 -103679.000000 0 0 1
19.347233 16.787422 32.981335 41.760045 0.714675 0.660343 0.121289 -0.033741 134062.000000 0 0 1
18.466233 17.599922 32.213682 41.091122 0.761383 0.669782 0.126697 -0.034102 384892.000000 0 0 1
17.852333 16.847322 31.158244 39.665781 0.756443 0.667261 0.153408 -0.047980 149095.000000 0 0 1
17.260833 17.580422 29.941384 38.774915 0.794571 0.688525 0.159064 -0.050912 105005.000000 0 0 1
18.286133 18.108522 29.102084 38.848842 0.780518 0.724078 0.158364 -0.037597 475718.000000 0 0 1
17.816233 18.221622 27.763754 37.686492 0.796647 0.742615 0.154474 -0.034791 487416.000000 0 0 1
18.977533 18.590322 26.784184 37.724519 0.775092 0.781307 0.149246 -0.034993 236178.000000 0 0 1
19.452533 19.947822 26.777834 38.644133 0.797968 0.805246 0.159783 -0.035663 -134688.000000 0 0 1
20.435333 20.064022 25.809804 38.552740 0.776230 0.837305 0.148848 -0.032565 -888905.000000 0 0 1
21.257433 21.336822 25.843644 39.686677 0.787262 0.861642 0.157552 -0.028769 -101229.000000 0 0 1
20.508933 22.527322 25.628704 39.811142 0.832264 0.871398 0.154369 -0.038141 955201.000000 0 0 1
21.352733 23.593422 26.066264 41.134400 0.835210 0.884488 0.158067 -0.032656 871412.000000 0 0 1
20.525233 24.905222 25.753474 41.289183 0.881512 0.897285 0.169758 -0.033286 629588.000000 0 0 1
20.512533 25.375922 24.373654 40.728079 0.890987 0.929233 0.167090 -0.037283 190781.000000 0 0 1
19.553133 26.415322 24.328434 40.889692 0.933584 0.933559 0.164228 -0.043720 166903.000000 0 0 1
19.531233 27.175222 22.991044 40.602338 0.947620 0.968848 0.135764 -0.040312 -806732.000000 0 0 1
20.647633 27.970522 22.919104 41.640847 0.934895 0.987954 0.149250 -0.040201 -743528.000000 0 0 1
20.672633 28.707322 21.757954 41.531634 0.946696 1.019386 0.132642 -0.041234 413795.000000 0 0 1
21.974633 29.570322 21.668154 42.741049 0.931706 1.039138 0.145626 -0.035467 389707.000000 0 0 1
23.194233 28.920222 21.381054 42.796041 0.894833 1.047655 0.151048 -0.032399 -104240.000000 0 0 1
24.217933 29.745622 20.902654 43.683306 0.887476 1.071846 0.160301 -0.048136 -102974.000000 0 0 1
24.146233 30.007622 19.376654 43.115573 0.893214 1.104689 0.164354 -0.041254 -283765.000000 0 0 1
23.251333 30.998722 18.880354 43.104675 0.927248 1.117411 0.137974 -0.031794 311622.000000 0 0 1
23.191833 30.880922 17.492254 42.396596 0.926650 1.145505 0.143806 -0.020936 -110728.000000 0 0 1
22.563933 32.179422 16.880154 42.773658 0.959271 1.165121 0.167352 -0.024158 122623.000000 0 0 1
23.468633 33.284222 17.072454 44.159765 0.956657 1.173847 0.168212 -0.032365 586834.000000 0 0 1
23.872433 -33.675949 15.851954 44.218176 -0.954131 1.204142 0.155364 -0.034894 62278.700000 0 0 1
24.867333 33.173922 14.864954 44.043844 0.927548 1.226533 0.130738 -0.030772 -261151.000000 0 0 1
24.447133 32.115222 14.051454 42.737491 0.920145 1.235779 0.160386 -0.038791 -122439.000000 0 0 1
23.627433 32.541122 12.969954 42.253993 0.942781 1.258807 0.121365 -0.026776 -86634.800000 0 0 1
23.035133 31.411722 12.103454 40.789793 0.938050 1.269532 0.113439 -0.041062 -357449.000000 0 0 1
23.988133 30.615122 11.445554 40.542779 0.906174 1.284597 0.125082 -0.057020 -167110.000000 0 0 1
23.363833 29.616422 10.642254 39.195136 0.902872 1.295825 0.110314 -0.050701 -323750.000000 0 0 1
24.355033 28.997622 9.624454 39.072494 0.872197 1.321912 0.111336 -0.047816 923973.000000 0 0 1
25.570833 28.370722 10.013454 39.484612 0.837258 1.314392 0.132973 -0.048624 1993400.000000 0 0 1
26.602433 29.262422 10.621254 40.948624 0.832977 1.308416 0.124519 -0.045619 380102.000000 0 0 1
27.986633 28.740522 10.961354 41.586302 0.798687 1.304064 0.137836 -0.050885 -271587.000000 0 0 1
28.029833 27.796022 12.039454 41.270314 0.781210 1.274770 0.144433 -0.048365 -626342.000000 0 0 1
29.356633 27.685122 12.447654 42.228213 0.756103 1.271580 0.109514 -0.037677 -394321.000000 0 0 1
29.507233 26.716322 13.615254 42.069155 0.735799 1.241223 0.106438 -0.047457 218640.000000 0 0 1
30.564233 27.073422 14.503754 43.330144 0.724907 1.229481 0.088378 -0.047431 -36393.200000 0 0 1
30.940533 25.940322 15.235954 43.154967 0.697717 1.209965 0.102481 -0.043766 86849.200000 0 0 1
32.107533 26.205222 16.211454 44.501894 0.684524 1.197929 0.102172 -0.051344 -500703.000000 0 0 1
33.376933 26.205422 15.640054 45.225602 0.665611 1.217681 0.131860 -0.043492 -312248.000000 0 0 1
34.371833 26.077022 16.675854 46.254925 0.649030 1.201970 0.096371 -0.036739 699462.000000 0 0 1
35.792033 25.995522 16.057554 47.060406 0.628156 1.222591 0.118231 -0.042828 91673.200000 0 0 1
36.176733 27.061322 15.223154 47.674055 0.642240 1.245787 0.132327 -0.041483 -1595410.000000 0 0 1
37.546233 27.143122 15.222754 48.766801 0.625947 1.253337 0.168057 -0.036988 -1068320.000000 0 0 1
-37.975006 28.294422 14.330354 49.477616 -0.640345 1.276953 0.134994 -0.042396 67050.800000 0 0 1
37.736133 29.609922 14.873454 50.219347 0.665315 1.270116 0.129972 -0.037747 -41041.400000 0 0 1
37.673933 30.596222 13.807054 50.458783 0.682095 1.293631 0.101253 -0.010476 124824.000000 0 0 1
37.077033 31.936622 14.267154 50.972599 0.711051 1.287108 0.073350 -0.017680 -921998.000000 0 0 1
37.124833 32.997622 13.321354 51.425234 0.726609 1.308765 0.033128 -0.014568 -100100.000000 0 0 1
36.060833 -33.659249 13.349854 51.103301 -0.750966 1.306497 0.035675 -0.010833 56241.000000 0 0 1
34.672333 33.385322 12.880854 49.826366 0.766490 1.309312 0.096754 -0.011900 -89007.800000 0 0 1
34.077833 32.423422 13.758554 49.008926 0.760525 1.286236 0.088654 -0.027967 121376.000000 0 0 1
32.948133 31.860822 13.083654 47.664173 0.768623 1.292730 0.115082 -0.027509 -147667.000000 0 0 1
32.240533 30.838722 13.943154 46.742810 0.763179 1.267890 0.137966 -0.037815 -597097.000000 0 0 1
31.270533 31.313722 14.829454 46.672348 0.786088 1.247456 0.135175 -0.025937 -21056.600000 0 0 1
30.944733 30.342522 15.766254 46.117457 0.775572 1.221888 0.123953 -0.034752 60847.800000 0 0 1
29.778733 30.753022 16.701054 45.950479 0.801492 1.198820 0.117374 -0.033415 58355.200000 0 0 1
29.470633 29.848622 17.740054 45.543034 0.791770 1.170683 0.098339 -0.030704 445270.000000 0 0 1
30.403633 29.847422 18.858854 46.592981 0.776167 1.154083 0.091584 -0.031623 450158.000000 0 0 1
30.179833 28.744122 19.961854 46.211713 0.761037 1.124126 0.088276 -0.022763 577259.000000 0 0 1
28.999633 28.879322 20.771954 45.896274 0.783320 1.101135 0.107003 -0.029215 542064.000000 0 0 1
29.138533 28.056422 21.899854 45.998049 0.766481 1.074577 0.079837 -0.022137 -402351.000000 0 0 1
27.902633 27.915722 22.781294 45.572270 0.785633 1.047320 0.095168 -0.020729 -1694870.000000 0 0 1
26.928833 27.098822 22.354854 44.263390 0.788544 1.041366 0.146839 -0.032392 -1340600.000000 0 0 1
25.796633 27.270522 23.167084 44.111919 0.813165 1.017859 0.169361 -0.038186 -187239.000000 0 0 1
25.561133 26.134022 24.215964 43.849419 0.796480 0.985732 0.140960 -0.036002 -599736.000000 0 0 1
26.610233 26.017522 25.128584 44.905029 0.774136 0.976901 0.101588 -0.026158 -187524.000000 0 0 1
26.334833 25.022022 26.126014 44.745878 0.759841 0.947302 0.130215 -0.029840 157315.000000 0 0 1
27.548533 24.771522 27.083114 45.891666 0.732371 0.939548 0.111608 -0.031177 498263.000000 0 0 1
27.898033 25.827422 27.959354 47.191963 0.746877 0.936687 0.145423 -0.033072 830540.000000 0 0 1
28.710733 26.914222 27.352464 47.925346 0.753113 0.963401 0.100240 -0.017027 205232.000000 0 0 1
29.130833 27.868422 28.444104 49.338843 0.763254 0.956351 0.062163 -0.013295 -141286.000000 0 0 1
30.230033 27.495622 29.272154 50.266521 0.738064 0.949193 0.048974 0.001419 221014.000000 0 0 1
30.617133 28.621822 30.018284 51.553030 0.751728 0.949266 0.044265 -0.009808 302273.000000 0 0 1
32.137633 28.937822 29.995284 52.630239 0.733055 0.964382 0.030618 -0.007505 237127.000000 0 0 1
32.579933 29.161822 28.657874 52.279419 0.730093 0.990625 0.018056 -0.006032 1077000.000000 0 0 1
34.019233 29.044122 28.508224 53.043266 0.706671 1.003383 0.034068 -0.010790 1355930.000000 0 0 1
34.483233 29.670122 27.165354 52.984582 0.710513 1.032466 0.025539 -0.012607 -430520.000000 0 0 1
34.139033 31.062422 27.126234 53.536718 0.738247 1.039461 0.024433 -0.005854 173196.000000 0 0 1
34.417633 31.710322 25.923474 53.499014 0.744481 1.064936 0.030845 -0.008832 -127300.000000 0 0 1
34.053233 33.224122 25.906224 54.171924 0.773075 1.072167 0.032012 -0.007237 -587298.000000 0 0 1
35.132033 -33.572849 26.356114 55.281468 -0.762708 1.073829 0.058502 -0.022437 -6119.520000 0 0 1
34.824933 -32.207349 26.244284 54.211177 -0.746368 1.065448 0.059003 -0.016450 -188918.000000 0 0 1
36.020233 -31.378449 26.713964 54.732989 -0.716636 1.060910 0.059179 -0.020367 -88047.800000 0 0 1
35.862833 -31.212449 28.099614 55.226335 -0.716178 1.036996 0.072477 -0.027837 269606.000000 0 0 1
36.867533 -30.364749 28.602044 55.671446 -0.688977 1.031229 0.079819 -0.035234 -284093.000000 0 0 1
36.610433 -29.867149 30.085014 56.013199 -0.684307 1.003794 0.090269 -0.034829 -552823.000000 0 0 1
36.609533 -30.900749 31.032504 57.080036 -0.701037 0.995997 0.098366 -0.037608 469049.000000 0 0 1
35.510933 -31.806749 30.978344 56.853790 -0.730428 0.994553 0.082183 -0.036522 -114676.000000 0 0 1
35.471033 -32.727749 32.249118 58.045718 -0.745195 0.981734 0.086386 -0.033375 -398211.000000 0 0 1
34.987733 -32.096849 33.422514 58.063875 -0.742332 0.957439 0.091881 -0.040015 125677.000000 0 0 1
35.097733 -32.869649 -32.794303 58.204218 -0.752628 2.169334 0.092724 -0.036756 -187021.000000 0 0 1
34.096233 33.525522 -32.582553 57.863084 0.776959 2.168925 0.089286 -0.037407 505.872000 0 0 1
34.370033 32.523722 -33.576773 58.021473 0.757805 2.187925 0.089570 -0.037719 -101036.000000 0 0 1
33.685033 31.332422 -33.354813 56.823812 0.749230 2.198128 0.083277 -0.028988 -176775.000000 0 0 1
33.879533 30.231122 32.970726 56.114278 0.728551 0.942751 0.073585 -0.022624 565901.000000 0 0 1
35.206833 29.705922 33.062002 56.701489 0.700857 0.948271 0.062623 -0.020895 438788.000000 0 0 1
35.464433 28.954422 31.965611 55.838023 0.684683 0.961281 0.052102 -0.017652 -544938.000000 0 0 1
36.784533 28.184422 31.967360 56.297208 0.653791 0.966927 0.048182 -0.014728 -459752.000000 0 0 1
36.875833 26.996422 32.764619 56.233034 0.631940 0.948801 0.042736 -0.007037 1021100.000000 0 0 1
-37.830106 26.328422 32.684679 56.503017 -0.608013 0.953958 0.051854 -0.012861 1014690.000000 0 0 1
-37.787706 25.115522 33.598904 56.458715 -0.586604 0.933399 0.048944 -0.017821 105571.000000 0 0 1
37.921333 23.930022 32.891478 55.610455 0.562934 0.937925 0.044876 -0.015203 121695.000000 0 0 1
37.726333 22.748822 33.664384 55.444349 0.542619 0.918297 0.050192 -0.026654 -51023.000000 0 0 1
37.373033 21.497822 32.825914 54.188934 0.522002 0.920066 0.042732 -0.030367 -843320.000000 0 0 1
-37.537906 21.014922 32.127803 53.692803 -0.510360 0.929340 0.056794 -0.031269 -638859.000000 0 0 1
-37.895606 20.086922 31.117454 52.989219 -0.487405 0.943150 0.049866 -0.025049 -50394.500000 0 0 1
-36.727206 19.580022 30.250204 51.452306 -0.489792 0.942302 0.054672 -0.036013 -159431.000000 0 0 1
-36.170906 20.475922 29.290104 50.847891 -0.515111 0.956928 0.057519 -0.028314 542088.000000 0 0 1
-34.974006 19.883922 28.743354 49.444230 -0.516962 0.950436 0.057290 -0.030640 408522.000000 0 0 1
-35.117406 18.933622 27.570074 48.495600 -0.494477 0.966107 0.068614 -0.031471 -436699.000000 0 0 1
-35.960306 17.857522 27.933444 48.911266 -0.460916 0.962946 0.060810 -0.027917 225657.000000 0 0 1
-36.223706 16.977122 26.855694 48.183066 -0.438275 0.979584 0.080714 -0.037976 97796.600000 0 0 1
-36.944606 15.735322 27.339184 48.579165 -0.402647 0.973056 0.103136 -0.047290 -81371.900000 0 0 1
-35.986506 15.014122 28.080344 48.051620 -0.395259 0.946682 0.083512 -0.032409 461302.000000 0 0 1
-36.600406 13.905722 28.698164 48.544242 -0.363089 0.938281 0.084938 -0.034611 -388123.000000 0 0 1
-35.646006 12.761122 28.958114 47.666092 -0.343780 0.917861 0.087944 -0.026178 -125281.000000 0 0 1
-34.564406 13.172022 29.803824 47.502297 -0.364096 0.892563 0.095943 -0.019131 660137.000000 0 0 1
-33.699206 12.064222 30.075534 46.751681 -0.343781 0.871991 0.097563 -0.013632 68531.600000 0 0 1
-32.227106 12.456722 30.309234 45.960918 -0.368840 0.850701 0.111418 -0.010879 -506621.000000 0 0 1
-31.477406 12.457022 29.099944 44.640914 -0.376833 0.860752 0.097244 -0.012689 -234347.000000 0 0 1
-30.123006 12.745622 29.278894 43.898747 -0.400277 0.840669 0.067504 -0.010290 279928.000000 0 0 1
-29.156506 11.571122 29.707314 43.203208 -0.377799 0.812593 0.082773 -0.006553 89740.200000 0 0 1
-29.001206 10.582022 28.670884 42.131564 -0.349871 0.822340 0.081175 -0.015689 161694.000000 0 0 1
-27.908906 9.747222 29.039894 41.439484 -0.336008 0.794308 0.067579 -0.007860 -173390.000000 0 0 1
-27.792306 8.513722 28.076404 40.412624 -0.297257 0.802733 0.050260 -0.010341 510242.000000 0 0 1
-28.712606 7.411022 28.217984 40.933991 -0.252597 0.810200 0.058890 -0.022682 532556.000000 0 0 1
-30.073106 7.762622 28.000174 41.816979 -0.252611 0.837142 0.073699 -0.028316 -370865.000000 0 0 1
-30.950206 6.507022 27.880004 42.161015 -0.207224 0.848280 0.087090 -0.033041 -472055.000000 0 0 1
-31.425206 6.150122 29.128414 43.287782 -0.193264 0.832672 0.092124 -0.032745 -128588.000000 0 0 1
-31.971806 4.827422 29.019924 43.447168 -0.149858 0.839364 0.111647 -0.039976 -278337.000000 0 0 1
-32.750806 4.446522 30.268634 44.817151 -0.134943 0.829316 0.112883 -0.039547 -364173.000000 0 0 1
-33.903006 5.236122 30.401354 45.837464 -0.153233 0.845653 0.129085 -0.042372 -126750.000000 0 0 1
-34.775606 4.773222 31.432200 47.118039 -0.136405 0.840494 0.139000 -0.046583 1256480.000000 0 0 1
-36.226506 5.386922 31.465458 48.285129 -0.147619 0.861026 0.148265 -0.046176 844384.000000 0 0 1
-36.382306 6.688622 32.041884 48.939679 -0.181813 0.856982 0.153081 -0.043695 -1494290.000000 0 0 1
-37.706506 6.999722 31.981341 49.935787 -0.183548 0.875713 0.155022 -0.037245 -1221250.000000 0 0 1
-37.954006 8.476122 32.469308 50.661693 -0.219721 0.875120 0.136449 -0.027742 -124557.000000 0 0 1
-37.722006 8.676522 -33.563483 51.232208 -0.226080 2.285144 0.139208 -0.024609 117507.000000 0 0 1
37.982333 10.026522 -33.184933 51.424007 0.258091 2.272238 0.132737 -0.023084 -93914.300000 0 0 1
37.627133 10.226622 -31.717823 50.263358 0.265378 2.253680 0.115674 -0.021820 285951.000000 0 0 1
36.495933 9.473922 -31.276573 48.989104 0.253983 2.263265 0.117733 -0.020011 226694.000000 0 0 1
36.183933 9.733622 -29.921583 47.951241 0.262783 2.244648 0.095114 -0.019329 644702.000000 0 0 1
34.909833 8.951522 -29.409563 46.516111 0.251010 2.255243 0.112859 -0.016203 333240.000000 0 0 1
35.072533 7.553122 -29.243623 46.285221 0.212118 2.254687 0.114078 -0.024771 1417080.000000 0 0 1
33.895333 6.840422 -28.695703 44.934712 0.199135 2.263485 0.126530 -0.017880 1157150.000000 0 0 1
37.244992 5.612522 -19.371213 42.354854 0.149567 2.045815 0.109244 -0.020749 -716386.000000 0 0 1
36.544452 6.365522 -18.396913 41.406077 0.172455 2.031194 0.098967 -0.026313 370632.000000 0 0 1
36.829852 7.763022 -18.463513 41.923786 0.207740 2.026848 0.069989 -0.016056 411250.000000 0 0 1
-37.682507 8.223522 -18.163513 42.632275 -0.214863 2.010919 0.088707 -0.023092 859475.000000 0 0 1
-36.675817 7.593022 -18.947113 41.973356 -0.204147 2.039139 0.097378 -0.031697 -119506.000000 0 0 1
-36.320557 8.407522 -20.073313 42.341554 -0.227475 2.064716 0.089944 -0.020332 -269340.000000 0 0 1
-35.111883 7.861022 -20.885013 41.603170 -0.220253 2.096712 0.082898 -0.011902 -34713.800000 0 0 1
-35.271815 6.650222 -21.647113 41.915676 -0.186354 2.113490 0.070710 -0.001619 314835.000000 0 0 1
-36.203937 6.711822 -22.726013 43.269450 -0.183308 2.123771 0.058126 0.001714 184722.000000 0 0 1
-36.169207 5.396622 -23.581413 43.513424 -0.148112 2.143533 0.080150 0.001278 567214.000000 0 0 1
-34.995598 5.303222 -24.401213 42.991106 -0.150395 2.174369 0.094559 0.002875 523418.000000 0 0 1
-34.750070 4.062122 -24.965013 42.980461 -0.116367 2.190563 0.095014 -0.001475 -21702.700000 0 0 1
-33.512247 4.046422 -25.908573 42.552302 -0.120163 2.225424 0.104957 0.000461 1013520.000000 0 0 1
-32.319937 4.195522 -25.107113 41.140586 -0.129090 2.227205 0.107023 -0.002713 176230.000000 0 0 1
-31.164587 4.159522 -25.900713 40.735489 -0.132685 2.259876 0.114334 -0.002128 284418.000000 0 0 1
-29.840547 4.398522 -25.098313 39.239400 -0.146347 2.264800 0.109274 -0.009833 249256.000000 0 0 1
-29.528587 5.757022 -25.084013 39.169994 -0.192549 2.265800 0.084287 -0.006795 -480023.000000 0 0 1
-28.419907 5.915122 -24.263013 37.833498 -0.205203 2.267001 0.084554 -0.006281 -453548.000000 0 0 1
-27.825137 7.361022 -24.323713 37.683762 -0.258621 2.272434 0.067856 -0.012109 -440479.000000 0 0 1
-28.603047 8.360622 -23.742913 38.101971 -0.284376 2.243549 0.073866 -0.016328 -491221.000000 0 0 1
-28.172787 9.743822 -23.870913 38.189900 -0.332981 2.246002 0.056906 -0.017790 123257.000000 0 0 1
-26.777127 10.117622 -23.303313 36.911044 -0.361263 2.254073 0.083461 -0.014796 20071.300000 0 0 1
-26.723747 10.302622 -21.911413 36.061235 -0.367964 2.223853 0.073086 -0.015002 360466.000000 0 0 1
-25.365887 10.373222 -21.501413 34.833069 -0.388193 2.236064 0.099631 -0.026221 -101139.000000 0 0 1
-25.290907 10.721722 -20.001413 33.980021 -0.400969 2.200150 0.122724 -0.038781 -1008110.000000 0 0 1
-25.744397 11.993122 -19.494513 34.447714 -0.435959 2.172340 0.119946 -0.042484 283526.000000 0 0 1
-27.135557 12.192722 -19.554713 35.600389 -0.422294 2.152303 0.109024 -0.020523 -364601.000000 0 0 1
-27.985597 11.405522 -18.536013 35.452269 -0.386998 2.120980 0.106584 -0.027016 -845285.000000 0 0 1
-27.677077 11.701522 -17.206213 34.626579 -0.399995 2.090828 0.122121 -0.041480 455226.000000 0 0 1
-28.616347 11.152922 -16.279713 34.760783 -0.371630 2.058202 0.139498 -0.042930 -431395.000000 0 0 1
-27.983847 10.713222 -14.937113 33.481131 -0.365623 2.033239 0.174296 -0.046921 -184521.000000 0 0 1
-27.121547 9.620622 -15.082913 32.490444 -0.340876 2.053557 0.193474 -0.042288 1823400.000000 0 0 1
-25.724317 10.042722 -15.229813 31.536391 -0.372201 2.074792 0.164475 -0.035816 1197800.000000 0 0 1
-24.751167 8.859422 -15.521313 30.529015 -0.343730 2.104136 0.114757 -0.027816 -348797.000000 0 0 1
-23.401967 9.217322 -15.430113 29.507617 -0.375210 2.121069 0.096006 -0.021203 -114675.000000 0 0 1
-22.617967 8.018522 -15.479013 28.556417 -0.340696 2.143671 0.102861 -0.026544 -390629.000000 0 0 1
-21.110667 8.204422 -15.363913 27.368278 -0.370674 2.166845 0.153486 -0.042800 -798030.000000 0 0 1
-20.543367 8.762922 -16.485513 27.759518 -0.403189 2.206655 0.159605 -0.052176 -160418.000000 0 0 1
-19.150367 8.838122 -16.313313 26.664079 -0.432386 2.229141 0.162930 -0.049201 -768885.000000 0 0 1
-18.397167 9.452222 -17.512813 27.101640 -0.474616 2.273378 0.110449 -0.037755 -230936.000000 0 0 1
-18.117467 8.639022 -18.607613 27.370030 -0.444944 2.318359 0.161092 -0.058587 540545.000000 0 0 1
-17.215467 7.554922 -18.383213 26.294328 -0.413539 2.344979 0.181483 -0.054190 -553254.000000 0 0 1
-16.986867 6.727722 -19.646413 26.829041 -0.377100 2.392463 0.169390 -0.054489 -400259.000000 0 0 1
-17.983567 5.862822 -20.085713 27.590165 -0.315145 2.386200 0.169436 -0.044955 -587828.000000 0 0 1
-18.999367 6.453322 -20.828213 28.921199 -0.327434 2.374845 0.142404 -0.040489 -921855.000000 0 0 1
-20.027567 5.488322 -21.369613 29.797407 -0.267472 2.370520 0.125950 -0.022908 -744864.000000 0 0 1
-20.832267 4.856822 -20.410413 29.566146 -0.229048 2.332742 0.134229 -0.022301 180402.000000 0 0 1
-21.465267 3.754922 -21.033213 30.286188 -0.173178 2.338496 0.107369 0.005858 -99807.300000 0 0 1
-22.562767 3.064222 -20.182913 30.427256 -0.134983 2.296039 0.114781 -0.002205 -122689.000000 0 0 1
-23.167267 1.941522 -20.737513 31.153430 -0.083609 2.299171 0.128782 -0.000611 81981.900000 0 0 1
-24.050267 1.395222 -19.793413 31.179179 -0.057948 2.258582 0.126791 -0.010227 -327362.000000 0 0 1
-24.428967 -0.067778 -20.250213 31.730902 0.002774 2.262936 0.132436 -0.004582 243767.000000 0 0 1
-23.338967 -0.998378 -20.184713 30.872751 0.042751 2.283397 0.125151 -0.007152 446460.000000 0 0 1
-23.676867 -2.324978 -20.480013 31.391567 0.097882 2.281550 0.132833 -0.021254 -409423.000000 0 0 1
-23.959667 -2.719278 -21.967113 32.619230 0.113010 2.309649 0.126809 -0.015333 674128.000000 0 0 1
-22.918867 -2.487378 -22.961313 32.537415 0.108107 2.354192 0.089389 -0.011083 1104290.000000 0 0 1
-22.058067 -3.649978 -23.118813 32.161470 0.163985 2.372922 0.068785 -0.018053 590425.000000 0 0 1
-21.157967 -3.558478 -24.367613 32.466951 0.166627 2.419669 0.071382 -0.012265 78189.700000 0 0 1
-21.926967 -3.659178 -25.559183 33.874080 0.165356 2.425742 0.068708 -0.015586 152589.000000 0 0 1
-21.130267 -3.812278 -26.680943 34.247545 0.178498 2.463964 0.065521 -0.017862 33655.800000 0 0 1
-22.030767 -4.015078 -27.959923 35.822239 0.180270 2.466291 0.073267 -0.021881 860475.000000 0 0 1
-22.911467 -5.167678 -27.865643 36.443576 0.221838 2.441254 0.076821 -0.030364 750889.000000 0 0 1
-23.640567 -5.459578 -29.059863 37.857087 0.226962 2.445916 0.048338 -0.021718 -236826.000000 0 0 1
-22.973167 -6.552078 -29.863643 38.243082 0.277829 2.466886 0.067531 -0.033428 -585403.000000 0 0 1
-21.778967 -6.163278 -30.481623 37.966284 0.275781 2.502874 0.074848 -0.040561 -551953.000000 0 0 1
-21.239267 -7.329278 -31.005213 38.290312 0.332286 2.514506 0.091292 -0.042967 -28959.300000 0 0 1
-19.766667 -7.146478 -31.496113 37.865530 0.346920 2.553118 0.110039 -0.047183 165358.000000 0 0 1
-19.556067 -6.470478 -32.715153 38.659902 0.319530 2.579665 0.105150 -0.057695 255580.000000 0 0 1
-19.972267 -7.300978 33.550084 39.721579 0.350465 0.564920 0.109504 -0.055986 -539441.000000 0 0 1
-19.646167 -6.759078 32.150965 38.279780 0.331356 0.573708 0.103370 -0.053745 -325538.000000 0 0 1
-18.298167 -6.771278 31.776671 37.288469 0.354426 0.550649 0.115748 -0.054729 -445368.000000 0 0 1
-17.684067 -5.538078 32.022740 36.998005 0.303493 0.524596 0.088809 -0.058433 180241.000000 0 0 1
-16.352567 -5.308878 31.241874 35.660136 0.313916 0.503082 0.085496 -0.052105 278978.000000 0 0 1
-16.616267 -5.240878 29.893024 34.600000 0.305531 0.527714 0.085163 -0.051171 334785.000000 0 0 1
-15.404967 -5.023878 29.196554 33.391483 0.315245 0.506658 0.057625 -0.036893 134331.000000 0 0 1
-15.600467 -4.993878 27.682714 32.165914 0.309803 0.534305 0.064248 -0.028593 183705.000000 0 0 1
-16.615467 -4.055478 27.327974 32.238778 0.239398 0.559211 0.071726 -0.033988 331421.000000 0 0 1
-17.039767 -4.154178 25.955534 31.325718 0.239128 0.594249 0.082923 -0.027954 63442.500000 0 0 1
-16.009067 -3.790378 24.854284 29.805916 0.232483 0.584712 0.077881 -0.020664 27196.800000 0 0 1
-15.896967 -2.342378 24.816374 29.564382 0.146295 0.574616 0.070858 -0.011952 -366045.000000 0 0 1
-14.934567 -2.006878 23.878244 28.235428 0.133578 0.562951 0.067309 -0.009200 -350670.000000 0 0 1
-14.601867 -0.497878 23.957204 28.060827 0.034084 0.547632 0.064916 -0.006819 157639.000000 0 0 1
-15.651667 0.271022 23.394904 28.149061 -0.017314 0.589700 0.060828 -0.010066 250216.000000 0 0 1
-15.763567 1.528422 24.050564 28.796801 -0.096657 0.582333 0.049048 -0.002866 -229413.000000 0 0 1
-16.544367 2.608922 23.338814 28.726691 -0.156405 0.622465 0.052795 -0.005073 -555703.000000 0 0 1
-15.790467 3.226422 22.357234 27.560743 -0.201553 0.624598 0.052519 -0.010306 332007.000000 0 0 1
-16.573467 4.150422 21.602854 27.542496 -0.245379 0.669155 0.058343 -0.008970 -231922.000000 0 0 1
-15.762667 4.736922 20.460754 26.259142 -0.291929 0.677430 0.048958 -0.007082 232585.000000 0 0 1
-14.788367 5.619822 21.049254 26.331526 -0.363161 0.644511 0.058459 -0.017877 950598.000000 0 0 1
-13.582367 5.585022 20.259954 25.022767 -0.390121 0.627222 0.048755 -0.017611 597096.000000 0 0 1
-12.584367 6.722422 20.541054 25.009841 -0.490623 0.607077 0.045017 -0.018857 187408.000000 0 0 1
-13.022067 8.054322 20.130454 25.291926 -0.553921 0.650264 0.053516 -0.023785 -314242.000000 0 0 1
-12.027467 8.957222 20.455354 25.363621 -0.640120 0.632615 0.060495 -0.024295 -374218.000000 0 0 1
-12.445467 10.430322 20.349654 26.034394 -0.697534 0.673497 0.052019 -0.022878 -104503.000000 0 0 1
-12.531267 10.967422 19.070654 25.318113 -0.718946 0.717820 0.043788 -0.025964 189298.000000 0 0 1
-13.162767 12.219622 19.075054 26.199910 -0.748258 0.755312 0.031245 -0.020882 4542.770000 0 0 1
-13.728967 12.775722 17.716354 25.798698 -0.749449 0.813836 0.051447 -0.021454 -9326.950000 0 0 1
-12.816767 13.576022 16.989454 25.243206 -0.814158 0.832497 0.050053 -0.024976 91232.800000 0 0 1
-12.596367 14.879922 17.337054 26.089346 -0.868318 0.843937 0.075598 -0.033362 -110126.000000 0 0 1
-13.564367 16.011822 16.797254 26.879699 -0.867961 0.895787 0.072339 -0.019556 255156.000000 0 0 1
-13.608467 16.362722 15.447754 26.297569 -0.877038 0.942928 0.071593 -0.035026 -193792.000000 0 0 1
-14.194567 15.466022 14.556754 25.545697 -0.828239 0.964495 0.095044 -0.034250 -301044.000000 0 0 1
-14.757167 16.070422 13.230854 25.516425 -0.827972 1.025674 0.087960 -0.039512 751704.000000 0 0 1
-15.989767 16.762522 13.496254 26.810514 -0.808988 1.043274 0.077997 -0.028839 525352.000000 0 0 1
-16.307467 17.765522 12.467954 27.147691 -0.828164 1.093630 0.071001 -0.028527 -226372.000000 0 0 1
-17.572667 18.534922 12.833654 28.583993 -0.812042 1.105172 0.072414 -0.026030 -1021650.000000 0 0 1
-18.715967 17.767822 12.858754 28.832802 -0.759416 1.108531 0.085428 -0.026911 -312659.000000 0 0 1
-19.878067 18.613322 12.876954 30.123234 -0.752552 1.129098 0.103794 -0.035404 1068830.000000 0 0 1
-21.228967 17.855122 13.066454 30.662789 -0.699289 1.130581 0.122875 -0.024098 667380.000000 0 0 1
-21.643467 17.107922 11.914254 30.051125 -0.668886 1.163132 0.126182 -0.029204 -297124.000000 0 0 1
-22.927467 16.548922 12.004854 30.718921 -0.625204 1.169299 0.165148 -0.036895 -19605.500000 0 0 1
-23.364767 15.798922 10.734754 30.178688 -0.594564 1.207126 0.153171 -0.030778 238717.000000 0 0 1
-22.728867 14.520222 10.482354 28.936447 -0.568493 1.200111 0.127496 -0.031994 510618.000000 0 0 1
-23.346267 13.919922 9.317554 28.733765 -0.537648 1.240554 0.144219 -0.031364 122176.000000 0 0 1
-22.694267 12.587222 8.912754 27.439116 -0.506401 1.239976 0.159809 -0.033640 -677033.000000 0 0 1
-22.936967 11.457422 9.762954 27.435237 -0.463262 1.206968 0.159181 -0.029055 161020.000000 0 0 1
-24.270067 11.006122 9.897054 28.427496 -0.425749 1.215199 0.183029 -0.018851 701597.000000 0 0 1
-25.220417 10.708722 8.680554 28.741924 -0.401536 1.263988 0.217229 -0.033978 -90323.900000 0 0 1
-25.549617 11.895122 7.922154 29.275201 -0.435726 1.296770 0.219657 -0.038201 941873.000000 0 0 1
-26.783097 11.693622 7.192054 30.096523 -0.411659 1.329495 0.290362 -0.049735 494633.000000 0 0 1
-27.263337 12.935322 6.361054 30.839506 -0.443006 1.363042 0.288322 -0.050852 -385413.000000 0 0 1
-26.611277 13.223222 5.148854 30.158322 -0.461167 1.399228 0.277988 -0.052006 48679.000000 0 0 1
-25.244337 13.542822 5.218454 29.119012 -0.492396 1.390612 0.255555 -0.055967 -473870.000000 0 0 1
-24.937767 15.020722 5.661354 29.657465 -0.542130 1.378726 0.234152 -0.053773 -425155.000000 0 0 1
-23.553067 15.328922 5.748254 28.683885 -0.576955 1.369030 0.185131 -0.057647 551853.000000 0 0 1
-23.463367 16.651722 6.285354 29.450214 -0.617200 1.355719 0.176111 -0.057121 228242.000000 0 0 1
-21.983467 17.115122 6.358154 28.576675 -0.661521 1.346424 0.138897 -0.046685 113687.000000 0 0 1
-21.546567 17.655122 5.146354 28.327422 -0.686455 1.388108 0.137736 -0.057471 406704.000000 0 0 1
-20.197467 18.069022 5.294454 27.612651 -0.729834 1.377861 0.129650 -0.045745 -7413.470000 0 0 1
-19.584967 18.821622 4.111754 27.472366 -0.765525 1.420563 0.118426 -0.035693 682999.000000 0 0 1
-18.167367 19.018022 4.276254 26.646289 -0.808270 1.409617 0.102902 -0.041843 1081460.000000 0 0 1
-17.533667 19.826622 3.291654 26.671322 -0.846695 1.447065 0.110757 -0.046224 192603.000000 0 0 1
-17.687367 21.371222 3.484054 27.959090 -0.879436 1.445859 0.129937 -0.044519 -114789.000000 0 0 1
-17.020967 21.777322 4.668454 28.031403 -0.907381 1.403473 0.092574 -0.045813 132890.000000 0 0 1
-17.277967 23.139422 4.936854 29.297330 -0.929417 1.401480 0.076455 -0.042332 -188666.000000 0 0 1
-16.566667 23.661122 6.223254 29.547116 -0.959960 1.358586 0.066902 -0.026251 -237638.000000 0 0 1
-17.098567 23.111922 7.359754 29.676386 -0.933845 1.320181 0.067855 -0.029122 28439.900000 0 0 1
-16.339567 23.405322 8.535654 29.793421 -0.961338 1.280230 0.065592 -0.035313 118236.000000 0 0 1
-16.763967 22.643222 9.820354 29.835976 -0.933498 1.235399 0.053214 -0.034983 93195.800000 0 0 1
-17.967967 23.157322 10.347054 31.083290 -0.910919 1.231439 0.052633 -0.032187 -502925.000000 0 0 1
-18.776567 22.208522 11.000854 31.093355 -0.868940 1.209165 0.056797 -0.033057 -1023060.000000 0 0 1
-19.996167 22.849422 11.580554 32.496954 -0.851894 1.206429 0.088437 -0.037624 -477600.000000 0 0 1
-20.939267 23.354322 10.599354 33.109267 -0.839868 1.244927 0.126152 -0.037869 560828.000000 0 0 1
-20.548067 24.644122 10.196954 33.667992 -0.875788 1.263096 0.072895 -0.034120 -885449.000000 0 0 1
-21.631267 25.519822 9.551354 34.790823 -0.867682 1.292689 0.095709 -0.029979 157554.000000 0 0 1
-22.762467 25.683022 10.395054 35.858119 -0.845611 1.276680 0.123302 -0.043413 489944.000000 0 0 1
-23.718667 26.587022 9.834554 36.961647 -0.842355 1.301478 0.128025 -0.031371 282087.000000 0 0 1
-24.521667 27.385422 10.896854 38.340774 -0.840513 1.282613 0.131898 -0.040393 -305920.000000 0 0 1
-23.805867 28.360422 11.585954 38.797773 -0.872486 1.267546 0.137535 -0.034929 -235916.000000 0 0 1
-24.643467 29.224222 12.284154 40.152908 -0.870231 1.259877 0.127627 -0.037682 -379091.000000 0 0 1
10.462933 -32.497349 27.332994 43.733777 -1.259314 0.895683 0.085314 -0.025676 -275936.000000 0 0 1
11.854733 -32.540349 27.154294 44.008689 -1.221432 0.905845 0.055823 -0.027646 8820.420000 0 0 1
12.205833 -32.283649 25.818734 43.102475 -1.209327 0.928534 0.065499 -0.020238 -631429.000000 0 0 1
13.699933 -32.423649 25.565354 43.503661 -1.171020 0.942633 0.005271 -0.007011 -572568.000000 0 0 1
14.134233 -33.767049 25.462844 44.590880 -1.174375 0.963033 0.025281 -0.029266 -138573.000000 0 0 1
15.536733 33.732922 25.456064 45.025673 1.139178 0.969917 0.044120 -0.018616 -522548.000000 0 0 1
16.218233 32.353122 25.250594 44.128767 1.106119 0.961607 0.077479 -0.015061 -196976.000000 0 0 1
16.218933 31.981222 23.860834 43.071937 1.101454 0.983663 0.064278 -0.020635 216008.000000 0 0 1
16.899433 30.772522 23.609324 42.307672 1.068588 0.978776 0.080549 -0.032308 -627462.000000 0 0 1
16.978533 30.336222 22.158754 41.225809 1.060553 1.003330 0.089523 -0.034684 -50102.800000 0 0 1
15.903433 29.593422 21.584454 39.932173 1.077680 0.999732 0.064982 -0.020074 257727.000000 0 0 1
15.858933 28.192922 21.879254 39.051867 1.058396 0.976095 0.077497 -0.020924 -39757.200000 0 0 1
15.352133 27.721322 23.297294 39.330949 1.065039 0.936836 0.116264 -0.037236 58463.600000 0 0 1
16.283233 27.930122 24.363944 40.482553 1.042971 0.924996 0.120728 -0.033541 512345.000000 0 0 1
15.634833 27.754522 25.626334 40.883621 1.057780 0.893342 0.120065 -0.035491 -189233.000000 0 0 1
16.491333 28.020922 26.876734 42.184060 1.038849 0.880027 0.126874 -0.038659 -108823.000000 0 0 1
16.757633 29.374022 27.081494 43.325036 1.052357 0.895566 0.118148 -0.038690 422672.000000 0 0 1
17.299733 29.601422 28.431054 44.540428 1.041910 0.878482 0.137201 -0.039338 235055.000000 0 0 1
17.276833 31.159522 28.831334 45.832855 1.064532 0.890461 0.132666 -0.042868 -25112.100000 0 0 1
18.154533 31.866722 27.990924 46.136394 1.052953 0.918894 0.116943 -0.031492 31040.500000 0 0 1
18.142233 33.216222 28.336444 47.280144 1.070886 0.928132 0.100629 -0.017913 5074.950000 0 0 1
18.975533 -33.382349 27.435534 47.192802 -1.053914 0.950409 0.076616 -0.018808 -373772.000000 0 0 1
18.394033 -33.033349 26.203004 46.001522 -1.062723 0.964763 0.091981 -0.020016 -429906.000000 0 0 1
18.437833 -31.658749 25.907064 44.870993 -1.043424 0.955295 0.070868 -0.025180 552514.000000 0 0 1
19.830733 -31.014149 25.510444 44.787478 -1.001902 0.964791 0.093970 -0.023034 943242.000000 0 0 1
20.761633 -30.805249 26.566334 45.670328 -0.977759 0.949982 0.078465 -0.021216 -479078.000000 0 0 1
21.645533 -29.851449 26.141104 45.199507 -0.943417 0.954093 0.087029 -0.022751 -665039.000000 0 0 1
22.014033 -28.938549 27.372184 45.511468 -0.920472 0.925500 0.081539 -0.021645 -293935.000000 0 0 1
20.878533 -28.194849 27.748164 44.730563 -0.933397 0.901620 0.087497 -0.022493 -121236.000000 0 0 1
21.068133 -27.275849 28.820894 44.927520 -0.913107 0.874348 0.093997 -0.023783 -230911.000000 0 0 1
19.784933 -26.670749 29.430844 44.372818 -0.932550 0.845626 0.104489 -0.030106 -134745.000000 0 0 1
19.062733 -25.938149 28.488584 42.985751 -0.937010 0.846318 0.108337 -0.031625 -178562.000000 0 0 1
17.913233 -25.354349 29.052754 42.518107 -0.955711 0.818519 0.104301 -0.028249 -204373.000000 0 0 1
17.040233 -24.641149 27.987444 40.998205 -0.965774 0.819413 0.104669 -0.026557 -310003.000000 0 0 1
16.320833 -25.522949 27.163924 40.689916 -1.001868 0.839838 0.095860 -0.023994 377894.000000 0 0 1
15.657733 -24.909049 26.045744 39.293843 -1.009615 0.846184 0.098290 -0.031195 2705240.000000 0 0 1
14.082933 -24.451449 26.302074 38.574622 -1.048245 0.820509 0.076473 -0.028758 3046350.000000 0 0 1
13.197533 -25.509249 26.652284 39.182150 -1.093355 0.822741 0.071420 -0.021523 332452.000000 0 0 1
12.948233 -26.455649 25.613374 39.033358 -1.115639 0.855035 0.059554 -0.027072 -693897.000000 0 0 1
12.031733 -27.604549 26.107384 39.854350 -1.159763 0.856521 0.062518 -0.024487 -912893.000000 0 0 1
10.685533 -27.341649 26.117864 39.292356 -1.198233 0.843696 0.063429 -0.034234 -1221870.000000 0 0 1
9.914933 -28.445149 26.451704 40.088964 -1.235402 0.850210 0.054833 -0.030639 -364902.000000 0 0 1
8.412833 -28.210849 26.707504 39.748189 -1.280980 0.834002 0.071572 -0.038648 208971.000000 0 0 1
7.571733 -28.138149 25.550044 38.754243 -1.307932 0.850931 0.101144 -0.037036 127851.000000 0 0 1
7.700733 -26.891049 24.800104 37.382816 -1.291893 0.845431 0.113645 -0.039811 -459005.000000 0 0 1
6.517433 -26.587349 23.829144 36.293142 -1.330404 0.854528 0.124887 -0.040179 -368274.000000 0 0 1
6.380033 -27.470249 22.715564 36.212101 -1.342590 0.892725 0.127951 -0.040302 -106543.000000 0 0 1
5.757933 -28.729349 22.944154 37.215098 -1.372997 0.906471 0.132767 -0.039797 -816989.000000 0 0 1
4.368733 -28.786449 23.564784 37.457236 -1.420182 0.890386 0.157413 -0.039060 -784203.000000 0 0 1
3.367033 -28.794249 22.516714 36.707603 -1.454391 0.910429 0.162497 -0.035827 1046990.000000 0 0 1
2.016533 -28.726149 22.989224 36.847829 -1.500713 0.897078 0.184542 -0.035196 824548.000000 0 0 1
1.428133 -27.332449 23.473254 36.056844 -1.518593 0.861886 0.158803 -0.042967 -616436.000000 0 0 1
2.056433 -26.737049 24.553284 36.358802 -1.494034 0.829418 0.136206 -0.047203 -280340.000000 0 0 1
1.836133 -25.370349 24.727854 35.475242 -1.498549 0.799528 0.122723 -0.038727 -114376.000000 0 0 1
2.923633 -24.588849 25.517724 35.557184 -1.452451 0.770370 0.112923 -0.031551 62829.500000 0 0 1
4.168033 -24.426549 24.872724 35.109560 -1.401789 0.783523 0.124047 -0.042577 777432.000000 0 0 1
5.253533 -23.757049 25.544524 35.277751 -1.353163 0.761072 0.103232 -0.036893 926317.000000 0 0 1
4.975233 -22.269449 25.974184 34.573683 -1.350995 0.720812 0.073358 -0.021426 -502402.000000 0 0 1
4.981333 -21.391949 24.859154 33.172379 -1.342013 0.723651 0.080803 -0.030864 -929.830000 0 0 1
4.390833 -20.170149 25.192554 32.569604 -1.356451 0.686453 0.087320 -0.044353 -288499.000000 0 0 1
4.588233 -19.134749 24.043984 31.069336 -1.335454 0.685849 0.086634 -0.043712 -150641.000000 0 0 1
5.848933 -18.612349 23.708944 30.704130 -1.266318 0.688540 0.054967 -0.024877 -464746.000000 0 0 1
5.742533 -17.620549 22.737304 29.333350 -1.255751 0.683868 0.050758 -0.020992 -766398.000000 0 0 1
7.084133 -17.156549 22.249454 28.975340 -1.179209 0.695278 0.071610 -0.023909 -1923860.000000 0 0 1
7.828033 -18.174349 21.572354 29.273734 -1.164092 0.742296 0.085821 -0.022744 164099.000000 0 0 1
8.965133 -17.550149 20.961454 28.770886 -1.098523 0.754572 0.076191 -0.020638 -52623.200000 0 0 1
10.154533 -17.468449 21.910154 29.804632 -1.044235 0.744944 0.103557 -0.012662 -1517290.000000 0 0 1
10.063233 -16.484849 22.860324 29.926799 -1.022726 0.701501 0.107126 -0.003534 -287757.000000 0 0 1
11.103833 -16.617549 23.788314 31.069630 -0.981734 0.698753 0.110663 -0.008735 -141022.000000 0 0 1
11.199233 -15.627049 24.988244 31.528397 -0.948978 0.655796 0.132371 -0.021973 -83320.400000 0 0 1
11.393333 -14.273449 24.637864 30.668611 -0.897143 0.637884 0.162309 -0.021894 171968.000000 0 0 1
11.583433 -13.466249 25.760864 31.291179 -0.860420 0.603661 0.150269 -0.028636 -29034.400000 0 0 1
11.790133 -11.967949 25.499374 30.536161 -0.792882 0.582564 0.162605 -0.034437 451550.000000 0 0 1
10.579933 -11.311749 25.110484 29.503001 -0.818815 0.552688 0.182054 -0.027042 341454.000000 0 0 1
10.646633 -9.890649 25.065794 28.973604 -0.748604 0.525396 0.175603 -0.027649 652205.000000 0 0 1
9.338733 -9.147049 24.574704 27.835167 -0.775029 0.488867 0.169993 -0.023526 1464740.000000 0 0 1
8.203333 -9.144249 25.463234 28.271686 -0.839584 0.449506 0.160616 -0.041640 26641.200000 0 0 1
7.094133 -8.795349 24.692124 27.154850 -0.892057 0.429178 0.160833 -0.038687 -498840.000000 0 0 1
5.781433 -9.241549 25.359274 27.602970 -1.011772 0.405981 0.133354 -0.038221 -755039.000000 0 0 1
5.199533 -8.253949 26.194154 27.951682 -1.008649 0.356504 0.139326 -0.037956 521747.000000 0 0 1
3.856133 -8.457749 26.634854 28.210259 -1.143023 0.335776 0.141641 -0.040906 1247000.000000 0 0 1
2.743333 -8.383149 25.551034 27.030693 -1.254536 0.332406 0.122994 -0.040532 -352900.000000 0 0 1
2.783533 -7.132649 24.925734 26.075179 -1.198721 0.298026 0.128797 -0.039793 312132.000000 0 0 1
1.804233 -6.968249 23.882074 24.943240 -1.317438 0.292740 0.100618 -0.041616 540864.000000 0 1 0
1.930033 -5.624749 23.173004 23.923857 -1.240253 0.251200 0.074981 -0.041597 -2928.910000 0 1 0
1.326433 -4.574549 23.908734 24.378545 -1.288577 0.196640 0.082535 -0.035300 -103535.000000 0 1 0
1.716333 -3.283449 23.553554 23.843169 -1.089136 0.156022 0.082964 -0.027458 -832886.000000 0 1 0
0.964233 -2.666249 22.379774 22.558655 -1.223786 0.126017 0.058735 -0.032730 927582.000000 0 1 0
-0.171467 -1.811149 22.635464 22.708454 1.476405 0.080199 0.056318 -0.035619 1029910.000000 0 1 0
-1.348467 -2.400149 23.183264 23.346152 1.058919 0.118197 0.061891 -0.030975 223832.000000 0 1 0
-2.295467 -1.354149 23.819904 23.968536 0.532977 0.111423 0.061318 -0.027247 -19507.800000 0 1 0
-1.760667 -0.790149 25.016174 25.090501 0.421838 0.076991 0.080324 -0.025726 -245268.000000 0 0 1
-2.530267 0.177851 25.609074 25.734384 -0.070174 0.098725 0.064088 -0.014963 -828244.000000 0 0 1
-1.742667 0.872851 26.785364 26.856181 -0.464344 0.072637 0.099264 -0.028195 200702.000000 0 0 1
-1.694467 0.223851 28.050564 28.102588 -0.131346 0.060857 0.124959 -0.035947 -1505.380000 0 0 1
-0.968467 -0.991149 27.997484 28.031757 0.796973 0.049455 0.135390 -0.034949 95032.900000 0 0 1
0.438833 -0.942149 28.713774 28.732578 -1.134899 0.036181 0.142885 -0.032860 525010.000000 0 0 1
1.430033 -0.247149 27.955544 27.993187 -0.171137 0.051866 0.124412 -0.037220 -54278.200000 0 0 1
2.152433 -0.934149 26.994624 27.096408 -0.409466 0.086703 0.115654 -0.035514 -371737.000000 0 0 1
3.204133 -1.920149 27.544214 27.796351 -0.539885 0.134793 0.127054 -0.037710 -1110390.000000 0 0 1
2.709733 -3.108849 28.066484 28.367853 -0.853884 0.145894 0.157329 -0.045586 -549884.000000 0 0 1
3.666833 -4.033849 28.514214 29.030639 -0.833022 0.188902 0.173433 -0.046409 325339.000000 0 0 1
4.386933 -4.820849 27.311394 28.078426 -0.832488 0.234277 0.169391 -0.040764 892430.000000 0 0 1
5.315833 -4.013349 26.559934 27.382387 -0.646681 0.245713 0.159494 -0.038930 399211.000000 0 0 1
5.873833 -4.666049 25.405034 26.489425 -0.671304 0.287121 0.152116 -0.038068 -51519.600000 0 0 1
7.029133 -3.915049 24.701014 25.978383 -0.508182 0.314893 0.156314 -0.044092 890450.000000 0 0 1
8.336133 -4.011149 25.302824 26.940923 -0.448476 0.350513 0.146574 -0.037370 1084000.000000 0 0 1
9.074833 -5.236049 25.141894 27.237541 -0.523325 0.394834 0.152543 -0.039045 388060.000000 0 0 1
9.885033 -5.387349 23.792834 26.321785 -0.498997 0.441944 0.138137 -0.044957 -332821.000000 0 0 1
9.089133 -5.727349 22.736124 25.146494 -0.562281 0.441418 0.140020 -0.038357 -459943.000000 0 0 1
9.683833 -5.378249 21.487854 24.174988 -0.506968 0.475975 0.140082 -0.027229 605.017000 0 1 0
9.623833 -3.892649 21.086254 23.503212 -0.384363 0.457488 0.143364 -0.040392 757654.000000 0 1 0
8.289933 -3.420749 20.876254 22.720970 -0.391354 0.405742 0.114093 -0.039552 152302.000000 0 1 0
8.366833 -2.171149 20.317054 22.079412 -0.253895 0.402254 0.101381 -0.035595 -108244.000000 0 1 0
7.023333 -1.431149 20.151454 21.388232 -0.201019 0.341735 0.099229 -0.030760 -25165.400000 0 1 0
6.475233 -1.156149 21.429554 22.416313 -0.176688 0.297814 0.109283 -0.029050 1172780.000000 0 1 0
5.125333 -0.638149 21.261754 21.880092 -0.123871 0.238304 0.062059 -0.020189 1042010.000000 0 1 0
4.416633 -0.371149 22.576954 23.007895 -0.083838 0.193850 0.066673 -0.031989 244583.000000 0 1 0
3.173933 0.327851 22.456294 22.681853 0.102930 0.141145 0.066163 -0.028507 268129.000000 0 1 0
2.628433 0.684851 23.707854 23.862942 0.254888 0.114072 0.089375 -0.031805 -117614.000000 0 1 0
1.133833 1.000851 23.476784 23.525447 0.723183 0.064331 0.078004 -0.035326 -91129.300000 0 1 0
0.967733 2.392851 23.093554 23.237351 1.186480 0.111307 0.073778 -0.030484 441482.000000 0 1 0
-0.405867 2.664851 22.816344 22.975023 -1.419654 0.117597 0.045593 -0.025663 574680.000000 0 1 0
-0.653467 4.141851 22.597674 22.983403 -1.414314 0.183467 0.044790 -0.016168 -59723.600000 0 1 0
-0.698867 4.948851 23.725254 24.245973 -1.430506 0.207624 0.049462 -0.015091 9838.780000 0 1 0
-1.506267 6.056851 23.372774 24.191751 -1.327053 0.260946 0.049591 -0.010689 143742.000000 0 1 0
-1.099767 7.311851 24.201114 25.305465 -1.421507 0.296520 0.067516 -0.010901 161385.000000 0 0 1
-0.043767 8.035851 23.611114 24.941161 -1.565350 0.328049 0.057668 -0.016613 -61403.000000 0 1 0
-0.137267 9.402851 24.061104 25.833489 -1.556199 0.372578 0.078683 -0.014984 127370.000000 0 0 1
0.742133 10.463851 23.245964 25.503289 1.499991 0.423907 0.075741 -0.020057 331779.000000 0 0 1
2.128833 10.472851 23.344654 25.674606 1.370257 0.429316 0.054606 -0.020336 -840440.000000 0 0 1
2.702733 10.818851 24.597934 27.007603 1.325990 0.425632 0.085214 -0.026198 -990119.000000 0 0 1
4.070333 11.484851 24.532884 27.392185 1.230199 0.460982 0.075043 -0.025757 403658.000000 0 0 1
5.229233 10.729851 24.053004 26.851844 1.117317 0.460642 0.054656 -0.025512 1159880.000000 0 0 1
5.116933 10.312851 22.706474 25.458237 1.110217 0.469243 0.068415 -0.032306 -1829660.000000 0 0 1
6.452933 9.939851 22.127154 25.100835 0.994985 0.491702 0.080346 -0.035336 -472130.000000 0 0 1
7.338433 11.020851 21.865454 25.561882 0.983347 0.544487 0.071627 -0.034894 802505.000000 0 0 1
8.509633 10.588851 21.152954 25.139313 0.893839 0.570874 0.105532 -0.044133 718422.000000 0 0 1
9.409133 11.709851 20.615154 25.507586 0.893911 0.629712 0.089086 -0.050162 -497026.000000 0 0 1
8.907033 12.254851 19.454554 24.657580 0.942298 0.661635 0.082192 -0.049908 270574.000000 0 1 0
9.764033 13.193851 18.797854 24.955427 0.933697 0.717796 0.099461 -0.050751 337956.000000 0 1 0
11.131033 12.792851 18.202254 24.877278 0.854749 0.750010 0.105781 -0.056416 254598.000000 0 1 0
12.224933 12.836851 19.121354 26.074123 0.809810 0.747566 0.123997 -0.057808 -356934.000000 0 0 1
13.412333 12.533851 18.468254 26.039671 0.751553 0.782383 0.123187 -0.057713 -433169.000000 0 0 1
14.631733 12.522851 19.415954 27.347553 0.707892 0.781340 0.146518 -0.047419 39615.400000 0 0 1
15.144933 13.789851 19.815954 28.499140 0.738600 0.801935 0.153755 -0.047469 555897.000000 0 0 1
16.315233 13.585851 20.625254 29.600055 0.694370 0.799873 0.158704 -0.044620 464641.000000 0 0 1
17.220733 14.761851 20.932554 30.864829 0.708667 0.825485 0.163881 -0.038592 -162821.000000 0 0 1
16.780333 15.599851 21.973354 31.745286 0.748957 0.806295 0.170129 -0.039208 85219.700000 0 0 1
17.751033 16.581851 22.252054 32.942538 0.751357 0.829180 0.162748 -0.033934 -169238.000000 0 0 1
-22.274367 12.860722 -24.577113 35.574992 -0.523619 2.333465 0.062295 -0.017489 115710.000000 0 0 1
-22.096167 12.545022 -25.913193 36.292034 -0.516366 2.366018 0.070347 -0.026032 355698.000000 0 0 1
-22.955567 13.393122 -26.701793 37.673857 -0.528152 2.358538 0.065001 -0.027212 222508.000000 0 0 1
-22.586067 13.441322 -28.156733 38.517543 -0.536820 2.390598 0.063504 -0.024308 -661499.000000 0 0 1
-21.363367 14.055622 -28.365393 38.190960 -0.581930 2.407928 0.071968 -0.020406 -723184.000000 0 0 1
-21.078667 14.218122 -29.763803 39.145231 -0.593424 2.434637 0.069151 -0.030241 -818176.000000 0 0 1
-19.632567 14.591222 -29.995293 38.704768 -0.639145 2.457475 0.068183 -0.033119 -1633970.000000 0 0 1
-18.753667 13.548222 -29.967103 37.858706 -0.625622 2.484139 0.065303 -0.037555 -535429.000000 0 0 1
-17.432367 14.092522 -30.002503 37.451793 -0.679849 2.499921 0.062371 -0.022258 266377.000000 0 0 1
-16.578367 13.682422 -28.794433 35.932858 -0.689989 2.500328 0.096911 -0.030947 -522650.000000 0 0 1
-16.972367 13.935622 -27.485903 35.181496 -0.687461 2.467478 0.096432 -0.025206 -694736.000000 0 0 1
-17.707667 12.846222 -26.943223 34.706255 -0.627610 2.459606 0.106798 -0.022612 -5070.600000 0 0 1
-18.394967 13.319722 -25.637013 34.249762 -0.626715 2.416640 0.101603 -0.030347 -340557.000000 0 0 1
-17.517067 13.692022 -24.600113 33.158478 -0.663444 2.406689 0.152566 -0.043129 -1937.410000 0 0 1
-18.164567 14.166022 -23.400813 32.836347 -0.662346 2.364064 0.124686 -0.041212 103663.000000 0 0 1
-17.202767 14.990622 -22.520013 32.059397 -0.716792 2.349625 0.145435 -0.033920 164789.000000 0 0 1
-16.735367 16.175922 -23.099313 32.791938 -0.768401 2.352403 0.128099 -0.031950 166685.000000 0 0 1
-15.825367 16.875322 -22.235113 32.087676 -0.817495 2.336367 0.136690 -0.026058 11457.000000 0 0 1
-15.650467 18.383322 -22.584813 33.059906 -0.865525 2.322861 0.113352 -0.026217 493592.000000 0 0 1
-16.827367 19.147122 -22.301013 33.868979 -0.849792 2.289553 0.079180 -0.018620 258980.000000 0 0 1
-17.720567 19.074622 -23.391813 35.000523 -0.822181 2.302754 0.059404 -0.014607 -1308430.000000 0 0 1
-19.026567 19.755222 -23.131913 35.879861 -0.804185 2.271433 0.041919 -0.014445 -746062.000000 0 0 1
-18.820667 21.158022 -23.120213 36.557128 -0.843797 2.255496 0.041198 -0.009424 330455.000000 0 0 1
-20.081767 21.792022 -23.177313 37.621236 -0.826219 2.234540 0.049535 -0.019509 256305.000000 0 0 1
-19.802667 23.220822 -23.659813 38.615268 -0.864680 2.230277 0.040774 -0.017888 281486.000000 0 0 1
-19.059167 23.865222 -22.630713 38.012496 -0.896899 2.208497 0.041717 -0.011507 -540828.000000 0 0 1
-18.328067 24.947522 -23.057513 38.599816 -0.937182 2.210986 0.039092 -0.005465 -117494.000000 0 0 1
-17.172967 25.195522 -22.006213 37.603172 -0.972535 2.195950 0.041232 -0.018078 -50033.000000 0 0 1
-16.105767 24.299822 -21.962813 36.499893 -0.985480 2.216452 0.062836 -0.025327 -287243.000000 0 0 1
-16.404567 22.970022 -21.597213 35.541122 -0.950622 2.223918 0.075422 -0.011157 -1233190.000000 0 0 1
-15.115667 22.146522 -21.523213 34.383143 -0.971892 2.247186 0.105444 -0.022515 171501.000000 0 0 1
-14.334267 22.507822 -20.401513 33.590102 -1.003716 2.223538 0.134231 -0.039006 527049.000000 0 0 1
-13.275267 21.571422 -20.063413 32.312528 -1.019123 2.240709 0.142791 -0.037506 827213.000000 0 0 1
-12.381067 21.991722 -18.886013 31.521550 -1.058037 2.213230 0.141787 -0.037980 41424.900000 0 0 1
-13.046367 21.971322 -17.629213 31.044095 -1.034955 2.174720 0.142694 -0.033297 -96479.700000 0 0 1
-13.708067 23.172622 -17.316313 32.011501 -1.036604 2.142351 0.141678 -0.041998 129506.000000 0 0 1
-14.651167 23.172122 -16.071313 31.778783 -1.006982 2.101018 0.145010 -0.047761 162822.000000 0 0 1
-13.899367 23.299022 -14.869313 30.937571 -1.032907 2.072162 0.140974 -0.058702 -14893.600000 0 0 1
-14.705867 23.682622 -13.803713 31.107420 -1.015110 2.030568 0.135410 -0.049939 -117077.000000 0 0 1
-13.883667 24.039322 -12.531913 30.458070 -1.047055 1.994839 0.155249 -0.040764 -151196.000000 0 0 1
-13.221767 25.238322 -12.651913 31.174652 -1.088230 1.988694 0.153572 -0.053064 -197140.000000 0 0 1
-12.163067 25.315822 -11.714113 30.431094 -1.122908 1.965938 0.105073 -0.040213 12867.000000 0 0 1
-11.596967 26.740422 -11.758513 31.429324 -1.161591 1.954250 0.127330 -0.043192 -158743.000000 0 0 1
-10.792067 26.965422 -12.888113 31.775874 -1.190101 1.988425 0.133888 -0.041675 -80693.600000 0 0 1
-10.724567 28.331522 -13.297113 33.083299 -1.208927 1.984418 0.112623 -0.020806 -593987.000000 0 0 1
-10.036967 28.532222 -14.704813 33.631234 -1.232540 2.023320 0.152206 -0.044076 -313961.000000 0 0 1
-8.659967 28.544322 -14.851513 33.321776 -1.276235 2.032752 0.126895 -0.043195 -677754.000000 0 0 1
-7.960967 27.376522 -14.413113 31.946655 -1.287805 2.038863 0.128433 -0.040943 21890.400000 0 0 1
-6.443367 27.334022 -14.765513 31.728317 -1.339296 2.054853 0.140066 -0.046051 420760.000000 0 0 1
-5.648167 28.205922 -14.039413 32.009076 -1.373163 2.024845 0.118443 -0.040352 -1490780.000000 0 0 1
-4.351367 28.084222 -14.504313 31.906629 -1.417079 2.042704 0.122199 -0.045948 89600.100000 0 0 1
-3.287167 29.098722 -13.879613 32.406554 -1.458307 2.013403 0.104572 -0.037361 633031.000000 0 0 1
-3.606567 30.431722 -14.173313 33.763587 -1.452833 2.004000 0.095512 -0.032297 44615.700000 0 0 1
-4.623667 30.926222 -13.322513 33.989687 -1.422389 1.973555 0.098810 -0.030966 38047.200000 0 0 1
-4.926467 32.400622 -13.511113 35.448844 -1.419904 1.961830 0.104474 -0.043186 -952262.000000 0 0 1
-3.876967 33.143422 -13.006813 35.814724 -1.454350 1.942464 0.083610 -0.042287 -525533.000000 0 0 1
-3.896267 -33.063449 -13.377413 35.879350 1.453495 1.952869 0.108997 -0.037176 372677.000000 0 0 1
-2.768267 -32.244449 -12.710613 34.769635 1.485154 1.945038 0.091079 -0.038438 222925.000000 0 0 1
-3.121067 -32.077649 -11.374713 34.177489 1.473804 1.910081 0.087858 -0.035699 270956.000000 0 0 1
-2.238967 -31.194149 -10.735113 33.065550 1.499144 1.901450 0.070274 -0.030555 -232763.000000 0 0 1
-2.529167 -31.275249 -9.223413 32.704881 1.490104 1.856695 0.071804 -0.027780 304271.000000 0 0 1
-1.520467 -30.686049 -8.391513 31.849065 1.521288 1.837422 0.097581 -0.041587 422385.000000 0 0 1
-1.737367 -31.035549 -7.028013 31.868742 1.514875 1.793154 0.092901 -0.045583 121263.000000 0 0 1
-0.612267 -30.407449 -6.150213 31.029228 1.550664 1.770325 0.106777 -0.045225 110019.000000 0 0 1
-0.684367 -30.581849 -4.740413 30.954634 1.548422 1.724542 0.120357 -0.039741 -805295.000000 0 0 1
0.162733 -29.791749 -4.027013 30.063128 -1.565334 1.705152 0.104444 -0.035163 -947996.000000 0 0 1
0.264133 -30.108249 -2.544113 30.216700 -1.562024 1.655092 0.116819 -0.028462 -328207.000000 0 0 1
0.557433 -31.425349 -2.226413 31.509050 -1.553060 1.641515 0.122605 -0.034956 597111.000000 0 0 1
1.824033 -31.984349 -2.614013 32.142787 -1.513829 1.652211 0.104822 -0.035932 1478980.000000 0 0 1
3.163733 -31.424349 -1.983813 31.645449 -1.470457 1.633526 0.096665 -0.035291 88621.300000 0 0 1
3.251533 -31.784549 -0.611913 31.956290 -1.468852 1.589946 0.093213 -0.027227 -167286.000000 0 0 1
4.569233 -31.872549 -0.135913 32.198692 -1.428407 1.575017 0.071240 -0.021962 -87985.500000 0 0 1
5.257933 -30.573349 0.297387 31.023604 -1.400485 1.561210 0.051264 -0.029907 -489895.000000 0 0 1
5.486733 -29.747849 -0.836513 30.261172 -1.388405 1.598443 0.054477 -0.035394 -84094.500000 0 0 1
5.307833 -28.379649 -0.583513 28.877640 -1.385903 1.591004 0.083941 -0.024800 -214360.000000 0 0 1
4.693933 -27.628949 -1.804013 28.082847 -1.402511 1.635080 0.072011 -0.025759 -716699.000000 0 0 1
3.420033 -28.004849 -2.206813 28.299085 -1.449275 1.648857 0.091887 -0.025424 -744237.000000 0 0 1
2.967033 -27.110049 -3.180613 27.456773 -1.461786 1.686898 0.083529 -0.025284 35455.200000 0 0 1
3.499333 -27.232549 -4.680213 27.852495 -1.442998 1.739633 0.073043 -0.032479 22730.600000 0 0 1
2.721833 -28.171049 -5.405813 28.813872 -1.474477 1.759526 0.079824 -0.039768 311593.000000 0 0 1
3.290533 -28.347849 -6.739713 29.323231 -1.455237 1.802712 0.093887 -0.053831 266508.000000 0 0 1
2.307833 -28.989449 -7.757313 30.098009 -1.491354 1.831474 0.092751 -0.046751 -309713.000000 0 0 1
1.302333 -28.113649 -8.195513 29.312792 -1.524506 1.854162 0.089446 -0.044669 -495811.000000 0 0 1
0.749233 -28.395249 -9.448913 29.935489 -1.544417 1.891930 0.107731 -0.038018 -510009.000000 0 0 1
-0.590067 -27.719249 -9.711313 29.377109 1.549512 1.907708 0.087681 -0.038934 -1037020.000000 0 0 1
-0.613567 -26.269649 -9.554813 27.960068 1.547444 1.919554 0.092878 -0.034597 -633185.000000 0 0 1
-1.867267 -25.664449 -9.643413 27.479921 1.498167 1.929356 0.094292 -0.029808 365763.000000 0 0 1
-2.967367 -25.952249 -8.559613 27.488024 1.456951 1.887456 0.094621 -0.035336 257459.000000 0 0 1
-2.580767 -25.649249 -7.208213 26.767568 1.470516 1.843451 0.110713 -0.045225 113957.000000 0 0 1
-1.531267 -26.474349 -6.671813 27.345000 1.513021 1.817271 0.104675 -0.038267 597066.000000 0 0 1
-1.363367 -26.301049 -5.134813 26.832262 1.519006 1.763351 0.114155 -0.035212 400382.000000 0 0 1
-2.417467 -26.861049 -4.362913 27.320233 1.481039 1.731178 0.130223 -0.033140 133227.000000 0 0 1
-2.062467 -26.629449 -3.023713 26.879810 1.493500 1.683525 0.136039 -0.030250 -131023.000000 0 0 1
-3.111767 -27.008749 -1.948113 27.257124 1.456089 1.642329 0.145041 -0.035444 330265.000000 0 0 1
-4.232767 -26.131549 -2.106813 26.555844 1.410212 1.650215 0.134802 -0.029248 -142613.000000 0 0 1
-5.129667 -26.270249 -1.057313 26.787262 1.377958 1.610277 0.141299 -0.039192 -586040.000000 0 0 1
-6.206167 -25.194149 -1.036913 25.967997 1.329271 1.610737 0.115497 -0.027757 -413736.000000 0 0 1
-5.692367 -23.931649 -0.629313 24.607375 1.337276 1.596373 0.090923 -0.031021 -9686.630000 0 1 0
-6.673967 -23.068949 -0.107513 24.015200 1.289180 1.575273 0.110343 -0.037124 -195134.000000 0 1 0
-6.095067 -21.672949 0.180687 22.514423 1.296648 1.562771 0.077381 -0.042227 230880.000000 0 1 0
-5.231767 -21.689749 1.333687 22.351630 1.334108 1.511092 0.071531 -0.040034 74893.600000 0 1 0
-4.606567 -20.429849 1.350087 20.986232 1.349023 1.506420 0.039886 -0.031474 -870108.000000 0 1 0
-3.559667 -20.368449 2.421187 20.818432 1.397780 1.454232 0.038865 -0.018566 -728820.000000 0 1 0
-4.135367 -20.335949 3.729887 21.084690 1.370179 1.392960 0.037143 -0.010616 279077.000000 0 1 0
-3.184467 -19.966549 4.726687 20.764044 1.412638 1.341145 0.069398 -0.024593 -129839.000000 0 1 0
-2.412467 -21.168349 5.215087 21.934360 1.457320 1.330738 0.092575 -0.034538 79065.500000 0 1 0
-1.304467 -21.458449 4.366287 21.936981 1.510081 1.370420 0.083731 -0.034364 -50028.300000 0 1 0
-0.708467 -22.712649 4.660887 23.196772 1.539614 1.368491 0.092580 -0.038051 -234667.000000 0 1 0
0.410533 -22.990249 3.621687 23.277387 -1.552941 1.414573 0.098346 -0.038543 649903.000000 0 1 0
1.577333 -22.180149 3.759087 22.551668 -1.499801 1.403327 0.081283 -0.040291 319910.000000 0 1 0
2.587533 -22.828349 4.518587 23.414664 -1.457931 1.376597 0.094412 -0.035904 410795.000000 0 1 0
3.921033 -22.030849 4.761387 22.878016 -1.394661 1.361143 0.090763 -0.031047 827595.000000 0 1 0
4.771633 -21.860949 3.648887 22.671215 -1.355895 1.409145 0.062287 -0.021243 -178824.000000 0 1 0
6.057233 -21.414649 4.042987 22.619085 -1.295142 1.391088 0.070547 -0.010253 389522.000000 0 1 0
6.810433 -20.841849 2.830287 22.108261 -1.254967 1.442425 0.077044 -0.007570 50049.600000 0 1 0
7.293433 -21.779349 1.883187 23.045186 -1.247656 1.488988 0.086656 -0.012798 -99648.900000 0 1 0
7.036433 -21.280149 0.581587 22.420847 -1.251456 1.544854 0.066359 -0.026488 275488.000000 0 1 0
7.877433 -22.015349 -0.517313 23.387971 -1.227176 1.592917 0.086070 -0.022323 226354.000000 0 1 0
9.235333 -21.658949 -0.561013 23.552414 -1.167742 1.594618 0.082375 -0.016493 -567592.000000 0 1 0
9.932533 -22.581449 -1.384413 24.708170 -1.156412 1.626856 0.080318 -0.015613 807005.000000 0 1 0
11.385033 -22.159249 -1.793313 24.977335 -1.096184 1.642656 0.086966 -0.013892 730788.000000 0 1 0
11.469033 -20.950549 -2.519313 24.016893 -1.069926 1.675887 0.078747 -0.018392 -820955.000000 0 1 0
12.709133 -20.784949 -3.131813 24.563070 -1.021994 1.698645 0.084430 -0.024325 -670709.000000 0 1 0
12.864933 -19.583149 -4.089313 23.785052 -0.989559 1.743583 0.067853 -0.029227 -323146.000000 0 1 0
13.251633 -18.324849 -3.581813 22.896184 -0.944701 1.727879 0.094851 -0.029897 123901.000000 0 1 0
13.080033 -17.292149 -4.536713 22.151466 -0.923203 1.777060 0.083065 -0.030543 -739120.000000 0 1 0
13.462133 -15.893349 -3.966613 21.202868 -0.868029 1.758984 0.073494 -0.027952 -68810.100000 0 1 0
14.708033 -15.642549 -3.374013 21.734754 -0.816179 1.726662 0.072422 -0.030564 -123749.000000 0 1 0
15.779533 -15.623849 -4.289913 22.616403 -0.780441 1.761634 0.080672 -0.030110 -888035.000000 0 1 0
17.112233 -15.060249 -3.806213 23.111185 -0.721704 1.736241 0.078067 -0.028495 -328571.000000 0 1 0
17.862533 -15.900449 -2.957613 24.096511 -0.727350 1.693847 0.096581 -0.033149 -530964.000000 0 1 0
19.189133 -15.950249 -3.381613 25.180718 -0.693485 1.705497 0.070784 -0.009078 -895498.000000 0 0 1
19.975333 -16.714049 -2.284913 26.145634 -0.696742 1.658300 0.065143 -0.022372 640362.000000 0 0 1
21.391733 -16.554649 -2.526413 27.166991 -0.658610 1.663927 0.070788 -0.012986 1181620.000000 0 0 1
22.061833 -17.357849 -1.530113 28.113354 -0.666629 1.625250 0.075712 -0.010093 594396.000000 0 0 1
23.614733 -17.508549 -1.590513 29.440357 -0.637990 1.624848 0.094785 -0.017362 170491.000000 0 0 1
24.299533 -16.331649 -1.448013 29.313594 -0.591753 1.620214 0.095816 -0.013244 -394695.000000 0 0 1
25.507133 -16.600149 -0.780013 30.443180 -0.576940 1.596421 0.164852 -0.014039 -222580.000000 0 0 1
26.219033 -15.283849 -0.330913 30.350342 -0.527773 1.581700 0.151783 -0.010718 26304.000000 0 0 1
25.525933 -14.455649 0.570087 29.340485 -0.515281 1.551365 0.106577 -0.007739 256294.000000 0 0 1
26.450333 -13.583249 1.160487 29.756873 -0.474419 1.531787 0.092471 0.002058 -60706.700000 0 0 1
25.818333 -13.049049 2.425287 29.030088 -0.467973 1.487155 0.116504 -0.006801 -159490.000000 0 0 1
25.606233 -14.018149 3.446187 29.394964 -0.500884 1.453289 0.135569 -0.004915 975412.000000 0 0 1
26.728333 -14.240549 4.333887 30.593784 -0.489533 1.428659 0.144846 0.007768 936766.000000 0 0 1
26.169933 -14.846349 5.622087 30.608616 -0.516033 1.386071 0.136919 0.001655 196958.000000 0 0 1
25.590133 -16.096749 5.637787 30.752966 -0.561486 1.386429 0.146427 -0.020580 -15764.800000 0 0 1
24.940133 -16.427549 6.858387 30.641672 -0.582452 1.345059 0.138384 -0.025471 33780.400000 0 0 1
24.333933 -17.847649 6.829587 30.940623 -0.632823 1.348231 0.126581 -0.017167 476099.000000 0 0 1
25.310933 -18.875449 6.592787 32.255089 -0.640771 1.364950 0.110135 -0.022129 328994.000000 0 0 1
24.611533 -20.020649 6.159087 32.318544 -0.682898 1.379049 0.079736 -0.020925 -42841.900000 0 0 1
2.361533 23.291822 -3.089913 23.614262 1.469753 1.702022 0.060432 -0.027106 -339250.000000 0 1 0
3.433933 24.069622 -2.705813 24.463442 1.429086 1.681629 0.070504 -0.032182 -647430.000000 0 1 0
4.174233 24.508122 -3.844713 25.156591 1.402095 1.724229 0.091724 -0.036440 -16483.100000 0 0 1
5.195733 25.594622 -3.468013 26.345919 1.370517 1.702813 0.069478 -0.028489 -23205.100000 0 0 1
6.347233 25.079222 -2.837213 26.025075 1.322914 1.680032 0.051111 -0.034664 -101693.000000 0 0 1
6.961033 25.972222 -1.906213 26.956371 1.308932 1.641570 0.046371 -0.029124 -401650.000000 0 0 1
8.080833 25.280622 -1.160313 26.566069 1.261415 1.614487 0.030746 -0.037544 -156200.000000 0 0 1
9.126233 24.940122 -2.074713 26.638360 1.220005 1.648760 0.034279 -0.042767 449666.000000 0 0 1
10.034033 23.925122 -1.604913 25.993634 1.173684 1.632578 0.027561 -0.045462 349634.000000 0 0 1
11.308133 23.668222 -2.404913 26.340885 1.125085 1.662223 0.062319 -0.044927 -1421680.000000 0 0 1
12.328133 24.632622 -2.197213 27.632891 1.106765 1.650395 0.069040 -0.036750 685161.000000 0 0 1
13.337833 24.485822 -3.252013 28.071852 1.072019 1.686903 0.089268 -0.043048 971305.000000 0 0 1
14.276033 23.255422 -3.209713 27.475844 1.020234 1.687883 0.106516 -0.043606 -903779.000000 0 0 1
13.609533 22.001222 -3.423113 26.095801 1.016826 1.702350 0.130722 -0.052190 -68011.100000 0 0 1
13.416333 21.700922 -4.802413 25.961340 1.017074 1.756851 0.165453 -0.057775 706075.000000 0 0 1
12.237233 20.649222 -5.052513 24.528924 1.035818 1.778263 0.163797 -0.060749 549403.000000 0 1 0
10.935233 21.146022 -4.911113 24.307460 1.093539 1.774238 0.127821 -0.052806 -203450.000000 0 1 0
10.005733 20.059422 -4.944313 22.955203 1.108105 1.787887 0.112355 -0.049350 1242430.000000 0 1 0
8.502333 20.494322 -4.768013 22.694511 1.177543 1.782469 0.081218 -0.042913 795564.000000 0 1 0
7.981833 20.663322 -3.471013 22.421652 1.202173 1.726228 0.073247 -0.050995 933998.000000 0 1 0
6.745533 21.420422 -3.517713 22.731278 1.265716 1.726173 0.070050 -0.032765 936824.000000 0 1 0
6.318133 21.979222 -2.184713 22.973419 1.290884 1.666038 0.053548 -0.035621 -159499.000000 0 1 0
5.709633 21.066322 -1.315513 21.865964 1.306124 1.630995 0.040045 -0.044130 -69216.700000 0 1 0
5.145033 21.757022 -0.220813 22.358178 1.338585 1.580673 0.051747 -0.034704 -117785.000000 0 1 0
4.555033 20.885522 0.888987 21.394945 1.356064 1.529233 0.025040 -0.033821 -140863.000000 0 1 0
3.901933 21.649622 1.913587 22.081509 1.392480 1.484027 0.036076 -0.026832 297233.000000 0 1 0
3.377433 20.809522 2.942387 21.286167 1.409897 1.432122 0.038029 -0.023819 -28174.800000 0 1 0
2.386533 21.548522 3.866387 22.022336 1.460494 1.394315 0.029073 -0.012412 -20316.200000 0 1 0
1.067233 21.586722 3.353487 21.871704 1.521397 1.416864 0.026487 -0.013248 -275427.000000 0 1 0
0.205033 22.160522 4.303687 22.575484 1.561544 1.378987 0.038366 -0.016669 -749962.000000 0 1 0
-1.235767 22.151822 3.860287 22.519595 -1.515068 1.398526 0.043597 -0.017604 -438521.000000 0 1 0
-2.161667 22.437322 4.914087 23.070641 -1.474750 1.356150 0.057916 -0.024904 451287.000000 0 1 0
-3.487867 22.514922 4.410187 23.206393 -1.417104 1.379591 0.068483 -0.027480 4578.830000 0 1 0
-4.673967 22.713822 5.309887 23.789884 -1.367853 1.345701 0.070439 -0.036423 -369243.000000 0 1 0
-4.936567 24.031822 5.631987 25.171759 -1.368197 1.345144 0.096545 -0.027874 -520065.000000 0 0 1
-6.279167 24.126922 6.006787 25.644060 -1.316189 1.334363 0.093042 -0.023147 -102633.000000 0 0 1
-6.790467 25.521622 6.515187 27.201311 -1.310754 1.328928 0.105187 -0.031080 85713.400000 0 0 1
-6.192567 25.864422 7.749187 27.701374 -1.335796 1.287273 0.085285 -0.037068 8782.650000 0 0 1
-6.785667 27.043622 8.292387 29.088940 -1.324956 1.281717 0.127579 -0.028785 -3138.340000 0 0 1
-6.747067 28.410322 7.523787 30.154215 -1.337629 1.318622 0.151512 -0.036992 439006.000000 0 0 1
-7.565967 28.410722 6.321687 30.072857 -1.310530 1.359004 0.116779 -0.051086 23274.100000 0 0 1
-7.574467 29.762922 5.828187 31.259748 -1.321593 1.383255 0.140456 -0.050721 -838671.000000 0 0 1
-8.912967 30.069622 5.120687 31.778052 -1.282635 1.408952 0.114964 -0.052918 192557.000000 0 0 1
-9.937467 30.484922 6.002087 32.620680 -1.255679 1.385746 0.096625 -0.038005 -117217.000000 0 0 1
-10.580267 29.350422 6.609687 31.891649 -1.224815 1.362029 0.083500 -0.037361 -1108870.000000 0 0 1
-11.660267 29.822522 7.579187 32.905755 -1.198082 1.338379 0.054122 -0.038993 -523196.000000 0 0 1
-11.183267 30.422222 8.759087 33.575269 -1.218527 1.306864 0.065080 -0.033739 196433.000000 0 0 1
-12.299467 30.816822 9.551287 34.527967 -1.191053 1.290516 0.082482 -0.029467 89625.700000 0 0 1
-11.946067 31.265122 10.939687 35.212116 -1.205825 1.254888 0.079824 -0.039313 -430486.000000 0 0 1
-11.341167 32.512322 11.017387 36.153229 -1.235167 1.261129 0.071764 -0.040744 371351.000000 0 0 1
-10.610367 32.796022 12.209087 36.568029 -1.257898 1.230387 0.070488 -0.044206 86704.100000 0 0 1
-10.174867 -33.330149 12.388787 36.985252 1.274507 1.229228 0.080428 -0.047249 -469675.000000 0 0 1
-11.203767 -32.449449 12.670387 36.592757 1.238343 1.217221 0.081591 -0.043481 -319830.000000 0 0 1
-10.675967 -31.158849 12.921987 35.381181 1.240702 1.196925 0.082122 -0.041618 111675.000000 0 0 1
-11.673467 -30.145749 13.537187 35.046990 1.201343 1.174225 0.077680 -0.036769 12138.700000 0 0 1
-11.929467 -30.420749 14.929887 35.925419 1.197076 1.142216 0.072101 -0.042087 336122.000000 0 0 1
-10.884267 -29.927249 15.755487 35.529465 1.221977 1.111354 0.090537 -0.038078 168248.000000 0 0 1
-10.956167 -30.418549 17.247187 36.644116 1.225081 1.080749 0.093340 -0.044553 373057.000000 0 0 1
-11.904767 -29.692649 18.057087 36.734661 1.189486 1.056922 0.102743 -0.051306 693481.000000 0 0 1
-12.356567 -30.397049 19.195487 38.014893 1.184694 1.041476 0.098963 -0.050337 -166908.000000 0 0 1
-12.544667 -29.506549 20.435287 38.021127 1.168800 1.003360 0.124072 -0.055509 -20298.800000 0 0 1
-11.325867 -29.084249 21.004687 37.621347 1.199447 0.978439 0.136208 -0.055682 52532.000000 0 0 1
-11.549967 -28.178249 22.037187 37.590599 1.181794 0.944384 0.145279 -0.061054 280149.000000 0 0 1
-10.198567 -27.750249 22.665287 37.253220 1.218606 0.916739 0.155882 -0.057326 496292.000000 0 0 1
-9.722867 -28.710749 23.636187 38.438401 1.244269 0.908523 0.141895 -0.038558 917482.000000 0 0 1
-8.352667 -28.601449 24.058787 38.296674 1.286661 0.891531 0.148896 -0.038361 901057.000000 0 0 1
-7.964767 -29.641249 25.115487 39.658907 1.308291 0.885003 0.149130 -0.043548 -49209.100000 0 0 1
-8.125067 -30.956449 24.714087 40.436427 1.314118 0.913241 0.144078 -0.019548 108568.000000 0 0 1
-8.050667 -31.806149 25.830387 41.757075 1.322886 0.903853 0.141464 -0.016742 -496271.000000 0 0 1
-8.108967 -33.284849 25.430387 42.665456 1.331828 0.932234 0.122453 -0.014486 -146503.000000 0 0 1
-6.911567 33.736922 24.905487 42.499800 -1.368726 0.944665 0.124532 -0.014455 442896.000000 0 0 1
-7.142267 32.376922 24.510187 41.231376 -1.353676 0.934209 0.106642 -0.008432 164323.000000 0 0 1
-7.965867 32.067022 23.224387 40.387140 -1.327312 0.958138 0.108039 -0.006666 -45734.900000 0 0 1
-8.717467 30.908022 23.419987 39.746646 -1.295892 0.940689 0.102967 -0.003118 -58410.900000 0 0 1
-9.522767 30.724622 22.288387 39.133843 -1.270246 0.964847 0.095149 -0.004470 -436783.000000 0 0 1
-10.341667 29.421422 22.229687 38.297900 -1.232785 0.951526 0.083400 -0.012208 -211606.000000 0 0 1
-9.665667 28.244722 21.878187 37.011411 -1.241077 0.938350 0.077228 -0.010906 213544.000000 0 0 1
-10.364467 27.103022 22.415687 36.666865 -1.205545 0.913052 0.063267 -0.010392 222713.000000 0 0 1
-9.578967 25.763222 22.349287 35.425850 -1.214827 0.888116 0.071487 -0.015716 -692714.000000 0 0 1
-8.401567 25.745922 23.074987 35.579402 -1.255365 0.865120 0.066737 -0.028154 -666581.000000 0 0 1
-7.855767 24.445122 22.959987 34.444711 -1.259857 0.841191 0.062924 -0.027256 -730988.000000 0 0 1
-6.482167 24.340622 23.592887 34.512443 -1.310526 0.818105 0.066269 -0.022404 -298797.000000 0 0 1
-5.491067 24.954122 22.769187 34.224201 -1.354202 0.842908 0.077061 -0.019667 387893.000000 0 0 1
-4.170367 24.799522 23.284787 34.272286 -1.404192 0.823844 0.116962 -0.010864 306139.000000 0 0 1
-3.155067 25.563022 22.437887 34.159645 -1.447994 0.854158 0.120756 -0.009093 -136139.000000 0 0 1
-2.469367 24.691322 21.534987 32.855971 -1.471118 0.856037 0.103750 -0.009937 1087930.000000 0 0 1
-1.477167 25.391122 20.709287 32.798867 -1.512685 0.887436 0.115329 -0.009917 967334.000000 0 0 1
-0.926567 24.600322 19.497887 31.403853 -1.533149 0.900937 0.091931 -0.012911 -230212.000000 0 0 1
-0.173567 23.505522 19.982587 30.851961 -1.563412 0.866244 0.088018 -0.014270 -87601.500000 0 0 1
0.199333 22.582322 18.963487 29.489233 1.561970 0.872303 0.076809 -0.018612 -465837.000000 0 0 1
1.384633 21.676522 19.270987 29.037214 1.507006 0.845088 0.063327 -0.004343 -1363910.000000 0 0 1
2.574933 22.328822 19.135987 29.519360 1.455985 0.865510 0.059840 -0.015302 -874595.000000 0 0 1
3.653933 21.364922 19.191687 28.950509 1.401410 0.846093 0.057089 -0.005566 869454.000000 0 0 1
5.052333 21.956122 18.877587 29.393208 1.344623 0.873375 0.050311 -0.008971 42207.400000 0 0 1
6.039233 20.994322 18.747287 28.787057 1.290698 0.861579 0.060614 -0.009955 -1676340.000000 0 0 1
7.317733 21.463922 18.728687 29.411102 1.242223 0.880469 0.091486 -0.028060 -593819.000000 0 0 1
8.401833 20.309522 18.473187 28.711080 1.178545 0.871843 0.101849 -0.020519 102661.000000 0 0 1
8.679233 19.446822 19.564187 28.918254 1.151019 0.827750 0.101113 -0.025657 -309180.000000 0 0 1
9.715033 18.572022 19.198187 28.423094 1.088840 0.829231 0.111940 -0.035832 -42584.700000 0 0 1
10.281033 17.716722 20.319187 28.852231 1.044987 0.789430 0.127600 -0.038613 210980.000000 0 0 1
9.354733 16.702722 20.761487 28.240597 1.060253 0.744887 0.101592 -0.030652 302909.000000 0 0 1
9.682133 16.118622 22.014687 28.951686 1.029877 0.706877 0.090834 -0.031009 -53414.200000 0 0 1
8.806733 14.910122 22.387987 28.303573 1.037277 0.658363 0.072687 -0.025625 91698.900000 0 0 1
7.548433 15.280222 22.920687 28.562597 1.111960 0.639370 0.057269 -0.001169 -227034.000000 0 0 1
6.681133 14.277722 23.384387 28.201427 1.133123 0.593136 0.065721 -0.001320 -257257.000000 0 0 1
7.068833 13.228522 24.426087 28.663495 1.080038 0.550683 0.070131 -0.011492 -1130870.000000 0 0 1
7.318733 13.860022 25.702087 30.104175 1.084964 0.547610 0.093117 -0.026018 172453.000000 0 0 1
7.744833 12.948222 26.683587 30.653756 1.031747 0.514613 0.116138 -0.035446 -1173470.000000 0 0 1
8.861733 13.385722 27.597987 31.927367 0.986011 0.526842 0.107849 -0.030892 557078.000000 0 0 1
10.176533 13.467722 27.003587 31.845488 0.923706 0.558678 0.145533 -0.032053 890174.000000 0 0 1
10.479133 14.705922 26.424187 32.004907 0.951678 0.599480 0.130993 -0.025520 -405559.000000 0 0 1
11.745733 14.761422 25.545287 31.755685 0.898680 0.636078 0.149697 -0.037066 -126733.000000 0 0 1
11.674233 13.962822 24.418987 30.455460 0.874431 0.640506 0.148813 -0.038739 -157544.000000 0 0 1
12.914133 13.789922 23.780887 30.372148 0.818183 0.671349 0.180729 -0.047524 -407851.000000 0 0 1
12.787133 12.776722 22.621987 28.957032 0.784991 0.674169 0.156149 -0.044362 58707.500000 0 0 1
12.488233 11.393422 22.900387 28.463903 0.739587 0.635894 0.156652 -0.037891 528386.000000 0 0 1
11.318633 11.185422 23.691687 28.539817 0.779479 0.591460 0.149024 -0.034874 -50027.400000 0 0 1
11.281533 9.806122 24.271787 28.505310 0.715546 0.551989 0.141791 -0.029710 40222.700000 0 0 1
11.301933 8.908822 23.256387 27.348864 0.667539 0.554127 0.156455 -0.032843 190475.000000 0 0 1
11.049533 7.592522 23.738787 27.262953 0.602040 0.514103 0.166004 -0.039849 220620.000000 0 0 1
11.607233 6.525122 22.709287 26.325212 0.512131 0.530322 0.162249 -0.047672 -353582.000000 0 0 1
13.001333 6.420822 22.661587 26.903702 0.458723 0.569219 0.174235 -0.038684 -225209.000000 0 0 1
13.540433 5.433122 21.831887 26.258207 0.381585 0.589118 0.186566 -0.047923 -147767.000000 0 0 1
13.401933 3.973122 22.395087 26.399573 0.288205 0.558006 0.164283 -0.053921 -692741.000000 0 0 1
14.321733 3.644022 23.389187 27.666677 0.249153 0.563498 0.161092 -0.042651 -299685.000000 0 0 1
13.968833 2.398322 23.932687 27.814632 0.170033 0.534673 0.165890 -0.038329 -873981.000000 0 0 1
14.955433 1.684722 24.825687 29.031328 0.112177 0.544986 0.126296 -0.022597 -583934.000000 0 0 1
15.970733 1.007722 24.147787 28.968870 0.063015 0.585244 0.125206 -0.026650 907981.000000 0 0 1
17.243833 1.720222 24.100187 29.683800 0.099430 0.623402 0.101897 -0.026339 469494.000000 0 0 1
18.250633 0.971422 23.245987 29.570343 0.053177 0.666282 0.088345 -0.025989 -462988.000000 0 0 1
18.700533 -0.279978 23.789687 30.261156 -0.014971 0.666248 0.088590 -0.023649 69354.800000 0 0 1
19.630033 -0.873678 22.903787 30.177558 -0.044478 0.709070 0.083038 -0.011066 -123609.000000 0 0 1
19.934833 -2.383278 23.190787 30.673933 -0.118989 0.713551 0.068480 -0.009412 -287306.000000 0 0 1
18.878933 -3.318078 23.146687 30.053168 -0.173979 0.691655 0.064522 -0.000693 106249.000000 0 0 1
19.316433 -4.620778 23.477787 30.751954 -0.234802 0.702148 0.076929 -0.000875 352032.000000 0 0 1
18.158033 -5.593478 23.118987 29.924718 -0.298820 0.687915 0.084813 -0.004863 408601.000000 0 0 1
17.898833 -5.689278 21.734787 28.725199 -0.307758 0.712629 0.100309 -0.006262 1527530.000000 0 0 1
16.762633 -6.525878 21.268687 27.855520 -0.371258 0.702025 0.125037 -0.019732 1347280.000000 0 0 1
17.123933 -8.010478 21.265987 28.454157 -0.437553 0.726691 0.131265 -0.018735 -42296.500000 0 0 1
17.070633 -8.605478 22.529687 29.547378 -0.466930 0.703638 0.111842 -0.007185 -188728.000000 0 0 1
17.720133 -9.825878 22.464787 30.252565 -0.506294 0.733890 0.097738 -0.005914 -354978.000000 0 0 1
17.305533 -10.960678 23.411287 31.107978 -0.564590 0.718823 0.116804 -0.025295 -220807.000000 0 0 1
16.163233 -11.696878 23.052087 30.487141 -0.626437 0.713425 0.141273 -0.022884 -58227.900000 0 0 1
15.823333 -12.647978 24.034387 31.432483 -0.674329 0.700321 0.155163 -0.022160 -541891.000000 0 0 1
14.889333 -13.673978 23.476287 30.980736 -0.742874 0.710907 0.175064 -0.030559 -655078.000000 0 0 1
15.402433 -14.755678 22.718487 31.162391 -0.763956 0.753885 0.171314 -0.041342 -38530.600000 0 0 1
14.396833 -15.294078 21.900587 30.344906 -0.815608 0.764509 0.177054 -0.028695 -134855.000000 0 0 1
14.884933 -16.324978 20.865087 30.387794 -0.831506 0.813957 0.147239 -0.034205 -39064.400000 0 0 1
15.533833 -17.440978 21.446787 31.708869 -0.843170 0.827979 0.172776 -0.039733 179760.000000 0 0 1
15.724733 -18.427378 20.455887 31.706132 -0.864369 0.869549 0.165039 -0.032103 -213691.000000 0 0 1
-25.329417 -32.557249 25.033314 48.251639 0.909617 1.025341 0.093204 -0.041412 76671.800000 0 0 1
-26.243527 -33.687449 25.006114 49.486086 0.908974 1.041048 0.102460 -0.031124 842368.000000 0 0 1
-27.477997 -33.487449 25.663924 50.349643 0.883652 1.035944 0.076399 -0.048174 53570.400000 0 0 1
-27.310607 -33.578449 27.196764 51.117957 0.887976 1.009789 0.084039 -0.046892 -1115640.000000 0 0 1
-28.466807 -33.333449 27.919954 51.971163 0.863984 1.003659 0.095104 -0.043359 -301133.000000 0 0 1
-28.263797 -33.513449 29.302724 52.731804 0.870172 0.981599 0.075127 -0.033929 -224734.000000 0 0 1
-29.330647 -32.817449 30.137484 53.343601 0.841444 0.970401 0.060688 -0.036347 -536355.000000 0 0 1
-29.250787 -31.409349 30.036084 52.386278 0.820968 0.960198 0.038875 -0.027966 291632.000000 0 0 1
-30.176267 -30.780949 30.904234 53.039095 0.795318 0.948787 0.037441 -0.007968 -202905.000000 0 0 1
-30.349947 -29.310349 30.658354 52.155062 0.767975 0.942421 0.024579 -0.016956 -274109.000000 0 0 1
-31.127227 -29.081549 29.509344 51.821252 0.751435 0.964966 0.022339 -0.001551 262296.000000 0 0 1
-31.279977 -27.663149 29.427704 51.084993 0.724114 0.956904 0.031850 -0.005560 117917.000000 0 0 1
-32.025627 -27.143349 28.133914 50.536317 0.703071 0.980380 0.029071 -0.019708 389631.000000 0 0 1
-31.250717 -27.126549 26.918644 49.366693 0.714869 0.994074 0.037554 -0.015755 341512.000000 0 0 1
-30.357757 -26.026349 26.910804 48.199125 0.708729 0.978430 0.035049 -0.011329 -496377.000000 0 0 1
-29.348527 -26.015549 25.790874 46.939472 0.725270 0.989091 0.022641 0.008604 -364386.000000 0 0 1
-29.913597 -25.954649 24.520654 46.580356 0.714654 1.016416 0.013733 0.000971 508891.000000 0 0 1
-28.821937 -25.634049 23.671444 45.256445 0.726924 1.020369 0.013950 0.014493 347022.000000 0 0 1
-29.097617 -25.993249 22.204654 44.892839 0.729108 1.053405 0.017618 0.018660 55109.600000 0 0 1
-30.015937 -25.074149 21.637654 44.697399 0.695934 1.065471 0.017044 0.014685 429629.000000 0 0 1
-30.553697 -25.594249 20.388654 44.769311 0.697299 1.097957 0.016176 0.023527 20774.500000 0 0 1
-31.057137 -24.400149 19.527154 44.059310 0.665932 1.111629 0.028396 0.016532 -180380.000000 0 0 1
-32.177007 -23.719149 20.038354 44.715696 0.635224 1.106126 0.062107 0.007108 -279133.000000 0 0 1
-32.666357 -22.858649 19.058054 44.190702 0.610566 1.124898 0.074915 0.005970 901423.000000 0 0 1
-34.148360 -22.389149 19.399954 45.207773 0.580332 1.127268 0.105356 0.000844 986305.000000 0 0 1
-35.120225 -23.380349 19.047454 46.291214 0.587349 1.146730 0.081068 -0.006963 -365594.000000 0 0 1
-36.360077 -22.809949 19.357454 47.085667 0.560277 1.147123 0.075858 -0.025395 -883496.000000 0 0 1
-37.421227 -23.124549 18.303354 47.645627 0.553516 1.176503 0.079923 -0.030063 -403540.000000 0 0 1
-37.742737 -24.521749 18.452754 48.644985 0.576170 1.181719 0.065516 -0.030378 -306089.000000 0 0 1
37.528682 -25.004449 17.359354 48.321544 -0.587732 1.203336 0.082426 -0.024517 -173962.000000 0 0 1
37.127862 -26.485849 17.659954 48.906567 -0.619642 1.201354 0.088612 -0.009775 -64589.400000 0 0 1
35.940662 -26.677849 18.386454 48.389054 -0.638539 1.181031 0.091960 -0.014709 -258956.000000 0 0 1
36.029762 -26.493749 19.794354 48.906839 -0.634046 1.154106 0.103936 -0.011408 132017.000000 0 0 1
34.691252 -26.701749 20.577454 48.372492 -0.655988 1.131397 0.087537 -0.010498 -361868.000000 0 0 1
33.652542 -25.910149 20.156954 47.012043 -0.656136 1.127675 0.089380 -0.017674 -1235590.000000 0 0 1
32.780922 -25.759349 21.244854 46.791845 -0.666024 1.099514 0.099385 -0.017935 -255381.000000 0 0 1
31.582212 -24.816849 20.923654 45.289197 -0.666013 1.090546 0.124958 -0.013050 -48253.900000 0 0 1
31.762102 -23.432049 20.503754 44.478039 -0.635606 1.091690 0.105494 -0.017964 -214705.000000 0 0 1
32.726902 -22.742449 21.270154 45.173981 -0.607306 1.080543 0.110437 -0.026872 323574.000000 0 0 1
33.622592 -21.668049 20.589854 44.988055 -0.572463 1.095419 0.102286 -0.030856 258915.000000 0 0 1
32.834542 -20.551849 20.368754 43.764961 -0.559262 1.086696 0.106929 -0.036447 -269205.000000 0 0 1
33.576852 -19.401949 20.598654 43.910650 -0.523964 1.082521 0.092334 -0.031106 -522953.000000 0 0 1
32.774562 -18.102149 20.858354 42.859429 -0.504625 1.062524 0.081115 -0.022684 -69874.100000 0 0 1
32.304812 -17.860049 22.193754 43.071393 -0.505037 1.029464 0.080757 -0.041538 -216290.000000 0 0 1
31.068032 -18.408749 22.518294 42.557939 -0.534909 1.013232 0.098858 -0.034539 -733458.000000 0 0 1
30.669772 -18.038949 23.955564 42.894144 -0.531673 0.978243 0.091412 -0.027132 -195518.000000 0 0 1
30.469672 -16.663149 24.047674 42.241592 -0.500442 0.965156 0.100438 -0.028269 163864.000000 0 0 1
30.496672 -16.298549 25.454764 42.937567 -0.490816 0.936225 0.101831 -0.030359 5898.220000 0 0 1
30.511672 -14.805649 25.736334 42.573798 -0.451774 0.921644 0.095067 -0.033379 312982.000000 0 0 1
29.244872 -14.250349 25.392654 41.268897 -0.453417 0.908033 0.108596 -0.035570 499876.000000 0 0 1
29.017072 -12.950949 25.943914 41.021997 -0.419791 0.886098 0.097284 -0.035328 109384.000000 0 0 1
29.513772 -11.830149 24.995544 40.444930 -0.381226 0.904582 0.120960 -0.037611 -151803.000000 0 0 1
28.759172 -11.832949 23.806034 39.164217 -0.390338 0.917444 0.114263 -0.027425 459950.000000 0 0 1
29.421172 -11.028649 22.805114 38.824086 -0.358643 0.942959 0.116664 -0.018265 -155194.000000 0 0 1
30.556572 -11.752649 22.121754 39.512034 -0.367177 0.976563 0.112806 -0.025102 -476670.000000 0 0 1
30.045472 -12.810949 21.280854 38.983657 -0.403043 0.993343 0.105516 -0.025134 302785.000000 0 0 1
30.371272 -14.105049 21.715354 39.911441 -0.434781 0.995494 0.095239 -0.022090 -181096.000000 0 0 1
30.075472 -15.233049 20.711754 39.567114 -0.468829 1.019891 0.097926 -0.018739 -387412.000000 0 0 1
30.868772 -15.168349 19.576254 39.575113 -0.456729 1.053352 0.098346 -0.025199 -331892.000000 0 0 1
30.380172 -16.038149 18.593354 39.062640 -0.485729 1.074709 0.112987 -0.042097 -235057.000000 0 0 1
30.781872 -15.788349 17.058754 38.571968 -0.473923 1.112682 0.130649 -0.047163 -96911.900000 0 0 1
30.146772 -16.611049 16.103254 38.000916 -0.503615 1.133204 0.117270 -0.052275 1154840.000000 0 0 1
28.704872 -16.538249 16.027054 36.801492 -0.522696 1.120203 0.150566 -0.057322 842543.000000 0 0 1
28.141472 -15.413349 15.100954 35.461988 -0.501083 1.130912 0.147301 -0.053395 -190591.000000 0 0 1
28.158272 -15.731049 13.744154 35.060747 -0.509472 1.167981 0.162213 -0.059611 108249.000000 0 0 1
27.136872 -16.638349 13.334954 34.511816 -0.550016 1.174084 0.172154 -0.070686 -31472.400000 0 0 1
27.305972 -17.242749 11.941554 34.431515 -0.563234 1.216617 0.165453 -0.048355 -388112.000000 0 0 1
27.102272 -16.218849 10.933254 33.423349 -0.539265 1.237548 0.172242 -0.043085 -163773.000000 0 0 1
27.252672 -16.767849 9.643854 33.419647 -0.551574 1.278065 0.142548 -0.040734 627498.000000 0 0 1
28.676772 -17.175249 9.105654 34.644760 -0.539629 1.304843 0.140773 -0.031978 787610.000000 0 0 1
29.229672 -18.259649 9.857054 35.846200 -0.558380 1.292226 0.141530 -0.033756 -649344.000000 0 0 1
30.607572 -18.406649 9.637854 36.993465 -0.541430 1.307227 0.133254 -0.017675 -135743.000000 0 0 1
31.283592 -19.397749 10.630854 38.313847 -0.555040 1.289639 0.113332 -0.034428 47298.200000 0 0 1
31.435982 -18.828149 11.966154 38.547490 -0.539637 1.255155 0.117698 -0.051038 348915.000000 0 0 1
32.102852 -19.715349 12.881854 39.814950 -0.550745 1.241325 0.076245 -0.040042 238649.000000 0 0 1
31.920152 -19.159949 14.290654 39.877594 -0.540601 1.204283 0.096966 -0.034534 142150.000000 0 0 1
32.089672 -20.140949 15.307254 40.862170 -0.560500 1.186823 0.114022 -0.036085 -3859.560000 0 0 1
31.764302 -19.668149 16.616454 40.889039 -0.554411 1.152309 0.126420 -0.046592 -43650.800000 0 0 1
31.177362 -20.846449 17.435754 41.359495 -0.589368 1.135625 0.125669 -0.041349 323341.000000 0 0 1
29.816472 -21.102849 17.107854 40.336471 -0.615914 1.132797 0.075382 -0.029762 197940.000000 0 0 1
29.395772 -22.331349 17.629054 40.909462 -0.649667 1.125275 0.111308 -0.033968 579150.000000 0 0 1
27.905972 -22.695349 17.360754 39.940179 -0.682786 1.121126 0.108489 -0.015401 757962.000000 0 0 1
26.896372 -22.041749 18.136554 39.219741 -0.686522 1.090058 0.126291 -0.015789 1567520.000000 0 0 1
25.662072 -22.826949 18.036354 38.793319 -0.726995 1.087236 0.132967 -0.027441 1224330.000000 0 0 1
24.436872 -22.260149 18.779054 38.017467 -0.738818 1.054160 0.101137 -0.024263 -77926.800000 0 0 1
24.005972 -20.987449 18.292654 36.761133 -0.718410 1.049957 0.097805 -0.026722 229038.000000 0 0 1
22.807272 -20.489649 18.879454 36.005988 -0.731921 1.018854 0.086685 -0.020317 478194.000000 0 0 1
22.960872 -19.926549 20.337354 36.577000 -0.714765 0.981213 0.072571 -0.017062 -131126.000000 0 0 1
23.352572 -20.942049 21.301054 37.916315 -0.731032 0.974247 0.082737 -0.019115 12439.100000 0 0 1
23.531372 -20.382249 22.580774 38.458457 -0.713809 0.943266 0.075599 -0.012437 -12688.700000 0 0 1
24.046572 -21.456149 23.509714 39.891235 -0.728531 0.940548 0.072920 -0.008990 481016.000000 0 0 1
23.004072 -22.340649 23.945854 40.021192 -0.770769 0.929382 0.088143 -0.014476 684322.000000 0 0 1
23.492572 -23.125549 25.006484 41.376517 -0.777525 0.921829 0.088909 -0.010458 66632.800000 0 0 1
22.357172 -23.835949 25.767984 41.617119 -0.817400 0.903114 0.098734 -0.018287 -46792.300000 0 0 1
21.644972 -24.782449 25.019264 41.335677 -0.852874 0.920691 0.104210 -0.016216 241261.000000 0 0 1
20.488472 -25.255949 25.693714 41.446440 -0.889243 0.902148 0.099172 -0.017954 128014.000000 0 0 1
19.843872 -26.454549 24.942664 41.421720 -0.927224 0.924588 0.097823 -0.024295 -168494.000000 0 0 1
19.042072 -26.042249 23.866324 40.129798 -0.939437 0.933869 0.104953 -0.028003 90861.400000 0 0 1
18.467772 -27.120649 23.200304 40.185101 -0.972971 0.955334 0.088042 -0.031932 58339.700000 0 0 1
17.390872 -26.728949 22.137754 38.819574 -0.993973 0.963958 0.092707 -0.034708 -528815.000000 0 0 1
16.163472 -26.308249 22.601614 38.265059 -1.019865 0.938921 0.083358 -0.034824 -602298.000000 0 0 1
15.566472 -25.401049 21.680554 36.845281 -1.020998 0.941691 0.077312 -0.031033 -985094.000000 0 0 1
14.242072 -24.804149 22.047954 36.113636 -1.049578 0.914084 0.057837 -0.026335 -1217120.000000 0 0 1
13.207272 -25.750849 22.000354 36.353182 -1.096892 0.920800 0.058816 -0.030190 -935330.000000 0 0 1
12.027472 -25.008749 22.033454 35.434033 -1.122520 0.899737 0.076797 -0.026725 -1116720.000000 0 0 1
10.752372 -25.802349 22.152754 35.666781 -1.175959 0.900647 0.083410 -0.032317 -612642.000000 0 0 1
10.363072 -26.479949 20.948354 35.318756 -1.197764 0.935864 0.107222 -0.042237 190069.000000 0 0 1
9.134872 -27.136249 21.191654 35.621736 -1.246082 0.933645 0.124974 -0.049495 -20195.400000 0 0 1
8.557672 -28.095149 20.115754 35.597959 -1.275128 0.970264 0.143796 -0.044522 247554.000000 0 0 1
9.292872 -29.310449 19.995454 36.678033 -1.263772 0.994215 0.133084 -0.043054 298865.000000 0 0 1
8.740972 -30.133649 18.934254 36.646246 -1.288471 1.027832 0.135484 -0.043761 205716.000000 0 0 1
9.271672 -31.591349 18.641254 37.834820 -1.285325 1.055605 0.116795 -0.028262 2218.110000 0 0 1
8.957072 -32.434749 19.735754 39.009513 -1.301355 1.040346 0.112784 -0.037763 107893.000000 0 0 1
9.812572 -33.523749 19.710354 40.107685 -1.286045 1.057059 0.086926 -0.029006 -243815.000000 0 0 1
9.296672 33.004422 20.721754 40.063837 1.296231 1.027199 0.114276 -0.040995 -384842.000000 0 0 1
8.266372 32.250522 20.194854 38.939199 1.319881 1.025554 0.110817 -0.043614 -663458.000000 0 0 1
8.284972 31.030122 20.814554 38.272116 1.309885 0.995770 0.119954 -0.051620 -462021.000000 0 0 1
7.259772 30.061122 20.256054 36.968677 1.333833 0.990915 0.116292 -0.051359 -756985.000000 0 0 1
5.967872 30.486422 20.598554 37.273822 1.377486 0.985282 0.168545 -0.061828 -556732.000000 0 0 1
5.072672 29.474022 20.113554 36.041712 1.400360 0.978746 0.186338 -0.045914 949643.000000 0 0 1
3.606872 29.662422 20.645254 36.319352 1.449793 0.966192 0.192207 -0.041514 644529.000000 0 0 1
3.443672 29.042222 21.855454 36.509867 1.452773 0.929022 0.137214 -0.032569 -345941.000000 0 0 1
2.073272 28.884122 22.088054 36.420778 1.499140 0.919185 0.144145 -0.023385 -405238.000000 0 0 1
1.730972 28.252122 23.463314 36.765551 1.509604 0.878655 0.137944 -0.014049 -193361.000000 0 0 1
1.704072 29.219622 24.484914 38.160204 1.512543 0.874169 0.150441 -0.023983 -3455.080000 0 0 1
1.511072 28.753022 25.789794 38.654017 1.518291 0.840359 0.146681 -0.032954 -348400.000000 0 0 1
2.674372 28.090322 26.542124 38.738905 1.475876 0.815981 0.106030 -0.031545 -584230.000000 0 0 1
3.198272 26.931022 25.960064 37.542427 1.452592 0.807252 0.111157 -0.035096 153945.000000 0 0 1
3.892372 26.267522 26.997164 37.867930 1.423685 0.777129 0.074417 -0.020795 -78957.700000 0 0 1
4.328372 24.790022 26.596384 36.614855 1.397937 0.757753 0.062160 -0.004441 425402.000000 0 0 1
3.243472 23.877122 26.438794 35.772152 1.435783 0.739080 0.075841 -0.005134 258876.000000 0 0 1
3.823772 22.648022 26.136494 34.794690 1.403539 0.720974 0.062696 0.000268 -48303.100000 0 0 1
2.821672 21.505522 26.087004 33.926112 1.440335 0.693621 0.067640 -0.001262 -64466.300000 0 0 1
3.426372 20.227422 26.264354 33.327240 1.402997 0.663121 0.085595 -0.001427 16657.700000 0 0 1
4.155472 19.753622 25.159114 32.256077 1.363455 0.676162 0.082191 0.008875 -378033.000000 0 0 1
4.671972 18.345822 25.352634 31.640995 1.321435 0.641400 0.091565 -0.001990 -579082.000000 0 0 1
5.754272 18.141222 26.201594 32.384241 1.263642 0.628203 0.066902 -0.007694 -460527.000000 0 0 1
6.927672 17.888322 25.464524 31.881447 1.201309 0.645622 0.067235 -0.006430 -597369.000000 0 0 1
8.159672 17.673622 26.382684 32.786936 1.138267 0.635676 0.071243 -0.016176 164064.000000 0 0 1
8.701272 18.791822 27.044034 34.062068 1.137155 0.653496 0.084733 -0.010809 -19486.600000 0 0 1
9.389072 19.774022 26.276454 34.199688 1.127496 0.694577 0.077180 -0.010061 -113630.000000 0 0 1
9.824772 20.967222 27.106164 35.649609 1.132601 0.706945 0.079357 -0.009561 -471293.000000 0 0 1
10.781772 20.697022 28.054374 36.491933 1.090543 0.693861 0.100647 -0.027603 -657301.000000 0 0 1
10.954572 21.889822 28.799294 37.796379 1.106796 0.704464 0.134566 -0.043395 -196265.000000 0 0 1
11.962572 21.817622 29.927284 38.919841 1.069260 0.693604 0.172385 -0.043229 88930.500000 0 0 1
13.300672 21.572522 29.538574 38.920546 1.018292 0.709104 0.160771 -0.042388 -103175.000000 0 0 1
14.191072 21.541422 30.633764 40.048057 0.988273 0.699871 0.156929 -0.035968 216001.000000 0 0 1
15.639972 21.235822 30.214914 40.106232 0.935998 0.717621 0.118383 -0.035997 60408.500000 0 0 1
16.280772 22.213822 29.429724 40.306650 0.938322 0.752261 0.105150 -0.042255 239365.000000 0 0 1
17.615672 21.826622 29.111744 40.425325 0.891758 0.766798 0.182966 -0.029671 590415.000000 0 0 1
-9.088567 16.828222 4.594187 19.669714 -1.075602 1.335052 0.037053 -0.016760 -36710.600000 0 1 0
-8.836367 18.161022 4.896787 20.781786 -1.117961 1.332931 0.049412 -0.019951 351777.000000 0 1 0
-7.430367 18.397822 4.838287 20.423008 -1.186956 1.331619 0.044722 -0.018168 399728.000000 0 1 0
-7.137867 19.850322 5.279187 21.745212 -1.225609 1.325571 0.050123 -0.023894 -43903.400000 0 1 0
-7.477067 20.968322 4.440087 22.700032 -1.228264 1.373929 0.065142 -0.028976 -268297.000000 0 1 0
-8.791667 21.114022 3.964687 23.212369 -1.176241 1.399154 0.067486 -0.034530 -248676.000000 0 1 0
-9.047467 22.271522 3.011687 24.227002 -1.184927 1.446163 0.112458 -0.042040 -14361.300000 0 1 0
-8.347467 22.344922 1.785987 23.919981 -1.213277 1.496062 0.088455 -0.036657 -20083.400000 0 1 0
-8.759567 21.395622 0.798487 23.133098 -1.182205 1.536272 0.097466 -0.037071 -495485.000000 0 1 0
-7.892067 21.626722 -0.477513 23.026677 -1.220890 1.591535 0.059056 -0.007294 778995.000000 0 1 0
-6.621967 20.988822 -0.518813 22.014774 -1.265181 1.594365 0.038758 -0.005816 -375876.000000 0 1 0
-5.632767 21.662322 0.201387 22.383584 -1.316404 1.561799 0.054605 -0.017133 -1092030.000000 0 1 0
-4.295367 21.311522 -0.474013 21.745249 -1.371909 1.592596 0.050485 -0.016813 -393109.000000 0 1 0
-4.279967 21.678222 -1.843313 22.173435 -1.375872 1.654024 0.048299 -0.017004 365830.000000 0 1 0
-2.954667 21.517622 -2.338713 21.845084 -1.434336 1.678061 0.047761 -0.011712 397641.000000 0 1 0
-2.778667 21.705722 -3.849513 22.218868 -1.443473 1.744929 0.040768 -0.014294 -477462.000000 0 1 0
-1.445167 21.899422 -4.192313 22.343873 -1.504901 1.759542 0.066220 -0.020216 -575439.000000 0 1 0
-1.373867 22.244922 -5.576313 22.974319 -1.509114 1.815964 0.073033 -0.024667 -192476.000000 0 1 0
0.000333 22.719222 -6.035313 23.507191 1.570782 1.830447 0.075165 -0.025673 -163383.000000 0 1 0
1.038333 21.764222 -6.117113 22.631362 1.523124 1.844494 0.068637 -0.026389 -16755.500000 0 1 0
2.262733 22.413522 -6.459813 23.435339 1.470183 1.850056 0.062777 -0.017106 575673.000000 0 1 0
3.428233 21.430022 -6.725813 22.720809 1.412167 1.871319 0.061793 -0.019387 71280.400000 0 1 0
3.309233 20.812922 -7.971113 22.531475 1.413117 1.932402 0.052351 -0.015123 11534.500000 0 1 0
3.693733 19.490122 -7.933213 21.364559 1.383499 1.951233 0.038370 -0.023863 84866.000000 0 1 0
3.155333 18.790722 -9.177213 21.148725 1.404429 2.019654 0.030744 -0.015873 -217672.000000 0 1 0
3.917133 19.115522 -10.330013 22.078412 1.368676 2.057685 0.032747 -0.021143 415314.000000 0 1 0
3.080333 18.960222 -11.472213 22.373872 1.409741 2.109182 0.037933 -0.017384 110860.000000 0 1 0
3.682433 19.476622 -12.778613 23.583724 1.383933 2.143421 0.031772 -0.011359 12914.500000 0 1 0
3.903633 20.907422 -12.939413 24.895522 1.386211 2.117353 0.074014 -0.020045 -53584.500000 0 1 0
4.348033 21.151822 -14.257713 25.876386 1.368057 2.154350 0.084436 -0.029249 -40389.300000 0 0 1
4.631133 22.598622 -14.578913 27.289005 1.368665 2.134406 0.088079 -0.038075 479269.000000 0 0 1
3.477033 23.457722 -14.572313 27.833555 1.423642 2.121811 0.111176 -0.044045 369249.000000 0 0 1
3.747633 24.745422 -15.121713 29.241184 1.420491 2.114299 0.101133 -0.037370 78161.200000 0 0 1
2.404633 25.406422 -15.514113 29.865636 1.476431 2.117019 0.099481 -0.030580 607690.000000 0 0 1
1.632233 25.834422 -14.361113 29.602755 1.507700 2.077305 0.123237 -0.040503 -363509.000000 0 0 1
1.713433 27.212822 -14.097113 30.695311 1.507915 2.047958 0.104879 -0.035230 -1014890.000000 0 0 1
0.792333 27.549222 -12.901413 30.430805 1.542044 2.008608 0.122321 -0.044047 868585.000000 0 0 1
-0.623367 27.463322 -13.150913 30.456020 -1.548102 2.017284 0.112583 -0.041980 907070.000000 0 0 1
-1.132567 26.135222 -13.478513 29.427926 -1.527489 2.046560 0.102241 -0.044572 -1316760.000000 0 0 1
-1.181567 25.069722 -12.335813 27.965324 -1.523700 2.027633 0.129851 -0.042258 -386206.000000 0 0 1
-2.076467 25.323422 -11.282413 27.800724 -1.488981 1.988685 0.131116 -0.038776 -240116.000000 0 0 1
-2.188067 24.180522 -10.491413 26.449102 -1.480553 1.978676 0.125689 -0.032473 47299.600000 0 0 1
-3.197167 24.209222 -9.316513 26.136291 -1.439492 1.935271 0.110836 -0.027146 133551.000000 0 0 1
-2.714667 24.514322 -7.986913 25.925126 -1.460508 1.883966 0.122000 -0.031249 -64452.800000 0 0 1
-2.392167 25.876222 -7.814113 27.135985 -1.478612 1.862894 0.126295 -0.035379 16206.400000 0 0 1
-2.194667 26.336822 -6.393413 27.190448 -1.487658 1.808153 0.123055 -0.033230 573263.000000 0 0 1
-1.030767 25.829322 -5.724713 26.476191 -1.530911 1.788739 0.113455 -0.034331 324733.000000 0 0 1
-0.956367 26.080222 -4.347313 26.457357 -1.534143 1.735859 0.119160 -0.036722 -405467.000000 0 0 1
-2.012867 25.424322 -3.439513 25.734763 -1.491790 1.704850 0.112987 -0.034255 478994.000000 0 0 1
-3.191767 26.282122 -3.390013 26.691375 -1.449946 1.698148 0.102712 -0.036331 736690.000000 0 0 1
-4.022867 25.951122 -2.294613 26.361135 -1.417003 1.657952 0.104829 -0.029126 426167.000000 0 0 1
-5.141267 24.842322 -2.502113 25.491845 -1.366721 1.669108 0.086337 -0.034094 297595.000000 0 0 1
-6.244367 25.449622 -3.168913 26.395405 -1.330188 1.691142 0.091307 -0.042988 -523340.000000 0 0 1
-7.231167 24.526422 -3.439213 25.800452 -1.284088 1.704495 0.061243 -0.033916 214490.000000 0 0 1
-8.583767 25.163822 -3.930913 26.876590 -1.242058 1.717581 0.066009 -0.033913 283628.000000 0 0 1
-9.250767 25.715322 -2.858013 27.477677 -1.225473 1.674997 0.098692 -0.050820 -42263.100000 0 0 1
-10.547067 26.178522 -3.315013 28.417335 -1.187801 1.687717 0.114722 -0.052451 816783.000000 0 0 1
-11.339367 26.853022 -2.198613 29.231831 -1.171236 1.646080 0.132174 -0.048668 -542925.000000 0 0 1
-12.111367 26.102522 -1.318513 28.805648 -1.136368 1.616585 0.133769 -0.049175 -167394.000000 0 0 1
-11.324867 25.177822 -0.571613 27.613440 -1.148113 1.591498 0.141590 -0.061340 -137652.000000 0 0 1
-11.851967 23.715222 -0.363013 26.514386 -1.107339 1.584488 0.121387 -0.041399 94890.400000 0 0 1
-12.474767 23.535922 0.916187 26.653308 -1.083414 1.536415 0.132386 -0.051822 33387.100000 0 0 1
-12.984967 22.197622 0.956287 25.734379 -1.041501 1.533628 0.132442 -0.045022 -137730.000000 0 0 1
-13.965967 21.973722 2.121987 26.122701 -1.004628 1.489475 0.129745 -0.051412 -237731.000000 0 0 1
-13.514367 21.819222 3.450787 25.896419 -1.016249 1.437145 0.127867 -0.044592 -305655.000000 0 0 1
-13.274267 22.983322 4.203787 26.872125 -1.047040 1.413714 0.124682 -0.055423 -106791.000000 0 0 1
-12.908667 22.574822 5.634787 26.608403 -1.051357 1.357413 0.118434 -0.047340 -418242.000000 0 0 1
-11.632267 22.041222 5.845787 25.598796 -1.085196 1.340402 0.106594 -0.037336 -435221.000000 0 0 1
-11.534067 21.595922 7.146187 25.504638 -1.080254 1.286803 0.072350 -0.043444 -764350.000000 0 0 1
-10.120667 21.528122 7.681887 24.997987 -1.131342 1.258442 0.057636 -0.029070 -999365.000000 0 1 0
-9.639967 22.767322 8.103487 26.018194 -1.170271 1.254073 0.063678 -0.027254 1227880.000000 0 0 1
-8.372167 22.588222 8.827687 25.656364 -1.215851 1.219544 0.062481 -0.025033 1321390.000000 0 0 1
-8.525567 22.249322 10.325087 25.967770 -1.204871 1.161884 0.057955 -0.033347 -197921.000000 0 0 1
-9.269867 21.065122 10.577087 25.328730 -1.156241 1.140002 0.070131 -0.033281 -13032.300000 0 0 1
-9.209567 20.639722 11.896587 25.541007 -1.151102 1.086276 0.060250 -0.024653 58246.800000 0 0 1
-10.105667 19.410722 12.286387 25.096931 -1.090787 1.059214 0.067012 -0.025751 62218.000000 0 0 1
-9.839567 18.143722 11.747787 23.749152 -1.073874 1.053351 0.079465 -0.043945 -329348.000000 0 1 0
-10.867567 17.297822 12.180587 23.784141 -1.009855 1.033133 0.092453 -0.041996 -81377.100000 0 1 0
-10.983467 15.974222 11.421587 22.500333 -0.968458 1.038378 0.094392 -0.052564 49542.600000 0 1 0
-11.748267 14.983022 12.106487 22.562796 -0.905823 1.004431 0.090795 -0.044031 18090.200000 0 1 0
-11.809767 13.792122 11.345187 21.410430 -0.862674 1.012325 0.077693 -0.028334 131167.000000 0 1 0
-12.226567 12.633022 12.262787 21.434975 -0.801747 0.961742 0.063996 -0.031754 921737.000000 0 1 0
-13.541167 12.826322 12.820587 22.632835 -0.758294 0.968593 0.095863 -0.027911 768828.000000 0 1 0
-14.003467 11.668222 13.455887 22.656244 -0.694682 0.934880 0.070032 -0.012595 427297.000000 0 1 0
-15.043667 11.947522 14.576787 24.115098 -0.671188 0.921699 0.079554 -0.022126 802563.000000 0 1 0
-16.340767 12.461622 14.294187 25.032708 -0.651522 0.963048 0.109089 -0.031535 678521.000000 0 0 1
-17.065367 12.827422 15.472487 26.366027 -0.644565 0.943653 0.087695 -0.025882 187453.000000 0 0 1
-18.297267 13.706522 15.215087 27.461930 -0.642926 0.983583 0.086751 -0.024389 127735.000000 0 0 1
-19.405867 13.105022 14.581687 27.585411 -0.593964 1.013844 0.111817 -0.025078 307702.000000 0 0 1
-20.437467 14.043222 14.298887 28.624471 -0.602037 1.047736 0.146140 -0.032803 228140.000000 0 0 1
-21.593167 13.481222 13.439687 28.785993 -0.558116 1.085034 0.126130 -0.027873 31470.400000 0 0 1
-22.302467 12.438622 14.073087 29.157695 -0.508754 1.067113 0.129538 -0.020243 75631.200000 0 0 1
-23.392767 12.018222 13.277187 29.460871 -0.474593 1.103278 0.118569 -0.018904 308102.000000 0 0 1
-24.484767 11.194022 14.017487 30.352923 -0.428811 1.090754 0.131537 -0.030779 601605.000000 0 0 1
-25.266477 11.966322 14.948987 31.702681 -0.442309 1.079763 0.108696 -0.026860 565547.000000 0 0 1
-26.071007 11.182722 15.822787 32.482477 -0.405197 1.062010 0.101330 -0.026806 -101879.000000 0 0 1
-26.785037 11.992422 16.897287 33.864062 -0.420963 1.048382 0.098252 -0.032372 -104508.000000 0 0 1
-27.863957 12.799122 16.393587 34.770208 -0.430597 1.079824 0.107691 -0.022388 206280.000000 0 0 1
-28.497527 13.269022 17.544187 35.999646 -0.435767 1.061752 0.093963 -0.018339 219275.000000 0 0 1
-29.689947 14.184422 17.070487 37.068751 -0.445691 1.092228 0.085438 -0.019495 686950.000000 0 0 1
-29.226437 15.471722 16.654687 37.026172 -0.486870 1.104245 0.083536 -0.014763 103664.000000 0 0 1
-30.344087 16.266022 16.365687 38.120635 -0.492072 1.127064 0.085747 -0.015686 59370.600000 0 0 1
-29.972567 17.766422 16.305787 38.469199 -0.535076 1.133087 0.100068 -0.014110 -36659.900000 0 0 1
-29.484877 18.425222 17.439087 38.896897 -0.558530 1.105887 0.101699 -0.018247 524051.000000 0 0 1
-30.472177 18.563122 18.478687 40.182147 -0.547144 1.092944 0.097700 -0.027699 -583971.000000 0 0 1
-29.754817 18.723922 19.774887 40.335847 -0.561667 1.058413 0.079919 -0.026483 83389.600000 0 0 1
-28.957217 17.694222 20.266887 39.526607 -0.548503 1.032423 0.076469 -0.021408 -588957.000000 0 0 1
-27.864307 17.230722 19.553987 38.153320 -0.553824 1.032690 0.091785 -0.016615 -1165940.000000 0 0 1
-27.291607 16.008322 20.339287 37.613625 -0.530483 0.999477 0.080971 -0.011507 342259.000000 0 0 1
-28.300617 15.004022 20.476587 38.017578 -0.487488 1.002012 0.058818 -0.020795 818829.000000 0 0 1
-27.803277 13.837922 21.089687 37.540448 -0.461813 0.974254 0.066324 -0.017232 859609.000000 0 0 1
-29.102187 13.047622 21.511387 38.469696 -0.421471 0.977403 0.069770 -0.030895 687881.000000 0 0 1
-29.875587 12.571222 20.459287 38.329737 -0.398296 1.007743 0.076231 -0.031265 108469.000000 0 0 1
-30.825147 11.588922 20.957587 39.034770 -0.359609 1.004044 0.103577 -0.029217 409949.000000 0 0 1
-31.739247 11.154122 19.726187 38.998932 -0.337948 1.040472 0.122738 -0.033179 -324179.000000 0 0 1
-31.238037 10.781322 18.481887 37.863334 -0.332334 1.060861 0.139142 -0.035496 94492.900000 0 0 1
-30.208747 9.782722 18.547587 36.773401 -0.313180 1.042138 0.156647 -0.037887 112623.000000 0 0 1
-29.534487 9.615522 17.154887 35.482874 -0.314747 1.066182 0.151254 -0.040449 106027.000000 0 0 1
-30.336677 9.011722 16.064687 35.490834 -0.288755 1.101069 0.161519 -0.037499 996609.000000 0 0 1
-31.235497 9.894622 15.411187 36.208625 -0.306775 1.131147 0.150186 -0.036477 147463.000000 0 0 1
-30.509887 11.028522 14.597087 35.574661 -0.346860 1.147989 0.135104 -0.023735 122655.000000 0 0 1
-29.813697 10.558322 13.455087 34.371123 -0.340361 1.168573 0.150962 -0.031801 171766.000000 0 0 1
-29.002367 11.571022 12.919387 33.792550 -0.379617 1.178496 0.137441 -0.025987 -121678.000000 0 0 1
-28.683427 11.372122 11.388987 32.890321 -0.377460 1.217202 0.175033 -0.019675 123963.000000 0 0 1
-27.748657 10.383522 10.938587 31.582562 -0.358068 1.217120 0.198337 -0.025827 652697.000000 0 0 1
-28.295217 9.090922 11.005387 31.691998 -0.310871 1.216148 0.208747 -0.018746 -292440.000000 0 0 1
-27.354457 7.957122 10.569787 30.385894 -0.283078 1.215518 0.225344 -0.029238 -398459.000000 0 0 1
-27.075727 8.074822 9.181487 29.708542 -0.289833 1.256600 0.229000 -0.027941 274452.000000 0 0 1
-26.531487 6.879922 8.575187 28.719105 -0.253723 1.267583 0.271057 -0.054730 -7615.460000 0 0 1
-25.854317 6.998022 7.160487 27.725270 -0.264337 1.309570 0.266391 -0.050249 -186061.000000 0 0 1
-26.642747 7.526222 6.123187 28.354425 -0.275313 1.353130 0.275983 -0.052928 460967.000000 0 0 1
-25.753347 8.019222 5.086987 27.448502 -0.301869 1.384390 0.268573 -0.050065 196760.000000 0 0 1
-26.415597 8.776522 3.906687 28.108243 -0.320773 1.431358 0.257321 -0.051083 -467459.000000 0 0 1
-27.220627 8.102922 2.974387 28.556381 -0.289323 1.466449 0.299388 -0.051258 159074.000000 0 0 1
-26.706077 6.932522 2.319287 27.688509 -0.253980 1.486935 0.297346 -0.051933 -394635.000000 0 0 1
-25.579567 7.077422 1.256687 26.570349 -0.269930 1.523482 0.276347 -0.042948 -696786.000000 0 0 1
-24.378567 7.303222 1.929487 25.522040 -0.291067 1.495123 0.219906 -0.039922 -355431.000000 0 0 1
-23.463167 7.777022 0.926187 24.735806 -0.320061 1.533344 0.220654 -0.028060 -432805.000000 0 1 0
-22.175967 8.281722 1.559887 23.723273 -0.357415 1.504995 0.148201 -0.034730 -685286.000000 0 1 0
-22.398767 9.571822 2.091687 24.447898 -0.403848 1.485135 0.163650 -0.045264 682649.000000 0 1 0
-21.476967 9.942822 3.114187 23.870861 -0.433573 1.439964 0.137483 -0.042783 -592904.000000 0 1 0
-21.713567 11.361522 3.673187 24.780143 -0.482070 1.422017 0.132759 -0.057655 -517196.000000 0 1 0
-21.289867 12.337322 2.691087 24.752978 -0.525204 1.461863 0.177096 -0.052349 480174.000000 0 1 0
-21.491567 13.664922 3.209287 25.669380 -0.566347 1.445444 0.172210 -0.057683 504775.000000 0 0 1
-20.241867 14.296422 3.930187 25.091179 -0.614928 1.413512 0.125179 -0.051327 481930.000000 0 0 1
-19.660067 13.562522 4.942387 24.390314 -0.603882 1.366746 0.110517 -0.054606 478639.000000 0 1 0
-18.633367 14.244522 5.685887 24.133754 -0.652693 1.332961 0.093493 -0.048564 34439.900000 0 1 0
-18.091567 13.475122 6.917487 23.595240 -0.640183 1.273252 0.066440 -0.041441 -366657.000000 0 1 0
-17.488867 12.275522 6.603987 22.364292 -0.612003 1.271036 0.075340 -0.040100 47809.900000 0 1 0
-16.909967 11.662422 7.732187 21.948708 -0.603764 1.210785 0.062799 -0.029575 -237045.000000 0 1 0
11.446833 -32.567849 -14.496613 37.441242 -1.232807 1.968371 0.043138 -0.017133 211556.000000 0 0 1
12.518033 -32.441649 -13.556713 37.322195 -1.202536 1.942534 0.027630 -0.022622 208913.000000 0 0 1
12.956533 -31.130749 -13.580613 36.351456 -1.176405 1.953675 0.030780 -0.030351 -6234.120000 0 0 1
14.239933 -30.942249 -12.706113 36.354419 -1.139484 1.927841 0.050634 -0.026219 287479.000000 0 0 1
15.367433 -31.435949 -13.388813 37.465147 -1.116109 1.936244 0.062727 -0.029829 -178410.000000 0 0 1
16.604633 -30.933449 -12.924213 37.411594 -1.078155 1.923525 0.072724 -0.023950 -74296.200000 0 0 1
17.811233 -31.522349 -13.640313 38.690524 -1.056483 1.931090 0.095711 -0.024226 -361526.000000 0 0 1
17.995633 -32.840749 -13.104913 39.674883 -1.069516 1.907426 0.092479 -0.029482 165184.000000 0 0 1
18.963033 -33.564149 -13.881713 40.973780 -1.056526 1.916432 0.087652 -0.009024 409851.000000 0 0 1
18.976233 32.480722 -13.539113 39.980024 1.042053 1.916275 0.074959 -0.015793 74978.100000 0 0 1
19.727133 32.230522 -12.349013 39.755055 1.021554 1.886649 0.055381 -0.019746 263906.000000 0 0 1
19.548433 30.892322 -11.916613 38.451039 1.006613 1.885902 0.054784 -0.011861 109211.000000 0 0 1
20.296033 30.706622 -10.579813 38.298277 0.986751 1.850684 0.038640 -0.015026 -57426.100000 0 0 1
21.471133 29.951722 -10.709913 38.377303 0.948846 1.853621 0.047537 -0.017731 -295363.000000 0 0 1
22.110233 29.908722 -9.463513 38.379058 0.934206 1.819946 0.035996 -0.017675 12015.700000 0 0 1
23.339933 28.960922 -9.320613 38.345290 0.892461 1.816326 0.047009 -0.010715 628962.000000 0 0 1
24.479933 29.538022 -9.982713 39.641095 0.878763 1.825364 0.048134 -0.015387 533534.000000 0 0 1
25.653033 28.884422 -9.485813 39.778997 0.844580 1.811579 0.057253 -0.011622 -256917.000000 0 0 1
26.863933 29.207722 -10.322613 41.003881 0.827174 1.825282 0.038250 -0.010415 -817936.000000 0 0 1
27.401733 30.507922 -10.194513 42.255371 0.838985 1.814460 0.052152 -0.026514 409253.000000 0 0 1
28.571133 30.652522 -10.999713 43.322978 0.820528 1.827507 0.058803 -0.014062 286786.000000 0 0 1
29.347533 31.967422 -10.954713 44.757117 0.828101 1.818068 0.053252 -0.022355 -374983.000000 0 0 1
28.684733 33.050322 -11.582813 45.269186 0.855996 1.829539 0.068151 -0.017151 -369691.000000 0 0 1
29.183433 -33.231949 -11.349213 45.660046 -0.850172 1.821989 0.055663 -0.021761 -290586.000000 0 0 1
28.241433 -32.019149 -11.591613 44.239913 -0.848006 1.835908 0.052729 -0.017886 -113913.000000 0 0 1
27.037133 -32.151449 -10.881713 43.395091 -0.871591 1.824261 0.079752 -0.033065 59386.700000 0 0 1
26.030833 -31.140649 -11.115513 42.082050 -0.874538 1.838107 0.085439 -0.033131 649549.000000 0 0 1
26.265633 -29.647849 -10.654713 41.017086 -0.845815 1.833573 0.070187 -0.023454 -390223.000000 0 0 1
27.008733 -28.865649 -11.597313 41.197027 -0.818620 1.856162 0.058843 -0.015114 -21982.800000 0 0 1
27.382733 -27.599949 -11.149813 40.446132 -0.789349 1.850084 0.035843 -0.018579 -447218.000000 0 0 1
28.208933 -26.816049 -12.196713 40.787304 -0.760090 1.874474 0.082252 -0.028150 1487860.000000 0 0 1
29.557833 -27.324549 -12.442413 42.132056 -0.746157 1.870586 0.061467 -0.008450 1344980.000000 0 0 1
29.580133 -28.562849 -13.205713 43.188094 -0.767904 1.881546 0.088634 -0.015540 -3416.100000 0 0 1
31.001133 -29.081149 -13.613113 44.632951 -0.753453 1.880736 0.079446 -0.011709 665704.000000 0 0 1
31.647633 -29.863549 -12.646813 45.313862 -0.756402 1.853646 0.090875 -0.007882 603583.000000 0 0 1
32.862933 -30.460149 -13.133913 46.693605 -0.747472 1.855923 0.092752 -0.011582 662965.000000 0 0 1
33.400733 -31.650249 -12.227313 47.611495 -0.758495 1.830521 0.090581 -0.009603 -22613.800000 0 0 1
34.363633 -32.470449 -12.824013 48.986168 -0.757079 1.835671 0.083685 -0.016047 -382603.000000 0 0 1
34.970033 -33.436949 -12.014113 49.852499 -0.762991 1.814185 0.088198 -0.014516 -325239.000000 0 0 1
34.152233 33.065822 -11.224213 48.843695 0.769237 1.802667 0.079373 -0.020225 -805827.000000 0 0 1
33.397033 33.610122 -10.242113 48.475798 0.788578 1.783684 0.057442 -0.024482 -642553.000000 0 0 1
32.813133 32.558622 -9.512513 47.193786 0.781505 1.773750 0.046431 -0.024912 -554092.000000 0 0 1
32.086633 32.978122 -8.266613 46.748748 0.799099 1.748562 0.043046 -0.021198 -251226.000000 0 0 1
30.950633 33.778922 -8.512913 46.598572 0.829064 1.754514 0.038544 -0.029153 -143407.000000 0 0 1
30.158133 -33.575949 -7.339913 45.724519 -0.838973 1.732019 0.034267 -0.030280 256967.000000 0 0 1
29.228533 -32.402049 -7.638213 44.300590 -0.836845 1.744080 0.023079 -0.031201 -616572.000000 0 0 1
29.937633 -31.192849 -7.745113 43.923143 -0.805929 1.748056 0.015556 -0.029338 479843.000000 0 0 1
29.131833 -30.084049 -8.209813 42.674521 -0.801477 1.764385 0.004204 -0.009715 -239176.000000 0 0 1
28.106833 -29.543449 -7.245513 41.416264 -0.810313 1.746645 0.016773 -0.013583 -514978.000000 0 0 1
27.283033 -28.593149 -7.843013 40.291996 -0.808841 1.766701 0.024169 -0.020321 -363883.000000 0 0 1
26.263933 -28.087349 -7.012613 39.087979 -0.818934 1.751179 0.034562 -0.025696 150442.000000 0 0 1
25.313233 -27.217149 -7.889113 37.996988 -0.821626 1.779942 0.092160 -0.034980 -167125.000000 0 0 1
24.386233 -27.930549 -8.686613 38.082295 -0.853042 1.800923 0.119573 -0.038925 270539.000000 0 0 1
23.632833 -27.101549 -9.555313 37.206300 -0.853662 1.830526 0.154247 -0.048707 -314315.000000 0 0 1
22.475733 -27.888449 -10.160813 37.231254 -0.892459 1.847214 0.144464 -0.045953 -439408.000000 0 0 1
22.903133 -28.774449 -11.228013 38.452447 -0.898527 1.867111 0.152873 -0.044275 319814.000000 0 0 1
21.876533 -29.621549 -11.726313 38.646155 -0.934674 1.879084 0.128482 -0.044524 233978.000000 0 0 1
21.448433 -30.820449 -10.872213 39.091436 -0.962817 1.852635 0.117443 -0.046369 -263488.000000 0 0 1
22.487033 -31.728249 -10.676813 40.327941 -0.954230 1.838741 0.089229 -0.036952 -347525.000000 0 0 1
21.986833 -33.030849 -10.452513 41.033070 -0.983501 1.828369 0.063686 -0.034232 221892.000000 0 0 1
23.089833 33.447822 -10.557913 41.992460 0.966594 1.824948 0.054328 -0.023621 185711.000000 0 0 1
23.909433 33.443622 -9.415313 42.175644 0.950129 1.795934 0.056338 -0.025575 -87987.000000 0 0 1
25.183333 32.897622 -9.671813 42.544068 0.917445 1.800138 0.066045 -0.024962 -725206.000000 0 0 1
26.290533 33.236922 -8.724413 43.266621 0.901565 1.773831 0.055859 -0.027693 -1148050.000000 0 0 1
26.262533 32.883722 -7.370213 42.724464 0.896880 1.744169 0.040053 -0.033161 -8523.120000 0 0 1
26.405133 31.521122 -7.046813 41.718937 0.873489 1.740522 0.040636 -0.028810 -442026.000000 0 0 1
26.386833 31.384722 -5.520513 41.373201 0.871695 1.704628 0.039080 -0.017169 -273023.000000 0 0 1
27.625833 31.789922 -4.926513 42.403494 0.855368 1.687241 0.050698 -0.023729 1168870.000000 0 0 1
28.640333 30.773322 -4.810113 42.313156 0.821283 1.684721 0.054383 -0.014630 238521.000000 0 0 1
28.348633 29.666622 -3.734613 41.203165 0.808112 1.661560 0.056075 -0.002074 -722577.000000 0 0 1
28.068733 30.214922 -2.453013 41.313588 0.822205 1.630207 0.054384 0.002379 199457.000000 0 0 1
27.866333 29.180522 -1.451813 40.375031 0.808431 1.606762 0.050707 0.009475 89982.300000 0 0 1
26.668333 28.187422 -1.557613 38.834996 0.813084 1.610916 0.069610 0.004092 -155375.000000 0 0 1
25.492433 28.722722 -1.035513 38.417850 0.844911 1.597754 0.079945 -0.007473 -622784.000000 0 0 1
24.276733 28.068322 -1.273613 37.132365 0.857706 1.605102 0.083717 -0.008174 -403311.000000 0 0 1
23.101633 28.770422 -0.647513 36.903142 0.894250 1.588343 0.084847 -0.011476 -612020.000000 0 0 1
22.920133 28.486822 0.734687 36.570087 0.893265 1.550705 0.096182 -0.016811 632647.000000 0 0 1
21.805133 29.253322 1.256687 36.507532 0.930252 1.536367 0.079358 -0.018599 828552.000000 0 0 1
20.995633 28.459222 2.331287 35.442613 0.935185 1.504972 0.086997 -0.038649 -182856.000000 0 0 1
20.223333 27.423822 1.765287 34.119869 0.935384 1.519035 0.108228 -0.033231 117575.000000 0 0 1
19.404133 26.844222 2.772287 33.238806 0.944904 1.487294 0.129170 -0.041389 -50791.800000 0 0 1
18.905033 25.486122 2.213487 31.809467 0.932578 1.501154 0.141675 -0.037333 -1360.350000 0 0 1
19.931533 24.625022 1.761687 31.729501 0.890349 1.515246 0.148498 -0.039537 126543.000000 0 0 1
20.697633 23.948822 2.726487 31.770612 0.858091 1.484873 0.134694 -0.028620 256408.000000 0 0 1
21.879433 23.090822 2.086687 31.878675 0.812329 1.505292 0.145493 -0.031293 349261.000000 0 0 1
21.593733 22.080722 1.113087 30.904474 0.796548 1.534772 0.161786 -0.029337 -979213.000000 0 0 1
22.787633 21.566422 0.715987 31.383107 0.757872 1.547980 0.132538 -0.035119 -1027390.000000 0 0 1
22.668933 20.515022 -0.462913 30.577131 0.735562 1.585936 0.141929 -0.033576 -141706.000000 0 0 1
22.161333 21.031422 -1.704813 30.599865 0.759244 1.626538 0.126625 -0.024046 461630.000000 0 0 1
22.376433 20.163322 -2.805713 30.251220 0.733420 1.663677 0.151765 -0.015429 14323.600000 0 0 1
22.186633 20.786922 -4.218313 30.694250 0.752838 1.708663 0.146214 -0.032656 -111725.000000 0 0 1
23.194433 21.759222 -4.428813 32.110120 0.753483 1.709163 0.140615 -0.023269 274248.000000 0 0 1
22.998133 22.685422 -5.493213 32.767634 0.778553 1.739233 0.107878 -0.018521 -158795.000000 0 0 1
24.296633 23.529022 -5.649413 34.290773 0.769349 1.736301 0.090425 -0.008146 264275.000000 0 0 1
24.546433 24.566822 -4.711113 35.046408 0.785813 1.705629 0.078474 -0.007843 -68810.300000 0 0 1
24.641333 24.369622 -3.263313 34.809811 0.779854 1.664681 0.090238 -0.009707 -156429.000000 0 0 1
23.353333 24.202222 -2.417613 33.718994 0.803247 1.642557 0.104701 -0.020148 -881190.000000 0 0 1
22.481733 25.316922 -2.336713 33.938696 0.844644 1.639702 0.112618 -0.017930 822634.000000 0 0 1
21.376133 25.129522 -1.446013 33.023066 0.865932 1.614598 0.119177 -0.016603 898627.000000 0 0 1
20.279333 24.094722 -1.922613 31.551599 0.871170 1.631770 0.145727 -0.033370 -811559.000000 0 0 1
19.602233 24.438422 -3.081613 31.479840 0.894772 1.668845 0.123893 -0.029224 -33634.000000 0 0 1
18.934633 23.322422 -3.620013 30.258225 0.888863 1.690721 0.132678 -0.036555 11870.900000 0 0 1
18.177833 23.614522 -4.942613 30.207758 0.914760 1.735156 0.130654 -0.036910 -49402.300000 0 0 1
17.588233 22.466522 -5.499513 29.057446 0.906592 1.761208 0.134825 -0.049154 37920.500000 0 0 1
16.871233 22.828722 -6.655513 29.156215 0.934350 1.801098 0.131868 -0.049464 -231423.000000 0 0 1
16.209233 21.682722 -7.432513 28.073509 0.928856 1.838743 0.152830 -0.047339 -385809.000000 0 0 1
17.049433 20.615222 -7.793913 27.864235 0.879789 1.854289 0.162401 -0.050942 249817.000000 0 0 1
16.429333 19.956422 -8.875813 27.330602 0.882032 1.901551 0.227747 -0.058899 64238.500000 0 0 1
17.233333 18.693322 -9.187813 27.034126 0.826014 1.917564 0.204797 -0.060408 431800.000000 0 0 1
18.527533 18.888522 -9.756813 28.200020 0.795046 1.924086 0.177824 -0.053397 483178.000000 0 0 1
19.000233 17.636322 -10.160313 27.843862 0.748187 1.944325 0.180603 -0.050780 -315865.000000 0 0 1
20.516233 17.493722 -10.378113 28.890333 0.706046 1.938233 0.150916 -0.044471 -262805.000000 0 0 1
20.916733 17.881422 -11.676213 29.892957 0.707324 1.972080 0.159309 -0.046171 -989607.000000 0 0 1
22.269833 18.086322 -11.766813 31.008360 0.682102 1.960022 0.145076 -0.030488 -1081840.000000 0 0 1
22.802633 18.470422 -13.165613 32.162865 0.680816 1.992529 0.138071 -0.030547 -135731.000000 0 0 1
22.595733 17.503522 -14.114813 31.877396 0.659084 2.029498 0.121436 -0.028382 142720.000000 0 0 1
22.660733 17.963822 -15.466513 32.793608 0.670292 2.061937 0.124918 -0.024343 35177.600000 0 0 1
22.372333 16.816822 -16.497413 32.488327 0.644575 2.103420 0.115680 -0.026805 430562.000000 0 0 1
23.438433 15.864322 -16.371813 32.696683 0.595020 2.095224 0.127764 -0.024791 469372.000000 0 0 1
23.533633 14.951522 -17.444213 32.888911 0.565990 2.129866 0.131738 -0.034692 -85099.700000 0 0 1
24.375833 15.451222 -18.643613 34.358489 0.564956 2.144350 0.141401 -0.032644 94076.300000 0 0 1
25.762933 15.672322 -18.412313 35.332190 0.546521 2.118959 0.158136 -0.025057 456402.000000 0 0 1
26.359833 16.150222 -19.592813 36.599846 0.549693 2.135689 0.172415 -0.030708 -236969.000000 0 0 1
27.876533 16.382322 -19.442213 37.729050 0.531307 2.112167 0.157377 -0.034933 -16170.000000 0 0 1
28.170833 17.323022 -18.406913 37.848347 0.551323 2.078685 0.135051 -0.030483 162654.000000 0 0 1
29.576333 17.267822 -18.187913 38.778052 0.528452 2.058984 0.114955 -0.041297 417009.000000 0 0 1
30.073233 18.348422 -17.241013 39.221377 0.547831 2.025930 0.117267 -0.031865 46468.000000 0 0 1
29.406033 18.284022 -15.981213 38.136851 0.556279 2.003194 0.106600 -0.026945 354385.000000 0 0 1
28.571233 19.425122 -15.802313 37.991628 0.597097 1.999775 0.118685 -0.020166 158186.000000 0 0 1
27.554433 19.375422 -14.641313 36.729032 0.612850 1.980819 0.112454 -0.027143 66586.400000 0 0 1
28.089333 19.573322 -13.367113 36.753303 0.608591 1.943031 0.087379 -0.019834 364330.000000 0 0 1
27.004833 19.582822 -12.453913 35.606851 0.627413 1.928113 0.098565 -0.022983 293277.000000 0 0 1
27.461133 19.838222 -10.971413 35.609560 0.625609 1.883995 0.084168 -0.014517 77420.100000 0 0 1
27.889133 21.209822 -10.882813 36.689179 0.650190 1.871950 0.092299 -0.017898 99141.800000 0 0 1
28.377133 21.566722 -9.606813 36.914442 0.649873 1.834073 0.080940 -0.010220 -61422.800000 0 0 1
27.344533 21.494922 -8.467813 35.797472 0.666194 1.809608 0.097151 -0.014737 -382856.000000 0 0 1
27.473033 20.369022 -7.644513 35.044303 0.637986 1.790703 0.104292 -0.027461 513027.000000 0 0 1
26.516633 20.270922 -6.575313 34.018772 0.652692 1.765305 0.120594 -0.034219 369991.000000 0 0 1
25.123833 19.688422 -6.898713 32.656288 0.664695 1.783652 0.176275 -0.033942 -310432.000000 0 0 1
24.309133 20.540522 -7.635013 32.728281 0.701567 1.806251 0.126051 -0.031264 -179405.000000 0 0 1
23.193733 19.872022 -8.198313 31.623707 0.708419 1.833038 0.075619 -0.034777 302106.000000 0 0 1
21.992133 20.834422 -8.446613 31.449520 0.758372 1.842712 0.137734 -0.040442 -452958.000000 0 0 1
22.144033 21.870422 -9.411613 32.515412 0.779182 1.864449 0.130652 -0.035309 434007.000000 0 0 1
21.226033 21.829422 -10.535413 32.218986 0.799411 1.903917 0.145462 -0.034288 389258.000000 0 0 1
19.710733 21.983322 -10.336213 31.282850 0.839851 1.907536 0.147626 -0.035945 -558118.000000 0 0 1
19.405733 23.296222 -9.920113 31.901490 0.876255 1.887000 0.121227 -0.033334 254078.000000 0 0 1
18.085233 23.723122 -10.214813 31.531009 0.919440 1.900709 0.124351 -0.034010 182820.000000 0 0 1
17.807933 25.170622 -9.861713 32.371840 0.955062 1.880355 0.093029 -0.032677 -51380.500000 0 0 1
18.377933 26.001322 -10.848413 33.637854 0.955516 1.899172 0.133838 -0.027578 68278.600000 0 0 1
18.135933 27.372222 -10.597413 34.502982 0.985637 1.882988 0.113629 -0.033054 -46884.600000 0 0 1
21.234233 29.045622 33.360964 49.066228 0.939524 0.823147 0.086844 -0.017129 29690.700000 0 0 1
19.863633 29.278322 33.177109 48.502625 0.974686 0.817527 0.112798 -0.024293 -592492.000000 0 0 1
19.121133 28.104522 33.279044 47.570754 0.973375 0.796002 0.111473 -0.027666 1335030.000000 0 0 1
17.555833 28.392022 33.326074 47.169284 1.017003 0.786227 0.141627 -0.041227 1412970.000000 0 0 1
16.910333 28.669122 32.107169 46.246602 1.037877 0.803405 0.147399 -0.043132 1350130.000000 0 0 1
15.504833 28.988322 32.360953 46.129751 1.079647 0.793268 0.151199 -0.038492 1838970.000000 0 0 1
14.568033 28.957422 31.134524 44.945728 1.104684 0.805551 0.158275 -0.045770 72454.200000 0 0 1
14.329133 27.680122 30.578144 43.663899 1.093114 0.794969 0.161321 -0.052225 -175254.000000 0 0 1
12.969033 27.589522 30.241324 42.940834 1.131377 0.789422 0.154742 -0.034773 -223201.000000 0 0 1
12.366033 26.196022 29.959304 41.673855 1.129751 0.768579 0.133491 -0.039391 -1312.180000 0 0 1
12.711233 25.584422 28.725324 40.512743 1.109684 0.782655 0.131862 -0.024325 1677880.000000 0 0 1
14.069533 25.071922 28.502284 40.483740 1.059420 0.789722 0.132323 -0.029035 1550940.000000 0 0 1
14.211333 24.252822 27.262044 39.158401 1.040760 0.800707 0.135968 -0.027454 -68423.300000 0 0 1
13.738333 25.069322 26.150314 38.743407 1.069479 0.829884 0.123038 -0.030113 337426.000000 0 0 1
13.540733 24.285422 25.001024 37.392303 1.062163 0.838453 0.133052 -0.039111 726434.000000 0 0 1
12.184033 23.504622 24.785324 36.266102 1.092563 0.818346 0.134527 -0.034245 644580.000000 0 0 1
12.267033 22.850722 23.506594 35.002793 1.078118 0.834480 0.145158 -0.043744 -333355.000000 0 0 1
11.150033 22.050022 23.268344 33.940279 1.102623 0.815414 0.129535 -0.034576 -273179.000000 0 0 1
10.990033 21.543422 21.851654 32.594396 1.099074 0.836033 0.148920 -0.044462 -34453.300000 0 0 1
10.821233 22.669022 21.030154 32.760510 1.125426 0.873776 0.147210 -0.048580 51018.600000 0 0 1
10.865733 22.274822 19.646354 31.626113 1.116954 0.900515 0.156683 -0.042348 -1017190.000000 0 0 1
10.629633 23.480922 18.642854 31.810357 1.145706 0.944606 0.125528 -0.047304 1146660.000000 0 0 1
9.304133 24.063422 18.505554 31.750129 1.201851 0.948565 0.132848 -0.051195 939426.000000 0 0 1
8.879733 24.780122 19.686554 32.870420 1.226710 0.928652 0.134451 -0.052951 -371964.000000 0 0 1
7.535133 25.487022 19.458154 32.939130 1.283339 0.938832 0.124288 -0.047907 21294.100000 0 0 1
7.577233 26.429322 18.412554 33.089963 1.291587 0.980702 0.110540 -0.046528 -744227.000000 0 0 1
6.263533 26.632822 17.999654 32.749452 1.339813 0.988891 0.119411 -0.055635 -593261.000000 0 0 1
6.195633 27.722322 16.932054 33.069736 1.350921 1.033273 0.143326 -0.061724 -28021.900000 0 0 1
6.919233 27.360722 15.782954 32.335530 1.323100 1.060885 0.130071 -0.052353 -713789.000000 0 0 1
8.007033 28.227822 15.674354 33.265716 1.294399 1.080161 0.131492 -0.050362 -114237.000000 0 0 1
8.927533 28.006422 14.432754 32.746983 1.262212 1.114379 0.104149 -0.040317 -102751.000000 0 0 1
8.229433 28.140022 13.221954 32.162159 1.286284 1.147133 0.139897 -0.046516 -98650.100000 0 0 1
7.602033 26.905822 12.785354 30.743771 1.295432 1.141899 0.127242 -0.048160 -108770.000000 0 0 1
6.511833 27.135922 11.760554 30.283211 1.335279 1.171953 0.119327 -0.052576 -558143.000000 0 0 1
6.961233 27.610022 10.472354 30.338791 1.323817 1.218365 0.091366 -0.039433 66189.700000 0 0 1
7.442633 28.930822 10.322254 31.605920 1.319000 1.238100 0.109464 -0.044945 -244294.000000 0 0 1
7.770133 29.433222 8.903654 31.716944 1.312693 1.286250 0.073606 -0.025194 579516.000000 0 0 1
6.649333 29.457922 7.979254 31.235417 1.348794 1.312478 0.068391 -0.021369 564948.000000 0 0 1
6.437433 28.251222 7.296154 29.879858 1.346758 1.324119 0.072761 -0.018227 -577594.000000 0 0 1
4.955433 28.075222 6.999554 29.355888 1.396090 1.330039 0.086793 -0.025713 -594579.000000 0 0 1
4.478133 28.921822 5.983454 29.871846 1.417180 1.369128 0.066491 -0.021195 246037.000000 0 0 1
3.072333 29.114022 6.138554 29.912328 1.465658 1.364110 0.102503 -0.016033 658188.000000 0 0 1
2.451233 30.051822 5.042454 30.570360 1.489410 1.405093 0.130429 -0.027348 -138606.000000 0 0 1
2.354633 29.391022 3.823054 29.732006 1.490853 1.441856 0.100601 -0.026031 330150.000000 0 0 1
1.591233 30.137622 2.857554 30.314582 1.518046 1.476393 0.108844 -0.027046 563524.000000 0 0 1
0.408433 29.375122 2.239454 29.463193 1.556893 1.494714 0.144462 -0.038554 257535.000000 0 0 1
0.997233 28.395022 1.367654 28.445425 1.535691 1.522698 0.136759 -0.042236 869749.000000 0 0 1
-0.036167 27.618222 0.734354 27.628007 -1.569487 1.544213 0.139798 -0.044515 676398.000000 0 0 1
-0.452167 28.058122 -0.697546 28.070433 -1.554682 1.595649 0.131514 -0.043546 -403534.000000 0 0 1
-1.405567 29.067422 -0.752546 29.111114 -1.522479 1.596650 0.147545 -0.049816 -400786.000000 0 0 1
-1.383967 29.652122 -2.064746 29.756123 -1.524157 1.640241 0.137748 -0.040487 -340816.000000 0 0 1
-2.632167 30.462422 -2.452246 30.674109 -1.484603 1.650827 0.174999 -0.041672 -287821.000000 0 0 1
-3.813867 29.831922 -2.863046 30.210697 -1.443641 1.665708 0.138030 -0.048243 -47354.200000 0 0 1
-3.671367 29.209322 -4.131946 29.727704 -1.445760 1.710241 0.108339 -0.041945 -251703.000000 0 0 1
-4.952167 28.843022 -4.970446 29.684158 -1.400760 1.739033 0.112967 -0.035112 280272.000000 0 0 1
-5.448967 30.013722 -5.544946 31.004212 -1.391203 1.750609 0.113655 -0.037731 -608869.000000 0 0 1
-6.547267 29.677722 -6.323846 31.042309 -1.353662 1.775949 0.099642 -0.032542 -392414.000000 0 0 1
-7.276667 30.906722 -6.959846 32.505612 -1.339568 1.786579 0.105094 -0.028236 79175.000000 0 0 1
-8.163967 31.551122 -6.069046 33.150520 -1.317596 1.754910 0.091907 -0.032294 -272395.000000 0 0 1
-8.487667 32.767422 -6.646446 34.495213 -1.317339 1.764686 0.085099 -0.038872 -482949.000000 0 0 1
-9.478167 33.631122 -5.880646 35.432612 -1.296094 1.737535 0.087228 -0.046174 -379695.000000 0 0 1
-10.755367 33.085022 -6.025446 35.307260 -1.256490 1.742293 0.096793 -0.042739 -930196.000000 0 0 1
-11.790267 -33.655649 -5.562846 36.092359 1.233836 1.725541 0.090179 -0.046198 -17148.100000 0 0 1
-13.207067 33.333322 -5.750246 36.312564 -1.193560 1.729820 0.116131 -0.045658 -101930.000000 0 0 1
-13.586667 33.283922 -7.076946 36.640144 -1.183237 1.765165 0.105906 -0.046327 -647259.000000 0 0 1
-14.974367 33.134122 -7.083846 37.044333 -1.146337 1.763208 0.123297 -0.054614 -1010170.000000 0 0 1
-15.443667 33.044322 -8.586946 37.472253 -1.133598 1.802006 0.169501 -0.053398 56058.900000 0 0 1
-16.818167 32.812822 -8.802646 37.908028 -1.097160 1.805146 0.211786 -0.050375 114403.000000 0 0 1
-17.641067 -33.608949 -8.721246 38.946487 1.087434 1.796640 0.197907 -0.050484 -347039.000000 0 0 1
-19.144267 33.661422 -8.995946 39.755771 -1.053687 1.799054 0.186049 -0.046890 330055.000000 0 0 1
-19.969167 33.053222 -8.042046 39.445629 -1.027330 1.776113 0.181979 -0.045518 154133.000000 0 0 1
-20.328667 -33.618949 -7.007046 39.907232 1.026944 1.747295 0.162471 -0.038280 -219475.000000 0 0 1
-21.215967 33.288022 -5.835846 39.903218 -1.003369 1.717573 0.185810 -0.042730 -140953.000000 0 0 1
-21.192867 -33.395249 -4.759446 39.837578 1.005318 1.690554 0.169414 -0.046786 -98754.200000 0 0 1
-22.061267 -33.745049 -3.737746 40.489488 0.991780 1.663242 0.181336 -0.040328 -957255.000000 0 0 1
-23.475767 -33.219549 -3.860746 40.860194 0.955598 1.665424 0.218562 -0.055325 -859661.000000 0 0 1
-24.162367 -33.715049 -4.979446 41.777020 0.948974 1.690271 0.236457 -0.063517 -421370.000000 0 0 1
-25.473667 -33.283449 -5.206246 42.235065 0.917540 1.694379 0.241745 -0.077836 -185865.000000 0 0 1
-25.838567 -33.360549 -6.652146 42.717782 0.911783 1.727156 0.275116 -0.059723 -267792.000000 0 0 1
-25.157567 -32.369049 -7.378346 41.654514 0.910107 1.748868 0.281573 -0.039560 29783.000000 0 0 1
-25.338717 -32.519149 -8.794946 42.153253 0.908872 1.780983 0.238067 -0.039589 227466.000000 0 0 1
-26.559527 -31.785949 -9.425046 42.480426 0.874737 1.794526 0.205142 -0.023474 -912328.000000 0 0 1
-27.821427 -32.319649 -9.114746 43.608143 0.860054 1.781364 0.226860 -0.018104 -298758.000000 0 0 1
-28.848007 -31.610149 -9.759146 43.893621 0.831053 1.795006 0.139067 -0.013331 -72434.600000 0 0 1
-29.075427 -30.081949 -9.450246 42.890690 0.802411 1.792952 0.102714 0.002948 -930683.000000 0 0 1
-28.130977 -29.179149 -10.001746 41.746971 0.803686 1.812730 0.113999 0.006996 16964.300000 0 0 1
-28.393067 -28.939249 -11.400246 42.114274 0.794924 1.844914 0.103932 -0.001257 -392255.000000 0 0 1
-27.366427 -28.093249 -12.100246 41.043489 0.798503 1.870058 0.137499 -0.009449 -315091.000000 0 0 1
-26.124917 -28.736449 -12.355846 40.754899 0.832965 1.878819 0.135891 -0.019145 -97117.200000 0 0 1
-25.324217 -27.886849 -13.161146 39.902483 0.833521 1.906923 0.117378 -0.025460 -123763.000000 0 0 1
-23.896067 -28.484449 -13.251846 39.471475 0.872772 1.913179 0.125615 -0.032895 -161223.000000 0 0 1
-23.731467 -29.615749 -14.062246 40.472484 0.895256 1.925649 0.134533 -0.043532 -140711.000000 0 0 1
-24.255167 -30.790849 -13.498746 41.456070 0.903576 1.902459 0.135163 -0.043291 -201402.000000 0 0 1
-24.123367 -32.072949 -14.362746 42.625103 0.925927 1.914477 0.134208 -0.036155 270641.000000 0 0 1
-24.862967 -33.169149 -13.801346 43.690237 0.927563 1.892192 0.143346 -0.038634 291791.000000 0 0 1
-24.756567 33.158022 -14.539746 43.860532 -0.929460 1.908689 0.148184 -0.030389 -42495.800000 0 0 1
-25.307737 32.043022 -13.586046 43.032749 -0.902303 1.892005 0.135463 -0.035239 34653.800000 0 0 1
-24.472167 31.654022 -12.506246 41.919808 -0.912666 1.873747 0.145297 -0.037940 161468.000000 0 0 1
-24.406167 32.529022 -11.344046 42.219494 -0.927110 1.842831 0.200461 -0.038364 251420.000000 0 0 1
-23.520567 32.018822 -10.153846 41.006373 -0.937234 1.821015 0.197000 -0.040730 256922.000000 0 0 1
-24.057467 30.831422 -9.611546 40.270586 -0.908189 1.811797 0.184340 -0.041584 50979.500000 0 0 1
-23.185167 30.192422 -8.707946 39.050770 -0.915929 1.795677 0.173864 -0.039031 -81794.400000 0 0 1
-23.804267 29.133322 -7.733046 38.408249 -0.885727 1.773520 0.173778 -0.038229 352394.000000 0 0 1
-24.435067 27.929622 -8.269546 38.020017 -0.852034 1.790054 0.172096 -0.013318 389580.000000 0 0 1
-25.037337 27.064822 -7.327746 37.590806 -0.824292 1.766987 0.161199 -0.017561 384016.000000 0 0 1
-24.044767 26.313922 -6.355246 36.207216 -0.830428 1.747235 0.156461 -0.020356 302650.000000 0 0 1
-23.479467 27.174222 -5.400746 36.316550 -0.858211 1.720063 0.161611 -0.018331 644475.000000 0 0 1
-22.457667 26.493422 -4.655446 35.041710 -0.867657 1.704045 0.126271 -0.017877 -256912.000000 0 0 1
-21.024367 26.961922 -4.720246 34.514489 -0.908507 1.707988 0.104009 -0.034054 -967692.000000 0 0 1
-20.433167 26.841322 -5.947446 34.254095 -0.920129 1.745308 0.124078 -0.035787 -644673.000000 0 0 1
-19.158967 27.416922 -5.913746 33.966543 -0.960876 1.745793 0.104476 -0.042365 -64360.100000 0 0 1
-18.234967 27.159822 -7.157846 33.487382 -0.979527 1.786206 0.116173 -0.038096 -129450.000000 0 0 1
-18.507467 27.827822 -8.383846 34.455811 -0.983899 1.816585 0.123327 -0.040093 117441.000000 0 0 1
-18.624467 29.225422 -8.326246 35.641583 -1.003423 1.806586 0.152113 -0.040652 -163487.000000 0 0 1
-18.490167 29.922222 -9.687846 36.483969 -1.017289 1.839557 0.165144 -0.033720 -864624.000000 0 0 1
-17.236267 29.986422 -10.255946 36.075738 -1.049111 1.859061 0.146534 -0.038178 -733719.000000 0 0 1
-17.323267 30.825622 -11.379846 37.145867 -1.058805 1.882159 0.158560 -0.046208 -113767.000000 0 0 1
-15.907667 31.259822 -11.804246 37.007710 -1.100066 1.895436 0.156961 -0.046891 62752.000000 0 0 1
-15.881267 31.806722 -13.121346 37.895276 -1.107705 1.924370 0.159721 -0.044937 -138580.000000 0 0 1
-15.713267 30.818722 -14.088246 37.352096 -1.099291 1.957540 0.150926 -0.048539 -13015.200000 0 0 1
-15.134967 31.162622 -15.517146 37.959954 -1.118673 1.991910 0.176906 -0.049182 762486.000000 0 0 1
-13.725467 31.363022 -15.640546 37.638468 -1.158275 1.999340 0.180726 -0.061665 277885.000000 0 0 1
-13.345767 31.952122 -16.811946 38.492715 -1.175142 2.022786 0.190616 -0.066901 -661579.000000 0 0 1
-11.839167 32.084022 -16.969746 38.177515 -1.217292 2.031408 0.193078 -0.064515 -815986.000000 0 0 1
-11.209167 30.817022 -17.032446 36.951840 -1.221940 2.049846 0.188867 -0.075675 -85545.900000 0 0 1
-9.954467 30.835922 -17.694646 36.919453 -1.258537 2.070627 0.176292 -0.064720 343375.000000 0 0 1
-10.017867 31.001122 -19.226546 37.829715 -1.258243 2.103935 0.164968 -0.065742 -440399.000000 0 0 1
-10.167267 29.789222 -19.932846 37.257072 -1.241887 2.135314 0.145625 -0.064139 30842.900000 0 0 1
-10.518567 29.890322 -21.314546 38.188761 -1.232425 2.162935 0.140781 -0.069502 -533449.000000 0 0 1
-11.964667 29.503222 -21.580046 38.461562 -1.185525 2.166487 0.126394 -0.050040 -396894.000000 0 0 1
-12.851267 30.595122 -21.305446 39.435246 -1.173132 2.141547 0.123177 -0.044054 -86079.400000 0 0 1
-14.116467 30.097622 -20.915946 39.276180 -1.132236 2.132389 0.116626 -0.045075 309773.000000 0 0 1
-15.227167 31.179822 -21.085746 40.603653 -1.116499 2.116836 0.156351 -0.053633 223224.000000 0 0 1
-15.625167 31.405022 -22.486546 41.666126 -1.109121 2.140858 0.117089 -0.043325 283695.000000 0 0 1
-16.534167 32.514322 -22.529946 42.873748 -1.100356 2.124093 0.104555 -0.038444 272920.000000 0 0 1
-16.869467 32.857922 -24.000746 44.048357 -1.096481 2.147034 0.088996 -0.025705 -409122.000000 0 0 1
-15.839267 33.287122 -24.842646 44.453031 -1.126665 2.163797 0.110632 -0.027770 -513150.000000 0 0 1
-16.089667 33.109222 -26.234846 45.203596 -1.118446 2.189980 0.123860 -0.022999 -65483.300000 0 0 1
-16.674967 -33.171949 -26.866546 45.828420 1.105005 2.197209 0.100634 -0.014963 -7568.120000 0 0 1
-18.015967 -32.981349 -26.481346 45.973973 1.070839 2.184632 0.101596 -0.012990 -287843.000000 0 0 1
-18.621167 -31.920649 -27.176946 45.872237 1.042703 2.204891 0.102796 -0.007250 404714.000000 0 0 1
-20.096267 -31.595949 -26.809246 46.053226 1.004298 2.192150 0.105184 -0.016145 833141.000000 0 0 1
-21.052067 -32.527749 -27.302046 47.398795 0.996390 2.184632 0.095011 -0.015179 926969.000000 0 0 1
-22.408067 -32.045449 -27.183846 47.623459 0.960568 2.178286 0.083091 -0.015040 1878980.000000 0 0 1
-23.623767 -33.025249 -27.260146 48.906697 0.949859 2.162036 0.056257 -0.008439 519962.000000 0 0 1
-23.690767 33.755822 -26.066946 48.787228 -0.958845 2.134474 0.098371 -0.015134 -124508.000000 0 0 1
-24.719367 32.778122 -26.044046 48.618358 -0.924649 2.136113 0.076114 -0.011083 124075.000000 0 0 1
-24.677967 31.572522 -27.060446 48.353841 -0.907359 2.164740 0.091188 -0.008895 -135799.000000 0 0 1
-23.748967 30.512022 -26.815446 47.053853 -0.909398 2.177166 0.091934 -0.039679 -76234.900000 0 0 1
-24.051767 29.632422 -25.759946 46.045008 -0.888980 2.164520 0.071376 -0.022939 -115509.000000 0 0 1
33.006152 9.664422 -26.652513 43.510499 0.284844 2.230084 0.086493 -0.023793 -95663.400000 0 0 1
32.519482 8.441022 -26.107773 42.548600 0.253964 2.231407 0.068635 -0.012877 -173952.000000 0 0 1
31.127452 8.482122 -25.943483 41.399625 0.266037 2.248056 0.080801 -0.025212 -313804.000000 0 0 1
30.560472 7.144622 -25.473803 40.421562 0.229662 2.252611 0.073676 -0.017328 -294512.000000 0 0 1
30.878372 6.893022 -24.122613 39.785525 0.219630 2.222216 0.061797 -0.012267 240332.000000 0 0 1
30.283672 5.687222 -23.635213 38.833858 0.185636 2.225121 0.070474 -0.015063 -2134.780000 0 0 1
30.375472 5.403522 -22.117313 37.961070 0.176049 2.192759 0.083862 -0.010937 607184.000000 0 0 1
31.721242 5.006522 -21.825813 38.828708 0.156537 2.167725 0.097981 -0.013093 804610.000000 0 0 1
31.787422 4.602622 -20.494913 38.100732 0.143794 2.138757 0.082347 -0.013174 -198563.000000 0 0 1
33.216332 4.571022 -19.935513 39.008250 0.136755 2.107213 0.078692 -0.012571 -205083.000000 0 0 1
33.969922 3.374022 -20.102313 39.616191 0.098999 2.102992 0.089526 -0.016548 315927.000000 0 0 1
34.529652 3.052722 -18.831913 39.449422 0.088179 2.068454 0.109316 -0.023394 -31182.300000 0 0 1
35.185842 1.672722 -18.739813 39.900151 0.047504 2.059711 0.128944 -0.032127 307656.000000 0 0 1
34.131092 0.749222 -18.499613 38.829479 0.021948 2.067389 0.123714 -0.022971 369537.000000 0 0 1
34.462192 -0.610178 -18.769913 39.246969 -0.017704 2.069459 0.114636 -0.018621 -150328.000000 0 0 1
33.416842 -1.719478 -18.432113 38.201894 -0.051410 2.074294 0.106977 -0.017057 230642.000000 0 0 1
33.231782 -1.846978 -17.043013 37.392873 -0.055522 2.044047 0.116954 -0.012720 500295.000000 0 0 1
31.863082 -1.599878 -16.716313 36.017367 -0.050169 2.053435 0.111998 -0.019391 528352.000000 0 0 1
31.415732 -1.918678 -15.249913 34.974124 -0.060998 2.021983 0.118365 -0.016748 -185933.000000 0 0 1
31.353482 -3.311278 -14.961913 34.897911 -0.105221 2.013887 0.109700 -0.024168 207036.000000 0 0 1
30.576572 -3.573678 -13.820313 33.744614 -0.116348 1.992764 0.106017 -0.021543 -177906.000000 0 0 1
30.461972 -5.081278 -13.439713 33.680513 -0.165285 1.981261 0.113059 -0.026070 -183798.000000 0 0 1
29.537772 -5.811378 -14.188213 33.279986 -0.194263 2.011227 0.094679 -0.022439 112007.000000 0 0 1
29.243572 -7.081378 -13.690413 33.056918 -0.237578 1.997801 0.112699 -0.028998 248966.000000 0 0 1
28.428572 -7.963778 -14.707813 32.983711 -0.273132 2.032989 0.084113 -0.022736 982717.000000 0 0 1
27.033672 -7.713878 -14.901213 31.817754 -0.277957 2.058196 0.074610 -0.014740 673623.000000 0 0 1
26.499572 -8.521878 -15.937913 32.075953 -0.311141 2.090797 0.072564 -0.016837 882246.000000 0 0 1
25.064272 -8.088978 -16.403813 31.027961 -0.312177 2.127839 0.066592 -0.019283 609852.000000 0 0 1
25.120972 -6.895878 -17.225713 31.230458 -0.267908 2.155039 0.050514 -0.010621 263561.000000 0 0 1
23.847372 -6.666778 -17.813313 30.503396 -0.272601 2.194417 0.081263 -0.009341 319473.000000 0 0 1
23.761572 -7.270878 -19.274313 31.448006 -0.296946 2.230515 0.036610 -0.002310 78036.200000 0 0 1
24.562272 -6.567678 -20.252013 32.505132 -0.261277 2.243420 0.034485 -0.003846 634871.000000 0 0 1
24.095172 -6.812378 -21.591913 33.063522 -0.275537 2.282392 0.050828 -0.018246 -42820.000000 0 0 1
24.925372 -5.978678 -22.582813 34.161414 -0.235416 2.293030 0.053095 -0.023529 -17902.400000 0 0 1
24.620272 -6.257878 -23.921813 34.893723 -0.248905 2.326172 0.078895 -0.036359 71724.300000 0 0 1
24.942972 -5.132078 -24.762113 35.519745 -0.202921 2.342192 0.076201 -0.035758 -161645.000000 0 0 1
24.962072 -5.452678 -26.294583 36.663903 -0.215060 2.370542 0.102049 -0.040150 -134979.000000 0 0 1
23.691072 -5.869578 -26.748533 36.210535 -0.242864 2.401928 0.124576 -0.040156 145857.000000 0 0 1
23.712672 -5.901578 -28.181543 37.300386 -0.243923 2.427258 0.135312 -0.045942 789115.000000 0 0 1
22.328472 -6.425378 -28.698753 36.925121 -0.280196 2.461024 0.124196 -0.045995 897845.000000 0 0 1
22.382372 -7.800878 -28.339463 36.945222 -0.335363 2.445053 0.097993 -0.035979 844302.000000 0 0 1
21.083172 -8.403578 -28.399363 36.354423 -0.379292 2.467351 0.116446 -0.040077 429724.000000 0 0 1
21.031572 -9.888578 -27.968223 36.363890 -0.439507 2.448261 0.134911 -0.033900 -889600.000000 0 0 1
19.753472 -10.420778 -27.819273 35.674980 -0.485437 2.465139 0.141149 -0.033479 -334777.000000 0 0 1
19.755572 -11.645478 -27.133733 35.526599 -0.532647 2.439912 0.136720 -0.037208 -112885.000000 0 0 1
19.989772 -12.900578 -28.000323 36.742808 -0.573106 2.437289 0.116761 -0.017120 -259550.000000 0 0 1
18.888572 -13.159378 -28.828963 36.892499 -0.608497 2.467753 0.102214 -0.016776 104820.000000 0 0 1
19.110472 -14.254978 -29.727613 38.107027 -0.640888 2.465635 0.085227 -0.017442 320955.000000 0 0 1
17.884872 -14.584778 -30.658183 38.373279 -0.684110 2.496337 0.073493 -0.020405 709000.000000 0 0 1
16.797872 -15.214478 -29.975483 37.578962 -0.735976 2.494213 0.096172 -0.024523 422009.000000 0 0 1
15.920372 -15.740478 -30.952353 38.200380 -0.779716 2.515397 0.091065 -0.030888 171637.000000 0 0 1
14.553872 -16.228178 -30.374913 37.387221 -0.839737 2.519123 0.102225 -0.037184 418749.000000 0 0 1
14.582072 -17.552278 -29.809513 37.540995 -0.877567 2.488243 0.087707 -0.034789 7331.270000 0 0 1
13.490472 -17.762478 -28.938023 36.536387 -0.921248 2.484928 0.084786 -0.026442 44821.100000 0 0 1
13.629272 -19.085878 -28.133833 36.627044 -0.950668 2.446691 0.082130 -0.023109 84434.500000 0 0 1
14.619572 -18.975478 -27.126703 36.189206 -0.914338 2.418224 0.087409 -0.015509 20589.800000 0 0 1
14.670572 -20.155978 -26.264563 36.212103 -0.941621 2.382263 0.076613 -0.009210 -61508.600000 0 0 1
15.700872 -20.076278 -25.109013 35.777602 -0.907090 2.348729 0.055479 0.001487 383174.000000 0 0 1
17.025972 -20.375278 -25.549283 36.848358 -0.874711 2.336942 0.071334 -0.005424 506022.000000 0 0 1
17.886172 -20.536378 -24.443213 36.594106 -0.854264 2.302254 0.075184 0.005551 313946.000000 0 0 1
19.357572 -20.927478 -24.813113 37.793723 -0.824348 2.287020 0.055438 0.009870 480532.000000 0 0 1
19.703272 -22.317478 -24.907713 38.816013 -0.847530 2.267492 0.084675 -0.008958 272952.000000 0 0 1
19.443572 -23.142778 -23.724213 38.424978 -0.872044 2.236250 0.078658 -0.020691 -633392.000000 0 0 1
20.159472 -24.497978 -23.612613 39.548839 -0.882245 2.210614 0.075779 -0.020070 858000.000000 0 0 1
21.566972 -24.328878 -23.306813 40.002951 -0.845503 2.192754 0.089103 -0.020694 1364700.000000 0 0 1
22.219872 -25.478008 -22.767113 40.757736 -0.853600 2.163489 0.111546 -0.037858 -27274.100000 0 0 1
21.998072 -25.670418 -21.265013 39.938531 -0.862286 2.132281 0.127895 -0.034879 14078.700000 0 0 1
20.650272 -25.940798 -20.881413 39.184080 -0.898466 2.132827 0.098810 -0.026943 564804.000000 0 0 1
20.709172 -26.322678 -19.481113 38.746186 -0.904192 2.097617 0.102081 -0.037474 317112.000000 0 0 1
19.330572 -26.846868 -18.993513 38.146807 -0.946753 2.091979 0.089377 -0.030927 -236470.000000 0 0 1
19.116272 -28.156128 -19.438813 39.192688 -0.974346 2.089760 0.088292 -0.028610 -279523.000000 0 0 1
17.959572 -28.755418 -18.951813 38.840591 -1.012511 2.080523 0.083632 -0.020510 250110.000000 0 0 1
16.557172 -28.305588 -19.456613 38.130120 -1.041521 2.106294 0.081240 -0.019883 220418.000000 0 0 1
15.914872 -27.250378 -18.719813 36.691929 -1.042207 2.106201 0.079843 -0.023990 -82224.000000 0 0 1
14.667072 -26.936408 -19.286213 36.230527 -1.072180 2.132134 0.060823 -0.010579 -31373.900000 0 0 1
13.770572 -25.961258 -18.529513 34.741307 -1.083104 2.133360 0.048272 -0.016292 -339636.000000 0 0 1
13.246272 -26.610598 -17.351813 34.419080 -1.108925 2.099175 0.036339 -0.015259 247648.000000 0 0 1
12.213272 -25.916648 -16.644513 33.134219 -1.130410 2.097095 0.052378 -0.027422 868254.000000 0 0 1
10.784572 -25.888008 -17.284613 32.943190 -1.176074 2.123135 0.058065 -0.022587 46126.100000 0 0 1
10.074972 -27.114068 -17.129613 33.616980 -1.215030 2.105461 0.056096 -0.005098 20726.100000 0 0 1
8.698872 -26.768228 -17.013813 32.888877 -1.256592 2.114503 0.055443 -0.000951 634920.000000 0 0 1
7.794372 -27.417328 -18.116713 33.773916 -1.293817 2.136976 0.071611 -0.003159 159998.000000 0 0 1
7.823372 -26.770728 -19.362013 33.952387 -1.286478 2.177630 0.085012 -0.010036 -222801.000000 0 0 1
7.249772 -27.624768 -20.312613 35.046957 -1.314147 2.189013 0.094793 -0.007879 -161082.000000 0 0 1
7.274472 -27.051408 -21.758313 35.469998 -1.308098 2.231191 0.094117 -0.013597 -408771.000000 0 0 1
6.390372 -25.983178 -21.759713 34.488367 -1.329640 2.253546 0.109149 -0.018887 -250782.000000 0 0 1
6.373572 -25.155448 -22.909213 34.615762 -1.322651 2.294033 0.097031 -0.020585 408894.000000 0 0 1
5.000672 -24.405378 -23.073013 33.955752 -1.368693 2.317880 0.071727 -0.017756 775919.000000 0 0 1
3.930972 -25.316408 -23.249213 34.596227 -1.416753 2.307724 0.061177 -0.016587 164231.000000 0 0 1
2.760472 -24.732378 -23.808713 34.440754 -1.459643 2.334076 0.058083 -0.020866 463549.000000 0 0 1
1.760072 -25.752258 -24.328413 35.470386 -1.502556 2.326608 0.030508 -0.016909 -175192.000000 0 0 1
2.216972 -26.305158 -25.570563 36.752278 -1.486716 2.340266 0.033825 -0.013215 116261.000000 0 0 1
1.250672 -27.127128 -26.207173 37.739385 -1.524725 2.338417 0.048397 -0.023073 -23678.500000 0 0 1
1.796772 -28.144068 -27.268183 39.228443 -1.507041 2.339373 0.051982 -0.024562 -391668.000000 0 0 1
2.306672 -27.532258 -28.490633 39.687052 -1.487211 2.371552 0.050828 -0.020128 260663.000000 0 0 1
2.868972 -28.398678 -29.451923 41.013798 -1.470113 2.371862 0.077191 -0.030862 979166.000000 0 0 1
4.310672 -29.015418 -29.237753 41.416453 -1.423310 2.354553 0.091570 -0.026633 702215.000000 0 0 1
4.373472 -29.735218 -28.018283 41.089349 -1.424763 2.321135 0.076191 -0.040644 -622657.000000 0 0 1
5.362672 -30.693348 -28.205063 42.028150 -1.397825 2.306487 0.103683 -0.046370 -417293.000000 0 0 1
5.580372 -31.820958 -27.216523 42.242787 -1.397194 2.270888 0.130979 -0.064613 318058.000000 0 0 1
4.538172 -32.825108 -27.208053 42.876110 -1.433414 2.258253 0.096743 -0.065302 400822.000000 0 0 1
4.865472 33.592063 -26.500743 43.062616 1.426957 2.233690 0.101923 -0.064722 158311.000000 0 0 1
3.692872 32.576854 -26.187783 41.960561 1.457919 2.244781 0.144215 -0.061408 399916.000000 0 0 1
3.197472 31.850350 -27.336473 42.094553 1.470741 2.277600 0.120104 -0.056583 -624923.000000 0 0 1
1.820472 31.988905 -27.247753 42.060007 1.513948 2.275529 0.047104 -0.046030 -1009320.000000 0 0 1
1.136272 32.301432 -28.584543 43.147998 1.535634 2.294917 0.074194 -0.036525 -143247.000000 0 0 1
1.052572 31.228453 -29.508903 42.977896 1.537104 2.327607 0.106641 -0.037222 473828.000000 0 0 1
0.126872 31.638546 -30.526013 43.964203 1.566786 2.338296 0.102554 -0.029771 511129.000000 0 0 1
-0.161328 30.516863 -31.531723 43.881141 -1.565510 2.372542 0.095764 -0.032087 416973.000000 0 0 1
0.975772 30.366173 -32.377553 44.400028 1.538674 2.387983 0.120329 -0.031120 405894.000000 0 0 1
0.659372 29.455073 -33.420103 44.552658 1.548414 2.419049 0.149735 -0.038815 238042.000000 0 0 1
1.842672 29.087393 33.010730 44.036123 1.507531 0.723296 0.136413 -0.033984 351201.000000 0 0 1
2.568672 30.136543 32.391651 44.317360 1.485767 0.751154 0.138444 -0.033938 950383.000000 0 0 1
3.727972 29.749723 31.616777 43.572519 1.446135 0.758872 0.118041 -0.034084 620791.000000 0 0 1
3.408472 28.932283 30.276324 42.016074 1.453528 0.766145 0.118034 -0.025517 -537316.000000 0 0 1
3.104572 27.584013 30.595774 41.311228 1.458718 0.736809 0.122320 -0.036865 123629.000000 0 0 1
4.244372 26.782463 30.818904 41.050211 1.413628 0.721583 0.117930 -0.031119 -697227.000000 0 0 1
3.842472 25.409763 31.351497 40.538093 1.420713 0.686635 0.101972 -0.032502 -148503.000000 0 0 1
3.141972 24.645493 30.412234 39.270552 1.443994 0.684985 0.111086 -0.024833 42950.800000 0 0 1
3.025472 23.266493 30.667254 38.612998 1.441486 0.653072 0.088308 -0.015809 -239392.000000 0 0 1
2.107672 22.579893 29.664934 37.340356 1.477723 0.652700 0.088505 -0.008745 606607.000000 0 0 1
0.707872 22.599263 29.939604 37.518098 1.539484 0.646820 0.087422 -0.021460 615576.000000 0 0 1
-0.143428 22.051093 28.951684 36.393286 -1.564292 0.650927 0.103541 -0.017750 -104356.000000 0 0 1
-1.518328 21.612393 29.416124 36.533672 -1.500659 0.634820 0.097707 -0.018247 -757638.000000 0 0 1
-2.425928 22.616373 29.836684 37.518171 -1.463941 0.651361 0.109793 -0.019331 298879.000000 0 0 1
-3.603728 21.927393 30.228994 37.517856 -1.407904 0.633901 0.077631 -0.020381 330060.000000 0 0 1
-4.829828 22.824363 30.591234 38.472099 -1.362264 0.651535 0.063200 -0.028622 240526.000000 0 0 1
-4.747228 23.445493 31.866160 39.845696 -1.371018 0.643936 0.078481 -0.027047 -196027.000000 0 0 1
-5.698728 24.461313 31.951939 40.641823 -1.341910 0.666187 0.070581 -0.029173 -116389.000000 0 0 1
-5.905728 25.008723 33.374864 42.121199 -1.338898 0.656140 0.094583 -0.023408 20049.700000 0 0 1
-7.096828 25.761383 33.423384 42.791780 -1.301981 0.674419 0.071658 -0.015560 -75350.600000 0 0 1
-7.269828 26.253123 -32.637743 42.512341 -1.300653 2.446078 0.073934 -0.014702 417242.000000 0 0 1
-8.664028 26.801163 -32.199083 42.780237 -1.258129 2.422893 0.110857 -0.007162 320788.000000 0 0 1
-8.991128 28.086053 -32.740103 44.063376 -1.260977 2.408372 0.089772 -0.014357 169844.000000 0 0 1
-10.158128 28.662843 -32.156933 44.258496 -1.230207 2.384114 0.076838 -0.017985 190284.000000 0 0 1
-10.079928 29.095683 -30.642943 43.441382 -1.237296 2.353764 0.072114 -0.007896 -731270.000000 0 0 1
-9.270728 30.193703 -30.423463 43.854227 -1.272892 2.337466 0.090718 -0.010160 -220256.000000 0 0 1
-9.291028 30.616853 -29.010353 43.189298 -1.276167 2.307301 0.101095 -0.011269 602324.000000 0 0 1
-8.246228 31.762375 -28.731693 43.616040 -1.316782 2.289941 0.093783 -0.019975 936567.000000 0 0 1
-6.841328 31.549853 -28.714263 43.205392 -1.357260 2.297753 0.072524 -0.025211 104447.000000 0 0 1
-6.200428 32.743435 -28.438863 43.810350 -1.383648 2.277244 0.093849 -0.020981 484341.000000 0 0 1
-4.626328 32.639305 -28.304843 43.449870 -1.429993 2.280273 0.115166 -0.028302 1071240.000000 0 0 1
-3.915628 33.778063 -27.893813 43.981297 -1.455389 2.257795 0.124448 -0.030306 -93987.900000 0 0 1
-4.036828 -32.670628 -28.739673 43.699367 1.447858 2.288515 0.127951 -0.037656 -620122.000000 0 0 1
-3.227628 -32.669558 -30.064153 44.514839 1.472320 2.312268 0.108502 -0.033271 -245490.000000 0 0 1
-3.708928 -33.601328 -31.026833 45.885398 1.460861 2.313363 0.099572 -0.018719 562559.000000 0 0 1
-4.650428 -33.075248 -31.986413 46.246396 1.431111 2.334570 0.115902 -0.027099 464146.000000 0 0 1
-4.015928 -32.141698 -33.069893 46.290757 1.446496 2.366556 0.090372 -0.032732 -147874.000000 0 0 1
-3.890328 -30.812448 -32.728153 45.118439 1.445203 2.382387 0.095700 -0.037733 -90847.900000 0 0 1
-3.030928 -30.155768 -33.598823 45.248621 1.470624 2.407648 0.106425 -0.062393 -168599.000000 0 0 1
34.991072 17.912322 13.223854 41.474048 0.473131 1.246284 0.113284 -0.061759 -391227.000000 0 0 1
36.371662 17.718722 13.204854 42.558419 0.453321 1.255313 0.106944 -0.060046 -554352.000000 0 0 1
36.713242 16.398522 13.689354 42.475547 0.420077 1.242651 0.114324 -0.041402 1115240.000000 0 0 1
-37.720357 16.112422 13.554554 43.199090 -0.403694 1.251636 0.074847 -0.051861 1156600.000000 0 0 1
-37.191797 15.615022 12.355354 42.186650 -0.397502 1.273566 0.082087 -0.040498 -48400.000000 0 0 1
-37.567787 14.255122 12.075454 41.956689 -0.362667 1.278860 0.126848 -0.052260 -159363.000000 0 0 1
-36.366387 13.255622 12.101454 40.554541 -0.349535 1.267781 0.145339 -0.034714 584326.000000 0 0 1
-35.892291 12.766422 13.329054 40.359655 -0.341732 1.234221 0.109701 -0.023566 22001.700000 0 0 1
-36.758457 11.777722 13.847054 41.007802 -0.310073 1.226357 0.111310 -0.019801 -270651.000000 0 0 1
-36.120877 11.142322 15.069354 40.693421 -0.299212 1.191449 0.146730 -0.034549 -38563.100000 0 0 1
-35.989847 12.003422 16.140954 41.229621 -0.321921 1.168547 0.139035 -0.027719 40916.000000 0 0 1
-35.066814 11.653522 17.136254 40.732508 -0.320841 1.136577 0.123647 -0.023563 -216268.000000 0 0 1
-35.236581 12.613222 18.350954 41.682940 -0.343747 1.114918 0.122739 -0.030910 909398.000000 0 0 1
-36.517897 12.522122 19.010354 43.032010 -0.330339 1.113223 0.142569 -0.044520 689624.000000 0 0 1
-36.641817 13.480522 20.029554 43.880864 -0.352531 1.096792 0.165052 -0.044653 -46774.200000 0 0 1
37.903122 13.420522 20.565954 45.163210 0.340300 1.098009 0.183456 -0.062943 -71670.700000 0 0 1
37.736642 12.174822 21.127654 44.929480 0.312083 1.081233 0.158873 -0.046342 447505.000000 0 0 1
36.635202 12.135022 22.049854 44.447641 0.319865 1.051711 0.198144 -0.055545 590709.000000 0 0 1
36.748682 10.699022 22.765054 44.532936 0.283309 1.034221 0.169688 -0.051541 -234747.000000 0 0 1
37.751972 10.564122 23.722504 45.821057 0.272851 1.026612 0.157531 -0.039984 -565081.000000 0 0 1
37.514262 11.211822 24.935244 46.419728 0.290418 1.003719 0.162745 -0.039105 -1613580.000000 0 0 1
-37.246037 11.452822 25.865714 46.770392 -0.298315 0.984792 0.137638 -0.037585 262013.000000 0 0 1
-36.318227 12.431722 25.422574 46.042031 -0.329799 0.985843 0.124498 -0.046424 146392.000000 0 0 1
-35.518779 11.902422 24.344724 44.675686 -0.323342 0.994501 0.111244 -0.047022 -993306.000000 0 0 1
-34.425284 12.921822 23.863074 43.835145 -0.359085 0.995144 0.106840 -0.049796 952015.000000 0 0 1
-33.344167 13.225322 24.731404 43.570460 -0.377598 0.967186 0.077011 -0.046847 694093.000000 0 0 1
-33.876607 14.131022 25.765284 44.845960 -0.395188 0.958768 0.070991 -0.042541 -405349.000000 0 0 1
-32.825447 14.650822 26.769514 44.819231 -0.419794 0.930694 0.069038 -0.033651 -244445.000000 0 0 1
-32.018797 15.642422 26.204074 44.232818 -0.454437 0.936746 0.066046 -0.035281 -426852.000000 0 0 1
-31.597677 16.526422 27.205294 44.851576 -0.481899 0.919066 0.076104 -0.030443 -191758.000000 0 0 1
-31.120217 17.879322 26.657584 44.707548 -0.521477 0.931955 0.084732 -0.021522 -1775.710000 0 0 1
-32.152837 18.730322 26.180004 45.497500 -0.527483 0.957683 0.069730 -0.047677 238534.000000 0 0 1
-31.579367 19.894922 25.630164 45.276590 -0.562185 0.969054 0.077137 -0.050377 117074.000000 0 0 1
-32.643717 20.905322 25.091064 46.175819 -0.569603 0.996337 0.084321 -0.038390 170352.000000 0 0 1
-33.233577 21.634722 26.182844 47.519187 -0.577071 0.987240 0.091174 -0.048763 -260483.000000 0 0 1
-34.403269 22.305822 25.890904 48.491994 -0.575224 1.007565 0.100448 -0.045381 -801821.000000 0 0 1
-34.174282 23.714422 25.349684 48.712030 -0.606638 1.023478 0.110834 -0.040068 -113825.000000 0 0 1
-35.374214 24.233922 24.803014 49.535921 -0.600637 1.046380 0.111598 -0.037371 174319.000000 0 0 1
-35.345146 25.604222 24.613464 50.106668 -0.626918 1.057305 0.119937 -0.037645 113423.000000 0 0 1
-36.540557 26.077122 23.769984 50.796070 -0.619828 1.083827 0.115607 -0.032190 57205.900000 0 0 1
-36.444467 25.560822 22.443184 49.852295 -0.611641 1.103814 0.129892 -0.036444 333869.000000 0 0 1
-37.506587 26.046222 21.626454 50.525768 -0.606987 1.128486 0.140407 -0.032906 196270.000000 0 0 1
-37.155037 25.991422 20.114854 49.605021 -0.610417 1.153270 0.178831 -0.039431 131163.000000 0 0 1
-37.222227 24.739822 19.466454 48.749316 -0.586606 1.160024 0.166976 -0.041543 36034.600000 0 0 1
-36.644497 24.946322 18.210154 47.924397 -0.597700 1.181025 0.164218 -0.049090 -45805.300000 0 0 1
-36.650477 23.735822 17.240654 46.945573 -0.574705 1.194748 0.162127 -0.044477 520180.000000 0 0 1
-37.920497 23.417322 16.670254 47.583951 -0.553215 1.212869 0.161332 -0.050119 96528.100000 0 0 1
-37.909457 22.216322 15.934354 46.739657 -0.530089 1.222904 0.132728 -0.044807 -35190.900000 0 0 1
36.862622 21.919722 15.033754 45.446021 0.536464 1.233640 0.131331 -0.034242 773750.000000 0 0 1
35.643162 21.564622 15.702954 44.520228 0.544098 1.210325 0.138869 -0.047093 460158.000000 0 0 1
34.494732 21.676022 14.888954 43.375309 0.561031 1.220412 0.129094 -0.046404 112500.000000 0 0 1
33.309882 20.753122 15.344554 42.139004 0.557183 1.198086 0.124532 -0.055632 517199.000000 0 0 1
32.556162 21.312022 16.403054 42.227552 0.579618 1.171854 0.125302 -0.049597 902334.000000 0 0 1
31.488432 22.217122 15.946954 41.706441 0.614451 1.178445 0.121523 -0.039759 534041.000000 0 0 1
30.642172 22.716622 17.088054 41.797000 0.637943 1.149620 0.104169 -0.037975 171911.000000 0 0 1
31.481282 23.556622 17.903654 43.203314 0.642395 1.143508 0.047689 -0.025257 306708.000000 0 0 1
30.763772 24.299222 18.898954 43.520481 0.668530 1.121586 0.045651 -0.008747 127502.000000 0 0 1
31.593122 24.835122 20.075554 44.921448 0.666203 1.107495 0.037523 -0.015954 79799.500000 0 0 1
32.378222 26.001522 19.827354 46.016870 0.676602 1.125338 0.062456 -0.021669 -260772.000000 0 0 1
33.302382 26.115422 20.864454 47.184630 0.665027 1.112760 0.070511 -0.025531 -919573.000000 0 0 1
34.408102 27.065022 20.388454 48.292048 0.666510 1.134936 0.097330 -0.028038 845891.000000 0 0 1
35.470972 27.485422 21.324554 49.682742 0.659229 1.127173 0.089346 -0.017131 1376210.000000 0 0 1
34.974162 28.227722 22.385924 50.210814 0.679057 1.108685 0.038625 -0.002006 -282194.000000 0 0 1
35.978822 28.273322 23.576184 51.475167 0.666042 1.095040 0.028226 -0.012808 1254290.000000 0 0 1
37.206622 29.018122 23.420454 52.677336 0.662375 1.110066 0.073869 -0.016429 719221.000000 0 0 1
37.700612 29.490522 24.663154 53.845131 0.663811 1.095009 0.077015 -0.016622 -7961.210000 0 0 1
-37.041837 30.371922 24.463614 53.786799 -0.686779 1.098620 0.075692 -0.024559 423235.000000 0 0 1
-35.823475 29.702922 24.119934 52.415228 -0.692262 1.092609 0.100041 -0.024895 -93563.400000 0 0 1
-34.811857 30.663022 24.118224 52.285515 -0.722117 1.091360 0.112164 -0.023758 -159379.000000 0 0 1
-33.393887 30.105622 23.859724 50.899770 -0.733660 1.082911 0.146848 -0.033430 -441007.000000 0 0 1
-32.949257 29.989222 22.490164 49.908060 -0.738402 1.103323 0.140650 -0.025577 177243.000000 0 0 1
-33.255067 28.699222 21.875154 49.072061 -0.711995 1.108755 0.140227 -0.024615 295880.000000 0 0 1
-32.554187 27.377122 22.432334 48.088372 -0.699229 1.085488 0.131353 -0.024136 718396.000000 0 0 1
-31.123787 27.281122 22.422634 47.071480 -0.719699 1.074294 0.112300 -0.022298 797204.000000 0 0 1
-30.666477 26.054022 22.983474 46.340964 -0.704258 1.051851 0.115766 -0.026768 33580.700000 0 0 1
-30.353237 26.187422 24.492554 46.978562 -0.711853 1.022357 0.133061 -0.031661 114528.000000 0 0 1
-31.498057 26.687722 25.193844 48.364159 -0.702914 1.022868 0.116141 -0.031633 260241.000000 0 0 1
-31.225587 26.970522 26.584654 49.083502 -0.712412 0.998432 0.127725 -0.032923 -109180.000000 0 0 1
-32.478577 27.267022 27.446204 50.513786 -0.698389 0.996385 0.119829 -0.032845 66290.200000 0 0 1
-33.292097 26.116222 27.539764 50.486229 -0.665191 0.993822 0.105175 -0.034525 -95710.100000 0 0 1
-34.422868 26.393822 28.338644 51.813574 -0.654137 0.992098 0.095698 -0.033898 -77721.000000 0 0 1
-35.048458 25.142622 28.935544 51.940461 -0.622287 0.979918 0.086986 -0.028434 -411967.000000 0 0 1
-34.435289 24.679722 30.051874 51.942208 -0.621845 0.953830 0.096477 -0.030923 -423602.000000 0 0 1
-35.059142 23.490822 30.448684 52.039259 -0.590330 0.945781 0.077303 -0.036630 49170.000000 0 0 1
-34.181532 22.667122 31.440194 51.678442 -0.585557 0.916777 0.101998 -0.048297 -228907.000000 0 0 1
-33.170217 21.962822 30.754954 50.284153 -0.584852 0.912686 0.099292 -0.043751 290584.000000 0 0 1
-32.508507 20.927022 31.561213 49.908451 -0.571962 0.886172 0.110831 -0.043536 1085320.000000 0 0 1
-31.422597 21.423522 32.602261 50.092458 -0.598398 0.862104 0.120669 -0.043922 -82817.400000 0 0 1
-32.014417 21.936422 -33.551243 51.301222 -0.600727 2.283663 0.149969 -0.047576 258105.000000 0 0 1
-31.496227 21.487322 -32.304813 49.973175 -0.598692 2.273709 0.131148 -0.038136 64067.400000 0 0 1
-30.055217 22.022122 -32.021003 49.128755 -0.632351 2.280722 0.147281 -0.032946 -146414.000000 0 0 1
-30.004387 23.428922 -31.782083 49.591112 -0.662954 2.266444 0.144075 -0.028815 112723.000000 0 0 1
-29.334347 23.791122 -30.581613 48.597906 -0.681432 2.251421 0.153540 -0.019405 -100024.000000 0 0 1
-29.864637 25.064722 -29.864343 49.112277 -0.698236 2.224440 0.130606 -0.006109 -120565.000000 0 0 1
-29.620697 26.289722 -30.491933 49.982928 -0.725891 2.226916 0.128058 -0.007109 693316.000000 0 0 1
-30.841967 26.770322 -31.065413 51.312152 -0.714842 2.221090 0.111619 -0.010321 392074.000000 0 0 1
-30.628777 28.130422 -31.769253 52.332858 -0.742905 2.223154 0.114290 -0.001233 189562.000000 0 0 1
-30.534927 29.186222 -30.793803 52.273087 -0.762819 2.200734 0.089217 -0.014455 215967.000000 0 0 1
-29.660817 30.185022 -31.313563 52.644457 -0.794157 2.207828 0.091551 -0.028303 -44145.100000 0 0 1
-29.980177 31.647822 -30.843633 53.401548 -0.812451 2.186557 0.080659 -0.018709 -128670.000000 0 0 1
-29.670417 31.848422 -29.493943 52.578972 -0.820787 2.166324 0.084246 -0.020685 194222.000000 0 0 1
-30.114557 33.120822 -29.068023 53.374388 -0.832903 2.146716 0.056982 -0.023660 -793115.000000 0 0 1
-29.844477 33.310422 -27.552273 52.530037 -0.840223 2.122930 0.008999 -0.024781 353902.000000 0 0 1
-28.478987 33.378022 -27.138373 51.591049 -0.864433 2.124721 0.065794 -0.011808 320042.000000 0 0 1
-27.853747 -32.940749 -27.377603 51.092635 0.868879 2.136302 0.059182 0.002750 -400643.000000 0 0 1
-28.025917 -31.908749 -26.192633 49.896636 0.850092 2.123438 0.046582 0.000286 -303072.000000 0 0 1
-29.349317 -31.444049 -26.176453 50.351935 0.819841 2.117495 0.025825 -0.013428 -531882.000000 0 0 1
-29.680097 -30.598449 -25.070013 49.453805 0.800632 2.102425 0.033762 -0.010709 -574715.000000 0 0 1
-31.162637 -30.344549 -24.893813 50.115901 0.772098 2.090617 0.012459 -0.009931 -713978.000000 0 0 1
-31.665587 -29.500949 -25.870553 50.421235 0.750024 2.109575 0.009263 -0.008251 -1454870.000000 0 0 1
-33.033917 -29.541849 -25.864383 51.312054 0.729651 2.099090 0.005907 -0.005094 -1497570.000000 0 0 1
-33.653477 -28.727549 -27.030893 51.850726 0.706597 2.119195 0.026763 -0.012244 -145517.000000 0 0 1
-35.060938 -28.842549 -27.025203 52.834871 0.688395 2.107730 0.053665 -0.011423 -315627.000000 0 0 1
-35.530345 -28.032349 -28.026023 53.232283 0.667979 2.125258 0.062578 -0.020990 -1212360.000000 0 0 1
-36.998727 -28.115149 -28.312023 54.414502 0.649804 2.118002 0.053314 -0.025344 -841194.000000 0 0 1
-37.843507 -27.579749 -27.309473 54.208679 0.629784 2.098770 0.056579 -0.016662 300514.000000 0 0 1
36.786062 -27.554949 -27.754603 53.691783 -0.642899 2.114051 0.070115 -0.020773 527654.000000 0 0 1
35.869792 -26.780349 -26.799023 52.172950 -0.641321 2.110238 0.069261 -0.016906 -212520.000000 0 0 1
35.535902 -27.468649 -25.599283 51.697682 -0.658049 2.088830 0.069901 -0.013676 -584612.000000 0 0 1
34.416132 -26.955649 -24.994913 50.356954 -0.664430 2.090191 0.085320 -0.001319 -604676.000000 0 0 1
34.094452 -27.540949 -23.552113 49.755779 -0.679469 2.063891 0.071887 0.005061 170330.000000 0 0 1
33.734002 -28.935749 -23.577313 50.310537 -0.708983 2.058542 0.098872 -0.004650 723426.000000 0 0 1
33.023752 -29.451149 -22.370913 49.582216 -0.728276 2.038893 0.113593 -0.001529 961655.000000 0 0 1
33.924992 -29.494149 -21.037713 49.632603 -0.715645 2.008509 0.089292 -0.000303 -149354.000000 0 0 1
35.098552 -30.287249 -21.156813 50.959165 -0.711947 1.998928 0.058442 -0.003354 464013.000000 0 0 1
35.977892 -30.207649 -20.041013 51.073995 -0.698435 1.974027 0.030204 0.007021 339887.000000 0 0 1
36.826062 -28.917149 -20.073313 50.944070 -0.665673 1.975805 0.019618 0.005759 -800815.000000 0 0 1
36.057742 -27.771049 -19.751313 49.613570 -0.656293 1.980244 0.023103 0.020921 -78302.400000 0 0 1
36.605372 -26.649449 -20.401313 49.662460 -0.629285 1.994127 0.005597 0.015566 -143966.000000 0 0 1
35.821082 -25.332549 -20.295513 48.340416 -0.615540 2.004072 0.024841 0.019941 -536537.000000 0 0 1
34.794562 -25.238449 -21.219713 47.936594 -0.627542 2.029362 0.041162 0.014255 -807351.000000 0 0 1
33.718162 -24.537049 -20.657713 46.537322 -0.629082 2.030738 0.062728 -0.001225 -101510.000000 0 0 1
32.458952 -24.583649 -21.569513 46.078013 -0.648205 2.057945 0.093294 -0.006930 277463.000000 0 0 1
31.815642 -25.859049 -21.542313 46.314109 -0.682484 2.054583 0.119343 -0.013538 422750.000000 0 0 1
30.581372 -25.888149 -22.269113 45.840266 -0.702478 2.078072 0.123258 -0.017047 789923.000000 0 0 1
30.047372 -27.349149 -22.395113 46.393551 -0.738423 2.074555 0.126688 -0.018183 244659.000000 0 0 1
29.510572 -27.924849 -21.138913 45.798741 -0.757796 2.050550 0.131386 -0.018841 186707.000000 0 0 1
28.967672 -29.177449 -21.448713 46.373450 -0.789006 2.051633 0.130073 -0.019241 -162052.000000 0 0 1
28.452372 -29.997749 -20.286513 46.053719 -0.811831 2.026948 0.148097 -0.012905 324792.000000 0 0 1
29.452472 -30.459149 -19.362013 46.584283 -0.802199 1.999436 0.141412 -0.009409 346986.000000 0 0 1
30.164872 -31.627649 -19.732913 47.954307 -0.809066 1.994889 0.148519 0.000439 195013.000000 0 0 1
30.935472 -32.175649 -18.499913 48.316898 -0.805046 1.963716 0.122773 -0.000042 -11109.700000 0 0 1
30.145172 -32.713049 -17.474313 47.793583 -0.826227 1.945096 0.131027 -0.006839 -767.076000 0 0 1
29.549672 -31.769949 -16.561313 46.441252 -0.821591 1.935431 0.116279 -0.014621 113679.000000 0 0 1
28.806672 -32.390749 -15.364913 45.989842 -0.843897 1.911440 0.106135 -0.012114 973604.000000 0 0 1
27.450172 -32.755749 -15.703213 45.530670 -0.873295 1.922921 0.129666 -0.017296 951724.000000 0 0 1
26.772172 -33.441749 -14.665913 45.279010 -0.895713 1.900646 0.106741 -0.012806 58580.400000 0 0 1
25.236272 -33.375549 -14.776213 44.374916 -0.923383 1.910265 0.116335 -0.009939 149590.000000 0 0 1
24.696772 -32.077549 -14.531313 43.012309 -0.914675 1.915418 0.114790 -0.011117 -30289.100000 0 0 1
23.314872 -32.003149 -14.302513 42.099248 -0.941186 1.917430 0.105261 -0.018359 -347066.000000 0 0 1
0.011133 -6.849978 -29.068293 29.864493 -1.569171 2.910163 0.142928 -0.044089 106780.000000 0 0 1
0.324733 -8.157278 -28.868223 30.000348 -1.531008 2.865996 0.134442 -0.034899 -133978.000000 0 0 1
-0.131667 -8.896178 -30.003603 31.294975 1.555997 2.853317 0.150493 -0.048462 88899.500000 0 0 1
0.175233 -10.399578 -29.803003 31.565818 -1.553948 2.805815 0.169229 -0.041097 453396.000000 0 0 1
1.530733 -10.750178 -29.548373 31.480403 -1.429356 2.789426 0.106866 -0.042962 144390.000000 0 0 1
1.702033 -12.100478 -29.198673 31.652503 -1.431055 2.745242 0.137073 -0.045215 1143510.000000 0 0 1
3.176733 -12.460478 -28.742023 31.487442 -1.321169 2.720907 0.116719 -0.027665 853475.000000 0 0 1
4.156133 -12.258978 -29.752583 32.446451 -1.243930 2.731227 0.125831 -0.030531 665104.000000 0 0 1
5.514833 -12.571678 -29.446103 32.488974 -1.157403 2.705340 0.126897 -0.030121 871479.000000 0 0 1
5.915833 -13.996478 -29.023843 32.760982 -1.170904 2.659285 0.133467 -0.032119 -816208.000000 0 0 1
5.599133 -14.336878 -27.710403 31.697993 -1.198471 2.634583 0.124994 -0.025612 -106871.000000 0 0 1
6.275633 -15.482778 -27.221043 31.938772 -1.185704 2.591141 0.130827 -0.021734 47276.700000 0 0 1
5.826333 -16.919678 -27.653923 32.938748 -1.239162 2.567262 0.106241 -0.025369 80203.100000 0 0 1
6.390333 -17.243178 -28.914493 34.266768 -1.215888 2.575132 0.120402 -0.042252 105007.000000 0 0 1
6.006633 -18.556778 -29.182983 35.100999 -1.257750 2.552419 0.105131 -0.042973 -225848.000000 0 0 1
6.490733 -19.184078 -30.482123 36.596697 -1.244547 2.555160 0.124148 -0.059388 151807.000000 0 0 1
7.891733 -19.330978 -30.648903 37.085326 -1.183204 2.543556 0.128044 -0.052387 141225.000000 0 0 1
8.219733 -20.116678 -31.771303 38.492342 -1.182896 2.541694 0.129047 -0.049856 -349525.000000 0 0 1
9.631433 -19.982878 -32.339593 39.216440 -1.121665 2.540368 0.111489 -0.044051 -382416.000000 0 0 1
9.862433 -18.676778 -32.766413 38.983681 -1.084955 2.569031 0.125863 -0.049745 198638.000000 0 0 1
11.084233 -18.573678 -33.484173 39.862659 -1.032754 2.568058 0.106352 -0.045475 243177.000000 0 0 1
11.411633 -17.139578 33.417084 39.251649 -0.983390 0.552234 0.106822 -0.035618 -155525.000000 0 0 1
10.470333 -16.752378 32.453348 37.993286 -1.012193 0.546812 0.128046 -0.036060 271170.000000 0 0 1
10.911833 -15.496878 31.992567 37.185288 -0.957303 0.534830 0.123796 -0.026659 -54441.900000 0 0 1
9.934633 -14.914278 30.997424 35.804649 -0.983175 0.524175 0.180341 -0.038911 -208115.000000 0 0 1
9.620633 -15.818478 29.970384 35.227897 -1.024377 0.553372 0.166470 -0.039827 495200.000000 0 0 1
8.584433 -15.283678 29.129674 33.997370 -1.059035 0.541723 0.164924 -0.038598 293315.000000 0 0 1
8.568633 -15.849278 27.731554 33.070533 -1.075174 0.576166 0.118853 -0.022695 -371173.000000 0 0 1
8.223933 -17.215778 27.731414 33.660769 -1.125149 0.602627 0.109126 -0.034373 273097.000000 0 0 1
8.302933 -17.910778 26.496854 33.042668 -1.136714 0.640331 0.090294 -0.027949 13894.100000 0 0 1
7.890633 -19.401978 26.598354 33.855151 -1.184534 0.667048 0.096152 -0.040853 -107273.000000 0 0 1
8.783833 -19.959878 27.539754 35.128201 -1.156227 0.669747 0.101452 -0.036510 372839.000000 0 0 1
8.235733 -21.020678 28.288254 36.192838 -1.197386 0.673573 0.091557 -0.040532 -284043.000000 0 0 1
8.868733 -21.220978 29.678614 37.547363 -1.174935 0.659283 0.101388 -0.046380 78539.700000 0 0 1
8.235133 -20.419478 30.713454 37.790061 -1.187450 0.621959 0.127745 -0.051322 477846.000000 0 0 1
8.311433 -18.980578 30.631744 36.981698 -1.158057 0.594739 0.129367 -0.049517 -240291.000000 0 0 1
7.566533 -18.285678 31.781424 37.438981 -1.178454 0.556922 0.136679 -0.050163 778183.000000 0 0 1
6.148833 -18.527078 31.853578 37.359218 -1.250351 0.549799 0.159546 -0.066234 496673.000000 0 0 1
5.697933 -17.497078 32.691806 37.514908 -1.255976 0.512676 0.170662 -0.053338 967524.000000 0 0 1
4.205833 -17.624678 33.192640 37.816261 -1.336544 0.499683 0.169818 -0.055261 1008500.000000 0 0 1
4.047533 -18.651078 -33.226673 38.317842 -1.357097 2.620214 0.140796 -0.057497 343696.000000 0 0 1
2.912833 -18.381978 -32.397873 37.363135 -1.413642 2.620163 0.133097 -0.067865 368146.000000 0 0 1
2.429333 -19.500578 -31.396123 37.039043 -1.446857 2.582335 0.090004 -0.044477 -563824.000000 0 0 1
1.535333 -20.459278 -31.851083 37.887079 -1.495893 2.569342 0.069659 -0.041203 50197.400000 0 0 1
0.871833 -21.325578 -30.906833 37.560254 -1.529937 2.537222 0.071740 -0.042509 866933.000000 0 0 1
-0.155467 -20.613978 -29.965783 36.371808 1.563255 2.539009 0.079544 -0.045079 292774.000000 0 0 1
-1.343667 -20.078378 -30.560223 36.590626 1.503975 2.559279 0.093458 -0.052393 586818.000000 0 0 1
-2.096367 -19.137378 -29.807883 35.484417 1.461688 2.568130 0.130385 -0.038678 73926.000000 0 0 1
-1.533467 -17.736778 -29.815713 34.726381 1.484554 2.603309 0.121675 -0.036302 -629576.000000 0 0 1
-2.428667 -16.859478 -29.187753 33.794457 1.427727 2.613331 0.150649 -0.040252 -309380.000000 0 0 1
-2.170167 -15.534678 -29.554773 33.459235 1.431996 2.653666 0.161044 -0.045426 -214993.000000 0 0 1
-3.369067 -14.662378 -29.160383 32.812556 1.344940 2.665289 0.143076 -0.029263 124856.000000 0 0 1
-3.267467 -14.261278 -27.812033 31.425619 1.345569 2.657315 0.126883 -0.038851 382410.000000 0 0 1
-4.344667 -13.364778 -27.512993 30.894307 1.256489 2.669354 0.119595 -0.038090 377331.000000 0 0 1
-4.401567 -12.908978 -26.077013 29.428321 1.242189 2.659701 0.112536 -0.036694 -491984.000000 0 0 1
-4.839867 -13.840278 -25.184223 29.141425 1.234394 2.614368 0.131533 -0.037599 -9354.690000 0 0 1
-4.961167 -13.412278 -23.852213 27.810617 1.216507 2.601509 0.109789 -0.044973 423831.000000 0 0 1
-6.054867 -12.301378 -23.476713 27.187154 1.113400 2.613009 0.099433 -0.047197 328973.000000 0 0 1
-7.358167 -12.818378 -23.649713 27.888391 1.049689 2.583021 0.109492 -0.048416 -129971.000000 0 0 1
-8.347567 -11.902878 -23.165013 27.349190 0.959194 2.581130 0.096372 -0.042034 429987.000000 0 0 1
-9.739267 -12.413978 -23.622013 28.407035 0.905553 2.552698 0.127315 -0.051350 -4204.720000 0 0 1
-10.321867 -13.415778 -22.788713 28.387488 0.915005 2.502728 0.099503 -0.048449 -160210.000000 0 0 1
-11.298167 -14.143478 -23.492713 29.657952 0.896772 2.485074 0.095955 -0.041960 -128829.000000 0 0 1
-12.138867 -15.151978 -22.658813 29.838839 0.895360 2.433145 0.089907 -0.036735 210108.000000 0 0 1
-11.436767 -16.329278 -22.251513 29.875990 0.959813 2.411025 0.096093 -0.034021 100410.000000 0 0 1
-12.276867 -17.420278 -21.847213 30.520292 0.956892 2.368602 0.109764 -0.037349 484823.000000 0 0 1
-13.039867 -18.227178 -22.938713 32.069498 0.949804 2.367823 0.108806 -0.033021 -168762.000000 0 0 1
-14.114567 -17.561278 -23.473213 32.536306 0.893784 2.376686 0.087155 -0.021505 -711624.000000 0 0 1
-14.949067 -18.277778 -24.362613 33.927698 0.885246 2.371828 0.052798 -0.027787 100983.000000 0 0 1
-16.104367 -17.488178 -24.978713 34.483664 0.826569 2.380907 0.069873 -0.031308 -376140.000000 0 0 1
-17.235467 -17.366878 -24.142913 34.373682 0.789196 2.349513 0.070554 -0.022644 21936.700000 0 0 1
-18.301567 -16.878178 -24.944113 35.242432 0.744960 2.357156 0.052753 -0.020828 197024.000000 0 0 1
-19.068367 -15.619978 -24.405913 34.687677 0.686313 2.351234 0.073121 -0.025120 376594.000000 0 0 1
-20.007667 -15.932078 -23.363413 34.640827 0.672480 2.311012 0.069190 -0.020958 909031.000000 0 0 1
-20.659667 -14.703178 -22.908713 34.173300 0.618525 2.305502 0.080567 -0.027081 1214780.000000 0 0 1
-21.440867 -14.724178 -21.528813 33.763915 0.601767 2.262211 0.065355 -0.026468 1093730.000000 0 0 1
-20.343167 -14.544678 -20.643113 32.427306 0.620700 2.260873 0.080993 -0.020909 1041360.000000 0 0 1
-20.740867 -14.572878 -19.259513 31.835219 0.612480 2.220531 0.069418 -0.018473 72868.000000 0 0 1
-21.404667 -13.273478 -18.712913 31.377031 0.555083 2.209791 0.064543 -0.024578 -366943.000000 0 0 1
-22.713767 -13.039878 -19.158213 32.449819 0.521154 2.202345 0.065284 -0.028708 -164505.000000 0 0 1
-23.145567 -11.951778 -18.327313 31.850474 0.476661 2.183911 0.065111 -0.025059 -39242.000000 0 0 1
-24.596167 -11.502378 -18.601013 32.913125 0.437434 2.171417 0.083905 -0.026563 57685.100000 0 0 1
-24.719367 -10.717578 -19.788313 33.428893 0.409107 2.204275 0.068874 -0.022724 -598640.000000 0 0 1
-26.079647 -10.535678 -19.998013 34.511868 0.383933 2.188854 0.100153 -0.031834 -650889.000000 0 0 1
-26.368057 -9.430578 -21.027313 35.019396 0.343475 2.214857 0.097498 -0.023041 -149173.000000 0 0 1
-26.252587 -9.887778 -22.354913 35.870721 0.360208 2.243634 0.077725 -0.019555 432000.000000 0 0 1
-27.061587 -9.013778 -23.153113 36.737506 0.321526 2.252647 0.065093 -0.023742 189817.000000 0 0 1
-27.231477 -9.482878 -24.629513 37.922173 0.335099 2.277690 0.061539 -0.011283 87141.700000 0 0 1
-26.029117 -9.460478 -25.371253 37.559500 0.348613 2.312432 0.056904 -0.018011 123229.000000 0 0 1
-25.587407 -10.732878 -25.779513 37.874706 0.397168 2.319449 0.049685 -0.007873 -318910.000000 0 0 1
-24.527367 -10.770578 -26.864643 37.938188 0.413773 2.357623 0.065462 -0.015963 -355701.000000 0 0 1
-24.977327 -10.582678 -28.189503 39.121708 0.400762 2.375405 0.072389 -0.006919 -37560.700000 0 0 1
-23.903167 -10.522078 -29.085113 39.089887 0.414671 2.409919 0.091626 -0.007980 110414.000000 0 0 1
-24.474667 -10.601978 -30.509963 40.524919 0.408780 2.423207 0.090813 -0.006873 200376.000000 0 0 1
-25.469347 -9.659678 -30.800303 41.117583 0.362506 2.417467 0.074797 -0.008135 -201554.000000 0 0 1
-25.162117 -9.016878 -32.006123 41.699258 0.344095 2.445801 0.076956 -0.020365 -746230.000000 0 0 1
-26.188867 -8.076478 -32.608813 42.596020 0.299139 2.442671 0.078197 -0.028287 -360651.000000 0 0 1
-27.205007 -8.626478 -33.452003 43.972321 0.307062 2.435266 0.085814 -0.024998 1834980.000000 0 0 1
-28.433177 -9.178578 -32.916043 44.453996 0.312252 2.404539 0.074080 -0.014721 964713.000000 0 0 1
-29.425307 -8.165078 -32.275083 44.431950 0.270675 2.383856 0.047413 -0.002878 -110212.000000 0 0 1
-30.725877 -8.728878 -32.202763 45.357367 0.276796 2.360264 0.053833 -0.000845 816031.000000 0 0 1
-31.642887 -8.092878 -31.288243 45.229649 0.250389 2.334725 0.059266 -0.000288 530845.000000 0 0 1
-33.117907 -8.496178 -31.416523 46.432518 0.251128 2.313940 0.060507 -0.000890 -150517.000000 0 0 1
-33.266557 -9.762678 -30.849973 46.407914 0.285454 2.297964 0.060961 -0.004664 692827.000000 0 0 1
-34.557235 -10.360178 -31.032203 47.587114 0.291271 2.281165 0.055691 -0.005707 497086.000000 0 0 1
-34.530513 -11.889478 -30.906353 47.842645 0.331604 2.273129 0.047590 -0.007441 -779952.000000 0 0 1
-35.709419 -12.428778 -31.428093 49.166677 0.334939 2.264274 0.067902 -0.012674 -358250.000000 0 0 1
-35.818007 -13.814978 -31.507303 49.663803 0.368118 2.258044 0.066749 -0.015794 -37113.100000 0 0 1
-37.191987 -14.285078 -30.993213 50.476594 0.366716 2.231929 0.080615 -0.021242 -45709.400000 0 0 1
-37.332687 -14.053078 -29.625013 49.687623 0.360022 2.209587 0.111138 -0.025975 -69393.700000 0 0 1
-37.912467 -15.203878 -29.081883 50.142487 0.381390 2.189506 0.116538 -0.027817 -131254.000000 0 0 1
-37.843287 -15.189178 -27.515173 49.192583 0.381687 2.164381 0.138649 -0.026193 417943.000000 0 0 1
-36.478977 -15.155178 -27.112653 47.911284 0.393754 2.172312 0.114808 -0.033644 387739.000000 0 0 1
-36.290517 -15.186478 -25.664783 46.971394 0.396326 2.148846 0.148550 -0.039923 -153278.000000 0 0 1
-34.865600 -14.922678 -25.148143 45.505224 0.404414 2.156328 0.145667 -0.040678 -381896.000000 0 0 1
-33.981432 -15.966578 -25.399773 45.330098 0.439248 2.165579 0.129672 -0.039038 -161239.000000 0 0 1
-32.692607 -15.641478 -24.915213 43.979884 0.446252 2.173065 0.118926 -0.030554 4232.660000 0 0 1
-31.575707 -16.667578 -25.083113 43.634802 0.485687 2.183207 0.102153 -0.039506 -243400.000000 0 0 1
-31.568077 -17.797778 -24.330413 43.649437 0.513369 2.162053 0.118587 -0.052908 245526.000000 0 0 1
-32.336197 -18.857278 -24.952213 44.987104 0.527947 2.158742 0.108580 -0.053355 356965.000000 0 0 1
-32.081417 -20.191378 -24.193013 44.969000 0.561742 2.138851 0.096361 -0.050431 156210.000000 0 0 1
-30.783977 -20.741478 -24.302113 44.367272 0.592908 2.150467 0.095936 -0.038347 -47483.700000 0 0 1
-30.649397 -21.903578 -23.508713 44.405088 0.620490 2.128707 0.102919 -0.035360 -1251090.000000 0 0 1
-29.303017 -22.585978 -23.617813 43.892987 0.656664 2.138951 0.096051 -0.037482 51314.200000 0 0 1
-28.187137 -22.008278 -22.910913 42.471036 0.662918 2.140578 0.111298 -0.036205 487206.000000 0 0 1
-28.294477 -21.959078 -21.484513 41.765570 0.659991 2.111113 0.130710 -0.040814 -654978.000000 0 0 1
-28.245137 -23.296078 -20.770113 42.093855 0.689670 2.086818 0.131357 -0.041443 29259.800000 0 0 1
-28.570087 -23.159278 -19.385213 41.573892 0.681179 2.055881 0.130801 -0.035011 32239.400000 0 0 1
-28.546827 -24.337578 -18.658213 41.897111 0.705972 2.032344 0.128065 -0.022057 53024.600000 0 0 1
-28.629937 -24.078178 -17.139513 41.148449 0.699254 2.000420 0.108063 -0.016062 67069.500000 0 0 1
-29.884067 -23.557678 -16.779513 41.588144 0.667567 1.986101 0.108506 -0.013494 -310259.000000 0 0 1
-29.733097 -22.509578 -15.836113 40.515684 0.648001 1.972366 0.101615 -0.016267 -543121.000000 0 0 1
-31.006097 -21.826978 -15.367913 40.914151 0.613377 1.955855 0.106884 0.001449 -640520.000000 0 0 1
-31.536917 -21.001078 -16.368313 41.274012 0.587486 1.978581 0.119149 -0.011877 -424116.000000 0 0 1
-32.477107 -20.088478 -15.895913 41.364109 0.553942 1.965238 0.117815 -0.015277 -558875.000000 0 0 1
-33.126317 -19.325478 -17.058813 41.974160 0.528115 1.989320 0.136860 -0.038332 10290.100000 0 0 1
-34.238374 -20.061878 -17.582013 43.403599 0.530022 1.987865 0.070167 -0.031634 139642.000000 0 0 1
-34.727455 -19.315478 -18.706613 43.920624 0.507592 2.010773 0.080249 -0.031224 -973950.000000 0 0 1
-36.111797 -19.725778 -19.255213 45.430512 0.499953 2.008476 0.055490 -0.027497 -56429.200000 0 0 1
-37.113617 -19.295878 -18.340713 45.674207 0.479451 1.984011 0.054948 -0.018468 -36924.200000 0 0 1
-37.309917 -19.906578 -17.046213 45.594683 0.490123 1.953968 0.074514 -0.026687 -1092620.000000 0 0 1
-37.654877 -21.384078 -17.063313 46.543799 0.516480 1.946156 0.057894 0.015348 -777453.000000 0 0 1
36.976332 -21.603578 -17.302413 46.188063 -0.528761 1.954770 0.055930 -0.015044 -560320.000000 0 0 1
36.744982 -22.979978 -17.436213 46.715036 -0.558880 1.953302 0.070410 -0.008368 -295134.000000 0 0 1
35.511302 -23.506978 -16.685713 45.738863 -0.584735 1.944218 0.056494 -0.012111 180244.000000 0 0 1
34.338282 -23.326678 -17.495713 45.048324 -0.596711 1.969666 0.060624 -0.012233 1173600.000000 0 0 1
33.190552 -23.876578 -16.803313 44.204695 -0.623614 1.960728 0.085326 -0.011445 523735.000000 0 0 1
31.822962 -23.886378 -17.482913 43.461617 -0.643886 1.984781 0.087662 -0.031805 -79176.300000 0 0 1
31.207412 -22.624278 -17.620013 42.381899 -0.627285 1.999557 0.063668 -0.031906 1034330.000000 0 0 1
30.110172 -22.642378 -18.596513 42.013450 -0.644770 2.029328 0.096926 -0.036398 994013.000000 0 0 1
36.053822 28.309322 -17.828113 49.184727 0.665649 1.941716 0.084007 -0.020640 -458561.000000 0 0 1
35.251392 28.623122 -18.920413 49.192741 0.681998 1.965590 0.078543 -0.030544 -190195.000000 0 0 1
35.946782 28.420422 -20.139013 50.054683 0.668998 1.984868 0.093528 -0.028514 200783.000000 0 0 1
35.075072 28.713722 -21.394213 50.124354 0.686002 2.011773 0.109934 -0.030852 -177349.000000 0 0 1
33.910442 27.899522 -21.514613 48.899693 0.688455 2.026366 0.097635 -0.023368 481681.000000 0 0 1
33.142112 28.093522 -22.682613 49.011697 0.703139 2.051948 0.111243 -0.016071 238945.000000 0 0 1
32.232122 29.371222 -22.694913 49.159307 0.738991 2.050663 0.113578 -0.012146 -619086.000000 0 0 1
32.876602 30.633122 -22.484813 50.247646 0.750088 2.034742 0.115825 -0.020067 7693.400000 0 0 1
31.895072 31.655322 -22.427413 50.222941 0.781626 2.033710 0.125731 -0.009348 -68553.000000 0 0 1
32.442302 32.977722 -21.863113 51.166677 0.793582 2.012292 0.123760 -0.004080 21211.300000 0 0 1
32.744542 33.074822 -20.496213 50.855124 0.790416 1.985623 0.122939 -0.009411 1238770.000000 0 0 1
34.090052 32.592122 -20.211313 51.311550 0.762938 1.975661 0.124257 -0.012088 950027.000000 0 0 1
34.476462 32.730222 -18.708813 51.087313 0.759421 1.945732 0.097522 -0.012460 -144697.000000 0 0 1
34.675912 -33.480649 -18.337613 51.571705 -0.767863 1.934326 0.104156 -0.004163 173153.000000 0 0 1
34.565112 -33.376749 -16.912813 50.939156 -0.767909 1.909240 0.066979 -0.019402 -716116.000000 0 0 1
34.398222 -31.912049 -16.425513 49.713318 -0.747923 1.907529 0.073670 0.003607 610760.000000 0 0 1
35.474992 -30.994649 -16.727013 49.989362 -0.718096 1.911989 0.069723 0.003444 224208.000000 0 0 1
36.665222 -31.267549 -16.056713 50.791891 -0.706109 1.892441 0.068604 -0.004366 -446838.000000 0 0 1
37.910732 -30.465349 -16.519313 51.363886 -0.676937 1.898229 0.048308 0.002371 67386.900000 0 0 1
-37.301937 -31.135349 -17.446613 51.625854 0.695535 1.915527 0.053063 0.000688 -11814.300000 0 0 1
-36.065297 -30.438449 -17.681413 50.396798 0.700990 1.929269 0.040554 0.001449 456586.000000 0 0 1
-35.146050 -31.198349 -18.640513 50.557399 0.725965 1.948406 0.052132 -0.010602 -854081.000000 0 0 1
-34.549200 -32.332149 -18.040013 50.640470 0.752261 1.935034 0.063842 -0.015891 1994.760000 0 0 1
-33.445757 -32.926249 -18.653513 50.504555 0.777571 1.949098 0.072380 -0.017157 697096.000000 0 0 1
-32.123947 -32.113749 -18.905413 49.200158 0.785239 1.965197 0.076358 -0.021683 -285610.000000 0 0 1
-32.217687 -31.348449 -20.085413 49.235439 0.771724 1.991000 0.081849 -0.016309 -379728.000000 0 0 1
-31.038497 -30.727149 -20.505413 48.249539 0.780357 2.009744 0.085118 -0.021488 309943.000000 0 0 1
-30.006447 -31.655749 -21.273613 48.528754 0.812139 2.024582 0.078137 -0.017664 408510.000000 0 0 1
-30.613977 -32.290149 -22.391413 49.812094 0.812038 2.037022 0.065113 -0.009790 -435775.000000 0 0 1
-29.964117 -33.430949 -22.810213 50.356554 0.840030 2.040895 0.056323 -0.012844 271093.000000 0 0 1
-30.868127 33.366522 -23.845713 51.330148 -0.824273 2.053929 0.042457 -0.022002 -280441.000000 0 0 1
-31.858797 32.479822 -23.289413 51.110846 -0.795050 2.043915 0.062521 -0.040737 144487.000000 0 0 1
-32.543157 31.674722 -24.182013 51.450120 -0.771876 2.060097 0.065378 -0.031019 -106776.000000 0 0 1
-33.464787 32.465522 -25.128343 52.965420 -0.770243 2.065112 0.070748 -0.042739 -1468710.000000 0 0 1
-32.869597 33.336622 -26.053003 53.577045 -0.792452 2.078614 0.055658 -0.031711 -980245.000000 0 0 1
-33.847197 -33.603549 -26.843803 54.730440 0.781786 2.083429 0.052482 -0.030380 -69162.100000 0 0 1
-33.279867 -32.580749 -27.853123 54.266484 0.774783 2.109782 0.043862 -0.023972 -213566.000000 0 0 1
-32.827317 -33.057349 -29.083763 54.920728 0.788890 2.128877 0.049487 -0.028899 -448.614000 0 0 1
-33.863467 -33.472449 -30.002303 56.278570 0.779591 2.133061 0.069669 -0.028628 297518.000000 0 0 1
-33.494287 33.223022 -31.280853 56.605019 -0.781332 2.156296 0.095381 -0.031554 -211025.000000 0 0 1
-32.817257 -33.626749 -32.284893 57.009165 0.797581 2.172819 0.079448 -0.036744 -117744.000000 0 0 1
-32.898777 33.302922 -33.543953 57.590024 -0.791503 2.192550 0.089982 -0.040613 -691482.000000 0 0 1
-31.951177 -33.753549 32.763852 56.865190 0.812823 0.956765 0.092753 -0.044143 -1067140.000000 0 0 1
-30.682247 33.268322 32.685584 55.825880 -0.825815 0.945310 0.092723 -0.042669 -841166.000000 0 0 1
-30.566317 31.943822 32.228478 54.711812 -0.807431 0.940903 0.107549 -0.043574 -178765.000000 0 0 1
-29.113857 31.371822 32.171506 53.542634 -0.822711 0.926223 0.105890 -0.040752 118739.000000 0 0 1
-28.671367 31.112022 33.462844 53.942257 -0.826200 0.901613 0.114359 -0.046496 838312.000000 0 0 1
-27.245367 30.922122 33.588544 53.166511 -0.848524 0.886973 0.113876 -0.043906 659771.000000 0 0 1
-26.781647 29.511022 33.236600 51.892472 -0.833846 0.875660 0.129254 -0.040373 -683105.000000 0 0 1
-26.833757 28.566922 -33.044383 51.264518 -0.816672 2.271278 0.127906 -0.031156 342565.000000 0 0 1
-26.338937 27.267722 -33.446413 50.556214 -0.802722 2.293705 0.120972 -0.022465 23310.700000 0 0 1
-26.171247 26.351022 -32.180473 49.141564 -0.788821 2.284784 0.135985 -0.028119 421971.000000 0 0 1
-25.044037 26.626622 -31.333803 48.145488 -0.816017 2.279454 0.124857 -0.020085 362963.000000 0 0 1
-25.176047 27.716822 -30.383493 48.220454 -0.833398 2.252473 0.109435 -0.021684 -9429.740000 0 0 1
-23.951567 27.931522 -29.465783 47.138942 -0.861958 2.246035 0.137647 -0.021299 -347939.000000 0 0 1
-22.766567 28.166622 -30.156933 47.128715 -0.891026 2.265144 0.128473 -0.019223 -428132.000000 0 0 1
-21.578667 28.196222 -29.396683 46.095887 -0.917573 2.262343 0.096625 -0.014712 339154.000000 0 0 1
-21.206667 29.427622 -28.533803 46.150683 -0.946353 2.237342 0.082449 -0.008719 -466757.000000 0 0 1
-20.823867 30.521922 -29.379363 47.205594 -0.972076 2.242564 0.077987 -0.003325 122796.000000 0 0 1
-20.490167 31.624722 -28.534093 47.266949 -0.995887 2.218905 0.092421 -0.012887 141369.000000 0 0 1
-20.037567 32.881822 -29.319563 48.397883 -1.023507 2.221571 0.096848 -0.007029 393080.000000 0 0 1
-18.776267 32.777422 -29.983113 48.227530 -1.050586 2.241709 0.089050 -0.009102 230847.000000 0 0 1
-18.484767 -33.526649 -30.544943 48.976692 1.066921 2.244216 0.093203 -0.008825 -1525370.000000 0 0 1
-17.090367 -33.328649 -31.012183 48.627513 1.096975 2.262370 0.077673 -0.001687 -1565130.000000 0 0 1
-16.181967 -33.036849 -29.923533 47.420537 1.115329 2.253670 0.096399 -0.019386 105643.000000 0 0 1
-14.852067 -32.829249 -30.334173 47.101014 1.145945 2.270543 0.116815 -0.018121 335938.000000 0 0 1
-14.092467 33.364422 -30.561693 47.389865 -1.171147 2.271688 0.123962 -0.019719 -575155.000000 0 0 1
-13.967567 32.582522 -29.436383 46.078349 -1.165810 2.263777 0.125638 -0.021147 -139561.000000 0 0 1
-13.525167 31.281722 -29.710543 45.212748 -1.162703 2.287798 0.096896 -0.019019 -75851.800000 0 0 1
-13.405967 30.484022 -28.416113 43.777517 -1.156482 2.277201 0.082270 -0.023127 -153428.000000 0 0 1
-12.472567 31.013422 -27.524143 43.300990 -1.188423 2.259643 0.100606 -0.022818 -364272.000000 0 0 1
-12.452867 30.220322 -26.336233 41.975456 -1.179929 2.249032 0.078411 -0.034044 -229635.000000 0 0 1
-11.418467 30.739322 -25.339433 41.441213 -1.215132 2.228694 0.099813 -0.032664 -185437.000000 0 0 1
-10.093067 30.516822 -25.759063 41.190724 -1.251384 2.246390 0.108783 -0.024940 -748881.000000 0 0 1
-9.221167 31.008822 -24.782213 40.752117 -1.281752 2.224488 0.118855 -0.029239 -695367.000000 0 0 1
-7.800467 30.563522 -25.112113 40.318660 -1.320909 2.243165 0.117275 -0.034863 -671000.000000 0 0 1
-7.415367 29.247022 -24.772713 39.039253 -1.322486 2.258234 0.106051 -0.046157 561839.000000 0 0 1
-6.200067 28.846122 -25.429503 38.951241 -1.359081 2.282143 0.096888 -0.054529 666798.000000 0 0 1
-5.485567 27.652722 -24.693113 37.476850 -1.374965 2.290138 0.117689 -0.026577 18987.700000 0 0 1
-6.129067 26.370222 -24.784613 36.704647 -1.342427 2.312093 0.133246 -0.027570 391620.000000 0 0 1
-5.370267 25.253122 -24.247513 35.418947 -1.361260 2.324840 0.140284 -0.034474 4918.210000 0 0 1
-6.150567 23.934122 -24.145213 34.549428 -1.319260 2.344599 0.140457 -0.037521 -141920.000000 0 0 1
-6.387767 23.284522 -25.368943 35.022218 -1.303048 2.380912 0.134396 -0.040657 -198870.000000 0 0 1
-7.280467 22.244922 -25.229613 34.414751 -1.254498 2.393672 0.125274 -0.048257 -572512.000000 0 0 1
-7.180667 21.351822 -26.520733 34.796717 -1.246376 2.437442 0.110951 -0.034649 172397.000000 0 0 1
-6.075067 20.487922 -26.745753 34.234437 -1.282536 2.467467 0.131411 -0.050774 -196431.000000 0 0 1
-6.084467 19.262822 -25.951923 32.887374 -1.264848 2.480163 0.126009 -0.044873 -544426.000000 0 0 1
-4.801467 18.437422 -26.020883 32.250255 -1.316035 2.509584 0.131611 -0.051157 -383533.000000 0 0 1
-4.538867 17.982622 -27.327093 33.026444 -1.323557 2.545313 0.129110 -0.056653 -494315.000000 0 0 1
-3.444467 17.126522 -27.365993 32.466593 -1.372325 2.573441 0.123137 -0.050368 -712892.000000 0 0 1
-3.077567 16.610622 -28.767643 33.361077 -1.387597 2.610613 0.111150 -0.039016 -323828.000000 0 0 1
-2.337567 17.599122 -29.415393 34.357803 -1.438746 2.598566 0.119666 -0.041380 -156454.000000 0 0 1
-2.300667 17.493622 -30.770663 35.470460 -1.440032 2.620953 0.116625 -0.044575 -53057.400000 0 0 1
-1.415367 18.560522 -31.445503 36.541974 -1.494687 2.607108 0.116635 -0.033530 -58434.600000 0 0 1
-0.012667 18.460522 -31.238693 36.285630 -1.570110 2.607854 0.136167 -0.038086 -21058.800000 0 0 1
0.641333 19.643922 -31.560133 37.179792 1.538160 2.584606 0.132854 -0.026011 53269.700000 0 0 1
0.417933 20.870122 -30.656173 37.088240 1.550774 2.543789 0.122191 -0.029689 -104246.000000 0 0 1
1.196733 20.780722 -29.432453 36.049131 1.513271 2.526039 0.146319 -0.048115 188307.000000 0 0 1
1.066833 21.856922 -28.575643 35.992090 1.522025 2.488062 0.149975 -0.059524 -305920.000000 0 0 1
2.210633 21.881622 -27.570053 35.267550 1.470111 2.468247 0.164680 -0.056698 -283800.000000 0 0 1
3.246833 22.737622 -27.987393 36.205463 1.428960 2.454378 0.133923 -0.054270 -1090730.000000 0 0 1
4.332533 22.558522 -27.142483 35.558011 1.381049 2.439248 0.146461 -0.053415 -253870.000000 0 0 1
5.148533 23.881422 -26.963523 36.384904 1.358459 2.405449 0.145652 -0.049967 196607.000000 0 0 1
5.794833 24.450722 -28.113473 37.706567 1.338089 2.412209 0.130249 -0.053496 251403.000000 0 0 1
6.263433 25.750522 -27.804203 38.410853 1.332195 2.380182 0.136391 -0.056030 -395914.000000 0 0 1
7.134433 26.400122 -28.856233 39.756116 1.306859 2.383038 0.161612 -0.051600 1279460.000000 0 0 1
8.482033 25.836022 -28.920133 39.696587 1.253580 2.386969 0.149694 -0.050865 1733090.000000 0 0 1
9.377733 26.656222 -29.689153 40.987093 1.232516 2.380893 0.153472 -0.049306 1112190.000000 0 0 1
10.893933 26.481122 -29.321873 40.984141 1.180514 2.368056 0.143704 -0.043041 1004700.000000 0 0 1
11.725533 27.347922 -30.085743 42.314878 1.165750 2.361711 0.151139 -0.040206 534162.000000 0 0 1
13.079933 27.392422 -29.643763 42.428553 1.125309 2.344340 0.135065 -0.050751 669763.000000 0 0 1
14.014933 28.344922 -30.427753 43.882811 1.111605 2.336975 0.142171 -0.048013 -136025.000000 0 0 1
13.703233 29.684222 -30.273143 44.557769 1.138310 2.317759 0.138242 -0.045504 108402.000000 0 0 1
14.492433 30.524522 -31.097993 45.922350 1.127527 2.314728 0.167702 -0.047283 6473.400000 0 0 1
13.958433 31.986722 -31.191053 46.806730 1.159325 2.300139 0.168616 -0.052993 -190810.000000 0 0 1
12.776133 32.183822 -31.905293 47.084771 1.192901 2.315309 0.142739 -0.046883 -81007.900000 0 0 1
12.203033 33.456822 -31.676683 47.662198 1.221051 2.297766 0.143868 -0.037966 14917.900000 0 0 1
11.098233 -33.663549 -32.647433 48.189835 -1.252336 2.315121 0.102190 -0.024751 -9001.570000 0 0 1
11.538033 -32.925449 33.639594 48.464767 -1.233739 0.803622 0.077385 -0.009479 326067.000000 0 0 1
10.464333 -32.832849 32.693561 47.501233 -1.262259 0.811698 0.093749 -0.014804 542618.000000 0 0 1
10.577133 -31.872049 31.529869 46.063390 -1.250370 0.816894 0.100541 -0.010451 -197507.000000 0 0 1
10.460133 -30.470349 31.847580 45.300385 -1.240113 0.791146 0.086260 -0.010775 -8268.790000 0 0 1
10.657033 -29.668549 30.697684 44.001624 -1.225946 0.798686 0.094023 -0.015026 -256997.000000 0 0 1
10.201833 -28.193449 30.878064 43.039549 -1.223603 0.770684 0.093807 -0.024718 184035.000000 0 0 1
8.791933 -28.012449 30.752934 42.517506 -1.266675 0.762226 0.088623 -0.026039 209125.000000 0 0 1
8.249833 -27.885949 32.060814 43.284890 -1.283159 0.736695 0.093049 -0.033149 62415.400000 0 0 1
6.690433 -27.858149 32.023406 42.969022 -1.335099 0.729861 0.091391 -0.038560 497536.000000 0 0 1
5.902833 -28.972949 31.671152 43.328248 -1.369811 0.751071 0.132511 -0.041750 62880.200000 0 0 1
6.085133 -29.577349 30.393164 42.843819 -1.367891 0.782158 0.126132 -0.035660 -513618.000000 0 0 1
5.577433 -28.753549 29.167604 41.335499 -1.379202 0.787483 0.120637 -0.040129 -1608220.000000 0 0 1
4.254833 -28.865549 28.883814 41.056038 -1.424448 0.790455 0.156811 -0.049186 -1344140.000000 0 0 1
3.835533 -28.169349 27.695814 39.689818 -1.435469 0.798466 0.163474 -0.043736 -9754.940000 0 0 1
2.364433 -28.333849 27.230314 39.368611 -1.487540 0.806990 0.147170 -0.049651 207192.000000 0 0 1
2.015833 -29.624449 26.768034 39.977484 -1.502855 0.837156 0.165516 -0.052236 129440.000000 0 0 1
1.901433 -30.636049 27.726404 41.363467 -1.508811 0.836168 0.202551 -0.057945 -830184.000000 0 0 1
2.228733 -32.023549 27.163834 42.051740 -1.501312 0.868513 0.217333 -0.053576 30486.800000 0 0 1
3.617733 -32.251549 27.028124 42.234700 -1.459091 0.876362 0.190521 -0.044994 238931.000000 0 0 1
4.215033 -31.872749 25.797334 41.220639 -1.439314 0.894594 0.185211 -0.056552 563847.000000 0 0 1
5.772133 -32.047749 25.864024 41.585135 -1.392596 0.899561 0.193986 -0.042915 1050550.000000 0 0 1
6.458333 -31.736549 24.637654 40.693152 -1.370039 0.920466 0.163596 -0.049362 419712.000000 0 0 1
7.865333 -31.707049 24.730884 40.973370 -1.327642 0.922807 0.127714 -0.045583 -61173.100000 0 0 1
8.630633 -31.341349 23.428204 40.070547 -1.302081 0.946318 0.107907 -0.029154 288106.000000 0 0 1
9.995433 -31.028949 23.671974 40.287302 -1.259160 0.942733 0.089029 -0.009102 534088.000000 0 0 1
10.702033 -30.972249 22.421974 39.705902 -1.238104 0.970725 0.086299 -0.022920 200908.000000 0 0 1
11.802933 -29.887949 22.285424 39.105484 -1.194689 0.964437 0.045358 -0.020496 -60571.900000 0 0 1
12.889233 -30.188149 23.127244 40.153781 -1.167264 0.957010 0.044689 -0.011919 -3042.280000 0 0 1
13.876533 -29.158949 23.014074 39.654131 -1.126620 0.951613 0.045630 -0.015690 85235.800000 0 0 1
15.163833 -29.343849 23.818584 40.722577 -1.093828 0.946041 0.064930 -0.013273 -502978.000000 0 0 1
14.965833 -29.326349 25.219824 41.473491 -1.098927 0.917138 0.051050 -0.011008 63071.800000 0 0 1
16.034733 -28.765949 25.940134 41.922345 -1.062274 0.903625 0.059360 -0.019845 -314808.000000 0 0 1
-11.473867 -13.617878 25.553034 31.145686 0.870638 0.608624 0.117457 -0.055813 -98449.500000 0 0 1
-10.116067 -13.743578 25.200354 30.434825 0.936278 0.595246 0.137085 -0.055196 -378914.000000 0 0 1
-9.439067 -14.202678 26.382164 31.413860 0.984227 0.573834 0.145304 -0.056105 62329.100000 0 0 1
-7.888367 -14.127178 26.299814 30.878531 1.061540 0.551540 0.157893 -0.045383 138620.000000 0 0 1
-7.412567 -15.092978 25.419444 30.477734 1.114272 0.584418 0.158850 -0.057954 -211855.000000 0 0 1
-7.412867 -14.710078 24.081084 29.175942 1.104009 0.599931 0.174309 -0.061345 -1055280.000000 0 0 1
-6.656067 -15.726578 23.223504 28.826370 1.170420 0.634051 0.185137 -0.066722 -211789.000000 0 0 1
-7.186067 -17.005378 22.888054 29.405534 1.170980 0.678749 0.201528 -0.068601 -273803.000000 0 0 1
-7.281267 -17.935378 24.011484 30.842276 1.185152 0.678484 0.201315 -0.070621 -370883.000000 0 0 1
-8.082267 -19.226378 23.911064 31.728782 1.172851 0.717262 0.200984 -0.063903 -831093.000000 0 0 1
-9.460467 -19.067778 23.845854 31.964126 1.110234 0.728732 0.173913 -0.056153 -1237250.000000 0 0 1
-10.031667 -20.304078 23.852034 32.890872 1.111903 0.759490 0.157288 -0.053939 -585361.000000 0 0 1
-11.548967 -20.302578 23.621974 33.220038 1.053602 0.779769 0.120475 -0.049038 -227752.000000 0 0 1
-12.267867 -19.847578 24.740524 34.007652 1.017171 0.756127 0.122100 -0.047468 -370430.000000 0 0 1
-13.648667 -20.040478 24.586334 34.531068 0.972899 0.778445 0.094258 -0.031021 -428764.000000 0 0 1
-14.458367 -20.233178 25.862364 35.878792 0.950347 0.765803 0.079942 -0.032466 -567058.000000 0 0 1
-14.317467 -21.390878 26.649514 37.050723 0.980955 0.768044 0.076434 -0.026905 199232.000000 0 0 1
-13.262967 -21.438378 27.603924 37.382977 1.016772 0.740088 0.108684 -0.032809 313990.000000 0 0 1
-12.884167 -22.829578 28.178154 38.486358 1.056993 0.749309 0.130589 -0.035052 76423.900000 0 0 1
-13.839367 -23.217178 29.135124 39.741928 1.033262 0.747916 0.079071 -0.020875 203041.000000 0 0 1
-13.448267 -24.474678 29.671574 40.746387 1.068355 0.755102 0.100480 -0.017195 63290.800000 0 0 1
-14.511967 -25.036668 30.614724 42.127108 1.045491 0.757258 0.088009 -0.030540 47178.900000 0 0 1
-14.573767 -24.282278 31.833787 42.607672 1.030244 0.727051 0.126198 -0.034025 -386219.000000 0 0 1
-15.726767 -24.603178 32.559744 43.735392 1.002039 0.731054 0.100114 -0.030133 -312951.000000 0 0 1
-15.810167 -24.019178 -33.394473 44.068958 0.988657 2.430697 0.100541 -0.031738 -27928.200000 0 0 1
-15.907967 -22.610178 -33.132633 43.151534 0.957675 2.446229 0.114702 -0.035021 105659.000000 0 0 1
-17.012267 -21.962278 33.631114 43.621218 0.911728 0.690417 0.080307 -0.034374 -254897.000000 0 0 1
-17.149367 -20.455778 -33.343153 42.711889 0.873097 2.466506 0.075352 -0.034619 -5199.440000 0 0 1
-17.543967 -20.202678 -32.011663 41.721524 0.855718 2.445369 0.077436 -0.029592 145580.000000 0 0 1
-17.619167 -18.828078 -31.705693 40.867867 0.818555 2.458794 0.062617 -0.027468 -128997.000000 0 0 1
-17.411267 -18.593578 -30.205473 39.512580 0.818224 2.440987 0.058735 -0.020239 649923.000000 0 0 1
-18.539567 -18.977478 -29.372813 39.580580 0.797070 2.406997 0.064724 -0.019003 747288.000000 0 0 1
-18.342767 -18.904178 -27.953823 38.408869 0.800470 2.385899 0.059340 -0.016435 81166.800000 0 0 1
-17.388867 -19.972178 -27.319553 38.047583 0.854433 2.371773 0.052830 -0.013539 145299.000000 0 0 1
-16.024967 -19.860778 -27.638313 37.618166 0.891883 2.396030 0.048822 -0.017578 -145514.000000 0 0 1
-15.276267 -20.994178 -27.202793 37.604678 0.941758 2.379494 0.038684 -0.018800 -544636.000000 0 0 1
-13.793167 -20.900878 -27.490923 37.186678 0.987470 2.402779 0.155781 -0.027053 -1000030.000000 0 0 1
-13.214467 -19.988478 -26.560843 35.772053 0.986655 2.407595 0.162767 -0.036697 1209220.000000 0 0 1
-11.768467 -19.939278 -26.676013 35.322532 1.037603 2.426774 0.149667 -0.050959 1535720.000000 0 0 1
-10.952667 -20.923478 -25.794913 34.973281 1.088555 2.400247 0.193621 -0.063439 -465705.000000 0 0 1
-11.188867 -22.294978 -26.114093 36.113746 1.105665 2.379086 0.191390 -0.058745 167924.000000 0 0 1
-10.506567 -23.155778 -25.212183 35.808269 1.144841 2.351935 0.235991 -0.061488 44604.600000 0 0 1
-10.663067 -24.656778 -25.483553 37.027951 1.162624 2.329836 0.216708 -0.057638 -90497.100000 0 0 1
-9.712767 -25.154808 -26.431673 37.758913 1.202313 2.346210 0.230771 -0.058454 302304.000000 0 0 1
-10.133867 -26.342028 -27.066423 39.104845 1.203546 2.335260 0.224679 -0.045999 -237376.000000 0 0 1
-10.194267 -27.695638 -26.278993 39.516540 1.218104 2.298307 0.249738 -0.044592 163736.000000 0 0 1
-11.194267 -27.860568 -25.273573 39.246354 1.188743 2.270476 0.188183 -0.050330 72676.300000 0 0 1
-10.942367 -29.103598 -24.597513 39.645838 1.211167 2.240089 0.179874 -0.057383 21458.700000 0 0 1
-11.823767 -29.209498 -23.327013 39.206450 1.186166 2.208036 0.177149 -0.059162 82312.600000 0 0 1
-11.537267 -28.173318 -22.368613 37.778290 1.182118 2.204461 0.179068 -0.065955 542286.000000 0 0 1
-12.281467 -26.930108 -22.687013 37.292971 1.142923 2.224771 0.158127 -0.055392 346420.000000 0 0 1
-12.101867 -25.884088 -21.616213 35.828785 1.133452 2.218454 0.180460 -0.063921 5522.900000 0 0 1
-12.766767 -26.160928 -20.412813 35.553726 1.116787 2.182350 0.116965 -0.048534 151913.000000 0 0 1
-12.668167 -24.963478 -19.675313 34.216599 1.101192 2.183428 0.109841 -0.043010 -105866.000000 0 0 1
-13.139267 -25.205858 -18.230413 33.768677 1.090271 2.141069 0.152943 -0.045507 -1152150.000000 0 0 1
-14.512067 -25.311368 -18.212213 34.394042 1.050209 2.128827 0.178524 -0.049064 -1162400.000000 0 0 1
-14.885667 -25.769988 -16.922613 34.235219 1.046983 2.087831 0.167919 -0.042764 883010.000000 0 0 1
-16.434067 -25.845888 -16.634213 34.853773 1.004434 2.068327 0.153938 -0.047451 337022.000000 0 0 1
-17.161967 -24.643778 -16.794813 34.408061 0.962489 2.080716 0.130977 -0.034980 207790.000000 0 0 1
-18.493767 -24.774678 -16.341413 34.969213 0.929553 2.057040 0.133447 -0.033806 -468976.000000 0 0 1
-19.573267 -25.395928 -17.161813 36.367482 0.914163 2.062241 0.135816 -0.037760 -1439730.000000 0 0 1
-19.530067 -26.761438 -17.384513 37.414160 0.940360 2.054036 0.111924 -0.035249 -137495.000000 0 0 1
-19.885967 -27.636598 -16.320213 37.756888 0.947068 2.017777 0.114723 -0.042272 -377917.000000 0 0 1
-21.391067 -27.989078 -16.330413 38.828451 0.918228 2.004879 0.118140 -0.042170 153927.000000 0 0 1
-21.731667 -29.055148 -17.232413 40.167437 0.928611 2.014198 0.101219 -0.034091 321426.000000 0 0 1
-23.080067 -29.465858 -16.989513 41.104377 0.906333 1.996900 0.094415 -0.033481 370341.000000 0 0 1
-23.593967 -30.375228 -18.069913 42.495312 0.910394 2.010003 0.076146 -0.036157 -145660.000000 0 0 1
-23.002467 -31.704068 -18.183513 43.184506 0.943136 2.005416 0.065369 -0.034285 54644.400000 0 0 1
-23.478167 -32.593268 -19.179313 44.512824 0.946551 2.016255 0.067914 -0.008820 -314569.000000 0 0 1
-22.774467 33.649153 -19.034013 44.869093 -0.975796 2.008888 0.043960 -0.013320 -494528.000000 0 0 1
-23.527267 32.681480 -18.387013 44.268427 -0.946842 1.999127 0.060868 -0.015081 259857.000000 0 0 1
-22.610567 31.682772 -17.905413 42.844365 -0.950965 2.001948 0.059841 -0.020462 441806.000000 0 0 1
-23.292667 30.327003 -17.587513 42.090332 -0.915843 2.001876 0.084194 -0.028589 365558.000000 0 0 1
-24.276967 30.304863 -16.561013 42.214015 -0.895390 1.973939 0.075378 -0.036604 16875.400000 0 0 1
-24.828267 29.059443 -16.189513 41.508968 -0.863756 1.971454 0.077219 -0.026546 67861.400000 0 0 1
-23.905267 27.844083 -15.802713 39.955982 -0.861365 1.977412 0.081059 -0.028559 -15738.300000 0 0 1
-23.245867 27.292733 -16.919213 39.642444 -0.865302 2.011743 0.056620 -0.015053 34084.500000 0 0 1
-22.545067 26.095343 -16.563213 38.256856 -0.858259 2.018556 0.070360 -0.021433 229741.000000 0 0 1
-21.947367 25.454303 -17.871813 38.065866 -0.859247 2.059517 0.051465 -0.004241 -752050.000000 0 0 1
-21.703867 24.051733 -17.778013 36.954045 -0.836666 2.072688 0.076050 -0.020565 373854.000000 0 0 1
-20.924667 23.488853 -18.850913 36.673217 -0.843069 2.110666 0.068960 -0.006995 -240546.000000 0 0 1
-19.510367 24.004793 -19.069313 36.339004 -0.888317 2.123231 0.058341 -0.012694 -1424890.000000 0 0 1
-18.661467 23.587013 -18.008313 35.055626 -0.901459 2.110296 0.076148 -0.023962 672323.000000 0 0 1
-17.435967 24.327543 -17.920013 34.885085 -0.948939 2.110273 0.094399 -0.038521 136968.000000 0 0 1
-17.461267 25.668843 -17.118513 35.451782 -0.973448 2.074723 0.117142 -0.044698 -431667.000000 0 0 1
-18.385967 26.663753 -17.496413 36.812009 -0.967119 2.066091 0.081968 -0.033302 -64721.100000 0 0 1
-18.044267 27.840103 -16.793813 37.184662 -0.995730 2.039391 0.100947 -0.047004 -561632.000000 0 0 1
-19.054967 28.997843 -16.900213 38.595128 -0.989434 2.024041 0.079071 -0.031345 -86244.900000 0 0 1
-19.265767 29.533853 -18.168413 39.667487 -0.992786 2.046560 0.066192 -0.029840 374325.000000 0 0 1
-19.991367 28.660623 -19.044113 39.796537 -0.961737 2.069784 0.043784 -0.019923 -444843.000000 0 0 1
-20.267767 29.130683 -20.534013 41.000302 -0.962926 2.095349 0.044858 -0.023464 276169.000000 0 0 1
-20.999767 30.361443 -20.695313 42.321430 -0.965690 2.081743 0.052739 -0.017905 333152.000000 0 0 1
-21.469467 30.397263 -22.034613 43.248766 -0.955857 2.105383 0.054494 -0.016284 -129116.000000 0 0 1
-21.850867 31.767981 -22.588113 44.686551 -0.968287 2.100733 0.067963 -0.018986 514877.000000 0 0 1
-20.803567 32.749853 -22.698113 44.950480 -1.004877 2.100130 0.058321 -0.013392 768835.000000 0 0 1
-21.327167 -33.725238 -23.475313 46.296113 1.006908 2.102577 0.070160 -0.011051 221617.000000 0 0 1
-20.342867 -32.550918 -23.417613 44.964198 1.012229 2.118591 0.084467 -0.010455 25339.500000 0 0 1
-20.342767 -31.696768 -22.254313 43.746631 1.000212 2.104481 0.068579 -0.016040 103506.000000 0 0 1
-19.846267 -32.250658 -21.041213 43.321033 1.019148 2.077965 0.071940 -0.026476 -256791.000000 0 0 1
-19.639467 -31.256708 -19.846313 41.911414 1.009807 2.064091 0.093084 -0.036895 -226410.000000 0 0 1
-18.483767 -30.488058 -20.051113 40.904993 1.025785 2.083101 0.094032 -0.038197 -84198.900000 0 0 1
-18.271567 -29.523278 -19.028513 39.592403 1.016605 2.072147 0.093798 -0.040706 386495.000000 0 0 1
-17.038867 -28.574768 -19.261013 38.442515 1.033109 2.095590 0.108711 -0.040239 889276.000000 0 0 1
-15.850167 -29.316328 -19.455613 38.590099 1.075152 2.099206 0.116709 -0.045434 -492660.000000 0 0 1
-14.744767 -28.548438 -19.791513 37.737587 1.094050 2.122866 0.116119 -0.054022 -1179590.000000 0 0 1
-13.465767 -29.339628 -20.103713 38.030250 1.140515 2.127775 0.206924 -0.070231 -9588.330000 0 0 1
-12.710067 -30.004248 -19.096313 37.768636 1.170105 2.100889 0.208630 -0.067625 187677.000000 0 0 1
-12.107567 -29.038438 -18.254913 36.373973 1.175764 2.096553 0.163112 -0.062724 -738230.000000 0 0 1
-11.238467 -29.704878 -17.141413 36.090317 1.209103 2.065714 0.173934 -0.040971 274671.000000 0 0 1
-11.936067 -30.319738 -16.039113 36.318168 1.195756 2.028209 0.194202 -0.049839 24649.500000 0 0 1
-12.472767 -31.585508 -16.290213 37.664111 1.194704 2.018074 0.201586 -0.047664 -236914.000000 0 0 1
-13.422067 -32.005778 -15.148013 37.867981 1.173709 1.982337 0.186687 -0.056083 36216.200000 0 0 1
-12.781467 -32.267478 -13.897113 37.385636 1.193648 1.951661 0.168543 -0.046002 812777.000000 0 0 1
-13.810567 -32.609068 -12.963313 37.711146 1.170181 1.921707 0.164530 -0.038910 759929.000000 0 0 1
-13.166667 -33.164598 -11.651013 37.536619 1.192870 1.886400 0.135871 -0.033311 136494.000000 0 0 1
-12.301367 -32.307738 -10.968413 36.268714 1.206989 1.878028 0.119440 -0.029417 86137.000000 0 0 1
-11.843267 -32.907148 -9.734213 36.302869 1.225330 1.842257 0.125362 -0.037198 -721588.000000 0 0 1
-10.482567 -32.407298 -9.286213 35.303696 1.257955 1.836966 0.120911 -0.045819 154180.000000 0 0 1
-9.381867 -33.070148 -9.976913 35.793755 1.294364 1.853271 0.087971 -0.036774 398418.000000 0 0 1
-8.201367 -32.439168 -9.570413 34.801650 1.323163 1.849385 0.081164 -0.045557 -1528810.000000 0 0 1
-6.892467 -32.890498 -10.069013 35.080992 1.364227 1.861913 0.090174 -0.047781 -1146020.000000 0 0 1
-6.303767 33.609473 -9.341113 35.448421 -1.385391 1.837458 0.073750 -0.023716 457748.000000 0 0 1
-4.976867 33.353286 -9.810613 35.120636 -1.422673 1.853903 0.087812 -0.026850 807072.000000 0 0 1
-4.230467 32.163773 -9.061613 33.682607 -1.440018 1.843181 0.087320 -0.030838 301575.000000 0 0 1
-3.523967 32.618822 -7.943913 33.756653 -1.463179 1.808353 0.110535 -0.032140 -259053.000000 0 0 1
-2.843667 31.625396 -7.231313 32.565995 -1.481120 1.794714 0.103856 -0.047640 30126.500000 0 0 1
-2.389967 32.168901 -5.888813 32.790674 -1.496638 1.751364 0.118852 -0.042996 -43256.200000 0 0 1
-1.492567 33.290109 -5.943513 33.849438 -1.525991 1.747298 0.101658 -0.038462 284252.000000 0 0 1
-1.054667 33.696323 -4.681613 34.036334 -1.539507 1.708781 0.106766 -0.039852 608125.000000 0 0 1
0.040333 32.851709 -3.917913 33.084535 1.569569 1.689496 0.107582 -0.044279 898211.000000 0 0 1
1.347833 32.802245 -4.530913 33.141109 1.529730 1.707942 0.107882 -0.043736 1107120.000000 0 0 1
2.252533 32.218231 -3.564013 32.492930 1.500995 1.680703 0.096295 -0.036887 1619460.000000 0 0 1
3.768333 32.189060 -4.030513 32.658551 1.454258 1.694525 0.081843 -0.030995 1406540.000000 0 0 1
4.457833 33.433182 -3.808613 33.943416 1.438243 1.683238 0.073421 -0.031942 61316.500000 0 0 1
5.863933 33.335769 -3.901013 34.071647 1.396673 1.685542 0.073415 -0.025690 627069.000000 0 0 1
6.617033 -32.941748 -3.374613 33.768801 -1.372564 1.670896 0.081832 -0.025263 178984.000000 0 0 1
6.436333 -31.826128 -4.243513 32.746545 -1.371253 1.700748 0.080907 -0.030159 -145215.000000 0 0 1
7.214933 -30.729588 -3.867213 31.801229 -1.340185 1.692704 0.064673 -0.033892 -281662.000000 0 0 1
6.898933 -29.525478 -4.782213 30.695581 -1.341254 1.727228 0.071325 -0.037696 239162.000000 0 0 1
7.657233 -29.373208 -6.002713 30.942707 -1.315784 1.766029 0.086751 -0.038775 110255.000000 0 0 1
7.221433 -28.202808 -6.740013 29.882691 -1.320128 1.798303 0.073040 -0.032156 287879.000000 0 0 1
7.459433 -26.755708 -6.209813 28.461778 -1.298903 1.790746 0.069708 -0.029163 474248.000000 0 0 1
6.650333 -26.467608 -5.069813 27.757237 -1.324629 1.754476 0.064244 -0.031510 -315325.000000 0 0 1
7.211933 -25.465608 -4.285113 26.811776 -1.294820 1.731307 0.054472 -0.031000 188557.000000 0 0 1
6.224633 -24.887578 -3.225213 25.856133 -1.325714 1.695859 0.058226 -0.029018 63230.900000 0 0 1
5.118033 -24.234378 -3.775313 25.054986 -1.362666 1.722054 0.044776 -0.027471 -461501.000000 0 0 1
4.234633 -23.667078 -2.814913 24.207157 -1.393745 1.687344 0.050816 -0.025222 192952.000000 0 1 0
3.049533 -23.042178 -3.568413 23.515424 -1.439215 1.723133 0.060969 -0.028737 -77295.500000 0 1 0
2.161033 -23.974778 -4.146413 24.426477 -1.480902 1.741373 0.074158 -0.035020 -117512.000000 0 1 0
1.037933 -23.304478 -4.692013 23.794768 -1.526288 1.769284 0.075498 -0.035665 284853.000000 0 1 0
-15.940767 23.098722 17.962554 33.321350 -0.966736 1.001463 0.026820 -0.020038 -154371.000000 0 0 1
-16.254767 22.491822 19.213654 33.752985 -0.944999 0.965211 0.055723 -0.016794 321913.000000 0 0 1
-16.025367 23.432222 20.271554 34.882909 -0.970956 0.950678 0.066685 -0.019911 -937167.000000 0 0 1
-15.945367 22.757422 21.628954 35.213160 -0.959623 0.909387 0.081680 -0.020185 170509.000000 0 0 1
-14.875867 21.859722 21.973454 34.379813 -0.973268 0.877419 0.074256 -0.016016 1811830.000000 0 0 1
-13.494567 22.266222 21.791654 33.952381 -1.025936 0.873914 0.062036 -0.026686 1096050.000000 0 0 1
-12.915567 23.409122 22.711754 35.080231 -1.066624 0.866598 0.092776 -0.019044 -285874.000000 0 0 1
-12.474567 22.878422 23.997364 35.424716 -1.071604 0.826549 0.088750 -0.017782 153165.000000 0 0 1
-12.212467 23.913722 24.905884 36.623947 -1.098634 0.822974 0.108936 -0.023694 20798.900000 0 0 1
-11.595667 23.378622 26.206544 36.983813 -1.110358 0.783291 0.105031 -0.022856 -45319.000000 0 0 1
-10.224767 23.064922 26.165104 36.347615 -1.153525 0.767199 0.062833 -0.016224 -449020.000000 0 0 1
-9.877767 22.246522 27.236414 36.528075 -1.152931 0.729317 0.050827 -0.015410 441734.000000 0 0 1
-8.317567 22.049322 27.297244 36.062363 -1.210076 0.712170 0.052433 -0.026619 1090490.000000 0 0 1
-7.575767 23.133422 27.856314 36.993536 -1.254322 0.718179 0.042659 -0.024979 118903.000000 0 0 1
-7.437267 24.296622 27.014244 37.086495 -1.273750 0.754795 0.044733 -0.018110 -852416.000000 0 0 1
-6.489467 25.383722 27.572354 38.035263 -1.320503 0.759885 0.051420 -0.023793 728946.000000 0 0 1
-5.150967 24.862122 27.507174 37.433971 -1.366505 0.745397 0.069114 -0.024796 219874.000000 0 0 1
-4.201467 25.666722 28.183014 38.349905 -1.408542 0.745290 0.095632 -0.017818 -1676.960000 0 0 1
-2.804667 25.043822 28.046174 37.704735 -1.459271 0.732003 0.102859 -0.034127 -518221.000000 0 0 1
-2.241167 25.097422 26.757154 36.753894 -1.481734 0.755383 0.104753 -0.025256 -273945.000000 0 0 1
-0.856367 24.862522 26.776964 36.549749 -1.536366 0.748638 0.111521 -0.019862 129941.000000 0 0 1
-0.237267 24.764822 25.376884 35.458975 -1.561216 0.773215 0.108483 -0.021820 157388.000000 0 0 1
-0.565067 23.501822 24.833344 34.195758 -1.546757 0.758002 0.106063 -0.012461 113790.000000 0 0 1
0.040333 23.337622 23.553054 33.157089 1.569068 0.780805 0.098638 -0.003452 151251.000000 0 0 1
-0.335667 21.975522 22.932914 31.764048 -1.555523 0.764141 0.080697 -0.007125 203129.000000 0 0 1
0.348133 20.865222 23.498624 31.427122 1.554113 0.726178 0.088785 -0.001214 -170074.000000 0 0 1
0.075033 19.724622 22.809914 30.155572 1.566992 0.712992 0.079034 0.002794 -129269.000000 0 0 1
1.178633 18.653522 22.982524 29.623292 1.507695 0.682773 0.081013 0.001289 -437946.000000 0 0 1
2.255433 18.922722 22.142454 29.213775 1.452164 0.710638 0.074577 0.003995 -693143.000000 0 0 1
2.949733 17.682822 21.958854 28.347387 1.405505 0.684660 0.058034 0.003533 -781371.000000 0 0 1
4.274033 17.840822 21.234154 28.061567 1.335663 0.712548 0.054271 0.000402 -746172.000000 0 0 1
5.128833 18.593422 22.039954 29.287878 1.301648 0.718904 0.049484 0.006037 -1035710.000000 0 0 1
6.335033 18.935422 21.422754 29.285102 1.247942 0.750242 0.066099 -0.012906 -619394.000000 0 0 1
7.310233 19.507422 22.461204 30.634697 1.212253 0.747788 0.086760 -0.016106 -427166.000000 0 0 1
6.759033 20.557922 23.249904 31.762725 1.253149 0.749562 0.075275 -0.011415 58534.700000 0 0 1
6.741533 21.814122 22.576554 32.109266 1.271063 0.791026 0.093200 -0.024375 435046.000000 0 0 1
5.588633 22.798322 23.006344 32.867737 1.330403 0.795445 0.064692 -0.011886 337023.000000 0 0 1
5.584133 23.974122 22.276074 33.198863 1.341953 0.835254 0.068374 -0.031132 -457002.000000 0 0 1
4.486433 24.737022 22.613644 33.814571 1.391381 0.838264 0.055341 -0.011666 -817279.000000 0 0 1
4.438033 26.015422 21.759954 34.205174 1.401830 0.881286 0.057684 -0.010335 -214144.000000 0 0 1
4.178933 26.020422 20.365454 33.305818 1.411554 0.912881 0.067084 -0.016357 795434.000000 0 0 1
2.920633 25.403022 20.010254 32.469276 1.456327 0.906783 0.083548 -0.022762 451923.000000 0 0 1
2.384633 25.803522 18.638754 31.920391 1.478643 0.947255 0.088472 -0.034546 -397704.000000 0 0 1
2.132633 27.218322 18.560454 33.013264 1.492603 0.973738 0.138149 -0.046274 469872.000000 0 0 1
1.480733 27.572022 17.327854 32.598520 1.517144 1.010363 0.146892 -0.040916 -56989.400000 0 0 1
0.867933 28.957522 17.232754 33.708444 1.540833 1.034181 0.164576 -0.034937 -489160.000000 0 0 1
1.687333 30.058422 17.376054 34.760366 1.514720 1.047335 0.192696 -0.039872 -267880.000000 0 0 1
0.865533 31.198222 17.411154 35.738305 1.543060 1.061933 0.170855 -0.042007 -264467.000000 0 0 1
1.505633 32.393022 18.066554 37.121088 1.524350 1.062497 0.190570 -0.033302 -536444.000000 0 0 1
1.704433 32.082622 19.415154 37.538619 1.517720 1.027215 0.216423 -0.042748 133031.000000 0 0 1
2.160333 33.148122 20.250554 38.904369 1.505716 1.023335 0.228041 -0.036807 -457967.000000 0 0 1
2.273633 32.938722 21.761454 39.543516 1.501880 0.988053 0.211623 -0.058464 -31147.400000 0 0 1
1.052833 32.734922 22.454714 39.710172 1.538645 0.969799 0.203122 -0.043670 98083.000000 0 0 1
1.316933 32.491222 23.780564 40.285593 1.530287 0.939367 0.207989 -0.045654 280830.000000 0 0 1
0.045233 32.459022 24.685154 40.779247 1.569403 0.920608 0.190488 -0.028657 590961.000000 0 0 1
-0.675167 33.726822 24.778974 41.856325 -1.550780 0.937257 0.197565 -0.021157 164704.000000 0 0 1
-1.593767 -33.645949 25.799374 42.428737 1.523463 0.917177 0.188627 -0.015889 -308496.000000 0 0 1
-1.053867 33.743622 27.283284 43.406454 -1.539575 0.891104 0.192563 -0.036344 -556732.000000 0 0 1
-0.421467 32.546622 27.634154 42.697853 -1.557847 0.866887 0.202294 -0.047025 103474.000000 0 0 1
-0.149167 32.466822 29.023144 43.548360 -1.566202 0.841349 0.198270 -0.049944 -472367.000000 0 0 1
0.985633 31.465122 29.362834 43.048825 1.539482 0.820190 0.168396 -0.045421 471216.000000 0 0 1
2.334633 31.865022 29.147804 43.248406 1.497661 0.831237 0.156710 -0.043471 509548.000000 0 0 1
2.742233 31.802122 27.787584 42.320735 1.484781 0.854501 0.154374 -0.045123 -589261.000000 0 0 1
4.280233 31.896922 27.627294 42.414636 1.437404 0.861418 0.113710 -0.035376 430179.000000 0 0 1
4.841933 30.629722 28.119214 41.860654 1.414014 0.834250 0.100033 -0.037540 1517910.000000 0 0 1
6.257833 30.476822 27.824604 41.739738 1.368280 0.841129 0.093578 -0.046108 1294840.000000 0 0 1
6.966133 29.272622 28.470944 41.424727 1.337168 0.813040 0.093529 -0.023896 53283.000000 0 0 1
6.936633 29.294722 29.883864 42.418662 1.338291 0.789081 0.121019 -0.038338 7664.780000 0 0 1
7.700233 28.222422 30.347454 42.151710 1.304438 0.767055 0.092059 -0.036377 -223793.000000 0 0 1
7.717933 28.157822 31.901067 43.244739 1.303271 0.741159 0.137857 -0.042924 1214350.000000 0 0 1
6.432733 27.762622 32.496186 43.222047 1.343109 0.719944 0.136184 -0.047603 923665.000000 0 0 1
6.244033 27.757322 -33.461463 43.921821 1.349529 2.436947 0.154657 -0.046321 -244272.000000 0 0 1
6.432933 26.358422 -32.871343 42.622461 1.331420 2.451554 0.141707 -0.039882 206708.000000 0 0 1
7.761333 25.867522 -32.905923 42.569552 1.279301 2.454340 0.129736 -0.041979 88019.300000 0 0 1
7.808633 24.637522 -32.213163 41.299759 1.263871 2.465437 0.139894 -0.046381 -129364.000000 0 0 1
9.202833 24.021322 -32.390583 41.362615 1.204934 2.470413 0.153251 -0.050447 -342422.000000 0 0 1
9.666833 23.742522 33.670824 42.318783 1.184139 0.650721 0.136940 -0.037076 461976.000000 0 0 1
10.928333 23.093322 33.563374 42.180920 1.128797 0.650633 0.141582 -0.050728 316481.000000 0 0 1
10.920633 21.596822 -33.469453 41.302387 1.102632 2.515548 0.149363 -0.055105 -834635.000000 0 0 1
10.432833 20.792422 32.836617 40.241921 1.105741 0.616373 0.142252 -0.056492 217221.000000 0 0 1
9.812233 19.574122 33.248483 39.810649 1.106120 0.582363 0.132936 -0.049281 1061470.000000 0 0 1
8.372333 19.677322 -33.504573 39.747319 1.168518 2.573519 0.155433 -0.055464 352004.000000 0 0 1
8.520333 20.186322 -32.171403 38.924065 1.171398 2.543688 0.172980 -0.057441 -110930.000000 0 0 1
7.271833 20.608422 -31.689463 38.494268 1.231578 2.537866 0.189938 -0.050376 -290552.000000 0 0 1
7.326133 21.106122 -30.235753 37.594432 1.236699 2.505228 0.188205 -0.058806 962545.000000 0 0 1
8.458133 21.991922 -29.991503 38.140200 1.203634 2.475673 0.185983 -0.051446 974312.000000 0 0 1
8.433333 22.486822 -28.637033 37.374562 1.211995 2.443730 0.152946 -0.041718 -319252.000000 0 0 1
9.845133 22.990222 -28.305723 37.771562 1.166192 2.417940 0.158008 -0.050436 128173.000000 0 0 1
10.749833 21.914222 -28.209503 37.303727 1.114744 2.428300 0.167472 -0.044411 163621.000000 0 0 1
12.113533 22.157022 -28.518763 38.091877 1.070480 2.416870 0.172355 -0.050544 646379.000000 0 0 1
13.017433 20.913022 -28.676053 37.803757 1.014029 2.431882 0.174275 -0.064499 -36826.000000 0 0 1
12.777333 20.012422 -29.772823 38.081206 1.002569 2.468383 0.178836 -0.060185 146945.000000 0 0 1
11.577233 19.250622 -29.796703 37.315710 1.029352 2.495600 0.186035 -0.059563 113384.000000 0 0 1
11.435233 18.288822 -30.962183 37.734630 1.012011 2.533124 0.178028 -0.066612 -387930.000000 0 0 1
12.167233 17.129422 -30.778503 37.266270 0.953183 2.542607 0.175092 -0.056825 -132577.000000 0 0 1
12.048033 16.340122 -31.952563 37.856584 0.935455 2.575573 0.163023 -0.055727 -925561.000000 0 0 1
13.374933 16.057922 -32.620713 38.740890 0.876303 2.571818 0.143766 -0.046281 -923347.000000 0 0 1
13.879533 17.287722 -32.998103 39.754013 0.894317 2.550006 0.149682 -0.058271 -506334.000000 0 0 1
14.470033 17.435822 33.123757 40.131945 0.878086 0.599937 0.148510 -0.058036 -274613.000000 0 0 1
13.731333 16.930522 31.866624 38.609245 0.889360 0.599952 0.143063 -0.055187 -740192.000000 0 0 1
14.213933 17.506322 30.660894 38.060447 0.888822 0.634136 0.132471 -0.053250 -462005.000000 0 0 1
13.568033 17.066922 29.499874 36.682610 0.899118 0.636481 0.132289 -0.045380 121579.000000 0 0 1
12.107433 17.553622 29.264794 36.209774 0.966990 0.629705 0.140985 -0.041262 137670.000000 0 0 1
11.189233 17.034022 30.187364 36.422984 0.989603 0.593837 0.118072 -0.039010 -155219.000000 0 0 1
9.919833 17.664322 30.062294 36.251522 1.059110 0.592996 0.110660 -0.039599 618687.000000 0 0 1
8.720033 16.894522 30.668234 36.083298 1.094316 0.554946 0.135986 -0.040846 220093.000000 0 0 1
8.738833 16.889522 32.062565 37.277757 1.093317 0.535332 0.153593 -0.042071 -140769.000000 0 0 1
8.214133 15.718322 32.644563 37.151112 1.089246 0.497671 0.177137 -0.048346 -124550.000000 0 0 1
8.044333 15.806622 -33.184713 37.626928 1.100037 2.650760 0.176001 -0.045255 643184.000000 0 0 1
6.886233 16.529422 -32.714493 37.294504 1.176058 2.640782 0.165221 -0.045215 710574.000000 0 0 1
6.790333 16.517222 -31.300233 36.036534 1.180752 2.623105 0.167555 -0.048840 -332317.000000 0 0 1
5.689033 17.402222 -30.742063 35.780956 1.254834 2.604449 0.152106 -0.044939 -826470.000000 0 0 1
5.747633 17.663622 -29.342163 34.727530 1.256208 2.577221 0.146768 -0.052435 229297.000000 0 0 1
4.855133 18.653622 -28.811923 34.664922 1.316168 2.551978 0.147104 -0.055361 1092570.000000 0 0 1
3.321333 18.333622 -28.784233 34.288263 1.391579 2.567118 0.161486 -0.051925 -158973.000000 0 0 1
2.907133 17.459322 -27.680003 32.855165 1.405801 2.572677 0.177240 -0.052802 782588.000000 0 0 1
1.545333 17.030522 -27.746993 32.593287 1.480305 2.589274 0.172813 -0.048579 1084150.000000 0 0 1
0.392433 18.076922 -27.631493 33.021637 1.549091 2.562152 0.172228 -0.054619 -474522.000000 0 0 1
0.119433 18.562522 -26.284903 32.178838 1.564362 2.526705 0.174545 -0.061545 172072.000000 0 0 1
-0.870967 19.581222 -26.300563 32.800952 -1.526346 2.501136 0.170195 -0.054519 -156200.000000 0 0 1
-1.259967 19.905422 -24.822813 31.843137 -1.507583 2.464718 0.159452 -0.064335 -275683.000000 0 0 1
-2.034367 18.959922 -24.161313 30.779641 -1.463907 2.473455 0.151263 -0.051039 -332093.000000 0 0 1
-2.389667 19.505722 -22.883313 30.163383 -1.448893 2.432028 0.146574 -0.052100 500331.000000 0 0 1
-3.668067 18.796422 -22.303513 29.397396 -1.378071 2.432096 0.128444 -0.038796 328897.000000 0 0 1
-4.872867 19.353722 -22.780913 30.286653 -1.324144 2.422155 0.133310 -0.031535 -333332.000000 0 0 1
-5.923267 18.580322 -22.209913 29.556618 -1.262189 2.421032 0.122754 -0.041623 935656.000000 0 0 1
-7.349767 19.240122 -22.374813 30.411077 -1.205901 2.397563 0.158491 -0.035871 792440.000000 0 0 1
-7.718867 20.178622 -21.405413 30.412980 -1.205443 2.351564 0.111095 -0.025580 56976.600000 0 0 1
-7.170267 21.506022 -21.586613 31.303411 -1.248979 2.331723 0.118660 -0.031437 12209.200000 0 0 1
-7.539067 22.358222 -20.411913 31.198939 -1.245575 2.283987 0.126258 -0.034178 -92141.600000 0 0 1
-6.776267 22.227522 -19.238613 30.167942 -1.274887 2.262327 0.149196 -0.035995 -49021.900000 0 0 1
-7.191267 23.176422 -18.253513 30.365302 -1.269932 2.215711 0.150423 -0.037678 156834.000000 0 0 1
-6.298267 23.124622 -16.977313 29.370827 -1.304884 2.187113 0.152688 -0.039133 1096860.000000 0 0 1
-4.945767 23.563722 -17.206913 29.593706 -1.363910 2.191292 0.149731 -0.044051 672629.000000 0 0 1
-4.288967 23.673722 -15.917513 28.848008 -1.391570 2.155283 0.131680 -0.042689 -115191.000000 0 0 1
-2.790567 23.975722 -16.074713 29.000326 -1.454926 2.158311 0.120685 -0.044127 -114543.000000 0 0 1
-2.432567 25.349522 -16.242513 30.204881 -1.475128 2.138556 0.100411 -0.046525 -310408.000000 0 0 1
-1.418667 25.438122 -17.209713 30.745485 -1.515085 2.164878 0.099720 -0.043672 -165813.000000 0 0 1
-0.994467 26.888322 -17.441213 32.065039 -1.533828 2.145913 0.088473 -0.054129 399817.000000 0 0 1
-2.029567 27.760622 -17.947513 33.119246 -1.497817 2.143499 0.096906 -0.052724 452532.000000 0 0 1
-1.505967 28.875122 -18.646913 34.405638 -1.518689 2.143579 0.107177 -0.051831 -279363.000000 0 0 1
-2.538667 29.602822 -19.581513 35.583810 -1.485248 2.153511 0.150721 -0.048558 1020890.000000 0 0 1
-3.489867 30.549722 -19.041413 36.166837 -1.457054 2.125261 0.142039 -0.051563 709164.000000 0 0 1
-4.475167 29.970722 -18.185413 35.340919 -1.422573 2.111304 0.100990 -0.051642 -229368.000000 0 0 1
-5.140667 31.046422 -17.294113 35.908120 -1.406705 2.073300 0.141392 -0.043780 -65230.700000 0 0 1
-5.754667 32.035822 -18.029213 37.208367 -1.393060 2.076642 0.191059 -0.058141 -433965.000000 0 0 1
-6.183567 33.041022 -17.153013 37.738197 -1.385788 2.042637 0.188524 -0.067695 -467185.000000 0 0 1
-6.916367 -33.398649 -17.828213 38.485726 1.366597 2.052446 0.181726 -0.062026 -1080370.000000 0 0 1
-8.216267 -33.710449 -18.176513 39.169976 1.331727 2.053349 0.182041 -0.069541 -372344.000000 0 0 1
-8.982067 -32.578649 -18.667713 38.607375 1.301776 2.075476 0.223038 -0.075148 597905.000000 0 0 1
28.658133 -20.139978 -26.991543 44.220478 -0.612580 2.227344 0.102907 -0.015412 253720.000000 0 0 1
29.215833 -21.208178 -26.268733 44.647486 -0.627907 2.199824 0.093622 -0.020728 604025.000000 0 0 1
28.109533 -21.858078 -25.636983 43.876831 -0.660935 2.194807 0.065905 -0.020997 549520.000000 0 0 1
28.585433 -23.113778 -24.869013 44.382896 -0.679954 2.165579 0.080994 -0.014212 278791.000000 0 0 1
29.143033 -24.204778 -25.613353 45.729984 -0.693094 2.165303 0.080854 -0.001761 -938591.000000 0 0 1
30.496333 -24.216078 -25.884113 46.759299 -0.671112 2.157430 0.098407 -0.010760 -872746.000000 0 0 1
30.902833 -25.525158 -26.631513 48.122305 -0.690384 2.157253 0.105650 -0.016805 -112927.000000 0 0 1
30.836933 -26.640128 -25.774013 48.217347 -0.712510 2.134758 0.125930 -0.019526 -167901.000000 0 0 1
30.914033 -27.973388 -26.315643 49.302139 -0.735503 2.133840 0.121604 -0.019941 985364.000000 0 0 1
29.545133 -28.438978 -26.970743 49.082699 -0.766324 2.152557 0.109444 -0.021962 821428.000000 0 0 1
29.237533 -27.956368 -28.307813 49.373314 -0.763002 2.181376 0.082645 -0.025100 169908.000000 0 0 1
30.094533 -28.330088 -29.395573 50.718581 -0.755207 2.189012 0.062109 -0.022825 -245095.000000 0 0 1
30.365033 -29.810208 -29.795093 51.946427 -0.776178 2.181658 0.075092 -0.013898 -225663.000000 0 0 1
31.152933 -30.650798 -28.957383 52.426202 -0.777274 2.155972 0.082237 -0.013321 902452.000000 0 0 1
32.520833 -30.351808 -28.643583 52.908332 -0.750913 2.142875 0.090098 -0.014873 1460500.000000 0 0 1
33.563133 -30.038398 -29.793293 54.003977 -0.730036 2.155182 0.089836 -0.023550 34975.800000 0 0 1
33.305033 -28.811258 -30.381853 53.501129 -0.713179 2.174716 0.086384 -0.026749 158861.000000 0 0 1
34.362833 -28.481428 -31.276643 54.499765 -0.692083 2.182039 0.080308 -0.023907 341319.000000 0 0 1
34.040733 -27.105338 -31.869343 53.936313 -0.672457 2.202933 0.070250 -0.016683 378186.000000 0 0 1
34.344233 -26.005808 -31.008473 53.078750 -0.648100 2.194687 0.083142 -0.011792 -6975.910000 0 0 1
33.252833 -25.715588 -30.173553 51.744426 -0.658269 2.193368 0.083279 -0.015332 -140206.000000 0 0 1
33.606633 -24.409378 -29.441133 50.911725 -0.628177 2.187413 0.079456 -0.014403 -80394.800000 0 0 1
34.458833 -24.350278 -28.333463 50.824525 -0.615174 2.162139 0.093811 -0.022635 -5139.570000 0 0 1
34.366033 -23.069578 -27.775733 49.846975 -0.591197 2.161830 0.092575 -0.023560 864679.000000 0 0 1
35.540733 -22.669078 -26.772553 49.937965 -0.567775 2.136626 0.111520 -0.022139 631765.000000 0 0 1
35.334733 -23.384278 -25.559153 49.483715 -0.584621 2.113574 0.098193 -0.023725 479382.000000 0 0 1
34.296533 -22.991978 -24.658713 48.092986 -0.590574 2.109158 0.116022 -0.015429 82210.900000 0 0 1
34.527033 -21.683878 -23.927213 47.273862 -0.560772 2.101500 0.128977 -0.021028 -205784.000000 0 0 1
34.379533 -20.574878 -24.722013 47.079250 -0.539289 2.123646 0.133868 -0.025012 60246.100000 0 0 1
34.257033 -19.322878 -24.017813 46.084414 -0.513571 2.119018 0.109528 -0.028637 -128065.000000 0 0 1
34.011233 -18.048178 -24.887113 45.846146 -0.487869 2.144611 0.095311 -0.033582 119582.000000 0 0 1
32.736433 -17.883378 -25.482603 45.175793 -0.499985 2.170111 0.116547 -0.023218 -3897.930000 0 0 1
32.767233 -16.876978 -26.459673 45.372218 -0.475620 2.193421 0.132447 -0.018746 -457119.000000 0 0 1
31.597033 -16.838278 -27.436933 45.107487 -0.489625 2.224659 0.096946 -0.006199 -1117170.000000 0 0 1
30.410333 -16.544678 -26.794893 43.777631 -0.498262 2.229469 0.082516 -0.005650 -503226.000000 0 0 1
29.360133 -16.330978 -27.732193 43.563663 -0.507614 2.260865 0.035423 -0.006070 279756.000000 0 0 1
28.038333 -15.849178 -27.079153 42.078796 -0.514490 2.269903 -0.005869 0.001688 132522.000000 0 0 1
27.383933 -16.922878 -26.438383 41.656352 -0.553539 2.258388 0.037283 0.009121 -16278.400000 0 0 1
27.319433 -16.652278 -25.072613 40.648317 -0.547404 2.235490 0.051418 0.001126 -244102.000000 0 0 1
26.691133 -17.756178 -24.218913 40.177782 -0.587019 2.217794 0.059684 0.003475 -246802.000000 0 0 1
26.624133 -17.397978 -22.845413 39.159251 -0.578808 2.193702 0.064827 -0.002880 -176589.000000 0 0 1
26.142233 -18.483378 -22.055313 38.877865 -0.615429 2.174017 0.084852 -0.007054 40240.500000 0 0 1
26.086333 -17.998578 -20.594113 37.796336 -0.603957 2.147031 0.087760 -0.013965 422868.000000 0 0 1
25.112833 -16.965878 -20.308613 36.481984 -0.594152 2.161174 0.083228 -0.017495 441551.000000 0 0 1
25.329933 -15.688478 -20.959213 36.428319 -0.554537 2.183834 0.075740 -0.017072 -23259.700000 0 0 1
26.619233 -14.840878 -20.729513 36.858485 -0.508602 2.168092 0.078927 -0.015990 323485.000000 0 0 1
26.659233 -14.097678 -19.497113 35.910954 -0.486429 2.144718 0.093990 -0.025766 128692.000000 0 0 1
27.817633 -13.306878 -19.449513 36.457883 -0.446187 2.133505 0.079216 -0.018098 -361865.000000 0 0 1
27.804133 -12.414678 -18.201813 35.475344 -0.419943 2.109570 0.099148 -0.017987 -332866.000000 0 0 1
28.098233 -13.064878 -16.998313 35.343236 -0.435234 2.072534 0.114049 -0.020079 235739.000000 0 0 1
27.969133 -12.203778 -15.846813 34.384968 -0.411428 2.049765 0.107855 -0.016392 -28822.100000 0 0 1
28.579933 -12.794878 -14.553713 34.530161 -0.420929 2.005871 0.130787 -0.032304 -358962.000000 0 0 1
27.854233 -13.838278 -14.002113 34.108875 -0.461093 1.993812 0.153110 -0.037274 58522.000000 0 0 1
28.360833 -14.191478 -12.722013 34.169935 -0.463960 1.952299 0.167563 -0.038883 -406316.000000 0 0 1
27.722033 -15.384578 -12.051213 33.917961 -0.506642 1.934036 0.165334 -0.059971 -849035.000000 0 0 1
26.371433 -15.155378 -11.807713 32.627596 -0.521601 1.941095 0.140710 -0.054503 -92466.200000 0 0 1
25.662233 -16.279978 -11.283013 32.417499 -0.565326 1.926290 0.116898 -0.054623 -821515.000000 0 0 1
24.245033 -16.039378 -10.861113 31.032999 -0.584454 1.928352 0.127781 -0.054618 -1371940.000000 0 0 1
24.067033 -15.608678 -9.500713 30.217817 -0.575355 1.890629 0.103870 -0.048034 382526.000000 0 0 1
22.691533 -15.566978 -9.158713 29.002043 -0.601286 1.892091 0.119981 -0.047530 -144514.000000 0 0 1
22.273233 -15.152678 -7.688913 28.014638 -0.597388 1.848825 0.098790 -0.033977 -347706.000000 0 0 1
22.512133 -13.821778 -7.253913 27.394469 -0.550628 1.838787 0.109702 -0.036238 330792.000000 0 0 1
22.251833 -13.583078 -5.871013 26.722890 -0.548050 1.792303 0.090974 -0.027282 6048.760000 0 0 1
23.145133 -14.424678 -4.841213 27.698481 -0.557324 1.746481 0.085104 -0.019850 115504.000000 0 0 1
24.506133 -14.115478 -5.000313 28.719338 -0.522584 1.745798 0.119326 -0.024020 -146747.000000 0 0 1
25.332233 -14.871778 -4.158513 29.667912 -0.530857 1.711428 0.127065 -0.031207 -189854.000000 0 0 1
26.843433 -14.730478 -4.420413 30.936983 -0.501887 1.714171 0.146403 -0.030640 12709.400000 0 0 1
27.350133 -13.514078 -3.860013 30.749956 -0.458928 1.696657 0.156077 -0.032034 -1051310.000000 0 0 1
28.690333 -13.308178 -4.061313 31.886315 -0.434317 1.698512 0.190074 -0.047910 -1088000.000000 0 0 1
29.263533 -12.070278 -3.326413 31.829404 -0.391208 1.675495 0.240795 -0.055138 -953561.000000 0 0 1
29.560833 -12.340478 -1.953513 32.092779 -0.395467 1.631705 0.255565 -0.055504 320453.000000 0 0 1
30.051233 -11.251878 -1.175113 32.110158 -0.358265 1.607401 0.254049 -0.054182 768728.000000 0 0 1
31.549833 -10.861178 -1.417713 33.397111 -0.331547 1.613259 0.284497 -0.065824 213038.000000 0 0 1
31.586733 -10.393778 -2.752313 33.366563 -0.317895 1.653377 0.287149 -0.077410 -407066.000000 0 0 1
32.819733 -10.278478 -3.409913 34.560230 -0.303504 1.669623 0.332360 -0.077057 -434711.000000 0 0 1
32.594233 -9.670078 -4.841813 34.341485 -0.288409 1.712258 0.294735 -0.081300 -227456.000000 0 0 1
31.658733 -10.487678 -5.511813 33.803059 -0.319895 1.734584 0.295333 -0.079052 375279.000000 0 0 1
31.792433 -10.439178 -6.942513 34.175045 -0.317263 1.775366 0.263843 -0.075155 105942.000000 0 0 1
30.631233 -11.155078 -7.690713 33.494108 -0.349245 1.802477 0.236650 -0.063901 259390.000000 0 0 1
30.714533 -12.586778 -7.638913 34.061158 -0.388925 1.796991 0.246722 -0.061016 371777.000000 0 0 1
29.582533 -13.135378 -8.302913 33.415607 -0.417874 1.821901 0.227293 -0.049959 294040.000000 0 0 1
29.646633 -14.709578 -8.461613 34.159822 -0.460574 1.821109 0.216877 -0.048638 424690.000000 0 0 1
30.532433 -15.167178 -9.504013 35.392075 -0.461049 1.842668 0.233682 -0.060533 601710.000000 0 0 1
30.691133 -16.567478 -9.441413 36.132634 -0.494989 1.835164 0.200137 -0.059373 8543.340000 0 0 1
31.045133 -17.108778 -10.884413 37.080736 -0.503683 1.868717 0.174389 -0.063866 872451.000000 0 0 1
32.379333 -16.728678 -11.299113 38.156779 -0.476876 1.871428 0.179457 -0.057443 1218950.000000 0 0 1
32.687933 -17.129078 -12.652113 39.012590 -0.482677 1.901077 0.164913 -0.048553 -138012.000000 0 0 1
32.242533 -16.212078 -13.809713 38.640918 -0.465898 1.936264 0.148887 -0.042538 -644005.000000 0 0 1
33.127233 -15.236278 -14.215613 39.136190 -0.431083 1.942533 0.127123 -0.042374 -448091.000000 0 0 1
32.617033 -14.486878 -15.280913 38.823276 -0.417979 1.975343 0.107930 -0.032035 -1414440.000000 0 0 1
33.549333 -13.447678 -15.882813 39.479887 -0.381224 1.984826 0.110936 -0.031737 -394719.000000 0 0 1
34.545633 -13.948678 -16.745613 40.845831 -0.383757 1.993219 0.063209 -0.021138 916149.000000 0 0 1
35.653833 -14.552378 -16.029413 41.712223 -0.387519 1.965230 0.081862 -0.030029 411666.000000 0 0 1
36.764033 -15.115478 -17.013313 43.237999 -0.390080 1.975211 0.092753 -0.030936 432106.000000 0 0 1
-37.979806 -15.552778 -16.529513 44.244541 0.388670 1.953677 0.091813 -0.038165 -255817.000000 0 0 1
-37.245706 -16.110478 -17.609513 44.236694 0.408245 1.980214 0.111460 -0.046491 -665462.000000 0 0 1
-35.749306 -15.965378 -17.328513 42.815693 0.420017 1.987473 0.128742 -0.044449 -502096.000000 0 0 1
-35.220306 -16.771478 -16.257213 42.261678 0.444417 1.965657 0.122292 -0.046343 123159.000000 0 0 1
-35.559706 -16.425778 -14.960413 41.929856 0.432723 1.935632 0.093101 -0.036985 -883416.000000 0 0 1
-35.089706 -17.369978 -13.827713 41.523599 0.459653 1.910289 0.085658 -0.034817 683087.000000 0 0 1
-33.671406 -17.164178 -13.672613 40.190956 0.471421 1.917917 0.118657 -0.039557 903335.000000 0 0 1
-33.256706 -17.589278 -12.375613 39.604886 0.486495 1.888596 0.107845 -0.019945 -116527.000000 0 0 1
-31.734706 -17.630178 -12.161813 38.286087 0.507093 1.894053 0.123572 -0.018875 -170564.000000 0 0 1
-31.133606 -16.340778 -12.031413 37.162849 0.483337 1.900485 0.127758 -0.043132 -124654.000000 0 0 1
-29.897506 -16.434278 -11.364213 35.959584 0.502603 1.892336 0.150176 -0.037838 -131588.000000 0 0 1
-29.848906 -16.309778 -9.822413 35.404037 0.500084 1.851922 0.156231 -0.042292 -82338.000000 0 0 1
-30.469706 -17.460878 -9.235113 36.312154 0.520373 1.827947 0.137281 -0.035014 8796.570000 0 0 1
-30.679706 -17.209778 -7.828713 36.037613 0.511211 1.789780 0.156474 -0.045156 -80115.400000 0 0 1
-31.573906 -18.351278 -7.252013 37.232682 0.526494 1.766825 0.147299 -0.038475 -407307.000000 0 0 1
-32.875906 -18.365978 -7.725613 38.442417 0.509457 1.773140 0.097783 -0.030811 -710828.000000 0 0 1
-32.972806 -19.312978 -8.826813 39.218742 0.529857 1.797807 0.099674 -0.022672 1243810.000000 0 0 1
-34.428406 -19.787478 -9.309113 40.786260 0.521641 1.801067 0.072449 -0.022464 1453320.000000 0 0 1
-35.256906 -18.881978 -10.041813 41.236107 0.491685 1.816790 0.082321 -0.019840 197460.000000 0 0 1
-36.534006 -19.490278 -10.009813 42.600480 0.490074 1.807983 0.082992 -0.029900 -17720.400000 0 0 1
-37.690306 -18.707278 -10.661013 43.407126 0.460717 1.818940 0.093829 -0.051386 -129114.000000 0 0 1
-37.678106 -18.739878 -12.060013 43.775183 0.461540 1.849905 0.076865 -0.053696 646460.000000 0 0 1
37.301133 -17.791078 -12.508213 43.178147 -0.445045 1.864698 0.097221 -0.059684 522054.000000 0 0 1
36.875033 -17.979678 -13.993913 43.345893 -0.453666 1.899528 0.085819 -0.049329 -260386.000000 0 0 1
35.984833 -19.060278 -14.089213 43.089538 -0.487105 1.903897 0.061035 -0.043732 -94993.700000 0 0 1
35.406333 -19.150878 -15.373213 43.089444 -0.495821 1.935609 0.057457 -0.041921 -71060.600000 0 0 1
34.189533 -20.116478 -15.371313 42.542615 -0.531832 1.940475 0.084259 -0.051042 -1142240.000000 0 0 1
33.152233 -19.629578 -14.579013 41.193913 -0.534594 1.932547 0.117440 -0.049505 -306895.000000 0 0 1
31.971133 -20.362878 -14.892113 40.725608 -0.567121 1.945148 0.137316 -0.045364 347876.000000 0 0 1
31.175033 -19.912678 -16.184813 40.377538 -0.568417 1.983227 0.139104 -0.046928 -842367.000000 0 0 1
30.518433 -18.676778 -16.068913 39.222528 -0.549184 1.992906 0.142979 -0.049099 -16841.900000 0 0 1
29.649933 -18.521078 -17.146613 38.937837 -0.558354 2.026794 0.120529 -0.044100 143258.000000 0 0 1
28.723933 -17.242678 -17.052113 37.591872 -0.540632 2.041610 0.120398 -0.032315 -562588.000000 0 0 1
27.528433 -17.359778 -16.395713 36.441678 -0.562625 2.037468 0.140206 -0.038954 -666782.000000 0 0 1
26.876233 -16.089578 -16.236913 35.282343 -0.539430 2.049016 0.116802 -0.033719 -210579.000000 0 0 1
25.512133 -16.274978 -15.533413 34.015155 -0.567844 2.045035 0.107484 -0.041274 1004390.000000 0 0 1
24.289733 -16.601278 -16.231613 33.601470 -0.599545 2.074945 0.108875 -0.043824 1342550.000000 0 0 1
23.891633 -15.847978 -17.375113 33.524067 -0.585687 2.115644 0.103372 -0.030606 110018.000000 0 0 1
22.721433 -16.488378 -18.207813 33.461240 -0.627751 2.146168 0.083881 -0.030434 1332980.000000 0 0 1
21.400733 -16.487178 -17.631113 32.259488 -0.656431 2.149024 0.066868 -0.025950 647946.000000 0 0 1
20.521633 -16.991378 -18.628013 32.509186 -0.691567 2.180967 0.053137 -0.022976 383916.000000 0 0 1
19.048333 -17.117478 -18.168813 31.399885 -0.732060 2.187840 0.072638 -0.023906 39999.500000 0 0 1
18.339933 -15.950678 -17.822813 30.140171 -0.715834 2.203504 0.080396 -0.022030 423448.000000 0 0 1
16.977933 -16.382578 -17.784913 29.545595 -0.767554 2.216735 0.095505 -0.020275 555249.000000 0 0 1
16.005133 -15.256478 -17.282313 28.064261 -0.761455 2.234213 0.104204 -0.017552 164570.000000 0 0 1
15.572633 -14.350078 -18.303413 27.990115 -0.744564 2.283556 0.095094 -0.014788 -618467.000000 0 0 1
14.270133 -13.949578 -18.056613 26.912240 -0.774039 2.306278 0.103885 -0.001672 -536640.000000 0 0 1
13.606733 -13.422078 -19.367813 27.210430 -0.778566 2.362824 0.100729 -0.008556 1088.780000 0 0 1
13.898933 -12.091978 -19.782113 27.031986 -0.715987 2.391761 0.127595 -0.021911 169661.000000 0 0 1
13.281633 -11.926078 -21.075713 27.619174 -0.731675 2.438866 0.111267 -0.013424 83602.200000 0 0 1
13.645233 -10.613978 -21.696113 27.741128 -0.661090 2.468812 0.137205 -0.021137 -1161440.000000 0 0 1
14.986333 -10.482378 -21.959013 28.577415 -0.610365 2.447141 0.134920 -0.024679 -1312540.000000 0 0 1
15.208233 -9.124078 -22.357613 28.537729 -0.540378 2.470979 0.146568 -0.033034 1620060.000000 0 0 1
16.711833 -8.823178 -22.814713 29.625073 -0.485765 2.449818 0.140739 -0.035966 1598140.000000 0 0 1
16.939433 -9.421878 -24.104713 30.931430 -0.507598 2.464337 0.170658 -0.029901 452128.000000 0 0 1
18.300333 -9.491778 -24.512213 32.028809 -0.478469 2.442331 0.144626 -0.042180 146948.000000 0 0 1
21.594933 4.868822 -6.857713 23.174874 0.221753 1.871206 0.198002 0.008564 -134164.000000 0 1 0
21.744633 6.264522 -7.069013 23.707472 0.280499 1.873578 0.236558 0.009925 612184.000000 0 1 0
21.182533 6.948522 -5.953013 23.074228 0.316971 1.831742 0.229389 0.007999 -188718.000000 0 1 0
21.025433 8.506522 -6.025813 23.467854 0.384451 1.830474 0.183240 0.015350 -183887.000000 0 1 0
20.047833 8.886922 -7.011313 23.022847 0.417256 1.880249 0.085254 0.001444 685004.000000 0 1 0
19.744433 10.280322 -6.957713 23.322466 0.480046 1.873735 0.090265 0.005121 96719.000000 0 1 0
19.101033 10.929722 -5.674013 22.726696 0.519732 1.823128 0.107673 -0.005285 -425935.000000 0 1 0
20.046333 11.214822 -4.661213 23.438315 0.510066 1.771003 0.116726 0.004846 -15400.500000 0 1 0
20.739433 12.406822 -4.775613 24.634524 0.539112 1.765890 0.176040 -0.010378 34199.000000 0 1 0
21.545633 12.714522 -3.494213 25.260303 0.533124 1.709570 0.158433 -0.024410 129808.000000 0 0 1
22.795033 12.101622 -3.274613 26.015108 0.488052 1.697005 0.139107 -0.041720 60222.700000 0 0 1
23.392333 12.730122 -2.162513 26.719538 0.498380 1.651819 0.116525 -0.042999 -766941.000000 0 0 1
24.551533 11.957422 -1.612713 27.356143 0.453221 1.629783 0.141246 -0.039391 -1567930.000000 0 0 1
25.611933 11.752022 -2.470913 28.287569 0.430189 1.658258 0.151658 -0.023303 -601231.000000 0 0 1
26.365833 10.700822 -1.914613 28.518949 0.385547 1.637982 0.173150 -0.028942 -505464.000000 0 0 1
27.622533 10.326422 -2.700413 29.613030 0.357754 1.662113 0.195933 -0.030977 510167.000000 0 0 1
28.688233 11.305722 -2.625613 30.947179 0.375400 1.655740 0.153223 -0.038708 683133.000000 0 0 1
29.948733 10.691122 -2.459913 31.894794 0.342880 1.647999 0.126052 -0.036773 -189590.000000 0 0 1
31.016733 11.723622 -2.050513 33.221764 0.361378 1.632558 0.100260 -0.042478 -680195.000000 0 0 1
30.827633 12.262522 -0.760513 33.185701 0.378588 1.593715 0.149260 -0.054714 282721.000000 0 0 1
31.814333 13.166122 -0.280213 34.432210 0.392382 1.578935 0.115307 -0.054686 767736.000000 0 0 1
33.226333 12.529822 0.053987 35.510401 0.360615 1.569276 0.115323 -0.056116 1023000.000000 0 0 1
34.234433 13.400822 0.612487 36.768921 0.373108 1.554138 0.113266 -0.065418 585095.000000 0 0 1
35.371233 13.565422 -0.195213 37.883808 0.366215 1.575949 0.129498 -0.051152 -430500.000000 0 0 1
35.316733 14.729322 -1.202313 38.284071 0.395129 1.602207 0.082045 -0.027784 495390.000000 0 0 1
34.219233 14.568422 -2.143413 37.253041 0.402495 1.628365 0.081514 -0.019775 650637.000000 0 0 1
33.932633 15.785122 -2.807713 37.529680 0.435414 1.645679 0.056017 -0.001979 -412044.000000 0 0 1
32.627233 15.624122 -3.578613 36.351836 0.446599 1.669400 0.057537 -0.018837 -1020810.000000 0 0 1
32.621733 14.642722 -4.634013 36.056356 0.421909 1.699674 0.050943 -0.017728 159345.000000 0 0 1
31.522633 14.684522 -5.529113 35.211967 0.435949 1.728473 0.054877 -0.021393 1300280.000000 0 0 1
30.112833 14.233122 -4.931713 33.670258 0.441537 1.717796 0.079538 -0.021778 284316.000000 0 0 1
29.224033 13.786722 -5.888513 32.844975 0.440801 1.751053 0.125469 -0.032535 -595402.000000 0 0 1
28.161333 13.040322 -5.375513 31.496139 0.433659 1.742308 0.130045 -0.015812 87276.600000 0 0 1
26.971933 12.953822 -6.383513 30.594704 0.447740 1.780988 0.119896 -0.009540 -110994.000000 0 0 1
27.283733 12.060622 -7.407913 30.736588 0.416218 1.814206 0.121940 -0.001330 117084.000000 0 0 1
26.299333 11.950622 -8.398113 30.083227 0.426513 1.853718 0.151870 0.006736 -278743.000000 0 0 1
26.004933 13.218422 -9.270313 30.609180 0.470269 1.878489 0.157276 0.006557 -912722.000000 0 0 1
25.083133 13.947622 -8.577613 29.954551 0.507481 1.861216 0.147097 -0.011506 -774552.000000 0 0 1
24.919333 15.241122 -9.102613 30.596119 0.548919 1.872878 0.150045 -0.023797 -765812.000000 0 0 1
23.815333 16.002222 -8.328013 29.876362 0.591637 1.853288 0.146162 -0.016150 213936.000000 0 0 1
22.464433 15.739222 -8.635913 28.756788 0.611148 1.875813 0.176752 -0.039877 115370.000000 0 0 1
22.052833 14.464922 -8.135313 27.599723 0.580527 1.870001 0.188545 -0.043655 -625234.000000 0 0 1
20.533833 14.220722 -8.368413 26.341935 0.605709 1.894082 0.214534 -0.033575 526034.000000 0 0 1
19.662933 15.088422 -7.654013 25.939840 0.654515 1.870323 0.273067 -0.066712 660681.000000 0 0 1
18.286633 14.780122 -7.874213 24.796293 0.679750 1.893947 0.281449 -0.062168 129828.000000 0 1 0
17.420233 15.265522 -6.725513 24.119146 0.719571 1.853388 0.258936 -0.045034 -415016.000000 0 1 0
17.413733 14.327922 -5.706813 23.261452 0.688486 1.818660 0.231169 -0.050268 376285.000000 0 1 0
17.015733 14.903622 -4.461813 23.055604 0.719324 1.765549 0.216204 -0.034231 -95591.500000 0 1 0
16.726533 13.856222 -3.403313 21.985321 0.691818 1.726221 0.152001 -0.017407 -142693.000000 0 1 0
17.851833 13.340522 -2.727813 22.452136 0.641765 1.692592 0.150266 -0.019117 290212.000000 0 1 0
17.516833 12.315022 -1.776013 21.486122 0.612763 1.653549 0.133922 -0.018308 -92846.400000 0 1 0
17.211633 12.715722 -0.354013 21.402225 0.636286 1.587338 0.138621 -0.026434 -140716.000000 0 1 0
16.143733 13.619422 -0.212613 21.122357 0.700787 1.580862 0.131904 -0.033102 33125.200000 0 1 0
16.417033 14.635522 0.634387 22.002725 0.728090 1.541960 0.138024 -0.021219 -945829.000000 0 1 0
15.155633 15.333022 1.070787 21.585675 0.791216 1.521170 0.140629 -0.023323 -863305.000000 0 1 0
14.646733 16.245722 0.176487 21.874218 0.837112 1.562728 0.135273 -0.033999 17508.200000 0 1 0
13.628733 16.994922 0.828487 21.800370 0.894880 1.532784 0.101548 -0.042498 208175.000000 0 1 0
13.477533 18.501522 0.303587 22.891972 0.941227 1.557534 0.106943 -0.046725 -144080.000000 0 1 0
13.076033 18.568322 -1.036713 22.734115 0.957249 1.616414 0.118291 -0.056538 -158059.000000 0 1 0
12.764633 19.912422 -1.376713 23.692525 1.000747 1.628937 0.111900 -0.054673 115697.000000 0 1 0
11.229733 20.108622 -1.418613 23.075442 1.061486 1.632312 0.089115 -0.053531 216435.000000 0 1 0
10.610933 20.117222 -0.132513 22.744495 1.085427 1.576622 0.065693 -0.056140 -257771.000000 0 1 0
9.216033 20.271122 -0.284513 22.269589 1.144092 1.583573 0.048800 -0.045246 -130340.000000 0 1 0
8.490033 20.486422 1.014387 22.199169 1.177919 1.525086 0.019060 -0.034563 -389728.000000 0 1 0
8.429733 21.838222 1.447987 23.453465 1.202410 1.509018 0.016220 -0.033008 83393.900000 0 1 0
7.654433 21.849222 2.630087 23.300133 1.233828 1.457677 0.023659 -0.031649 15142.400000 0 1 0
7.365633 23.226722 3.212187 24.577455 1.263709 1.439725 0.025986 -0.021294 247823.000000 0 1 0
7.879433 23.388922 4.527587 25.092353 1.245851 1.389366 0.037440 -0.026330 8312.180000 0 0 1
7.428833 24.608822 5.034587 26.194059 1.277619 1.377389 0.038226 -0.016672 -31543.000000 0 0 1
7.977233 24.951922 6.399287 26.966378 1.261362 1.331204 0.053685 -0.026131 65978.100000 0 0 1
7.292033 24.239022 7.441187 26.383237 1.278570 1.284874 0.054852 -0.031434 192770.000000 0 0 1
7.546933 24.839122 8.686087 27.374921 1.275827 1.247914 0.055969 -0.023724 -223383.000000 0 0 1
7.057533 23.845422 9.815287 26.734861 1.283041 1.194870 0.060850 -0.026762 -774011.000000 0 0 1
5.701833 23.872922 10.076287 26.532223 1.336348 1.181243 0.074832 -0.033291 -914985.000000 0 0 1
5.387133 22.891822 11.050487 25.984033 1.339672 1.131525 0.074041 -0.038086 196052.000000 0 0 1
4.016233 23.176622 11.716987 26.278770 1.399212 1.108647 0.056070 -0.040815 -84256.700000 0 0 1
2.881533 23.151722 10.920587 25.759749 1.446970 1.133005 0.056244 -0.030747 -461173.000000 0 0 1
1.712433 23.381422 11.670587 26.188279 1.497688 1.108905 0.065808 -0.034701 -26441.700000 0 0 1
0.468033 23.630422 10.794587 25.983437 1.550993 1.142369 0.071697 -0.022480 -236313.000000 0 0 1
0.568633 24.923322 10.223487 26.944666 1.547985 1.181621 0.079266 -0.025712 -210351.000000 0 0 1
-0.239467 25.153122 9.119087 26.756208 -1.561276 1.223006 0.080168 -0.022547 -238447.000000 0 0 1
-1.610467 25.768322 9.422487 27.484237 -1.508380 1.220866 0.089631 -0.033067 152055.000000 0 0 1
-2.587567 24.925022 10.019387 26.987781 -1.467353 1.190435 0.078477 -0.029102 -122371.000000 0 0 1
-3.861467 25.511522 9.958787 27.657298 -1.420575 1.202445 0.076619 -0.032588 -459885.000000 0 0 1
-4.990767 24.684222 10.619287 27.331078 -1.371301 1.171747 0.054291 -0.028254 -34920.000000 0 0 1
-5.127367 24.721822 12.002587 27.955688 -1.366293 1.127031 0.046753 -0.024493 -77337.400000 0 0 1
-5.670867 25.904622 12.489487 29.312036 -1.355283 1.130633 0.051371 -0.023609 -453942.000000 0 0 1
-6.233167 25.772022 13.919487 29.946646 -1.333495 1.087377 0.056097 -0.026806 84009.100000 0 0 1
-7.481967 25.104622 13.955987 29.681500 -1.281147 1.081289 0.045283 -0.016975 138636.000000 0 0 1
-7.796667 25.037722 15.340787 30.381167 -1.268917 1.041479 0.043536 -0.006295 122720.000000 0 0 1
-8.994867 24.119722 15.713887 30.159491 -1.213845 1.022743 0.048579 -0.018697 -209223.000000 0 0 1
-10.229867 24.686022 15.430587 30.856975 -1.177939 1.047119 0.053381 -0.018461 -87118.400000 0 0 1
-11.279267 23.679822 15.356887 30.393911 -1.126268 1.041111 0.048375 -0.018670 1137130.000000 0 0 1
-12.645067 24.346522 15.021887 31.277915 -1.091766 1.069832 0.045015 -0.024051 79324.300000 0 0 1
-13.217067 25.238622 15.960187 32.655880 -1.088381 1.060153 0.049588 -0.023841 236163.000000 0 0 1
-14.227067 26.004722 15.304187 33.359754 -1.070186 1.094195 0.037731 -0.021486 -28129.600000 0 0 1
-14.993067 26.941922 16.234687 34.845721 -1.062980 1.086143 0.040110 -0.018710 22041.600000 0 0 1
-16.058067 26.351922 16.981187 35.222806 -1.023516 1.067737 0.048064 -0.022342 344637.000000 0 0 1
-16.592867 27.223622 17.949687 36.587431 -1.023419 1.058021 0.059353 -0.022080 -1143650.000000 0 0 1
-17.904467 26.781422 18.512887 37.155639 -0.981498 1.049214 0.053052 -0.028879 -47788.200000 0 0 1
-19.058467 27.013922 17.669887 37.486025 -0.956385 1.079950 0.046077 -0.026016 1026390.000000 0 0 1
-20.259567 26.508922 18.235587 38.022489 -0.918234 1.070597 0.060893 -0.023647 851906.000000 0 0 1
-21.517267 26.647422 17.305387 38.373875 -0.891511 1.102947 0.073502 -0.028329 240654.000000 0 0 1
-22.054167 27.955122 17.261687 39.570709 -0.902852 1.119398 0.060959 -0.029613 494024.000000 0 0 1
-23.106467 27.868122 16.299487 39.701566 -0.878540 1.147739 0.080794 -0.030961 -90500.400000 0 0 1
-24.166167 28.987522 16.318587 41.116619 -0.875857 1.162675 0.071072 -0.029149 668723.000000 0 0 1
-25.325537 28.635922 17.127087 41.889569 -0.846669 1.149589 0.092357 -0.034012 946161.000000 0 0 1
-26.241197 29.714722 17.060887 43.158302 -0.847395 1.164392 0.083193 -0.028979 244501.000000 0 0 1
-27.625007 29.454122 17.724687 44.100463 -0.817432 1.157188 0.103910 -0.023351 -10427.200000 0 0 1
-28.537917 28.692922 16.920787 43.863533 -0.788107 1.174765 0.135666 -0.015932 -290646.000000 0 0 1
-29.789357 28.704722 17.547487 44.936413 -0.766858 1.169626 0.172032 -0.021819 -326705.000000 0 0 1
-30.072937 27.658222 18.626987 44.903490 -0.743596 1.143048 0.161660 -0.025092 -726601.000000 0 0 1
-30.131417 26.379022 18.038387 43.921959 -0.719094 1.147584 0.153781 -0.015253 246287.000000 0 0 1
-30.480367 25.372922 18.970887 43.962854 -0.694208 1.124618 0.141048 -0.015822 -50188.200000 0 0 1
-30.576257 23.957222 18.298887 42.938389 -0.664613 1.130546 0.132696 -0.023375 1263050.000000 0 0 1
-31.728677 23.874822 17.374187 43.342571 -0.645079 1.158344 0.163155 -0.026758 1419580.000000 0 0 1
-31.574847 22.821822 16.421687 42.278580 -0.625855 1.171884 0.149595 -0.026004 -286742.000000 0 0 1
-32.065567 21.421122 16.811987 42.067897 -0.588954 1.159673 0.121706 -0.027334 613751.000000 0 0 1
-33.457607 21.218522 16.537887 42.931793 -0.565181 1.175358 0.117497 -0.029894 433864.000000 0 0 1
-33.798057 19.878522 16.615387 42.585624 -0.531665 1.169986 0.085811 -0.025254 -1021550.000000 0 0 1
-35.169778 19.577122 16.095787 43.350333 -0.507932 1.190392 0.088096 -0.035153 -1202190.000000 0 0 1
-35.349774 19.966322 14.736487 43.190562 -0.514151 1.222606 0.074497 -0.032092 -383607.000000 0 0 1
-36.567247 19.387922 14.357587 43.808622 -0.487514 1.236892 0.103700 -0.040962 -411864.000000 0 0 1
-36.852477 19.527822 12.857187 43.643421 -0.487274 1.271763 0.107975 -0.038158 -98734.900000 0 0 1
-37.072237 20.944322 12.660587 44.421908 -0.514256 1.281782 0.104546 -0.049406 -231390.000000 0 0 1
-37.203567 21.357122 11.311487 44.364195 -0.521128 1.312981 0.073037 -0.036373 208723.000000 0 0 1
-36.068797 21.061422 10.277487 43.013584 -0.528515 1.329527 0.097354 -0.037356 29274.300000 0 0 1
-36.141727 19.734022 9.775287 42.322716 -0.499781 1.337722 0.127549 -0.038677 -140330.000000 0 0 1
-34.986096 19.358622 9.082587 41.003373 -0.505391 1.347435 0.140832 -0.039341 -531713.000000 0 0 1
-34.088245 18.371222 9.800287 39.944410 -0.494305 1.322918 0.091536 -0.037366 -308910.000000 0 0 1
-33.634957 18.809122 11.090887 40.101137 -0.509889 1.290570 0.096361 -0.043522 -170741.000000 0 0 1
-32.956287 17.825222 11.763287 39.271241 -0.495810 1.266586 0.106923 -0.048532 -395708.000000 0 0 1
-32.490887 18.264022 13.161687 39.527993 -0.512106 1.231343 0.082459 -0.024262 419351.000000 0 0 1
-31.308047 19.053922 13.245187 38.970255 -0.546715 1.224008 0.121509 -0.020683 241922.000000 0 0 1
-31.569757 20.423222 12.898687 39.750896 -0.574210 1.240326 0.125498 -0.019827 418513.000000 0 0 1
-30.253307 21.246722 12.961787 39.175167 -0.612264 1.233574 0.148513 -0.030211 558599.000000 0 0 1
-29.627307 21.184422 14.260487 39.114173 -0.620742 1.197608 0.134529 -0.024323 -338214.000000 0 0 1
-28.515607 22.019922 14.391387 38.795990 -0.657562 1.190764 0.176897 -0.033649 -722226.000000 0 0 1
-27.803137 21.741722 15.688587 38.624457 -0.663661 1.152524 0.152681 -0.032522 -639428.000000 0 0 1
-27.182287 20.493822 15.720687 37.496846 -0.646018 1.138173 0.176296 -0.043314 -195272.000000 0 0 1
-26.659397 20.321622 17.013287 37.591804 -0.651307 1.101140 0.139060 -0.026571 216154.000000 0 0 1
-25.693787 19.094322 17.124387 36.304386 -0.639102 1.079591 0.144515 -0.029146 413478.000000 0 0 1
-25.001077 19.018122 18.355787 36.382383 -0.650309 1.041966 0.139106 -0.026221 239036.000000 0 0 1
-24.059467 17.962222 18.453187 35.242297 -0.641306 1.019715 0.135205 -0.024859 276056.000000 0 0 1
-23.329367 17.999322 19.835187 35.519989 -0.657139 0.978312 0.120735 -0.015207 76398.600000 0 0 1
-24.207967 17.688322 20.896187 36.545219 -0.631022 0.962110 0.118372 -0.010124 -51110.900000 0 0 1
-23.643967 17.909522 22.139387 37.012709 -0.648263 0.929598 0.125470 -0.007925 343236.000000 0 0 1
-24.507367 17.300522 23.351787 38.016116 -0.614696 0.909348 0.109832 -0.009620 548165.000000 0 0 1
-24.208767 15.928822 23.686487 37.427817 -0.581963 0.885558 0.098600 -0.021631 22473.100000 0 0 1
-25.213137 15.359122 24.485187 38.355304 -0.547136 0.878407 0.084736 -0.022261 -70080.700000 0 0 1
22.169733 24.756022 32.852499 46.729480 0.840457 0.791139 0.083921 -0.013394 -146350.000000 0 0 1
23.276433 23.978622 32.433456 46.569257 0.800257 0.800349 0.109911 -0.026337 -113341.000000 0 0 1
23.289733 22.683122 32.869183 46.231146 0.772204 0.779913 0.108948 -0.029106 -224354.000000 0 0 1
22.208933 21.637922 32.461624 44.890905 0.772376 0.762484 0.092949 -0.035415 28890.400000 0 0 1
22.283133 21.229422 31.100174 43.754396 0.761187 0.780176 0.113344 -0.033268 -32085.900000 0 0 1
21.452533 20.103222 30.880714 42.637650 0.752940 0.760837 0.132723 -0.036649 14770.700000 0 0 1
21.540833 19.539322 29.464924 41.400173 0.736715 0.778867 0.151815 -0.030490 -612480.000000 0 0 1
22.739233 18.876422 29.276784 41.599544 0.692842 0.790097 0.146364 -0.029697 -794063.000000 0 0 1
22.848033 18.257622 27.965334 40.465210 0.674185 0.807792 0.143582 -0.034393 -6537.540000 0 0 1
23.985733 17.196622 28.060514 40.723846 0.622013 0.810628 0.141623 -0.030957 1514120.000000 0 0 1
25.313133 17.802322 28.060734 41.774180 0.612927 0.834262 0.132300 -0.028639 981159.000000 0 0 1
26.245333 16.808022 28.423394 42.180759 0.569611 0.831393 0.115719 -0.019072 -420773.000000 0 0 1
27.674433 17.277022 28.680284 43.438789 0.558092 0.849650 0.103678 -0.024752 -466316.000000 0 0 1
28.448833 17.405522 27.501844 43.227765 0.549064 0.881223 0.115293 -0.019539 -334698.000000 0 0 1
29.703333 17.963722 27.795314 44.469796 0.543920 0.895616 0.110059 -0.010336 -564609.000000 0 0 1
30.630133 17.817422 26.625744 44.323761 0.526852 0.926407 0.100814 -0.008495 -557944.000000 0 0 1
30.701333 18.969422 25.751514 44.334538 0.553455 0.951029 0.118679 -0.011272 364048.000000 0 0 1
31.685333 18.744922 24.737594 44.354041 0.534217 0.979148 0.123374 -0.011312 254454.000000 0 0 1
31.921833 19.974722 23.826304 44.561033 0.559130 1.006656 0.137048 -0.020414 -143999.000000 0 0 1
30.830733 20.224322 22.975304 43.444469 0.580567 1.013560 0.113868 -0.018649 -157036.000000 0 0 1
31.163533 21.060222 21.894354 43.520816 0.594297 1.043640 0.101666 -0.025611 20818.000000 0 0 1
31.876133 20.439022 20.620954 43.116878 0.570165 1.072127 0.134054 -0.028547 160497.000000 0 0 1
31.098333 19.480322 19.918154 41.753109 0.559613 1.073506 0.130280 -0.046434 -7612.750000 0 0 1
31.644633 19.016622 18.703454 41.386397 0.541113 1.101877 0.164690 -0.048721 -711466.000000 0 0 1
32.789833 18.034322 18.791154 41.875021 0.502841 1.105437 0.181906 -0.062955 -663569.000000 0 0 1
32.459833 16.731322 19.241054 41.277064 0.475929 1.085869 0.207635 -0.053497 822182.000000 0 0 1
33.613033 16.010622 19.720354 42.131560 0.444526 1.083695 0.197995 -0.048380 28050.800000 0 0 1
33.158433 14.581122 20.100754 41.426212 0.414290 1.064184 0.210308 -0.049494 596787.000000 0 0 1
32.314533 14.444822 21.257454 41.288754 0.420362 1.029965 0.176210 -0.050786 1399960.000000 0 0 1
30.961433 14.922122 21.068254 40.313166 0.449110 1.020881 0.179031 -0.038972 254556.000000 0 0 1
30.084433 14.548222 22.289374 40.168894 0.450425 0.982564 0.137442 -0.040085 -161635.000000 0 0 1
29.821233 13.143222 22.353474 39.518704 0.415121 0.969584 0.142442 -0.034597 13352.100000 0 0 1
29.087333 12.888222 23.532414 39.572133 0.417090 0.933940 0.123599 -0.026152 -165516.000000 0 0 1
28.673533 11.412922 23.665784 38.890816 0.378807 0.916604 0.141616 -0.024896 14688.000000 0 0 1
27.613133 11.125422 22.785194 37.489001 0.383007 0.917530 0.123990 -0.016751 -201191.000000 0 0 1
27.324833 9.776422 22.816424 36.916312 0.343594 0.904526 0.126525 -0.011950 152142.000000 0 0 1
26.322933 9.324022 21.698154 35.364446 0.340426 0.910237 0.097423 -0.017514 -126343.000000 0 0 1
24.983033 9.580922 21.992054 34.635190 0.366199 0.882836 0.097137 -0.013350 -496912.000000 0 0 1
24.146133 9.101622 20.957854 33.243148 0.360470 0.888675 0.101334 0.000204 229579.000000 0 0 1
22.650333 9.490822 21.127754 32.395914 0.396790 0.860348 0.092637 -0.002998 202970.000000 0 0 1
22.162033 8.816622 22.256604 32.622767 0.378630 0.819972 0.087976 -0.009856 96793.100000 0 0 1
20.748233 8.742622 22.294714 31.685594 0.398789 0.790313 0.100530 -0.014059 72309.700000 0 0 1
20.122233 8.192522 23.561854 32.049690 0.386644 0.744884 0.091973 -0.020217 -171076.000000 0 0 1
20.293633 6.824522 23.793094 32.008076 0.324408 0.732737 0.071278 -0.019710 183069.000000 0 0 1
19.988033 6.550022 25.149844 32.786261 0.316669 0.696512 0.086675 -0.026123 -55711.100000 0 0 1
19.967633 5.008122 25.344384 32.651576 0.245743 0.682169 0.074485 -0.033647 -754493.000000 0 0 1
21.246733 4.467722 25.303894 33.341734 0.207259 0.709135 0.067090 -0.028051 -595485.000000 0 0 1
21.284033 3.065322 25.218254 33.141614 0.143036 0.706060 0.058608 -0.018552 67678.700000 0 0 1
22.708933 2.562422 24.907814 33.803266 0.112362 0.742403 0.058214 -0.021433 14656.400000 0 0 1
23.683833 2.807922 25.879334 35.193015 0.118008 0.744607 0.058256 -0.030173 -594578.000000 0 0 1
24.962833 2.507622 25.388084 35.692940 0.100118 0.779462 0.067966 -0.032816 47680.200000 0 0 1
26.042233 2.971722 26.421004 37.216911 0.113620 0.781413 0.071390 -0.032196 -1050120.000000 0 0 1
26.243533 2.155322 27.573394 38.126899 0.081944 0.762371 0.085842 -0.033847 -152182.000000 0 0 1
27.168533 2.553522 28.547334 39.491770 0.093713 0.762852 0.092515 -0.024077 1483490.000000 0 0 1
28.682133 2.559822 28.019984 40.178812 0.089012 0.799058 0.087839 -0.036107 393628.000000 0 0 1
28.865833 3.646422 27.162884 39.803956 0.125658 0.819733 0.113797 -0.030728 786877.000000 0 0 1
30.272033 3.823322 26.891644 40.671541 0.125634 0.848392 0.116919 -0.032251 1261670.000000 0 0 1
31.108533 2.893822 25.980334 40.633641 0.092756 0.877105 0.137769 -0.027737 -300528.000000 0 0 1
30.920533 3.083422 24.630714 39.651720 0.099392 0.900553 0.131264 -0.030773 -190949.000000 0 0 1
31.375333 1.984922 23.909184 39.496841 0.063180 0.920598 0.132313 -0.031377 -550844.000000 0 0 1
31.195833 2.227122 22.362504 38.447648 0.071271 0.950059 0.142743 -0.036174 649470.000000 0 0 1
31.935533 3.358022 21.819754 38.823398 0.104765 0.973963 0.135438 -0.034989 -644575.000000 0 0 1
33.312733 3.223422 21.791654 39.937511 0.096462 0.993639 0.136881 -0.040091 -898995.000000 0 0 1
34.021533 4.513322 21.311554 40.398231 0.131891 1.015098 0.152468 -0.044816 -315758.000000 0 0 1
33.806633 4.857522 19.948054 39.552608 0.142709 1.042176 0.138546 -0.044010 119362.000000 0 0 1
34.338633 6.179122 19.566954 40.002362 0.178041 1.059687 0.144251 -0.034940 1745870.000000 0 0 1
35.928433 6.195222 19.388154 41.293263 0.170753 1.082045 0.123891 -0.031831 1425430.000000 0 0 1
36.792533 6.149722 20.519054 42.573949 0.165615 1.067903 0.121369 -0.033996 397377.000000 0 0 1
36.689433 7.241822 21.436654 43.105552 0.194877 1.050305 0.131934 -0.036366 -41211.600000 0 0 1
37.444033 6.908822 22.774634 44.367458 0.182459 1.031749 0.144199 -0.037428 635966.000000 0 0 1
36.583033 6.069222 23.553404 43.930816 0.164405 1.004930 0.150126 -0.024928 524801.000000 0 0 1
37.223533 5.465322 24.647854 44.977526 0.145783 0.990820 0.157348 -0.027647 31950.100000 0 0 1
36.309433 4.420922 25.326694 44.490009 0.121160 0.965182 0.168503 -0.021629 7601.290000 0 0 1
36.225333 3.307122 24.488294 43.850750 0.091041 0.978285 0.174780 -0.030671 -381972.000000 0 0 1
35.423633 2.377922 25.093834 43.476301 0.067028 0.955520 0.164679 -0.040069 -572851.000000 0 0 1
35.465033 0.970822 24.504384 43.118162 0.027367 0.966349 0.137003 -0.032724 -205941.000000 0 0 1
34.350933 0.621622 23.731804 41.756095 0.018094 0.966305 0.141437 -0.028400 -347502.000000 0 0 1
34.335333 -0.796678 23.560014 41.648818 -0.023199 0.969535 0.120118 -0.027733 772433.000000 0 0 1
33.069833 -1.279378 22.779914 40.176798 -0.038668 0.967947 0.138565 -0.012097 933051.000000 0 0 1
31.741033 -1.131978 23.234654 39.352556 -0.035648 0.939214 0.133784 -0.022681 38495.800000 0 0 1
30.832833 -1.769678 22.352144 38.123663 -0.057333 0.944305 0.138793 -0.014734 -99075.500000 0 0 1
29.369033 -1.599378 22.743564 37.180207 -0.054404 0.912574 0.113826 -0.015112 -675250.000000 0 0 1
28.884133 -0.276078 22.573194 36.659493 -0.009558 0.907455 0.126746 -0.020823 -539201.000000 0 0 1
27.529433 -0.134178 22.888284 35.801693 -0.004874 0.877199 0.114268 -0.029528 -418725.000000 0 0 1
26.993333 1.197722 22.453604 35.131736 0.044342 0.877435 0.099717 -0.008385 -170799.000000 0 0 1
26.896533 1.402622 21.065854 34.192997 0.052102 0.907031 0.114221 -0.018883 199088.000000 0 0 1
26.268933 2.655022 20.790454 33.605787 0.100729 0.903764 0.109136 -0.015705 165127.000000 0 0 1
26.918033 3.335622 19.535854 33.426882 0.123289 0.946612 0.137342 -0.026740 90559.100000 0 0 1
26.559933 2.831122 18.253054 32.351495 0.106193 0.971320 0.128306 -0.018863 16377.500000 0 0 1
25.346633 3.422222 17.856754 31.193381 0.134205 0.961302 0.134840 -0.021044 -185815.000000 0 0 1
25.009433 3.071922 16.430354 30.080973 0.122218 0.992970 0.141768 -0.024016 290967.000000 0 0 1
26.015233 3.547822 15.511854 30.495852 0.135539 1.037175 0.138576 -0.021358 696257.000000 0 0 1
25.567633 3.767422 14.172854 29.474855 0.146298 1.069177 0.110214 -0.023444 -372353.000000 0 0 1
25.040033 2.586222 13.294954 28.468361 0.102919 1.084892 0.125211 -0.015490 -985015.000000 0 0 1
23.809833 2.112322 13.705354 27.553707 0.088485 1.050191 0.154723 -0.011869 -671539.000000 0 0 1
23.532133 0.816322 13.269554 27.027925 0.034676 1.057608 0.154579 -0.007777 981713.000000 0 0 1
21.965233 0.503522 13.353954 25.710952 0.022920 1.024662 0.213828 -0.030939 1382810.000000 0 0 1
21.125933 1.293922 12.518954 24.590719 0.061172 1.036666 0.256998 -0.036731 568432.000000 0 1 0
21.252333 1.055322 11.113754 24.006059 0.049616 1.089469 0.261638 -0.032624 -1108540.000000 0 1 0
20.880733 -0.368078 10.546554 23.395946 -0.017626 1.103151 0.255682 -0.030363 -182382.000000 0 1 0
21.857933 -1.384078 10.698354 24.374980 -0.063237 1.116414 0.245370 -0.043297 547833.000000 0 1 0
23.024233 -1.179578 9.911654 25.094772 -0.051187 1.164762 0.261098 -0.042519 -795970.000000 0 0 1
24.155833 -2.097878 10.291154 26.340334 -0.086630 1.169405 0.256785 -0.051198 -479838.000000 0 0 1
24.656833 -1.764078 11.637254 27.322098 -0.071423 1.130809 0.217039 -0.047368 330228.000000 0 0 1
25.674433 -2.663878 12.032154 28.478860 -0.103386 1.134601 0.135531 -0.037646 -334375.000000 0 0 1
26.148333 -2.404478 13.440654 29.498610 -0.091697 1.097709 0.146231 -0.029344 282127.000000 0 0 1
26.899133 -1.188978 13.640654 30.183513 -0.044173 1.101875 0.113400 -0.024583 296890.000000 0 0 1
27.169833 -1.060078 15.065954 31.085472 -0.038997 1.064819 0.110251 -0.023455 -418342.000000 0 0 1
28.056233 0.150822 15.377354 31.994342 0.005376 1.069426 0.157139 -0.028576 621467.000000 0 0 1
29.410433 -0.284078 15.163354 33.090505 -0.009659 1.094784 0.174609 -0.030167 372741.000000 0 0 1
30.289033 0.760122 14.901254 33.764636 0.025090 1.113719 0.156368 -0.031820 50343.900000 0 0 1
31.816233 0.530422 14.986654 35.173197 0.016670 1.130639 0.163384 -0.033043 349658.000000 0 0 1
32.376233 -0.451178 14.093454 35.313587 -0.013935 1.160267 0.185500 -0.036032 288092.000000 0 0 1
33.754433 -0.548678 14.410654 36.705990 -0.016254 1.167343 0.156808 -0.036861 358448.000000 0 0 1
34.534733 -1.638478 13.599154 37.151977 -0.047409 1.196045 0.136548 -0.039339 140327.000000 0 0 1
34.640133 -1.322778 12.231654 36.760058 -0.038168 1.231585 0.154697 -0.042051 722223.000000 0 0 1
35.649833 -2.103278 11.566854 37.538333 -0.058930 1.257565 0.146193 -0.051890 510640.000000 0 0 1
35.741133 -1.621278 10.110354 37.178977 -0.045331 1.295391 0.189678 -0.051123 -246106.000000 0 0 1
36.187833 -0.310478 9.781054 37.487660 -0.008579 1.306827 0.138573 -0.042305 431249.000000 0 0 1
35.104033 0.605122 9.735054 36.433920 0.017236 1.300313 0.151790 -0.040294 -77657.200000 0 0 1
35.565733 1.966922 9.210254 36.791560 0.055248 1.317769 0.159867 -0.042534 -164451.000000 0 0 1
35.821533 1.851122 7.827154 36.713393 0.051630 1.355951 0.143625 -0.038371 255678.000000 0 0 1
36.157033 3.122522 7.341554 37.026741 0.086146 1.371197 0.140024 -0.031861 -41288.900000 0 0 1
36.145533 3.311222 5.781254 36.754410 0.091353 1.412846 0.108325 -0.026829 -142194.000000 0 0 1
36.611833 4.597522 5.396854 37.291950 0.124921 1.425567 0.099208 -0.010068 216782.000000 0 0 1
36.705333 4.675222 3.961154 37.213303 0.126690 1.464150 0.121590 -0.013278 -27448.300000 0 0 1
37.247733 6.007822 3.364154 37.878821 0.159916 1.481866 0.167571 -0.037005 -236601.000000 0 0 1
36.351633 7.051622 3.613854 37.205195 0.191604 1.473510 0.147498 -0.032380 -187711.000000 0 0 1
36.687433 8.322622 3.045954 37.742703 0.223077 1.490005 0.147222 -0.042150 21630.700000 0 0 1
35.403133 9.243022 3.074954 36.718805 0.255379 1.486955 0.169209 -0.051180 987466.000000 0 0 1
34.331033 8.971722 2.195454 35.551816 0.255613 1.509003 0.178360 -0.054510 7982.440000 0 0 1
33.605233 7.818922 2.524654 34.595102 0.228603 1.497754 0.183706 -0.037458 -1288450.000000 0 0 1
32.341133 7.699222 1.678654 33.287306 0.233713 1.520346 0.211873 -0.035676 -106189.000000 0 0 1
32.735633 7.575422 0.322854 33.602275 0.227409 1.561188 0.240055 -0.031631 1238980.000000 0 0 1
31.551533 7.624922 -0.513646 32.463864 0.237119 1.586619 0.241914 -0.023873 777066.000000 0 0 1
31.938133 7.574522 -1.967746 32.882970 0.232860 1.630673 0.215554 -0.008633 -242674.000000 0 0 1
31.103433 6.781122 -2.807646 31.957629 0.214659 1.658765 0.266274 -0.014253 653402.000000 0 0 1
31.746833 6.472122 -4.022646 32.648605 0.201111 1.694321 0.227757 -0.009586 -5844.670000 0 0 1
30.866933 5.559422 -4.935346 31.749525 0.178199 1.726876 0.286643 -0.005936 -76591.400000 0 0 1
30.791033 4.217822 -4.480646 31.399903 0.136135 1.713981 0.296751 -0.006984 967065.000000 0 0 1
29.688633 3.561922 -5.115346 30.335935 0.119405 1.740229 0.304908 -0.007352 164996.000000 0 0 1
29.750033 2.046022 -5.053246 30.245429 0.068666 1.738658 0.344044 -0.009743 -283425.000000 0 0 1
29.295933 1.592622 -3.803346 29.584685 0.054310 1.699711 0.397807 -0.021883 372675.000000 0 0 1
29.020833 0.204422 -3.672846 29.253040 0.007044 1.696683 0.355694 -0.039069 -135188.000000 0 0 1
29.203933 -0.305278 -2.250846 29.292135 -0.010453 1.647713 0.360209 -0.040761 1183810.000000 0 0 1
30.568533 -0.050878 -1.818446 30.622615 -0.001664 1.630214 0.313299 -0.035821 1242450.000000 0 0 1
30.645533 -0.076378 -0.389546 30.648104 -0.002492 1.583507 0.321720 -0.034278 267897.000000 0 0 1
31.984533 0.377222 0.256754 31.987788 0.011793 1.562770 0.334507 -0.030134 244308.000000 0 0 1
33.085733 -0.441878 0.017354 33.088688 -0.013355 1.570272 0.268827 -0.024609 -533019.000000 0 0 1
34.294533 0.012922 0.549554 34.298938 0.000377 1.554773 0.164855 -0.028148 -182040.000000 0 0 1
-2.712867 -20.971078 -8.002113 22.609281 1.442148 1.932567 0.051843 -0.018380 178030.000000 0 1 0
-3.267267 -21.522878 -6.816113 22.811591 1.420142 1.874232 0.058450 -0.021748 -480261.000000 0 1 0
-2.656467 -22.662878 -6.401413 23.698965 1.454112 1.844307 0.064380 -0.019801 -193793.000000 0 1 0
-3.398567 -23.265378 -5.140313 24.067632 1.425744 1.786032 0.076541 -0.022908 -213054.000000 0 1 0
-3.123367 -22.435478 -4.014513 23.004834 1.432470 1.746202 0.086531 -0.030983 92984.700000 0 1 0
-3.386867 -23.092778 -2.805913 23.507880 1.425171 1.690442 0.087714 -0.037402 -176625.000000 0 1 0
-2.681867 -22.297678 -1.669513 22.520349 1.451096 1.644998 0.087882 -0.051880 -1048430.000000 0 1 0
-1.311267 -22.309778 -1.716713 22.414119 1.512088 1.647462 0.084014 -0.043526 -1471690.000000 0 1 0
-0.763567 -22.383778 -0.378913 22.400003 1.536697 1.587713 0.075857 -0.038309 -407102.000000 0 1 0
0.751733 -22.330478 -0.415713 22.346995 -1.537145 1.589400 0.076909 -0.037421 -735028.000000 0 1 0
1.338733 -21.160278 -0.854113 21.219780 -1.507614 1.611058 0.057874 -0.035104 -46761.800000 0 1 0
2.575333 -20.843878 -0.230413 21.003635 -1.447866 1.581767 0.048474 -0.033206 427834.000000 0 1 0
3.479733 -19.853778 -0.986213 20.180527 -1.397291 1.619685 0.051776 -0.030477 156367.000000 0 1 0
4.199333 -20.399478 -2.050113 20.927878 -1.367777 1.668915 0.036312 -0.018091 118424.000000 0 1 0
5.104533 -19.438478 -2.628713 20.268715 -1.313995 1.700856 0.043482 -0.008483 -88353.700000 0 1 0
5.898233 -20.036778 -3.807413 21.231062 -1.284512 1.751104 0.038498 -0.005235 53334.000000 0 1 0
6.958233 -20.880078 -3.285613 22.252863 -1.249123 1.718987 0.052606 -0.011416 557171.000000 0 1 0
7.813833 -21.487278 -4.237713 23.253329 -1.222014 1.754062 0.043631 -0.011407 407004.000000 0 1 0
8.966133 -20.623878 -4.769313 22.988741 -1.160700 1.779777 0.062660 -0.019467 194105.000000 0 1 0
8.436633 -19.651878 -5.747113 22.145031 -1.165286 1.833323 0.044358 -0.012634 617541.000000 0 1 0
9.587233 -18.875778 -5.963113 21.994743 -1.100839 1.845348 0.061725 -0.023850 -21469.600000 0 1 0
9.481633 -17.781378 -7.051813 21.349633 -1.080916 1.907419 0.045169 -0.016006 465109.000000 0 1 0
10.724333 -17.117278 -7.337613 21.490767 -1.011104 1.919235 0.061110 -0.024944 783880.000000 0 1 0
10.660533 -16.429978 -8.574113 21.380050 -0.995232 1.983441 0.059461 -0.005158 -114320.000000 0 1 0
10.583033 -17.140178 -9.959813 22.471852 -1.017652 2.029976 0.043655 0.012848 -356134.000000 0 1 0
9.350833 -17.611778 -10.433513 22.504910 -1.082703 2.052862 0.034067 -0.007740 -119737.000000 0 1 0
8.633833 -16.612478 -11.180513 21.806452 -1.091498 2.109141 0.023603 -0.014581 20160.200000 0 1 0
8.275433 -16.905078 -12.662713 22.684989 -1.115565 2.163009 0.042736 -0.021367 -1105210.000000 0 1 0
7.182433 -17.724778 -12.764813 22.993380 -1.185798 2.159342 0.028441 -0.007329 -474856.000000 0 1 0
6.911333 -18.241678 -14.038213 24.033243 -1.208632 2.194587 0.050008 0.003134 -240160.000000 0 1 0
5.803133 -19.297778 -13.942613 24.504633 -1.278684 2.176060 0.044869 0.017848 -101559.000000 0 1 0
6.246233 -20.395178 -13.203413 25.086028 -1.273606 2.125069 0.047101 0.001904 -24405.800000 0 0 1
5.204333 -21.323878 -13.096113 25.559754 -1.331415 2.108741 0.075436 -0.005532 3712.020000 0 0 1
5.701633 -22.718078 -12.638613 26.614925 -1.324902 2.065612 0.035204 -0.012652 -194758.000000 0 0 1
6.128933 -23.528478 -13.717513 27.916362 -1.315969 2.084469 0.064555 -0.017038 99765.300000 0 0 1
5.639033 -24.878578 -13.551113 28.885550 -1.347900 2.059103 0.062583 -0.020829 937846.000000 0 0 1
4.126033 -25.197778 -13.783213 29.016015 -1.408491 2.065784 0.081136 -0.026911 701329.000000 0 0 1
3.199233 -24.589878 -12.865213 27.935835 -1.441419 2.049385 0.088931 -0.025119 104878.000000 0 0 1
1.833033 -24.626378 -13.179213 27.991251 -1.496500 2.061031 0.084815 -0.035278 65357.800000 0 0 1
1.067233 -25.927628 -12.897213 28.977905 -1.529658 2.032049 0.087478 -0.030051 -827323.000000 0 0 1
1.481533 -27.047648 -13.716313 30.362929 -1.516076 2.039517 0.090902 -0.029145 142215.000000 0 0 1
1.010733 -28.329418 -13.322113 31.321817 -1.535134 2.010123 0.081920 -0.026810 332473.000000 0 0 1
-0.468167 -28.708538 -13.604013 31.772134 1.554490 2.013268 0.074154 -0.030838 240141.000000 0 0 1
-1.448167 -28.003308 -12.885513 30.859664 1.519128 2.001546 0.075216 -0.035046 -49463.900000 0 0 1
-2.719467 -28.344438 -13.413313 31.475699 1.475146 2.011027 0.093553 -0.026774 204326.000000 0 0 1
-3.970467 -27.640658 -12.828413 30.730095 1.428126 2.001438 0.086199 -0.028393 429624.000000 0 0 1
-4.455167 -28.013608 -11.533413 30.620750 1.413081 1.956977 0.074917 -0.033560 226525.000000 0 0 1
-5.286167 -29.163008 -11.517813 31.797557 1.391481 1.941448 0.092738 -0.038382 -674042.000000 0 0 1
-5.749267 -29.483318 -10.075413 31.683340 1.378212 1.894419 0.070621 -0.035445 -816812.000000 0 0 1
-6.952667 -28.962848 -9.621313 31.301051 1.335200 1.883235 0.085667 -0.030676 -808595.000000 0 0 1
-7.031167 -27.559758 -9.557613 30.005425 1.321001 1.894974 0.095161 -0.031170 -929379.000000 0 0 1
-8.375767 -27.042168 -8.972013 29.697295 1.270437 1.877707 0.102026 -0.031789 1285620.000000 0 0 1
-9.571267 -27.238548 -9.760413 30.476439 1.232887 1.896801 0.139420 -0.038916 547308.000000 0 0 1
-9.958267 -28.502088 -10.118713 31.842180 1.234667 1.894180 0.151454 -0.048940 -440214.000000 0 0 1
-11.376067 -28.578668 -10.791213 32.597629 1.191962 1.908205 0.160238 -0.048319 523314.000000 0 0 1
-11.511167 -27.990398 -12.108113 32.597174 1.180626 1.951363 0.171524 -0.053109 -404208.000000 0 0 1
-12.451667 -28.686658 -12.847213 33.808567 1.161279 1.960591 0.183358 -0.055297 -625029.000000 0 0 1
-12.899467 -27.932158 -14.161913 33.869772 1.138161 2.002180 0.185669 -0.051637 1002970.000000 0 0 1
-13.927167 -26.892308 -14.052813 33.386281 1.092942 2.005251 0.192291 -0.061727 972349.000000 0 0 1
-13.466067 -25.849788 -13.249013 32.016915 1.090541 1.997435 0.185590 -0.051285 -259611.000000 0 0 1
-14.239067 -24.542678 -13.479113 31.413063 1.045081 2.014284 0.185137 -0.046052 -284488.000000 0 0 1
-13.849567 -23.844778 -14.669513 31.234253 1.044598 2.059703 0.188409 -0.043160 269824.000000 0 0 1
-14.397367 -22.521378 -14.679513 30.495651 1.001997 2.073007 0.199254 -0.043593 -484470.000000 0 0 1
-14.463667 -21.848578 -16.073913 30.739692 0.986034 2.121051 0.184103 -0.034016 -518969.000000 0 0 1
-13.175467 -21.602178 -16.541913 30.230480 1.023119 2.149803 0.170577 -0.028997 -196719.000000 0 0 1
-13.190067 -20.974778 -17.807413 30.512672 1.009431 2.193960 0.123333 -0.026202 -14313.600000 0 0 1
-13.411767 -19.449578 -17.877613 29.627194 0.967107 2.218578 0.113265 -0.014772 507109.000000 0 0 1
-12.212167 -18.705378 -17.630913 28.458343 0.992407 2.238945 0.092498 -0.004514 770677.000000 0 0 1
-12.530267 -17.306478 -17.689513 27.738793 0.944130 2.262328 0.103955 -0.001356 504311.000000 0 0 1
-11.300667 -16.347278 -17.650413 26.579609 0.965942 2.297030 0.106304 -0.001565 473758.000000 0 0 1
-10.646167 -16.236678 -16.390313 25.408914 0.990434 2.271900 0.128686 -0.004357 60490.400000 0 0 1
-9.467567 -15.479278 -16.545613 24.556062 1.021870 2.310121 0.115158 -0.007288 -385209.000000 0 1 0
-8.820367 -14.825978 -15.295213 23.055412 1.034116 2.296164 0.105162 -0.010571 204139.000000 0 1 0
-8.392767 -15.709178 -14.237613 22.801895 1.080119 2.245166 0.101618 -0.007394 1036880.000000 0 1 0
-7.239667 -16.510178 -14.634413 23.219922 1.157549 2.252675 0.094560 -0.003075 264370.000000 0 1 0
-6.627767 -17.386878 -13.525313 23.003585 1.206607 2.199338 0.075848 -0.000396 -771699.000000 0 1 0
-5.648267 -16.704478 -12.816213 21.799032 1.244736 2.199289 0.062148 -0.004579 -95115.100000 0 1 0
-5.258367 -17.151278 -11.528313 21.324135 1.273307 2.141974 0.056582 -0.019167 -390619.000000 0 1 0
-4.261267 -18.340078 -11.440113 22.031637 1.342500 2.116779 0.056101 -0.013587 654087.000000 0 1 0
-2.957167 -17.840578 -11.784813 21.585015 1.406535 2.148345 0.060514 -0.004627 1030790.000000 0 1 0
-1.894667 -18.793778 -11.559813 22.145544 1.470322 2.119982 0.040151 -0.001699 1671500.000000 0 1 0
-0.458467 -18.471978 -12.090513 22.081772 1.545982 2.150210 0.034365 0.006422 37273.200000 0 1 0
-0.378667 -18.233978 -13.508613 22.695902 1.550032 2.208311 0.043424 0.006996 1117490.000000 0 1 0
0.970533 -17.941278 -13.968713 22.758654 -1.516754 2.231631 0.057736 0.009758 1567680.000000 0 1 0
2.015433 -19.075578 -13.861113 23.665800 -1.465532 2.196543 0.043231 0.001641 -766381.000000 0 1 0
2.004833 -20.067278 -14.894013 25.070832 -1.471221 2.206914 0.064971 0.016975 -236319.000000 0 0 1
1.170133 -21.157978 -14.653413 25.763380 -1.515548 2.175805 0.072050 0.010091 -877404.000000 0 0 1
1.235233 -22.155278 -15.830613 27.257851 -1.515101 2.190474 0.087997 -0.000120 674467.000000 0 0 1
2.485533 -22.827778 -16.021613 27.999596 -1.462342 2.179993 0.105834 -0.010404 894279.000000 0 0 1
3.529033 -22.009878 -16.550913 27.763672 -1.411811 2.209476 0.095911 -0.019532 289741.000000 0 0 1
4.936633 -22.621878 -16.789013 28.600536 -1.355941 2.198166 0.096361 -0.014815 518675.000000 0 0 1
5.082733 -23.095078 -18.097913 29.778369 -1.354171 2.224025 0.097215 -0.031244 423737.000000 0 0 1
6.426433 -23.495278 -18.317613 30.477238 -1.303806 2.215581 0.104612 -0.035222 244962.000000 0 0 1
7.028433 -23.285778 -19.717513 31.311446 -1.277658 2.251992 0.107295 -0.023996 -55202.200000 0 0 1
7.053033 -21.923278 -20.131613 30.588514 -1.259539 2.289146 0.127228 -0.031546 171991.000000 0 0 1
7.735333 -21.708678 -21.351113 31.416112 -1.228498 2.318045 0.109332 -0.023988 -25116.400000 0 0 1
7.956333 -20.217478 -21.668713 30.685220 -1.195874 2.354858 0.100738 -0.022272 450976.000000 0 0 1
6.754333 -19.584778 -22.105813 30.296064 -1.238693 2.388620 0.127635 -0.030391 480452.000000 0 0 1
6.931833 -18.215278 -22.327413 29.637139 -1.207168 2.423952 0.127078 -0.024378 288009.000000 0 0 1
5.551833 -17.527478 -22.536213 29.084639 -1.264044 2.457273 0.132723 -0.027103 -296131.000000 0 0 1
4.930833 -17.919878 -23.762213 30.167497 -1.302281 2.477824 0.135556 -0.028959 378691.000000 0 0 1
3.847233 -17.104278 -24.197913 29.881374 -1.349550 2.514606 0.151599 -0.031821 1072900.000000 0 0 1
2.556933 -16.883978 -23.362313 28.937938 -1.420497 2.510401 0.148847 -0.031693 51724.200000 0 0 1
2.872033 -16.020478 -22.297513 27.605857 -1.393408 2.511053 0.148107 -0.041458 343288.000000 0 0 1
1.632833 -15.553678 -21.773513 26.808001 -1.466199 2.518713 0.135730 -0.043430 699070.000000 0 0 1
1.919033 -14.831878 -20.520513 25.392100 -1.442125 2.511793 0.130965 -0.039649 -56717.300000 0 0 1
2.701933 -13.689978 -20.713113 24.974967 -1.375935 2.548749 0.116864 -0.028267 -251062.000000 0 1 0
2.779433 -13.048178 -19.482813 23.612712 -1.360920 2.541173 0.106407 -0.030349 183059.000000 0 1 0
3.925133 -12.030578 -19.289613 23.070124 -1.255422 2.560985 0.100011 -0.031936 11529.500000 0 1 0
5.273333 -12.509078 -19.212813 23.524822 -1.171843 2.526472 0.101039 -0.035492 670118.000000 0 1 0
6.259933 -11.564678 -19.608813 23.610042 -1.074659 2.550852 0.096564 -0.023264 279693.000000 0 1 0
6.363133 -10.245978 -18.736713 22.283041 -1.015052 2.569649 0.100728 -0.018737 -337925.000000 0 1 0
5.193433 -9.400978 -18.593013 21.472081 -1.066085 2.617775 0.067776 -0.009209 666235.000000 0 1 0
5.194533 -8.360578 -19.546813 21.885162 -1.014853 2.675105 0.083826 -0.014612 97115.400000 0 1 0
4.390133 -8.650678 -20.861713 23.006924 -1.101175 2.706327 0.092901 -0.031697 832302.000000 0 1 0
2.964833 -8.810678 -20.760713 22.746988 -1.246194 2.720590 0.093613 -0.031609 507880.000000 0 1 0
2.342333 -9.017078 -21.989413 23.881551 -1.316647 2.740846 0.091367 -0.033118 -487446.000000 0 1 0
0.831033 -8.870778 -21.928713 23.669596 -1.477387 2.755668 0.050111 -0.034543 -713828.000000 0 1 0
0.459733 -7.525778 -21.585713 22.864638 -1.509784 2.805545 0.046997 -0.033496 -369247.000000 0 1 0
-0.940167 -7.469378 -21.716313 22.984207 1.445585 2.807891 0.052145 -0.030338 -162933.000000 0 1 0
-1.324767 -6.521678 -22.824113 23.774512 1.370390 2.857886 0.038772 -0.022459 -83381.800000 0 1 0
-0.716167 -7.016678 -24.036513 25.049962 1.469082 2.856170 0.042717 -0.023278 -85569.700000 0 0 1
-1.149267 -6.483578 -25.296643 26.139582 1.395360 2.886946 0.068993 -0.027459 -326526.000000 0 0 1
-0.838867 -5.016078 -25.572093 26.072910 1.405094 2.945276 0.084287 -0.029088 -201714.000000 0 0 1
-1.364167 -4.620778 -26.828373 27.257552 1.283726 2.963903 0.085449 -0.029510 -139560.000000 0 0 1
-1.115767 -3.257078 -27.228603 27.445406 1.240759 3.015816 0.079026 -0.029046 -648456.000000 0 0 1
-1.518167 -2.041278 -26.309933 26.432635 0.931318 3.045201 0.070377 -0.029745 538082.000000 0 0 1
-2.880167 -1.849378 -25.941173 26.166008 0.570807 3.010406 0.056100 -0.036102 550920.000000 0 0 1
-3.744767 -1.461978 -27.026833 27.324171 0.372208 2.993933 0.081385 -0.032454 373124.000000 0 0 1
-5.241967 -1.388578 -26.610183 27.157102 0.258949 2.940560 0.059515 -0.041864 338615.000000 0 0 1
-5.549167 -0.135578 -26.123573 26.706791 0.024427 2.932223 0.070945 -0.031890 252305.000000 0 0 1
-6.960267 -0.132378 -25.920563 26.839121 0.019017 2.879213 0.107718 -0.050136 219908.000000 0 0 1
-7.535167 1.234222 -25.439093 26.560299 -0.162353 2.849997 0.116388 -0.048255 -460520.000000 0 0 1
-7.948367 2.131022 -26.462263 27.712256 -0.261948 2.840098 0.142703 -0.042990 1130270.000000 0 0 1
-9.108367 1.842522 -27.280693 28.820018 -0.199595 2.813282 0.168196 -0.047063 1827360.000000 0 0 1
-10.546367 1.563122 -26.662373 28.715002 -0.147143 2.761195 0.162587 -0.049753 930704.000000 0 0 1
-11.583367 2.148122 -27.442983 29.864797 -0.183366 2.736098 0.164827 -0.055889 974969.000000 0 0 1
-12.878467 1.709622 -26.971053 29.936857 -0.131979 2.692707 0.106456 -0.033390 1028280.000000 0 0 1
-14.033067 2.139022 -27.901283 31.304695 -0.151263 2.670959 0.086111 -0.024240 -499507.000000 0 0 1
-15.286467 1.618822 -27.561603 31.558495 -0.105506 2.632834 0.078298 -0.018389 -599339.000000 0 0 1
-16.329967 2.138122 -28.307483 32.749854 -0.130192 2.614662 0.075203 -0.017023 -328467.000000 0 0 1
-17.127867 3.354222 -27.734863 32.769456 -0.193387 2.579916 0.077632 -0.005697 -300407.000000 0 0 1
-16.566467 4.682322 -27.741443 32.649037 -0.275454 2.586187 0.093443 -0.015436 46300.000000 0 0 1
-16.133167 5.252122 -28.951363 33.556598 -0.314728 2.611504 0.071511 -0.018068 349164.000000 0 0 1
-17.275567 5.773422 -29.906413 35.016727 -0.322527 2.594539 0.075514 -0.012645 607098.000000 0 0 1
-18.018067 6.816022 -29.271343 35.041695 -0.361650 2.559527 0.083213 -0.011627 338007.000000 0 0 1
-19.019567 7.371722 -30.111853 36.370453 -0.369759 2.546186 0.070674 -0.009788 -265546.000000 0 0 1
-19.889967 8.390722 -29.382453 36.460164 -0.399205 2.507954 0.070318 -0.016777 -134568.000000 0 0 1
-19.195367 9.490022 -28.775123 35.868235 -0.459151 2.501843 0.066199 -0.015382 399503.000000 0 0 1
-20.158967 10.320822 -28.184503 36.156182 -0.473179 2.464697 0.080579 -0.014583 39766.300000 0 0 1
-9.353967 25.223022 30.099134 40.368990 -1.215669 0.729361 0.068184 -0.017237 -642043.000000 0 0 1
-10.068267 26.411122 30.226984 41.383426 -1.206590 0.751870 0.064017 -0.008594 -280348.000000 0 0 1
-9.806867 27.244722 31.306260 42.644242 -1.225281 0.746417 0.077683 -0.015381 84349.000000 0 0 1
-8.394167 27.891022 31.342339 42.786836 -1.278456 0.748776 0.076986 -0.018500 148050.000000 0 0 1
-8.282667 28.691422 30.189654 42.464284 -1.289756 0.779959 0.087519 -0.008829 395260.000000 0 0 1
-6.944967 28.883122 29.736264 42.032281 -1.334825 0.784895 0.094596 -0.005425 444211.000000 0 0 1
-6.711767 29.966122 28.576804 41.948182 -1.350454 0.821340 0.116074 -0.011377 -123448.000000 0 0 1
-7.051467 31.223822 29.061104 43.234222 -1.348686 0.833649 0.113447 -0.018978 429547.000000 0 0 1
-6.421467 32.248422 28.297154 43.381158 -1.374242 0.860193 0.117848 -0.020857 71734.500000 0 0 1
-6.507267 33.622622 29.005284 44.879079 -1.379622 0.868073 0.128012 -0.027742 -34615.300000 0 0 1
-5.765467 33.744622 30.246284 45.681263 -1.401574 0.847158 0.133051 -0.032084 -4346.050000 0 0 1
-6.232067 -32.899549 31.221004 45.781766 1.383587 0.820367 0.131850 -0.039454 -220179.000000 0 0 1
-7.481567 -33.369449 32.002852 46.836701 1.350240 0.818543 0.103895 -0.034172 -102993.000000 0 0 1
-7.385667 33.197422 32.971704 47.368240 -1.351884 0.800884 0.101993 -0.032639 -140654.000000 0 0 1
-7.207267 31.820922 32.560039 46.094163 -1.348060 0.786424 0.104638 -0.024134 -162866.000000 0 0 1
-7.099767 30.909722 -33.578893 46.188306 -1.345019 2.384739 0.092685 -0.018038 -397834.000000 0 0 1
-5.808267 30.667722 -33.096093 45.492818 -1.383620 2.385470 0.102713 -0.018525 -519981.000000 0 0 1
-5.831067 30.269322 -31.729073 44.237622 -1.380488 2.370632 0.103142 -0.015331 676868.000000 0 0 1
-4.363067 30.104322 -31.142903 43.533745 -1.426867 2.367955 0.099390 -0.018377 1486010.000000 0 0 1
-3.716167 28.851322 -31.412093 42.812711 -1.442698 2.394562 0.114733 -0.012726 175717.000000 0 0 1
-3.439267 28.583922 -32.772993 43.622680 -1.451050 2.420801 0.098812 -0.014677 -760211.000000 0 0 1
-2.696867 27.229722 -32.987313 42.858997 -1.472077 2.449121 0.116355 -0.032822 149922.000000 0 0 1
-1.409767 27.259322 -32.354623 42.330600 -1.519125 2.440801 0.134077 -0.025911 842553.000000 0 0 1
-0.657167 26.023922 -32.392713 41.556759 -1.545549 2.464634 0.146084 -0.030713 341584.000000 0 0 1
0.014433 25.674622 33.645874 42.322940 1.570234 0.651822 0.131232 -0.026357 -828193.000000 0 0 1
-0.887867 25.302222 32.639778 41.307939 -1.535720 0.659730 0.137316 -0.028141 -179454.000000 0 0 1
-0.380067 25.266222 31.290349 40.219552 -1.555755 0.679338 0.130036 -0.027849 -6186.560000 0 0 1
-0.210767 26.635722 30.595044 40.565537 -1.562884 0.716342 0.124786 -0.030411 -174309.000000 0 0 1
-1.443767 27.251922 30.363314 40.825023 -1.517867 0.732144 0.130240 -0.029904 -221142.000000 0 0 1
-1.305167 28.422422 29.574524 41.038884 -1.524908 0.766062 0.117158 -0.022458 417475.000000 0 0 1
-2.552467 29.358222 29.716984 41.851158 -1.484072 0.781208 0.130554 -0.029157 409544.000000 0 0 1
-2.529867 30.063922 30.910934 43.194044 -1.486845 0.773271 0.145907 -0.029929 -439397.000000 0 0 1
-3.383667 31.142222 30.911924 44.009479 -1.462569 0.792043 0.139553 -0.029021 -514048.000000 0 0 1
-3.044367 32.089122 32.024300 45.437162 -1.476207 0.788649 0.124538 -0.017800 -188663.000000 0 0 1
-1.743967 32.597422 31.962247 45.686087 -1.517347 0.795951 0.197409 -0.042346 -241582.000000 0 0 1
-1.253567 33.206722 33.212902 46.982493 -1.533064 0.785661 0.143005 -0.029894 -282120.000000 0 0 1
0.190933 33.678822 33.267974 47.339810 1.565127 0.791543 0.152460 -0.043853 -459735.000000 0 0 1
0.420533 -32.669349 32.509666 46.090580 -1.557925 0.787890 0.175321 -0.055225 -145482.000000 0 0 1
1.788533 -32.570049 32.210929 45.842676 -1.515938 0.791694 0.177435 -0.055567 -360210.000000 0 0 1
2.129033 -31.176549 31.728259 44.533049 -1.502613 0.777791 0.178037 -0.058970 -225588.000000 0 0 1
1.880533 -30.216649 32.731854 44.586506 -1.508642 0.746426 0.154524 -0.047399 372168.000000 0 0 1
2.440233 -28.926149 32.442675 43.533941 -1.486635 0.729921 0.146949 -0.058403 139585.000000 0 0 1
2.095333 -28.057749 33.643934 43.858203 -1.496255 0.696477 0.141687 -0.062673 -65688.900000 0 0 1
0.722933 -27.762649 33.638044 43.621157 -1.544762 0.690166 0.138377 -0.064983 -153270.000000 0 0 1
0.216433 -27.283649 -32.512543 42.444196 -1.562864 2.443402 0.119307 -0.050981 -584648.000000 0 0 1
-1.264067 -26.955249 -32.479183 42.226540 1.523936 2.448330 0.151669 -0.053114 -591844.000000 0 0 1
-1.780067 -26.687349 -31.180213 41.080274 1.504194 2.432583 0.158572 -0.051269 -165835.000000 0 0 1
-3.158667 -26.434449 -31.291403 41.084172 1.451870 2.436639 0.190100 -0.059272 -128317.000000 0 0 1
-3.783867 -25.683649 -30.084503 39.737197 1.424523 2.429639 0.195688 -0.064579 -63197.400000 0 0 1
-4.029067 -26.537249 -28.975783 39.497531 1.420120 2.394415 0.198643 -0.058141 41910.400000 0 0 1
-4.145567 -25.864249 -27.707183 38.129163 1.411866 2.384253 0.211618 -0.051102 -451883.000000 0 0 1
-2.848867 -25.567049 -26.961933 37.265747 1.459827 2.379662 0.193998 -0.055657 26438.400000 0 0 1
-2.070867 -24.463949 -27.472673 36.844553 1.486348 2.412287 0.185278 -0.049650 538304.000000 0 0 1
-1.010567 -24.067549 -26.615543 35.897845 1.528832 2.405987 0.143371 -0.048541 -457386.000000 0 0 1
-0.168267 -22.866149 -27.183953 35.522618 1.563438 2.442238 0.083602 -0.028226 820041.000000 0 0 1
0.736533 -23.222049 -28.236443 36.566416 -1.539090 2.453087 0.048287 -0.037026 255012.000000 0 0 1
1.832233 -24.061249 -27.957653 36.931438 -1.494794 2.429529 0.040332 -0.032483 -506060.000000 0 0 1
2.616933 -24.524149 -29.204053 38.225109 -1.464490 2.440289 0.037412 -0.039315 34475.500000 0 0 1
3.616933 -23.615049 -29.597563 38.036410 -1.418815 2.462492 0.062492 -0.036016 -25039.800000 0 0 1
4.275933 -23.987349 -30.778813 39.255724 -1.394391 2.471975 0.085039 -0.041484 -55837.700000 0 0 1
5.388533 -23.013649 -31.215073 39.154120 -1.340795 2.493499 0.103081 -0.046725 1172960.000000 0 0 1
6.626433 -22.807549 -30.447683 38.615480 -1.288044 2.479136 0.087660 -0.040612 3000510.000000 0 0 1
7.706633 -23.804349 -30.591713 39.520781 -1.257696 2.456036 0.093003 -0.034097 1413210.000000 0 0 1
8.441733 -23.954249 -31.963833 40.825917 -1.231976 2.470158 0.098034 -0.031537 -635017.000000 0 0 1
7.632033 -24.503249 -32.947723 41.763735 -1.268850 2.479825 0.081937 -0.040562 -277333.000000 0 0 1
7.771133 -23.905049 33.137348 41.592376 -1.256489 0.648953 0.100919 -0.043652 36561.300000 0 0 1
7.069133 -22.523049 32.928462 40.515972 -1.266671 0.621977 0.097933 -0.036869 -62850.600000 0 0 1
5.678733 -22.537549 33.177921 40.508808 -1.323967 0.611078 0.103347 -0.037807 265471.000000 0 0 1
4.988133 -21.545549 32.405483 39.232735 -1.343289 0.598857 0.127724 -0.051270 549434.000000 0 0 1
3.496333 -21.302249 32.769268 39.240732 -1.408117 0.582513 0.099885 -0.054090 570302.000000 0 0 1
2.464333 -22.212549 32.475461 39.422403 -1.460305 0.602746 0.099189 -0.047137 183344.000000 0 0 1
2.497733 -23.363249 33.295444 40.751278 -1.464292 0.614537 0.094005 -0.037885 -504478.000000 0 0 1
1.276233 -24.266149 33.055291 41.025931 -1.518252 0.633911 0.106355 -0.048961 -87665.700000 0 0 1
1.096833 -24.842949 31.790541 40.361041 -1.526674 0.663804 0.113860 -0.051087 -94523.500000 0 0 1
-0.224367 -25.261649 31.542854 40.412286 1.561915 0.675289 0.143140 -0.056911 -237831.000000 0 0 1
-0.372467 -26.332749 30.389464 40.212833 1.556653 0.714050 0.142361 -0.069852 100924.000000 0 0 1
-1.706967 -26.462749 29.929004 39.986699 1.506381 0.725038 0.171901 -0.066775 249470.000000 0 0 1
-1.836967 -27.554949 29.039734 40.074379 1.504229 0.760276 0.176792 -0.072644 186954.000000 0 0 1
-3.243067 -27.653749 28.417684 39.784571 1.454056 0.775189 0.202206 -0.065018 133699.000000 0 0 1
-4.336067 -27.991549 29.238444 40.708905 1.417112 0.769538 0.218023 -0.062391 353614.000000 0 0 1
-5.517867 -28.206749 28.461154 40.448793 1.377614 0.790297 0.200014 -0.053143 354173.000000 0 0 1
-6.599067 -28.902049 29.335264 41.706520 1.346319 0.790664 0.175449 -0.044323 -188535.000000 0 0 1
-7.678067 -29.381849 28.525284 41.664584 1.315192 0.816685 0.168135 -0.036853 881086.000000 0 0 1
-8.966967 -29.293449 29.140004 42.280640 1.273745 0.810406 0.139518 -0.035096 512017.000000 0 0 1
-9.239967 -30.369049 30.242724 43.843797 1.275439 0.809606 0.097089 -0.027211 -716809.000000 0 0 1
-9.256267 -31.727049 29.858054 44.539730 1.286928 0.836090 0.110034 -0.024237 313204.000000 0 0 1
-10.395567 -32.066549 29.085874 44.523246 1.257300 0.858896 0.097776 -0.021635 -171473.000000 0 0 1
-10.522267 -33.515549 28.659784 45.336446 1.266589 0.886462 0.114278 -0.015287 -284933.000000 0 0 1
-10.846667 33.161622 29.682984 45.808546 -1.254680 0.865868 0.105026 -0.015752 147945.000000 0 0 1
-10.692567 31.824022 29.258894 44.532934 -1.246656 0.853941 0.101213 -0.023813 -100722.000000 0 0 1
-11.242867 30.616222 30.029604 44.334323 -1.218864 0.826650 0.086968 -0.006441 982798.000000 0 0 1
-12.687867 30.569822 30.014134 44.680468 -1.177387 0.834227 0.084066 0.004702 1038600.000000 0 0 1
-13.299567 29.397822 30.518954 44.413027 -1.145949 0.813221 0.077015 -0.000071 94266.700000 0 0 1
-13.284067 29.249422 32.058210 45.384182 -1.144484 0.786434 0.081184 -0.013260 8258.790000 0 0 1
-14.299567 30.037922 32.709514 46.654760 -1.126491 0.793862 0.091666 -0.005922 600145.000000 0 0 1
-14.435767 29.645322 -33.339863 46.891182 -1.117644 2.361723 0.087337 -0.007177 -374757.000000 0 0 1
-15.708367 30.106522 -32.632423 47.095971 -1.089893 2.336289 0.081647 -0.003953 -359126.000000 0 0 1
-15.858267 29.573522 -31.356713 45.927348 -1.078585 2.322311 0.068082 -0.002621 -1093290.000000 0 0 1
-17.119067 29.817322 -30.881783 46.214929 -1.049615 2.302611 0.089910 -0.003603 -984547.000000 0 0 1
-17.249067 29.346922 -29.412263 44.987258 -1.039422 2.283380 0.094365 -0.009294 -106272.000000 0 0 1
-17.370967 27.961622 -29.279043 44.055251 -1.014903 2.297752 0.076106 -0.008807 153737.000000 0 0 1
-17.147867 27.628922 -27.928383 42.864918 -1.015332 2.280414 0.063237 -0.003932 -25895.200000 0 0 1
-17.681267 26.200022 -27.637523 41.986915 -0.977145 2.289277 0.052915 -0.013233 653477.000000 0 0 1
-19.108567 26.215122 -27.649393 42.624627 -0.940927 2.276634 0.057882 -0.004919 328350.000000 0 0 1
-19.613867 24.908022 -27.483183 41.957582 -0.903754 2.285009 0.048478 -0.007969 -619343.000000 0 0 1
-21.102867 24.710522 -27.687113 42.690949 -0.863983 2.276471 0.067825 -0.011446 -403233.000000 0 0 1
-21.957367 25.185922 -26.629193 42.726696 -0.853775 2.243681 0.070684 -0.008860 932197.000000 0 0 1
-23.288767 24.737422 -26.908743 43.340364 -0.815553 2.240649 0.096098 -0.015674 725653.000000 0 0 1
-24.354267 24.790722 -25.777223 43.268643 -0.794279 2.208993 0.107000 -0.012073 -126936.000000 0 0 1
-24.801167 26.128522 -25.630003 44.211928 -0.811455 2.189166 0.083696 -0.000037 -216010.000000 0 0 1
-26.044907 26.233822 -24.981213 44.616270 -0.789012 2.165077 0.090492 0.001946 -4158.350000 0 0 1
-26.158667 25.885022 -23.473013 43.649657 -0.780140 2.138574 0.090768 0.004651 -628576.000000 0 0 1
-25.932137 24.464522 -23.291013 42.584737 -0.756285 2.149493 0.098457 0.004048 -559004.000000 0 0 1
-27.074027 23.674822 -23.124313 42.757853 -0.718517 2.142208 0.106120 0.010793 -315876.000000 0 0 1
-27.747467 23.686522 -21.696013 42.446322 -0.706607 2.107307 0.082288 0.007980 224889.000000 0 0 1
-27.056457 23.076622 -20.579513 41.086478 -0.706179 2.095415 0.090402 0.002810 303821.000000 0 0 1
-26.001987 23.879422 -20.074313 40.611675 -0.742872 2.087825 0.077292 0.011212 -47779.900000 0 0 1
-25.247057 23.174522 -18.933013 39.152667 -0.742622 2.075524 0.072939 0.006569 -298626.000000 0 0 1
-25.921657 23.175422 -17.713813 39.023219 -0.729522 2.041967 0.070760 0.009778 -286259.000000 0 0 1
-25.037877 23.222122 -16.642613 37.988667 -0.747791 2.024274 0.087746 -0.015077 -493845.000000 0 0 1
-25.698047 23.294022 -15.260013 37.892863 -0.736368 1.985277 0.083587 -0.023266 -252353.000000 0 0 1
-26.055307 24.626022 -14.932213 38.836722 -0.757204 1.965448 0.092222 -0.024568 206825.000000 0 0 1
-26.774777 24.740022 -13.700013 38.944162 -0.745920 1.930275 0.083969 -0.035279 56559.000000 0 0 1
-26.792557 26.137622 -13.129113 39.665980 -0.773025 1.908151 0.084329 -0.026710 117778.000000 0 0 1
-25.511387 26.584122 -12.740513 38.985473 -0.805987 1.903714 0.103198 -0.033996 -109575.000000 0 0 1
-25.416377 27.428122 -11.585313 39.147332 -0.823449 1.871237 0.118099 -0.029526 321092.000000 0 0 1
-23.929567 27.806522 -11.341413 38.398626 -0.860196 1.870628 0.124725 -0.029320 102612.000000 0 0 1
-23.051467 26.787722 -10.992213 37.010552 -0.860224 1.872348 0.117064 -0.028703 -1290640.000000 0 0 1
-21.884867 27.280022 -10.503113 36.516604 -0.894697 1.862543 0.106629 -0.025769 -435038.000000 0 0 1
-20.806167 26.221922 -9.983613 34.930764 -0.900053 1.860649 0.125374 -0.029016 775606.000000 0 0 1
-20.115667 25.509522 -10.989913 34.295101 -0.903073 1.897002 0.113601 -0.042091 91114.500000 0 0 1
-19.239067 24.571422 -10.385313 32.889986 -0.906517 1.892053 0.126933 -0.028848 -244659.000000 0 0 1
-18.733667 23.566822 -11.352813 32.175017 -0.899162 1.931407 0.121608 -0.036982 -525401.000000 0 0 1
-17.994667 22.539422 -10.802313 30.798109 -0.897054 1.929164 0.088078 -0.025954 -132216.000000 0 0 1
-17.643167 21.481022 -11.639813 30.136372 -0.883179 1.967346 0.097287 -0.008224 281162.000000 0 0 1
-17.379567 20.215222 -10.792813 28.760900 -0.860682 1.955473 0.087216 -0.005305 556264.000000 0 0 1
-18.650367 19.650422 -10.497313 29.054584 -0.811503 1.940454 0.079420 -0.004195 560199.000000 0 0 1
-18.429167 18.349522 -9.978313 27.855087 -0.783233 1.937159 0.110212 -0.025536 -721747.000000 0 0 1
-19.655067 17.430222 -9.933313 28.085673 -0.725477 1.932298 0.110424 -0.009623 -297362.000000 0 0 1
-20.200767 16.890922 -11.131513 28.588194 -0.696400 1.970749 0.107134 -0.013498 126115.000000 0 0 1
-20.884967 17.811022 -11.945013 29.934891 -0.706126 1.981258 0.114858 -0.017152 -809676.000000 0 0 1
-21.549867 17.219422 -13.199413 30.579891 -0.674161 2.017103 0.117061 -0.019128 -48895.500000 0 0 1
-20.692067 16.854222 -14.283513 30.269542 -0.683536 2.062215 0.117790 -0.027352 -66393.200000 0 0 1
-21.376567 16.588222 -15.486713 31.176353 -0.659935 2.090641 0.122752 -0.024824 -182318.000000 0 0 1
-20.507767 16.195422 -16.728213 31.027299 -0.668442 2.140218 0.133130 -0.027974 -40395.400000 0 0 1
-19.853467 17.350122 -17.285213 31.527218 -0.718212 2.151082 0.122334 -0.026566 -25198.400000 0 0 1
-19.202767 17.006222 -18.438213 31.589959 -0.724809 2.194041 0.119568 -0.018874 -896295.000000 0 0 1
-18.321767 18.175222 -18.919813 31.999768 -0.781383 2.203402 0.097583 -0.017361 -1098520.000000 0 0 1
-17.254767 18.472022 -18.125113 31.104056 -0.819456 2.192874 0.113269 -0.018170 -780430.000000 0 0 1
-16.533567 19.537922 -18.673113 31.682398 -0.868495 2.201093 0.110772 -0.020216 -146512.000000 0 0 1
34.378152 29.978822 2.668587 45.691448 0.717146 1.512359 0.082857 0.005035 295676.000000 0 0 1
35.534452 30.199422 1.870687 46.671210 0.704415 1.530703 0.097614 -0.001089 300208.000000 0 0 1
35.312272 31.179622 0.864287 47.115521 0.723325 1.552451 0.083754 0.008281 745512.000000 0 0 1
36.565402 31.257522 -0.099513 48.104794 0.707297 1.572865 0.059038 0.005273 1326920.000000 0 0 1
37.686852 31.915322 0.497787 49.387593 0.702666 1.560717 0.066481 -0.000081 531116.000000 0 0 1
-37.226457 31.991722 -0.436713 49.086354 -0.709915 1.579693 0.052584 -0.002078 305819.000000 0 0 1
-36.084647 32.948122 0.008087 48.863898 -0.739994 1.570631 0.061303 -0.004718 -250552.000000 0 0 1
-35.278470 32.372622 0.977287 47.890628 -0.742471 1.550388 0.058271 0.004682 -427820.000000 0 0 1
-34.713099 33.444322 1.673787 48.231976 -0.766785 1.536086 0.044362 0.001849 -2590.650000 0 0 1
-33.701927 33.180022 2.834987 47.379013 -0.777595 1.510924 0.075826 0.003281 120965.000000 0 0 1
-33.428997 -33.114749 3.437987 47.179490 0.780676 1.497861 0.069436 0.004455 -96380.300000 0 0 1
-32.680877 -33.256549 4.636987 46.856584 0.794129 1.471673 0.093441 -0.001329 -180480.000000 0 0 1
-32.418207 -31.943049 5.414887 45.832517 0.778016 1.452375 0.102560 -0.003630 1114770.000000 0 0 1
-33.633787 -31.318449 5.948387 46.340697 0.749766 1.442079 0.083281 0.000041 1328450.000000 0 0 1
-34.126742 -31.891549 7.160387 47.254382 0.751554 1.418682 0.077926 -0.015483 47613.300000 0 0 1
-35.268083 -31.051449 7.883987 47.646484 0.721903 1.404563 0.086154 -0.018438 1013750.000000 0 0 1
-36.578307 -30.985249 7.377787 48.502474 0.702804 1.418092 0.060373 -0.013614 -14337.400000 0 0 1
-37.305857 -32.173549 7.219187 49.789366 0.711664 1.425289 0.058595 -0.005540 -735520.000000 0 0 1
37.173372 -31.997249 6.968787 49.540363 -0.710706 1.429659 0.068095 -0.001155 428762.000000 0 0 1
36.438212 -31.917849 8.237387 49.136005 -0.719365 1.402356 0.060599 0.003297 362698.000000 0 0 1
35.047662 -31.957249 8.007487 48.101188 -0.739309 1.403546 0.053427 0.013232 -301494.000000 0 0 1
34.260832 -31.977849 9.328087 47.784942 -0.750946 1.374325 0.057136 0.007032 -1266080.000000 0 0 1
32.902012 -31.909849 9.038587 46.716988 -0.770091 1.376093 0.063408 -0.002239 -702502.000000 0 0 1
32.123762 -31.961649 10.207287 46.450746 -0.782869 1.349244 0.078688 -0.001711 -142844.000000 0 0 1
32.029902 -30.650349 11.096287 45.699958 -0.763392 1.325538 0.082708 -0.009288 -256166.000000 0 0 1
31.243752 -29.585249 10.482987 44.287154 -0.758140 1.331823 0.080059 -0.020258 866552.000000 0 0 1
32.000072 -28.775449 9.551087 44.082359 -0.732390 1.352400 0.070631 -0.018797 90525.400000 0 0 1
31.212582 -27.580749 8.977087 42.608815 -0.723704 1.358520 0.063206 -0.027748 -55719.300000 0 0 1
31.845222 -26.914549 7.893087 42.435975 -0.701682 1.383707 0.065914 -0.027646 -130777.000000 0 0 1
31.185242 -25.701149 7.520887 41.105135 -0.689291 1.386793 0.061177 -0.027331 40538.800000 0 0 1
31.330362 -25.282249 6.048087 40.710724 -0.678969 1.421682 0.053185 -0.015865 -183732.000000 0 0 1
32.609502 -24.897549 5.631487 41.412332 -0.652089 1.434388 0.060405 -0.020562 -480122.000000 0 0 1
32.477952 -24.371149 4.292087 40.831266 -0.643751 1.465484 0.057455 -0.019188 -225863.000000 0 0 1
33.872532 -24.069349 3.779287 41.724873 -0.617795 1.480096 0.064381 -0.013382 -219362.000000 0 0 1
34.714612 -25.157849 3.448687 43.010640 -0.627115 1.490528 0.058440 -0.003704 -259881.000000 0 0 1
36.039762 -24.771949 3.204487 43.849546 -0.602186 1.497652 0.063222 -0.006952 -15682.300000 0 0 1
37.021272 -25.960949 3.336087 45.339552 -0.611560 1.497150 0.061593 -0.007754 -126931.000000 0 0 1
37.004732 -26.656049 4.563487 45.833618 -0.624248 1.471065 0.045104 -0.009470 -48206.800000 0 0 1
37.643392 -27.931049 4.568787 47.096096 -0.638355 1.473634 0.043529 -0.002257 -714630.000000 0 0 1
36.964822 -28.807349 5.654687 47.204205 -0.662002 1.450716 0.055059 0.003538 962016.000000 0 0 1
35.659552 -29.335049 5.348087 46.483877 -0.688395 1.455488 0.047257 0.006850 726106.000000 0 0 1
34.688752 -28.312449 5.580387 45.122556 -0.684532 1.446807 0.046967 -0.000627 -762065.000000 0 0 1
33.236782 -28.857049 5.694887 44.382933 -0.714981 1.442129 0.051052 -0.002468 52227.600000 0 0 1
32.807902 -29.300049 4.438487 44.210310 -0.728978 1.470232 0.033115 -0.002190 170029.000000 0 0 1
31.787552 -28.478149 3.854487 42.852194 -0.730540 1.480726 0.040103 -0.006649 199811.000000 0 0 1
30.374572 -29.084649 3.883687 42.232860 -0.763707 1.478707 0.050286 -0.006325 -80207.400000 0 0 1
30.218172 -30.237549 3.095487 42.860580 -0.785719 1.498511 0.058764 -0.000625 688130.000000 0 0 1
28.883872 -30.780649 3.228487 42.333788 -0.817178 1.494460 0.071608 -0.000340 755267.000000 0 0 1
28.774572 -32.214349 2.604987 43.272696 -0.841739 1.510561 0.072025 -0.001040 -556362.000000 0 0 1
28.882872 -32.274149 1.224887 43.328297 -0.840793 1.542523 0.070122 -0.001484 187199.000000 0 0 1
28.812672 -33.640449 0.818487 44.300337 -0.862547 1.552319 0.067076 -0.003086 -93156.500000 0 0 1
28.608472 33.674022 -0.709013 44.191482 0.866551 1.586841 0.062391 -0.004395 262313.000000 0 0 1
29.702472 -33.443549 -1.506513 44.754636 -0.844574 1.604464 0.057445 -0.008812 599831.000000 0 0 1
29.330472 -33.663149 -2.838713 44.738602 -0.854070 1.634290 0.054655 -0.011883 259366.000000 0 0 1
30.383572 -33.008949 -3.768213 45.021679 -0.826789 1.654592 0.046188 -0.010776 264589.000000 0 0 1
30.431172 -31.585049 -3.771413 44.021530 -0.804002 1.656573 0.034072 -0.015473 736350.000000 0 0 1
31.504582 -31.197349 -4.663213 44.582046 -0.780498 1.675586 0.029694 -0.019912 465048.000000 0 0 1
31.695362 -29.689449 -4.551513 43.666642 -0.752732 1.675219 0.032246 -0.008000 -50908.000000 0 0 1
30.600372 -28.950649 -5.114913 42.434481 -0.757703 1.691627 0.027017 -0.021735 343294.000000 0 0 1
30.630172 -27.536249 -5.086513 41.500904 -0.732257 1.693669 0.032398 -0.019547 -277191.000000 0 0 1
31.704842 -26.783549 -5.873313 41.917196 -0.701455 1.711376 0.068675 -0.023103 -691829.000000 0 0 1
33.051202 -26.872849 -5.458313 42.945607 -0.682658 1.698239 0.066456 -0.024774 190095.000000 0 0 1
33.964972 -26.160349 -6.279713 43.329182 -0.656314 1.716239 0.083725 -0.026363 77523.300000 0 0 1
34.374002 -26.985849 -7.509813 44.341914 -0.665568 1.740978 0.096060 0.007374 -492091.000000 0 0 1
33.290122 -27.066349 -8.456513 43.730219 -0.682644 1.765401 0.092875 -0.002364 433864.000000 0 0 1
33.215332 -28.122449 -9.373113 44.519498 -0.702558 1.782923 0.084208 -0.002639 -62606.400000 0 0 1
32.907822 -29.531749 -8.874913 45.097816 -0.731381 1.768882 0.084122 -0.002755 -278286.000000 0 0 1
34.058692 -30.160249 -8.375913 46.257876 -0.724767 1.752871 0.093721 -0.004535 -421027.000000 0 0 1
33.818592 -31.512149 -7.893113 46.893645 -0.750109 1.739921 0.095139 -0.015687 505626.000000 0 0 1
35.188722 -32.196149 -7.593613 48.295974 -0.741017 1.728682 0.083077 -0.018424 564835.000000 0 0 1
35.146992 -33.433949 -6.839113 48.988912 -0.760425 1.710859 0.065928 -0.015941 21173.400000 0 0 1
34.603792 -33.346549 -5.502113 48.370322 -0.766898 1.684793 0.063339 -0.016931 -116850.000000 0 0 1
34.522132 32.817322 -4.854913 47.878225 0.760087 1.672372 0.034092 -0.005356 -73973.800000 0 0 1
33.463062 32.046422 -5.389913 46.645480 0.763777 1.686606 0.046704 -0.019458 289442.000000 0 0 1
33.532922 30.726822 -4.970213 45.752568 0.741758 1.679644 0.046828 -0.005301 -529466.000000 0 0 1
32.276012 30.013122 -5.414013 44.405405 0.749085 1.693023 0.061861 -0.016917 -692738.000000 0 0 1
32.259602 29.731622 -6.753613 44.387639 0.744641 1.723540 0.043928 -0.015217 -283158.000000 0 0 1
31.042142 29.228922 -7.221813 43.244642 0.755323 1.738581 0.039962 -0.010916 -495155.000000 0 0 1
31.065802 28.853722 -8.690213 43.279800 0.748497 1.772962 0.047357 -0.012355 -328395.000000 0 0 1
31.902652 27.757022 -8.943713 43.222927 0.716022 1.779223 0.066670 -0.010559 -16064.800000 0 0 1
32.172512 27.544022 -10.337913 43.596056 0.708045 1.810206 0.056161 -0.012130 429416.000000 0 0 1
33.356152 28.334122 -10.994313 45.125716 0.704170 1.816911 0.073951 -0.015528 -388997.000000 0 0 1
34.629322 27.848722 -10.655013 45.697599 0.677294 1.806126 0.068367 -0.018273 620207.000000 0 0 1
35.715052 28.650622 -11.183913 47.132823 0.676081 1.810366 0.085743 -0.021894 608469.000000 0 0 1
35.992132 29.986622 -10.439213 47.995919 0.694626 1.790051 0.092545 -0.026649 -882747.000000 0 0 1
36.683712 29.913922 -9.200013 48.220096 0.684094 1.762765 0.073960 -0.017182 316847.000000 0 0 1
36.597552 31.093022 -8.487613 48.766755 0.704258 1.745732 0.071257 -0.015715 -469879.000000 0 0 1
37.687362 31.187022 -7.361813 49.468817 0.691297 1.720168 0.061386 -0.003714 -186808.000000 0 0 1
-37.019797 31.491222 -7.782913 49.221298 -0.704876 1.729584 0.082691 -0.009831 -873772.000000 0 0 1
-36.281747 30.401522 -8.284613 48.054683 -0.697444 1.744062 0.088975 -0.021488 -2061040.000000 0 0 1
-34.953822 30.873522 -8.758013 47.451520 -0.723492 1.756428 0.142386 -0.028993 -1794760.000000 0 0 1
-34.172519 31.450222 -7.744513 47.083490 -0.743938 1.736032 0.129574 -0.023092 258695.000000 0 0 1
-32.844317 31.684622 -8.192913 46.365809 -0.767428 1.748431 0.174207 -0.040174 245355.000000 0 0 1
-32.583827 33.038522 -8.993513 47.266616 -0.792327 1.762236 0.133179 -0.037833 -391844.000000 0 0 1
-32.743437 -33.325949 -8.209013 47.435635 0.794215 1.744728 0.105675 -0.032393 -189158.000000 0 0 1
-31.719527 -33.155849 -7.286513 46.460005 0.807534 1.728281 0.163070 -0.037002 -476809.000000 0 0 1
-31.953467 -31.870349 -6.436213 45.586929 0.784096 1.712455 0.122335 -0.032699 895062.000000 0 0 1
-33.064597 -31.822149 -5.498813 46.218543 0.766253 1.690053 0.111316 -0.038367 675136.000000 0 0 1
-32.965107 -32.731449 -4.411013 46.663724 0.781842 1.665465 0.122837 -0.036367 -399267.000000 0 0 1
-34.129111 -32.627649 -3.430913 47.340584 0.762910 1.643333 0.097622 -0.026285 -530635.000000 0 0 1
-34.197121 -31.404849 -2.751213 46.511040 0.742860 1.629983 0.080469 -0.022751 -118000.000000 0 0 1
-35.233664 -31.324549 -1.801613 47.179278 0.726733 1.608992 0.077238 -0.013788 10598.200000 0 0 1
-35.854455 -29.898049 -1.655813 46.713778 0.695056 1.606250 0.088085 -0.014496 287216.000000 0 0 1
-36.965717 -29.916449 -0.775713 47.561118 0.680388 1.587107 0.069605 -0.000907 -161556.000000 0 0 1
-37.536207 -28.636649 -0.676113 47.217387 0.651711 1.585116 0.076608 -0.006995 -69525.700000 0 0 1
37.502022 -28.615049 0.538987 47.175345 -0.651786 1.559371 0.071062 -0.003872 454168.000000 0 0 1
36.257442 -29.265249 0.209687 46.595074 -0.679086 1.566296 0.046167 -0.001036 1043100.000000 0 0 1
35.254622 -29.267649 1.237487 45.836831 -0.692874 1.543795 0.044243 -0.003511 596260.000000 0 0 1
34.360862 -28.006449 1.288487 44.347381 -0.683862 1.541738 0.037580 0.003009 -1165130.000000 0 0 1
33.393692 -27.989849 0.304687 43.573652 -0.697590 1.563804 0.037137 -0.003994 -651531.000000 0 0 1
32.715802 -26.782049 0.311287 42.281187 -0.685996 1.563434 0.040571 -0.005451 -556989.000000 0 0 1
31.490772 -26.667749 -0.619613 41.270104 -0.702659 1.585810 0.034181 -0.014575 518832.000000 0 0 1
30.244472 -27.222349 -0.168113 40.691678 -0.732858 1.574928 0.033975 -0.000490 792484.000000 0 0 1
30.200672 -28.644249 -0.188713 41.624623 -0.758955 1.575330 0.035887 -0.001532 -454986.000000 0 0 1
29.647972 -29.256549 -1.558913 41.681868 -0.778753 1.608205 0.034205 -0.012706 116084.000000 0 0 1
28.256472 -29.089949 -1.769413 40.592908 -0.799931 1.614399 0.045500 -0.005269 271843.000000 0 0 1
27.833972 -29.453749 -3.092213 40.642529 -0.813665 1.646953 0.038996 -0.006079 -75494.800000 0 0 1
26.354272 -29.828949 -3.255613 39.936360 -0.847165 1.652407 0.044321 -0.005402 30105.700000 0 0 1
25.480572 -28.745749 -3.459113 38.568680 -0.845539 1.660604 0.057188 0.004722 -1831130.000000 0 0 1
24.183372 -29.128449 -3.473413 38.017978 -0.877891 1.662286 0.046975 0.007145 -1873080.000000 0 0 1
23.261472 -27.920849 -3.591413 36.518052 -0.876183 1.669302 0.045548 0.011124 -318494.000000 0 0 1
23.399072 -27.329349 -4.817713 36.299039 -0.862721 1.703912 0.060762 -0.001656 116905.000000 0 0 1
22.907272 -26.017949 -4.818213 34.998457 -0.848893 1.708904 0.087765 -0.010394 -158297.000000 0 0 1
22.387572 -25.464849 -6.151513 34.460166 -0.849617 1.750269 0.094125 -0.039117 579576.000000 0 0 1
21.036772 -25.812549 -6.482813 33.924333 -0.886986 1.763075 0.098216 -0.037889 408655.000000 0 0 1
20.483672 -25.028449 -7.513213 33.203200 -0.884927 1.799053 0.126019 -0.040642 667723.000000 0 0 1
18.970672 -25.274349 -7.797313 32.549612 -0.926918 1.812700 0.116006 -0.039090 699475.000000 0 0 1
18.105772 -24.704749 -6.829413 31.381276 -0.938338 1.790179 0.100910 -0.037675 138752.000000 0 0 1
16.769272 -25.152849 -6.963813 31.022073 -0.982774 1.797205 0.091816 -0.036373 330465.000000 0 0 1
15.836272 -24.408749 -5.956313 29.699364 -0.995269 1.772719 0.083233 -0.029143 42634.400000 0 0 1
16.083872 -24.755649 -4.578913 29.874731 -0.994628 1.724673 0.068812 -0.024923 133391.000000 0 0 1
15.339472 -23.948849 -3.688213 28.678384 -1.001122 1.699760 0.084413 -0.027785 119987.000000 0 0 1
15.327472 -24.378949 -2.271313 28.886388 -1.009528 1.649507 0.080637 -0.022599 -108582.000000 0 0 1
14.654472 -25.617649 -2.095713 29.587320 -1.051185 1.641687 0.080890 -0.014893 239267.000000 0 0 1
15.434372 -26.803149 -2.292413 31.014252 -1.048330 1.644779 0.072899 -0.015651 74000.500000 0 0 1
14.588872 -28.100549 -2.278413 31.743775 -1.091933 1.642633 0.068730 -0.004625 -18497.400000 0 0 1
13.765872 -28.333349 -1.159513 31.521776 -1.118529 1.607589 0.088037 -0.023622 -166809.000000 0 0 1
13.137172 -29.611749 -1.196313 32.417158 -1.153238 1.607708 0.083886 -0.024634 -99104.100000 0 0 1
13.980572 -30.879849 -0.889513 33.908889 -1.145665 1.597032 0.065858 -0.019024 134183.000000 0 0 1
15.072372 -31.003249 -1.803513 34.520002 -1.118286 1.623066 0.058849 -0.013053 -161320.000000 0 0 1
15.674872 -32.282349 -1.581813 35.921495 -1.118771 1.614846 0.056920 -0.012955 -300532.000000 0 0 1
17.114672 -32.246549 -2.140613 36.569580 -1.082857 1.629365 0.036942 -0.003254 -362507.000000 0 0 1
17.890072 -31.399149 -1.309813 36.161815 -1.052907 1.607025 0.035496 0.009064 -1070110.000000 0 0 1
19.058672 -31.142449 -1.992313 36.565755 -1.021612 1.625309 0.033541 0.013664 -1305000.000000 0 0 1
19.867772 -30.063249 -1.266713 36.057342 -0.986821 1.605934 0.036769 0.015155 -504145.000000 0 0 1
19.417572 -28.758649 -1.409713 34.728796 -0.976916 1.611400 0.033588 0.014588 -115153.000000 0 0 1
19.875972 -27.866449 -0.447913 34.231475 -0.951228 1.583882 0.031079 0.019552 -374289.000000 0 0 1
19.521072 -26.373749 -0.688213 32.819515 -0.933616 1.591767 0.033461 0.011264 -285330.000000 0 0 1
20.026472 -25.620149 -1.809013 32.568760 -0.907333 1.626369 0.042941 0.008688 248768.000000 0 0 1
19.354172 -25.910249 -3.040513 32.483376 -0.929237 1.664536 0.051250 0.004965 161311.000000 0 0 1
34.189332 -29.039749 13.575787 46.867040 -0.704134 1.276918 0.073878 -0.042338 -76515.700000 0 0 1
35.143132 -29.554649 14.466287 48.143437 -0.699234 1.265597 0.076932 -0.032221 -15740.800000 0 0 1
34.558822 -29.867149 15.713287 48.303894 -0.712704 1.239467 0.070941 -0.029056 637512.000000 0 0 1
35.595872 -30.497949 16.719187 49.766678 -0.708419 1.228181 0.066982 -0.015920 199209.000000 0 0 1
34.997812 -30.566049 18.022487 49.839144 -0.717906 1.200799 0.071252 -0.015567 126923.000000 0 0 1
35.759182 -31.109149 19.045687 51.080686 -0.715970 1.188712 0.044498 -0.004735 -618485.000000 0 0 1
36.290962 -32.557349 18.903087 52.290933 -0.731222 1.200922 0.025948 0.004242 183256.000000 0 0 1
37.314742 -32.644949 17.906687 52.713681 -0.718747 1.224201 0.040236 0.010712 -41361.400000 0 0 1
-37.992867 33.733922 17.976187 53.894144 -0.726090 1.230734 0.040022 0.015119 -781398.000000 0 0 1
-36.826997 33.717922 16.988487 52.742153 -0.741354 1.242845 0.055412 0.008012 -176642.000000 0 0 1
-35.739320 -33.038049 17.425187 51.695734 0.746143 1.226991 0.065850 0.005837 418968.000000 0 0 1
-34.801677 -32.733049 16.386187 50.508578 0.754777 1.240394 0.083096 0.006865 244870.000000 0 0 1
-33.512017 -32.013949 16.850287 49.314100 0.762540 1.222078 0.073981 -0.000537 384657.000000 0 0 1
-32.466287 -31.809349 15.909787 48.156161 0.775178 1.234091 0.093137 -0.003418 408042.000000 0 0 1
-32.784237 -30.859049 14.838487 47.405357 0.755158 1.252433 0.096767 -0.004387 82731.700000 0 0 1
-31.583047 -30.680049 13.835987 46.153969 0.770896 1.266335 0.093703 -0.012716 809539.000000 0 0 1
-30.407027 -30.194349 14.480387 45.232374 0.781889 1.244926 0.070430 -0.013188 -338828.000000 0 0 1
-29.390787 -30.222249 13.505787 44.267471 0.799345 1.260758 0.056391 -0.000824 -126701.000000 0 0 1
-28.042187 -29.838249 14.155887 43.325218 0.816419 1.237949 0.055186 -0.008995 326883.000000 0 0 1
-26.915667 -30.024949 13.302087 42.460526 0.839950 1.252150 0.055271 -0.004341 23042.600000 0 0 1
-25.763917 -29.546849 13.971287 41.617215 0.853686 1.228438 0.050350 -0.012333 669616.000000 0 0 1
-24.431467 -29.564249 13.143687 40.542545 0.880172 1.240636 0.067828 -0.012657 536727.000000 0 0 1
-24.038567 -30.827149 12.730987 41.112576 0.908503 1.255959 0.078926 -0.020121 696532.000000 0 0 1
-22.731567 -30.846449 12.137687 40.193918 0.935715 1.264029 0.063880 -0.025058 906877.000000 0 0 1
-22.210267 -32.291449 11.839187 40.941422 0.968301 1.277433 0.063295 -0.024513 340881.000000 0 0 1
-22.963467 -32.787549 10.724687 41.441080 0.959821 1.309023 0.070785 -0.020246 463753.000000 0 0 1
-22.866867 33.372322 10.774187 41.865124 -0.970069 1.310513 0.093733 -0.010243 496517.000000 0 0 1
-23.745567 32.682222 9.644987 41.533184 -0.942467 1.336433 0.092894 0.000300 515155.000000 0 0 1
-23.341467 33.006822 8.353087 41.280122 -0.955274 1.367038 0.104026 -0.005035 637586.000000 0 0 1
-24.517867 33.060022 7.526487 41.841832 -0.932682 1.389932 0.100165 -0.000564 174661.000000 0 0 1
-24.240767 33.671222 6.186587 41.948061 -0.946822 1.422774 0.108957 -0.004370 -928553.000000 0 0 1
-23.505667 32.895422 5.295887 40.775870 -0.950367 1.440550 0.096957 -0.002952 460691.000000 0 0 1
-22.090367 32.826922 5.490687 39.946699 -0.978467 1.432909 0.107442 -0.008718 434965.000000 0 0 1
-21.237167 -33.449549 5.246587 39.967691 1.005109 1.439146 0.122646 -0.012546 -729778.000000 0 0 1
-21.397967 -32.373949 6.179187 39.295394 0.986753 1.412891 0.126283 -0.024597 128133.000000 0 0 1
-20.935767 -32.590949 7.508287 39.456948 0.999797 1.379338 0.116907 -0.028127 -356669.000000 0 0 1
-21.043167 -31.407849 8.475487 38.744055 0.980492 1.350257 0.107603 -0.038741 -352287.000000 0 0 1
-19.978167 -30.534049 8.190487 37.397051 0.991410 1.349992 0.125047 -0.054847 -188957.000000 0 0 1
-19.805067 -29.534549 9.166987 36.722799 0.980094 1.318502 0.118653 -0.048059 -92599.800000 0 0 1
-19.052467 -29.911749 10.427987 36.965554 1.003646 1.284814 0.097878 -0.037907 -32249.500000 0 0 1
-17.715767 -30.316249 10.145687 36.549396 1.041952 1.289513 0.088578 -0.045049 -215409.000000 0 0 1
-16.944567 -30.197249 11.299087 36.423366 1.059449 1.255377 0.092042 -0.047516 -239185.000000 0 0 1
-15.556467 -30.835249 11.134087 36.287521 1.103553 1.258936 0.090727 -0.050986 154033.000000 0 0 1
-14.527267 -30.066349 10.502687 35.004761 1.120700 1.266066 0.095306 -0.049711 -353827.000000 0 0 1
-13.526667 -30.970549 10.175687 35.294338 1.159008 1.278336 0.082631 -0.040886 -526573.000000 0 0 1
-12.315767 -30.250849 9.526187 34.022643 1.184166 1.287007 0.089415 -0.028576 165599.000000 0 0 1
-11.630967 -29.376149 10.422187 33.269499 1.193801 1.252167 0.096597 -0.038616 77737.400000 0 0 1
-10.523167 -28.749449 9.775787 32.137733 1.219913 1.261715 0.109274 -0.038045 431520.000000 0 0 1
-9.522467 -28.201549 10.817987 31.670706 1.245159 1.222202 0.130008 -0.037988 208577.000000 0 0 1
-10.165367 -27.210549 11.614187 31.283191 1.213270 1.190431 0.115424 -0.045140 -260069.000000 0 0 1
-9.343867 -26.847649 12.697787 31.134192 1.235875 1.150709 0.110274 -0.031479 -4110.690000 0 0 1
-9.595067 -25.460649 13.431987 30.343505 1.210397 1.112229 0.098564 -0.034378 -182988.000000 0 0 1
-9.006567 -24.420849 12.771087 28.993048 1.217467 1.114654 0.097832 -0.033819 -302685.000000 0 0 1
-9.731767 -24.003149 11.608187 28.383243 1.185612 1.149460 0.090133 -0.030780 -67877.400000 0 0 1
-9.234067 -22.806849 10.787287 26.866074 1.186089 1.157620 0.100866 -0.031580 -6886.110000 0 0 1
-8.039567 -23.161249 10.107487 26.518662 1.236696 1.179761 0.089536 -0.030492 104737.000000 0 0 1
-7.466667 -22.057349 9.412287 25.117105 1.244393 1.186684 0.086076 -0.023813 816717.000000 0 0 1
-6.163267 -22.266649 8.555987 24.637258 1.300763 1.216129 0.089805 -0.029180 365201.000000 0 1 0
-5.015067 -22.431049 9.314487 24.800455 1.350837 1.185777 0.101954 -0.038336 -34532.600000 0 1 0
-3.907567 -22.856249 8.484087 24.691232 1.401471 1.220041 0.102309 -0.038910 1580350.000000 0 1 0
-2.643067 -23.430349 9.219887 25.317453 1.458466 1.198054 0.113847 -0.046421 1258760.000000 0 0 1
-1.892167 -22.500749 10.044687 24.713554 1.486900 1.152237 0.093088 -0.044547 28194.600000 0 1 0
-0.672967 -23.083249 10.443387 25.344696 1.541651 1.146089 0.108703 -0.056565 347390.000000 0 0 1
0.087533 -22.278949 11.565787 25.102324 -1.566867 1.091961 0.102315 -0.052872 21032.100000 0 0 1
-0.521467 -22.402949 12.840287 25.827061 1.547524 1.050469 0.102319 -0.042032 -230396.000000 0 0 1
0.365133 -22.329449 13.934887 26.323349 -1.554446 1.012934 0.127223 -0.043680 -49101.200000 0 0 1
1.131233 -20.964149 14.115887 25.298884 -1.516888 0.978865 0.098754 -0.035777 344776.000000 0 0 1
2.320933 -20.881749 13.346287 24.890914 -1.460104 1.004878 0.096487 -0.039165 -189611.000000 0 1 0
2.684633 -19.559049 13.081287 23.682984 -1.434391 0.985616 0.077596 -0.034590 106419.000000 0 1 0
4.139433 -19.276649 12.642787 23.421447 -1.359270 1.000602 0.086869 -0.038236 269479.000000 0 1 0
4.447033 -19.951749 11.458787 23.433997 -1.351492 1.059875 0.072973 -0.024203 691870.000000 0 1 0
5.876833 -20.096749 11.277087 23.782119 -1.286302 1.076760 0.105948 -0.028816 1305140.000000 0 1 0
6.127133 -21.009349 10.104287 24.104588 -1.287028 1.138249 0.095873 -0.035047 -248188.000000 0 1 0
5.909233 -20.477849 8.795287 23.056852 -1.289861 1.179420 0.088852 -0.031093 -357084.000000 0 1 0
6.168633 -21.415549 7.732487 23.589598 -1.290344 1.236831 0.091732 -0.034570 1431270.000000 0 1 0
7.680533 -21.945149 7.557287 24.447756 -1.234132 1.256529 0.087003 -0.023640 1349720.000000 0 1 0
8.610533 -21.090649 6.949387 23.817027 -1.183187 1.274707 0.096117 -0.033215 -126749.000000 0 1 0
9.109033 -19.964149 7.611287 23.226568 -1.142741 1.236931 0.099636 -0.017069 96853.800000 0 1 0
10.080533 -20.171449 8.825087 24.215422 -1.107355 1.197764 0.097440 -0.014658 159949.000000 0 1 0
9.466833 -20.509749 10.060587 24.728246 -1.138357 1.151798 0.107921 -0.020304 -522647.000000 0 1 0
10.170533 -19.948449 11.155987 25.016723 -1.099307 1.108571 0.097192 -0.011944 -178084.000000 0 0 1
9.501333 -19.963849 12.548287 25.422237 -1.126592 1.054578 0.122439 -0.028332 -177434.000000 0 0 1
9.484733 -21.236349 13.112687 26.699911 -1.150751 1.057429 0.103250 -0.034527 83630.200000 0 0 1
8.563633 -21.453349 14.189587 27.109526 -1.191002 1.019940 0.139392 -0.040200 458996.000000 0 0 1
8.752733 -22.876149 14.765587 28.599845 -1.205367 1.028292 0.143992 -0.043911 192887.000000 0 0 1
8.526133 -24.000449 13.923587 29.027277 -1.229453 1.070515 0.150413 -0.042905 -160349.000000 0 0 1
8.685833 -25.149049 14.715487 30.404999 -1.238248 1.065596 0.167965 -0.050531 183110.000000 0 0 1
8.765033 -26.435949 13.912387 31.132616 -1.250645 1.107527 0.174291 -0.052326 -9444.950000 0 0 1
9.952333 -26.462449 13.160287 31.184986 -1.211068 1.135138 0.149855 -0.039201 -213433.000000 0 0 1
9.938833 -27.536649 12.232887 31.728394 -1.224417 1.174992 0.139267 -0.037141 -463671.000000 0 0 1
11.302033 -27.734949 11.599787 32.117261 -1.183840 1.201274 0.113552 -0.030724 -681649.000000 0 0 1
12.323133 -28.243349 12.402087 33.216836 -1.159377 1.188160 0.092043 -0.032866 -588321.000000 0 0 1
13.407433 -28.662049 11.643987 33.717277 -1.133258 1.218193 0.109565 -0.029687 -119242.000000 0 0 1
14.476533 -29.458049 12.494887 35.120776 -1.114029 1.207059 0.094492 -0.030157 -425718.000000 0 0 1
15.292533 -28.557949 13.200387 34.980970 -1.079160 1.183853 0.091510 -0.031181 -164121.000000 0 0 1
16.162233 -29.232849 14.110487 36.261317 -1.065745 1.171106 0.069331 -0.027017 269749.000000 0 0 1
17.541633 -29.465149 13.434387 36.829155 -1.033814 1.197404 0.080284 -0.024903 -690932.000000 0 0 1
18.343433 -28.284349 13.531187 36.326010 -0.995451 1.189102 0.068695 -0.029767 73746.000000 0 0 1
19.615033 -28.575549 13.000187 37.017785 -0.969238 1.211957 0.063356 -0.019891 -138215.000000 0 0 1
20.498433 -27.302149 12.845587 36.477421 -0.926784 1.210927 0.036807 -0.019941 -786553.000000 0 0 1
21.768933 -27.484349 12.363787 37.177132 -0.900923 1.231775 0.036894 -0.021472 -1014020.000000 0 0 1
22.502133 -26.345049 12.032487 36.676810 -0.863909 1.236539 0.032603 -0.018453 469828.000000 0 0 1
23.921233 -26.706249 11.481087 37.646574 -0.840353 1.260889 0.049557 -0.016687 625289.000000 0 0 1
24.813733 -27.323249 12.404087 38.937677 -0.833494 1.246584 0.063719 -0.023026 169662.000000 0 0 1
25.852233 -27.946249 11.662487 39.816384 -0.824302 1.273531 0.060807 -0.026974 428018.000000 0 0 1
26.996133 -28.562149 12.568087 41.261900 -0.813578 1.261285 0.086791 -0.028311 1207020.000000 0 0 1
28.062033 -27.783349 13.145487 41.619659 -0.780408 1.249446 0.076402 -0.031122 1799760.000000 0 0 1
29.105833 -27.404949 12.180187 41.791599 -0.755309 1.275053 0.056358 -0.035861 601193.000000 0 0 1
30.363533 -26.714349 12.741887 42.402315 -0.721552 1.265580 0.091454 -0.050799 -215990.000000 0 0 1
30.278233 -25.348249 13.153387 41.621109 -0.697003 1.249258 0.096078 -0.049742 -34674.400000 0 0 1
29.845733 -25.032149 14.443287 41.544974 -0.697908 1.215728 0.107331 -0.049708 -886284.000000 0 0 1
30.913733 -24.953849 15.488587 42.640941 -0.679121 1.199061 0.115343 -0.042785 -685996.000000 0 0 1
31.177533 -26.256749 16.045687 43.805474 -0.699930 1.195773 0.141172 -0.039557 324983.000000 0 0 1
32.129833 -26.105549 17.113287 44.796099 -0.682318 1.178808 0.153135 -0.025513 456218.000000 0 0 1
32.350033 -27.530649 17.811187 46.061911 -0.705088 1.173768 0.112338 -0.010574 365089.000000 0 0 1
31.120833 -28.120949 18.218487 45.729720 -0.734803 1.161030 0.103247 -0.013719 234466.000000 0 0 1
31.424733 -29.160149 19.076287 46.922627 -0.748037 1.152124 0.123958 -0.018405 597945.000000 0 0 1
30.193333 -29.972649 19.623587 46.851705 -0.781730 1.138624 0.111309 -0.010889 -495362.000000 0 0 1
29.364433 -29.150949 20.482987 46.169260 -0.781750 1.111129 0.111013 -0.006573 440433.000000 0 0 1
28.203333 -29.767149 20.978787 46.061054 -0.812368 1.097912 0.122144 -0.012384 592096.000000 0 0 1
27.139633 -30.264849 19.925587 45.271954 -0.839787 1.115052 0.156225 -0.024112 -894545.000000 0 0 1
27.536433 -31.386049 19.178987 45.947500 -0.850639 1.140202 0.145315 -0.020989 -165807.000000 0 0 1
26.818333 -31.725749 17.982087 45.267004 -0.869027 1.162284 0.157760 -0.021541 -56958.600000 0 0 1
27.142033 -30.817549 16.760887 44.354691 -0.848729 1.183288 0.151883 -0.019537 766401.000000 0 0 1
28.518733 -30.928549 16.384487 45.148031 -0.825913 1.199412 0.141524 -0.029881 598072.000000 0 0 1
28.900733 -29.852949 15.492187 44.344772 -0.801604 1.213911 0.134028 -0.044264 -1271080.000000 0 0 1
30.353233 -29.863249 15.098087 45.178365 -0.777261 1.230052 0.146830 -0.040218 -1000810.000000 0 0 1
30.707833 -30.899949 14.174787 45.811598 -0.788517 1.256219 0.178127 -0.035459 325901.000000 0 0 1
30.861633 -32.198849 14.694387 46.958826 -0.806600 1.252530 0.181474 -0.042706 -798547.000000 0 0 1
29.859433 -33.189049 14.124687 46.825266 -0.838160 1.264377 0.181697 -0.041842 -409855.000000 0 0 1
30.080033 -33.523649 12.767887 46.815194 -0.839487 1.294567 0.174611 -0.028360 332516.000000 0 0 1
29.291333 32.960922 12.331587 45.787254 0.844277 1.298106 0.135736 -0.035879 -333305.000000 0 0 1
29.614933 32.651622 10.849787 45.397032 0.834129 1.329463 0.130657 -0.034753 -221531.000000 0 0 1
30.827433 31.961422 10.632887 45.660940 0.803457 1.335773 0.129601 -0.030761 261990.000000 0 0 1
30.878533 31.273422 9.437387 44.950806 0.791752 1.359273 0.127620 -0.037973 -849376.000000 0 0 1
32.208733 30.643922 9.083587 45.375808 0.760507 1.369249 0.117072 -0.032598 -640189.000000 0 0 1
32.563133 29.575622 9.951387 45.101055 0.737357 1.348319 0.113792 -0.037959 -1088660.000000 0 0 1
33.924533 29.409422 9.926587 45.981792 0.714228 1.353202 0.115474 -0.027263 -1179170.000000 0 0 1
34.518533 28.713922 11.157987 46.265744 0.693857 1.327223 0.110912 -0.040193 -42419.000000 0 0 1
34.427833 27.291022 11.126087 45.319592 0.670275 1.322758 0.111977 -0.049097 43354.200000 0 0 1
34.623633 26.773522 12.414387 45.494334 0.658230 1.294413 0.122808 -0.059286 -55596.100000 0 0 1
34.505533 25.271222 12.446787 44.544236 0.632130 1.287601 0.116399 -0.062710 636282.000000 0 0 1
35.558533 24.602522 11.713887 44.798532 0.605261 1.306242 0.120119 -0.054089 282417.000000 0 0 1
35.463633 23.188722 11.724387 43.964160 0.579093 1.300849 0.127273 -0.057991 341239.000000 0 0 1
34.175433 22.491822 11.153687 42.405743 0.582068 1.304642 0.111415 -0.055243 306031.000000 0 0 1
33.066133 22.486022 12.015487 41.753590 0.597198 1.278897 0.125840 -0.067302 -620194.000000 0 0 1
32.006933 21.977122 11.233887 40.418286 0.601701 1.289147 0.131426 -0.057496 -635667.000000 0 0 1
30.697133 21.877622 12.013887 39.563592 0.619194 1.262264 0.143720 -0.051785 -437725.000000 0 0 1
30.171533 23.116922 12.361587 39.969017 0.653778 1.256361 0.144998 -0.046564 -470108.000000 0 0 1
29.098733 22.996822 13.246087 39.383358 0.668800 1.227772 0.186895 -0.044235 -361758.000000 0 0 1
25.097033 9.363522 25.509734 36.990311 0.357098 0.809814 0.079745 -0.020260 -307470.000000 0 0 1
25.073233 8.112222 26.133544 37.113842 0.312912 0.789577 0.079119 -0.030841 1118810.000000 0 0 1
23.734333 7.569422 26.102004 36.082257 0.308726 0.762078 0.063580 -0.026290 660443.000000 0 0 1
23.625233 6.322822 26.985244 36.418856 0.261502 0.736284 0.088096 -0.027645 -123719.000000 0 0 1
23.699333 6.558722 28.369214 37.543142 0.269990 0.714161 0.075472 -0.020625 289496.000000 0 0 1
25.065333 6.563222 28.746594 38.700303 0.256095 0.733553 0.064421 -0.020132 84504.200000 0 0 1
25.208033 6.570322 30.284584 39.947091 0.254971 0.710375 0.073807 -0.024922 3568.780000 0 0 1
25.464833 7.902522 30.812454 40.746961 0.300907 0.713325 0.094955 -0.024504 111487.000000 0 0 1
25.228933 7.901622 32.220172 41.678222 0.303520 0.687130 0.093324 -0.017764 151852.000000 0 0 1
25.568433 9.240722 33.031942 42.781361 0.346804 0.688641 0.147581 -0.027352 -29483.500000 0 0 1
26.933433 9.548522 33.102943 43.730869 0.340699 0.712133 0.107713 -0.026206 -474199.000000 0 0 1
27.084233 10.466022 -33.182713 44.092921 0.368749 2.422742 0.128235 -0.025709 452564.000000 0 0 1
28.341633 11.385622 -33.302323 45.187667 0.381995 2.399385 0.095650 -0.024690 181890.000000 0 0 1
28.274633 12.481622 33.198389 45.358337 0.415715 0.749670 0.104215 -0.026836 142959.000000 0 0 1
27.541933 13.595422 33.630324 45.545496 0.458536 0.740117 0.098170 -0.030665 -441122.000000 0 0 1
27.478133 14.759322 32.576111 45.100869 0.492908 0.763682 0.091581 -0.029388 -486679.000000 0 0 1
28.682533 15.469222 32.485573 46.014095 0.494611 0.786974 0.073393 -0.018220 39181.100000 0 0 1
28.497933 16.801522 32.971385 46.706911 0.532715 0.787074 0.092717 -0.029017 563.157000 0 0 1
28.889133 17.123922 -32.938433 47.039888 0.535069 2.346507 0.082241 -0.038859 -296848.000000 0 0 1
27.863533 16.830522 -32.000633 45.647381 0.543380 2.347651 0.071703 -0.032722 660251.000000 0 0 1
28.431133 16.356622 -30.790233 44.987852 0.522065 2.324593 0.091763 -0.040016 190825.000000 0 0 1
27.319233 15.718322 -29.895853 43.441548 0.522103 2.329782 0.086073 -0.043128 131943.000000 0 0 1
26.904633 14.505122 -30.413793 43.119098 0.494460 2.353704 0.095147 -0.027860 -338516.000000 0 0 1
25.880433 13.995822 -29.605053 41.738938 0.495743 2.359288 0.119110 -0.042886 -367979.000000 0 0 1
25.310133 12.743722 -30.279753 41.471300 0.466446 2.389320 0.113510 -0.040009 -940789.000000 0 0 1
24.284133 13.002822 -31.225933 41.639541 0.491600 2.418723 0.118059 -0.041609 123318.000000 0 0 1
23.426133 11.925622 -31.493753 41.022684 0.470880 2.446065 0.106079 -0.033104 -142518.000000 0 0 1
22.471433 11.525922 -30.358403 39.489806 0.473926 2.447705 0.103712 -0.034129 -1093170.000000 0 0 1
21.331833 12.347822 -30.222533 38.998939 0.524719 2.457445 0.133515 -0.030521 154071.000000 0 0 1
20.456733 11.667922 -29.314793 37.602864 0.518348 2.464806 0.128623 -0.023960 559451.000000 0 0 1
19.183633 12.462422 -28.855743 36.823601 0.576121 2.471269 0.098456 -0.010220 546234.000000 0 0 1
18.166733 12.498522 -29.839513 37.103096 0.602620 2.505179 0.074384 -0.011557 -84955.800000 0 0 1
17.113933 13.318222 -29.382673 36.518532 0.661312 2.505792 0.072984 -0.016037 -222770.000000 0 0 1
16.105033 13.602722 -30.553643 37.120496 0.701366 2.537633 0.081606 -0.026443 346342.000000 0 0 1
15.370733 12.562622 -31.195573 36.976244 0.685206 2.574870 0.084864 -0.026871 -489796.000000 0 0 1
14.188433 12.324822 -30.507463 35.831803 0.715224 2.589459 0.075964 -0.025076 -426485.000000 0 0 1
13.097733 11.650922 -31.435613 35.992948 0.727004 2.632901 0.087275 -0.025634 194147.000000 0 0 1
12.381033 12.539922 -32.226683 36.730079 0.791774 2.641196 0.109380 -0.030805 -127465.000000 0 0 1
11.633733 11.769222 -33.182203 37.079872 0.791188 2.678969 0.113581 -0.030716 33165.200000 0 0 1
10.996933 12.620422 33.056815 37.053483 0.854032 0.468741 0.140726 -0.041599 -219121.000000 0 0 1
11.899533 13.341422 32.265910 36.887415 0.842461 0.505953 0.112794 -0.023210 201832.000000 0 0 1
11.256733 13.825122 31.112184 35.858277 0.887443 0.520354 0.136154 -0.032630 361787.000000 0 0 1
12.259033 13.649822 29.905154 35.084466 0.839027 0.550284 0.130997 -0.026609 482180.000000 0 0 1
12.546833 12.265422 29.608184 34.416684 0.774057 0.534966 0.119426 -0.022822 138432.000000 0 0 1
12.772433 12.089322 28.236464 33.265367 0.757929 0.557038 0.138053 -0.024516 -299911.000000 0 0 1
13.315733 10.721622 27.831304 32.662568 0.677894 0.550839 0.153654 -0.021104 322277.000000 0 0 1
12.353133 9.672122 27.944754 32.047763 0.664270 0.511580 0.150397 -0.026391 336522.000000 0 0 1
12.956233 8.436922 27.695864 31.719182 0.577209 0.509152 0.127217 -0.026355 376756.000000 0 0 1
12.009933 7.194722 27.972624 31.280508 0.539731 0.464042 0.123930 -0.022757 1076650.000000 0 0 1
10.845433 7.123022 27.129814 30.073038 0.581124 0.446114 0.132371 -0.029625 579538.000000 0 0 1
10.023333 5.961922 27.400814 29.779461 0.536590 0.402398 0.130326 -0.040993 124341.000000 0 0 1
10.482933 4.555522 26.885584 29.214367 0.409945 0.401985 0.133177 -0.036630 -14106.900000 0 0 1
11.464233 3.999922 27.742804 30.283513 0.335699 0.412547 0.121460 -0.034935 48211.600000 0 0 1
11.941133 2.782922 27.275644 29.904783 0.228966 0.422460 0.113573 -0.037361 -12003.300000 0 0 1
12.301833 1.660622 28.247244 30.854490 0.134179 0.414051 0.093108 -0.026321 145040.000000 0 0 1
11.124833 1.196322 28.868794 30.961272 0.107125 0.369754 0.074384 -0.026168 -3949.730000 0 0 1
11.346433 0.007922 29.591864 31.692586 0.000698 0.366142 0.070898 -0.029574 -111287.000000 0 0 1
10.400733 -0.192378 30.763204 32.474405 -0.018494 0.326077 0.080188 -0.021574 -201742.000000 0 0 1
10.610833 0.812222 31.696313 33.435097 0.076398 0.323919 0.063900 -0.023659 -90335.800000 0 0 1
9.583233 0.848422 32.651141 34.039024 0.088302 0.286543 0.066653 -0.026511 -254070.000000 0 0 1
9.623733 2.146122 33.535464 34.954962 0.219413 0.285962 0.064454 -0.028172 -17391.500000 0 0 1
9.498533 3.445222 32.888665 34.405754 0.347953 0.298067 0.050099 -0.022872 355732.000000 0 0 1
10.618833 3.727822 32.052536 33.970889 0.337617 0.337669 0.065419 -0.020215 32056.400000 0 0 1
10.586433 5.091422 31.316462 33.447211 0.448282 0.358868 0.073443 -0.022258 -64815.100000 0 0 1
10.952733 6.134822 32.193886 34.554952 0.510578 0.371808 0.079757 -0.025497 -61595.700000 0 0 1
11.292233 7.216222 31.368131 34.110819 0.568634 0.403749 0.093624 -0.031177 -133772.000000 0 0 1
11.426933 8.570922 32.144919 35.175720 0.643542 0.418159 0.123717 -0.038322 688242.000000 0 0 1
10.175633 9.136622 32.579468 35.333314 0.731649 0.397424 0.132257 -0.040191 597617.000000 0 0 1
9.717433 8.564222 -33.616623 36.025709 0.722401 2.773815 0.115199 -0.033384 -292307.000000 0 0 1
8.246033 8.804122 -33.218403 35.340796 0.818119 2.793265 0.108086 -0.036348 -140688.000000 0 0 1
7.848733 8.127122 -32.047713 33.981003 0.802822 2.802650 0.122338 -0.036324 -1233530.000000 0 0 1
6.490533 8.210722 -31.854933 33.530280 0.901878 2.824144 0.103902 -0.037605 -1028330.000000 0 0 1
5.988133 7.707422 -30.518623 32.041355 0.910281 2.832060 0.109689 -0.034485 -291198.000000 0 0 1
6.355233 8.588722 -29.471393 31.348335 0.933758 2.793797 0.112711 -0.042780 149311.000000 0 0 1
5.960033 8.050922 -28.204173 29.930163 0.933537 2.800330 0.112372 -0.040307 -273780.000000 0 0 1
4.497133 8.052122 -27.745483 29.238206 1.061448 2.820674 0.104503 -0.032973 -325037.000000 0 0 1
3.782133 7.002022 -28.378223 29.472977 1.075548 2.868182 0.098733 -0.024736 385308.000000 0 0 1
2.451233 6.813822 -27.880113 28.805163 1.225467 2.887477 0.129682 -0.025746 1010970.000000 0 0 1
1.522933 6.050022 -28.898013 29.563782 1.324196 2.928967 0.127978 -0.038346 111130.000000 0 0 1
1.167833 6.831922 -29.993363 30.783775 1.401495 2.914494 0.099643 -0.041363 -58216.600000 0 0 1
0.532733 6.107122 -31.031833 31.631557 1.483785 2.946555 0.128715 -0.039501 -355695.000000 0 0 1
0.088233 7.005922 -32.199073 32.952557 1.558203 2.927334 0.146778 -0.047855 -60123.700000 0 0 1
1.124833 7.684522 -32.851313 33.756864 1.425452 2.909444 0.108904 -0.036343 -88665.500000 0 0 1
2.139733 6.998022 -33.587633 34.375570 1.274061 2.927072 0.113854 -0.039272 284767.000000 0 0 1
1.745133 6.372822 32.369711 33.037199 1.303509 0.201358 0.127929 -0.041219 108586.000000 0 0 1
0.724333 5.379922 32.307705 32.760586 1.436965 0.166469 0.136313 -0.043833 -246267.000000 0 0 1
0.438333 5.132922 30.947594 31.373437 1.485607 0.164950 0.147333 -0.045298 -63526.700000 0 0 1
1.453133 4.414222 30.023034 30.380578 1.252776 0.153571 0.142470 -0.048240 119710.000000 0 0 1
0.936833 4.426722 28.680374 29.035106 1.362242 0.156476 0.115637 -0.041804 307215.000000 0 0 1
1.631433 3.529622 27.821694 28.092106 1.137834 0.138863 0.100223 -0.029780 41373.500000 0 0 1
1.601533 4.066122 26.361604 26.721385 1.195584 0.164283 0.097417 -0.027771 286217.000000 0 0 1
2.426033 5.218522 26.255844 26.879136 1.135630 0.215772 0.100334 -0.027216 41528.300000 0 0 1
2.268633 5.724922 24.938734 25.687777 1.193507 0.242084 0.079443 -0.020156 -1121020.000000 0 0 1
3.022533 7.000622 24.672594 25.824045 1.163221 0.299746 0.088004 -0.024030 69244.400000 0 0 1
4.438333 6.940422 24.669504 26.008704 1.001845 0.322300 0.086518 -0.022727 -108180.000000 0 0 1
4.915033 6.424022 23.450234 24.806029 0.917700 0.332148 0.110615 -0.038994 -463723.000000 0 1 0
6.476433 6.369922 23.409764 25.110498 0.777107 0.370159 0.130244 -0.042375 755050.000000 0 0 1
7.139133 5.452322 24.309504 25.916153 0.652226 0.353965 0.146742 -0.037280 270896.000000 0 0 1
6.787233 4.045322 24.252034 25.506711 0.537487 0.314956 0.146206 -0.038961 -625105.000000 0 0 1
6.982633 3.315322 22.861044 24.132464 0.443281 0.326050 0.153514 -0.044441 627474.000000 0 1 0
6.027533 3.754122 21.882654 23.005980 0.557037 0.313784 0.117526 -0.039314 543717.000000 0 1 0
4.730333 3.192822 21.934954 22.665223 0.593727 0.254536 0.108172 -0.041482 433598.000000 0 1 0
3.673333 3.581222 20.835154 21.457450 0.772702 0.241424 0.056244 -0.038282 254561.000000 0 1 0
3.172533 4.822422 21.153954 21.927391 0.988908 0.266391 0.046487 -0.033206 -676528.000000 0 1 0
2.102233 5.139322 20.331754 21.076343 1.182514 0.266602 0.033541 -0.031385 -637028.000000 0 1 0
1.527233 6.569122 20.556054 21.634166 1.342368 0.317028 0.031701 -0.024105 -284454.000000 0 1 0
2.332833 7.487622 19.921054 21.409226 1.268769 0.375050 0.025305 -0.019681 -700164.000000 0 1 0
1.840633 8.795722 20.014654 21.939440 1.364509 0.422008 0.033252 -0.018895 141924.000000 0 1 0
2.863433 9.896122 19.663354 22.198648 1.289140 0.482601 0.042792 -0.020959 -401113.000000 0 1 0
2.847733 10.102322 18.262654 21.063974 1.296037 0.521628 0.026932 -0.019294 -277018.000000 0 1 0
3.668333 11.124522 17.750054 21.266783 1.252272 0.583322 0.036555 -0.024266 337062.000000 0 1 0
5.216533 11.008922 17.842554 21.604752 1.128290 0.599066 0.047530 -0.029746 -63958.700000 0 1 0
5.793033 9.890722 17.261954 20.721020 1.040955 0.586171 0.051524 -0.020904 625885.000000 0 1 0
7.140333 9.781622 17.754554 21.491595 0.940235 0.598616 0.056162 -0.008787 666444.000000 0 1 0
7.394833 8.264722 18.134554 21.256792 0.840891 0.548863 0.071268 -0.020757 -139790.000000 0 1 0
6.722933 7.794722 19.314754 21.886416 0.859091 0.489646 0.082114 -0.030760 63352.000000 0 1 0
6.907733 6.429622 19.562754 21.719994 0.749566 0.449465 0.087169 -0.042399 199674.000000 0 1 0
8.327733 5.955322 19.965954 22.437832 0.620801 0.473814 0.127987 -0.037374 -95826.300000 0 1 0
9.357333 6.245022 19.053354 22.126687 0.588506 0.533361 0.124336 -0.030761 77663.200000 0 1 0
10.629533 5.657022 19.347954 22.788861 0.489073 0.556689 0.139662 -0.031089 667002.000000 0 1 0
10.781533 4.119222 19.149154 22.358433 0.364948 0.542419 0.149035 -0.034760 -686699.000000 0 1 0
10.309233 3.401722 20.253954 22.979874 0.318719 0.492025 0.166260 -0.040567 127392.000000 0 1 0
10.581233 2.023022 20.118154 22.820938 0.188910 0.491628 0.163698 -0.047795 -158361.000000 0 1 0
9.914833 1.142622 21.170554 23.405167 0.114738 0.440532 0.178368 -0.046780 -278613.000000 0 1 0
10.358733 1.209822 22.472144 24.774266 0.116266 0.434511 0.154263 -0.039907 -45128.400000 0 1 0
9.508133 0.520022 23.324934 25.193800 0.054638 0.387596 0.171490 -0.044379 -924735.000000 0 0 1
10.162433 0.640722 24.680274 26.698342 0.062965 0.391305 0.161871 -0.042347 -221672.000000 0 0 1
11.462733 0.095722 24.717914 27.246627 0.008351 0.434236 0.157671 -0.041232 -12935.800000 0 0 1
11.533233 -1.316378 24.681434 27.274924 -0.113646 0.439621 0.154290 -0.041595 -1007170.000000 0 0 1
12.916433 -1.932578 24.858554 28.080541 -0.148520 0.483746 0.141993 -0.038966 -325675.000000 0 0 1
12.927733 -3.360178 24.686464 28.068462 -0.254293 0.495967 0.139045 -0.035603 -572069.000000 0 0 1
14.187633 -3.862778 24.968854 28.976777 -0.265821 0.532215 0.125735 -0.035339 -486539.000000 0 0 1
14.047133 -5.388878 25.091744 29.256752 -0.366314 0.540135 0.126125 -0.030041 106671.000000 0 0 1
13.944433 -6.073878 23.846224 28.283946 -0.410795 0.567772 0.147319 -0.026778 184171.000000 0 0 1
13.391533 -7.357178 24.082284 28.520477 -0.502375 0.565379 0.145429 -0.029560 12208.200000 0 0 1
13.476433 -8.113678 22.730724 27.642934 -0.541936 0.605359 0.163145 -0.035701 136355.000000 0 0 1
12.768033 -9.331078 22.850474 27.789131 -0.631110 0.605389 0.164735 -0.026611 -225626.000000 0 0 1
12.888833 -10.056478 21.652854 27.131178 -0.662580 0.646694 0.159801 -0.024284 106983.000000 0 0 1
12.249333 -11.461378 21.599654 27.348755 -0.752178 0.660337 0.185227 -0.025680 -523739.000000 0 0 1
10.862733 -11.402278 21.622754 26.749848 -0.809626 0.629483 0.182441 -0.025075 -1048700.000000 0 0 1
10.305933 -12.669778 21.916954 27.332918 -0.887922 0.640408 0.158579 -0.025690 -303779.000000 0 0 1
8.825633 -12.550078 22.284844 27.055693 -0.957904 0.602951 0.121406 -0.028374 242918.000000 0 0 1
7.975533 -12.018078 21.217354 25.655787 -0.984900 0.597045 0.107908 -0.035600 -76280.100000 0 0 1
6.679233 -11.899478 21.726754 25.656608 -1.059315 0.560802 0.060415 -0.034406 111449.000000 0 0 1
5.754633 -10.764078 21.152454 24.421455 -1.079842 0.523365 0.047773 -0.033563 610964.000000 0 1 0
6.141233 -9.464878 21.677954 24.438337 -0.995234 0.479887 0.064349 -0.028308 177619.000000 0 1 0
5.238933 -8.477378 21.212354 23.436644 -1.017254 0.439197 0.041516 -0.020160 312428.000000 0 1 0
5.812033 -7.051278 21.499854 23.361163 -0.881441 0.401887 0.069361 -0.032642 620431.000000 0 1 0
4.847933 -6.005078 21.346454 22.698777 -0.891617 0.346924 0.047556 -0.021471 480472.000000 0 1 0
5.543833 -4.740378 21.294454 22.509088 -0.707431 0.330013 0.089264 -0.046614 265729.000000 0 1 0
-8.492867 -15.998678 -20.424413 27.299141 1.082776 2.416097 0.086486 -0.025232 49342.700000 0 0 1
-8.026867 -15.146478 -19.428013 25.909343 1.083477 2.418625 0.085878 -0.016969 -37370.800000 0 0 1
-7.314267 -14.021078 -19.859713 25.386952 1.089969 2.469114 0.091191 -0.024432 46095.400000 0 0 1
-6.500967 -13.262978 -18.786713 23.897902 1.115053 2.475309 0.071007 -0.019425 580686.000000 0 1 0
-5.364367 -13.990878 -18.314313 23.662949 1.204665 2.455877 0.072266 -0.017073 289905.000000 0 1 0
-4.629567 -13.298178 -17.354313 22.348302 1.235784 2.459949 0.072058 -0.015836 -261913.000000 0 1 0
-3.523767 -14.130578 -16.691813 22.151902 1.326409 2.424190 0.064569 -0.010723 -998839.000000 0 1 0
-2.445767 -14.326778 -17.514713 22.759690 1.401713 2.448932 0.063585 -0.008468 -1170320.000000 0 1 0
-1.489167 -15.066978 -16.816713 22.628152 1.472280 2.408602 0.065968 -0.008149 881844.000000 0 1 0
-0.092067 -15.352278 -17.530413 23.302710 1.564799 2.422329 0.066309 0.002751 1229480.000000 0 1 0
-0.132867 -16.256178 -18.586413 24.692827 1.562623 2.422957 0.115041 -0.029187 -218650.000000 0 1 0
-0.316567 -17.623678 -18.221813 25.352094 1.552836 2.372799 0.096482 -0.015882 -123352.000000 0 0 1
-0.803167 -18.453878 -19.455513 26.827368 1.527301 2.382138 0.111657 -0.039718 789795.000000 0 0 1
-2.175567 -18.189578 -19.788813 26.966478 1.451757 2.394739 0.121124 -0.035750 579706.000000 0 0 1
-2.426067 -18.738478 -21.018013 28.262576 1.442043 2.409339 0.113664 -0.036966 1154430.000000 0 0 1
-3.762967 -18.356578 -21.841013 28.777660 1.368605 2.432506 0.123500 -0.042952 1468630.000000 0 0 1
-3.790267 -17.004078 -22.217613 28.233439 1.351478 2.476607 0.116701 -0.053563 30005.900000 0 0 1
-4.248567 -16.129978 -21.168813 26.950791 1.313250 2.474238 0.089236 -0.036647 -5856.160000 0 0 1
-3.096167 -15.256578 -20.611313 25.829743 1.370576 2.494713 0.095476 -0.025653 187053.000000 0 0 1
-2.665367 -14.222678 -21.477413 25.897259 1.385542 2.548707 0.083412 -0.024376 80063.200000 0 0 1
-1.848367 -13.309178 -20.741813 24.713832 1.432800 2.566753 0.069221 -0.024154 22466.300000 0 1 0
-1.412567 -12.122278 -21.574713 24.787360 1.454793 2.626794 0.055278 -0.036989 313604.000000 0 1 0
-2.479167 -11.307378 -22.083913 24.933958 1.354959 2.658788 0.046680 -0.039107 414774.000000 0 1 0
-2.382367 -10.907678 -23.459913 25.981159 1.355761 2.697402 0.059768 -0.032055 -508508.000000 0 0 1
-3.207167 -9.681578 -23.847013 25.936439 1.250908 2.737452 0.029569 -0.018769 72152.100000 0 0 1
-4.619667 -9.720378 -23.810213 26.129548 1.127139 2.717074 0.075699 -0.030672 229926.000000 0 0 1
-5.249367 -8.482578 -24.071213 26.056348 1.016638 2.748722 0.043812 -0.025676 -585421.000000 0 0 1
-6.702667 -8.429578 -23.571613 25.915332 0.899028 2.713026 0.063010 -0.041152 -269331.000000 0 0 1
-7.660667 -8.921178 -24.469213 27.148031 0.861270 2.693616 0.094292 -0.041976 28985.400000 0 0 1
-8.193467 -7.863478 -25.261313 27.696590 0.764850 2.719108 0.092537 -0.045865 -365608.000000 0 0 1
-9.380067 -8.304278 -26.156863 29.002209 0.724640 2.694926 0.080526 -0.041356 149445.000000 0 0 1
-9.995567 -7.155878 -26.708533 29.401763 0.621321 2.710235 0.100335 -0.054581 457495.000000 0 0 1
-11.052267 -7.523078 -27.629533 30.694305 0.597643 2.690914 0.093666 -0.043196 607543.000000 0 0 1
-11.786667 -6.262378 -28.169803 31.171793 0.488381 2.699119 0.085308 -0.047100 -5753.650000 0 0 1
-11.162667 -5.512678 -29.191933 31.735842 0.458715 2.738472 0.062081 -0.036483 -389919.000000 0 0 1
-12.112467 -5.071178 -30.129643 32.866762 0.396500 2.730590 0.092064 -0.035673 10264.100000 0 0 1
-11.614867 -3.981878 -31.131513 33.465379 0.330269 2.765918 0.075491 -0.028780 -210746.000000 0 0 1
-10.601467 -4.412178 -31.984913 33.983717 0.394381 2.796912 0.059496 -0.018813 -276344.000000 0 0 1
-10.039767 -3.374978 -32.745373 34.415793 0.324293 2.828753 0.047121 -0.022771 232480.000000 0 0 1
-8.877067 -3.803578 33.678744 35.036086 0.404808 0.279263 0.042667 -0.022159 443915.000000 0 0 1
-7.599467 -3.974878 -33.118883 34.211284 0.481915 2.888206 0.053055 -0.023381 -319773.000000 0 0 1
-6.687167 -4.337378 33.263974 34.205599 0.575399 0.235183 0.051923 -0.027302 123770.000000 0 0 1
-5.215167 -3.933578 33.531864 34.162214 0.646220 0.192399 0.099541 -0.037495 92448.300000 0 0 1
-4.995867 -2.589378 -33.665053 34.132087 0.478183 2.975976 0.134064 -0.047432 -1146130.000000 0 0 1
-3.664567 -2.248878 -33.544633 33.819061 0.550419 3.014112 0.135908 -0.047911 -1019880.000000 0 0 1
-3.475067 -0.740078 -33.327033 33.515890 0.209833 3.035384 0.144674 -0.051810 -232528.000000 0 0 1
-3.729367 -0.516678 -31.947493 32.168578 0.137667 3.024284 0.161062 -0.051174 13281.900000 0 0 1
-3.693267 0.805722 -31.535303 31.761057 -0.214794 3.022292 0.186329 -0.058203 -764236.000000 0 0 1
-4.043867 0.800722 -30.033573 30.315169 -0.195480 3.005186 0.192347 -0.063286 1127670.000000 0 0 1
-5.247567 0.096022 -29.667763 30.128430 -0.018296 2.966497 0.151555 -0.058540 436675.000000 0 0 1
-6.465467 0.688222 -30.054503 30.749781 -0.106046 2.928536 0.137148 -0.060025 -859938.000000 0 0 1
-7.566667 -0.343678 -30.194003 31.129574 0.045389 2.895805 0.108741 -0.055189 -483245.000000 0 0 1
-8.005267 -0.900378 -28.979493 30.078331 0.112002 2.870457 0.092565 -0.049576 79139.700000 0 0 1
-9.164467 -1.688178 -29.191283 30.642591 0.182167 2.832591 0.079858 -0.044307 229720.000000 0 0 1
-9.620567 -2.438878 -27.899913 29.612642 0.248276 2.799821 0.089364 -0.047112 87377.900000 0 0 1
-10.116167 -1.533178 -26.901183 28.781263 0.150413 2.778146 0.097170 -0.043194 982.058000 0 0 1
-10.560367 -2.242078 -25.807093 27.974172 0.209204 2.745389 0.094143 -0.042016 -74252.600000 0 0 1
-11.364567 -1.409278 -24.764813 27.284343 0.123376 2.708463 0.107322 -0.040187 -49321.400000 0 0 1
-10.699067 -0.295678 -24.253713 26.510376 0.027629 2.725998 0.097720 -0.042002 -120812.000000 0 0 1
-11.489467 0.340322 -23.304913 25.985431 -0.029612 2.683382 0.107626 -0.043879 -35387.200000 0 0 1
-10.678267 1.494322 -22.720613 25.149247 -0.139038 2.698503 0.116985 -0.044455 195224.000000 0 0 1
-10.518267 2.609022 -23.637213 26.003053 -0.243139 2.711715 0.119882 -0.043859 67374.700000 0 0 1
-9.696367 3.651622 -23.120413 25.335891 -0.360170 2.720287 0.115011 -0.042254 -467600.000000 0 0 1
-9.888567 5.020322 -23.835113 26.288781 -0.469780 2.706106 0.164055 -0.053180 -84140.200000 0 0 1
-11.225967 5.468922 -23.954213 27.013621 -0.453329 2.661053 0.163550 -0.046820 172864.000000 0 0 1
-11.929867 4.795422 -25.036313 28.144889 -0.382202 2.667158 0.139230 -0.043368 -653756.000000 0 0 1
-13.415267 5.133722 -24.917113 28.760859 -0.365485 2.618653 0.123673 -0.025798 -422694.000000 0 0 1
-13.728267 6.462722 -25.263593 29.470005 -0.439983 2.600730 0.124843 -0.024307 -146213.000000 0 0 1
-15.112467 6.730622 -25.332973 30.256362 -0.418996 2.563081 0.116440 -0.036145 38346.200000 0 0 1
-15.412667 8.171122 -25.674043 31.039878 -0.487481 2.544780 0.128377 -0.030901 -601839.000000 0 0 1
-15.194567 9.059022 -24.605213 30.304410 -0.537622 2.518256 0.173788 -0.041107 -186000.000000 0 0 1
-15.867667 10.270122 -24.828713 31.204539 -0.574430 2.490920 0.136553 -0.031145 -437932.000000 0 0 1
-15.630467 11.265222 -23.695013 30.539652 -0.624498 2.458900 0.138304 -0.041967 -193716.000000 0 0 1
-16.239267 10.916722 -22.481813 29.804706 -0.591853 2.425390 0.166274 -0.042186 -115930.000000 0 0 1
-15.679867 11.680422 -21.462613 29.033330 -0.640249 2.402738 0.156327 -0.036111 -178279.000000 0 0 1
-16.573067 11.603322 -20.189413 28.581743 -0.610814 2.355159 0.152382 -0.041417 132588.000000 0 0 1
-17.737967 12.372122 -20.403913 29.732550 -0.609042 2.327115 0.125938 -0.036859 -27715.700000 0 0 1
-18.361067 12.818122 -19.208213 29.502347 -0.609459 2.279795 0.118773 -0.028198 -1459020.000000 0 0 1
-19.821367 13.054622 -19.430213 30.673163 -0.582407 2.256813 0.097260 -0.034710 -1516270.000000 0 0 1
-20.023267 14.216422 -20.222513 31.811757 -0.617403 2.259702 0.082532 -0.031662 -281209.000000 0 0 1
-21.396567 14.401722 -20.383313 32.874034 -0.592433 2.239594 0.061256 -0.031110 -511571.000000 0 0 1
-21.759867 15.747522 -20.945213 34.061389 -0.626453 2.233088 0.072304 -0.025380 -176080.000000 0 0 1
-21.682367 15.716522 -22.360513 34.887342 -0.627212 2.266512 0.080466 -0.032053 201614.000000 0 0 1
-22.324667 16.803622 -22.994513 36.187015 -0.645222 2.259369 0.076625 -0.020882 -59140.500000 0 0 1
-22.118467 16.739922 -24.517613 37.021141 -0.647858 2.294627 0.065367 -0.019994 323554.000000 0 0 1
-20.886267 17.219322 -25.037913 36.873273 -0.689462 2.317231 0.049006 -0.019391 277045.000000 0 0 1
-20.525567 16.604922 -26.209463 37.201590 -0.680197 2.352550 0.035096 -0.027713 -372128.000000 0 0 1
-19.547367 17.361422 -27.080133 37.641096 -0.726242 2.373778 0.019814 -0.015456 -432477.000000 0 0 1
-20.041367 18.548722 -27.647123 38.859682 -0.746738 2.362370 0.019349 -0.022950 234413.000000 0 0 1
-19.461167 19.687922 -27.015273 38.680438 -0.791190 2.343987 0.012218 -0.023489 -762611.000000 0 0 1
-20.353867 20.973422 -27.059933 39.829691 -0.800388 2.317729 0.063346 -0.016047 421886.000000 0 0 1
-21.435967 21.119022 -26.171073 39.880306 -0.777950 2.286622 0.084909 -0.008915 289377.000000 0 0 1
-22.531167 20.257422 -26.366203 40.164577 -0.732309 2.286905 0.116958 -0.023373 -333366.000000 0 0 1
-23.734867 20.441822 -25.397203 40.326541 -0.710993 2.252078 0.135316 -0.005016 158877.000000 0 0 1
-23.384767 20.024522 -24.090613 39.092025 -0.708144 2.234773 0.098817 0.000577 17077.500000 0 0 1
-24.202867 20.472922 -23.029613 39.182679 -0.702102 2.199071 0.093462 -0.005899 -104799.000000 0 0 1
-23.736867 19.888622 -21.661613 37.791819 -0.697415 2.181181 0.090340 -0.000366 -895778.000000 0 0 1
-22.704667 20.581322 -21.117113 37.215926 -0.736384 2.174167 0.086795 -0.003387 -754355.000000 0 0 1
-21.944567 19.846322 -20.125713 35.783863 -0.735232 2.168111 0.078040 -0.006891 490850.000000 0 0 1
-22.679067 19.437022 -18.791513 35.288225 -0.708571 2.132366 0.093850 -0.016849 23423.500000 0 0 1
-23.508667 18.252522 -18.867513 35.239112 -0.660195 2.135794 0.114882 -0.021519 645185.000000 0 0 1
-24.251367 17.891822 -17.706213 34.953627 -0.635625 2.101990 0.106734 -0.024395 609313.000000 0 0 1
-25.392137 18.833122 -17.205613 35.992780 -0.638162 2.069206 0.079450 -0.018912 -148407.000000 0 0 1
-26.504807 18.975422 -18.052013 37.261865 -0.621333 2.076546 0.084668 -0.010910 473346.000000 0 0 1
-27.397027 20.044822 -17.700313 38.284371 -0.631648 2.051426 0.071674 -0.004188 -70714.600000 0 0 1
-28.825427 19.875122 -18.276013 39.496055 -0.603644 2.051869 0.044898 0.018007 430737.000000 0 0 1
-29.581817 18.714722 -17.899813 39.315748 -0.564076 2.043487 0.044686 0.005138 322209.000000 0 0 1
-29.858277 18.540822 -16.521713 38.836140 -0.555690 2.010223 0.050066 -0.008072 -656169.000000 0 0 1
-30.935467 17.456722 -16.339313 39.098765 -0.513752 2.001927 0.049535 -0.017087 -250487.000000 0 0 1
-30.326267 16.210022 -16.298513 38.053762 -0.490881 2.013409 0.071533 -0.029184 142440.000000 0 0 1
-31.189387 15.220322 -15.725813 38.101670 -0.453999 1.996249 0.070480 -0.028077 362798.000000 0 0 1
-30.467597 13.949222 -15.146313 36.773170 -0.429353 1.995318 0.128724 -0.026168 106122.000000 0 0 1
-29.687437 14.149722 -13.960013 35.727308 -0.444772 1.972229 0.145340 -0.025884 -221184.000000 0 0 1
-30.505367 14.176822 -12.843613 36.007195 -0.435037 1.935525 0.103843 -0.020715 -123422.000000 0 0 1
-29.873127 14.654622 -11.487113 35.201071 -0.456069 1.903213 0.138811 -0.045129 86116.600000 0 0 1
-29.462017 16.020622 -11.503413 35.454186 -0.498049 1.901236 0.115078 -0.032225 342653.000000 0 0 1
-30.470377 16.961922 -11.096713 36.596280 -0.507949 1.878866 0.087340 -0.027332 336041.000000 0 0 1
-30.114787 18.433322 -11.430013 37.112437 -0.549271 1.883869 0.142816 -0.020571 10298.800000 0 0 1
-29.160487 18.907122 -10.490713 36.302456 -0.575237 1.863958 0.107580 -0.035468 -136011.000000 0 0 1
-29.036107 20.256122 -10.751813 37.000101 -0.609126 1.865638 0.058318 -0.036793 -686411.000000 0 0 1
-27.668207 20.824722 -10.404113 36.158599 -0.645201 1.862658 0.102353 -0.037799 -375890.000000 0 0 1
-27.574537 22.252222 -10.560213 36.973431 -0.678985 1.860446 0.139934 -0.037237 574719.000000 0 0 1
-26.281847 22.763022 -10.174013 36.227078 -0.713774 1.855466 0.131581 -0.030490 537938.000000 0 0 1
-26.342237 24.184522 -9.563413 37.017069 -0.742720 1.832112 0.172160 -0.015898 217893.000000 0 0 1
-26.948377 24.432222 -8.278913 37.305347 -0.736466 1.794582 0.135937 -0.019040 785055.000000 0 0 1
-28.371757 24.318622 -8.191013 38.254995 -0.708626 1.786583 0.175495 -0.017536 544952.000000 0 0 1
-28.828917 24.004822 -6.744513 38.115960 -0.694344 1.748680 0.165074 -0.018602 -38532.200000 0 0 1
-28.586027 22.657422 -6.366013 37.027636 -0.670215 1.743581 0.173875 -0.028901 -2380.490000 0 0 1
-29.049087 22.421622 -5.060313 37.043020 -0.657341 1.707831 0.147694 -0.022485 -302522.000000 0 0 1
-29.489327 20.943622 -4.857813 36.494576 -0.617546 1.704303 0.157147 -0.029339 -109921.000000 0 0 1
-28.449517 20.010022 -4.724613 35.101253 -0.612972 1.705806 0.152853 -0.030052 -321385.000000 0 0 1
-27.540027 19.837922 -5.778513 34.429456 -0.624241 1.739431 0.134048 -0.025351 -622094.000000 0 0 1
-27.956527 18.955822 -6.944313 34.483533 -0.595840 1.773563 0.167928 -0.029858 -472873.000000 0 0 1
-27.682747 17.597422 -6.885413 33.517349 -0.566244 1.777698 0.153953 -0.029864 323864.000000 0 0 1
-28.185207 16.989922 -8.075613 33.886264 -0.542473 1.811427 0.124618 -0.035326 -74434.900000 0 0 1
-27.852917 15.537022 -8.224613 32.936732 -0.508830 1.823176 0.179958 -0.039197 -271397.000000 0 0 1
-28.638557 14.681922 -7.463713 33.036840 -0.473726 1.798685 0.165965 -0.030683 -240264.000000 0 0 1
-28.335517 13.344522 -7.737613 32.262183 -0.440136 1.812993 0.195677 -0.040871 81871.700000 0 0 1
-29.274627 12.441322 -6.910013 32.550554 -0.401859 1.784710 0.198058 -0.034638 -843391.000000 0 0 1
-30.603877 12.548722 -7.287913 33.870066 -0.389129 1.787665 0.198317 -0.031279 -1249990.000000 0 0 1
-31.330047 11.643822 -6.496513 34.049304 -0.355831 1.762771 0.207972 -0.035044 218097.000000 0 0 1
-32.012407 10.461122 -7.272613 34.454610 -0.315844 1.783474 0.166092 -0.017845 -21226.500000 0 0 1
-31.014657 9.664122 -7.859613 33.422713 -0.302063 1.808177 0.214217 -0.019413 42653.900000 0 0 1
-31.539297 8.484322 -8.393513 33.721833 -0.262787 1.822345 0.167704 -0.007001 -45304.100000 0 0 1
-30.434077 7.473822 -8.774213 32.543477 -0.240809 1.843790 0.243701 -0.014030 -195509.000000 0 0 1
-29.591797 7.904722 -9.804613 32.160372 -0.261031 1.880594 0.255868 -0.038830 94210.300000 0 0 1
-28.784567 6.750422 -10.096113 31.241815 -0.230353 1.899863 0.268852 -0.046002 15007.100000 0 0 1
-27.824657 6.935622 -11.309913 30.825777 -0.244284 1.946468 0.220700 -0.034620 212609.000000 0 0 1
-26.593507 7.525422 -10.954813 29.729691 -0.275770 1.948170 0.250171 -0.042698 47862.100000 0 0 1
-25.548577 7.347622 -11.851713 29.106364 -0.280037 1.990168 0.198925 -0.026728 -237251.000000 0 0 1
-33.115397 25.406422 -33.491763 53.514615 -0.654424 2.247009 0.104653 -0.015572 -215210.000000 0 0 1
-33.660317 26.669922 -33.539893 54.490605 -0.670044 2.233838 0.103766 -0.020141 146283.000000 0 0 1
-33.686807 27.102922 32.485891 54.080518 -0.677513 0.926426 0.100980 -0.023019 49099.700000 0 0 1
-34.125512 28.601622 32.441215 55.091159 -0.697563 0.941143 0.116176 -0.024089 82489.600000 0 0 1
-33.963957 29.084622 31.134844 54.487100 -0.708162 0.962565 0.135178 -0.022475 174410.000000 0 0 1
-34.128882 30.495122 31.142584 55.358771 -0.729228 0.973318 0.133496 -0.030532 -59492.400000 0 0 1
-33.888207 31.130722 29.744914 54.793178 -0.743013 0.996960 0.120078 -0.028915 -305441.000000 0 0 1
-32.561677 31.112922 29.307124 53.732525 -0.762650 0.993899 0.118292 -0.029952 -352841.000000 0 0 1
-32.374547 31.717122 28.003164 53.275363 -0.775141 1.017340 0.118735 -0.030492 -276935.000000 0 0 1
-30.934077 31.655222 27.477224 52.095758 -0.796920 1.015215 0.131030 -0.035028 -336466.000000 0 0 1
-30.670717 30.340122 27.020584 50.905087 -0.779980 1.011248 0.153798 -0.043309 346404.000000 0 0 1
-29.685387 30.214422 25.988424 49.694383 -0.794230 1.020470 0.124504 -0.037875 202130.000000 0 0 1
-30.083237 30.810522 24.613154 49.599362 -0.797341 1.051535 0.128844 -0.035818 -590118.000000 0 0 1
-29.958887 32.200622 24.516454 50.353465 -0.821447 1.062274 0.120415 -0.042397 -314107.000000 0 0 1
-30.961787 32.773022 23.735554 50.951739 -0.813809 1.086208 0.130644 -0.040496 -420630.000000 0 0 1
-31.113467 -33.314449 24.125224 51.574478 0.819547 1.084025 0.113550 -0.036934 -267856.000000 0 0 1
-31.668067 -33.312549 25.436324 52.531885 0.810700 1.065339 0.110237 -0.045683 61333.700000 0 0 1
-31.422477 -32.068249 26.080524 51.922427 0.795569 1.044542 0.081835 -0.046062 -271076.000000 0 0 1
-31.816587 -32.034349 27.532194 52.882100 0.788809 1.023204 0.090957 -0.042519 -815263.000000 0 0 1
-33.175227 -32.257549 27.725334 53.942927 0.771374 1.030984 0.064159 -0.045180 -852227.000000 0 0 1
-33.386007 -32.291549 29.159604 54.842065 0.768736 1.010188 0.062787 -0.038238 60475.900000 0 0 1
-34.833881 -32.626449 29.584834 56.152888 0.752688 1.015892 0.078250 -0.042599 180054.000000 0 0 1
-35.008252 -32.763549 30.964674 57.077482 0.752289 0.997383 0.087164 -0.048072 194028.000000 0 0 1
-36.367737 -33.035449 31.265297 58.236346 0.737422 1.004075 0.091213 -0.047348 251541.000000 0 0 1
-36.672117 -33.320749 32.746782 59.392493 0.737553 0.986800 0.104816 -0.027431 -75771.000000 0 0 1
-36.416397 32.886022 33.064713 59.168570 -0.734501 0.977831 0.083262 -0.029411 420521.000000 0 0 1
-37.433757 32.368222 -33.439883 59.726156 -0.712955 2.165045 0.093823 -0.023347 599152.000000 0 0 1
-37.272797 30.906022 -33.038923 58.617523 -0.692285 2.169577 0.085173 -0.024905 1214400.000000 0 0 1
-36.151437 30.764922 -32.112413 57.311551 -0.705075 2.165560 0.082997 -0.029306 679357.000000 0 0 1
-36.054037 29.367922 -31.774493 56.320394 -0.683552 2.170229 0.086551 -0.022044 749551.000000 0 0 1
-35.100519 29.054922 -30.542073 54.854837 -0.691442 2.161301 0.079692 -0.012804 634451.000000 0 0 1
-35.613808 29.436222 -29.281623 54.701443 -0.690715 2.135658 0.082412 -0.025251 -317300.000000 0 0 1
-35.899264 30.791422 -29.065693 55.512911 -0.708957 2.121849 0.069840 -0.022346 -86186.100000 0 0 1
-36.656127 31.060022 -27.761243 55.489487 -0.702945 2.094738 0.062506 -0.017248 190560.000000 0 0 1
-35.975997 30.910722 -26.532603 54.348175 -0.709813 2.080819 0.053285 -0.028135 -261816.000000 0 0 1
-36.950887 30.492922 -25.610393 54.323831 -0.689936 2.061719 0.093442 -0.029949 174512.000000 0 0 1
-36.400467 30.218322 -24.174713 53.127749 -0.692864 2.043202 0.097008 -0.035974 -281822.000000 0 0 1
-36.116417 31.414922 -23.512713 53.330484 -0.715891 2.027383 0.082188 -0.034562 -134403.000000 0 0 1
-36.022747 31.412122 -22.116013 52.663818 -0.717133 2.004183 0.082741 -0.045427 -405799.000000 0 0 1
-37.348567 31.199322 -21.371413 53.151204 -0.695930 1.984592 0.065646 -0.036668 675290.000000 0 0 1
37.625442 32.254022 -21.305513 53.943681 0.708682 1.976819 0.074570 -0.038663 786565.000000 0 0 1
37.993092 33.467722 -20.700913 54.700011 0.722156 1.958911 0.070487 -0.034920 -459015.000000 0 0 1
-37.737427 33.464322 -19.179613 53.961392 -0.725456 1.934173 0.076562 -0.029195 486634.000000 0 0 1
-36.654527 32.565622 -18.892313 52.545157 -0.726396 1.938576 0.075123 -0.039177 237730.000000 0 0 1
-36.451017 32.399222 -17.505313 51.815270 -0.726617 1.915418 0.075609 -0.020677 51782.800000 0 0 1
-35.123260 31.714322 -17.105213 50.319280 -0.734439 1.917643 0.085189 -0.029216 -10679.200000 0 0 1
-34.869228 31.409922 -15.756013 49.504527 -0.733253 1.894705 0.079260 -0.014682 -364810.000000 0 0 1
-33.776117 30.554922 -15.549913 48.127218 -0.735368 1.899800 0.087550 -0.013180 -158274.000000 0 0 1
-33.426697 30.252622 -13.993813 47.205847 -0.735595 1.871762 0.103755 -0.021135 680550.000000 0 0 1
-34.487028 29.489522 -13.310313 47.287963 -0.707442 1.856126 0.085484 -0.013556 977542.000000 0 0 1
-34.178036 29.057322 -12.032413 46.446152 -0.704596 1.832847 0.116196 -0.008293 -56492.800000 0 0 1
-35.085261 27.931422 -11.446613 46.283527 -0.672359 1.820705 0.103819 -0.015502 131549.000000 0 0 1
-34.589556 27.445922 -10.214313 45.321609 -0.670749 1.798123 0.130165 -0.015896 571080.000000 0 0 1
-35.484329 26.448122 -9.675213 45.301772 -0.640516 1.786027 0.138571 -0.023649 -213948.000000 0 0 1
-34.898519 25.615822 -8.511513 44.119415 -0.633188 1.764933 0.157849 -0.022415 88390.800000 0 0 1
-34.446180 26.331322 -7.352613 43.976571 -0.652666 1.738779 0.161832 -0.019540 -168059.000000 0 0 1
-33.271167 27.031222 -7.647413 43.544695 -0.682288 1.747334 0.169431 -0.019454 -1437500.000000 0 0 1
-32.597897 27.643222 -6.402013 43.217547 -0.703335 1.719478 0.182664 -0.016200 -187810.000000 0 0 1
-32.210517 26.722022 -5.450613 42.205368 -0.692534 1.700303 0.192636 -0.021725 -13561.700000 0 0 1
-32.090937 27.302622 -4.227113 42.345365 -0.704952 1.670788 0.184459 -0.023797 209621.000000 0 0 1
-31.270627 26.427622 -3.202613 41.067360 -0.701658 1.648860 0.187827 -0.021047 227029.000000 0 0 1
-31.864907 25.189022 -2.949913 40.725436 -0.668918 1.643294 0.179923 -0.018049 -304615.000000 0 0 1
-31.022447 24.394222 -2.163113 39.524035 -0.666357 1.625553 0.166233 -0.019184 117368.000000 0 0 1
-31.661937 23.079422 -1.609213 39.213869 -0.629881 1.611845 0.168170 -0.030508 -140711.000000 0 0 1
-32.067817 22.234922 -2.631013 39.110854 -0.606264 1.638118 0.166465 -0.029091 55636.300000 0 0 1
-32.902537 21.242522 -2.042013 39.217235 -0.573290 1.622889 0.140039 -0.032602 -140971.000000 0 0 1
-33.405487 20.310722 -3.107213 39.218704 -0.546285 1.650107 0.181447 -0.024753 256324.000000 0 0 1
-32.424437 19.363222 -3.595913 37.936909 -0.538343 1.665725 0.179277 -0.034815 415136.000000 0 0 1
-32.789907 18.643222 -4.794313 38.022798 -0.516985 1.697223 0.173621 -0.026664 -470201.000000 0 0 1
-31.762557 17.635922 -5.284913 36.712615 -0.506859 1.715252 0.160717 -0.035062 -244471.000000 0 0 1
-31.820087 16.455122 -4.402413 36.092523 -0.477258 1.693077 0.191110 -0.037300 -13047.500000 0 0 1
-30.998007 15.443622 -4.907313 34.978045 -0.462217 1.711558 0.196788 -0.041001 -234057.000000 0 0 1
-30.884867 14.335722 -3.816413 34.262997 -0.434572 1.682414 0.202344 -0.041866 260764.000000 0 0 1
-32.128797 13.699422 -3.571913 35.109718 -0.403048 1.672708 0.182590 -0.035095 552576.000000 0 0 1
-31.874497 12.586822 -2.680113 34.374331 -0.376091 1.648844 0.174579 -0.042081 133807.000000 0 0 1
-33.173137 11.842122 -2.324113 35.300062 -0.342879 1.636683 0.167153 -0.035000 -325132.000000 0 0 1
-33.898777 11.244422 -3.356113 35.872380 -0.320285 1.664490 0.183347 -0.012390 754233.000000 0 0 1
-34.968908 10.439822 -2.797013 36.601061 -0.290122 1.647290 0.180988 -0.009671 381205.000000 0 0 1
-35.878583 9.901822 -3.872013 37.420733 -0.269278 1.674454 0.136420 -0.003301 -251369.000000 0 0 1
-35.170868 8.878822 -4.594613 36.564107 -0.247282 1.696788 0.115912 0.000026 542864.000000 0 0 1
-35.940973 8.208422 -5.563113 37.283776 -0.224535 1.720566 0.127276 0.001978 -265862.000000 0 0 1
-35.099771 7.392022 -6.572413 36.466869 -0.207567 1.752016 0.147849 -0.009699 -80046.600000 0 0 1
-34.378109 6.321722 -5.978113 35.462042 -0.181856 1.740183 0.137085 -0.010635 302560.000000 0 0 1
-33.913147 5.483322 -6.980413 35.055592 -0.160300 1.771260 0.143048 -0.017034 -692731.000000 0 0 1
-32.988037 4.372822 -6.494913 33.904514 -0.131789 1.763553 0.170592 -0.034683 461815.000000 0 0 1
-31.627637 4.858122 -6.470713 32.646269 -0.152412 1.770324 0.187395 -0.036729 714347.000000 0 0 1
-30.791527 3.852122 -5.980313 31.602549 -0.124457 1.761179 0.182124 -0.042788 -1134940.000000 0 0 1
-29.402677 4.308322 -5.591513 30.238123 -0.145493 1.756783 0.229997 -0.043950 -672797.000000 0 0 1
-28.603037 4.672622 -6.712913 29.749459 -0.161931 1.798405 0.241304 -0.035229 -786370.000000 0 0 1
-27.273607 4.528322 -6.373513 28.372117 -0.164532 1.797370 0.254387 -0.047089 -598643.000000 0 0 1
-26.267267 4.790822 -7.544113 27.745899 -0.180405 1.846163 0.244563 -0.050667 171580.000000 0 0 1
-26.209907 3.811722 -8.521713 27.822797 -0.144418 1.882085 0.231011 -0.058396 69766.000000 0 0 1
-25.256797 4.116122 -9.535513 27.308868 -0.161551 1.927484 0.223248 -0.056858 -25250.100000 0 0 1
-25.479917 3.311322 -10.839513 27.887023 -0.129234 1.970010 0.181783 -0.065161 168459.000000 0 0 1
-26.488777 4.040022 -11.562313 29.183286 -0.151352 1.978167 0.195358 -0.041179 725998.000000 0 0 1
-26.745907 3.317622 -12.778513 29.826843 -0.123412 2.013543 0.174932 -0.041636 207117.000000 0 0 1
-27.649937 4.026622 -13.835713 31.179475 -0.144612 2.030569 0.159178 -0.030742 185266.000000 0 0 1
-26.998867 5.269822 -14.271013 30.989864 -0.192763 2.049361 0.127046 -0.022586 810113.000000 0 0 1
-27.790137 6.151022 -15.031813 32.188231 -0.217826 2.056688 0.154565 -0.034910 -254808.000000 0 0 1
-28.435447 5.734022 -16.392213 33.319038 -0.198982 2.085156 0.102271 -0.003008 -772214.000000 0 0 1
-29.516777 4.914522 -16.152213 34.004215 -0.164986 2.065767 0.135971 -0.024024 -740124.000000 0 0 1
-30.125727 4.572722 -17.420413 35.099003 -0.150638 2.090153 0.134927 -0.006073 -900459.000000 0 0 1
-31.583687 4.179022 -17.311413 36.258496 -0.131552 2.068540 0.144870 -0.020369 -752631.000000 0 0 1
-31.895887 2.913822 -16.723613 36.131941 -0.091101 2.052002 0.156114 -0.030468 275756.000000 0 0 1
-31.694007 1.789022 -17.595413 36.294755 -0.056387 2.076922 0.169479 -0.030368 -204254.000000 0 0 1
-32.197717 0.604522 -16.784913 36.315172 -0.018773 2.051272 0.167096 -0.030568 -93243.700000 0 0 1
-31.809487 -0.664378 -17.237513 36.185863 0.020883 2.067307 0.173476 -0.026754 208785.000000 0 0 1
-32.219227 -1.649878 -16.308913 36.149431 0.051163 2.038853 0.183359 -0.035696 6070.560000 0 0 1
-31.999297 -3.071878 -16.868013 36.303186 0.095705 2.054027 0.171830 -0.025864 328979.000000 0 0 1
-32.837787 -3.286678 -18.018813 37.600534 0.099756 2.070559 0.195628 -0.026694 643265.000000 0 0 1
-32.513307 -4.553778 -18.597013 37.731961 0.139154 2.086183 0.202016 -0.025955 -59668.000000 0 0 1
-33.582897 -4.965378 -19.615513 39.207580 0.146791 2.094740 0.218664 -0.025185 -238156.000000 0 0 1
-33.366147 -6.245078 -20.189713 39.495889 0.185027 2.107359 0.220618 -0.024009 63854.000000 0 0 1
-34.114169 -6.351978 -21.348213 40.741506 0.184090 2.122327 0.211197 -0.026895 -355875.000000 0 0 1
-33.603397 -7.551978 -22.115413 40.930577 0.221066 2.141608 0.215774 -0.025458 -369525.000000 0 0 1
-32.332997 -7.396278 -22.670413 40.175555 0.224884 2.170362 0.203826 -0.011594 -353654.000000 0 0 1
-32.210547 -8.193878 -23.850913 40.908740 0.249101 2.193246 0.178717 -0.017922 286690.000000 0 0 1
-30.849297 -7.995678 -24.579713 40.246395 0.253605 2.227779 0.154903 -0.006876 -39181.400000 0 0 1
-30.764147 -6.712178 -25.263133 40.369691 0.214815 2.246946 0.142480 -0.011313 68547.800000 0 0 1
-30.890387 -6.888778 -26.660163 41.381585 0.219417 2.270841 0.102703 -0.014175 -107057.000000 0 0 1
-32.309787 -6.812978 -27.272223 42.826547 0.207820 2.261146 0.137189 -0.009836 163007.000000 0 0 1
-33.148747 -7.876678 -26.859953 43.385926 0.233290 2.238384 0.133606 -0.009358 -301681.000000 0 0 1
-34.306734 -8.035578 -27.661573 44.796039 0.230080 2.236357 0.114833 -0.012833 151389.000000 0 0 1
-35.292338 -8.924478 -26.896483 45.261642 0.247681 2.207122 0.109277 -0.020869 -825682.000000 0 0 1
-34.940202 -10.318078 -27.015033 45.355181 0.287146 2.208850 0.110012 -0.014540 -493291.000000 0 0 1
-35.920592 -11.280978 -26.865183 46.252432 0.304299 2.190554 0.105253 -0.013390 -626632.000000 0 0 1
-37.129407 -11.286978 -27.804513 47.739707 0.295114 2.192498 0.089535 -0.002828 -583962.000000 0 0 1
37.932912 -10.239778 -27.679833 48.061752 -0.263660 2.184528 0.084909 -0.009061 -145445.000000 0 0 1
36.881542 -10.412978 -28.585353 47.810047 -0.275173 2.211668 0.095511 -0.009135 -373863.000000 0 0 1
35.703232 -9.443678 -28.519213 46.661004 -0.258583 2.228372 0.088942 -0.004375 -273800.000000 0 0 1
34.767372 -9.671278 -27.484323 45.361787 -0.271312 2.221682 0.081646 -0.002809 -263270.000000 0 0 1
33.925052 -8.550278 -27.449373 44.468916 -0.246892 2.236066 0.045215 -0.001630 -220865.000000 0 0 1
32.634082 -8.776278 -26.631593 43.026132 -0.262714 2.238218 0.042702 -0.000744 17171.900000 0 0 1
32.744882 -8.714278 -25.226603 42.243904 -0.260098 2.210759 0.028017 0.006727 269954.000000 0 0 1
31.493202 -9.094978 -24.653313 41.016170 -0.281143 2.215627 0.011118 0.010319 414846.000000 0 0 1
31.638222 -9.334478 -23.154413 40.301816 -0.286898 2.182820 -0.002915 0.008808 96551.600000 0 0 1
32.397622 -10.497078 -22.858913 41.016148 -0.313334 2.161945 -0.008175 0.003559 203973.000000 0 0 1
32.633742 -10.522278 -21.492713 40.467470 -0.311911 2.130707 0.007130 -0.000596 -332348.000000 0 0 1
33.407512 -11.742678 -21.021113 41.180572 -0.338009 2.106518 0.041449 -0.005592 420683.000000 0 0 1
34.825922 -11.540878 -21.113013 42.329611 -0.319998 2.092983 0.058001 -0.012559 457947.000000 0 0 1
35.428622 -12.634278 -20.433113 42.805658 -0.342553 2.068428 0.099387 -0.014490 -1031210.000000 0 0 1
36.896272 -12.813878 -20.778613 44.241170 -0.334263 2.059710 0.139193 -0.031897 -868858.000000 0 0 1
37.692212 -11.628178 -20.519413 44.463059 -0.299240 2.050474 0.170578 -0.036645 557483.000000 0 0 1
37.713162 -10.603278 -21.472213 44.674019 -0.274080 2.072183 0.175653 -0.020681 -1014160.000000 0 0 1
-37.554117 -10.888078 -22.820213 45.272774 0.282193 2.099090 0.140877 -0.022573 -23971.100000 0 0 1
37.869352 -11.804078 -23.792113 46.254607 -0.302161 2.111072 0.141764 -0.016528 690184.000000 0 0 1
36.536382 -11.568278 -24.245913 45.349714 -0.306637 2.134882 0.161367 -0.019289 -76043.900000 0 0 1
36.097742 -12.595878 -25.298863 45.844690 -0.335729 2.155363 0.126803 -0.028557 -128443.000000 0 0 1
35.828812 -13.943478 -24.846213 45.776180 -0.371135 2.144535 0.135772 -0.036845 335233.000000 0 0 1
34.739332 -14.098878 -23.968213 44.498031 -0.385537 2.139613 0.092788 -0.024644 -622346.000000 0 0 1
-30.635127 8.467422 -19.250613 37.159041 -0.269663 2.115378 0.098922 -0.011357 438202.000000 0 0 1
-29.333527 7.928222 -19.095513 35.888036 -0.263971 2.131858 0.096802 -0.003276 563406.000000 0 0 1
-28.604887 7.905722 -20.353713 35.986298 -0.269646 2.171952 0.098560 -0.026574 163600.000000 0 0 1
-27.389397 6.987522 -20.348213 34.828929 -0.249790 2.194731 0.081836 -0.024800 8559.700000 0 0 1
-26.298407 7.407522 -19.541613 33.590954 -0.274558 2.191678 0.080572 -0.015981 1031940.000000 0 0 1
-25.138347 6.568622 -19.697113 32.604594 -0.255584 2.219458 0.090031 -0.023137 879942.000000 0 0 1
-23.797467 7.124822 -19.168813 31.377156 -0.290901 2.228014 0.086256 -0.028869 243555.000000 0 0 1
-23.293367 8.140222 -20.016413 31.772645 -0.336198 2.252335 0.081921 -0.026015 258960.000000 0 0 1
-22.213367 8.857222 -19.405913 30.797297 -0.379414 2.252501 0.072869 -0.026941 386553.000000 0 0 1
-21.498967 9.968422 -20.229213 31.157600 -0.434163 2.277400 0.076808 -0.034443 570.879000 0 0 1
-20.781867 9.454722 -21.340113 31.251851 -0.426963 2.322444 0.113011 -0.032559 111797.000000 0 0 1
-20.124067 10.479622 -22.079113 31.658929 -0.480110 2.342567 0.105783 -0.030219 -126474.000000 0 0 1
-19.187467 9.856322 -23.117813 31.618653 -0.474536 2.390795 0.123736 -0.030507 -915165.000000 0 0 1
-19.798667 9.005822 -24.031313 32.412899 -0.426897 2.405968 0.123523 -0.029045 25258.400000 0 0 1
-18.902767 8.251122 -24.858613 32.300871 -0.411574 2.449004 0.108887 -0.023924 -518540.000000 0 0 1
-19.594867 7.145822 -25.690933 33.091473 -0.349691 2.459668 0.097426 -0.016951 -129256.000000 0 0 1
-19.834067 5.978622 -24.949513 32.428573 -0.292770 2.448648 0.115947 -0.013296 397238.000000 0 0 1
-20.528367 4.975822 -25.701183 33.267453 -0.237801 2.453663 0.108331 -0.013657 -171573.000000 0 0 1
-20.590267 3.580822 -24.975113 32.565897 -0.172186 2.444809 0.108982 0.000952 410195.000000 0 0 1
-19.379467 2.844022 -24.890913 31.673486 -0.145714 2.474881 0.099799 0.005272 151564.000000 0 0 1
-18.397467 3.208122 -23.978813 30.393129 -0.172643 2.479903 0.108675 -0.006156 -388354.000000 0 0 1
-17.446067 2.059522 -23.565713 29.393021 -0.117507 2.501006 0.106229 -0.001310 73392.100000 0 0 1
-17.852767 1.141622 -22.518613 28.759564 -0.063860 2.470264 0.098474 0.001100 1049780.000000 0 0 1
-19.127067 0.453822 -22.668213 29.663083 -0.023722 2.440580 0.081311 0.009217 1134780.000000 0 0 1
-19.601267 -0.493078 -21.500413 29.098463 0.025150 2.402210 0.133928 -0.001688 226424.000000 0 0 1
-18.821667 -1.672178 -21.292313 28.467770 0.088611 2.415756 0.124770 -0.004818 276424.000000 0 0 1
-19.277667 -2.399778 -20.169613 28.003583 0.123848 2.374961 0.148318 -0.008911 -219234.000000 0 0 1
-18.448467 -3.626578 -19.843513 27.336112 0.194104 2.383151 0.098824 -0.023145 -322308.000000 0 0 1
-18.610167 -4.604678 -20.867813 28.337378 0.242557 2.398539 0.097295 -0.024244 240286.000000 0 0 1
-19.235167 -5.754278 -20.367713 28.599774 0.290681 2.363371 0.105195 -0.018234 -327055.000000 0 0 1
-19.374467 -6.745578 -21.580013 29.775321 0.335042 2.381485 0.065845 -0.025619 932015.000000 0 0 1
-18.101067 -6.995478 -22.238213 29.514800 0.368786 2.424105 0.073641 -0.024726 1035810.000000 0 0 1
-18.262067 -7.688378 -23.471013 30.716489 0.398480 2.440469 0.090418 -0.035726 117821.000000 0 0 1
-16.996067 -7.744978 -24.361913 30.697781 0.427578 2.487508 0.094755 -0.042997 -558913.000000 0 0 1
-17.051767 -8.400078 -25.622043 31.903184 0.457728 2.503307 0.120747 -0.066428 1073860.000000 0 0 1
-15.760467 -8.581678 -26.251743 31.799238 0.498616 2.541966 0.122482 -0.066659 1185590.000000 0 0 1
-14.608567 -9.390378 -25.619963 30.951121 0.571297 2.545892 0.104995 -0.062780 -123013.000000 0 0 1
-13.817467 -8.700578 -24.627613 29.548972 0.561957 2.556120 0.109803 -0.057544 241988.000000 0 0 1
-12.866867 -9.566278 -24.090613 28.938341 0.639316 2.554367 0.087928 -0.051446 -370900.000000 0 0 1
-11.939367 -8.975178 -23.028013 27.447981 0.644607 2.566183 0.106364 -0.046152 -232167.000000 0 0 1
-12.513667 -8.729678 -21.785613 26.597219 0.609121 2.530626 0.097672 -0.034197 -49612.700000 0 0 1
-11.595267 -8.041978 -20.960213 25.267650 0.606389 2.549058 0.101256 -0.023285 -627618.000000 0 0 1
-12.085667 -7.842878 -19.489213 24.236408 0.575630 2.505006 0.086959 -0.019687 -37717.600000 0 1 0
-13.124367 -6.927578 -19.253313 24.309060 0.485671 2.484910 0.080161 -0.011016 421177.000000 0 1 0
-14.441667 -7.320478 -19.614113 25.433532 0.469152 2.451506 0.087123 -0.023450 418153.000000 0 0 1
-15.493467 -6.157278 -19.467413 25.630836 0.378273 2.433388 0.098874 -0.014672 209639.000000 0 0 1
-15.794467 -5.832078 -18.076513 24.703009 0.353718 2.391687 0.088922 -0.013336 424319.000000 0 1 0
-15.052567 -4.735278 -17.589513 23.630353 0.304781 2.410374 0.093174 -0.020642 -580811.000000 0 1 0
-15.043967 -4.463178 -16.052413 22.448182 0.288404 2.367546 0.103991 -0.024367 -272115.000000 0 1 0
-16.225867 -4.151178 -15.333213 22.707233 0.250465 2.312109 0.147017 -0.038575 195871.000000 0 1 0
-16.607667 -2.793578 -15.479713 22.874444 0.166650 2.314102 0.095901 -0.039332 -867569.000000 0 1 0
-17.790467 -2.463578 -14.602513 23.147426 0.137602 2.253442 0.090602 -0.044536 -845882.000000 0 1 0
-17.616967 -2.683778 -13.243013 22.202198 0.151178 2.209896 0.114319 -0.051263 1116210.000000 0 1 0
-18.570467 -1.900178 -12.505313 22.468996 0.101968 2.161034 0.119608 -0.053131 374200.000000 0 1 0
-17.813367 -0.669078 -11.988213 21.482108 0.037543 2.162837 0.089308 -0.043479 131021.000000 0 1 0
-17.625767 0.341422 -12.967113 21.884475 -0.019368 2.204987 0.122475 -0.044652 277754.000000 0 1 0
-16.669467 1.257122 -12.512213 20.880780 -0.075272 2.213325 0.094849 -0.032788 -1397410.000000 0 1 0
-16.226167 2.296622 -13.591613 21.290723 -0.140604 2.263191 0.098345 -0.024215 163672.000000 0 1 0
-15.484667 1.692522 -14.654213 21.386573 -0.108871 2.325683 0.097662 -0.036653 -53468.900000 0 1 0
-14.278067 1.090722 -14.290613 20.230533 -0.076243 2.355179 0.095044 -0.033181 -1623620.000000 0 1 0
-13.738267 0.250722 -15.461913 20.685105 -0.018248 2.415072 0.084348 -0.028336 -217850.000000 0 1 0
-13.290967 1.020522 -16.503413 21.214474 -0.076633 2.462164 0.101405 -0.033680 124570.000000 0 1 0
-12.859367 0.122822 -17.512613 21.727172 -0.009551 2.508199 0.055151 -0.018816 -405242.000000 0 1 0
-12.295267 0.826922 -18.700413 22.395598 -0.067154 2.558936 0.075673 -0.022723 -349065.000000 0 1 0
-11.069267 1.458222 -18.346513 21.476723 -0.130982 2.594905 0.059851 -0.022082 -60122.900000 0 1 0
-10.730867 2.245422 -19.459713 22.335484 -0.206273 2.628532 0.074045 -0.021569 -148903.000000 0 1 0
-9.262267 2.694922 -19.423513 21.686979 -0.283140 2.680642 0.049655 -0.018422 -938451.000000 0 1 0
-8.344067 1.629222 -19.748613 21.500826 -0.192829 2.735079 0.051159 -0.013119 160966.000000 0 1 0
-7.001367 1.953222 -19.465313 20.778176 -0.272060 2.784209 0.042703 -0.007703 129764.000000 0 1 0
-6.382867 3.091322 -20.296213 21.499616 -0.451022 2.805428 0.047092 -0.011703 -1420870.000000 0 1 0
-6.264467 2.723022 -21.672413 22.723377 -0.410039 2.836269 0.047445 -0.010577 158239.000000 0 1 0
-5.738667 3.743222 -22.481113 23.502009 -0.577977 2.845765 0.069062 -0.010590 -346556.000000 0 1 0
-5.112767 3.206322 -23.815113 24.567875 -0.560123 2.893408 0.095411 -0.026435 -133010.000000 0 1 0
-3.892067 2.510622 -23.688513 24.137047 -0.572896 2.948509 0.089786 -0.032501 -246235.000000 0 1 0
-3.391967 2.222622 -24.961713 25.288981 -0.580064 2.980539 0.123271 -0.037818 -944449.000000 0 0 1
-2.049367 1.542522 -24.922913 25.054557 -0.645215 3.039036 0.091773 -0.032936 -1219030.000000 0 0 1
-1.025867 2.493322 -24.651513 24.798511 -1.180462 3.032656 0.097372 -0.033902 828157.000000 0 1 0
0.314033 1.979322 -24.727913 24.808990 1.413451 3.060724 0.092837 -0.027902 727161.000000 0 1 0
0.816133 0.974622 -23.680113 23.714209 0.873672 3.087962 0.086208 -0.028815 -1121730.000000 0 1 0
0.197333 -0.287078 -23.663113 23.665677 -0.968588 3.126872 0.066427 -0.028670 -269522.000000 0 1 0
0.730833 -1.040678 -22.638913 22.674600 -0.958551 3.085480 0.067577 -0.024253 -405933.000000 0 1 0
0.265933 -2.547878 -22.758913 22.902631 -1.466799 3.029506 0.073564 -0.030612 -277496.000000 0 1 0
-0.925367 -2.822078 -22.072613 22.271521 1.253941 3.007844 0.053069 -0.022511 -696258.000000 0 1 0
-2.063867 -2.845878 -22.876513 23.145051 0.943349 2.989114 0.058867 -0.021943 -233014.000000 0 1 0
-2.962767 -1.568978 -22.853813 23.098408 0.487019 2.995936 0.075994 -0.024636 -1552330.000000 0 1 0
-3.383867 -1.206978 -21.525513 21.823268 0.342619 2.976214 0.048801 -0.024051 728683.000000 0 1 0
-4.422067 -0.216878 -21.484113 21.935560 0.049005 2.938361 0.034399 -0.025204 1445150.000000 0 1 0
-5.718167 -0.457378 -22.371013 23.094779 0.079817 2.890579 0.039607 -0.016520 -452263.000000 0 1 0
-6.402267 -1.571178 -21.817413 22.791602 0.240654 2.848160 0.044351 -0.004496 -607899.000000 0 1 0
-7.769867 -1.410978 -22.032513 23.404985 0.179639 2.797435 0.055421 -0.003194 -678518.000000 0 1 0
-8.641767 -2.605378 -21.736513 23.536017 0.292820 2.748014 0.047734 -0.004938 -178598.000000 0 1 0
-9.312567 -3.248778 -22.813213 24.853996 0.335658 2.733524 0.099569 -0.006516 194379.000000 0 1 0
-9.569967 -4.583278 -22.528513 24.902301 0.446644 2.701415 0.074049 0.000320 -596678.000000 0 1 0
-10.417767 -5.163178 -23.616213 26.323255 0.460132 2.684097 0.092162 -0.016027 -408946.000000 0 0 1
-11.756967 -4.770178 -23.509013 26.714314 0.385438 2.646691 0.090974 -0.021250 -59735.400000 0 0 1
-12.746767 -5.578478 -24.130513 27.854643 0.412527 2.618546 0.095966 -0.044861 377171.000000 0 0 1
-14.201567 -5.288678 -23.733613 28.159172 0.356490 2.573331 0.084870 -0.044847 -206299.000000 0 0 1
-14.658367 -4.068178 -24.305513 28.673607 0.270719 2.582358 0.097211 -0.042866 166409.000000 0 0 1
-16.012167 -3.840878 -23.941013 29.057080 0.235424 2.539109 0.100427 -0.043978 334383.000000 0 0 1
-16.533067 -2.428878 -24.398213 29.572192 0.145867 2.541068 0.093328 -0.029647 -76189.600000 0 0 1
-16.719667 -2.227178 -25.768103 30.797771 0.132427 2.562003 0.078979 -0.029631 53988.300000 0 0 1
-17.195267 -0.887078 -25.996993 31.181850 0.051543 2.556611 0.076536 -0.019469 662689.000000 0 0 1
-18.646767 -0.830978 -26.597393 32.493288 0.044535 2.529679 0.072987 -0.002371 675568.000000 0 0 1
-18.949667 -1.590078 -27.786253 33.670374 0.083714 2.541429 0.079472 -0.018772 -63130.700000 0 0 1
-19.046967 -0.653178 -28.838633 34.567041 0.034280 2.557624 0.056838 -0.023933 -120003.000000 0 0 1
-19.121767 -1.373578 -30.212003 35.781193 0.071710 2.576155 0.061148 -0.032305 -453770.000000 0 0 1
-20.273767 -2.111178 -30.425453 36.622273 0.103760 2.551324 0.071273 -0.031581 -581576.000000 0 0 1
-20.292467 -2.755578 -31.702293 37.741394 0.134968 2.568056 0.082365 -0.036195 -767725.000000 0 0 1
-21.601267 -3.470178 -32.069543 38.821546 0.159286 2.542905 0.061576 -0.034297 793624.000000 0 0 1
-22.707867 -2.587778 -32.405623 39.654359 0.113470 2.527336 0.060651 -0.026644 1373900.000000 0 0 1
-23.446267 -2.056878 -31.278763 39.144849 0.087503 2.496513 0.048608 -0.010721 172763.000000 0 0 1
-24.493167 -0.972978 -31.689213 40.063301 0.039704 2.483203 0.044284 -0.006028 -78808.800000 0 0 1
-23.893567 0.244522 -32.060073 39.985130 -0.010233 2.501097 0.049299 -0.007774 642416.000000 0 0 1
-24.832667 1.207222 -32.589353 40.990055 -0.048576 2.489895 0.037218 -0.011899 397492.000000 0 0 1
-24.150067 2.559722 -32.934063 40.919804 -0.105598 2.506209 0.048699 -0.014060 -724357.000000 0 0 1
-23.737667 3.348722 -31.843323 39.858349 -0.140147 2.496281 0.040210 -0.010322 762598.000000 0 0 1
-24.713267 3.936522 -30.936973 39.791181 -0.157961 2.461450 0.046519 -0.012447 271849.000000 0 0 1
-25.837357 4.780822 -31.590453 41.089926 -0.182966 2.447779 0.035838 -0.017053 -727322.000000 0 0 1
-26.813487 3.996122 -32.181413 42.078206 -0.147945 2.441527 0.048287 -0.026322 -795806.000000 0 0 1
-27.906117 4.794622 -32.536833 43.132183 -0.170151 2.425462 0.073328 -0.032925 -495035.000000 0 0 1
-28.956867 4.004422 -33.321313 44.326577 -0.137418 2.421467 0.086492 -0.038355 -367452.000000 0 0 1
-28.571367 3.733922 32.719609 43.598601 -0.129951 0.722018 0.088196 -0.035782 -45639.700000 0 0 1
-29.606417 3.147822 31.987734 43.699701 -0.105924 0.749558 0.106653 -0.046941 -405265.000000 0 0 1
-29.654857 1.617622 31.891358 43.578503 -0.054494 0.749816 0.109877 -0.032363 -293826.000000 0 0 1
-30.066827 1.120322 33.156726 44.773180 -0.037244 0.736910 0.121883 -0.029851 467951.000000 0 0 1
-30.632237 -0.211678 32.986894 45.016818 0.006910 0.748415 0.101802 -0.018682 -332551.000000 0 0 1
-30.708837 -1.028878 -33.021863 45.105816 0.033492 2.392193 0.082599 -0.013746 285981.000000 0 0 1
-29.500317 -1.610378 -32.555483 43.962728 0.054534 2.404647 0.087349 -0.017663 919207.000000 0 0 1
-28.359097 -0.810378 -32.272743 42.970048 0.028568 2.420450 0.080233 -0.013532 -187566.000000 0 0 1
-28.282627 -0.324178 -30.819493 41.831247 0.011462 2.399059 0.105329 -0.015537 -760393.000000 0 0 1
-27.562417 -1.195678 -30.019773 40.771353 0.043354 2.398376 0.089841 -0.019302 92891.100000 0 0 1
-27.464317 -0.680878 -28.710693 39.737340 0.024786 2.378225 0.105041 -0.019175 -699589.000000 0 0 1
-26.260337 -1.135878 -27.914153 38.341824 0.043228 2.386246 0.104124 -0.014799 -626194.000000 0 0 1
-26.398287 -2.466878 -27.463343 38.173161 0.093178 2.373794 0.091928 -0.006951 397321.000000 0 0 1
-25.334957 -2.805578 -26.582163 36.828558 0.110290 2.377169 0.094535 -0.008214 111737.000000 0 0 1
-25.571467 -4.219078 -25.993283 36.706284 0.163518 2.357660 0.083485 -0.014350 -789.065000 0 0 1
-26.378087 -4.042378 -24.856613 36.469103 0.152065 2.320716 0.119809 -0.016186 -140391.000000 0 0 1
-26.555557 -5.265478 -24.157613 36.283786 0.195743 2.299357 0.108887 -0.016670 -68057.800000 0 0 1
-27.567317 -5.018278 -23.039113 36.275898 0.180066 2.258945 0.121432 -0.021661 -277649.000000 0 0 1
-27.885967 -6.136778 -22.329213 36.247496 0.216614 2.234478 0.129996 -0.021411 200932.000000 0 0 1
-29.112977 -5.921978 -21.639513 36.754643 0.200676 2.200315 0.181311 -0.018589 248079.000000 0 0 1
-29.564897 -7.095078 -20.709213 36.787155 0.235529 2.168743 0.184835 -0.036045 -271584.000000 0 0 1
-28.739257 -7.455178 -19.610313 35.582144 0.253813 2.154512 0.169493 -0.041544 73052.500000 0 0 1
-29.275697 -8.376078 -18.668013 35.717220 0.278666 2.120766 0.180569 -0.030984 125665.000000 0 0 1
-30.110587 -7.831978 -17.467013 35.680301 0.254468 2.082361 0.192471 -0.028383 119642.000000 0 0 1
-29.300497 -7.119378 -16.596013 34.418488 0.238359 2.073941 0.149525 -0.041155 579850.000000 0 0 1
-30.073137 -6.589878 -15.512413 34.473976 0.215719 2.037533 0.159301 -0.035418 -177283.000000 0 0 1
-29.168687 -5.788078 -14.644213 33.147656 0.195890 2.028386 0.149290 -0.030828 -99220.600000 0 0 1
-28.564567 -4.615578 -15.283713 32.723538 0.160199 2.056754 0.143604 -0.025836 391120.000000 0 0 1
-27.594037 -4.054278 -14.445813 31.409386 0.145882 2.048702 0.131014 -0.030561 -310201.000000 0 0 1
-14.305667 20.883022 -4.768613 25.758346 -0.970183 1.756999 0.127777 -0.037588 48561.900000 0 0 1
-14.693767 20.563122 -6.101813 25.999633 -0.950359 1.807694 0.160503 -0.035120 392638.000000 0 0 1
-15.669767 19.514922 -6.120913 25.765080 -0.894251 1.810656 0.138479 -0.046192 406688.000000 0 0 1
-15.873167 18.850022 -7.504213 25.760318 -0.870920 1.866391 0.162933 -0.044098 907229.000000 0 0 1
-14.603167 18.259422 -7.937413 24.691324 -0.896201 1.898073 0.134059 -0.036679 1296660.000000 0 1 0
-14.613067 17.169122 -8.819013 24.209409 -0.865650 1.943656 0.114106 -0.038359 -272329.000000 0 1 0
-15.164167 15.823822 -8.229713 23.410969 -0.806682 1.930004 0.108232 -0.038944 372675.000000 0 1 0
-16.564667 15.869422 -8.017313 24.300289 -0.763966 1.907022 0.101966 -0.032053 53654.000000 0 1 0
-16.960467 15.012722 -7.056513 23.724115 -0.724555 1.872807 0.105089 -0.021652 -891450.000000 0 1 0
-18.338967 15.149822 -6.446013 24.645200 -0.690454 1.835427 0.138095 -0.033056 -406094.000000 0 1 0
-19.333867 14.882822 -7.414513 25.500428 -0.656041 1.865818 0.125648 -0.031407 -535793.000000 0 0 1
-20.619767 15.307222 -7.095413 26.642649 -0.638591 1.840367 0.109711 -0.028550 -418859.000000 0 0 1
-21.726967 14.644922 -7.930613 27.375709 -0.593092 1.864705 0.105595 -0.014496 -214167.000000 0 0 1
-21.909067 13.340722 -7.545913 26.738042 -0.546948 1.856900 0.142171 -0.029264 495688.000000 0 0 1
-22.834567 12.695422 -8.442913 27.456765 -0.507418 1.883359 0.159760 -0.031250 560511.000000 0 0 1
-23.161467 11.235722 -8.002413 26.957997 -0.451660 1.872186 0.187524 -0.027791 676860.000000 0 0 1
-22.039167 10.362322 -8.231013 25.707045 -0.439506 1.896721 0.173725 -0.024651 697018.000000 0 0 1
-22.331067 9.098722 -7.628313 25.291391 -0.386910 1.877184 0.204840 -0.042457 -385236.000000 0 0 1
-21.078167 8.343922 -7.222813 23.792419 -0.376929 1.879240 0.156203 -0.017394 -726990.000000 0 1 0
-20.529067 7.491822 -8.199513 23.340994 -0.349920 1.929747 0.129750 -0.018385 593622.000000 0 1 0
-19.560367 6.582622 -7.678713 22.020479 -0.324623 1.926988 0.085667 -0.015159 7938.180000 0 1 0
-19.394867 5.255322 -8.529913 21.829766 -0.264611 1.972239 0.079188 -0.023913 -188677.000000 0 1 0
-20.510967 4.381322 -8.525413 22.640195 -0.210446 1.956877 0.117711 -0.030307 483614.000000 0 1 0
-20.280367 3.362622 -9.489413 22.641764 -0.164312 2.003262 0.118578 -0.028865 -408912.000000 0 1 0
-21.312967 2.254122 -9.585313 23.477688 -0.105371 1.991358 0.130201 -0.030358 -446270.000000 0 1 0
-21.260667 1.452622 -8.394013 22.903832 -0.068218 1.946029 0.139208 -0.036969 609314.000000 0 1 0
-22.200967 0.378422 -8.293813 23.702605 -0.017044 1.928273 0.156266 -0.035249 -98177.100000 0 1 0
-21.812967 -0.847978 -9.154913 23.671439 0.038855 1.967900 0.103320 -0.046991 701572.000000 0 1 0
-20.599467 -1.538378 -8.789813 22.449175 0.074542 1.973104 0.082074 -0.032994 1061270.000000 0 1 0
-20.529067 -2.887978 -9.178513 22.672188 0.139760 1.987596 0.065027 -0.026428 572924.000000 0 1 0
-21.529967 -3.939178 -8.455213 23.463743 0.180961 1.939442 0.074130 -0.027151 780978.000000 0 1 0
-21.264167 -4.049078 -7.061313 22.768882 0.188165 1.886126 0.087553 -0.024537 272160.000000 0 1 0
-22.306367 -4.689178 -6.363213 23.665436 0.207200 1.843029 0.109290 -0.026788 -552739.000000 0 1 0
-22.500467 -6.234078 -6.542913 24.247566 0.270284 1.844021 0.112210 -0.037395 -869682.000000 0 1 0
-21.534867 -7.009978 -5.951513 23.416037 0.314700 1.827779 0.109299 -0.033615 -120796.000000 0 1 0
-21.719967 -8.418478 -6.156013 24.094071 0.369764 1.829160 0.117591 -0.037287 -52616.700000 0 1 0
-20.630367 -9.212678 -5.371113 23.223573 0.419989 1.804188 0.112350 -0.044747 59243.800000 0 1 0
-19.516967 -9.518278 -6.174013 22.574943 0.453753 1.847815 0.109765 -0.031788 218938.000000 0 1 0
-18.554967 -10.262578 -5.426113 21.887211 0.505213 1.821321 0.107222 -0.023294 333213.000000 0 1 0
-17.704767 -11.205078 -6.340713 21.891030 0.564249 1.864656 0.091609 -0.025386 -193650.000000 0 1 0
-16.736567 -10.606778 -7.153313 21.066236 0.564866 1.917248 0.105137 -0.043016 333590.000000 0 1 0
-17.223267 -10.109178 -8.426713 21.675929 0.530768 1.970081 0.113521 -0.044963 -915319.000000 0 1 0
-16.450967 -10.327878 -9.683213 21.704009 0.560609 2.033254 0.128728 -0.035326 -619061.000000 0 1 0
-16.275867 -11.731278 -9.951913 22.395698 0.624535 2.031264 0.129712 -0.043508 180550.000000 0 1 0
-15.285267 -11.977378 -10.910613 22.274165 0.664654 2.082694 0.125251 -0.023832 -78676.900000 0 1 0
-15.328067 -13.415178 -11.391313 23.338351 0.718945 2.080701 0.132056 -0.027265 -153075.000000 0 1 0
-16.436267 -13.652878 -12.231313 24.620255 0.693156 2.090703 0.134682 -0.024347 108997.000000 0 1 0
-16.362667 -14.893878 -12.868113 25.595953 0.738441 2.097562 0.118212 -0.013991 166588.000000 0 0 1
-17.119767 -14.762078 -14.216313 26.704099 0.711582 2.132188 0.131266 -0.016514 -155025.000000 0 0 1
-17.490867 -15.953078 -14.805613 27.921986 0.739449 2.129691 0.127760 -0.011303 256047.000000 0 0 1
-17.858267 -15.615378 -16.169213 28.708904 0.718494 2.169065 0.119829 -0.010145 -121053.000000 0 0 1
-18.322067 -16.726178 -17.147413 30.157867 0.739896 2.175585 0.140240 -0.028834 438139.000000 0 0 1
-19.587067 -17.304678 -16.811913 31.076446 0.723610 2.142405 0.099888 -0.020205 570514.000000 0 0 1
-20.354667 -17.642078 -17.990813 32.391739 0.714129 2.159657 0.095460 -0.015340 -560182.000000 0 0 1
-21.818467 -17.880578 -17.698013 33.301355 0.686528 2.131108 0.086903 -0.011232 -560550.000000 0 0 1
-22.541167 -16.724278 -17.236213 32.937710 0.638325 2.121512 0.066185 -0.003284 561637.000000 0 0 1
-22.501767 -16.701678 -15.827013 32.183379 0.638515 2.084925 0.076338 -0.006801 -648047.000000 0 0 1
-22.103767 -15.382378 -15.167013 30.906833 0.607980 2.083727 0.072178 -0.019564 -327421.000000 0 0 1
-23.132767 -14.442778 -14.996313 31.122470 0.558127 2.073559 0.087084 -0.025855 216334.000000 0 0 1
-22.756967 -13.328578 -14.170213 29.938695 0.529833 2.063838 0.089972 -0.029625 25695.200000 0 0 1
-23.967067 -12.365678 -13.892813 30.337115 0.476322 2.046482 0.092853 -0.036227 216942.000000 0 0 1
-24.878067 -13.039878 -13.056613 30.974696 0.482782 2.005923 0.106998 -0.030336 107674.000000 0 0 1
-26.059827 -12.272578 -12.917713 31.568941 0.440129 1.992363 0.126916 -0.036219 187023.000000 0 0 1
-27.141417 -12.957978 -11.997613 32.380680 0.445425 1.950363 0.135490 -0.041752 504621.000000 0 0 1
-28.184257 -12.065078 -11.610813 32.783066 0.404475 1.932824 0.128586 -0.047913 175010.000000 0 0 1
-28.911947 -12.595878 -10.551913 33.255070 0.410868 1.893680 0.137519 -0.047710 -42030.200000 0 0 1
-29.725697 -11.586278 -9.714613 33.350152 0.371659 1.866373 0.120321 -0.046045 -226841.000000 0 0 1
-28.897637 -10.735678 -8.984413 32.109934 0.355705 1.854384 0.127754 -0.050333 194820.000000 0 0 1
-29.658507 -9.770778 -8.239913 32.295376 0.318245 1.828791 0.166490 -0.047708 441246.000000 0 0 1
-28.776047 -8.620078 -7.572313 30.979131 0.291051 1.817731 0.164549 -0.037760 268203.000000 0 0 1
-28.200167 -8.994878 -6.304213 30.263846 0.308764 1.780641 0.159920 -0.044152 1400650.000000 0 0 1
-27.203997 -8.062678 -5.712513 28.942996 0.288131 1.769472 0.150447 -0.042288 1081280.000000 0 0 1
-27.788347 -6.718078 -5.235413 29.064314 0.237207 1.751917 0.157586 -0.040810 -527533.000000 0 0 1
-28.790107 -6.703278 -4.239313 29.862618 0.228757 1.713238 0.187678 -0.040295 -139486.000000 0 0 1
-28.443027 -7.097178 -2.904613 29.458658 0.244529 1.669556 0.178856 -0.031008 -1416040.000000 0 0 1
-27.475357 -6.226178 -2.192713 28.257186 0.222846 1.648473 0.193808 -0.033026 -639780.000000 0 0 1
-28.038297 -4.941778 -1.889213 28.533076 0.174459 1.637056 0.231046 -0.044477 130566.000000 0 0 1
-27.139637 -4.075078 -1.230813 27.471459 0.149039 1.615615 0.201237 -0.047304 -693799.000000 0 0 1
-27.591367 -2.689478 -0.767513 27.732759 0.097168 1.598475 0.242225 -0.055732 -253433.000000 0 0 1
-28.484467 -2.716578 0.361087 28.615993 0.095083 1.558178 0.248762 -0.044074 530534.000000 0 0 1
-27.942427 -3.264778 1.572687 28.176433 0.116312 1.514952 0.228718 -0.049598 -492322.000000 0 0 1
-28.989257 -3.175178 2.674587 29.285017 0.109095 1.479339 0.257709 -0.039824 -302229.000000 0 0 1
-30.055897 -4.057178 2.511687 30.432322 0.134177 1.488169 0.256779 -0.048968 -182465.000000 0 0 1
-31.029927 -3.924478 3.548187 31.477731 0.125806 1.457836 0.291884 -0.061558 -63740.800000 0 0 1
-32.008857 -5.086178 3.471187 32.595786 0.157582 1.464102 0.273005 -0.066898 -208297.000000 0 0 1
-31.390667 -6.364478 3.518087 32.222003 0.200039 1.461395 0.274407 -0.066034 676096.000000 0 0 1
-32.455927 -7.303278 3.402387 33.441013 0.221335 1.468877 0.311380 -0.089576 624398.000000 0 0 1
-31.925287 -8.780678 3.284687 33.273314 0.268402 1.471917 0.274345 -0.059013 125020.000000 0 0 1
-31.435087 -9.108778 4.570187 33.045743 0.282040 1.432053 0.239979 -0.043843 115134.000000 0 0 1
-31.085967 -10.478078 4.758587 33.147724 0.325108 1.426742 0.227908 -0.033286 -84057.600000 0 0 1
-30.984627 -10.832678 6.297987 33.422428 0.336331 1.381227 0.208680 -0.034635 -886009.000000 0 0 1
-29.768137 -10.597978 6.907587 32.344612 0.342026 1.355576 0.176408 -0.030263 -583268.000000 0 0 1
-29.627937 -11.020578 8.249087 32.669791 0.356108 1.315534 0.194512 -0.046411 -406489.000000 0 0 1
-30.027637 -9.996078 9.304987 32.987321 0.321357 1.284837 0.189092 -0.046773 -166424.000000 0 0 1
-29.066497 -9.034478 9.744387 31.959915 0.301355 1.260969 0.150143 -0.018763 406607.000000 0 0 1
-29.676317 -7.996778 10.479587 32.472358 0.263215 1.242191 0.159992 -0.020503 -306278.000000 0 0 1
-28.774677 -6.800378 10.800987 31.478382 0.232074 1.220556 0.175634 -0.010731 -445963.000000 0 0 1
-28.438957 -6.071578 9.693487 30.652929 0.210337 1.249040 0.194323 -0.012336 120172.000000 0 0 1
-28.060827 -4.784478 10.061887 30.191768 0.168880 1.231031 0.179309 -0.022315 -322268.000000 0 0 1
-27.984697 -3.716378 8.948687 29.614756 0.132028 1.263828 0.202674 -0.036606 -747094.000000 0 0 1
-27.110257 -4.052378 7.970687 28.546798 0.148379 1.287820 0.178286 -0.037027 -674511.000000 0 0 1
-27.235187 -3.284578 6.792587 28.260982 0.120021 1.328068 0.197825 -0.054741 -298688.000000 0 0 1
-26.402167 -3.748378 5.603487 27.249291 0.141030 1.363681 0.181635 -0.045547 -117664.000000 0 0 1
-25.011987 -3.506678 5.710987 25.894240 0.139292 1.348418 0.199275 -0.062163 393476.000000 0 0 1
-24.357667 -3.808678 4.485287 25.058328 0.155109 1.390833 0.187942 -0.044953 1122310.000000 0 0 1
-22.779667 -3.664078 4.481687 23.503707 0.159483 1.378941 0.165307 -0.040830 1215370.000000 0 1 0
-22.424367 -2.329578 4.498587 22.989486 0.103515 1.373845 0.137304 -0.041532 -697052.000000 0 1 0
-21.041267 -2.245178 4.466587 21.626977 0.106301 1.362771 0.128101 -0.039151 -603501.000000 0 1 0
-20.394467 -0.822778 4.779287 20.963131 0.040321 1.340788 0.100984 -0.046783 -228794.000000 0 1 0
-20.667767 0.214822 3.790487 21.013580 -0.010394 1.389421 0.111387 -0.040133 121768.000000 0 1 0
-21.979467 0.688022 3.703587 22.299931 -0.031293 1.403943 0.104367 -0.057528 -537084.000000 0 1 0
-22.122467 1.799522 2.631687 22.351009 -0.081165 1.452779 0.144032 -0.040999 -36735.000000 0 1 0
-21.503167 3.003622 3.095187 21.931442 -0.138785 1.429193 0.119871 -0.053375 443010.000000 0 1 0
-21.806967 4.028622 2.195987 22.284433 -0.182680 1.472093 0.153816 -0.033718 528363.000000 0 1 0
-20.659567 4.363822 1.153487 21.146896 -0.208165 1.516223 0.102086 -0.018317 180494.000000 0 1 0
-21.010467 5.038922 -0.061013 21.606346 -0.235383 1.573620 0.130025 -0.010930 780446.000000 0 1 0
-21.985367 4.422922 -0.936713 22.445401 -0.198526 1.612541 0.181734 -0.021709 465062.000000 0 1 0
-21.463167 3.241822 -1.792113 21.780464 -0.149908 1.653170 0.160051 -0.019424 -249690.000000 0 1 0
-20.909167 2.177322 -1.069113 21.049394 -0.103758 1.621609 0.087953 -0.016845 409485.000000 0 1 0
-20.501567 1.157122 -1.903713 20.622253 -0.056381 1.663241 0.080919 -0.012099 -420227.000000 0 1 0
-19.784167 -0.008578 -1.196713 19.820330 0.000434 1.631211 0.086181 -0.010045 -86359.100000 0 1 0
-20.634767 -0.941278 -0.525313 20.662903 0.045585 1.596222 0.106501 -0.012368 1030860.000000 0 1 0
-19.952967 -1.472778 0.637987 20.017417 0.073679 1.538919 0.089613 -0.016409 -78346.100000 0 1 0
-18.703867 -2.322878 0.409287 18.852001 0.123560 1.549084 0.023964 -0.014730 -690481.000000 0 1 0
-18.203267 -3.094678 1.534687 18.528120 0.168397 1.487871 0.039369 -0.013052 728937.000000 0 1 0
-17.555567 -4.269578 1.084887 18.099840 0.238572 1.510821 0.026147 -0.005176 300500.000000 0 1 0
-18.678367 -5.313278 0.795287 19.435658 0.277141 1.529866 0.039617 -0.009963 941541.000000 0 1 0
-19.445967 -5.700178 1.957287 20.358503 0.285141 1.474507 0.082815 -0.015346 526228.000000 0 1 0
-20.431467 -6.654378 1.760587 21.559807 0.314858 1.489045 0.084558 -0.020141 -584197.000000 0 1 0
-21.132367 -7.006478 3.042087 22.470469 0.320146 1.434998 0.110120 -0.026587 2506.390000 0 1 0
-20.175967 -7.558378 3.942087 21.902940 0.358440 1.389830 0.092853 -0.025016 1001090.000000 0 1 0
-20.839067 -8.116178 5.049787 22.926828 0.371395 1.348719 0.093662 -0.028840 -22652.000000 0 1 0
-19.994667 -9.074678 5.916387 22.740715 0.426055 1.307601 0.082012 -0.022902 -210185.000000 0 1 0
-19.649367 -10.288478 5.265987 22.796514 0.482352 1.337691 0.096670 -0.017323 -256671.000000 0 1 0
-18.656967 -10.976778 5.922487 22.442102 0.531807 1.303732 0.110935 -0.029963 -643420.000000 0 1 0
-18.412967 -12.356878 5.280387 22.795006 0.591063 1.337026 0.103978 -0.014814 1108300.000000 0 1 0
-19.493467 -13.331178 5.508587 24.249951 0.599825 1.341637 0.150206 -0.023046 1022010.000000 0 1 0
-19.110667 -14.528778 4.946087 24.510544 0.650025 1.367607 0.144555 -0.019517 112554.000000 0 1 0
-20.059567 -15.674878 5.299087 26.003238 0.663306 1.365573 0.162842 -0.030513 -267398.000000 0 0 1
-19.459167 -16.859778 4.891887 26.207668 0.713949 1.383036 0.159337 -0.036331 -151972.000000 0 0 1
-20.255467 -17.979678 5.118687 27.563631 0.725947 1.384008 0.150037 -0.033082 -250788.000000 0 0 1
-19.554167 -19.330678 4.888387 27.927350 0.779651 1.394851 0.171793 -0.046153 -127631.000000 0 0 1
-19.114067 -19.707078 3.567687 27.684741 0.800672 1.441569 0.158359 -0.048461 3872.570000 0 0 1
-18.263467 -20.794678 3.593587 27.908542 0.850114 1.441675 0.153192 -0.046997 64473.800000 0 0 1
-16.745967 -20.508578 3.438587 26.699308 0.886054 1.441648 0.150499 -0.042078 377254.000000 0 0 1
-15.949467 -21.695078 3.393087 27.139914 0.936857 1.445446 0.128148 -0.043028 1208340.000000 0 0 1
-14.559367 -21.341378 3.604687 26.084926 0.972108 1.432162 0.125866 -0.041079 1499890.000000 0 0 1
-13.581767 -22.473678 4.047187 26.568973 1.027191 1.417873 0.142347 -0.036790 235945.000000 0 0 1
-13.499767 -23.459478 3.041687 27.236789 1.048624 1.458887 0.126494 -0.036038 105306.000000 0 0 1
-12.768767 -24.623478 3.341087 27.937787 1.092411 1.450919 0.104830 -0.034841 -159512.000000 0 0 1
19.372533 18.854322 -23.586413 35.876167 0.771843 2.288212 0.100010 -0.014862 -198356.000000 0 0 1
18.580133 18.935022 -24.717213 36.258751 0.794858 2.320866 0.096897 -0.018983 -1110000.000000 0 0 1
19.393333 19.044722 -25.751033 37.442202 0.776329 2.329187 0.095272 -0.021438 -596655.000000 0 0 1
18.676233 19.402222 -27.103743 38.208124 0.804461 2.359402 0.101074 -0.024195 239888.000000 0 0 1
18.227133 20.755522 -27.060323 38.668865 0.850167 2.345908 0.101657 -0.022208 536599.000000 0 0 1
17.385933 20.903922 -28.240933 39.201976 0.877019 2.375169 0.108644 -0.023684 440811.000000 0 0 1
16.966733 22.371622 -28.522103 40.023366 0.921938 2.364045 0.125870 -0.025140 121116.000000 0 0 1
16.122433 22.988122 -27.564253 39.346850 0.959173 2.346958 0.123017 -0.027223 448176.000000 0 0 1
15.641633 24.255222 -27.975673 40.194710 0.998031 2.340613 0.123581 -0.019451 16033.600000 0 0 1
14.793333 25.124422 -27.035693 39.761891 1.038651 2.318477 0.124864 -0.020555 66317.900000 0 0 1
13.482633 24.638922 -26.818023 38.833802 1.070099 2.333093 0.138430 -0.041305 -357076.000000 0 0 1
12.820833 25.525022 -25.992493 38.620075 1.105322 2.309095 0.110399 -0.028434 -760242.000000 0 0 1
11.325633 25.146222 -25.777523 37.750273 1.147617 2.322444 0.127253 -0.031197 217569.000000 0 0 1
10.715033 26.085322 -24.937913 37.645125 1.181041 2.294877 0.115747 -0.038833 -345825.000000 0 0 1
10.345633 27.321922 -25.541393 38.805699 1.208824 2.289204 0.125112 -0.040938 -489502.000000 0 0 1
9.771433 28.217422 -24.418313 38.574056 1.237430 2.256250 0.149226 -0.049283 -107221.000000 0 0 1
10.830033 28.752622 -23.668513 38.784035 1.210569 2.227191 0.135798 -0.040443 -74541.400000 0 0 1
10.398133 29.462022 -22.585113 38.551514 1.231511 2.196715 0.153826 -0.056101 149995.000000 0 0 1
11.537633 29.724022 -21.543713 38.480723 1.200540 2.165010 0.124539 -0.055453 -47900.700000 0 0 1
12.541133 30.628422 -21.873113 39.671316 1.182161 2.154788 0.106914 -0.060505 -413181.000000 0 0 1
13.384133 30.769922 -20.762913 39.459114 1.160508 2.124908 0.075648 -0.051456 166892.000000 0 0 1
14.717533 31.560522 -21.026013 40.678809 1.134448 2.113997 0.075569 -0.044489 771345.000000 0 0 1
15.698333 30.804422 -21.721013 40.830778 1.099488 2.131729 0.073738 -0.040798 -159536.000000 0 0 1
16.653933 31.634722 -22.351213 42.162612 1.086217 2.129538 0.056427 -0.025351 -118194.000000 0 0 1
17.846133 30.839922 -22.906213 42.358940 1.046208 2.142142 0.026180 -0.008918 48209.600000 0 0 1
18.685733 30.303622 -21.887413 41.791446 1.018248 2.122019 0.035632 -0.007526 -16679.300000 0 0 1
19.768133 29.674322 -22.563213 42.195296 0.983138 2.134988 0.044672 -0.008772 232121.000000 0 0 1
20.820033 28.967222 -21.650713 41.729211 0.947601 2.116288 0.060657 -0.003009 395923.000000 0 0 1
21.675833 29.914022 -20.999313 42.493077 0.943747 2.087690 0.056140 0.007234 410054.000000 0 0 1
22.559933 29.145022 -20.168913 42.013901 0.912075 2.071512 0.081259 0.008535 512772.000000 0 0 1
23.298733 29.947122 -19.043413 42.453653 0.909617 2.035960 0.087106 0.002568 365542.000000 0 0 1
24.330533 30.830622 -19.464313 43.833338 0.902695 2.030913 0.110349 -0.001692 389175.000000 0 0 1
25.069033 31.225522 -18.309713 44.031071 0.894327 1.999658 0.118912 -0.008312 -170901.000000 0 0 1
26.277733 32.110822 -18.600613 45.470946 0.884969 1.992226 0.134042 -0.007319 -342704.000000 0 0 1
27.372433 31.471722 -19.183513 45.909983 0.854949 2.001874 0.138962 -0.005775 -850680.000000 0 0 1
28.556033 32.166522 -18.962313 47.007462 0.844787 1.986014 0.131042 -0.002912 62243.000000 0 0 1
29.828933 31.375222 -19.379413 47.431334 0.810657 1.991692 0.144427 -0.009950 331711.000000 0 0 1
30.253233 30.316822 -18.555913 46.676436 0.786448 1.979634 0.116260 -0.010387 609263.000000 0 0 1
31.569533 29.859022 -18.922113 47.394545 0.757560 1.981491 0.098213 -0.014881 853668.000000 0 0 1
32.020533 28.609022 -18.139213 46.613536 0.729189 1.970495 0.097408 -0.021762 -209727.000000 0 0 1
32.441133 28.955022 -16.799713 46.615992 0.728678 1.939477 0.083988 -0.006632 237328.000000 0 0 1
32.898533 27.824022 -16.065813 45.984780 0.702023 1.927698 0.089023 -0.019008 -218107.000000 0 0 1
33.574233 28.105022 -14.686313 46.182347 0.696958 1.894423 0.094638 -0.012032 461463.000000 0 0 1
34.800533 28.824222 -14.734313 47.529073 0.691742 1.885996 0.079809 -0.010061 255082.000000 0 0 1
34.644133 30.242722 -14.792013 48.307782 0.717670 1.881999 0.087863 -0.020118 406927.000000 0 0 1
36.029533 30.977722 -14.949513 49.811991 0.710149 1.875613 0.074489 -0.013120 1149360.000000 0 0 1
36.825133 30.739122 -13.791013 49.911683 0.695563 1.850747 0.077260 -0.016705 38734.200000 0 0 1
-37.832006 31.205122 -13.886013 50.969027 -0.689701 1.846725 0.071171 -0.026231 317588.000000 0 0 1
-37.202906 31.592822 -12.562713 50.398258 -0.704031 1.822721 0.069739 -0.016539 -135761.000000 0 0 1
-37.827306 32.763022 -12.045013 51.472352 -0.713779 1.806996 0.080464 -0.024471 451316.000000 0 0 1
-37.059006 33.357322 -10.978313 51.054914 -0.732878 1.787518 0.091953 -0.014302 -80971.600000 0 0 1
-37.631506 -32.954449 -10.243913 51.059414 0.719234 1.772795 0.088760 -0.008154 -487207.000000 0 0 1
-36.793706 -32.313449 -9.331813 49.849960 0.720658 1.759105 0.094097 -0.010981 -250835.000000 0 0 1
-36.512906 -32.984149 -8.149313 49.875422 0.734666 1.734926 0.078922 -0.016678 196989.000000 0 0 1
-36.183306 -32.056449 -6.936313 48.836053 0.724996 1.713311 0.093422 -0.018147 372415.000000 0 0 1
-37.339206 -31.306849 -6.600013 49.172099 0.697747 1.705425 0.085126 -0.013352 121453.000000 0 0 1
-37.008906 -30.226349 -5.740813 48.127417 0.684860 1.690365 0.120510 -0.015493 95609.400000 0 0 1
37.736233 -29.491449 -5.195713 48.174311 -0.663368 1.678859 0.099358 -0.015406 -403599.000000 0 0 1
36.902533 -30.371449 -4.477013 48.002766 -0.688620 1.664198 0.065377 -0.010134 237626.000000 0 0 1
35.576633 -29.859949 -4.384313 46.653356 -0.698257 1.664912 0.059223 -0.007349 140732.000000 0 0 1
35.212133 -28.786349 -3.363913 45.605527 -0.685328 1.644624 0.058761 -0.001962 -759220.000000 0 0 1
35.647333 -27.467049 -3.647113 45.149447 -0.656506 1.651663 0.102878 -0.014801 247343.000000 0 0 1
35.229533 -26.577149 -2.614913 44.207495 -0.646311 1.629982 0.078148 -0.011464 -59162.700000 0 0 1
35.696633 -25.090849 -2.914213 43.729772 -0.612664 1.637487 0.095814 -0.019497 -329116.000000 0 0 1
35.266233 -24.479349 -4.114713 43.126286 -0.606775 1.666352 0.087381 -0.025238 286536.000000 0 0 1
35.746733 -23.147349 -4.296813 42.802936 -0.574642 1.671352 0.083855 -0.027909 -242811.000000 0 0 1
35.593733 -22.599349 -5.744913 42.551715 -0.565705 1.706220 0.084448 -0.028581 -605903.000000 0 0 1
36.627733 -22.934649 -6.623213 43.720200 -0.559430 1.722873 0.095597 -0.029615 -46230.100000 0 0 1
36.264933 -22.533349 -7.985813 43.435819 -0.555973 1.755701 0.081061 -0.028132 -288456.000000 0 0 1
37.411133 -22.486549 -8.990813 44.565373 -0.541203 1.773935 0.087821 -0.037452 -212654.000000 0 0 1
37.989833 -23.746649 -9.244313 45.744815 -0.558656 1.774282 0.081275 -0.008754 240704.000000 0 0 1
-36.799906 -23.670349 -10.012713 44.886222 0.571593 1.795758 0.101513 -0.013664 418277.000000 0 0 1
-36.506906 -25.020549 -10.651913 45.521922 0.600836 1.806981 0.099120 -0.001746 -136669.000000 0 0 1
-35.760506 -25.949949 -9.873913 45.273699 0.627740 1.790657 0.141917 -0.012204 -311328.000000 0 0 1
-36.516006 -26.775249 -9.088513 46.183696 0.632693 1.768880 0.116730 -0.011001 -621990.000000 0 0 1
-35.651006 -27.826749 -8.393713 45.997572 0.662757 1.754306 0.105909 0.002044 -281956.000000 0 0 1
-35.163606 -28.598749 -9.448713 46.299523 0.682801 1.776318 0.114528 -0.001919 -191738.000000 0 0 1
-34.223106 -29.554449 -9.023913 46.109841 0.712326 1.767772 0.139050 -0.018229 -196284.000000 0 0 1
-33.628006 -30.440549 -10.158213 46.482891 0.735688 1.791111 0.128913 -0.013965 307054.000000 0 0 1
-32.704906 -29.784949 -11.032513 45.590245 0.738705 1.815216 0.098109 0.000967 400764.000000 0 0 1
-32.596006 -30.548449 -12.215113 46.313242 0.752983 1.837704 0.089092 0.000942 -316113.000000 0 0 1
-32.508606 -29.617049 -13.441113 45.985243 0.738888 1.867419 0.049124 0.012484 358083.000000 0 0 1
-31.312106 -28.819049 -13.620513 44.682256 0.743962 1.880557 0.051436 0.006602 792510.000000 0 0 1
-31.526306 -27.919149 -14.702313 44.604315 0.724792 1.906694 0.029031 0.010122 -95666.800000 0 0 1
-30.220206 -27.185149 -15.018013 43.333981 0.732577 1.924702 0.059979 0.002270 -94652.900000 0 0 1
-29.223606 -28.078349 -15.462113 43.376143 0.765414 1.935279 0.088099 -0.008233 -3266.430000 0 0 1
-28.041206 -27.379449 -15.839513 42.270955 0.773458 1.954884 0.118905 -0.006574 253296.000000 0 0 1
-26.947406 -28.253649 -16.472713 42.376664 0.809057 1.970040 0.137591 -0.021410 -370675.000000 0 0 1
-27.196806 -28.796349 -17.767613 43.411796 0.813957 1.992462 0.117834 -0.023294 -209697.000000 0 0 1
-27.199506 -27.947849 -18.900913 43.337512 0.798967 2.022093 0.095581 -0.011015 -590498.000000 0 0 1
-25.881506 -27.328149 -19.320913 42.308129 0.812579 2.045046 0.106401 -0.019807 -590454.000000 0 0 1
-25.427606 -26.363149 -18.424913 41.000685 0.803460 2.036868 0.122222 -0.016172 -1093860.000000 0 0 1
-24.132506 -25.951449 -18.663513 40.052244 0.821700 2.055537 0.122028 -0.030805 -616573.000000 0 0 1
-23.763306 -24.824049 -17.633413 38.624673 0.807226 2.044890 0.127248 -0.029975 43374.900000 0 0 1
-23.836006 -25.301349 -16.301213 38.393268 0.815211 2.009300 0.136796 -0.033288 233900.000000 0 0 1
-23.190106 -24.425349 -15.377313 37.024863 0.811334 1.999095 0.135799 -0.028735 98151.300000 0 0 1
-23.857006 -24.448349 -13.949113 36.897917 0.797639 1.958481 0.128780 -0.027456 -133781.000000 0 0 1
-25.230306 -24.140349 -14.003513 37.622110 0.763325 1.952191 0.102367 -0.015471 -161227.000000 0 0 1
-25.647106 -23.785249 -12.701313 37.213378 0.747751 1.919107 0.107050 -0.009886 448170.000000 0 0 1
-27.182906 -23.593849 -12.510113 38.106207 0.714832 1.905295 0.095799 0.013574 75476.700000 0 0 1
-27.888806 -24.819049 -12.385213 39.334008 0.727223 1.891119 0.107528 0.005509 872701.000000 0 0 1
-29.172506 -24.893949 -11.743913 40.108145 0.706428 1.867957 0.085618 0.009939 763416.000000 0 0 1
-30.338206 -24.179049 -12.487213 40.754922 0.672899 1.882203 0.097169 0.007601 -960297.000000 0 0 1
-30.451806 -22.739949 -12.366813 39.966935 0.641419 1.885386 0.087993 0.005700 199934.000000 0 0 1
-30.989906 -22.296949 -11.124413 39.765322 0.623688 1.854332 0.104499 -0.006180 75629.100000 0 0 1
-32.474306 -22.641949 -10.743313 41.020205 0.608862 1.835790 0.058351 -0.007993 903669.000000 0 0 1
-33.540806 -21.938849 -11.393213 41.666582 0.579248 1.847761 0.089082 -0.022162 563236.000000 0 0 1
-33.752406 -22.192449 -12.747813 42.358428 0.581635 1.876486 0.083046 -0.013622 -1284300.000000 0 0 1
-35.033106 -21.545849 -13.251613 43.210501 0.551386 1.882495 0.044265 -0.020745 -338768.000000 0 0 1
-36.197406 -22.244949 -12.850013 44.387079 0.551046 1.864500 0.068906 -0.020833 -705809.000000 0 0 1
-37.325006 -21.660349 -13.389513 45.184133 0.525821 1.871646 0.095163 -0.040483 274256.000000 0 0 1
37.366133 -22.572749 -13.273513 45.628314 -0.543426 1.865969 0.093243 -0.014260 726036.000000 0 0 1
37.360033 -23.776449 -14.060013 46.462625 -0.566765 1.878225 0.081046 -0.004106 -33282.900000 0 0 1
36.724033 -24.821749 -13.362813 46.296205 -0.594367 1.863600 0.088806 -0.014320 -67284.700000 0 0 1
36.538033 -26.201249 -14.037013 47.101709 -0.622107 1.873409 0.068811 -0.008636 377458.000000 0 0 1
35.488033 -26.213549 -14.997513 46.599099 -0.636203 1.898470 0.072103 -0.012817 141988.000000 0 0 1
35.320933 -27.526349 -15.564013 47.407876 -0.662004 1.905300 0.062750 0.022432 203951.000000 0 0 1
34.297333 -27.627349 -16.720713 47.107958 -0.678101 1.933651 0.058797 0.008802 -816239.000000 0 0 1
32.964833 -27.711349 -16.385013 46.076759 -0.699031 1.934355 0.118278 0.006859 -625119.000000 0 0 1
32.168733 -27.585649 -17.594813 45.884342 -0.708849 1.964336 0.114742 -0.005428 434951.000000 0 0 1
30.660533 -27.835349 -17.404113 44.919685 -0.737139 1.968660 0.119282 -0.024184 66634.300000 0 0 1
30.008433 -26.779849 -16.713613 43.554692 -0.728606 1.964638 0.105201 -0.023137 72538.400000 0 0 1
28.604933 -26.911749 -16.833613 42.730024 -0.754909 1.975725 0.138333 -0.030876 478326.000000 0 0 1
27.738033 -25.906449 -16.006413 41.191599 -0.751268 1.969891 0.126128 -0.039452 197569.000000 0 0 1
27.524333 -24.574449 -16.458413 40.402621 -0.728838 1.990358 0.125980 -0.046488 3239.190000 0 0 1
27.651833 -23.576749 -15.408613 39.470398 -0.706018 1.971845 0.118340 -0.048641 -130057.000000 0 0 1
27.422533 -22.132149 -15.865713 38.646451 -0.679043 1.993837 0.129419 -0.051118 -88037.400000 0 0 1
26.064233 -21.912049 -16.155413 37.689249 -0.699067 2.013792 0.141431 -0.056766 -112079.000000 0 0 1
25.905133 -20.547549 -16.538613 36.970304 -0.670571 2.034595 0.138516 -0.049996 131437.000000 0 0 1
24.417233 -20.119949 -16.543713 35.703054 -0.689208 2.052590 0.131463 -0.051991 128336.000000 0 0 1
23.843533 -19.925949 -15.268713 34.622119 -0.696131 2.027520 0.138382 -0.056281 1267360.000000 0 0 1
22.415433 -19.709649 -15.406813 33.590055 -0.721254 2.047296 0.114137 -0.050725 1164300.000000 0 0 1
21.876133 -18.619049 -14.507713 32.182416 -0.705140 2.038453 0.099465 -0.041870 -229857.000000 0 0 1
21.717033 -18.918549 -13.121213 31.649759 -0.716639 1.998273 0.117377 -0.047418 75851.500000 0 0 1
21.270633 -17.736049 -12.542013 30.402456 -0.695030 1.996029 0.118587 -0.051516 -813417.000000 0 0 1
20.344233 -17.926949 -11.374313 29.404733 -0.722320 1.967976 0.126707 -0.041672 -462957.000000 0 0 1
20.930433 -18.317449 -10.139413 29.604386 -0.718920 1.920370 0.127703 -0.050970 218545.000000 0 0 1
19.951933 -18.271849 -9.112513 28.547819 -0.741473 1.895683 0.110952 -0.047857 212274.000000 0 0 1
20.377133 -19.036549 -7.833413 28.965153 -0.751398 1.844649 0.117886 -0.049452 -303526.000000 0 0 1
21.363333 -18.445349 -7.059113 29.093882 -0.712229 1.815875 0.113584 -0.052000 -438365.000000 0 0 1
21.956933 -19.297049 -6.141713 29.869778 -0.721011 1.777890 0.104320 -0.040405 -940264.000000 0 0 1
23.348933 -18.799849 -5.813713 30.535328 -0.677885 1.762359 0.107434 -0.028148 -1061040.000000 0 0 1
24.324033 -18.909049 -6.798313 31.550401 -0.660796 1.787974 0.103694 -0.036950 -61733.600000 0 0 1
25.025433 -17.707349 -6.843613 31.411105 -0.615791 1.790430 0.116063 -0.030792 -74146.400000 0 0 1
26.156733 -17.440149 -7.901313 32.415494 -0.588064 1.817028 0.147678 -0.050868 1086110.000000 0 0 1
27.404233 -18.136049 -7.791713 33.773052 -0.584624 1.803602 0.166265 -0.065709 859225.000000 0 0 1
27.391233 -19.428749 -8.369613 34.609339 -0.616944 1.815049 0.167984 -0.074882 -181857.000000 0 0 1
28.665133 -20.328149 -8.228413 36.091970 -0.616847 1.800804 0.168842 -0.076974 319706.000000 0 0 1
29.723933 -19.766149 -8.973213 36.806676 -0.586842 1.817071 0.160478 -0.065310 -189821.000000 0 0 1
30.870833 -20.576549 -8.876713 38.147067 -0.587913 1.805646 0.130806 -0.055295 -362490.000000 0 0 1
-30.785047 29.276422 4.273787 42.697696 -0.760285 1.470534 0.133428 -0.023462 287449.000000 0 0 1
-30.305597 30.159822 3.260587 42.879780 -0.782987 1.494683 0.132487 -0.019330 -74366.800000 0 0 1
-29.452777 31.149222 3.803487 43.037270 -0.813384 1.482304 0.116913 0.001909 175294.000000 0 0 1
-29.130327 32.271222 2.768787 43.562299 -0.836507 1.507194 0.116210 0.000228 -20062.200000 0 0 1
-28.294547 31.779722 1.710987 42.584734 -0.843348 1.530607 0.124616 0.000280 387383.000000 0 0 1
-27.840327 32.714422 0.763787 42.963945 -0.865716 1.553018 0.143936 -0.023604 428317.000000 0 0 1
-26.698367 33.675322 1.248587 42.992896 -0.900451 1.541751 0.153459 -0.007132 -170963.000000 0 0 1
-25.388907 33.177322 1.257487 41.796083 -0.917607 1.540706 0.143347 -0.010287 -725427.000000 0 0 1
-24.586467 -33.587249 2.055087 41.675185 0.938903 1.521464 0.140768 -0.007867 -259151.000000 0 0 1
-23.099467 33.586422 1.911887 40.807946 -0.968331 1.523928 0.136678 -0.016655 -161092.000000 0 0 1
-22.517467 -33.516549 0.747787 40.385079 0.979227 1.552279 0.162402 -0.026024 -75137.600000 0 0 1
-21.160567 33.650722 0.660887 39.756477 -1.009448 1.554172 0.151755 -0.032189 -363442.000000 0 0 1
-20.395467 -33.427749 -0.593513 39.163015 1.022957 1.585952 0.164039 -0.040723 4831.500000 0 0 1
-19.974167 -32.062049 -0.669913 37.780831 1.013648 1.588529 0.180374 -0.041876 138345.000000 0 0 1
-18.981067 -31.777149 0.280087 37.015491 1.032351 1.563229 0.185818 -0.034787 -736376.000000 0 0 1
-18.540167 -30.284749 0.364887 35.511083 1.021458 1.560521 0.199307 -0.047638 323663.000000 0 0 1
-17.513067 -29.823249 -0.525013 34.589151 1.039820 1.585975 0.169590 -0.031394 654264.000000 0 0 1
-17.536067 -28.411449 -0.590913 33.392713 1.017812 1.588493 0.153854 -0.034602 491186.000000 0 0 1
-16.428667 -27.901449 -1.596613 32.418223 1.038645 1.620067 0.120326 -0.029125 333682.000000 0 0 1
-16.836267 -28.013449 -2.938513 32.815364 1.029637 1.660463 0.099871 -0.024198 447746.000000 0 0 1
-15.948467 -27.328349 -3.821713 31.871583 1.042533 1.690995 0.087526 -0.016173 310868.000000 0 0 1
-16.685867 -27.206149 -5.179213 32.332909 1.020646 1.731673 0.116462 -0.030363 746252.000000 0 0 1
-17.798767 -26.286649 -5.131613 32.157697 0.975603 1.731058 0.103814 -0.029098 291107.000000 0 0 1
-18.333567 -26.125749 -6.423513 32.556658 0.958901 1.769402 0.126296 -0.032772 31977.600000 0 0 1
-18.883167 -24.741449 -6.643313 31.825256 0.918888 1.781086 0.092097 -0.023121 -624952.000000 0 0 1
-17.864067 -23.806449 -6.745813 30.518485 0.927047 1.793677 0.079499 -0.010860 -136567.000000 0 0 1
-18.333067 -22.523749 -7.196513 29.920067 0.887611 1.813703 0.073092 -0.011273 -318615.000000 0 0 1
-17.233267 -21.505749 -7.075713 28.452565 0.895243 1.822118 0.077399 -0.002535 151641.000000 0 0 1
-16.125867 -21.674649 -7.937913 28.157494 0.931148 1.856582 0.111941 -0.012659 -334217.000000 0 0 1
-14.928267 -21.058949 -7.552813 26.895678 0.954135 1.855443 0.145979 -0.037866 619454.000000 0 0 1
-13.936767 -21.010449 -8.794413 26.702325 0.985110 1.906411 0.145742 -0.031331 506385.000000 0 0 1
-14.388167 -20.089049 -9.787413 26.577861 0.949268 1.947927 0.163180 -0.034820 -16316.700000 0 0 1
-13.842067 -20.362049 -11.071913 26.996354 0.973758 1.993389 0.157886 -0.016864 14590.800000 0 0 1
-14.231867 -19.340549 -12.090413 26.884586 0.936409 2.037243 0.170703 -0.017816 -317891.000000 0 0 1
-15.389967 -19.682749 -12.795513 28.071104 0.907189 2.044095 0.145271 0.002604 -482400.000000 0 0 1
-15.801467 -18.614649 -13.651713 27.974288 0.866957 2.080604 0.154624 -0.022085 -347968.000000 0 0 1
-16.989167 -19.041449 -14.488113 29.344744 0.842296 2.087160 0.163114 -0.025090 -87810.800000 0 0 1
-18.195767 -19.224449 -13.760613 29.833201 0.812881 2.050202 0.149538 -0.024179 10013.700000 0 0 1
-19.256167 -19.687549 -14.523113 31.133910 0.796475 2.056095 0.132944 -0.019892 158709.000000 0 0 1
-20.671767 -19.558849 -13.874413 31.660225 0.757742 2.024423 0.107139 -0.008369 500731.000000 0 0 1
-21.655767 -20.305849 -14.550013 33.060590 0.753239 2.026508 0.128228 -0.011338 563823.000000 0 0 1
-22.972467 -19.918649 -14.123313 33.525435 0.714319 2.005643 0.115651 -0.002338 1027040.000000 0 0 1
-24.111667 -20.514749 -15.030613 35.044925 0.704971 2.014066 0.108443 -0.003271 152936.000000 0 0 1
-24.195567 -19.969549 -16.288113 35.348423 0.690002 2.049679 0.102019 -0.006751 103549.000000 0 0 1
-24.982197 -20.750449 -17.130813 36.717245 0.693129 2.056194 0.107820 -0.015748 -125139.000000 0 0 1
-25.413807 -20.034549 -18.488913 37.270426 0.667586 2.089868 0.114890 -0.020448 210452.000000 0 0 1
-24.288767 -19.655549 -19.261313 36.705354 0.680352 2.123223 0.109790 -0.025799 361288.000000 0 0 1
-24.668767 -19.219849 -20.561113 37.426061 0.661877 2.152418 0.110987 -0.028204 -431777.000000 0 0 1
-23.505667 -18.590449 -21.328913 36.783742 0.669163 2.189336 0.087855 -0.022016 749626.000000 0 0 1
-22.405467 -19.543249 -21.547913 36.718607 0.717272 2.197946 0.071282 -0.020608 634545.000000 0 0 1
-21.351767 -18.781349 -22.072613 35.997740 0.721438 2.230859 0.064147 -0.015885 -118445.000000 0 0 1
-19.988367 -19.503649 -22.241113 35.701460 0.773125 2.243336 0.067306 -0.014057 111533.000000 0 0 1
-19.945467 -20.595349 -23.168413 36.861435 0.801427 2.250454 0.046342 -0.008204 -770151.000000 0 0 1
-18.752567 -21.273949 -23.043513 36.540979 0.848308 2.253150 0.048414 -0.006711 -841522.000000 0 0 1
-18.662567 -22.591149 -23.739013 37.711963 0.880342 2.251683 0.051195 -0.009346 -126400.000000 0 0 1
-18.685967 -22.550149 -25.158073 38.608331 0.878834 2.280518 0.042778 -0.004502 228357.000000 0 0 1
-18.758067 -23.809449 -25.723863 39.755152 0.903513 2.274515 0.051686 -0.009880 -67321.000000 0 0 1
-18.699467 -23.767849 -27.259873 40.714634 0.904184 2.304379 0.051184 -0.003696 -482371.000000 0 0 1
-17.452367 -23.512449 -27.837973 40.402637 0.932267 2.330924 0.046850 -0.001034 -410608.000000 0 0 1
-17.417067 -23.624949 -29.242563 41.432112 0.935517 2.354341 0.072515 -0.006724 -368576.000000 0 0 1
-16.020767 -23.373949 -29.812773 41.131593 0.969929 2.381561 0.056082 -0.018738 19124.400000 0 0 1
-15.148567 -24.500549 -29.703263 41.376803 1.017033 2.371538 0.060276 -0.018263 564552.000000 0 0 1
-13.849967 -24.228049 -30.217273 41.132755 1.051483 2.395915 0.090182 -0.025513 541102.000000 0 0 1
-12.763167 -25.295949 -29.951393 41.229473 1.103512 2.383947 0.114822 -0.026115 -375319.000000 0 0 1
-12.898667 -26.543949 -30.612693 42.521686 1.118463 2.374500 0.096125 -0.020409 37372.900000 0 0 1
-12.015067 -27.541249 -30.122923 42.547300 1.159430 2.357440 0.114420 -0.024762 493128.000000 0 0 1
-10.597167 -27.633149 -30.772353 42.694597 1.204599 2.375687 0.153940 -0.033722 288509.000000 0 0 1
-9.847367 -26.539549 -30.326983 41.485470 1.215498 2.390622 0.198667 -0.049639 -828302.000000 0 0 1
-8.543167 -26.384649 -30.788613 41.437593 1.257656 2.408355 0.195701 -0.047494 -222975.000000 0 0 1
-7.847967 -25.119749 -30.149463 40.019776 1.267982 2.423959 0.249867 -0.058413 101762.000000 0 0 1
-8.448467 -23.876449 -30.472643 39.623773 1.230704 2.448149 0.263429 -0.053617 14915.300000 0 0 1
-9.432067 -23.503749 -29.530603 38.903041 1.189169 2.432698 0.228624 -0.038043 -82207.700000 0 0 1
-9.711767 -21.946749 -29.634453 38.133699 1.154184 2.460873 0.248227 -0.051760 380575.000000 0 0 1
-10.619167 -21.562349 -30.674583 38.969625 1.113178 2.476956 0.223762 -0.046198 323731.000000 0 0 1
-10.987467 -20.180949 -30.454033 38.150272 1.072226 2.495206 0.221703 -0.049634 -64752.200000 0 0 1
-11.913967 -19.660549 -31.536823 39.026286 1.025989 2.511702 0.177211 -0.045535 -391335.000000 0 0 1
-12.331467 -18.347149 -31.422953 38.419851 0.979029 2.528519 0.161536 -0.044409 -61822.000000 0 0 1
-13.205767 -18.098649 -32.506003 39.479027 0.940444 2.538127 0.142412 -0.041035 -876941.000000 0 0 1
-13.989867 -16.857949 -32.319783 39.044528 0.878107 2.545913 0.159637 -0.037598 -621409.000000 0 0 1
-13.396567 -15.519349 -32.427373 38.364733 0.858679 2.577809 0.143348 -0.033836 211112.000000 0 0 1
-12.468767 -15.122549 -31.419903 37.032039 0.881285 2.583850 0.138308 -0.030346 440805.000000 0 0 1
-11.871367 -13.658749 -31.541873 36.364550 0.855295 2.620709 0.103266 -0.024582 545381.000000 0 0 1
-11.048767 -13.400449 -32.709253 37.034342 0.881290 2.653468 0.098709 -0.022987 517394.000000 0 0 1
-11.752067 -13.414649 33.426134 37.886281 0.851365 0.490122 0.103002 -0.024588 -207895.000000 0 0 1
-12.281967 -12.096149 32.846416 37.095156 0.777776 0.483305 0.089455 -0.013882 20582.200000 0 0 1
-13.492967 -11.602249 33.356394 37.806367 0.710198 0.490079 0.061017 -0.003901 -330322.000000 0 0 1
-14.201167 -10.792449 32.462900 37.040383 0.649851 0.502421 0.062239 -0.025940 140467.000000 0 0 1
-15.429567 -10.069949 33.016909 37.809942 0.578229 0.508997 0.087805 -0.029928 344592.000000 0 0 1
-14.975267 -8.948649 -33.560223 37.823610 0.538625 2.662216 0.078974 -0.025922 4261.470000 0 0 1
-16.017667 -8.515949 -32.737373 37.427565 0.488653 2.635584 0.098687 -0.037961 52459.500000 0 0 1
-15.441167 -7.621849 -31.601323 35.988412 0.458519 2.642667 0.091004 -0.047344 56248.000000 0 0 1
-15.093967 -6.355949 -32.131093 36.064290 0.398556 2.670206 0.094180 -0.051501 596430.000000 0 0 1
-16.156667 -5.380349 -32.103823 36.340631 0.321461 2.653895 0.105055 -0.046813 667197.000000 0 0 1
-16.632467 -4.787049 -30.739283 35.276881 0.280239 2.628788 0.110727 -0.053703 -32956.200000 0 0 1
-17.191067 -5.706949 -29.838833 34.906418 0.320525 2.596007 0.114858 -0.059952 57760.800000 0 0 1
-17.618367 -5.173249 -28.579883 33.970267 0.285601 2.570518 0.120124 -0.058768 194128.000000 0 0 1
-16.402867 -4.841749 -27.674283 32.532484 0.287026 2.588047 0.115084 -0.055061 243863.000000 0 0 1
-15.760767 -3.700449 -28.168253 32.489161 0.230612 2.619956 0.110883 -0.053133 -63196.300000 0 0 1
-14.528767 -3.382349 -27.530663 31.312342 0.228730 2.645034 0.108760 -0.044832 289665.000000 0 0 1
-13.967867 -2.068149 -28.143383 31.486958 0.146997 2.676569 0.086852 -0.024024 133127.000000 0 0 1
-13.912367 -2.180149 -29.587753 32.768004 0.155442 2.697373 0.084586 -0.038342 -24695.400000 0 0 1
-14.000467 -0.937149 -30.230793 33.328549 0.066837 2.707029 0.091752 -0.045301 20633.100000 0 0 1
-14.116367 -1.113149 -31.743093 34.758234 0.078692 2.721997 0.084120 -0.045295 -586714.000000 0 0 1
-15.410867 -1.401149 -32.165933 35.694611 0.090670 2.693194 0.080418 -0.040041 -381621.000000 0 0 1
-15.530067 -1.441149 -33.562063 37.009079 0.092532 2.706569 0.077054 -0.036770 94588.100000 0 0 1
-16.957567 -1.706149 33.264854 37.376738 0.100275 0.473477 0.074037 -0.033366 105249.000000 0 0 1
-17.089567 -1.767149 31.852963 36.190984 0.103039 0.494649 0.082086 -0.036225 280851.000000 0 0 1
-18.421867 -1.798149 31.366243 36.420320 0.097301 0.533113 0.081306 -0.034949 354195.000000 0 0 1
-18.370167 -1.841149 29.860314 35.106854 0.099891 0.553756 0.091917 -0.029103 99647.600000 0 0 1
-17.706667 -0.692149 29.379074 34.309403 0.039070 0.542737 0.080570 -0.011397 88762.900000 0 0 1
-17.486067 -0.652149 27.981124 33.001987 0.037278 0.558857 0.077638 -0.019397 -356007.000000 0 0 1
-16.654867 0.559851 27.493274 32.149310 -0.033602 0.544909 0.076722 -0.014642 -258644.000000 0 0 1
-17.096467 1.898851 27.596194 32.518375 -0.110613 0.557399 0.071642 -0.011585 1015750.000000 0 0 1
-18.514667 2.130851 27.382724 33.123209 -0.114586 0.597592 0.086918 -0.018322 1144930.000000 0 0 1
-18.906467 2.916851 26.119334 32.375641 -0.153071 0.632150 0.089669 -0.021298 -684031.000000 0 0 1
-18.593467 4.263851 26.214504 32.420636 -0.225422 0.629071 0.078636 -0.016159 89957.700000 0 0 1
-19.030367 4.928851 25.046254 31.839649 -0.253430 0.665453 0.076971 -0.011698 -628659.000000 0 0 1
-19.002067 6.460851 25.117044 32.151004 -0.327745 0.674177 0.078472 -0.016020 758006.000000 0 0 1
-17.748767 7.177851 25.089694 31.559991 -0.384306 0.651815 0.068283 -0.016887 428914.000000 0 0 1
-17.176967 7.079851 23.804454 30.196432 -0.390955 0.662723 0.062285 -0.017253 -458516.000000 0 0 1
-15.956367 7.996851 23.677164 29.650689 -0.464583 0.645936 0.078443 -0.024330 44839.300000 0 0 1
-14.819567 7.598851 24.430714 29.567243 -0.473802 0.598332 0.074896 -0.019840 556442.000000 0 0 1
-13.677567 8.256851 23.871144 28.724257 -0.543120 0.589813 0.090036 -0.024234 219802.000000 0 0 1
-12.300667 8.125851 24.526654 28.616300 -0.583793 0.541208 0.072549 -0.008269 -1045600.000000 0 0 1
-11.344467 8.687851 23.721954 27.693082 -0.653551 0.542148 0.055234 -0.017676 30296.800000 0 0 1
-10.010667 8.589851 24.258584 27.613002 -0.709160 0.498040 0.051477 -0.014607 1012010.000000 0 0 1
-9.567767 9.857851 25.032624 28.554363 -0.800330 0.501910 0.059125 -0.026149 -540575.000000 0 0 1
-10.505667 10.135851 26.062324 29.872215 -0.767484 0.510582 0.057993 -0.026969 218846.000000 0 0 1
-10.377267 11.424851 26.697184 30.837550 -0.833411 0.524177 0.063461 -0.026000 -362749.000000 0 0 1
-10.950567 12.610851 25.847564 30.774097 -0.855748 0.573673 0.055070 -0.028610 -277824.000000 0 0 1
-12.347167 12.570851 25.725624 31.181509 -0.794375 0.600544 0.071538 -0.027424 -268464.000000 0 0 1
-12.741867 11.905851 24.528404 30.095632 -0.751493 0.618041 0.074638 -0.024024 -1036990.000000 0 0 1
-14.232567 11.783851 24.259884 30.495361 -0.691553 0.650919 0.085004 -0.022614 -519548.000000 0 0 1
-14.706967 13.013851 23.650824 30.741123 -0.724397 0.692966 0.069669 -0.024248 604178.000000 0 0 1
-16.081967 12.951851 23.246704 31.093236 -0.678004 0.726287 0.069226 -0.012693 736087.000000 0 0 1
-16.502867 12.347851 21.912354 30.082641 -0.642364 0.754805 0.065217 -0.011322 -222485.000000 0 0 1
-16.386567 10.964851 21.854154 29.433851 -0.589711 0.734026 0.068475 -0.018461 -79831.500000 0 0 1
-16.514567 10.578851 20.520654 28.385564 -0.569722 0.762769 0.066223 -0.024090 -209890.000000 0 0 1
-16.851767 9.089851 20.405254 27.981812 -0.494669 0.753596 0.057016 -0.024011 1395140.000000 0 0 1
-18.276067 8.913851 20.624154 28.962512 -0.453786 0.778314 0.066253 -0.019533 886813.000000 0 0 1
-18.668767 7.576851 20.380354 28.658164 -0.385545 0.779659 0.062885 -0.017575 -79973.200000 0 0 1
-20.175167 7.305851 20.513854 29.685535 -0.347432 0.807871 0.089747 -0.022297 -165778.000000 0 0 1
-20.591967 7.602851 21.820754 30.951215 -0.353689 0.788366 0.088299 -0.020844 -219743.000000 0 0 1
-21.985867 7.473851 21.985254 31.977933 -0.327684 0.812737 0.075761 -0.019383 32589.300000 0 0 1
-22.574967 8.246851 23.219724 33.418487 -0.350248 0.802631 0.074398 -0.017778 -652296.000000 0 0 1
-22.534767 9.683851 23.104204 33.695651 -0.405870 0.815268 0.074200 -0.018704 59459.800000 0 0 1
-21.283367 10.341851 23.171854 33.119034 -0.452314 0.795884 0.079035 -0.016136 100728.000000 0 0 1
-20.315267 10.050851 24.345564 33.263135 -0.459434 0.749678 0.076018 -0.025160 -620215.000000 0 0 1
-20.740667 10.407851 25.621584 34.568254 -0.465094 0.735958 0.083660 -0.020862 -344554.000000 0 0 1
-19.838367 9.978851 26.591914 34.644886 -0.466051 0.695776 0.097265 -0.022783 -172347.000000 0 0 1
-32.294937 -13.461678 20.186554 40.394018 0.394935 1.047496 0.129387 -0.022233 304532.000000 0 0 1
-31.210007 -14.369678 19.925354 39.718659 0.431484 1.045277 0.121638 -0.022478 560855.000000 0 0 1
-31.440697 -15.256778 18.826054 39.695176 0.451783 1.076667 0.113323 -0.007446 -126820.000000 0 0 1
-31.366837 -14.695578 17.393654 38.760517 0.438137 1.105434 0.126781 0.001926 861757.000000 0 0 1
-32.503577 -13.849978 17.049654 39.230028 0.402807 1.121194 0.134275 -0.021715 770730.000000 0 0 1
-32.522407 -13.501378 15.669354 38.542481 0.393490 1.152124 0.116113 -0.025101 -1094630.000000 0 0 1
-33.686227 -12.678378 15.088854 39.027896 0.359968 1.173836 0.123244 -0.031396 15020.600000 0 0 1
-34.872107 -13.450278 14.888454 40.232324 0.368121 1.191721 0.136278 -0.032242 582383.000000 0 0 1
-35.662288 -13.552778 16.045654 41.387674 0.363174 1.172670 0.140616 -0.031921 -607815.000000 0 0 1
-36.940937 -12.658978 16.183054 42.270247 0.330140 1.177920 0.143440 -0.032626 -154723.000000 0 0 1
-37.526967 -12.880178 17.405554 43.325807 0.330626 1.157384 0.090019 -0.027238 -591326.000000 0 0 1
37.824142 -11.698278 17.808154 43.412507 -0.299949 1.148114 0.085999 -0.015678 -237980.000000 0 0 1
36.928522 -11.817878 19.038454 43.195378 -0.309721 1.114360 0.087218 -0.007984 -609318.000000 0 0 1
37.641322 -12.033578 20.218554 44.389932 -0.309422 1.097889 0.090150 -0.010082 -766122.000000 0 0 1
36.938502 -11.819478 21.367954 44.280271 -0.309682 1.067219 0.075726 -0.013172 -1310040.000000 0 0 1
37.809422 -12.214478 22.613424 45.717751 -0.312471 1.053386 0.070629 -0.023989 729808.000000 0 0 1
-36.937667 -11.530978 22.765484 44.895679 0.302588 1.039008 0.077035 -0.023300 393444.000000 0 0 1
-35.916725 -12.077778 21.955654 43.794230 0.324393 1.045653 0.076985 -0.025691 -1075640.000000 0 0 1
-34.628139 -11.257778 21.907154 42.494340 0.314327 1.029169 0.095808 -0.024572 -254559.000000 0 0 1
-34.708665 -10.102078 21.063554 41.837982 0.283229 1.043203 0.116912 -0.025392 -703781.000000 0 0 1
-33.449987 -9.536278 20.962954 40.611423 0.277723 1.028407 0.144723 -0.030728 -905226.000000 0 0 1
-33.419607 -8.306078 20.022354 39.834102 0.243603 1.044142 0.146164 -0.013713 32199.800000 0 0 1
-33.782467 -8.430278 18.675854 39.510912 0.244551 1.078472 0.147541 -0.018395 -85418.100000 0 0 1
-35.169515 -8.565878 18.493454 40.648209 0.238908 1.098465 0.136523 -0.021892 -658369.000000 0 0 1
-35.570732 -8.742278 17.047454 40.401981 0.240995 1.135206 0.136076 -0.020226 -648480.000000 0 0 1
-36.957437 -8.744378 16.916254 41.574944 0.232334 1.151754 0.047589 -0.016065 -644796.000000 0 0 1
-37.357307 -8.365378 15.611854 41.343415 0.220295 1.183578 0.073974 -0.010441 -226396.000000 0 0 1
37.106962 -8.297978 15.516154 41.067433 -0.220004 1.183354 0.089265 -0.023184 -114379.000000 0 0 1
36.382792 -9.509778 15.701354 40.751392 -0.255661 1.175268 0.088312 -0.007205 706601.000000 0 0 1
34.971822 -9.324578 15.557654 39.395643 -0.260569 1.164829 0.059837 -0.003451 439196.000000 0 0 1
34.116512 -10.564978 15.692854 39.010522 -0.300308 1.156799 0.044581 -0.008537 -308157.000000 0 0 1
34.048362 -11.145578 17.017654 39.662519 -0.316352 1.127343 0.015464 -0.011245 512927.000000 0 0 1
33.039902 -12.168178 17.121954 39.151768 -0.352873 1.118177 0.054534 -0.008473 593366.000000 0 0 1
32.734162 -12.666578 18.552654 39.700989 -0.369209 1.084551 0.050576 -0.003746 235852.000000 0 0 1
33.817882 -13.474878 18.979454 41.054124 -0.379173 1.090205 0.047377 -0.008421 159876.000000 0 0 1
33.813092 -13.604778 20.381554 41.759106 -0.382533 1.060914 0.062479 -0.005744 -40404.100000 0 0 1
34.798942 -14.732778 20.804954 43.137770 -0.400488 1.067528 0.056474 -0.010514 67750.600000 0 0 1
34.738312 -14.913378 22.210354 43.845855 -0.405513 1.039611 0.065686 -0.018075 -415951.000000 0 0 1
35.430212 -16.052478 22.550144 44.960994 -0.425407 1.045408 0.065857 -0.020299 -214585.000000 0 0 1
35.967792 -16.091678 24.021744 46.148330 -0.420682 1.023321 0.080342 -0.026773 746175.000000 0 0 1
37.060572 -15.158678 24.138484 46.754015 -0.388262 1.028287 0.079557 -0.022424 493068.000000 0 0 1
37.596342 -15.018778 25.449514 47.819728 -0.380053 1.009603 0.075339 -0.026081 451803.000000 0 0 1
-37.206007 -14.002278 25.528774 47.244778 0.359949 0.999942 0.064169 -0.022615 -456472.000000 0 0 1
-35.992187 -14.473078 25.075724 46.191985 0.382330 0.996959 0.049475 -0.025312 -637841.000000 0 0 1
-34.965622 -13.531678 25.393864 45.282992 0.369249 0.975467 0.062302 -0.029727 136085.000000 0 0 1
-33.562327 -14.139978 25.289164 44.338590 0.398737 0.963847 0.063099 -0.031181 -1006910.000000 0 0 1
-33.241887 -14.376678 23.934394 43.411601 0.408195 0.986831 0.073687 -0.027247 -80628.100000 0 0 1
-31.905767 -14.776578 23.744004 42.427620 0.433721 0.976850 0.078550 -0.029483 -66754.800000 0 0 1
-31.386367 -16.137878 24.271064 42.832461 0.474918 0.968361 0.081100 -0.019681 -723965.000000 0 0 1
-31.384217 -16.211678 25.679644 43.671864 0.476804 0.942196 0.076986 -0.026147 184812.000000 0 0 1
-30.898417 -17.490078 26.065614 44.045786 0.515083 0.937526 0.075969 -0.031059 -125974.000000 0 0 1
-30.733867 -17.686378 27.601184 44.935553 0.522186 0.909375 0.079765 -0.040315 66100.900000 0 0 1
-29.762247 -16.802178 28.137514 44.269902 0.513943 0.882024 0.074416 -0.039745 -171357.000000 0 0 1
-29.026267 -17.410778 29.169534 44.682447 0.540293 0.859497 0.090015 -0.041608 -538408.000000 0 0 1
-27.714197 -16.666878 29.335104 43.662454 0.541437 0.834078 0.077193 -0.040287 -743625.000000 0 0 1
-27.951397 -15.361978 29.814464 43.659744 0.502533 0.819096 0.089859 -0.047032 -508675.000000 0 0 1
-26.856047 -14.545178 29.551754 42.498419 0.496370 0.801874 0.082637 -0.039920 -572652.000000 0 0 1
-26.849397 -13.220078 30.308734 42.594365 0.457532 0.779071 0.087106 -0.033026 -96670.500000 0 0 1
-26.479427 -13.385278 31.701680 43.420297 0.468036 0.752311 0.087881 -0.034016 307537.000000 0 0 1
-26.129587 -12.126778 32.277604 43.262661 0.434519 0.728634 0.098001 -0.025875 -355972.000000 0 0 1
-25.490477 -12.223978 33.662694 43.958697 0.447155 0.698543 0.102578 -0.023082 180311.000000 0 0 1
-24.087467 -12.482778 33.596604 43.182839 0.478123 0.679307 0.091865 -0.024205 597400.000000 0 0 1
-23.777867 -13.850378 -33.486623 43.342518 0.527445 2.453730 0.084949 -0.024619 -232482.000000 0 0 1
-23.965067 -14.309078 -32.009423 42.469722 0.538270 2.424470 0.079547 -0.025207 -593643.000000 0 0 1
-22.944567 -13.865078 -31.137233 41.087964 0.543565 2.430760 0.075869 -0.015934 284318.000000 0 0 1
-22.893267 -14.761978 -30.070343 40.573922 0.572723 2.405541 0.081146 -0.023083 -981906.000000 0 0 1
-21.499167 -14.832478 -29.511943 39.410295 0.603922 2.417104 0.072479 -0.023548 -1022930.000000 0 0 1
-20.983767 -13.828078 -28.652863 38.111950 0.582669 2.421596 0.087572 -0.026409 -43853.800000 0 0 1
-21.534967 -13.632878 -27.371353 37.400550 0.564373 2.391820 0.085493 -0.020959 -432162.000000 0 0 1
-21.045067 -12.342278 -26.686903 36.158228 0.530411 2.400985 0.086610 -0.022206 -138856.000000 0 0 1
-19.739667 -12.456178 -26.162323 35.061060 0.562919 2.413122 0.079013 -0.026761 -50505.900000 0 0 1
-19.286367 -11.294078 -25.556603 33.950848 0.529763 2.423030 0.073610 -0.031249 433287.000000 0 0 1
-17.874667 -11.527678 -24.930913 32.771046 0.572794 2.435280 0.097042 -0.037800 -435282.000000 0 0 1
-17.964167 -12.366178 -23.775413 32.263042 0.602885 2.399305 0.102635 -0.038803 -60116.700000 0 0 1
-16.731267 -12.676078 -23.195213 31.283161 0.648365 2.406040 0.100778 -0.046769 -557344.000000 0 0 1
-15.641867 -13.396478 -23.966913 31.599787 0.708227 2.431730 0.086758 -0.040271 -1052790.000000 0 0 1
-14.913167 -12.593578 -24.847913 31.597777 0.701269 2.475726 0.093999 -0.053213 -467312.000000 0 0 1
-14.033467 -13.417378 -25.557563 32.096000 0.762959 2.491925 0.118091 -0.049896 -554965.000000 0 0 1
-13.034267 -12.640278 -26.442793 32.076316 0.770054 2.539887 0.121110 -0.037422 126147.000000 0 0 1
-13.595867 -12.016278 -27.599783 33.030085 0.723803 2.560012 0.122780 -0.046927 -189865.000000 0 0 1
-12.613867 -11.300578 -28.283213 32.965934 0.730537 2.602067 0.115999 -0.048864 -267250.000000 0 0 1
-13.271567 -10.416178 -29.298713 33.808961 0.665434 2.619136 0.089992 -0.031848 -235268.000000 0 0 1
-12.329667 -9.604078 -29.920893 33.756760 0.661767 2.660236 0.082059 -0.024742 -205989.000000 0 0 1
-12.267367 -9.963178 -31.249603 35.018436 0.682117 2.673379 0.085957 -0.014089 -281763.000000 0 0 1
-11.479367 -8.979978 -32.061283 35.218485 0.663837 2.714935 0.059001 -0.015007 608593.000000 0 0 1
-10.095067 -8.855278 -31.699223 34.426255 0.720068 2.740888 0.059349 -0.015852 646109.000000 0 0 1
-9.546767 -7.606078 -32.094823 34.337601 0.672736 2.778167 0.044417 -0.013844 583795.000000 0 0 1
-7.999967 -7.427478 -31.899953 33.716077 0.748307 2.811878 0.067740 -0.015419 528453.000000 0 0 1
-7.703667 -7.260878 -30.500573 32.285473 0.755818 2.807521 0.058502 -0.009236 -411582.000000 0 0 1
-8.017867 -6.024078 -29.903803 31.540658 0.644353 2.818013 0.072895 -0.021557 -516586.000000 0 0 1
-7.291167 -4.686578 -30.221473 31.439824 0.571279 2.862291 0.052809 -0.024032 -95301.300000 0 0 1
-5.982967 -4.609578 -29.682243 30.628086 0.656461 2.892427 0.063486 -0.027389 -185957.000000 0 0 1
-5.449967 -3.399678 -30.146653 30.823378 0.557734 2.931661 0.098138 -0.040914 -959012.000000 0 0 1
-3.947867 -3.372278 -29.905413 30.352786 0.706929 2.969689 0.117800 -0.034950 -1707880.000000 0 0 1
-3.258667 -4.211878 -30.787073 31.244242 0.912308 2.970315 0.126293 -0.042693 -238976.000000 0 0 1
-1.854667 -4.102478 -30.723523 31.051650 1.146210 2.996088 0.145637 -0.037254 -215960.000000 0 0 1
-1.180267 -2.802178 -31.085793 31.234144 1.172152 3.044090 0.143666 -0.032059 -439823.000000 0 0 1
0.235633 -2.891678 -30.775913 30.912362 -1.489489 3.047600 0.120275 -0.033378 1547690.000000 0 0 1
0.943533 -1.784678 -31.455353 31.520066 -1.084465 3.077502 0.116366 -0.022733 351182.000000 0 0 1
1.360633 -0.651778 -30.441673 30.479035 -0.446728 3.092073 0.112280 -0.038793 -278376.000000 0 0 1
0.325833 0.111122 -29.895913 29.897895 0.328670 3.130078 0.114962 -0.033645 -418105.000000 0 0 1
0.894433 1.338222 -29.477303 29.521216 0.981613 3.087042 0.142506 -0.047996 234773.000000 0 0 1
-0.015367 2.237522 -28.605633 28.693012 -1.563928 3.063530 0.121855 -0.043520 -168028.000000 0 0 1
-1.050167 2.869322 -29.302033 29.460906 -1.219941 3.037693 0.106598 -0.057239 -248012.000000 0 0 1
-1.681767 3.786522 -28.372433 28.673350 -1.152822 2.996589 0.148010 -0.053654 980103.000000 0 0 1
-3.124167 4.265922 -28.781853 29.263519 -0.938684 2.959906 0.183112 -0.059154 908486.000000 0 0 1
-2.998567 4.950322 -30.028193 30.580867 -1.026173 2.951186 0.181146 -0.061805 739440.000000 0 0 1
-4.286667 5.373822 -30.514443 31.279141 -0.897463 2.920017 0.201367 -0.056601 289464.000000 0 0 1
-4.056867 5.937422 -31.933393 32.733052 -0.971386 2.920098 0.189252 -0.049595 207921.000000 0 0 1
-3.745567 5.114322 -33.072033 33.674098 -0.938675 2.952211 0.212850 -0.058881 1519250.000000 0 0 1
-2.571967 4.230222 -32.864713 33.235510 -1.024517 2.992077 0.193172 -0.057522 1147050.000000 0 0 1
-2.113967 3.586522 33.166286 33.426554 -1.038193 0.124871 0.162418 -0.049221 -404927.000000 0 0 1
-3.024467 2.669122 32.634251 32.882608 -0.723068 0.122983 0.167988 -0.056516 -129699.000000 0 0 1
-2.630667 2.141022 31.327034 31.510116 -0.683141 0.107851 0.148899 -0.042870 58172.600000 0 0 1
-2.670467 3.103322 30.115654 30.392673 -0.860227 0.135119 0.134438 -0.039380 -961237.000000 0 0 1
-3.834367 3.811022 29.936024 30.420253 -0.782345 0.178664 0.120033 -0.034078 -897359.000000 0 0 1
-3.721467 4.631222 28.813604 29.419743 -0.893888 0.203344 0.105679 -0.032660 429732.000000 0 0 1
-5.010267 5.467222 28.569574 29.516332 -0.828984 0.253963 0.103143 -0.026524 435882.000000 0 0 1
-4.891967 6.114722 27.358454 28.457093 -0.896036 0.278775 0.094902 -0.020591 -575634.000000 0 0 1
-6.060167 6.828622 27.108574 28.604728 -0.844950 0.324860 0.086415 -0.021806 -555297.000000 0 0 1
-6.089367 7.592822 25.770894 27.547601 -0.894843 0.361113 0.083622 -0.022158 3769.870000 0 0 1
-5.266567 8.731922 25.894074 27.829593 -1.028072 0.375154 0.083600 -0.024297 42807.000000 0 0 1
-5.229467 9.483622 24.697814 26.967914 -1.066863 0.413246 0.079804 -0.023947 136656.000000 0 0 1
-4.368267 10.747322 24.916084 27.484503 -1.184741 0.435758 0.086518 -0.025637 -879001.000000 0 0 1
-4.595467 11.659522 23.851594 26.943669 -1.195353 0.483788 0.099672 -0.029397 252611.000000 0 0 1
-3.940667 12.918022 23.958384 27.502878 -1.274711 0.513312 0.095140 -0.022883 -1334730.000000 0 0 1
-2.434267 12.975622 23.998184 27.389875 -1.385349 0.502939 0.087872 -0.014329 -1238430.000000 0 0 1
-1.810667 12.351622 25.125264 28.055658 -1.425240 0.461129 0.098898 -0.020071 -222675.000000 0 0 1
-1.927767 13.070222 26.347394 29.474262 -1.424359 0.464799 0.105511 -0.024899 -572245.000000 0 0 1
-1.026867 12.521922 27.462904 30.200398 -1.488974 0.429064 0.106362 -0.028595 -307636.000000 0 0 1
0.333933 12.683222 27.213794 30.026092 1.544474 0.436260 0.100914 -0.024556 -582588.000000 0 0 1
1.126833 12.411022 28.375064 30.991087 1.480252 0.413829 0.104412 -0.037332 -315100.000000 0 0 1
2.625633 12.532622 28.186994 30.959121 1.364279 0.426405 0.096003 -0.031768 -342089.000000 0 0 1
3.070733 13.915222 28.178154 31.576433 1.353603 0.468206 0.106167 -0.032047 -112015.000000 0 0 1
4.416633 14.063422 27.781914 31.450297 1.266499 0.487814 0.100798 -0.032139 -302223.000000 0 0 1
4.939733 15.534722 27.919654 32.330104 1.262927 0.528468 0.100330 -0.030273 -249887.000000 0 0 1
4.835133 16.007822 29.224144 33.670157 1.277462 0.519729 0.111908 -0.026787 354625.000000 0 0 1
3.668233 16.782922 29.504404 34.141357 1.355611 0.527271 0.099058 -0.022650 359108.000000 0 0 1
3.745333 18.278022 29.023474 34.503270 1.368685 0.571334 0.109511 -0.025404 -98641.800000 0 0 1
4.776733 18.914822 29.746644 35.573171 1.323429 0.580461 0.117509 -0.021121 -11492.300000 0 0 1
5.188133 20.061422 29.043634 35.677865 1.317728 0.619701 0.092159 -0.011016 349978.000000 0 0 1
6.422333 20.811822 29.648744 36.788943 1.271477 0.633578 0.094218 -0.009733 284173.000000 0 0 1
6.186133 21.522222 30.859044 38.128137 1.290911 0.627750 0.103383 -0.032433 295163.000000 0 0 1
7.315533 22.279922 31.315025 39.122151 1.253541 0.642764 0.102266 -0.030220 422858.000000 0 0 1
7.353933 23.720022 30.722114 39.504026 1.270163 0.679804 0.098180 -0.015416 -12460.200000 0 0 1
7.856433 23.716922 29.390564 38.574877 1.250914 0.704540 0.068494 -0.013390 265511.000000 0 0 1
7.741733 25.008722 28.809574 38.927653 1.270591 0.737607 0.057355 -0.014284 6020.670000 0 0 1
8.374033 24.990622 27.409224 38.025270 1.247468 0.765817 0.084033 -0.013509 24041.500000 0 0 1
7.539533 24.367922 26.423334 36.726458 1.270734 0.767767 0.068056 -0.012282 490577.000000 0 0 1
8.053633 24.535822 25.110924 36.019801 1.253637 0.799393 0.074321 -0.023578 -211908.000000 0 0 1
31.588992 2.409922 7.726487 32.609366 0.076142 1.331581 0.186920 -0.006021 434861.000000 0 0 1
30.913172 3.509922 8.362087 32.215963 0.113057 1.308226 0.181416 -0.027572 -1867.950000 0 0 1
29.554272 3.279122 8.639887 30.965388 0.110501 1.288025 0.176930 -0.023155 19607.900000 0 0 1
29.018172 4.218622 9.804487 30.918911 0.144367 1.248123 0.151877 -0.026703 -122842.000000 0 0 1
28.921972 5.661022 9.548887 30.979168 0.193291 1.257458 0.173600 -0.021336 482702.000000 0 0 1
30.128172 6.316922 9.145587 32.113113 0.206674 1.282006 0.195225 -0.034131 355801.000000 0 0 1
29.859872 7.828122 8.800887 32.099020 0.256392 1.293060 0.224386 -0.037794 232737.000000 0 0 1
29.079572 7.911622 7.631887 31.087955 0.265638 1.322768 0.197804 -0.034345 -149264.000000 0 0 1
28.706172 9.239722 7.302187 31.028031 0.311400 1.333226 0.215413 -0.055373 -51058.700000 0 0 1
27.780872 9.299622 6.069987 29.918298 0.323024 1.366493 0.181257 -0.044028 829113.000000 0 0 1
26.421472 9.669222 6.345287 28.841822 0.350822 1.348979 0.197974 -0.041503 141023.000000 0 0 1
25.713872 9.718222 5.174787 27.971869 0.361343 1.384725 0.197041 -0.039638 -295755.000000 0 0 1
24.258072 10.189422 5.330487 26.845716 0.397664 1.370908 0.151708 -0.043488 -86497.700000 0 0 1
24.216972 11.554222 5.663287 27.423249 0.445171 1.362785 0.159328 -0.039740 534931.000000 0 0 1
22.869772 12.023722 5.634987 26.445216 0.484033 1.356068 0.157345 -0.034261 454118.000000 0 0 1
22.530772 13.430322 6.082187 26.925866 0.537538 1.342943 0.151248 -0.020109 -70935.400000 0 0 1
22.977672 14.411822 5.123987 27.603066 0.560187 1.384082 0.150410 -0.026228 494684.000000 0 0 1
22.487872 15.733922 5.428787 27.977355 0.610499 1.375515 0.168124 -0.028982 25839.800000 0 0 1
22.154672 16.699722 4.233587 28.064808 0.645915 1.419368 0.138028 -0.028397 843940.000000 0 0 1
20.766872 16.573522 3.872487 26.850340 0.673566 1.426067 0.160038 -0.020207 824648.000000 0 0 1
20.422872 17.565622 2.948187 27.098645 0.710326 1.461786 0.161372 -0.017369 -18089.300000 0 0 1
18.906772 17.679822 2.691187 26.024692 0.751875 1.467202 0.146585 -0.020602 -238863.000000 0 0 1
18.188372 18.353222 3.683987 26.100371 0.789909 1.429176 0.157644 -0.035574 1957770.000000 0 0 1
16.766572 18.247722 3.286187 24.997926 0.827674 1.438956 0.126902 -0.036305 2053780.000000 0 1 0
15.785272 19.156522 4.069387 25.153669 0.881582 1.408301 0.146508 -0.039185 -436596.000000 0 0 1
14.442572 18.831422 3.887587 24.048361 0.916541 1.408427 0.140587 -0.040830 -917914.000000 0 1 0
13.659572 19.948722 4.211587 24.541249 0.970390 1.398330 0.110116 -0.041644 -885391.000000 0 1 0
12.212372 19.646922 3.847587 23.450959 1.014651 1.405982 0.089151 -0.040820 -362788.000000 0 1 0
11.452972 18.829722 4.721687 22.539373 1.024341 1.359747 0.069100 -0.045184 -456040.000000 0 1 0
10.076072 19.037922 4.565787 22.018540 1.084013 1.361920 0.053692 -0.029146 117837.000000 0 1 0
9.270172 18.583222 5.827987 21.569369 1.108072 1.297198 0.030614 -0.024396 -449495.000000 0 1 0
9.230272 19.476622 6.919687 22.636669 1.128233 1.260139 0.045962 -0.025875 -318038.000000 0 1 0
8.604672 18.911722 8.056787 22.284646 1.143799 1.200877 0.047471 -0.014973 -285526.000000 0 1 0
7.654872 19.904322 8.757387 23.053653 1.203650 1.181141 0.043883 -0.011227 -320660.000000 0 1 0
6.482772 20.233022 8.088787 22.733895 1.260726 1.207023 0.041402 -0.013524 -634215.000000 0 1 0
6.598172 21.265822 7.079287 23.364233 1.269943 1.262961 0.050932 -0.019400 -478814.000000 0 1 0
5.316672 21.343922 6.187587 22.849863 1.326669 1.296579 0.039327 -0.022442 1531790.000000 0 1 0
4.034272 21.589622 6.816487 22.996774 1.386065 1.269864 0.039869 -0.020660 931696.000000 0 1 0
3.920172 22.765522 7.578887 24.312060 1.400271 1.253779 0.052506 -0.028761 -830435.000000 0 1 0
3.875372 24.130322 6.849187 25.381141 1.411554 1.297556 0.071881 -0.024695 -594010.000000 0 0 1
2.717272 24.242622 6.095887 25.144545 1.459176 1.325923 0.053591 -0.012626 -488149.000000 0 0 1
2.696872 25.502322 5.453487 26.217972 1.465438 1.361261 0.069564 -0.013046 190597.000000 0 0 1
1.384472 25.776022 4.658387 26.230148 1.517136 1.392253 0.078631 -0.014699 130797.000000 0 0 1
0.256572 25.876322 5.495287 26.454641 1.560881 1.361548 0.081463 -0.018394 -226245.000000 0 0 1
-0.802128 26.352122 4.685887 26.777515 -1.540367 1.394897 0.104709 -0.018362 18440.500000 0 0 1
-2.159528 26.730822 5.299987 27.336610 -1.490183 1.375682 0.133332 -0.026303 -323841.000000 0 0 1
-3.067928 27.013322 4.306287 27.525913 -1.457710 1.413706 0.151976 -0.035991 -614505.000000 0 0 1
-4.245328 27.604122 4.812087 28.340193 -1.418199 1.400172 0.152665 -0.042546 -336993.000000 0 0 1
-5.082828 28.218122 3.683887 28.907933 -1.392581 1.443014 0.159398 -0.048262 -616966.000000 0 0 1
-4.430728 29.178722 2.932887 29.658574 -1.420100 1.471746 0.167510 -0.046775 -107717.000000 0 0 1
-5.157628 29.567722 1.755487 30.065479 -1.398099 1.512374 0.175465 -0.054825 -121666.000000 0 0 1
-4.336628 30.485522 0.791587 30.802597 -1.429492 1.545095 0.180273 -0.050511 -42222.400000 0 0 1
-3.944928 31.761922 1.310887 32.032805 -1.447226 1.529862 0.187305 -0.043065 1051960.000000 0 0 1
-2.740528 31.622822 2.113587 31.811643 -1.484349 1.504307 0.193235 -0.048430 549252.000000 0 0 1
-1.712828 32.782122 2.013987 32.888561 -1.518595 1.509521 0.190664 -0.050810 -897622.000000 0 0 1
-1.059728 32.813822 0.787587 32.840375 -1.538512 1.546812 0.157717 -0.042269 -106259.000000 0 0 1
-0.180128 -33.657849 0.770287 33.667145 1.565445 1.547915 0.140245 -0.042914 356980.000000 0 0 1
1.214372 -33.679949 1.439587 33.732567 -1.534756 1.528107 0.116956 -0.034314 -300256.000000 0 0 1
1.022372 -33.538449 2.834387 33.673529 -1.540322 1.486524 0.125785 -0.035860 283366.000000 0 0 1
2.229172 -33.754049 3.553387 34.013698 -1.504850 1.466136 0.097132 -0.029402 162489.000000 0 0 1
2.049572 -33.625849 5.059887 34.066126 -1.509919 1.421713 0.095033 -0.032478 -2647.370000 0 0 1
1.237272 32.857022 5.477087 33.333365 1.533158 1.405735 0.155058 -0.050067 203108.000000 0 0 1
0.432472 33.138822 6.624287 33.797185 1.557747 1.373518 0.170181 -0.042859 456014.000000 0 0 1
1.253372 33.279922 7.977887 34.245742 1.533153 1.335676 0.141786 -0.029192 154364.000000 0 0 1
1.814872 32.060722 8.314987 33.171112 1.514249 1.317425 0.148645 -0.035412 -350040.000000 0 0 1
2.732272 32.230022 9.357287 33.671924 1.486224 1.289193 0.165499 -0.036843 -330147.000000 0 0 1
3.379772 30.849722 9.778287 32.538333 1.461676 1.265563 0.152599 -0.037968 291195.000000 0 0 1
2.552872 29.844222 10.355887 31.692888 1.485464 1.237926 0.186195 -0.039486 170463.000000 0 0 1
3.300272 28.683022 10.306487 30.656667 1.456240 1.227927 0.130682 -0.038378 -117451.000000 0 0 1
2.743472 27.625822 11.271187 29.962516 1.471813 1.185130 0.133018 -0.046003 -508829.000000 0 0 1
2.938872 27.900322 12.659987 30.778892 1.465849 1.146894 0.157995 -0.050034 269272.000000 0 0 1
2.579672 26.750922 13.452487 30.053884 1.474661 1.106703 0.174003 -0.042767 1381750.000000 0 0 1
1.011872 26.445022 13.577087 29.743913 1.532552 1.096777 0.123637 -0.044120 877512.000000 0 0 1
0.281072 27.436322 14.247287 30.916273 1.560552 1.091861 0.134813 -0.038765 121269.000000 0 0 1
-0.419428 28.354922 13.397787 31.363645 -1.556005 1.129429 0.167097 -0.042077 -60869.200000 0 0 1
-0.948028 29.607822 14.081287 32.799459 -1.538788 1.127063 0.174894 -0.043755 213799.000000 0 0 1
-1.976828 29.361122 15.028887 33.043166 -1.503570 1.098620 0.155424 -0.042476 -48976.000000 0 0 1
-2.517128 30.565422 15.510887 34.368133 -1.488630 1.102557 0.169605 -0.038091 -897971.000000 0 0 1
-3.909628 30.387922 16.086187 34.604572 -1.442842 1.087323 0.152606 -0.028115 -1089080.000000 0 0 1
-4.776128 29.848122 15.136987 33.806067 -1.412127 1.106538 0.118150 -0.037284 -594605.000000 0 0 1
-5.983428 29.622622 15.834687 34.118008 -1.371490 1.088161 0.095119 -0.025978 222037.000000 0 0 1
-7.143928 29.107722 14.879487 33.461834 -1.330123 1.109990 0.082472 -0.031398 475817.000000 0 0 1
-8.394128 29.031822 15.513887 33.970410 -1.289337 1.096527 0.076435 -0.028899 16525.300000 0 0 1
-9.401428 28.461222 14.698087 33.383556 -1.251757 1.114887 0.056438 -0.025547 -475256.000000 0 0 1
-10.632728 28.041922 15.465687 33.743026 -1.208373 1.094673 0.059786 -0.022641 -714344.000000 0 0 1
-11.298828 29.139022 16.047687 35.132241 -1.200890 1.096425 0.055029 -0.031381 207377.000000 0 0 1
-11.918628 28.706822 17.278387 35.562311 -1.177269 1.063447 0.079966 -0.024245 -41112.900000 0 0 1
-12.709428 29.821022 18.032887 37.094581 -1.167918 1.063138 0.076351 -0.022727 -665738.000000 0 0 1
-13.997028 30.027822 17.543287 37.488049 -1.134606 1.083804 0.079269 -0.005109 -135513.000000 0 0 1
-14.617028 31.228822 18.034887 38.912132 -1.133024 1.088881 0.068000 -0.008265 691555.000000 0 0 1
-15.563228 31.096522 19.317687 39.779150 -1.106764 1.063720 0.069236 -0.008069 167604.000000 0 0 1
-14.967328 30.736222 20.508187 39.866302 -1.117635 1.030460 0.067928 -0.014525 -177030.000000 0 0 1
-15.956928 30.404222 21.460587 40.491939 -1.087486 1.012200 0.064664 -0.014550 56949.500000 0 0 1
-15.437228 30.317422 22.916087 41.019522 -1.099826 0.978023 0.069017 -0.010695 -129262.000000 0 0 1
-14.346728 29.405822 23.067087 40.032755 -1.116886 0.956718 0.067849 -0.012366 694585.000000 0 0 1
-14.039628 28.957822 24.395487 40.383244 -1.119358 0.922161 0.074326 -0.010158 15248.500000 0 0 1
-13.380228 30.008522 25.359387 41.504704 -1.151373 0.913473 0.072258 -0.010748 72562.900000 0 0 1
-14.346428 30.950822 25.838887 42.795111 -1.136753 0.922560 0.074874 -0.006289 680867.000000 0 0 1
-13.753228 32.139122 26.323587 43.760778 -1.166448 0.925377 0.084683 -0.008111 797634.000000 0 0 1
-14.860628 33.197122 26.817387 45.189152 -1.149900 0.935461 0.101903 -0.016381 1076370.000000 0 0 1
-15.769028 32.717122 27.769987 45.719192 -1.121668 0.918009 0.076901 -0.019518 379250.000000 0 0 1
-15.223928 32.924322 29.124787 46.519160 -1.137686 0.894279 0.096179 -0.006773 269795.000000 0 0 1
-15.914128 32.107822 30.266587 46.906695 -1.110638 0.869445 0.076514 -0.011709 629721.000000 0 0 1
-17.169428 32.673022 30.670087 47.989269 -1.086963 0.877465 0.084829 -0.013116 219119.000000 0 0 1
-17.584228 32.186422 31.899087 48.607845 -1.070779 0.854953 0.073674 -0.007913 368334.000000 0 0 1
-19.063728 32.596722 32.156887 49.598764 -1.041602 0.865394 0.066196 -0.010589 329513.000000 0 0 1
-19.170028 -33.588049 32.068487 50.239774 1.052170 0.878497 0.089364 -0.008353 -216801.000000 0 0 1
-20.554928 -33.334749 32.099187 50.636631 1.018245 0.884195 0.102889 -0.004964 -144004.000000 0 0 1
-20.830828 -31.818149 32.489587 50.018910 0.991135 0.863809 0.113772 -0.011445 -206494.000000 0 0 1
-20.590128 -31.413949 -33.506979 50.333957 0.990603 2.299219 0.103599 -0.019635 429043.000000 0 0 1
-21.582028 -31.847049 -32.561079 50.400817 0.975210 2.273185 0.088709 -0.023226 477742.000000 0 0 1
-21.399728 -31.158149 -31.205879 49.016176 0.968978 2.260935 0.102841 -0.025808 162070.000000 0 0 1
-21.415928 -29.749649 -31.460979 48.306074 0.946858 2.280072 0.110972 -0.027359 77270.700000 0 0 1
-20.780428 -29.060349 -30.404379 46.912220 0.950022 2.275899 0.102014 -0.020515 101778.000000 0 0 1
-21.114928 -27.542149 -30.401979 46.137734 0.916730 2.290204 0.100514 -0.027410 495532.000000 0 0 1
-22.390628 -27.262149 -29.830279 46.199681 0.883197 2.272712 0.102131 -0.020746 170889.000000 0 0 1
-22.767428 -25.926549 -30.059179 45.761293 0.850184 2.287455 0.089206 -0.019937 455947.000000 0 0 1
-24.089528 -25.560149 -29.315379 45.749514 0.815009 2.266310 0.100152 -0.024352 387954.000000 0 0 1
-24.007528 -25.815449 -27.928079 44.975287 0.821669 2.240770 0.103186 -0.025433 67906.600000 0 0 1
-23.627128 -24.708549 -27.095879 43.622703 0.807768 2.240995 0.110199 -0.029726 -269209.000000 0 0 1
-23.255328 -25.052049 -25.649479 42.735363 0.822575 2.214539 0.107901 -0.030539 -690471.000000 0 0 1
-24.321728 -25.067149 -24.774679 42.821643 0.800490 2.187752 0.106865 -0.034610 -611181.000000 0 0 1
-24.020828 -25.549149 -23.438979 42.179912 0.816220 2.159990 0.104852 -0.026021 -261972.000000 0 0 1
-25.141928 -25.373449 -22.371179 42.147338 0.789981 2.130323 0.093911 -0.029817 1508530.000000 0 0 1
-26.449728 -25.911749 -22.694379 43.428582 0.775124 2.120656 0.101634 -0.025978 823451.000000 0 0 1
-26.681028 -27.287049 -22.823779 44.467800 0.796627 2.109782 0.097952 -0.018106 263661.000000 0 0 1
-28.213128 -27.585949 -23.015479 45.680165 0.774159 2.098834 0.064418 -0.014487 1566760.000000 0 0 1
-28.956828 -27.213149 -21.788579 45.318821 0.754365 2.072345 0.071214 -0.011768 593702.000000 0 0 1
-30.337428 -26.994249 -22.062479 46.214738 0.727151 2.068479 0.069644 -0.014880 683527.000000 0 0 1
-31.118128 -26.410949 -20.851679 45.833052 0.703757 2.043111 0.080057 -0.012762 -184740.000000 0 0 1
-31.644828 -27.317849 -19.966279 46.328310 0.712144 2.016368 0.075831 -0.001661 -363314.000000 0 0 1
-32.239028 -26.698249 -18.875279 45.917618 0.691662 1.994422 0.084346 0.004999 -316270.000000 0 0 1
-33.279128 -27.656349 -18.145779 46.921672 0.693384 1.967874 0.059389 -0.001308 1344510.000000 0 0 1
-34.567828 -27.856149 -18.798279 48.210736 0.678292 1.971340 0.049917 0.007800 1584170.000000 0 0 1
-35.419928 -26.723849 -19.000879 48.267679 0.646366 1.975402 0.031154 0.008853 -253885.000000 0 0 1
-36.059128 -26.157349 -17.676179 47.926141 0.627571 1.948537 0.048102 0.002501 -631615.000000 0 0 1
-35.259628 -25.257849 -16.927279 46.558921 0.621608 1.942890 0.036675 0.014240 258966.000000 0 0 1
-35.883928 -24.817049 -15.714379 46.373311 0.605061 1.916509 0.033263 0.009458 147440.000000 0 0 1
-35.233528 -25.464249 -14.458679 45.813567 0.625817 1.891883 0.051885 0.013337 -60221.200000 0 0 1
-35.717428 -26.759749 -14.230679 46.843688 0.642993 1.879465 0.073640 0.018005 289924.000000 0 0 1
-35.209428 -27.381349 -13.050079 46.473075 0.660977 1.855434 0.082821 0.017010 -669761.000000 0 0 1
-36.017028 -28.597149 -12.659579 47.699981 0.671065 1.839415 0.100837 0.007776 -430985.000000 0 0 1
-35.672128 -29.741149 -13.478779 48.360254 0.694976 1.853253 0.086574 0.008841 168842.000000 0 0 1
-36.318028 -30.924849 -13.052179 49.454068 0.705365 1.837886 0.072707 -0.007666 -517005.000000 0 0 1
-35.884728 -32.160449 -13.871379 50.144026 0.730720 1.851083 0.072262 -0.003271 1482710.000000 0 0 1
-34.461528 -32.489049 -13.761379 49.320491 0.755945 1.853569 0.058116 -0.007120 1583990.000000 0 0 1
-34.006628 -33.087249 -14.966079 49.751385 0.771696 1.876346 0.087230 -0.026435 -73851.700000 0 0 1
-32.550228 -33.568949 -14.806079 49.047035 0.800804 1.877455 0.089747 -0.020637 100197.000000 0 0 1
-32.205928 33.335922 -15.983679 49.030434 -0.802637 1.902860 0.094459 -0.019323 -13448.500000 0 0 1
-30.840928 32.911622 -15.951379 47.841239 -0.817867 1.910729 0.103665 -0.019983 481848.000000 0 0 1
9.444233 19.129622 -9.052013 23.174877 1.112204 1.972075 0.110135 -0.049110 203156.000000 0 1 0
8.099633 19.512222 -9.337713 23.098133 1.177336 1.986969 0.100272 -0.043391 569852.000000 0 1 0
7.641133 19.676022 -10.714713 23.671456 1.200375 2.040523 0.112637 -0.038685 240915.000000 0 1 0
7.868933 18.534022 -11.723813 23.299739 1.169293 2.098063 0.092248 -0.021120 -279447.000000 0 1 0
9.164933 18.345822 -12.227513 23.876290 1.107497 2.108447 0.144397 -0.029701 -180025.000000 0 1 0
9.028433 17.035922 -12.769113 23.125429 1.083466 2.155758 0.115824 -0.034986 12787.300000 0 1 0
10.140533 16.692422 -13.763213 23.893375 1.024885 2.184655 0.150547 -0.027424 -105959.000000 0 1 0
10.169433 15.375322 -14.218913 23.280794 0.986440 2.227813 0.152273 -0.044195 362631.000000 0 1 0
11.366133 15.078922 -14.926713 24.070098 0.924883 2.239711 0.181972 -0.049774 236380.000000 0 1 0
11.380933 13.683022 -15.539513 23.626832 0.876990 2.288566 0.164069 -0.049798 -221694.000000 0 1 0
11.218533 12.587922 -14.611013 22.311274 0.842857 2.284809 0.156716 -0.047080 246038.000000 0 1 0
12.402233 12.298522 -13.909313 22.327964 0.781199 2.243311 0.175420 -0.049403 518788.000000 0 1 0
13.595133 11.559722 -14.647513 23.086889 0.704659 2.258095 0.196299 -0.055341 823949.000000 0 1 0
14.314833 12.335322 -15.633113 24.524861 0.711257 2.261967 0.167572 -0.044679 534148.000000 0 1 0
15.306233 11.514922 -16.232113 25.106885 0.644973 2.273811 0.175256 -0.064057 247870.000000 0 0 1
15.992033 12.044722 -17.508813 26.596597 0.645527 2.289368 0.124662 -0.054266 623651.000000 0 0 1
17.041433 13.005422 -17.363713 27.587134 0.651873 2.251594 0.113358 -0.041720 402218.000000 0 0 1
17.754133 13.416822 -18.513413 28.947656 0.647140 2.264706 0.068180 -0.023248 62301.500000 0 0 1
18.919533 14.353122 -18.198513 29.919002 0.649008 2.224662 0.074562 -0.009102 -209304.000000 0 0 1
18.463133 15.652022 -17.693413 29.982160 0.703183 2.202018 0.098044 -0.020572 543046.000000 0 0 1
17.925033 16.597622 -18.648013 30.733308 0.746967 2.222786 0.075595 0.001216 68248.500000 0 0 1
17.755933 18.014622 -17.967313 31.026184 0.792630 2.188423 0.096914 -0.004531 -237361.000000 0 0 1
18.940033 18.761922 -17.882813 32.101862 0.780674 2.161643 0.105836 -0.006507 -133928.000000 0 0 1
18.740533 20.027122 -17.257313 32.405370 0.818573 2.132401 0.092805 -0.006503 -129101.000000 0 0 1
19.921133 21.015722 -17.421313 33.793701 0.812130 2.112410 0.116270 -0.018147 1113610.000000 0 0 1
21.107633 20.791822 -16.624813 33.973761 0.777861 2.082132 0.121180 -0.017267 666818.000000 0 0 1
20.947233 21.075822 -15.226313 33.388882 0.788458 2.044325 0.129048 -0.021434 -485828.000000 0 0 1
21.906833 22.196822 -14.706813 34.480408 0.791973 2.011445 0.119693 -0.020913 787683.000000 0 0 1
23.296333 21.873922 -14.728913 35.187049 0.753919 2.002687 0.122588 -0.029052 160070.000000 0 0 1
23.960633 22.884322 -14.004213 35.971129 0.762426 1.970688 0.098153 -0.031526 -715745.000000 0 0 1
25.471533 22.711722 -14.043413 36.903099 0.728183 1.961185 0.090549 -0.019955 -656976.000000 0 0 1
26.043633 22.871522 -15.311213 37.892091 0.720640 1.986763 0.105417 -0.014691 371803.000000 0 0 1
27.327333 23.497722 -15.213313 39.119956 0.710191 1.970221 0.100770 -0.006799 414800.000000 0 0 1
27.941033 23.793722 -16.589713 40.274819 0.705404 1.995349 0.115873 -0.014675 -401357.000000 0 0 1
28.629033 22.680922 -17.130913 40.342458 0.669988 2.009358 0.121310 -0.022169 -17798.800000 0 0 1
28.498333 22.621422 -18.513513 40.824427 0.670937 2.041475 0.119755 -0.018363 -596548.000000 0 0 1
29.350733 21.516822 -19.212513 41.152883 0.632593 2.056530 0.109780 -0.027344 441335.000000 0 0 1
30.632033 22.085322 -19.485213 42.494192 0.624673 2.047146 0.104446 -0.023714 -477606.000000 0 0 1
31.435133 21.103322 -20.076413 42.855339 0.591224 2.058354 0.130745 -0.026907 506215.000000 0 0 1
32.881933 21.687122 -20.273313 44.300790 0.583056 2.046123 0.129777 -0.022788 468466.000000 0 0 1
32.997633 22.603622 -21.336613 45.332312 0.600593 2.060848 0.106827 -0.016150 -138572.000000 0 0 1
34.342533 23.003422 -21.416813 46.553698 0.590185 2.048843 0.111547 -0.010013 -99566.700000 0 0 1
34.544433 24.502122 -21.898713 47.678354 0.616936 2.048004 0.104576 -0.010912 -113457.000000 0 0 1
34.601033 24.680822 -23.312413 48.475179 0.619595 2.072494 0.097034 -0.009835 325417.000000 0 0 1
33.374333 24.524922 -24.014913 47.875191 0.633730 2.096261 0.092009 -0.013962 -75600.000000 0 0 1
33.422033 24.895822 -25.503883 48.859823 0.640224 2.119968 0.097856 -0.023963 -266111.000000 0 0 1
33.285033 26.283822 -25.699213 49.590143 0.668404 2.115579 0.108528 -0.022076 50250.100000 0 0 1
31.982633 26.761622 -26.002523 49.144729 0.696754 2.128337 0.104201 -0.010367 253085.000000 0 0 1
31.483833 26.634022 -27.465203 49.547353 0.702143 2.158345 0.103625 -0.016898 -32206.800000 0 0 1
31.019433 25.337322 -27.824213 48.768554 0.684914 2.177955 0.093641 -0.027645 49384.500000 0 0 1
30.533633 25.163022 -29.115193 49.124076 0.689269 2.205187 0.091813 -0.039124 -73647.100000 0 0 1
29.787733 23.827622 -29.381723 48.149249 0.674688 2.227137 0.097971 -0.051296 -214830.000000 0 0 1
28.561933 23.678322 -28.732053 46.925236 0.692185 2.229755 0.085484 -0.040827 -400913.000000 0 0 1
27.869433 22.530122 -29.147373 46.193950 0.679852 2.253610 0.084397 -0.053127 -50532.600000 0 0 1
26.478933 22.461822 -28.461923 44.897086 0.703501 2.257430 0.070162 -0.038555 13275.700000 0 0 1
26.538333 22.240822 -27.079623 43.957289 0.697524 2.234507 0.087074 -0.025305 923862.000000 0 0 1
25.210833 22.350722 -26.551893 42.896898 0.725336 2.238227 0.086735 -0.031273 444596.000000 0 0 1
25.165833 22.487722 -25.068413 42.040957 0.729258 2.209662 0.099290 -0.024421 -217633.000000 0 0 1
25.503233 21.255822 -24.495613 41.258452 0.694811 2.206460 0.094565 -0.025927 314643.000000 0 0 1
25.685433 21.368522 -23.074513 40.605275 0.693910 2.175191 0.110833 -0.023591 -271089.000000 0 0 1
26.311433 20.089122 -22.546913 40.052810 0.652094 2.168722 0.119784 -0.018617 -158071.000000 0 0 1
27.626333 19.885222 -23.003513 41.082818 0.623886 2.165098 0.107347 -0.017640 120633.000000 0 0 1
28.409533 19.057122 -22.138413 40.747819 0.590859 2.145163 0.142170 -0.031776 -193730.000000 0 0 1
29.651733 18.525622 -22.799413 41.740114 0.558437 2.148645 0.161181 -0.040295 -685492.000000 0 0 1
30.652933 17.963222 -21.971313 41.773415 0.530076 2.124644 0.172383 -0.043592 -878481.000000 0 0 1
31.669233 17.626322 -22.831113 42.835584 0.507878 2.132932 0.157967 -0.041068 -1184170.000000 0 0 1
32.925433 17.195122 -22.060713 43.202215 0.481284 2.106724 0.144797 -0.035979 -179826.000000 0 0 1
33.621233 18.381722 -21.638313 44.005586 0.500329 2.084857 0.121698 -0.030658 524978.000000 0 0 1
34.973133 18.101322 -21.276213 44.759972 0.477611 2.066147 0.105618 -0.026484 795410.000000 0 0 1
35.746233 19.125022 -20.390213 45.379736 0.491271 2.036805 0.085402 -0.029416 -51639.600000 0 0 1
35.187533 19.394322 -19.153813 44.510344 0.503741 2.015647 0.109213 -0.025936 -313382.000000 0 0 1
36.019933 20.201322 -18.364413 45.197131 0.511126 1.989217 0.093009 -0.017074 -347520.000000 0 0 1
35.427233 20.539122 -17.008613 44.342274 0.525401 1.964461 0.085002 -0.020605 -109811.000000 0 0 1
35.434633 19.356622 -16.252213 43.525009 0.499969 1.953467 0.085611 -0.033310 356679.000000 0 0 1
34.928933 19.557022 -14.926613 42.723661 0.510419 1.927701 0.080354 -0.025171 -96306.100000 0 0 1
35.074533 18.210222 -14.123713 41.968015 0.478879 1.914031 0.086136 -0.016307 655085.000000 0 0 1
36.486033 17.898122 -14.045213 42.998155 0.456057 1.903550 0.060482 -0.015920 1172400.000000 0 0 1
36.789433 16.828422 -13.095513 42.522354 0.429012 1.883853 0.046029 -0.007827 -71196.300000 0 0 1
36.728533 17.059122 -11.570513 42.117402 0.434818 1.849095 0.048037 -0.017149 166235.000000 0 0 1
37.680433 18.026022 -11.102213 43.220500 0.446212 1.830582 0.042781 -0.020207 409062.000000 0 0 1
37.532833 18.421822 -9.739013 42.929307 0.456276 1.799650 0.046550 -0.018994 53340.100000 0 0 1
36.482533 19.567822 -9.472913 42.468941 0.492312 1.795744 0.048934 -0.015631 -419010.000000 0 0 1
35.178733 19.204422 -9.764613 41.251675 0.499698 1.809773 0.044077 -0.019357 -1513620.000000 0 0 1
34.331633 20.314122 -9.628513 41.036969 0.534296 1.807634 0.030041 -0.001260 512359.000000 0 0 1
32.896033 19.684622 -9.830913 39.576258 0.539234 1.821829 0.021731 0.000996 426377.000000 0 0 1
32.677933 19.348922 -11.184313 39.589354 0.534598 1.857204 0.057016 -0.008056 -170459.000000 0 0 1
31.369233 18.851222 -11.342613 38.315169 0.541115 1.871335 0.063766 -0.012014 107161.000000 0 0 1
31.237333 18.208522 -12.694313 38.320579 0.527758 1.908442 0.105126 -0.016258 147105.000000 0 0 1
32.127933 17.127922 -12.899113 38.625858 0.489788 1.911288 0.097509 -0.014539 115580.000000 0 0 1
31.695933 16.396422 -14.060213 38.355761 0.477395 1.946120 0.088737 -0.019829 122296.000000 0 0 1
32.794333 15.582022 -14.791013 39.205124 0.443566 1.957646 0.110156 -0.032443 -316098.000000 0 0 1
33.580633 14.828122 -13.926313 39.261613 0.415820 1.933395 0.094817 -0.031642 -464808.000000 0 0 1
34.539033 14.168222 -14.692113 40.119091 0.389276 1.945732 0.100746 -0.032908 -619442.000000 0 0 1
35.353833 13.110922 -13.961613 40.208412 0.355126 1.925413 0.071071 -0.044198 -1140300.000000 0 0 1
36.151933 13.714822 -13.038213 40.805068 0.362593 1.896024 0.068613 -0.024213 -576874.000000 0 0 1
36.842733 12.673422 -12.372913 40.878987 0.331308 1.878291 0.061199 -0.022898 111312.000000 0 0 1
37.858233 13.211122 -11.305913 41.660571 0.335751 1.845625 0.077769 -0.014644 484394.000000 0 0 1
-36.918706 13.700922 -11.862013 41.126798 -0.355356 1.863378 0.068556 -0.024122 -104760.000000 0 0 1
-35.974706 13.951722 -10.844413 40.080311 -0.369963 1.844778 0.073924 -0.018285 -168388.000000 0 0 1
-34.535006 14.188522 -11.399113 39.037425 -0.389820 1.867119 0.114413 -0.028195 587165.000000 0 0 1
-33.727006 13.092622 -11.829213 38.063867 -0.370288 1.886802 0.135242 -0.045390 367633.000000 0 0 1
-33.435806 12.162622 -10.802813 37.183105 -0.348881 1.865577 0.156950 -0.030225 -1085690.000000 0 0 1
-32.401506 11.125322 -11.221413 36.049279 -0.330746 1.887336 0.196502 -0.037010 -262598.000000 0 0 1
-32.671406 10.453222 -12.454013 36.493740 -0.309658 1.919058 0.176193 -0.028138 157694.000000 0 0 1
-31.723506 9.418422 -12.682613 35.439190 -0.288602 1.936782 0.233941 -0.030837 165651.000000 0 0 1
-31.825506 8.891322 -14.138713 35.941920 -0.272431 1.975098 0.229021 -0.034981 -298337.000000 0 0 1
-33.067306 8.339222 -14.450413 37.037870 -0.247038 1.971593 0.178076 -0.034255 -30281.100000 0 0 1
-32.865706 7.550022 -15.607613 37.158512 -0.225806 2.004272 0.187533 -0.042249 1284950.000000 0 0 1
-34.225706 6.934622 -16.169813 38.483123 -0.199908 2.004439 0.190778 -0.046322 1167980.000000 0 0 1
-34.804806 5.902722 -15.401813 38.515354 -0.167997 1.982191 0.197476 -0.037935 -17981.000000 0 0 1
-36.060906 5.501122 -15.873413 39.782113 -0.151384 1.981232 0.154561 -0.045999 -362415.000000 0 0 1
-36.802706 4.529022 -14.960313 39.984524 -0.122447 1.954279 0.166699 -0.048325 -405559.000000 0 0 1
37.920433 4.198322 -15.467213 41.168189 0.110265 1.955957 0.160360 -0.041512 386871.000000 0 0 1
37.071533 3.704122 -14.364313 39.929344 0.099588 1.938789 0.170599 -0.037971 1472840.000000 0 0 1
35.896933 2.773622 -14.862213 38.950842 0.077113 1.962283 0.176113 -0.038387 394345.000000 0 0 1
36.401333 1.485822 -15.209013 39.478839 0.040795 1.966269 0.177030 -0.042680 578650.000000 0 0 1
35.489333 0.377222 -15.087713 38.565193 0.010629 1.972760 0.152762 -0.027762 207832.000000 0 0 1
34.997333 0.084222 -13.680413 37.576244 0.002407 1.943431 0.160282 -0.038677 -153568.000000 0 0 1
36.069133 -0.314278 -12.824713 38.282560 -0.008713 1.912403 0.181594 -0.036521 509339.000000 0 0 1
35.935433 -0.223678 -11.464913 37.720678 -0.006224 1.879624 0.187331 -0.033096 -186823.000000 0 0 1
36.173833 1.250422 -10.867013 37.791556 0.034553 1.862466 0.182025 -0.046685 -181906.000000 0 0 1
35.070733 2.040522 -11.229313 36.881126 0.058118 1.880182 0.168046 -0.036725 281922.000000 0 0 1
35.072833 3.342422 -10.703613 36.821769 0.095013 1.865741 0.156056 -0.037028 -259385.000000 0 0 1
33.860733 4.159822 -11.218313 35.912447 0.122238 1.888493 0.138390 -0.029427 53647.400000 0 0 1
33.913533 4.549722 -12.565213 36.451505 0.133360 1.922727 0.149520 -0.036311 714324.000000 0 0 1
32.781233 5.390122 -12.786713 35.597228 0.162969 1.938213 0.138497 -0.035397 259239.000000 0 0 1
32.850033 6.244122 -14.120013 36.297224 0.187839 1.970354 0.097699 -0.033693 -129440.000000 0 0 1
32.710133 5.447722 -15.310113 36.524376 0.165031 2.003333 0.096146 -0.023050 172101.000000 0 0 1
32.995933 6.091222 -16.583013 37.427675 0.182550 2.029815 0.098364 -0.028386 -51166.400000 0 0 1
31.878133 7.101222 -17.066513 36.849811 0.219183 2.052328 0.122604 -0.035734 524855.000000 0 0 1
30.747333 6.554022 -17.697713 36.077177 0.210014 2.083519 0.097250 -0.023056 -65102.200000 0 0 1
29.788933 6.023722 -16.845613 34.748243 0.199523 2.076920 0.086955 -0.020467 -1043480.000000 0 0 1
28.366033 5.910822 -17.430913 33.814292 0.205437 2.112375 0.070741 -0.012684 -94167.000000 0 0 1
28.251333 4.819522 -18.374213 34.043755 0.168968 2.140905 0.084920 -0.014259 -753280.000000 0 0 1
27.171433 5.115122 -19.155713 33.636179 0.186076 2.176690 0.072589 -0.018482 -916583.000000 0 0 1
26.648833 3.858422 -19.943313 33.507961 0.143788 2.208288 0.085898 -0.000927 -44963.800000 0 0 1
26.003633 3.042722 -18.992013 32.344143 0.116482 2.198374 0.085873 -0.011736 -234971.000000 0 0 1
25.558233 1.870322 -19.545813 32.229802 0.073049 2.222386 0.089407 -0.008162 -405039.000000 0 0 1
24.405933 1.260522 -18.731013 30.791059 0.051602 2.224747 0.092484 -0.010912 -820955.000000 0 0 1
23.249533 2.018122 -18.824013 29.982612 0.086586 2.249560 0.089614 -0.022615 -751398.000000 0 0 1
22.242633 1.347322 -18.070013 28.689290 0.060500 2.252159 0.116735 -0.030961 114423.000000 0 0 1
20.962833 2.195922 -17.916913 27.663662 0.104372 2.275318 0.139889 -0.049293 -1131680.000000 0 0 1
20.274433 2.353222 -19.140013 27.980893 0.115551 2.324081 0.131746 -0.030102 1065830.000000 0 0 1
19.128733 3.268922 -19.075213 27.211358 0.169256 2.347598 0.131425 -0.027439 1477470.000000 0 0 1
17.865033 2.737122 -18.352213 25.757619 0.152029 2.363846 0.183982 -0.052869 -1338410.000000 0 0 1
18.129633 2.609122 -16.963413 24.964945 0.142933 2.317863 0.212242 -0.057793 -376902.000000 0 1 0
17.047033 2.076722 -16.243213 23.638021 0.121226 2.328375 0.179185 -0.043261 -425790.000000 0 1 0
15.929633 3.079222 -16.031513 22.808862 0.190946 2.350211 0.173014 -0.044480 -716320.000000 0 1 0
15.145433 3.373422 -17.193113 23.159603 0.219158 2.407405 0.152405 -0.038354 -323091.000000 0 1 0
14.194033 4.345422 -16.900013 22.493637 0.297084 2.420863 0.154580 -0.042145 -332810.000000 0 1 0
-20.411267 -21.491278 -17.655213 34.499295 0.811167 2.108024 0.143198 -0.024535 64991.100000 0 0 1
-20.530367 -22.299278 -18.760213 35.646870 0.826676 2.125015 0.135446 -0.027060 389789.000000 0 0 1
-21.737567 -22.035778 -19.467013 36.565857 0.792211 2.132209 0.145918 -0.022632 209107.000000 0 0 1
-21.858267 -22.892978 -20.755513 37.850543 0.808515 2.151191 0.127880 -0.021529 13032.000000 0 0 1
-21.918367 -24.289878 -20.490713 38.604175 0.836675 2.130329 0.098053 -0.025010 267283.000000 0 0 1
-20.831367 -24.924378 -21.149413 38.761684 0.874614 2.147933 0.090440 -0.026453 191254.000000 0 0 1
-20.649367 -26.442068 -20.943813 39.550254 0.907793 2.128866 0.085737 -0.011426 -461296.000000 0 0 1
-21.781367 -27.130658 -21.378313 40.835436 0.894331 2.121778 0.108428 -0.001445 -356115.000000 0 0 1
-21.691467 -28.539578 -21.246813 41.670785 0.920895 2.105834 0.104728 -0.025863 -292719.000000 0 0 1
-23.083067 -29.214578 -21.360113 42.925214 0.902108 2.091640 0.102363 -0.024555 341900.000000 0 0 1
-23.777967 -28.963258 -22.564713 43.742751 0.883399 2.112796 0.091090 -0.020561 180949.000000 0 0 1
-23.224367 -29.649008 -23.712613 44.505313 0.906315 2.132707 0.079099 -0.017473 -325579.000000 0 0 1
-23.848867 -29.030318 -24.970613 45.111632 0.883073 2.157392 0.074510 -0.009896 8830.070000 0 0 1
-25.180647 -29.374678 -25.307053 46.231846 0.862124 2.150044 0.081180 -0.006651 313846.000000 0 0 1
-25.673387 -28.549508 -26.340233 46.561841 0.838391 2.172083 0.077328 -0.003156 -106334.000000 0 0 1
-25.057497 -28.803308 -27.732283 47.186738 0.854832 2.199026 0.088625 -0.018885 -163197.000000 0 0 1
-25.597727 -29.997228 -28.368903 48.578513 0.864368 2.194420 0.067803 -0.011984 286823.000000 0 0 1
-25.409337 -30.102008 -29.738833 49.357507 0.869733 2.217450 0.107698 -0.019788 54731.600000 0 0 1
-26.082107 -31.347878 -30.384113 50.854302 0.876833 2.211143 0.071148 -0.020564 -728520.000000 0 0 1
-25.452677 -32.556068 -30.017473 51.076266 0.907245 2.199008 0.080263 -0.023973 444820.000000 0 0 1
-26.210017 -33.673898 -30.526533 52.466805 0.909398 2.191768 0.077914 -0.023803 -129042.000000 0 0 1
-25.408237 32.581213 -30.546133 51.382684 -0.908468 2.207419 0.078471 -0.021132 100078.000000 0 0 1
-24.402167 32.717244 -31.546523 51.585530 -0.929956 2.228800 0.104358 -0.034772 289142.000000 0 0 1
-23.457667 31.651116 -31.405753 50.382305 -0.932995 2.243815 0.110930 -0.024928 -337312.000000 0 0 1
-22.231167 31.788758 -32.269703 50.458732 -0.960513 2.264679 0.103430 -0.024462 -563368.000000 0 0 1
-22.546767 31.307633 -33.554523 51.131503 -0.946662 2.286621 0.092472 -0.016133 104637.000000 0 0 1
-21.889067 30.104413 33.614014 50.152855 -0.942110 0.836276 0.076590 -0.005001 -283086.000000 0 0 1
-21.998067 29.537133 32.212451 48.928511 -0.930657 0.852162 0.064125 -0.004346 93553.500000 0 0 1
-21.221167 30.355213 31.342498 48.519368 -0.960678 0.868491 0.061298 -0.012690 429193.000000 0 0 1
-21.470067 30.066463 29.985514 47.582424 -0.950679 0.889011 0.077682 -0.014747 -164780.000000 0 0 1
-20.853567 31.171103 29.120304 47.481586 -0.981178 0.910569 0.089198 -0.030328 -41731.900000 0 0 1
-21.651067 32.343341 29.042904 48.562853 -0.980895 0.929733 0.091713 -0.025849 257569.000000 0 0 1
-20.982767 33.465382 28.473464 48.692366 -1.010761 0.946209 0.099254 -0.039885 798713.000000 0 0 1
-22.033667 -32.896028 28.388964 48.719241 0.980630 0.948743 0.116197 -0.045843 647465.000000 0 0 1
-22.217167 -32.348568 29.673934 49.199336 0.968981 0.923368 0.096036 -0.032654 -96715.600000 0 0 1
-23.550767 -31.942098 29.898704 49.687712 0.935476 0.925128 0.115150 -0.036074 -110963.000000 0 0 1
-23.877467 -30.531228 29.419834 48.660209 0.907086 0.921536 0.122332 -0.029568 -634477.000000 0 0 1
-23.789767 -30.417178 28.007204 47.702843 0.907056 0.943302 0.095712 -0.024243 -15961.800000 0 0 1
-23.855167 -29.054198 27.586604 46.628705 0.883347 0.937726 0.089492 -0.027724 1357840.000000 0 0 1
-25.332817 -28.644638 27.117524 46.878855 0.846677 0.953957 0.090335 -0.012167 -63613.500000 0 0 1
-26.268587 -28.530028 28.162094 47.928120 0.826643 0.942719 0.107943 -0.009357 -69921.500000 0 0 1
-27.181257 -29.595918 28.220224 49.103158 0.827901 0.958543 0.093495 -0.021225 -220213.000000 0 0 1
-28.212427 -29.714848 27.050424 49.098255 0.811329 0.987301 0.061228 0.003038 -1086700.000000 0 0 1
-27.605847 -29.836518 25.769044 48.128414 0.824212 1.005788 0.063145 -0.007180 -433523.000000 0 0 1
-28.454817 -29.607458 24.688784 47.914656 0.805247 1.029479 0.053127 -0.010896 -513503.000000 0 0 1
-27.642827 -29.782508 23.363324 46.871831 0.822641 1.048985 0.042242 -0.011051 -449833.000000 0 0 1
-26.771687 -28.693178 23.150504 45.562787 0.820028 1.037818 0.031171 -0.017128 295301.000000 0 0 1
-26.140047 -28.679788 21.878754 44.547864 0.831694 1.057411 0.052039 -0.025690 533347.000000 0 0 1
-24.892567 -29.621018 21.692354 44.357669 0.871921 1.059816 0.062641 -0.033110 -384782.000000 0 0 1
-25.116677 -30.964898 21.351854 45.228023 0.889303 1.079132 0.068196 -0.036066 114771.000000 0 0 1
-23.942167 -31.619408 20.936854 44.848257 0.922704 1.085085 0.065971 -0.023494 341772.000000 0 0 1
-23.012467 -32.275138 22.020054 45.344690 0.951393 1.063730 0.078946 -0.029345 257055.000000 0 0 1
-22.399167 -31.375278 22.943294 44.861180 0.950795 1.033950 0.096348 -0.042575 183133.000000 0 0 1
-21.731467 -32.044078 23.968274 45.536334 0.974869 1.016488 0.106625 -0.049999 -352615.000000 0 0 1
-20.875767 -31.239118 24.944064 45.098630 0.981693 0.984715 0.113662 -0.037147 -661530.000000 0 0 1
-19.796367 -30.513378 24.393784 43.795195 0.995282 0.980031 0.118909 -0.040646 25307.900000 0 0 1
-19.193767 -29.785428 25.432954 43.616597 0.998367 0.948254 0.122450 -0.037723 132402.000000 0 0 1
-18.037667 -30.472358 26.230734 44.067828 1.036328 0.933238 0.108098 -0.045789 -507925.000000 0 0 1
-18.415067 -31.685498 26.876204 45.446846 1.044328 0.938031 0.132698 -0.047534 30239.800000 0 0 1
-17.824667 -31.990948 28.132624 46.179909 1.062459 0.915750 0.134216 -0.036316 -540357.000000 0 0 1
-18.296567 -31.194038 29.399744 46.606623 1.040332 0.888205 0.147540 -0.035147 -58153.800000 0 0 1
-17.784367 -29.874958 29.533614 45.618321 1.033845 0.866619 0.141640 -0.032067 320403.000000 0 0 1
-18.178367 -29.303528 30.778094 46.221649 1.015550 0.842123 0.129152 -0.028712 -179825.000000 0 0 1
-18.088267 -27.764328 30.787034 45.231458 0.993372 0.822140 0.124715 -0.030882 198040.000000 0 0 1
-19.013967 -26.976558 30.025584 44.618396 0.956834 0.832618 0.114675 -0.027942 388655.000000 0 0 1
-19.036967 -27.246068 28.563724 43.825114 0.960940 0.860886 0.118244 -0.019711 675021.000000 0 0 1
-17.678867 -26.909898 27.819544 42.551286 0.989540 0.858216 0.108919 -0.020430 796448.000000 0 0 1
-17.408367 -25.483678 27.827794 41.555447 0.971490 0.837053 0.094700 -0.012846 194146.000000 0 0 1
-16.410867 -25.141758 26.878244 40.297203 0.992502 0.840621 0.082463 -0.013059 -9562.440000 0 0 1
-16.628467 -23.720078 26.271194 39.106568 0.959380 0.834181 0.061380 -0.011490 15853.400000 0 0 1
-17.700167 -23.685878 25.328894 38.934170 0.929033 0.862479 0.083629 -0.018756 368645.000000 0 0 1
-17.577567 -22.700178 24.363534 37.654359 0.911901 0.867112 0.078605 -0.029460 -159521.000000 0 0 1
-18.042367 -21.278578 24.794664 37.323990 0.867516 0.844227 0.069303 -0.020796 -516092.000000 0 0 1
-17.727467 -20.283978 23.889274 36.005559 0.852553 0.845325 0.073441 -0.022169 260006.000000 0 0 1
-18.277367 -19.033278 24.362324 35.914491 0.805655 0.825292 0.066401 -0.009034 118207.000000 0 0 1
-17.822767 -17.839778 23.512964 34.478517 0.785875 0.820357 0.069335 -0.024836 -1080490.000000 0 0 1
-16.498267 -17.533578 23.677914 33.767777 0.815811 0.793719 0.079135 -0.028811 -1377340.000000 0 0 1
-16.084467 -16.513578 22.774364 32.404938 0.798561 0.791463 0.089290 -0.030866 -436723.000000 0 0 1
-14.736367 -15.958578 23.218084 31.794907 0.825195 0.752115 0.118549 -0.041533 -777985.000000 0 0 1
-13.692467 -16.918778 23.036044 31.692081 0.890407 0.757042 0.096848 -0.033130 620436.000000 0 0 1
-12.430067 -16.262778 23.221544 30.955203 0.918189 0.722483 0.103258 -0.043736 498301.000000 0 0 1
-11.793067 -15.485178 21.967954 29.350607 0.919931 0.725049 0.125036 -0.051178 -255540.000000 0 0 1
-11.416367 -16.350978 20.902154 28.889236 0.961275 0.761898 0.154451 -0.051237 902313.000000 0 0 1
-10.073267 -16.846778 21.108854 28.824787 1.031897 0.749079 0.139272 -0.051310 687521.000000 0 0 1
-9.783967 -18.211578 20.411754 29.052147 1.077803 0.791765 0.134039 -0.043930 -40988.400000 0 0 1
-9.504467 -18.024678 19.046754 27.892700 1.085546 0.819129 0.125445 -0.043012 -183221.000000 0 0 1
-8.996767 -19.193478 18.458554 28.107821 1.132467 0.854355 0.124616 -0.038832 155478.000000 0 0 1
-8.613767 -19.029278 16.976454 26.916731 1.145734 0.888338 0.117272 -0.047151 -33426.800000 0 0 1
-7.551267 -18.127278 16.820354 25.856221 1.176088 0.862509 0.116533 -0.041632 -529785.000000 0 0 1
-7.177267 -17.927378 15.454454 24.733463 1.189986 0.895870 0.124580 -0.034928 304403.000000 0 1 0
-6.022367 -16.955978 15.104854 23.493205 1.229517 0.872458 0.097269 -0.035838 168359.000000 0 1 0
-6.360167 -15.715178 15.619154 23.051605 1.186232 0.826338 0.104403 -0.039760 -454640.000000 0 1 0
-5.276167 -14.857878 15.598854 22.179241 1.229577 0.790755 0.071065 -0.020348 -412519.000000 0 1 0
-5.652867 -13.631578 16.494854 22.132669 1.177691 0.729854 0.063339 -0.020023 83718.700000 0 1 0
-5.390967 -13.806278 17.893254 23.234551 1.198530 0.691776 0.087351 -0.023150 -276433.000000 0 1 0
-6.164167 -14.769878 18.605454 24.541988 1.175425 0.710391 0.119534 -0.038625 514355.000000 0 1 0
-7.517967 -14.186578 19.118554 24.965935 1.083488 0.698534 0.145198 -0.050638 200795.000000 0 1 0
-7.315367 -13.181778 20.088254 25.115967 1.064153 0.643801 0.135690 -0.053922 638831.000000 0 0 1
-8.519767 -12.800878 20.799954 25.866716 0.983559 0.636602 0.128694 -0.043126 856717.000000 0 0 1
-8.282267 -11.911078 21.987554 26.342404 0.963204 0.583240 0.129793 -0.033168 -389574.000000 0 0 1
-7.701067 -10.700578 21.507254 25.226390 0.946979 0.549914 0.100030 -0.029454 241122.000000 0 0 1
-7.239467 -9.911978 22.601174 25.719064 0.939974 0.497515 0.093180 -0.031752 -210279.000000 0 0 1
-5.831067 -10.187978 23.131314 25.939428 1.050958 0.469613 0.098838 -0.029895 -457421.000000 0 0 1
-5.767867 -11.385678 23.870124 27.068150 1.101891 0.491019 0.120906 -0.030453 -886746.000000 0 0 1
-4.462867 -11.514878 24.301364 27.259235 1.201048 0.470171 0.098716 -0.026108 -895285.000000 0 0 1
-4.347567 -12.859378 25.003984 28.451083 1.244775 0.497368 0.115316 -0.033422 -81223.800000 0 0 1
-3.038167 -13.083378 25.501924 28.822792 1.342624 0.484768 0.094030 -0.032353 189719.000000 0 0 1
-2.876967 -14.293578 26.229964 30.009903 1.372173 0.507333 0.102349 -0.029089 59721.500000 0 0 1
-2.469567 -15.590278 25.433254 29.933358 1.413697 0.555451 0.126563 -0.058654 260709.000000 0 0 1
-1.117467 -15.807678 25.059984 29.650197 1.500222 0.563880 0.119009 -0.058966 -76534.500000 0 0 1
-1.022767 -17.082078 24.440114 29.835593 1.510994 0.610852 0.137671 -0.058864 -523589.000000 0 0 1
0.348633 -17.794478 24.301134 30.121588 -1.551207 0.632135 0.134577 -0.060746 407565.000000 0 0 1
0.954433 -18.280078 25.492604 31.383834 -1.518632 0.622738 0.140708 -0.060155 45698.400000 0 0 1
1.107133 -17.359778 26.589274 31.773843 -1.507107 0.579331 0.135958 -0.061325 -784268.000000 0 0 1
2.090433 -17.875978 27.672314 33.010263 -1.454384 0.576649 0.110585 -0.046748 802719.000000 0 0 1
3.424933 -18.141878 27.158414 32.839570 -1.384206 0.597041 0.120807 -0.053351 1092940.000000 0 0 1
4.375133 -18.314278 28.208534 33.915718 -1.336299 0.588590 0.142751 -0.058015 589487.000000 0 0 1
5.034833 -16.988178 28.688734 33.719300 -1.282671 0.553271 0.139766 -0.058024 -668065.000000 0 0 1
4.063433 -16.200378 29.320304 33.743799 -1.325043 0.517802 0.155684 -0.064573 -37112.400000 0 0 1
4.675533 -15.134178 29.981924 33.908991 -1.271159 0.486043 0.181418 -0.074466 175825.000000 0 0 1
3.622033 -14.255078 30.700884 34.042189 -1.321975 0.446768 0.187551 -0.072589 494274.000000 0 0 1
2.895633 -14.869678 31.754819 35.183242 -1.378469 0.445129 0.186877 -0.077141 -111959.000000 0 0 1
1.769433 -14.105578 32.116273 35.121976 -1.446006 0.416721 0.186532 -0.069541 -290739.000000 0 0 1
0.967833 -14.886378 33.149673 36.351640 -1.505873 0.422865 0.177286 -0.064007 160678.000000 0 0 1
1.671633 -14.924878 -32.980193 36.238646 -1.459258 2.714282 0.198865 -0.063184 180508.000000 0 0 1
0.847533 -15.408078 -31.932383 35.465536 -1.515846 2.691433 0.164432 -0.066161 2176.390000 0 0 1
1.620733 -15.376878 -30.603673 34.287898 -1.465783 2.673766 0.169065 -0.049660 37708.000000 0 0 1
1.056433 -16.116578 -29.533753 33.661591 -1.505341 2.641155 0.131196 -0.041455 -817517.000000 0 0 1
1.752133 -15.915478 -28.350213 32.559284 -1.461148 2.627473 0.143533 -0.035276 -116001.000000 0 0 1
1.577233 -17.224878 -27.462063 32.455338 -1.479484 2.579514 0.125275 -0.034922 -394246.000000 0 0 1
2.429033 -18.230778 -27.855983 33.379893 -1.438338 2.558046 0.119983 -0.029207 -429238.000000 0 0 1
2.250633 -19.446678 -27.085033 33.419121 -1.455575 2.515742 0.098605 -0.040185 -554060.000000 0 0 1
3.216133 -20.667578 -27.357923 34.437599 -1.416422 2.488849 0.081793 -0.033914 774769.000000 0 0 1
4.598333 -20.495678 -27.052933 34.250236 -1.350095 2.481379 0.097692 -0.025795 489640.000000 0 0 1
4.877833 -20.283678 -25.674963 33.082088 -1.334797 2.459252 0.114636 -0.022741 -1740940.000000 0 0 1
6.215733 -20.842978 -25.203463 33.290833 -1.280976 2.429612 0.089963 -0.021582 -544218.000000 0 0 1
6.296133 -22.269178 -25.231983 34.237560 -1.295259 2.399370 0.093671 -0.020914 278017.000000 0 0 1
6.649733 -22.677778 -26.536343 35.534181 -1.285565 2.414009 0.080610 -0.023662 -1034370.000000 0 0 1
5.956433 -23.896278 -27.070373 36.596670 -1.326512 2.403413 0.070431 -0.022876 -386077.000000 0 0 1
6.392833 -25.110518 -26.466183 37.038699 -1.321504 2.366784 0.089455 -0.015804 148643.000000 0 0 1
5.710033 -26.261618 -26.946423 38.057677 -1.356700 2.357518 0.095328 -0.021911 54064.200000 0 0 1
5.958233 -27.531138 -26.095273 38.398273 -1.357665 2.318007 0.118974 -0.029795 -329675.000000 0 0 1
7.301333 -27.890938 -25.942853 38.784604 -1.314760 2.303518 0.135172 -0.035783 -439313.000000 0 0 1
7.457933 -29.092048 -25.187793 39.196848 -1.319844 2.268680 0.139774 -0.045611 -261644.000000 0 0 1
8.926633 -29.517088 -25.207293 39.829020 -1.277119 2.256073 0.133542 -0.048143 -435560.000000 0 0 1
9.469733 -29.816388 -26.458853 40.972719 -1.263271 2.272824 0.141502 -0.047995 82036.300000 0 0 1
10.859533 -30.059248 -26.314753 41.399928 -1.224116 2.259612 0.175151 -0.041145 59811.300000 0 0 1
11.586833 -30.076358 -27.630313 42.453223 -1.203072 2.279488 0.168753 -0.054559 -157979.000000 0 0 1
11.225033 -31.182388 -28.436033 43.668646 -1.225259 2.279931 0.187002 -0.065188 -51205.900000 0 0 1
11.893133 -31.094438 -29.657403 44.585561 -1.205480 2.298531 0.175388 -0.032243 -49214.400000 0 0 1
-35.390288 -5.303678 -4.907013 36.120358 0.148755 1.707069 0.271789 -0.051116 267306.000000 0 0 1
-34.793514 -4.408178 -3.969513 35.295576 0.126024 1.683500 0.249810 -0.063901 286437.000000 0 0 1
-34.111478 -3.242078 -4.491613 34.558336 0.094759 1.701137 0.251039 -0.066164 104393.000000 0 0 1
-34.925218 -2.122978 -5.248113 35.381077 0.060712 1.719677 0.252965 -0.049363 -326142.000000 0 0 1
-35.813867 -1.470978 -4.382213 36.110949 0.041050 1.692450 0.181483 -0.040770 -299984.000000 0 0 1
-36.734547 -0.752878 -5.177413 37.105247 0.020492 1.710786 0.165150 -0.042914 513469.000000 0 0 1
-37.933047 -0.182678 -4.355213 38.182683 0.004816 1.685108 0.166340 -0.035257 342866.000000 0 0 1
-37.398057 0.667722 -3.386913 37.557046 -0.017853 1.661099 0.151597 -0.024471 163503.000000 0 0 1
37.602252 1.202922 -2.505013 37.704794 0.031980 1.637283 0.147240 -0.016588 -469700.000000 0 0 1
-37.752277 2.181922 -1.462913 37.843564 -0.057732 1.609463 0.134618 -0.010708 234906.000000 0 0 1
-37.111317 3.295522 -2.044013 37.313380 -0.088569 1.625603 0.157772 -0.034967 179548.000000 0 0 1
-35.875001 2.994522 -2.669613 36.098611 -0.083278 1.644817 0.116407 -0.002250 -1197220.000000 0 0 1
-35.152319 4.314422 -3.022113 35.544802 -0.122124 1.655922 0.101649 -0.001435 -493508.000000 0 0 1
-34.699653 4.873622 -1.799113 35.086392 -0.139539 1.622095 0.118136 -0.014374 106420.000000 0 0 1
-34.188253 6.158822 -2.075913 34.800534 -0.178233 1.630484 0.157756 -0.035564 -429714.000000 0 0 1
-33.830987 6.914622 -0.777413 34.539138 -0.201610 1.593306 0.194193 -0.045002 6688.800000 0 0 1
-32.540637 6.477122 -0.339113 33.180735 -0.196479 1.581017 0.224558 -0.035625 600173.000000 0 0 1
-32.052627 6.997322 0.887087 32.819512 -0.214935 1.543764 0.262435 -0.046193 82758.500000 0 0 1
-31.933217 8.502922 1.085987 33.063717 -0.260234 1.537945 0.288950 -0.057788 458689.000000 0 0 1
-33.219567 9.150622 1.224687 34.478593 -0.268793 1.535269 0.242925 -0.054623 1026150.000000 0 0 1
-33.071227 10.553922 1.511887 34.747333 -0.308911 1.527272 0.265646 -0.044275 -292478.000000 0 0 1
-34.430974 11.247322 1.565787 36.255288 -0.315735 1.527595 0.238734 -0.054538 -830958.000000 0 0 1
-34.924118 11.621222 0.265187 36.807840 -0.321231 1.563592 0.197777 -0.050645 442691.000000 0 0 1
-36.082167 12.426722 0.291787 38.163220 -0.331678 1.563150 0.180322 -0.040780 -346362.000000 0 0 1
-37.437527 11.783922 0.565387 39.252375 -0.304945 1.556392 0.180793 -0.053619 -802284.000000 0 0 1
-37.941927 10.910122 -0.465813 39.482117 -0.279994 1.582595 0.175835 -0.042725 -274566.000000 0 0 1
36.776912 10.481322 -0.065113 38.241386 0.277637 1.572499 0.162295 -0.051289 -289270.000000 0 0 1
36.085972 9.431822 -0.969513 37.310811 0.255652 1.596784 0.150140 -0.033552 168585.000000 0 0 1
35.753962 9.897022 -2.254413 37.166910 0.270047 1.631490 0.144988 -0.027482 67369.400000 0 0 1
35.416742 8.804922 -3.065013 36.623306 0.243669 1.654585 0.140116 -0.036406 -77896.500000 0 0 1
34.920222 9.046122 -4.552913 36.359087 0.253479 1.696347 0.109214 -0.021354 1282710.000000 0 0 1
33.528472 9.458622 -4.506213 35.127338 0.274962 1.699433 0.153833 -0.023257 1339310.000000 0 0 1
33.080092 9.841422 -5.820013 35.000266 0.289164 1.737857 0.126059 -0.006492 244624.000000 0 0 1
31.586422 10.270522 -5.862413 33.727638 0.314373 1.745500 0.179105 -0.017986 737638.000000 0 0 1
30.639772 9.196322 -5.827513 32.516578 0.291588 1.750986 0.221759 -0.004699 680772.000000 0 0 1
29.321172 9.521522 -6.192413 31.444180 0.313989 1.769026 0.253485 -0.009517 -298324.000000 0 0 1
28.391172 8.311922 -6.215813 30.228844 0.284805 1.777899 0.284746 0.001918 -248809.000000 0 0 1
28.712272 7.280022 -7.235413 30.491711 0.248318 1.810373 0.262823 -0.000180 773339.000000 0 0 1
27.635572 6.356922 -7.280613 29.276998 0.226094 1.822114 0.316851 -0.000442 99303.300000 0 0 1
27.719672 5.324022 -8.436013 29.460002 0.189756 1.861216 0.293444 -0.023330 -238980.000000 0 0 1
28.800372 4.470822 -8.174613 30.270017 0.154006 1.844248 0.270188 -0.025035 122055.000000 0 0 1
28.990672 3.558522 -9.188813 30.619543 0.122136 1.875590 0.244989 -0.022899 -493504.000000 0 0 1
29.963372 2.435722 -8.744113 31.308080 0.081112 1.853854 0.196281 -0.021501 -555698.000000 0 0 1
31.261752 2.827422 -9.119713 32.687316 0.090198 1.853547 0.167737 -0.013271 819885.000000 0 0 1
32.353982 2.367722 -8.276113 33.479550 0.073052 1.820585 0.146557 -0.016217 928700.000000 0 0 1
32.755842 0.880122 -8.025113 33.736067 0.026863 1.810978 0.134679 -0.024722 -368605.000000 0 0 1
31.699992 0.238822 -7.309713 32.532728 0.007534 1.797419 0.186847 -0.027292 475554.000000 0 0 1
31.899382 -1.117078 -6.917713 32.659963 -0.035004 1.784223 0.199636 -0.033949 107507.000000 0 0 1
31.431492 -2.161778 -8.016713 32.509685 -0.068669 1.819961 0.182238 -0.030530 113047.000000 0 0 1
32.342122 -2.099978 -9.080613 33.658287 -0.064839 1.843970 0.155006 -0.023389 306893.000000 0 0 1
32.134032 -3.308978 -9.818813 33.763211 -0.102613 1.865874 0.128751 -0.031934 398277.000000 0 0 1
33.211892 -3.470478 -10.975013 35.150034 -0.104117 1.888339 0.143132 -0.028215 -466528.000000 0 0 1
34.459392 -3.702878 -10.420413 36.190413 -0.107046 1.862864 0.182071 -0.022625 -793522.000000 0 0 1
35.330912 -3.968378 -11.515113 37.371368 -0.111851 1.884020 0.181971 -0.035320 6547.200000 0 0 1
36.745812 -4.428378 -11.085513 38.636172 -0.119935 1.861807 0.235557 -0.038357 -134529.000000 0 0 1
36.728192 -5.566078 -10.248913 38.535458 -0.150403 1.839997 0.236351 -0.048054 597685.000000 0 0 1
-37.992997 -5.897978 -9.683213 39.648690 0.154009 1.817517 0.257056 -0.044884 310969.000000 0 0 1
37.939472 -7.089778 -8.706413 39.566022 -0.184740 1.792660 0.267528 -0.054551 -76041.300000 0 0 1
37.144332 -6.978578 -7.541913 38.539362 -0.185712 1.767761 0.277379 -0.051034 405850.000000 0 0 1
37.096372 -8.279478 -6.988413 38.646196 -0.219589 1.752627 0.291977 -0.049953 -134585.000000 0 0 1
36.532592 -8.352478 -5.522313 37.879943 -0.224768 1.717102 0.294091 -0.049714 -183658.000000 0 0 1
37.378152 -7.713478 -4.557213 38.436859 -0.203507 1.689639 0.314855 -0.051535 747552.000000 0 0 1
-37.913467 -8.577778 -3.673713 39.044916 0.222500 1.665025 0.329031 -0.057662 841497.000000 0 0 1
-36.659967 -9.398478 -4.186913 38.076434 0.250964 1.680980 0.302122 -0.059686 453092.000000 0 0 1
-37.142007 -10.393678 -5.046513 38.897616 0.272857 1.700901 0.302729 -0.060200 -220944.000000 0 0 1
-36.074207 -10.918378 -5.749713 38.126350 0.293899 1.722181 0.238991 -0.053345 -618502.000000 0 0 1
-36.438327 -11.606678 -7.086213 38.893201 0.308368 1.754016 0.259023 -0.057497 -472266.000000 0 0 1
-37.031317 -10.727478 -7.999013 39.374883 0.281968 1.775370 0.221575 -0.061719 197700.000000 0 0 1
-37.614757 -11.514478 -9.035813 40.362099 0.297058 1.796578 0.226281 -0.056785 49581.800000 0 0 1
-37.699847 -10.788278 -10.411913 40.571829 0.278714 1.830329 0.208667 -0.055505 211940.000000 0 0 1
37.225082 -9.839478 -10.505113 39.910894 -0.258414 1.837149 0.200253 -0.057313 473111.000000 0 0 1
37.264572 -9.282778 -11.807813 40.177640 -0.244136 1.869091 0.178890 -0.056402 -961384.000000 0 0 1
35.987152 -8.606278 -12.216313 38.966414 -0.234740 1.889682 0.179217 -0.048297 -1046330.000000 0 0 1
36.074132 -7.911578 -13.414913 39.292441 -0.215896 1.919215 0.174152 -0.039455 728183.000000 0 0 1
34.884512 -7.183378 -13.709013 38.163688 -0.203080 1.938224 0.134049 -0.035651 157973.000000 0 0 1
35.116692 -6.258678 -14.896713 38.655726 -0.176373 1.966404 0.132179 -0.033138 -34206.500000 0 0 1
35.889712 -5.120878 -14.546213 39.062605 -0.141727 1.952371 0.139082 -0.017213 311955.000000 0 0 1
36.230362 -4.391678 -15.680213 39.721468 -0.120627 1.976597 0.154530 -0.025724 -1164000.000000 0 0 1
37.485802 -3.604278 -15.489413 40.719750 -0.095856 1.961015 0.170749 -0.022926 -1672160.000000 0 0 1
-37.992927 -3.387878 -16.767413 41.666370 0.088936 1.984956 0.168465 -0.023983 1362410.000000 0 0 1
-36.594677 -2.963578 -16.816013 40.382316 0.080808 2.000301 0.202973 -0.030026 1484900.000000 0 0 1
-36.346487 -1.527778 -16.208613 39.826127 0.042009 1.989947 0.192637 -0.032452 -652944.000000 0 0 1
-36.739457 -0.502878 -17.115913 40.533876 0.013687 2.006736 0.158764 -0.030225 142712.000000 0 0 1
-36.491447 0.804822 -16.604113 40.099501 -0.022052 1.997720 0.161702 -0.034267 7473.820000 0 0 1
-36.780687 1.951922 -17.585313 40.815097 -0.053019 2.016234 0.137379 -0.038590 6763.410000 0 0 1
-35.971777 1.941422 -18.749613 40.611400 -0.053918 2.050688 0.122033 -0.033428 97724.000000 0 0 1
-35.800531 3.294922 -19.113913 40.717026 -0.091777 2.059445 0.109269 -0.019309 -54130.900000 0 0 1
-34.958314 3.518222 -20.391713 40.623682 -0.100303 2.096667 0.101529 -0.014706 1493300.000000 0 0 1
-33.552317 3.870922 -20.198113 39.353599 -0.114862 2.109760 0.108333 -0.015496 1538520.000000 0 0 1
-32.980987 4.054622 -21.470613 39.562263 -0.122324 2.144450 0.104680 -0.012819 -24907.200000 0 0 1
-31.524197 4.572122 -21.350313 38.347297 -0.144031 2.161279 0.121038 -0.012078 506128.000000 0 0 1
-30.677137 3.797122 -20.511113 37.097313 -0.123151 2.156637 0.125786 -0.005149 425772.000000 0 0 1
-29.377377 3.610422 -21.044013 36.316882 -0.122285 2.188857 0.096170 -0.004965 412921.000000 0 0 1
-28.446357 2.540722 -20.382613 35.087055 -0.089080 2.190649 0.128059 -0.013316 202393.000000 0 0 1
-27.882877 3.162122 -19.225713 34.015906 -0.112925 2.171469 0.116194 -0.006327 -4660.690000 0 0 1
-27.485007 2.136422 -18.312013 33.095615 -0.077574 2.157125 0.111774 -0.008454 -176538.000000 0 0 1
-26.700077 2.698222 -17.082013 31.811471 -0.100715 2.137645 0.091851 -0.011368 249455.000000 0 0 1
-25.436657 3.238022 -17.446613 31.014394 -0.126616 2.168242 0.090982 -0.013896 389751.000000 0 0 1
-24.695267 3.544022 -16.256813 29.777513 -0.142537 2.148310 0.098972 -0.023032 238955.000000 0 0 1
-23.495067 4.530122 -16.460113 29.042650 -0.190474 2.173360 0.126075 -0.027191 335523.000000 0 0 1
-22.352967 3.772522 -16.821913 28.228776 -0.167195 2.209199 0.148037 -0.035645 -181646.000000 0 0 1
-21.249667 4.636422 -16.869313 27.524870 -0.214821 2.230491 0.143675 -0.038751 216611.000000 0 0 1
-19.894267 4.060322 -17.416513 26.750757 -0.201330 2.279785 0.205737 -0.049044 432590.000000 0 0 1
-19.493867 3.054722 -16.530513 25.741018 -0.155438 2.268142 0.252538 -0.050480 -301689.000000 0 0 1
-18.425367 2.323222 -17.051613 25.212081 -0.125426 2.313561 0.190673 -0.053367 -803366.000000 0 0 1
-18.355067 0.905122 -16.403013 24.633038 -0.049272 2.299489 0.234813 -0.052617 -34454.200000 0 1 0
-19.217367 -0.122978 -16.832713 25.547261 0.006399 2.290132 0.170986 -0.038289 651730.000000 0 0 1
-20.585167 0.104922 -16.458313 26.355951 -0.005097 2.245240 0.184835 -0.041879 434519.000000 0 0 1
-21.574467 -0.974578 -17.003413 27.486787 0.045142 2.237760 0.160462 -0.046424 -33730.200000 0 0 1
-21.462567 -2.231878 -16.375213 27.088201 0.103617 2.219953 0.163660 -0.041364 325882.000000 0 0 1
-22.287967 -3.228478 -16.929913 28.174430 0.143852 2.215418 0.141675 -0.029349 -187861.000000 0 0 1
-22.484267 -4.462278 -16.026513 27.969685 0.195917 2.180953 0.152561 -0.033171 -163029.000000 0 0 1
-23.184467 -4.015678 -14.880213 27.840006 0.171504 2.134701 0.139158 -0.038475 480869.000000 0 0 1
-23.682167 -5.078078 -14.059913 28.005590 0.211228 2.096752 0.148285 -0.046018 -155205.000000 0 0 1
-23.843167 -4.664578 -12.578513 27.358251 0.193196 2.048533 0.133978 -0.052417 -419987.000000 0 0 1
-24.801167 -3.654078 -12.493713 28.009695 0.146283 2.033143 0.119099 -0.043105 245154.000000 0 0 1
-24.868667 -3.161678 -11.167913 27.443926 0.126457 1.989893 0.133630 -0.058798 -215347.000000 0 0 1
-25.623937 -1.808878 -11.036813 27.958352 0.070476 1.976602 0.155852 -0.049991 -166354.000000 0 0 1
-25.617057 -1.425178 -9.698313 27.428489 0.055577 1.932198 0.151064 -0.062171 496397.000000 0 0 1
-26.275407 -0.198178 -9.589113 27.971188 0.007542 1.920715 0.168410 -0.061836 -413744.000000 0 0 1
-26.396627 0.221422 -8.116213 27.617094 -0.008388 1.869084 0.197285 -0.057109 -737425.000000 0 0 1
-25.253217 0.621122 -7.426213 26.329820 -0.024591 1.856722 0.184769 -0.051386 -323155.000000 0 0 1
-25.545307 1.037322 -6.129313 26.290820 -0.040585 1.806097 0.190874 -0.053923 -123640.000000 0 0 1
-24.259267 1.535322 -5.451613 24.911631 -0.063204 1.791420 0.147916 -0.044077 -15973.400000 0 1 0
-23.865567 2.846522 -5.833713 24.732573 -0.118712 1.808912 0.186554 -0.043665 -912932.000000 0 1 0
-22.541367 3.101622 -5.587513 23.429759 -0.136738 1.811596 0.178716 -0.028128 -1165780.000000 0 1 0
-22.146067 4.599822 -5.633113 23.309625 -0.204792 1.814877 0.171811 -0.031359 -203882.000000 0 1 0
-22.641967 5.269322 -4.478513 23.674491 -0.228654 1.761114 0.181161 -0.030167 544723.000000 0 1 0
-22.913867 6.590022 -4.733513 24.308020 -0.280042 1.766779 0.215439 -0.027800 -835579.000000 0 1 0
-23.436767 7.335222 -3.482613 24.803551 -0.303321 1.711670 0.226659 -0.033230 -217447.000000 0 1 0
-22.707667 7.334122 -2.232813 23.966914 -0.312404 1.664094 0.191871 -0.033050 843091.000000 0 1 0
-21.319467 7.644422 -2.291413 22.764170 -0.344285 1.671626 0.193067 -0.030516 125393.000000 0 1 0
-20.864267 9.124522 -2.370713 22.895301 -0.412266 1.674528 0.177346 -0.033475 -428129.000000 0 1 0
-20.771067 9.529122 -3.731713 23.155282 -0.430122 1.732663 0.153852 -0.030267 529879.000000 0 1 0
-20.165067 10.810722 -3.789813 23.191902 -0.492118 1.734944 0.138293 -0.025139 -170098.000000 0 1 0
-19.962267 11.456422 -5.146613 23.584515 -0.521010 1.790786 0.118088 -0.025819 279957.000000 0 1 0
-18.959667 10.786622 -5.918113 22.601864 -0.517257 1.835726 0.092413 -0.024865 406494.000000 0 1 0
-19.022167 11.298822 -7.212913 23.270847 -0.535983 1.885942 0.093789 -0.018448 -1068520.000000 0 1 0
-17.687067 11.416422 -7.911713 22.489158 -0.573182 1.930291 0.070815 -0.008488 -715011.000000 0 1 0
-17.021967 10.210222 -8.248513 21.494975 -0.540292 1.964641 0.032322 -0.000822 450819.000000 0 1 0
-17.670767 9.374822 -9.210713 22.022273 -0.487770 2.002309 0.052959 -0.010564 -333603.000000 0 1 0
-17.796067 9.935722 -10.651413 22.997199 -0.509201 2.052355 0.045359 -0.012936 -139086.000000 0 1 0
-16.681367 9.646022 -11.447913 22.413577 -0.524274 2.106862 0.048421 -0.015079 -239462.000000 0 1 0
-16.911067 10.191322 -12.719213 23.486711 -0.542360 2.143075 0.071529 -0.024103 252582.000000 0 1 0
-15.964767 9.779022 -13.889713 23.311525 -0.549587 2.209095 0.049633 -0.008190 -169116.000000 0 1 0
-16.153567 8.548022 -14.592313 23.386791 -0.486712 2.244590 0.087990 -0.029628 98059.700000 0 1 0
-15.869467 7.374022 -13.864513 22.325790 -0.434984 2.240825 0.072950 -0.021006 -139842.000000 0 1 0
-15.725167 6.073522 -14.640713 22.327539 -0.368579 2.285938 0.085492 -0.024484 -53609.400000 0 1 0
-14.514467 5.995922 -15.365013 21.970536 -0.391748 2.345279 0.088535 -0.031632 496982.000000 0 1 0
-14.564767 4.934322 -16.269313 22.386838 -0.326649 2.384354 0.095237 -0.033247 25053.100000 0 1 0
34.061612 -15.801178 27.222414 46.378125 -0.434353 0.943489 0.085713 -0.021576 -53562.200000 0 0 1
33.166652 -14.818178 27.709184 45.688117 -0.420172 0.919163 0.092478 -0.018548 -270321.000000 0 0 1
32.621002 -15.107178 28.938154 46.149467 -0.433704 0.893032 0.085953 -0.019441 -132855.000000 0 0 1
33.436062 -14.773178 30.211404 47.423053 -0.416042 0.880116 0.060986 -0.031293 -10649.200000 0 0 1
33.485112 -13.401178 30.516544 47.245145 -0.380690 0.868570 0.069520 -0.028923 -66659.400000 0 0 1
33.609902 -13.141278 31.877525 48.150756 -0.372719 0.847264 0.055563 -0.025300 -176216.000000 0 0 1
33.806772 -11.712878 32.353463 48.237287 -0.333523 0.835624 0.066575 -0.021661 70839.000000 0 0 1
33.774352 -11.500878 -33.618603 49.022316 -0.328205 2.326473 0.047854 -0.027577 53075.800000 0 0 1
33.866172 -10.122378 -33.371273 48.610924 -0.290441 2.327457 0.072516 -0.023727 -92237.700000 0 0 1
33.584032 -9.802778 -31.888633 47.337792 -0.283998 2.309919 0.087107 -0.019136 519665.000000 0 0 1
32.193962 -9.880778 -31.589553 46.173377 -0.297788 2.324235 0.133322 -0.022664 507709.000000 0 0 1
31.772562 -9.411078 -30.330323 44.922072 -0.287968 2.312000 0.109842 -0.018700 -217673.000000 0 0 1
30.441272 -10.031578 -29.887173 43.824042 -0.318332 2.321264 0.109223 -0.009308 -14535.100000 0 0 1
29.863272 -9.629978 -28.620053 42.469505 -0.311941 2.310266 0.090889 -0.012033 1124500.000000 0 0 1
28.696872 -10.413478 -28.296693 41.625158 -0.348101 2.318283 0.099769 -0.012981 234540.000000 0 0 1
28.148672 -10.233578 -26.901723 40.258869 -0.348699 2.302608 0.089126 -0.013642 -353753.000000 0 0 1
27.479872 -9.004278 -26.535753 39.247504 -0.316643 2.313271 0.078603 -0.019815 1245530.000000 0 0 1
26.222972 -8.675978 -27.160203 38.737494 -0.319518 2.347784 0.078991 -0.022296 950395.000000 0 0 1
24.966272 -9.565578 -26.929073 37.947200 -0.365888 2.359792 0.081738 -0.005517 -428882.000000 0 0 1
25.094472 -10.836578 -27.541743 38.803499 -0.407643 2.359975 0.079637 -0.008479 -44093.900000 0 0 1
24.065372 -11.781278 -27.296013 38.249352 -0.455255 2.365468 0.067666 -0.029308 -412511.000000 0 0 1
24.342172 -13.257378 -27.762213 39.230598 -0.498708 2.356988 0.066253 0.009768 -84981.500000 0 0 1
24.512172 -13.402478 -29.141023 40.369198 -0.500359 2.377287 0.075695 -0.002733 1023130.000000 0 0 1
25.877972 -13.755778 -29.427823 41.531766 -0.488578 2.358254 0.059961 -0.000101 778092.000000 0 0 1
26.253772 -13.842478 -30.988873 42.909031 -0.485214 2.377773 0.083190 -0.014119 143765.000000 0 0 1
25.431872 -14.740178 -31.750133 43.268047 -0.525280 2.394696 0.088557 -0.007195 346253.000000 0 0 1
25.919672 -15.069978 -33.056873 44.628359 -0.526639 2.404930 0.096416 -0.009051 21067.100000 0 0 1
25.880272 -13.989578 33.205623 44.363387 -0.495559 0.725012 0.091321 -0.023785 402488.000000 0 0 1
24.588572 -13.497578 32.868213 43.209974 -0.502027 0.706463 0.095269 -0.016483 244845.000000 0 0 1
24.603672 -12.796978 31.639592 42.073353 -0.479617 0.719690 0.093915 -0.024527 -279371.000000 0 0 1
23.768572 -11.408378 31.771394 41.285803 -0.447502 0.692664 0.106669 -0.034281 908145.000000 0 0 1
22.358472 -11.535878 31.750191 40.509904 -0.476327 0.670093 0.093622 -0.024203 149772.000000 0 0 1
21.791572 -11.980578 30.560154 39.399617 -0.502675 0.683058 0.085851 -0.030124 -981801.000000 0 0 1
20.285972 -12.269478 30.732184 38.814016 -0.543960 0.657078 0.083101 -0.021490 -3313.230000 0 0 1
19.498072 -11.100178 30.659554 37.992065 -0.517537 0.631744 0.081038 -0.028078 83566.100000 0 0 1
18.479172 -11.128578 31.663751 38.313420 -0.542052 0.598041 0.059784 -0.012545 233539.000000 0 0 1
17.772972 -9.803978 31.889558 37.801328 -0.504088 0.566826 0.062570 -0.017933 164911.000000 0 0 1
16.896972 -9.450078 30.776404 36.359299 -0.509937 0.561510 0.108337 -0.029166 973306.000000 0 0 1
15.977572 -8.374978 31.021114 35.884991 -0.482797 0.526723 0.113713 -0.029902 1995830.000000 0 0 1
14.770872 -8.506778 32.087933 36.334272 -0.522522 0.488301 0.121826 -0.031612 559028.000000 0 0 1
13.916772 -9.567478 31.820380 36.024294 -0.602273 0.487934 0.119334 -0.026470 -87282.300000 0 0 1
12.802072 -9.736878 32.667551 36.412480 -0.650232 0.457516 0.114071 -0.024043 1504920.000000 0 0 1
11.462172 -8.918678 32.357398 35.467244 -0.661242 0.421887 0.156181 -0.032129 852137.000000 0 0 1
11.661172 -7.506678 32.447883 35.287366 -0.571957 0.403907 0.152046 -0.044384 -112314.000000 0 0 1
10.536872 -6.817778 31.996106 34.369442 -0.574292 0.373800 0.169948 -0.040610 -314742.000000 0 0 1
10.835572 -5.265378 31.813433 34.018059 -0.452332 0.361994 0.143415 -0.039780 -75510.400000 0 0 1
10.976472 -4.641478 33.050439 35.133428 -0.400054 0.346073 0.118171 -0.038811 300489.000000 0 0 1
11.469272 -3.323178 32.891251 34.991743 -0.282023 0.348249 0.085084 -0.034530 -63854.800000 0 0 1
11.371672 -2.515678 -33.174123 35.159152 -0.217717 2.803960 0.074948 -0.035524 -417570.000000 0 0 1
10.024672 -2.331578 -32.850163 34.424751 -0.228521 2.837971 0.087082 -0.018602 -512843.000000 0 0 1
9.845772 -1.495078 -31.752423 33.277482 -0.150699 2.837675 0.087980 -0.018598 -973936.000000 0 0 1
8.419572 -1.102578 -31.500203 32.624648 -0.130213 2.878283 0.100130 -0.012653 -1165150.000000 0 0 1
7.800072 -0.377378 -32.525983 33.450308 -0.048344 2.905962 0.095884 -0.013842 -224710.000000 0 0 1
6.460172 -0.130578 -32.152023 32.794869 -0.020210 2.943268 0.108723 -0.012425 166042.000000 0 0 1
5.680672 0.762722 -33.161623 33.653306 0.133468 2.970444 0.131351 -0.019818 -38174.100000 0 0 1
6.055372 2.121122 -33.000233 33.618180 0.336931 2.949562 0.103725 -0.017263 115905.000000 0 0 1
5.533372 2.854522 33.254464 33.832320 0.476266 0.185088 0.111056 -0.019001 -104844.000000 0 0 1
6.235872 4.174922 33.171168 34.009446 0.589962 0.222487 0.089826 -0.021391 -30620.100000 0 0 1
5.588972 5.074322 32.319135 33.189032 0.737172 0.229459 0.109943 -0.037643 91856.600000 0 0 1
6.427672 6.198522 32.193851 33.409290 0.767251 0.270566 0.103046 -0.040693 -56838.200000 0 0 1
5.766272 7.311622 31.401910 32.753468 0.903018 0.288276 0.116181 -0.042813 -358189.000000 0 0 1
4.739172 7.947822 32.188992 33.492669 1.033112 0.279926 0.134729 -0.050303 493138.000000 0 0 1
4.250772 9.214922 31.710550 33.294786 1.138592 0.309724 0.151562 -0.056609 -7411.170000 0 0 1
3.814272 9.226322 30.218444 31.824959 1.178782 0.319093 0.143596 -0.050422 11718.100000 0 0 1
2.572172 8.546922 29.977634 31.278179 1.278471 0.289383 0.133228 -0.052343 284565.000000 0 0 1
2.360772 8.450622 28.558674 29.876146 1.298381 0.298080 0.091911 -0.039058 427662.000000 0 0 1
0.957672 7.934622 28.108064 29.222228 1.450682 0.277027 0.096235 -0.034128 862652.000000 0 0 1
-0.026228 8.975622 28.256094 29.647416 -1.567874 0.307573 0.105791 -0.042025 948048.000000 0 0 1
-1.144328 8.829522 27.330954 28.744582 -1.441912 0.314920 0.095854 -0.030557 1505250.000000 0 0 1
-2.559028 8.745022 27.969514 29.416283 -1.286118 0.314932 0.092158 -0.029942 353010.000000 0 0 1
-2.921828 9.922922 28.716674 30.522923 -1.284437 0.345745 0.107914 -0.030857 -25597.100000 0 0 1
-4.315028 9.799722 28.954264 30.870753 -1.156020 0.354215 0.092542 -0.020597 -216403.000000 0 0 1
-5.032828 10.894922 29.695454 32.028872 -1.138055 0.384072 0.077370 -0.015367 -318268.000000 0 0 1
-5.260428 12.155922 29.116094 31.987270 -1.162383 0.426933 0.083224 -0.026920 229073.000000 0 0 1
-6.304328 12.260622 28.144584 31.339831 -1.095859 0.455491 0.079477 -0.027061 183630.000000 0 0 1
-6.489328 13.623922 27.426324 31.303767 -1.126273 0.503011 0.072401 -0.023556 -655067.000000 0 0 1
-5.363228 14.098722 26.804494 30.757423 -1.207295 0.512583 0.068840 -0.022483 -876481.000000 0 0 1
-5.615628 15.480222 26.521734 31.218182 -1.222798 0.555645 0.063240 -0.015129 165990.000000 0 0 1
-4.435728 16.231722 25.828884 30.826542 -1.304034 0.577412 0.093066 -0.016231 344039.000000 0 0 1
-4.231728 15.952622 24.454704 29.502986 -1.311500 0.593677 0.084889 0.005265 749170.000000 0 0 1
-3.294928 16.920422 23.838374 29.418112 -1.378472 0.626082 0.103363 0.005797 941716.000000 0 0 1
-3.153928 16.732022 22.328384 28.079611 -1.384486 0.651490 0.102870 -0.003031 -231574.000000 0 0 1
-2.446528 15.602322 21.977554 27.063459 -1.415257 0.623097 0.076257 -0.004041 -382927.000000 0 0 1
-2.491828 15.394122 20.566354 25.810136 -1.410319 0.648762 0.063503 -0.004578 84280.800000 0 0 1
-1.658228 14.267522 19.900554 24.542696 -1.455091 0.625186 0.051133 -0.006096 -25385.400000 0 1 0
-2.108728 12.968022 20.055054 23.975435 -1.409597 0.579962 0.051416 -0.001656 192973.000000 0 1 0
-1.169228 12.075922 19.437554 22.913173 -1.474274 0.558004 0.042951 -0.000228 126007.000000 0 1 0
-1.752428 10.670822 19.349054 22.165814 -1.408023 0.509634 0.026768 -0.002327 -527076.000000 0 1 0
-2.032528 9.953422 20.545154 22.919536 -1.369362 0.459209 0.043895 -0.011259 650653.000000 0 1 0
-3.100028 10.450422 21.386654 24.004384 -1.282424 0.471368 0.076484 -0.016413 368031.000000 0 1 0
-4.533328 10.363222 20.830654 23.703661 -1.158433 0.497466 0.065788 -0.016273 -603821.000000 0 1 0
-5.141928 9.100222 20.926054 23.391306 -1.056485 0.463243 0.054036 -0.015209 1343050.000000 0 1 0
-6.589228 9.202222 20.808854 23.687702 -0.949381 0.498153 0.058624 -0.016262 1468630.000000 0 1 0
-7.299128 7.849522 20.730454 23.337609 -0.821715 0.477198 0.063362 -0.018427 1186.300000 0 1 0
-7.179528 7.148122 21.950554 24.175775 -0.783206 0.432414 0.065813 -0.025182 49728.500000 0 1 0
-7.879128 5.928922 21.800854 23.927181 -0.645089 0.424770 0.062447 -0.021204 191132.000000 0 1 0
-7.915828 5.102222 23.075544 24.923357 -0.572541 0.387491 0.061448 -0.023698 7740.600000 0 1 0
-8.623328 5.746922 24.107034 26.240007 -0.587845 0.405987 0.061234 -0.020299 -42122.000000 0 0 1
-8.852828 4.870822 25.207234 27.156990 -0.502996 0.381239 0.067375 -0.009782 157732.000000 0 0 1
-9.874128 5.408922 26.250714 28.563172 -0.501143 0.405157 0.068356 -0.007820 -40579.600000 0 0 1
-9.297628 6.443122 27.074614 29.342706 -0.606003 0.395761 0.059670 -0.009180 79001.200000 0 0 1
-10.163328 7.010322 28.043494 30.641074 -0.603825 0.414729 0.071146 -0.015006 95817.100000 0 0 1
-9.427128 8.120022 28.818104 31.389307 -0.711044 0.407570 0.066220 -0.016874 274743.000000 0 0 1
-8.290128 7.655422 29.512074 31.595794 -0.745615 0.365205 0.082754 -0.024572 -161805.000000 0 0 1
-7.931528 8.526822 30.549104 32.693479 -0.821552 0.364198 0.084250 -0.025838 -161490.000000 0 0 1
-7.061828 7.870122 31.619699 33.340869 -0.839477 0.322719 0.113643 -0.026427 -400832.000000 0 0 1
-5.767028 7.631822 31.169034 32.603864 -0.923686 0.297774 0.106112 -0.031578 -1171700.000000 0 0 1
-4.951328 7.056422 32.137714 33.273734 -0.958946 0.262060 0.129222 -0.030470 -252869.000000 0 0 1
-3.447428 7.142822 31.853410 32.825971 -1.121131 0.244030 0.104540 -0.032578 -181093.000000 0 0 1
-2.958428 8.448222 31.820034 33.055095 -1.233958 0.274222 0.094998 -0.039534 -99991.200000 0 0 1
-1.554728 8.458122 31.610066 32.759018 -1.389011 0.265631 0.091219 -0.043548 393466.000000 0 0 1
-0.996928 9.793322 31.106414 32.626860 -1.469349 0.306488 0.097613 -0.043717 -245017.000000 0 0 1
-1.057728 10.839922 32.059987 33.859496 -1.473527 0.327487 0.110422 -0.052873 -253795.000000 0 0 1
-1.690628 11.944522 31.487488 33.719308 -1.430190 0.365873 0.095867 -0.044242 -354292.000000 0 0 1
-1.762728 13.092822 32.448113 35.034400 -1.436968 0.386647 0.094896 -0.047879 -413705.000000 0 0 1
-0.655028 13.946122 32.449177 35.325238 -1.523862 0.406315 0.153738 -0.051397 -420228.000000 0 0 1
-0.726728 14.718822 33.655694 36.740680 -1.521462 0.412719 0.132761 -0.044454 -121593.000000 0 0 1
0.653072 15.096122 -33.176603 36.455539 1.527562 2.714217 0.123102 -0.043117 -640595.000000 0 0 1
1.405272 15.951722 33.403124 37.043230 1.482928 0.447033 0.130795 -0.042531 -430178.000000 0 0 1
2.628872 16.156222 -33.310043 37.114598 1.409494 2.684845 0.150046 -0.044063 -637508.000000 0 0 1
3.534672 17.066622 33.310134 37.594261 1.366573 0.482057 0.162875 -0.031944 -448315.000000 0 0 1
3.427372 18.399822 -33.587613 38.450332 1.386635 2.633209 0.130854 -0.024482 262675.000000 0 0 1
4.512972 19.170822 33.263114 38.656462 1.339597 0.534585 0.110489 -0.010348 372323.000000 0 0 1
4.255272 20.686022 33.079766 39.246525 1.367919 0.568200 0.097602 -0.025581 -255939.000000 0 0 1
4.295272 21.338222 -33.029923 39.556856 1.372156 2.558927 0.117909 -0.043137 85465.400000 0 0 1
3.984672 22.722122 -33.125933 40.367064 1.397196 2.533288 0.093015 -0.034856 117590.000000 0 0 1
3.906472 23.433222 -31.761963 39.663569 1.405609 2.499400 0.115101 -0.035442 52164.700000 0 0 1
3.269672 24.684122 -31.833253 40.414757 1.439102 2.477805 0.113174 -0.039668 177818.000000 0 0 1
3.192372 25.159922 -30.515193 39.678582 1.444588 2.448165 0.123844 -0.040708 83603.200000 0 0 1
2.788872 26.633022 -30.310893 40.445592 1.466462 2.417988 0.132628 -0.044667 -201752.000000 0 0 1
3.806772 27.507522 -30.655563 41.363254 1.433280 2.405549 0.142694 -0.045538 -417615.000000 0 0 1
3.424772 28.756922 -30.232193 41.864963 1.452261 2.377681 0.137515 -0.034947 256364.000000 0 0 1
4.551572 29.848122 -30.088983 42.625979 1.419471 2.354466 0.149904 -0.042941 635167.000000 0 0 1
5.503572 29.498422 -29.086923 41.791091 1.386345 2.340619 0.152553 -0.057349 224677.000000 0 0 1
6.101572 30.631522 -28.428483 42.233848 1.374177 2.309217 0.173950 -0.065764 -163337.000000 0 0 1
7.316572 30.371122 -27.518213 41.631590 1.334395 2.292938 0.186786 -0.069268 -1059260.000000 0 0 1
8.294272 29.655422 -28.214203 41.764581 1.298077 2.312511 0.187920 -0.067454 -264023.000000 0 0 1
9.595272 30.198922 -28.122343 42.366382 1.263149 2.296670 0.190640 -0.067442 170483.000000 0 0 1
9.782672 31.583722 -28.851813 43.882334 1.270430 2.288267 0.202287 -0.066351 -1571420.000000 0 0 1
9.339072 32.712822 -28.129503 44.143130 1.292707 2.261700 0.214572 -0.067732 168390.000000 0 0 1
9.394272 -33.725949 -28.973873 45.444222 -1.299135 2.262136 0.204854 -0.064536 648057.000000 0 0 1
8.122272 -33.507149 -29.914843 45.646448 -1.332979 2.285455 0.173326 -0.039738 790964.000000 0 0 1
7.963272 33.118922 -30.974543 46.040189 1.334831 2.308745 0.157211 -0.033661 539093.000000 0 0 1
6.643172 33.120822 -31.533903 46.211553 1.372849 2.321812 0.133433 -0.019724 570419.000000 0 0 1
6.426372 32.170822 -32.744933 46.351814 1.373634 2.355257 0.145227 -0.041296 30198.300000 0 0 1
6.747872 32.712922 33.351514 47.201615 1.367374 0.786149 0.165188 -0.035484 89611.700000 0 0 1
6.780072 31.641022 32.384677 45.780901 1.359707 0.785006 0.154993 -0.027986 -192215.000000 0 0 1
6.629272 32.324422 31.008494 45.280704 1.368516 0.816459 0.137372 -0.032727 118316.000000 0 0 1
7.652672 33.282222 30.805594 45.991894 1.344792 0.836850 0.141644 -0.038582 281755.000000 0 0 1
7.309672 -33.387449 29.750784 45.312936 -1.355262 0.854544 0.125073 -0.048495 82280.300000 0 0 1
19.583533 -21.740678 29.021364 41.211787 -0.837551 0.789500 0.111629 -0.017998 6920.080000 0 0 1
18.567533 -20.739178 29.107644 40.275572 -0.840591 0.763078 0.113223 -0.017037 1032750.000000 0 0 1
17.212033 -21.182578 29.056324 39.865093 -0.888446 0.754132 0.098163 -0.016744 927199.000000 0 0 1
16.539933 -21.710978 30.365144 40.828641 -0.919771 0.732176 0.103005 -0.022321 -133248.000000 0 0 1
17.258133 -22.831478 30.897924 42.116520 -0.923535 0.747149 0.120015 -0.029241 379150.000000 0 0 1
16.871333 -23.116678 32.249388 43.116652 -0.940327 0.725818 0.128527 -0.031534 34672.200000 0 0 1
17.793033 -24.118678 32.979020 44.563644 -0.935195 0.737662 0.125577 -0.037340 -1095.170000 0 0 1
17.652033 -25.497048 32.606942 44.998960 -0.965246 0.760320 0.132624 -0.044887 -39585.000000 0 0 1
18.399133 -26.307888 33.480064 46.384779 -0.960489 0.764411 0.123008 -0.043309 -111733.000000 0 0 1
18.038533 -27.811278 33.331544 47.009017 -0.995402 0.782652 0.107760 -0.030111 78914.600000 0 0 1
18.394733 -28.298008 32.060354 46.551152 -0.994396 0.811085 0.101888 -0.040592 -30110.800000 0 0 1
17.850933 -29.535948 31.893801 46.991941 -1.027163 0.824795 0.101997 -0.035844 -336470.000000 0 0 1
18.392133 -30.271888 30.646774 46.838899 -1.024833 0.857537 0.102345 -0.036834 1190180.000000 0 0 1
19.680833 -30.923838 30.853654 47.912074 -1.004020 0.871128 0.110952 -0.042420 1205890.000000 0 0 1
20.301433 -31.113278 29.590454 47.495044 -0.992665 0.898196 0.079854 -0.040099 -379532.000000 0 0 1
21.706833 -31.743378 29.566054 48.507527 -0.971011 0.915348 0.073910 -0.038462 635346.000000 0 0 1
22.654833 -30.890408 30.291624 48.836884 -0.938008 0.901721 0.066069 -0.039258 -408411.000000 0 0 1
23.920033 -31.400908 30.368644 49.804011 -0.919810 0.915035 0.068989 -0.036442 -932891.000000 0 0 1
24.970833 -30.263198 30.563434 49.734567 -0.880924 0.909005 0.062734 -0.037367 -164618.000000 0 0 1
26.264133 -30.566858 30.128274 50.317495 -0.860965 0.928840 0.067369 -0.037097 -249863.000000 0 0 1
26.950133 -29.362278 29.771504 49.747316 -0.828207 0.929226 0.056762 -0.029542 -14823.100000 0 0 1
28.102333 -29.563968 28.778444 49.919617 -0.810739 0.956363 0.065493 -0.020988 -47057.300000 0 0 1
29.231433 -30.146138 29.418764 51.271142 -0.800802 0.959673 0.064217 -0.017278 -76107.000000 0 0 1
30.320633 -30.085808 28.531954 51.367003 -0.781511 0.981889 0.062946 -0.031398 339473.000000 0 0 1
31.498833 -31.058928 28.865344 52.820844 -0.778366 0.992645 0.059344 -0.026827 447219.000000 0 0 1
31.199633 -32.359028 28.351414 53.144392 -0.803637 1.008088 0.034321 -0.020003 432889.000000 0 0 1
32.134133 -33.317178 28.821444 54.528089 -0.803471 1.013891 0.058736 -0.023188 -112602.000000 0 0 1
31.339933 33.031587 29.398034 54.198907 0.811672 0.997493 0.040268 -0.013681 76522.100000 0 0 1
30.734733 33.070328 30.695354 54.593728 0.821987 0.973692 0.057448 -0.017835 -127452.000000 0 0 1
29.733133 -33.540838 30.929874 54.458278 -0.845504 0.966777 0.053594 -0.013338 153341.000000 0 0 1
28.350033 33.770513 30.243424 53.468090 0.872435 0.969593 0.059164 -0.016200 16149.800000 0 0 1
27.588833 32.729329 30.814724 52.743719 0.870416 0.946859 0.053329 -0.012979 1025720.000000 0 0 1
26.229033 32.743929 30.293234 51.747532 0.895425 0.945418 0.058452 -0.014952 1398420.000000 0 0 1
25.737733 31.291793 30.115504 50.483173 0.882481 0.931607 0.087092 -0.029207 -158775.000000 0 0 1
26.280133 30.678283 28.935174 49.689503 0.862462 0.949217 0.090579 -0.025198 210926.000000 0 0 1
25.833933 29.357953 28.900054 48.626069 0.849162 0.934361 0.126149 -0.040343 -433540.000000 0 0 1
25.232933 28.935063 27.587244 47.275732 0.853637 0.947716 0.124983 -0.043063 -230143.000000 0 0 1
23.940433 29.445623 27.363544 46.786244 0.888155 0.946085 0.155973 -0.047100 80528.600000 0 0 1
23.263233 28.787973 26.286154 45.396996 0.891143 0.953260 0.148693 -0.037203 71769.400000 0 0 1
21.823233 29.234533 26.015424 44.807518 0.929547 0.951326 0.162320 -0.035090 -184659.000000 0 0 1
21.707733 30.503173 25.409304 45.247121 0.952291 0.974518 0.169697 -0.047083 -389897.000000 0 0 1
20.383733 30.802473 25.056894 44.633360 0.986201 0.974727 0.146709 -0.041550 -598159.000000 0 0 1
20.195133 32.273113 24.548734 45.299421 1.011653 0.998074 0.156487 -0.040783 -173768.000000 0 0 1
20.758733 32.650586 23.275934 45.152573 1.004480 1.029211 0.151142 -0.037488 140710.000000 0 0 1
22.141533 32.927690 23.332154 46.031181 0.978815 1.039238 0.156326 -0.037900 15478.000000 0 0 1
22.750333 33.135641 21.883954 45.765225 0.969133 1.072217 0.162009 -0.039335 57088.800000 0 0 1
22.380133 -33.238478 21.226954 45.345896 -0.978202 1.083643 0.138605 -0.023909 401808.000000 0 0 1
23.208733 -33.020998 20.085854 45.082958 -0.958162 1.109029 0.173285 -0.029952 282333.000000 0 0 1
22.872333 -31.690538 19.283754 43.580924 -0.945628 1.112432 0.144615 -0.026547 26693.300000 0 0 1
23.291333 -30.501988 19.967654 43.261584 -0.918648 1.091048 0.138950 -0.022852 234341.000000 0 0 1
22.798333 -29.286928 19.389554 41.874132 -0.909336 1.089370 0.123675 -0.029159 35296.900000 0 0 1
23.514033 -28.652588 18.175754 41.282424 -0.883584 1.114888 0.109563 -0.025157 -100006.000000 0 0 1
23.186533 -29.401028 17.004954 41.124253 -0.903027 1.144500 0.107786 -0.032920 209821.000000 0 0 1
23.483133 -28.723118 15.816554 40.331606 -0.885434 1.167815 0.109999 -0.026312 -151734.000000 0 0 1
23.112833 -29.464858 14.518854 40.164387 -0.905628 1.200935 0.087380 -0.026740 -281055.000000 0 0 1
23.853833 -30.659208 14.346854 41.410441 -0.909595 1.217007 0.113182 -0.028894 -8256.120000 0 0 1
23.995733 -31.039818 13.016854 41.336473 -0.912698 1.250445 0.105749 -0.026676 53257.000000 0 0 1
22.786933 -31.377368 12.080554 40.616786 -0.942688 1.268799 0.101878 -0.028980 789106.000000 0 0 1
21.889333 -32.442078 12.524854 41.091401 -0.977239 1.261063 0.106927 -0.032800 513352.000000 0 0 1
20.796633 -32.564118 11.628554 40.350279 -1.002451 1.278460 0.080033 -0.021018 -84829.200000 0 0 1
19.608633 -33.275348 12.281754 40.528863 -1.038293 1.262918 0.071571 -0.016830 -489255.000000 0 0 1
19.260133 -32.614178 13.481054 40.204181 -1.037358 1.228857 0.069574 -0.014720 174518.000000 0 0 1
19.811433 -33.124818 14.682354 41.295495 -1.031787 1.207301 0.070932 -0.022800 -704535.000000 0 0 1
19.686433 -32.131458 15.925154 40.909617 -1.021102 1.170950 0.070550 -0.025632 660477.000000 0 0 1
18.417033 -31.650158 16.412454 40.128397 -1.043797 1.149440 0.074246 -0.028274 384051.000000 0 0 1
17.499433 -32.543628 16.979554 40.664765 -1.077428 1.140049 0.067019 -0.014094 -614209.000000 0 0 1
17.714233 -33.285068 18.371654 41.942907 -1.081724 1.117406 0.043464 -0.012208 -184095.000000 0 0 1
18.469933 33.073679 18.094654 41.981224 1.061490 1.125176 0.052112 -0.010705 304499.000000 0 0 1
18.909233 32.514604 19.302754 42.277120 1.044045 1.096653 0.052042 -0.015202 169281.000000 0 0 1
19.696233 31.184853 19.125954 41.548030 1.007468 1.092425 0.088850 -0.021512 -233830.000000 0 0 1
18.868233 30.080893 18.869154 40.210886 1.010581 1.082350 0.039378 -0.012405 -291600.000000 0 0 1
19.577033 28.990593 18.359554 39.506809 0.976848 1.087479 0.054021 -0.025274 -245146.000000 0 0 1
18.805433 27.654443 18.392754 38.166817 0.973609 1.067970 0.054444 -0.018851 -206046.000000 0 0 1
18.594733 27.036663 19.644854 38.244811 0.968333 1.031350 0.073679 -0.031705 7082.580000 0 0 1
18.271733 25.684733 19.411254 37.018354 0.952470 1.018823 0.081626 -0.033800 -436083.000000 0 0 1
17.999333 24.815843 20.721254 37.002330 0.943281 0.976412 0.117667 -0.037449 -215844.000000 0 0 1
16.728133 24.827583 21.309354 36.746808 0.977891 0.952194 0.119194 -0.038520 -511722.000000 0 0 1
15.844333 23.911473 20.696054 35.371289 0.985597 0.945782 0.093964 -0.036494 -174756.000000 0 0 1
14.421233 24.089583 21.289354 35.235161 1.031370 0.922025 0.131545 -0.055930 -213902.000000 0 0 1
13.855933 25.265603 20.870954 35.579970 1.069174 0.943951 0.103371 -0.042753 -822250.000000 0 0 1
12.653233 25.514493 21.540054 35.708089 1.110415 0.923256 0.107568 -0.044469 -454810.000000 0 0 1
11.832033 26.627163 20.875754 35.844106 1.152643 0.949113 0.082869 -0.039827 -388628.000000 0 0 1
12.338533 27.951983 21.072454 37.116049 1.155101 0.967032 0.065239 -0.034722 -63349.300000 0 0 1
11.931433 28.869753 20.069754 37.129729 1.178890 0.999729 0.055598 -0.035879 -236664.000000 0 0 1
12.420733 30.304573 20.204154 38.481809 1.181816 1.018044 0.029147 -0.027597 155177.000000 0 0 1
11.881333 31.034173 21.335054 39.490132 1.205164 1.000047 0.035759 -0.022374 427462.000000 0 0 1
12.578333 30.640713 22.548334 40.068630 1.181262 0.973096 0.032304 -0.015377 513337.000000 0 0 1
12.091533 31.503163 23.764164 41.272145 1.204316 0.957224 0.039044 -0.018080 282125.000000 0 0 1
10.727933 31.354203 24.088534 40.968672 1.241129 0.942244 0.059492 -0.013717 -241544.000000 0 0 1
10.411233 32.104757 25.225784 42.136082 1.257207 0.928951 0.067121 -0.024858 -424256.000000 0 0 1
9.039833 31.783256 25.884674 41.975115 1.293693 0.906294 0.167510 -0.043774 -697317.000000 0 0 1
7.957933 32.579830 25.548754 42.160560 1.331228 0.919790 0.144346 -0.032275 -106095.000000 0 0 1
7.423733 32.442088 24.188664 41.142343 1.345839 0.942303 0.139077 -0.054689 -482437.000000 0 0 1
6.353633 31.354443 24.095234 40.050594 1.370865 0.925269 0.123662 -0.049708 -572704.000000 0 0 1
6.932733 30.123053 24.409894 39.386597 1.344588 0.902371 0.103190 -0.053090 -200598.000000 0 0 1
6.101833 29.054993 24.009044 38.181922 1.363795 0.890779 0.097449 -0.046759 -628892.000000 0 0 1
6.867533 27.728073 24.137224 37.398056 1.328008 0.869231 0.091260 -0.047103 93589.500000 0 0 1
7.830233 27.343913 23.134404 36.663371 1.291899 0.887961 0.081890 -0.045684 1510750.000000 0 0 1
9.040033 28.152393 23.096884 37.519934 1.260086 0.907662 0.113164 -0.051496 932927.000000 0 0 1
10.141033 27.716033 24.138224 38.127063 1.220036 0.885246 0.104873 -0.056619 -140403.000000 0 0 1
9.742233 27.818103 25.524064 38.990201 1.233933 0.857106 0.107171 -0.052393 296504.000000 0 0 1
10.809433 27.390533 26.345514 39.511660 1.194918 0.840919 0.104587 -0.024097 1149130.000000 0 0 1
12.056033 28.310153 26.740724 40.766150 1.168201 0.855350 0.098587 -0.024750 837366.000000 0 0 1
11.683433 29.514713 27.413894 41.942132 1.193872 0.858449 0.101167 -0.035163 128025.000000 0 0 1
12.748333 30.436763 27.619274 43.031858 1.174149 0.873910 0.079636 -0.020857 -72523.000000 0 0 1
12.337533 31.696817 28.456454 44.347184 1.199604 0.874117 0.073536 -0.024039 -35287.500000 0 0 1
12.207933 31.584993 29.867574 45.152158 1.201973 0.847996 0.085630 -0.035909 57872.000000 0 0 1
10.903033 31.168513 30.202724 44.749937 1.234291 0.829937 0.132314 -0.039717 -160333.000000 0 0 1
10.666033 30.978163 31.699070 45.587738 1.239201 0.801901 0.149508 -0.031394 -98150.100000 0 0 1
11.055933 29.718113 32.210559 45.198673 1.214635 0.777536 0.125015 -0.036546 248251.000000 0 0 1
11.101133 29.668713 33.631574 46.201195 1.212754 0.755488 0.159791 -0.034707 -67866.300000 0 0 1
11.341133 28.194573 -33.324613 45.100832 1.188356 2.402220 0.158498 -0.038732 -780160.000000 0 0 1
12.576933 27.682683 -33.668803 45.366270 1.144352 2.407076 0.172654 -0.035831 -824417.000000 0 0 1
12.662733 26.282253 -33.386663 44.337015 1.121816 2.423436 0.175544 -0.042110 1330510.000000 0 0 1
14.143133 25.723533 -33.625373 44.636242 1.068097 2.423892 0.182505 -0.041946 1546440.000000 0 0 1
14.332533 24.335033 -33.456503 43.783021 1.038529 2.440509 0.168284 -0.043953 -141487.000000 0 0 1
14.736733 23.995333 -32.180213 42.761120 1.020037 2.422734 0.171780 -0.050221 -214424.000000 0 0 1
14.855133 22.497993 -31.937023 41.794833 0.987223 2.440500 0.153436 -0.069587 330021.000000 0 0 1
16.080833 22.013293 -32.467883 42.395067 0.939889 2.443145 0.155640 -0.047558 227349.000000 0 0 1
16.119133 20.555693 -32.289163 41.532553 0.905783 2.461385 0.153998 -0.044485 -440142.000000 0 0 1
17.482433 20.009593 -32.683633 42.121718 0.852702 2.458989 0.178016 -0.052836 -628216.000000 0 0 1
18.444733 20.335593 -31.717393 41.949225 0.834118 2.428114 0.137777 -0.048846 71407.800000 0 0 1
19.737533 19.841093 -32.067343 42.562350 0.788015 2.424045 0.141641 -0.048603 37796.800000 0 0 1
20.866833 20.291093 -31.172863 42.648570 0.771411 2.390471 0.103757 -0.039917 -427631.000000 0 0 1
21.323433 21.626193 -31.474213 43.737936 0.792447 2.374035 0.077229 -0.031311 1073270.000000 0 0 1
22.469133 22.062893 -30.673213 43.959972 0.776276 2.343053 0.043819 -0.013654 1173970.000000 0 0 1
22.169933 22.389493 -29.212623 42.967111 0.790325 2.318400 0.066970 -0.023853 363952.000000 0 0 1
21.235733 23.486003 -29.064993 42.980490 0.835673 2.313439 0.052524 -0.002980 544112.000000 0 0 1
20.789033 23.788643 -27.743073 42.044756 0.852586 2.291410 0.063007 -0.002764 -172390.000000 0 0 1
21.783533 24.415453 -26.745903 42.260856 0.842306 2.256059 0.061472 -0.008173 -89770.100000 0 0 1
22.471633 25.584413 -27.273463 43.627723 0.850082 2.246108 0.069831 -0.011351 -264833.000000 0 0 1
21.752733 26.764473 -27.535763 44.133169 0.888331 2.244551 0.070392 -0.005705 -554823.000000 0 0 1
22.481433 27.792823 -28.451163 45.687247 0.890656 2.243033 0.070145 -0.006622 -488680.000000 0 0 1
22.511833 27.583703 -29.908333 46.498943 0.886298 2.269472 0.074164 -0.006713 196474.000000 0 0 1
23.094133 26.352063 -30.421753 46.403160 0.851191 2.285769 0.061676 -0.006136 92532.100000 0 0 1
24.501833 25.982233 -29.910493 46.583837 0.814714 2.268003 0.078810 -0.021524 -494410.000000 0 0 1
25.491133 26.806163 -30.471803 47.925974 0.810538 2.259854 0.072918 -0.015412 94338.800000 0 0 1
26.808233 26.279493 -30.359893 48.280599 0.775439 2.250833 0.079711 -0.027938 461323.000000 0 0 1
27.916633 27.297243 -30.716943 49.679054 0.774181 2.237384 0.072311 -0.016697 -207513.000000 0 0 1
28.192233 28.358673 -29.785803 49.861913 0.788341 2.211009 0.059607 -0.009538 145903.000000 0 0 1
29.399033 28.983073 -30.181983 51.139747 0.778274 2.202086 0.063414 -0.018181 368224.000000 0 0 1
29.812233 30.192523 -29.294903 51.561119 0.791736 2.175063 0.065991 -0.009472 -28769.400000 0 0 1
30.097133 30.069683 -27.921343 50.888355 0.784942 2.151579 0.100677 -0.013614 -410813.000000 0 0 1
28.993233 30.028293 -27.072343 49.751560 0.802933 2.146173 0.093327 -0.015487 -567871.000000 0 0 1
29.260633 30.495763 -25.592413 49.407973 0.806065 2.115286 0.134229 -0.015422 -149590.000000 0 0 1
29.803033 29.489303 -24.721213 48.672149 0.780107 2.103556 0.107951 -0.004412 193013.000000 0 0 1
28.933733 28.474163 -24.187713 47.254463 0.777393 2.108146 0.113730 -0.013449 21766.000000 0 0 1
28.039633 28.925593 -22.999813 46.388601 0.800950 2.089561 0.113128 -0.000804 243725.000000 0 0 1
26.976733 29.805763 -23.285913 46.458168 0.835179 2.095808 0.156026 -0.003880 -104208.000000 0 0 1
26.164633 30.021313 -22.166413 45.576497 0.853932 2.078711 0.118956 0.006248 121856.000000 0 0 1
4.014833 -25.930278 -19.268613 32.554226 -1.417184 2.204202 0.093921 -0.022058 -282165.000000 0 0 1
4.206933 -27.065698 -18.476113 33.039628 -1.416596 2.164230 0.115420 -0.016711 -15505.800000 0 0 1
3.731133 -26.809138 -17.212013 32.076543 -1.432511 2.137189 0.103253 -0.021937 -128825.000000 0 0 1
3.643233 -28.026198 -16.266313 32.608800 -1.441527 2.093047 0.079917 -0.015062 121001.000000 0 0 1
4.946733 -28.397298 -15.866013 32.902995 -1.398330 2.073967 0.074043 -0.021161 -28830.300000 0 0 1
5.023533 -29.181848 -14.725213 33.070350 -1.400321 2.032271 0.076532 -0.025215 588746.000000 0 0 1
6.458833 -29.768578 -14.502313 33.737247 -1.357140 2.015135 0.083068 -0.020919 398381.000000 0 0 1
7.371833 -28.801418 -14.018013 32.868987 -1.320222 2.011395 0.073203 -0.015861 265515.000000 0 0 1
8.697933 -29.333158 -13.925413 33.615552 -1.282533 1.997921 0.067080 -0.015523 488948.000000 0 0 1
9.045733 -30.061188 -12.623513 33.835682 -1.278504 1.953126 0.066265 -0.024836 -956921.000000 0 0 1
9.529633 -29.224668 -11.596513 32.853831 -1.255586 1.931543 0.067208 -0.033176 -42313.600000 0 0 1
9.608133 -29.866888 -10.354013 33.038656 -1.259553 1.889558 0.074728 -0.035011 -182054.000000 0 0 1
10.776333 -30.851468 -10.085713 34.200351 -1.234748 1.870148 0.053018 -0.028077 -870109.000000 0 0 1
11.906633 -30.190168 -9.627213 33.851106 -1.195137 1.859176 0.044979 -0.025905 -768094.000000 0 0 1
12.833133 -31.238608 -9.373713 35.048629 -1.181006 1.841541 0.052317 -0.025799 24787.700000 0 0 1
14.187133 -30.824298 -8.750713 35.042646 -1.139445 1.823183 0.069652 -0.031303 -194644.000000 0 0 1
14.971033 -29.989198 -9.541013 34.849889 -1.107778 1.848112 0.063068 -0.040857 302243.000000 0 0 1
16.241733 -29.886908 -8.891413 35.157906 -1.073004 1.826472 0.068335 -0.035563 -53237.600000 0 0 1
17.232533 -28.946738 -9.548713 35.015022 -1.033826 1.846998 0.087799 -0.043538 -454272.000000 0 0 1
16.949733 -27.567578 -9.571313 33.747220 -1.019534 1.858361 0.102370 -0.046664 -130319.000000 0 0 1
16.169933 -27.194528 -10.670413 33.389621 -1.034355 1.896075 0.080235 -0.047817 -335104.000000 0 0 1
15.912333 -25.669118 -10.734313 32.052011 -1.015872 1.912299 0.089581 -0.048107 -873989.000000 0 0 1
14.899133 -25.176758 -9.911813 30.888466 -1.036442 1.897466 0.060192 -0.043381 34295.600000 0 0 1
14.317633 -23.922578 -10.257013 29.706744 -1.031481 1.923329 0.042921 -0.022962 657930.000000 0 0 1
13.645833 -23.718478 -11.710413 29.764219 -1.048718 1.975166 0.013392 -0.018685 333958.000000 0 0 1
14.617033 -23.416978 -12.712413 30.391083 -1.012768 2.002363 0.034271 -0.024082 329366.000000 0 0 1
14.111633 -23.670378 -14.025513 30.921513 -1.033196 2.041579 0.046235 -0.023541 264550.000000 0 0 1
14.968733 -22.986478 -15.121913 31.322729 -0.993580 2.074620 0.060368 -0.026345 140717.000000 0 0 1
16.200833 -23.610578 -15.404613 32.515050 -0.969414 2.064362 0.064523 -0.029128 12039.600000 0 0 1
16.785333 -22.947778 -16.519313 32.882147 -0.939268 2.097145 0.075925 -0.031172 -410802.000000 0 0 1
17.911733 -23.719478 -17.281613 34.381651 -0.924008 2.097447 0.088427 -0.037278 838886.000000 0 0 1
19.117733 -24.035078 -16.610413 34.915305 -0.898861 2.066595 0.118967 -0.045471 -305168.000000 0 0 1
19.981133 -22.978178 -16.509313 34.638125 -0.855050 2.067605 0.125804 -0.047362 -944502.000000 0 0 1
21.460633 -23.265878 -16.172213 35.544343 -0.825738 2.043154 0.135879 -0.049765 462681.000000 0 0 1
22.122733 -24.110878 -17.119713 36.930127 -0.828374 2.052817 0.149195 -0.049416 -700195.000000 0 0 1
23.420433 -24.386078 -16.709813 37.714922 -0.805594 2.029801 0.165751 -0.040236 -343536.000000 0 0 1
24.120933 -25.445988 -17.596413 39.229472 -0.812124 2.035940 0.159961 -0.034143 -182223.000000 0 0 1
24.380433 -25.126958 -18.914413 39.793524 -0.800476 2.066117 0.169799 -0.037025 -158075.000000 0 0 1
25.126833 -26.164788 -19.490013 41.180268 -0.805632 2.063813 0.156381 -0.035117 -170370.000000 0 0 1
26.517433 -25.728408 -20.011413 42.018827 -0.770297 2.067180 0.144482 -0.036136 84353.900000 0 0 1
26.447233 -24.732378 -20.986713 41.851986 -0.751904 2.096071 0.143453 -0.035420 -132425.000000 0 0 1
26.807933 -23.453378 -20.522613 41.108440 -0.718755 2.093508 0.138062 -0.030455 -671500.000000 0 0 1
25.682733 -22.397478 -20.509213 39.772825 -0.717176 2.112573 0.153985 -0.033310 -86433.900000 0 0 1
25.466733 -21.783678 -21.782413 39.969446 -0.707608 2.147158 0.139622 -0.030137 153117.000000 0 0 1
24.790233 -22.619878 -22.712813 40.522665 -0.739652 2.165782 0.104591 -0.025294 -583407.000000 0 0 1
23.950533 -21.888978 -23.759813 40.215471 -0.740455 2.202862 0.067366 -0.010623 -461563.000000 0 0 1
24.738433 -21.021878 -24.519813 40.683297 -0.704358 2.217676 0.049273 0.000142 580157.000000 0 0 1
23.978533 -20.196078 -25.476113 40.396583 -0.699981 2.253187 0.037675 0.002354 596501.000000 0 0 1
24.831533 -19.932578 -26.733033 41.576047 -0.676393 2.269194 0.036597 0.003493 95150.000000 0 0 1
24.102933 -19.055278 -27.575703 41.285280 -0.668970 2.302221 0.020308 0.013706 549114.000000 0 0 1
24.929033 -18.599878 -28.648353 42.286407 -0.641009 2.315133 0.036317 0.017298 -33567.500000 0 0 1
24.415933 -17.390078 -29.484073 42.045964 -0.618896 2.347924 0.083014 0.006918 -822259.000000 0 0 1
23.311433 -17.799578 -30.220843 42.113504 -0.652120 2.371153 0.082733 -0.000876 -555673.000000 0 0 1
22.744733 -16.663578 -30.806123 41.761404 -0.632294 2.400409 0.106897 -0.009403 -84387.400000 0 0 1
21.301033 -17.000178 -31.269753 41.479362 -0.673576 2.424718 0.081689 -0.008400 -49213.900000 0 0 1
21.240433 -17.835878 -32.398473 42.648981 -0.698492 2.433577 0.072683 -0.010233 -326327.000000 0 0 1
20.057233 -18.556678 -32.564413 42.509809 -0.746557 2.443461 0.097114 -0.022034 -330930.000000 0 0 1
20.127433 -19.420278 33.508454 43.647190 -0.767519 0.695534 0.105761 -0.020172 -51746.400000 0 0 1
21.128333 -20.392178 33.620544 44.638418 -0.767670 0.717921 0.099505 -0.012296 -102344.000000 0 0 1
21.143933 -21.143478 32.386188 44.079221 -0.785387 0.745532 0.102463 -0.022545 -135565.000000 0 0 1
21.883233 -22.455978 32.511922 45.168262 -0.798315 0.767288 0.080229 -0.019879 -133497.000000 0 0 1
21.253333 -23.476878 33.278364 45.938192 -0.835067 0.760609 0.096667 -0.024639 293635.000000 0 0 1
21.761433 -23.414278 -32.750593 45.764502 -0.821969 2.368326 0.097044 -0.030850 61462.500000 0 0 1
20.953433 -24.272078 -31.773293 45.141137 -0.858647 2.351621 0.112284 -0.038863 -98513.400000 0 0 1
21.232333 -25.668838 -31.838263 46.080106 -0.879710 2.333575 0.122916 -0.049669 -151055.000000 0 0 1
22.268533 -26.007138 -30.968863 46.166321 -0.862687 2.306098 0.090868 -0.045192 -272518.000000 0 0 1
22.260833 -27.572008 -30.913533 47.025597 -0.891577 2.288129 0.082764 -0.050643 -72043.400000 0 0 1
21.068333 -28.041928 -30.331423 46.370460 -0.926454 2.283803 0.091811 -0.052602 -63796.900000 0 0 1
21.039133 -29.403728 -30.464893 47.279319 -0.949726 2.270982 0.082288 -0.048429 46084.500000 0 0 1
19.780333 -30.069348 -29.837383 46.751435 -0.988941 2.262971 0.115846 -0.053646 565434.000000 0 0 1
18.511433 -30.030778 -30.453473 46.604021 -1.018394 2.282932 0.136452 -0.056425 24933.300000 0 0 1
18.365233 -30.639758 -31.709123 47.765521 -1.030824 2.296751 0.134332 -0.054515 -603179.000000 0 0 1
16.999733 -31.297988 -31.995213 47.877433 -1.073222 2.302682 0.149710 -0.056619 304589.000000 0 0 1
16.021533 -30.438578 -32.573503 47.373301 -1.086287 2.328964 0.150667 -0.054496 -206021.000000 0 0 1
14.876433 -31.131528 -32.973603 47.725661 -1.125019 2.333528 0.109658 -0.036451 -443471.000000 0 0 1
13.770333 -30.279548 -33.564933 47.255453 -1.143980 2.360702 0.102653 -0.027810 -371715.000000 0 0 1
13.127233 -29.503458 -32.611003 45.893962 -1.152159 2.361108 0.125782 -0.035590 91754.900000 0 0 1
12.217533 -28.536018 -33.199123 45.450568 -1.166265 2.389769 0.106301 -0.030847 802970.000000 0 0 1
11.306933 -27.766798 -32.168973 43.973681 -1.184089 2.391390 0.128570 -0.040558 -128967.000000 0 0 1
10.361633 -28.599148 -31.592673 43.856261 -1.223201 2.375130 0.134874 -0.043620 -674338.000000 0 0 1
9.519433 -27.783988 -30.812253 42.567176 -1.240709 2.380163 0.106776 -0.047708 -155951.000000 0 0 1
8.263933 -28.460058 -30.219613 42.326026 -1.288198 2.365952 0.088999 -0.036824 39885.600000 0 0 1
7.228933 -28.860648 -31.074323 43.021018 -1.325369 2.377927 0.089181 -0.029425 53421.700000 0 0 1
7.495233 -30.120648 -31.651873 44.331400 -1.326909 2.365967 0.096518 -0.022599 -621587.000000 0 0 1
6.262233 -30.652208 -32.364023 45.013369 -1.369270 2.373140 0.145462 -0.032591 345589.000000 0 0 1
5.248633 -31.145048 -31.443393 44.567355 -1.403843 2.353960 0.157434 -0.053256 551598.000000 0 0 1
4.129933 -31.612498 -32.162053 45.285804 -1.440890 2.360581 0.187449 -0.054442 -323390.000000 0 0 1
2.969033 -32.163268 -31.328513 44.997407 -1.478746 2.340927 0.142788 -0.048529 3502.570000 0 0 1
2.110033 -31.160508 -30.755463 43.832955 -1.503185 2.348509 0.107869 -0.043123 317699.000000 0 0 1
0.777033 -31.515908 -31.074783 44.266221 -1.546146 2.348995 0.085373 -0.016628 -407732.000000 0 0 1
-0.219567 -30.483668 -30.573563 43.174587 1.563594 2.357654 0.060636 -0.015145 -562181.000000 0 0 1
-0.619767 -30.512428 -29.199573 42.237512 1.550487 2.334109 0.022002 -0.018220 34387.500000 0 0 1
-1.331267 -29.341878 -28.867253 41.182962 1.525457 2.347527 0.111451 -0.027897 -390914.000000 0 0 1
-2.011167 -29.303558 -27.505263 40.240313 1.502272 2.323377 0.131588 -0.031942 -377585.000000 0 0 1
-1.210967 -29.534128 -26.359843 39.605207 1.529817 2.299047 0.101001 -0.030594 -343089.000000 0 0 1
-1.957667 -29.538168 -25.183993 38.866043 1.504617 2.275711 0.133950 -0.042064 -87938.400000 0 0 1
-0.961767 -29.674098 -24.001113 38.177618 1.538397 2.250638 0.080433 -0.036037 -126116.000000 0 0 1
-1.398367 -29.651578 -22.643713 37.335094 1.523671 2.222447 0.147502 -0.051809 -526833.000000 0 0 1
-0.416867 -30.101938 -21.768813 37.150796 1.556949 2.196858 0.125595 -0.050826 -138221.000000 0 0 1
-0.983367 -30.082418 -20.305313 36.307363 1.538119 2.164291 0.080380 -0.031657 415091.000000 0 0 1
-1.155867 -28.790588 -19.717313 34.914272 1.530670 2.170908 0.064308 -0.028553 614984.000000 0 0 1
0.118833 -28.191438 -19.427613 34.237457 -1.566581 2.174187 0.080276 -0.031135 742912.000000 0 0 1
0.051533 -26.814838 -18.795413 32.746080 -1.568875 2.182148 0.079151 -0.036174 -328679.000000 0 0 1
-0.709567 -26.775818 -17.623213 32.062837 1.544302 2.152737 0.079244 -0.031835 -155235.000000 0 0 1
-0.368167 -25.765798 -16.721713 30.718522 1.556508 2.146414 0.079620 -0.030809 58343.100000 0 0 1
-1.468367 -25.494858 -15.653413 29.952850 1.513265 2.120696 0.067893 -0.024736 -32829.600000 0 0 1
-1.290467 -24.292178 -14.966613 28.561770 1.517723 2.122347 0.049755 -0.018737 636864.000000 0 0 1
-2.389567 -24.025978 -14.059813 27.939864 1.471665 2.098114 0.058789 -0.016828 589213.000000 0 0 1
-2.123467 -22.979778 -12.971413 26.473323 1.478652 2.082864 0.054674 -0.006570 460109.000000 0 0 1
-0.991567 -23.240578 -12.124913 26.232064 1.528157 2.051290 0.064238 -0.020106 343912.000000 0 0 1
-0.924967 -22.258978 -11.068213 24.876153 1.529265 2.031895 0.066818 -0.013554 132515.000000 0 1 0
0.362533 -22.298278 -10.214013 24.528976 -1.554539 2.000285 0.064867 -0.025268 206871.000000 0 1 0
0.590433 -21.005178 -9.664213 23.129270 -1.542695 2.001857 0.048602 -0.023516 -859755.000000 0 1 0
1.840333 -20.930578 -9.075113 22.887411 -1.483096 1.978510 0.038161 -0.024890 -447642.000000 0 1 0
2.302333 -19.486478 -8.803813 21.506526 -1.453191 1.992544 0.033893 -0.019939 -1819220.000000 0 1 0
2.355433 -18.712178 -10.006113 21.349847 -1.445578 2.058585 0.023011 -0.006568 213219.000000 0 1 0
3.485833 -17.843278 -10.042013 20.769584 -1.377868 2.075441 0.018428 -0.008955 1254630.000000 0 1 0
4.932533 -18.494978 -10.052413 21.620478 -1.310167 2.054373 0.041235 -0.016570 325354.000000 0 1 0
5.118033 -19.047378 -8.772013 21.585761 -1.308296 1.989285 0.037368 -0.011099 -1588430.000000 0 1 0
6.180533 -19.904978 -8.662413 22.570878 -1.269733 1.964690 0.044093 -0.002250 -1094380.000000 0 1 0
5.917233 -20.853678 -7.509013 22.940680 -1.294314 1.904265 0.035741 -0.012943 -90215.800000 0 1 0
5.004933 -21.861178 -7.892413 23.775000 -1.345733 1.909180 0.045671 -0.027746 2355.510000 0 1 0
4.886133 -22.947678 -7.045713 24.497189 -1.361004 1.862530 0.065475 -0.025654 237743.000000 0 1 0
3.848333 -24.025078 -7.508213 25.463450 -1.411966 1.870108 0.065140 -0.026724 69803.500000 0 0 1
4.224033 -24.734378 -8.640813 26.538567 -1.401652 1.902437 0.075029 -0.028308 -221685.000000 0 0 1
3.327733 -25.668068 -9.156313 27.454719 -1.441871 1.910816 0.072929 -0.032999 243395.000000 0 0 1
4.196233 -26.534828 -10.153213 28.719213 -1.413955 1.932143 0.060817 -0.031666 250465.000000 0 0 1
5.110533 -27.368408 -9.529313 29.427115 -1.386191 1.900569 0.082248 -0.042757 -283530.000000 0 0 1
5.995633 -27.956498 -10.475713 30.450845 -1.359534 1.921992 0.100426 -0.029085 65369.800000 0 0 1
5.824433 -29.421798 -10.645413 31.825949 -1.375360 1.911859 0.090248 -0.038843 -798215.000000 0 0 1
4.522933 -29.754738 -11.012813 32.048142 -1.419944 1.921580 0.090543 -0.037003 -498509.000000 0 0 1
4.209233 -31.118408 -10.876513 33.232085 -1.436347 1.904230 0.111627 -0.039149 -407637.000000 0 0 1
2.765533 -31.501678 -11.211913 33.551615 -1.483231 1.911520 0.111651 -0.042894 -377783.000000 0 0 1
2.518233 -31.475838 -12.591213 33.994242 -1.490961 1.950228 0.110097 -0.042520 -42753.100000 0 0 1
1.569833 -32.434318 -12.926213 34.950484 -1.522434 1.949637 0.100616 -0.037539 -516744.000000 0 0 1
1.215733 -32.528598 -14.427413 35.605308 -1.533439 1.987998 0.098627 -0.025060 1998.870000 0 0 1
0.418633 -31.456198 -14.887513 34.803817 -1.557489 2.012804 0.090840 -0.028401 -67227.400000 0 0 1
-0.024467 -31.653528 -16.205513 35.560724 1.570023 2.043970 0.080771 -0.029523 101551.000000 0 0 1
-1.076167 -30.579158 -16.618313 34.819698 1.535618 2.068339 0.089171 -0.028101 332039.000000 0 0 1
-2.348067 -30.796008 -16.035313 34.799982 1.494698 2.049676 0.112744 -0.036042 -479821.000000 0 0 1
-3.328767 -30.513478 -16.994213 35.084987 1.462134 2.076442 0.115508 -0.031383 -636946.000000 0 0 1
-4.757167 -30.572768 -16.466913 35.049736 1.416433 2.059878 0.142638 -0.028933 -1068200.000000 0 0 1
-5.008767 -29.395098 -15.711413 33.704718 1.402023 2.055729 0.128176 -0.021656 -429917.000000 0 0 1
-6.349367 -28.986688 -15.770013 33.604105 1.355158 2.059281 0.128400 -0.035034 -427986.000000 0 0 1
-7.304067 -29.711718 -14.834713 34.003004 1.329745 2.022253 0.125960 -0.043907 -741346.000000 0 0 1
-7.593067 -31.052668 -15.216613 35.404352 1.330980 2.015062 0.135096 -0.038673 -288102.000000 0 0 1
-8.580867 -31.561498 -14.363413 35.722081 1.305335 1.984592 0.129655 -0.022592 143083.000000 0 0 1
-8.996567 -33.034608 -14.599813 37.220667 1.304907 1.973873 0.158721 -0.031304 134890.000000 0 0 1
-7.881967 33.677943 -14.435713 37.479582 -1.340895 1.966180 0.142869 -0.030863 71202.100000 0 0 1
-8.326967 32.344107 -14.307313 36.334266 -1.318819 1.975525 0.164499 -0.035297 -387134.000000 0 0 1
-7.848767 -21.910478 -3.450113 23.528185 1.226818 1.717964 0.114747 -0.039061 154996.000000 0 1 0
-7.605267 -21.137678 -4.546513 22.919692 1.225421 1.770488 0.084075 -0.020740 -585759.000000 0 1 0
-6.253167 -21.078478 -4.896113 22.525014 1.282405 1.789909 0.076715 -0.022647 -328501.000000 0 1 0
-6.063467 -20.030578 -6.022213 21.777436 1.276855 1.850982 0.068595 -0.023055 -259968.000000 0 1 0
-6.757367 -20.266678 -7.191013 22.541316 1.248965 1.895486 0.069032 -0.023631 -437386.000000 0 1 0
-7.010267 -19.061978 -7.913513 21.797397 1.218387 1.942334 0.055325 -0.027723 383252.000000 0 1 0
-8.007267 -19.399678 -9.078513 22.866640 1.179345 1.979064 0.076153 -0.027314 911523.000000 0 1 0
-7.253967 -20.046478 -10.112013 23.595214 1.223597 2.013697 0.085160 -0.025654 56402.400000 0 1 0
-8.097367 -20.368278 -11.177813 24.604422 1.192406 2.042384 0.099851 -0.020745 142510.000000 0 1 0
-7.429367 -21.268578 -12.291113 25.663580 1.234735 2.070234 0.089094 -0.015148 -60440.300000 0 0 1
-6.494467 -20.644078 -13.116313 25.306002 1.266006 2.115668 0.089591 -0.000528 -210049.000000 0 0 1
-6.079367 -21.443378 -14.210213 26.433072 1.294538 2.138375 0.064068 0.002122 105260.000000 0 0 1
-5.137267 -20.695578 -15.183313 26.176926 1.327484 2.189558 0.038152 0.012205 184858.000000 0 0 1
-3.782967 -20.586078 -14.771313 25.618141 1.389061 2.185352 0.037298 0.009539 631124.000000 0 0 1
-2.945867 -19.632578 -15.477813 25.172980 1.421858 2.233002 0.055748 0.004134 335262.000000 0 0 1
-3.377267 -18.141578 -15.477813 24.084964 1.386742 2.268727 0.060464 0.000485 9624.410000 0 1 0
-4.626667 -17.872878 -16.133013 24.517747 1.317491 2.288974 0.067366 0.003584 513031.000000 0 1 0
-4.659367 -17.948978 -17.520813 25.511848 1.316813 2.327835 0.080881 -0.006437 -389608.000000 0 0 1
-6.130467 -17.938078 -17.980513 26.127688 1.241484 2.329772 0.077340 -0.004830 8460.850000 0 0 1
-6.801067 -19.140278 -17.678213 26.928126 1.229383 2.286961 0.061373 -0.002783 1403240.000000 0 0 1
-8.236867 -18.997678 -17.923513 27.386311 1.161687 2.284277 0.049448 0.000932 1914190.000000 0 0 1
-9.089367 -20.250478 -17.580613 28.315656 1.148902 2.240661 0.078819 -0.015200 -48489.400000 0 0 1
-8.593167 -21.349078 -18.280913 29.390771 1.188130 2.242084 0.091131 -0.012784 162309.000000 0 0 1
-9.274767 -22.574378 -18.135713 30.406051 1.180968 2.209868 0.132330 -0.006116 -421265.000000 0 0 1
-8.629267 -23.651478 -18.957713 31.515893 1.220953 2.216210 0.163890 -0.029200 -1205980.000000 0 0 1
-8.808667 -23.452678 -20.365913 32.286082 1.211506 2.253374 0.146934 -0.032948 16689.400000 0 0 1
-8.110767 -24.424278 -21.132213 33.300155 1.250176 2.258285 0.165173 -0.059239 1668120.000000 0 0 1
-6.517567 -24.315078 -20.992513 32.777847 1.308906 2.265878 0.131238 -0.042991 450001.000000 0 0 1
-5.975767 -23.211278 -21.672513 32.313635 1.318817 2.305938 0.149291 -0.061375 -72760.300000 0 0 1
-5.950567 -21.878278 -21.039513 30.931042 1.305235 2.318841 0.118832 -0.056492 -652428.000000 0 0 1
-5.189667 -21.785478 -19.659613 29.800001 1.336938 2.291240 0.109894 -0.027366 -459008.000000 0 0 1
-3.843467 -22.092778 -19.851213 29.948852 1.398551 2.295398 0.105327 -0.038955 -667311.000000 0 0 1
-3.221367 -22.113678 -18.570613 29.056146 1.426141 2.264161 0.052074 -0.030337 -359561.000000 0 0 1
-1.802967 -22.679178 -18.548513 29.353758 1.491464 2.254793 0.096639 -0.031151 -309317.000000 0 0 1
-0.872967 -21.851878 -19.219513 29.114538 1.530868 2.291794 0.131196 -0.036025 -1371040.000000 0 0 1
0.384233 -22.398678 -19.207913 29.509190 -1.553644 2.279583 0.086058 -0.038142 -976422.000000 0 0 1
1.375333 -21.480178 -19.953413 29.350098 -1.506856 2.318343 0.091461 -0.033553 -110088.000000 0 0 1
1.030733 -21.327678 -21.277313 30.143926 -1.522505 2.354429 0.084611 -0.041282 -653309.000000 0 0 1
2.090633 -20.847178 -22.047213 30.414719 -1.470847 2.381666 0.097928 -0.038606 -842433.000000 0 0 1
1.927733 -20.905078 -23.596313 31.583610 -1.478843 2.414494 0.120801 -0.047274 -294080.000000 0 0 1
1.185933 -19.940178 -24.214613 31.390518 -1.511392 2.451833 0.120893 -0.048707 -259178.000000 0 0 1
-0.192267 -19.854478 -23.872113 31.050202 1.561113 2.447795 0.118361 -0.048797 141093.000000 0 0 1
-0.999467 -18.804478 -24.731113 31.084325 1.517696 2.490816 0.126418 -0.050134 292127.000000 0 0 1
-0.573667 -17.443378 -24.469713 30.056070 1.537921 2.522035 0.095884 -0.040478 96514.900000 0 0 1
-1.394967 -16.437578 -25.053013 29.996556 1.486135 2.559286 0.135810 -0.046080 220301.000000 0 0 1
-0.856267 -15.012378 -24.710513 28.926011 1.513821 2.594934 0.121623 -0.029546 317817.000000 0 0 1
0.418533 -14.775778 -25.281863 29.286027 -1.542478 2.612517 0.118855 -0.035466 -302435.000000 0 0 1
1.028133 -13.597378 -24.845213 28.341318 -1.495327 2.639636 0.111280 -0.032812 174745.000000 0 0 1
0.453933 -12.325578 -25.521753 28.345825 -1.533984 2.691417 0.103842 -0.025087 -140086.000000 0 0 1
1.173933 -11.162478 -25.173903 27.562736 -1.466014 2.722187 0.096079 -0.020829 26471.900000 0 0 1
0.815633 -10.049278 -25.987643 27.874914 -1.489811 2.771503 0.080363 -0.021597 -408795.000000 0 0 1
1.658033 -8.740478 -25.796763 27.287689 -1.383328 2.809502 0.089081 -0.024278 1092020.000000 0 0 1
3.065733 -8.770578 -26.092353 27.697159 -1.234525 2.799512 0.095926 -0.022675 776302.000000 0 0 1
3.339033 -8.903078 -27.453223 29.053285 -1.211988 2.808167 0.102983 -0.027746 685587.000000 0 0 1
4.846533 -8.473278 -27.713363 29.382236 -1.051236 2.802934 0.113618 -0.036811 82711.500000 0 0 1
4.979033 -7.082578 -27.898463 29.210921 -0.958062 2.840691 0.108592 -0.026696 717313.000000 0 0 1
6.261033 -6.544678 -28.301143 29.715114 -0.807544 2.831862 0.105233 -0.029427 483729.000000 0 0 1
7.360933 -6.810678 -27.241203 29.028465 -0.746590 2.788856 0.116115 -0.028736 -777422.000000 0 0 1
7.942933 -8.128178 -27.085773 29.373398 -0.796924 2.744319 0.092149 -0.028715 273941.000000 0 0 1
8.839833 -8.465678 -28.101273 30.651132 -0.763781 2.730814 0.093835 -0.037119 -931707.000000 0 0 1
9.529033 -9.832278 -28.074113 31.235108 -0.801059 2.687820 0.101423 -0.018555 -138638.000000 0 0 1
8.748433 -10.978578 -28.363663 31.647458 -0.897971 2.682011 0.111198 -0.032789 12159.800000 0 0 1
8.638433 -11.911378 -27.296293 31.009531 -0.943340 2.647195 0.114207 -0.032931 297831.000000 0 0 1
9.662833 -13.118878 -27.357233 31.841694 -0.935953 2.604430 0.111966 -0.033854 349268.000000 0 0 1
9.443833 -13.956778 -28.424513 33.044372 -0.975915 2.606443 0.138587 -0.045078 563742.000000 0 0 1
10.329233 -15.105278 -28.516623 33.883038 -0.971015 2.571071 0.117133 -0.046560 531903.000000 0 0 1
9.795333 -16.017078 -29.651663 35.095818 -1.021923 2.577132 0.141833 -0.053824 106764.000000 0 0 1
9.972033 -15.396878 -30.886913 35.923623 -0.996064 2.605662 0.160418 -0.057348 993193.000000 0 0 1
9.000633 -15.853278 -31.846263 36.694989 -1.054431 2.621683 0.181628 -0.058741 -183781.000000 0 0 1
7.674333 -15.165078 -32.135823 36.353625 -1.102318 2.655101 0.191923 -0.056821 -307882.000000 0 0 1
7.744633 -14.051978 -32.953373 36.651906 -1.067077 2.688483 0.188559 -0.051162 -421163.000000 0 0 1
6.492433 -13.753978 -33.471033 36.764570 -1.129766 2.715084 0.197643 -0.070924 -443404.000000 0 0 1
6.572033 -12.507878 33.012239 35.908864 -1.087011 0.404412 0.230130 -0.058669 -165865.000000 0 0 1
7.124233 -12.653078 31.749361 34.912419 -1.057994 0.428957 0.217986 -0.047876 113555.000000 0 0 1
7.236133 -11.359378 31.148954 33.936034 -1.003601 0.408110 0.229221 -0.058947 -186057.000000 0 0 1
7.617333 -11.377878 29.651734 32.660453 -0.980844 0.432600 0.236913 -0.054089 -125397.000000 0 0 1
6.797633 -12.152078 28.780884 31.972177 -1.060780 0.450601 0.208902 -0.049922 231080.000000 0 0 1
7.048833 -11.925878 27.384394 30.689047 -1.036981 0.468342 0.174684 -0.045055 -183397.000000 0 0 1
6.086933 -12.655578 26.427044 29.926628 -1.122490 0.488450 0.143871 -0.056575 -313422.000000 0 0 1
6.294133 -14.076478 26.289814 30.478150 -1.150325 0.530451 0.129850 -0.047658 23864.700000 0 0 1
5.533633 -14.708778 25.288744 29.773979 -1.210963 0.556030 0.073047 -0.039422 324952.000000 0 0 1
4.011033 -14.935278 25.444454 29.775344 -1.308426 0.546117 0.084307 -0.048973 752444.000000 0 0 1
3.127233 -13.776878 25.304314 28.980860 -1.347587 0.509192 0.088644 -0.057869 1181860.000000 0 0 1
1.839433 -14.204178 24.822314 28.658148 -1.442014 0.523345 0.082468 -0.054944 382873.000000 0 0 1
0.948833 -13.031978 24.509964 27.775368 -1.498117 0.489782 0.095193 -0.053339 -1005590.000000 0 0 1
1.403433 -12.232978 23.449504 26.485743 -1.456570 0.483522 0.042404 -0.037408 199698.000000 0 0 1
0.545133 -11.112578 23.114844 25.653120 -1.521780 0.448603 0.050043 -0.030431 1176720.000000 0 0 1
-0.926867 -11.375178 22.640674 25.354563 1.489494 0.466912 0.067352 -0.035757 315215.000000 0 0 1
-1.012567 -12.084978 21.432054 24.625290 1.487204 0.514930 0.055858 -0.033311 473056.000000 0 1 0
-2.241167 -12.816978 21.309354 24.967705 1.397687 0.548176 0.098610 -0.040990 733123.000000 0 1 0
-2.274467 -13.555878 19.978354 24.250147 1.404560 0.602636 0.117909 -0.040661 -27043.900000 0 1 0
-1.297967 -14.567278 19.931754 24.721754 1.481929 0.633022 0.136826 -0.044708 -290764.000000 0 1 0
-1.244067 -15.429478 18.772854 24.331801 1.490341 0.689545 0.143577 -0.041993 210053.000000 0 1 0
-2.499367 -16.312878 18.526454 24.811012 1.418764 0.727705 0.139491 -0.049548 352035.000000 0 1 0
-2.316367 -17.135378 17.375554 24.513192 1.436430 0.782966 0.112192 -0.047665 407461.000000 0 1 0
-3.357867 -18.144878 17.299054 25.293658 1.387808 0.817662 0.125977 -0.046925 321660.000000 0 0 1
-3.043867 -19.402378 16.473654 25.633936 1.415184 0.872844 0.113895 -0.050604 340362.000000 0 0 1
-1.974067 -20.175178 17.048954 26.487763 1.473260 0.871533 0.118313 -0.051722 207728.000000 0 0 1
-2.106567 -21.582978 16.945454 27.521100 1.473501 0.907489 0.114649 -0.063055 -377047.000000 0 0 1
-1.156367 -22.474678 17.744554 28.658638 1.519390 0.903112 0.124863 -0.040949 1236570.000000 0 0 1
0.185833 -22.484278 17.192954 28.305034 -1.562532 0.917992 0.117542 -0.046177 1061910.000000 0 0 1
1.147033 -23.340778 17.831354 29.394979 -1.521693 0.919004 0.147736 -0.035291 1021980.000000 0 0 1
2.519933 -23.334578 17.104554 29.041666 -1.463222 0.941018 0.143949 -0.045946 334585.000000 0 0 1
3.205433 -22.071778 17.229754 28.183374 -1.426577 0.913038 0.132305 -0.042248 82033.400000 0 0 1
4.399333 -22.228278 16.451954 28.002094 -1.375405 0.942798 0.127635 -0.030365 524295.000000 0 0 1
5.275933 -20.935978 16.633554 27.254830 -1.323933 0.914360 0.103733 -0.026346 -345706.000000 0 0 1
6.013233 -20.960578 17.828254 28.166495 -1.291417 0.885426 0.102759 -0.022402 -180525.000000 0 0 1
6.670633 -19.776378 18.249054 27.724185 -1.245477 0.852323 0.086299 -0.016596 886577.000000 0 0 1
7.787433 -19.099578 17.354454 26.955798 -1.183646 0.871327 0.087478 -0.020804 461266.000000 0 0 1
7.206333 -18.473178 16.203754 25.607639 -1.198856 0.885671 0.074542 -0.019686 116653.000000 0 0 1
8.084733 -17.492178 15.692854 24.851657 -1.137850 0.887360 0.104088 -0.027703 -843.858000 0 1 0
7.415433 -16.416478 14.775254 23.298015 -1.146524 0.883842 0.069617 -0.017776 -360003.000000 0 1 0
6.940433 -17.023178 13.680354 22.915285 -1.183666 0.931044 0.074503 -0.023769 -148419.000000 0 1 0
6.358933 -16.114878 12.762054 21.517326 -1.194954 0.935885 0.050646 -0.021673 86308.400000 0 1 0
6.674533 -16.509278 11.286554 21.082978 -1.186597 1.005887 0.057780 -0.018099 -1048840.000000 0 1 0
7.933433 -16.053278 11.024654 21.028316 -1.111804 1.018931 0.064860 -0.016207 -1211350.000000 0 1 0
8.428133 -16.653078 9.808154 21.084551 -1.102280 1.086956 0.066612 -0.010980 -174468.000000 0 1 0
9.707833 -15.909478 9.415554 20.880760 -1.022917 1.103000 0.065357 -0.011793 -572830.000000 0 1 0
10.534433 -16.819478 8.764054 21.695109 -1.011246 1.154950 0.072717 0.001451 -62360.300000 0 1 0
11.797333 -16.203678 8.454354 21.753444 -0.941482 1.171636 0.075128 -0.011040 816550.000000 0 1 0
12.725233 -17.099978 7.614854 22.634637 -0.931039 1.227678 0.100255 -0.018405 -80102.700000 0 1 0
13.397433 -18.107878 8.306554 24.008025 -0.933812 1.217502 0.132716 -0.030124 -258950.000000 0 1 0
14.086233 -18.942678 7.433854 24.748923 -0.931388 1.265715 0.124738 -0.031812 139930.000000 0 1 0
14.737633 -20.175878 8.094354 26.263709 -0.939920 1.257501 0.122410 -0.034208 460839.000000 0 0 1
13.718033 -21.060278 8.568754 26.554534 -0.993459 1.242231 0.116494 -0.030760 255032.000000 0 0 1
14.254233 -22.115478 9.302154 27.907124 -0.998271 1.230968 0.077118 -0.023899 -109160.000000 0 0 1
13.227933 -22.923878 10.111954 28.332561 -1.047432 1.205847 0.095717 -0.028609 -14096.500000 0 0 1
12.893733 -22.162378 11.286854 28.014504 -1.043878 1.156121 0.107086 -0.034158 -535158.000000 0 0 1
12.070433 -22.729878 12.257854 28.506099 -1.082628 1.126295 0.140525 -0.040716 -713587.000000 0 0 1
12.418333 -24.196778 12.736954 30.032134 -1.096627 1.132816 0.122032 -0.034835 251147.000000 0 0 1
13.610833 -24.259178 13.512054 30.924716 -1.059502 1.118609 0.095082 -0.036266 146337.000000 0 0 1
13.692933 -25.570058 13.942954 32.182763 -1.079149 1.122709 0.101990 -0.044105 -14945.000000 0 0 1
14.968333 -25.783008 14.780754 33.275895 -1.044801 1.110529 0.080694 -0.042854 -142666.000000 0 0 1
15.113133 -25.068258 16.026954 33.371958 -1.028262 1.069854 0.078591 -0.040558 114067.000000 0 0 1
16.128733 -25.740438 16.744154 34.685341 -1.011054 1.067011 0.084609 -0.037671 -203902.000000 0 0 1
16.109433 -25.445848 18.293754 35.237287 -1.006403 1.024930 0.105677 -0.033089 -145479.000000 0 0 1
16.354833 -24.155478 18.644854 34.620778 -0.975629 1.002087 0.083297 -0.018743 45127.600000 0 0 1
17.705133 -23.931278 19.006354 35.318823 -0.933834 1.002572 0.080275 -0.027768 -222342.000000 0 0 1
17.940833 -22.446678 19.322354 34.627737 -0.896504 0.978820 0.084109 -0.031179 -346933.000000 0 0 1
17.926933 -21.530678 18.206354 33.412817 -0.876478 0.994537 0.073595 -0.026151 630150.000000 0 0 1
16.667133 -20.952678 17.837754 32.171315 -0.898826 0.983081 0.094194 -0.027125 -107403.000000 0 0 1
16.731933 -19.955178 16.674854 30.922766 -0.873031 1.001260 0.100814 -0.025932 58583.600000 0 0 1
17.546533 -18.814878 16.855554 30.756953 -0.820266 0.990796 0.094375 -0.027460 2182100.000000 0 0 1
19.003833 -19.021878 16.724754 31.665358 -0.785873 1.014350 0.079699 -0.028846 2080960.000000 0 0 1
19.805333 -17.669578 16.890854 31.460549 -0.728468 1.004050 0.086376 -0.030299 43791.000000 0 0 1
19.837033 -17.316278 18.271054 32.049848 -0.717655 0.964190 0.090448 -0.025259 125307.000000 0 0 1
20.577533 -16.134178 18.472954 32.015568 -0.664950 0.955747 0.096982 -0.028537 -439880.000000 0 0 1
21.093333 -15.967978 19.909854 33.110531 -0.647976 0.925651 0.088046 -0.021545 -514425.000000 0 0 1
22.288533 -16.615578 20.220654 34.376314 -0.640600 0.941947 0.085708 -0.020704 -366897.000000 0 0 1
22.803033 -16.337178 21.509554 35.348870 -0.621680 0.916636 0.081205 -0.018683 175467.000000 0 0 1
35.869412 -1.604478 -8.010713 36.788049 -0.044701 1.790308 0.183498 -0.035781 385021.000000 0 0 1
37.153612 -1.148878 -8.425013 38.114192 -0.030913 1.793684 0.200559 -0.035341 365781.000000 0 0 1
-37.886417 -2.177378 -8.452013 38.878762 0.057408 1.789940 0.229442 -0.039340 987153.000000 0 0 1
-36.388807 -1.728878 -8.661813 37.445444 0.047476 1.804229 0.220390 -0.048809 876537.000000 0 0 1
-35.421774 -2.738278 -8.638913 36.562700 0.077151 1.809329 0.249178 -0.035045 -254670.000000 0 0 1
-34.152710 -2.198278 -8.945313 35.373135 0.064277 1.826457 0.277503 -0.046074 -228439.000000 0 0 1
-33.046047 -3.268078 -8.894413 34.377786 0.098574 1.832499 0.250179 -0.039506 -231027.000000 0 0 1
-32.605637 -3.511978 -7.567913 33.656127 0.107297 1.797596 0.259269 -0.046260 875310.000000 0 0 1
-31.408417 -4.303778 -7.485513 32.573671 0.136178 1.802671 0.242728 -0.053511 442388.000000 0 0 1
-30.816317 -4.379578 -6.090013 31.716153 0.141173 1.764012 0.250515 -0.072559 -262002.000000 0 0 1
-30.356397 -3.107478 -5.642913 31.032398 0.102011 1.753653 0.232612 -0.063471 421390.000000 0 0 1
-30.024917 -3.142078 -4.276313 30.490247 0.104269 1.711512 0.240286 -0.062056 -189992.000000 0 0 1
-29.873327 -1.710578 -3.598813 30.137903 0.057199 1.690493 0.250363 -0.061653 199408.000000 0 0 1
-28.633257 -1.046678 -3.858813 28.911060 0.036538 1.704668 0.218547 -0.048748 649511.000000 0 0 1
-28.603347 0.158022 -3.171613 28.779082 -0.005525 1.681226 0.251724 -0.067046 599238.000000 0 0 1
-27.166827 0.682322 -2.780813 27.317302 -0.025111 1.672770 0.260933 -0.040563 869257.000000 0 0 1
-26.539237 -0.004578 -1.702213 26.593771 0.000172 1.634848 0.250052 -0.045857 103940.000000 0 0 1
-25.325107 0.623522 -1.357013 25.369102 -0.024616 1.624313 0.217106 -0.037826 93673.000000 0 0 1
-24.710567 0.038022 -0.060413 24.710670 -0.001539 1.573241 0.196889 -0.038387 56124.500000 0 1 0
-24.638167 -1.369978 -0.101213 24.676433 0.055547 1.574898 0.182495 -0.038604 97743.300000 0 1 0
-23.952067 -1.907778 1.013487 24.049289 0.079482 1.528642 0.160174 -0.034325 -56972.800000 0 1 0
-23.716467 -3.490778 0.866387 23.987642 0.146139 1.534670 0.131589 -0.023199 -638705.000000 0 1 0
-24.845967 -4.211678 1.200287 25.228972 0.167915 1.523203 0.147824 -0.038704 -389976.000000 0 0 1
-24.646167 -5.597378 0.969787 25.292384 0.223321 1.532444 0.116018 -0.024221 755167.000000 0 0 1
-25.890007 -6.410278 1.532587 26.715781 0.242715 1.513398 0.165509 -0.034922 864599.000000 0 0 1
-25.985917 -6.482678 2.962287 26.945652 0.244479 1.460638 0.164755 -0.044029 610225.000000 0 0 1
-27.289437 -6.977378 3.275687 28.357139 0.250318 1.455022 0.213551 -0.036323 612677.000000 0 0 1
-27.566837 -7.180378 4.742687 28.878737 0.254810 1.405821 0.197903 -0.037767 -146210.000000 0 0 1
-26.809757 -8.230078 5.298187 28.540639 0.297849 1.384077 0.209042 -0.022334 -165963.000000 0 0 1
-26.985137 -8.413178 6.710587 29.051870 0.302220 1.337705 0.170549 -0.024685 -131983.000000 0 0 1
-26.341437 -7.379578 7.668087 28.410017 0.273149 1.297499 0.142979 -0.008409 952885.000000 0 0 1
-24.906567 -7.274578 7.541887 27.021041 0.284170 1.287927 0.175569 -0.026345 1061970.000000 0 0 1
-24.427167 -6.068778 8.154287 26.457683 0.243513 1.257495 0.174844 -0.036688 -81673.600000 0 0 1
-23.070067 -5.596878 7.630587 24.935495 0.238005 1.259794 0.178997 -0.050087 306422.000000 0 1 0
-21.906967 -6.179878 8.218387 24.200165 0.274952 1.224304 0.172422 -0.059579 501780.000000 0 1 0
-20.729967 -5.610078 7.665387 22.802690 0.264296 1.227958 0.155001 -0.052404 515936.000000 0 1 0
-19.422967 -5.915778 8.456687 21.994628 0.295650 1.176142 0.164721 -0.061933 93834.500000 0 1 0
-19.429167 -5.349078 9.707487 22.368292 0.268656 1.121886 0.154164 -0.044835 355991.000000 0 1 0
-18.413767 -5.928478 10.500987 22.011007 0.311479 1.073468 0.152476 -0.048667 -369840.000000 0 1 0
-17.818267 -5.046778 11.603887 21.854309 0.276007 1.011057 0.117888 -0.031392 -267832.000000 0 1 0
-18.715967 -4.976378 12.655587 23.134728 0.259877 0.991974 0.133011 -0.031916 235140.000000 0 1 0
-19.422567 -3.712878 12.725587 23.515147 0.188884 0.998974 0.167103 -0.026570 -39073.100000 0 1 0
-20.794167 -3.736778 13.373587 25.004274 0.177805 1.006464 0.166998 -0.034741 -488140.000000 0 0 1
-20.580367 -3.959278 14.718787 25.609961 0.190059 0.958523 0.166665 -0.029051 -153560.000000 0 0 1
-21.789867 -3.998778 15.410487 26.986509 0.181496 0.963019 0.137619 -0.019200 -655325.000000 0 0 1
-21.723367 -4.651678 16.775587 27.838159 0.210947 0.924027 0.133553 -0.020218 -114929.000000 0 0 1
-22.776367 -4.470178 17.703787 29.191942 0.193801 0.919194 0.109321 -0.020530 462620.000000 0 0 1
-22.434567 -5.123678 18.873387 29.761832 0.224532 0.883891 0.117218 -0.017586 -35816.200000 0 0 1
-23.353267 -4.678278 20.039587 31.126298 0.197709 0.871322 0.127494 -0.023537 -190796.000000 0 0 1
-23.133167 -3.360178 20.419087 31.038256 0.144245 0.852811 0.131557 -0.027664 124192.000000 0 0 1
-23.684267 -3.020978 21.669487 32.243410 0.126867 0.833810 0.131469 -0.025682 -161323.000000 0 0 1
-24.008467 -1.524878 21.872887 32.513919 0.063429 0.832912 0.122442 -0.024018 -87605.800000 0 0 1
-25.198477 -1.098678 21.264887 32.990389 0.043573 0.870325 0.131452 -0.032408 -413251.000000 0 0 1
-25.259567 0.288322 21.292587 33.037905 -0.011414 0.870441 0.118873 -0.033034 259127.000000 0 0 1
-26.642747 0.882822 20.894087 33.870020 -0.033123 0.906011 0.144606 -0.038135 282572.000000 0 0 1
-27.608817 0.787622 21.911887 35.256176 -0.028520 0.900134 0.148847 -0.039594 -167457.000000 0 0 1
-28.865047 1.318422 21.537987 36.039063 -0.045644 0.930256 0.117518 -0.035964 -84884.300000 0 0 1
-29.847907 1.328822 22.704187 37.525238 -0.044490 0.920983 0.099964 -0.029001 -317045.000000 0 0 1
-29.410207 2.158222 23.788287 37.888004 -0.073252 0.891998 0.092297 -0.026552 -175571.000000 0 0 1
-30.091437 1.775622 24.918887 39.110080 -0.058939 0.880005 0.087258 -0.026461 -489947.000000 0 0 1
-29.871817 2.681322 26.133487 39.780323 -0.089521 0.854037 0.109668 -0.032033 61317.500000 0 0 1
-28.549177 2.586022 26.621387 39.120855 -0.090335 0.822364 0.093118 -0.033792 309871.000000 0 0 1
-28.323717 3.571922 27.608087 39.713953 -0.125448 0.802135 0.084774 -0.033288 -488546.000000 0 0 1
-27.087747 3.186222 28.403387 39.378300 -0.117088 0.765126 0.109271 -0.032949 -402290.000000 0 0 1
-27.334437 2.173122 29.399587 40.202359 -0.079334 0.750585 0.106140 -0.033221 361989.000000 0 0 1
-26.100497 1.814322 29.993687 39.801369 -0.069401 0.717299 0.090767 -0.031791 159851.000000 0 0 1
-26.226877 0.636022 31.031787 40.635273 -0.024246 0.701823 0.085291 -0.034825 -149253.000000 0 0 1
-26.615777 -0.566478 30.384087 40.396946 0.021280 0.719496 0.070127 -0.042300 -136089.000000 0 0 1
-27.177377 -1.599778 31.086587 41.322452 0.058796 0.719261 0.071897 -0.037762 -453010.000000 0 0 1
-27.955867 -2.642278 30.195487 41.234447 0.094236 0.749121 0.074690 -0.033005 144354.000000 0 0 1
-29.217377 -2.144378 29.795787 41.785673 0.073263 0.776940 0.089354 -0.037967 -59031.100000 0 0 1
-29.233037 -1.143578 28.773287 41.033892 0.039099 0.793706 0.088744 -0.033313 -704290.000000 0 0 1
-30.667017 -0.824078 28.333587 41.760474 0.026865 0.825107 0.083558 -0.038751 329131.000000 0 0 1
-31.592807 -0.353478 29.299687 43.089466 0.011188 0.823070 0.114012 -0.042928 -118485.000000 0 0 1
-32.894357 -0.258278 28.739987 43.681716 0.007852 0.852715 0.121643 -0.047793 -103494.000000 0 0 1
-33.865267 0.162222 29.833587 45.132312 -0.004790 0.848612 0.125853 -0.044477 -457006.000000 0 0 1
-34.129497 -0.851178 30.768787 45.959388 0.024934 0.837291 0.132260 -0.045542 370914.000000 0 0 1
-35.124088 -0.510578 31.755287 47.353569 0.014535 0.835779 0.149631 -0.047518 476311.000000 0 0 1
-35.335091 -1.687878 32.744187 48.203728 0.047731 0.824005 0.153780 -0.039889 59206.300000 0 0 1
-36.241287 -2.677378 32.295587 48.616913 0.073742 0.844257 0.114671 -0.037376 36244.700000 0 0 1
-36.495627 -3.800678 33.154487 49.452968 0.103767 0.836015 0.100861 -0.025523 -335666.000000 0 0 1
-37.697497 -4.597478 32.653687 50.084942 0.121358 0.860622 0.091117 -0.030719 232568.000000 0 0 1
37.040692 -4.014278 33.030887 49.791232 -0.107953 0.845459 0.097050 -0.037498 18751.400000 0 0 1
35.971772 -4.748378 32.464087 48.687087 -0.131244 0.840903 0.092479 -0.036445 321029.000000 0 0 1
34.578742 -4.212478 32.963187 47.958379 -0.121225 0.812991 0.110108 -0.043583 337794.000000 0 0 1
34.152682 -4.650578 -33.125779 47.805342 -0.135338 2.336342 0.106893 -0.041920 144516.000000 0 0 1
33.802002 -6.032578 -32.983279 47.611595 -0.176609 2.336102 0.092277 -0.035891 -249466.000000 0 0 1
32.407872 -6.491478 -33.530579 47.081941 -0.197689 2.363388 0.072563 -0.028788 419875.000000 0 0 1
31.411222 -6.008178 -32.608179 45.673366 -0.188992 2.365910 0.083778 -0.024172 -707762.000000 0 0 1
30.202972 -6.477078 -33.078479 45.258787 -0.211252 2.390398 0.092752 -0.023013 -911224.000000 0 0 1
28.956172 -6.051378 -32.245779 43.759220 -0.206019 2.399256 0.098831 -0.037748 1056060.000000 0 0 1
27.729172 -6.488078 -32.868079 43.489225 -0.229845 2.427633 0.089263 -0.030597 648221.000000 0 0 1
26.620972 -6.356678 -32.006979 42.113302 -0.234395 2.434141 0.099422 -0.030505 307428.000000 0 0 1
25.292272 -7.024678 -32.466279 41.750501 -0.270912 2.461678 0.112717 -0.040328 356283.000000 0 0 1
25.238872 -8.444578 -32.378379 41.912659 -0.322878 2.453597 0.108758 -0.044483 73241.800000 0 0 1
24.743872 -8.874778 -31.127379 40.742295 -0.344374 2.440296 0.114794 -0.042307 -139995.000000 0 0 1
24.384772 -10.418578 -31.112579 40.879780 -0.403781 2.435765 0.112121 -0.029875 459482.000000 0 0 1
23.183572 -10.727978 -31.825579 40.809741 -0.433398 2.465226 0.124287 -0.040557 487179.000000 0 0 1
22.927972 -12.154178 -31.902679 41.124164 -0.487439 2.458723 0.103467 -0.025754 -567000.000000 0 0 1
21.673872 -12.533778 -32.739879 41.215919 -0.524303 2.488734 0.101104 -0.024174 588475.000000 0 0 1
20.390672 -12.284478 -32.203579 40.046952 -0.542223 2.505033 0.105024 -0.017612 93142.600000 0 0 1
20.055672 -10.904278 -32.098879 39.388720 -0.497994 2.523397 0.106140 -0.028027 -899444.000000 0 0 1
18.726572 -10.612678 -31.368279 38.043164 -0.515588 2.540193 0.097252 -0.031092 699783.000000 0 0 1
17.594072 -11.066478 -32.124079 38.261923 -0.561463 2.567312 0.083608 -0.007633 -272595.000000 0 0 1
16.380672 -10.924578 -31.484079 37.133812 -0.588177 2.582723 0.103656 -0.020381 -1143510.000000 0 0 1
15.144872 -11.313978 -32.242079 37.375458 -0.641610 2.611289 0.092727 -0.014180 -1463210.000000 0 0 1
15.091972 -12.694078 -32.514879 38.027945 -0.699313 2.596397 0.115958 -0.019092 478567.000000 0 0 1
13.934272 -13.054678 -33.278279 38.367074 -0.752819 2.620680 0.097601 -0.026019 828865.000000 0 0 1
12.591972 -13.026978 -32.494279 37.204006 -0.802376 2.632954 0.087550 -0.023771 -442934.000000 0 0 1
11.813672 -11.851978 -32.478279 36.535884 -0.787017 2.665826 0.167227 -0.035588 91437.600000 0 0 1
10.804072 -11.988978 -31.473579 35.370181 -0.837337 2.667777 0.161606 -0.039385 157595.000000 0 0 1
9.529872 -11.179578 -31.765379 34.997724 -0.864890 2.708426 0.150584 -0.041600 -254589.000000 0 0 1
9.764872 -9.801478 -31.859679 34.734145 -0.787269 2.731901 0.136610 -0.043844 -10923.000000 0 0 1
8.559272 -9.108578 -32.013079 34.366620 -0.816479 2.769357 0.126022 -0.039108 -404858.000000 0 0 1
8.749172 -7.574578 -32.075779 34.099528 -0.713566 2.795342 0.141487 -0.037230 -56370.200000 0 0 1
9.213772 -7.055178 -30.826279 32.938254 -0.653487 2.781547 0.133561 -0.042514 310419.000000 0 0 1
9.686672 -5.760378 -31.155079 33.130839 -0.536492 2.794498 0.109165 -0.027019 -76935.500000 0 0 1
9.801772 -4.735878 -30.005479 31.919148 -0.450090 2.793563 0.104343 -0.025110 -156598.000000 0 0 1
8.543972 -4.332678 -29.517379 31.033002 -0.469314 2.827771 0.119741 -0.025618 -193328.000000 0 0 1
8.645372 -3.344478 -28.557279 30.024093 -0.369121 2.827721 0.136610 -0.031276 1340640.000000 0 0 1
7.228772 -2.762378 -28.099779 29.145899 -0.365013 2.872857 0.148491 -0.031738 454925.000000 0 0 1
6.589872 -2.063978 -29.184379 29.990238 -0.303527 2.909248 0.128319 -0.018845 435897.000000 0 0 1
5.313172 -1.518978 -28.847279 29.371799 -0.278461 2.952324 0.158275 -0.030431 309009.000000 0 0 1
4.199572 -2.563478 -28.886179 29.302204 -0.548042 2.972883 0.142444 -0.031956 -1181920.000000 0 0 1
4.149372 -3.406178 -27.770479 28.284604 -0.687350 2.950636 0.149761 -0.039378 278395.000000 0 0 1
2.911172 -4.115178 -27.671879 28.127255 -0.955106 2.961405 0.137636 -0.039500 471843.000000 0 0 1
2.823972 -5.200278 -26.553779 27.205163 -1.073310 2.922323 0.106761 -0.042124 -225348.000000 0 0 1
2.692672 -4.572678 -25.314479 25.864700 -1.038608 2.934958 0.088000 -0.044026 90601.300000 0 0 1
2.944772 -5.517578 -24.289979 25.082233 -1.080548 2.889585 0.081788 -0.046764 56826.400000 0 0 1
2.978172 -4.869978 -22.859979 23.561936 -1.021937 2.896884 0.100141 -0.055458 -268557.000000 0 1 0
4.106472 -4.056778 -22.692679 23.415342 -0.779311 2.892503 0.114984 -0.052521 -244525.000000 0 1 0
4.092772 -3.494278 -21.374679 22.041725 -0.706678 2.894948 0.100376 -0.046840 -315941.000000 0 1 0
5.077672 -2.367578 -21.094379 21.825696 -0.436303 2.881993 0.107093 -0.046614 -484769.000000 0 1 0
6.388172 -2.843978 -20.905879 22.044335 -0.418850 2.818809 0.105977 -0.045716 -442710.000000 0 1 0
7.149972 -1.753778 -20.404879 21.692324 -0.240536 2.795336 0.110243 -0.037985 373888.000000 0 1 0
8.652872 -2.080878 -20.152179 22.029811 -0.236003 2.725731 0.120105 -0.043229 -349688.000000 0 1 0
9.329572 -2.295278 -21.381379 23.440831 -0.241231 2.719278 0.130851 -0.056051 473224.000000 0 1 0
10.574772 -2.990878 -21.339579 24.003099 -0.275632 2.666028 0.110885 -0.047699 1476000.000000 0 1 0
11.808972 -2.355978 -20.587979 23.850940 -0.196922 2.612358 0.110606 -0.042726 13779.300000 0 1 0
11.575272 -2.177278 -19.194179 22.519857 -0.185925 2.591206 0.096276 -0.028421 -583778.000000 0 1 0
12.723072 -1.803778 -18.524679 22.545374 -0.140834 2.535117 0.105353 -0.029876 -706007.000000 0 1 0
13.103672 -0.280478 -18.467879 22.646135 -0.021401 2.524386 0.101149 -0.030470 -78393.600000 0 1 0
13.613072 0.255022 -19.653179 23.908747 0.018731 2.535724 0.118346 -0.040593 158904.000000 0 1 0
13.547072 1.627822 -19.564079 23.852173 0.119587 2.532595 0.128278 -0.051206 -25619.600000 0 1 0
14.142172 2.381522 -20.775379 25.244584 0.166833 2.537405 0.118102 -0.047356 -457441.000000 0 0 1
15.541372 2.367622 -20.938779 26.183436 0.151181 2.497584 0.135602 -0.049334 -144106.000000 0 0 1
15.882372 3.273122 -21.910479 27.258616 0.203240 2.504452 0.115253 -0.036902 717803.000000 0 0 1
17.379672 3.184222 -22.381279 28.515152 0.181206 2.473316 0.083769 -0.018965 793504.000000 0 0 1
17.653172 1.969722 -23.010379 29.068743 0.111119 2.484195 0.064979 -0.013831 -139484.000000 0 0 1
19.039972 1.890422 -23.236879 30.100611 0.098963 2.452737 0.080364 -0.021057 -237919.000000 0 0 1
10.224233 26.472122 3.035287 28.539817 1.202220 1.464242 0.028633 -0.017636 75555.400000 0 0 1
10.057833 26.710122 4.409087 28.879589 1.210663 1.417526 0.037875 -0.017701 377362.000000 0 0 1
11.248433 27.227822 4.999787 29.881088 1.179029 1.402683 0.036383 -0.016956 86864.600000 0 0 1
11.081433 27.622222 6.435187 30.449909 1.189275 1.357854 0.040601 -0.021884 4310.760000 0 0 1
10.900233 26.554722 7.334987 29.627190 1.181287 1.320619 0.035171 -0.030201 204739.000000 0 0 1
10.701733 26.984622 8.683287 30.300105 1.193236 1.280145 0.033632 -0.025801 -546348.000000 0 0 1
10.931733 25.856522 9.755187 29.719122 1.170804 1.236350 0.057381 -0.021815 -161731.000000 0 0 1
12.278533 25.628922 10.092687 30.157360 1.124017 1.229544 0.051377 -0.024629 302502.000000 0 0 1
12.952933 24.738922 9.157487 29.387962 1.088459 1.253913 0.067267 -0.034421 919966.000000 0 0 1
14.333933 24.241522 9.766887 29.807803 1.036801 1.236968 0.087365 -0.032543 1064160.000000 0 0 1
15.367233 25.230122 9.828387 31.133713 1.023725 1.249620 0.085609 -0.033975 -603658.000000 0 0 1
16.492533 24.558422 10.254087 31.309201 0.979411 1.237129 0.084878 -0.030992 -945710.000000 0 0 1
17.621433 25.514922 10.692587 32.800268 0.966385 1.238737 0.069332 -0.026929 -1150980.000000 0 0 1
18.130133 26.257522 9.640287 33.333081 0.966492 1.277394 0.055855 -0.030502 131063.000000 0 0 1
19.538733 26.126322 9.546087 33.992272 0.928669 1.286136 0.063528 -0.038020 487157.000000 0 0 1
20.362133 26.932122 10.628887 35.396736 0.923432 1.265811 0.063761 -0.035692 -775593.000000 0 0 1
20.434333 28.386022 10.508987 36.520775 0.946857 1.278916 0.073595 -0.043928 516622.000000 0 0 1
19.241433 29.060422 10.944987 36.531269 0.985949 1.266517 0.051305 -0.024929 486654.000000 0 0 1
19.336433 30.622622 10.931487 37.830411 1.007577 1.277656 0.057673 -0.018479 -874868.000000 0 0 1
19.551533 31.201122 9.711687 38.080038 1.011026 1.312914 0.087968 -0.040062 408566.000000 0 0 1
18.462133 31.411422 8.799587 37.482803 1.039431 1.333821 0.081527 -0.046114 1408150.000000 0 0 1
17.174433 32.194422 9.311487 37.658276 1.080740 1.320942 0.075169 -0.036754 670322.000000 0 0 1
17.474233 33.494522 9.720987 39.009350 1.089937 1.318946 0.072286 -0.028335 1070220.000000 0 0 1
16.219533 -33.376349 9.947887 38.418933 -1.118445 1.308880 0.074165 -0.024267 1087080.000000 0 0 1
16.384733 -31.885849 10.204687 37.273349 -1.096126 1.293476 0.077477 -0.015466 -296197.000000 0 0 1
16.967633 -31.267149 9.118487 36.724406 -1.073601 1.319877 0.081820 -0.017847 -212269.000000 0 0 1
17.117933 -29.929749 9.336387 35.720885 -1.051267 1.306354 0.077391 -0.018148 73116.200000 0 0 1
17.725733 -29.200349 8.051587 35.095442 -1.025218 1.339315 0.063245 -0.019346 763511.000000 0 0 1
17.014533 -29.593349 6.831887 34.812862 -1.049004 1.373268 0.055089 -0.020453 48829.900000 0 0 1
17.687433 -29.023349 5.776787 34.475663 -1.023479 1.402441 0.044416 -0.005911 -110534.000000 0 0 1
17.233533 -29.384349 4.335887 34.339985 -1.040372 1.444195 0.043238 -0.005182 -148201.000000 0 0 1
17.531833 -30.743849 3.936987 35.609680 -1.052535 1.460010 0.049328 -0.008474 10749.900000 0 0 1
17.585833 -30.800349 2.543687 35.558310 -1.052002 1.499200 0.037786 -0.007230 -282392.000000 0 0 1
17.764733 -32.242249 2.009887 36.867167 -1.067203 1.516252 0.047427 -0.006246 -902695.000000 0 0 1
19.070333 -32.669649 2.144887 37.889103 -1.042424 1.514156 0.049460 0.005279 -862903.000000 0 0 1
19.255633 33.641022 1.532487 38.792348 1.050929 1.531281 0.076276 -0.004809 130956.000000 0 0 1
20.712633 33.098022 1.645287 39.079396 1.011624 1.528683 0.086478 -0.011402 384602.000000 0 0 1
21.120033 33.039222 2.996987 39.327190 1.002022 1.494516 0.088792 -0.035391 203377.000000 0 0 1
22.355233 32.324522 3.088887 39.422993 0.965739 1.492364 0.068795 -0.020920 493834.000000 0 0 1
22.836733 32.273622 4.564987 39.798771 0.954990 1.455842 0.070681 -0.019625 122052.000000 0 0 1
22.212433 31.238622 5.343887 38.701432 0.952688 1.432274 0.088895 -0.036478 129568.000000 0 0 1
22.907033 30.006922 5.342287 38.127255 0.918780 1.430216 0.075950 -0.043483 -64376.400000 0 0 1
22.139033 28.921522 6.089087 36.927878 0.917457 1.405148 0.093866 -0.048668 460391.000000 0 0 1
20.891133 28.577622 5.483087 35.821560 0.939546 1.417126 0.089591 -0.046508 -188554.000000 0 0 1
20.006533 28.151622 6.459887 35.135528 0.952945 1.385888 0.083456 -0.049045 -491747.000000 0 0 1
18.532233 28.252122 6.016087 34.319373 0.990243 1.394589 0.086797 -0.044806 2883.010000 0 0 1
17.910633 29.538522 6.016487 35.064415 1.025722 1.398359 0.078570 -0.050045 312684.000000 0 0 1
18.418233 30.365322 4.904987 35.851680 1.025571 1.433553 0.094154 -0.047122 -86391.800000 0 0 1
18.496833 31.907022 5.117087 37.234063 1.045429 1.432930 0.101810 -0.041900 61585.100000 0 0 1
17.220433 32.491822 5.239587 37.144516 1.083443 1.429265 0.086208 -0.041666 -108996.000000 0 0 1
17.292633 -33.698449 5.393587 38.258482 -1.096678 1.429348 0.080001 -0.039872 -231481.000000 0 0 1
15.902733 -33.037749 5.420887 37.064482 -1.122179 1.424014 0.065987 -0.032061 67280.000000 0 0 1
15.083133 -33.179149 4.253687 36.694015 -1.144126 1.454612 0.063857 -0.023955 378836.000000 0 0 1
14.029133 -32.205549 4.409787 35.404240 -1.159971 1.445917 0.063419 -0.020799 74200.400000 0 0 1
13.218033 -32.129049 3.123687 34.881939 -1.180497 1.481126 0.066800 -0.018234 829.218000 0 0 1
12.196533 -31.143049 3.253587 33.604029 -1.197527 1.473823 0.076050 -0.026575 40320.600000 0 0 1
11.494833 -30.992449 2.067687 33.120061 -1.215633 1.508326 0.072526 -0.024866 -654738.000000 0 0 1
10.716433 -29.608949 1.941087 31.548370 -1.223531 1.509230 0.089853 -0.023393 735112.000000 0 0 1
10.014433 -29.362549 0.658987 31.030347 -1.242107 1.549558 0.094325 -0.021772 516173.000000 0 0 1
9.003033 -30.318749 0.372887 31.629420 -1.282144 1.559007 0.077696 -0.024321 -757211.000000 0 0 1
9.134633 -31.136149 -0.905613 32.461076 -1.285427 1.598698 0.092416 -0.026630 -972762.000000 0 0 1
10.237133 -31.949649 -0.911813 33.562038 -1.260717 1.597968 0.082693 -0.028897 -876236.000000 0 0 1
10.242233 -32.690649 -2.137413 34.324196 -1.267176 1.633108 0.074947 -0.018675 32576.200000 0 0 1
11.546533 -33.514049 -2.317013 35.522985 -1.239005 1.636068 0.067230 -0.014234 255464.000000 0 0 1
11.739233 33.152322 -1.161313 35.188559 1.230474 1.603805 0.069498 -0.014671 -3133.140000 0 0 1
12.981833 32.496722 -1.300013 35.017923 1.190737 1.607929 0.078880 -0.018667 -59339.800000 0 0 1
13.360033 31.351422 -0.224213 34.080088 1.167962 1.577375 0.072898 -0.017664 44361.600000 0 0 1
13.572733 31.786322 1.119987 34.580973 1.167234 1.538403 0.066863 -0.016346 470542.000000 0 0 1
14.738233 32.565022 1.378187 35.771435 1.145800 1.532259 0.073128 -0.018070 -329336.000000 0 0 1
16.060933 31.899622 1.694887 35.754889 1.104366 1.523376 0.078800 -0.026124 -884814.000000 0 0 1
16.632433 31.261922 0.569687 35.415676 1.081850 1.554710 0.083093 -0.027114 -628787.000000 0 0 1
17.428533 30.219322 0.941587 34.897676 1.047659 1.543812 0.088029 -0.026540 -911859.000000 0 0 1
18.108933 29.589622 -0.237313 34.692009 1.021598 1.577637 0.091730 -0.019206 419281.000000 0 0 1
19.189233 30.273222 -0.885613 35.853576 1.005845 1.595500 0.075780 -0.004881 571296.000000 0 0 1
18.668133 31.170522 -1.834413 36.379468 1.031184 1.621242 0.068249 -0.011399 -410658.000000 0 0 1
19.723533 31.975422 -2.570913 37.657070 1.018091 1.639121 0.055437 0.002000 -576185.000000 0 0 1
20.392833 32.840022 -1.737313 38.695645 1.015097 1.615708 0.047781 0.008312 289214.000000 0 0 1
21.379933 33.641322 -2.418513 39.933561 1.004664 1.631397 0.053957 0.012033 375515.000000 0 0 1
22.442633 -33.201949 -1.497513 40.103413 -0.976399 1.608146 0.053426 0.011880 486491.000000 0 0 1
23.504833 33.614922 -0.863913 41.026656 0.960582 1.591855 0.045136 0.009149 1340570.000000 0 0 1
24.440733 32.899022 -1.687613 41.018814 0.931854 1.611950 0.051035 0.010026 412902.000000 0 0 1
25.258133 33.734322 -2.752413 42.232139 0.928104 1.636016 0.055992 -0.003032 -1148630.000000 0 0 1
24.536933 -33.408949 -3.887213 41.633273 -0.937327 1.664300 0.036822 -0.007692 -528740.000000 0 0 1
25.192533 -32.769649 -4.976513 41.632671 -0.915386 1.690617 0.039543 -0.015449 -549387.000000 0 0 1
24.359033 -32.396149 -6.213513 41.005862 -0.926073 1.722910 0.039725 -0.021177 -767125.000000 0 0 1
23.293533 -31.531449 -6.010813 39.660444 -0.934541 1.722939 0.051346 -0.015265 -269188.000000 0 0 1
22.823033 -31.037149 -7.252713 39.202006 -0.936740 1.756877 0.056438 -0.016791 392957.000000 0 0 1
21.765733 -29.886849 -7.095313 37.647236 -0.941347 1.760399 0.075633 -0.015953 1011120.000000 0 0 1
20.463533 -30.241149 -6.630713 37.111314 -0.975895 1.750432 0.058626 -0.008563 137252.000000 0 0 1
19.765933 -29.021949 -6.402913 35.692617 -0.972889 1.751163 0.073532 -0.021678 377129.000000 0 0 1
18.604833 -29.187149 -5.391213 35.029911 -1.003307 1.725314 0.059748 -0.008019 864743.000000 0 0 1
17.420233 -29.846049 -5.860713 35.051378 -1.042471 1.738789 0.069962 -0.014560 765652.000000 0 0 1
16.374333 -29.728049 -4.881913 34.288610 -1.067336 1.713659 0.053550 -0.013885 504040.000000 0 0 1
15.157633 -30.659649 -5.092613 34.578933 -1.111652 1.718609 0.046714 -0.013852 -73096.600000 0 0 1
15.442833 -32.068949 -5.147013 35.963737 -1.122017 1.714406 0.046728 -0.003572 -263043.000000 0 0 1
14.241033 -32.778149 -5.306113 36.129890 -1.160934 1.718192 0.051357 -0.005408 -123462.000000 0 0 1
14.469133 33.266122 -5.370713 36.671995 1.160527 1.717778 0.057993 -0.012107 -13310.700000 0 0 1
14.713533 32.662622 -4.101313 36.057672 1.147552 1.684786 0.067551 -0.019524 -137750.000000 0 0 1
15.009933 31.272322 -4.147213 34.935019 1.123297 1.689789 0.077603 -0.020538 -723873.000000 0 0 1
14.045633 30.286022 -4.750213 33.720727 1.136554 1.712136 0.083245 -0.025179 -643997.000000 0 0 1
13.057833 29.794522 -3.861013 32.758632 1.157746 1.688933 0.080368 -0.022107 69685.500000 0 0 1
13.467933 28.696422 -3.089813 31.849910 1.131989 1.667961 0.089812 -0.030481 -687906.000000 0 0 1
12.264233 28.033722 -2.457413 30.697554 1.158401 1.650934 0.069175 -0.025509 -134718.000000 0 0 1
11.437333 28.786422 -1.610713 31.017174 1.192605 1.622749 0.052449 -0.022060 1579.820000 0 0 1
10.526833 28.007722 -0.856413 29.932927 1.211277 1.599411 0.041199 -0.019772 64087.700000 0 0 1
9.455733 28.804722 -0.098313 30.317199 1.253609 1.574039 0.029860 -0.006035 353677.000000 0 0 1
8.487633 27.996922 0.571687 29.260799 1.276440 1.551257 0.027939 -0.011323 12232.300000 0 0 1
7.319333 28.754322 0.791487 29.681815 1.321543 1.544127 0.037890 -0.010295 35230.900000 0 0 1
6.230533 28.019322 1.602087 28.748367 1.351991 1.515039 0.040090 -0.016930 129595.000000 0 0 1
5.722233 26.874722 0.977487 27.494547 1.361007 1.535237 0.061189 -0.023705 -463516.000000 0 0 1
4.525833 26.479022 1.584687 26.909719 1.401511 1.511873 0.065132 -0.029772 -15989.200000 0 0 1
3.832633 25.328922 0.814287 25.630186 1.420621 1.539020 0.070053 -0.035293 701396.000000 0 0 1
2.560533 24.905622 1.330087 25.072205 1.468347 1.517721 0.087021 -0.033274 720677.000000 0 0 1
2.031933 23.817422 0.604587 23.911584 1.485690 1.545509 0.078072 -0.036755 -744111.000000 0 1 0
0.531133 23.659622 0.701187 23.675968 1.548351 1.541176 0.075647 -0.025858 -645978.000000 0 1 0
-0.339867 24.503022 -0.055313 24.505441 -1.556927 1.573053 0.088777 -0.038245 -48169.300000 0 1 0
-1.690867 24.148422 -0.000913 24.207547 -1.500891 1.570834 0.073528 -0.028930 115369.000000 0 1 0
-2.540967 24.637222 1.247487 24.799303 -1.468024 1.520472 0.108330 -0.044632 -31729.300000 0 1 0
-3.920367 24.493422 1.017987 24.826061 -1.412085 1.529780 0.095365 -0.029854 67806.100000 0 1 0
-4.790567 24.899122 2.072587 25.440350 -1.380720 1.489237 0.088942 -0.041704 -122404.000000 0 0 1
-6.244167 25.030622 1.643887 25.850030 -1.326325 1.507160 0.099601 -0.043147 -498071.000000 0 0 1
-6.426867 26.036822 0.625687 26.825589 -1.328796 1.547470 0.126491 -0.048186 -527870.000000 0 0 1
-7.758967 26.243722 0.266387 27.367964 -1.283335 1.561063 0.131807 -0.045713 -547084.000000 0 0 1
-7.898767 27.279922 -0.814613 28.412115 -1.288959 1.599472 0.133468 -0.050295 -446994.000000 0 0 1
-7.651367 28.615222 -0.375113 29.622881 -1.309521 1.583460 0.156371 -0.062301 54210.300000 0 0 1
-7.784667 29.532722 -1.437413 30.575298 -1.313064 1.617826 0.164199 -0.059144 37390.800000 0 0 1
-7.355567 30.980922 -1.055913 31.859643 -1.337690 1.603945 0.143543 -0.062291 -844668.000000 0 0 1
-7.678067 32.071022 -1.859513 33.029698 -1.335811 1.627124 0.134116 -0.046082 -245420.000000 0 0 1
-7.022167 32.228822 -3.099313 33.130251 -1.356265 1.664483 0.122621 -0.043700 -469096.000000 0 0 1
-5.521467 32.558422 -3.143113 33.172528 -1.402808 1.665689 0.155366 -0.046712 -381227.000000 0 0 1
-5.019967 -33.734049 -2.698713 34.212121 1.423070 1.649760 0.162001 -0.048857 191826.000000 0 0 1
-4.923167 33.755022 -1.257513 34.135325 -1.425968 1.607644 0.174446 -0.045754 -503100.000000 0 0 1
-4.669167 -32.479549 -0.493213 32.817153 1.428017 1.585826 0.176551 -0.041680 648135.000000 0 0 1
-5.740967 -31.511249 -0.628813 32.036119 1.390585 1.590426 0.154155 -0.037644 406680.000000 0 0 1
-5.587567 -30.606449 -1.727513 31.160230 1.390223 1.626264 0.167324 -0.034013 -144112.000000 0 0 1
-6.791467 -29.715449 -2.097213 30.553727 1.346105 1.639490 0.162673 -0.028773 40894.100000 0 0 1
-7.237967 -29.015449 -0.933513 29.919156 1.326333 1.602003 0.153357 -0.024675 -59410.600000 0 0 1
-8.395467 -28.207149 -0.980713 29.446374 1.281510 1.604108 0.103982 -0.023153 89566.900000 0 0 1
-8.890367 -27.705849 0.390987 29.099924 1.260292 1.557360 0.097903 -0.017273 -102080.000000 0 0 1
-7.950167 -26.842449 1.042587 28.014447 1.282849 1.533572 0.127952 -0.034030 37624.800000 0 0 1
-8.294767 -26.357749 2.299887 27.727669 1.265909 1.487755 0.124111 -0.022753 -302438.000000 0 0 1
-9.153067 -25.114149 2.397687 26.837437 1.221299 1.481336 0.117675 -0.019378 -225949.000000 0 0 1
-8.439167 -23.918349 2.477087 25.484171 1.231600 1.473442 0.118045 -0.033404 -412471.000000 0 0 1
-9.252167 -22.939249 3.061587 24.923585 1.187420 1.447646 0.114818 -0.035709 -618209.000000 0 1 0
-8.472367 -21.735349 3.444687 23.581185 1.199117 1.424194 0.073682 -0.014050 101767.000000 0 1 0
-7.844867 -21.916049 4.760787 23.759635 1.227056 1.369058 0.082812 -0.013191 223750.000000 0 1 0
-7.037667 -20.834149 5.213987 22.600359 1.245036 1.337995 0.050723 -0.008072 98562.500000 0 1 0
-7.840367 -19.586549 5.704687 21.855154 1.190037 1.306715 0.061236 -0.020411 -23445.200000 0 1 0
-8.566667 -20.050849 6.809787 22.842889 1.167024 1.268080 0.076416 -0.021782 -99727.000000 0 1 0
-9.253767 -18.963549 7.436987 22.373136 1.116814 1.231942 0.059072 -0.021800 -286093.000000 0 1 0
-28.312037 28.854322 -5.146413 40.750815 -0.794884 1.697424 0.235395 -0.009981 -433981.000000 0 0 1
-27.483647 29.847822 -4.714213 40.846874 -0.826612 1.686466 0.219322 -0.028357 -598251.000000 0 0 1
-26.186417 29.353222 -4.459513 39.588222 -0.842355 1.683683 0.188416 -0.012646 544336.000000 0 0 1
-25.300327 30.380822 -3.667513 39.705813 -0.876389 1.663295 0.157941 -0.016227 133701.000000 0 0 1
-25.888597 30.500822 -2.379113 40.077173 -0.867009 1.630195 0.136222 -0.029080 479389.000000 0 0 1
-25.170777 31.440422 -1.579813 40.305880 -0.895698 1.610002 0.132254 -0.027721 271319.000000 0 0 1
-23.956267 30.810822 -0.842413 39.037407 -0.909909 1.592378 0.103365 -0.017401 246096.000000 0 0 1
-22.883967 30.474122 -1.701813 38.147664 -0.926700 1.615422 0.123453 -0.027342 586301.000000 0 0 1
-21.687867 30.161722 -0.970613 37.162281 -0.947397 1.596918 0.104480 -0.024651 901464.000000 0 0 1
-20.585767 29.432322 -1.790513 35.961665 -0.960455 1.620606 0.109149 -0.026618 236577.000000 0 0 1
-19.366767 29.247622 -1.099813 35.095650 -0.985916 1.602139 0.107495 -0.022454 -437947.000000 0 0 1
-18.518967 28.467322 -1.870413 34.012336 -0.994046 1.625816 0.102727 -0.027255 229038.000000 0 0 1
-17.009767 28.706922 -1.544713 33.403678 -1.035886 1.617057 0.111644 -0.039319 403490.000000 0 0 1
-16.557067 28.093022 -0.368313 32.611195 -1.038233 1.582091 0.110159 -0.050093 -68372.800000 0 0 1
-15.219067 28.404122 -0.065913 32.224501 -1.078917 1.572842 0.125998 -0.067494 -163600.000000 0 0 1
-14.779367 27.987922 1.344187 31.679020 -1.084952 1.528352 0.120385 -0.062974 -454762.000000 0 0 1
-15.422167 28.631222 2.463487 32.613784 -1.076710 1.495189 0.121997 -0.059736 44343.200000 0 0 1
-15.172267 27.958122 3.681887 32.022033 -1.073592 1.455562 0.105346 -0.066028 339241.000000 0 0 1
-13.839867 28.437622 4.333887 31.922137 -1.117866 1.434611 0.098413 -0.056030 267639.000000 0 0 1
-13.908567 29.682422 4.971487 33.154338 -1.132600 1.420279 0.087344 -0.030558 -358871.000000 0 0 1
-14.074367 30.818922 4.157487 34.134711 -1.142402 1.448697 0.098182 -0.034498 -171783.000000 0 0 1
-14.062167 32.125322 5.024087 35.426294 -1.158194 1.428499 0.094043 -0.030015 162550.000000 0 0 1
-15.078367 32.255422 6.006887 36.108892 -1.133512 1.403665 0.098114 -0.043930 326081.000000 0 0 1
-14.695267 33.405322 6.749387 37.113618 -1.156367 1.387921 0.095332 -0.046932 280972.000000 0 0 1
-15.906067 -33.653849 7.564887 37.984366 1.129277 1.370298 0.088293 -0.048158 208182.000000 0 0 1
-16.268967 33.138322 8.725687 37.933696 -1.114422 1.338693 0.075381 -0.046023 764245.000000 0 0 1
-17.367767 33.778822 9.436987 39.137001 -1.095884 1.327269 0.077091 -0.037968 220008.000000 0 0 1
-17.694767 33.039822 10.739487 38.988091 -1.079108 1.291733 0.065396 -0.026933 557812.000000 0 0 1
-16.779967 33.179122 11.840087 39.020624 -1.102568 1.262504 0.066377 -0.032864 259207.000000 0 0 1
-15.404267 32.920722 11.659787 38.170879 -1.133140 1.260372 0.087064 -0.039786 -385251.000000 0 0 1
-14.653067 33.161322 12.992687 38.512278 -1.154722 1.226680 0.073210 -0.032580 -463013.000000 0 0 1
-14.786667 32.205122 14.087987 38.135112 -1.140367 1.192408 0.055991 -0.023490 249645.000000 0 0 1
-14.335367 30.856222 13.978487 36.783248 -1.135879 1.180975 0.047504 -0.027397 -211261.000000 0 0 1
-15.311967 29.957722 13.207687 36.143664 -1.098293 1.196710 0.056101 -0.034573 -131730.000000 0 0 1
-15.008267 29.837022 11.870187 35.445695 -1.104745 1.229314 0.062660 -0.028407 731991.000000 0 0 1
-16.161967 29.395922 11.142387 35.348016 -1.068104 1.250108 0.049344 -0.022489 557543.000000 0 0 1
-15.785967 29.164022 9.657387 34.539862 -1.074671 1.287418 0.061436 -0.020470 -364494.000000 0 0 1
-14.891167 28.128522 9.517287 33.219563 -1.083908 1.280228 0.036588 -0.021213 -336236.000000 0 0 1
-14.621067 27.881622 8.133487 32.516366 -1.087821 1.317976 0.051675 -0.025968 -132303.000000 0 0 1
-13.801067 26.597422 7.819487 30.968318 -1.092153 1.315534 0.057428 -0.029498 -358269.000000 0 0 1
-12.487267 26.595022 8.304787 30.531894 -1.131817 1.295322 0.050444 -0.030815 -175489.000000 0 0 1
-11.728367 25.426922 8.075187 29.142608 -1.138620 1.290030 0.061521 -0.029265 -299923.000000 0 0 1
-10.789067 25.639122 6.894587 28.658400 -1.172484 1.327835 0.092323 -0.044230 -1150390.000000 0 0 1
-11.363467 25.922622 5.622687 28.856981 -1.157663 1.374695 0.103093 -0.048575 -183503.000000 0 0 1
-10.467967 25.791822 4.543087 28.203476 -1.185245 1.409009 0.123065 -0.041185 -437737.000000 0 0 1
-10.919467 26.200622 3.148987 28.559122 -1.175923 1.460310 0.136341 -0.054549 -263465.000000 0 0 1
-10.826167 27.606022 2.956787 29.800016 -1.197061 1.471412 0.139785 -0.048000 -39721.200000 0 0 1
-11.209367 28.044622 1.664487 30.247665 -1.190551 1.515740 0.158221 -0.061574 -433377.000000 0 0 1
-10.724467 29.447822 1.290487 31.366443 -1.221540 1.529642 0.180132 -0.063076 249905.000000 0 0 1
-11.177767 30.506122 2.180687 32.562576 -1.219577 1.503777 0.143483 -0.061283 155565.000000 0 0 1
-10.585667 31.734722 1.756587 33.499769 -1.248835 1.518336 0.125449 -0.053008 -57679.900000 0 0 1
-11.216167 32.995622 2.478687 34.937907 -1.243122 1.499791 0.102060 -0.044695 933339.000000 0 0 1
-12.617567 33.221822 2.252787 35.608531 -1.207826 1.507489 0.127836 -0.042191 622237.000000 0 0 1
-12.911567 -33.757749 0.986987 36.156166 1.205487 1.543495 0.116592 -0.037405 448189.000000 0 0 1
-14.454667 -33.750549 0.675887 36.721844 1.166151 1.552390 0.129497 -0.034238 701158.000000 0 0 1
-14.856467 32.473522 0.431087 35.713164 -1.141727 1.558725 0.113025 -0.030107 134579.000000 0 0 1
-15.825967 32.375022 -0.617013 36.041420 -1.116122 1.587917 0.119792 -0.038707 -451877.000000 0 0 1
-15.278067 32.534922 -2.052013 36.002101 -1.131771 1.627824 0.123391 -0.042882 -261171.000000 0 0 1
-14.457867 31.480422 -2.469213 34.729583 -1.140264 1.641955 0.117918 -0.044668 -223969.000000 0 0 1
-13.106967 31.740822 -2.189413 34.410259 -1.179187 1.634466 0.138297 -0.045652 -570019.000000 0 0 1
-12.048867 30.654122 -2.466613 33.029299 -1.196288 1.645545 0.097642 -0.052457 223192.000000 0 0 1
-12.112367 30.331322 -3.824313 32.883490 -1.190863 1.687359 0.095972 -0.046096 -389481.000000 0 0 1
-10.849067 29.991922 -4.313213 32.184180 -1.223707 1.705217 0.091287 -0.051759 -233446.000000 0 0 1
-10.788567 29.351122 -5.697513 31.785896 -1.218556 1.751017 0.088090 -0.042166 -163021.000000 0 0 1
-11.298167 28.056122 -5.777613 30.792456 -1.187966 1.759546 0.079005 -0.032412 10963.200000 0 0 1
-10.925467 27.421122 -7.037813 30.344927 -1.191642 1.804855 0.065111 -0.018623 -10746.100000 0 0 1
-11.384567 25.973522 -7.210713 29.261350 -1.157703 1.819786 0.085331 -0.022286 -254902.000000 0 0 1
-10.805067 24.996122 -6.437913 27.982178 -1.162784 1.802948 0.064319 -0.019992 -476639.000000 0 0 1
-11.128267 23.689222 -6.839813 27.051813 -1.131631 1.826412 0.105421 -0.025692 259747.000000 0 0 1
-10.412767 22.531822 -6.037313 25.545212 -1.137896 1.809392 0.082717 -0.022608 -147582.000000 0 0 1
-9.031367 22.308322 -6.139613 24.837908 -1.186122 1.820573 0.067987 -0.018575 -331284.000000 0 1 0
-8.581867 21.077122 -5.582813 23.432057 -1.184128 1.811365 0.070780 -0.015935 -156910.000000 0 1 0
-8.446067 20.943822 -4.048013 22.942671 -1.187472 1.748165 0.081177 -0.028669 -845411.000000 0 1 0
-9.593567 20.809322 -3.287113 23.148856 -1.138814 1.713277 0.086220 -0.033002 -810682.000000 0 1 0
-10.040867 19.431522 -3.229613 22.109578 -1.093854 1.717394 0.072717 -0.029985 1486510.000000 0 1 0
-11.475667 19.260822 -2.515313 22.560962 -1.033468 1.682518 0.073556 -0.030453 1584380.000000 0 1 0
-11.625167 19.493222 -1.121413 22.724167 -1.033050 1.620165 0.078874 -0.027569 119356.000000 0 1 0
-11.140467 18.354122 -0.388513 21.474048 -1.025265 1.588890 0.068552 -0.017784 -303372.000000 0 1 0
-11.126167 18.456222 1.132787 21.580244 -1.028290 1.518280 0.064275 -0.015514 296360.000000 0 1 0
-12.387267 18.327122 1.775987 22.191934 -0.976430 1.490682 0.090365 -0.025521 310471.000000 0 1 0
-12.267067 18.649822 3.137487 22.541975 -0.988987 1.431159 0.087220 -0.012640 -202718.000000 0 1 0
-13.548367 18.417622 3.935287 23.200292 -0.936562 1.400350 0.083298 -0.030010 -203251.000000 0 1 0
-13.953467 17.082122 4.221387 22.457031 -0.885867 1.381695 0.058318 -0.029434 547691.000000 0 1 0
-15.170867 17.150122 4.976087 23.431674 -0.846559 1.356801 0.078219 -0.037777 544575.000000 0 1 0
-15.638967 15.833022 5.634387 22.956659 -0.791564 1.322827 0.057174 -0.025345 -843802.000000 0 1 0
-14.911167 15.402422 6.764487 22.479675 -0.801603 1.265144 0.057310 -0.017380 -240350.000000 0 1 0
-15.374467 15.934622 7.969687 23.533005 -0.803287 1.225304 0.057697 -0.020769 -706813.000000 0 1 0
-14.226067 16.024522 8.982287 23.234625 -0.844780 1.173864 0.063498 -0.012758 510721.000000 0 1 0
-13.144967 16.869222 8.640887 23.065683 -0.908850 1.186808 0.064767 -0.032657 506936.000000 0 1 0
-12.180367 16.374422 7.685587 21.807139 -0.931233 1.210625 0.058696 -0.030910 -497503.000000 0 1 0
-10.974767 17.295122 7.535787 21.825555 -1.005353 1.218266 0.072438 -0.030503 16188.800000 0 1 0
-9.926867 17.067222 8.474187 21.485917 -1.043991 1.165374 0.071342 -0.037853 -284131.000000 0 1 0
-9.127067 18.186122 8.599387 22.090447 -1.105654 1.170946 0.064353 -0.031746 680489.000000 0 1 0
-7.748667 18.066222 9.381687 21.781788 -1.165624 1.125514 0.051035 -0.033121 732386.000000 0 1 0
-6.732367 17.496622 8.535287 20.598730 -1.203478 1.143557 0.042816 -0.025823 158307.000000 0 1 0
-5.487367 17.442322 9.220687 20.478449 -1.265999 1.103736 0.036752 -0.031931 -39885.500000 0 1 0
-4.610567 18.642722 8.911587 21.171320 -1.328349 1.136329 0.023974 -0.026275 -1886570.000000 0 1 0
-5.155967 19.844622 9.176287 22.463243 -1.316600 1.149984 0.037570 -0.033506 -869731.000000 0 1 0
-4.743667 20.972322 8.445487 23.101232 -1.348352 1.196534 0.041426 -0.026529 740438.000000 0 1 0
-3.301167 21.571422 8.713287 23.497773 -1.418940 1.190912 0.043131 -0.020657 942800.000000 0 1 0
-2.260867 20.684822 8.340487 22.417340 -1.461928 1.189574 0.033260 -0.008272 -248671.000000 0 1 0
-1.060867 21.434922 8.246887 22.991139 -1.521344 1.203923 0.031275 -0.010878 138625.000000 0 1 0
0.237533 20.680622 7.925387 22.148506 1.559311 1.204854 0.021525 -0.006190 284015.000000 0 1 0
0.753533 20.081222 9.104587 22.061659 1.533290 1.145393 0.016531 -0.011058 -566280.000000 0 1 0
2.120033 19.798922 8.938387 21.826283 1.464125 1.148864 0.010921 -0.004673 -204218.000000 0 1 0
2.648333 19.228422 10.304787 21.975771 1.433927 1.082733 0.006133 -0.022125 -356756.000000 0 1 0
4.017833 18.917922 10.368787 21.944077 1.361523 1.078660 0.025352 -0.006311 -192852.000000 0 1 0
4.460233 18.746122 11.691787 22.539047 1.337211 1.025426 0.022696 -0.011549 -1176230.000000 0 1 0
5.947933 18.904922 11.785787 23.058160 1.265978 1.034294 0.042857 -0.013935 -1100670.000000 0 1 0
6.705533 17.919622 11.124587 22.132182 1.212727 1.044143 0.035460 -0.013124 -114555.000000 0 1 0
7.479633 17.096522 11.992787 22.182491 1.158391 0.999596 0.037914 -0.013218 372474.000000 0 1 0
8.564533 16.263522 11.211487 21.530230 1.086088 1.023088 0.051302 -0.022150 -59219.000000 0 1 0
9.691333 17.001222 10.895187 22.397960 1.052700 1.062790 0.068906 -0.036323 -1063940.000000 0 1 0
10.671033 16.230822 10.263887 21.969477 0.989198 1.084688 0.067624 -0.039840 174037.000000 0 1 0
11.903433 17.112722 9.891887 23.073500 0.963036 1.127730 0.077109 -0.040044 366509.000000 0 1 0
12.772533 16.573722 8.899687 22.738300 0.914210 1.168648 0.080137 -0.035268 -609064.000000 0 1 0
13.512133 17.676222 8.465587 23.805309 0.918127 1.207222 0.103713 -0.029983 -242127.000000 0 1 0
14.599733 17.229922 7.464587 23.785342 0.867844 1.251571 0.124382 -0.032986 -469785.000000 0 1 0
15.740833 16.611422 7.970487 24.233073 0.812301 1.235648 0.133895 -0.041198 -247904.000000 0 1 0
16.617633 16.307922 6.873087 24.276189 0.775992 1.283750 0.117199 -0.033270 -90763.600000 0 1 0
18.098933 16.227522 7.307287 25.383071 0.730934 1.278784 0.130328 -0.034044 54757.300000 0 0 1
18.304433 15.102822 8.112387 25.079041 0.689854 1.241399 0.140004 -0.037196 813112.000000 0 0 1
19.483033 15.304022 8.940387 26.338796 0.665840 1.224477 0.143469 -0.036631 878191.000000 0 0 1
19.845033 14.024122 9.778287 26.193820 0.615196 1.188227 0.143135 -0.038521 -163162.000000 0 0 1
20.418133 12.991422 9.053187 25.838680 0.566662 1.212827 0.164050 -0.050962 -124272.000000 0 0 1
20.688433 11.938222 9.884187 25.850137 0.523372 1.178442 0.160226 -0.059220 -368615.000000 0 0 1
21.720333 10.909622 9.381687 26.053959 0.465467 1.202435 0.154957 -0.047335 -873164.000000 0 0 1
23.024933 11.323722 9.658787 27.416535 0.457068 1.210771 0.165123 -0.043908 -119632.000000 0 0 1
24.082633 10.555322 9.159387 27.843893 0.413078 1.235600 0.183269 -0.046924 -32052.700000 0 0 1
24.320533 9.009922 9.618487 27.661929 0.354789 1.215663 0.188551 -0.051287 -212002.000000 0 0 1
23.369733 8.103222 9.034987 26.333204 0.333768 1.220578 0.196113 -0.056729 969400.000000 0 0 1
23.749833 6.762422 9.291387 26.383987 0.277395 1.210918 0.199979 -0.055148 86079.700000 0 0 1
24.797733 6.138922 8.299387 26.860636 0.242681 1.256676 0.207756 -0.053046 259954.000000 0 0 1
24.314533 6.015122 6.944087 25.992279 0.242519 1.300352 0.192891 -0.039622 552165.000000 0 0 1
25.352033 5.657822 6.047387 26.670347 0.219572 1.342061 0.204501 -0.035163 -135439.000000 0 0 1
24.792433 5.251722 4.673887 25.769954 0.208742 1.388417 0.199688 -0.049434 -234547.000000 0 0 1
24.020033 4.070222 4.883387 24.847055 0.167857 1.372971 0.194033 -0.043401 487062.000000 0 1 0
23.501833 3.704322 3.582187 24.060137 0.156332 1.421356 0.204474 -0.045583 146597.000000 0 1 0
22.557833 2.459622 3.709787 22.992783 0.108607 1.408742 0.193244 -0.038546 196089.000000 0 1 0
23.228133 1.236922 3.867587 23.580381 0.053201 1.406035 0.223796 -0.041331 521083.000000 0 1 0
22.217133 0.263122 3.888887 22.556455 0.011843 1.397524 0.201351 -0.035750 49761.700000 0 1 0
22.824433 -1.157978 3.850487 23.175890 -0.050691 1.403880 0.237202 -0.042041 -403629.000000 0 1 0
23.309833 -1.649178 5.084887 23.914936 -0.070633 1.356537 0.238242 -0.044839 611374.000000 0 1 0
23.179633 -3.050078 5.173087 23.944920 -0.130833 1.353038 0.221600 -0.047107 -328271.000000 0 1 0
23.482833 -3.632478 6.517387 24.639697 -0.153470 1.303103 0.262249 -0.053180 -146198.000000 0 1 0
23.082333 -4.959778 6.591087 24.511955 -0.211655 1.298553 0.215080 -0.049486 380985.000000 0 1 0
23.395633 -5.496878 7.893687 25.295881 -0.230768 1.253442 0.280338 -0.059357 37402.700000 0 0 1
22.810733 -6.913978 8.122387 25.181457 -0.294300 1.242370 0.253113 -0.058346 811109.000000 0 0 1
21.391733 -7.019978 8.285287 23.990255 -0.317090 1.218173 0.244454 -0.063563 1255670.000000 0 1 0
20.899233 -8.143278 8.988387 24.163651 -0.371548 1.189655 0.219964 -0.057875 -322414.000000 0 1 0
-28.680087 -32.271249 5.069487 43.470457 0.844249 1.453911 0.095139 -0.013886 -140500.000000 0 0 1
-29.208437 -33.462049 5.567787 44.764292 0.853167 1.446093 0.113962 -0.012380 -57080.800000 0 0 1
-29.223797 -33.493349 7.021887 45.001574 0.853370 1.414120 0.089028 0.006209 -155339.000000 0 0 1
-30.006017 32.841222 7.530787 45.117842 -0.830480 1.403098 0.098848 0.002237 845409.000000 0 0 1
-31.419077 32.987322 7.351087 46.144992 -0.809743 1.410811 0.099544 -0.005417 487963.000000 0 0 1
-32.149267 31.860222 7.811087 45.931059 -0.780883 1.399905 0.132242 -0.025413 237034.000000 0 0 1
-33.687447 31.936622 7.847087 47.078325 -0.758725 1.403333 0.132979 -0.023584 -63294.000000 0 0 1
-34.195123 32.044222 6.547287 47.318132 -0.752938 1.431984 0.128217 -0.020548 656304.000000 0 0 1
-35.627908 32.090722 6.494387 48.387388 -0.733212 1.436174 0.103740 -0.021158 957243.000000 0 0 1
-36.259707 31.953822 5.044787 48.592829 -0.722358 1.466791 0.095649 -0.013503 60455.800000 0 0 1
-36.015837 30.673222 4.508687 47.521735 -0.705457 1.475777 0.110781 -0.011879 619489.000000 0 0 1
-36.772847 30.556022 3.284687 47.923918 -0.693324 1.502203 0.104219 0.013118 443477.000000 0 0 1
-36.412587 29.111722 2.757287 46.700873 -0.674434 1.511721 0.104755 -0.004794 134233.000000 0 0 1
-37.051777 28.041622 3.404787 46.591408 -0.647853 1.497654 0.135777 -0.019264 146235.000000 0 0 1
-36.382047 26.842522 3.061587 45.316086 -0.635645 1.503184 0.121180 -0.015686 -12793.800000 0 0 1
-36.843047 25.575322 3.846487 45.014472 -0.606802 1.485242 0.156134 -0.024085 952061.000000 0 0 1
37.759272 25.242222 3.615087 45.563157 0.589273 1.491371 0.146468 -0.021672 682076.000000 0 0 1
37.427842 24.159422 4.388087 44.763560 0.573201 1.472611 0.162629 -0.027409 803200.000000 0 0 1
35.957732 23.668822 4.088887 43.242232 0.582146 1.476097 0.168054 -0.026792 511297.000000 0 0 1
35.822912 22.759322 3.011487 42.548053 0.565992 1.499959 0.129653 -0.024476 42364.600000 0 0 1
36.100862 21.443422 3.298287 42.118538 0.535986 1.492406 0.126453 -0.022700 -565919.000000 0 0 1
35.380202 20.394422 2.411687 40.908524 0.522913 1.511809 0.117975 -0.014222 383083.000000 0 0 1
33.981662 20.255622 2.641387 39.648714 0.537529 1.504127 0.109393 -0.028048 750644.000000 0 0 1
33.560762 19.446822 3.803387 38.973958 0.525173 1.473053 0.090728 -0.024056 -53301.900000 0 0 1
33.744372 17.905922 3.654087 38.375214 0.487854 1.475432 0.111454 -0.032710 -165698.000000 0 0 1
32.842342 17.371322 2.689187 37.250691 0.486523 1.498542 0.081680 -0.047941 457962.000000 0 0 1
33.043422 15.980722 2.409387 36.783914 0.450464 1.505248 0.097986 -0.041458 -521270.000000 0 0 1
32.293842 15.023622 3.361087 35.775667 0.435436 1.476709 0.124256 -0.038059 211930.000000 0 0 1
30.885072 15.206822 3.195087 34.573743 0.457523 1.478251 0.088377 -0.027634 98747.100000 0 0 1
30.191972 14.374522 4.048187 33.683377 0.444349 1.450322 0.097334 -0.034681 -128572.000000 0 0 1
28.664972 14.648422 4.042487 32.443776 0.472426 1.445872 0.095204 -0.035937 -13346.900000 0 0 1
28.111672 14.177722 2.839487 31.612285 0.467110 1.480853 0.101289 -0.040173 -375269.000000 0 0 1
26.714272 14.313022 2.977587 30.452930 0.491862 1.472863 0.081061 -0.027428 135059.000000 0 0 1
25.897872 13.733522 1.768487 29.367277 0.487589 1.510540 0.105848 -0.025323 11388.100000 0 0 1
26.099472 14.409922 0.484287 29.817156 0.504466 1.554554 0.107751 -0.024638 400839.000000 0 0 1
27.303872 14.019922 -0.154713 30.693380 0.474371 1.575837 0.104849 -0.032055 -966321.000000 0 0 1
27.895672 14.945822 -1.229613 31.671092 0.491857 1.609631 0.120951 -0.035508 242881.000000 0 0 1
28.588872 16.145522 -0.854113 32.844040 0.514096 1.596804 0.068629 -0.025814 485203.000000 0 0 1
29.574472 15.962222 0.149987 33.607505 0.494924 1.566333 0.073451 -0.028016 -914984.000000 0 0 1
30.459172 17.231622 0.249487 34.996460 0.514839 1.563667 0.073878 -0.022973 -485242.000000 0 0 1
31.172762 17.552622 -0.880213 35.785617 0.512827 1.595396 0.053521 -0.026413 -119381.000000 0 0 1
32.025302 18.654122 -0.646613 37.067699 0.527438 1.588241 0.033852 -0.020471 -6525.070000 0 0 1
32.953092 19.027922 -1.809213 38.095161 0.523654 1.618306 0.034009 -0.014752 -147985.000000 0 0 1
33.260752 20.375622 -2.208413 39.068154 0.549635 1.627354 -0.012534 -0.007352 1023610.000000 0 0 1
32.116872 21.174922 -2.664413 38.561248 0.582891 1.639947 0.022839 -0.007409 498439.000000 0 0 1
32.499972 22.686722 -2.834613 39.736262 0.609418 1.642193 0.043737 0.000774 159647.000000 0 0 1
32.903532 23.470822 -1.690213 40.452178 0.619611 1.612591 0.031693 0.009378 1067170.000000 0 0 1
34.215472 23.079822 -1.231613 41.290357 0.593436 1.600629 0.039302 0.007474 349939.000000 0 0 1
34.818252 23.772322 0.025987 42.159633 0.599058 1.570180 0.064507 -0.003091 -76042.400000 0 0 1
35.366412 24.986222 -0.385113 43.304072 0.615072 1.579690 0.079242 0.008322 -407750.000000 0 0 1
36.371432 25.341022 0.525387 44.331980 0.608527 1.558945 0.109677 -0.004239 -119393.000000 0 0 1
36.915212 26.744022 0.275587 45.585650 0.626962 1.564751 0.089466 0.006673 -48418.900000 0 0 1
37.384682 26.802622 -1.077213 46.012557 0.622006 1.594210 0.095496 -0.002144 161645.000000 0 0 1
36.558272 27.611222 -1.876913 45.852041 0.646863 1.611742 0.072245 -0.001382 -251526.000000 0 0 1
36.847542 27.383122 -3.321213 46.028330 0.639100 1.643015 0.089246 0.000434 888842.000000 0 0 1
-37.880727 27.872122 -3.848713 47.187046 -0.634342 1.652450 0.086360 -0.003920 1042930.000000 0 0 1
-37.570717 27.460422 -5.222513 46.828498 -0.631164 1.682553 0.093052 -0.003653 262766.000000 0 0 1
37.359452 27.755422 -6.337313 46.970774 0.638960 1.706129 0.065101 -0.001308 -124923.000000 0 0 1
36.176782 27.043922 -6.175813 45.588090 0.641931 1.706684 0.062901 0.002298 -1077470.000000 0 0 1
35.201042 27.319222 -7.147413 45.128026 0.659991 1.729847 0.049757 -0.003916 -631543.000000 0 0 1
34.045722 26.370622 -6.916813 43.616089 0.659038 1.730053 0.048322 0.008122 -1204340.000000 0 0 1
34.275322 24.997122 -7.003313 42.996514 0.630123 1.734406 0.027133 0.002201 195436.000000 0 0 1
35.145442 24.367122 -6.016913 43.187521 0.606230 1.710572 0.038587 -0.009381 406523.000000 0 0 1
35.360332 22.859022 -6.335113 42.579591 0.573882 1.720134 0.037122 -0.005128 -93873.600000 0 0 1
34.416432 21.966022 -5.793513 41.237867 0.568065 1.711753 0.001058 0.008027 -118108.000000 0 0 1
34.786962 20.588722 -5.937513 40.856851 0.534407 1.716638 0.013231 0.008870 -233849.000000 0 0 1
33.750902 19.550922 -5.482413 39.388054 0.525038 1.710439 0.021913 -0.002837 -696423.000000 0 0 1
32.697092 19.260722 -6.319013 38.470835 0.532340 1.735799 -0.004514 -0.004803 -593781.000000 0 0 1
31.646562 18.582622 -5.635113 37.129142 0.530949 1.723156 0.062260 -0.019611 97865.500000 0 0 1
30.436472 18.405522 -6.550713 36.167028 0.543882 1.752925 0.050071 -0.022515 -409988.000000 0 0 1
30.345172 17.243722 -7.338813 35.665580 0.516749 1.778044 0.027133 -0.019296 21311.300000 0 0 1
29.104972 17.132722 -8.020913 34.712600 0.532034 1.803970 0.068697 -0.026591 180123.000000 0 0 1
28.950172 15.971322 -9.006913 34.268353 0.504135 1.836755 0.071216 -0.017545 -344443.000000 0 0 1
28.106472 16.300922 -10.062013 34.013790 0.525562 1.871112 0.079856 -0.021332 -94835.200000 0 0 1
28.377572 15.421722 -11.091613 34.148792 0.497799 1.901599 0.088498 -0.018131 -67953.500000 0 0 1
27.592172 15.726922 -12.378513 34.086531 0.518052 1.942442 0.102070 -0.010746 -481277.000000 0 0 1
26.210672 15.518222 -12.307313 32.852465 0.534559 1.954787 0.096400 -0.015232 -71154.000000 0 0 1
25.507772 15.603222 -13.561313 32.833156 0.548981 1.996583 0.096896 -0.021233 -52301.700000 0 0 1
25.475772 14.288622 -14.384413 32.559039 0.511151 2.028395 0.095789 -0.035077 -932856.000000 0 0 1
26.664672 13.698622 -14.831713 33.446026 0.474577 2.030243 0.112922 -0.042247 -395515.000000 0 0 1
27.065972 14.314122 -16.068413 34.578242 0.486469 2.054089 0.119878 -0.039205 -438328.000000 0 0 1
28.413672 13.757422 -16.564013 35.650665 0.450914 2.054002 0.146178 -0.038496 13550.700000 0 0 1
28.387872 12.376322 -16.828213 35.245331 0.411127 2.068557 0.145963 -0.047713 875983.000000 0 0 1
29.718172 12.014722 -17.257313 36.405194 0.384198 2.064663 0.130837 -0.033709 1076850.000000 0 0 1
29.868772 10.611122 -17.848513 36.377312 0.341351 2.083631 0.103199 -0.029968 -376176.000000 0 0 1
29.273472 10.633822 -19.117813 36.544563 0.348437 2.121324 0.109048 -0.029185 -6951.520000 0 0 1
29.379272 9.449522 -19.830613 36.683624 0.311189 2.141929 0.086934 -0.006364 -256778.000000 0 0 1
30.814772 9.085322 -20.257513 37.979732 0.286713 2.133384 0.099760 -0.017242 -747728.000000 0 0 1
31.307042 9.963922 -21.260313 39.133253 0.308128 2.145135 0.102729 -0.019042 333138.000000 0 0 1
31.879442 9.321322 -22.453113 40.091497 0.284463 2.165239 0.083006 -0.016172 -162029.000000 0 0 1
33.259822 8.660922 -22.263013 40.949592 0.254745 2.145598 0.081214 -0.011112 -658153.000000 0 0 1
34.241782 9.665922 -22.156313 41.914578 0.275126 2.127754 0.091362 -0.011211 -1009330.000000 0 0 1
35.503452 9.124022 -21.986713 42.745273 0.251546 2.111064 0.056749 -0.006895 -434218.000000 0 0 1
36.603802 10.188422 -21.730013 43.770260 0.271472 2.090308 0.069715 -0.009487 42263.900000 0 0 1
36.437432 10.743822 -20.445613 43.140923 0.286732 2.064540 0.057465 -0.016768 -126821.000000 0 0 1
37.452702 11.678522 -20.252713 44.150483 0.302266 2.047351 0.036944 -0.004559 -269718.000000 0 0 1
37.355822 12.328722 -18.885713 43.636280 0.318779 2.018391 0.028203 -0.010319 -255157.000000 0 0 1
37.969232 11.470722 -17.981713 43.549765 0.293388 1.996433 0.043467 -0.011811 240147.000000 0 0 1
37.714142 12.022922 -16.676313 42.953539 0.308606 1.969518 0.049931 -0.021958 48365.400000 0 0 1
-37.682517 11.104222 -15.568213 42.256894 -0.286567 1.948103 0.054178 -0.029721 -65818.200000 0 0 1
37.434472 10.021022 -15.322013 41.671629 0.261562 1.947314 0.045173 -0.022022 194187.000000 0 0 1
-37.936217 9.025722 -14.547313 41.620242 -0.233576 1.927860 0.062964 -0.025566 -740599.000000 0 0 1
37.275952 7.774822 -14.479313 40.738126 0.205627 1.934164 0.107230 -0.021874 -761460.000000 0 0 1
36.114512 7.850722 -13.697013 39.414464 0.214054 1.925713 0.109353 -0.025661 191105.000000 0 0 1
36.309992 7.591322 -12.324813 39.088933 0.206101 1.891571 0.116419 -0.027818 -227348.000000 0 0 1
35.220552 8.243722 -11.412013 37.929939 0.229921 1.876402 0.130836 -0.027770 141327.000000 0 0 1
35.291392 9.686022 -11.422613 38.337676 0.267863 1.873338 0.117081 -0.038983 670077.000000 0 0 1
34.361932 10.352522 -10.533113 37.401384 0.292630 1.856282 0.099982 -0.029378 144325.000000 0 0 1
34.726482 10.366822 -9.032913 37.349606 0.290106 1.815066 0.116747 -0.019539 -404934.000000 0 0 1
35.931812 11.040622 -8.807813 38.607875 0.298109 1.800958 0.111509 -0.019613 -322734.000000 0 0 1
35.752182 12.416722 -8.335113 38.753936 0.334267 1.787568 0.107237 -0.027039 -670375.000000 0 0 1
35.494542 12.561722 -6.832713 38.266765 0.340150 1.750314 0.080194 -0.023219 -566331.000000 0 0 1
36.561112 12.446722 -5.940313 39.075863 0.328129 1.723408 0.117355 -0.023976 -253225.000000 0 0 1
36.125712 12.542722 -4.581613 38.514648 0.334175 1.690036 0.101998 -0.023700 287297.000000 0 0 1
37.331092 12.641322 -3.609213 39.578275 0.326507 1.662115 0.136658 -0.020280 121790.000000 0 0 1
-37.857997 13.771522 -3.825113 40.466211 -0.348887 1.665464 0.145974 -0.021221 -84735.000000 0 0 1
-36.723587 13.690422 -2.971313 39.304939 -0.356837 1.646465 0.163791 -0.027513 171825.000000 0 0 1
-35.939271 14.999222 -2.919313 39.052916 -0.395372 1.645619 0.157710 -0.031283 -125714.000000 0 0 1
-36.537757 15.920522 -2.033413 39.907462 -0.410922 1.621772 0.168399 -0.031557 -11748.200000 0 0 1
-35.761033 17.059222 -1.784213 39.661719 -0.445106 1.615797 0.177313 -0.031819 -91556.300000 0 0 1
-36.455717 18.124422 -0.896113 40.722439 -0.461375 1.592803 0.168289 -0.033206 -83454.100000 0 0 1
-37.497167 18.811422 -1.522913 41.978880 -0.464987 1.607082 0.155331 -0.026324 -298695.000000 0 0 1
37.735972 19.639722 -0.710013 42.546755 0.479874 1.587485 0.142009 -0.028150 -36891.700000 0 0 1
37.016212 20.644022 -1.620613 42.414643 0.508737 1.609014 0.099029 -0.021510 -231850.000000 0 0 1
37.950192 21.561222 -2.146213 43.700224 0.516668 1.619928 0.120674 -0.016467 53494.100000 0 0 1
37.501262 22.399222 -3.212313 43.799415 0.538426 1.644204 0.075352 -0.007977 -243683.000000 0 0 1
-37.504237 23.555222 -3.604513 44.434320 -0.560803 1.652006 0.103131 -0.014116 -520299.000000 0 0 1
-36.367217 23.008122 -4.172413 43.236064 -0.564089 1.667450 0.149014 -0.024614 -1126740.000000 0 0 1
-35.595214 24.037222 -4.724913 43.210324 -0.593951 1.680362 0.166822 -0.022112 380026.000000 0 0 1
-34.107599 23.649722 -4.980313 41.802406 -0.606273 1.690219 0.173226 -0.028547 337537.000000 0 0 1
-33.927447 22.721322 -6.022413 41.274685 -0.590102 1.717230 0.152677 -0.022676 -69608.000000 0 0 1
-32.634237 22.613922 -6.587613 40.246485 -0.605979 1.735218 0.177090 -0.023584 -101298.000000 0 0 1
-32.369637 21.705522 -7.791113 39.744491 -0.590688 1.768104 0.166395 -0.028714 -418280.000000 0 0 1
-33.190607 21.963322 -8.872113 40.776443 -0.584579 1.790130 0.152522 -0.030870 -155690.000000 0 0 1
-32.713467 21.405822 -10.074013 40.371597 -0.579422 1.822993 0.102919 -0.031685 -260990.000000 0 0 1
-33.673267 21.676522 -11.240013 41.594452 -0.571955 1.844427 0.104327 -0.021852 -132369.000000 0 0 1
-33.698687 23.095122 -11.537113 42.451044 -0.600820 1.846033 0.109679 -0.018810 -13376.600000 0 0 1
-34.459388 23.291622 -12.703013 43.489259 -0.594378 1.867213 0.080602 -0.010654 -970870.000000 0 0 1
-34.682755 24.780222 -13.059413 44.581399 -0.620380 1.868090 0.089879 -0.012446 402611.000000 0 0 1
-33.532357 25.621722 -13.123913 44.194216 -0.652458 1.872304 0.080857 -0.009180 376137.000000 0 0 1
-32.596057 25.484922 -14.194013 43.743047 -0.663570 1.901265 0.073192 -0.008774 522109.000000 0 0 1
-31.231017 26.122522 -13.813313 42.995002 -0.696562 1.897874 0.086064 -0.012573 287344.000000 0 0 1
-30.335017 25.459722 -12.903413 41.652236 -0.698240 1.885768 0.094019 -0.020070 373428.000000 0 0 1
-30.695687 25.190322 -11.521113 41.346264 -0.687204 1.853184 0.120117 -0.022169 -198189.000000 0 0 1
-31.014427 26.424722 -10.610813 42.104037 -0.705662 1.825557 0.148962 -0.015817 523561.000000 0 0 1
-29.840597 27.064522 -10.119813 41.537455 -0.736653 1.816904 0.178087 -0.010890 327549.000000 0 0 1
-30.216187 28.197722 -9.448013 42.395689 -0.750857 1.795537 0.161539 -0.013848 188163.000000 0 0 1
-28.950917 29.030022 -9.195813 42.017386 -0.786762 1.791440 0.175344 -0.017252 203589.000000 0 0 1
-29.398277 30.177422 -8.530113 42.984862 -0.798476 1.770567 0.154122 -0.029406 -51388.400000 0 0 1
-28.430537 31.171422 -8.343713 43.006634 -0.831352 1.766044 0.194015 -0.027522 -204377.000000 0 0 1
36.619402 -24.338478 33.263164 55.134201 -0.586594 0.923148 0.080686 -0.019648 45773.600000 0 0 1
35.932142 -23.148978 33.593644 54.364758 -0.572316 0.904688 0.081061 -0.024200 120552.000000 0 0 1
34.834462 -23.382278 -32.920273 53.328370 -0.591162 2.236118 0.069122 -0.016096 2238.520000 0 0 1
34.164892 -22.075478 -32.497873 52.064175 -0.573661 2.244889 0.064237 -0.012675 43106.700000 0 0 1
33.594312 -21.417478 -33.655413 52.153360 -0.567561 2.272234 0.049164 -0.018218 115491.000000 0 0 1
33.247422 -20.056478 -33.424653 51.233395 -0.542805 2.281543 0.049696 -0.014331 158145.000000 0 0 1
33.074402 -19.239778 32.609997 50.274218 -0.526864 0.864997 0.049448 -0.018677 696734.000000 0 0 1
34.282862 -19.091178 31.844558 50.535765 -0.508104 0.889064 0.065784 -0.030072 515851.000000 0 0 1
34.067982 -18.544678 30.592414 49.400691 -0.498490 0.902982 0.073520 -0.025059 -700176.000000 0 0 1
35.336812 -18.371278 29.786834 49.733787 -0.479433 0.928638 0.068593 -0.022326 -239794.000000 0 0 1
36.201572 -17.288878 30.224174 50.229073 -0.445545 0.925135 0.069963 -0.035463 432046.000000 0 0 1
37.426572 -17.373678 29.539104 50.745952 -0.434605 0.949490 0.070756 -0.034257 -645421.000000 0 0 1
-37.847697 -16.031778 29.543484 50.619003 0.400673 0.947587 0.067695 -0.034537 -84184.100000 0 0 1
-36.599727 -16.112478 28.862074 49.317048 0.414704 0.945626 0.067510 -0.036883 10966.100000 0 0 1
-35.760099 -15.125978 29.374694 48.687293 0.400163 0.923121 0.058215 -0.037115 -384147.000000 0 0 1
-34.300783 -15.273378 28.900284 47.381918 0.418920 0.914807 0.085767 -0.040918 83379.200000 0 0 1
-33.356717 -14.552278 29.673934 46.957233 0.411371 0.886749 0.074919 -0.033563 -40728.200000 0 0 1
-32.366367 -15.398878 30.196544 46.867242 0.444075 0.870689 0.077912 -0.040868 -606141.000000 0 0 1
-31.183227 -14.633578 30.781574 46.195677 0.438769 0.841520 0.083746 -0.040874 -232347.000000 0 0 1
-31.477027 -13.912678 31.984680 46.982822 0.416177 0.821978 0.078173 -0.035479 379205.000000 0 0 1
-30.324027 -13.153978 32.282949 46.203491 0.409284 0.797200 0.067191 -0.036177 256061.000000 0 0 1
-30.538147 -12.446878 33.630674 47.101225 0.387028 0.775589 0.055030 -0.003720 65068.000000 0 0 1
-30.752257 -13.276678 -32.599863 46.741016 0.407557 2.342640 0.069276 -0.011446 328378.000000 0 0 1
-30.971387 -12.490978 -31.437343 45.864560 0.383354 2.326002 0.073855 -0.001594 -347498.000000 0 0 1
-30.963477 -13.326578 -30.117223 45.203780 0.406433 2.299971 0.072284 -0.014710 -261966.000000 0 0 1
-32.078777 -14.187678 -30.067173 46.199275 0.416412 2.279453 0.067172 -0.007916 58775.900000 0 0 1
-32.256617 -14.727178 -28.758903 45.655817 0.428298 2.252229 0.090626 -0.007376 363863.000000 0 0 1
-33.550947 -15.573078 -28.665793 46.796522 0.434569 2.230095 0.074421 -0.016519 226387.000000 0 0 1
-33.290227 -16.812478 -29.279943 47.415332 0.467661 2.236383 0.076552 -0.015069 14999.200000 0 0 1
-34.397848 -17.668278 -29.195433 48.453620 0.474504 2.217481 0.080506 -0.018643 -280302.000000 0 0 1
-34.224200 -19.011878 -29.970353 49.304862 0.507064 2.224156 0.059060 -0.023995 577350.000000 0 0 1
-35.390068 -19.841978 -29.768833 50.322405 0.510995 2.203791 0.066689 -0.021062 941931.000000 0 0 1
-35.130611 -21.100878 -30.422943 51.038832 0.540891 2.209399 0.053353 -0.025691 -24642.000000 0 0 1
-36.375807 -21.936578 -30.777793 52.456509 0.542662 2.197811 0.066308 -0.023718 197383.000000 0 0 1
-37.077817 -22.569978 -29.698633 52.594460 0.546806 2.170832 0.063292 -0.022223 572609.000000 0 0 1
37.829182 -23.452078 -30.045963 53.701088 -0.554957 2.164583 0.087805 -0.024056 512109.000000 0 0 1
-37.783807 -24.867578 -30.501863 54.556174 0.582086 2.164085 0.069775 -0.018746 191954.000000 0 0 1
-36.997127 -24.949778 -31.697283 54.735697 0.593317 2.188417 0.087190 -0.019534 22224.500000 0 0 1
-36.321237 -26.189378 -31.776123 54.907538 0.624713 2.187955 0.079997 -0.018866 68580.000000 0 0 1
-36.943757 -27.152938 -32.843193 56.398569 0.633819 2.192402 0.099100 -0.028281 453475.000000 0 0 1
37.805132 -27.753418 -32.507543 57.063303 -0.633259 2.176907 0.096529 -0.022787 -129183.000000 0 0 1
37.431792 -28.852598 -33.323503 57.827911 -0.656684 2.184933 0.100588 -0.030407 -23499.300000 0 0 1
-37.928897 -30.218358 -33.031133 58.675430 0.672732 2.168743 0.106085 -0.028824 -58567.200000 0 0 1
37.655242 -30.662678 -31.762253 58.025492 -0.683400 2.150032 0.103820 -0.030400 76403.500000 0 0 1
-37.580057 -31.759258 -31.263923 58.295317 0.701648 2.136846 0.100812 -0.032982 -6059.370000 0 0 1
37.892342 -32.225988 -29.894093 58.034478 -0.704762 2.111931 0.086692 -0.032548 -24824.900000 0 0 1
36.703242 -32.981938 -29.939963 57.717740 -0.732047 2.116162 0.102158 -0.030261 -77856.300000 0 0 1
36.291812 -33.227588 -28.627323 56.927074 -0.741349 2.097720 0.106625 -0.028973 548321.000000 0 0 1
35.065282 33.346041 -28.632803 56.226060 0.760273 2.105103 0.099941 -0.030652 429059.000000 0 0 1
33.910992 -33.775588 -29.270793 56.102808 -0.783398 2.119680 0.113735 -0.034621 149271.000000 0 0 1
32.694612 33.376240 -28.625693 54.793625 0.795714 2.120492 0.100959 -0.025808 1212540.000000 0 0 1
31.364552 33.671213 -29.361623 54.585626 0.820851 2.138741 0.073840 -0.016815 355024.000000 0 0 1
31.191702 33.028390 -30.617853 54.783663 0.813990 2.163839 0.077738 -0.017516 -382191.000000 0 0 1
29.922972 33.336005 -31.142943 54.557826 0.839299 2.178306 0.075439 -0.014296 45605.400000 0 0 1
29.780972 32.872167 -32.584073 55.038236 0.834696 2.204367 0.064807 -0.024390 46381.700000 0 0 1
29.636672 31.477913 -32.613233 54.155464 0.815517 2.217069 0.051818 -0.018841 -141315.000000 0 0 1
29.590772 30.965673 33.459994 54.351245 0.808099 0.907617 0.062117 -0.019768 213756.000000 0 0 1
29.501572 29.418343 33.380664 53.385863 0.783986 0.895317 0.061846 -0.024314 677680.000000 0 0 1
30.785572 28.837053 33.605454 53.931935 0.752729 0.898085 0.064655 -0.024701 282856.000000 0 0 1
30.605072 27.491013 -33.384373 52.980587 0.731848 2.252510 0.056830 -0.026979 708810.000000 0 0 1
32.008822 26.807883 -33.280113 53.392820 0.697201 2.243761 0.076751 -0.031695 649376.000000 0 0 1
32.749142 27.313683 -32.189483 53.429452 0.695148 2.217385 0.081383 -0.028252 -514319.000000 0 0 1
34.060892 26.814143 -32.231383 54.018559 0.666913 2.210144 0.094750 -0.030194 -101768.000000 0 0 1
34.826402 27.010253 -30.919163 53.837038 0.659665 2.182558 0.105977 -0.030876 -133091.000000 0 0 1
35.533182 28.228553 -30.645053 54.759269 0.671334 2.164738 0.095513 -0.024635 570267.000000 0 0 1
34.682412 29.384783 -30.573123 54.781849 0.702897 2.162877 0.101347 -0.018452 314289.000000 0 0 1
33.800752 29.411683 -29.286773 53.528058 0.716076 2.149727 0.095928 -0.016875 274333.000000 0 0 1
34.490362 29.676153 -28.063923 53.458796 0.710512 2.123469 0.087212 -0.019406 -377533.000000 0 0 1
33.541812 30.043323 -27.118803 52.565044 0.730433 2.112865 0.096951 -0.015856 -238357.000000 0 0 1
34.022302 30.516673 -25.687533 52.427414 0.731133 2.082845 0.113987 -0.016771 155621.000000 0 0 1
34.767592 31.734469 -25.716463 53.639523 0.739820 2.070803 0.100925 -0.019801 265052.000000 0 0 1
35.353902 32.028773 -24.431913 53.597193 0.736091 2.044116 0.094107 -0.030161 281065.000000 0 0 1
35.882582 33.464647 -24.357913 54.779104 0.750545 2.031588 0.099058 -0.023822 -176254.000000 0 0 1
34.828042 -33.156508 -24.435913 53.939414 -0.760816 2.040952 0.120554 -0.013178 -148050.000000 0 0 1
35.071792 -31.814058 -24.208413 53.180937 -0.736731 2.043403 0.111159 -0.018664 -725885.000000 0 0 1
35.693002 -31.033048 -25.383843 53.678487 -0.715674 2.063360 0.094599 -0.018662 556736.000000 0 0 1
36.923862 -31.504698 -25.948523 55.038563 -0.706369 2.061743 0.101005 -0.022930 116981.000000 0 0 1
-37.978557 -30.790958 -25.377523 55.086047 0.681259 2.049567 0.097537 -0.022309 -1582600.000000 0 0 1
-36.687917 -31.430168 -25.768823 54.752999 0.708365 2.060810 0.065857 -0.017739 -1537340.000000 0 0 1
-36.483837 -32.748348 -25.180563 55.114294 0.731494 2.045280 0.052862 -0.020245 -307907.000000 0 0 1
-36.203447 -32.768708 -23.765913 54.307425 0.735640 2.023744 0.061289 -0.026213 -80616.100000 0 0 1
-34.802145 -32.273958 -23.321313 52.883658 0.747725 2.027501 0.038011 -0.023370 118500.000000 0 0 1
-34.540445 -30.895828 -23.327113 51.882066 0.729758 2.037134 0.033714 -0.021464 -203835.000000 0 0 1
-34.573258 -30.363388 -22.010813 51.007072 0.720658 2.016979 0.042156 -0.022019 -192252.000000 0 0 1
-34.401848 -28.839238 -21.864413 49.932368 0.697665 2.024036 0.048134 -0.000702 500505.000000 0 0 1
-35.491165 -28.015678 -22.326213 50.427778 0.668226 2.029444 0.027614 0.004339 215042.000000 0 0 1
-35.664143 -27.785468 -23.727813 51.058520 0.661858 2.054112 0.018748 -0.006477 524210.000000 0 0 1
-37.012387 -27.085268 -24.123113 51.821358 0.631744 2.055002 0.026126 -0.002884 741390.000000 0 0 1
-36.994837 -25.814368 -23.505613 50.867607 0.609236 2.051151 0.030705 0.002073 -100163.000000 0 0 1
-37.790477 -24.832478 -24.165613 51.271327 0.581357 2.061592 0.044006 -0.004874 -58600.700000 0 0 1
-37.354717 -24.375978 -25.571003 51.414389 0.578169 2.091339 0.062873 -0.010802 -636006.000000 0 0 1
-36.140797 -23.701178 -25.471613 50.166783 0.580443 2.103354 0.041332 -0.017295 -683911.000000 0 0 1
-35.885313 -23.061578 -26.716083 50.332307 0.571189 2.130333 0.040496 -0.022514 -483375.000000 0 0 1
-34.838921 -21.962478 -26.698063 49.080418 0.562473 2.145952 0.047556 -0.031629 -766298.000000 0 0 1
-35.056432 -20.726478 -25.996053 48.314957 0.533947 2.138923 0.072479 -0.023153 79430.100000 0 0 1
-36.036017 -19.795378 -26.465803 48.896730 0.502323 2.142730 0.102537 -0.020770 445683.000000 0 0 1
-37.327647 -19.742478 -25.612063 49.387209 0.486497 2.116006 0.124881 -0.032507 139486.000000 0 0 1
-37.096277 -19.170378 -24.338513 48.332188 0.476976 2.098519 0.118728 -0.040570 -141017.000000 0 0 1
-36.426357 -20.014678 -23.399813 47.697149 0.502425 2.083565 0.075705 -0.042148 117314.000000 0 0 1
-37.260697 -21.103378 -22.650013 48.443113 0.515325 2.057324 0.075860 -0.029040 269922.000000 0 0 1
37.752142 -20.574378 -21.769213 48.191575 -0.498985 2.039491 0.086560 -0.026064 -162959.000000 0 0 1
37.078292 -21.601378 -21.120713 47.827855 -0.527518 2.028176 0.065543 -0.011404 -130338.000000 0 0 1
35.914092 -21.143378 -20.191313 46.309324 -0.532085 2.021956 0.075181 -0.016612 411538.000000 0 0 1
34.710942 -20.916678 -20.918313 45.606279 -0.542326 2.047296 0.094858 -0.005075 133478.000000 0 0 1
33.623482 -20.704878 -20.028213 44.275951 -0.551946 2.040195 0.076304 -0.000224 96731.500000 0 0 1
32.350462 -20.265578 -20.765513 43.456329 -0.559633 2.068999 0.086453 -0.009869 -599197.000000 0 0 1
31.817862 -21.311978 -21.566913 43.951205 -0.590177 2.083691 0.085334 -0.003939 222191.000000 0 0 1
30.665172 -21.048778 -22.356713 43.396157 -0.601545 2.112011 0.113112 -0.012329 193542.000000 0 0 1
30.564472 -19.815978 -23.297313 43.239157 -0.575203 2.139810 0.103645 -0.022293 -626086.000000 0 0 1
30.417772 -18.676878 -22.501013 42.194338 -0.550659 2.133259 0.112622 -0.016442 -52906.500000 0 0 1
30.545772 -17.489578 -23.261613 42.190427 -0.520006 2.154776 0.093565 -0.013354 -294046.000000 0 0 1
31.250782 -16.379678 -22.403013 41.794739 -0.482770 2.136517 0.091684 -0.006692 -370053.000000 0 0 1
30.573972 -15.972878 -21.220513 40.499515 -0.481433 2.122301 0.074758 -0.012572 -140717.000000 0 0 1
31.271762 -15.114378 -20.363513 40.262143 -0.450218 2.101074 0.058138 -0.015495 28062.300000 0 0 1
32.469602 -15.721278 -19.563513 41.038575 -0.450915 2.067705 0.082140 -0.023966 179940.000000 0 0 1
33.500742 -16.109978 -20.436313 42.420207 -0.448238 2.073457 0.078178 -0.023884 -650086.000000 0 0 1
34.465082 -16.833778 -19.711913 43.125137 -0.454349 2.045513 0.067906 -0.017833 -372184.000000 0 0 1
35.650922 -17.343678 -20.536013 44.648843 -0.452778 2.048730 0.079406 -0.033875 243390.000000 0 0 1
36.581602 -16.294078 -20.854913 45.151279 -0.419036 2.050921 0.089307 -0.038621 233375.000000 0 0 1
37.632622 -16.776178 -21.653913 46.546174 -0.419346 2.054672 0.115694 -0.042179 199951.000000 0 0 1
-37.333687 -15.653878 -22.022313 46.085034 0.397030 2.069016 0.134645 -0.049133 -324787.000000 0 0 1
-36.407777 -15.244578 -21.075613 44.744886 0.396537 2.061240 0.148446 -0.050747 49286.100000 0 0 1
-35.745615 -14.053478 -21.596613 44.064304 0.374589 2.083019 0.152729 -0.049717 663177.000000 0 0 1
-34.407814 -13.665778 -20.843313 42.486408 0.378065 2.083560 0.156894 -0.047374 1171270.000000 0 0 1
-33.229607 -14.432978 -21.037613 41.893899 0.409756 2.096896 0.155944 -0.054976 461975.000000 0 0 1
-33.222887 -15.696778 -20.439213 42.046528 0.441381 2.078429 0.132861 -0.054568 -651820.000000 0 0 1
-32.055787 -16.495778 -21.008913 41.725994 0.475256 2.098438 0.105676 -0.052768 -202217.000000 0 0 1
-32.054087 -17.741578 -20.343913 41.905881 0.505518 2.077693 0.112860 -0.062187 217692.000000 0 0 1
-31.125127 -18.690078 -20.839513 41.861412 0.540774 2.091881 0.115097 -0.058590 -306385.000000 0 0 1
-31.136627 -20.051678 -20.091013 42.133219 0.572139 2.067858 0.112527 -0.021029 284061.000000 0 0 1
-32.298097 -20.784878 -20.513813 43.543022 0.571815 2.061352 0.093732 -0.030779 723886.000000 0 0 1
-32.371207 -21.980378 -19.876913 43.887626 0.596499 2.040817 0.076069 -0.007995 137344.000000 0 0 1
-33.455757 -22.867178 -20.550613 45.437025 0.599570 2.040125 0.048352 -0.020916 110717.000000 0 0 1
-33.128397 -23.205778 -21.865313 45.979242 0.611048 2.066383 0.060171 -0.022114 258207.000000 0 0 1
-33.913927 -24.282778 -22.366813 47.329505 0.621392 2.063008 0.041658 -0.011174 98491.400000 0 0 1
-33.520397 -24.428978 -23.829613 47.835577 0.629781 2.092268 0.036876 -0.006277 -138068.000000 0 0 1
-32.307847 -25.114958 -24.004513 47.442331 0.660785 2.101305 0.046727 -0.021560 -406045.000000 0 0 1
-32.218997 -25.571158 -25.341443 48.312903 0.670867 2.122956 0.044862 -0.011259 475270.000000 0 0 1
-30.791147 -26.071408 -25.720623 47.847293 0.702585 2.138333 0.052451 -0.022117 650506.000000 0 0 1
-29.823267 -25.025608 -25.762293 46.684088 0.698150 2.155369 0.074871 -0.032018 397459.000000 0 0 1
-28.526027 -25.517068 -26.101763 46.326634 0.729779 2.169327 0.078914 -0.029124 1003370.000000 0 0 1
-27.413507 -24.422578 -26.146093 45.073061 0.727762 2.189626 0.101354 -0.033857 171728.000000 0 0 1
-27.447537 -23.599678 -27.304233 45.341297 0.710162 2.217042 0.107237 -0.037880 213901.000000 0 0 1
-26.501777 -22.527078 -27.219003 44.166588 0.704506 2.234807 0.120298 -0.040487 214754.000000 0 0 1
-26.169047 -21.772378 -28.528683 44.415551 0.693945 2.268309 0.096766 -0.034380 77987.600000 0 0 1
-25.500927 -22.553978 -29.488983 45.039752 0.724150 2.284625 0.083386 -0.014298 116714.000000 0 0 1
-25.765367 -22.089778 -30.806603 45.835131 0.708742 2.307861 0.071579 -0.010189 -411846.000000 0 0 1
-25.141447 -22.954178 -31.907023 46.658812 0.739952 2.323805 0.059853 -0.021777 -4836.590000 0 0 1
-25.793497 -24.207678 -32.180803 47.821755 0.753693 2.308962 0.055712 -0.023101 44380.600000 0 0 1
-25.176497 -24.966178 -33.195453 48.570610 0.781204 2.323271 0.059218 -0.008506 43544.700000 0 0 1
-20.259067 -15.000378 -11.578313 27.739835 0.637347 2.001367 0.081407 -0.009159 215150.000000 0 0 1
-20.774867 -14.481278 -10.379813 27.368650 0.608748 1.959792 0.091915 -0.017541 620666.000000 0 0 1
-19.854467 -14.933878 -9.382513 26.556583 0.644887 1.931895 0.094035 -0.024035 305121.000000 0 0 1
-20.194967 -14.383478 -8.006013 26.054124 0.618887 1.883134 0.126049 -0.040003 65494.100000 0 0 1
-21.439167 -14.829878 -7.485913 27.121985 0.605147 1.850436 0.151060 -0.039259 412757.000000 0 0 1
-21.728367 -14.135378 -6.266513 26.668334 0.576761 1.807994 0.143995 -0.042103 244813.000000 0 0 1
-23.090267 -14.634878 -5.698013 27.925033 0.564911 1.776286 0.150781 -0.041128 -158451.000000 0 0 1
-23.015967 -15.903378 -5.037713 28.425881 0.604641 1.748960 0.135872 -0.045516 504835.000000 0 0 1
-22.484867 -15.880578 -3.704813 27.775666 0.614927 1.704578 0.147069 -0.049582 -104362.000000 0 0 1
-22.261367 -17.350978 -3.184813 28.403661 0.662066 1.683159 0.120617 -0.034424 387447.000000 0 0 1
-23.509067 -18.029678 -3.055013 29.783865 0.654245 1.673550 0.124323 -0.034697 645073.000000 0 0 1
-23.396467 -19.074978 -2.132813 30.262160 0.683997 1.641333 0.117023 -0.028866 -186148.000000 0 0 1
-24.601667 -20.019478 -2.060513 31.784701 0.683066 1.635669 0.143959 -0.050401 -258840.000000 0 0 1
-24.596467 -20.793078 -3.222713 32.368568 0.701799 1.670525 0.130512 -0.050684 -165191.000000 0 0 1
-25.678187 -21.665678 -3.317813 33.760610 0.700848 1.669230 0.144255 -0.046094 -329994.000000 0 0 1
-25.326497 -22.903878 -4.115313 34.394111 0.735210 1.690735 0.146221 -0.051638 -259925.000000 0 0 1
-24.205567 -23.612678 -3.647613 34.011368 0.773000 1.678250 0.156816 -0.048218 -156559.000000 0 0 1
-23.704767 -24.488978 -4.670613 34.401172 0.801669 1.706986 0.151841 -0.038879 1144260.000000 0 0 1
-22.200067 -24.188278 -5.051313 33.217940 0.828232 1.723454 0.120389 -0.032687 719767.000000 0 0 1
-21.905567 -23.034478 -5.888013 32.328157 0.810513 1.753951 0.089265 -0.021676 147725.000000 0 0 1
-21.867567 -21.801278 -5.111113 31.298717 0.783880 1.734832 0.093235 -0.024737 -400248.000000 0 0 1
-22.094567 -20.548078 -5.928813 30.749703 0.749148 1.764820 0.098609 -0.014122 565957.000000 0 0 1
-20.914267 -20.182278 -6.658713 29.817266 0.767589 1.796013 0.083162 -0.006175 661436.000000 0 0 1
-21.124367 -19.043278 -7.507213 29.415023 0.733634 1.828868 0.078826 -0.004390 459119.000000 0 0 1
-19.829667 -18.654078 -8.295513 28.460602 0.754860 1.866563 0.100953 -0.010418 59928.500000 0 0 1
-19.568267 -19.554478 -9.399413 29.217181 0.785046 1.898330 0.101058 -0.012879 1733910.000000 0 0 1
-18.231067 -19.543578 -10.017913 28.542632 0.820130 1.929415 0.131557 -0.011332 1511920.000000 0 0 1
-17.893967 -18.194578 -10.666613 27.658875 0.793728 1.966707 0.118393 -0.009017 -572814.000000 0 0 1
-17.543367 -17.101578 -9.818713 26.393954 0.772647 1.951966 0.128801 -0.018191 742609.000000 0 0 1
-16.222067 -17.148878 -9.255913 25.355698 0.813164 1.944475 0.146868 -0.017235 416887.000000 0 0 1
-15.860067 -15.926978 -8.460113 24.016325 0.787503 1.930787 0.115879 -0.019152 134940.000000 0 1 0
-16.607067 -16.035078 -7.241913 24.194291 0.767877 1.874780 0.111663 -0.020827 604605.000000 0 1 0
-16.712567 -14.736978 -6.659813 23.256000 0.722663 1.861232 0.125260 -0.026199 -186612.000000 0 1 0
-17.305667 -14.946878 -5.277313 23.467963 0.712393 1.797609 0.126370 -0.041458 -152597.000000 0 1 0
-17.738067 -13.815778 -4.588813 22.947156 0.661728 1.772127 0.100382 -0.033295 59639.400000 0 1 0
-18.434667 -14.241878 -3.473813 23.552822 0.657784 1.718827 0.097367 -0.019792 -369830.000000 0 1 0
-19.284167 -13.235078 -2.702913 23.544684 0.601485 1.685849 0.113425 -0.020246 -400473.000000 0 1 0
-20.567867 -13.008678 -3.232813 24.550233 0.563957 1.702861 0.145312 -0.039653 260926.000000 0 1 0
-21.211467 -11.923178 -2.546213 24.465725 0.512093 1.675058 0.141650 -0.021567 -179074.000000 0 1 0
-22.705467 -11.855378 -2.895313 25.777336 0.481200 1.683354 0.136268 -0.021686 -301698.000000 0 0 1
-22.980567 -11.542878 -4.283813 26.070971 0.465477 1.735858 0.149739 -0.042930 -577268.000000 0 0 1
-24.300467 -11.334178 -4.632713 27.210996 0.436423 1.741881 0.144275 -0.032083 -980191.000000 0 0 1
-24.632767 -11.232778 -6.125513 27.757349 0.427840 1.793309 0.139816 -0.044504 -136011.000000 0 0 1
-24.949307 -12.485778 -6.774313 28.709822 0.464004 1.809001 0.144525 -0.045958 181008.000000 0 0 1
-25.462277 -12.233378 -8.101213 29.387289 0.447887 1.850084 0.149813 -0.046494 -296470.000000 0 0 1
-24.451667 -12.143578 -9.248813 28.825181 0.460953 1.897432 0.144496 -0.057663 -653318.000000 0 0 1
-23.573867 -11.069378 -9.047513 27.570198 0.439002 1.905154 0.153281 -0.052634 843108.000000 0 0 1
-22.383267 -11.320278 -9.844113 26.945610 0.468235 1.944787 0.123120 -0.048990 7140.380000 0 0 1
-21.201667 -10.448778 -9.516013 25.480231 0.457894 1.953539 0.136958 -0.055570 -958523.000000 0 0 1
-21.220167 -9.132878 -10.114813 25.219326 0.406424 1.983485 0.127250 -0.057016 68665.600000 0 0 1
-20.210467 -8.257178 -9.710313 23.894228 0.387863 1.989293 0.131730 -0.047189 -563789.000000 0 1 0
-20.257467 -6.924078 -10.376313 23.790244 0.329354 2.022121 0.143729 -0.055658 -132876.000000 0 1 0
-19.927167 -6.973078 -11.760713 24.166716 0.336611 2.079046 0.148427 -0.049248 471513.000000 0 1 0
-20.154667 -5.733978 -12.447213 24.372571 0.277176 2.106802 0.159854 -0.050673 -230939.000000 0 1 0
-19.372067 -5.553878 -13.783713 24.415431 0.279206 2.170683 0.184516 -0.056137 -121789.000000 0 1 0
-19.785867 -6.509778 -14.761713 25.529706 0.317856 2.187338 0.153673 -0.056884 533844.000000 0 0 1
-19.155267 -6.367278 -16.024913 25.773326 0.320913 2.241789 0.164825 -0.058396 -142923.000000 0 0 1
-19.734367 -7.404478 -17.025113 27.094760 0.358952 2.250232 0.129927 -0.044778 1445100.000000 0 0 1
-21.112667 -7.162278 -17.440913 28.305978 0.327058 2.234650 0.123086 -0.046537 1697970.000000 0 0 1
-21.560467 -7.917078 -18.508113 29.497188 0.351918 2.249075 0.113959 -0.041061 -440978.000000 0 0 1
-22.952367 -7.507778 -19.008413 30.732680 0.316132 2.237639 0.105895 -0.040150 -1072010.000000 0 0 1
-23.013567 -6.529678 -20.044413 31.209605 0.276466 2.268228 0.121067 -0.040507 936192.000000 0 0 1
-24.288567 -6.256978 -20.645913 32.485966 0.252128 2.259495 0.104530 -0.041485 1989320.000000 0 0 1
-25.551387 -5.906478 -19.710413 32.806405 0.227171 2.215310 0.132558 -0.040117 628191.000000 0 0 1
-25.679697 -4.539178 -19.330913 32.461287 0.174954 2.208693 0.136927 -0.043750 194307.000000 0 0 1
-26.793727 -4.395378 -18.477513 32.842680 0.162597 2.168332 0.141844 -0.031234 -439873.000000 0 0 1
-27.204297 -3.040278 -17.930013 32.723118 0.111295 2.150685 0.146816 -0.032412 209888.000000 0 0 1
-27.825147 -2.087978 -18.800113 33.645842 0.074899 2.163692 0.156471 -0.027409 421751.000000 0 0 1
-29.123457 -2.358278 -19.300413 35.017755 0.080799 2.154551 0.155665 -0.019523 134330.000000 0 0 1
-29.726257 -1.028578 -19.941613 35.810281 0.034588 2.161407 0.155211 -0.023825 367557.000000 0 0 1
-29.030757 -0.603878 -21.133813 35.913613 0.020798 2.199952 0.154342 -0.020886 298140.000000 0 0 1
-29.422707 -1.427878 -22.290513 36.940513 0.048492 2.218575 0.162324 -0.015969 -132700.000000 0 0 1
-28.702797 -1.264878 -23.656513 37.216677 0.044040 2.259637 0.150601 -0.014573 -850532.000000 0 0 1
-28.720517 0.000322 -24.325513 37.637729 -0.000011 2.273531 0.161080 -0.013532 571383.000000 0 0 1
-27.887457 0.987822 -23.672913 36.593618 -0.035407 2.274327 0.149191 -0.010596 1281680.000000 0 0 1
-26.362727 0.690422 -23.403513 35.258963 -0.026183 2.296632 0.156728 -0.005923 -126601.000000 0 0 1
-25.556637 0.537722 -24.518313 35.420030 -0.021037 2.335351 0.138748 -0.001877 -1135810.000000 0 0 1
-24.247867 0.392022 -24.069013 34.167676 -0.016166 2.352427 0.121745 -0.000940 -515711.000000 0 0 1
-23.280567 0.111522 -25.264643 34.355486 -0.004790 2.397037 0.101409 0.000337 -54724.800000 0 0 1
-23.172167 1.142922 -26.197513 34.993789 -0.049283 2.416794 0.075694 -0.001536 208047.000000 0 0 1
-22.786567 0.628522 -27.476323 35.701134 -0.027576 2.449043 0.053503 -0.000336 -111934.000000 0 0 1
-22.372367 1.744522 -28.465073 36.246745 -0.077819 2.473999 0.058264 -0.002060 -94173.000000 0 0 1
-21.117467 2.358922 -28.212953 35.319720 -0.111244 2.496074 0.066742 0.002749 377428.000000 0 0 1
-20.889767 3.390222 -29.170473 36.038763 -0.160888 2.513959 0.059223 -0.001865 95047.000000 0 0 1
-20.321167 2.963022 -30.566353 36.824330 -0.144789 2.550009 0.049736 -0.001155 -7674.600000 0 0 1
-18.954667 2.599822 -30.600893 36.089515 -0.136309 2.582839 0.052733 0.001121 194118.000000 0 0 1
-18.590167 2.175322 -31.943973 37.023556 -0.116485 2.611581 0.046877 -0.003813 311339.000000 0 0 1
-17.083267 1.800022 -32.057723 36.369983 -0.104980 2.649685 0.058710 -0.017441 491334.000000 0 0 1
-16.321867 3.013422 -32.095073 36.132779 -0.182569 2.664326 0.062943 -0.014668 61842.000000 0 0 1
-14.995267 2.770222 -32.522533 35.920012 -0.182680 2.703154 0.065786 -0.016866 331422.000000 0 0 1
-14.177867 4.053122 -32.859973 36.016906 -0.278450 2.719781 0.088107 -0.016050 73138.500000 0 0 1
-13.866367 4.896022 -31.749043 34.989268 -0.339422 2.707837 0.094111 -0.023744 67029.500000 0 0 1
-13.189067 6.053822 -32.134143 35.259089 -0.430316 2.717401 0.119802 -0.018337 -226579.000000 0 0 1
-12.778267 7.062022 -31.036313 34.298819 -0.504882 2.701894 0.121833 -0.027880 -204979.000000 0 0 1
-11.695367 6.685722 -30.216863 33.083822 -0.519317 2.722215 0.147224 -0.046256 -26955.100000 0 0 1
-11.931167 5.595522 -29.329803 32.154314 -0.438528 2.719314 0.149843 -0.046887 305556.000000 0 0 1
-10.598567 4.789622 -29.135033 31.370691 -0.424443 2.761780 0.175702 -0.067873 523397.000000 0 0 1
-10.131367 4.071822 -30.259093 32.168883 -0.382145 2.795285 0.159289 -0.060027 -161628.000000 0 0 1
-10.940967 2.995122 -30.660093 32.691234 -0.267206 2.787233 0.157546 -0.048931 -373947.000000 0 0 1
-10.372167 2.178222 -31.810363 33.529475 -0.206998 2.819985 0.142529 -0.059077 -180706.000000 0 0 1
-11.254167 1.145922 -32.195973 34.125505 -0.101472 2.803707 0.135681 -0.051419 105699.000000 0 0 1
-10.884267 0.615222 -33.454283 35.185719 -0.056464 2.826577 0.116139 -0.037886 -232148.000000 0 0 1
-11.495267 1.350022 32.720236 34.707024 -0.116906 0.339998 0.126385 -0.027817 -2182300.000000 0 0 1
-12.824167 1.187622 32.643348 35.092134 -0.092345 0.375789 0.067655 -0.022637 -2283120.000000 0 0 1
-13.172567 1.480722 31.262919 33.957019 -0.111940 0.401025 0.069843 -0.022280 183032.000000 0 0 1
-14.670067 1.153722 31.073824 34.382037 -0.078483 0.442274 0.073879 -0.012681 608552.000000 0 0 1
-15.616867 2.112622 31.575957 35.290094 -0.134462 0.462916 0.082529 -0.003214 -53182.200000 0 0 1
-16.906567 1.811222 31.148934 35.487584 -0.106724 0.499668 0.087356 0.001007 -508821.000000 0 0 1
-17.792967 3.013122 30.805994 35.702631 -0.167752 0.529916 0.080499 0.000678 -216206.000000 0 0 1
-18.273567 3.836122 31.884568 36.949489 -0.206923 0.529770 0.079339 -0.005406 774053.000000 0 0 1
-17.391167 4.914222 32.314850 37.025016 -0.275390 0.509919 0.071750 -0.003705 131919.000000 0 0 1
-17.945767 5.638322 33.540444 38.455202 -0.304421 0.511124 0.060126 -0.005201 377331.000000 0 0 1
-19.268667 6.129522 33.402454 39.045825 -0.307986 0.544342 0.055657 -0.003176 -52508.300000 0 0 1
-20.161867 5.535022 -33.067743 39.123049 -0.267928 2.577781 0.054698 0.001596 295075.000000 0 0 1
-21.604267 6.123422 -33.047283 39.954518 -0.276192 2.544765 0.044644 0.001239 368391.000000 0 0 1
-21.681867 7.496122 -32.641663 39.897034 -0.332868 2.528978 0.056131 -0.009493 90565.000000 0 0 1
-21.379267 8.432722 -33.651903 40.750882 -0.375699 2.542408 0.048087 -0.010711 -376685.000000 0 0 1
-21.210867 9.888922 -33.098963 40.536810 -0.436260 2.526147 0.043307 -0.011640 -294322.000000 0 0 1
-20.048267 9.928822 -32.280583 39.275317 -0.459837 2.535544 0.063927 -0.018632 480724.000000 0 0 1
-19.557467 11.247122 -31.969343 39.128393 -0.521895 2.527049 0.064617 -0.017108 67083.600000 0 0 1
-18.803067 11.964422 -33.108203 39.910598 -0.566685 2.549114 0.046399 -0.033931 -835757.000000 0 0 1
-19.565167 12.236322 33.125024 40.370664 -0.558897 0.608472 0.055994 -0.030922 235713.000000 0 0 1
-18.783067 12.465022 31.947248 39.099962 -0.585898 0.614493 0.068531 -0.030211 847844.000000 0 0 1
-19.616867 11.932722 30.665594 38.309137 -0.546492 0.642705 0.076031 -0.030638 654606.000000 0 0 1
-19.855867 10.518122 30.679374 38.027757 -0.487143 0.632144 0.066887 -0.019764 395397.000000 0 0 1
-18.677567 9.748722 30.458024 37.034853 -0.481052 0.605153 0.080167 -0.021444 359186.000000 0 0 1
-18.858567 8.242822 30.689354 36.951672 -0.412063 0.590744 0.079564 -0.016148 -210883.000000 0 0 1
-19.551167 7.665122 29.651544 36.334780 -0.373638 0.616227 0.079785 -0.006316 -170138.000000 0 0 1
-19.988767 6.363722 30.010054 36.614903 -0.308219 0.610061 0.072317 -0.009790 -179220.000000 0 0 1
-20.381467 5.678322 28.667284 35.629492 -0.271712 0.635804 0.076276 -0.010097 175114.000000 0 0 1
-21.759067 5.852422 28.386344 36.242135 -0.262747 0.670934 0.100112 -0.019574 -5792.850000 0 0 1
-22.162967 5.046422 27.282324 35.510402 -0.223879 0.694629 0.095062 -0.019754 323407.000000 0 0 1
-23.683067 5.147922 26.978244 36.265885 -0.214038 0.731907 0.087530 -0.018434 404442.000000 0 0 1
-24.084067 5.969322 25.869144 35.845330 -0.242957 0.764559 0.087931 -0.023334 -290181.000000 0 0 1
-25.404907 6.401322 26.000334 36.910752 -0.246834 0.789204 0.076628 -0.018620 -850853.000000 0 0 1
-25.925537 7.120722 24.745644 36.540184 -0.268051 0.826822 0.072966 -0.018953 -247967.000000 0 0 1
-26.117607 6.221422 23.655614 35.783006 -0.233850 0.848532 0.073207 -0.019926 412993.000000 0 0 1
-27.315627 5.463722 23.687644 36.566381 -0.197417 0.866105 0.072378 -0.016932 -247689.000000 0 0 1
-27.441797 4.667722 22.414224 35.738457 -0.168483 0.892877 0.084532 -0.022131 -94994.700000 0 0 1
-27.860987 5.361122 21.260354 35.453898 -0.190100 0.927718 0.076152 -0.020495 -10978.200000 0 0 1
-27.906457 4.610622 20.083254 34.689556 -0.163738 0.953365 0.097133 -0.017431 -87363.300000 0 0 1
-28.581527 5.412122 18.964254 34.725174 -0.187142 0.993066 0.110529 -0.024944 672343.000000 0 0 1
-30.002747 5.484422 19.113254 35.993891 -0.180801 1.011000 0.121414 -0.026478 459053.000000 0 0 1
-30.607417 6.133622 18.039754 36.053682 -0.197777 1.046784 0.126791 -0.027601 1007090.000000 0 0 1
-32.186047 6.170222 18.152754 37.463792 -0.189407 1.064958 0.132535 -0.022093 1278310.000000 0 0 1
-32.671767 7.211322 19.011654 38.482340 -0.217237 1.054071 0.141805 -0.031173 -366729.000000 0 0 1
-33.996801 7.004722 19.412354 39.770442 -0.203197 1.060873 0.151118 -0.029007 -231163.000000 0 0 1
-34.373649 8.185022 20.343754 40.772670 -0.233766 1.048403 0.171466 -0.030447 -40259.800000 0 0 1
-33.875037 8.112522 21.665954 41.021271 -0.235057 1.014360 0.128363 -0.020850 -128184.000000 0 0 1
-34.530093 9.000022 22.493024 42.181321 -0.254970 1.008363 0.147604 -0.026809 11681.900000 0 0 1
-0.364067 32.530322 11.731887 34.583111 -1.559605 1.224690 0.205450 -0.042446 563697.000000 0 0 1
-1.065867 32.696422 12.999987 35.202156 -1.538209 1.192546 0.207754 -0.046466 329046.000000 0 0 1
-0.682567 -33.649649 13.619187 36.307672 1.550515 1.186286 0.200845 -0.055962 25322.400000 0 0 1
-0.744767 -33.691949 15.131887 36.941523 1.548695 1.148762 0.202588 -0.054388 -372813.000000 0 0 1
-2.011267 -33.652349 15.715087 37.195293 1.511101 1.134592 0.172291 -0.045564 -588477.000000 0 0 1
-1.989367 33.733722 17.143387 37.892180 -1.511892 1.101313 0.167151 -0.050908 -223644.000000 0 0 1
-3.310967 -33.482049 17.848687 38.086556 1.472229 1.083052 0.149579 -0.039063 -41605.300000 0 0 1
-4.290867 33.074622 17.835087 37.821059 -1.441784 1.079732 0.163024 -0.038081 -49051.700000 0 0 1
-5.249667 33.243722 18.853387 38.576603 -1.414175 1.060167 0.118511 -0.027851 -284409.000000 0 0 1
-6.364067 32.208322 18.865787 37.865489 -1.375718 1.049238 0.115176 -0.024390 17842.600000 0 0 1
-7.410167 32.429722 17.924287 37.787267 -1.346154 1.076574 0.108179 -0.023431 391997.000000 0 0 1
-8.449967 31.466722 18.064587 37.254340 -1.308449 1.064549 0.097615 -0.024864 333105.000000 0 0 1
-9.483467 31.593522 16.911887 37.068838 -1.279182 1.097043 0.076425 -0.039396 34701.700000 0 0 1
-10.226167 32.818822 16.914987 38.311439 -1.268737 1.113512 0.083811 -0.025615 -49678.000000 0 0 1
-11.278667 32.680922 15.994887 38.093141 -1.238480 1.137473 0.073458 -0.033591 262534.000000 0 0 1
-12.190367 -33.601749 15.826687 39.091772 1.222773 1.153971 0.073617 -0.038219 -129750.000000 0 0 1
-13.197667 -33.507249 16.775287 39.728132 1.195581 1.134868 0.060869 -0.031643 -125814.000000 0 0 1
-14.245767 -32.627849 16.359587 39.181048 1.159130 1.140062 0.042849 -0.030562 931184.000000 0 0 1
-15.547767 -32.922149 17.185687 40.261009 1.129587 1.129782 0.066398 -0.031688 541794.000000 0 0 1
-15.329667 -32.504949 18.507187 40.423835 1.130117 1.095245 0.066348 -0.021639 656962.000000 0 0 1
-16.478067 -32.861749 19.303587 41.521678 1.106001 1.087270 0.067645 -0.032570 627573.000000 0 0 1
-16.355767 -32.555549 20.809187 41.957088 1.105234 1.051852 0.074627 -0.044844 -288983.000000 0 0 1
-16.383067 -31.146449 21.029487 40.996897 1.086565 1.032175 0.074237 -0.042034 110650.000000 0 0 1
-16.335067 -30.872349 22.404787 41.495914 1.084128 1.000445 0.084294 -0.044747 45590.000000 0 0 1
-15.845667 -29.463949 22.715487 40.437642 1.077369 0.974307 0.104284 -0.055037 -232296.000000 0 0 1
-15.825367 -29.116649 24.111387 40.982686 1.072945 0.941803 0.129078 -0.067391 -62944.500000 0 0 1
-15.721967 -27.704949 24.350187 40.095837 1.054633 0.918139 0.106447 -0.036601 321907.000000 0 0 1
-16.908567 -26.806649 23.821987 39.648243 1.008066 0.926253 0.113833 -0.034040 -79197.500000 0 0 1
-18.070867 -26.964049 24.567987 40.708749 0.980363 0.922905 0.112747 -0.028616 191192.000000 0 0 1
-19.152167 -26.253749 23.906187 40.343161 0.940543 0.936549 0.098146 -0.022660 710971.000000 0 0 1
-20.306767 -25.820449 24.850687 41.190012 0.904366 0.923141 0.099981 -0.014792 788534.000000 0 0 1
-21.263367 -26.745949 25.397387 42.573512 0.899104 0.931596 0.112053 -0.018530 1126060.000000 0 0 1
-22.268867 -27.309649 24.562587 42.953930 0.886723 0.962055 0.111623 -0.025912 -125223.000000 0 0 1
-23.630267 -26.615249 24.509187 43.214133 0.844736 0.967747 0.085809 -0.015756 -479307.000000 0 0 1
-23.652567 -25.334549 23.867687 42.082655 0.819720 0.967740 0.084551 -0.014041 -748381.000000 0 0 1
-24.841267 -25.099649 23.218987 42.263487 0.790572 0.989167 0.058301 -0.008271 -983409.000000 0 0 1
-25.103117 -23.617749 22.829087 41.341647 0.754920 0.985789 0.055221 0.005699 49470.800000 0 0 1
-25.736777 -22.939049 23.893087 41.945933 0.727985 0.964757 0.047488 0.009273 83557.400000 0 0 1
-26.291567 -21.669249 23.571487 41.429674 0.689318 0.965566 0.039936 0.010253 227804.000000 0 0 1
-26.804337 -21.009949 24.867187 42.169509 0.664801 0.940114 0.043485 0.013538 1508.340000 0 0 1
-27.893907 -21.707649 25.423987 43.539307 0.661320 0.947233 0.039196 0.016956 69461.100000 0 0 1
-28.259217 -21.165649 26.705287 44.268956 0.642849 0.923225 0.046317 0.001562 -1207690.000000 0 0 1
-29.366697 -21.890949 27.422387 45.755917 0.640573 0.928146 0.052549 -0.001879 469439.000000 0 0 1
-30.733637 -21.765949 26.971987 46.322793 0.616217 0.949288 0.060766 -0.002845 1214890.000000 0 0 1
-31.060827 -22.324149 25.760887 46.116873 0.623182 0.978099 0.045438 0.006738 -561192.000000 0 0 1
-32.621787 -22.367849 25.669687 47.153309 0.601045 0.995137 0.060297 -0.009628 873988.000000 0 0 1
-33.259357 -22.816149 24.457687 47.169270 0.601273 1.025690 0.044032 -0.010693 344363.000000 0 0 1
-32.906847 -24.153549 24.139587 47.423351 0.633181 1.036747 0.033173 -0.007895 -499872.000000 0 0 1
-33.575637 -24.722449 22.871587 47.556623 0.634689 1.069077 0.031372 -0.004640 1971940.000000 0 0 1
-35.031689 -24.913649 22.904287 48.708475 0.618186 1.081243 0.053934 -0.018903 1842880.000000 0 0 1
-35.479844 -25.426549 21.653887 48.725964 0.621812 1.110290 0.054666 -0.016424 -539651.000000 0 0 1
-36.717177 -26.296749 21.720487 50.114366 0.621514 1.122514 0.080951 -0.020158 -877253.000000 0 0 1
-36.777787 -27.485149 22.569587 51.160779 0.641790 1.113916 0.073563 -0.016730 -115717.000000 0 0 1
-35.839453 -28.514549 22.288487 50.934493 0.672064 1.117878 0.042494 -0.010014 -335137.000000 0 0 1
-36.157777 -29.613549 21.306887 51.364683 0.686225 1.143056 0.054913 -0.009580 -418514.000000 0 0 1
-36.082487 -29.118349 20.019987 50.503703 0.678991 1.163197 0.056061 -0.010936 288812.000000 0 0 1
-36.332557 -30.132749 19.083887 50.913967 0.692388 1.186587 0.052378 -0.002098 -361093.000000 0 0 1
-36.807437 -29.668749 17.701187 50.481226 0.678421 1.212532 0.060885 -0.001682 -84157.000000 0 0 1
-35.821431 -29.066449 16.817487 49.100522 0.681669 1.221208 0.083633 -0.007287 443249.000000 0 0 1
-36.226477 -28.486249 15.615387 48.658652 0.666355 1.244099 0.086724 -0.020979 -329348.000000 0 0 1
-36.897117 -29.423649 14.597687 49.398794 0.673185 1.270810 0.080747 -0.012533 163521.000000 0 0 1
-35.940466 -30.303149 14.036387 49.061371 0.700503 1.280644 0.075860 -0.021156 134187.000000 0 0 1
-36.422887 -31.125949 12.978387 49.637586 0.707142 1.306259 0.076077 -0.027231 61111.000000 0 0 1
-36.672807 -30.405049 11.580587 49.025216 0.692229 1.332326 0.087840 -0.029461 -60656.400000 0 0 1
-37.777867 -29.552949 11.598387 49.346395 0.663844 1.333536 0.079087 -0.034905 -204913.000000 0 0 1
37.816992 -29.098749 10.285787 48.812493 -0.655841 1.358484 0.067643 -0.019136 -607568.000000 0 0 1
36.623032 -28.186049 10.298187 47.347149 -0.655944 1.351540 0.095687 -0.015618 -714450.000000 0 0 1
36.339652 -27.585549 9.014487 46.505847 -0.649302 1.375726 0.117675 -0.057876 387930.000000 0 0 1
35.227792 -26.711449 9.096487 45.135850 -0.648760 1.367871 0.098563 -0.054604 54021.900000 0 0 1
35.340252 -25.678649 7.977287 44.406796 -0.628364 1.390175 0.090968 -0.055360 -16971.000000 0 0 1
36.129862 -24.573749 8.322687 44.480369 -0.597280 1.382578 0.109696 -0.059821 -5008.910000 0 0 1
36.412762 -23.866049 7.172087 44.123875 -0.580184 1.407528 0.088625 -0.043578 31401.200000 0 0 1
37.162512 -22.525049 7.489887 44.096809 -0.544909 1.400118 0.102405 -0.038969 -89226.700000 0 0 1
36.349982 -21.485249 7.972187 42.970838 -0.533825 1.384190 0.100013 -0.045086 -157742.000000 0 0 1
37.014882 -20.217249 8.004687 42.929170 -0.499915 1.383236 0.110768 -0.028512 244361.000000 0 0 1
36.286902 -19.179949 8.896487 41.997109 -0.486237 1.357343 0.091610 -0.019597 281682.000000 0 0 1
36.408342 -19.345549 10.295687 42.494927 -0.488411 1.326081 0.075647 -0.037365 27745.600000 0 0 1
35.716312 -18.324249 11.022387 41.628429 -0.474033 1.302820 0.094151 -0.032898 217880.000000 0 0 1
36.124492 -18.275849 12.552087 42.385616 -0.468367 1.270147 0.080268 -0.043582 -1159200.000000 0 0 1
37.388572 -17.810149 12.744487 43.330459 -0.444551 1.272258 0.036324 -0.031793 -1256290.000000 0 0 1
37.790272 -18.029049 14.064087 44.169558 -0.445145 1.246743 0.044425 -0.022311 1241240.000000 0 0 1
-37.006017 -17.007849 14.534387 43.243042 0.430806 1.228014 0.070523 -0.022425 850153.000000 0 0 1
-35.806935 -17.333149 13.910387 42.143488 0.450825 1.234416 0.068428 -0.018717 -799786.000000 0 0 1
-34.731137 -16.801749 14.616487 41.257634 0.450576 1.208659 0.090246 -0.019257 -58329.300000 0 0 1
-33.349267 -16.851449 13.903687 39.868001 0.467880 1.214567 0.103609 -0.016508 210769.000000 0 0 1
-32.906097 -18.153049 13.574187 39.957515 0.504118 1.224182 0.094833 -0.024695 328604.000000 0 0 1
-31.833287 -18.077349 12.646087 38.730766 0.516464 1.238185 0.106467 -0.028874 385980.000000 0 0 1
-31.126677 -19.437949 12.230587 38.681923 0.558224 1.249092 0.088967 -0.025135 236855.000000 0 0 1
-31.863447 -20.232449 11.383587 39.423563 0.565739 1.277874 0.090218 -0.024576 -489477.000000 0 0 1
-30.976817 -21.128349 10.735187 39.002751 0.598591 1.291955 0.086932 -0.029317 89094.900000 0 0 1
-31.650197 -22.178549 9.771987 39.863702 0.611222 1.323137 0.078151 -0.024378 460375.000000 0 0 1
-32.377387 -23.211149 10.423587 41.178925 0.621974 1.314883 0.081163 -0.018949 -873835.000000 0 0 1
-33.710257 -22.954549 10.684187 42.159751 0.597817 1.314581 0.098389 -0.030246 -1145630.000000 0 0 1
-34.560680 -24.216949 10.829487 43.568097 0.611201 1.319598 0.131172 -0.036406 -217317.000000 0 0 1
-34.711313 -24.909149 9.629587 43.795775 0.622447 1.349110 0.108479 -0.028864 129973.000000 0 0 1
-35.572058 -26.038549 9.796887 45.159234 0.631878 1.352117 0.116889 -0.021283 205239.000000 0 0 1
-35.847426 -26.701949 8.404787 45.482662 0.640215 1.384937 0.110264 -0.026659 18591.100000 0 0 1
-34.749176 -27.384849 7.838087 44.931847 0.667425 1.395455 0.093957 -0.027567 -201896.000000 0 0 1
-34.989949 -27.798749 6.470687 45.154588 0.671365 1.427001 0.088474 -0.021055 75014.200000 0 0 1
-33.725497 -28.126449 5.638087 44.275211 0.695121 1.443108 0.069627 -0.015754 295534.000000 0 0 1
-32.924567 -27.012649 5.263487 42.911708 0.687081 1.447828 0.085727 0.000393 483177.000000 0 0 1
-31.803237 -27.449449 4.475787 42.248679 0.712052 1.464658 0.099752 -0.018425 636072.000000 0 0 1
-30.997377 -26.305949 3.780087 40.830496 0.703710 1.478084 0.074072 -0.014660 511135.000000 0 0 1
-31.574217 -25.687149 2.571187 40.784456 0.682948 1.507711 0.088729 -0.015725 -20191.100000 0 0 1
-30.723217 -24.685249 2.068887 39.465908 0.676855 1.518350 0.109661 -0.033895 -258927.000000 0 0 1
-31.222707 -23.968249 0.818287 39.370090 0.654705 1.550010 0.130379 -0.039413 -149708.000000 0 0 1
-30.832227 -24.677049 -0.362613 39.493221 0.674964 1.579978 0.134873 -0.045307 -25500.600000 0 0 1
-30.770197 -23.913449 -1.535413 39.000200 0.660660 1.610176 0.150121 -0.043656 320982.000000 0 0 1
-32.166267 -23.755249 -2.213213 40.048457 0.636110 1.626088 0.158852 -0.040504 205111.000000 0 0 1
-33.025177 -22.892049 -1.542613 40.213032 0.606127 1.609167 0.145746 -0.037502 -345034.000000 0 0 1
-34.305030 -22.979449 -2.155813 41.346556 0.590208 1.622960 0.138722 -0.030081 -173786.000000 0 0 1
-35.140640 -21.737549 -1.932813 41.365703 0.553975 1.617538 0.131661 -0.023253 -547735.000000 0 0 1
-35.353620 -21.475249 -0.506113 41.368115 0.545873 1.583031 0.125788 -0.033875 198170.000000 0 0 1
-36.067357 -20.266549 -0.396013 41.373229 0.511940 1.580368 0.116081 -0.021170 -355249.000000 0 0 1
-36.241887 -19.838249 1.086987 41.330522 0.500833 1.544493 0.127541 -0.030607 -395385.000000 0 0 1
-37.060767 -20.701049 1.807887 42.488850 0.509399 1.528234 0.093588 -0.029946 91109.700000 0 0 1
-37.296417 -20.309349 3.173587 42.585961 0.498641 1.496205 0.092271 -0.026791 -741909.000000 0 0 1
37.767862 -21.303049 3.967887 43.542800 -0.513568 1.479544 0.106921 -0.011254 1460910.000000 0 0 1
36.371042 -21.232449 3.634287 42.271476 -0.528403 1.484715 0.089211 -0.011907 679830.000000 0 0 1
35.677002 -20.054549 3.924587 41.114910 -0.512096 1.475197 0.093210 -0.016757 -1348540.000000 0 0 1
34.561242 -19.771449 2.956487 39.926563 -0.519630 1.496680 0.083692 -0.002782 -107.904000 0 0 1
33.417352 -20.604849 3.074387 39.379323 -0.552530 1.492646 0.078016 -0.009553 411423.000000 0 0 1
32.217242 -20.062749 2.530387 38.037711 -0.556968 1.504224 0.102767 -0.013871 973114.000000 0 0 1
30.993672 -21.025949 2.672987 37.547878 -0.596078 1.499547 0.090359 -0.005492 212610.000000 0 0 1
30.934972 -22.219449 1.907387 38.135476 -0.622878 1.520759 0.065091 -0.010420 954399.000000 0 0 1
29.677872 -22.851949 2.282787 37.525975 -0.656178 1.509927 0.063775 -0.009400 1036740.000000 0 0 1
29.298672 -24.006149 1.349287 37.901556 -0.686435 1.535189 0.057659 -0.007612 -28890.700000 0 0 1
28.891872 -23.607949 0.033987 37.310544 -0.685089 1.569885 0.067783 -0.015878 -36334.200000 0 0 1
28.321572 -24.702349 -0.648013 37.586399 -0.717247 1.588038 0.041106 -0.014706 -336358.000000 0 0 1
27.294072 -24.288149 -1.718413 36.576406 -0.727190 1.617795 0.052240 -0.021317 -94758.200000 0 0 1
27.770772 -23.435749 -2.788213 36.444811 -0.700942 1.647376 0.052221 -0.033066 -30154.600000 0 0 1
28.353772 -24.145549 -3.916113 37.447028 -0.705412 1.675565 0.048947 -0.034165 -197101.000000 0 0 1
27.465272 -24.632149 -5.155713 37.251380 -0.731070 1.709645 0.049049 -0.028981 190234.000000 0 0 1
26.895172 -23.593549 -5.937813 36.266561 -0.720098 1.735264 0.054216 -0.047079 308518.000000 0 0 1
25.679972 -23.147749 -5.374413 34.988049 -0.733584 1.725014 0.084111 -0.051294 -692895.000000 0 0 1
24.822972 -22.255749 -6.278213 33.925127 -0.730922 1.756930 0.097927 -0.056802 -196847.000000 0 0 1
24.314972 -22.909249 -7.438013 34.225365 -0.755640 1.789869 0.103256 -0.060468 491341.000000 0 0 1
23.334872 -22.172549 -8.165213 33.208567 -0.759862 1.819220 0.109057 -0.063941 -30383.300000 0 0 1
23.779772 -20.960749 -8.988313 32.948753 -0.722473 1.847095 0.123484 -0.057965 -388419.000000 0 0 1
24.342072 -21.331949 -10.265313 33.955341 -0.719589 1.877920 0.121816 -0.062666 103985.000000 0 0 1
24.355872 -20.143349 -11.051013 33.482651 -0.691014 1.907155 0.121153 -0.061076 -43393.600000 0 0 1
25.204272 -20.226149 -12.344313 34.593851 -0.676257 1.935674 0.105441 -0.054116 49185.300000 0 0 1
26.593672 -20.080649 -12.148613 35.468925 -0.646752 1.920388 0.134030 -0.061308 -311555.000000 0 0 1
27.160772 -19.532149 -13.295113 35.999617 -0.623450 1.949066 0.130251 -0.056123 -1152840.000000 0 0 1
28.669972 -19.559049 -13.249413 37.149302 -0.598689 1.935479 0.111121 -0.049129 -1120700.000000 0 0 1
29.113772 -20.864649 -13.439213 38.256473 -0.621819 1.929748 0.089127 -0.047764 51623.300000 0 0 1
29.561672 -21.664349 -12.287113 38.655008 -0.632436 1.894274 0.123556 -0.057377 -106815.000000 0 0 1
29.941472 -23.090849 -12.635713 39.866531 -0.656931 1.893309 0.103083 -0.049463 -113688.000000 0 0 1
31.048942 -23.163849 -13.525413 41.030933 -0.640964 1.906718 0.081179 -0.048903 451646.000000 0 0 1
31.490752 -24.454249 -13.870313 42.214492 -0.660280 1.905583 0.075673 -0.038364 -11291.500000 0 0 1
-3.300567 -9.259578 -27.502813 29.206818 1.228388 2.798317 0.053428 -0.019791 72956.800000 0 0 1
-3.339767 -7.929778 -27.044563 28.380342 1.172176 2.833564 0.053624 -0.017190 -297960.000000 0 0 1
-4.351667 -7.102178 -27.557863 28.789125 1.021074 2.848074 0.059576 -0.020450 -140010.000000 0 0 1
-4.383467 -5.673578 -26.887023 27.826539 0.912981 2.880997 0.048243 -0.024460 -330167.000000 0 0 1
-4.921267 -5.774778 -25.568003 26.670015 0.865026 2.853121 0.032266 -0.023022 243917.000000 0 0 1
-4.911067 -4.513478 -24.954313 25.830365 0.743237 2.880407 0.040494 -0.018711 -74936.000000 0 0 1
-5.528167 -4.583678 -23.553313 24.623754 0.692264 2.845652 0.032273 -0.016101 426357.000000 0 1 0
-4.688067 -5.338578 -22.615813 23.705556 0.850186 2.837203 0.021828 -0.022626 837965.000000 0 1 0
-5.151767 -5.267078 -21.312413 22.549983 0.796465 2.808754 0.015403 -0.020524 -332943.000000 0 1 0
-4.587867 -6.376478 -20.443413 21.900710 0.947104 2.774734 0.023534 -0.022854 -848163.000000 0 1 0
-5.103067 -7.627178 -20.754113 22.692473 0.981136 2.725268 0.022028 -0.015731 233016.000000 0 1 0
-4.472567 -8.626478 -19.954013 22.194202 1.092482 2.688424 0.028641 -0.024731 -1371700.000000 0 1 0
-5.179667 -10.007378 -19.993813 22.950580 1.093180 2.628373 0.049461 -0.020466 962323.000000 0 1 0
-6.452467 -10.137978 -19.318413 22.751132 1.003995 2.585111 0.060053 -0.015176 660781.000000 0 1 0
-7.451867 -9.352978 -19.923413 23.236843 0.898048 2.601005 0.059591 -0.010753 -1858180.000000 0 1 0
-8.743167 -9.461978 -19.109113 23.046262 0.824862 2.548405 0.072605 0.002604 -868022.000000 0 1 0
-9.407167 -10.697178 -19.189013 23.898590 0.849476 2.502999 0.104226 -0.000798 -114860.000000 0 1 0
-10.097667 -10.885478 -17.985013 23.322032 0.822925 2.451457 0.094151 0.001467 -6636.160000 0 1 0
-11.060267 -12.168778 -18.003113 24.382796 0.833083 2.401421 0.100933 0.008255 505359.000000 0 1 0
-12.347167 -11.964078 -18.519213 25.269605 0.769642 2.393320 0.118441 -0.011330 -215039.000000 0 0 1
-12.326267 -12.150878 -19.902213 26.375723 0.778233 2.425788 0.123123 -0.024469 -1307650.000000 0 0 1
-13.648067 -11.839878 -20.586713 27.390969 0.714574 2.421262 0.123759 -0.027109 626275.000000 0 0 1
-14.793167 -12.719778 -20.472713 28.280073 0.710180 2.380274 0.115385 -0.023783 857696.000000 0 0 1
-15.282767 -12.902178 -19.175513 27.707931 0.701135 2.335133 0.115031 -0.017194 -1305130.000000 0 0 1
-16.529867 -13.781678 -19.143413 28.803496 0.694981 2.297783 0.118334 -0.011329 -353075.000000 0 0 1
-16.232567 -15.144978 -19.280513 29.404162 0.750751 2.285915 0.120032 -0.018279 102114.000000 0 0 1
-16.557967 -15.670178 -20.559613 30.698834 0.757858 2.304628 0.138075 -0.020184 -33601.900000 0 0 1
-16.027267 -17.076878 -20.718113 31.268726 0.817094 2.295058 0.091492 -0.010171 34295.100000 0 0 1
-16.697367 -18.087778 -19.933713 31.675269 0.825348 2.251467 0.116556 -0.008116 506185.000000 0 0 1
-16.423167 -19.346778 -20.516413 32.633440 0.866951 2.250668 0.097826 -0.011153 -307865.000000 0 0 1
-16.905867 -20.550478 -19.737213 33.131376 0.882396 2.208965 0.109151 -0.022023 -190571.000000 0 0 1
-16.481067 -21.800078 -20.242413 34.009179 0.923460 2.208316 0.091416 -0.016905 94164.700000 0 0 1
-17.206567 -22.847478 -19.654813 34.704248 0.925310 2.172869 0.100939 -0.016259 40361.400000 0 0 1
-16.662367 -24.219278 -20.054213 35.586224 0.968183 2.169460 0.104628 -0.024502 -122055.000000 0 0 1
-17.174267 -24.587078 -21.322713 36.798613 0.961073 2.188842 0.058973 -0.013278 422276.000000 0 0 1
-16.584367 -25.841088 -21.679513 37.587289 1.000219 2.185575 0.063437 -0.011323 -143154.000000 0 0 1
-16.591267 -26.124828 -23.184613 38.669148 1.004984 2.213752 0.065226 -0.014018 853346.000000 0 0 1
-17.845267 -26.484748 -23.837213 39.851075 0.977876 2.211996 0.086840 -0.008707 872240.000000 0 0 1
-18.195267 -27.853368 -23.572313 40.774156 0.992138 2.187218 0.088834 -0.013189 -71721.200000 0 0 1
-19.473867 -28.385678 -24.280113 42.124839 0.969497 2.185094 0.097046 -0.016843 158528.000000 0 0 1
-19.355067 -28.689928 -25.655143 43.080354 0.977301 2.208707 0.105470 -0.014319 -230112.000000 0 0 1
-19.344467 -27.544108 -26.496883 42.836562 0.958523 2.237702 0.111091 -0.016452 153414.000000 0 0 1
-18.114567 -27.236738 -27.408123 42.675316 0.983894 2.268223 0.102053 -0.019226 253132.000000 0 0 1
-17.949067 -27.991058 -28.590093 43.852728 1.000602 2.280959 0.122107 -0.027317 -517873.000000 0 0 1
-16.810567 -27.643098 -29.318953 43.661619 1.024421 2.307033 0.080858 -0.017287 -416374.000000 0 0 1
-16.841567 -27.601398 -30.877613 44.709088 1.022932 2.333162 0.106976 -0.025309 -109436.000000 0 0 1
-16.909367 -28.911858 -31.398973 45.909887 1.041584 2.323927 0.095947 -0.025494 232438.000000 0 0 1
-17.546967 -28.976018 -32.663043 47.057200 1.026292 2.337984 0.096705 -0.024238 21307.800000 0 0 1
-17.462067 -30.424088 -33.209813 48.305699 1.049748 2.328827 0.098904 -0.025156 -725469.000000 0 0 1
-16.220367 -30.786148 33.681004 48.428269 1.085883 0.801705 0.111226 -0.022709 -889783.000000 0 0 1
-16.215567 -31.982918 32.938985 48.691153 1.101559 0.827813 0.100483 -0.023149 473622.000000 0 0 1
-14.809467 -32.377348 32.387228 48.130505 1.141804 0.832668 0.080466 -0.021988 428490.000000 0 0 1
-13.882767 -32.916838 33.273494 48.819820 1.171679 0.820908 0.099980 -0.022107 -405773.000000 0 0 1
-12.861367 -33.600588 32.605457 48.554403 1.205229 0.834532 0.101868 -0.023795 357136.000000 0 0 1
-11.939167 33.040889 33.518234 48.556319 -1.224050 0.808898 0.111075 -0.026766 606952.000000 0 0 1
-11.010767 33.768493 -33.083913 48.539607 -1.255600 2.320724 0.120781 -0.028843 -61068.200000 0 0 1
-10.145667 32.911582 -32.362743 47.259432 -1.271769 2.325111 0.111378 -0.032901 367898.000000 0 0 1
-9.324767 33.737813 -31.297263 46.954339 -1.301139 2.300363 0.112959 -0.038195 -148694.000000 0 0 1
-10.178967 -33.254528 -30.386843 46.182629 1.273759 2.288918 0.135222 -0.040816 -442767.000000 0 0 1
-9.601167 -32.093538 -29.827813 44.853941 1.280109 2.298288 0.142650 -0.044944 -333406.000000 0 0 1
-10.535867 -31.286438 -28.899583 43.875182 1.245969 2.289856 0.145074 -0.043691 126004.000000 0 0 1
-10.824367 -31.593778 -27.527403 43.279229 1.240719 2.260154 0.171267 -0.047550 21017.100000 0 0 1
-11.274267 -32.948708 -27.341983 44.275394 1.241108 2.236412 0.148635 -0.043524 -287810.000000 0 0 1
-11.728167 -33.182978 -25.911133 43.704081 1.231061 2.205423 0.140784 -0.042328 277079.000000 0 0 1
-10.746367 -32.823618 -24.935513 42.598757 1.254398 2.196118 0.165738 -0.065517 98194.700000 0 0 1
-11.085167 -33.300998 -23.647713 42.320819 1.249456 2.163701 0.153300 -0.063804 271750.000000 0 0 1
-9.957367 -32.979378 -22.605513 41.204341 1.277573 2.151509 0.194520 -0.080404 285628.000000 0 0 1
-8.909167 33.649113 -22.851513 41.639257 -1.311969 2.151721 0.168542 -0.064724 -863501.000000 0 0 1
-7.821167 -33.490658 -22.098113 40.879352 1.341375 2.141910 0.183964 -0.075280 -1502360.000000 0 0 1
-7.109967 32.899173 -21.408513 39.890245 -1.357956 2.137300 0.174294 -0.054173 -874560.000000 0 0 1
-6.568767 32.070935 -22.431313 39.684473 -1.368771 2.171522 0.149667 -0.069442 382447.000000 0 0 1
-5.592667 31.132663 -21.958513 38.505804 -1.393052 2.177625 0.129057 -0.051221 802447.000000 0 0 1
-4.162667 31.759522 -21.761713 38.724246 -1.440471 2.167557 0.121190 -0.055472 136321.000000 0 0 1
-3.453267 32.104352 -22.951313 39.615366 -1.463644 2.188732 0.133753 -0.052233 159489.000000 0 0 1
-2.741467 31.013613 -23.518013 39.018672 -1.482630 2.217724 0.131782 -0.067191 -328338.000000 0 0 1
-2.379867 31.145173 -25.000313 40.008764 -1.494532 2.245762 0.124538 -0.021864 323307.000000 0 0 1
-1.373567 32.123170 -25.306213 40.916857 -1.528063 2.237602 0.115390 -0.051266 475076.000000 0 0 1
-1.777667 33.472365 -25.128653 41.892822 -1.517738 2.214087 0.120536 -0.042363 -385937.000000 0 0 1
-1.002367 -33.075878 -25.994473 42.080055 1.540501 2.236660 0.035991 -0.015337 -197837.000000 0 0 1
0.279933 -32.861488 -25.458253 41.570162 -1.562278 2.229910 0.077134 -0.029724 -355307.000000 0 0 1
0.935833 -31.883518 -26.250573 41.310133 -1.541453 2.259389 0.048879 -0.017762 -453149.000000 0 0 1
2.240633 -31.405558 -25.613973 40.588238 -1.499572 2.253727 0.063721 -0.016855 -785965.000000 0 0 1
2.072633 -30.606138 -24.468313 39.239391 -1.503180 2.244091 0.064991 -0.013800 -246118.000000 0 0 1
3.261133 -29.913368 -24.211213 38.621592 -1.462206 2.248342 0.041751 -0.013933 -457890.000000 0 0 1
3.294733 -29.197858 -22.864413 37.231056 -1.458430 2.232069 0.049881 -0.008172 -170532.000000 0 0 1
3.528933 -30.075908 -21.784613 37.303927 -1.453996 2.194415 0.055832 -0.014671 472879.000000 0 0 1
3.851633 -29.356138 -20.598713 36.068336 -1.440338 2.178644 0.059310 -0.010779 -392480.000000 0 0 1
4.077933 -30.219258 -19.352813 36.115986 -1.436662 2.136313 0.059791 -0.007588 218002.000000 0 0 1
2.907633 -30.766868 -18.714113 36.128555 -1.476571 2.115292 0.075832 -0.023681 562067.000000 0 0 1
2.461533 -31.979998 -19.147813 37.355296 -1.493977 2.108991 0.085523 -0.024922 -659847.000000 0 0 1
3.053533 -33.198838 -18.467213 38.112004 -1.479077 2.076646 0.065314 -0.025085 105430.000000 0 0 1
4.403133 -33.504488 -18.781413 38.661088 -1.440126 2.078070 0.050057 -0.016096 143345.000000 0 0 1
4.784433 32.867086 -18.151313 37.849786 1.426243 2.070952 0.058930 -0.034681 15308.800000 0 0 1
5.983933 32.142496 -18.796713 37.712915 1.386735 2.092567 0.073169 -0.026954 -2684.060000 0 0 1
7.186633 32.855919 -18.592713 38.429781 1.355456 2.075799 0.097834 -0.030218 356182.000000 0 0 1
8.208033 32.173606 -19.366113 38.439031 1.321008 2.098804 0.092609 -0.040128 -414657.000000 0 0 1
9.564833 32.730109 -19.639013 39.350183 1.286480 2.093337 0.095419 -0.047233 -785620.000000 0 0 1
10.369433 32.788068 -18.494613 39.046552 1.264493 2.064233 0.083613 -0.038611 -613405.000000 0 0 1
11.656833 33.277954 -18.655213 39.891364 1.233866 2.057427 0.084582 -0.026784 24985.400000 0 0 1
12.617933 33.273646 -17.407013 39.615046 1.208334 2.025731 0.049729 -0.027736 134047.000000 0 0 1
13.171533 32.076077 -17.012613 38.623736 1.181156 2.026919 0.059770 -0.034389 -243315.000000 0 0 1
13.922533 32.323031 -15.853413 38.599818 1.164081 1.994031 0.052931 -0.040899 -654290.000000 0 0 1
15.125633 31.429713 -15.649513 38.229817 1.122259 1.992542 0.056563 -0.039220 -338517.000000 0 0 1
14.888733 30.212453 -14.977313 36.861723 1.112924 1.989209 0.079242 -0.037505 491926.000000 0 0 1
16.133733 29.485493 -15.003113 36.807405 1.070124 1.990633 0.078319 -0.030200 827195.000000 0 0 1
16.203733 28.184023 -14.113113 35.441220 1.049018 1.980363 0.095705 -0.025589 -263734.000000 0 0 1
16.116033 28.472293 -12.682713 35.089161 1.055733 1.940611 0.087352 -0.030578 -209949.000000 0 0 1
14.808433 28.618113 -12.159213 34.440275 1.093287 1.931628 0.089098 -0.031843 30244.000000 0 0 1
14.196533 27.263593 -11.812713 32.930005 1.090715 1.937695 0.093774 -0.030644 -619742.000000 0 0 1
13.457533 26.622943 -12.922213 32.509535 1.102769 1.979576 0.098172 -0.034796 1023020.000000 0 0 1
12.753233 25.396283 -12.490213 31.042255 1.105415 1.984891 0.128458 -0.033991 443726.000000 0 0 1
11.926633 25.349243 -11.225613 30.180177 1.131032 1.951909 0.123492 -0.031967 -688799.000000 0 0 1
10.673733 26.008023 -11.376413 30.327687 1.181355 1.955319 0.114874 -0.030191 132827.000000 0 0 1
10.106233 26.196753 -10.107713 29.842448 1.202607 1.916334 0.093589 -0.017166 -332784.000000 0 0 1
8.910533 27.126623 -10.140313 30.299789 1.253421 1.912047 0.091299 -0.016727 -398686.000000 0 0 1
9.387633 28.411113 -10.486813 31.706344 1.251669 1.907892 0.083893 -0.024224 -121704.000000 0 0 1
8.414233 29.426053 -10.450813 32.340554 1.292283 1.899851 0.075685 -0.025459 60715.200000 0 0 1
8.997433 30.816743 -10.870213 33.893760 1.286727 1.897280 0.088036 -0.027375 -39757.500000 0 0 1
9.902133 31.373723 -9.947913 34.370390 1.265073 1.864430 0.067844 -0.023868 -314360.000000 0 0 1
10.337933 32.707619 -10.282813 35.810577 1.264661 1.862041 0.079888 -0.027636 214298.000000 0 0 1
11.487533 32.865661 -11.309513 36.606286 1.234540 1.884885 0.069626 -0.023438 -485799.000000 0 0 1
12.750333 32.554255 -10.814613 36.596534 1.197497 1.870785 0.055121 -0.022176 -1054170.000000 0 0 1
13.742333 32.755244 -11.773513 37.421563 1.173554 1.890851 0.062684 -0.024625 -326175.000000 0 0 1
15.142833 32.539682 -11.178713 37.591221 1.135238 1.872739 0.069266 -0.030777 -233670.000000 0 0 1
15.467533 33.515104 -10.250613 38.309031 1.138413 1.841674 0.064852 -0.024577 473402.000000 0 0 1
16.898233 33.485123 -10.194113 38.868029 1.103436 1.836175 0.066520 -0.029059 659422.000000 0 0 1
17.597333 -33.199488 -9.158013 38.674815 -1.083400 1.809862 0.076395 -0.027649 -69567.800000 0 0 1
17.543133 -33.773498 -7.853213 38.859794 -1.091722 1.774289 0.065308 -0.033668 107859.000000 0 0 1
17.972733 -32.791058 -6.908113 38.026236 -1.069414 1.753478 0.059248 -0.025071 -1193260.000000 0 0 1
18.400233 -33.546848 -5.624313 38.672891 -1.069110 1.716747 0.056772 -0.014759 642098.000000 0 0 1
19.468633 33.074866 -5.827713 38.819282 1.038784 1.721490 0.041224 -0.019398 537597.000000 0 0 1
20.734933 33.643853 -6.140413 39.994387 1.018473 1.724938 0.055447 -0.016483 -538228.000000 0 0 1
21.592533 32.670936 -7.041713 39.789612 0.986790 1.748707 0.051154 -0.013675 385287.000000 0 0 1
21.884133 31.362113 -6.515613 38.793693 0.961556 1.739552 0.056062 -0.004459 123286.000000 0 0 1
22.664033 31.362503 -5.323813 39.059032 0.945032 1.707524 0.046903 -0.004817 -447697.000000 0 0 1
23.145733 29.988973 -4.751413 38.179044 0.913483 1.695571 0.051939 -0.008059 107748.000000 0 0 1
24.056533 29.281833 -5.603813 38.308553 0.883052 1.717604 0.046703 -0.006780 372206.000000 0 0 1
24.592433 28.132483 -4.975013 37.695824 0.852439 1.703160 0.069971 -0.010694 86112.100000 0 0 1
25.625333 27.375273 -5.844313 37.950221 0.818404 1.725411 0.052985 -0.004034 -1380040.000000 0 0 1
26.842233 27.997333 -6.014913 39.249654 0.806458 1.724650 0.048646 0.002215 -962212.000000 0 0 1
27.801133 27.130903 -6.575913 39.398370 0.773198 1.738489 0.032292 -0.000483 25988.600000 0 0 1
28.546633 26.240663 -5.551013 39.170096 0.743334 1.712991 0.034127 0.008929 -781680.000000 0 0 1
29.591233 26.922243 -4.880613 40.302216 0.738206 1.692195 0.045272 0.010351 -139924.000000 0 0 1
30.065033 26.113263 -3.899613 40.012694 0.715170 1.668411 0.043968 0.008662 -567447.000000 0 0 1
31.433433 26.377333 -3.276813 41.165057 0.698161 1.650482 0.030711 0.008996 -250898.000000 0 0 1
31.402033 27.587853 -2.511913 41.874659 0.720830 1.630819 0.050122 0.005365 460025.000000 0 0 1
32.707533 27.887903 -2.028013 43.030579 0.706027 1.617943 0.054507 -0.001639 180438.000000 0 0 1
32.803033 28.956763 -0.915713 43.764959 0.723201 1.591721 0.056043 0.007679 -127127.000000 0 0 1
32.666533 30.334383 -1.157713 44.593918 0.748397 1.596760 0.048254 0.015377 237726.000000 0 0 1
31.385933 30.792793 -1.571013 43.997057 0.775859 1.606511 0.070681 -0.003152 -38407.800000 0 0 1
35.332512 22.771522 18.599654 45.966028 0.572493 1.154212 0.158629 -0.036312 182350.000000 0 0 1
35.187032 22.446322 19.979754 46.272618 0.567832 1.124327 0.140549 -0.035973 150922.000000 0 0 1
36.055702 23.236022 20.783754 47.664355 0.572462 1.119598 0.149576 -0.035546 -21377.000000 0 0 1
35.917882 23.114722 22.296034 48.181923 0.571823 1.089705 0.119253 -0.026156 -1047990.000000 0 0 1
34.714142 23.620522 22.709794 47.736102 0.597470 1.074995 0.088083 -0.018742 -830437.000000 0 0 1
34.559242 23.696222 24.109744 48.343892 0.601043 1.048683 0.085563 -0.018576 215693.000000 0 0 1
33.163232 24.245622 24.512994 47.838656 0.631295 1.032808 0.059752 -0.015397 375643.000000 0 0 1
33.173332 25.601822 24.442094 48.511227 0.657282 1.042753 0.034906 -0.012818 1032520.000000 0 0 1
31.903942 26.209222 24.792204 48.160546 0.687716 1.030042 0.033421 -0.015991 963266.000000 0 0 1
31.983012 27.744322 25.091414 49.216252 0.714550 1.035821 0.008013 -0.003771 -209863.000000 0 0 1
31.985182 28.479622 23.911164 49.049816 0.727486 1.061587 0.019415 -0.011619 165265.000000 0 0 1
31.539682 29.802822 24.041464 49.607980 0.757092 1.064857 0.026114 -0.004370 -228285.000000 0 0 1
31.926542 30.653322 22.816864 49.794975 0.765055 1.094809 0.042584 -0.012569 275068.000000 0 0 1
33.309172 30.974122 22.705224 50.837234 0.749090 1.107806 0.007400 -0.008160 109899.000000 0 0 1
33.619242 31.737522 21.585354 51.024026 0.756615 1.133995 0.027234 -0.012397 201498.000000 0 0 1
35.128922 32.024222 21.397854 52.129263 0.739198 1.147819 -0.004506 -0.022654 184219.000000 0 0 1
35.493402 32.926822 22.408924 53.349012 0.747904 1.137303 0.020338 -0.005410 -158532.000000 0 0 1
36.865772 33.244722 22.270224 54.408267 0.733796 1.149091 0.017586 0.000199 190511.000000 0 0 1
37.220142 -32.983249 23.002404 54.793652 -0.725120 1.137571 0.034677 0.003120 -197334.000000 0 0 1
36.632892 -31.807549 22.447234 53.456218 -0.715010 1.137441 0.030897 0.009773 151170.000000 0 0 1
36.866462 -30.741949 23.302104 53.359081 -0.695057 1.118865 0.053792 0.003872 -360350.000000 0 0 1
36.025742 -29.451949 22.963504 51.890210 -0.685336 1.112367 0.049077 -0.003440 1774000.000000 0 0 1
34.593712 -29.378049 23.221024 50.980493 -0.704047 1.097876 0.041877 0.005042 1847110.000000 0 0 1
33.803502 -30.034149 22.214354 50.380595 -0.726421 1.114161 0.048815 0.007154 20417.800000 0 0 1
33.202782 -31.431049 22.613934 51.007113 -0.757993 1.111465 0.047490 0.009300 -536105.000000 0 0 1
32.117862 -31.504949 23.475434 50.746575 -0.775765 1.089869 0.072698 -0.000555 -240650.000000 0 0 1
31.721292 -32.849649 23.661444 51.431544 -0.802871 1.092737 0.068159 -0.002627 -329205.000000 0 0 1
30.726272 -33.037349 24.796744 51.482509 -0.821627 1.068256 0.057879 -0.005396 -436591.000000 0 0 1
30.458572 33.153422 24.945234 51.469784 0.827737 1.064824 0.057684 -0.014331 42918.700000 0 0 1
29.509272 33.058422 25.981494 51.368224 0.842062 1.040500 0.068815 -0.014583 -920627.000000 0 0 1
28.994972 31.632722 26.251624 50.303929 0.828878 1.021766 0.060757 -0.010836 262358.000000 0 0 1
28.282072 31.013822 25.188494 48.950924 0.831435 1.030295 0.065168 -0.008591 719387.000000 0 0 1
26.990772 31.613022 24.971384 48.491803 0.864108 1.029834 0.070349 -0.015533 -199719.000000 0 0 1
26.369172 31.318722 23.614414 47.263475 0.870987 1.047621 0.117516 -0.026060 47114.800000 0 0 1
26.917172 32.049622 22.518774 47.526914 0.872219 1.077183 0.146528 -0.032308 285265.000000 0 0 1
28.277372 31.974822 22.142954 48.086478 0.846688 1.092258 0.099278 -0.022292 -140723.000000 0 0 1
28.551072 32.884222 20.926254 48.316083 0.855813 1.122854 0.129577 -0.035791 -426674.000000 0 0 1
29.889472 33.108622 20.600454 49.131864 0.836453 1.138134 0.120889 -0.034769 -399672.000000 0 0 1
29.930072 33.704222 19.295654 49.031684 0.844639 1.166323 0.119116 -0.036672 -172881.000000 0 0 1
31.345342 -33.585949 18.788054 49.634035 -0.819892 1.182587 0.124416 -0.036036 -142936.000000 0 0 1
32.200312 32.924422 18.439854 49.607518 0.796517 1.189941 0.121065 -0.041699 58880.400000 0 0 1
33.242392 33.292922 17.571454 50.221820 0.786158 1.213357 0.112734 -0.026985 438473.000000 0 0 1
34.224372 32.152322 17.088654 49.971007 0.754192 1.221782 0.074215 -0.020472 557337.000000 0 0 1
34.963512 31.483022 18.109854 50.414230 0.733066 1.203363 0.029636 -0.015689 -4567.340000 0 0 1
35.786202 30.529222 17.514954 50.194215 0.706291 1.214353 0.050446 -0.016718 -348560.000000 0 0 1
36.704542 29.789522 18.491754 50.760063 0.681776 1.197918 0.056592 -0.024971 180893.000000 0 0 1
37.658962 30.645022 19.116854 52.180158 0.683070 1.195700 0.073264 -0.017783 389462.000000 0 0 1
-37.410407 29.934322 19.947954 51.899162 -0.674839 1.176282 0.099044 -0.019311 731341.000000 0 0 1
-36.275337 30.833122 20.541854 51.851222 -0.704479 1.163456 0.111193 -0.017456 392679.000000 0 0 1
-35.404937 31.383122 19.574454 51.201261 -0.725253 1.178508 0.120357 -0.018313 498907.000000 0 0 1
-34.435534 32.378422 19.985554 51.318521 -0.754619 1.170771 0.112059 -0.006416 651075.000000 0 0 1
-34.967975 33.638222 20.759654 52.775492 -0.766018 1.166515 0.076168 -0.010446 -366527.000000 0 0 1
-35.108094 33.412622 22.160454 53.292282 -0.760659 1.141943 0.083663 -0.011198 243972.000000 0 0 1
-34.847615 -32.901149 22.857604 53.097194 0.756675 1.125765 0.071369 -0.006453 -136255.000000 0 0 1
-34.895303 -33.189549 24.403634 53.988570 0.760350 1.101774 0.074879 -0.020499 43640.900000 0 0 1
-36.217977 -33.316149 24.902564 55.152927 0.743690 1.102330 0.062440 -0.006849 -74098.300000 0 0 1
-36.265527 33.606022 26.128654 55.921907 -0.747354 1.084636 0.068182 -0.012694 31149.800000 0 0 1
-37.694397 33.290622 26.587714 56.886199 -0.723439 1.084467 0.043616 -0.018881 -393268.000000 0 0 1
-37.657797 32.539122 27.812264 57.012509 -0.712608 1.061197 0.062239 -0.026306 1165150.000000 0 0 1
37.016742 32.425922 28.453194 56.844207 0.719385 1.046566 0.077088 -0.025558 1061510.000000 0 0 1
37.058422 31.522922 29.691074 56.996325 0.704858 1.022857 0.081040 -0.022222 -60251.700000 0 0 1
37.108482 30.129722 29.418074 56.127200 0.681977 1.019101 0.057158 -0.021878 770824.000000 0 0 1
-37.667897 29.602422 28.830174 55.913798 -0.666071 1.029067 0.065098 -0.022376 442314.000000 0 0 1
-37.904517 28.177222 28.333194 55.077020 -0.639247 1.030455 0.068499 -0.017347 68670.300000 0 0 1
37.092002 28.088222 27.292224 53.940989 0.648130 1.040297 0.052342 -0.019028 365278.000000 0 0 1
36.991942 26.697822 26.893354 52.956869 0.625155 1.038127 0.061039 -0.023629 369656.000000 0 0 1
36.382432 25.551722 27.848224 52.460417 0.612274 1.011202 0.058396 -0.029650 154174.000000 0 0 1
37.396272 25.111422 28.755304 53.440922 0.591338 1.002643 0.055613 -0.025605 352652.000000 0 0 1
37.232552 23.737122 29.119974 52.893163 0.567564 0.987781 0.062522 -0.018013 -70278.900000 0 0 1
37.742502 22.755422 28.046454 52.238963 0.542558 1.004053 0.072451 -0.023330 -243961.000000 0 0 1
36.996662 22.734322 26.838334 51.048002 0.551011 1.017203 0.082754 -0.022278 336031.000000 0 0 1
37.696832 22.091222 25.737404 50.709833 0.530079 1.038466 0.084844 -0.043475 42478.300000 0 0 1
37.417532 20.561022 25.746074 49.856671 0.502461 1.028153 0.094271 -0.040123 192438.000000 0 0 1
36.027362 20.388122 25.469404 48.603877 0.514973 1.019232 0.122257 -0.018684 775533.000000 0 0 1
35.553752 19.089922 25.894544 47.948116 0.492754 1.000296 0.131225 -0.018012 -92476.700000 0 0 1
35.480682 18.765022 27.438964 48.619971 0.486484 0.971144 0.107224 -0.007312 -29280.500000 0 0 1
34.398312 19.228922 28.246434 48.485630 0.509733 0.948905 0.092897 -0.017172 446213.000000 0 0 1
34.438612 20.637322 28.421824 49.190620 0.539868 0.954779 0.097150 -0.031700 -1081420.000000 0 0 1
33.375452 21.030222 29.472444 49.242420 0.562266 0.929147 0.087497 -0.022383 -191037.000000 0 0 1
32.041312 20.723522 29.146404 48.016902 0.574105 0.918512 0.093291 -0.021607 97878.100000 0 0 1
31.451382 21.458222 28.051564 47.292018 0.598725 0.935823 0.085216 -0.008980 -905273.000000 0 0 1
31.334592 23.011622 28.119364 47.980100 0.633432 0.944605 0.078053 -0.011626 -706782.000000 0 0 1
32.462312 23.788022 27.773314 48.898145 0.632395 0.966743 0.074615 -0.025691 -163015.000000 0 0 1
32.569182 25.001322 28.507994 49.985232 0.654694 0.963891 0.046477 -0.020194 -19272.800000 0 0 1
32.821232 25.030722 30.036414 51.048569 0.651541 0.941731 0.047799 -0.026134 -277138.000000 0 0 1
34.157462 24.731622 30.352524 51.958262 0.626684 0.946938 0.029725 -0.012313 -363976.000000 0 0 1
34.352062 24.692622 31.756447 52.898598 0.623239 0.926887 0.048909 -0.020168 -84136.200000 0 0 1
33.854422 23.522722 32.603511 52.558817 0.607241 0.901640 0.062110 -0.023245 -175665.000000 0 0 1
34.002282 23.729922 -33.395233 53.240078 0.609310 2.248823 0.070123 -0.042855 -31652.000000 0 0 1
33.523432 22.636922 -32.687693 52.007076 0.593926 2.250450 0.069694 -0.040282 -258925.000000 0 0 1
33.957772 22.429122 -31.220003 51.292147 0.583721 2.225180 0.073229 -0.047242 -243507.000000 0 0 1
33.581422 23.450622 -30.343463 50.974202 0.609598 2.208399 0.055460 -0.049041 13094.600000 0 0 1
33.909282 23.087922 -29.027993 50.254511 0.597774 2.186606 0.097689 -0.060096 348256.000000 0 0 1
35.314692 23.524522 -28.505573 51.118473 0.587638 2.162333 0.085863 -0.025481 491853.000000 0 0 1
35.878452 22.819322 -27.420393 50.595086 0.566483 2.143561 0.094419 -0.028273 -48835.500000 0 0 1
36.986962 23.382022 -26.755593 51.289531 0.563738 2.119589 0.096445 -0.018032 45860.000000 0 0 1
37.600992 22.460922 -25.699243 50.781677 0.538468 2.101422 0.086415 -0.015964 69648.700000 0 0 1
-37.519977 21.441222 -26.217053 50.545114 -0.519171 2.116110 0.076666 -0.011374 311675.000000 0 0 1
-37.455927 20.401922 -25.321523 49.602061 -0.498758 2.106555 0.049093 -0.004392 -382633.000000 0 0 1
-36.302237 19.452722 -25.595273 48.491018 -0.491918 2.126846 0.054785 0.002679 183055.000000 0 0 1
-34.968216 19.883722 -25.372643 47.559537 -0.517028 2.133520 0.066138 0.006725 688891.000000 0 0 1
-34.000216 18.851122 -25.535513 46.512814 -0.506247 2.151963 0.044901 -0.003756 225844.000000 0 0 1
-32.648497 18.996522 -24.848013 45.213006 -0.526967 2.152654 0.058902 -0.000426 -312591.000000 0 0 1
-32.817307 19.088022 -23.444913 44.620535 -0.526814 2.124015 0.054830 0.004834 219123.000000 0 0 1
-31.626457 19.386522 -22.728213 43.504502 -0.549912 2.120499 0.080460 0.010570 84943.900000 0 0 1
-31.876437 20.011022 -21.330513 43.261288 -0.560588 2.086403 0.069489 0.007426 -41201.400000 0 0 1
-32.531337 19.092822 -20.520513 42.940834 -0.530736 2.069035 0.042473 0.000195 -131298.000000 0 0 1
-33.018817 19.651222 -19.325113 43.010148 -0.536847 2.036795 0.035106 0.003875 -322361.000000 0 0 1
-33.814077 18.684822 -18.414013 42.797082 -0.504818 2.015581 0.020227 -0.006653 245597.000000 0 0 1
-34.391899 19.148122 -17.173713 42.946358 -0.508020 1.982190 0.032540 -0.008687 -164590.000000 0 0 1
-35.519758 19.933722 -17.394613 44.289717 -0.511402 1.974412 0.021630 -0.007893 -1091440.000000 0 0 1
-36.572167 19.846122 -16.280713 44.681692 -0.497188 1.943754 0.032537 -0.013337 -359359.000000 0 0 1
-36.324167 20.513722 -15.056113 44.350247 -0.514090 1.917163 0.039873 -0.016621 -65061.500000 0 0 1
-37.353737 20.278622 -14.132413 44.791174 -0.497361 1.891799 0.046731 -0.014812 -630427.000000 0 0 1
-37.264647 21.300422 -12.967613 44.838832 -0.519274 1.864193 0.049890 -0.014155 -409328.000000 0 0 1
-37.540287 22.641722 -13.217213 45.788814 -0.542719 1.863619 0.068277 -0.022389 -444193.000000 0 0 1
37.110692 22.878822 -13.534413 45.648924 0.552465 1.871811 0.073098 -0.019185 -651365.000000 0 0 1
36.940982 24.288322 -14.043713 46.387332 0.581623 1.878372 0.079255 -0.021218 -20446.800000 0 0 1
37.425602 25.231122 -13.101913 46.999418 0.593177 1.853307 0.078656 -0.017249 34368.800000 0 0 1
37.343482 26.587522 -13.466813 47.778520 0.618716 1.856528 0.082145 -0.013853 -196386.000000 0 0 1
-37.431447 27.196922 -14.195313 48.397239 -0.628343 1.868482 0.086075 -0.005831 -102767.000000 0 0 1
-37.423087 26.889922 -15.552013 48.635588 -0.623060 1.896279 0.087602 -0.004241 -98513.300000 0 0 1
-36.349457 27.588922 -16.132113 48.401206 -0.649231 1.910598 0.093860 -0.007821 -346875.000000 0 0 1
-36.102827 27.304322 -17.665613 48.590266 -0.647517 1.942886 0.096856 -0.008877 -17782.800000 0 0 1
-35.477991 26.051122 -17.957913 47.537726 -0.633370 1.958174 0.097971 -0.010487 514409.000000 0 0 1
-34.073248 26.126122 -18.100113 46.595864 -0.654144 1.969744 0.097959 0.000976 268089.000000 0 0 1
-33.303827 24.945622 -18.747413 45.638738 -0.642881 1.994104 0.083681 0.009922 105306.000000 0 0 1
-33.507157 24.906222 -20.159413 46.362176 -0.639206 2.020640 0.084998 0.007770 280310.000000 0 0 1
-32.735727 23.892422 -20.783213 45.545775 -0.630485 2.044646 0.073936 0.014089 -18209.300000 0 0 1
-32.814737 23.770922 -22.267613 46.235379 -0.626913 2.073292 0.074516 0.008372 -344256.000000 0 0 1
-33.993515 23.102622 -22.643013 46.925433 -0.596916 2.074339 0.085493 0.006830 40483.400000 0 0 1
-34.218608 23.000622 -24.016313 47.715040 -0.591801 2.098242 0.075439 0.005627 -261868.000000 0 0 1
-34.985333 24.101422 -24.723413 49.153832 -0.603238 2.097840 0.077393 0.004017 -371062.000000 0 0 1
-34.257394 25.342322 -24.816213 49.311730 -0.636917 2.098154 0.076286 0.008431 -87811.300000 0 0 1
-34.912013 26.231622 -25.648543 50.643799 -0.644373 2.101859 0.092178 -0.000728 -98447.900000 0 0 1
-34.160506 27.535922 -26.003823 51.003588 -0.678434 2.105799 0.075913 -0.002669 376876.000000 0 0 1
-32.956907 27.410222 -26.749833 50.527533 -0.693773 2.128702 0.079853 -0.005349 76403.700000 0 0 1
-32.487327 28.746922 -27.059213 51.127419 -0.724390 2.128513 0.078791 -0.012283 217085.000000 0 0 1
-31.093447 28.874622 -27.690223 50.668478 -0.748415 2.148973 0.080512 -0.010331 243621.000000 0 0 1
-30.021997 28.412722 -26.858373 49.294779 -0.757865 2.147009 0.073532 -0.008272 1075170.000000 0 0 1
-28.722587 28.512622 -27.468203 48.912767 -0.781730 2.167085 0.095891 -0.009367 1454570.000000 0 0 1
-27.888687 29.837822 -27.189383 49.064621 -0.819150 2.158143 0.088654 -0.018075 -176047.000000 0 0 1
-27.299287 29.983022 -25.907443 48.118897 -0.832215 2.139339 0.069543 -0.017967 53383.300000 0 0 1
-28.165957 30.457322 -24.854113 48.360072 -0.824465 2.110566 0.066633 -0.013586 136334.000000 0 0 1
-27.490817 30.715622 -23.478613 47.438800 -0.840744 2.088544 0.040666 -0.016287 344410.000000 0 0 1
-26.570697 31.824222 -23.407413 47.609768 -0.875122 2.084782 0.030005 -0.015820 530873.000000 0 0 1
-26.207687 32.206022 -22.090413 47.032511 -0.887727 2.059729 0.053066 0.004808 -53482.700000 0 0 1
-25.539327 33.598922 -22.143313 47.659953 -0.920848 2.053991 0.048512 0.019784 540472.000000 0 0 1
-26.460527 -32.832549 -22.243913 47.675229 0.892454 2.056207 0.032694 -0.000300 734597.000000 0 0 1
-26.007287 -31.855449 -23.172513 47.202902 0.886126 2.083934 0.054040 -0.010638 -184149.000000 0 0 1
17.417433 8.092022 -24.452313 31.092819 0.434923 2.475804 0.041692 -0.003092 329203.000000 0 0 1
16.038633 7.840022 -24.696913 30.473614 0.454665 2.515692 0.032142 -0.005302 284944.000000 0 0 1
15.856233 6.494222 -24.996913 30.305786 0.388728 2.540686 0.026513 -0.002586 -20970.000000 0 0 1
14.422533 5.935922 -24.928013 29.404939 0.390443 2.582523 0.030743 -0.010206 -8446.790000 0 0 1
13.845333 5.755222 -23.634113 27.989053 0.393950 2.576251 0.080410 -0.044102 960491.000000 0 0 1
12.526233 5.211622 -23.770013 27.369344 0.394271 2.622945 0.094617 -0.041201 623940.000000 0 0 1
11.628833 5.352822 -22.489813 25.878063 0.431391 2.624113 0.125971 -0.048795 54227.400000 0 0 1
11.968433 4.397622 -21.450613 24.954183 0.352122 2.605282 0.098983 -0.042385 293890.000000 0 1 0
11.384833 4.596522 -20.139313 23.586741 0.383727 2.594115 0.116791 -0.043314 -278901.000000 0 1 0
11.592333 6.071222 -19.646813 23.605914 0.482449 2.554011 0.117517 -0.048074 -71926.200000 0 1 0
10.927033 6.321122 -18.438813 22.346061 0.524449 2.541261 0.098474 -0.035379 -217998.000000 0 1 0
11.183133 7.610022 -17.929913 22.460113 0.597512 2.495264 0.107194 -0.037920 601600.000000 0 1 0
12.640133 8.019822 -17.541813 23.060913 0.565382 2.435146 0.109942 -0.041860 253403.000000 0 1 0
13.077833 7.672722 -16.270713 22.240424 0.530580 2.391437 0.123505 -0.045852 -378193.000000 0 1 0
14.453833 7.891622 -16.115913 23.041563 0.499758 2.345393 0.133728 -0.047377 -833007.000000 0 1 0
14.914633 7.579322 -14.697113 22.268756 0.470170 2.291599 0.127814 -0.052818 190474.000000 0 1 0
16.243233 8.081322 -14.562513 23.264074 0.461661 2.247166 0.108218 -0.056897 632951.000000 0 1 0
16.770933 7.936522 -13.276013 22.814580 0.442004 2.191871 0.090011 -0.052346 -145330.000000 0 1 0
17.705233 9.059122 -12.814113 23.658919 0.472935 2.143158 0.154562 -0.059237 175787.000000 0 1 0
17.045633 10.325722 -12.609813 23.583501 0.544651 2.134935 0.177551 -0.052862 1109700.000000 0 1 0
18.042233 11.335822 -12.362413 24.634372 0.560964 2.096516 0.252959 -0.070162 390511.000000 0 1 0
17.439933 12.694022 -11.981713 24.674904 0.629188 2.077826 0.274101 -0.063117 -577702.000000 0 1 0
16.692033 12.595822 -10.784013 23.528145 0.646439 2.046929 0.300032 -0.046886 706854.000000 0 1 0
15.893533 13.733222 -10.443313 23.457804 0.712609 2.032189 0.193684 -0.041027 174194.000000 0 1 0
14.579833 13.933922 -11.232913 23.084714 0.762749 2.078985 0.165714 -0.060362 -69571.000000 0 1 0
13.606333 14.840622 -10.685113 22.793595 0.828760 2.058702 0.196426 -0.060787 469673.000000 0 1 0
13.963033 16.227422 -10.730413 23.946550 0.860261 2.035434 0.226643 -0.063204 -421259.000000 0 1 0
13.311533 17.113722 -9.661313 23.736414 0.909722 1.989991 0.214779 -0.048105 -18735.500000 0 1 0
13.770033 17.020422 -8.314413 23.418754 0.890573 1.933745 0.235315 -0.050050 103858.000000 0 1 0
12.769933 17.476322 -7.454713 22.892482 0.939763 1.902485 0.207278 -0.033565 -193003.000000 0 1 0
13.141733 17.324022 -5.990913 22.554776 0.921824 1.839639 0.184708 -0.031289 -67352.700000 0 1 0
14.154033 18.207722 -5.589513 23.729737 0.910011 1.808580 0.223112 -0.039789 -231565.000000 0 1 0
14.631533 17.965722 -4.314613 23.568301 0.887328 1.754903 0.223582 -0.033122 184341.000000 0 1 0
15.898333 18.884322 -4.053613 25.016122 0.871035 1.733554 0.209875 -0.040544 389344.000000 0 0 1
17.035433 18.297222 -4.652013 25.429029 0.821095 1.754773 0.219300 -0.061912 -753294.000000 0 0 1
17.969333 19.266422 -4.915913 26.800338 0.820219 1.755268 0.148533 -0.053828 -923680.000000 0 0 1
19.200833 18.794822 -5.686013 27.463577 0.774713 1.779343 0.151013 -0.035556 -521529.000000 0 0 1
20.092133 18.033322 -4.921413 27.442937 0.731450 1.751104 0.145753 -0.046970 -61314.400000 0 0 1
20.979233 17.303122 -5.752613 27.796021 0.689665 1.779261 0.199966 -0.056087 -477715.000000 0 0 1
21.971833 16.523422 -4.936413 27.931221 0.644797 1.748464 0.168958 -0.052532 17369.300000 0 0 1
23.267233 17.100422 -4.753013 29.263966 0.633804 1.733938 0.114615 -0.048130 229042.000000 0 0 1
24.069433 16.238022 -4.034713 29.313646 0.593497 1.708874 0.114386 -0.049929 -289434.000000 0 0 1
25.588433 16.441022 -4.157313 30.697856 0.571097 1.706641 0.122478 -0.044853 65861.700000 0 0 1
26.126233 17.676222 -3.716013 31.762204 0.594827 1.688060 0.117863 -0.046278 453273.000000 0 0 1
27.545933 17.677922 -3.609813 32.928986 0.570562 1.680641 0.088358 -0.035443 468151.000000 0 0 1
28.109533 18.904622 -2.858713 33.995629 0.592054 1.654986 0.106679 -0.032922 -122345.000000 0 0 1
28.294933 19.998422 -3.752613 34.851430 0.615265 1.678680 0.088346 -0.036741 314150.000000 0 0 1
28.336333 21.199122 -2.980313 35.513839 0.642300 1.654815 0.117525 -0.022863 -679295.000000 0 0 1
28.317033 22.437522 -3.854213 36.333892 0.670070 1.677074 0.087592 -0.018699 310386.000000 0 0 1
29.477233 22.906722 -4.556613 37.608349 0.660620 1.692254 0.059746 -0.001954 433101.000000 0 0 1
29.890133 22.047022 -5.577013 37.557879 0.635519 1.719839 0.054408 0.002655 -261167.000000 0 0 1
30.883233 22.711522 -6.559713 38.892379 0.634091 1.740270 0.039547 0.006319 5333.740000 0 0 1
30.250133 23.672722 -7.403013 39.118703 0.664020 1.761189 0.029428 0.008816 68667.800000 0 0 1
31.098633 24.551522 -8.113013 40.444075 0.668289 1.772765 0.033813 0.004411 -225788.000000 0 0 1
32.031933 23.945922 -9.188313 41.035070 0.641940 1.796625 0.028673 0.000134 29392.500000 0 0 1
31.461733 23.748222 -10.495413 40.791817 0.646584 1.831015 0.034447 0.010049 -474585.000000 0 0 1
32.297533 23.074722 -11.351313 41.284691 0.620353 1.849336 0.025198 0.004056 -688629.000000 0 0 1
31.724233 22.694522 -12.717313 41.026800 0.620966 1.885964 0.049981 0.005799 -83105.400000 0 0 1
31.626333 23.721822 -13.698913 41.840291 0.643543 1.904357 0.072433 -0.011732 70276.000000 0 0 1
31.413133 22.980522 -14.905113 41.677952 0.631593 1.936521 0.088342 -0.018250 -59687.700000 0 0 1
31.781733 23.719122 -16.239613 42.853241 0.641137 1.959467 0.090748 -0.015267 -303570.000000 0 0 1
33.164433 23.860522 -16.408113 44.027608 0.623668 1.952689 0.092077 -0.011123 -386971.000000 0 0 1
33.448333 24.263622 -17.731413 44.965735 0.627574 1.976137 0.110892 -0.013916 -109848.000000 0 0 1
34.855133 24.829422 -17.987813 46.421352 0.618974 1.968704 0.101946 -0.018810 -73775.500000 0 0 1
35.849733 23.831022 -17.930013 46.632674 0.586673 1.965457 0.103287 -0.009359 -848042.000000 0 0 1
37.126033 24.364322 -18.050613 47.935239 0.580763 1.956879 0.091361 -0.008777 -875953.000000 0 0 1
-37.760706 23.346022 -17.761713 47.816170 -0.553740 1.951376 0.073381 -0.019484 -386674.000000 0 0 1
-37.623806 22.364322 -18.810013 47.639587 -0.536306 1.976690 0.058475 -0.012883 442140.000000 0 0 1
-36.728506 22.718422 -19.890413 47.547223 -0.553948 2.002402 0.082065 0.007952 240130.000000 0 0 1
-36.867606 21.772822 -21.072113 47.721170 -0.533455 2.028141 0.071806 0.005856 145092.000000 0 0 1
-36.418306 20.452222 -20.762413 46.644016 -0.511699 2.032110 0.055042 0.001523 272020.000000 0 0 1
-36.053706 19.726622 -21.919913 46.577805 -0.500649 2.060777 0.047633 0.007258 -80019.200000 0 0 1
-35.931606 18.199922 -21.764313 45.782123 -0.468847 2.066202 0.037275 -0.001585 -226763.000000 0 0 1
-37.176006 17.570722 -21.688913 46.488651 -0.441518 2.056174 0.033654 -0.009854 -153802.000000 0 0 1
-36.953606 16.173522 -21.578913 45.747145 -0.412554 2.062014 0.024549 -0.019955 118208.000000 0 0 1
37.736933 15.332522 -21.593113 46.102330 0.385926 2.058245 0.026316 -0.018819 -71061.400000 0 0 1
37.063433 15.349022 -22.815013 46.149922 0.392626 2.087903 0.090182 -0.016920 11198.800000 0 0 1
35.794933 14.741922 -22.832913 44.943780 0.390675 2.103696 0.126805 -0.021140 -64641.300000 0 0 1
35.846433 13.373622 -23.511913 44.906910 0.357087 2.121832 0.082409 -0.023455 -209788.000000 0 0 1
36.022733 13.429822 -24.880213 45.793257 0.356854 2.145178 0.100989 -0.019875 11071.800000 0 0 1
36.372633 12.185222 -25.349903 45.978969 0.323259 2.154762 0.076063 -0.011552 -154077.000000 0 0 1
36.373933 12.063722 -26.907553 46.825343 0.320242 2.182956 0.080784 -0.011462 440837.000000 0 0 1
35.035133 12.099322 -27.416063 46.103087 0.332525 2.207650 0.082317 -0.011789 656894.000000 0 0 1
34.655233 13.406622 -27.828123 46.423346 0.369125 2.213601 0.097741 -0.014635 -152604.000000 0 0 1
35.163633 13.797322 -29.229293 47.761896 0.373916 2.229357 0.093238 -0.020540 233509.000000 0 0 1
36.575133 13.956522 -29.316253 48.907745 0.364531 2.213572 0.083395 -0.013653 188824.000000 0 0 1
37.015733 14.115922 -30.661013 50.095124 0.364325 2.229454 0.086045 -0.016841 -1441300.000000 0 0 1
-37.490406 14.319122 -30.739813 50.551992 -0.364842 2.224440 0.080557 -0.014659 -1221330.000000 0 0 1
-36.600806 13.275122 -30.454493 49.429991 -0.347944 2.234595 0.083696 -0.011238 115511.000000 0 0 1
-36.528806 12.860622 -29.067743 48.421926 -0.338516 2.214674 0.059817 -0.013917 -966834.000000 0 0 1
-35.345306 11.909022 -28.871693 47.166621 -0.324987 2.229537 0.076726 -0.018604 -159494.000000 0 0 1
-35.582406 10.652022 -29.442703 47.396687 -0.290871 2.241066 0.081409 -0.019789 198113.000000 0 0 1
-34.547206 9.768922 -29.105863 46.217881 -0.275576 2.252032 0.087495 -0.023902 11225.900000 0 0 1
-34.983506 8.294922 -29.521673 46.520754 -0.232810 2.258276 0.099546 -0.024865 -133811.000000 0 0 1
-34.790906 8.065822 -30.924503 47.241819 -0.227812 2.284450 0.107733 -0.027292 -9284.790000 0 0 1
-35.151406 6.816822 -31.493633 47.685840 -0.191550 2.292201 0.114387 -0.029364 33381.500000 0 0 1
-36.662206 6.431822 -31.489403 48.755186 -0.173667 2.272956 0.132264 -0.025690 223894.000000 0 0 1
-36.941406 5.817222 -30.242853 48.095090 -0.156189 2.250823 0.133765 -0.027886 -376239.000000 0 0 1
37.703533 5.469722 -30.095973 48.551435 0.144067 2.239384 0.124512 -0.008117 -492910.000000 0 0 1
37.497633 4.869222 -28.657463 47.445041 0.129132 2.219324 0.122091 -0.013363 -163090.000000 0 0 1
-37.853706 3.644722 -28.614013 47.591478 -0.095989 2.215851 0.131343 -0.006056 214218.000000 0 0 1
37.828333 3.036422 -27.334063 46.769152 0.080097 2.194994 0.122224 -0.011618 -35232.900000 0 0 1
-37.568706 1.601522 -27.217643 46.419529 -0.042603 2.197330 0.160470 -0.015684 686144.000000 0 0 1
-36.162706 1.544322 -26.946953 45.124988 -0.042679 2.210755 0.151502 -0.006481 690439.000000 0 0 1
-35.765306 0.213722 -26.752403 44.664235 -0.005976 2.213007 0.175184 -0.012259 -1023420.000000 0 0 1
-34.490806 0.100122 -25.972463 43.176319 -0.002903 2.216229 0.176604 -0.011987 -1010450.000000 0 0 1
-34.576606 0.359622 -24.622513 42.449254 -0.010400 2.189581 0.166396 -0.018963 60306.100000 0 0 1
-33.402406 -0.001778 -23.930013 41.089734 0.000053 2.192455 0.191938 -0.019284 -35855.100000 0 0 1
-33.570806 0.168322 -22.370113 40.341657 -0.005014 2.158578 0.169800 -0.008150 -576665.000000 0 0 1
-33.649506 -1.122778 -21.818613 40.119842 0.033354 2.145798 0.195550 -0.025074 339884.000000 0 0 1
-34.027006 -0.994578 -20.413713 39.693148 0.029221 2.110974 0.166641 -0.026193 530877.000000 0 0 1
-35.533806 -0.667978 -20.169113 40.864296 0.018796 2.086978 0.145861 -0.022597 -323282.000000 0 0 1
-36.361106 -1.770678 -20.371313 41.716372 0.048659 2.080970 0.155597 -0.015600 -193494.000000 0 0 1
-37.724206 -1.402978 -20.227013 42.827749 0.037173 2.062681 0.136805 -0.016212 169588.000000 0 0 1
37.345833 -2.617278 -20.077513 42.481383 -0.069968 2.063057 0.132141 -0.029314 -369023.000000 0 0 1
36.911433 -3.201178 -21.323613 42.748074 -0.086509 2.093034 0.129518 -0.024273 193504.000000 0 0 1
37.795533 -4.179678 -21.822213 43.842684 -0.110139 2.091786 0.140437 -0.022990 -127591.000000 0 0 1
37.136033 -4.973878 -22.942513 43.933851 -0.133144 2.120232 0.145917 -0.019540 -468768.000000 0 0 1
36.656733 -6.223178 -22.389213 43.401853 -0.168166 2.112806 0.152802 -0.022827 305198.000000 0 0 1
36.161433 -7.154578 -23.324913 43.622113 -0.195328 2.134954 0.157154 -0.019201 26179.500000 0 0 1
34.717133 -6.916378 -23.805613 42.659381 -0.196646 2.162817 0.112918 -0.015635 -668922.000000 0 0 1
34.658633 -5.765378 -24.672013 42.932140 -0.164838 2.183003 0.118620 -0.019611 -262649.000000 0 0 1
33.333833 -5.566078 -25.083713 42.087032 -0.165453 2.209302 0.070614 -0.014701 -297386.000000 0 0 1
33.034133 -4.279878 -25.873623 42.178379 -0.128842 2.231197 0.087582 -0.035303 -31889.400000 0 0 1
33.368633 -4.413078 -27.250613 43.307468 -0.131489 2.251366 0.098233 -0.035794 397434.000000 0 0 1
32.832233 -3.353678 -28.009583 43.286711 -0.101793 2.274533 0.092239 -0.038561 -251920.000000 0 0 1
32.879233 -3.627178 -29.510863 44.329351 -0.109874 2.299252 0.098769 -0.037623 246660.000000 0 0 1
32.234133 -2.591378 -30.279043 44.300959 -0.080220 2.323323 0.085004 -0.043102 262682.000000 0 0 1
31.778533 -3.188578 -31.492273 44.853154 -0.100003 2.349166 0.085377 -0.047697 -1051010.000000 0 0 1
31.229933 -2.310078 -32.573173 45.184696 -0.073836 2.375881 0.089433 -0.044951 -257407.000000 0 0 1
30.141033 -1.516778 -32.123423 44.076034 -0.050280 2.387391 0.072050 -0.040173 1307900.000000 0 0 1
28.844733 -2.152178 -31.906173 43.065698 -0.074475 2.405164 0.071421 -0.032451 945179.000000 0 0 1
28.056933 -2.408578 -33.230823 43.557781 -0.085636 2.438604 0.085875 -0.041318 -855448.000000 0 0 1
28.687833 -3.281978 33.264794 44.048946 -0.113908 0.714871 0.088415 -0.047410 -276288.000000 0 0 1
27.855033 -3.675078 32.187736 42.725395 -0.131178 0.717635 0.082101 -0.045562 -775662.000000 0 0 1
28.350833 -4.977678 31.485884 42.660378 -0.173803 0.740607 0.075448 -0.052572 1189580.000000 0 0 1
29.730433 -5.120178 31.045044 43.288677 -0.170547 0.771073 0.076446 -0.049103 1275560.000000 0 0 1
30.131433 -4.205878 30.022144 42.742505 -0.138688 0.792039 0.090027 -0.049108 -578282.000000 0 0 1
30.579033 -2.771778 30.440984 43.236715 -0.090396 0.789706 0.071643 -0.047927 -509198.000000 0 0 1
31.950033 -2.618078 30.771804 44.436053 -0.081760 0.805853 0.089266 -0.051411 190932.000000 0 0 1
32.222833 -1.220278 30.927464 44.680063 -0.037852 0.806266 0.083873 -0.042998 -248728.000000 0 0 1
33.620233 -0.942978 31.496693 46.078747 -0.028041 0.818194 0.090631 -0.053458 403200.000000 0 0 1
34.719233 -1.222178 30.615814 46.306014 -0.035187 0.848429 0.105565 -0.052700 537630.000000 0 0 1
35.948333 -0.988878 31.291638 47.669981 -0.027501 0.854730 0.106970 -0.040346 84869.400000 0 0 1
37.173633 -1.617178 30.627284 48.192580 -0.043476 0.882116 0.119034 -0.034074 -333891.000000 0 0 1
37.678633 -0.966978 29.477304 47.848990 -0.025658 0.907080 0.128143 -0.038147 599704.000000 0 0 1
-37.165406 -1.680778 28.969724 47.152278 0.045193 0.909188 0.122865 -0.037123 480880.000000 0 0 1
-36.770606 -1.151678 27.613014 45.998721 0.031310 0.926921 0.134937 -0.042315 -89501.000000 0 0 1
-37.402306 -1.777578 26.489844 45.867244 0.047490 0.955093 0.154417 -0.053144 57263.200000 0 0 1
-37.006806 -1.125978 25.241194 44.809479 0.030417 0.972422 0.137275 -0.047445 -150744.000000 0 0 1
-28.439967 15.299522 11.282587 34.208243 -0.493551 1.234683 0.151949 -0.031129 -1377.380000 0 0 1
-29.464077 14.483122 11.802787 34.888371 -0.456866 1.225685 0.090114 0.000320 -94299.600000 0 0 1
-30.257597 15.217022 12.688087 36.167216 -0.465977 1.212353 0.107711 -0.013756 -112091.000000 0 0 1
-31.455827 14.413622 13.250487 37.051275 -0.429667 1.205072 0.105352 -0.012035 106608.000000 0 0 1
-32.335107 15.181722 14.052287 38.386334 -0.438961 1.196008 0.086971 -0.021332 -155371.000000 0 0 1
-33.351187 14.315322 14.546187 39.100150 -0.405448 1.189608 0.101208 -0.016174 182702.000000 0 0 1
-34.368951 15.036122 15.445887 40.569511 -0.412403 1.180214 0.095193 -0.024135 -97257.500000 0 0 1
-33.764257 15.414522 16.686887 40.695021 -0.428274 1.148290 0.080807 -0.015638 24722.400000 0 0 1
-34.625027 15.990222 17.626987 42.015359 -0.432633 1.137861 0.078004 -0.033397 -51079.800000 0 0 1
-33.774197 16.385922 18.843587 42.003281 -0.451706 1.105574 0.105263 -0.028437 168942.000000 0 0 1
-33.255107 15.243622 19.493787 41.452116 -0.429804 1.081197 0.099923 -0.035926 558749.000000 0 0 1
-32.118367 15.358122 20.377687 41.020867 -0.446034 1.050930 0.092785 -0.029484 930137.000000 0 0 1
-32.218587 16.158022 21.683787 42.063115 -0.464857 1.029198 0.100738 -0.041591 -394123.000000 0 0 1
-32.802847 17.483522 21.540787 42.961679 -0.489688 1.045586 0.081344 -0.035642 401559.000000 0 0 1
-33.047687 18.154822 22.744987 44.035005 -0.502346 1.028014 0.072008 -0.043429 -1143910.000000 0 0 1
-33.903727 17.487922 23.811787 44.969894 -0.476216 1.012779 0.064204 -0.042429 -1132520.000000 0 0 1
-35.152699 17.009322 23.442187 45.547398 -0.450660 1.030166 0.142525 -0.043429 -442960.000000 0 0 1
-36.177017 17.963422 23.270387 46.615148 -0.460878 1.048118 0.148392 -0.046916 -1618820.000000 0 0 1
-37.448977 17.306622 22.835287 47.152894 -0.432903 1.065254 0.103294 -0.051041 -956579.000000 0 0 1
37.977602 16.595922 23.943787 47.864682 0.411984 1.046921 0.125352 -0.046399 -197463.000000 0 0 1
36.913462 15.748322 23.616587 46.565615 0.403249 1.038901 0.170151 -0.048949 -2881.300000 0 0 1
36.241542 14.983822 24.760587 46.379424 0.392041 1.007625 0.177128 -0.034709 -392015.000000 0 0 1
35.606372 15.761822 25.761487 46.689431 0.416740 0.986320 0.142178 -0.034001 23566.600000 0 0 1
35.296562 15.077622 26.936787 46.891070 0.403707 0.958859 0.146985 -0.026963 -221524.000000 0 0 1
34.251522 13.958022 26.898987 45.733452 0.386968 0.942004 0.150595 -0.029241 -490609.000000 0 0 1
34.745602 12.681722 26.437387 45.464474 0.349964 0.950231 0.142039 -0.034923 283032.000000 0 0 1
33.733532 11.689422 26.419287 44.413652 0.333573 0.933722 0.128809 -0.033873 277994.000000 0 0 1
34.393952 10.301222 26.218587 44.457546 0.291004 0.940054 0.134074 -0.035913 102899.000000 0 0 1
35.285422 9.961322 27.289887 45.705874 0.275147 0.930945 0.134601 -0.028147 117205.000000 0 0 1
35.801762 8.694122 27.032787 45.696012 0.238229 0.937781 0.150573 -0.023949 -542879.000000 0 0 1
36.834062 8.168122 28.022487 46.997086 0.218223 0.931962 0.134638 -0.028279 755449.000000 0 0 1
-37.867437 8.805922 27.812687 47.802015 -0.228485 0.949818 0.136173 -0.030697 671883.000000 0 0 1
-36.846697 8.106522 28.493087 47.278439 -0.216557 0.923959 0.151791 -0.037103 -522879.000000 0 0 1
-35.570329 8.912622 28.565787 46.483194 -0.245509 0.908993 0.141363 -0.036234 -96498.800000 0 0 1
-34.715013 8.818422 27.408887 45.101484 -0.248762 0.917615 0.128568 -0.026881 1120520.000000 0 0 1
-33.483387 9.554322 27.489387 44.363146 -0.277958 0.902506 0.108582 -0.022633 946637.000000 0 0 1
-32.833857 10.035722 26.160587 43.164270 -0.296634 0.919685 0.097095 -0.023630 -211.527000 0 0 1
-31.912597 9.182622 25.552287 41.900523 -0.280174 0.914947 0.085879 -0.025825 367569.000000 0 0 1
-31.079527 9.796222 24.557287 40.803962 -0.305341 0.924998 0.085438 -0.024203 441906.000000 0 0 1
-29.958557 8.907622 23.964787 39.384920 -0.289007 0.916657 0.070670 -0.021906 -102592.000000 0 0 1
-29.201977 9.556422 22.987587 38.373296 -0.316268 0.928480 0.075173 -0.030046 -298089.000000 0 0 1
-28.637367 8.498722 22.205987 37.221405 -0.288491 0.931549 0.050785 -0.023572 -151569.000000 0 0 1
-27.587517 9.075122 21.221487 35.969160 -0.317807 0.939748 0.065558 -0.018643 -968454.000000 0 0 1
-26.417357 9.450422 21.889587 35.585689 -0.343549 0.908254 0.062546 -0.024310 745125.000000 0 0 1
-25.475067 10.365222 21.193287 34.721352 -0.386421 0.914254 0.064455 -0.015270 1246420.000000 0 0 1
-24.747867 9.731122 19.991387 33.268713 -0.374640 0.926162 0.065652 -0.021631 -721759.000000 0 0 1
-25.588027 9.517422 18.868287 33.186454 -0.356092 0.966049 0.061644 -0.020205 224801.000000 0 0 1
-25.015317 8.663722 17.902687 31.958291 -0.333408 0.976182 0.088420 -0.030505 -193182.000000 0 0 1
-24.913767 7.136622 18.215987 31.677269 -0.278982 0.958132 0.095710 -0.022332 -86081.800000 0 0 1
-23.783467 6.820022 19.018187 31.206689 -0.279261 0.915459 0.094481 -0.019710 473981.000000 0 0 1
-23.701767 5.525422 19.590187 31.242271 -0.229032 0.893047 0.110056 -0.018436 -311306.000000 0 0 1
-23.624367 4.273322 18.649387 30.400192 -0.178951 0.910358 0.117720 -0.028613 -213015.000000 0 0 1
-24.865267 4.049622 18.001487 30.963438 -0.161445 0.950374 0.138713 -0.036819 429631.000000 0 0 1
-24.856867 3.240022 16.846687 30.202193 -0.129616 0.979067 0.144085 -0.032124 -183354.000000 0 0 1
-24.842267 1.706222 17.106387 30.210560 -0.068575 0.968861 0.150058 -0.030359 -249572.000000 0 0 1
-23.605567 1.223322 17.561987 29.447287 -0.051777 0.931804 0.124647 -0.022557 128374.000000 0 0 1
-23.775467 -0.115978 17.868587 29.741767 0.004878 0.926306 0.152312 -0.030771 210551.000000 0 0 1
-22.482467 -0.967678 18.116187 28.889340 0.043015 0.892986 0.146156 -0.025308 638979.000000 0 0 1
-21.693367 -0.614478 19.288787 29.035101 0.028318 0.844204 0.116995 -0.013118 99753.200000 0 0 1
-20.636367 -1.530678 19.369787 28.344158 0.074038 0.818416 0.116278 -0.016943 -432191.000000 0 0 1
-19.542567 -1.065278 20.347887 28.232663 0.054457 0.765954 0.110542 -0.008579 79475.000000 0 0 1
-19.923767 -1.064078 21.731487 29.501632 0.053357 0.742738 0.110670 -0.015018 175211.000000 0 0 1
-18.807867 -0.709578 22.548787 29.371537 0.037710 0.695538 0.097863 -0.017083 127860.000000 0 0 1
-19.095067 -0.777278 24.063587 30.729172 0.040683 0.671184 0.106506 -0.019654 151871.000000 0 0 1
-19.811567 0.348922 24.550287 31.548955 -0.017610 0.679058 0.091870 -0.025462 -341423.000000 0 0 1
-21.187367 0.079522 24.644387 32.500103 -0.003753 0.710116 0.157808 -0.032034 -550266.000000 0 0 1
-21.932967 1.195822 25.397987 33.578904 -0.054468 0.713054 0.119965 -0.033245 -522020.000000 0 0 1
-21.891367 2.468922 24.762887 33.144051 -0.112306 0.727064 0.110483 -0.028682 534530.000000 0 0 1
-23.028567 2.827722 23.962487 33.354336 -0.122180 0.769265 0.099564 -0.027003 -269864.000000 0 0 1
-22.714767 4.130822 23.170287 32.709120 -0.179890 0.783605 0.103548 -0.022089 290576.000000 0 0 1
-22.009267 4.021422 21.948187 31.341707 -0.180721 0.794997 0.122906 -0.024416 1260010.000000 0 0 1
-20.686167 3.440322 22.032787 30.417052 -0.164802 0.760696 0.099385 -0.016066 256913.000000 0 0 1
-20.185867 2.789922 20.729787 29.068488 -0.137342 0.776835 0.092425 -0.015791 21618.800000 0 0 1
-19.694367 3.757522 19.759687 28.150174 -0.188526 0.792681 0.086369 -0.015745 399718.000000 0 0 1
-19.210967 3.009422 18.647787 26.941749 -0.155388 0.806330 0.099089 -0.013976 216255.000000 0 0 1
-18.599767 3.830722 17.448887 25.789328 -0.203115 0.827670 0.065644 -0.015337 -1161870.000000 0 0 1
-17.316067 4.291222 17.576087 25.043554 -0.242923 0.792846 0.075207 -0.031105 -1183440.000000 0 0 1
-17.029667 5.103022 16.535687 24.279196 -0.291140 0.821582 0.075992 -0.017473 23202.200000 0 1 0
-15.503567 5.397622 16.455187 23.243668 -0.335029 0.784215 0.063779 -0.025973 454919.000000 0 1 0
-14.910267 6.238722 17.493287 23.817070 -0.396282 0.745888 0.051033 -0.028188 286217.000000 0 1 0
-15.287967 7.610722 17.513887 24.461833 -0.461906 0.772787 0.052096 -0.032884 -1075110.000000 0 1 0
-14.872367 8.534022 16.381387 23.714272 -0.520945 0.808227 0.028299 -0.026069 -249580.000000 0 1 0
-15.494667 8.350222 15.120187 23.204116 -0.494289 0.861083 0.044333 -0.027655 -528447.000000 0 1 0
-16.878367 8.512622 15.082787 24.183351 -0.467122 0.897349 0.058570 -0.016392 -632434.000000 0 1 0
-17.446867 7.944122 13.718187 23.573097 -0.427279 0.949681 0.067442 -0.020979 74636.300000 0 1 0
-17.274767 6.553522 13.557687 22.916743 -0.362596 0.937747 0.054086 -0.018515 -413026.000000 0 1 0
-18.099667 6.075822 12.597687 22.873900 -0.323867 0.987540 0.071907 -0.010943 -485285.000000 0 1 0
-17.768167 4.596022 12.275687 22.079939 -0.253118 0.981272 0.079695 -0.025150 131482.000000 0 1 0
-17.984367 3.768622 13.350187 22.712716 -0.206561 0.942478 0.085660 -0.019612 189392.000000 0 1 0
-17.609567 2.427722 13.065987 22.061521 -0.137000 0.936945 0.071070 -0.026113 -282221.000000 0 1 0
-18.347667 1.438422 13.996087 23.121341 -0.078238 0.920613 0.080247 -0.025540 918772.000000 0 1 0
-19.758167 1.419422 13.737087 24.106171 -0.071717 0.964464 0.107750 -0.024926 1185050.000000 0 1 0
-20.540667 0.688922 14.705387 25.271368 -0.033527 0.949734 0.130421 -0.028944 -494669.000000 0 0 1
-22.034167 0.585422 14.577587 26.426375 -0.026563 0.986479 0.138579 -0.037797 -1015000.000000 0 0 1
-22.412167 -0.391378 13.584387 26.210570 0.017461 1.025959 0.158896 -0.034064 1344920.000000 0 0 1
-23.861067 -0.443278 13.564187 27.450577 0.018575 1.053961 0.188382 -0.043771 1143220.000000 0 0 1
-24.311267 -1.291778 12.380487 27.312687 0.053085 1.100347 0.203491 -0.051224 -167388.000000 0 0 1
-23.940367 -2.671178 12.447987 27.115102 0.111117 1.093838 0.173139 -0.038084 255742.000000 0 0 1
-24.479067 -3.394878 11.388187 27.211041 0.137806 1.138988 0.196096 -0.031199 -167161.000000 0 0 1
-24.389367 -4.906878 11.646287 27.469159 0.198539 1.132964 0.150442 -0.032926 -15020.400000 0 0 1
-25.321227 -5.456578 12.555087 28.784875 0.212248 1.119459 0.133149 -0.024702 280913.000000 0 0 1
-25.267157 -6.893878 12.542987 29.039306 0.266356 1.124163 0.124895 -0.025008 -14380.600000 0 0 1
-26.028127 -7.462978 13.769787 30.377072 0.279236 1.100337 0.114101 -0.017836 670239.000000 0 0 1
-27.450817 -7.354378 13.709287 31.552794 0.261764 1.121327 0.154594 -0.027368 505981.000000 0 0 1
-28.041927 -7.877778 14.892187 32.713702 0.273870 1.098168 0.157624 -0.016519 -908190.000000 0 0 1
-29.467137 -7.298778 14.973187 33.849382 0.242805 1.112582 0.177314 -0.027680 -54027.600000 0 0 1
-30.464227 -7.691578 14.014687 34.404084 0.247310 1.151240 0.166952 -0.028499 853354.000000 0 0 1
-30.767127 -9.131078 13.940487 34.990426 0.288500 1.161015 0.174969 -0.039757 -687950.000000 0 0 1
-31.229587 -9.860978 15.244687 36.123766 0.305850 1.135132 0.166056 -0.041702 -345398.000000 0 0 1
-30.156497 -10.003978 16.161387 35.646660 0.320312 1.100245 0.171405 -0.028899 480391.000000 0 0 1
-30.568927 -10.790578 17.322087 36.755280 0.339338 1.080053 0.154271 -0.020074 -305171.000000 0 0 1
-29.428777 -10.965178 18.307287 36.351683 0.356665 1.043017 0.168990 -0.018956 257289.000000 0 0 1
-28.292887 -11.633078 17.753587 35.369561 0.390095 1.044950 0.132584 -0.026570 602092.000000 0 0 1
-27.156647 -11.568378 18.618987 34.899535 0.402706 1.008060 0.129579 -0.026780 506061.000000 0 0 1
-26.079897 -12.617578 18.189187 34.208345 0.450608 1.010169 0.068945 -0.018736 -83474.800000 0 0 1
-25.551487 -12.194178 16.961587 33.004120 0.445274 1.031044 0.069694 -0.020088 143828.000000 0 0 1
-24.598767 -13.147178 16.467387 32.390160 0.490838 1.037462 0.070316 -0.025267 201840.000000 0 0 1
-24.154667 -12.930078 14.991287 31.230971 0.491490 1.070126 0.074833 -0.014501 -181607.000000 0 0 1
-23.303467 -11.833178 14.805387 30.037896 0.469857 1.055388 0.067371 -0.021057 -416881.000000 0 0 1
-22.933167 -11.821678 13.458687 29.100146 0.475958 1.089989 0.071125 -0.012076 -212951.000000 0 0 1
-21.684167 -10.989978 13.145087 27.636498 0.469089 1.075102 0.099315 -0.024882 -760328.000000 0 0 1
-21.794067 -9.645278 13.419387 27.351284 0.416653 1.057983 0.115335 -0.030269 1027210.000000 0 0 1
-20.560767 -8.897678 13.225887 26.016109 0.408417 1.037502 0.135054 -0.039366 875188.000000 0 0 1
-19.928667 -8.813378 11.802887 24.781759 0.416387 1.074385 0.161048 -0.041705 -700716.000000 0 1 0
-19.235467 -9.955278 11.427487 24.488737 0.477587 1.085305 0.146480 -0.044912 77045.700000 0 1 0
-18.792467 -9.903278 10.072387 23.509248 0.484999 1.128027 0.146809 -0.045151 -110476.000000 0 1 0
-17.988367 -11.127278 9.505487 23.189480 0.553971 1.148446 0.098119 -0.037404 539295.000000 0 1 0
-16.608267 -11.293478 9.761187 22.330651 0.597171 1.118402 0.120284 -0.042258 478052.000000 0 1 0
-16.351667 -11.616678 11.135987 22.941980 0.617690 1.063978 0.139989 -0.031065 -1125420.000000 0 1 0
-14.909767 -12.029178 11.334887 22.259424 0.678873 1.036521 0.148755 -0.023302 -544718.000000 0 1 0
-14.517367 -13.350178 10.914487 22.541234 0.743539 1.065347 0.139533 -0.032740 1496800.000000 0 1 0
-13.079967 -13.551378 10.852187 21.736958 0.803098 1.048063 0.134786 -0.033152 1434680.000000 0 1 0
-12.621767 -15.015678 10.744887 22.365871 0.871801 1.069669 0.132521 -0.032586 25193.700000 0 1 0
-12.782867 -15.547278 9.423787 22.224476 0.882669 1.132909 0.126786 -0.038228 1425.360000 0 1 0
-12.666667 -16.969378 9.482087 23.201600 0.929576 1.149786 0.123380 -0.035872 24194.100000 0 1 0
-13.085367 -17.820878 8.272287 23.605958 0.937438 1.212764 0.119751 -0.031039 -37956.700000 0 1 0
-12.277367 -17.561178 7.129887 22.582383 0.960661 1.249573 0.108630 -0.035735 93305.600000 0 1 0
-12.563067 -18.417978 6.085987 23.110427 0.972179 1.304310 0.081031 -0.025712 -322950.000000 0 1 0
-11.683967 -18.091878 4.862687 22.078878 0.997370 1.348734 0.077518 -0.027610 -223250.000000 0 1 0
-11.917467 -18.985978 3.851887 22.744899 1.010259 1.400624 0.089524 -0.030548 590155.000000 0 1 0
-11.039967 -18.694478 2.753487 21.884837 1.037357 1.444645 0.097792 -0.040215 405878.000000 0 1 0
-11.384967 -19.587378 1.498687 22.705262 1.044285 1.504742 0.103236 -0.038352 42086.400000 0 1 0
-11.056167 -20.941978 1.595287 23.735000 1.085045 1.503533 0.083803 -0.042038 -256239.000000 0 1 0
-11.713967 -21.786778 0.695787 24.746007 1.077473 1.542675 0.101272 -0.040787 -243524.000000 0 1 0
-10.853567 -21.951778 -0.565613 24.494906 1.111616 1.593889 0.112266 -0.041753 109251.000000 0 1 0
-11.003967 -20.861378 -1.472513 23.631603 1.085407 1.633148 0.114868 -0.056571 -937761.000000 0 1 0
-12.009667 -20.876778 -2.376513 24.201648 1.048763 1.669151 0.125950 -0.050660 -361852.000000 0 1 0
-13.240267 -19.947778 -2.073213 24.031578 0.984818 1.657174 0.142427 -0.044783 417166.000000 0 1 0
-14.044167 -20.469578 -1.047113 24.846302 0.969461 1.612952 0.138532 -0.038147 -1007490.000000 0 1 0
-15.113867 -19.653278 -0.811813 24.806035 0.915230 1.603529 0.149899 -0.022845 -696222.000000 0 1 0
27.396633 -19.403878 -4.288113 33.844850 -0.616247 1.697837 0.145479 -0.038958 59540.400000 0 0 1
26.196033 -19.653178 -3.569813 32.942725 -0.643651 1.679374 0.122685 -0.032468 287618.000000 0 0 1
26.265733 -20.705678 -2.643813 33.550016 -0.667575 1.649680 0.108465 -0.035380 -612272.000000 0 0 1
24.942333 -20.985378 -1.931113 32.653258 -0.699454 1.629971 0.087543 -0.028295 -349316.000000 0 0 1
23.891733 -21.445178 -2.743913 32.221726 -0.731487 1.656057 0.087963 -0.031667 -501705.000000 0 0 1
22.762333 -21.720678 -1.953313 31.523437 -0.761986 1.632800 0.069501 -0.021329 -665766.000000 0 0 1
21.743833 -22.526978 -2.718013 31.426845 -0.803086 1.657391 0.078546 -0.030548 -829105.000000 0 0 1
21.168233 -21.761478 -3.696313 30.582981 -0.799216 1.691954 0.093277 -0.041795 -749586.000000 0 0 1
20.325133 -22.613278 -4.406913 30.722829 -0.838637 1.714734 0.105861 -0.036353 402584.000000 0 0 1
19.147633 -21.970078 -5.266813 29.615123 -0.853934 1.749589 0.101151 -0.023052 788370.000000 0 0 1
17.965133 -21.586478 -4.620513 28.461749 -0.876704 1.733859 0.094154 -0.023926 382664.000000 0 0 1
18.196533 -20.319778 -3.964313 27.563072 -0.840468 1.715124 0.090278 -0.034291 -704931.000000 0 0 1
16.936133 -19.883478 -3.236213 26.318404 -0.865276 1.694072 0.102626 -0.015964 -365443.000000 0 0 1
16.617133 -20.605678 -2.048913 26.550351 -0.892144 1.648044 0.104545 -0.024536 -82897.000000 0 0 1
15.660433 -19.909378 -1.303513 25.363983 -0.904289 1.622211 0.110456 -0.017514 -547480.000000 0 0 1
15.293533 -20.599378 0.006087 25.655926 -0.932160 1.570559 0.102448 -0.019065 102120.000000 0 0 1
14.454933 -21.750078 -0.076413 26.115452 -0.984231 1.573722 0.103396 -0.031336 -54566.700000 0 0 1
13.823833 -21.848878 1.169687 25.881267 -1.006678 1.525587 0.093566 -0.023412 -294526.000000 0 0 1
13.082633 -23.173878 1.300787 26.643497 -1.056857 1.521955 0.103200 -0.032616 -47187.800000 0 0 1
13.941033 -24.281478 1.472387 28.037662 -1.049607 1.518258 0.083866 -0.023184 277672.000000 0 0 1
13.270933 -25.447278 1.020087 28.717977 -1.090092 1.535268 0.068805 -0.021840 152272.000000 0 0 1
13.779833 -26.686998 1.714087 30.083513 -1.094154 1.513788 0.069080 -0.016661 -155936.000000 0 0 1
13.281233 -26.811198 3.033987 30.073852 -1.110866 1.469740 0.084613 -0.020157 122086.000000 0 0 1
13.811733 -27.903218 3.689187 31.352251 -1.111167 1.452854 0.079755 -0.021088 -346655.000000 0 0 1
13.012633 -28.210328 4.956287 31.459752 -1.138608 1.412593 0.086398 -0.017302 -129732.000000 0 0 1
13.655833 -29.165748 5.764487 32.716234 -1.132899 1.393675 0.077256 -0.019029 -485471.000000 0 0 1
12.930033 -29.511898 6.883687 32.947276 -1.157858 1.360315 0.076843 -0.016937 -667496.000000 0 0 1
13.739333 -30.417688 7.830687 34.283009 -1.146539 1.340349 0.077942 -0.005779 -255504.000000 0 0 1
13.243133 -30.865838 9.079287 34.792441 -1.165496 1.306784 0.070704 -0.005735 96651.000000 0 0 1
12.286633 -31.955968 8.954387 35.388223 -1.203735 1.314982 0.058339 -0.007820 798217.000000 0 0 1
11.796533 -32.401988 10.338587 35.999075 -1.221644 1.279504 0.051798 0.000281 200937.000000 0 0 1
12.930533 -32.964628 10.978787 37.072890 -1.196985 1.270147 0.030517 -0.006874 390762.000000 0 0 1
12.760033 -33.328828 12.343287 37.762229 -1.205159 1.237808 0.043595 0.003754 325281.000000 0 0 1
11.676233 33.192838 12.833487 37.453936 1.232546 1.221063 0.042733 -0.001233 544973.000000 0 0 1
12.038733 31.865802 12.450687 36.268169 1.209578 1.220373 0.038229 -0.014214 691882.000000 0 0 1
10.912333 31.016363 12.675487 35.238641 1.232497 1.202845 0.030530 -0.010983 286216.000000 0 0 1
10.933033 29.733023 11.773287 33.796364 1.218435 1.214976 0.059021 -0.018407 -252540.000000 0 0 1
10.706133 29.930773 10.382087 33.440398 1.227281 1.255114 0.061130 -0.020189 872356.000000 0 0 1
11.831733 30.592523 9.733887 34.214631 1.201762 1.282317 0.019598 -0.007641 498094.000000 0 0 1
11.475833 31.061043 8.364787 34.153372 1.216891 1.323361 0.024020 -0.005232 -110471.000000 0 0 1
10.522633 32.107053 8.339487 34.801375 1.254092 1.328811 0.048115 -0.001187 325359.000000 0 0 1
9.607533 32.065223 7.232287 34.246010 1.279684 1.358008 0.054731 -0.009373 488852.000000 0 0 1
9.665133 33.344808 6.336887 35.290894 1.288673 1.390256 0.056504 -0.006287 23935.200000 0 0 1
9.318533 -33.015048 6.953287 35.002524 -1.295701 1.370815 0.066351 -0.007443 -31428.100000 0 0 1
9.878433 -31.996508 6.177387 34.051726 -1.271345 1.388374 0.076663 -0.014532 -127509.000000 0 0 1
9.199533 -30.672688 6.470287 32.669708 -1.279408 1.371427 0.083054 -0.011986 -97830.200000 0 0 1
9.597833 -30.119748 7.685487 32.532819 -1.262313 1.332304 0.086887 -0.012748 -294424.000000 0 0 1
8.819933 -29.034078 8.008087 31.383090 -1.275877 1.312771 0.112832 -0.017006 -295659.000000 0 0 1
9.481333 -27.731128 7.580987 30.271810 -1.241354 1.317671 0.110906 -0.023843 194412.000000 0 0 1
10.272633 -27.086418 8.596587 30.217583 -1.208301 1.282322 0.102039 -0.020442 1115850.000000 0 0 1
11.207233 -26.025668 8.175487 29.491966 -1.164173 1.289907 0.099142 -0.030477 968449.000000 0 0 1
10.647733 -24.798378 7.346687 27.969762 -1.165228 1.305013 0.111033 -0.033508 -292245.000000 0 0 1
10.268233 -25.264898 6.086587 27.942767 -1.184765 1.351213 0.116029 -0.032849 -510942.000000 0 0 1
9.558833 -24.317278 5.364087 26.673484 -1.196263 1.368314 0.105627 -0.028865 -211130.000000 0 0 1
9.201733 -24.807678 3.919287 26.747964 -1.215605 1.423740 0.088534 -0.026139 -57897.700000 0 0 1
8.272633 -25.854538 3.811187 27.412018 -1.261122 1.431311 0.090772 -0.029134 -546242.000000 0 0 1
8.687233 -27.199458 3.987787 28.830209 -1.261647 1.432032 0.095063 -0.026383 -484204.000000 0 0 1
7.692333 -28.231758 3.462487 29.465114 -1.304783 1.453013 0.099913 -0.023618 452689.000000 0 0 1
6.516833 -28.336518 4.304087 29.393069 -1.344747 1.423836 0.091030 -0.024213 498590.000000 0 0 1
5.478433 -29.115188 3.766387 29.864579 -1.384807 1.444344 0.084324 -0.015634 48217.500000 0 0 1
5.510533 -30.640618 3.988487 31.386645 -1.392854 1.443376 0.077166 -0.011721 -414722.000000 0 0 1
6.558733 -31.270658 3.304087 32.121457 -1.364052 1.467752 0.077447 -0.015150 -273117.000000 0 0 1
6.812033 -32.547738 3.767087 33.465654 -1.364481 1.457991 0.067843 -0.012990 -281779.000000 0 0 1
7.974033 -33.137598 2.954987 34.211366 -1.334652 1.484314 0.067215 -0.015799 -237612.000000 0 0 1
7.747133 -33.371868 1.551687 34.294422 -1.342691 1.525535 0.070773 -0.020173 485718.000000 0 0 1
8.640933 33.115233 1.094187 34.241519 1.315552 1.538836 0.054862 -0.014572 204093.000000 0 0 1
8.187833 32.541335 -0.273613 33.556727 1.324300 1.578950 0.066163 -0.013671 887379.000000 0 0 1
6.988033 31.784000 -0.123813 32.543365 1.354379 1.574601 0.049693 -0.011890 -18673.800000 0 0 1
5.740433 32.412214 -0.056513 32.916674 1.395507 1.572513 0.055564 -0.019344 -445228.000000 0 0 1
4.576433 31.418263 0.142487 31.750139 1.426152 1.566309 0.059648 -0.020926 10614.200000 0 0 1
4.397233 30.520863 -0.882713 30.848630 1.427708 1.599415 0.068306 -0.019610 73198.200000 0 0 1
3.281133 29.674923 -0.649913 29.862841 1.460674 1.592561 0.085201 -0.028947 194628.000000 0 0 1
3.107133 28.552053 -1.762613 28.774656 1.462399 1.632090 0.086056 -0.023879 -93455.700000 0 0 1
2.645533 29.094443 -2.982813 29.366352 1.480117 1.672544 0.098204 -0.035635 -31834.600000 0 0 1
2.379433 28.092913 -3.891913 28.460859 1.486299 1.707972 0.099826 -0.038208 -89874.200000 0 0 1
2.208133 28.678143 -5.327613 29.252269 1.493951 1.753945 0.107136 -0.043097 -936379.000000 0 0 1
1.008033 29.335803 -5.396313 29.845028 1.536448 1.752607 0.122163 -0.046750 -872712.000000 0 0 1
0.988233 30.264433 -6.465313 30.963088 1.538155 1.781151 0.110078 -0.040630 -141730.000000 0 0 1
0.771733 29.806453 -7.928713 30.852629 1.544911 1.830699 0.118660 -0.042097 -240368.000000 0 0 1
-0.535967 29.353243 -8.231113 30.490185 -1.552539 1.844147 0.119078 -0.044219 139010.000000 0 0 1
-0.697567 28.737913 -9.515013 30.280187 -1.546528 1.890444 0.120960 -0.038872 56321.800000 0 0 1
-0.908067 29.745533 -10.694013 31.622512 -1.540278 1.915776 0.105294 -0.040431 154972.000000 0 0 1
0.313733 30.393263 -11.025313 32.332745 1.560474 1.918772 0.105521 -0.041304 152167.000000 0 0 1
0.078333 31.741934 -11.421113 33.734231 1.568329 1.916184 0.095614 -0.042616 79897.400000 0 0 1
-0.117667 32.797991 -10.278913 34.371182 -1.567209 1.874500 0.098588 -0.050997 -396990.000000 0 0 1
1.028733 33.029937 -9.534213 34.393841 1.539661 1.851682 0.096755 -0.053450 -623995.000000 0 0 1
0.741433 -33.694808 -8.401713 34.734401 -1.548796 1.815104 0.105982 -0.050613 229385.000000 0 0 1
1.921633 -33.496508 -7.406213 34.359289 -1.513491 1.788053 0.088347 -0.048816 733599.000000 0 0 1
2.971233 -32.623698 -7.880713 33.693316 -1.479971 1.806879 0.089983 -0.047171 -286714.000000 0 0 1
3.780033 -32.365028 -6.809613 33.288955 -1.454529 1.776811 0.086232 -0.049092 -1948530.000000 0 0 1
5.021133 -31.591858 -7.181913 32.784709 -1.413177 1.791650 0.072255 -0.050133 -901136.000000 0 0 1
5.858733 -32.296958 -8.041813 33.794807 -1.391346 1.811061 0.077181 -0.041628 114575.000000 0 0 1
6.789533 -33.195118 -7.431213 34.687700 -1.369045 1.786702 0.084572 -0.027601 -920037.000000 0 0 1
7.082033 33.146956 -8.274113 34.890355 1.360306 1.810223 0.078610 -0.020599 -43994.100000 0 0 1
6.059233 32.187651 -8.449313 33.825288 1.384727 1.823263 0.071411 -0.025198 -64267.300000 0 0 1
5.005133 32.565709 -9.326613 34.242699 1.418296 1.846649 0.087127 -0.033067 338548.000000 0 0 1
3.978833 31.456503 -9.645613 33.141825 1.444978 1.866111 0.079928 -0.040826 352095.000000 0 0 1
4.600733 30.429453 -10.457013 32.503346 1.420739 1.898343 0.067758 -0.034349 -50729.700000 0 0 1
3.862333 29.268523 -10.455813 31.319133 1.439592 1.911179 0.071244 -0.041527 -281093.000000 0 0 1
4.414633 28.173323 -11.390713 30.707873 1.415365 1.950815 0.074668 -0.038512 -15857.300000 0 0 1
4.422933 28.597023 -12.733813 31.614903 1.417348 1.985347 0.077876 -0.037450 -45591.600000 0 0 1
5.599433 28.192703 -13.386513 31.707742 1.374735 2.006650 0.070158 -0.039088 -297475.000000 0 0 1
5.651233 28.672103 -14.840213 32.775873 1.376192 2.040676 0.076338 -0.033727 -450060.000000 0 0 1
4.699533 28.074403 -15.675613 32.495885 1.404938 2.074175 0.072407 -0.029668 -108652.000000 0 0 1
4.452833 28.814543 -16.851013 33.675841 1.417475 2.094844 0.102596 -0.028398 147882.000000 0 0 1
3.289833 28.283783 -17.703613 33.529290 1.455001 2.127045 0.088455 -0.029698 310443.000000 0 0 1
3.770633 27.058833 -18.208413 32.832064 1.432339 2.158669 0.105037 -0.021395 278063.000000 0 0 1
2.832333 26.603683 -19.156013 32.904877 1.464732 2.192183 0.095424 -0.034238 117791.000000 0 0 1
3.304433 25.414983 -20.035313 32.530822 1.441503 2.234308 0.110635 -0.031504 59234.200000 0 0 1
3.446733 24.268903 -19.283713 31.188479 1.429717 2.237369 0.103904 -0.037390 -300096.000000 0 0 1
4.412233 23.459193 -19.870813 31.058827 1.384887 2.265008 0.108074 -0.034378 -27768.000000 0 0 1
5.028333 22.375193 -18.944013 29.745740 1.349741 2.261221 0.109637 -0.036097 -362084.000000 0 0 1
4.121833 21.363793 -18.706713 28.693941 1.380203 2.280936 0.122599 -0.031523 -866747.000000 0 0 1
4.741233 20.197493 -18.225213 27.614786 1.340227 2.291589 0.108343 -0.023621 -497583.000000 0 0 1
3.823233 19.022293 -17.955813 26.436262 1.372452 2.317484 0.095194 -0.031284 -488938.000000 0 0 1
3.000733 19.337393 -16.834113 25.813301 1.416846 2.281212 0.089719 -0.028397 -284714.000000 0 0 1
2.037133 18.343493 -16.565413 24.800132 1.460195 2.302256 0.055504 -0.011595 -81574.900000 0 1 0
2.444033 17.147993 -15.663513 23.353214 1.429224 2.305978 0.039677 -0.006087 479882.000000 0 1 0
3.450133 16.264193 -16.258913 23.254669 1.361764 2.345029 0.051718 -0.014900 505329.000000 0 1 0
3.006733 15.089693 -16.914213 22.865473 1.374115 2.403461 0.069288 -0.022592 -286110.000000 0 1 0
2.993933 15.369693 -18.420913 24.176872 1.378411 2.437073 0.078138 -0.023130 -252822.000000 0 1 0
4.267633 15.559693 -18.997613 24.924406 1.303104 2.437515 0.107124 -0.027474 -159699.000000 0 1 0
4.176933 16.036193 -20.340213 26.236054 1.315989 2.457950 0.111796 -0.031281 -280779.000000 0 0 1
4.470533 14.932293 -21.425213 26.495260 1.279902 2.512639 0.135215 -0.046858 381977.000000 0 0 1
3.459033 13.973893 -21.720913 26.058255 1.328139 2.556303 0.117958 -0.038020 158280.000000 0 0 1
2.255633 14.447693 -22.291113 26.659284 1.415923 2.561019 0.127273 -0.041449 -210219.000000 0 0 1
1.396333 13.312493 -22.842213 26.475251 1.466290 2.611531 0.111730 -0.033073 -338529.000000 0 0 1
0.973033 12.512893 -21.787413 25.143799 1.493190 2.618969 0.103183 -0.020167 133264.000000 0 0 1
0.192933 11.410593 -22.282213 25.034693 1.553890 2.668259 0.061935 -0.016738 -144540.000000 0 0 1
-0.380867 10.511893 -21.246313 23.707610 -1.534580 2.681882 0.028034 -0.012580 205680.000000 0 1 0
-1.633167 11.018193 -20.733913 23.536418 -1.423643 2.648618 0.032713 -0.006011 789262.000000 0 1 0
-2.293067 10.267193 -19.731113 22.360461 -1.351063 2.651758 0.026694 -0.001969 594362.000000 0 1 0
-3.278767 9.139293 -20.120913 22.341175 -1.226343 2.691991 0.044600 -0.004423 173419.000000 0 1 0
-2.582067 8.072193 -20.741213 22.405921 -1.261210 2.753684 0.037612 -0.008663 -355237.000000 0 1 0
-3.505067 7.083593 -21.063513 22.497430 -1.111305 2.782634 0.052352 -0.006760 -441186.000000 0 1 0
-2.974567 5.825893 -21.854713 22.812662 -1.098723 2.850769 0.055018 -0.020481 -692503.000000 0 1 0
-2.094967 5.144293 -21.027213 21.748478 -1.184063 2.883333 0.049692 -0.011500 -242985.000000 0 1 0
-1.785967 3.930393 -21.691213 22.116654 -1.144290 2.945133 0.063723 -0.019202 -443670.000000 0 1 0
-0.829367 2.947593 -21.016513 21.238408 -1.296517 2.996913 0.058345 -0.012826 838359.000000 0 1 0
0.573733 3.264293 -21.169113 21.426995 1.396813 2.986289 0.049059 -0.009078 777875.000000 0 1 0
1.311233 2.532493 -20.234413 20.434390 1.093039 3.001576 0.044292 -0.005746 -272018.000000 0 1 0
2.827633 2.680293 -20.425513 20.793774 0.758654 2.953111 0.028989 -0.002873 -198353.000000 0 1 0
3.424133 1.926993 -21.428813 21.786051 0.512593 2.960250 0.053753 -0.008316 -1745460.000000 0 1 0
4.765333 2.102693 -21.431813 22.055664 0.415552 2.903183 0.071545 -0.008930 -1877120.000000 0 1 0
5.578833 1.208293 -22.329313 23.047376 0.213291 2.891316 0.081121 -0.022337 705691.000000 0 1 0
7.007633 1.301293 -22.232113 23.346672 0.183605 2.831353 0.098949 -0.031471 1232200.000000 0 1 0
7.809133 0.542593 -23.152813 24.440329 0.069370 2.815558 0.114248 -0.040972 1676260.000000 0 1 0
9.368933 0.732693 -22.947413 24.797127 0.078046 2.752902 0.125075 -0.047156 1343780.000000 0 1 0
9.931733 1.857193 -23.631513 25.700912 0.184861 2.737556 0.102772 -0.042918 -17425.100000 0 0 1
11.338333 1.800693 -23.572913 26.219887 0.157499 2.688385 0.106635 -0.045711 16760.200000 0 0 1
13.318233 -19.883678 22.757934 33.025135 -0.980623 0.810537 0.100045 -0.018197 -183632.000000 0 0 1
12.852133 -21.187278 22.509964 33.478001 -1.025540 0.833376 0.096495 -0.016215 618409.000000 0 0 1
11.749833 -21.239078 21.548754 32.457754 -1.065486 0.844772 0.086009 -0.007722 701513.000000 0 0 1
11.832433 -20.883078 20.048854 31.274046 -1.055295 0.874905 0.114576 -0.031957 -258114.000000 0 0 1
11.782633 -19.503878 19.727154 30.139547 -1.027355 0.857239 0.149376 -0.032409 -18685.900000 0 0 1
11.858933 -19.215878 18.380754 29.115912 -1.017867 0.887573 0.137925 -0.039382 36751.700000 0 0 1
11.864533 -17.736078 17.976054 27.901149 -0.981215 0.870719 0.164919 -0.047204 -217022.000000 0 0 1
10.650533 -17.111378 18.251154 27.190765 -1.014052 0.834935 0.187458 -0.053158 -580736.000000 0 0 1
10.677933 -15.733478 17.815654 26.056824 -0.974526 0.817944 0.201246 -0.048740 183198.000000 0 0 1
9.594733 -14.929078 18.589854 25.700563 -0.999579 0.762191 0.174806 -0.044503 189331.000000 0 0 1
8.310833 -15.433078 18.287654 25.331564 -1.076819 0.764207 0.144453 -0.034912 -266870.000000 0 0 1
7.274233 -14.601778 18.791454 24.884636 -1.108610 0.714924 0.105517 -0.025839 2512.210000 0 1 0
5.906633 -15.066978 18.295154 24.425699 -1.197184 0.724226 0.030495 -0.009473 -867891.000000 0 1 0
5.665233 -14.704878 16.924854 23.125289 -1.203059 0.749725 0.008456 -0.017284 517729.000000 0 1 0
4.307933 -14.917378 16.528254 22.677514 -1.289659 0.754172 -0.007903 -0.014794 472452.000000 0 1 0
3.676633 -16.328378 16.531354 23.524864 -1.349322 0.791585 -0.012339 -0.008588 -1510750.000000 0 1 0
2.324833 -16.276878 16.314454 23.162534 -1.428925 0.789294 0.000637 -0.003206 -1602110.000000 0 1 0
1.768133 -17.562978 16.244954 23.989227 -1.470461 0.826877 0.026420 -0.016529 -62548.600000 0 1 0
0.366533 -17.609878 15.639854 23.555194 -1.549985 0.844686 0.049605 -0.015786 -512751.000000 0 1 0
0.237333 -17.234678 14.310654 22.402796 -1.557027 0.877873 0.043585 -0.019702 333546.000000 0 1 0
-1.097667 -17.372378 13.812154 22.221161 1.507696 0.900043 0.055798 -0.021463 416193.000000 0 1 0
-1.500267 -18.593778 12.924854 22.694299 1.490284 0.964875 0.049131 -0.008766 195408.000000 0 1 0
-2.889467 -18.879078 12.882554 23.037552 1.418924 0.977378 0.054153 -0.020706 179530.000000 0 1 0
-3.181767 -20.055878 12.210154 23.694931 1.413462 1.029431 0.076294 -0.026008 497262.000000 0 1 0
-4.710967 -20.356578 12.178254 24.184568 1.343377 1.043088 0.070955 -0.030148 574313.000000 0 1 0
-5.225067 -20.847278 13.398054 25.326235 1.325220 1.013352 0.080991 -0.035989 -85487.400000 0 0 1
-6.607967 -21.079378 13.193054 25.730567 1.267019 1.032425 0.088069 -0.041446 55792.500000 0 0 1
-7.347967 -21.703678 14.397454 27.061577 1.244350 1.009805 0.092379 -0.041631 -822125.000000 0 0 1
-8.688567 -21.334978 14.354154 27.142480 1.184060 1.013558 0.098981 -0.041912 -1040490.000000 0 0 1
-9.396067 -22.128278 15.283754 28.487539 1.169249 1.004504 0.095337 -0.040899 59133.500000 0 0 1
-10.916367 -21.857178 15.271454 28.811814 1.107596 1.012147 0.117522 -0.044671 120586.000000 0 0 1
-11.173667 -20.564778 15.792954 28.234346 1.073081 0.977192 0.112268 -0.036980 -41453.700000 0 0 1
-12.543167 -20.210378 15.682354 28.490817 1.015346 0.987911 0.106099 -0.033393 392162.000000 0 0 1
-12.937567 -19.029878 16.662554 28.410519 0.973718 0.944075 0.116394 -0.032933 10826.600000 0 0 1
-12.940767 -19.413978 18.007454 29.472604 0.982861 0.913486 0.119611 -0.040241 -20585.000000 0 0 1
-13.310667 -18.315478 18.854954 29.464213 0.942346 0.876393 0.129011 -0.045961 -220043.000000 0 0 1
-13.778867 -18.791678 20.211854 30.846448 0.938106 0.856295 0.123920 -0.049001 -25057.000000 0 0 1
-15.103367 -19.266978 20.036254 31.635101 0.905950 0.884915 0.111352 -0.040684 91441.500000 0 0 1
-15.546267 -20.013878 21.198354 33.039551 0.910379 0.874207 0.096445 -0.029270 380709.000000 0 0 1
-17.027767 -20.416678 20.954754 33.850957 0.875657 0.903289 0.104332 -0.034766 -342659.000000 0 0 1
-17.080867 -21.420578 19.971154 33.903454 0.897640 0.940902 0.109955 -0.038629 861507.000000 0 0 1
-18.365667 -21.624478 19.360354 34.347330 0.866709 0.971981 0.097985 -0.031199 630461.000000 0 0 1
-19.407767 -22.433078 20.166754 35.869240 0.857578 0.973717 0.101898 -0.038394 -603194.000000 0 0 1
-19.915167 -21.618278 21.170454 36.223638 0.826381 0.946610 0.098914 -0.036635 -307018.000000 0 0 1
-20.751167 -22.366378 22.023254 37.628307 0.822841 0.945566 0.074622 -0.021139 -151037.000000 0 0 1
-21.381367 -21.514878 23.148214 38.156161 0.788511 0.918931 0.058978 -0.014355 -257723.000000 0 0 1
-22.471867 -20.732578 22.752204 38.111512 0.745163 0.931052 0.055923 -0.008829 -43972.000000 0 0 1
-22.281767 -19.500778 23.390894 37.734486 0.718938 0.902205 0.057332 -0.007127 377834.000000 0 0 1
-23.385167 -18.412378 23.180794 37.725733 0.666982 0.909100 0.051649 -0.007212 344120.000000 0 0 1
-23.234667 -17.835178 21.905154 36.575663 0.654677 0.928670 0.065285 -0.009580 -145723.000000 0 0 1
-24.258967 -16.914978 21.725554 36.696235 0.608889 0.937211 0.058420 -0.009830 -542713.000000 0 0 1
-23.997967 -16.147778 20.419854 35.406547 0.592293 0.956082 0.056027 -0.013284 22562.100000 0 0 1
-22.836767 -15.332978 20.411754 34.252852 0.591284 0.932393 0.070739 -0.017883 -57832.000000 0 0 1
-22.525767 -14.883578 19.091054 33.066591 0.583885 0.955315 0.057377 -0.014041 180356.000000 0 0 1
-21.280067 -13.965978 19.043454 31.789038 0.580787 0.928473 0.061437 -0.028478 158481.000000 0 0 1
-21.109267 -13.580878 17.696354 30.711599 0.571694 0.956712 0.060599 -0.032987 363522.000000 0 0 1
-20.108767 -12.566878 17.505354 29.474164 0.558560 0.934871 0.078329 -0.038401 55321.600000 0 0 1
-19.957267 -12.479678 15.996054 28.458893 0.558829 0.973903 0.098748 -0.038587 452828.000000 0 0 1
-19.124567 -11.460978 15.431154 27.115007 0.539890 0.965385 0.098829 -0.037833 514228.000000 0 0 1
-17.718467 -11.383278 15.596354 26.206284 0.571051 0.933359 0.151662 -0.053889 46892.700000 0 0 1
-17.219467 -10.225078 14.747754 24.870836 0.535855 0.936049 0.142797 -0.043778 -270683.000000 0 1 0
-17.463267 -8.948078 15.343754 24.909126 0.473514 0.907155 0.153579 -0.041728 158834.000000 0 1 0
-17.053667 -7.939278 14.476454 23.736626 0.435707 0.914889 0.152882 -0.039178 -1018560.000000 0 1 0
-17.172267 -6.509178 15.154254 23.809821 0.362318 0.880883 0.158595 -0.033891 313809.000000 0 1 0
-16.323267 -6.287578 16.278054 23.894722 0.367675 0.821340 0.138228 -0.033609 -257038.000000 0 1 0
-14.968767 -6.344978 15.930254 22.761716 0.400923 0.795580 0.132106 -0.032579 -541849.000000 0 1 0
-13.961267 -6.186478 17.168354 22.976985 0.417115 0.726961 0.106909 -0.034268 663118.000000 0 1 0
-14.036167 -7.222378 18.132254 24.040702 0.475224 0.716313 0.099631 -0.039831 107561.000000 0 1 0
-13.958067 -8.598978 17.642754 24.083954 0.552143 0.748733 0.133553 -0.041014 -518154.000000 0 1 0
-14.099067 -9.764878 18.643554 25.332166 0.605736 0.743707 0.124533 -0.044410 -13237.400000 0 0 1
-15.401467 -10.241078 18.870154 26.422861 0.586807 0.775373 0.139939 -0.053341 -463195.000000 0 0 1
-16.120767 -9.442078 19.760254 27.193742 0.529845 0.757367 0.113513 -0.049751 267074.000000 0 0 1
-17.582267 -10.042378 20.057754 28.500859 0.518948 0.790121 0.101384 -0.040741 2221360.000000 0 0 1
-18.539967 -9.994378 18.953854 28.334900 0.494415 0.838038 0.092981 -0.035442 822734.000000 0 0 1
-18.977467 -8.635778 18.677954 27.992622 0.427049 0.840292 0.093991 -0.037877 -644427.000000 0 0 1
-19.975667 -8.600078 17.507254 27.919394 0.406543 0.893018 0.116757 -0.040003 991065.000000 0 0 1
-21.289467 -9.059478 17.917454 29.263470 0.402326 0.911855 0.101897 -0.028460 1007270.000000 0 0 1
-22.175767 -9.029878 16.793054 29.245683 0.386694 0.959162 0.106662 -0.019794 328754.000000 0 0 1
-23.685567 -9.185678 17.066554 30.604739 0.369960 0.979251 0.089233 -0.014081 -37872.000000 0 0 1
-24.166667 -8.179878 17.905154 31.169420 0.326373 0.958869 0.109878 -0.012523 436529.000000 0 0 1
-25.586847 -8.218278 17.816254 32.243538 0.310783 0.985372 0.121201 -0.003299 36355.500000 0 0 1
-26.347517 -7.070978 18.453554 32.935149 0.262195 0.976049 0.140554 -0.006368 -226177.000000 0 0 1
-26.421747 -7.178278 19.873154 33.831622 0.265278 0.942937 0.145716 -0.017431 227599.000000 0 0 1
-27.134137 -6.119878 20.508254 34.558686 0.221830 0.935479 0.129155 -0.022534 -580080.000000 0 0 1
-27.210247 -6.009978 22.027454 35.520784 0.217382 0.901890 0.132079 -0.026413 1043830.000000 0 0 1
-25.980287 -5.719478 22.719514 34.983768 0.216690 0.863962 0.144969 -0.029907 1152960.000000 0 0 1
-24.901767 -6.650178 22.640304 34.306067 0.260966 0.850044 0.150810 -0.025072 -189961.000000 0 0 1
-23.831567 -6.492078 23.724994 34.248591 0.265961 0.805530 0.150219 -0.030006 73356.700000 0 0 1
-23.140367 -5.222178 23.706994 33.537580 0.221956 0.785721 0.131866 -0.034182 531483.000000 0 0 1
-22.453867 -4.972178 24.907744 33.901245 0.217923 0.745550 0.128236 -0.031647 141340.000000 0 0 1
-21.824967 -3.561778 25.069624 33.429052 0.161771 0.722832 0.129064 -0.032253 758606.000000 0 0 1
-20.752367 -3.345678 26.029384 33.457183 0.159844 0.679335 0.108751 -0.032289 690891.000000 0 0 1
-21.033367 -3.407278 27.386404 34.699095 0.160599 0.661203 0.118023 -0.041638 53741.100000 0 0 1
-21.939367 -2.266578 27.990844 35.636506 0.102946 0.667367 0.122878 -0.041710 987363.000000 0 0 1
-23.224567 -2.147378 27.382214 35.969117 0.092199 0.705527 0.129367 -0.044373 -66527.000000 0 0 1
-23.980867 -1.138878 27.965234 36.856931 0.047455 0.709403 0.120499 -0.040571 692415.000000 0 0 1
-25.326677 -0.793078 27.240984 37.204042 0.031304 0.749243 0.132855 -0.046402 440434.000000 0 0 1
-25.035347 -0.308278 25.901414 36.024254 0.012313 0.768435 0.119713 -0.047816 1011270.000000 0 0 1
-26.237507 0.200922 25.291854 36.443450 -0.007658 0.803762 0.131331 -0.044064 1142530.000000 0 0 1
-27.279127 -0.840978 24.776164 36.860769 0.030819 0.833680 0.124586 -0.038564 -231039.000000 0 0 1
-28.114057 -1.497978 25.700644 38.120431 0.053232 0.830921 0.092198 -0.038073 114302.000000 0 0 1
-28.658337 -2.654078 25.078604 38.174347 0.092348 0.854031 0.069646 -0.037748 -115647.000000 0 0 1
-27.778827 -3.909478 25.110364 37.649404 0.139818 0.840685 0.110130 -0.040751 -16959.700000 0 0 1
-27.619117 -4.512878 26.358914 38.444428 0.161966 0.815318 0.101503 -0.038610 -208489.000000 0 0 1
-26.690727 -5.576978 26.292044 37.878347 0.205985 0.803602 0.121743 -0.042640 -245124.000000 0 0 1
-26.252377 -5.928878 27.681314 38.608212 0.222115 0.771336 0.094952 -0.030052 529084.000000 0 0 1
-27.409977 -6.232278 28.490344 40.023091 0.223572 0.778671 0.104889 -0.028055 1011440.000000 0 0 1
-27.048367 -6.837278 29.725564 40.767287 0.247593 0.753714 0.107563 -0.025355 -98997.700000 0 0 1
-28.385917 -7.164078 30.411094 42.212782 0.247219 0.766383 0.068413 -0.025417 19252.300000 0 0 1
-29.133297 -8.169878 29.787424 42.459234 0.273408 0.793221 0.049570 -0.021883 -638259.000000 0 0 1
-30.326207 -8.442978 30.438304 43.788732 0.271529 0.802213 0.063360 -0.018110 -715405.000000 0 0 1
-31.208717 -9.437978 29.646004 44.067505 0.293671 0.832890 0.046818 -0.022964 -194508.000000 0 0 1
-30.693507 -10.697178 29.298834 43.760058 0.335352 0.837215 0.050393 -0.025738 94659.300000 0 0 1
-31.708777 -11.252478 28.505294 44.097807 0.341006 0.867926 0.037398 -0.019414 108936.000000 0 0 1
-31.235977 -12.604378 27.886004 43.728547 0.383538 0.879278 0.055906 -0.034450 -131375.000000 0 0 1
-30.391457 -12.409478 26.777074 42.363280 0.387659 0.886559 0.076893 -0.036338 -442011.000000 0 0 1
-29.422347 -13.414078 26.717964 41.945936 0.427762 0.880246 0.083324 -0.040833 -651193.000000 0 0 1
-28.107357 -12.846278 26.166364 40.493567 0.428696 0.868220 0.103120 -0.035622 -687757.000000 0 0 1
-27.309927 -12.073678 27.053134 40.292405 0.416264 0.834673 0.097241 -0.040527 113755.000000 0 0 1
-27.828237 -10.847278 27.644574 40.697625 0.371677 0.824032 0.101148 -0.043426 -894465.000000 0 0 1
-27.830587 -9.561478 26.739564 39.761385 0.330926 0.833214 0.105493 -0.029745 -42247.300000 0 0 1
-26.525037 -9.184278 26.354684 38.503219 0.333330 0.816906 0.115386 -0.030096 162166.000000 0 0 1
-25.984967 -9.832378 25.160804 37.482799 0.361737 0.834885 0.101618 -0.029927 -279161.000000 0 0 1
-26.708547 -9.577978 23.847114 37.064390 0.344325 0.871869 0.113431 -0.023014 -53724.900000 0 0 1
-27.923467 -10.318778 23.757764 38.087118 0.353973 0.897234 0.104316 -0.027816 130781.000000 0 0 1
-28.552097 -10.246778 22.518344 37.779552 0.344564 0.932229 0.125630 -0.020569 -800005.000000 0 0 1
-29.829237 -11.056578 22.289924 38.844202 0.354962 0.959623 0.120569 -0.028545 509176.000000 0 0 1
-31.068497 -10.642878 22.869314 40.019094 0.330033 0.962512 0.120673 -0.028170 527542.000000 0 0 1
-31.042587 -10.526078 24.282714 40.793268 0.326918 0.933204 0.115393 -0.032163 -317596.000000 0 0 1
-32.473687 -10.217278 24.861004 42.154509 0.304826 0.940036 0.059594 -0.031092 265890.000000 0 0 1
-32.918147 -8.936478 24.469964 41.979092 0.265087 0.948493 0.067434 -0.032561 -2982.590000 0 0 1
-34.305553 -8.750478 24.689194 43.162462 0.249749 0.961847 0.062231 -0.026353 478412.000000 0 0 1
-34.990277 -8.756478 26.093834 44.518350 0.245218 0.944514 0.038876 -0.027743 -444349.000000 0 0 1
-34.924585 -10.023078 26.751914 45.120434 0.279481 0.936141 0.035202 -0.035794 -163124.000000 0 0 1
-35.451045 -9.937978 28.025824 46.270799 0.273314 0.920162 0.053507 -0.033546 -827652.000000 0 0 1
-35.855617 -11.404978 28.535104 47.222356 0.307961 0.921946 0.054460 -0.022759 627408.000000 0 0 1
-37.134707 -11.882878 28.103414 48.062367 0.309697 0.946252 0.040438 -0.028103 354008.000000 0 0 1
37.796422 -11.314678 28.839044 48.870051 -0.290868 0.939593 0.060416 -0.022537 532803.000000 0 0 1
36.381132 -11.739478 28.240464 47.528159 -0.312132 0.934546 0.078288 -0.028059 1218170.000000 0 0 1
36.188492 -11.378778 26.857394 46.480137 -0.304643 0.954735 0.071564 -0.022897 -430085.000000 0 0 1
34.986412 -11.992978 26.457304 45.473833 -0.330237 0.949839 0.085567 -0.017616 -275840.000000 0 0 1
34.764052 -11.773478 24.937344 44.373699 -0.326544 0.974013 0.075330 -0.021670 -6457.790000 0 0 1
34.334182 -10.440978 24.701904 43.566433 -0.295213 0.967944 0.087246 -0.034991 -106361.000000 0 0 1
34.258042 -10.130478 23.276814 42.638598 -0.287517 0.993322 0.075019 -0.021931 -182176.000000 0 0 1
34.043222 -8.645878 22.869234 41.912934 -0.248709 0.993648 0.103362 -0.009068 276971.000000 0 0 1
32.674152 -8.251578 22.979374 40.788973 -0.247369 0.972335 0.115978 -0.016186 273415.000000 0 0 1
32.491152 -7.052378 22.419544 40.100460 -0.213740 0.977515 0.132008 -0.007521 20804.500000 0 0 1
31.001472 -6.642478 22.458964 38.853813 -0.211072 0.954475 0.132905 0.004122 -130547.000000 0 0 1
30.220772 -7.312278 21.524254 37.816107 -0.237399 0.965285 0.134303 0.009569 -976689.000000 0 0 1
28.939972 -6.778378 21.566454 36.723021 -0.230075 0.943110 0.139180 -0.007373 -907518.000000 0 0 1
15.763133 -17.348778 24.872054 34.177120 -0.833249 0.755775 0.130272 -0.004629 205090.000000 0 0 1
15.105433 -18.526978 25.313104 34.816321 -0.886783 0.756785 0.124270 -0.013425 534569.000000 0 0 1
16.058533 -19.565778 25.485174 35.919218 -0.883533 0.781989 0.112411 -0.018408 -55577.900000 0 0 1
15.359633 -20.935278 25.764954 36.579188 -0.937827 0.789274 0.091943 -0.024187 848175.000000 0 0 1
14.519233 -21.140178 26.947924 37.200885 -0.968979 0.760648 0.090297 -0.018883 1345820.000000 0 0 1
13.218333 -20.532278 26.867444 36.306450 -0.998804 0.737698 0.092025 -0.019951 375096.000000 0 0 1
12.536833 -20.773478 28.249634 37.239111 -1.027806 0.709633 0.086332 -0.023679 153130.000000 0 0 1
13.214633 -20.083878 29.329164 37.923456 -0.988837 0.686644 0.091091 -0.018022 394699.000000 0 0 1
12.455933 -19.006278 29.848954 37.514649 -0.990663 0.650698 0.086306 -0.016689 361799.000000 0 0 1
12.220333 -17.676678 28.992554 36.088359 -0.965916 0.637852 0.101264 -0.013308 -31239.900000 0 0 1
13.411233 -16.955778 28.990154 36.163360 -0.901596 0.640755 0.097336 -0.002285 -539171.000000 0 0 1
13.295533 -15.744778 28.240994 34.960305 -0.869539 0.630383 0.111481 -0.006358 -378992.000000 0 0 1
14.397733 -14.750578 28.501154 35.173712 -0.797503 0.626138 0.098954 0.000268 -394095.000000 0 0 1
13.988533 -13.394678 28.190124 34.202040 -0.763715 0.601967 0.136142 -0.011666 655062.000000 0 0 1
14.822933 -12.406078 28.849474 34.726391 -0.696870 0.590316 0.127712 -0.011161 64954.800000 0 0 1
14.178333 -11.025978 28.787204 33.930818 -0.660972 0.557824 0.119562 -0.012343 -73391.400000 0 0 1
14.358633 -10.148278 27.650754 32.767698 -0.615256 0.566393 0.155156 -0.022861 982065.000000 0 0 1
15.735033 -9.955778 27.252794 33.006417 -0.564127 0.599387 0.143306 -0.032208 718930.000000 0 0 1
15.999033 -8.659178 26.372564 32.038454 -0.496086 0.603854 0.135957 -0.023406 -172847.000000 0 0 1
16.281833 -7.455278 27.046554 32.437560 -0.429395 0.584834 0.135534 -0.037422 1247920.000000 0 0 1
17.634033 -7.373978 27.575084 33.551750 -0.396069 0.606115 0.129553 -0.042940 678683.000000 0 0 1
18.104533 -5.903278 27.665604 33.585837 -0.315196 0.602841 0.121690 -0.046659 -454223.000000 0 0 1
19.491733 -5.762378 27.798824 34.437004 -0.287445 0.631341 0.098506 -0.053901 -468892.000000 0 0 1
19.915033 -4.579978 27.198874 34.020045 -0.226046 0.644341 0.097330 -0.047956 428344.000000 0 0 1
21.419533 -4.606978 26.766174 34.589719 -0.211856 0.685948 0.094814 -0.042430 -304457.000000 0 0 1
21.644133 -5.591778 25.741194 34.093189 -0.252823 0.715105 0.102966 -0.038122 1960270.000000 0 0 1
22.992633 -5.592678 25.126254 34.514748 -0.238604 0.755417 0.102010 -0.033444 2183000.000000 0 0 1
24.203233 -5.808778 26.068614 36.043182 -0.235545 0.762284 0.085714 -0.031407 -607188.000000 0 0 1
24.688833 -4.712978 26.843194 36.773736 -0.188626 0.752539 0.085244 -0.036147 -612255.000000 0 0 1
25.625333 -5.160478 27.747734 38.121188 -0.198724 0.755568 0.094747 -0.046931 -722578.000000 0 0 1
26.208433 -3.982178 28.531024 38.945590 -0.150789 0.748682 0.091660 -0.035542 -309111.000000 0 0 1
27.026633 -3.156478 27.734304 38.853492 -0.116265 0.775862 0.080381 -0.035048 37177.300000 0 0 1
27.083133 -1.876578 28.343234 39.247376 -0.069179 0.763864 0.076268 -0.041178 -130492.000000 0 0 1
28.069433 -0.948678 27.589484 39.369692 -0.033785 0.794306 0.088777 -0.040904 416909.000000 0 0 1
29.416333 -1.392978 27.564114 40.336601 -0.047319 0.818452 0.105117 -0.042343 408933.000000 0 0 1
30.165133 -0.757178 26.488464 40.151554 -0.025096 0.850361 0.114744 -0.030580 -219729.000000 0 0 1
31.669733 -0.930078 26.621714 41.383000 -0.029360 0.871995 0.115470 -0.036069 -676150.000000 0 0 1
32.225733 0.023922 27.490074 42.358028 0.000742 0.864536 0.111958 -0.035521 -167330.000000 0 0 1
33.617333 -0.201778 27.608064 43.501390 -0.006002 0.883244 0.125641 -0.048910 -79297.600000 0 0 1
34.198133 0.966222 28.431984 44.483970 0.028246 0.877402 0.128389 -0.040424 -254929.000000 0 0 1
34.058933 2.260122 27.830034 44.041229 0.066262 0.886783 0.138683 -0.032481 187292.000000 0 0 1
34.218333 3.262822 28.851114 44.876799 0.095066 0.872523 0.129139 -0.026311 -124175.000000 0 0 1
34.399333 4.658622 28.243784 44.751851 0.134609 0.887800 0.139183 -0.031634 -170351.000000 0 0 1
34.520833 5.734722 29.156794 45.548804 0.164620 0.876139 0.137915 -0.023555 111548.000000 0 0 1
33.289433 6.071522 29.755864 45.060638 0.180403 0.849509 0.126988 -0.015896 -212429.000000 0 0 1
33.370233 7.165822 30.853264 46.009187 0.211525 0.835794 0.100721 -0.013885 114437.000000 0 0 1
34.049733 6.606222 31.980056 47.177860 0.191636 0.825946 0.111006 -0.012465 232815.000000 0 0 1
34.159933 7.569622 33.003585 48.098199 0.218070 0.814584 0.112300 -0.020302 -82667.400000 0 0 1
34.401533 7.044222 -32.918813 48.132471 0.201973 2.323920 0.123075 -0.021438 59666.300000 0 0 1
33.351233 6.284122 -32.350423 46.886509 0.186239 2.332248 0.091044 -0.021993 9617.410000 0 0 1
33.230633 4.954022 -32.860583 46.996119 0.147990 2.345101 0.104254 -0.016739 154712.000000 0 0 1
33.959533 3.891122 -31.950093 46.788878 0.114084 2.322462 0.105310 -0.025093 139359.000000 0 0 1
33.883633 2.569222 -32.376623 46.935564 0.075680 2.332023 0.100093 -0.036120 -62299.000000 0 0 1
34.431933 1.733322 -31.416813 46.643097 0.050298 2.309808 0.084106 -0.030596 -166462.000000 0 0 1
34.507833 0.233222 -31.814273 46.936051 0.006758 2.315592 0.072107 -0.042863 -324714.000000 0 0 1
35.563433 -0.150678 -32.677933 48.297285 -0.004237 2.313931 0.091095 -0.038869 53190.400000 0 0 1
36.076333 -1.483578 -32.457633 48.551011 -0.041100 2.303022 0.087066 -0.036360 661544.000000 0 0 1
36.803433 -1.841578 -31.118843 48.231384 -0.049997 2.272080 0.090149 -0.034538 -381098.000000 0 0 1
35.908533 -1.745178 -30.068353 46.867624 -0.048562 2.267325 0.087746 -0.031806 -444560.000000 0 0 1
36.556733 -1.488578 -28.871303 46.606466 -0.040697 2.238864 0.115557 -0.034541 -29.446300 0 0 1
35.505233 -1.046278 -27.826503 45.122395 -0.029460 2.235327 0.118665 -0.032557 -267497.000000 0 0 1
35.228033 0.315722 -27.953573 44.972394 0.008962 2.241544 0.093536 -0.024787 310350.000000 0 0 1
34.326133 0.732822 -26.941763 43.642628 0.021346 2.236136 0.079767 -0.016551 -178641.000000 0 0 1
34.147533 2.262522 -26.819573 43.479449 0.066161 2.235509 0.058528 -0.021576 -305558.000000 0 0 1
33.371633 2.757922 -27.874603 43.569089 0.082455 2.265007 0.081708 -0.031340 261882.000000 0 0 1
32.461233 3.732122 -27.407083 42.647492 0.114469 2.268738 0.069902 -0.015926 89186.900000 0 0 1
31.330933 4.136222 -28.401303 42.489642 0.131258 2.302891 0.086767 -0.019943 -801920.000000 0 0 1
30.264833 4.787322 -27.854693 41.409690 0.156881 2.308596 0.082017 -0.020547 -774326.000000 0 0 1
29.525933 5.381522 -28.871073 41.644691 0.180285 2.336815 0.067352 -0.025434 -736682.000000 0 0 1
28.283733 6.117722 -28.411913 40.554073 0.213017 2.347025 0.060308 -0.022540 -182374.000000 0 0 1
27.129233 5.397522 -27.962703 39.332445 0.196391 2.361619 0.088708 -0.031741 517763.000000 0 0 1
26.263133 6.270022 -27.297313 38.395424 0.234352 2.361648 0.102706 -0.029588 -535397.000000 0 0 1
24.904933 5.592222 -27.031823 37.178597 0.220879 2.384856 0.132389 -0.026935 -123595.000000 0 0 1
24.156433 5.414022 -28.234833 37.550641 0.220480 2.421756 0.144912 -0.024441 -165345.000000 0 0 1
22.911433 4.841522 -27.958433 36.469824 0.208251 2.444354 0.134053 -0.013170 69570.700000 0 0 1
22.046033 4.299022 -29.165733 36.812350 0.192585 2.485335 0.129652 -0.007112 506819.000000 0 0 1
22.489333 2.965122 -29.576763 37.273944 0.131090 2.487330 0.121863 -0.017637 285590.000000 0 0 1
21.933033 2.406022 -30.791973 37.881294 0.109262 2.519832 0.078767 -0.014916 -32030.800000 0 0 1
21.931433 3.234122 -32.155563 39.056721 0.146410 2.538004 0.097533 -0.014926 893586.000000 0 0 1
23.242133 3.308722 -32.738703 40.286065 0.141409 2.519491 0.094205 -0.019923 708475.000000 0 0 1
23.140633 3.853522 33.328434 40.756877 0.165012 0.613327 0.092177 -0.018424 -838921.000000 0 0 1
24.408033 3.571622 32.596892 40.878673 0.145299 0.647812 0.077824 -0.014589 -867018.000000 0 0 1
24.621433 2.215122 32.417612 40.767920 0.089726 0.651501 0.102944 -0.027437 146769.000000 0 0 1
25.966233 1.899922 32.078740 41.314652 0.073039 0.681784 0.088891 -0.026672 188354.000000 0 0 1
26.312033 0.380422 31.945494 41.388191 0.014457 0.689050 0.078921 -0.024572 -687094.000000 0 0 1
25.833333 -0.232078 30.749654 40.161625 -0.008983 0.698749 0.078841 -0.030686 425747.000000 0 0 1
24.449333 -0.548078 30.653684 39.213755 -0.022413 0.673397 0.095964 -0.038059 92399.500000 0 0 1
23.927733 -1.627478 31.607522 39.676448 -0.067912 0.649094 0.092611 -0.049772 -687992.000000 0 0 1
24.427133 -2.907678 31.277382 39.792135 -0.118477 0.666453 0.088849 -0.052922 58707.200000 0 0 1
23.594133 -3.939278 31.750322 39.752785 -0.165434 0.645674 0.108698 -0.050750 -155417.000000 0 0 1
23.757833 -5.326578 31.086394 39.486338 -0.220556 0.664428 0.110000 -0.056172 -263037.000000 0 0 1
25.021633 -5.925078 31.233684 40.456540 -0.232515 0.688767 0.101160 -0.049376 -528321.000000 0 0 1
25.048433 -7.265578 30.870624 40.412968 -0.282314 0.701494 0.124178 -0.063190 -631102.000000 0 0 1
26.377533 -7.971078 30.631254 41.201772 -0.293467 0.732589 0.100654 -0.056182 -386026.000000 0 0 1
27.048233 -7.506878 29.481144 40.707468 -0.270723 0.760894 0.117887 -0.052642 -779157.000000 0 0 1
28.151333 -8.309678 29.200504 41.403112 -0.287028 0.787988 0.104644 -0.044593 -343490.000000 0 0 1
28.501133 -8.059478 27.731504 40.574697 -0.275582 0.818293 0.105672 -0.045413 -378586.000000 0 0 1
27.646933 -8.665478 26.809224 39.473762 -0.303735 0.824171 0.105065 -0.045805 -484082.000000 0 0 1
27.974733 -8.492378 25.435274 38.751249 -0.294732 0.854795 0.118500 -0.041346 -49882.300000 0 0 1
26.881333 -9.033178 24.517604 37.487561 -0.324184 0.857910 0.105789 -0.030779 -69628.200000 0 0 1
25.626333 -8.380878 24.457134 36.401915 -0.316077 0.834074 0.105023 -0.024118 -243477.000000 0 0 1
24.801133 -9.191978 23.675764 35.498316 -0.354932 0.840682 0.121968 -0.026505 338918.000000 0 0 1
23.357033 -8.628978 23.419024 34.182758 -0.353886 0.816039 0.085794 -0.020369 334838.000000 0 0 1
22.525833 -8.914078 24.506754 34.459468 -0.376817 0.779626 0.071588 -0.023613 -719870.000000 0 0 1
21.231633 -8.569878 24.103914 33.244905 -0.383638 0.759703 0.086947 -0.013318 202299.000000 0 0 1
20.062133 -8.600578 25.166254 33.313652 -0.404998 0.714481 0.073278 -0.020994 578111.000000 0 0 1
19.497433 -9.868078 25.464444 33.555428 -0.468533 0.709209 0.094623 -0.023663 174786.000000 0 0 1
20.301733 -10.608978 26.372904 34.931945 -0.481536 0.715173 0.084048 -0.031716 64695.900000 0 0 1
19.519033 -11.596578 27.281944 35.493347 -0.536082 0.694069 0.083832 -0.027023 102126.000000 0 0 1
18.920333 -12.747578 26.711124 35.127822 -0.592891 0.706871 0.102459 -0.020257 -47530.100000 0 0 1
18.291733 -13.441378 27.707774 35.818694 -0.633724 0.686363 0.105753 -0.018129 -762473.000000 0 0 1
18.797933 -14.836278 27.913304 36.778118 -0.668152 0.709074 0.115489 -0.009136 -166420.000000 0 0 1
17.821133 -15.820878 28.279604 36.981467 -0.726011 0.700226 0.103674 -0.000794 387096.000000 0 0 1
18.344933 -17.104978 28.649064 38.077364 -0.750435 0.719112 0.097421 -0.000243 -101703.000000 0 0 1
18.951333 -17.976478 27.534554 37.953372 -0.759005 0.759059 0.108943 -0.016616 986573.000000 0 0 1
20.232433 -17.498678 27.057014 38.047826 -0.713071 0.779690 0.101632 -0.018459 948770.000000 0 0 1
20.783933 -18.389078 26.120354 38.110404 -0.724339 0.815662 0.092145 -0.015307 -276022.000000 0 0 1
21.951733 -17.768478 25.341484 37.944541 -0.680467 0.839472 0.095066 -0.026485 815044.000000 0 0 1
23.202233 -17.785878 26.074844 39.173697 -0.654015 0.842470 0.085349 -0.016028 1343150.000000 0 0 1
24.308033 -17.512178 25.182164 39.136916 -0.624305 0.871816 0.074966 -0.018781 440225.000000 0 0 1
25.612133 -17.134178 25.962984 40.294391 -0.589607 0.870646 0.081464 -0.022993 368593.000000 0 0 1
26.216733 -18.252878 26.567584 41.549021 -0.608191 0.877043 0.081373 -0.019822 663986.000000 0 0 1
27.182533 -18.814778 25.618914 41.823614 -0.605448 0.911518 0.079695 -0.030816 -136083.000000 0 0 1
27.810633 -20.120878 26.086004 43.113346 -0.626322 0.920960 0.077016 -0.023427 348494.000000 0 0 1
28.725933 -19.896478 27.186904 44.273884 -0.605763 0.909600 0.072299 -0.023108 349082.000000 0 0 1
29.248333 -21.088178 27.746974 45.498030 -0.624684 0.914925 0.067375 -0.015202 -161878.000000 0 0 1
28.294433 -22.116878 28.407154 45.789711 -0.663463 0.901566 0.065968 -0.011549 -14689.000000 0 0 1
28.082933 -21.887478 29.777994 46.415964 -0.662045 0.874284 0.067890 -0.013647 22290.200000 0 0 1
27.376933 -22.986978 30.365784 46.903928 -0.698453 0.866623 0.080496 -0.015034 -133772.000000 0 0 1
26.959533 -22.904378 31.825729 47.584703 -0.704252 0.838172 0.062836 -0.012936 -48173.800000 0 0 1
26.627233 -24.166378 32.349863 48.368760 -0.736988 0.838180 0.060986 -0.015588 -47189.900000 0 0 1
26.512533 -24.009178 -33.649593 49.108554 -0.735889 2.325686 0.066240 -0.012528 -348895.000000 0 0 1
26.160733 -25.289468 -32.890313 49.048076 -0.768466 2.305777 0.066257 -0.018139 708180.000000 0 0 1
24.936333 -26.017878 -33.119873 48.945650 -0.806621 2.314022 0.087955 -0.029992 381460.000000 0 0 1
24.687933 -26.530138 32.988638 49.006045 -0.821351 0.832330 0.080629 -0.027275 61293.100000 0 0 1
23.287333 -27.155168 32.746939 48.498093 -0.861927 0.829532 0.097116 -0.033274 344773.000000 0 0 1
23.172233 -28.480668 33.183175 49.489634 -0.887810 0.835904 0.096293 -0.039172 888771.000000 0 0 1
21.817233 -28.982598 33.177272 49.160085 -0.925525 0.829991 0.109640 -0.045281 655330.000000 0 0 1
21.751033 -30.526858 33.380544 50.192202 -0.951716 0.843230 0.085512 -0.044438 -6300.320000 0 0 1
22.278733 -31.055238 -32.765293 50.342171 -0.948494 2.279502 0.061498 -0.044832 392478.000000 0 0 1
23.653533 -31.394278 -32.840563 51.221020 -0.925101 2.266797 0.042360 -0.027023 -108134.000000 0 0 1
24.181333 -32.123548 -31.603253 51.141224 -0.925531 2.236942 0.039261 -0.030984 35975.800000 0 0 1
25.465033 -32.743638 -31.695173 52.203426 -0.909796 2.223262 0.036861 -0.018392 695376.000000 0 0 1
25.977033 -33.237458 -30.447053 52.024589 -0.907402 2.195977 0.032460 -0.007414 425891.000000 0 0 1
26.774933 -32.286238 -29.503953 51.281394 -0.878444 2.183809 0.027026 -0.011327 -106318.000000 0 0 1
27.177133 -32.873258 -28.274833 51.173370 -0.879971 2.156193 0.062995 -0.008071 96642.000000 0 0 1
27.809433 -31.900778 -27.446593 50.441448 -0.853811 2.146145 0.074082 -0.003544 -358813.000000 0 0 1
28.229933 -32.460268 -26.032153 50.281916 -0.854989 2.114985 0.095277 -0.011046 583425.000000 0 0 1
29.290233 -33.417968 -25.967153 51.468158 -0.851128 2.099632 0.094924 0.004862 -133701.000000 0 0 1
30.560433 -32.822428 -25.897273 51.787263 -0.821071 2.094476 0.106747 -0.009216 -243841.000000 0 0 1
-28.042327 -30.296749 8.817987 42.214003 0.824022 1.360359 0.102922 -0.012413 97368.900000 0 0 1
-27.966107 -31.573749 9.451087 43.224158 0.845916 1.350363 0.099280 -0.014346 446096.000000 0 0 1
-26.672217 -31.686849 10.068187 42.624312 0.871115 1.332335 0.081538 -0.008461 699741.000000 0 0 1
-26.614857 -32.571349 11.318387 43.558573 0.885700 1.307937 0.073369 -0.008081 -37267.700000 0 0 1
-26.779817 33.568822 11.225487 44.385087 -0.897424 1.315108 0.085713 0.005046 -291317.000000 0 0 1
-28.109747 33.142122 11.080487 44.847913 -0.867373 1.321143 0.064021 -0.010790 -392517.000000 0 0 1
-28.229837 31.654222 10.788887 43.764296 -0.842520 1.321706 0.077846 -0.011987 40535.900000 0 0 1
-27.665707 31.326022 9.496587 42.859027 -0.847367 1.347365 0.124464 -0.027110 214641.000000 0 0 1
-27.604727 29.901222 9.381487 41.762619 -0.825312 1.344224 0.139516 -0.027098 14870.800000 0 0 1
-27.102847 29.481922 7.985087 40.835152 -0.827418 1.373984 0.121766 -0.018467 -365598.000000 0 0 1
-25.710747 29.606322 7.912787 40.002363 -0.855705 1.371675 0.111092 -0.011769 -436911.000000 0 0 1
-25.313247 29.264322 6.595187 39.251210 -0.857666 1.401970 0.108224 -0.003313 112385.000000 0 0 1
-23.806667 28.950722 6.361487 38.018025 -0.882595 1.402677 0.102250 -0.007370 389196.000000 0 0 1
-23.388567 27.622122 6.734787 36.815269 -0.868202 1.386826 0.105719 -0.014520 298397.000000 0 0 1
-23.778067 26.666422 5.698987 36.179732 -0.842594 1.412619 0.097006 -0.021583 -375600.000000 0 0 1
-23.946167 25.214822 6.155387 35.314232 -0.811199 1.395598 0.110436 -0.026268 -430503.000000 0 0 1
-24.941267 25.082422 7.146687 36.086976 -0.788220 1.371438 0.143233 -0.033914 205455.000000 0 0 1
-25.161707 23.779922 7.594087 35.443848 -0.757172 1.354865 0.165597 -0.047327 -180058.000000 0 0 1
-25.750117 22.725522 6.652387 34.982455 -0.723085 1.379468 0.159472 -0.049118 -658614.000000 0 0 1
-27.042047 22.927122 6.134587 35.979972 -0.703234 1.399459 0.147304 -0.050483 -80964.600000 0 0 1
-27.310037 22.103722 5.024787 35.491705 -0.680424 1.428743 0.127545 -0.037106 76186.200000 0 0 1
-27.510867 22.825922 3.709387 35.939255 -0.692594 1.467399 0.120220 -0.040238 8815.200000 0 0 1
-26.312177 23.503822 3.408087 35.445386 -0.729083 1.474497 0.114394 -0.039476 185708.000000 0 0 1
-26.356657 24.135622 2.140487 35.802002 -0.741439 1.510974 0.096297 -0.030090 881717.000000 0 0 1
-25.027797 24.974022 1.983487 35.412238 -0.784323 1.514756 0.084650 -0.023226 972505.000000 0 0 1
-24.626467 25.407022 0.687487 35.390003 -0.800998 1.551369 0.067236 -0.021033 97936.300000 0 0 1
-23.369667 26.066722 0.719987 35.016192 -0.839900 1.550233 0.085878 -0.021649 411116.000000 0 0 1
-22.815267 26.600322 -0.704913 35.051540 -0.861845 1.590908 0.116660 -0.024635 335011.000000 0 0 1
-22.418467 25.575622 -1.639513 34.049789 -0.851086 1.618965 0.109012 -0.027776 497278.000000 0 0 1
-21.267567 24.764822 -1.402913 32.673751 -0.861226 1.613747 0.110075 -0.046869 183409.000000 0 0 1
-21.074067 23.547322 -2.289713 31.683363 -0.840769 1.643128 0.122621 -0.060145 -65348.400000 0 0 1
-22.100767 22.601522 -2.090713 31.680338 -0.796600 1.636838 0.101666 -0.039019 -266903.000000 0 0 1
-21.917867 21.447322 -2.952113 30.807393 -0.774548 1.666768 0.102933 -0.038605 87051.000000 0 0 1
-23.004367 21.280822 -4.056613 31.599532 -0.746499 1.699527 0.098618 -0.027564 118632.000000 0 0 1
-22.808167 22.151022 -5.150413 32.208803 -0.770783 1.731393 0.108426 -0.027679 -139441.000000 0 0 1
-23.912167 22.101622 -6.015213 33.112780 -0.746071 1.753469 0.127730 -0.026898 -79587.400000 0 0 1
-23.659267 22.677222 -7.398113 33.596866 -0.764208 1.792818 0.139272 -0.030804 157127.000000 0 0 1
-22.782967 21.822622 -8.150913 32.584165 -0.763872 1.823631 0.102300 -0.035862 419815.000000 0 0 1
-22.321867 22.486622 -9.270813 33.013056 -0.789075 1.855447 0.108594 -0.039679 -279808.000000 0 0 1
-22.071467 21.601822 -10.492213 32.617095 -0.774645 1.898298 0.093790 -0.031573 144786.000000 0 0 1
-23.286867 21.222022 -11.087513 33.400379 -0.739040 1.909175 0.072618 -0.030048 213487.000000 0 0 1
-22.879067 20.754122 -12.373513 33.275954 -0.736736 1.951793 0.054117 -0.018217 375268.000000 0 0 1
-24.062867 20.591722 -13.364913 34.375303 -0.707821 1.970119 0.047670 -0.032652 76403.300000 0 0 1
-24.886367 19.517222 -13.047613 34.212475 -0.665065 1.962074 0.065349 -0.027013 -794567.000000 0 0 1
-26.094997 19.569122 -13.718613 35.385021 -0.643449 1.968927 0.073112 -0.033453 136744.000000 0 0 1
-27.014377 18.277222 -13.585413 35.332660 -0.594830 1.965463 0.125258 -0.039452 444784.000000 0 0 1
-26.575547 17.341722 -14.563613 34.915524 -0.578162 2.001059 0.120963 -0.033886 395734.000000 0 0 1
-27.263547 16.090522 -14.507013 34.823258 -0.533171 2.000487 0.135110 -0.038655 -80942.000000 0 0 1
-26.817067 15.212922 -15.712813 34.604632 -0.516017 2.042121 0.143389 -0.029902 559083.000000 0 0 1
-25.493277 14.683522 -15.633813 33.315598 -0.522568 2.059254 0.145836 -0.031164 462534.000000 0 0 1
-25.037517 14.382022 -16.964713 33.489122 -0.521397 2.102003 0.142231 -0.043183 -83621.200000 0 0 1
-24.102667 13.195322 -16.997613 32.310585 -0.500893 2.124769 0.134093 -0.038593 111122.000000 0 0 1
-22.825467 13.336422 -16.391113 31.105155 -0.528779 2.125814 0.133839 -0.045789 447456.000000 0 0 1
-22.037267 12.165122 -16.617413 30.162389 -0.504397 2.154276 0.124399 -0.033534 275427.000000 0 0 1
-20.802167 12.097022 -15.686413 28.725105 -0.526726 2.148483 0.126084 -0.039888 281555.000000 0 0 1
-19.857367 13.137322 -15.861913 28.609518 -0.584476 2.158472 0.108703 -0.031370 -337654.000000 0 0 1
-18.771167 13.080822 -15.010713 27.363956 -0.608614 2.151435 0.098342 -0.019149 -1371930.000000 0 0 1
-17.863367 14.232322 -15.182213 27.425507 -0.672745 2.157453 0.096244 -0.008836 -921666.000000 0 0 1
-17.054967 13.977622 -16.329113 27.438763 -0.686556 2.208200 0.122959 -0.024675 404218.000000 0 0 1
-16.476967 15.183222 -16.843213 28.030599 -0.744557 2.215406 0.114514 -0.010794 41610.600000 0 0 1
-15.683267 15.132322 -18.195713 28.390773 -0.767521 2.266470 0.140299 -0.022809 -92910.200000 0 0 1
-14.413567 14.547922 -18.081813 27.319314 -0.790037 2.294106 0.132964 -0.018173 -285467.000000 0 0 1
-13.650967 14.810822 -19.251813 27.862908 -0.826127 2.333596 0.166475 -0.021058 642267.000000 0 0 1
-12.517067 13.721522 -19.391913 26.851507 -0.831270 2.377761 0.156681 -0.021824 540646.000000 0 0 1
-12.826067 12.653222 -20.228813 27.089055 -0.778615 2.413962 0.173173 -0.020367 364211.000000 0 0 1
-11.773467 11.673422 -20.094513 26.051348 -0.781131 2.451744 0.153057 -0.005703 625122.000000 0 0 1
-12.123267 10.281822 -20.671913 26.077144 -0.703394 2.486057 0.170976 -0.033505 -122370.000000 0 0 1
-12.004267 10.361222 -22.097713 27.198644 -0.712066 2.519149 0.178852 -0.048428 69790.400000 0 0 1
-12.259467 9.109322 -22.728513 27.383564 -0.639034 2.549914 0.175826 -0.022609 11491.300000 0 0 1
-12.149967 9.155622 -24.265913 28.640559 -0.645770 2.581596 0.155280 -0.039479 110218.000000 0 0 1
-10.822767 9.340622 -24.779613 28.607843 -0.712023 2.618308 0.160527 -0.038593 493574.000000 0 0 1
-10.615667 8.612522 -25.991973 29.367509 -0.681595 2.657417 0.148963 -0.043098 -71365.500000 0 0 1
-9.941667 9.484722 -27.108733 30.392106 -0.761881 2.672472 0.170401 -0.052270 -47044.700000 0 0 1
-8.559267 9.697922 -27.047563 29.981351 -0.847685 2.695515 0.146994 -0.047287 -312613.000000 0 0 1
-8.237367 10.806722 -26.263983 29.570868 -0.919505 2.664145 0.123091 -0.033356 634369.000000 0 0 1
-6.745367 11.315322 -26.390213 29.495420 -1.033230 2.678606 0.112327 -0.037655 837987.000000 0 0 1
-6.434467 11.885622 -27.659613 30.785135 -1.074606 2.687075 0.106062 -0.051467 -205004.000000 0 0 1
-5.130367 12.392922 -27.683893 30.762040 -1.178300 2.690421 0.119508 -0.048028 -551925.000000 0 0 1
-4.670167 12.863722 -29.032453 32.096248 -1.222544 2.701104 0.119126 -0.040389 -515909.000000 0 0 1
-3.275867 12.996622 -29.040513 31.984291 -1.323884 2.709191 0.135763 -0.047946 1960.900000 0 0 1
-2.679367 12.897022 -30.355553 33.090357 -1.365959 2.732177 0.132245 -0.045984 -292837.000000 0 0 1
-1.185467 12.637322 -30.381093 32.925948 -1.477263 2.745848 0.163658 -0.060655 -990702.000000 0 0 1
-0.734567 11.409122 -29.859173 31.973080 -1.506501 2.775924 0.132772 -0.041416 381432.000000 0 0 1
0.674833 11.249522 -29.989133 32.036779 1.510880 2.782126 0.146940 -0.050181 580346.000000 0 0 1
1.217833 10.674622 -31.320183 33.111697 1.457201 2.811138 0.159073 -0.043127 -307498.000000 0 0 1
1.155533 11.625322 -32.389823 34.432310 1.471724 2.795428 0.162315 -0.049625 62023.900000 0 0 1
1.551233 10.994022 -33.580053 35.367991 1.430624 2.822268 0.176971 -0.048257 -170425.000000 0 0 1
2.041733 12.032422 32.720479 34.922451 1.402711 0.357008 0.172678 -0.056200 487338.000000 0 0 1
3.390333 12.481622 32.928989 35.378009 1.305570 0.374268 0.170931 -0.059150 364321.000000 0 0 1
3.765033 13.228322 31.793438 34.640823 1.293510 0.408286 0.166335 -0.060895 -517087.000000 0 0 1
5.269833 13.376722 31.623285 34.738163 1.195512 0.426709 0.162744 -0.058129 -607969.000000 0 0 1
5.875433 12.170422 31.227054 34.026001 1.121033 0.408442 0.167534 -0.060686 -213087.000000 0 0 1
7.257133 12.306822 31.009164 34.142233 1.037997 0.431750 0.164298 -0.048271 -182297.000000 0 0 1
7.985533 11.046222 30.566434 33.467815 0.944853 0.419462 0.135918 -0.037409 -145107.000000 0 0 1
7.573333 10.502822 29.313874 32.046339 0.946065 0.415947 0.115765 -0.034180 23698.400000 0 0 1
8.414833 9.454722 28.861854 31.515199 0.843526 0.413283 0.116129 -0.019039 184436.000000 0 0 1
7.749833 8.613022 27.770944 30.091018 0.838102 0.395256 0.103205 -0.019425 353479.000000 0 0 1
6.834033 7.601722 28.230294 30.023985 0.838528 0.347409 0.105005 -0.023754 178657.000000 0 0 1
6.306333 6.907822 27.165694 28.730868 0.830885 0.331599 0.136140 -0.029630 -456199.000000 0 0 1
5.434433 5.720222 27.520454 28.629170 0.811013 0.279211 0.141941 -0.040542 77253.400000 0 0 1
6.182433 4.667322 28.161514 29.207486 0.646651 0.268431 0.112072 -0.033577 282464.000000 0 0 1
5.305033 3.823322 28.895404 29.626095 0.624482 0.222557 0.110866 -0.037487 -435898.000000 0 0 1
5.943533 2.647022 29.682284 30.387008 0.418990 0.215786 0.102958 -0.028990 22849.600000 0 0 1
6.313433 1.472022 28.974784 29.691150 0.229065 0.220113 0.107258 -0.025792 34059.800000 0 0 1
7.392133 1.591922 28.060904 29.061868 0.212114 0.263219 0.119210 -0.026340 -62663.800000 0 0 1
7.802033 0.219922 27.438694 28.527215 0.028180 0.277137 0.132921 -0.030178 -45427.400000 0 0 1
8.275633 -0.743178 28.341224 29.534105 -0.089563 0.285184 0.104728 -0.033197 29960.800000 0 0 1
8.456833 -1.991978 27.725904 29.055322 -0.231330 0.303671 0.127210 -0.031413 -443054.000000 0 0 1
8.811833 -3.197978 28.663324 30.157281 -0.348137 0.316080 0.106853 -0.027013 778015.000000 0 0 1
10.154933 -3.174178 29.129624 31.011821 -0.302953 0.350191 0.083222 -0.031246 490821.000000 0 0 1
11.202133 -3.646278 28.306724 30.660296 -0.314683 0.394374 0.120704 -0.037860 839831.000000 0 0 1
12.587533 -3.727778 29.064364 31.891685 -0.287920 0.424254 0.104787 -0.037765 543900.000000 0 0 1
13.656433 -4.188278 28.291544 31.693079 -0.297582 0.467556 0.122375 -0.041659 -414656.000000 0 0 1
14.186333 -5.388378 28.861504 32.607868 -0.362997 0.484069 0.142408 -0.045270 -208222.000000 0 0 1
13.493733 -6.739178 28.537174 32.277974 -0.463192 0.486217 0.149814 -0.040295 -302053.000000 0 0 1
12.091133 -6.751578 28.651734 31.822966 -0.509262 0.450228 0.156719 -0.041510 -394895.000000 0 0 1
11.566333 -8.045878 28.590424 31.873634 -0.607786 0.457877 0.187678 -0.033628 -235696.000000 0 0 1
10.092733 -8.131778 28.204954 31.040433 -0.678211 0.430752 0.195436 -0.037151 -317053.000000 0 0 1
9.191733 -7.536578 29.093924 31.428400 -0.686776 0.387859 0.220220 -0.047197 -369708.000000 0 0 1
7.889033 -7.490178 28.545234 30.547831 -0.759469 0.364102 0.215883 -0.038280 -25152.700000 0 0 1
6.856433 -7.056778 29.586174 31.179327 -0.799797 0.321053 0.180081 -0.046613 -354150.000000 0 0 1
6.665433 -8.100478 30.526624 32.278793 -0.882280 0.331001 0.198646 -0.062904 697642.000000 0 0 1
5.715633 -7.643778 31.563500 32.974995 -0.928737 0.293646 0.190044 -0.052642 569832.000000 0 0 1
6.196133 -6.744778 32.714606 33.972482 -0.827769 0.272973 0.177786 -0.024045 -332307.000000 0 0 1
6.424633 -5.485278 32.153577 33.244799 -0.706689 0.256924 0.175396 -0.029733 -147474.000000 0 0 1
6.746433 -4.506478 33.097429 34.077302 -0.588911 0.240388 0.139247 -0.015462 193069.000000 0 0 1
7.210233 -3.173278 32.509616 33.450445 -0.414597 0.237735 0.124093 -0.034851 1078260.000000 0 0 1
6.052233 -2.477778 31.979866 32.641702 -0.388583 0.201716 0.134340 -0.035302 1105140.000000 0 0 1
6.464933 -1.384878 31.183334 31.876536 -0.211025 0.208929 0.105181 -0.020975 -220555.000000 0 0 1
5.209133 -0.793078 30.544094 30.995253 -0.151087 0.170829 0.147557 -0.032216 -409661.000000 0 0 1
4.400533 -0.279578 31.546269 31.852942 -0.063447 0.138876 0.135522 -0.022680 -636155.000000 0 0 1
3.233033 0.324822 31.025124 31.194812 0.100134 0.104351 0.140462 -0.033180 -288394.000000 0 0 1
2.116333 0.535622 32.009723 32.084079 0.247884 0.068094 0.129256 -0.035196 -421772.000000 0 0 1
2.410833 1.702722 32.805051 32.937558 0.614928 0.089729 0.127822 -0.029880 602206.000000 0 0 1
1.427333 2.008422 -33.549323 33.639680 0.952943 3.068282 0.112388 -0.036747 584725.000000 0 0 1
1.976133 3.074522 -32.589703 32.794001 0.999538 3.029912 0.107792 -0.036030 -844410.000000 0 0 1
2.979833 2.608622 -31.798553 32.044223 0.719071 3.017686 0.091962 -0.018130 -1040850.000000 0 0 1
3.596833 3.684022 -31.132523 31.555399 0.797373 2.977696 0.084285 -0.025440 -160811.000000 0 0 1
4.552733 3.310422 -30.002983 30.526468 0.628702 2.956132 0.093927 -0.018279 77217.700000 0 0 1
3.800233 2.962022 -28.849123 29.248713 0.662073 2.976105 0.104109 -0.020257 846254.000000 0 0 1
4.661933 3.015622 -27.725023 28.275510 0.574165 2.943945 0.114749 -0.026266 223913.000000 0 0 1
4.002733 2.250622 -26.567013 26.960959 0.512216 2.970435 0.099824 -0.030146 76611.000000 0 0 1
4.176433 0.846522 -26.708503 27.046318 0.199981 2.983376 0.130494 -0.030288 164704.000000 0 0 1
3.833233 0.318822 -25.412193 25.701651 0.082982 2.991370 0.127216 -0.030750 -429753.000000 0 0 1
4.330233 -1.110978 -25.124143 25.518772 -0.251146 2.965500 0.144637 -0.043560 635059.000000 0 0 1
5.749933 -1.194278 -24.982513 25.663475 -0.204791 2.910714 0.136735 -0.044304 323821.000000 0 0 1
6.117633 -2.537678 -24.893713 25.759700 -0.393211 2.881562 0.138367 -0.040449 85665.900000 0 0 1
7.557933 -2.753778 -24.338413 25.633259 -0.349406 2.822389 0.148810 -0.053355 219261.000000 0 0 1
8.441633 -2.304178 -25.324723 26.793879 -0.266463 2.808906 0.145313 -0.050108 -1053340.000000 0 0 1
9.749733 -2.714678 -25.018513 26.988011 -0.271558 2.757192 0.128933 -0.046226 -62019.600000 0 0 1
-30.887337 -3.251978 17.340154 35.570829 0.104899 1.061592 0.162106 -0.027132 1169990.000000 0 0 1
-32.323007 -3.293578 17.506954 36.906881 0.101545 1.076565 0.154474 -0.005577 860426.000000 0 0 1
-32.767987 -4.520978 18.042354 37.678996 0.137104 1.071459 0.144552 -0.016643 -1269610.000000 0 0 1
-34.189405 -4.421378 18.480854 39.115291 0.128606 1.078704 0.120566 -0.013773 -1372230.000000 0 0 1
-35.105842 -4.523978 17.430954 39.455350 0.128160 1.113204 0.115351 -0.013254 750681.000000 0 0 1
-36.437367 -4.826278 17.906354 40.885354 0.131688 1.117463 0.108016 -0.004920 1063270.000000 0 0 1
-37.525567 -4.696178 16.801854 41.382660 0.124499 1.152710 0.087505 -0.008190 157870.000000 0 0 1
37.159862 -4.869378 17.331654 41.291069 -0.130296 1.137634 0.079102 -0.000735 -227480.000000 0 0 1
36.255642 -4.390978 16.360254 40.017623 -0.120525 1.149629 0.071784 -0.010118 -640837.000000 0 0 1
34.780062 -4.609078 16.653854 38.836158 -0.131753 1.127606 0.069748 -0.003124 -659362.000000 0 0 1
34.290772 -3.631578 17.556254 38.694540 -0.105512 1.099868 0.078501 -0.010533 241595.000000 0 0 1
32.999272 -4.035778 17.980054 37.795790 -0.121695 1.075019 0.124915 -0.008310 356039.000000 0 0 1
32.386702 -3.254778 19.202354 37.791830 -0.100161 1.037809 0.129998 -0.021244 287043.000000 0 0 1
31.635392 -2.041578 19.045454 36.982366 -0.064445 1.029803 0.138454 -0.013957 756305.000000 0 0 1
32.354882 -0.900778 18.503754 37.283222 -0.027833 1.051462 0.124646 -0.010915 -64291.000000 0 0 1
31.395372 0.262322 18.723754 36.555672 0.008355 1.033054 0.171030 -0.021410 202104.000000 0 0 1
31.756632 1.418222 18.044254 36.552566 0.044629 1.054512 0.138031 -0.027644 41637.900000 0 0 1
30.917572 2.473222 18.498654 36.113893 0.079824 1.033016 0.131984 -0.034279 -37490.800000 0 0 1
31.192602 3.860322 17.832854 36.137116 0.123132 1.054713 0.120486 -0.028083 64995.300000 0 0 1
30.780572 4.206222 16.498554 35.175818 0.135811 1.082603 0.143739 -0.008906 274678.000000 0 0 1
29.391672 4.053722 16.222854 33.815440 0.137056 1.070430 0.159948 -0.030125 282139.000000 0 0 1
29.141372 4.511722 14.797554 32.993072 0.153602 1.105704 0.157434 -0.016628 -344260.000000 0 0 1
28.900672 5.878722 14.588054 32.903184 0.200673 1.111449 0.183724 -0.035712 65969.500000 0 0 1
28.647672 6.110322 13.196254 32.127344 0.210143 1.147522 0.148772 -0.020541 -258463.000000 0 0 1
27.934472 7.419522 12.911854 31.655963 0.259610 1.150665 0.167964 -0.005403 331488.000000 0 0 1
26.615272 7.507722 13.446554 30.749771 0.274939 1.118214 0.145422 -0.010492 522157.000000 0 0 1
25.919972 8.705322 13.090654 30.314894 0.324017 1.124284 0.185964 -0.033219 352054.000000 0 0 1
24.548272 8.852822 13.856254 29.546334 0.346112 1.082676 0.183355 -0.032488 789303.000000 0 0 1
23.455072 8.116522 13.325754 28.170801 0.333148 1.078065 0.183159 -0.020399 744909.000000 0 0 1
23.603672 6.689822 13.568954 28.035755 0.276180 1.065591 0.186111 -0.022420 -1056160.000000 0 0 1
22.279072 5.971622 13.271054 26.610866 0.261882 1.048689 0.193641 -0.024660 -296574.000000 0 0 1
21.919072 5.966222 11.901154 25.645252 0.265755 1.088214 0.215824 -0.039672 1296990.000000 0 0 1
20.806272 5.066122 11.668754 24.387012 0.238842 1.071871 0.203604 -0.039204 580442.000000 0 1 0
20.544072 4.853222 10.133254 23.415710 0.231982 1.123250 0.219407 -0.046454 40903.900000 0 1 0
21.703772 4.318522 9.527454 24.093064 0.196410 1.164245 0.239767 -0.047090 582118.000000 0 1 0
21.393172 3.958922 8.235654 23.262993 0.182985 1.208926 0.262794 -0.045015 -664585.000000 0 1 0
22.528672 3.288722 7.505854 23.972788 0.144956 1.252342 0.259471 -0.035816 -1413890.000000 0 1 0
22.782272 1.988522 8.055854 24.246297 0.087063 1.232107 0.257277 -0.039984 860762.000000 0 1 0
23.528772 1.167022 7.118754 24.609789 0.049559 1.277337 0.237504 -0.034073 -427143.000000 0 1 0
25.047872 1.355322 7.111254 26.073026 0.054057 1.294553 0.215752 -0.031749 -653787.000000 0 0 1
25.856072 0.807422 8.126654 27.115141 0.031217 1.266409 0.181164 -0.014448 510194.000000 0 0 1
25.804572 1.587622 9.318554 27.481483 0.061447 1.224852 0.187443 -0.022746 -380681.000000 0 0 1
26.607072 0.860322 10.466154 28.604489 0.032323 1.196205 0.135087 -0.013692 -1143060.000000 0 0 1
27.960672 1.060622 10.325854 29.825280 0.037914 1.217267 0.139652 -0.032367 -1249590.000000 0 0 1
28.587872 0.320322 11.351654 30.760837 0.011204 1.192832 0.130279 -0.027233 411204.000000 0 0 1
30.129572 0.548322 11.448654 32.236058 0.018197 1.207721 0.179059 -0.035521 652563.000000 0 0 1
30.550372 1.872222 11.762954 32.790205 0.061207 1.203885 0.172059 -0.034767 -356719.000000 0 0 1
31.904982 2.070622 11.482454 33.971489 0.064809 1.226002 0.161863 -0.036879 -517760.000000 0 0 1
32.490622 3.424322 11.996854 34.803606 0.105007 1.218876 0.161119 -0.036296 326446.000000 0 0 1
33.817282 3.631822 11.526654 35.911870 0.106985 1.244042 0.158383 -0.040324 325134.000000 0 0 1
34.423522 4.763022 12.087054 36.793506 0.137492 1.236070 0.146840 -0.037540 -200915.000000 0 0 1
35.885812 4.987322 11.658154 38.060182 0.138093 1.259484 0.169446 -0.031963 -258721.000000 0 0 1
36.731132 4.009222 12.250354 38.927125 0.108720 1.250656 0.170907 -0.038793 361958.000000 0 0 1
-37.961727 4.130422 11.655654 39.925022 -0.108379 1.274543 0.176603 -0.025131 -63457.600000 0 0 1
-36.899837 3.374622 12.433954 39.084386 -0.091200 1.247039 0.175437 -0.026559 -1061850.000000 0 0 1
-36.733017 1.977422 12.336454 38.799650 -0.053780 1.247227 0.156431 -0.028402 264485.000000 0 0 1
-37.846047 1.115522 12.532854 39.882830 -0.029467 1.251138 0.160112 -0.028634 -96894.700000 0 0 1
37.691132 0.900022 13.977654 40.209529 0.023874 1.215764 0.153860 -0.026284 -388904.000000 0 0 1
-37.492987 -0.033478 14.635154 40.248142 0.000893 1.198642 0.128765 -0.028948 16327.700000 0 0 1
-37.758887 -0.136578 16.021154 41.017430 0.003617 1.169520 0.124179 -0.028583 -695259.000000 0 0 1
-36.679017 -0.855578 16.795954 40.350791 0.023322 1.141481 0.117133 -0.017136 -1170160.000000 0 0 1
-35.515206 -0.104078 16.847154 39.308616 0.002931 1.127868 0.127358 -0.026324 -704718.000000 0 0 1
-34.490394 -0.627778 17.672454 38.759476 0.018200 1.097355 0.119232 -0.012221 87687.800000 0 0 1
-34.599066 -0.560978 19.223854 39.584929 0.016212 1.063706 0.095405 -0.018937 107313.000000 0 0 1
-35.492690 -1.554278 19.808154 40.675666 0.043764 1.062170 0.088146 -0.018049 638220.000000 0 0 1
-35.401124 -1.545278 21.246354 41.316280 0.043623 1.030679 0.082004 -0.023522 42828.400000 0 0 1
-35.982577 -2.826878 21.843154 42.188392 0.078401 1.026574 0.075058 -0.017988 -111213.000000 0 0 1
-35.154671 -3.963378 21.696054 41.500338 0.112267 1.020673 0.092630 -0.019010 -98924.800000 0 0 1
-35.649881 -5.167878 22.203054 42.315441 0.143959 1.018430 0.090916 -0.024645 -342441.000000 0 0 1
-35.930162 -5.260878 23.753794 43.392351 0.145386 0.991519 0.091824 -0.035626 115376.000000 0 0 1
-34.789849 -4.993878 24.531024 42.860746 0.142570 0.961437 0.099076 -0.036534 -796611.000000 0 0 1
-35.122918 -4.759478 25.844914 43.866064 0.134689 0.940755 0.104788 -0.049132 -48015.300000 0 0 1
-34.163579 -3.945278 26.752494 43.570762 0.114973 0.909677 0.103966 -0.048886 -12595.300000 0 0 1
-34.024727 -2.539978 26.508114 43.206639 0.074513 0.910287 0.105689 -0.038634 -236103.000000 0 0 1
-33.267227 -2.132378 25.369884 41.891365 0.064011 0.920262 0.091356 -0.035358 -156516.000000 0 0 1
-33.115837 -0.585178 25.167724 41.598262 0.017669 0.921007 0.095205 -0.038133 -328058.000000 0 0 1
-34.273910 0.089122 24.740634 42.270650 -0.002600 0.945557 0.107997 -0.045211 -456352.000000 0 0 1
-33.999436 1.409122 24.355064 41.846343 -0.041422 0.949596 0.103196 -0.026956 298511.000000 0 0 1
-35.308283 2.185422 23.993684 42.745149 -0.061817 0.974817 0.114748 -0.023151 421219.000000 0 0 1
-35.903444 1.677422 22.851004 42.591542 -0.046686 1.004494 0.121996 -0.020993 154736.000000 0 0 1
-37.082897 2.333822 22.388524 43.380110 -0.062852 1.028504 0.141782 -0.018586 797688.000000 0 0 1
-36.701587 3.586922 21.465254 42.668837 -0.097423 1.043653 0.127224 -0.016088 253259.000000 0 0 1
-36.089167 3.316422 20.192954 41.487131 -0.091638 1.062456 0.113575 -0.019041 73754.700000 0 0 1
-36.991787 3.366022 19.110054 41.772199 -0.090744 1.095634 0.145179 -0.026578 -1037.560000 0 0 1
-36.340447 2.839222 17.836154 40.581001 -0.077970 1.115732 0.153254 -0.021139 -6752.240000 0 0 1
-35.386052 3.649922 17.193754 39.511008 -0.102782 1.120576 0.143277 -0.026127 -76586.800000 0 0 1
-34.931307 3.088922 16.025154 38.555715 -0.088199 1.142154 0.164218 -0.022862 209562.000000 0 0 1
-33.864677 3.932322 15.267254 37.354632 -0.115601 1.149755 0.160030 -0.021917 411727.000000 0 0 1
-34.483688 5.060322 14.691254 37.822805 -0.145705 1.171877 0.176992 -0.026979 393684.000000 0 0 1
-33.527747 5.852722 13.994754 36.799692 -0.172822 1.180681 0.182346 -0.022987 -347278.000000 0 0 1
-34.124139 7.148722 13.368254 37.339943 -0.206505 1.204655 0.199710 -0.027982 -346260.000000 0 0 1
-33.319277 7.725422 12.383754 36.376005 -0.227835 1.223414 0.216366 -0.017657 -227579.000000 0 0 1
-33.635317 9.056622 12.071054 36.865530 -0.263021 1.237209 0.202194 -0.026528 -624804.000000 0 0 1
-32.675307 9.755222 11.144754 35.875418 -0.290126 1.254918 0.218363 -0.025043 -463763.000000 0 0 1
-32.948297 11.131222 10.880254 36.440010 -0.325800 1.267592 0.178078 -0.010859 -131593.000000 0 0 1
-32.107737 11.635822 9.874354 35.549993 -0.347678 1.289335 0.184057 -0.030594 -236725.000000 0 0 1
-32.335797 13.118622 9.554154 36.179882 -0.385410 1.303553 0.150407 -0.018712 248019.000000 0 0 1
-31.564617 13.617922 8.460154 35.402642 -0.407304 1.329492 0.166727 -0.022105 140894.000000 0 0 1
-31.719107 15.031122 8.370554 36.084658 -0.442536 1.336694 0.136978 -0.023244 -370855.000000 0 0 1
-30.869727 15.732122 7.330154 35.414275 -0.471321 1.362306 0.158851 -0.024135 -1381090.000000 0 0 1
-29.527037 15.623322 7.588454 34.256660 -0.486671 1.347426 0.201187 -0.019848 -1092240.000000 0 0 1
-28.777547 16.683622 7.031454 33.998997 -0.525393 1.362479 0.187435 -0.049269 863912.000000 0 0 1
-27.296067 16.812822 7.559254 32.937647 -0.552060 1.339230 0.199092 -0.034241 520085.000000 0 0 1
-27.150807 17.212622 8.917854 33.361187 -0.565019 1.300194 0.174432 -0.029988 236240.000000 0 0 1
-27.320847 18.570722 9.172354 34.284581 -0.596990 1.299962 0.170094 -0.045087 -34318.800000 0 0 1
-27.653647 18.781422 10.696054 35.098028 -0.596606 1.261123 0.181431 -0.021410 -120328.000000 0 0 1
-26.454517 18.693622 11.412454 34.344389 -0.615163 1.232061 0.174095 -0.020843 161371.000000 0 0 1
-26.557507 19.102522 12.772954 35.119167 -0.623555 1.198556 0.174197 -0.030527 141823.000000 0 0 1
-27.075707 17.907522 13.681754 35.227314 -0.584339 1.171918 0.145298 -0.022896 342206.000000 0 0 1
-26.072807 16.895922 13.851554 34.016599 -0.574988 1.151410 0.152692 -0.025629 518831.000000 0 0 1
-26.326687 16.043822 14.994454 34.283120 -0.547312 1.118123 0.142839 -0.025658 -569141.000000 0 0 1
-25.207457 15.117622 15.428454 33.196319 -0.540220 1.087428 0.150280 -0.021110 -113496.000000 0 0 1
-24.186767 15.742222 16.225754 33.107285 -0.576980 1.058596 0.137046 -0.013253 354746.000000 0 0 1
-23.089767 14.904122 16.513054 32.061677 -0.573195 1.029742 0.114051 -0.032049 -148735.000000 0 0 1
-23.325867 13.808522 17.600254 32.319348 -0.534504 0.994916 0.126748 -0.025779 -519724.000000 0 0 1
-23.214367 14.323122 18.930454 33.202722 -0.552821 0.964111 0.116571 -0.022057 51801.500000 0 0 1
-23.585067 13.437222 19.934954 33.678134 -0.517868 0.937350 0.104407 -0.024844 -629033.000000 0 0 1
-23.075367 13.764322 21.335854 34.309587 -0.537838 0.899677 0.102333 -0.018331 461474.000000 0 0 1
-21.656867 13.801922 21.543754 33.520833 -0.567395 0.872782 0.117881 -0.019888 579390.000000 0 0 1
-21.137167 15.080022 21.264754 33.561535 -0.619687 0.884592 0.116672 -0.002932 -1118920.000000 0 0 1
-19.694867 15.178822 21.725154 33.019187 -0.656618 0.852696 0.122048 -0.014407 -181813.000000 0 0 1
-18.629667 14.580222 21.009654 31.639420 -0.664062 0.844595 0.101806 -0.016343 423705.000000 0 0 1
-18.099767 15.432722 19.971854 31.058741 -0.706029 0.872342 0.102212 -0.016602 90935.200000 0 0 1
-16.770067 15.014322 19.246254 29.615592 -0.730215 0.863384 0.101957 -0.016642 1885550.000000 0 0 1
-15.534967 14.747422 19.944954 29.268120 -0.759397 0.821045 0.100591 -0.013357 742687.000000 0 0 1
-14.968267 15.857622 20.501654 29.930436 -0.814241 0.816225 0.085975 -0.010775 -771104.000000 0 0 1
-13.859767 15.450422 21.496554 29.881608 -0.839615 0.767871 0.067656 -0.013989 -163854.000000 0 0 1
-12.759267 14.759522 20.980154 28.649768 -0.857957 0.749107 0.046864 -0.012593 -48562.000000 0 0 1
-11.799867 14.435522 21.976454 28.819883 -0.885524 0.703559 0.043819 -0.006050 1051500.000000 0 0 1
-10.444067 13.755622 21.574854 27.636389 -0.921396 0.675062 0.044159 -0.008113 95522.900000 0 0 1
-9.949467 12.978122 22.678604 27.959660 -0.916734 0.624734 0.046472 -0.016546 1229000.000000 0 0 1
-8.748867 12.185722 22.403344 26.961905 -0.948118 0.590027 0.058650 -0.004925 2027850.000000 0 0 1
-7.393967 12.965422 22.240954 26.784939 -1.052514 0.591055 0.054373 -0.004798 56713.400000 0 0 1
-7.182367 13.759722 21.069454 26.169414 -1.089716 0.634923 0.047248 -0.009321 -316823.000000 0 0 1
-6.515467 14.971522 21.307854 26.844411 -1.160326 0.653840 0.051326 -0.002142 -254158.000000 0 0 1
-7.380267 16.140622 21.855054 28.153710 -1.141931 0.682059 0.058565 -0.000458 1276730.000000 0 0 1
-8.530067 16.569422 21.063754 28.124536 -1.095373 0.724327 0.008925 -0.007623 661834.000000 0 0 1
-8.140467 17.338422 19.948754 27.655756 -1.131841 0.765085 0.032509 -0.007886 -1382470.000000 0 0 1
-9.236767 17.690822 18.966254 27.531833 -1.089608 0.810847 0.041945 -0.008597 460632.000000 0 0 1
-10.309767 18.585722 19.287254 28.700497 -1.064341 0.833866 0.030131 -0.008631 537672.000000 0 0 1
-11.230267 18.054122 20.241354 29.356134 -1.014333 0.809984 0.028613 -0.002488 -1503140.000000 0 0 1
-12.479567 18.848422 20.383454 30.438262 -0.985961 0.837038 0.034700 -0.006258 -1040300.000000 0 0 1
-13.281267 18.871422 19.230854 30.039114 -0.957540 0.876046 0.043124 -0.008394 -495810.000000 0 0 1
-14.399567 19.691322 19.369454 31.149180 -0.939394 0.899721 0.037356 -0.012211 -154636.000000 0 0 1
-15.332167 19.702822 18.135154 30.857095 -0.909508 0.942566 0.054237 -0.007060 463068.000000 0 0 1
-16.185967 18.547022 17.939154 30.459658 -0.853271 0.941040 0.077855 -0.008783 643430.000000 0 0 1
-16.930667 18.744322 16.740854 30.302694 -0.836193 0.985491 0.097353 -0.013051 -761575.000000 0 0 1
-17.592767 17.404222 16.280254 29.621935 -0.780011 0.988909 0.096328 -0.020226 -2714.090000 0 0 1
-18.659267 16.896922 17.025854 30.390030 -0.735874 0.976115 0.103573 -0.018977 -644865.000000 0 0 1
-19.834467 17.623822 16.824654 31.417736 -0.726450 1.005679 0.112846 -0.019321 -1118920.000000 0 0 1
35.966602 -9.456078 11.507687 38.928662 -0.257094 1.270703 0.087473 -0.033100 -1602620.000000 0 0 1
34.683682 -9.902078 11.426087 37.836020 -0.278099 1.264017 0.079598 -0.019854 -1140560.000000 0 0 1
34.534422 -11.192478 12.057187 38.252760 -0.313414 1.250131 0.072380 -0.023869 -876427.000000 0 0 1
33.095252 -11.601978 12.325487 37.172829 -0.337176 1.232826 0.101703 -0.018274 -1214520.000000 0 0 1
32.464712 -10.592878 13.078387 36.567893 -0.315397 1.205050 0.112245 -0.011623 1208560.000000 0 0 1
31.017172 -10.691978 13.081687 35.320163 -0.331956 1.191384 0.122379 -0.028670 1586150.000000 0 0 1
30.302372 -11.837278 13.860687 35.362035 -0.372410 1.168030 0.118545 -0.018026 -1229340.000000 0 0 1
30.208172 -11.581178 15.281087 35.779449 -0.366096 1.129523 0.133972 -0.012587 1504840.000000 0 0 1
28.992472 -12.037878 15.995387 35.232462 -0.393547 1.099552 0.141904 -0.013453 1863200.000000 0 0 1
27.666872 -11.402478 15.505287 33.702911 -0.390923 1.092736 0.150297 -0.039869 -482872.000000 0 0 1
27.552472 -10.027378 15.786687 33.300248 -0.349037 1.076888 0.145282 -0.025217 266389.000000 0 0 1
26.607972 -9.383578 14.891487 31.902854 -0.339043 1.085155 0.169253 -0.033644 443979.000000 0 0 1
26.363072 -7.944378 15.399387 31.547834 -0.292690 1.060853 0.191356 -0.032127 -591992.000000 0 0 1
27.366672 -7.013778 15.218787 32.089551 -0.250889 1.076673 0.170366 -0.024117 -802100.000000 0 0 1
27.224172 -5.770978 15.874587 32.038450 -0.208888 1.052403 0.162662 -0.014207 463002.000000 0 0 1
28.543572 -4.921278 15.810287 32.998783 -0.170734 1.071148 0.162715 -0.012492 387511.000000 0 0 1
28.926972 -4.500278 14.532787 32.683698 -0.154337 1.110014 0.171753 -0.020179 574960.000000 0 0 1
30.146472 -3.750978 14.687987 33.743393 -0.123789 1.120442 0.154861 -0.012811 622965.000000 0 0 1
30.651472 -3.121178 13.383387 33.591212 -0.101478 1.161004 0.158490 -0.030460 58739.700000 0 0 1
31.232972 -4.028378 12.446787 33.862204 -0.128270 1.194400 0.138647 -0.030624 205308.000000 0 0 1
31.490432 -3.322578 11.277187 33.613417 -0.105122 1.228664 0.146524 -0.043292 17063.400000 0 0 1
31.785382 -4.294078 10.073887 33.618935 -0.134283 1.266471 0.155851 -0.038889 53109.400000 0 0 1
33.091932 -4.824678 10.106887 34.935693 -0.144776 1.277301 0.147538 -0.040949 225720.000000 0 0 1
33.385862 -5.380678 8.829287 34.950304 -0.159792 1.315405 0.143335 -0.040147 -841388.000000 0 0 1
34.721482 -6.089378 8.767487 36.325345 -0.173612 1.327029 0.127651 -0.036853 -661733.000000 0 0 1
35.838522 -5.212378 8.735787 37.254295 -0.144428 1.334102 0.120723 -0.042279 -103318.000000 0 0 1
36.990512 -6.027678 8.592087 38.450681 -0.161532 1.345436 0.142603 -0.050740 -290730.000000 0 0 1
-37.746467 -5.165778 8.393787 39.012007 0.136010 1.353942 0.162432 -0.050644 -238404.000000 0 0 1
-37.658357 -4.626578 7.102587 38.600568 0.122244 1.385740 0.178802 -0.052601 475211.000000 0 0 1
-36.412517 -3.961078 6.887387 37.269259 0.108357 1.384927 0.184905 -0.042106 478261.000000 0 0 1
-36.376737 -3.306478 5.453787 36.931607 0.090646 1.422582 0.190390 -0.051996 -12211.800000 0 0 1
-36.109467 -4.251878 4.419187 36.626511 0.117210 1.449846 0.229351 -0.074853 157451.000000 0 0 1
-36.368667 -3.636178 3.151087 36.685571 0.099650 1.484796 0.235017 -0.068770 -270471.000000 0 0 1
-35.452956 -4.182778 2.079887 35.759386 0.117438 1.512600 0.334314 -0.072322 -481000.000000 0 0 1
-35.621185 -5.480678 1.606287 36.076125 0.152663 1.526257 0.296013 -0.065501 -679984.000000 0 0 1
-36.720207 -5.705578 0.783287 37.169084 0.154147 1.549721 0.252676 -0.061900 -478824.000000 0 0 1
-36.441167 -5.963778 -0.711813 36.932804 0.162217 1.590071 0.312263 -0.065237 -611259.000000 0 0 1
-35.824868 -7.223578 -0.934313 36.557820 0.198968 1.596356 0.323469 -0.086380 520440.000000 0 0 1
-34.753588 -7.309478 -1.845813 35.561881 0.207302 1.622724 0.288260 -0.077082 -40292.600000 0 0 1
-33.461727 -6.487078 -1.723813 34.128301 0.191490 1.621328 0.268424 -0.072913 -660654.000000 0 0 1
-32.618027 -7.034578 -0.723513 33.375806 0.212412 1.592476 0.276170 -0.076156 -11655.500000 0 0 1
-31.392157 -6.314078 -0.716713 32.028874 0.198487 1.593175 0.276571 -0.072110 -61671.700000 0 0 1
-30.382177 -6.998378 0.219087 31.178550 0.226396 1.563769 0.241229 -0.066091 -479792.000000 0 0 1
-29.933427 -8.235878 -0.279113 31.047023 0.268496 1.579786 0.217563 -0.042310 115529.000000 0 0 1
-29.135187 -9.033378 0.537987 30.508204 0.300652 1.553161 0.256881 -0.058060 -200109.000000 0 0 1
-28.730787 -10.369378 -0.151513 30.545132 0.346366 1.575757 0.200357 -0.040823 6610.720000 0 0 1
-27.767907 -10.370678 -1.190813 29.665227 0.357435 1.610949 0.177865 -0.039772 292735.000000 0 0 1
-27.325047 -11.616378 -1.700013 29.740351 0.401971 1.627989 0.162935 -0.024374 217407.000000 0 0 1
-28.394427 -12.502378 -2.422613 31.119479 0.414767 1.648724 0.153485 -0.024570 751209.000000 0 0 1
-29.457097 -13.136178 -1.669913 32.296569 0.419475 1.622525 0.199075 -0.038071 1094820.000000 0 0 1
-29.903277 -14.240478 -2.430313 33.209993 0.444442 1.644042 0.161950 -0.026132 -808571.000000 0 0 1
-30.921417 -15.162778 -1.798313 34.485907 0.455910 1.622966 0.210272 -0.029151 -863797.000000 0 0 1
-30.403797 -15.997978 -0.822313 34.365715 0.484374 1.594727 0.181352 -0.024920 121268.000000 0 0 1
-31.285517 -16.559278 0.146987 35.397950 0.486808 1.566644 0.181808 -0.023257 91382.300000 0 0 1
-32.065147 -17.827778 -0.245613 36.688740 0.507427 1.577491 0.175368 -0.025770 45258.800000 0 0 1
-31.224797 -18.980278 -0.267813 36.541902 0.546178 1.578125 0.217257 -0.035269 264412.000000 0 0 1
-31.872097 -20.240278 -0.373813 37.757637 0.565791 1.580697 0.170624 -0.038043 114910.000000 0 0 1
-32.613317 -20.663178 0.965687 38.620305 0.564746 1.545789 0.147894 -0.029376 108977.000000 0 0 1
-31.726327 -20.973778 2.037087 38.086860 0.584128 1.517285 0.136692 -0.022741 -172775.000000 0 0 1
-32.463187 -21.412678 3.110087 39.013253 0.583093 1.490993 0.102479 -0.011026 -147766.000000 0 0 1
-31.610707 -21.865478 4.318887 38.678013 0.605141 1.458900 0.106063 -0.016379 46019.200000 0 0 1
-31.136197 -20.794478 5.076487 37.784174 0.588825 1.436034 0.093770 -0.016965 -166774.000000 0 0 1
-30.475007 -21.129578 6.277987 37.611145 0.606243 1.403093 0.093354 -0.015747 36361.700000 0 0 1
-29.998077 -19.863178 6.931187 36.639758 0.584868 1.380478 0.099215 -0.017648 -622158.000000 0 0 1
-29.157517 -19.973878 7.999687 36.236882 0.600611 1.348202 0.086810 -0.020815 -752146.000000 0 0 1
-28.652717 -18.680478 8.270687 35.190094 0.577753 1.333548 0.109733 -0.028765 -356236.000000 0 0 1
-27.499037 -18.816678 9.252887 34.581503 0.600089 1.299929 0.129394 -0.030197 -575343.000000 0 0 1
-27.864177 -19.342778 10.559187 35.525369 0.606810 1.269007 0.111748 -0.034186 -342189.000000 0 0 1
-26.755677 -19.656678 11.352487 35.087465 0.633620 1.241319 0.105289 -0.030655 -229208.000000 0 0 1
-26.341007 -18.440978 12.245987 34.407594 0.610784 1.206909 0.093099 -0.028903 -575469.000000 0 0 1
-25.782777 -17.398878 11.466787 33.150562 0.593630 1.217598 0.101448 -0.027803 -24042.700000 0 0 1
-25.532167 -16.193678 12.141387 32.581284 0.565221 1.188934 0.099123 -0.020882 550587.000000 0 0 1
-24.465067 -16.213578 13.316687 32.229704 0.585268 1.144852 0.071600 -0.010647 -163715.000000 0 0 1
-24.952167 -16.899478 14.387887 33.394825 0.595311 1.125371 0.070860 -0.021040 -521427.000000 0 0 1
-24.138567 -16.938378 15.517087 33.322051 0.611876 1.086404 0.067134 -0.019443 -362578.000000 0 0 1
-24.861967 -17.692878 16.686787 34.779365 0.618498 1.070381 0.053182 0.004792 141706.000000 0 0 1
-25.780727 -16.860778 17.342187 35.350858 0.579187 1.058049 0.065942 -0.004010 -6561.950000 0 0 1
-26.673317 -17.586478 18.163587 36.751408 0.582905 1.053849 0.068085 0.008258 -104831.000000 0 0 1
-27.677617 -16.678878 18.929387 37.450730 0.542338 1.040896 0.086003 0.005769 -36562.200000 0 0 1
-27.207567 -16.156378 20.167687 37.523538 0.535862 1.003365 0.067592 -0.003463 228320.000000 0 0 1
-28.043337 -15.050878 20.543987 37.881567 0.492575 0.997599 0.084695 -0.014122 67875.000000 0 0 1
-27.566397 -14.277978 21.833787 37.953672 0.477903 0.957856 0.079074 -0.019138 128115.000000 0 0 1
-26.435727 -13.503178 21.478387 36.640205 0.472244 0.944439 0.073953 -0.018941 323494.000000 0 0 1
-25.649067 -13.177878 22.629787 36.655673 0.474608 0.905413 0.067067 -0.019752 -171033.000000 0 0 1
-24.373967 -12.392778 22.321587 35.297656 0.470379 0.886173 0.069735 -0.017156 -409061.000000 0 0 1
-24.538267 -11.131378 21.773387 34.642669 0.425871 0.891156 0.087928 -0.019309 78345.600000 0 0 1
-23.590067 -10.919178 20.751587 33.261811 0.433506 0.897091 0.100815 -0.026155 -863022.000000 0 0 1
-23.012067 -9.435878 20.745887 32.388005 0.389132 0.875592 0.115426 -0.020553 416409.000000 0 0 1
-22.251267 -9.140778 21.941087 32.558932 0.389780 0.831337 0.116359 -0.026002 679427.000000 0 0 1
-20.998067 -9.804178 21.965087 31.929701 0.436826 0.812177 0.080807 -0.033684 -521436.000000 0 0 1
-20.285067 -9.839778 23.366387 32.469882 0.451636 0.767523 0.087519 -0.027658 245875.000000 0 0 1
-20.889267 -10.702178 24.294687 33.780615 0.473462 0.768160 0.096503 -0.027522 477745.000000 0 0 1
-20.028867 -10.777278 25.460287 34.139881 0.493651 0.729116 0.102138 -0.029202 -274417.000000 0 0 1
-20.262367 -12.003478 26.309487 35.310567 0.534814 0.730129 0.092108 -0.035107 279585.000000 0 0 1
-21.413067 -12.022178 27.137687 36.599266 0.511585 0.735520 0.097287 -0.028828 175492.000000 0 0 1
-22.653267 -12.200278 26.463187 36.909587 0.494022 0.771346 0.086387 -0.025636 -47063.000000 0 0 1
-23.918067 -12.370778 27.310987 38.353619 0.477324 0.778335 0.075998 -0.025245 -47550.000000 0 0 1
-23.940067 -13.513178 28.166187 39.358187 0.513876 0.773260 0.068003 -0.023978 236706.000000 0 0 1
-22.979067 -13.509478 29.249887 39.573974 0.531478 0.739034 0.064245 -0.014793 384719.000000 0 0 1
-23.243667 -14.633878 30.333387 40.921056 0.561890 0.735842 0.051724 -0.017440 -268622.000000 0 0 1
-23.108767 -15.952378 29.864887 40.992743 0.604198 0.754607 0.047776 -0.015805 -156381.000000 0 0 1
-23.127067 -16.908078 30.929687 42.159102 0.631292 0.747130 0.040739 -0.016470 -243132.000000 0 0 1
-24.496267 -17.366878 31.459587 43.490013 0.616714 0.762118 0.066653 -0.016972 -34643.100000 0 0 1
-25.232057 -16.419578 32.191987 44.074747 0.576897 0.751896 0.078391 -0.026155 -580129.000000 0 0 1
-26.521707 -16.834878 32.515387 45.211331 0.565586 0.768165 0.078355 -0.026182 -398735.000000 0 0 1
-27.368417 -15.923678 33.414087 46.033629 0.526950 0.758509 0.071372 -0.030554 138059.000000 0 0 1
-26.972467 -15.965478 -32.606679 45.228376 0.534455 2.375946 0.086928 -0.030599 93953.500000 0 0 1
-27.816877 -15.109678 -31.836479 44.895906 0.497595 2.359042 0.081132 -0.014166 -88943.800000 0 0 1
-27.331687 -14.851078 -30.417479 43.506306 0.497735 2.345006 0.079202 -0.010215 -264695.000000 0 0 1
-27.788207 -15.689478 -29.364679 43.366214 0.513990 2.314655 0.079963 -0.002809 378813.000000 0 0 1
-27.079537 -15.389578 -28.121179 41.963569 0.516792 2.305184 0.084673 -0.003336 -90241.600000 0 0 1
-27.639107 -15.986578 -26.836679 41.709690 0.524389 2.269749 0.084748 -0.000950 -204894.000000 0 0 1
-28.816727 -15.440978 -26.290779 41.952743 0.491902 2.248077 0.102608 -0.007911 -6367.290000 0 0 1
-28.715837 -14.110578 -25.781179 41.089864 0.456733 2.249050 0.098538 -0.012478 -273018.000000 0 0 1
-27.715247 -13.846078 -24.595979 39.557692 0.463314 2.241803 0.101006 -0.022505 334804.000000 0 0 1
-26.384507 -13.715878 -25.062179 38.889334 0.479398 2.271098 0.084020 -0.019805 60745.200000 0 0 1
-25.397867 -13.765978 -24.065879 37.599472 0.496691 2.265371 0.078981 -0.019981 -133105.000000 0 0 1
-24.675767 -15.108978 -23.907079 37.532960 0.549415 2.261348 0.067925 -0.020176 -605511.000000 0 0 1
-23.729167 -15.374978 -24.905179 37.679321 0.574923 2.292917 0.073030 -0.014364 -139397.000000 0 0 1
-23.335767 -16.699278 -24.908979 37.998436 0.621125 2.285676 0.090393 -0.017281 -1985.040000 0 0 1
-22.400367 -17.092178 -26.083279 38.396047 0.651789 2.317635 0.078428 -0.017736 -74833.900000 0 0 1
-22.989167 -17.134978 -27.360279 39.631984 0.640519 2.332781 0.082300 -0.016456 398865.000000 0 0 1
-23.961167 -18.199078 -27.483979 40.751847 0.649569 2.310979 0.087165 -0.023359 22746.000000 0 0 1
-24.748167 -18.072578 -28.769479 42.032996 0.630747 2.324645 0.081483 -0.019207 -416187.000000 0 0 1
-24.014367 -18.385478 -29.950979 42.564971 0.653413 2.351322 0.078735 -0.017180 89992.000000 0 0 1
-24.862367 -18.451378 -31.057479 43.853821 0.638452 2.357748 0.070054 -0.012397 -449385.000000 0 0 1
-24.148567 -18.599378 -32.427779 44.504505 0.656308 2.387131 0.068106 -0.018266 -547538.000000 0 0 1
-23.153667 -17.679278 -32.920179 43.958928 0.652125 2.417174 0.065518 -0.013738 315640.000000 0 0 1
-21.863667 -17.966478 -32.439579 43.048119 0.687863 2.424266 0.068534 -0.020097 -406054.000000 0 0 1
-21.216267 -19.213978 -33.116179 43.772003 0.735914 2.428834 0.056421 -0.013265 -1223210.000000 0 0 1
-20.796367 -18.900178 32.911387 43.276611 0.737667 0.706730 0.045096 -0.013359 -12761.400000 0 0 1
-20.562067 -20.000378 32.037787 43.002716 0.771552 0.730235 0.039021 -0.008423 -182649.000000 0 0 1
-21.797267 -20.641878 31.371087 43.420653 0.758180 0.763396 0.040892 -0.004275 123650.000000 0 0 1
-22.596067 -21.368678 32.337887 44.865818 0.757488 0.765885 0.034698 -0.007865 469593.000000 0 0 1
-23.752067 -21.974678 31.747687 45.331698 0.746548 0.794920 0.038841 -0.000101 80144.600000 0 0 1
-23.549967 -23.209078 30.830187 45.207994 0.778108 0.820353 0.052495 0.005156 -648822.000000 0 0 1
-23.189067 -24.375878 31.534387 46.112188 0.810344 0.817753 0.052329 0.008658 -151443.000000 0 0 1
-23.150167 -25.504138 30.628087 46.091985 0.833742 0.843973 0.075694 0.009276 -98202.100000 0 0 1
-22.640767 -26.782918 31.415587 47.083630 0.869012 0.840313 0.098299 -0.006902 79291.500000 0 0 1
-23.475167 -27.072048 32.510587 48.383030 0.856437 0.833969 0.089913 -0.006587 -228959.000000 0 0 1
-23.053967 -28.211808 33.147987 49.256275 0.885671 0.832580 0.094824 -0.018527 -390528.000000 0 0 1
-24.122367 -28.942188 -33.340679 50.310433 0.875979 2.295214 0.093035 -0.020736 -517961.000000 0 0 1
-25.015157 -29.803828 33.393087 51.274989 0.872531 0.861559 0.083891 -0.018796 244354.000000 0 0 1
-26.124607 -29.190468 32.742687 51.055481 0.840767 0.874584 0.075739 -0.013002 206842.000000 0 0 1
-27.242337 -28.575188 33.619387 51.855082 0.809272 0.865403 0.051631 -0.014041 -826518.000000 0 0 1
-28.226517 -27.729958 33.100787 51.588264 0.776524 0.874170 0.043555 -0.010151 -204672.000000 0 0 1
-29.064107 -27.368588 -33.183279 51.912348 0.755362 2.264277 0.043802 -0.007741 -258646.000000 0 0 1
-30.275337 -26.488228 -33.506579 52.353730 0.718780 2.265299 0.042881 -0.012184 -397319.000000 0 0 1
-31.186177 -27.220008 33.074987 52.985482 0.717596 0.896654 0.047137 -0.013152 607995.000000 0 0 1
-32.402047 -26.445828 32.892087 53.208683 0.684528 0.904382 0.056643 -0.024498 938836.000000 0 0 1
