# x y z rho theta phi s1 s2 stress_xx np intf bulk
-0.709451 -10.697994 -14.436441 17.982247 1.504577 2.502800 0.012704 -0.002782 -139460.000000 1 0 0
2.189349 -13.365294 -13.131641 18.864366 -1.408430 2.340759 0.024198 -0.004652 301540.000000 1 0 0
2.107249 -11.184894 -14.846641 18.707354 -1.384578 2.487542 0.013682 -0.000754 -597041.000000 1 0 0
-5.393051 -6.276494 -16.514641 18.471944 0.860959 2.677078 0.011476 -0.006726 -1415520.000000 1 0 0
4.490949 -14.051794 -11.499941 18.704817 -1.261457 2.232944 0.019095 -0.009787 -387932.000000 1 0 0
14.137049 -10.514794 -7.945341 19.327325 -0.639506 1.994450 0.042295 -0.013302 -639916.000000 1 0 0
6.986849 10.850106 -10.737941 16.788217 0.998691 2.264789 0.037781 -0.020978 1808930.000000 1 0 0
5.743549 -4.274394 -12.583041 14.477283 -0.639784 2.624293 0.012748 -0.003354 1572010.000000 1 0 0
13.648449 0.675906 -10.067641 16.973344 0.049482 2.205755 0.033900 -0.005834 -231567.000000 1 0 0
14.093349 5.141306 -10.374041 18.239415 0.349802 2.175807 0.046293 -0.006494 -310337.000000 1 0 0
4.111449 4.293006 -13.461441 14.715444 0.806997 2.725767 0.020757 0.000302 1951120.000000 1 0 0
10.556749 -5.060294 -13.752141 18.060258 -0.446985 2.436357 0.039355 -0.003430 225752.000000 1 0 0
2.591649 -7.612894 -12.031141 14.471391 -1.242673 2.552372 0.001881 0.001780 2788300.000000 1 0 0
-5.560151 -2.112794 -15.135341 16.262156 0.363137 2.767144 0.009954 -0.007711 136195.000000 1 0 0
10.705449 0.112206 -9.693341 14.442302 0.010481 2.306592 0.010409 0.003782 1801330.000000 1 0 0
-1.567851 -9.538794 -17.009041 19.564105 1.407887 2.624784 0.024382 -0.012755 1223170.000000 1 0 0
8.919749 1.728506 -17.828941 20.010517 0.191412 2.670292 0.054327 -0.017695 -941691.000000 1 0 0
16.352149 -5.810194 -8.671941 19.399838 -0.341404 2.034217 0.067521 -0.016802 -616299.000000 1 0 0
10.124349 7.654406 -9.931341 16.115952 0.647355 2.234759 0.039417 -0.010736 1426010.000000 1 0 0
13.893149 -2.197094 -10.626341 17.628555 -0.156843 2.217791 0.045529 -0.010214 -1182690.000000 1 0 0
7.305249 -1.908494 -13.589941 15.546559 -0.255538 2.634468 0.025494 -0.009589 501995.000000 1 0 0
-2.788951 6.610906 -13.787041 15.542356 -1.171579 2.661739 0.003095 -0.002923 894560.000000 1 0 0
11.377749 1.871006 -13.884641 18.048188 0.162986 2.448556 0.031954 -0.009628 471144.000000 1 0 0
-2.356851 10.734206 -12.956241 16.989470 -1.354661 2.438126 0.004085 0.000793 -1204510.000000 1 0 0
2.998849 -1.034594 -15.262741 15.588930 -0.332211 2.936664 0.017012 -0.009477 650576.000000 1 0 0
-9.053151 0.307206 -15.229041 17.719413 -0.033921 2.604999 0.018898 -0.002784 -858205.000000 1 0 0
2.315749 -1.726594 -17.983441 18.213950 -0.640671 2.982329 0.035364 -0.021607 2113440.000000 1 0 0
1.071149 7.885206 -13.226041 15.435414 1.435780 2.599951 0.005966 0.000853 1145880.000000 1 0 0
9.460549 -9.068894 -9.970941 16.467134 -0.764264 2.221197 0.022087 -0.000080 122546.000000 1 0 0
3.983149 7.292406 -13.497341 15.850012 1.070871 2.589763 0.014825 -0.003888 99764.100000 1 0 0
-2.779851 9.090006 -15.508941 18.190190 -1.274014 2.591735 0.007085 -0.000629 510665.000000 1 0 0
5.504949 -7.697494 -15.184841 17.892324 -0.949967 2.584279 0.025761 -0.010610 -1001120.000000 1 0 0
4.154849 7.223806 -16.317041 18.321899 1.048841 2.669406 0.031412 -0.009396 1009580.000000 1 0 0
-0.254351 5.035306 -13.495241 14.406267 -1.520326 2.784056 0.010716 -0.003517 1461710.000000 1 0 0
9.050049 4.318006 -16.436241 19.253534 0.445181 2.593796 0.053336 -0.018169 -1235340.000000 1 0 0
5.488549 0.360706 -14.373241 15.389748 0.065625 2.776104 0.019354 -0.005865 410563.000000 1 0 0
6.239449 7.934806 -11.518441 15.315559 0.904441 2.422000 0.013214 -0.004197 -542408.000000 1 0 0
2.706849 -8.354994 -15.065741 17.438736 -1.257487 2.613806 0.012558 -0.005202 29921.000000 1 0 0
4.000549 11.495906 -13.748941 18.362833 1.235906 2.416952 0.036075 -0.021357 -1334510.000000 1 0 0
0.656749 -4.556894 -13.713841 14.466030 -1.427660 2.817698 0.006583 -0.003449 1779350.000000 1 0 0
8.536249 -0.052094 -11.687241 14.472797 -0.006103 2.510751 0.008031 -0.000047 439470.000000 1 0 0
-0.824451 -5.115194 -16.316641 17.119512 1.410994 2.834122 0.010028 -0.009898 -494840.000000 1 0 0
4.519749 0.870406 -11.686741 12.560480 0.190249 2.766401 0.007882 -0.000568 2801130.000000 1 0 0
-2.812051 -7.210394 -15.698241 17.502348 1.198941 2.683555 0.001167 -0.003639 2470550.000000 1 0 0
11.487349 -3.726794 -11.451941 16.643171 -0.313713 2.329645 0.021344 0.000052 1284570.000000 1 0 0
6.542849 -7.009194 -12.480041 15.738141 -0.819796 2.486482 0.022054 -0.001776 659279.000000 1 0 0
3.502749 -4.020194 -14.712641 15.649058 -0.854072 2.793900 0.019232 -0.006475 4037690.000000 1 0 0
-0.639351 -1.564994 -18.310041 18.387919 1.182956 3.049524 0.034330 -0.022428 -556121.000000 1 0 0
14.926649 3.044506 -8.518641 17.453971 0.201205 2.080666 0.038184 -0.004939 -41524.900000 1 0 0
7.005749 4.425906 -14.324941 16.549112 0.563441 2.617147 0.025589 -0.003828 3925430.000000 1 0 0
10.165049 -9.708694 -14.093041 19.904792 -0.762439 2.357490 0.063286 -0.022624 -758644.000000 1 0 0
9.308449 -3.079594 -15.451341 18.299592 -0.319504 2.576155 0.057240 -0.023990 -262008.000000 1 0 0
-5.195651 -2.193494 -18.077041 18.936357 0.399479 2.839180 0.001931 0.000608 115794.000000 1 0 0
5.117149 -9.010694 -11.090141 15.177913 -1.054316 2.390108 -0.001318 0.000275 2230730.000000 1 0 0
-2.587551 3.836006 -17.135341 17.749092 -0.977361 2.877849 0.015141 -0.002789 1564410.000000 1 0 0
9.521849 9.489406 -14.376041 19.682098 0.783692 2.389721 0.091926 -0.032731 -279237.000000 1 0 0
9.755949 10.155806 -11.504341 18.184301 0.805477 2.255770 0.055118 -0.028350 -121015.000000 1 0 0
12.031949 -5.887194 -9.682241 16.527935 -0.455048 2.196676 0.028155 -0.002878 14526.400000 1 0 0
8.187249 7.079206 -13.592041 17.374976 0.712945 2.469109 0.032752 -0.009965 998712.000000 1 0 0
4.061949 -4.134994 -17.585441 18.516083 -0.794309 2.823196 0.040787 -0.021198 1323550.000000 1 0 0
9.437849 -7.459994 -12.466941 17.324812 -0.668881 2.374023 0.032416 -0.006239 -201097.000000 1 0 0
12.024949 -8.593794 -8.826141 17.214920 -0.620500 2.109126 0.032317 -0.006653 1655430.000000 1 0 0
-2.902851 -2.578294 -13.842641 14.376816 0.726254 2.868142 0.006155 -0.007956 -2488860.000000 1 0 0
-0.558351 6.052906 -17.536441 18.560070 -1.478812 2.807926 0.023823 -0.009389 1784980.000000 1 0 0
1.156449 -8.438594 -17.557241 19.514199 -1.434602 2.689915 0.022373 -0.011948 1619550.000000 1 0 0
-0.044451 8.512706 -15.995741 18.119930 -1.565575 2.652524 0.012622 -0.002858 -1599370.000000 1 0 0
1.813249 3.334906 -14.931541 15.406505 1.072789 2.892641 0.022566 -0.006146 2058170.000000 1 0 0
-1.947351 -0.614794 -15.846341 15.977380 0.305805 3.013431 0.019097 -0.012443 1571760.000000 1 0 0
14.119949 -4.181494 -8.429441 16.968009 -0.287913 2.090686 0.037626 -0.003227 1243170.000000 1 0 0
0.622649 0.579706 -14.599941 14.624706 0.749697 3.083389 0.016267 -0.007404 1995650.000000 1 0 0
8.838649 2.817106 -12.558341 15.613127 0.308547 2.505369 0.016396 0.000190 2231830.000000 1 0 0
6.137149 1.002906 -17.118141 18.212665 0.161984 2.793143 0.044325 -0.011708 -762523.000000 1 0 0
15.356049 1.683906 -12.349441 19.777575 0.109221 2.245180 0.077166 -0.024394 1727670.000000 1 0 0
8.847749 -11.302494 -11.977741 18.694794 -0.906623 2.266205 0.048807 -0.009919 1545290.000000 1 0 0
-4.670151 0.677106 -15.070341 15.791895 -0.143983 2.838134 0.012755 -0.008320 1699470.000000 1 0 0
2.267649 5.121706 -17.236941 18.124189 1.153986 2.827400 0.040856 -0.011911 2350690.000000 1 0 0
5.903149 -11.642394 -12.422741 18.019905 -1.101533 2.331443 0.016693 -0.010109 1608590.000000 1 0 0
12.797249 7.256506 -8.647941 17.064974 0.515829 2.102225 0.029459 -0.006742 581625.000000 1 0 0
-5.083351 3.472406 -15.614541 16.784277 -0.599289 2.766047 0.007154 -0.002780 852990.000000 1 0 0
-0.389151 -4.480094 -19.093041 19.615476 1.484152 2.910280 0.027867 -0.018137 -586139.000000 1 0 0
9.833849 4.531306 -10.241441 14.903840 0.431788 2.328380 0.004464 -0.000073 192073.000000 1 0 0
13.418549 3.792006 -12.900641 18.996403 0.275413 2.317345 0.068251 -0.021106 -12906.800000 1 0 0
-6.322551 5.681206 -17.110141 19.105174 -0.732020 2.680521 0.009369 -0.003115 534561.000000 1 0 0
-10.302251 3.005806 -15.371941 18.747475 -0.283882 2.532115 0.042590 -0.008643 -227896.000000 1 0 0
10.729449 13.737306 -8.414341 19.355511 0.907721 2.020530 0.123164 -0.023984 1274480.000000 1 0 0
7.253349 13.506406 -12.147041 19.559772 1.077965 2.240842 0.087245 -0.038134 2190980.000000 1 0 0
5.177149 15.336506 -10.997841 19.569461 1.245237 2.167586 0.055268 -0.021726 -771149.000000 1 0 0
14.140749 9.408506 -10.158941 19.791030 0.587088 2.109834 0.110082 -0.029743 1235900.000000 1 0 0
8.474649 -17.065694 -2.212441 19.182088 -1.109881 1.686392 0.031135 -0.010129 -937222.000000 1 0 0
0.884149 -15.957194 -0.097541 15.981967 -1.515445 1.576900 0.013151 -0.010576 2492820.000000 1 0 0
-9.092651 -11.724694 7.557159 16.650988 0.911166 1.099708 0.033289 -0.013723 136266.000000 1 0 0
2.221749 -15.814994 -2.668541 16.191705 -1.431226 1.736361 0.020029 -0.013005 481875.000000 1 0 0
-1.262451 -11.019794 -9.451541 14.572620 1.456732 2.276516 -0.000510 0.004732 1455110.000000 1 0 0
-4.693851 -12.679494 -13.004941 18.759805 1.216247 2.336763 0.015135 0.003416 1102150.000000 1 0 0
-8.348851 -18.011894 -1.360041 19.899280 1.136757 1.639196 0.059806 -0.024693 -567525.000000 1 0 0
-11.352951 -7.145494 -8.883141 16.089057 0.561754 2.155705 0.030418 -0.013519 2439400.000000 1 0 0
-13.627251 -11.663094 -4.726541 18.549121 0.707889 1.828450 0.056704 -0.003284 46190.900000 1 0 0
-5.726551 -13.517694 9.637059 17.561160 1.170084 0.989903 0.027725 -0.014583 253238.000000 1 0 0
0.173049 -14.004694 -3.682441 14.481774 -1.558440 1.827901 0.012617 -0.005695 -916111.000000 1 0 0
-14.807551 -11.611294 1.871859 18.910039 0.664999 1.471646 0.020279 -0.001278 -984177.000000 1 0 0
-3.883251 -16.568494 -7.460341 18.580939 1.340576 1.983956 0.022686 -0.003791 703813.000000 1 0 0
0.596549 -15.200294 -9.248141 17.802610 -1.531571 2.117041 0.009301 -0.000288 1136580.000000 1 0 0
4.651449 -14.068194 -2.674241 15.056614 -1.251475 1.749356 0.017673 -0.008361 318351.000000 1 0 0
-3.345251 -18.052894 -2.419041 18.518894 1.387572 1.701796 0.032967 -0.025333 1438320.000000 1 0 0
-0.771451 -13.435194 0.655259 13.473267 1.513439 1.522143 0.013736 -0.006409 3244190.000000 1 0 0
-8.354951 -11.334594 -10.530641 17.583305 0.935590 2.212923 0.019541 -0.005691 506710.000000 1 0 0
-3.618951 -14.108194 -0.337541 14.568867 1.319696 1.593967 0.013560 -0.006221 3663130.000000 1 0 0
-1.528451 -14.924494 -7.252041 16.663396 1.468740 2.021065 0.010728 0.002362 625373.000000 1 0 0
-14.215751 -8.029894 -1.922741 16.439699 0.514180 1.688022 0.021556 -0.000301 896225.000000 1 0 0
-10.687251 -7.376694 -11.650841 17.446347 0.604141 2.302059 0.035805 -0.015361 484891.000000 1 0 0
-9.519651 -14.706294 6.760459 18.777716 0.996309 1.202501 0.032623 -0.013489 803661.000000 1 0 0
-2.348751 -14.217094 -12.233741 18.902561 1.407069 2.274702 0.025205 -0.003803 743190.000000 1 0 0
2.537649 -17.811194 -4.711541 18.597766 -1.429274 1.826927 0.040267 -0.011704 213944.000000 1 0 0
-6.547751 -9.642194 -9.215041 14.858059 0.974254 2.239800 0.011704 -0.004760 902119.000000 1 0 0
-10.861851 -15.368794 0.573459 18.828396 0.955556 1.540334 0.041078 -0.015124 514042.000000 1 0 0
-12.694751 -11.010394 3.975059 17.268079 0.714463 1.338516 0.028522 -0.008371 2393050.000000 1 0 0
-17.009851 -9.053594 -1.688641 19.343063 0.489118 1.658207 0.018782 -0.002345 -35888.000000 1 0 0
-1.273751 -19.275394 -4.034341 19.734213 1.504811 1.776682 0.040168 -0.015496 -972886.000000 1 0 0
3.338949 -14.309794 -8.740041 17.096991 -1.341565 2.107381 0.021659 -0.005709 435239.000000 1 0 0
-4.299451 -8.027094 -13.102941 15.956396 1.079062 2.534257 0.000871 -0.000657 1099250.000000 1 0 0
5.694449 -16.603494 1.205159 17.594180 -1.240401 1.502245 0.027366 -0.005527 3354650.000000 1 0 0
-2.709851 -13.836294 -3.183341 14.454064 1.377393 1.792855 0.011020 -0.003667 -352440.000000 1 0 0
-0.317551 -13.941394 3.655659 14.416211 1.548023 1.314417 0.010526 -0.004811 -3093450.000000 1 0 0
1.287449 -16.216094 6.912859 17.675035 -1.491569 1.168960 0.027920 -0.008583 1970720.000000 1 0 0
-5.426851 -10.354794 -14.625041 18.723362 1.088062 2.467241 0.011334 -0.004809 462544.000000 1 0 0
-0.114751 -17.320294 -5.858141 18.284517 1.564171 1.896935 0.031313 -0.005526 1495290.000000 1 0 0
-6.412051 -13.445894 -1.192941 14.944215 1.125817 1.650708 0.013354 -0.006836 2250690.000000 1 0 0
-1.512351 -17.657694 -0.191441 17.723375 1.485357 1.581598 0.023473 -0.020208 1607410.000000 1 0 0
-9.534451 -9.869994 -4.812141 14.542325 0.802689 1.908060 0.020883 -0.003369 2998040.000000 1 0 0
-0.724451 -16.669394 4.760459 17.350951 1.527364 1.292869 0.027385 -0.014702 1477250.000000 1 0 0
-6.821251 -9.980694 -6.277041 13.621489 0.971268 2.049714 0.009618 -0.005398 2745100.000000 1 0 0
-5.955951 -14.520994 -8.548541 17.872050 1.181561 2.069536 0.018289 -0.006278 -454240.000000 1 0 0
-5.698051 -12.209394 -10.322041 16.972967 1.134147 2.224519 0.019764 -0.003386 -506803.000000 1 0 0
-10.418351 -12.349894 -8.710741 18.355896 0.870030 2.065246 0.040277 -0.015810 294020.000000 1 0 0
4.156549 -17.108794 6.542659 18.782814 -1.332466 1.215005 0.052601 -0.011106 2155210.000000 1 0 0
-6.652251 -14.393194 -4.081241 16.372935 1.137860 1.822720 0.022407 -0.012206 -914521.000000 1 0 0
-2.764451 -12.280894 -7.051541 14.428679 1.349385 2.081415 0.004480 -0.000727 2445760.000000 1 0 0
-7.117651 -12.839794 4.336859 15.307828 1.064625 1.283553 0.017694 -0.006516 4271240.000000 1 0 0
2.793749 -16.388994 2.242359 16.775945 -1.401954 1.436730 0.022054 -0.012552 3000400.000000 1 0 0
-6.148251 -12.037894 7.148559 15.290970 1.098593 1.084333 0.013887 -0.011696 3353870.000000 1 0 0
-11.307851 -12.921794 -0.874741 17.193179 0.851910 1.621695 0.045246 -0.002914 711832.000000 1 0 0
-14.307051 -8.682094 4.623059 17.362118 0.545434 1.301272 0.009532 -0.001485 638460.000000 1 0 0
-7.932751 -15.605494 4.443059 18.061028 1.100506 1.322242 0.034418 -0.008220 -501499.000000 1 0 0
-16.553551 -9.246294 1.174159 18.997175 0.509398 1.508950 0.010748 0.005164 -420611.000000 1 0 0
-6.457951 -17.135994 2.459359 18.476901 1.210392 1.437296 0.040034 -0.015039 2525250.000000 1 0 0
-11.502251 -15.079194 -4.593841 19.513770 0.919160 1.808442 0.064512 -0.009124 8845.590000 1 0 0
-9.972451 -10.035494 -12.531441 18.899680 0.788549 2.295683 0.027302 -0.008917 -446689.000000 1 0 0
-4.318851 -16.066494 -4.468541 17.226507 1.308193 1.833196 0.015018 -0.011446 -537494.000000 1 0 0
-11.826351 -8.242294 -0.089241 14.415476 0.608671 1.576987 0.003651 -0.000234 1108450.000000 1 0 0
-9.666851 -11.080694 3.381659 15.088585 0.853438 1.344756 0.019644 -0.002640 2813450.000000 1 0 0
-14.216951 -13.154594 -0.560641 19.377289 0.746605 1.599733 0.037531 0.002916 -1226150.000000 1 0 0
5.746749 -14.871294 -7.117041 17.459461 -1.202041 1.990656 0.021072 -0.016514 393280.000000 1 0 0
-7.432251 -10.612894 -1.346241 13.026290 0.959866 1.674329 0.012067 -0.000494 1554540.000000 1 0 0
-11.633451 -8.302594 -6.065941 15.526296 0.619850 1.972175 0.027734 -0.007843 467043.000000 1 0 0
-14.383351 -6.676894 -9.195241 18.330688 0.434608 2.096279 0.049010 -0.023027 2244240.000000 1 0 0
-3.729351 -16.466494 1.416259 16.942823 1.348073 1.487108 0.026775 -0.016829 239391.000000 1 0 0
-7.848851 -15.559194 0.258959 17.428713 1.103594 1.555938 0.044245 -0.016311 1890490.000000 1 0 0
1.187949 -18.503794 3.540459 18.876876 -1.506684 1.382124 0.036037 -0.022021 -185696.000000 1 0 0
-14.201251 -8.796694 -4.654441 17.341314 0.554585 1.842530 0.039630 -0.008127 -514769.000000 1 0 0
-3.256851 -14.608594 11.010959 18.581155 1.351443 0.936529 0.021724 -0.017459 105954.000000 1 0 0
-10.872651 -12.250894 -3.752541 16.804181 0.844931 1.796005 0.050639 -0.009285 932660.000000 1 0 0
-9.995351 -10.686094 0.468659 14.639647 0.818785 1.538778 0.013544 0.000109 2894870.000000 1 0 0
0.153349 -13.066594 -11.174741 17.194017 -1.559061 2.278276 0.017463 -0.001899 442141.000000 1 0 0
-5.811651 -12.710994 -6.302941 15.332048 1.141959 1.994452 0.009742 -0.007528 2353360.000000 1 0 0
1.870349 -15.855294 9.860359 18.764734 -1.453375 1.017525 0.030994 -0.008660 -307025.000000 1 0 0
-8.904051 -15.932594 -5.149741 18.964427 1.061178 1.845797 0.052827 -0.014613 -1590790.000000 1 0 0
-3.183551 -15.602994 5.835859 16.960120 1.369524 1.219524 0.018881 -0.006825 -1456160.000000 1 0 0
-17.483351 -5.622594 -6.604541 19.516687 0.311151 1.916017 0.031156 -0.007724 773247.000000 1 0 0
18.819249 5.603406 -2.933841 19.853708 0.289390 1.719112 0.043153 0.002873 -470176.000000 1 0 0
12.883749 -12.376994 -5.878041 18.807773 -0.765340 1.888654 0.031610 -0.007541 -16721.600000 1 0 0
11.202049 -13.314994 -1.680241 17.481367 -0.871368 1.667061 0.025720 -0.006114 1819120.000000 1 0 0
18.718349 -2.717894 4.520559 19.447339 -0.144192 1.336199 0.085903 -0.022573 -281965.000000 1 0 0
9.064049 -16.738794 4.705959 19.608423 -1.074503 1.328434 0.053735 -0.022707 -632707.000000 1 0 0
18.143249 -0.926194 6.690259 19.359620 -0.051005 1.217942 0.111927 -0.020504 382565.000000 1 0 0
18.091649 -4.106794 -5.010741 19.216687 -0.223217 1.834595 0.095916 -0.021095 1252040.000000 1 0 0
5.503349 -11.713594 14.763559 19.633080 -1.131578 0.719745 0.022855 -0.005947 718138.000000 1 0 0
16.044849 -8.832894 -0.770841 18.331705 -0.503237 1.612858 0.036478 -0.009013 713513.000000 1 0 0
14.015649 -12.491894 -1.474941 18.832453 -0.727978 1.649196 0.037366 0.002338 -31933.300000 1 0 0
11.141349 -1.932194 13.805359 17.845195 -0.171718 0.686266 0.041863 -0.014752 89936.600000 1 0 0
17.014749 -6.089094 -1.391441 18.124979 -0.343670 1.647641 0.050773 -0.012182 -986679.000000 1 0 0
17.753449 3.741506 -1.034041 18.172866 0.207709 1.627727 0.033755 0.000985 130188.000000 1 0 0
9.670249 -11.008994 9.584259 17.509132 -0.850047 0.991558 0.028036 -0.004707 -173506.000000 1 0 0
9.117549 -11.087094 4.246059 14.969381 -0.882571 1.283198 0.008944 -0.004331 -1609100.000000 1 0 0
14.096249 -10.041094 6.742959 18.574049 -0.618949 1.199277 0.051851 -0.013634 -375609.000000 1 0 0
16.164449 -0.492794 -4.701441 16.841491 -0.030477 1.853714 0.028537 -0.003827 -1704600.000000 1 0 0
15.770549 -0.380194 -1.730441 15.869757 -0.024103 1.680054 0.023839 -0.003633 1882180.000000 1 0 0
12.927049 -5.002094 -0.202441 13.862559 -0.369204 1.585400 0.013166 -0.008071 624857.000000 1 0 0
14.311349 -7.358594 1.115359 16.130953 -0.474926 1.501597 0.025796 -0.007403 1528430.000000 1 0 0
15.531349 2.539706 3.660659 16.157764 0.162087 1.342255 0.043907 -0.006517 1414440.000000 1 0 0
15.973949 -6.986894 4.989559 18.135034 -0.412321 1.292068 0.063694 -0.017205 -1584950.000000 1 0 0
13.774249 -12.038094 3.275159 18.584195 -0.718239 1.393638 0.021827 -0.000140 2321130.000000 1 0 0
13.972949 -0.883794 9.259759 16.785933 -0.063166 0.986469 0.062386 -0.012973 447992.000000 1 0 0
14.143149 -2.679294 -1.620541 14.485629 -0.187222 1.682903 0.011849 -0.002236 33764.300000 1 0 0
15.023149 1.870406 9.173659 17.701680 0.123864 1.026008 0.084484 -0.011226 -1087730.000000 1 0 0
14.573649 -10.090594 -3.060741 17.988315 -0.605598 1.741780 0.037644 -0.007690 -170936.000000 1 0 0
7.339349 -12.606194 6.095559 15.809428 -1.043567 1.174976 0.003812 -0.003615 -161813.000000 1 0 0
12.496149 -4.571894 6.981459 15.026534 -0.350737 1.087604 0.028287 -0.012150 3046990.000000 1 0 0
15.061249 -8.804894 -5.686341 18.349438 -0.529023 1.885876 0.054316 -0.013154 -639994.000000 1 0 0
14.408249 -4.420794 4.685359 15.782701 -0.297705 1.269387 0.026422 -0.010394 1132250.000000 1 0 0
17.203749 -4.178494 0.904959 17.727035 -0.238269 1.519724 0.036666 -0.010947 -838067.000000 1 0 0
10.311849 -14.325594 1.066059 17.683138 -0.946892 1.510473 0.027663 -0.004059 -285910.000000 1 0 0
16.434049 -2.456294 8.536859 18.681256 -0.148365 1.096205 0.096618 -0.018342 1169860.000000 1 0 0
16.099549 -2.500894 3.218159 16.607423 -0.154108 1.375784 0.029340 -0.005446 958528.000000 1 0 0
7.910549 -15.116394 2.566059 17.253023 -1.088676 1.421511 0.014411 -0.003956 1673000.000000 1 0 0
16.746149 -6.901294 7.834859 19.734396 -0.390904 1.162534 0.091184 -0.017973 -346670.000000 1 0 0
10.267349 -8.517694 5.113359 14.286918 -0.692525 1.204773 0.012167 -0.007741 1764540.000000 1 0 0
11.041749 -11.748994 2.162359 16.267602 -0.816420 1.437477 0.017689 -0.002970 948644.000000 1 0 0
12.371249 -7.294794 11.922359 18.665596 -0.532780 0.877944 0.065462 -0.023132 -1041420.000000 1 0 0
15.200049 -9.759094 4.259659 18.558721 -0.570762 1.339208 0.033423 -0.007137 296700.000000 1 0 0
7.376649 -10.252194 7.808359 14.849004 -0.947090 1.017081 0.009509 0.000478 799593.000000 1 0 0
15.206449 -3.338794 -4.350841 16.165193 -0.216135 1.843305 0.035162 -0.004889 1224170.000000 1 0 0
11.785549 -9.004694 9.718359 17.732180 -0.652430 0.990749 0.052445 -0.011842 -1096110.000000 1 0 0
16.968749 -6.560494 2.396859 18.350026 -0.368921 1.439803 0.054327 -0.013760 1619240.000000 1 0 0
17.588649 3.970706 1.945659 18.135950 0.222032 1.463308 0.046147 -0.002329 507876.000000 1 0 0
14.780349 -4.863694 8.735559 17.844446 -0.317904 1.059235 0.072935 -0.017433 212178.000000 1 0 0
12.823049 -12.526694 6.070059 18.926021 -0.773708 1.244301 0.031452 -0.006941 -429866.000000 1 0 0
18.189849 0.882706 -0.922041 18.234581 0.048489 1.621383 0.037875 -0.003684 1422910.000000 1 0 0
11.634549 -2.091794 10.942859 16.108523 -0.177891 0.823959 0.024077 -0.009193 -1953.260000 1 0 0
5.752249 -12.505994 10.549859 17.343235 -1.139691 0.916882 0.006134 0.002838 -571456.000000 1 0 0
10.755149 -4.978394 11.025259 16.186846 -0.433517 0.821499 0.030955 -0.011134 954858.000000 1 0 0
17.873149 1.519106 5.126159 18.655687 0.084790 1.292438 0.086637 -0.012880 -1086190.000000 1 0 0
12.342149 -7.681394 7.098559 16.177824 -0.556706 1.116552 0.036790 -0.012279 -1336630.000000 1 0 0
10.879249 -7.819094 14.372059 19.648216 -0.623177 0.750323 0.083405 -0.019139 139058.000000 1 0 0
14.197149 -0.246394 3.776559 14.692929 -0.017353 1.310846 0.010521 -0.001771 810889.000000 1 0 0
11.652349 -7.518694 2.573659 14.104316 -0.573030 1.387295 0.016021 -0.006196 2048530.000000 1 0 0
9.305949 6.186606 3.529259 11.718808 0.586710 1.264885 0.008794 -0.002248 1088370.000000 1 0 0
-4.023051 14.735206 -9.851141 18.175704 -1.304269 2.143606 -0.002932 -0.003817 -17910.200000 1 0 0
8.806249 -6.353994 9.257859 14.269941 -0.625032 0.864834 0.008684 -0.004940 -733704.000000 1 0 0
5.894249 -10.645894 -8.547241 14.870526 -1.065144 2.183128 0.004956 -0.001488 -427199.000000 1 0 0
5.422749 1.065806 0.558859 5.554681 0.194070 1.470015 0.000969 0.001309 2890840.000000 1 0 0
-0.603851 9.909506 10.951559 14.781732 -1.509935 0.736410 0.009355 0.001049 -18307.600000 1 0 0
-6.331151 -5.159394 1.050559 8.234470 0.683774 1.442867 0.007152 -0.006197 2367380.000000 1 0 0
-1.025351 3.965306 -10.808941 11.558901 -1.317758 2.779389 0.009730 -0.004443 1124550.000000 1 0 0
10.910549 5.818106 1.270959 12.430036 0.489896 1.468368 0.005775 -0.001267 863492.000000 1 0 0
-10.033251 -1.847894 -13.423141 16.860057 0.182136 2.491703 0.019282 -0.016579 547769.000000 1 0 0
7.441949 10.868006 -5.993641 14.471347 0.970374 1.997830 0.003282 -0.001914 363777.000000 1 0 0
-12.363551 -3.074494 -9.639741 15.976060 0.243730 2.218537 0.017352 -0.007802 1180410.000000 1 0 0
-3.935351 -8.697594 2.446859 9.855062 1.145895 1.319887 0.012225 -0.004963 -1756630.000000 1 0 0
8.022749 -6.659694 -5.878141 11.969485 -0.692828 2.084141 0.003002 -0.004585 1394510.000000 1 0 0
14.402949 3.295206 -4.209841 15.363141 0.224916 1.848369 0.022406 0.001042 1550110.000000 1 0 0
-2.574951 -4.988294 9.821859 11.312929 1.094274 0.519238 0.007447 -0.004620 808004.000000 1 0 0
3.549249 -1.927994 -4.595141 6.117978 -0.497617 2.420505 -0.000290 -0.000684 -3300720.000000 1 0 0
-3.937551 8.392806 -3.449141 9.891414 -1.132125 1.926981 0.000657 -0.001890 -298853.000000 1 0 0
5.811349 0.123706 11.656259 13.025186 0.021284 0.462586 0.005128 -0.002945 3324520.000000 1 0 0
7.143949 4.842706 12.358159 15.073550 0.595722 0.609635 0.011419 0.003258 669638.000000 1 0 0
1.274349 -14.353494 12.428159 19.029080 -1.482245 0.859107 0.010113 -0.006697 -1841010.000000 1 0 0
2.912149 8.729206 -9.086941 12.932600 1.248797 2.349895 0.000648 0.001959 974556.000000 1 0 0
-4.464551 -8.971494 -4.583441 11.019430 1.109041 1.999774 0.012245 -0.005110 520865.000000 1 0 0
5.736349 -6.551694 -4.037941 9.598717 -0.851654 2.004986 0.001964 -0.004108 1839820.000000 1 0 0
-3.129451 3.385706 8.695159 9.841863 -0.824710 0.487542 0.002692 0.002754 1266240.000000 1 0 0
-3.731151 3.111506 -11.081041 12.099274 -0.695088 2.728400 0.008718 -0.006634 289699.000000 1 0 0
3.107549 -6.116294 8.639159 11.031817 -1.100708 0.671140 0.003330 -0.002414 -755193.000000 1 0 0
-5.280751 -8.753794 10.425659 14.601699 1.027988 0.775597 0.007869 -0.006116 2579420.000000 1 0 0
-13.234651 -2.620594 6.475759 14.965258 0.195481 1.123289 0.010402 -0.002305 756717.000000 1 0 0
4.020349 -5.933394 -8.332041 10.990508 -0.975276 2.431210 0.000102 -0.001586 2658850.000000 1 0 0
2.895749 -0.568194 12.435059 12.780411 -0.193755 0.233000 0.003243 -0.000527 1998280.000000 1 0 0
1.541749 -1.447494 -7.558441 7.848710 -0.753877 2.868780 0.002570 -0.004037 1097790.000000 1 0 0
3.559349 -3.458494 3.494759 6.069884 -0.771028 0.957270 0.002753 -0.001168 2357850.000000 1 0 0
1.536549 0.414606 -11.788441 11.895386 0.263553 3.007399 0.013198 -0.005014 1200530.000000 1 0 0
4.043349 3.485406 -10.578641 11.849235 0.711425 2.674253 0.001188 0.003846 2116990.000000 1 0 0
2.801249 3.240506 3.441559 5.494744 0.857974 0.893951 -0.004614 0.003851 -277039.000000 1 0 0
-5.365351 0.786206 2.600659 6.014028 -0.145498 1.123608 0.005663 -0.002316 928255.000000 1 0 0
-9.478751 -9.274694 5.658859 14.418368 0.774518 1.167475 0.017017 -0.004491 -1846900.000000 1 0 0
-3.096651 3.788006 -0.589941 4.928110 -0.885482 1.690793 0.003777 -0.004487 1216410.000000 1 0 0
-15.924451 -6.495894 4.886059 17.878992 0.387315 1.293990 0.028361 -0.009632 2092990.000000 1 0 0
1.009949 6.615106 -8.025041 10.448967 1.419293 2.446544 0.000276 0.001735 475166.000000 1 0 0
-1.577351 6.553106 -9.450341 11.607764 -1.334587 2.522042 0.001976 0.000671 497781.000000 1 0 0
2.081649 -0.334394 5.254859 5.662034 -0.159278 0.381555 0.001854 0.001174 1518600.000000 1 0 0
-3.469151 -0.664194 -6.259941 7.187699 0.189168 2.627876 0.011099 -0.008507 609412.000000 1 0 0
1.946349 -1.150994 -2.444841 3.330212 -0.534043 2.395195 0.005369 -0.001398 910907.000000 1 0 0
2.498049 -8.579694 -7.609441 11.736907 -1.287471 2.276191 0.001265 -0.000667 3129990.000000 1 0 0
-2.545851 13.973606 -5.545741 15.247894 -1.390583 1.943039 0.001191 0.001942 2197490.000000 1 0 0
6.908749 -5.099894 -8.191241 11.867441 -0.635893 2.332600 0.002234 -0.001559 2593230.000000 1 0 0
-14.156851 -5.046094 -2.272441 15.200114 0.342402 1.720860 0.005152 -0.002108 853049.000000 1 0 0
-2.754851 6.822806 -6.783241 10.007609 -1.187043 2.315574 0.001427 -0.000948 -2727240.000000 1 0 0
-5.650651 -1.173594 -8.094541 9.941266 0.204780 2.522209 0.014085 -0.011932 1062910.000000 1 0 0
-5.787251 -10.654294 3.383059 12.587746 1.073201 1.298693 0.010454 -0.004726 -2521020.000000 1 0 0
8.088649 -7.550394 6.679959 12.925036 -0.750994 1.027660 0.007380 -0.004610 1326840.000000 1 0 0
8.889149 -5.986594 13.163659 16.974634 -0.592699 0.683305 0.040248 -0.013108 1028890.000000 1 0 0
-4.651051 9.484006 -0.788241 10.592449 -1.114850 1.645281 0.000212 0.001178 1569100.000000 1 0 0
2.738349 6.607006 12.146159 14.095399 1.177886 0.532164 0.008689 -0.001419 1309640.000000 1 0 0
6.056149 -2.836794 10.988059 12.863195 -0.438062 0.546739 0.009775 -0.003188 -638710.000000 1 0 0
-9.700651 -6.512894 -1.222341 11.747958 0.591264 1.675032 0.007312 -0.004347 196821.000000 1 0 0
1.010349 -13.330794 6.323759 14.789212 -1.495150 1.128968 0.010331 -0.001518 913076.000000 1 0 0
-0.534051 -3.281794 8.790759 9.398555 1.409479 0.361603 0.004839 -0.003482 2403390.000000 1 0 0
4.215649 0.712406 3.416559 5.472851 0.167409 0.896594 -0.002694 0.002525 1447070.000000 1 0 0
-10.265351 5.489906 8.240759 14.262770 -0.491098 0.954789 -0.003163 -0.010391 640162.000000 1 0 0
9.367049 8.037206 0.058659 12.342679 0.709137 1.566044 0.002381 -0.002613 -860081.000000 1 0 0
4.183449 2.984006 8.184459 9.663897 0.619589 0.560648 -0.002029 0.000006 1813680.000000 1 0 0
1.299749 2.622206 -9.739341 10.169566 1.110619 2.849679 0.008822 -0.003830 545334.000000 1 0 0
-1.430451 -10.239094 2.994759 10.763541 1.431990 1.288844 0.011079 -0.005470 -1719800.000000 1 0 0
-9.991251 9.566806 9.053959 16.532485 -0.763700 0.991247 0.007512 -0.012076 2227760.000000 1 0 0
9.832549 -1.919394 -7.685641 12.626645 -0.192784 2.225198 0.006763 0.001434 752261.000000 1 0 0
-5.247951 -1.909394 6.706559 8.727239 0.348947 0.694361 0.003794 -0.004378 639541.000000 1 0 0
3.155049 -7.792494 -4.847341 9.704329 -1.186087 2.093821 0.000509 -0.003389 3500540.000000 1 0 0
-5.120151 4.839006 -13.047441 14.827934 -0.757176 2.646496 0.001194 -0.007139 3015890.000000 1 0 0
-5.686551 9.590406 5.419359 12.396863 -1.035583 1.118363 0.003033 -0.000394 1605280.000000 1 0 0
-0.403451 -1.814094 -9.379241 9.561583 1.351960 2.945985 0.008852 -0.005390 -1297880.000000 1 0 0
-16.762751 0.161806 6.321059 17.915685 -0.009652 1.210210 0.036349 -0.018177 531105.000000 1 0 0
-6.090351 -2.971994 4.076159 7.908236 0.453989 1.029284 -0.002674 -0.003217 3061700.000000 1 0 0
1.027649 -5.645794 -5.053641 7.646590 -1.390747 2.292815 0.004693 -0.003030 851356.000000 1 0 0
-6.986751 1.321706 -8.464141 11.054559 -0.186964 2.442878 0.009013 -0.007549 226276.000000 1 0 0
7.996049 2.011006 4.747259 9.514064 0.246390 1.048383 0.002776 -0.001556 408379.000000 1 0 0
0.466449 -8.037594 -0.477441 8.065261 -1.512828 1.630028 0.006183 -0.003824 1443430.000000 1 0 0
5.449949 5.661606 -3.324841 8.532895 0.804444 1.971048 -0.002792 0.000677 -612252.000000 1 0 0
-0.752251 -0.404294 -1.252841 1.516227 0.493153 2.543282 0.008131 -0.003729 1246370.000000 1 0 0
9.043349 6.423406 -6.336441 12.774694 0.617599 2.089800 0.002380 0.000806 1268740.000000 1 0 0
-14.978151 -7.117994 2.375259 16.752692 0.443632 1.428533 -0.005687 -0.001918 1329170.000000 1 0 0
-6.476951 6.814606 8.896659 12.943736 -0.810796 0.812985 0.001673 -0.000610 754714.000000 1 0 0
-9.338151 -3.216194 -9.671641 13.823371 0.331690 2.345716 0.014006 -0.009038 1629330.000000 1 0 0
14.864549 3.525206 -1.233841 15.326587 0.232853 1.651387 0.012811 0.001668 1042820.000000 1 0 0
12.069649 1.774806 -5.744541 13.484292 0.146001 2.010882 0.008978 0.003066 587575.000000 1 0 0
1.576749 -9.456594 12.747759 15.950507 -1.405581 0.644821 0.006967 -0.004458 -622938.000000 1 0 0
-3.640151 6.332306 7.907259 10.764458 -1.049072 0.745762 0.002006 0.001996 2068660.000000 1 0 0
-4.177551 13.049906 -12.361241 18.454058 -1.260984 2.304788 -0.000385 -0.004064 1348420.000000 1 0 0
-10.313551 7.760506 6.496459 14.449871 -0.645072 1.104495 -0.005540 -0.006612 -185322.000000 1 0 0
8.116749 -9.242894 -7.268441 14.287860 -0.850179 2.104487 0.006405 -0.002300 263116.000000 1 0 0
5.839649 -3.796694 -0.281541 6.971058 -0.576486 1.611194 0.002491 -0.001663 -979083.000000 1 0 0
-1.641351 -4.538094 4.221559 6.411699 1.223752 0.852085 0.005760 -0.003697 -171232.000000 1 0 0
9.903849 -1.966794 -2.649641 10.439114 -0.196038 1.827422 0.001731 0.001291 -2405640.000000 1 0 0
13.519249 7.086306 1.349059 15.323374 0.482792 1.482643 0.017253 -0.000860 482679.000000 1 0 0
5.429049 -3.696694 -3.215441 7.312946 -0.597799 2.026052 -0.000975 -0.001496 -2343240.000000 1 0 0
-12.258651 -6.016894 1.802559 13.774133 0.456283 1.439554 -0.005958 0.000848 -565223.000000 1 0 0
3.717949 -5.695694 -0.281841 6.807607 -0.992480 1.612209 0.004014 -0.002519 -294070.000000 1 0 0
-5.178351 3.727106 -8.656841 10.753954 -0.623857 2.506457 0.009075 -0.006721 1277070.000000 1 0 0
-1.762651 -9.233294 7.177059 11.826700 1.382164 0.918702 0.009539 -0.003457 2815180.000000 1 0 0
-7.469151 -7.454694 2.544359 10.855157 0.784429 1.334203 0.010261 -0.005386 -4463630.000000 1 0 0
-5.723051 12.997506 -8.351041 16.475083 -1.156022 2.102368 -0.004832 -0.010359 1846550.000000 1 0 0
9.314349 -13.635894 -4.147841 17.026429 -0.971519 1.816885 0.027299 -0.006772 192655.000000 1 0 0
-6.511351 -5.305694 -6.769141 10.787462 0.683723 2.249136 0.010034 -0.006969 493870.000000 1 0 0
3.460249 0.355406 -6.224041 7.130100 0.102352 2.631962 0.000391 -0.003345 1303880.000000 1 0 0
-3.581451 5.685306 5.022359 8.388897 -1.008646 0.928930 0.003308 0.003393 1752710.000000 1 0 0
-2.635451 -10.809094 -2.894141 11.496006 1.331645 1.825286 0.015135 -0.005307 2365460.000000 1 0 0
-12.571251 -0.508894 1.658159 12.690343 0.040459 1.439759 -0.001545 -0.004153 -158001.000000 1 0 0
8.586949 -11.841594 -6.165741 15.873733 -0.943389 1.969717 0.023677 -0.011276 -6971.480000 1 0 0
6.087349 3.934406 0.956859 7.311016 0.573787 1.439541 -0.001391 0.000632 39666.000000 1 0 0
3.407849 -4.841494 -10.979941 12.474478 -0.957469 2.647064 0.004256 -0.000288 -605211.000000 1 0 0
-7.705851 4.242106 8.622859 12.317845 -0.503231 0.795357 -0.002532 0.000390 2251950.000000 1 0 0
8.209149 8.813406 4.133459 12.733882 0.820881 1.240204 0.006608 -0.000872 2791710.000000 1 0 0
0.245749 10.595306 -6.359641 12.359852 1.547606 2.111268 -0.001565 0.002089 1085010.000000 1 0 0
5.413249 8.117606 3.330759 10.309838 0.982665 1.241829 0.000817 0.000826 3208000.000000 1 0 0
8.025849 6.742706 -3.748641 11.132414 0.698732 1.914240 -0.000610 -0.000498 234237.000000 1 0 0
10.536049 2.588506 -8.219041 13.611074 0.240910 2.219118 0.004628 0.000672 244227.000000 1 0 0
3.451349 -12.438694 -0.236341 12.910801 -1.300136 1.589103 0.005893 -0.008399 -1470630.000000 1 0 0
0.539649 2.143606 5.286559 5.730094 1.324173 0.396041 -0.000078 0.003724 1045660.000000 1 0 0
-4.910451 13.367606 1.468959 14.316538 -1.218759 1.468010 -0.003671 0.002794 808431.000000 1 0 0
8.201449 4.111906 -8.006641 12.176939 0.464738 2.288325 0.001143 0.002817 710481.000000 1 0 0
-13.867251 -0.580794 -3.621441 14.344086 0.041858 1.826028 0.005919 -0.006762 1124980.000000 1 0 0
-8.638851 -0.070794 -0.549241 8.656582 0.008195 1.634287 -0.000543 -0.004877 469323.000000 1 0 0
1.797749 -3.759594 -1.062741 4.300682 -1.124759 1.820493 0.006636 -0.003228 -1952010.000000 1 0 0
8.115049 -5.595894 -0.133841 9.858294 -0.603692 1.584373 0.006007 -0.004545 1113680.000000 1 0 0
-2.321151 -1.309794 7.413459 7.877987 0.513745 0.345120 0.005349 -0.000994 2880780.000000 1 0 0
-5.845751 8.795206 -11.634541 15.712765 -0.984190 2.404538 0.000663 -0.004189 -834390.000000 1 0 0
-6.117751 9.117006 -8.750941 14.040144 -0.979782 2.243726 0.002737 -0.003228 204163.000000 1 0 0
-1.634451 13.964906 -8.379041 16.367601 -1.454287 2.108225 0.009218 -0.001527 -202375.000000 1 0 0
-1.469551 7.241206 9.760759 12.242021 -1.370573 0.647961 0.001080 -0.001517 -197816.000000 1 0 0
10.016849 2.421306 -4.008141 11.057359 0.237174 1.941731 -0.000416 0.001671 -1844550.000000 1 0 0
-2.962851 -7.503794 -6.914941 10.625526 1.194740 2.279415 0.009415 -0.003387 1865010.000000 1 0 0
-5.520751 -5.023694 -1.585641 7.630888 0.738294 1.780114 0.010867 -0.006842 322712.000000 1 0 0
5.672949 7.420006 -8.752341 12.800090 0.918049 2.323716 -0.001166 0.005248 353906.000000 1 0 0
-9.560151 5.099606 -7.477541 13.164956 -0.490027 2.174856 0.004358 -0.002037 1011800.000000 1 0 0
-0.457651 6.057406 -5.272141 8.043450 -1.495387 2.285585 0.002391 -0.000084 -98587.800000 1 0 0
-8.209351 2.747906 -6.297941 10.705535 -0.323006 2.199737 0.007693 -0.003872 1093920.000000 1 0 0
3.701449 1.463306 -2.002141 4.455397 0.376477 2.036861 -0.000669 -0.001401 1809100.000000 1 0 0
-6.774551 12.372006 -3.494741 14.531837 -1.069820 1.813665 0.000148 0.003664 832846.000000 1 0 0
-6.606451 3.077506 -2.351041 7.657913 -0.435943 1.882844 0.005544 -0.002058 -695971.000000 1 0 0
12.087649 4.119806 -0.796541 12.795255 0.328480 1.633089 0.005114 -0.000654 -1135770.000000 1 0 0
2.234849 12.449906 -5.481141 13.785413 1.393181 1.979701 0.006098 -0.002569 -4752.030000 1 0 0
-9.203551 -1.481894 -4.307941 10.269358 0.159643 2.003685 0.003579 -0.005699 -50167.900000 1 0 0
-1.169351 5.671106 3.425759 6.727901 -1.367452 1.036557 0.001589 0.002127 748021.000000 1 0 0
11.525249 2.644006 12.002459 16.848774 0.225508 0.777935 0.050694 -0.004095 -873382.000000 1 0 0
-7.046851 -2.514894 -5.755841 9.439942 0.342793 2.226520 0.011224 -0.008110 -560797.000000 1 0 0
7.505849 -7.403294 10.837359 15.119355 -0.778520 0.771613 0.013152 -0.003935 -501993.000000 1 0 0
-5.434251 -1.992094 -10.910241 12.350420 0.351369 2.653844 0.010702 -0.006590 10488.100000 1 0 0
0.739149 -6.235994 4.466259 7.705935 -1.452817 0.952575 0.002035 -0.003028 2165190.000000 1 0 0
-4.900151 -9.321794 7.354459 12.845053 1.086827 0.961181 0.006791 -0.005904 2610120.000000 1 0 0
-8.800951 9.295006 1.638859 12.905027 -0.812693 1.443459 0.001046 0.000394 513547.000000 1 0 0
-8.092251 7.092806 -9.008341 14.033625 -0.719675 2.267784 0.003819 -0.004577 271540.000000 1 0 0
-1.302751 -10.631294 -0.137441 10.711697 1.448865 1.583628 0.011532 -0.005185 212366.000000 1 0 0
-3.969451 10.281206 7.693359 13.440518 -1.202340 0.961366 0.001309 0.001226 1724410.000000 1 0 0
-7.506751 12.045506 1.998959 14.333226 -1.013493 1.430877 0.001000 -0.003613 1211140.000000 1 0 0
-8.135151 -8.334194 -2.886641 11.998840 0.797483 1.813756 0.016826 -0.006985 661626.000000 1 0 0
5.397949 4.582006 -8.020341 10.698528 0.703821 2.418356 0.000675 0.003470 754587.000000 1 0 0
-8.966951 -0.216694 -10.154241 13.548497 0.024161 2.418063 0.009873 -0.007789 -980976.000000 1 0 0
-15.167951 -2.292094 -1.596441 15.423004 0.149980 1.674492 0.003340 -0.007527 -1266830.000000 1 0 0
-7.223951 -5.858794 8.749859 12.769924 0.681427 0.815928 0.006571 -0.004155 -97253.500000 1 0 0
8.138849 3.479806 -0.993441 8.907123 0.404033 1.682562 0.000409 0.001625 1474680.000000 1 0 0
11.872549 7.283006 -5.868641 15.114250 0.550238 1.969566 0.011721 0.003017 -69847.400000 1 0 0
3.698749 13.300706 -9.468041 16.740171 1.299563 2.171942 0.008364 -0.008825 1201030.000000 1 0 0
-9.776751 5.325006 -0.523341 11.145153 -0.498734 1.617770 -0.001085 0.000578 1266880.000000 1 0 0
11.316649 -1.146394 -5.168241 12.493658 -0.100957 1.997277 0.010927 -0.000759 -474573.000000 1 0 0
10.593249 1.808306 -1.197041 10.812946 0.169074 1.681728 0.001720 0.000472 -349952.000000 1 0 0
14.630549 5.150806 4.782959 16.231466 0.338507 1.271684 0.039228 -0.009565 2658190.000000 1 0 0
0.814549 -0.893694 10.325159 10.395725 -0.831696 0.116582 0.005141 -0.000454 2284240.000000 1 0 0
-8.009551 1.334806 -12.522941 14.925101 -0.165134 2.566335 0.004726 -0.005405 72138.900000 1 0 0
3.151649 -11.562794 -7.820741 14.310663 -1.304692 2.148972 -0.003196 -0.001573 1543940.000000 1 0 0
2.880149 4.960806 -6.728841 8.842067 1.044778 2.435654 0.000176 0.002407 -1607630.000000 1 0 0
6.474249 8.126906 0.566959 10.405957 0.898105 1.516285 0.001668 -0.001369 -182660.000000 1 0 0
-9.096651 -5.473894 6.729159 12.569572 0.541704 1.005871 0.002614 -0.000925 -315561.000000 1 0 0
-0.300151 -6.917094 -11.842641 13.718033 1.527431 2.612549 0.000337 0.001093 3221930.000000 1 0 0
6.494849 -13.217894 -4.724941 15.466766 -1.114078 1.881249 0.015646 -0.009203 1909570.000000 1 0 0
-3.304551 -0.463094 10.070659 10.609085 0.139232 0.319958 0.004694 0.001513 339346.000000 1 0 0
8.601149 8.480406 6.964959 13.943017 0.778330 1.047740 0.002408 -0.002606 -603112.000000 1 0 0
-7.957651 5.666106 -2.706541 10.136781 -0.618756 1.841077 0.007000 -0.004229 243756.000000 1 0 0
-5.389351 5.775906 -6.408941 10.172547 -0.820006 2.252379 0.005426 -0.003427 -1085910.000000 1 0 0
3.478949 -13.638594 2.556359 14.305569 -1.321041 1.391135 0.015399 -0.011032 -2104750.000000 1 0 0
-11.366751 -7.069894 6.442059 14.855522 0.556425 1.122260 0.012010 -0.002769 211214.000000 1 0 0
-12.854651 -3.799094 -6.841241 15.049177 0.287362 2.042711 0.012844 -0.009454 -685619.000000 1 0 0
6.118549 0.368806 -7.284441 9.520281 0.060204 2.442070 -0.001648 0.002570 -966472.000000 1 0 0
-1.422251 2.222006 -2.537141 3.660217 -1.001430 2.336670 0.006542 -0.004894 3448620.000000 1 0 0
7.540749 0.984406 -4.974341 9.087135 0.129811 2.150056 -0.000985 0.003073 222994.000000 1 0 0
3.653749 -4.441494 10.962559 12.379598 -0.882402 0.483153 0.003923 -0.000985 -685708.000000 1 0 0
5.990049 -2.560194 2.127859 6.852961 -0.403908 1.255075 0.002889 -0.001744 -1353290.000000 1 0 0
-6.304651 7.713206 1.110659 10.023758 -0.885545 1.459766 -0.000421 0.000326 627581.000000 1 0 0
6.051549 -3.432594 8.016059 10.614196 -0.515972 0.714806 0.005234 -0.003962 -79195.000000 1 0 0
6.782549 -2.286594 -7.855941 10.627666 -0.325163 2.402674 0.000718 0.000055 514287.000000 1 0 0
12.188449 -8.091494 -5.810941 15.741588 -0.586061 1.948886 0.023109 -0.009190 1050290.000000 1 0 0
5.571049 -9.684294 10.042959 15.022755 -1.048762 0.838584 0.002413 0.002462 2831970.000000 1 0 0
-6.580651 7.536306 -4.439841 10.945915 -0.852991 1.988449 0.003326 -0.004253 1572950.000000 1 0 0
-1.362451 -7.577794 9.671859 12.362204 1.392902 0.672329 0.007944 -0.005725 182138.000000 1 0 0
10.157849 -9.146794 0.818359 13.693628 -0.733072 1.510999 0.008915 -0.005769 1163230.000000 1 0 0
11.070749 6.109006 9.808759 16.002912 0.504236 0.911025 0.018113 -0.006865 796640.000000 1 0 0
-15.269351 -4.346094 -5.056641 16.661669 0.277296 1.879149 0.022871 -0.010314 3677930.000000 1 0 0
-4.754651 -4.659294 7.803759 10.257406 0.775269 0.706263 0.006551 -0.006037 -647839.000000 1 0 0
2.848149 10.919906 -11.043941 15.790026 1.315659 2.345389 0.000376 -0.001525 23319.300000 1 0 0
9.893049 -1.326194 1.591359 10.107603 -0.133259 1.412697 0.005900 -0.002270 -908009.000000 1 0 0
-1.641051 -2.625794 0.713059 3.177467 1.012216 1.344457 0.008138 -0.006048 -136458.000000 1 0 0
1.563149 2.972906 0.911959 3.480413 1.086724 1.305675 -0.000871 -0.000634 -930339.000000 1 0 0
-9.080551 -2.463194 4.208459 10.307029 0.264886 1.150195 -0.001727 -0.001704 3295920.000000 1 0 0
9.925749 4.977706 -2.724841 11.433408 0.464842 1.811435 0.001236 0.000139 2275780.000000 1 0 0
2.515749 8.436906 2.525059 9.158947 1.281007 1.291486 -0.002108 0.002642 377506.000000 1 0 0
-8.184551 -0.121094 2.387459 8.526517 0.014794 1.286998 0.000515 -0.004058 529683.000000 1 0 0
6.892749 2.068406 13.644259 15.425761 0.291534 0.485351 0.012542 -0.000011 292576.000000 1 0 0
6.863049 4.429206 3.713059 8.972520 0.573113 1.144144 -0.000703 -0.000836 1057230.000000 1 0 0
-0.344251 3.350606 7.831259 8.524887 -1.468413 0.406185 -0.000998 0.003854 36069.300000 1 0 0
2.653349 -10.226794 9.174159 13.992597 -1.316943 0.855761 0.001203 -0.001555 2181350.000000 1 0 0
1.402449 -4.584694 6.877359 8.383576 -1.273937 0.608796 0.001755 -0.000954 467844.000000 1 0 0
-0.159851 10.822906 -2.023041 11.011519 -1.556028 1.755566 0.002214 -0.000648 1470020.000000 1 0 0
8.739449 5.566306 8.000559 13.090863 0.567123 0.913276 0.007055 -0.002871 369671.000000 1 0 0
2.659349 11.408306 -2.886041 12.064444 1.341780 1.812357 0.005769 -0.005182 1183240.000000 1 0 0
1.492249 2.400106 -6.720141 7.290241 1.014543 2.743494 0.003117 -0.001204 787229.000000 1 0 0
-13.618151 -2.271294 3.514059 14.246453 0.165263 1.321562 0.000149 -0.003080 1863360.000000 1 0 0
-0.924851 -10.631994 -5.303941 11.917484 1.484027 2.032032 0.006948 -0.002676 15404.100000 1 0 0
-5.736651 2.820006 0.454159 6.408421 -0.456887 1.499868 0.007166 -0.003515 588585.000000 1 0 0
3.704449 7.354406 -5.003141 9.635437 1.104189 2.116762 -0.001189 -0.000634 -1679910.000000 1 0 0
2.986449 9.867306 -6.447141 12.159286 1.276900 2.129661 -0.000003 0.001298 1237000.000000 1 0 0
-12.257551 1.638506 -2.589441 12.634772 -0.132885 1.777204 0.003608 -0.003502 559446.000000 1 0 0
-2.424251 9.582506 -5.691241 11.405772 -1.323008 2.093217 -0.004079 0.001030 -245771.000000 1 0 0
-1.343151 3.229506 1.747659 3.909997 -1.176659 1.107419 0.001001 -0.001136 -612524.000000 1 0 0
12.851049 3.842906 9.643959 16.520392 0.290571 0.947443 0.050836 -0.008395 812821.000000 1 0 0
-2.682051 -9.668494 11.486659 15.251771 1.300199 0.717980 0.010654 -0.008286 640915.000000 1 0 0
-0.381051 -8.886894 -7.546941 11.665265 1.527945 2.274385 0.005623 -0.000406 3069640.000000 1 0 0
2.342249 7.673806 -0.457741 8.036352 1.274551 1.627786 -0.002326 0.002018 1797440.000000 1 0 0
-11.803251 -1.367794 -5.594241 13.133283 0.115368 2.010818 0.009583 -0.004275 -947992.000000 1 0 0
-6.151351 -7.104594 -10.953241 14.432181 0.857185 2.432489 0.004014 -0.004041 1191680.000000 1 0 0
-4.794551 -2.275894 -1.337941 5.473344 0.443190 1.817745 0.008761 -0.005883 523150.000000 1 0 0
-10.454251 3.566506 4.487659 11.922685 -0.328772 1.184892 -0.001302 -0.001738 3120000.000000 1 0 0
6.746249 9.416606 -3.580341 12.124487 0.949135 1.870564 -0.000540 0.000409 795167.000000 1 0 0
1.297249 -2.708794 -11.474941 11.861479 -1.124168 2.885600 0.008331 -0.003973 -160986.000000 1 0 0
1.285749 8.823206 7.650459 11.748687 1.426091 0.861664 0.000318 0.005644 610962.000000 1 0 0
10.323749 0.431506 10.400359 14.660609 0.041773 0.782138 0.013118 -0.004290 -222909.000000 1 0 0
-5.311051 -0.919494 -3.941941 6.677696 0.171429 2.202245 0.009562 -0.008057 -194951.000000 1 0 0
11.688549 5.678806 5.350459 14.053414 0.452258 1.180218 0.007681 -0.003487 2177430.000000 1 0 0
9.882149 -3.402894 3.701559 11.087746 -0.331630 1.230419 0.014906 -0.008018 -515427.000000 1 0 0
7.259549 -1.620794 -3.432541 8.192092 -0.219661 2.003147 -0.001750 0.002306 -2661560.000000 1 0 0
2.350349 9.299806 10.573059 14.275858 1.323249 0.736796 0.007202 0.003159 1644200.000000 1 0 0
2.421449 -10.843694 6.293459 12.769367 -1.351096 1.055427 -0.001618 0.000854 719350.000000 1 0 0
5.940849 -7.507094 -1.258341 9.655753 -0.901343 1.701488 0.003280 -0.006177 2445670.000000 1 0 0
-0.265551 -5.489694 -2.261541 5.943216 1.522461 1.961160 0.008255 -0.002056 1108900.000000 1 0 0
7.689849 -5.067394 2.829559 9.634245 -0.582656 1.272703 0.006045 -0.006610 3147950.000000 1 0 0
-2.672351 -12.531394 4.684559 13.642668 1.360691 1.220288 0.011176 -0.003790 294897.000000 1 0 0
4.931249 -10.228994 -1.085841 11.407392 -1.121583 1.666128 0.005990 -0.007977 1872960.000000 1 0 0
1.016549 0.182606 1.135059 1.534626 0.177738 0.738272 -0.000149 -0.000866 -1893990.000000 1 0 0
-1.599451 8.456606 2.454959 8.949819 -1.383868 1.292932 0.000188 0.002010 2009010.000000 1 0 0
-7.563551 0.531906 -3.091641 8.188313 -0.070209 1.957964 0.003900 -0.003766 -436287.000000 1 0 0
4.424749 -6.362994 12.968859 15.108190 -0.963172 0.538655 0.023401 -0.009344 475577.000000 1 0 0
-5.155151 13.018506 8.391559 16.324073 -1.193755 1.030884 0.005769 -0.008775 3691980.000000 1 0 0
0.624449 6.170506 8.267759 10.335421 1.469941 0.643594 -0.001913 0.005282 1323590.000000 1 0 0
7.994949 -0.453894 -0.719041 8.040041 -0.056712 1.660348 0.001587 0.000455 4656990.000000 1 0 0
2.493949 -9.214594 -2.359341 9.833362 -1.306477 1.813092 0.001525 -0.003876 90789.600000 1 0 0
-7.203351 12.191906 4.879859 14.978113 -1.037146 1.238939 0.001704 -0.005527 471879.000000 1 0 0
-14.998651 0.200806 0.127659 15.000538 -0.013387 1.562286 0.006705 -0.006766 1833680.000000 1 0 0
6.878049 -0.439494 3.959359 7.948411 -0.063811 1.049353 0.004021 0.000160 -337224.000000 1 0 0
-4.243951 -5.120494 5.084959 8.371821 0.878730 0.918026 0.007290 -0.005903 1556850.000000 1 0 0
2.862349 5.184306 6.869259 9.069553 1.066328 0.711478 -0.004530 0.003000 -227270.000000 1 0 0
2.121649 -7.176294 1.783259 7.692893 -1.283338 1.336862 0.002602 -0.003824 3037720.000000 1 0 0
-2.500051 6.425806 -1.712641 7.104532 -1.199753 1.814257 0.002939 -0.000327 2769830.000000 1 0 0
2.708549 -3.848294 -6.550941 8.066005 -0.957504 2.518653 -0.000321 -0.003885 -1615290.000000 1 0 0
-5.176351 0.858906 -12.193141 13.274223 -0.164431 2.735213 0.009092 -0.005882 933077.000000 1 0 0
-7.476651 6.297206 -11.842041 15.355424 -0.699977 2.451514 0.002671 -0.008772 2715100.000000 1 0 0
-1.064751 11.204606 -9.043641 14.438294 -1.476053 2.247678 -0.000657 0.002318 2566890.000000 1 0 0
4.625349 5.938906 -0.525341 7.545889 0.909103 1.640472 -0.002308 0.001214 801421.000000 1 0 0
-2.695051 13.405406 3.587359 14.136384 -1.372399 1.314223 -0.002010 0.003391 949219.000000 1 0 0
1.427449 -7.918694 10.286459 13.059654 -1.392448 0.663808 0.003694 -0.004440 766303.000000 1 0 0
12.946749 -0.167494 -1.093041 12.993887 -0.012936 1.655015 0.011979 -0.003280 -178107.000000 1 0 0
-0.986551 3.061206 -5.372241 6.261408 -1.259031 2.602145 0.004909 -0.004556 1043600.000000 1 0 0
6.497749 1.236006 7.230759 9.799609 0.187975 0.740899 0.002402 -0.001016 1873070.000000 1 0 0
5.464349 -6.136194 6.984859 10.784259 -0.843248 0.866247 0.001636 -0.001642 584231.000000 1 0 0
12.231649 -4.767694 2.693459 13.401450 -0.371668 1.368435 0.014320 -0.006438 139183.000000 1 0 0
4.394049 -9.216394 13.806559 17.171799 -1.125909 0.636762 0.020041 -0.007989 1390000.000000 1 0 0
-2.737351 -4.278294 -1.366341 5.259636 1.001609 1.833589 0.012697 -0.006808 2260330.000000 1 0 0
-9.287751 -5.238094 -7.596941 13.092496 0.513512 2.189834 0.015862 -0.007492 540834.000000 1 0 0
-10.521251 -3.217194 7.875459 13.530333 0.296752 0.949537 -0.004006 0.001507 513397.000000 1 0 0
12.059549 -0.566394 1.711059 12.193492 -0.046932 1.430006 0.011379 -0.003506 716675.000000 1 0 0
-7.633551 4.670906 4.385659 9.966066 -0.549118 1.115132 0.000986 -0.000360 2038740.000000 1 0 0
-1.080551 10.609006 6.998359 12.755220 -1.469294 0.990028 0.002109 0.007639 1592080.000000 1 0 0
7.426449 -9.857194 1.864359 12.481677 -0.925120 1.420868 0.007075 -0.007834 3308360.000000 1 0 0
-4.370951 -1.820494 1.703759 5.032117 0.394648 1.225392 0.003652 -0.002734 1219390.000000 1 0 0
6.807849 -14.908394 -1.057141 16.423293 -1.142430 1.635209 0.031556 -0.013858 -2460890.000000 1 0 0
-10.494451 1.606806 2.320059 10.867290 -0.151930 1.355650 -0.003187 0.000408 -94495.800000 1 0 0
-2.970751 8.312906 -11.390541 14.410905 -1.227574 2.482276 -0.002072 0.000454 -1310100.000000 1 0 0
-1.271251 -5.148394 -6.868641 8.677572 1.328717 2.484120 0.003488 -0.003247 941579.000000 1 0 0
12.850349 -0.391094 6.451259 14.384129 -0.030425 1.105712 0.018096 -0.009301 3126900.000000 1 0 0
6.053749 -13.197194 3.640959 14.968981 -1.140719 1.325098 0.003984 -0.004116 -706587.000000 1 0 0
-5.568851 3.439506 -4.937741 8.198999 -0.553284 2.217097 0.007990 -0.005824 2233520.000000 1 0 0
-4.424851 7.994106 3.332659 9.725824 -1.065259 1.221049 0.002054 0.001862 -793372.000000 1 0 0
13.985949 6.262506 -3.975541 15.831320 0.420999 1.824632 0.028202 0.005823 904761.000000 1 0 0
-6.758451 -8.488594 5.215359 12.038806 0.898389 1.122742 0.011020 -0.003252 -787945.000000 1 0 0
1.641949 11.327606 2.733359 11.767834 1.426848 1.336382 -0.000590 0.001365 196783.000000 1 0 0
-7.448151 7.241906 5.989259 11.991304 -0.771359 1.047813 0.001565 -0.003790 -1625830.000000 1 0 0
-17.410451 -3.980694 5.126059 18.580802 0.224775 1.291292 0.038111 -0.013726 -314820.000000 1 0 0
7.636549 -13.055994 -8.626841 17.412589 -1.041548 2.089134 0.025395 -0.010564 -1067480.000000 1 0 0
-2.372751 12.758606 -2.793041 13.274526 -1.386924 1.782787 -0.002227 0.002378 1812240.000000 1 0 0
-5.565251 13.928306 -5.687941 16.041272 -1.190666 1.933263 -0.002377 0.004700 2437220.000000 1 0 0
-5.633151 2.399106 7.419959 9.619974 -0.402625 0.689903 0.005035 0.001034 2407170.000000 1 0 0
-7.510951 5.082706 1.432659 9.181546 -0.594921 1.414119 0.001572 0.000105 2178310.000000 1 0 0
10.641649 -5.650794 -4.932041 13.019263 -0.488145 1.959324 0.012417 -0.004705 1961960.000000 1 0 0
-9.520951 -0.883694 6.800059 11.733295 0.092551 0.952617 -0.002631 0.000496 1471820.000000 1 0 0
-11.286151 -4.580294 -2.631841 12.461255 0.385525 1.783601 0.000331 -0.003253 502466.000000 1 0 0
6.571449 -4.331894 13.571759 15.688910 -0.582815 0.525538 0.034692 -0.014091 -605481.000000 1 0 0
0.189149 10.232106 -11.690541 15.537069 1.552313 2.422538 -0.002758 0.002760 -2147770.000000 1 0 0
-11.805351 -3.255994 1.344859 12.319758 0.269116 1.461416 -0.003737 -0.003090 1913400.000000 1 0 0
5.218349 5.964406 5.350959 9.562326 0.852014 0.976908 -0.002465 0.001573 -4071440.000000 1 0 0
-7.165051 -0.031794 8.095059 10.810594 0.004437 0.724535 -0.000953 0.000522 1119160.000000 1 0 0
1.737749 2.044206 9.724459 10.087798 0.866253 0.269206 -0.000973 0.001643 2921280.000000 1 0 0
10.479149 -4.873294 -1.936241 11.717960 -0.435296 1.736795 0.007673 -0.002292 2093580.000000 1 0 0
-9.688851 -2.455594 -1.695441 10.137963 0.248219 1.738823 0.000338 -0.004847 -1086270.000000 1 0 0
-1.939251 -5.188094 -9.925441 11.366239 1.213088 2.632606 0.007623 -0.002935 769594.000000 1 0 0
7.704949 -1.487994 6.632159 10.274527 -0.190773 0.869125 0.007692 -0.004762 1843150.000000 1 0 0
1.612249 -11.867694 -2.523641 12.239700 -1.435771 1.778471 0.007047 -0.004365 -3858830.000000 1 0 0
-0.722351 -1.586694 4.841459 5.145786 1.143581 0.345639 0.004847 0.000250 2149180.000000 1 0 0
7.608849 1.574306 9.833159 12.532520 0.204026 0.668727 0.005582 -0.002204 531766.000000 1 0 0
-3.836451 10.641506 -7.920141 13.809006 -1.224783 2.181628 -0.002337 0.000613 2852450.000000 1 0 0
-9.681051 12.629906 6.362459 17.138208 -0.916807 1.190448 0.010791 -0.012999 1152790.000000 1 0 0
-2.480251 -2.424794 -11.070241 11.600927 0.774093 2.837954 0.010454 -0.006555 -2368270.000000 1 0 0
1.156349 -11.889894 11.082759 16.295222 -1.473846 0.822866 0.001854 0.001425 1916290.000000 1 0 0
1.404849 3.505906 -1.868741 4.213926 1.189679 2.030260 0.000968 -0.001543 3178780.000000 1 0 0
-1.920351 -9.459494 -12.064441 15.450583 1.370510 2.466806 0.000235 0.001461 -78225.300000 1 0 0
1.223949 -2.598294 1.590159 3.282954 -1.130569 1.065155 0.010270 -0.001995 1886530.000000 1 0 0
-1.033751 -2.249294 -6.629341 7.076448 1.139997 2.784215 0.007931 -0.007534 2894570.000000 1 0 0
1.789349 5.846606 4.079359 7.350221 1.273799 0.982436 -0.006578 0.004071 -1026500.000000 1 0 0
-10.966551 8.498406 3.561959 14.323955 -0.659272 1.319488 -0.006705 -0.003664 654708.000000 1 0 0
-16.389951 -1.414694 3.882559 16.902843 0.086101 1.339028 0.028592 -0.012376 -269246.000000 1 0 0
-12.303951 0.195806 6.768959 14.044371 -0.015913 1.067895 -0.003218 0.005809 160524.000000 1 0 0
-5.097451 2.993706 4.662359 7.528869 -0.531025 0.902991 0.003545 0.001765 1876800.000000 1 0 0
5.110949 -6.047694 4.069359 8.902589 -0.869150 1.096066 0.003539 -0.003413 263759.000000 1 0 0
9.925349 3.480106 6.295759 12.258070 0.337234 1.031420 0.001302 -0.000290 -68503.700000 1 0 0
-12.120851 5.799506 3.201859 13.813081 -0.446279 1.336870 -0.001407 0.000818 751812.000000 1 0 0
-4.965951 12.305506 -1.267341 13.330128 -1.187229 1.666014 -0.005484 0.004117 2985640.000000 1 0 0
-1.737551 -12.303794 10.300959 16.140390 1.430503 0.878625 0.015672 -0.004361 -277452.000000 1 0 0
5.212849 6.509606 13.899159 16.209115 0.895572 0.540425 0.009307 0.003896 1895020.000000 1 0 0
12.878549 -3.620794 -5.868041 14.608254 -0.274074 1.984162 0.005742 -0.003645 1895130.000000 1 0 0
3.528249 -2.523994 6.421759 7.749715 -0.620965 0.594114 -0.001117 0.001611 1696890.000000 1 0 0
7.330849 -11.746494 -0.672341 13.862666 -1.012853 1.619315 0.010757 -0.006820 -1163480.000000 1 0 0
-6.107251 -6.584494 -4.084841 9.866103 0.822983 1.997671 0.011281 -0.005736 -439629.000000 1 0 0
0.294249 -9.014294 4.990759 10.307849 -1.538165 1.065381 0.008133 -0.004808 2338520.000000 1 0 0
-10.299651 2.423606 -0.425041 10.589491 -0.231105 1.610945 -0.002262 0.000647 -1798190.000000 1 0 0
-1.766851 8.940806 -0.327741 9.119605 -1.375694 1.606742 0.002706 0.001616 686531.000000 1 0 0
-3.515451 2.237106 -6.588541 7.795634 -0.566729 2.577657 0.012906 -0.008413 80416.600000 1 0 0
-12.699151 2.956806 6.445359 14.544889 -0.228759 1.111703 -0.005432 -0.006741 1152840.000000 1 0 0
11.383849 1.711106 7.973659 14.003541 0.149193 0.965017 0.011640 -0.007235 -2259700.000000 1 0 0
6.013549 2.786606 -3.251141 7.382267 0.433931 2.026839 -0.002650 0.001854 1017100.000000 1 0 0
10.559349 -2.314394 6.407359 12.566246 -0.215768 1.035743 0.016556 -0.008780 3218230.000000 1 0 0
-1.019751 10.965706 4.066759 11.739895 -1.478068 1.217060 0.001495 0.004844 2268920.000000 1 0 0
-1.485551 -12.222894 7.413659 14.372485 1.449851 1.028828 0.009862 -0.001932 -1389930.000000 1 0 0
8.040049 8.706606 -7.811841 14.194092 0.825180 2.153590 0.002670 -0.000648 1133420.000000 1 0 0
-4.600951 -5.993194 -8.717241 11.535918 0.916066 2.427459 0.008743 -0.003970 -88046.200000 1 0 0
-8.505251 -5.364994 -11.683241 15.414946 0.562749 2.430910 0.010842 -0.007150 941721.000000 1 0 0
6.151249 -0.633594 -9.954341 11.718712 -0.102640 2.585719 0.002758 0.001628 -565105.000000 1 0 0
-11.126251 -5.532094 -5.402141 13.549193 0.461414 1.980901 0.007301 -0.007775 -26549.400000 1 0 0
3.891149 8.962006 -2.667241 10.127822 1.161174 1.837298 0.002765 -0.001205 420724.000000 1 0 0
11.854249 -10.266994 -3.960941 16.174778 -0.713768 1.818196 0.023099 -0.008139 151862.000000 1 0 0
3.982149 -11.265094 3.842559 12.550901 -1.231012 1.259642 0.000932 -0.001411 284993.000000 1 0 0
-0.994451 0.819306 3.257059 3.502660 -0.689132 0.376706 0.004381 -0.000583 -1177540.000000 1 0 0
-10.672151 -5.164994 4.448659 12.663433 0.450741 1.211837 0.001749 -0.002921 4080420.000000 1 0 0
4.631249 -8.669894 2.794859 10.218942 -1.080183 1.293769 0.001151 -0.004622 4237440.000000 1 0 0
-3.739951 -5.751894 2.587059 7.332420 0.994272 1.210208 0.008094 -0.004261 1898020.000000 1 0 0
10.056549 5.082806 12.364059 16.728391 0.467976 0.739054 0.027899 -0.000892 -143279.000000 1 0 0
1.670949 -12.271894 -5.265341 13.457907 -1.435468 1.972781 0.004421 -0.003532 485498.000000 1 0 0
9.919749 -10.621694 -1.697341 14.632251 -0.819557 1.687058 0.012426 -0.006377 556040.000000 1 0 0
9.690549 -4.368094 -9.320841 14.137364 -0.423484 2.290691 0.013315 -0.001691 2935520.000000 1 0 0
-7.321751 -3.143394 -13.099841 15.332801 0.405526 2.595128 0.008167 -0.009593 1737840.000000 1 0 0
0.421149 6.267006 -2.460741 6.745960 1.503696 1.944185 -0.000293 -0.000993 1804130.000000 1 0 0
-5.957251 -9.486694 0.896059 11.237843 1.010072 1.490976 0.011412 -0.004257 528552.000000 1 0 0
-9.019251 -4.162394 0.597659 9.951362 0.432377 1.510702 -0.002093 -0.005308 1438230.000000 1 0 0
1.840249 3.794406 12.204259 12.912319 1.119229 0.332700 0.000875 -0.001218 457447.000000 1 0 0
6.594849 4.397106 9.615559 12.461363 0.588059 0.689397 -0.000534 0.001021 3362420.000000 1 0 0
-8.280051 9.782906 -3.741241 13.351456 -0.868408 1.854811 -0.000601 -0.001816 2231580.000000 1 0 0
16.450849 2.210906 -6.099641 17.684009 0.133594 1.922954 0.064695 -0.003513 929153.000000 1 0 0
-10.957051 2.562706 -5.075441 12.344413 -0.229756 1.994515 0.003037 -0.001928 414780.000000 1 0 0
-13.748251 3.998306 1.399759 14.386110 -0.283016 1.473343 0.002337 0.002929 59162.900000 1 0 0
-17.374751 10.385506 3.385059 20.523141 -0.538753 1.405101 0.031123 -0.019289 -357755.000000 1 0 0
-14.374551 2.777306 -1.243541 14.693112 -0.190858 1.655532 0.005366 -0.000756 658208.000000 1 0 0
-14.354351 5.104706 5.156559 16.084014 -0.341673 1.244432 -0.002159 -0.008463 671534.000000 1 0 0
-17.345651 7.476806 3.160859 19.151116 -0.406982 1.404989 0.016258 -0.009518 -1951040.000000 1 0 0
-14.738551 12.517806 -3.448341 19.642082 -0.704102 1.747270 0.044937 -0.020310 -660141.000000 1 0 0
-8.473051 12.367906 -9.605841 17.805333 -0.970152 2.140630 0.008606 -0.019215 978102.000000 1 0 0
-12.386451 8.813606 -9.812541 18.093915 -0.618437 2.143982 0.014861 -0.008438 -672075.000000 1 0 0
-13.916251 -3.579794 -12.248041 18.880981 0.251780 2.276668 0.043125 -0.009941 -1512230.000000 1 0 0
-14.860851 5.585606 -7.683141 17.637305 -0.359525 2.021522 0.021757 0.002610 871370.000000 1 0 0
-10.794151 13.630406 -8.568941 19.383715 -0.901003 2.028700 0.014084 -0.018303 474283.000000 1 0 0
-10.993951 13.477906 3.847459 17.813586 -0.886554 1.353096 0.010379 -0.009557 -2386890.000000 1 0 0
-15.276751 3.295006 3.027159 15.918539 -0.212433 1.379465 0.006416 -0.001123 934351.000000 1 0 0
-11.067551 9.348206 -12.372841 19.051688 -0.701380 2.277638 0.021301 -0.018279 244643.000000 1 0 0
-13.038851 11.624906 -9.077941 19.686520 -0.728132 2.050059 0.033227 -0.027055 1444740.000000 1 0 0
-8.852351 14.490006 -3.479141 17.332882 -1.022380 1.772894 0.004668 -0.003989 -235057.000000 1 0 0
-16.761451 8.247806 -4.254241 19.159100 -0.457283 1.794711 0.040756 -0.011903 -863722.000000 1 0 0
-16.846351 6.704906 0.355659 18.135098 -0.378784 1.551183 0.022065 0.000778 158572.000000 1 0 0
-10.653051 2.631206 -12.519341 16.647661 -0.242145 2.421915 0.016930 -0.007408 625017.000000 1 0 0
-17.080351 0.892306 2.192059 17.243541 -0.052194 1.443328 0.046321 -0.011784 432999.000000 1 0 0
-12.679851 1.137906 -7.034941 14.545234 -0.089502 2.075627 0.007743 -0.002310 2127570.000000 1 0 0
-12.347651 9.083306 -5.486141 16.280930 -0.634241 1.914490 0.018829 -0.004025 -1079910.000000 1 0 0
-9.603051 13.938406 1.270859 16.973887 -0.967516 1.495855 0.014048 -0.002863 -254324.000000 1 0 0
-12.209851 11.034906 2.719659 16.680712 -0.734894 1.407023 0.001986 -0.005341 -297345.000000 1 0 0
-12.581651 6.892506 -3.690141 14.812890 -0.501170 1.822565 0.004295 -0.000561 537567.000000 1 0 0
-15.884551 3.492606 -9.297241 18.733818 -0.216431 2.090106 0.033119 -0.005539 -1058320.000000 1 0 0
-15.105251 5.833806 -4.846141 16.902277 -0.368563 1.861593 0.017065 -0.000102 2297650.000000 1 0 0
-18.024951 5.087606 7.418059 20.144731 -0.275097 1.193683 0.033709 -0.024659 -490026.000000 1 0 0
-15.761351 10.094906 -2.266341 18.853742 -0.569657 1.691294 0.029829 -0.007721 -1629640.000000 1 0 0
-8.741551 9.843706 -8.283641 15.554162 -0.844631 2.132427 0.003010 -0.009637 -218068.000000 1 0 0
-17.012751 4.186306 -1.319341 17.569846 -0.241275 1.645958 0.024170 -0.000723 -1104040.000000 1 0 0
-10.281651 5.340206 -4.606041 12.467789 -0.479041 1.949198 0.004225 -0.002865 853029.000000 1 0 0
-18.380351 2.565406 5.991659 19.501758 -0.138677 1.258508 0.065167 -0.030132 -1336070.000000 1 0 0
-10.370551 10.049206 -5.793541 15.559562 -0.769663 1.952332 0.005287 -0.007731 -365175.000000 1 0 0
-15.417751 0.431506 -5.867341 16.502088 -0.027980 1.934300 0.013248 -0.005618 -7557.770000 1 0 0
-16.434351 -4.197894 -8.872541 19.142418 0.250087 2.052739 0.045858 -0.023619 -910703.000000 1 0 0
-9.946951 9.635706 -1.151441 13.896563 -0.769506 1.653749 -0.002217 0.001088 1808910.000000 1 0 0
-17.328651 -3.039494 -3.301841 17.900358 0.173636 1.756315 0.038103 -0.011734 -829045.000000 1 0 0
-12.017051 5.024906 -11.591041 17.435923 -0.396053 2.297995 0.012650 -0.001799 -20636.300000 1 0 0
-16.301251 7.019506 5.979459 18.728539 -0.406614 1.245837 0.015359 -0.011590 1247300.000000 1 0 0
-12.178851 5.979406 -8.795641 16.169137 -0.456395 2.145966 0.014430 -0.000037 647018.000000 1 0 0
-14.524351 8.350606 -0.066841 16.753921 -0.521788 1.574786 0.016919 0.000614 1548130.000000 1 0 0
-14.826451 11.886206 3.848759 19.388617 -0.675770 1.370963 -0.000023 -0.014078 1782720.000000 1 0 0
-17.297551 4.158406 -4.146141 18.267131 -0.235927 1.799764 0.026076 -0.005245 640610.000000 1 0 0
-13.926351 13.276706 -0.701241 19.253725 -0.761521 1.607225 0.034050 -0.015511 -1032120.000000 1 0 0
-10.074551 6.698306 -13.023141 17.775434 -0.586760 2.393001 0.005054 -0.012614 919179.000000 1 0 0
-15.898151 -1.250194 -8.277241 17.967384 0.078476 2.049559 0.023630 -0.009343 -339271.000000 1 0 0
-11.421851 11.907706 -0.035741 16.500104 -0.806221 1.572962 0.013381 -0.002800 795656.000000 1 0 0
-11.938351 7.391406 -0.931141 14.072104 -0.554368 1.637014 -0.000128 0.005335 1940490.000000 1 0 0
-11.471751 -0.010394 -11.621041 16.329414 0.000906 2.362659 0.017189 -0.008882 754105.000000 1 0 0
-19.116551 -1.170994 -4.626241 19.703194 0.061179 1.807806 0.048370 -0.020041 591017.000000 1 0 0
-18.003651 1.527006 -5.188041 18.798376 -0.084614 1.850409 0.023542 -0.008389 -977053.000000 1 0 0
-13.392551 -0.252694 -9.511841 16.428615 0.018866 2.188274 0.019316 -0.007937 -796453.000000 1 0 0
-6.170551 11.209006 -13.271041 18.434697 -1.067570 2.374447 -0.003665 -0.004544 -1987780.000000 1 0 0
16.446249 5.849706 7.029859 18.817999 0.341732 1.187941 0.096809 -0.018447 830174.000000 1 0 0
14.611949 10.339606 -5.500341 18.726192 0.615817 1.868917 0.066525 -0.014234 -237191.000000 1 0 0
2.365049 16.904906 4.414759 17.631206 1.431795 1.317708 0.034991 -0.014890 1416060.000000 1 0 0
-4.116251 18.141706 -5.815441 19.490623 -1.347680 1.873782 0.026298 -0.010228 56319.700000 1 0 0
5.417949 14.625906 5.630859 16.582457 1.216034 1.224340 0.018519 -0.010396 -1393220.000000 1 0 0
9.851249 5.945906 15.129259 19.007772 0.543039 0.650219 0.052197 -0.001039 -816867.000000 1 0 0
4.585249 12.906606 -1.166841 13.746509 1.229440 1.655781 0.003777 -0.006469 2314890.000000 1 0 0
3.721849 13.810406 13.174659 19.446108 1.307554 0.826444 0.044919 -0.008743 715001.000000 1 0 0
-0.847151 12.401806 9.214359 15.473425 -1.502594 0.932914 0.016862 -0.000516 1072110.000000 1 0 0
-7.843751 13.870206 8.372059 17.999956 -1.056123 1.087031 0.016828 -0.016788 2345380.000000 1 0 0
11.379749 12.869306 -4.100541 17.661602 0.846748 1.805107 0.083468 -0.011724 953077.000000 1 0 0
-5.880751 16.159306 0.911659 17.220265 -1.221772 1.517830 0.001361 0.001726 361344.000000 1 0 0
3.215349 10.660106 6.844959 13.070188 1.277850 1.019599 0.004199 0.004390 285438.000000 1 0 0
-1.219751 15.553306 2.507859 15.801344 -1.492533 1.411411 0.006278 -0.000934 -478707.000000 1 0 0
9.868849 8.859606 9.599759 16.371994 0.731562 0.944248 0.019429 -0.006252 1033920.000000 1 0 0
7.188849 12.331906 6.242159 15.579474 1.043010 1.158553 0.004301 -0.007136 621912.000000 1 0 0
11.779649 14.020806 -1.504941 18.374112 0.872046 1.652794 0.079063 -0.010916 -170573.000000 1 0 0
9.593049 15.919006 -1.132641 18.620532 1.028455 1.631661 0.069845 -0.012489 1112900.000000 1 0 0
9.997149 13.777306 2.944259 17.275006 0.943079 1.399526 0.034546 -0.011333 3341250.000000 1 0 0
-6.163551 14.584106 6.290359 17.036846 -1.170942 1.192626 -0.003746 -0.004689 -5768.470000 1 0 0
-1.144451 18.225006 -6.184941 19.279889 -1.508083 1.897368 0.029915 -0.003460 1074380.000000 1 0 0
-3.635751 15.647506 5.431059 16.957581 -1.342494 1.244778 -0.001533 -0.004540 1070690.000000 1 0 0
6.992149 12.312406 10.598459 17.686516 1.054318 0.928245 0.010574 -0.005475 1429780.000000 1 0 0
1.476149 14.682506 6.340159 16.060904 1.470595 1.164993 0.018276 -0.004643 679768.000000 1 0 0
17.452749 7.822706 -1.585441 19.191321 0.421374 1.653503 0.042468 0.005965 1362700.000000 1 0 0
1.967849 16.329506 -3.352141 16.785769 1.450866 1.771849 0.010577 -0.008447 2349630.000000 1 0 0
6.637649 11.291206 0.519559 13.108000 1.039351 1.531149 0.007096 -0.004436 1490660.000000 1 0 0
12.684849 9.326506 3.253159 16.077070 0.633993 1.367042 0.032412 -0.003079 -291430.000000 1 0 0
5.998149 14.327306 -3.442441 15.909114 1.174315 1.788903 0.011574 -0.007291 2020510.000000 1 0 0
3.039249 16.595106 1.533459 16.940664 1.389662 1.480153 0.017504 -0.015183 -2064370.000000 1 0 0
2.858049 19.018006 -2.465241 19.388925 1.421631 1.698288 0.021549 -0.017735 -724279.000000 1 0 0
3.944249 11.986606 10.751059 16.577729 1.252901 0.865152 0.022029 -0.005916 1633850.000000 1 0 0
7.961249 11.613106 3.368259 14.477254 0.969841 1.335986 0.003312 -0.002411 1378310.000000 1 0 0
0.747349 12.552706 0.186359 12.576315 1.511330 1.555978 0.004497 -0.001697 -2929730.000000 1 0 0
11.863049 9.954606 -4.604641 16.156387 0.698148 1.859807 0.048536 -0.004973 -1139030.000000 1 0 0
-1.535351 16.586106 9.956159 19.405703 -1.478491 1.032058 0.034717 -0.005623 175118.000000 1 0 0
8.026049 14.827406 -7.966641 18.647702 1.074658 2.012210 0.057801 -0.017326 2317040.000000 1 0 0
14.515049 7.662806 -1.385841 16.471970 0.485734 1.655029 0.032674 0.002351 -1091690.000000 1 0 0
12.493349 8.305506 5.962959 16.143794 0.586705 1.192470 0.027116 -0.008573 -406112.000000 1 0 0
-3.123551 14.230206 10.207959 17.789260 -1.354722 0.959625 0.017748 -0.010759 1163960.000000 1 0 0
-4.777651 17.083906 -3.086941 18.005971 -1.298105 1.743087 0.019805 -0.002656 -539270.000000 1 0 0
-7.198351 16.389006 -1.740041 17.984535 -1.156945 1.667700 0.009516 0.002726 -450627.000000 1 0 0
8.361949 11.310306 -1.876841 14.190411 0.934165 1.703446 0.013746 -0.004135 -997689.000000 1 0 0
8.556249 13.016406 -4.184041 16.128931 0.989276 1.833210 0.048159 -0.004452 1219040.000000 1 0 0
2.534649 14.906606 -7.206641 16.750135 1.402372 2.015559 0.011106 -0.009580 -853096.000000 1 0 0
11.326049 11.374506 9.747159 18.779401 0.787533 1.025075 0.038723 -0.011741 1434930.000000 1 0 0
8.469149 15.729206 1.489759 17.926344 1.076876 1.487596 0.026528 -0.016782 287463.000000 1 0 0
6.045249 10.016006 7.736659 14.025738 1.027764 0.986510 0.002817 0.007982 2983530.000000 1 0 0
14.411049 11.458806 2.619959 18.596956 0.671771 1.429445 0.055421 -0.006644 1479350.000000 1 0 0
12.077249 12.644306 1.122759 17.521387 0.808332 1.506673 0.054359 -0.007137 2454200.000000 1 0 0
5.211249 16.001406 8.176159 18.709669 1.255955 1.118534 0.032222 -0.009823 -3437820.000000 1 0 0
11.455749 14.942006 5.082359 19.502003 0.916705 1.307145 0.051873 -0.017188 1805630.000000 1 0 0
5.899149 16.958106 1.664859 18.031891 1.236024 1.478336 0.014000 -0.021196 -686661.000000 1 0 0
-0.838851 16.210906 -4.234641 16.775856 -1.519096 1.825982 0.011642 -0.003184 1741890.000000 1 0 0
16.095649 6.521806 2.601759 17.560553 0.384973 1.422090 0.031225 -0.002245 709588.000000 1 0 0
7.691849 16.778606 -3.229541 18.738092 1.140953 1.744013 0.036080 -0.019300 466429.000000 1 0 0
14.901449 8.231706 7.451259 18.583203 0.504691 1.158224 0.074816 -0.017547 1143180.000000 1 0 0
2.057049 12.969406 8.629659 15.713305 1.413499 0.989396 0.018961 -0.001895 3062010.000000 1 0 0
15.898849 7.718106 -5.893041 18.629828 0.451940 1.892647 0.051334 0.000543 133192.000000 1 0 0
-3.029151 16.932706 0.707659 17.216070 -1.393775 1.529680 -0.001601 -0.004549 1559840.000000 1 0 0
-2.920151 18.508806 4.606259 19.295616 -1.414315 1.329748 0.002052 -0.004767 55377.600000 1 0 0
-0.957751 19.013206 0.850459 19.056300 -1.520466 1.526153 0.008550 -0.011673 -329552.000000 1 0 0
6.911549 16.900706 -6.060041 19.238697 1.182598 1.891245 0.037376 -0.014382 66923.200000 1 0 0
10.970449 10.146606 0.910159 14.971064 0.746405 1.509964 0.022498 -0.001489 -2417170.000000 1 0 0
9.124749 8.700206 14.333259 19.089184 0.761585 0.721437 0.038158 -0.004398 -42825.500000 1 0 0
6.258149 12.379406 -8.227941 16.128023 1.102735 2.106172 0.033303 -0.013861 667118.000000 1 0 0
6.290549 9.104006 13.355459 17.344228 0.966160 0.691919 0.023370 -0.005939 1627370.000000 1 0 0
16.677349 9.551006 2.913659 19.438238 0.520099 1.420336 0.052604 0.000908 187581.000000 1 0 0
2.464749 14.857106 -0.767441 15.079707 1.406397 1.621711 0.007630 -0.008527 974431.000000 1 0 0
9.049049 12.957906 8.346659 17.873426 0.961184 1.084916 0.015491 -0.010751 1409020.000000 1 0 0
7.169349 9.389506 10.543559 15.834426 0.918680 0.842146 0.009196 -0.000366 1151600.000000 1 0 0
4.304249 15.904006 -5.275041 17.300001 1.306489 1.880646 0.027413 -0.013756 2296310.000000 1 0 0
0.171249 16.315206 -8.062841 18.199579 1.560300 2.029765 0.017341 -0.006499 -275514.000000 1 0 0
-2.581351 15.585606 -1.937241 15.916262 -1.406662 1.692813 -0.002394 -0.001287 -154641.000000 1 0 0
13.261349 10.504806 7.626859 18.557568 0.669928 1.147263 0.057157 -0.018567 2475910.000000 1 0 0
-1.109451 16.004206 7.097559 17.542544 -1.501585 1.154265 0.020846 -0.005643 2049850.000000 1 0 0
13.253149 13.380506 6.710359 19.992820 0.790180 1.228513 0.064179 -0.018565 -1775.780000 1 0 0
5.389749 17.355006 4.471759 18.714761 1.269681 1.329519 0.023550 -0.021108 1307640.000000 1 0 0
10.756149 9.538306 -1.779041 14.485821 0.725461 1.693920 0.019525 -0.001786 925023.000000 1 0 0
3.139649 12.748406 4.784259 13.973847 1.329324 1.221356 0.005379 0.004396 2437090.000000 1 0 0
-0.225351 17.965106 3.584159 18.320535 -1.558253 1.373890 0.014181 -0.011893 2506980.000000 1 0 0
-7.808551 15.850006 -5.837841 18.608507 -1.113044 1.889903 0.021224 -0.009883 -599260.000000 1 0 0
-12.520451 -9.181594 8.213459 17.564859 0.632745 1.084214 0.029108 -0.011170 298267.000000 1 0 0
-13.351151 -11.752494 6.750159 19.024694 0.721802 1.208085 0.043427 -0.012025 61454.500000 1 0 0
-6.734651 -12.474794 12.130959 18.658408 1.075771 0.863001 0.038380 -0.013097 -1113880.000000 1 0 0
-1.916751 -10.736994 14.207559 17.911217 1.394139 0.654715 0.018801 -0.012866 1595610.000000 1 0 0
-8.983051 2.869006 10.964159 14.461645 -0.309140 0.710318 0.000448 -0.001168 1450450.000000 1 0 0
0.313349 10.044506 15.169959 18.196647 1.539610 0.585080 0.013269 -0.009863 -398940.000000 1 0 0
0.893749 -6.892294 16.627559 18.021605 -1.441842 0.395910 0.030834 -0.025361 1921210.000000 1 0 0
6.126949 2.203506 17.701959 18.861450 0.345238 0.352461 0.026978 -0.007370 2198390.000000 1 0 0
-5.164951 -3.014794 17.584559 18.573702 0.528350 0.327825 0.018603 -0.014615 301866.000000 1 0 0
-4.399951 8.131806 12.999159 15.951927 -1.074828 0.618247 -0.000930 -0.002505 341551.000000 1 0 0
-0.031351 -4.977394 18.636459 19.289713 1.564498 0.260992 0.028953 -0.028257 97136.300000 1 0 0
-11.768751 2.084306 11.181159 16.366617 -0.175288 0.818703 -0.001533 -0.007292 76460.300000 1 0 0
-3.427551 -6.136694 14.336059 15.966518 1.061425 0.455860 0.015189 -0.013074 1811420.000000 1 0 0
-7.493151 -2.287794 14.562159 16.535954 0.296329 0.493593 0.014535 -0.004665 396432.000000 1 0 0
-6.182951 -1.199594 10.602459 12.332074 0.191636 0.536023 0.005875 -0.002454 1316590.000000 1 0 0
-4.003551 2.324306 11.146759 12.069841 -0.526004 0.393633 0.002911 0.003196 344389.000000 1 0 0
-6.461751 6.213206 13.443259 16.157951 -0.765792 0.588111 -0.006902 -0.003199 434151.000000 1 0 0
-9.070151 5.462006 12.541659 16.413237 -0.542032 0.701123 0.000012 -0.005934 -465013.000000 1 0 0
-12.316251 -2.092894 15.833059 20.168193 0.168322 0.668018 0.029136 -0.002937 1398800.000000 1 0 0
-3.558651 -7.706894 16.917759 18.928042 1.138215 0.465063 0.025059 -0.017917 -1808450.000000 1 0 0
-0.588151 -5.369994 14.420159 15.398823 1.461706 0.358439 0.011201 -0.010023 2434030.000000 1 0 0
-14.348051 -2.234194 13.581459 19.882510 0.154474 0.818817 0.026343 -0.007108 692891.000000 1 0 0
-6.563551 1.450206 12.064759 13.810927 -0.217455 0.508314 0.001404 0.000181 1088240.000000 1 0 0
2.173149 -2.218094 14.649159 14.974658 -0.795633 0.208882 0.007678 -0.004703 773766.000000 1 0 0
-12.677751 4.009206 9.196759 16.167235 -0.306288 0.965687 -0.003653 -0.007410 -1108980.000000 1 0 0
-9.146751 -3.057894 12.519859 15.803817 0.322634 0.656383 0.006621 0.000480 -356695.000000 1 0 0
-7.203651 -7.265794 15.201059 18.323661 0.789693 0.592430 0.022510 -0.014090 -895187.000000 1 0 0
-3.139551 5.941306 19.427559 20.556896 -1.084666 0.333009 0.029662 -0.011325 -651634.000000 1 0 0
0.579549 5.487006 16.172359 17.087666 1.465564 0.328787 0.007703 -0.003092 144700.000000 1 0 0
3.439949 1.369506 16.770359 17.174218 0.378883 0.217293 0.008065 -0.003660 2305940.000000 1 0 0
-11.827551 11.391706 7.812259 18.184975 -0.766630 1.126747 0.004142 -0.013518 -552589.000000 1 0 0
0.442349 -9.488194 15.358959 18.058769 -1.524209 0.553864 0.011454 -0.011681 -619854.000000 1 0 0
-2.613251 -3.725194 18.847259 19.388794 0.959059 0.236902 0.023623 -0.024438 326235.000000 1 0 0
-12.840351 2.462206 13.786059 18.999802 -0.189456 0.758905 -0.004133 -0.012472 -1004530.000000 1 0 0
-5.495151 -0.602594 15.776359 16.716857 0.109223 0.337034 0.015433 -0.000834 1692920.000000 1 0 0
-4.601751 -6.063494 11.660559 13.925183 0.921606 0.578338 0.005446 -0.004083 673099.000000 1 0 0
2.289849 1.799906 14.062859 14.361305 0.666169 0.204224 0.001658 0.001086 568590.000000 1 0 0
0.000649 3.339006 14.367059 14.749961 1.570602 0.228353 0.006115 -0.000918 1009350.000000 1 0 0
-12.996751 7.168606 12.225759 19.229499 -0.504047 0.881776 0.004081 -0.009391 506278.000000 1 0 0
0.789149 1.327006 18.303659 18.368659 1.034295 0.084151 0.012861 -0.003805 1498380.000000 1 0 0
-2.059351 6.460906 12.484859 14.207602 -1.262237 0.497570 -0.001113 0.001587 764369.000000 1 0 0
-13.536051 -2.677594 10.843459 17.549210 0.195291 0.904742 0.019156 -0.002740 799434.000000 1 0 0
-2.644351 3.584006 13.496159 14.212108 -0.935136 0.318762 0.002603 0.001646 -221317.000000 1 0 0
3.435549 6.260606 16.324459 17.818141 1.068908 0.412377 0.005697 0.002326 1180260.000000 1 0 0
-3.865451 12.348206 12.221159 17.798220 -1.267422 0.813925 0.019920 -0.011461 1230120.000000 1 0 0
3.678349 -1.555194 17.179259 17.637342 -0.400003 0.228410 0.033859 -0.010636 -446598.000000 1 0 0
-15.862251 0.420306 9.033159 18.258850 -0.026491 1.053275 0.032012 -0.014360 909323.000000 1 0 0
-4.773051 4.557706 15.226059 16.594806 -0.762323 0.408998 0.005042 -0.002482 539739.000000 1 0 0
-8.151651 -8.219494 10.484559 15.618434 0.789542 0.834843 0.021402 -0.011273 2668600.000000 1 0 0
-2.741851 -0.567794 14.720059 14.984001 0.204198 0.187973 0.011079 -0.000987 3287530.000000 1 0 0
-1.891151 0.918506 17.205559 17.333533 -0.452131 0.121591 0.012223 -0.007583 1372350.000000 1 0 0
-0.734051 -2.513494 14.395459 14.631669 1.286655 0.179930 0.012677 -0.004969 398406.000000 1 0 0
5.171749 -8.276194 16.472459 19.146391 -1.012273 0.534855 0.043476 -0.016283 2346420.000000 1 0 0
-4.566451 9.941406 10.660559 15.275194 -1.140205 0.798335 0.000332 -0.005334 -400995.000000 1 0 0
-6.277451 2.101806 15.069459 16.459422 -0.323087 0.413918 0.010181 -0.004843 -425526.000000 1 0 0
-4.897051 6.750906 17.262359 19.171460 -0.943231 0.450063 0.009135 -0.001050 -682756.000000 1 0 0
-4.229051 9.072306 15.699759 18.619185 -1.134594 0.567582 0.007708 -0.007251 164982.000000 1 0 0
-4.778651 -9.887294 18.271659 21.317777 1.120588 0.541165 0.049616 -0.026519 -769925.000000 1 0 0
-6.942351 -4.165794 11.093359 13.733634 0.540460 0.630469 0.008924 -0.000992 34468.600000 1 0 0
-2.371451 -0.912294 19.552959 19.717360 0.367246 0.129224 0.021389 -0.013781 167293.000000 1 0 0
-5.785551 -4.571294 15.248059 16.937315 0.668689 0.450420 0.010452 -0.007374 1455660.000000 1 0 0
-12.942051 -0.046294 9.707959 16.178482 0.003577 0.927228 0.001638 -0.001237 1583820.000000 1 0 0
-14.602951 8.486506 10.203059 19.732445 -0.526444 1.027372 0.010846 -0.024574 54742.400000 1 0 0
-8.463851 10.482406 12.855759 18.622249 -0.891539 0.808832 0.012325 -0.013718 -1830000.000000 1 0 0
-10.466951 7.180406 10.759959 16.640072 -0.601273 0.867639 0.000473 -0.009638 -900133.000000 1 0 0
-9.955551 -6.598894 14.830359 19.042005 0.585346 0.678008 0.033444 -0.012909 30782.100000 1 0 0
-0.783551 -13.462794 14.369259 19.706252 1.512661 0.753684 0.019520 -0.016755 1348790.000000 1 0 0
3.718149 -5.717494 17.087159 18.397972 -0.994202 0.379764 0.050127 -0.023708 1856830.000000 1 0 0
-7.401051 9.369006 10.360559 15.808068 -0.902213 0.856088 0.009259 -0.007975 883655.000000 1 0 0
-10.469151 -6.764894 11.816259 17.175299 0.573681 0.812095 0.031280 -0.017532 1742990.000000 1 0 0
-10.975351 -3.990394 10.686159 15.829579 0.348719 0.829729 0.009135 0.002293 519826.000000 1 0 0
-10.183551 -10.267894 9.789559 17.463385 0.789522 0.975715 0.032837 -0.017897 1667890.000000 1 0 0
-9.925351 -3.588294 15.228859 18.528535 0.346908 0.606033 0.029664 -0.016078 960076.000000 1 0 0
5.532249 -3.577794 16.114359 17.409163 -0.574063 0.388112 0.044627 -0.019128 336450.000000 1 0 0
-11.379451 0.615806 15.367259 19.131748 -0.054063 0.638093 0.010819 -0.001988 235200.000000 1 0 0
-3.059051 3.110706 18.794359 19.294098 -0.793770 0.228095 0.015863 -0.009954 351451.000000 1 0 0
0.418849 7.370906 13.955059 15.787633 1.514033 0.486610 0.003493 -0.005175 1342840.000000 1 0 0
-13.220551 -7.465094 12.317759 19.550902 0.514027 0.889198 0.046511 -0.018864 -452388.000000 1 0 0
-1.545151 -1.220694 12.183459 12.341566 0.668623 0.160240 0.007598 -0.002630 1060750.000000 1 0 0
2.015949 -4.847394 13.166959 14.174981 -1.176673 0.379399 0.010258 -0.007056 637641.000000 1 0 0
-14.577951 -4.277194 8.605259 17.460284 0.285392 1.055437 0.023922 -0.008677 -1685170.000000 1 0 0
8.121949 0.866106 15.931459 17.903284 0.106236 0.473753 0.061138 -0.014571 -505465.000000 1 0 0
-1.480251 11.320606 13.349859 17.566047 -1.440777 0.707513 0.015144 -0.007522 933946.000000 1 0 0
2.876949 -12.210494 -13.970841 18.776512 -1.339404 2.409922 0.019541 -0.004984 -762772.000000 1 0 0
0.832449 -10.711194 -14.071541 17.703980 -1.493235 2.489513 0.013513 -0.001757 -3101230.000000 1 0 0
3.306749 -14.342594 -12.511641 19.318016 -1.344201 2.275315 0.032630 -0.004768 -728767.000000 1 0 0
-5.113551 -10.299594 -16.195541 19.862668 1.109968 2.524175 0.020280 -0.013508 -186711.000000 1 0 0
-1.043451 -12.112994 -15.085841 19.375139 1.484865 2.463257 0.028244 -0.008283 -607772.000000 1 0 0
5.730349 -14.866394 -12.074041 19.990724 -1.202890 2.219285 0.027248 -0.014458 -189948.000000 1 0 0
1.850049 -11.860994 -16.255141 20.207312 -1.416066 2.505493 0.024558 -0.004791 -1059110.000000 1 0 0
1.281049 -14.266594 -14.133341 20.122826 -1.481243 2.349495 0.039779 -0.003839 -401809.000000 1 0 0
-1.073351 -10.633194 -15.989641 19.232408 1.470194 2.552402 0.023617 -0.011689 -724151.000000 1 0 0
-5.569651 -5.522094 -15.124141 17.036847 0.781111 2.663190 0.008804 -0.006335 -489117.000000 1 0 0
-6.149551 -7.657194 -16.459441 19.166710 0.894163 2.603624 0.011252 -0.010002 -475189.000000 1 0 0
4.918649 -12.541694 -11.507741 17.717655 -1.197046 2.277732 0.011743 -0.003760 88131.300000 1 0 0
-1.836751 -15.544994 -13.011341 20.354741 1.453185 2.264292 0.032535 -0.001413 129953.000000 1 0 0
15.640149 -7.253794 -8.585041 19.259666 -0.434265 2.032811 0.039355 -0.013026 292381.000000 1 0 0
19.283149 -3.432494 -4.148241 20.020733 -0.176160 1.779505 0.141164 -0.036889 931148.000000 1 0 0
14.981849 -11.425294 -8.923241 20.847479 -0.651522 2.013103 0.053295 -0.019021 -22612.500000 1 0 0
18.097949 -3.475894 -6.518141 19.547475 -0.189750 1.910759 0.114535 -0.016861 631338.000000 1 0 0
9.533949 -9.266194 -15.529041 20.442838 -0.771157 2.433544 0.098782 -0.034859 509907.000000 1 0 0
1.337849 1.835106 -15.290641 15.458368 0.940851 2.994148 0.018313 -0.009881 247638.000000 1 0 0
4.898849 -4.403094 -13.939941 15.417779 -0.732153 2.700176 0.016443 -0.005758 1110550.000000 1 0 0
13.073649 -5.404394 -8.615941 16.563883 -0.391988 2.117840 0.026770 -0.000463 -519260.000000 1 0 0
2.996049 0.857206 -12.263141 12.652894 0.278667 2.892743 0.011345 -0.002527 -473608.000000 1 0 0
0.635249 6.344206 -13.098741 14.568099 1.470998 2.688594 0.010660 0.001734 495090.000000 1 0 0
3.118349 -0.996494 -16.843441 17.158630 -0.309302 2.949626 0.027370 -0.012404 65076.000000 1 0 0
13.164349 4.601806 -11.543441 18.103252 0.336288 2.262233 0.035842 -0.011782 644586.000000 1 0 0
-3.910551 9.351006 -16.612841 19.460735 -1.174703 2.593768 0.002316 0.002189 -219555.000000 1 0 0
0.040049 -5.038494 -17.646141 18.351412 -1.562848 2.863455 0.017361 -0.014394 442227.000000 1 0 0
-0.411351 -8.632594 -17.635041 19.638878 1.523181 2.685921 0.019673 -0.010480 -1702950.000000 1 0 0
5.721049 -10.077094 -12.136241 16.779945 -1.054444 2.379306 0.011217 -0.004967 174830.000000 1 0 0
2.020349 -9.735794 -18.095841 20.647686 -1.366183 2.639153 0.050188 -0.021435 153261.000000 1 0 0
11.030449 8.920206 -14.373141 20.194753 0.680017 2.362749 0.101892 -0.048284 -220244.000000 1 0 0
11.313249 -3.876294 -13.013241 17.673701 -0.330097 2.398390 0.028647 -0.002889 86315.800000 1 0 0
4.902649 7.430706 -12.235941 15.131742 0.987575 2.512612 0.007353 -0.000788 -443070.000000 1 0 0
9.678649 -5.916194 -12.717941 17.041820 -0.548660 2.413250 0.022317 -0.003061 -988652.000000 1 0 0
-3.271451 0.284006 -15.798241 16.135906 -0.086596 2.936655 0.018596 -0.011646 -22971.500000 1 0 0
-0.792051 10.817606 -12.823441 16.795493 -1.497708 2.439519 -0.001929 0.002481 -1717940.000000 1 0 0
6.762749 -5.452294 -12.436441 15.169949 -0.678525 2.531871 0.018632 -0.004945 -294053.000000 1 0 0
17.878549 -5.972494 -8.169241 20.543848 -0.322404 1.979749 0.087163 -0.022874 635220.000000 1 0 0
13.236149 4.865106 -14.088641 19.933758 0.352234 2.355722 0.078314 -0.027376 277684.000000 1 0 0
14.166349 0.956206 -11.559241 18.308900 0.067396 2.254083 0.030637 -0.004858 -210358.000000 1 0 0
15.122049 6.130206 -11.096141 19.732718 0.385137 2.167987 0.087461 -0.024387 65725.900000 1 0 0
8.229349 1.507206 -11.862041 14.515573 0.181142 2.527322 0.001123 0.004390 523235.000000 1 0 0
9.933149 1.285106 -8.960841 13.439331 0.128661 2.300652 0.003632 0.001094 410328.000000 1 0 0
-0.073951 -5.829994 -13.034041 14.278673 1.558112 2.720965 0.000488 -0.003319 441570.000000 1 0 0
10.547649 -5.704694 -9.109641 15.059283 -0.495791 2.220460 0.016278 -0.002837 -753435.000000 1 0 0
10.136649 8.637906 -11.154541 17.372071 0.705739 2.268026 0.052054 -0.028963 492683.000000 1 0 0
8.503849 8.258006 -14.614041 18.817022 0.770732 2.460110 0.063157 -0.021059 496859.000000 1 0 0
8.596449 10.698406 -10.571341 17.323628 0.893909 2.227143 0.065783 -0.025233 -249989.000000 1 0 0
7.349249 1.725606 -17.864541 19.394097 0.230623 2.741777 0.051234 -0.012817 -2124150.000000 1 0 0
12.232849 2.734806 -12.885041 17.976263 0.219946 2.369971 0.039197 -0.014768 -1184140.000000 1 0 0
2.619549 -0.974894 -19.370941 19.571556 -0.356279 2.998289 0.050559 -0.020243 -349486.000000 1 0 0
10.460149 -2.017894 -15.097641 18.477699 -0.190571 2.527113 0.058056 -0.030421 195157.000000 1 0 0
8.384449 -0.878494 -13.016141 15.507761 -0.104396 2.566847 0.014672 -0.003461 155653.000000 1 0 0
0.497249 4.188206 -14.607941 15.204613 1.452623 2.860515 0.016403 -0.005578 115965.000000 1 0 0
4.011749 -7.634994 -15.651141 17.870240 -1.087003 2.637932 0.031502 -0.014542 -1912380.000000 1 0 0
11.679149 -5.938094 -14.492841 19.537296 -0.470373 2.406553 0.064119 -0.014906 -804737.000000 1 0 0
-5.919751 4.180406 -16.757141 18.257081 -0.614861 2.733409 0.014683 -0.006690 75045.200000 1 0 0
11.383149 7.947906 -9.007341 16.549244 0.609528 2.146321 0.046663 -0.014219 -552238.000000 1 0 0
9.553649 6.287506 -13.214241 17.476301 0.582067 2.428165 0.033641 -0.010221 -243305.000000 1 0 0
12.108749 0.700606 -10.251841 15.881212 0.057795 2.272517 0.012017 0.003911 -2337410.000000 1 0 0
5.519049 -7.267294 -13.665641 16.432383 -0.921283 2.552830 0.021267 -0.006489 -550139.000000 1 0 0
8.742049 -10.190594 -10.796041 17.228643 -0.861760 2.248022 0.029272 -0.002337 -190798.000000 1 0 0
10.336249 4.821806 -15.650241 19.365379 0.436486 2.511810 0.072827 -0.025791 -508453.000000 1 0 0
9.951049 -0.372894 -10.975741 14.819896 -0.037455 2.404772 0.006428 0.002026 -320913.000000 1 0 0
-1.697851 5.448406 -14.002941 15.121183 -1.268710 2.754599 0.006968 -0.004522 -429439.000000 1 0 0
1.517249 -0.691494 -14.843641 14.936997 -0.427629 3.029731 0.016232 -0.008194 -1544920.000000 1 0 0
11.485949 -10.590894 -14.376341 21.231421 -0.744878 2.314646 0.101300 -0.031942 120850.000000 1 0 0
9.597349 -7.780294 -10.902341 16.477352 -0.681214 2.293822 0.024127 -0.002257 -783013.000000 1 0 0
13.920349 -0.852494 -9.722841 17.001074 -0.061164 2.179611 0.023713 -0.005124 443965.000000 1 0 0
3.893949 11.082206 -12.239341 16.964068 1.232902 2.376743 0.022720 -0.016081 -740178.000000 1 0 0
-1.382851 2.787906 -16.841041 17.126160 -1.110340 2.958866 0.016554 -0.009667 332283.000000 1 0 0
6.272049 -0.534094 -17.634941 18.724716 -0.084950 2.798742 0.042010 -0.012146 482808.000000 1 0 0
6.409149 -6.687194 -16.006041 18.492947 -0.806626 2.616987 0.034948 -0.014135 -111868.000000 1 0 0
-1.557151 -5.355394 -19.810441 20.580537 1.287835 2.867168 0.030356 -0.018879 -2643.860000 1 0 0
-0.013951 -4.345994 -15.151341 15.762328 1.567586 2.862252 0.006100 -0.007075 238638.000000 1 0 0
0.531149 0.724506 -13.005241 13.036231 0.938187 3.072626 0.012540 -0.006544 757980.000000 1 0 0
15.767149 0.755106 -13.588741 20.828516 0.047855 2.281557 0.099755 -0.036372 607456.000000 1 0 0
-0.259351 6.998706 -16.271941 17.715112 -1.533756 2.735154 0.019507 -0.004136 -511811.000000 1 0 0
-4.684751 -0.684694 -18.251241 18.855330 0.145126 2.887779 0.011303 -0.008348 -411592.000000 1 0 0
10.487849 -8.390294 -13.236241 18.857096 -0.674742 2.348891 0.037727 -0.014023 384789.000000 1 0 0
4.091649 8.608006 -17.081141 19.560285 1.127078 2.632642 0.052778 -0.025044 -220920.000000 1 0 0
9.435249 0.440106 -16.994341 19.442871 0.046611 2.634305 0.045160 -0.014125 43180.300000 1 0 0
3.104549 5.087106 -18.630541 19.560520 1.022854 2.831995 0.045828 -0.005942 -439552.000000 1 0 0
1.515049 -8.078194 -16.058741 18.039838 -1.385402 2.668541 0.014941 -0.009831 -604644.000000 1 0 0
4.662049 7.601106 -14.889341 17.355229 1.020627 2.601997 0.023949 -0.008229 264016.000000 1 0 0
-5.680351 -0.545194 -15.052441 16.097813 0.095686 2.779228 0.004842 -0.009445 -637112.000000 1 0 0
2.904949 3.321106 -13.781941 14.471018 0.852140 2.831752 0.019235 -0.004168 -791598.000000 1 0 0
-2.333351 -10.333594 -18.197441 21.056461 1.348718 2.614397 0.033457 -0.008136 24947.000000 1 0 0
6.108249 -9.140194 -15.251741 18.800783 -0.981675 2.517047 0.024385 -0.020825 -353833.000000 1 0 0
-1.976551 5.333906 -17.368441 18.276215 -1.215921 2.825092 0.019311 -0.003432 512294.000000 1 0 0
10.035649 -12.347094 -11.700141 19.749893 -0.888302 2.204850 0.063730 -0.016070 -215104.000000 1 0 0
10.898649 3.670506 -9.361241 14.828554 0.324854 2.254022 0.009699 -0.003565 -664655.000000 1 0 0
4.934349 -0.493594 -10.989541 12.056593 -0.099701 2.717704 0.007065 -0.002476 431516.000000 1 0 0
6.265349 9.534406 -11.339341 16.085402 0.989425 2.353143 0.023708 -0.015168 491172.000000 1 0 0
10.909149 -9.575194 -9.450441 17.320644 -0.720369 2.147922 0.033576 -0.005578 -79000.400000 1 0 0
3.294549 -2.451794 -14.609741 15.175964 -0.639777 2.867568 0.014064 -0.006850 71207.900000 1 0 0
9.646749 -4.514994 -14.952541 18.358198 -0.437748 2.522643 0.056980 -0.010072 268573.000000 1 0 0
-3.870951 -6.612794 -16.760041 18.428572 1.041201 2.712779 0.004147 -0.007100 -1470490.000000 1 0 0
5.945349 -7.641094 -11.152241 14.768411 -0.909568 2.426666 0.009970 -0.000165 344090.000000 1 0 0
5.314149 6.289106 -16.919541 18.816586 0.869226 2.688694 0.042262 -0.012609 -898537.000000 1 0 0
9.414749 1.531906 -19.335741 21.560499 0.161300 2.683309 0.077091 -0.024085 447965.000000 1 0 0
13.117249 5.922606 -9.395641 17.187715 0.424111 2.149153 0.026932 -0.005789 211134.000000 1 0 0
-1.734251 -1.117694 -17.352341 17.474570 0.572487 3.023247 0.027912 -0.014273 -1443010.000000 1 0 0
-0.558251 -0.453094 -19.427241 19.440541 0.681793 3.104600 0.040225 -0.026257 -74319.400000 1 0 0
2.731149 6.446606 -16.408741 17.839974 1.170064 2.738300 0.025019 -0.007092 234476.000000 1 0 0
7.766149 3.888606 -15.620041 17.872325 0.464217 2.634128 0.033733 -0.005306 -339630.000000 1 0 0
3.043049 -9.909994 -15.022341 18.252092 -1.272867 2.537552 0.019743 -0.003662 49249.800000 1 0 0
9.063749 -10.546994 -13.373041 19.293233 -0.860889 2.336642 0.062883 -0.020355 -632549.000000 1 0 0
3.969249 0.159906 -14.795141 15.319161 0.040264 2.879281 0.017687 -0.009413 -1575130.000000 1 0 0
-0.930351 -2.964894 -19.041641 19.293528 1.266738 2.979827 0.040131 -0.015474 483773.000000 1 0 0
9.374949 10.277006 -13.048241 19.072575 0.831268 2.324215 0.086917 -0.035532 301849.000000 1 0 0
4.630249 2.029906 -10.581741 11.727445 0.413166 2.695885 0.002586 0.002146 -292192.000000 1 0 0
-0.516951 6.947606 -18.852441 20.098532 -1.496526 2.787614 0.030348 -0.006434 236358.000000 1 0 0
0.756449 -1.739194 -17.555741 17.657889 -1.160535 3.033978 0.030633 -0.019923 -650439.000000 1 0 0
-4.424351 -2.363594 -14.083641 14.950264 0.490650 2.799435 0.008207 -0.009241 -4268700.000000 1 0 0
10.164349 6.092706 -10.296841 15.699044 0.539992 2.286157 0.019699 -0.001975 39826.800000 1 0 0
8.614449 5.505106 -17.403341 20.183934 0.568642 2.610467 0.078460 -0.022936 140193.000000 1 0 0
11.484349 0.290306 -13.541641 17.758113 0.025273 2.438059 0.020571 -0.001753 314688.000000 1 0 0
6.627349 12.094706 -11.714841 18.095336 1.069525 2.274959 0.058676 -0.030942 -160402.000000 1 0 0
-0.812751 0.338606 -15.276541 15.301893 -0.394749 3.084021 0.015785 -0.011977 -235970.000000 1 0 0
-4.328151 -3.200994 -18.983941 19.732442 0.636796 2.865278 0.020592 -0.005608 123234.000000 1 0 0
5.858649 -11.988294 -13.997241 19.338193 -1.116232 2.380109 0.024337 -0.013432 67648.800000 1 0 0
2.226649 -4.779594 -14.083641 15.038332 -1.134827 2.783355 0.008051 -0.002454 637600.000000 1 0 0
11.939949 2.046406 -15.374741 19.573779 0.169742 2.474262 0.069707 -0.017695 387920.000000 1 0 0
9.837649 2.337206 -13.774441 17.087337 0.233253 2.508362 0.025958 -0.008690 1213560.000000 1 0 0
-2.089351 -4.219294 -16.533941 17.191248 1.111004 2.864172 0.003464 -0.009421 -2139260.000000 1 0 0
-2.948551 10.165706 -14.333441 17.818054 -1.288494 2.505518 0.006711 -0.001046 178241.000000 1 0 0
3.581349 5.759106 -13.633841 15.227442 1.014459 2.680006 0.013650 -0.003028 -254776.000000 1 0 0
-5.060951 -2.614194 -16.560641 17.512911 0.476794 2.810306 0.007647 -0.005658 415771.000000 1 0 0
-4.289051 6.083106 -13.638441 15.537284 -0.956672 2.642021 0.002651 -0.003312 225670.000000 1 0 0
6.052849 -1.111994 -14.112341 15.395833 -0.181688 2.730373 0.021806 -0.002030 -1344430.000000 1 0 0
6.771149 -3.020994 -12.569141 14.593086 -0.419653 2.608635 0.016399 -0.005402 1509760.000000 1 0 0
2.868349 -3.192394 -18.068741 18.571435 -0.838813 2.908393 0.046977 -0.028378 -196367.000000 1 0 0
7.411649 -12.029794 -11.985441 18.528337 -1.018617 2.274270 0.031538 -0.013493 319443.000000 1 0 0
-6.051851 -5.436994 -17.721341 19.499531 0.731931 2.711216 0.033049 -0.007736 340337.000000 1 0 0
0.531049 8.679406 -11.963541 14.789875 1.509688 2.513076 0.001653 0.001697 -95646.200000 1 0 0
0.448949 8.623406 -14.494641 16.871849 1.518782 2.604309 0.009054 0.001775 267530.000000 1 0 0
7.881649 -2.661094 -14.867941 17.036945 -0.325614 2.631477 0.032892 -0.022556 131747.000000 1 0 0
14.245049 1.678306 -8.954041 16.908962 0.117276 2.128859 0.028064 -0.003125 28846.900000 1 0 0
2.874649 10.886506 -14.753041 18.558875 1.312633 2.489692 0.017283 -0.000843 404708.000000 1 0 0
6.298849 1.048306 -15.528241 16.789899 0.164917 2.751453 0.033012 -0.010898 201132.000000 1 0 0
16.429649 -5.459294 -10.281841 20.135876 -0.320805 2.106705 0.089781 -0.022537 -12839.200000 1 0 0
4.926349 -4.482894 -11.230041 13.056763 -0.738303 2.606250 0.007059 0.001186 -1873760.000000 1 0 0
9.076049 -3.233994 -16.979841 19.523022 -0.342296 2.625460 0.060093 -0.026236 399823.000000 1 0 0
13.422349 -9.424294 -8.913341 18.666130 -0.612157 2.068620 0.056461 -0.011635 726982.000000 1 0 0
2.367449 -7.881494 -13.593641 15.890558 -1.278990 2.597223 0.002946 0.001075 40417.100000 1 0 0
-6.763651 -2.309494 -18.465541 19.800427 0.329044 2.772300 0.011580 -0.011936 176808.000000 1 0 0
-1.357051 -6.521994 -15.867541 17.209208 1.365650 2.744109 0.004303 -0.002611 550999.000000 1 0 0
1.675549 -7.249894 -18.547741 19.984672 -1.343671 2.760069 0.039643 -0.016110 -162003.000000 1 0 0
5.428749 11.113906 -14.375541 18.964346 1.116420 2.431083 0.060643 -0.033091 -21957.400000 1 0 0
5.530049 -3.409194 -17.630641 18.789453 -0.552453 2.788554 0.036946 -0.016811 1152770.000000 1 0 0
3.822049 13.114706 -13.813741 19.427378 1.287218 2.361780 0.046604 -0.026567 -147442.000000 1 0 0
9.471449 10.557706 -15.578741 21.068239 0.839579 2.403037 0.118804 -0.046565 243281.000000 1 0 0
2.513049 3.838506 -16.305741 16.938912 0.991128 2.867312 0.031437 -0.008269 396033.000000 1 0 0
16.713149 1.834206 -11.398341 20.312948 0.109309 2.166555 0.121150 -0.024409 1931620.000000 1 0 0
10.074549 -3.609394 -10.672941 15.114097 -0.344022 2.354854 0.016865 0.001080 385629.000000 1 0 0
14.870449 -1.999994 -11.828041 19.105831 -0.133692 2.238367 0.081319 -0.021702 -911229.000000 1 0 0
-2.639151 -8.680594 -16.216041 18.581652 1.275647 2.631483 0.011861 -0.001468 -245860.000000 1 0 0
13.844149 8.402806 -8.965941 18.510962 0.545519 2.076426 0.068664 -0.015832 -222849.000000 1 0 0
-8.229551 -0.217294 -16.511741 18.450211 0.026398 2.679082 0.003531 -0.006470 -264508.000000 1 0 0
-3.541951 3.796006 -15.838641 16.667862 -0.820006 2.824835 0.010233 -0.006229 -1094250.000000 1 0 0
15.068049 4.042806 -9.721741 18.382128 0.262130 2.128064 0.048081 -0.009127 719202.000000 1 0 0
5.498349 1.137706 -12.963541 14.127265 0.204038 2.732861 0.015231 0.000028 332217.000000 1 0 0
7.952549 -7.727094 -12.857041 16.978060 -0.771020 2.429925 0.038709 -0.008865 -1897630.000000 1 0 0
3.217349 -6.103894 -11.930941 13.782460 -1.085706 2.617266 0.004524 -0.000723 -869093.000000 1 0 0
-3.298751 3.384806 -18.514441 19.108197 -0.798273 2.891650 0.022619 -0.006684 -131802.000000 1 0 0
0.704249 5.056506 -17.625541 18.350038 1.432411 2.859654 0.039166 -0.023947 284408.000000 1 0 0
6.327849 7.137906 -10.155541 13.932925 0.845483 2.387493 0.002002 0.003531 -110542.000000 1 0 0
9.709749 3.810106 -11.636541 15.627067 0.373938 2.410792 0.014667 -0.003243 552998.000000 1 0 0
4.832949 1.692006 -17.649241 18.377050 0.336762 2.859215 0.039750 -0.004942 -1672380.000000 1 0 0
2.670549 8.133306 -13.335641 15.846824 1.253540 2.570913 0.005800 -0.000809 -439521.000000 1 0 0
14.461349 -3.398494 -9.764441 17.777083 -0.230817 2.152288 0.049008 -0.007047 69773.800000 1 0 0
-1.374551 9.348306 -16.227841 18.778260 -1.424805 2.614319 0.009650 0.001031 -1681140.000000 1 0 0
-5.345951 1.897606 -15.824441 16.810503 -0.341088 2.797383 0.009694 -0.004506 490608.000000 1 0 0
4.439149 4.224006 -11.914941 13.398287 0.760569 2.666583 0.014897 0.001200 401158.000000 1 0 0
9.553549 3.053106 -17.246441 19.950726 0.309320 2.614855 0.058309 -0.024448 741122.000000 1 0 0
-4.377551 14.364206 -13.231541 20.014171 -1.274984 2.293092 0.009466 -0.008634 -330964.000000 1 0 0
15.493049 -4.750794 -7.841641 18.002665 -0.297538 2.021481 0.049837 -0.010197 -117106.000000 1 0 0
0.992349 9.096406 -17.032541 19.334860 1.462134 2.648607 0.013202 -0.003053 -937775.000000 1 0 0
0.471749 -3.237594 -12.779741 13.191904 -1.426105 2.890963 0.005786 -0.002562 690099.000000 1 0 0
7.593449 3.690506 -13.046741 15.540198 0.452395 2.567247 0.015279 -0.000125 -186338.000000 1 0 0
-2.901951 7.545806 -15.072241 17.103595 -1.203655 2.649259 0.005356 -0.002892 -418259.000000 1 0 0
12.274149 -5.040994 -10.973641 17.218802 -0.389696 2.261793 0.036569 -0.004998 -1091660.000000 1 0 0
0.888549 -4.435394 -20.085341 20.588423 -1.373082 2.920074 0.050168 -0.022275 -344300.000000 1 0 0
3.743149 -4.664394 -16.131341 17.204299 -0.894536 2.786558 0.032857 -0.017244 775055.000000 1 0 0
-5.718651 3.967206 -14.224841 15.836281 -0.606506 2.686553 0.000389 -0.003335 566839.000000 1 0 0
12.243749 -7.453294 -9.925741 17.435060 -0.546823 2.176448 0.025249 -0.000153 -495167.000000 1 0 0
-1.951651 -1.827694 -14.849841 15.088644 0.752611 2.963443 0.014032 -0.008159 522081.000000 1 0 0
7.206549 6.024606 -14.354141 17.154346 0.696304 2.562143 0.036704 -0.001976 145316.000000 1 0 0
4.216449 -5.425594 -18.533141 19.765951 -0.910150 2.786544 0.055160 -0.019377 322155.000000 1 0 0
7.580249 7.604006 -12.235041 16.278124 0.786963 2.421318 0.024224 -0.012403 -1916670.000000 1 0 0
12.405349 -2.441594 -11.196941 16.888622 -0.194334 2.295598 0.020830 0.002459 149062.000000 1 0 0
7.535549 -0.680194 -10.689241 13.096069 -0.090021 2.525630 0.004982 0.001251 -2573310.000000 1 0 0
5.412349 4.083406 -14.387241 15.904730 0.646350 2.701211 0.021430 -0.003708 1166050.000000 1 0 0
14.845849 3.095106 -12.902441 19.911100 0.205539 2.275755 0.077045 -0.029488 -12100.200000 1 0 0
-6.546351 6.683606 -15.855641 18.409960 -0.795772 2.608527 0.002483 0.001799 592730.000000 1 0 0
-11.278651 3.656706 -16.436041 20.266300 -0.313522 2.516662 0.071372 -0.026790 -346183.000000 1 0 0
-5.084851 6.329906 -17.955441 19.705869 -0.894043 2.716917 0.007018 0.009430 642401.000000 1 0 0
-10.016251 1.461706 -15.647941 18.636521 -0.144911 2.567414 0.044179 -0.012348 -421541.000000 1 0 0
-7.755051 5.706006 -17.855641 20.286035 -0.634338 2.647067 0.017137 -0.009153 405246.000000 1 0 0
-8.869051 3.745706 -15.551441 18.290371 -0.399611 2.587262 0.011924 -0.001553 41595.500000 1 0 0
8.888549 13.443106 -11.934541 20.053844 0.986590 2.208217 0.125892 -0.052169 1045270.000000 1 0 0
13.571349 9.018306 -11.573741 19.986567 0.586508 2.188391 0.082782 -0.028681 -46678.700000 1 0 0
8.111449 15.960506 -9.076741 20.072882 1.100594 2.040015 0.083610 -0.030382 -606766.000000 1 0 0
6.934549 13.725306 -13.688241 20.587373 1.102967 2.298137 0.105161 -0.038778 -46792.300000 1 0 0
4.727749 16.095806 -12.314441 20.810383 1.285106 2.204018 0.077162 -0.031397 -48933.400000 1 0 0
11.022549 11.133406 -11.288541 19.310113 0.790402 2.195174 0.117288 -0.045538 -47654.400000 1 0 0
15.776549 9.323706 -10.428641 21.085245 0.533765 2.088164 0.145444 -0.013082 1848270.000000 1 0 0
13.640849 10.899606 -9.846341 20.045563 0.674156 2.084261 0.154819 -0.033611 -166320.000000 1 0 0
10.564249 12.113706 -8.281541 18.081182 0.853617 2.046563 0.092033 -0.012177 672130.000000 1 0 0
5.255749 16.324206 -9.756041 19.730254 1.259316 2.088023 0.060072 -0.021774 -578737.000000 1 0 0
6.618249 14.747406 -11.323041 19.735715 1.148963 2.181853 0.071606 -0.022256 -776220.000000 1 0 0
10.685249 14.358306 -9.934441 20.470189 0.931027 2.077517 0.124745 -0.026421 -283443.000000 1 0 0
8.550049 -18.399894 -1.325241 20.332626 -1.135802 1.636021 0.055978 -0.012213 -144028.000000 1 0 0
7.508149 -17.209094 -3.508141 19.100583 -1.159402 1.755512 0.047604 -0.013482 297044.000000 1 0 0
4.655049 -18.198994 5.459259 19.562116 -1.320379 1.287968 0.052551 -0.008042 163961.000000 1 0 0
9.979949 -16.924694 -2.683241 19.830392 -1.038009 1.706522 0.053479 -0.009751 -1131410.000000 1 0 0
-9.493551 -12.307794 -10.012441 18.489409 0.913774 2.143044 0.035854 -0.009870 -790383.000000 1 0 0
-5.127851 -7.021994 -12.215341 14.993925 0.940052 2.522984 0.001366 -0.001623 512631.000000 1 0 0
-10.875051 -9.575594 -5.644241 15.550440 0.721942 1.942243 0.025426 -0.005905 -806314.000000 1 0 0
-4.436251 -11.509894 -14.072241 18.713256 1.202914 2.421877 0.009457 -0.002350 510113.000000 1 0 0
-2.828951 -15.535894 7.400959 17.439643 1.390678 1.132524 0.017603 -0.005172 85140.600000 1 0 0
-4.709551 -12.086894 -11.542741 17.363978 1.199252 2.297958 0.012733 0.002649 -138793.000000 1 0 0
-14.529551 -12.914394 -4.209941 19.890023 0.726613 1.784070 0.083590 -0.011154 440087.000000 1 0 0
-3.095351 -12.289994 -3.328341 13.103549 1.324068 1.827613 0.014776 -0.003786 778167.000000 1 0 0
-2.268751 -17.253094 -1.543541 17.469945 1.440048 1.659266 0.020443 -0.020978 -459923.000000 1 0 0
-5.791951 -12.200294 3.628859 13.984366 1.127561 1.308298 0.011037 -0.004955 1542850.000000 1 0 0
-8.658451 -10.728194 -11.933041 18.233496 0.891757 2.284261 0.014111 -0.002704 135736.000000 1 0 0
-9.588951 -12.315894 -7.314241 17.237382 0.909251 2.009012 0.040217 -0.007638 -2845.830000 1 0 0
-10.972651 -14.983394 6.056759 19.534213 0.938706 1.255541 0.062648 -0.029935 790998.000000 1 0 0
-9.303851 -15.459694 0.932559 18.067469 1.029045 1.519158 0.046121 -0.014432 -486463.000000 1 0 0
-14.767651 -7.711294 -8.036241 18.496722 0.481230 2.020244 0.036484 -0.015476 -274328.000000 1 0 0
-2.278651 -16.563694 4.974259 17.443952 1.434085 1.281626 0.022562 -0.012309 -1842210.000000 1 0 0
4.626549 -15.657494 6.048159 17.410982 -1.283487 1.216025 0.035761 -0.007941 -357491.000000 1 0 0
4.168549 -14.657294 -10.071041 18.265786 -1.293711 2.154791 0.013985 -0.007379 225323.000000 1 0 0
-7.348551 -14.056094 -0.056741 15.861217 1.089074 1.574374 0.021317 -0.007766 831315.000000 1 0 0
3.140049 -14.961194 9.488459 17.992445 -1.363919 1.015308 0.027808 -0.006839 -793140.000000 1 0 0
2.401749 -17.297294 10.391559 20.321153 -1.432827 1.034022 0.073206 -0.013271 -237324.000000 1 0 0
-8.088651 -17.306994 -5.122341 19.778693 1.133597 1.832765 0.054200 -0.011845 -295178.000000 1 0 0
-6.401051 -9.196194 -7.648241 13.566098 0.962723 2.169747 0.010142 -0.005175 452925.000000 1 0 0
-6.019351 -13.104694 -4.768441 15.188931 1.140213 1.890138 0.008472 -0.008173 211438.000000 1 0 0
2.424549 -19.395094 -4.796241 20.125904 -1.446433 1.811424 0.048493 -0.017449 82750.600000 1 0 0
-5.352151 -12.883894 8.276259 16.221489 1.177073 1.035375 0.017668 -0.010980 1049070.000000 1 0 0
2.358049 -17.451394 3.382059 17.931812 -1.436489 1.381053 0.031785 -0.015556 139542.000000 1 0 0
-17.543551 -10.306394 -2.519041 20.502280 0.531159 1.693974 0.038885 -0.003599 536569.000000 1 0 0
-3.394651 -15.464694 2.546059 16.036297 1.354714 1.411353 0.015593 -0.008646 -140903.000000 1 0 0
-10.112851 -10.347494 -14.098241 20.201504 0.796866 2.343231 0.033332 -0.016535 -71240.800000 1 0 0
6.172649 -14.435594 -5.661741 16.689616 -1.166726 1.916902 0.016516 -0.013512 512088.000000 1 0 0
-7.164151 -12.343294 -10.845941 17.925300 1.044907 2.220642 0.013427 -0.004572 -3067620.000000 1 0 0
-7.380351 -14.288994 3.779159 16.520501 1.094031 1.339997 0.029143 -0.009033 644590.000000 1 0 0
3.327149 -14.818494 -3.216641 15.524318 -1.349932 1.779508 0.017309 -0.011120 -368305.000000 1 0 0
-7.538151 -11.415494 7.724059 15.709816 0.987184 1.056789 0.020869 -0.013747 -367944.000000 1 0 0
-12.847451 -12.533594 -0.987541 17.975628 0.773033 1.625762 0.040378 0.005649 -1976950.000000 1 0 0
-1.799451 -13.641194 4.011759 14.332285 1.439641 1.287095 0.005070 -0.004079 -3070110.000000 1 0 0
-3.114651 -14.063694 5.274959 15.339939 1.352847 1.219760 0.011820 -0.004994 708864.000000 1 0 0
-14.515851 -10.376094 -4.525941 18.408079 0.620597 1.819210 0.048134 -0.006326 725521.000000 1 0 0
-6.340151 -8.593294 -10.419741 14.920228 0.935148 2.343905 0.009538 -0.003154 526203.000000 1 0 0
0.888349 -19.365094 2.215259 19.511622 -1.524955 1.457016 0.040475 -0.027654 182273.000000 1 0 0
6.508749 -14.061394 -8.214541 17.537540 -1.137282 2.058273 0.023692 -0.012148 -2229090.000000 1 0 0
-3.847551 -16.742194 -5.868441 18.153327 1.344907 1.899980 0.018918 -0.009448 -113967.000000 1 0 0
-3.507851 -13.678694 -13.192341 19.324842 1.319760 2.322196 0.033818 -0.001298 -1254530.000000 1 0 0
-8.166051 -14.713094 -4.460941 17.408604 1.064108 1.829936 0.025486 -0.011592 -1237930.000000 1 0 0
-4.569151 -14.478994 10.142359 18.258857 1.265116 0.981861 0.029011 -0.008139 -1356220.000000 1 0 0
-0.101451 -11.952994 -10.039641 15.610213 1.562309 2.269396 0.011805 0.003472 893066.000000 1 0 0
2.532049 -17.193694 6.498159 18.554257 -1.424581 1.212985 0.040699 -0.016470 1165240.000000 1 0 0
-2.693251 -19.140694 -3.390741 19.624395 1.431006 1.744450 0.035829 -0.022397 -1565760.000000 1 0 0
0.828749 -15.305794 -3.130841 15.644690 -1.516703 1.772278 0.013658 -0.008603 -1975360.000000 1 0 0
6.372749 -17.929494 0.622259 19.038537 -1.229289 1.538106 0.035461 -0.008204 -347257.000000 1 0 0
-6.907551 -16.714794 3.933959 18.508772 1.178912 1.356617 0.038927 -0.014517 -45913.400000 1 0 0
-5.204751 -13.514194 -9.489341 17.313880 1.203172 2.150860 0.018290 -0.005010 -278096.000000 1 0 0
5.838249 -15.034894 -2.289441 16.290326 -1.200405 1.711803 0.023675 -0.009406 -964259.000000 1 0 0
-8.905851 -10.459294 -0.718541 13.755992 0.865445 1.623055 0.009632 -0.000600 512241.000000 1 0 0
-7.196351 -18.765194 -2.169941 20.214564 1.204599 1.678349 0.045322 -0.021882 -582629.000000 1 0 0
8.078849 -15.850894 -1.237841 17.833981 -1.099436 1.640261 0.027327 -0.010044 -218957.000000 1 0 0
-8.037851 -10.220494 -9.441541 16.068859 0.904376 2.198846 0.017871 -0.005823 -624352.000000 1 0 0
-8.991951 -15.611594 -6.700141 19.221574 1.048227 1.926846 0.049472 -0.006770 162890.000000 1 0 0
-11.263251 -10.588794 -11.774941 19.432771 0.754543 2.221733 0.036136 -0.007850 -1053100.000000 1 0 0
6.683849 -16.178294 2.379059 17.665530 -1.179017 1.435713 0.028046 -0.007121 676115.000000 1 0 0
-2.170151 -11.171294 -6.120841 12.921767 1.378925 2.064266 0.009772 -0.002614 -733059.000000 1 0 0
-12.434051 -15.387494 -3.323641 20.060587 0.891159 1.737244 0.069530 -0.015975 -324254.000000 1 0 0
-0.203751 -19.779694 -2.949341 19.999410 1.560496 1.718808 0.052251 -0.022379 -71483.600000 1 0 0
-5.810051 -15.636794 -4.660441 17.320096 1.215043 1.843231 0.015618 -0.011433 -3361330.000000 1 0 0
2.146049 -15.845394 -1.065641 16.025530 -1.436179 1.637342 0.020817 -0.014131 445835.000000 1 0 0
-13.365251 -11.931994 5.123759 18.634788 0.728802 1.292252 0.040870 -0.012415 480713.000000 1 0 0
2.080649 -15.247594 -8.713741 17.684668 -1.435176 2.086019 0.022488 -0.003097 -2257030.000000 1 0 0
-11.389351 -16.813994 0.214959 20.309454 0.975418 1.560212 0.077350 -0.029329 80173.800000 1 0 0
-7.819351 -16.531394 -0.988341 18.314094 1.128981 1.624789 0.047886 -0.020570 527882.000000 1 0 0
-2.875551 -14.372294 -1.710141 14.756565 1.373328 1.686947 0.012261 -0.007414 239628.000000 1 0 0
-1.778251 -10.483294 -13.270741 17.005122 1.402769 2.466096 0.005068 0.001027 -242220.000000 1 0 0
1.704649 -19.525194 4.683759 20.151343 -1.483712 1.336222 0.062600 -0.028233 148444.000000 1 0 0
-17.455051 -9.503694 2.523359 20.034129 0.498585 1.444508 0.034048 -0.004195 258515.000000 1 0 0
-2.633151 -15.735894 -7.987041 17.842216 1.404998 2.034930 0.012098 0.002103 -1533880.000000 1 0 0
-10.623551 -12.132194 0.353859 16.129946 0.851599 1.548857 0.022651 0.002299 635820.000000 1 0 0
-6.830751 -11.547594 -6.561241 14.935058 1.036628 2.025636 0.016541 -0.003638 -351075.000000 1 0 0
-2.232951 -13.693394 -6.549841 15.342605 1.409151 2.011864 0.006134 -0.001602 201965.000000 1 0 0
-14.141551 -14.791294 -0.759641 20.477863 0.807851 1.607901 0.063931 -0.007065 -315771.000000 1 0 0
-9.670751 -11.388794 -4.310241 15.550120 0.866798 1.851658 0.026271 -0.004437 280599.000000 1 0 0
9.479349 -14.891894 -5.115641 18.379237 -1.003939 1.852860 0.036250 -0.011522 47011.900000 1 0 0
-5.534751 -10.853694 -9.441141 15.413347 1.099227 2.230054 0.014738 -0.003530 -1110400.000000 1 0 0
-10.337851 -16.133694 -4.556441 19.695898 1.000943 1.804251 0.062829 -0.010613 -2600310.000000 1 0 0
2.425149 -17.263794 -3.194541 17.723572 -1.431234 1.752029 0.028201 -0.011866 366151.000000 1 0 0
-0.341151 -14.434794 -8.183341 16.596588 1.547167 2.086416 0.007376 0.001083 36810.500000 1 0 0
-0.543351 -18.288894 -7.095941 19.624761 1.541096 1.940759 0.034338 -0.006436 261261.000000 1 0 0
-1.825751 -9.979494 -10.519041 14.614167 1.389847 2.374287 0.001217 0.002550 189769.000000 1 0 0
-4.845051 -17.300394 2.269459 18.108799 1.297737 1.445142 0.038679 -0.017899 1028340.000000 1 0 0
0.300349 -12.734994 -2.681841 13.017778 -1.547216 1.778296 0.007045 -0.004469 -1876030.000000 1 0 0
2.839049 -14.975894 2.999959 15.535036 -1.383445 1.376466 0.021470 -0.008430 -482046.000000 1 0 0
-9.366651 -13.139294 6.832059 17.522906 0.951483 1.170281 0.029122 -0.010293 -404011.000000 1 0 0
-0.812151 -17.818694 -4.546641 18.407536 1.525249 1.820378 0.033490 -0.012193 -256278.000000 1 0 0
-9.624751 -17.954594 -2.340041 20.505586 1.078718 1.685163 0.067346 -0.016663 -155349.000000 1 0 0
1.469349 -16.225594 1.363759 16.348967 -1.480485 1.487284 0.015468 -0.014564 435893.000000 1 0 0
-0.220151 -17.995894 4.036659 18.444383 1.558564 1.350155 0.032486 -0.019298 -480654.000000 1 0 0
-17.464751 -9.235394 -0.139341 19.756757 0.486423 1.577849 0.014329 0.000185 833379.000000 1 0 0
-14.819051 -7.366494 -10.586941 19.645682 0.461322 2.139920 0.067418 -0.024817 577179.000000 1 0 0
2.936149 -12.768294 -8.842641 15.806410 -1.344769 2.164499 0.003612 -0.001552 199235.000000 1 0 0
-11.659651 -14.808594 1.844759 18.937926 0.903812 1.473231 0.048878 -0.010333 63598.500000 1 0 0
-2.251651 -15.650994 10.365359 18.906724 1.427910 0.990542 0.033512 -0.009817 -145340.000000 1 0 0
-6.824451 -15.975994 1.398859 17.428778 1.167090 1.490448 0.041096 -0.014133 -1526950.000000 1 0 0
-12.426551 -15.316494 -5.898541 20.586572 0.889192 1.861393 0.066355 -0.007457 595906.000000 1 0 0
0.875749 -13.633694 -5.074041 14.573621 -1.506650 1.926410 0.006545 -0.001848 308232.000000 1 0 0
6.191349 -16.360894 -7.211941 18.921515 -1.209027 1.961836 0.051813 -0.026404 263728.000000 1 0 0
-6.619751 -12.943294 5.887659 15.684849 1.098037 1.185998 0.019568 -0.009272 98314.300000 1 0 0
-2.410351 -13.572794 0.600659 13.798236 1.395042 1.527251 0.011618 -0.005681 2517550.000000 1 0 0
-4.140551 -15.507094 0.205259 16.051674 1.309873 1.558009 0.020598 -0.012715 -345783.000000 1 0 0
-17.691451 -7.740794 -2.305741 19.447976 0.412448 1.689635 0.020038 -0.000311 494825.000000 1 0 0
1.399149 -12.555294 -12.002241 17.425464 -1.459815 2.330596 0.016987 -0.002223 -850264.000000 1 0 0
1.482949 -17.172294 -5.729441 18.163516 -1.484653 1.891713 0.034348 -0.007611 -160207.000000 1 0 0
-12.775651 -6.469194 -9.163341 17.001016 0.468730 2.140031 0.037428 -0.013355 823855.000000 1 0 0
-11.263851 -13.706494 -8.660041 19.741799 0.882910 2.024909 0.050984 -0.015574 62928.800000 1 0 0
-4.375751 -9.906094 3.471559 11.372318 1.154847 1.260581 0.009668 -0.003950 -3309780.000000 1 0 0
-7.045451 -14.410594 9.424359 18.604358 1.116062 1.039598 0.027785 -0.015366 -697259.000000 1 0 0
-5.206851 -15.819394 -7.992141 18.472651 1.252821 2.018223 0.019464 -0.012273 -305400.000000 1 0 0
-0.116151 -13.425294 2.142159 13.595619 1.562145 1.412575 0.010120 -0.008291 903655.000000 1 0 0
-10.936351 -13.556094 -4.690541 18.038088 0.891954 1.833855 0.062747 -0.009747 -460894.000000 1 0 0
-9.633951 -10.555794 6.610659 15.746066 0.831025 1.137539 0.029574 -0.008785 -17448.000000 1 0 0
-15.655651 -8.240594 -4.866941 18.349221 0.484517 1.839249 0.047171 -0.006307 -875045.000000 1 0 0
-14.592051 -7.310094 5.372359 17.182190 0.464419 1.252793 0.018811 -0.004283 353129.000000 1 0 0
-1.587551 -19.248294 0.104959 19.313937 1.488505 1.565362 0.043406 -0.029002 -572568.000000 1 0 0
-15.496251 -12.580994 -1.290241 20.001998 0.681939 1.635347 0.049405 0.007640 -141488.000000 1 0 0
-4.330051 -12.190194 -6.728441 14.581566 1.229490 2.050408 0.005052 -0.003494 114057.000000 1 0 0
-7.071751 -18.552794 2.119859 19.967714 1.206628 1.464432 0.064031 -0.018327 -618327.000000 1 0 0
-2.349151 -11.866194 -8.583941 14.832704 1.375353 2.187951 0.002704 0.002559 727892.000000 1 0 0
-1.236651 -20.401294 -5.173441 21.083325 1.510254 1.818709 0.054065 -0.014369 -306879.000000 1 0 0
-5.319951 -8.939794 -13.898141 17.360303 1.033998 2.499042 0.008626 -0.002237 124697.000000 1 0 0
-8.848451 -18.850494 -0.094841 20.824149 1.131926 1.575351 0.079273 -0.035370 79042.000000 1 0 0
-17.281551 -7.259194 5.439859 19.517683 0.397674 1.288341 0.050008 -0.011897 942911.000000 1 0 0
-3.638051 -14.682394 -4.188841 15.695684 1.327905 1.840949 0.010607 -0.006036 -3311930.000000 1 0 0
-2.868351 -14.713094 -10.797241 18.473846 1.378259 2.195012 0.018630 -0.001225 -188269.000000 1 0 0
-0.047651 -16.678694 6.254259 17.812828 1.567939 1.212040 0.039808 -0.015178 -1469700.000000 1 0 0
-11.191951 -11.508794 3.650059 16.463142 0.799355 1.347228 0.026104 -0.006590 510020.000000 1 0 0
-0.056451 -14.627494 -0.175241 14.628652 1.566937 1.582776 0.014252 -0.006762 1113240.000000 1 0 0
-7.270451 -9.648594 -2.581241 12.353850 0.925043 1.781289 0.013988 -0.003273 -432070.000000 1 0 0
-11.147751 -14.519694 -0.717641 18.319631 0.916021 1.609980 0.051785 -0.011893 -53198.300000 1 0 0
0.568049 -14.486194 -10.648541 17.987882 -1.531603 2.204315 0.013316 -0.003833 -155117.000000 1 0 0
-1.341651 -14.161894 -3.884541 14.746149 1.476342 1.837370 0.005735 -0.001388 -4395160.000000 1 0 0
-11.357251 -8.108794 -7.613641 15.896767 0.620044 2.070246 0.027789 -0.010373 613852.000000 1 0 0
-0.000951 -17.238494 -0.383741 17.242765 1.570741 1.593053 0.020711 -0.016406 -1128050.000000 1 0 0
-12.901651 -9.475794 4.475059 16.621354 0.633483 1.298197 0.018591 -0.007118 312504.000000 1 0 0
4.136749 -16.950294 1.526259 17.514412 -1.331424 1.483543 0.025511 -0.009888 1742520.000000 1 0 0
-3.880651 -18.057794 -8.070341 20.156234 1.359114 1.982738 0.039653 -0.010215 -79605.600000 1 0 0
-13.509251 -11.147494 2.618659 17.709428 0.689904 1.422384 0.022530 -0.005399 -1103850.000000 1 0 0
-8.574351 -12.059194 4.125759 15.361170 0.952711 1.298874 0.026433 -0.009747 2415570.000000 1 0 0
-8.309951 -9.591294 -5.852941 13.975161 0.856855 2.002931 0.016109 -0.007208 221890.000000 1 0 0
4.021049 -17.460894 -5.233641 18.666619 -1.344454 1.854980 0.021283 -0.001918 -367930.000000 1 0 0
-2.619551 -13.164394 11.265059 17.523267 1.374374 0.872566 0.017577 -0.006746 -222908.000000 1 0 0
0.063749 -16.721694 -9.541641 19.252585 -1.566984 2.089325 0.024325 -0.003027 -20617.400000 1 0 0
-6.971851 -10.827494 -14.541541 19.424153 0.998720 2.416792 0.012051 0.005662 -405756.000000 1 0 0
-4.313851 -18.916494 -1.435341 19.455160 1.346584 1.644640 0.048537 -0.030429 -433142.000000 1 0 0
-2.305251 -17.059094 1.084459 17.248273 1.436477 1.507881 0.029975 -0.025243 -157209.000000 1 0 0
4.187849 -14.634394 -7.425941 16.936592 -1.292080 2.024676 0.018889 -0.009776 -142548.000000 1 0 0
-0.780251 -15.869494 -6.173841 17.045995 1.521669 1.941410 0.014908 0.000325 718452.000000 1 0 0
-9.619351 -15.250694 8.307559 19.852736 1.008074 1.139048 0.045012 -0.020495 -427464.000000 1 0 0
-7.168951 -12.129294 -1.719541 14.194028 1.036988 1.692240 0.012383 -0.003573 943937.000000 1 0 0
-7.259951 -15.071294 -9.323241 19.151334 1.121890 2.079241 0.035824 -0.009386 60777.700000 1 0 0
-4.885851 -13.178494 -0.703541 14.072640 1.215762 1.620811 0.017383 -0.006817 1327100.000000 1 0 0
-6.393451 -13.850694 -7.200741 16.869161 1.138340 2.011812 0.016586 -0.007775 426058.000000 1 0 0
5.869749 -15.489894 0.093459 16.565008 -1.208575 1.565154 0.017728 -0.007426 396542.000000 1 0 0
-14.445651 -12.875294 1.004659 19.376774 0.727983 1.518924 0.022503 -0.001684 923006.000000 1 0 0
1.052149 -15.152794 11.045159 18.780568 -1.501472 0.942068 0.025408 -0.011390 -37677.900000 1 0 0
-9.216151 -10.674794 1.877859 14.227263 0.858599 1.438420 0.016492 0.000848 351996.000000 1 0 0
-9.465951 -8.843994 -3.612741 13.448879 0.751443 1.842764 0.013394 -0.003426 -470815.000000 1 0 0
-12.229651 -7.257894 -12.147441 18.702986 0.535602 2.277713 0.054794 -0.023491 493937.000000 1 0 0
-13.273951 -8.480794 -0.706641 15.767719 0.568536 1.615627 0.010922 -0.001402 -486739.000000 1 0 0
-11.236951 -9.660194 0.287659 14.821307 0.710088 1.551387 0.009659 0.001532 1063070.000000 1 0 0
-15.826751 -12.122294 2.956159 20.153782 0.653623 1.423585 0.046662 -0.009280 -811769.000000 1 0 0
-10.561951 -12.519694 -2.206141 16.527692 0.870014 1.704677 0.042594 -0.008953 412630.000000 1 0 0
-3.391151 -8.960994 -12.169441 15.488531 1.209018 2.474634 0.002217 0.002476 -1757860.000000 1 0 0
-0.162151 -15.479294 3.833759 15.947807 1.560321 1.328024 0.020581 -0.011510 -193281.000000 1 0 0
-15.808751 -7.801394 1.199459 17.669665 0.458423 1.502862 0.005072 -0.000245 670315.000000 1 0 0
-6.093751 -13.383394 -13.503141 19.964565 1.143526 2.313600 0.016692 0.005258 619804.000000 1 0 0
-15.475051 -10.408594 1.067359 18.680345 0.592102 1.513627 0.018733 0.002752 -170888.000000 1 0 0
-9.854751 -8.428594 -12.463641 17.986096 0.707553 2.336383 0.025647 -0.012395 242293.000000 1 0 0
-13.358751 -11.799894 -6.280841 18.898219 0.723516 1.909591 0.061132 -0.006128 85519.500000 1 0 0
-12.284051 -11.524194 -3.900341 17.289234 0.753493 1.798349 0.046988 -0.001859 -1531190.000000 1 0 0
-11.502051 -11.137394 -8.692141 18.217904 0.769292 2.068172 0.043241 -0.020885 705172.000000 1 0 0
-13.197051 -8.547494 -5.871941 16.783965 0.574744 1.928212 0.031251 -0.010355 -821856.000000 1 0 0
-13.518251 -8.315494 -3.299141 16.210332 0.551471 1.775749 0.022983 -0.002508 100780.000000 1 0 0
-4.317251 -17.062294 -3.228341 17.893650 1.322969 1.752208 0.019067 -0.018594 588240.000000 1 0 0
-15.432651 -9.010894 -1.897841 17.971219 0.528486 1.676598 0.021420 -0.002399 -2535610.000000 1 0 0
-9.311451 -15.890594 3.742059 18.794071 1.040755 1.370348 0.043019 -0.012305 -1698130.000000 1 0 0
4.702249 -17.474894 8.011859 19.790729 -1.307937 1.154005 0.064620 -0.013513 13641.400000 1 0 0
-8.331051 -15.461694 6.014559 18.564625 1.076578 1.240863 0.033353 -0.012173 -73347.200000 1 0 0
1.023349 -16.122794 8.512359 18.260668 -1.507409 1.085853 0.023054 -0.005744 302438.000000 1 0 0
-10.781051 -7.842294 -10.162741 16.763470 0.628889 2.222125 0.030325 -0.013956 944369.000000 1 0 0
-4.690651 -16.116294 5.784659 17.753856 1.287570 1.238912 0.028174 -0.012233 -1045930.000000 1 0 0
-1.126651 -13.195294 -12.073241 17.920610 1.485620 2.310010 0.011453 -0.002040 -1103040.000000 1 0 0
-6.424951 -14.371494 -2.497841 15.939229 1.150388 1.728155 0.016339 -0.009352 449140.000000 1 0 0
-17.603451 -7.059994 -7.397941 20.358156 0.381418 1.942700 0.045012 -0.015675 -98111.200000 1 0 0
-17.408451 -4.090294 -10.169941 20.572126 0.230774 2.087889 0.086511 -0.030058 1056670.000000 1 0 0
-15.362551 -5.409594 -9.032241 18.623991 0.338570 2.077135 0.042942 -0.025132 800203.000000 1 0 0
-16.063951 -5.548994 -5.821641 17.964781 0.332599 1.900813 0.023517 -0.009937 1368880.000000 1 0 0
-15.241451 -4.475594 -12.276941 20.076255 0.285617 2.228771 0.084443 -0.028644 -951261.000000 1 0 0
-18.713851 -5.422994 -5.583741 20.268084 0.282059 1.849900 0.049895 -0.015750 -62957.500000 1 0 0
-17.404851 -4.414294 -7.629641 19.509645 0.248387 1.972590 0.042161 -0.021396 806808.000000 1 0 0
12.265449 -7.826894 8.695559 16.950347 -0.567982 1.032118 0.053852 -0.012744 637881.000000 1 0 0
16.158749 -3.314194 1.788859 16.591838 -0.202297 1.462771 0.027003 -0.009227 582197.000000 1 0 0
12.009549 -1.892094 12.474859 17.419283 -0.156265 0.772523 0.051252 -0.012651 661741.000000 1 0 0
9.676449 -9.993594 5.143959 14.831248 -0.801520 1.216604 0.010409 -0.006886 329326.000000 1 0 0
16.923349 -1.815294 7.190959 18.477146 -0.106857 1.171054 0.084586 -0.020640 140186.000000 1 0 0
5.116449 -12.776494 9.087159 16.492220 -1.189895 0.987238 0.011598 0.002827 -230997.000000 1 0 0
15.303249 -9.005594 -2.154641 17.886661 -0.531903 1.691550 0.032961 -0.008213 129119.000000 1 0 0
11.173049 -8.462194 6.414459 15.413989 -0.648205 1.141594 0.022109 -0.011099 -2213250.000000 1 0 0
19.976449 -3.047594 3.596059 20.525058 -0.151392 1.394684 0.133126 -0.030387 243122.000000 1 0 0
13.703449 -8.441094 6.848459 17.491083 -0.552089 1.168492 0.052556 -0.011712 -1597530.000000 1 0 0
8.262549 -11.005994 8.859259 16.367287 -0.926827 0.998840 0.013670 -0.001182 -1978810.000000 1 0 0
16.823349 0.057106 -0.612941 16.834608 0.003394 1.607214 0.026522 -0.003293 339757.000000 1 0 0
12.562749 -12.256194 2.260259 17.695924 -0.773047 1.442719 0.016303 0.001664 -544429.000000 1 0 0
10.459049 -11.571794 3.615159 16.011480 -0.835864 1.343047 0.015961 -0.002469 -824023.000000 1 0 0
16.392049 2.941406 2.372959 16.822071 0.177551 1.429262 0.033949 -0.004855 333067.000000 1 0 0
18.412449 -3.227394 0.398459 18.697410 -0.173520 1.549484 0.065438 -0.015333 688474.000000 1 0 0
13.566649 -11.468394 -0.288641 17.766861 -0.701781 1.587043 0.033534 -0.002499 -521917.000000 1 0 0
17.066249 -7.570394 -0.794041 18.686846 -0.417509 1.613301 0.057318 -0.010230 682173.000000 1 0 0
10.118249 -5.601394 9.721359 15.108256 -0.505598 0.871804 0.024039 -0.010591 -560095.000000 1 0 0
11.340949 -13.136694 5.941659 18.343750 -0.858630 1.240941 0.038190 -0.010061 -370155.000000 1 0 0
13.037849 -1.752494 10.258059 16.681862 -0.133615 0.908508 0.046881 -0.011350 387343.000000 1 0 0
15.546949 -1.922594 -1.491841 15.736251 -0.123039 1.665742 0.018089 -0.006662 -224122.000000 1 0 0
10.382049 -12.403494 9.302859 18.659496 -0.873883 1.048861 0.059360 -0.015080 73472.300000 1 0 0
14.563349 1.242506 3.390659 15.004384 0.085111 1.342850 0.015622 -0.002822 1371730.000000 1 0 0
15.028049 -5.758494 5.262059 16.931975 -0.365925 1.254786 0.050222 -0.015771 -1049090.000000 1 0 0
14.336649 -3.429394 -2.986241 15.040542 -0.234793 1.770671 0.014927 -0.003874 1395410.000000 1 0 0
14.084249 0.661906 9.695359 17.111522 0.046962 0.968425 0.069987 -0.007487 691981.000000 1 0 0
15.538349 -3.314994 4.464159 16.503279 -0.210192 1.296883 0.034757 -0.006528 -1021190.000000 1 0 0
18.547149 4.769306 -4.270641 19.620943 0.251692 1.790210 0.061666 -0.000590 592820.000000 1 0 0
18.420749 -5.686594 -5.043441 19.927309 -0.299425 1.826671 0.105885 -0.023337 517910.000000 1 0 0
17.386349 0.261506 5.986559 18.390009 0.015040 1.239221 0.083417 -0.010364 733939.000000 1 0 0
17.123149 -6.550394 3.972559 18.758761 -0.365370 1.357410 0.078263 -0.018645 550698.000000 1 0 0
9.899249 -6.609194 14.215059 18.540348 -0.588680 0.697097 0.061140 -0.014927 -1025840.000000 1 0 0
8.588749 -12.273094 5.175259 15.848620 -0.960203 1.238152 0.008145 -0.005153 -1769540.000000 1 0 0
16.897649 -10.167994 -0.498841 19.727329 -0.541698 1.596086 0.044095 -0.001744 140257.000000 1 0 0
14.956249 -8.638894 0.397259 17.276507 -0.523794 1.547800 0.034813 -0.011261 161144.000000 1 0 0
10.095849 -12.785594 1.442059 16.354728 -0.902413 1.482508 0.016913 -0.005219 22916.500000 1 0 0
17.170849 -8.104594 8.863859 20.954487 -0.440996 1.134037 0.108692 -0.015418 873185.000000 1 0 0
19.086749 -0.003394 -1.945641 19.185659 -0.000178 1.672382 0.094371 -0.007943 31318.100000 1 0 0
13.381949 -1.101794 7.809459 15.533131 -0.082149 1.044006 0.028733 -0.014064 59786.300000 1 0 0
13.031749 -9.688694 -3.044341 16.521661 -0.639308 1.756119 0.021963 -0.006851 -1354240.000000 1 0 0
8.959649 -15.122194 1.334759 17.627752 -1.035922 1.495005 0.029177 0.000560 -500944.000000 1 0 0
11.442849 -8.322994 11.093859 17.980121 -0.628849 0.905863 0.064471 -0.015865 151835.000000 1 0 0
13.847649 -3.733794 -0.466241 14.349773 -0.263370 1.603293 0.016163 -0.007607 -192465.000000 1 0 0
7.100749 -13.415594 10.666559 18.551935 -1.083992 0.958245 0.027455 0.003339 634158.000000 1 0 0
15.408949 -6.546994 1.953759 16.855742 -0.401771 1.454625 0.023108 -0.011241 -164715.000000 1 0 0
16.001649 -6.143594 -2.657041 17.345212 -0.366581 1.724588 0.055113 -0.011334 240251.000000 1 0 0
11.178649 -8.458894 3.771359 14.516826 -0.647776 1.307989 0.019629 -0.008936 798812.000000 1 0 0
10.795749 -14.318694 -0.458041 17.938311 -0.924764 1.596333 0.034688 -0.008978 891075.000000 1 0 0
13.523249 -12.759294 4.683559 19.173252 -0.756339 1.324024 0.022657 -0.002115 -116040.000000 1 0 0
12.864649 -10.959394 6.374759 18.062255 -0.705596 1.210093 0.034128 -0.012464 -596711.000000 1 0 0
10.999649 -10.374694 1.425059 15.187408 -0.756168 1.476826 0.011324 -0.005915 576150.000000 1 0 0
13.912149 -7.522594 11.654759 19.646138 -0.495691 0.935726 0.085881 -0.028845 -1299680.000000 1 0 0
15.252849 -1.770294 -4.805341 16.089582 -0.115546 1.874086 0.029891 -0.003348 -1228120.000000 1 0 0
13.047249 -11.382594 -7.160741 18.736872 -0.717363 1.962944 0.040211 -0.008273 285270.000000 1 0 0
17.799949 -5.301194 1.861659 18.665654 -0.289456 1.470893 0.090786 -0.012847 888009.000000 1 0 0
10.640949 -9.885794 9.074459 17.126136 -0.748626 1.012361 0.040863 -0.007692 -1296290.000000 1 0 0
16.456249 1.924906 9.901259 19.301511 0.116442 1.032145 0.131017 -0.015076 525616.000000 1 0 0
18.152749 3.789006 0.494659 18.550568 0.205775 1.544128 0.032253 0.001621 595518.000000 1 0 0
13.424649 -3.935794 5.840559 15.159941 -0.285185 1.175304 0.022403 -0.014336 -1171590.000000 1 0 0
12.177649 -6.145794 6.586559 15.147564 -0.467383 1.120951 0.022621 -0.014343 59554.900000 1 0 0
16.544349 -10.210294 3.458759 19.746610 -0.552932 1.394731 0.028700 -0.007020 368597.000000 1 0 0
16.348349 -7.847394 -5.474541 18.942564 -0.447529 1.863986 0.067626 -0.018054 515211.000000 1 0 0
14.065849 -0.445694 5.388459 15.069249 -0.031676 1.205121 0.022279 -0.004933 764970.000000 1 0 0
18.286149 -4.124494 5.160159 19.442787 -0.221841 1.302175 0.098756 -0.019635 -204835.000000 1 0 0
13.571149 -13.375294 7.232959 20.381126 -0.778130 1.208005 0.056633 -0.011358 60185.600000 1 0 0
15.087149 -13.521494 -0.983441 20.283491 -0.730726 1.619300 0.043876 0.004785 -238903.000000 1 0 0
17.953049 -5.820794 7.945859 20.477556 -0.313529 1.172306 0.117456 -0.018891 444831.000000 1 0 0
14.334649 3.300306 9.315859 17.411474 0.226289 1.006240 0.066370 -0.013416 264347.000000 1 0 0
18.879249 3.672506 2.822859 19.439184 0.192127 1.425066 0.089459 -0.012145 -362367.000000 1 0 0
14.846349 -10.468694 8.076159 19.880442 -0.614165 1.152465 0.050770 -0.021811 -184786.000000 1 0 0
14.856649 -4.830994 10.337959 18.733177 -0.314389 0.986212 0.089187 -0.019806 194785.000000 1 0 0
17.767349 -7.904294 1.953059 19.544078 -0.418586 1.470698 0.100402 -0.016940 221983.000000 1 0 0
18.501049 -5.793294 -1.908241 19.480566 -0.303462 1.668910 0.070365 -0.018040 -131006.000000 1 0 0
14.374049 -12.903894 -5.465541 20.074758 -0.731555 1.846537 0.053612 -0.010076 464079.000000 1 0 0
15.430549 -1.474094 9.371759 18.113660 -0.095242 1.027002 0.112637 -0.018678 -559784.000000 1 0 0
12.981749 -10.073294 10.050659 19.261693 -0.659908 1.021842 0.058156 -0.027621 -760102.000000 1 0 0
16.529149 2.311806 4.851059 17.380737 0.138961 1.287934 0.065918 -0.008894 -1292470.000000 1 0 0
15.010549 2.573306 0.027359 15.229552 0.169783 1.569000 0.013023 0.001240 -1185140.000000 1 0 0
15.078349 -9.684294 -6.989241 19.235167 -0.570918 1.942665 0.057765 -0.014661 250041.000000 1 0 0
16.048149 0.030006 -3.234041 16.370798 0.001870 1.769654 0.022692 -0.001250 -18662.000000 1 0 0
11.983149 2.446006 13.504659 18.219622 0.201354 0.735918 0.093610 -0.009812 -320464.000000 1 0 0
17.625849 -2.750494 9.567759 20.242969 -0.154800 1.078505 0.108229 -0.024698 -155176.000000 1 0 0
8.250749 -17.978294 4.109459 20.203504 -1.140542 1.365964 0.071875 -0.026757 -339529.000000 1 0 0
6.871749 -11.154394 6.619859 14.678691 -1.018653 1.102928 0.007401 -0.003934 -88805.200000 1 0 0
17.896549 2.276206 -1.663041 18.117210 0.126508 1.662719 0.023840 0.002930 62113.800000 1 0 0
17.580649 -2.060194 3.584559 18.060252 -0.116653 1.370992 0.044289 -0.009379 -1049410.000000 1 0 0
12.763749 -13.343994 -2.022941 18.576000 -0.807620 1.679914 0.030441 0.003310 -401572.000000 1 0 0
15.137749 -8.170694 4.335359 17.739984 -0.494944 1.323912 0.039618 -0.007078 -607719.000000 1 0 0
11.897149 -3.044294 14.727159 19.175482 -0.250509 0.695052 0.093007 -0.028373 314583.000000 1 0 0
12.065449 -13.674894 -6.249641 19.277858 -0.847843 1.900949 0.024924 -0.020223 -717201.000000 1 0 0
10.796749 -11.832394 -1.218141 16.064221 -0.831132 1.646699 0.020618 -0.008550 -1136180.000000 1 0 0
13.149449 -7.891194 2.057059 15.472894 -0.540505 1.437456 0.022030 -0.005192 -177962.000000 1 0 0
8.779949 -7.808994 9.947559 15.395513 -0.726935 0.868289 0.015734 -0.004217 -910755.000000 1 0 0
15.642649 -3.725394 8.036759 17.976666 -0.233801 1.107314 0.084981 -0.022213 -507034.000000 1 0 0
10.618149 -17.035594 4.926359 20.669436 -1.013426 1.330140 0.061553 -0.022720 -424375.000000 1 0 0
15.344149 -6.269494 8.262659 18.520826 -0.387891 1.108362 0.079130 -0.013745 -127972.000000 1 0 0
16.553849 -4.962794 -0.356941 17.285446 -0.291271 1.591448 0.030806 -0.011014 -362871.000000 1 0 0
13.996449 -10.419294 3.448359 17.786328 -0.639923 1.375684 0.028190 -0.005535 -392882.000000 1 0 0
15.152249 -9.831294 -4.522641 18.619862 -0.575555 1.816144 0.052044 -0.015549 558181.000000 1 0 0
13.814749 -6.306694 0.012259 15.186238 -0.428262 1.569989 0.020148 -0.008081 -259802.000000 1 0 0
17.694949 -0.885994 -4.858141 18.371112 -0.050029 1.838424 0.086426 -0.012266 -913583.000000 1 0 0
14.328249 0.334406 -1.657141 14.427636 0.023335 1.685909 0.012077 -0.002354 -1144640.000000 1 0 0
4.812749 -13.007694 11.746459 18.175312 -1.216423 0.868088 0.008470 0.003586 -567360.000000 1 0 0
12.138849 -7.412994 13.474659 19.592616 -0.548238 0.812423 0.074208 -0.023335 -3723.710000 1 0 0
12.049749 -5.805494 11.425359 17.590880 -0.448977 0.863863 0.051863 -0.018923 -22475.400000 1 0 0
13.270749 -4.646394 8.371259 16.363977 -0.336784 1.033790 0.043010 -0.014259 -1883920.000000 1 0 0
15.349849 -1.097994 3.126759 15.703506 -0.071410 1.370344 0.024139 -0.002347 -465588.000000 1 0 0
15.320749 -10.273794 5.776359 19.329835 -0.590707 1.267329 0.048681 -0.013183 -39306.500000 1 0 0
13.768549 -7.918494 -5.643341 16.855942 -0.521920 1.912187 0.036889 -0.011504 -1753470.000000 1 0 0
9.618049 -2.375194 13.491759 16.738458 -0.242108 0.633377 0.025903 -0.011394 -46144.500000 1 0 0
10.075849 -9.132694 13.848759 19.409198 -0.736337 0.776294 0.085756 -0.007731 281788.000000 1 0 0
20.284349 6.229506 -3.110741 21.446172 0.297966 1.716359 0.144208 -0.009952 -217576.000000 1 0 0
11.193249 -3.536294 10.497459 15.747725 -0.306008 0.841156 0.025861 -0.008011 724539.000000 1 0 0
10.395949 -13.852894 -2.972241 17.573066 -0.927005 1.740749 0.028399 -0.003076 965069.000000 1 0 0
15.077149 -12.838394 2.627159 19.976155 -0.705372 1.438899 0.027802 0.005441 1445490.000000 1 0 0
11.208849 -0.472694 14.453359 18.296484 -0.042147 0.660064 0.073000 -0.017010 171355.000000 1 0 0
19.151349 -1.777794 5.735159 20.070545 -0.092563 1.281007 0.135241 -0.024955 1505470.000000 1 0 0
19.008149 -0.383294 7.930959 20.599922 -0.020162 1.175589 0.149448 -0.024383 303257.000000 1 0 0
19.094549 0.962006 0.399759 19.122946 0.050339 1.549890 0.072841 -0.010555 174678.000000 1 0 0
18.483449 0.950906 3.733559 18.880720 0.051401 1.371740 0.065158 -0.013856 -170660.000000 1 0 0
16.705849 -3.866494 -4.223541 17.659940 -0.227441 1.812296 0.050357 -0.013219 -147690.000000 1 0 0
11.235349 -8.070494 15.928059 21.096659 -0.622911 0.715136 0.112315 -0.019290 -104284.000000 1 0 0
16.599249 -7.476894 6.362359 19.285192 -0.423216 1.234589 0.070081 -0.015195 376529.000000 1 0 0
18.835749 2.478706 5.924359 19.900439 0.130844 1.268514 0.098357 -0.015184 -129474.000000 1 0 0
15.359849 1.693106 7.579659 17.211706 0.109786 1.114776 0.073732 -0.013491 -40925.600000 1 0 0
8.769849 -15.470694 3.823859 18.189957 -1.055095 1.358998 0.026038 -0.015585 205835.000000 1 0 0
11.418949 -15.086894 1.974759 19.023839 -0.922907 1.466805 0.029528 0.002344 341298.000000 1 0 0
8.435349 -16.215594 6.126659 19.277877 -1.091120 1.247380 0.049092 -0.010660 220928.000000 1 0 0
14.778249 -11.610894 -2.600541 18.972937 -0.665945 1.708295 0.036433 -0.000972 986384.000000 1 0 0
13.719549 -4.748294 3.288959 14.885885 -0.333193 1.348013 0.019295 -0.006436 -1138210.000000 1 0 0
-1.025951 10.230006 -5.538141 11.678039 -1.470842 2.064892 -0.004997 0.002726 -3207050.000000 1 0 0
8.296249 -1.765594 -7.983941 11.648536 -0.209690 2.325953 -0.000713 0.000013 -2989060.000000 1 0 0
2.885049 -10.100094 7.620059 12.976930 -1.292560 0.943200 -0.002865 0.000617 779530.000000 1 0 0
-6.364151 1.323506 8.353359 10.584550 -0.205040 0.661286 0.000857 0.000385 338358.000000 1 0 0
7.181849 -6.184694 -7.099741 11.842116 -0.710935 2.213714 0.001351 -0.002152 -336925.000000 1 0 0
-11.307651 -4.527894 -4.194241 12.882408 0.380875 1.902420 0.004738 -0.006072 87415.300000 1 0 0
2.048449 -3.138494 2.930659 4.757631 -0.992536 0.907153 0.004066 -0.000841 2422040.000000 1 0 0
-3.672951 -4.347494 8.894859 10.559820 0.869304 0.569203 0.005272 -0.004893 -2028360.000000 1 0 0
-4.866351 -1.118294 -2.440741 5.557802 0.225880 2.025455 0.007115 -0.004907 -230263.000000 1 0 0
5.051049 -5.208194 -3.554541 8.079180 -0.800714 2.026354 0.003437 -0.002367 -83324.200000 1 0 0
2.701249 14.252106 -8.679041 16.903994 1.383485 2.109975 0.018416 -0.009995 -276809.000000 1 0 0
5.570949 -5.547794 13.738659 15.829221 -0.783316 0.519777 0.032969 -0.013748 -796165.000000 1 0 0
-4.735851 -1.112694 9.903159 11.033537 0.230766 0.456614 0.007555 -0.001349 -1893050.000000 1 0 0
-0.998151 11.929206 -2.703741 12.272428 -1.487318 1.792929 -0.001966 -0.000010 39869.800000 1 0 0
2.956349 9.419706 -10.523441 14.429611 1.266684 2.388087 0.004410 0.000694 -923096.000000 1 0 0
-10.721251 2.616906 1.107859 11.091473 -0.239405 1.470746 -0.004160 0.001216 20379.100000 1 0 0
5.737249 -8.934494 -0.675841 10.639454 -0.999962 1.634361 0.005459 -0.008387 487930.000000 1 0 0
-7.136351 5.478706 9.450659 13.048321 -0.654745 0.760804 -0.000324 -0.001768 -65828.300000 1 0 0
-5.635151 -1.895494 5.145659 7.862928 0.324481 0.857381 0.003013 -0.004173 714670.000000 1 0 0
6.772649 -3.779994 -7.327541 10.670051 -0.509061 2.327790 -0.000351 -0.000559 427345.000000 1 0 0
6.237849 5.002406 11.069559 13.655401 0.675925 0.625559 0.004295 -0.000732 345535.000000 1 0 0
3.714149 -9.964594 3.009959 11.052054 -1.214013 1.294968 -0.002727 -0.003607 1578550.000000 1 0 0
-6.585951 6.555906 -5.692541 10.897691 -0.783112 2.120415 0.003165 -0.004976 -365802.000000 1 0 0
-11.096751 8.232906 5.175759 14.754901 -0.638310 1.212390 -0.008027 -0.008040 288105.000000 1 0 0
-9.182851 -5.512894 5.085559 11.856629 0.540674 1.127498 0.003012 -0.002237 772994.000000 1 0 0
3.352049 9.821506 -7.998941 13.102720 1.241896 2.227462 -0.000184 0.000790 965478.000000 1 0 0
-8.137051 -8.477594 5.928559 13.161649 0.805892 1.103536 0.009456 -0.004651 -3265650.000000 1 0 0
-7.787651 -5.805894 -7.605341 12.336819 0.640631 2.235054 0.009856 -0.006073 -472560.000000 1 0 0
9.278249 -1.524394 7.016859 11.732263 -0.162843 0.929690 0.010606 -0.008264 1938660.000000 1 0 0
-4.064751 -0.461394 -4.831341 6.330635 0.113027 2.438999 0.011414 -0.008075 -637797.000000 1 0 0
9.031149 1.263006 -4.511541 10.174028 0.138949 2.030226 -0.002675 0.003632 -2094710.000000 1 0 0
-2.002251 -10.787794 10.579259 15.241595 1.387281 0.803621 0.007965 -0.004705 384553.000000 1 0 0
-12.869951 0.203406 -2.711541 13.154066 -0.015803 1.778422 0.005015 -0.006680 -992689.000000 1 0 0
-9.688251 -5.210994 -6.043341 12.551439 0.493481 2.073146 0.014059 -0.006776 -519991.000000 1 0 0
-5.497251 8.248806 -0.173641 9.914268 -0.982958 1.588311 0.001387 0.002394 798636.000000 1 0 0
6.243549 9.758106 0.255659 11.587403 1.001602 1.548731 0.004839 -0.003776 291185.000000 1 0 0
-0.466651 -11.994194 -0.013841 12.003276 1.531910 1.571949 0.011895 -0.004568 -228549.000000 1 0 0
6.089549 4.717006 2.332259 8.048117 0.659064 1.276790 0.000184 -0.001120 588390.000000 1 0 0
3.643249 -7.522094 -8.139341 11.666363 -1.119755 2.342945 0.001932 -0.002172 1297930.000000 1 0 0
-6.630251 -9.871794 4.511359 12.718683 0.979361 1.208200 0.013918 -0.003484 -2366330.000000 1 0 0
-0.025451 6.473306 -9.202641 11.251353 -1.566865 2.528573 0.003098 0.002512 -2147220.000000 1 0 0
-17.276651 -2.698894 4.225559 17.989498 0.154964 1.333691 0.048466 -0.012923 367637.000000 1 0 0
-8.361051 0.788206 -9.100441 12.383314 -0.093993 2.396309 0.008504 -0.006688 1035660.000000 1 0 0
-9.976651 -5.922394 -11.883341 16.607893 0.535719 2.368170 0.020668 -0.008867 -468063.000000 1 0 0
2.167049 9.534806 6.496559 11.739417 1.347315 0.984359 -0.001701 0.007802 -443405.000000 1 0 0
-11.436851 1.650706 -1.218841 11.619465 -0.143342 1.675886 -0.001153 -0.001593 -1674260.000000 1 0 0
-5.936351 -5.388094 -3.062541 8.582014 0.737022 1.935696 0.013868 -0.007101 547564.000000 1 0 0
-6.991051 -8.311194 1.296259 10.937597 0.871456 1.452003 0.011693 -0.004974 163150.000000 1 0 0
0.045249 10.999006 -7.885041 13.533442 1.566682 2.192762 0.000399 0.001294 1042390.000000 1 0 0
-2.766051 9.206606 -4.187041 10.485416 -1.278934 1.981572 -0.001654 -0.002286 277997.000000 1 0 0
3.407449 -4.753394 9.412459 11.081510 -0.948854 0.555979 0.004020 -0.001367 -865106.000000 1 0 0
-9.034051 1.487006 -0.441841 9.166269 -0.163137 1.619018 -0.002356 -0.001216 -2020240.000000 1 0 0
2.430449 3.465106 -10.428341 11.254525 0.959127 2.756040 0.007436 -0.000970 -440353.000000 1 0 0
-13.769351 0.387506 1.112059 13.819618 -0.028135 1.490240 0.000564 -0.004492 -585867.000000 1 0 0
9.544049 -12.300294 -4.988141 16.348323 -0.910911 1.880857 0.033661 -0.010631 -1960160.000000 1 0 0
-4.642351 9.329006 -8.236441 13.282347 -1.109050 2.239672 -0.000139 -0.002989 -1614630.000000 1 0 0
-2.350251 7.121706 8.428959 11.282275 -1.252038 0.727112 0.002817 0.001216 -1055040.000000 1 0 0
-10.763851 -1.361194 -4.470041 11.734334 0.125792 1.961606 0.004400 -0.006883 -3560910.000000 1 0 0
2.702249 -7.116494 9.790859 12.401918 -1.207897 0.660862 0.002485 -0.003093 -962151.000000 1 0 0
-16.150451 -6.455494 3.278459 17.699117 0.380256 1.384487 0.018276 -0.003565 842218.000000 1 0 0
-10.841051 -0.112894 6.238559 12.508427 0.010413 1.048642 -0.006393 0.002383 -649150.000000 1 0 0
-8.479151 10.028406 9.372659 16.134177 -0.868913 0.950938 0.007604 -0.011087 339977.000000 1 0 0
0.293349 -5.962494 -3.654941 6.999713 -1.521637 2.120173 0.006185 -0.003191 369074.000000 1 0 0
4.890049 1.666106 -3.026141 5.987155 0.328378 2.100687 -0.001467 0.000895 -465704.000000 1 0 0
0.333949 5.291106 3.735159 6.485271 1.507765 0.957037 -0.001408 0.003569 -1945960.000000 1 0 0
6.144349 -11.167494 -1.553741 12.840563 -1.067800 1.692096 0.002678 -0.007989 -1274580.000000 1 0 0
6.296049 -13.491294 5.245559 15.785156 -1.134162 1.232045 0.007054 -0.004524 122265.000000 1 0 0
8.069349 -8.241394 -6.023241 13.012087 -0.795946 2.052056 0.001266 -0.004388 654809.000000 1 0 0
-13.151751 -1.441994 -4.801841 14.074998 0.109207 1.918948 0.006701 -0.006836 -2578690.000000 1 0 0
-6.764951 -1.623294 -7.049241 9.904112 0.235504 2.362781 0.011391 -0.008521 -215506.000000 1 0 0
-5.646751 12.893906 -4.489441 14.774765 -1.158017 1.879537 -0.007133 0.003652 -235937.000000 1 0 0
-4.302451 6.844806 -6.788241 10.556641 -1.009633 2.269245 0.003616 -0.002232 -3547010.000000 1 0 0
-9.292051 -3.751594 -8.202141 12.949586 0.383728 2.256723 0.013325 -0.006772 561300.000000 1 0 0
-2.226851 -6.366294 9.121659 11.344304 1.234311 0.636680 0.006470 -0.003672 -272846.000000 1 0 0
7.457549 -5.961494 10.062859 13.871395 -0.674369 0.759123 0.011096 -0.004193 246309.000000 1 0 0
9.658549 -4.984694 12.219859 16.354195 -0.476438 0.726957 0.029612 -0.010237 -112312.000000 1 0 0
-6.370051 2.704806 -9.002041 11.354746 -0.401543 2.486185 0.009269 -0.006797 115798.000000 1 0 0
7.385949 5.543206 8.855659 12.794611 0.643825 0.806347 0.001454 -0.001921 -191891.000000 1 0 0
12.652949 3.333606 11.144659 17.187597 0.257611 0.865299 0.063069 -0.008871 -615398.000000 1 0 0
-7.477651 -7.327494 -3.944041 11.187622 0.775256 1.931076 0.013085 -0.009098 -1672860.000000 1 0 0
2.351149 1.448506 -5.781841 6.407477 0.552162 2.696007 0.000539 -0.001383 643469.000000 1 0 0
12.745449 6.956406 -7.105641 16.165649 0.499609 2.025896 0.016793 0.000121 -372910.000000 1 0 0
0.827049 -7.805194 1.049159 7.918699 -1.465229 1.437914 0.004262 -0.003531 1421080.000000 1 0 0
-10.178551 -6.094994 -8.580541 14.641637 0.539542 2.196956 0.018548 -0.009191 -359058.000000 1 0 0
-6.775651 0.194806 3.054359 7.434817 -0.028743 1.147445 0.004317 -0.002641 -1083810.000000 1 0 0
10.797449 -7.728094 1.260559 13.337817 -0.621207 1.476145 0.010422 -0.007645 -482614.000000 1 0 0
6.246949 1.077706 10.461059 12.231909 0.170836 0.544808 0.005940 -0.000563 -714417.000000 1 0 0
-12.877051 5.287806 1.856959 14.043775 -0.389643 1.438181 0.000686 0.001928 190023.000000 1 0 0
1.943449 7.403906 3.573359 8.447705 1.314098 1.134045 -0.004855 0.003346 -12812.700000 1 0 0
10.063349 -9.359294 -0.745741 13.763121 -0.749165 1.625007 0.006263 -0.006590 841918.000000 1 0 0
6.937949 -11.693794 -9.107741 16.365540 -1.035317 2.160987 0.008608 -0.007924 -346403.000000 1 0 0
10.232449 3.545706 11.935959 16.116519 0.333568 0.736827 0.019906 -0.002914 -1119210.000000 1 0 0
-11.094451 -3.142094 -2.021041 11.706588 0.275986 1.744307 -0.001338 -0.004220 -120768.000000 1 0 0
12.411349 1.119306 6.871359 14.230601 0.089941 1.066881 0.014589 -0.007068 84531.000000 1 0 0
-9.514551 8.949606 3.062859 13.416528 -0.754811 1.340475 -0.004760 -0.002666 219026.000000 1 0 0
-6.581351 7.586706 -8.769041 13.332980 -0.856239 2.288552 0.002238 -0.004778 -517119.000000 1 0 0
8.560449 5.533606 12.157859 15.865549 0.573851 0.697725 0.020281 0.002294 -2418660.000000 1 0 0
1.349849 4.949306 -2.601041 5.751794 1.304537 2.040042 -0.001414 -0.000900 824003.000000 1 0 0
1.277849 0.446406 9.577659 9.672835 0.336088 0.140397 0.001671 -0.000649 942321.000000 1 0 0
2.578849 12.612806 -3.937541 13.462450 1.369113 1.867619 0.006829 -0.004589 520751.000000 1 0 0
2.056849 0.698706 12.977859 13.158406 0.327467 0.165846 0.002321 -0.001281 170254.000000 1 0 0
-12.300651 -1.816494 0.725859 12.455221 0.146615 1.512486 -0.003549 -0.002128 -204283.000000 1 0 0
3.346049 8.762606 -1.172041 9.452671 1.206029 1.695107 0.001877 0.000708 588919.000000 1 0 0
3.737249 -2.940394 -5.799841 7.500073 -0.666628 2.454833 -0.000738 -0.001923 -1183730.000000 1 0 0
-7.927251 -7.232194 9.271759 14.181377 0.739580 0.858203 0.010509 -0.004156 13435.000000 1 0 0
-7.022351 10.788106 -3.672141 13.385860 -0.993764 1.848689 0.002331 0.002691 610835.000000 1 0 0
0.342249 0.417506 2.516559 2.573814 0.884130 0.211319 0.001844 0.000333 -2607340.000000 1 0 0
-7.111351 4.527406 -2.056641 8.677470 -0.566929 1.810083 0.006523 -0.002812 -1042540.000000 1 0 0
-6.902751 -4.052294 -5.879741 9.931788 0.530847 2.204350 0.007663 -0.005993 -244796.000000 1 0 0
2.990349 -6.049794 13.555459 15.142413 -1.111728 0.461921 0.018008 -0.009378 -1250140.000000 1 0 0
-5.505351 -0.591994 -11.667441 12.914663 0.107119 2.698490 0.012561 -0.008399 -672655.000000 1 0 0
11.818849 2.577106 -0.512741 12.107418 0.214690 1.613158 0.005009 -0.001320 -589285.000000 1 0 0
6.142749 -10.962094 10.851959 16.603189 -1.060032 0.858456 0.009393 0.002095 536284.000000 1 0 0
-8.194251 6.262306 -10.384241 14.635391 -0.652547 2.359627 0.003342 -0.004907 463608.000000 1 0 0
2.880549 7.870006 11.157459 13.954335 1.219925 0.644218 0.008501 -0.000199 1071620.000000 1 0 0
-6.225851 -10.159994 -0.444841 11.924117 1.021032 1.608111 0.017672 -0.001801 -153315.000000 1 0 0
11.250749 4.343606 6.047959 13.491630 0.368443 1.105962 0.006522 -0.003663 -108503.000000 1 0 0
-7.928751 10.621306 1.439959 13.332318 -0.929542 1.462580 0.000061 0.000141 982723.000000 1 0 0
4.280949 -2.681294 -3.506441 6.149064 -0.559556 2.177594 -0.000642 -0.001587 -5450060.000000 1 0 0
6.355449 6.553306 6.233159 11.053951 0.800724 0.971714 0.000328 0.001375 -4638940.000000 1 0 0
-0.427551 10.326406 -10.236641 14.546693 -1.529416 2.351401 -0.000315 0.002275 -385146.000000 1 0 0
14.034649 6.613706 -2.437541 15.705225 0.440377 1.726632 0.020080 0.003769 598379.000000 1 0 0
1.435449 9.542406 -6.178941 11.458505 1.421487 2.140337 -0.001195 0.001269 -548395.000000 1 0 0
0.552549 7.473406 7.350059 10.496689 1.496995 0.795082 -0.004962 0.005193 -198059.000000 1 0 0
12.264949 6.307606 1.930159 13.926248 0.475005 1.431750 0.009055 -0.000271 -1019000.000000 1 0 0
-6.850651 6.708406 -3.128641 10.085758 -0.774908 1.886204 0.003917 -0.004433 249101.000000 1 0 0
0.979049 9.843406 11.150859 14.906134 1.471660 0.725645 0.012654 -0.002137 -899678.000000 1 0 0
-3.743251 13.552406 -10.924141 17.804957 -1.301310 2.231338 -0.003734 -0.002760 -55476.200000 1 0 0
-10.022651 -5.495794 -2.346741 11.668953 0.501566 1.773287 0.003514 -0.003256 -412339.000000 1 0 0
-3.992851 3.881906 -12.398341 13.591575 -0.771310 2.719437 0.006080 -0.005983 117747.000000 1 0 0
-3.221851 8.375106 2.407759 9.290857 -1.203554 1.308651 0.000445 0.002422 -1205340.000000 1 0 0
7.082149 8.959706 7.127159 13.462153 0.901909 1.012877 0.003853 0.002124 -478518.000000 1 0 0
-1.346251 -2.229794 -8.204041 8.607593 1.027620 2.834170 0.007663 -0.006959 -1315760.000000 1 0 0
0.867149 -1.291194 4.890959 5.132311 -0.979395 0.307893 0.004289 -0.000050 -894570.000000 1 0 0
2.725349 -8.800194 -6.024341 11.007435 -1.270472 2.149928 -0.000003 -0.004469 414744.000000 1 0 0
5.198549 4.011406 8.841759 11.013310 0.657207 0.638778 0.002206 0.000844 1045400.000000 1 0 0
6.161449 -7.511794 -2.838941 10.121763 -0.883837 1.855089 0.003659 -0.006148 939425.000000 1 0 0
1.843649 2.228106 -8.295841 8.785469 0.879539 2.806161 0.004497 -0.001269 181739.000000 1 0 0
-5.386151 10.873106 -0.689141 12.153599 -1.110864 1.627529 -0.003892 0.001435 559729.000000 1 0 0
-5.411051 3.196906 -3.419041 7.154685 -0.533635 2.069030 0.006656 -0.002205 568401.000000 1 0 0
1.971249 13.849506 -6.158041 15.284506 1.429412 1.985473 0.005476 -0.002397 368839.000000 1 0 0
-5.358951 -2.618094 2.682759 6.539875 0.454442 1.148106 0.000191 -0.004000 280591.000000 1 0 0
10.421049 -3.287194 -1.952841 11.100338 -0.305559 1.747643 0.004231 -0.000531 57283.700000 1 0 0
2.293949 -3.318894 7.022459 8.098901 -0.966015 0.521470 0.000348 0.000774 -1621550.000000 1 0 0
-2.892151 9.867706 -11.712941 15.586184 -1.285689 2.421122 -0.002074 0.001471 -2740830.000000 1 0 0
0.498649 -2.144694 9.335359 9.591522 -1.342351 0.231633 0.004786 -0.001038 632619.000000 1 0 0
9.425549 2.686206 4.998759 11.002012 0.277632 1.099154 0.004421 -0.002891 -290991.000000 1 0 0
13.448049 2.244706 -5.036041 14.534457 0.165392 1.924623 0.015217 -0.000272 -391108.000000 1 0 0
-6.498351 3.734606 7.640159 10.702704 -0.521609 0.775811 0.002023 0.001415 1348440.000000 1 0 0
10.606049 0.105206 1.966859 10.787395 0.009919 1.387441 0.006196 0.001274 1840520.000000 1 0 0
15.318449 6.808306 -4.697641 17.409071 0.418230 1.844022 0.033543 0.006100 443691.000000 1 0 0
8.149349 -4.927294 -9.212841 13.250153 -0.543813 2.339635 0.008306 0.001037 1695160.000000 1 0 0
4.443049 5.720106 -2.102041 7.541809 0.910399 1.853256 -0.001213 -0.000680 83487.300000 1 0 0
-1.642551 -10.499794 1.391959 10.718265 1.415618 1.440561 0.012261 -0.005025 -962434.000000 1 0 0
-2.883851 12.236706 -12.873441 17.993861 -1.339348 2.368043 0.004348 -0.002571 486136.000000 1 0 0
8.400549 4.250506 -9.592141 13.440431 0.468420 2.365531 0.004077 0.000023 -1094400.000000 1 0 0
4.107149 7.698306 -8.917041 12.475825 1.080699 2.367057 0.003482 0.001986 -893516.000000 1 0 0
-1.767151 -4.963994 -2.432241 5.803434 1.228792 2.003254 0.010858 -0.005237 -309654.000000 1 0 0
-3.354951 -8.962094 7.145059 11.942642 1.212597 0.929442 0.007538 -0.003178 151344.000000 1 0 0
1.051249 7.265506 -1.346841 7.463691 1.427103 1.752243 -0.000583 -0.000086 723592.000000 1 0 0
0.391749 -0.877594 -2.269041 2.464180 -1.150948 2.740947 0.006628 -0.000335 -708261.000000 1 0 0
4.298549 -6.768994 7.868459 11.234298 -1.005013 0.794844 -0.000379 -0.001098 -1744020.000000 1 0 0
-13.943551 3.852806 5.993059 15.658336 -0.269588 1.178037 -0.004421 -0.006884 62575.200000 1 0 0
4.234749 6.404806 12.648059 14.796217 0.986600 0.545598 0.009961 0.000871 -1325560.000000 1 0 0
8.308249 10.128306 -7.125141 14.912318 0.883799 2.068948 0.018512 -0.003514 145125.000000 1 0 0
12.465049 5.408606 9.507059 16.583566 0.409386 0.960291 0.048007 -0.007667 -382320.000000 1 0 0
7.535749 4.109406 0.355259 8.590748 0.499244 1.529431 0.001536 0.000709 -1131300.000000 1 0 0
-10.908151 -7.540794 -1.150241 13.310687 0.604862 1.657319 0.006046 -0.003317 -1556890.000000 1 0 0
10.407749 6.844206 0.234359 12.458705 0.581704 1.551984 0.003818 -0.002964 -794981.000000 1 0 0
14.603249 3.753206 3.990159 15.596885 0.251567 1.312090 0.029721 -0.006138 194828.000000 1 0 0
2.160349 5.630406 8.239159 10.210403 1.204426 0.631847 -0.004913 0.004019 574328.000000 1 0 0
4.185949 0.079606 11.729159 12.453983 0.019015 0.342852 0.005760 -0.000613 533657.000000 1 0 0
-1.489551 -1.562394 -0.441741 2.203400 0.809261 1.772646 0.011489 -0.007356 -858355.000000 1 0 0
3.109249 -5.354994 -9.516041 11.353344 -1.044744 2.564717 -0.001859 -0.001166 586088.000000 1 0 0
-3.970951 -5.322794 -1.283841 6.763788 0.929842 1.761766 0.010438 -0.006810 -294772.000000 1 0 0
-1.115051 -8.573894 8.456359 12.094007 1.441470 0.796492 0.008248 -0.002490 -480702.000000 1 0 0
3.933449 8.675206 -5.871041 11.189296 1.145108 2.123161 0.002784 0.000109 341317.000000 1 0 0
-14.248751 -1.843894 -2.770441 14.632231 0.128692 1.761284 0.003865 -0.007334 -1216800.000000 1 0 0
8.981349 -10.430094 -6.720041 15.316998 -0.859894 2.024982 0.006013 -0.006009 -1236.720000 1 0 0
14.900949 6.343206 1.575659 16.271363 0.402456 1.473808 0.017046 -0.000032 -1011000.000000 1 0 0
-5.754851 0.379206 -8.469841 10.246966 -0.065798 2.543783 0.012533 -0.010469 -1149770.000000 1 0 0
-7.983751 -4.595594 -12.991341 15.925913 0.522299 2.524797 0.011415 -0.011126 591795.000000 1 0 0
0.843949 -10.627194 12.023959 16.069384 -1.491549 0.725372 0.008396 -0.001988 -779687.000000 1 0 0
0.199649 11.674706 3.325159 12.140647 1.553697 1.293365 0.000599 0.003239 -866546.000000 1 0 0
5.248949 -13.064794 -3.772741 14.576484 -1.188771 1.832601 0.011513 -0.009253 13311.600000 1 0 0
-7.503951 1.477706 -6.957741 10.339393 -0.194436 2.308966 0.006213 -0.004873 984052.000000 1 0 0
1.404449 2.742706 4.090559 5.121288 1.097542 0.645604 -0.002010 0.002288 -435575.000000 1 0 0
17.293649 5.511506 2.201559 18.283705 0.308524 1.450092 0.041823 -0.004237 713828.000000 1 0 0
2.489849 -8.199494 -3.504141 9.257972 -1.275986 1.958971 0.002255 -0.003495 371924.000000 1 0 0
-0.418351 -9.378294 -0.672541 9.411680 1.526217 1.642315 0.009923 -0.003404 -274874.000000 1 0 0
0.745649 11.957606 -5.731941 13.281396 1.508519 2.017036 0.001836 0.000608 -730879.000000 1 0 0
6.050249 -5.007994 7.870159 11.118675 -0.691424 0.784371 0.004349 -0.002064 -1578950.000000 1 0 0
-5.995651 -1.983294 -9.433141 11.351891 0.319459 2.551655 0.013876 -0.010456 -853104.000000 1 0 0
2.071849 -1.244994 11.264759 11.521171 -0.541088 0.211370 -0.000024 -0.001152 -151900.000000 1 0 0
18.074249 2.113606 -5.925641 19.137895 0.116411 1.885599 0.089776 -0.006622 1049910.000000 1 0 0
-8.930851 4.740206 7.734059 12.729702 -0.487958 0.917811 -0.001449 -0.004729 -432440.000000 1 0 0
11.520849 -6.942494 -4.928241 14.325353 -0.542331 1.921994 0.012858 -0.005724 -254115.000000 1 0 0
10.843649 0.532406 8.911459 14.045722 0.049059 0.883486 0.010630 -0.006491 -68342.700000 1 0 0
-8.448551 -7.468394 -1.548541 11.382130 0.723896 1.707270 0.012333 -0.007046 -259398.000000 1 0 0
10.474449 -10.312694 -3.157941 15.034571 -0.777617 1.782418 0.016907 -0.005293 322805.000000 1 0 0
7.765849 -13.617194 -3.824841 16.135854 -1.052503 1.810114 0.024630 -0.014741 -1624870.000000 1 0 0
1.801749 -1.186494 -11.666841 11.864621 -0.582344 2.958747 0.009969 -0.005244 508478.000000 1 0 0
-11.797151 -2.664194 -6.514941 13.737363 0.222108 2.064908 0.012647 -0.006581 -81602.100000 1 0 0
2.734349 -12.131394 -6.378141 13.975982 -1.349106 2.044701 0.001080 -0.003638 -295048.000000 1 0 0
-5.481351 1.426406 1.162959 5.782068 -0.254583 1.368283 0.004248 -0.003145 582252.000000 1 0 0
0.063349 6.806206 -3.936641 7.862925 1.561489 2.095156 0.002604 -0.001380 1039830.000000 1 0 0
5.518149 -11.696794 3.682459 13.447136 -1.129990 1.293406 0.000378 -0.007507 -2192250.000000 1 0 0
-4.389851 -9.242194 1.010159 10.281506 1.127365 1.472387 0.013864 -0.004768 -686437.000000 1 0 0
7.154049 -6.167594 -4.660741 10.532907 -0.711484 2.029173 0.003333 -0.004699 -189640.000000 1 0 0
-6.979051 -6.027594 2.187959 9.477669 0.712377 1.337841 0.005289 -0.005265 -178576.000000 1 0 0
-6.099751 -0.686594 7.147059 9.421190 0.112089 0.709611 0.002087 -0.000820 -789588.000000 1 0 0
4.182749 -4.957794 3.296359 7.276063 -0.869988 1.100622 0.001420 -0.001803 -77808.600000 1 0 0
-2.504951 10.489306 -8.816241 13.929337 -1.336377 2.256123 -0.004651 -0.000149 597421.000000 1 0 0
-2.340051 -4.933394 2.816159 6.143693 1.127896 1.094622 0.005343 -0.004020 672248.000000 1 0 0
15.144849 5.104606 6.328959 17.189508 0.325094 1.193738 0.063975 -0.015241 1797410.000000 1 0 0
6.882149 0.369306 0.157659 6.893854 0.053610 1.547925 0.003251 0.000392 3709370.000000 1 0 0
-9.670151 9.131106 0.379059 13.305360 -0.756735 1.542303 -0.004516 -0.000418 -2351130.000000 1 0 0
7.218549 10.507206 -2.560641 13.002527 0.968842 1.769026 0.001686 -0.002074 -1049780.000000 1 0 0
1.639249 -4.247394 -5.402741 7.065203 -1.202467 2.441367 0.001761 -0.003126 -625199.000000 1 0 0
0.974049 -8.083994 -7.864141 11.320090 -1.450883 2.338808 -0.000442 0.000182 827645.000000 1 0 0
-10.489951 0.177806 -10.355641 14.741437 -0.016949 2.349680 0.009146 -0.007170 -3013560.000000 1 0 0
5.904949 -2.457394 0.550859 6.419553 -0.394358 1.484881 0.002213 -0.000327 185968.000000 1 0 0
-3.360751 5.285606 -0.967441 6.337840 -1.004447 1.724041 0.003787 -0.002555 1075440.000000 1 0 0
-0.316951 4.482206 -5.027241 6.742683 -1.500201 2.412208 0.002215 -0.001267 -861499.000000 1 0 0
3.951749 -9.712294 10.004859 14.492832 -1.184372 0.808849 0.000975 0.000364 87545.700000 1 0 0
7.332249 -13.404494 -0.670541 15.293527 -1.070260 1.614655 0.020693 -0.011672 650820.000000 1 0 0
12.982849 -0.011294 0.527959 12.993585 -0.000870 1.530153 0.005422 -0.002671 662498.000000 1 0 0
9.298149 2.483706 -0.597941 9.642713 0.261024 1.632846 0.001600 0.000856 -1404650.000000 1 0 0
-0.840951 -5.855494 4.576259 7.479048 1.428154 0.912364 0.003552 -0.002411 420191.000000 1 0 0
11.447649 -3.616394 3.417259 12.482173 -0.305986 1.293484 0.016150 -0.008587 -538400.000000 1 0 0
1.626149 -8.149494 11.825359 14.453295 -1.373843 0.612562 0.008276 -0.004848 398407.000000 1 0 0
9.458449 -5.961594 -5.939541 12.660214 -0.562396 2.059124 0.003501 -0.004439 -1289600.000000 1 0 0
3.158949 6.353606 -0.088441 7.096132 1.109399 1.583260 -0.004403 0.002753 -640161.000000 1 0 0
6.377949 -1.353294 11.518959 13.236165 -0.209082 0.515058 0.005423 -0.001501 544723.000000 1 0 0
-4.907551 -7.600094 -3.843041 9.829265 0.997434 1.972492 0.014092 -0.006118 76146.300000 1 0 0
-3.499251 -8.582994 -5.789441 10.928411 1.183673 2.129115 0.010996 -0.003118 -307248.000000 1 0 0
9.749349 5.413906 2.240159 11.374467 0.506910 1.372554 0.005079 -0.003023 -498413.000000 1 0 0
8.893749 -1.389494 0.313459 9.007093 -0.154980 1.535988 0.004346 -0.000115 1330740.000000 1 0 0
-4.033351 9.640606 9.148859 13.889234 -1.174554 0.851705 0.001090 -0.000727 614688.000000 1 0 0
-14.250151 -3.620594 -6.088541 15.913699 0.248809 1.963402 0.015148 -0.009210 -237559.000000 1 0 0
10.614649 6.285106 -6.038741 13.734618 0.534602 2.026031 0.003876 0.001583 -150785.000000 1 0 0
-1.771851 4.383006 2.732159 5.460301 -1.186628 1.046773 0.001917 0.000169 241336.000000 1 0 0
6.889049 -3.698194 2.737159 8.284182 -0.492670 1.234061 0.004943 -0.003503 -1747100.000000 1 0 0
8.456349 -11.215094 -1.676541 14.145634 -0.924731 1.689596 0.013210 -0.008270 -1850750.000000 1 0 0
4.594549 0.541906 1.857059 4.985200 0.117403 1.189079 -0.000073 0.001320 214979.000000 1 0 0
-10.796451 2.148306 3.785459 11.640802 -0.196417 1.239585 -0.004053 0.000556 177008.000000 1 0 0
-0.802851 -3.181994 4.433859 5.516227 1.323644 0.637166 0.004568 -0.002643 203294.000000 1 0 0
8.699649 -8.640494 -8.625341 14.991282 -0.781987 2.183837 0.007879 -0.001213 -563768.000000 1 0 0
12.088949 -4.659194 1.104559 13.002724 -0.367865 1.485746 0.010996 -0.005696 182186.000000 1 0 0
2.922449 4.864906 3.544859 6.691341 1.029847 1.012469 -0.005046 0.001689 -1122610.000000 1 0 0
6.145549 7.613906 2.066159 10.000418 0.891712 1.362690 0.000148 0.000106 -710236.000000 1 0 0
-1.489851 -1.341194 -10.391741 10.583323 0.732937 2.951029 0.011965 -0.007403 222734.000000 1 0 0
-1.054951 -8.718394 5.855159 10.554914 1.450379 0.982754 0.003443 -0.002571 654721.000000 1 0 0
-4.310451 -0.380794 2.348859 4.923630 0.088113 1.073492 0.005467 -0.002336 653412.000000 1 0 0
-8.471251 6.182906 -7.772341 13.053723 -0.630493 2.208574 0.003079 -0.002358 -1307900.000000 1 0 0
6.374349 11.160606 -9.269241 15.846460 1.051862 2.195603 0.015027 -0.011583 231477.000000 1 0 0
-11.267451 -5.836294 3.084759 13.058848 0.477927 1.332323 0.000899 -0.001060 783626.000000 1 0 0
1.528849 -6.256494 3.034459 7.119623 -1.331131 1.130497 0.003478 -0.004192 1442200.000000 1 0 0
10.123649 2.305106 7.305159 12.695162 0.223878 0.957668 0.005960 -0.003123 -2021070.000000 1 0 0
-3.953251 -2.452294 -10.588141 11.565062 0.555229 2.727615 0.009346 -0.008452 -3140850.000000 1 0 0
-8.392151 11.854306 5.879259 15.669029 -0.954761 1.186167 0.006630 -0.006841 -783038.000000 1 0 0
6.896949 6.069106 -2.876741 9.626920 0.721638 1.874255 0.000336 0.000238 -3795970.000000 1 0 0
3.950549 -9.825594 -2.296141 10.836115 -1.188509 1.784312 0.001421 -0.006140 -1918170.000000 1 0 0
8.617349 -12.905494 -7.383441 17.185042 -0.982060 2.014894 0.026965 -0.009750 384625.000000 1 0 0
-1.199051 9.407206 3.696759 10.178373 -1.444019 1.199099 -0.000285 0.003229 -72077.900000 1 0 0
0.621549 -13.154594 4.734359 13.994421 -1.523582 1.225683 0.011591 -0.003416 -391703.000000 1 0 0
-11.271751 -7.078594 -5.128741 14.264040 0.560750 1.938590 0.014196 -0.006524 40398.200000 1 0 0
3.658349 10.348806 -3.321041 11.467808 1.231003 1.864602 0.007211 -0.001545 -1525000.000000 1 0 0
11.685649 -8.066894 -7.342441 15.985638 -0.604203 2.048020 0.028718 -0.005608 405701.000000 1 0 0
11.517949 -4.526594 -5.697841 13.624192 -0.374460 2.002276 0.012807 -0.006990 1724260.000000 1 0 0
1.419949 -10.316594 -2.602541 10.734132 -1.434018 1.815692 0.002826 -0.003580 -1143740.000000 1 0 0
2.425749 -11.991894 -3.879041 12.834981 -1.371207 1.877821 0.005140 -0.003918 -1654440.000000 1 0 0
-7.611151 -5.780894 7.181559 11.955047 0.649572 0.926403 0.005190 -0.003255 -1730380.000000 1 0 0
-7.252351 -0.935994 9.452259 11.950643 0.128351 0.658450 0.001874 0.000145 -47465.000000 1 0 0
16.211149 2.582206 -7.626441 18.100601 0.157959 2.005715 0.077305 -0.007008 343481.000000 1 0 0
-2.059951 6.205806 -5.474041 8.527634 -1.250301 2.267793 0.000750 0.000911 537216.000000 1 0 0
7.625949 1.406606 8.336659 11.385672 0.182400 0.749241 0.008460 -0.003518 -226887.000000 1 0 0
7.848549 8.305106 -3.773241 12.033780 0.813654 1.889730 0.000751 0.000901 -410676.000000 1 0 0
8.043849 0.629806 3.936459 8.977521 0.078137 1.116890 0.003396 -0.002708 219440.000000 1 0 0
-7.053551 5.820706 5.395859 10.618309 -0.689929 1.037743 0.003745 -0.004592 538348.000000 1 0 0
-6.027551 -2.189394 -4.601241 7.892796 0.348413 2.193172 0.010218 -0.006845 -818817.000000 1 0 0
-15.160851 -2.041194 3.097159 15.608019 0.133831 1.371037 0.009515 -0.006511 -854027.000000 1 0 0
1.054449 1.302706 -10.561641 10.693791 0.890332 2.984219 0.010507 -0.006702 468025.000000 1 0 0
1.462349 -9.199694 9.370659 13.212952 -1.413159 0.782430 0.005044 -0.004249 -1177940.000000 1 0 0
-0.196851 -6.700194 -1.185541 6.807118 1.541425 1.745851 0.007910 -0.002629 886600.000000 1 0 0
-0.315651 -10.213494 -8.453141 13.261624 1.539901 2.261933 0.002684 0.000738 70920.800000 1 0 0
-4.325351 6.482206 3.814059 8.676100 -0.982379 1.115637 0.002163 0.002675 103126.000000 1 0 0
10.823449 -1.143894 -8.705441 13.937010 -0.105296 2.245451 0.008195 0.002680 731162.000000 1 0 0
3.034849 -1.004794 6.345259 7.105085 -0.319726 0.466698 -0.001064 0.002489 549060.000000 1 0 0
2.222749 -12.342694 6.721959 14.229105 -1.392620 1.078774 0.006609 -0.001218 839722.000000 1 0 0
2.904749 -4.861994 -1.350941 5.822508 -1.032261 1.804951 0.006348 -0.003963 -1321070.000000 1 0 0
-0.954151 9.475106 -1.606841 9.657638 -1.470434 1.737954 0.001599 -0.001006 169666.000000 1 0 0
4.507649 -2.611094 2.634359 5.837513 -0.525029 1.102596 0.002285 0.001120 -2345520.000000 1 0 0
17.741449 6.787106 -2.761641 19.195064 0.365379 1.715170 0.034327 0.006974 450223.000000 1 0 0
-7.113051 3.458006 -5.433041 9.595375 -0.452506 2.172702 0.006697 -0.005187 -704788.000000 1 0 0
-13.810051 -6.086094 2.072359 15.233276 0.415093 1.434332 -0.007230 -0.001656 -1088500.000000 1 0 0
6.603549 -6.057894 3.537359 9.634202 -0.742329 1.194835 0.005265 -0.004759 -63079.200000 1 0 0
-4.682951 1.878306 3.562559 6.176560 -0.381450 0.956006 0.006138 -0.001788 549088.000000 1 0 0
7.065249 -11.955194 -5.573241 14.963470 -1.037038 1.952451 0.015564 -0.009151 857390.000000 1 0 0
2.973249 -12.333094 3.301659 13.109019 -1.334231 1.316193 0.008631 -0.006627 -1016950.000000 1 0 0
3.280949 11.397806 -6.051441 13.315200 1.290516 2.042580 0.003168 0.000527 -882289.000000 1 0 0
-5.674051 -8.320894 6.362359 11.912671 0.972319 1.007373 0.008454 -0.002046 -619064.000000 1 0 0
-4.059051 6.481506 6.369459 9.952679 -1.011298 0.876331 0.003676 0.001796 600447.000000 1 0 0
4.305249 4.269606 -6.932841 9.210265 0.781241 2.422995 -0.000046 0.002182 -1174750.000000 1 0 0
-0.355451 -2.608194 1.665759 3.115088 1.435348 1.006597 0.006896 -0.004112 -1695740.000000 1 0 0
-13.218251 -1.057794 6.611859 14.817482 0.079855 1.108259 0.006316 0.003101 -461998.000000 1 0 0
-0.503451 -9.267894 -5.969841 11.035684 1.516528 2.142372 0.005331 -0.000391 233077.000000 1 0 0
2.152649 -1.606794 -3.936341 4.765550 -0.641210 2.542769 0.000208 -0.001482 -1473820.000000 1 0 0
11.326049 -1.918794 1.178559 11.547734 -0.167821 1.468559 0.008888 -0.004216 528245.000000 1 0 0
0.510049 -4.160294 -1.866741 4.588346 -1.448806 1.989793 0.007191 -0.003392 -1781650.000000 1 0 0
1.139149 -7.470294 -11.293241 13.588239 -1.419472 2.551886 -0.004447 0.000952 1581830.000000 1 0 0
-4.386851 4.076906 -9.958141 11.620249 -0.748794 2.600147 0.008732 -0.005519 75276.700000 1 0 0
-1.028651 5.802406 -2.014641 6.227746 -1.395339 1.900216 0.001937 -0.001369 -502711.000000 1 0 0
-11.289451 1.682906 -3.812141 12.033964 -0.147979 1.893131 0.003373 -0.002471 -491505.000000 1 0 0
-1.731251 -11.323994 4.151159 12.184506 1.419088 1.223144 0.015581 -0.006000 -345173.000000 1 0 0
-3.490051 -5.389194 -9.635741 11.578919 0.996109 2.553823 0.004282 0.000379 -1796460.000000 1 0 0
-12.757151 -3.923194 -8.392041 15.765871 0.298350 2.132102 0.018327 -0.006939 81671.600000 1 0 0
11.347549 4.549806 0.523759 12.236909 0.381326 1.527982 0.005426 -0.000393 148999.000000 1 0 0
-8.872151 -2.413094 -3.027641 9.680118 0.265561 1.888903 0.004112 -0.005691 -460836.000000 1 0 0
-2.461651 -6.100594 -6.295941 9.105813 1.187268 2.334249 0.006040 -0.002833 476641.000000 1 0 0
-0.048251 2.823406 -1.924541 3.417281 -1.553708 2.169024 0.003884 -0.003236 233672.000000 1 0 0
8.067049 6.002806 -5.182241 11.312232 0.639724 2.046664 0.000184 0.002645 -713330.000000 1 0 0
-9.866751 -1.011394 -1.033941 9.972197 0.102148 1.674665 -0.002004 -0.003939 210403.000000 1 0 0
6.198249 0.531906 -8.878241 10.840866 0.085606 2.530393 0.000499 0.002098 310615.000000 1 0 0
-4.095751 2.426906 7.855659 9.185664 -0.534918 0.544843 0.001943 0.003737 -417173.000000 1 0 0
-10.215151 -3.434594 1.437059 10.872483 0.324351 1.438234 -0.001780 -0.003223 358130.000000 1 0 0
-1.776551 -8.102594 -7.822741 11.401905 1.354955 2.326898 0.005246 -0.002131 604636.000000 1 0 0
-9.548551 -9.727694 4.139159 14.245543 0.794691 1.275986 0.012374 -0.004388 -138109.000000 1 0 0
-1.214051 -10.715994 7.383959 13.070168 1.457984 0.970427 0.013336 -0.004978 319348.000000 1 0 0
9.432449 3.862806 -3.752441 10.861546 0.388689 1.923546 0.000245 0.001124 -893194.000000 1 0 0
12.857549 -0.742294 3.071159 13.240075 -0.057668 1.336705 0.010778 -0.004332 -677853.000000 1 0 0
6.440149 11.832406 -6.715741 15.052659 1.072355 2.033255 0.012561 -0.003937 -74557.900000 1 0 0
-11.858451 -0.161394 -6.545041 13.545717 0.013609 2.075081 0.009748 -0.004220 767969.000000 1 0 0
-7.582651 -6.652494 -11.447641 15.257809 0.720149 2.419283 0.008743 -0.006657 -1868360.000000 1 0 0
4.145449 6.048306 6.548459 9.831026 0.969943 0.841827 -0.003517 0.002871 -2026320.000000 1 0 0
-4.215051 -1.501094 -7.401741 8.649029 0.342123 2.597870 0.009359 -0.010097 -166832.000000 1 0 0
9.641049 9.326606 0.978759 13.449661 0.768822 1.497960 0.013163 -0.003081 -2352120.000000 1 0 0
-8.924951 3.869206 4.862559 10.875200 -0.409071 1.107249 -0.001857 -0.000809 -103078.000000 1 0 0
-6.965051 7.810706 -12.113741 16.008178 -0.842568 2.429081 0.000046 -0.008027 -708918.000000 1 0 0
11.192749 -3.577194 7.175659 13.768226 -0.309339 1.022569 0.020791 -0.009639 1082800.000000 1 0 0
11.828549 6.884806 6.413259 15.114398 0.527116 1.132592 0.017881 -0.006701 422290.000000 1 0 0
-9.995351 -0.782194 -14.574041 17.689588 0.078097 2.539014 0.022240 -0.009665 54111.500000 1 0 0
1.856249 -12.939694 11.987659 17.736553 -1.428315 0.828648 0.007366 0.000342 -292542.000000 1 0 0
2.883949 2.990706 13.116359 13.758647 0.803569 0.306758 0.000778 0.000395 -511280.000000 1 0 0
-2.647951 -1.532894 11.112259 11.525785 0.524759 0.268682 0.009465 -0.003138 -572387.000000 1 0 0
2.634749 -10.066894 -8.251941 13.280767 -1.314814 2.241255 -0.003601 0.001007 -946781.000000 1 0 0
13.948549 3.741806 -7.466241 16.257549 0.262087 2.047944 0.026707 -0.000987 -2189170.000000 1 0 0
7.388849 -1.457194 5.073759 9.080834 -0.194716 0.977939 0.004273 -0.003015 477265.000000 1 0 0
-1.264151 8.759406 10.077659 13.412102 -1.427467 0.720637 0.002708 0.001811 -44292.900000 1 0 0
-12.233251 -4.725994 0.836659 13.141059 0.368661 1.507086 -0.002986 -0.002525 -201493.000000 1 0 0
-4.853651 4.846806 -5.209141 8.613048 -0.784693 2.220307 0.007174 -0.004829 -26602.100000 1 0 0
-11.225251 0.260806 1.844259 11.378733 -0.023230 1.407999 -0.005182 -0.001389 -3006740.000000 1 0 0
-1.224251 2.102106 -4.087441 4.756555 -1.043424 2.604751 0.006312 -0.003878 750496.000000 1 0 0
3.052849 -9.839294 13.168759 16.719683 -1.269943 0.663859 0.011580 -0.003664 -1492060.000000 1 0 0
8.913049 4.756506 -1.493841 10.212657 0.490209 1.717596 0.001241 -0.001501 -765916.000000 1 0 0
4.017649 2.294906 3.760159 5.962122 0.518978 0.888374 -0.004480 0.003103 -372845.000000 1 0 0
-5.534651 -3.328094 7.386059 9.811342 0.541389 0.718478 0.005798 -0.005180 -200911.000000 1 0 0
1.909649 -5.843794 7.669159 9.829175 -1.254953 0.675740 0.002512 -0.002182 -1154750.000000 1 0 0
-5.752251 -6.240594 -9.741441 12.920103 0.826095 2.424889 0.009933 -0.004329 -1059540.000000 1 0 0
-11.774051 -5.752594 5.485959 14.206208 0.454472 1.174324 0.004871 -0.000727 -1316500.000000 1 0 0
10.564649 6.286106 4.473659 13.082071 0.536745 1.221785 0.005796 -0.001956 -2340910.000000 1 0 0
1.432449 -3.718194 0.486159 4.014128 -1.203066 1.449386 0.010528 -0.002973 -635545.000000 1 0 0
8.792349 4.408606 6.909459 12.020060 0.464778 0.958403 0.004743 -0.000168 -271874.000000 1 0 0
-7.899451 12.058606 3.460559 14.825207 -0.990852 1.335199 0.003952 -0.003700 -47591.700000 1 0 0
-6.199551 13.073306 -6.846141 16.006730 -1.127989 2.012747 0.001191 -0.005232 489986.000000 1 0 0
4.487349 -6.871094 -1.016341 8.269292 -0.992261 1.694013 0.004204 -0.005781 224879.000000 1 0 0
-2.081951 -8.274194 10.929459 13.865420 1.324294 0.662832 0.009449 -0.005695 -747125.000000 1 0 0
11.530949 8.849206 -5.673041 15.603033 0.654564 1.942911 0.040261 -0.004118 200221.000000 1 0 0
-3.344051 -2.900994 -1.849941 4.797991 0.714571 1.966617 0.012376 -0.006670 -401257.000000 1 0 0
-1.998251 5.932606 4.761659 7.865254 -1.245906 0.920522 -0.000202 0.003066 604945.000000 1 0 0
0.476649 -11.287494 -5.582941 12.601743 -1.528593 2.029771 0.002956 -0.002685 -786413.000000 1 0 0
-8.830751 6.205306 -1.508941 10.897930 -0.612531 1.709704 0.001460 -0.000611 -355760.000000 1 0 0
2.870049 -0.047594 3.895559 4.838887 -0.016581 0.635032 -0.001598 0.002137 -40848.100000 1 0 0
-10.071151 3.850206 -1.049541 10.832991 -0.365156 1.667832 0.004361 -0.000686 56564.600000 1 0 0
6.486449 5.555806 13.635759 16.089591 0.708270 0.559559 0.019162 0.004016 175766.000000 1 0 0
-8.874551 -1.674694 5.606359 10.629841 0.186514 1.015239 -0.001231 -0.001211 -109805.000000 1 0 0
12.916249 -1.668294 -1.698441 13.133827 -0.128451 1.700478 0.011150 -0.002718 -2163280.000000 1 0 0
5.011549 -5.543394 5.562159 9.315710 -0.835744 0.930949 0.003674 -0.003141 207090.000000 1 0 0
-9.101851 -1.243194 3.131059 9.705295 0.135747 1.242307 -0.004067 -0.001515 462810.000000 1 0 0
1.896849 5.538106 5.649859 8.135697 1.240811 0.803137 -0.001875 0.003014 -1020920.000000 1 0 0
9.328549 3.135206 -7.387141 12.305332 0.324227 2.214698 0.003032 0.002276 -1157850.000000 1 0 0
2.301349 -2.395294 -1.533741 3.658689 -0.805398 2.003366 0.005637 -0.000892 -147255.000000 1 0 0
-6.278051 0.275306 -3.971141 7.433685 -0.043824 2.134368 0.004192 -0.003508 -2832540.000000 1 0 0
-3.954651 4.078206 5.108159 7.639654 -0.800778 0.838421 0.003795 0.001799 862733.000000 1 0 0
-6.516851 1.806606 -12.268841 14.009198 -0.270430 2.637826 0.004161 -0.005802 -494726.000000 1 0 0
-0.168651 3.102906 6.311859 7.035342 -1.516497 0.457489 -0.000825 0.002445 1198000.000000 1 0 0
-8.732651 9.448806 -2.227741 13.057640 -0.824767 1.742243 0.001317 -0.000315 1050800.000000 1 0 0
-1.296951 -3.752494 -6.140041 7.311866 1.238026 2.567594 0.005521 -0.004303 320637.000000 1 0 0
-3.331951 7.019406 -2.943041 8.308757 -1.127612 1.932865 0.003424 0.000010 578863.000000 1 0 0
6.988549 -0.366294 -4.340641 8.234996 -0.052366 2.125977 -0.002280 0.003398 -316936.000000 1 0 0
-5.130851 -10.827094 6.795759 13.774394 1.128254 1.054846 0.010557 -0.007203 955067.000000 1 0 0
9.696949 8.453306 -1.412041 12.941525 0.716986 1.680123 0.003677 -0.000692 -482722.000000 1 0 0
13.736949 4.730506 -4.188741 15.120417 0.331645 1.851493 0.009541 0.000678 518543.000000 1 0 0
4.770349 1.024206 -6.793141 8.363731 0.211492 2.518734 -0.001921 0.000461 -1662120.000000 1 0 0
8.971449 -4.728394 3.733859 10.806772 -0.485052 1.218013 0.008377 -0.006354 340155.000000 1 0 0
-8.844251 -3.316694 -0.709241 9.472289 0.358781 1.645742 -0.002778 -0.004054 14252.700000 1 0 0
-8.409351 -4.319294 -10.427541 14.075052 0.474492 2.405135 0.010316 -0.010602 219767.000000 1 0 0
10.466749 -1.123794 10.571659 14.918972 -0.106958 0.783277 0.018517 -0.005458 -175845.000000 1 0 0
2.119149 -11.605594 9.794459 15.333363 -1.390189 0.877901 0.000844 -0.001479 942646.000000 1 0 0
-6.333751 -10.601694 1.927859 12.499158 1.032270 1.415939 0.014156 -0.003636 -1216490.000000 1 0 0
-3.739751 -1.456294 6.681759 7.794385 0.371343 0.540886 0.008015 -0.002347 -1455220.000000 1 0 0
4.690649 -7.610194 3.994959 9.791677 -1.018431 1.150539 -0.001172 -0.002890 365796.000000 1 0 0
11.548649 -9.438994 -5.262941 15.816588 -0.685216 1.910013 0.020750 -0.009072 677242.000000 1 0 0
11.293549 1.166506 11.431759 16.111800 0.102925 0.781969 0.028734 -0.003437 26454.200000 1 0 0
-10.344351 -3.532494 4.288659 11.742091 0.329074 1.196908 -0.003014 -0.001021 1136760.000000 1 0 0
2.073649 8.814406 9.082859 12.825448 1.339741 0.783864 0.002823 0.003870 142363.000000 1 0 0
6.561949 8.782006 4.257759 11.760584 0.929087 1.200345 0.002637 0.000140 2345790.000000 1 0 0
-4.385551 3.623606 0.385459 5.701943 -0.690549 1.503143 0.006370 -0.004244 -425226.000000 1 0 0
4.827749 6.891306 4.154459 9.383858 0.959697 1.112162 -0.000578 0.000454 -1286090.000000 1 0 0
-8.277851 13.119606 1.163159 15.556343 -1.007928 1.495956 -0.000534 -0.000258 -1444210.000000 1 0 0
8.779349 8.174406 -9.152241 15.088453 0.749731 2.222539 0.013939 -0.008364 -283062.000000 1 0 0
7.020649 2.096206 6.012959 9.478358 0.290151 0.883579 -0.000211 -0.000362 -689610.000000 1 0 0
11.581449 -6.086294 3.186159 13.465681 -0.483855 1.331918 0.015148 -0.005894 -212313.000000 1 0 0
11.422449 4.804006 -2.113241 12.570466 0.398117 1.739710 0.003955 0.000608 638209.000000 1 0 0
-4.044951 14.441006 -5.851041 16.097794 -1.297693 1.942785 -0.005916 0.003956 -337863.000000 1 0 0
7.101649 -2.941694 6.983159 10.385158 -0.392710 0.833327 0.006037 -0.004693 -939778.000000 1 0 0
-8.002951 -0.519994 0.861659 8.065982 0.064884 1.463766 0.001350 -0.002843 505002.000000 1 0 0
-3.283751 0.943906 10.750759 11.280638 -0.279901 0.307717 0.005458 0.001852 -133453.000000 1 0 0
7.090549 -1.144394 -1.898641 7.429022 -0.160017 1.829234 0.002173 0.000581 -788235.000000 1 0 0
-7.906451 5.334806 2.957159 9.985835 -0.593572 1.270152 0.001280 0.000206 963807.000000 1 0 0
9.413449 -2.147694 2.870959 10.073134 -0.224312 1.281778 0.005361 -0.004922 -1777010.000000 1 0 0
0.201749 3.338006 1.608559 3.710856 1.510430 1.122452 0.001371 0.000904 -4561040.000000 1 0 0
-7.686651 -3.212694 3.925159 9.209391 0.395891 1.130494 0.000600 -0.002963 741081.000000 1 0 0
-2.183951 8.307206 -6.708141 10.898553 -1.313715 2.233826 -0.000482 -0.001491 -478259.000000 1 0 0
4.494949 9.855306 7.334259 13.081399 1.142886 0.975610 0.003544 0.009859 -45973.000000 1 0 0
-11.787551 -3.218494 6.885059 14.025302 0.266545 1.057671 0.006137 -0.003474 87387.000000 1 0 0
-4.756351 2.238506 -5.591641 7.674648 -0.439881 2.387052 0.010452 -0.007089 -633809.000000 1 0 0
-2.756551 2.941806 -1.945841 4.476504 -0.817897 2.020478 0.005861 -0.003211 1261840.000000 1 0 0
2.437849 5.128406 11.549259 12.869695 1.127053 0.456956 0.000671 0.000048 426144.000000 1 0 0
-0.768251 1.557906 4.630959 4.946015 -1.112660 0.358851 0.003145 0.001173 -221026.000000 1 0 0
5.043649 1.790206 7.637859 9.326314 0.341071 0.611203 -0.003363 0.001501 87177.100000 1 0 0
3.509449 -8.018994 1.833959 8.943372 -1.158267 1.364268 0.003506 -0.003550 2443420.000000 1 0 0
5.033949 6.584306 -4.615741 9.486770 0.918056 2.078927 0.001319 -0.001310 -2510740.000000 1 0 0
-3.998251 2.912406 -7.912841 9.331729 -0.629546 2.582902 0.014083 -0.010774 804017.000000 1 0 0
-8.596951 -2.213094 -12.864041 15.629744 0.251957 2.537554 0.013955 -0.012321 -684126.000000 1 0 0
-7.794951 8.170406 1.158459 11.351600 -0.808911 1.468566 0.000675 0.001191 -2155410.000000 1 0 0
7.405849 0.959406 -6.568541 9.945491 0.128830 2.292220 -0.002295 0.003060 95407.200000 1 0 0
8.997849 8.958606 5.519159 13.844820 0.783213 1.160758 0.002974 -0.000473 266345.000000 1 0 0
9.460149 -1.004794 -1.389441 9.614290 -0.105817 1.715822 0.000933 0.000448 2355960.000000 1 0 0
5.425949 0.118006 4.262859 6.901219 0.021745 0.904986 -0.001649 0.002539 -1475930.000000 1 0 0
-4.144051 -7.273894 -7.966441 11.556248 1.052942 2.331405 0.010794 -0.004074 -643044.000000 1 0 0
-2.236551 7.450206 -0.535641 7.797092 -1.279156 1.639548 0.001599 0.000425 -111293.000000 1 0 0
13.235449 -3.301594 -7.396541 15.517295 -0.244462 2.067653 0.018157 -0.001554 1417640.000000 1 0 0
-4.831951 -5.024894 1.632559 7.159787 0.804970 1.340755 0.007036 -0.005543 665465.000000 1 0 0
-8.965851 1.247206 2.449559 9.377758 -0.138219 1.306521 -0.001444 -0.001152 -1896580.000000 1 0 0
-1.157051 11.233806 10.243559 15.246891 -1.468161 0.834098 0.008099 -0.000582 72867.200000 1 0 0
-8.568651 0.269106 7.360459 11.299139 -0.031396 0.861345 -0.002940 0.000904 124855.000000 1 0 0
-6.359851 12.773306 -2.010541 14.409973 -1.108829 1.710777 0.003093 0.002894 1891890.000000 1 0 0
-12.862351 -0.888594 3.198759 13.283890 0.068975 1.327606 0.002432 -0.003115 427958.000000 1 0 0
-6.752551 12.689106 8.619659 16.760337 -1.081758 1.030618 0.007069 -0.011654 1881540.000000 1 0 0
-8.061851 0.830206 -14.035641 16.207464 -0.102618 2.617940 0.003513 -0.004930 206871.000000 1 0 0
7.389949 2.898706 3.602759 8.717438 0.373807 1.144741 0.000693 -0.002242 -382007.000000 1 0 0
-1.640051 0.697206 -2.007941 2.684714 -0.401966 2.415713 0.007781 -0.005219 708444.000000 1 0 0
-6.202851 9.560206 -10.281141 15.348445 -0.995251 2.304802 -0.002201 -0.006269 -445137.000000 1 0 0
-10.140351 13.671206 5.241959 17.810298 -0.932609 1.272051 0.006582 -0.008908 962247.000000 1 0 0
-5.669151 8.196406 2.435059 10.259135 -0.965688 1.331154 -0.000279 0.001159 -2119820.000000 1 0 0
-2.497151 -10.699194 -1.261341 11.058910 1.341505 1.685102 0.013167 -0.004823 632074.000000 1 0 0
-2.209551 -12.441094 8.793759 15.394581 1.395028 0.962800 0.011414 -0.002622 384901.000000 1 0 0
-14.740451 -6.492794 -1.803841 16.207748 0.414904 1.682322 0.010910 -0.002445 775042.000000 1 0 0
-2.657951 -9.241594 3.151459 10.119459 1.290747 1.254103 0.011058 -0.004439 -1234730.000000 1 0 0
4.680249 -2.733894 7.547559 9.292177 -0.528672 0.622799 0.001185 -0.000003 -396591.000000 1 0 0
-14.945251 -1.333794 -0.311941 15.007892 0.089010 1.591583 -0.001948 -0.008263 -451850.000000 1 0 0
5.467049 8.815306 -2.784141 10.740097 1.015673 1.833020 0.000186 0.000414 -998364.000000 1 0 0
-5.660351 -5.730694 8.573859 11.763991 0.791573 0.754196 0.006928 -0.003071 -2633580.000000 1 0 0
3.413849 3.720006 6.979659 8.614433 0.828288 0.626254 -0.003718 0.002435 63314.600000 1 0 0
3.284249 2.361306 9.372859 10.208455 0.623350 0.407419 0.000891 0.000145 302502.000000 1 0 0
9.833149 -3.084694 5.221959 11.553139 -0.303981 1.101796 0.016618 -0.007787 -513533.000000 1 0 0
6.498549 9.960706 -5.055541 12.923053 0.992723 1.972735 0.001778 -0.001082 548736.000000 1 0 0
-4.463251 12.011006 -8.485941 15.368672 -1.215013 2.155747 -0.008477 -0.002163 -521091.000000 1 0 0
-3.505651 -7.230494 2.096359 8.304478 1.119348 1.315598 0.009546 -0.005562 766934.000000 1 0 0
-7.519951 -4.080394 1.137859 8.630990 0.497151 1.438577 0.000769 -0.005646 1109230.000000 1 0 0
-1.971451 -3.968594 -10.936241 11.799903 1.109742 2.756617 0.008496 -0.004091 -743283.000000 1 0 0
-5.172051 8.319106 -4.361741 10.722985 -1.014568 1.989707 0.005566 -0.005253 -1524340.000000 1 0 0
-10.865851 -3.318394 -10.178441 15.253823 0.296400 2.301336 0.020877 -0.008131 385829.000000 1 0 0
4.755849 -11.459794 -7.820141 14.666274 -1.177424 2.133182 0.004365 -0.003038 -1052260.000000 1 0 0
-9.318651 -4.046194 7.289759 12.503980 0.409640 0.948386 0.000073 -0.001044 -753553.000000 1 0 0
-5.784851 -9.709194 -5.069241 12.386692 1.033462 1.992427 0.010599 -0.006313 -412978.000000 1 0 0
4.749649 4.391606 -9.460041 11.460268 0.746250 2.541820 0.001603 0.005110 383321.000000 1 0 0
-3.336051 -7.279294 -14.151141 16.259525 1.141067 2.626667 0.001988 -0.001811 61950.400000 1 0 0
0.708649 -0.871894 -8.803841 8.875246 -0.888317 3.014657 0.006853 -0.008042 -448551.000000 1 0 0
-7.763151 2.114206 -2.878341 8.545246 -0.265890 1.914350 0.004876 -0.003278 -434949.000000 1 0 0
-2.345251 7.504506 -12.565541 14.822639 -1.267900 2.582480 0.002927 -0.001312 -162949.000000 1 0 0
-9.950451 8.931406 7.579859 15.369963 -0.731481 1.055077 0.004162 -0.009328 -61517.800000 1 0 0
-10.563751 -3.220594 -14.007741 17.837653 0.295921 2.473962 0.027725 -0.017207 -672269.000000 1 0 0
-3.206951 4.850506 8.036959 9.919912 -0.986617 0.626329 0.003707 0.002550 -292878.000000 1 0 0
8.677549 -2.276194 -3.550441 9.648137 -0.256529 1.947645 -0.001608 0.003019 -4655530.000000 1 0 0
1.893749 -8.405294 -1.118041 8.688226 -1.349192 1.699839 0.004599 -0.002488 117801.000000 1 0 0
-13.548151 -2.934994 4.961659 14.723608 0.213338 1.227082 0.012816 -0.007850 409530.000000 1 0 0
7.064849 2.807706 -2.039741 7.871204 0.378279 1.832928 -0.000922 0.000936 824407.000000 1 0 0
-11.215351 4.480906 8.973559 15.046175 -0.380104 0.931786 -0.003957 -0.008497 -3041090.000000 1 0 0
-1.731451 -2.657894 7.900059 8.513123 0.993412 0.381825 0.005928 -0.003509 180996.000000 1 0 0
2.851749 11.984206 -9.866341 15.782850 1.337182 2.246095 0.002119 -0.003615 1066550.000000 1 0 0
3.595749 -5.078294 -7.008141 9.371900 -0.954680 2.415512 -0.001573 -0.002302 -142552.000000 1 0 0
8.285649 -13.829894 -9.838641 18.886948 -1.031030 2.118728 0.030802 -0.008215 -76275.600000 1 0 0
-6.309851 -5.805094 -0.444741 8.585518 0.743758 1.622621 0.011421 -0.007321 -386792.000000 1 0 0
-1.258451 -4.144194 9.974259 10.874001 1.275980 0.409657 0.006547 -0.002506 -24860.400000 1 0 0
2.742249 3.327406 1.864359 4.697595 0.881508 1.162686 -0.003871 0.001799 -808826.000000 1 0 0
-9.260251 13.319606 7.776659 17.990013 -0.963276 1.123781 0.014247 -0.018103 892863.000000 1 0 0
4.109249 -11.022294 0.085359 11.763680 -1.213945 1.563540 0.004518 -0.008322 244315.000000 1 0 0
-12.591751 -1.580994 -9.109041 15.621343 0.124904 2.193354 0.017767 -0.005440 133494.000000 1 0 0
-4.342951 0.971106 -13.517241 14.230954 -0.219986 2.823545 0.007558 -0.007087 281133.000000 1 0 0
3.944749 -3.001994 4.984659 7.029925 -0.650510 0.782628 -0.000488 0.001920 -40897.100000 1 0 0
1.812549 -1.216894 1.094359 2.442087 -0.591253 1.106130 0.001841 -0.000799 644499.000000 1 0 0
8.240649 -8.979294 7.343859 14.229135 -0.828267 1.028488 0.012453 -0.002712 -916266.000000 1 0 0
-0.048051 2.259806 -6.383441 6.771805 -1.549536 2.801278 0.003989 -0.004713 -1071430.000000 1 0 0
-3.876351 -9.906794 -3.417641 11.173671 1.197828 1.881644 0.014679 -0.005644 586131.000000 1 0 0
-9.464351 2.276306 -5.443041 11.152677 -0.236031 2.080648 0.003173 -0.002701 -1699930.000000 1 0 0
8.969849 -7.538094 5.333259 12.873411 -0.698883 1.143639 0.010367 -0.007052 1918480.000000 1 0 0
-5.592751 -4.369894 4.623759 8.470772 0.663265 0.993395 0.003591 -0.003973 -160550.000000 1 0 0
-0.194051 -12.537894 10.483759 16.344591 1.555320 0.874448 0.009361 0.000231 -1928910.000000 1 0 0
-14.316651 -8.336794 3.111959 16.856836 0.527314 1.385120 0.000805 -0.002443 -1348390.000000 1 0 0
10.909349 -1.180794 -3.620941 11.555059 -0.107817 1.889530 0.008152 0.002186 -470754.000000 1 0 0
-13.712651 3.016606 2.694559 14.296760 -0.216538 1.381189 0.002241 0.000952 -199135.000000 1 0 0
-6.421251 6.144106 0.914959 8.934184 -0.763346 1.468205 0.000891 -0.000100 740100.000000 1 0 0
7.223149 -6.851194 -0.488541 9.967518 -0.758976 1.619829 0.005346 -0.006144 808604.000000 1 0 0
-6.966451 7.846606 10.001759 14.496063 -0.844746 0.809357 0.002442 -0.005663 397582.000000 1 0 0
-12.590951 -5.126794 -1.931141 13.731182 0.386681 1.711903 -0.001938 -0.002249 -1764210.000000 1 0 0
-9.465051 -5.628594 0.129959 11.012953 0.536492 1.558995 0.002704 -0.005565 -1007940.000000 1 0 0
-1.855651 1.741906 2.208059 3.369451 -0.753792 0.856194 0.005074 -0.000706 657393.000000 1 0 0
-7.143351 7.410906 7.547359 12.763684 -0.803779 0.938108 0.001498 -0.005980 116705.000000 1 0 0
5.694249 7.115706 -0.359441 9.120688 0.895911 1.610216 0.002340 -0.001204 -1250360.000000 1 0 0
0.032049 -4.274294 7.673259 8.783480 -1.563298 0.508242 0.004843 -0.001556 -268695.000000 1 0 0
6.432649 0.670406 13.036459 14.552584 0.103844 0.460529 0.010354 -0.001395 604568.000000 1 0 0
5.717849 6.122606 -7.807541 11.451541 0.819569 2.321002 -0.004591 0.003049 -561804.000000 1 0 0
9.965249 5.280306 9.019259 14.440736 0.487259 0.896215 0.008119 -0.002955 -1054900.000000 1 0 0
-1.220351 -4.994794 -8.508041 9.941025 1.331166 2.597991 0.006936 -0.002971 334063.000000 1 0 0
10.032249 -3.447794 -8.059841 13.322700 -0.331025 2.220525 0.010041 -0.004865 512464.000000 1 0 0
8.351149 -5.603894 1.444659 10.160333 -0.591019 1.428127 0.007213 -0.006223 1638490.000000 1 0 0
15.742549 3.278806 -5.109241 16.872545 0.205341 1.878440 0.027055 0.002088 22621.500000 1 0 0
-6.970851 3.581806 1.145059 7.920433 -0.474647 1.425718 0.003967 -0.002134 708284.000000 1 0 0
-1.831851 3.714306 0.358659 4.156968 -1.112613 1.484410 0.003720 -0.003790 -843970.000000 1 0 0
-2.555251 9.956006 7.005159 12.438795 -1.319565 0.972579 -0.000070 0.004441 521845.000000 1 0 0
5.565249 -5.735994 -8.716341 11.825744 -0.800505 2.399513 0.001206 -0.002675 -1190820.000000 1 0 0
-1.156251 -1.084294 6.322659 6.518330 0.753293 0.245642 0.003457 0.000943 742308.000000 1 0 0
-5.756251 4.961506 -7.730641 10.840377 -0.711381 2.364755 0.006041 -0.005249 19532.900000 1 0 0
6.727849 -1.250894 2.624459 7.329153 -0.183829 1.204580 0.001215 0.001012 -1062350.000000 1 0 0
8.799849 7.618406 3.232859 12.080101 0.713563 1.299876 0.006852 -0.003128 -265193.000000 1 0 0
-5.278551 -4.932294 -7.713841 10.568536 0.751500 2.388953 0.009829 -0.008075 762733.000000 1 0 0
-2.144151 7.883506 -10.095441 12.987108 -1.305241 2.461228 -0.000170 -0.000411 299302.000000 1 0 0
-2.851451 -2.295294 1.711159 4.040694 0.677756 1.133511 0.004702 -0.001752 -440287.000000 1 0 0
6.056949 -2.082994 -9.241841 11.244426 -0.331232 2.535542 -0.000391 -0.000284 918018.000000 1 0 0
1.162549 -7.661794 5.100859 9.277574 -1.420212 0.988665 0.003634 -0.003254 960060.000000 1 0 0
1.745649 11.916006 1.263959 12.109339 1.425335 1.466227 0.001595 -0.001504 474605.000000 1 0 0
-1.050251 6.963706 2.525059 7.481454 -1.421107 1.226527 0.000124 0.002615 471113.000000 1 0 0
8.699449 7.874406 -6.691941 13.508100 0.735659 2.089094 0.004238 0.000096 -299943.000000 1 0 0
3.695449 -10.829194 5.360259 12.635670 -1.241939 1.132700 0.003249 0.004492 94994.300000 1 0 0
8.017649 -7.055294 12.305659 16.293837 -0.721638 0.714785 0.028430 -0.011188 788691.000000 1 0 0
-8.712051 -0.019194 -4.045041 9.605340 0.002203 2.005481 0.003096 -0.003179 -961023.000000 1 0 0
-3.403851 -5.093094 11.180259 12.748490 0.981645 0.501241 0.007409 -0.005515 726664.000000 1 0 0
-8.260851 0.118506 -11.504741 14.163854 -0.014345 2.518814 0.008644 -0.008823 -2201050.000000 1 0 0
1.328249 -5.036894 5.348459 7.465960 -1.312962 0.772197 0.002084 -0.001143 -864908.000000 1 0 0
6.699049 3.728706 -7.794541 10.933224 0.507898 2.364453 -0.000789 0.003419 -2030440.000000 1 0 0
16.271849 4.314206 -1.252241 16.880568 0.259170 1.645047 0.025435 0.007254 -61614.800000 1 0 0
7.901149 7.602906 0.216159 10.967181 0.766164 1.551085 0.002652 -0.003152 -4438850.000000 1 0 0
5.434849 -10.432194 13.804659 18.136617 -1.090515 0.705714 0.018337 -0.009865 52647.500000 1 0 0
-5.419251 -9.161294 8.872659 13.857188 1.036622 0.875917 0.008654 -0.007354 198661.000000 1 0 0
-12.777351 -3.296794 2.650059 13.459285 0.252511 1.372607 -0.006085 -0.003834 656715.000000 1 0 0
-2.116251 -1.409794 -5.846141 6.375217 0.587662 2.731316 0.009747 -0.008415 -372814.000000 1 0 0
-2.543051 12.900106 -4.390941 13.862186 -1.376158 1.893105 0.000887 0.002183 387359.000000 1 0 0
4.043949 -0.493894 -4.990741 6.442434 -0.121530 2.456985 -0.002011 0.000510 -363623.000000 1 0 0
-8.857651 3.649206 -7.418341 12.116372 -0.390794 2.229709 0.005884 -0.003597 378273.000000 1 0 0
-4.511351 7.958706 -11.374541 14.597036 -1.055113 2.464243 0.003553 -0.002464 -1898080.000000 1 0 0
-10.165151 -6.494394 7.343959 14.122364 0.568524 1.023918 0.006533 -0.001081 -892288.000000 1 0 0
8.103049 5.376606 4.130759 10.565532 0.585827 1.169116 0.001782 -0.001577 -1199490.000000 1 0 0
-6.751051 -7.485094 3.988159 10.840144 0.836914 1.194040 0.011107 -0.004893 -335055.000000 1 0 0
-4.185951 11.814006 7.981559 14.859280 -1.230277 1.003750 0.003023 -0.002529 8344.370000 1 0 0
-7.205251 9.885606 -7.854941 14.537570 -0.940961 2.141614 -0.000132 -0.007932 -784066.000000 1 0 0
13.090149 5.553506 4.565859 14.934541 0.401236 1.260097 0.013098 -0.004999 456261.000000 1 0 0
5.426849 4.175806 -3.757441 7.810660 0.655847 2.072666 -0.001054 0.002002 601128.000000 1 0 0
-2.900651 -4.225194 5.134259 7.254423 0.969179 0.784500 0.006760 -0.003754 -541989.000000 1 0 0
12.513449 -2.189794 -5.239841 13.741817 -0.173241 1.962005 0.008880 -0.003387 -1820940.000000 1 0 0
-5.259051 9.690206 6.961459 13.039157 -1.073561 1.007603 0.002341 -0.001155 -75022.500000 1 0 0
1.734449 3.819406 -0.376641 4.211655 1.144526 1.660344 0.000166 -0.002030 493571.000000 1 0 0
-0.018751 9.710406 7.742159 12.419073 -1.568865 0.897702 0.002735 0.005425 -1242290.000000 1 0 0
-5.728251 2.119006 5.880959 8.478722 -0.354311 0.804302 0.005699 0.001237 964350.000000 1 0 0
8.878649 1.011706 10.597359 13.862106 0.113459 0.700556 0.014705 -0.002009 -2060100.000000 1 0 0
0.447249 -2.956894 -10.125541 10.557927 -1.420678 2.854412 0.007468 -0.003190 -2021320.000000 1 0 0
1.235149 10.645706 -2.737241 11.061155 1.455290 1.820859 0.003616 -0.001728 -936557.000000 1 0 0
2.290549 -4.254094 11.725559 12.681982 -1.076876 0.390854 0.005815 -0.002526 -1003910.000000 1 0 0
6.559649 -3.021094 9.508959 11.940532 -0.431599 0.649544 0.007802 -0.002779 395100.000000 1 0 0
-10.635451 -8.217594 5.643959 14.577240 0.657847 1.173229 0.010796 -0.001066 -1617630.000000 1 0 0
-3.037751 0.744806 -6.916141 7.590499 -0.240440 2.716881 0.013090 -0.007982 654397.000000 1 0 0
11.024149 2.743606 -5.071441 12.441011 0.243917 1.990663 0.003947 0.002917 -3258170.000000 1 0 0
-1.954551 -4.056294 0.041659 4.502835 1.121769 1.561544 0.008584 -0.004669 1056730.000000 1 0 0
-1.245651 -6.476694 -10.625141 12.505712 1.380788 2.586066 0.003771 -0.000357 968397.000000 1 0 0
0.286949 6.710106 -6.558841 9.387559 1.528059 2.344338 0.001110 0.002635 -2958350.000000 1 0 0
2.034749 3.777806 -6.201741 7.541460 1.076743 2.536330 -0.000319 0.000777 -2065620.000000 1 0 0
1.669149 -14.749694 6.419359 16.172436 -1.458111 1.162624 0.017465 -0.004873 130983.000000 1 0 0
-1.699451 5.398506 -10.495541 11.924277 -1.265817 2.647043 0.006635 -0.000983 -84597.700000 1 0 0
13.625949 4.391306 -0.829641 14.340097 0.311765 1.628683 0.008531 0.000581 -2436720.000000 1 0 0
-2.409351 3.232206 -6.056641 7.275646 -0.930233 2.554318 0.009073 -0.005493 -1411660.000000 1 0 0
5.669949 8.001506 14.258359 17.305295 0.954315 0.602484 0.023626 0.003425 68670.900000 1 0 0
15.897649 0.724406 -5.757741 16.923699 0.045535 1.917945 0.025172 -0.001306 149663.000000 1 0 0
6.194249 -8.281994 10.606959 14.814443 -0.928629 0.772758 0.005709 0.001584 506226.000000 1 0 0
0.065649 -5.880994 -6.301841 8.619953 -1.559634 2.390694 0.004577 -0.003616 -223893.000000 1 0 0
8.596449 5.610006 -7.598041 12.771113 0.578198 2.207987 0.001049 0.002314 -444451.000000 1 0 0
-15.940451 -0.724494 5.265359 16.803180 0.045419 1.252072 0.023521 -0.015118 -51245.400000 1 0 0
-0.380251 4.052806 -12.274441 12.931811 -1.477246 2.821373 0.009525 -0.003180 558238.000000 1 0 0
-11.304551 3.515406 5.885959 13.221024 -0.301493 1.109402 -0.002638 -0.005001 205116.000000 1 0 0
5.250849 -9.694694 -9.639141 14.644847 -1.074409 2.289213 -0.004181 0.001218 91710.400000 1 0 0
1.427549 11.201506 -11.729641 16.281772 1.444037 2.375198 -0.001713 0.003032 -1986120.000000 1 0 0
5.848749 2.379106 1.243459 6.435387 0.386330 1.376351 0.000309 0.000977 -262663.000000 1 0 0
5.753049 4.521706 4.843759 8.775272 0.666125 0.986062 -0.003253 0.000900 -209590.000000 1 0 0
0.489549 -1.587894 -6.359441 6.572941 -1.271741 2.886019 0.003384 -0.005118 1943610.000000 1 0 0
12.640349 6.880106 -4.548241 15.093071 0.498454 1.876901 0.013716 0.001202 -276626.000000 1 0 0
7.296049 3.230206 12.655559 14.960941 0.416795 0.562533 0.010878 0.000798 -56515.400000 1 0 0
-2.443251 -0.358594 8.694759 9.038634 0.145729 0.276726 0.000866 0.001116 928724.000000 1 0 0
2.328949 -15.128794 13.303659 20.280329 -1.418054 0.855305 0.017080 -0.004761 -642202.000000 1 0 0
18.861649 4.682106 -1.662341 19.505059 0.243316 1.656126 0.035844 -0.000797 631736.000000 1 0 0
-0.189151 -13.132294 7.324259 15.037875 1.556394 1.062083 0.008367 -0.002507 -1688690.000000 1 0 0
4.378949 1.508406 -0.541741 4.663043 0.331738 1.687237 -0.000125 0.000515 95971.700000 1 0 0
2.844849 -0.488094 -7.371241 7.916223 -0.169917 2.768367 -0.001563 -0.002768 657390.000000 1 0 0
7.331849 -11.127594 0.825559 13.351438 -0.988198 1.508924 0.004035 -0.007269 73951.100000 1 0 0
-11.830051 -7.426994 1.271159 14.025911 0.560616 1.480042 0.001088 0.001277 168059.000000 1 0 0
0.070249 -7.062894 10.150559 12.366214 -1.560850 0.607934 0.006719 -0.005826 -463959.000000 1 0 0
-4.701351 -7.280994 10.613559 13.702672 0.997449 0.684775 0.006380 -0.002695 -1300000.000000 1 0 0
11.818849 0.814306 -1.665641 11.963388 0.068790 1.710478 0.006930 -0.000902 694919.000000 1 0 0
6.606349 -9.699294 -7.544941 13.951569 -0.972857 2.142178 -0.001973 -0.003577 -543726.000000 1 0 0
-11.011851 4.754006 3.588959 12.519667 -0.407546 1.280052 -0.003353 -0.000008 -605748.000000 1 0 0
6.077549 -8.946194 2.121559 11.021434 -0.974068 1.377093 0.003689 -0.006907 2077400.000000 1 0 0
11.594549 -1.247094 5.818459 13.032394 -0.107147 1.107990 0.016392 -0.008966 544191.000000 1 0 0
-6.391151 3.709106 4.126659 8.463663 -0.525846 1.061488 0.002118 0.000719 -976193.000000 1 0 0
9.497449 6.431406 -3.228241 11.915791 0.595240 1.845146 0.001252 -0.000502 -152566.000000 1 0 0
-2.322551 6.673406 10.945959 13.028531 -1.235877 0.573231 -0.001141 -0.001582 -297767.000000 1 0 0
1.892049 9.802906 2.912759 10.400047 1.380132 1.286927 -0.003060 0.003321 -139793.000000 1 0 0
2.854149 6.128406 -5.585641 8.769431 1.134943 2.261325 -0.001864 0.001220 -1759320.000000 1 0 0
12.020149 0.174806 -5.635941 13.276987 0.014542 2.009194 0.010036 0.000697 454029.000000 1 0 0
-2.471851 -12.586494 6.271759 14.278124 1.376875 1.116025 0.016675 -0.003896 -414149.000000 1 0 0
10.801349 1.979906 -2.717941 11.312664 0.181289 1.813426 0.003273 0.001209 100977.000000 1 0 0
-8.981351 5.311306 0.832259 10.467439 -0.534050 1.491203 0.000901 0.000134 189156.000000 1 0 0
1.116949 -10.179094 5.640759 11.691009 -1.461504 1.067305 0.002493 -0.003387 -664380.000000 1 0 0
9.514949 -5.593794 -0.869841 11.071649 -0.531471 1.649442 0.008633 -0.003875 -383906.000000 1 0 0
-7.808651 8.517306 -4.550041 12.418631 -0.828778 1.945921 0.000900 -0.004518 -508253.000000 1 0 0
-7.496651 -0.181994 -1.641441 7.676407 0.024272 1.786290 0.003042 -0.004255 -1842220.000000 1 0 0
4.067349 8.804806 2.789559 10.092055 1.138052 1.290738 -0.000167 0.000929 525605.000000 1 0 0
-1.320551 -10.386694 -3.758041 11.124304 1.444336 1.915399 0.010580 -0.001917 260944.000000 1 0 0
3.103849 7.944806 -3.646541 9.276372 1.198353 1.974797 0.001524 -0.000622 110971.000000 1 0 0
-4.376251 1.635106 -11.091341 12.035073 -0.357571 2.742940 0.009512 -0.008055 -371036.000000 1 0 0
1.275449 2.735306 11.110259 11.512885 1.134477 0.265245 0.000179 0.003564 597691.000000 1 0 0
2.132849 5.481506 -8.030641 9.954253 1.199722 2.509436 0.000532 0.002880 -226423.000000 1 0 0
15.579049 6.185806 4.025959 17.238890 0.377969 1.335080 0.040227 -0.007521 -41282.200000 1 0 0
-4.508351 9.032406 4.553959 11.074662 -1.107844 1.147020 0.003853 0.003001 -655166.000000 1 0 0
-0.943551 -8.257194 -12.420241 14.944361 1.457020 2.551877 0.003221 -0.001019 -330421.000000 1 0 0
14.219149 -4.180694 -5.248441 15.722867 -0.285960 1.911138 0.025274 -0.004025 -129492.000000 1 0 0
-6.001651 -6.292394 -5.635841 10.362274 0.809043 2.145851 0.012028 -0.005027 401181.000000 1 0 0
-9.081651 2.491106 -12.283041 15.477567 -0.267716 2.487504 0.006513 -0.004742 -735430.000000 1 0 0
10.582049 5.508806 13.781659 18.228024 0.479976 0.713509 0.042442 -0.000034 754495.000000 1 0 0
-0.538151 10.903906 5.581259 12.261127 -1.521482 1.098200 0.000134 0.009299 474284.000000 1 0 0
0.329649 11.274406 -0.587641 11.294522 1.541566 1.622849 0.001854 0.000478 78860.800000 1 0 0
-1.375151 -0.644494 3.714459 4.012932 0.438272 0.388119 0.005468 -0.000449 -23380.400000 1 0 0
-4.877751 6.753506 8.866459 12.166199 -0.945290 0.754261 0.003877 -0.002050 146001.000000 1 0 0
3.531349 -8.751794 -11.367141 14.774174 -1.187276 2.448686 -0.002414 0.001990 1281170.000000 1 0 0
6.749149 -3.751994 12.078959 14.336308 -0.507378 0.568809 0.023823 -0.006895 -459697.000000 1 0 0
-2.506451 -1.838894 -12.517641 12.897874 0.632964 2.898174 0.007113 -0.007960 1025370.000000 1 0 0
-16.119051 -4.939794 5.201059 17.643026 0.297370 1.271556 0.025202 -0.009129 508773.000000 1 0 0
-8.975851 7.326206 5.823659 12.967428 -0.684549 1.105040 -0.001889 -0.004207 -5272300.000000 1 0 0
-12.900451 1.477406 6.001359 14.304568 -0.114027 1.137856 -0.005064 -0.002785 287627.000000 1 0 0
-3.489251 3.487406 10.226859 11.354538 -0.785134 0.449453 0.002900 0.002241 394897.000000 1 0 0
2.142249 -12.279794 -1.095341 12.513287 -1.398081 1.658443 0.009924 -0.005950 -2639730.000000 1 0 0
10.160549 -5.374894 -3.424241 11.993818 -0.486575 1.860325 0.014320 -0.001646 406331.000000 1 0 0
3.198049 -13.427794 0.985159 13.838486 -1.336986 1.499546 0.008003 -0.006734 755133.000000 1 0 0
10.138349 -1.673794 -6.114341 11.957127 -0.163619 2.107558 0.006081 0.002543 -87538.500000 1 0 0
11.983749 -5.239294 -1.484841 13.163024 -0.412159 1.683841 0.014456 -0.006060 -78086.600000 1 0 0
1.486249 0.989206 5.876459 6.141681 0.587244 0.294952 0.000231 0.000809 603379.000000 1 0 0
-10.898151 11.616206 6.547159 17.221244 -0.817281 1.180806 0.003670 -0.013456 -461322.000000 1 0 0
4.983149 -13.990594 2.885959 15.129351 -1.228628 1.378868 0.012296 -0.009553 -5010250.000000 1 0 0
5.348149 -3.382794 -1.701941 6.553060 -0.563986 1.833525 0.000481 -0.001524 -1254290.000000 1 0 0
2.086749 -2.976994 -7.658741 8.477814 -0.959427 2.698398 0.000262 -0.003085 -396710.000000 1 0 0
-2.758651 14.960506 -8.962641 17.656609 -1.388449 2.103203 0.004673 0.001885 -1920770.000000 1 0 0
-2.357551 6.086706 -8.115641 10.414877 -1.201262 2.464241 0.003567 -0.001682 6253.050000 1 0 0
2.672449 -3.502894 -11.283641 12.113331 -0.919074 2.769328 0.003245 -0.000360 -829098.000000 1 0 0
14.648749 2.872906 -2.691641 15.168532 0.193662 1.749190 0.017087 0.001747 642136.000000 1 0 0
-3.554951 13.191306 2.260559 13.847684 -1.307558 1.406818 -0.006271 0.004527 -859992.000000 1 0 0
7.907849 -5.035694 14.026059 16.870763 -0.567038 0.589205 0.035783 -0.016289 -1015230.000000 1 0 0
-11.379351 7.161706 2.847059 13.743559 -0.561728 1.362129 -0.007051 0.001647 655787.000000 1 0 0
-2.328051 11.953406 4.155959 12.867624 -1.378444 1.241922 -0.001228 0.003581 1014720.000000 1 0 0
1.851549 1.404206 0.724859 2.434225 0.648852 1.268432 -0.002360 -0.000653 -1586970.000000 1 0 0
-6.958851 8.588706 5.282559 12.251404 -0.889847 1.124996 -0.000367 -0.002489 74822.300000 1 0 0
-1.038951 9.097006 1.062859 9.217625 -1.457081 1.455232 -0.000811 0.002797 326775.000000 1 0 0
4.808849 12.959206 -8.370941 16.159787 1.215470 2.115320 0.021225 -0.018535 -2160470.000000 1 0 0
8.898249 6.929206 7.179059 13.369055 0.661627 1.003930 0.004737 -0.001656 -1326070.000000 1 0 0
7.353549 -13.637294 2.788459 15.742490 -1.076264 1.392727 0.013194 -0.004564 147303.000000 1 0 0
4.313249 -13.337694 -1.268541 14.075063 -1.258023 1.661046 0.004603 -0.005028 -3020080.000000 1 0 0
12.249949 -11.662494 -4.585241 17.524253 -0.760836 1.835529 0.026798 -0.003877 -1150180.000000 1 0 0
2.991449 0.027106 -2.012041 3.605248 0.009061 2.162875 0.001899 -0.001577 1541360.000000 1 0 0
-13.485951 -3.406194 -10.733041 17.569041 0.247399 2.228001 0.024434 -0.014518 306867.000000 1 0 0
-6.767751 13.723806 5.026359 16.106197 -1.112652 1.253419 0.008101 -0.007457 203839.000000 1 0 0
7.318449 -4.298994 -0.504641 8.502688 -0.531117 1.630182 0.000620 -0.000126 -1514690.000000 1 0 0
11.804949 2.111306 -7.325041 14.052426 0.176978 2.119129 0.015392 -0.000128 -418536.000000 1 0 0
-7.637551 -4.608294 9.751459 13.215881 0.542896 0.740903 0.007188 -0.003153 63393.100000 1 0 0
0.975349 2.847706 8.565859 9.079355 1.240815 0.337928 -0.001008 0.002793 -1286410.000000 1 0 0
1.590249 7.970606 -8.606841 11.837954 1.373868 2.384819 0.000413 0.001691 -454331.000000 1 0 0
-8.581751 -2.216894 -5.541841 10.453376 0.252800 2.129572 0.010648 -0.008840 -1270450.000000 1 0 0
6.705349 -0.356794 7.179859 9.830534 -0.053160 0.751943 0.004170 -0.001159 626882.000000 1 0 0
-10.954551 6.450006 7.133959 14.577316 -0.532141 1.059409 -0.002481 -0.007803 529874.000000 1 0 0
-6.028051 11.087906 4.990159 13.571321 -1.072834 1.194263 -0.002114 -0.000289 265303.000000 1 0 0
6.098649 -1.195094 -6.924241 9.304133 -0.193508 2.410150 -0.002567 0.001504 -672384.000000 1 0 0
4.428449 -5.722994 11.505359 13.591803 -0.912237 0.561434 0.011493 -0.006780 -1755350.000000 1 0 0
-9.010151 -7.377094 2.719059 11.958161 0.686072 1.341409 0.006926 -0.003719 -3456710.000000 1 0 0
-1.272751 12.762206 -9.337141 15.864299 -1.471397 2.200077 0.007510 0.001861 478940.000000 1 0 0
-4.503651 9.272306 -2.333941 10.569097 -1.118646 1.793459 0.000551 -0.001308 341125.000000 1 0 0
-3.169351 9.718406 -0.183541 10.223790 -1.255553 1.588750 0.000838 0.000169 151222.000000 1 0 0
-3.373551 10.662706 -6.371041 12.871065 -1.264373 2.088619 -0.000759 0.000112 132418.000000 1 0 0
4.894049 -4.896694 0.381159 6.933586 -0.785668 1.515796 0.002038 -0.002901 -1303610.000000 1 0 0
-2.188651 2.896106 -10.825341 11.417777 -0.923643 2.818043 0.010896 -0.004931 -1665410.000000 1 0 0
-3.722151 12.125306 -2.256841 12.882965 -1.272954 1.746885 -0.003541 0.002380 -777292.000000 1 0 0
-0.059451 0.302006 -0.022841 0.308648 -1.376429 1.644867 0.000122 -0.002716 -1324650.000000 1 0 0
-4.923451 -1.710094 0.203759 5.215966 0.334300 1.531722 0.003554 -0.003844 298846.000000 1 0 0
2.599749 2.543306 -2.447041 4.383504 0.774424 2.163057 -0.003913 -0.000942 1592760.000000 1 0 0
6.095949 -9.669294 8.556459 14.278264 -1.008292 0.928214 0.004126 0.002928 -208327.000000 1 0 0
-4.271451 -5.570694 6.593259 9.630628 0.916647 0.816723 0.007267 -0.005554 23760.900000 1 0 0
-6.234551 5.318306 -11.969241 14.505748 -0.706255 2.541242 -0.001730 -0.005980 142784.000000 1 0 0
-12.996551 3.041406 8.033259 15.578631 -0.229880 1.029020 -0.003563 -0.010859 777266.000000 1 0 0
4.752249 -7.396294 -4.963541 10.095829 -0.999699 2.084771 0.000079 -0.004969 1654740.000000 1 0 0
-6.080751 2.405706 -1.019241 6.618293 -0.376730 1.725415 0.007896 -0.003145 -388203.000000 1 0 0
-6.865651 -2.867094 -14.624041 16.407924 0.395586 2.670955 0.009582 -0.006474 -329739.000000 1 0 0
2.652149 -6.078394 0.812459 6.681381 -1.159373 1.448894 0.004924 -0.002569 -244898.000000 1 0 0
4.809849 -7.940594 12.977259 15.956094 -1.026175 0.620977 0.021563 -0.009323 -85927.900000 1 0 0
-9.867251 -1.787394 8.033659 12.849011 0.179201 0.895363 -0.001330 0.002618 -64314.500000 1 0 0
-4.505851 13.265506 -0.067941 14.010031 -1.243357 1.575646 -0.006996 0.005511 628820.000000 1 0 0
6.751149 2.280506 -4.549141 8.454195 0.325761 2.138969 -0.001722 0.003327 -1106910.000000 1 0 0
4.938149 4.472306 0.003359 6.662346 0.735936 1.570292 -0.004206 0.000359 -480375.000000 1 0 0
-5.907151 12.216306 1.873559 13.698277 -1.120398 1.433593 -0.003214 0.000066 -142060.000000 1 0 0
6.505649 -7.304594 6.664159 11.836029 -0.843185 0.972736 0.003098 -0.002080 -778612.000000 1 0 0
-0.298751 4.937406 7.768859 9.209908 -1.510362 0.566969 -0.001278 0.004300 -552106.000000 1 0 0
-5.836151 -3.457994 -1.569841 6.962957 0.534896 1.798207 0.007226 -0.005899 -542093.000000 1 0 0
2.332649 -6.513194 -5.123441 8.608867 -1.226886 2.208230 0.001449 -0.001871 -1484820.000000 1 0 0
-14.346251 -4.951194 -3.845641 15.656251 0.332322 1.818966 0.013739 -0.007855 449303.000000 1 0 0
-12.347851 -5.172294 -6.298641 14.795098 0.396677 2.010559 0.020754 -0.013767 -1847950.000000 1 0 0
-14.771351 -3.849994 -1.379041 15.327003 0.254967 1.660893 0.003447 -0.006119 267924.000000 1 0 0
11.833949 3.016206 8.752959 15.025117 0.249564 0.948928 0.020875 -0.005513 -1286460.000000 1 0 0
8.675949 -6.435394 7.649259 13.236221 -0.638201 0.954639 0.011327 -0.006112 -208579.000000 1 0 0
-8.728951 -1.753894 -9.735441 13.192783 0.198288 2.400804 0.010419 -0.008373 -758538.000000 1 0 0
-8.811351 5.161106 -3.937241 10.944349 -0.529864 1.938797 0.006544 -0.002256 -174397.000000 1 0 0
-3.999851 -6.322994 4.096459 8.529949 1.006759 1.069863 0.012735 -0.005095 -1805220.000000 1 0 0
-0.105351 -9.478594 3.463159 10.091992 1.559682 1.220518 0.006902 -0.004110 396305.000000 1 0 0
8.004449 -10.523694 3.227159 13.610066 -0.920538 1.331401 0.006494 -0.005059 32013.100000 1 0 0
-0.047951 6.491806 9.668859 11.646145 -1.563410 0.591295 -0.002408 0.000205 156548.000000 1 0 0
0.009749 3.523106 -9.671241 10.292972 1.568029 2.792246 0.008787 -0.003263 -1061610.000000 1 0 0
4.514749 -3.139194 11.154059 12.435857 -0.607578 0.458026 0.004367 -0.003575 -2406020.000000 1 0 0
8.645049 -8.941294 1.334759 12.508605 -0.802242 1.463885 0.007120 -0.005642 468233.000000 1 0 0
-0.356951 -0.481394 11.369259 11.385043 0.932761 0.052663 0.008350 -0.000252 -726724.000000 1 0 0
10.913249 5.924206 11.354859 16.826410 0.497334 0.830071 0.033153 -0.005254 -76232.300000 1 0 0
-6.181451 -3.058494 -11.919041 13.770557 0.459468 2.617034 0.008983 -0.007635 867852.000000 1 0 0
-1.663951 2.839806 8.541059 9.153301 -1.040781 0.367823 0.004120 0.000778 -1803430.000000 1 0 0
-1.900551 13.425406 -6.891641 15.210139 -1.430167 2.041031 0.000121 -0.001450 296719.000000 1 0 0
7.599449 3.151806 9.783159 12.782633 0.393150 0.699215 0.005181 -0.001119 623224.000000 1 0 0
6.466849 8.514806 -7.977241 13.340106 0.921254 2.211786 0.002071 0.001920 -938987.000000 1 0 0
6.616149 -2.968194 -3.913841 8.240252 -0.421713 2.065722 -0.000674 0.002338 -2681450.000000 1 0 0
1.974949 8.173406 1.016459 8.469840 1.333710 1.450497 -0.001138 0.001907 739961.000000 1 0 0
-17.676851 6.249806 6.363559 19.799647 -0.339842 1.243591 0.030270 -0.016342 922379.000000 1 0 0
-14.617151 2.944706 -10.125541 18.023844 -0.198795 2.167339 0.029138 -0.006014 -501876.000000 1 0 0
-18.261951 0.157206 -4.403341 18.785978 -0.008608 1.807393 0.049447 -0.016737 -314441.000000 1 0 0
-12.980651 7.941506 0.113559 15.217677 -0.549048 1.563334 -0.001701 0.005168 -530671.000000 1 0 0
-12.972851 -4.486794 -13.150241 19.009340 0.332982 2.334745 0.053650 -0.002274 -920926.000000 1 0 0
-17.416251 -0.830794 -8.638841 19.458817 0.047666 2.030804 0.054749 -0.020760 194913.000000 1 0 0
-16.579951 -2.133794 -2.256341 16.868281 0.127994 1.704961 0.031108 -0.013431 -1785980.000000 1 0 0
-15.324151 4.182306 1.677859 15.972993 -0.266434 1.465559 0.011602 0.000192 -983879.000000 1 0 0
-13.115651 5.840206 4.439259 15.027818 -0.418926 1.270919 -0.002934 -0.005306 -279630.000000 1 0 0
-10.037351 14.167106 2.810759 17.588510 -0.954390 1.410302 0.017098 -0.006517 -52217.800000 1 0 0
-11.868351 2.371006 -6.388141 13.685312 -0.197180 2.056452 0.006798 0.000869 454081.000000 1 0 0
-15.910051 10.675506 4.002459 19.573345 -0.590991 1.364859 0.005190 -0.008984 891372.000000 1 0 0
-12.848251 1.015306 -8.624941 15.507998 -0.078859 2.160555 0.013016 -0.003412 450747.000000 1 0 0
-12.332951 14.237806 3.937559 19.243731 -0.856966 1.364726 0.031911 -0.018100 -2281670.000000 1 0 0
-10.467351 11.130606 -1.076041 15.317104 -0.816098 1.641105 0.000082 -0.000166 369464.000000 1 0 0
-17.161651 5.233906 8.789459 19.979255 -0.296016 1.115276 0.034010 -0.029665 -40982.700000 1 0 0
-11.736451 12.544106 -9.291541 19.530274 -0.818649 2.066614 0.021828 -0.019437 -343195.000000 1 0 0
-17.265451 -0.441294 3.055659 17.539315 0.025554 1.395685 0.047050 -0.011489 124140.000000 1 0 0
-13.459551 14.796306 -0.414341 20.006545 -0.832672 1.591508 0.051240 -0.013444 197731.000000 1 0 0
-16.751251 4.496806 -10.232641 20.137840 -0.262263 2.103809 0.071584 -0.011426 794716.000000 1 0 0
-11.964951 7.550506 -8.944541 16.738429 -0.562939 2.134560 0.014694 -0.003995 371006.000000 1 0 0
-14.798151 13.273906 -2.011141 19.980654 -0.731154 1.671621 0.051947 -0.024813 131433.000000 1 0 0
-11.848151 10.620506 -5.561741 16.855468 -0.730814 1.907064 0.024274 -0.012344 103838.000000 1 0 0
-17.706651 2.789306 -0.973241 17.951404 -0.156245 1.625038 0.050771 -0.006453 -615180.000000 1 0 0
-9.370451 15.382506 0.675859 18.024528 -1.023667 1.533291 0.018144 -0.005485 -167040.000000 1 0 0
-8.124151 13.141206 -3.809441 15.912415 -1.017088 1.812545 0.001152 -0.003007 -1412500.000000 1 0 0
-17.832651 11.511106 2.346859 21.354549 -0.573210 1.460674 0.091247 -0.013976 -260358.000000 1 0 0
-8.193851 15.576906 -7.350141 19.073641 -1.086546 1.966390 0.036602 -0.024268 -214100.000000 1 0 0
-6.424351 15.248006 -5.439041 17.417151 -1.172043 1.888389 0.002532 -0.001127 -2496910.000000 1 0 0
-17.306951 5.210906 -0.136341 18.074918 -0.292454 1.578339 0.039191 -0.000031 556022.000000 1 0 0
-5.522051 12.211806 -12.214941 18.133561 -1.146123 2.309878 -0.006807 -0.008360 -547872.000000 1 0 0
-11.324451 3.573306 -11.437441 16.487169 -0.305651 2.337434 0.018463 -0.003973 320451.000000 1 0 0
-11.857651 10.986306 1.183459 16.208127 -0.747273 1.497715 0.002357 -0.002269 392170.000000 1 0 0
-12.989051 -0.059594 -11.040341 17.047232 0.004588 2.275269 0.026595 -0.009398 1319980.000000 1 0 0
-14.226851 -2.193394 -13.034641 19.419478 0.152968 2.306643 0.077759 -0.014451 197621.000000 1 0 0
-18.710551 -2.391094 -3.686741 19.219628 0.127105 1.763814 0.043259 -0.015584 -214810.000000 1 0 0
-18.307751 4.885106 -5.195541 19.647688 -0.260757 1.838415 0.054603 -0.011152 403891.000000 1 0 0
-8.260251 15.334906 -2.265041 17.564780 -1.076704 1.700110 0.013854 -0.002443 -307666.000000 1 0 0
-16.406751 9.109706 -5.557241 19.571692 -0.506858 1.858700 0.055441 -0.008926 313141.000000 1 0 0
-18.491351 1.542906 1.866159 18.649213 -0.083247 1.470562 0.088666 -0.015815 -684723.000000 1 0 0
-15.696451 -2.831994 -8.696041 18.166449 0.178502 2.069955 0.020754 -0.012731 -169392.000000 1 0 0
-9.723151 10.464506 -7.164741 15.980584 -0.822105 2.035704 0.009573 -0.012975 303719.000000 1 0 0
-13.761351 12.047806 -7.652941 19.826546 -0.719103 1.967082 0.042115 -0.028518 226060.000000 1 0 0
-11.046851 6.522006 -3.935741 13.418626 -0.533327 1.868478 0.002751 -0.001460 -1040180.000000 1 0 0
-13.170451 5.059906 -12.747141 19.014548 -0.366800 2.305529 0.039891 -0.010684 843565.000000 1 0 0
-17.626551 8.957006 2.727859 19.959070 -0.470150 1.433695 0.028052 -0.018121 822508.000000 1 0 0
-13.500151 8.749606 -6.544241 17.367693 -0.575047 1.957141 0.020440 -0.006022 -449017.000000 1 0 0
-15.745451 7.035606 -4.014341 17.706889 -0.420218 1.799495 0.016216 0.001321 -1015190.000000 1 0 0
-14.927951 -0.467594 -9.213141 17.548342 0.031313 2.123529 0.030319 -0.015763 -1680230.000000 1 0 0
-10.192751 5.612106 -6.169041 13.169851 -0.503302 2.058300 0.004695 -0.003714 195808.000000 1 0 0
-12.739451 12.241506 -0.851941 17.688241 -0.765468 1.618979 0.022972 -0.007590 -1384960.000000 1 0 0
-10.871651 3.277806 -13.923941 17.966995 -0.292833 2.457469 0.034510 -0.007204 369136.000000 1 0 0
-10.917451 6.138606 -11.822541 17.223405 -0.512218 2.327355 0.004058 -0.010062 -1306390.000000 1 0 0
-5.858951 11.499706 -14.805441 19.641070 -1.099588 2.424623 0.007200 -0.011318 -238700.000000 1 0 0
-15.507651 13.263506 3.459459 20.697239 -0.707556 1.402862 0.012527 -0.018053 -117967.000000 1 0 0
-14.899651 10.955806 -3.261841 18.779480 -0.634031 1.745373 0.034750 -0.011689 374828.000000 1 0 0
-18.235851 7.719206 -4.543841 20.316960 -0.400428 1.796352 0.050680 -0.012892 -521688.000000 1 0 0
-4.275751 16.140006 -10.583841 19.768650 -1.311829 2.135760 0.008112 -0.005469 -189437.000000 1 0 0
-15.735851 4.417406 -4.495741 16.951170 -0.273678 1.839225 0.018409 0.000295 690037.000000 1 0 0
-18.904151 -1.635894 -6.146141 19.945378 0.086321 1.884043 0.056799 -0.019623 313235.000000 1 0 0
-10.901151 8.522606 -5.932341 15.055317 -0.663549 1.975815 0.006962 -0.003319 352429.000000 1 0 0
-11.200251 13.817606 -7.018141 19.121353 -0.889638 1.946612 0.025782 -0.010406 132859.000000 1 0 0
-9.493251 10.448706 -4.538041 14.828725 -0.833273 1.881817 -0.003087 -0.002729 -708081.000000 1 0 0
-11.120651 6.132806 -0.332841 12.703974 -0.503978 1.596999 -0.003239 0.003523 -1187780.000000 1 0 0
-14.743951 9.272606 -1.384241 17.472305 -0.561405 1.650104 0.026390 -0.001895 193762.000000 1 0 0
-18.867051 3.258906 4.593159 19.689672 -0.171042 1.335349 0.069599 -0.023225 407822.000000 1 0 0
-14.923151 12.910106 0.466859 19.738015 -0.713199 1.547141 0.031349 -0.017477 -346035.000000 1 0 0
-16.859051 2.277106 -9.026741 19.258631 -0.134255 2.058628 0.047202 -0.010092 96280.200000 1 0 0
-9.092351 8.352206 -8.822141 15.174332 -0.742995 2.191227 0.006865 -0.006127 -1361970.000000 1 0 0
-17.603651 4.763106 -2.688641 18.433787 -0.264248 1.717172 0.033119 -0.000280 867539.000000 1 0 0
-13.514151 5.934806 -4.584841 15.455580 -0.413799 1.871975 0.007169 0.003587 -207714.000000 1 0 0
-12.157951 9.524206 3.301759 15.793286 -0.664520 1.360182 -0.005853 -0.003836 772329.000000 1 0 0
-17.760951 2.666306 -4.105641 18.423269 -0.149009 1.795534 0.046117 -0.006497 872015.000000 1 0 0
-11.358651 1.193306 -12.633441 17.030759 -0.104673 2.406549 0.026455 -0.001343 145803.000000 1 0 0
-11.128851 11.913406 3.538059 16.682279 -0.819434 1.357088 0.003995 -0.007500 434841.000000 1 0 0
-15.891651 13.072206 -4.421741 21.047065 -0.688360 1.782462 0.053169 -0.023541 186376.000000 1 0 0
-11.108551 4.032606 -4.553541 12.664776 -0.348225 1.938575 0.001218 -0.001555 -374262.000000 1 0 0
-10.910451 15.008006 -9.419341 20.808704 -0.942195 2.040546 0.026310 -0.029954 154436.000000 1 0 0
-15.442951 7.098906 -0.293741 16.998985 -0.430879 1.588077 0.017462 0.005359 -1045930.000000 1 0 0
-12.698551 8.435406 -4.092641 15.784770 -0.586349 1.833071 0.010483 -0.001887 583287.000000 1 0 0
-19.186051 2.047506 -6.092141 20.233907 -0.106316 1.876627 0.079338 -0.018199 -504727.000000 1 0 0
-12.650751 10.105906 -8.909341 18.480995 -0.674032 2.073825 0.025318 -0.017142 774885.000000 1 0 0
-16.653151 11.002806 -1.282241 20.000833 -0.583863 1.634950 0.037107 -0.012968 359656.000000 1 0 0
-10.795551 6.379306 -14.406541 19.099421 -0.533716 2.425371 0.039670 -0.020680 -306704.000000 1 0 0
-13.354551 12.906006 -4.185441 19.037514 -0.768319 1.792459 0.031305 -0.020293 174339.000000 1 0 0
-17.956851 7.747706 -0.196741 19.557969 -0.407332 1.580856 0.064752 -0.008988 384141.000000 1 0 0
-12.759451 6.660806 -2.136641 14.551122 -0.481115 1.718166 -0.001972 0.004188 519725.000000 1 0 0
-13.763551 8.524806 -10.622941 19.363742 -0.554545 2.151485 0.019082 -0.010198 -54341.000000 1 0 0
-15.068851 1.342206 -0.995841 15.161249 -0.088837 1.636527 0.011106 -0.002282 -555294.000000 1 0 0
-13.481151 2.669006 -2.568641 13.980806 -0.195453 1.755572 0.003946 -0.002051 -75782.200000 1 0 0
-11.202551 9.055506 -10.828641 18.021065 -0.679808 2.215408 0.016198 -0.016704 -586868.000000 1 0 0
-15.447951 4.122306 -7.901241 17.834298 -0.260775 2.029779 0.019857 0.000091 513091.000000 1 0 0
-18.361151 10.395506 4.637059 21.603257 -0.515172 1.354467 0.077231 -0.040115 -11758.400000 1 0 0
-15.460351 6.125806 -6.322941 17.791220 -0.377249 1.934135 0.021096 0.002555 510423.000000 1 0 0
-7.734651 11.173706 -13.070641 18.855190 -0.965312 2.336732 -0.001069 -0.010833 -2034970.000000 1 0 0
-16.812751 9.177006 -2.976641 19.384180 -0.499641 1.724967 0.039036 -0.013005 544845.000000 1 0 0
-20.723151 -0.869194 -4.513341 21.226745 0.041919 1.785057 0.102853 -0.032964 1756200.000000 1 0 0
-15.377651 4.371206 4.174259 16.522833 -0.276952 1.315393 0.007020 -0.005111 -111071.000000 1 0 0
-6.897151 12.442906 -9.270741 16.980672 -1.064655 2.148329 0.001217 -0.013787 -94656.100000 1 0 0
-17.273951 1.482406 5.659859 18.237898 -0.085608 1.255251 0.038995 -0.019263 -169253.000000 1 0 0
-10.337851 14.154506 -2.983341 17.779807 -0.939985 1.739388 0.023139 -0.012867 -203073.000000 1 0 0
-10.018251 8.297806 -12.922341 18.335916 -0.691742 2.352875 0.002972 -0.014957 -139993.000000 1 0 0
-13.693251 11.548206 2.776859 18.126697 -0.700621 1.416999 0.007008 -0.011580 -1372910.000000 1 0 0
-16.653151 6.653806 1.936559 18.037484 -0.380120 1.463226 0.011550 -0.001450 739199.000000 1 0 0
-9.303751 13.102806 -8.531441 18.194197 -0.953352 2.058853 0.017982 -0.023231 -1725370.000000 1 0 0
-5.625851 9.769206 -12.883141 17.119080 -1.048304 2.422738 -0.000409 -0.005323 -410303.000000 1 0 0
-16.089851 1.936006 2.965159 16.474938 -0.119749 1.389830 0.015212 -0.006283 152417.000000 1 0 0
-18.733351 -4.753594 4.597459 19.866346 0.248505 1.337260 0.070775 -0.014851 804454.000000 1 0 0
-5.294751 14.401706 -8.965141 17.771248 -1.218487 2.099569 -0.003870 -0.009339 -212861.000000 1 0 0
-15.560651 -0.908594 -6.752841 16.987061 0.058324 1.979618 0.021042 -0.005610 770187.000000 1 0 0
-8.848151 10.832806 -9.536841 16.928993 -0.885900 2.169223 -0.001746 -0.016204 371898.000000 1 0 0
-16.687551 1.342206 -6.059641 17.804356 -0.080259 1.918081 0.010387 -0.006742 -1177710.000000 1 0 0
-11.137451 8.654606 -1.524141 14.186896 -0.660604 1.678437 0.000382 -0.000067 -1175810.000000 1 0 0
-10.630551 10.853106 -12.636241 19.760392 -0.795757 2.264609 0.024502 -0.021654 -759437.000000 1 0 0
-14.079351 11.718206 -10.364841 21.046957 -0.694127 2.085713 0.060742 -0.033384 993605.000000 1 0 0
-13.246851 5.625606 -7.685941 16.315642 -0.401595 2.061309 0.014046 0.003943 -192120.000000 1 0 0
-8.967951 15.290906 -4.850141 18.378243 -1.040371 1.837867 0.017665 -0.011207 1053750.000000 1 0 0
-8.596351 6.072106 -12.997441 16.724269 -0.614981 2.460937 0.003774 -0.008172 518267.000000 1 0 0
-16.351451 7.484006 4.424259 18.519027 -0.429236 1.329560 0.013325 -0.004629 344482.000000 1 0 0
-12.631751 5.353506 -10.186441 17.087561 -0.400865 2.209471 0.012676 0.000926 98036.100000 1 0 0
-12.451751 9.220606 -13.198741 20.353683 -0.637398 2.276368 0.053887 -0.025384 -141101.000000 1 0 0
-10.809651 5.213206 -8.488841 14.699880 -0.449366 2.186431 0.007521 0.000939 87694.200000 1 0 0
-17.705651 -4.461694 -2.620241 18.446204 0.246853 1.713326 0.031339 -0.011069 552172.000000 1 0 0
-8.676151 13.008606 -11.075941 19.161834 -0.982594 2.187098 0.027931 -0.022888 25071.900000 1 0 0
-15.013751 6.078006 6.176859 17.335180 -0.384663 1.206471 0.007709 -0.011463 -229891.000000 1 0 0
-16.390451 -3.255594 -4.581641 17.327354 0.196075 1.838395 0.023486 -0.010968 678956.000000 1 0 0
-11.126951 -1.391994 -12.316141 16.656350 0.124455 2.403014 0.018996 -0.011909 694607.000000 1 0 0
-15.379051 6.672606 -8.699641 18.887102 -0.409365 2.049482 0.012528 0.000906 -353273.000000 1 0 0
-14.972451 9.242806 1.202559 17.636607 -0.553058 1.502558 0.016931 -0.006173 -199814.000000 1 0 0
-19.555351 5.040306 7.854659 21.668228 -0.252255 1.199851 0.076231 -0.040509 -581486.000000 1 0 0
-16.443451 0.388106 0.826959 16.468806 -0.023598 1.520562 0.035994 -0.007392 788183.000000 1 0 0
-17.581751 3.662706 6.823659 19.211863 -0.205387 1.207690 0.033810 -0.024004 848195.000000 1 0 0
-15.473951 3.914906 -1.504141 16.032220 -0.247800 1.664754 0.014272 0.000064 -2021360.000000 1 0 0
-10.772451 13.264406 0.404859 17.092515 -0.888701 1.547108 0.013264 -0.009571 -497024.000000 1 0 0
-13.526851 3.218006 0.053459 13.904464 -0.233556 1.566952 0.003318 0.002129 -853580.000000 1 0 0
-15.161551 0.101006 -4.334641 15.769335 -0.006662 1.849259 0.015459 -0.007553 828450.000000 1 0 0
-18.710351 6.732906 3.465559 20.184631 -0.345422 1.398248 0.030165 -0.014201 -344210.000000 1 0 0
-14.130251 1.241706 -6.351541 15.541811 -0.087651 1.991798 0.012028 -0.002876 -312442.000000 1 0 0
-14.144551 12.247406 5.289259 19.443342 -0.713638 1.295290 0.001668 -0.007876 -53851.000000 1 0 0
17.787449 5.489806 6.241259 19.633763 0.299359 1.247299 0.100568 -0.018764 -223987.000000 1 0 0
18.552649 7.795006 -0.386041 20.127393 0.397761 1.589977 0.061356 0.002591 700492.000000 1 0 0
16.609449 5.346706 8.547759 19.430009 0.311432 1.115280 0.109510 -0.016104 384902.000000 1 0 0
11.746849 12.356806 10.933859 20.254096 0.810698 1.000556 0.048023 -0.013500 641634.000000 1 0 0
-2.338051 16.112006 -0.474841 16.287685 -1.426690 1.599954 -0.003328 -0.005192 260655.000000 1 0 0
15.068549 12.742606 3.345159 20.015626 0.701959 1.402881 0.087024 -0.012691 439497.000000 1 0 0
13.590649 11.785606 6.760159 19.217336 0.714387 1.211331 0.065870 -0.011394 907262.000000 1 0 0
-0.827051 15.957406 8.675759 18.182179 -1.519014 1.073379 0.025151 -0.004243 -131639.000000 1 0 0
0.650449 12.928006 9.443959 16.023258 1.520526 0.940492 0.014439 -0.002538 231682.000000 1 0 0
0.616049 15.614206 -3.875141 16.099679 1.531362 1.813880 0.007239 -0.007184 410403.000000 1 0 0
5.438449 10.456806 13.473259 17.901124 1.091209 0.718721 0.031028 -0.008832 -110677.000000 1 0 0
-1.603951 16.442706 -2.849141 16.764631 -1.473556 1.741575 0.003146 -0.001701 -875991.000000 1 0 0
8.481049 10.111606 3.312159 13.606733 0.872873 1.324905 0.008395 -0.003277 324206.000000 1 0 0
12.671349 13.618906 -4.816241 19.215459 0.821425 1.824142 0.116244 -0.026226 1890880.000000 1 0 0
2.419749 11.623306 7.840759 14.227928 1.365547 0.987136 0.013481 0.003031 331859.000000 1 0 0
-0.333851 14.835406 -8.395841 17.049659 -1.548296 2.085681 0.014413 -0.007926 -2422980.000000 1 0 0
2.254949 15.987706 0.281059 16.148391 1.430678 1.553391 0.013324 -0.010784 -867813.000000 1 0 0
1.796849 13.466206 5.355659 14.603098 1.438146 1.195285 0.009677 0.004481 904354.000000 1 0 0
17.392449 9.250806 -2.234041 19.825883 0.488830 1.683719 0.033397 0.003848 -19821.800000 1 0 0
-7.341651 14.965106 7.290059 18.193383 -1.114709 1.158517 0.012719 -0.012663 -537288.000000 1 0 0
8.413349 15.898706 -0.078341 17.987758 1.084075 1.575152 0.036117 -0.018723 -495286.000000 1 0 0
15.570749 10.446506 2.084059 18.865869 0.590932 1.460103 0.062352 -0.001709 994621.000000 1 0 0
14.281649 7.448806 8.729959 18.321092 0.480750 1.074129 0.075869 -0.018791 -824326.000000 1 0 0
4.244449 18.395206 -1.941741 18.978127 1.344028 1.673290 0.023422 -0.025010 -325129.000000 1 0 0
-0.681751 17.650606 -4.807441 18.306288 -1.532191 1.836524 0.022333 -0.002685 175828.000000 1 0 0
1.273849 13.763006 -0.724641 13.840814 1.478503 1.623176 0.004890 -0.004723 63474.000000 1 0 0
10.080349 14.730606 4.221659 18.341936 0.970676 1.338550 0.028632 -0.018097 1361190.000000 1 0 0
-1.647951 15.234906 -5.187441 16.177999 -1.463046 1.897210 0.009109 -0.003056 -112635.000000 1 0 0
14.941049 8.975206 -6.244341 18.514348 0.540940 1.914812 0.064317 -0.007559 355085.000000 1 0 0
-2.385251 18.342406 0.740959 18.511680 -1.441482 1.530759 0.005851 -0.010466 -1029130.000000 1 0 0
-3.720451 19.293206 3.476459 19.953830 -1.380297 1.395677 0.011858 -0.011787 153973.000000 1 0 0
1.824349 17.809506 -2.652541 18.098142 1.468716 1.717890 0.016439 -0.008823 -170031.000000 1 0 0
2.821449 12.125206 3.348559 12.891627 1.342172 1.308036 0.003478 0.001926 -557241.000000 1 0 0
-2.632251 16.106006 1.962459 16.437257 -1.408796 1.451120 0.000505 -0.003333 -173082.000000 1 0 0
11.701049 12.773806 -2.529641 17.506678 0.829201 1.715800 0.060210 -0.006277 59939.600000 1 0 0
7.134949 11.677906 4.765459 14.491052 1.022343 1.235705 0.001083 -0.003112 178287.000000 1 0 0
6.968549 15.841006 1.960859 17.416748 1.156368 1.457972 0.014716 -0.017549 -2042480.000000 1 0 0
5.435749 12.277106 10.289959 16.916204 1.153984 0.916892 0.016306 0.002015 -1312770.000000 1 0 0
-1.377651 14.206206 3.283359 14.645636 -1.474123 1.344688 -0.001462 0.003760 -1052130.000000 1 0 0
4.552649 16.207106 1.469059 16.898374 1.296949 1.483751 0.014541 -0.019248 -3700120.000000 1 0 0
7.267449 13.153306 11.939359 19.193061 1.066021 0.899417 0.027019 -0.010077 140034.000000 1 0 0
0.456749 17.165106 -9.405641 19.578446 1.544193 2.071916 0.025126 -0.007020 517864.000000 1 0 0
9.783349 9.662506 15.386159 20.635209 0.779184 0.729322 0.045327 -0.008645 -279110.000000 1 0 0
13.485849 7.549906 -0.203841 15.456739 0.510366 1.583985 0.014084 0.001049 -127867.000000 1 0 0
12.426749 13.511106 -0.163341 18.357581 0.827180 1.579694 0.071076 -0.011416 694859.000000 1 0 0
9.332649 12.417506 3.474559 15.917455 0.926290 1.350738 0.015374 -0.005983 342604.000000 1 0 0
-0.637751 12.917906 0.784259 12.957395 -1.521467 1.510233 0.003070 -0.001158 -1866980.000000 1 0 0
16.007949 7.396206 -1.011841 17.663016 0.432816 1.628114 0.032969 0.003335 -1623720.000000 1 0 0
-4.464151 18.416606 -2.232041 19.080934 -1.332985 1.688042 0.028034 -0.005659 -48323.800000 1 0 0
11.581849 9.324306 -3.139841 15.196727 0.677830 1.778908 0.031292 -0.002781 265072.000000 1 0 0
14.726949 9.772206 7.752759 19.299853 0.585848 1.157423 0.070840 -0.019249 1313410.000000 1 0 0
4.403549 13.746206 4.754659 15.197244 1.260779 1.252590 0.015779 -0.003014 311963.000000 1 0 0
2.082849 16.034606 5.722659 17.152134 1.441622 1.230633 0.027124 -0.007401 191510.000000 1 0 0
6.154849 18.361306 5.479659 20.125765 1.247360 1.295044 0.036141 -0.025554 -122655.000000 1 0 0
10.625249 17.069506 -0.671141 20.117515 1.014019 1.604164 0.106930 -0.024749 -709770.000000 1 0 0
10.008149 13.679206 -4.335541 17.495161 0.939155 1.821219 0.085179 -0.015148 229671.000000 1 0 0
16.683149 7.984806 2.435759 18.655228 0.446394 1.439855 0.038397 0.003123 451124.000000 1 0 0
3.927149 14.214006 -0.587141 14.758225 1.301234 1.610591 0.003800 -0.006224 547482.000000 1 0 0
5.608449 13.193406 -2.397041 14.535009 1.168845 1.736468 0.004900 -0.006442 188651.000000 1 0 0
-6.335051 16.856206 -2.990341 18.253950 -1.211299 1.735357 0.016602 0.002092 -1878790.000000 1 0 0
18.185449 10.080506 2.739159 20.972128 0.506152 1.439813 0.090122 -0.005770 324035.000000 1 0 0
7.869949 12.980606 9.442959 17.877408 1.025768 1.014310 0.016045 -0.005466 480545.000000 1 0 0
-2.635351 15.698406 6.722459 17.279366 -1.404473 1.171201 0.007908 -0.006829 295782.000000 1 0 0
11.100949 15.998706 6.211359 20.439439 0.964199 1.262022 0.047753 -0.019122 2407.940000 1 0 0
13.515449 11.998606 1.411659 18.128064 0.726017 1.492846 0.060253 -0.008374 -80206.500000 1 0 0
17.363849 8.301506 -5.541141 20.028043 0.445968 1.851123 0.058835 0.015088 33724.400000 1 0 0
9.499549 9.254806 8.057059 15.518024 0.772349 1.024874 0.014306 -0.005115 98329.800000 1 0 0
-2.112351 14.100506 -1.988341 14.395826 -1.422095 1.709359 -0.003077 0.000637 487986.000000 1 0 0
10.850649 11.683006 0.826059 15.965951 0.822320 1.519034 0.031061 -0.000286 -137258.000000 1 0 0
11.734449 9.808806 -0.466741 15.301236 0.696250 1.601305 0.026355 -0.000048 -600451.000000 1 0 0
-0.584251 16.442706 11.273559 19.944851 -1.535279 0.970076 0.045101 -0.001727 267543.000000 1 0 0
2.292949 20.194406 -1.608641 20.387726 1.457737 1.649781 0.032790 -0.020731 -627100.000000 1 0 0
9.050849 14.303506 1.796159 17.021585 1.006628 1.465077 0.023792 -0.015214 -395942.000000 1 0 0
8.486949 11.734706 -5.148441 15.370038 0.944646 1.912366 0.031333 -0.005191 -939620.000000 1 0 0
10.535249 10.092106 10.274259 17.843836 0.763918 0.957229 0.018182 -0.007251 -106821.000000 1 0 0
-5.165751 15.686606 5.824959 17.512417 -1.252671 1.231717 -0.010051 -0.004417 -1185770.000000 1 0 0
14.425249 9.183806 -1.830441 17.198274 0.566932 1.677430 0.042367 0.004309 -599719.000000 1 0 0
12.170249 9.586606 6.904359 16.961373 0.667201 1.151559 0.033229 -0.013342 -1063390.000000 1 0 0
3.077849 13.026606 9.875259 16.633892 1.338777 0.935168 0.018778 -0.004661 -37778.300000 1 0 0
8.519049 12.663806 -2.632641 15.487963 0.978623 1.741605 0.033531 -0.005998 -1135950.000000 1 0 0
9.281249 16.901306 2.211859 19.408453 1.068611 1.456584 0.024420 -0.022319 -608722.000000 1 0 0
9.555249 14.455206 -7.596741 18.919996 0.986710 1.983971 0.099234 -0.021195 422032.000000 1 0 0
6.405249 11.482506 7.346759 15.061542 1.061964 1.061248 0.000106 0.001180 -1140150.000000 1 0 0
5.455549 17.054606 -5.472541 18.723550 1.261196 1.867408 0.047312 -0.012471 -1129600.000000 1 0 0
-4.145351 17.223406 -4.526941 18.284497 -1.334607 1.820982 0.012707 -0.001998 -38023.700000 1 0 0
-0.072751 18.715506 -0.444141 18.720917 -1.566909 1.594523 0.014965 -0.009636 -209972.000000 1 0 0
6.442049 15.750706 -2.861141 17.256039 1.182555 1.737371 0.022447 -0.008806 1403120.000000 1 0 0
-1.033251 20.596006 1.048759 20.648559 -1.520671 1.519984 0.011637 -0.011012 -128712.000000 1 0 0
-1.361951 18.799706 4.416659 19.359513 -1.498477 1.340631 0.013368 -0.007999 -35483.900000 1 0 0
7.241449 13.853106 -4.362541 16.228953 1.089130 1.842956 0.024291 -0.004603 -413422.000000 1 0 0
-1.119551 11.999706 7.699759 14.301491 -1.477767 1.002273 0.006058 0.005074 448632.000000 1 0 0
7.648749 10.903506 10.874959 17.194608 0.959068 0.886067 0.009593 -0.004473 285567.000000 1 0 0
1.534149 16.143906 -7.264641 17.769477 1.476051 1.991965 0.017998 -0.007294 -522071.000000 1 0 0
8.947649 7.227806 14.901359 18.824243 0.679472 0.657366 0.040369 0.003192 199509.000000 1 0 0
11.243949 11.403406 -4.771441 16.710198 0.792439 1.860367 0.073180 -0.008270 -1187430.000000 1 0 0
-3.370751 16.973706 4.549659 17.893241 -1.374760 1.313707 -0.005935 -0.002473 -469709.000000 1 0 0
3.958349 15.376406 -6.692841 17.230685 1.318837 1.969719 0.031496 -0.016680 -775081.000000 1 0 0
-4.502151 14.040706 9.457559 17.517312 -1.260504 1.000481 0.017260 -0.013507 -737093.000000 1 0 0
6.244749 17.953306 0.437059 19.013393 1.236053 1.547807 0.017708 -0.020001 -228424.000000 1 0 0
9.810049 10.728506 -2.115441 14.690575 0.830087 1.715299 0.036558 -0.003229 -1900030.000000 1 0 0
7.403049 18.234306 -2.668641 19.859927 1.185132 1.705577 0.048145 -0.018188 -66242.100000 1 0 0
3.478249 10.445606 10.613359 15.292230 1.249358 0.803716 0.012606 0.003090 568698.000000 1 0 0
-0.090451 18.502206 2.095559 18.620719 -1.565908 1.458018 0.014136 -0.013565 179696.000000 1 0 0
-0.962751 17.114906 -7.353841 18.652771 -1.514603 1.976047 0.028912 -0.008866 -669496.000000 1 0 0
10.155949 8.728406 13.108159 18.739056 0.709948 0.796085 0.039905 -0.003991 151370.000000 1 0 0
3.588349 11.511706 5.603059 13.296236 1.268629 1.135806 0.003651 0.004886 567194.000000 1 0 0
12.834449 13.881106 8.188559 20.602444 0.824556 1.162054 0.053594 -0.023648 -265690.000000 1 0 0
-0.686051 17.527106 6.785059 18.807104 -1.531674 1.201702 0.030886 -0.008985 -450968.000000 1 0 0
11.988049 13.590906 5.721159 19.004150 0.847979 1.265005 0.046419 -0.017927 261913.000000 1 0 0
4.773749 14.655506 -4.431641 16.037830 1.255904 1.850764 0.015333 -0.008257 -387669.000000 1 0 0
3.791849 17.594206 4.652359 18.589746 1.358526 1.317843 0.033832 -0.017327 537289.000000 1 0 0
6.962149 11.722406 2.075059 13.791019 1.034861 1.419758 0.008925 -0.003140 1023000.000000 1 0 0
6.366649 8.771206 11.780259 16.007585 0.942926 0.743776 0.014782 -0.002934 713246.000000 1 0 0
-5.549351 14.796906 1.809359 15.906524 -1.211995 1.456800 -0.000470 0.001770 149375.000000 1 0 0
6.718049 13.840506 6.029259 16.524036 1.118905 1.197294 0.010018 -0.005812 -974607.000000 1 0 0
5.795149 15.849106 4.736359 17.527436 1.220252 1.297169 0.011781 -0.019543 516533.000000 1 0 0
1.198949 17.976506 4.296059 18.521565 1.504200 1.336715 0.043729 -0.016612 -715592.000000 1 0 0
7.239449 18.173106 -6.960841 20.763543 1.191704 1.912660 0.046646 -0.017575 3374.810000 1 0 0
-2.665651 18.661506 -6.027241 19.791037 -1.428914 1.880256 0.038784 -0.005715 -2967240.000000 1 0 0
13.407949 10.170306 -4.488041 17.416967 0.648937 1.831419 0.050752 -0.003890 -2758300.000000 1 0 0
-1.818751 18.141306 9.884659 20.739367 -1.470876 1.073998 0.046114 -0.013615 -583408.000000 1 0 0
3.356949 11.933806 -1.527241 12.490689 1.296585 1.693373 0.005335 -0.005223 -51249.000000 1 0 0
4.213349 14.134106 -10.726741 18.237002 1.281085 2.199610 0.027840 -0.020436 -836394.000000 1 0 0
11.501349 13.484606 2.386059 17.883202 0.864607 1.436973 0.052237 -0.012378 1360020.000000 1 0 0
16.129449 6.824606 -7.205541 18.938168 0.400273 1.961109 0.062396 0.006885 639282.000000 1 0 0
2.523449 16.129506 2.994259 16.598023 1.415605 1.389405 0.018739 -0.009785 144950.000000 1 0 0
13.501549 10.690406 3.623959 17.598571 0.669715 1.363389 0.045410 -0.002628 -594538.000000 1 0 0
-5.130551 19.416106 -5.628041 20.856236 -1.312459 1.844033 0.028397 -0.013026 558477.000000 1 0 0
5.426149 12.212406 0.041059 13.363669 1.152680 1.567724 0.004520 -0.006628 652664.000000 1 0 0
4.717449 15.546806 9.591659 18.866834 1.276191 1.037485 0.035829 -0.009010 -65551.400000 1 0 0
7.790649 9.408706 13.898959 18.504028 0.879199 0.721022 0.033644 -0.011238 -698398.000000 1 0 0
-5.128251 13.614706 6.959659 16.127493 -1.210562 1.124597 -0.003182 -0.000227 -2038320.000000 1 0 0
-4.612651 17.029506 0.522659 17.650887 -1.306281 1.541181 0.005828 -0.004326 -1271650.000000 1 0 0
-0.661751 16.448306 3.691759 16.870500 -1.530586 1.350182 0.013315 -0.007119 -1778920.000000 1 0 0
7.919049 16.984606 -4.799841 19.344939 1.134513 1.821534 0.049646 -0.019758 765103.000000 1 0 0
2.978149 16.499506 -4.608441 17.387950 1.392220 1.839038 0.009992 -0.009731 280390.000000 1 0 0
9.527049 14.461706 8.154359 19.141557 0.988275 1.130726 0.021012 -0.011028 129463.000000 1 0 0
12.715849 10.838206 9.090459 19.020935 0.705850 1.072513 0.049122 -0.020338 1154780.000000 1 0 0
3.853349 12.502606 12.254059 17.925552 1.271830 0.818101 0.031588 -0.005734 497582.000000 1 0 0
-3.494351 19.254906 5.913959 20.443503 -1.391272 1.277319 0.022214 -0.008101 299988.000000 1 0 0
-2.919251 15.801806 10.209259 19.038069 -1.388114 1.004802 0.027859 -0.012180 73579.900000 1 0 0
2.045849 14.318506 7.779259 16.423215 1.428875 1.077338 0.026044 -0.004618 -136083.000000 1 0 0
4.512249 17.320306 7.687859 19.479645 1.315943 1.165097 0.045179 -0.018947 -39871.400000 1 0 0
-1.907851 13.524606 9.467059 16.618667 -1.430656 0.964699 0.015755 -0.004100 -1115080.000000 1 0 0
5.758949 17.802606 3.022259 18.953425 1.257932 1.410656 0.010553 -0.023551 402891.000000 1 0 0
7.176849 15.486106 -6.781141 18.366015 1.136824 1.948968 0.033909 -0.010623 -337291.000000 1 0 0
10.922049 7.656806 9.439459 16.340784 0.611424 0.954934 0.015266 -0.008436 322021.000000 1 0 0
9.025049 16.256206 -2.573641 18.770705 1.063988 1.708339 0.074284 -0.023476 -669891.000000 1 0 0
14.206349 11.459206 -6.566841 19.397349 0.678768 1.916165 0.093017 -0.019671 368523.000000 1 0 0
11.043149 6.184906 16.203759 20.561275 0.510540 0.663126 0.091310 -0.021940 366829.000000 1 0 0
8.464949 8.489706 10.269059 15.785565 0.786858 0.862508 0.010814 -0.002210 -313299.000000 1 0 0
16.455749 9.545206 4.526159 19.554763 0.525623 1.337217 0.070294 -0.008706 113290.000000 1 0 0
-3.484251 14.294706 4.637759 15.426841 -1.331714 1.265444 -0.003745 0.002346 -1075570.000000 1 0 0
4.872449 14.866006 12.722659 20.164448 1.254072 0.888026 0.047629 -0.006071 -182315.000000 1 0 0
15.894349 10.797306 -4.681641 19.777005 0.596710 1.809786 0.077316 -0.015597 -392216.000000 1 0 0
14.582649 14.093506 6.216959 21.211581 0.768342 1.273336 0.083302 -0.013509 -676754.000000 1 0 0
6.153449 9.537106 9.283659 14.663140 0.997795 0.885207 0.005267 0.002266 1159360.000000 1 0 0
10.391249 12.178306 8.757659 18.247898 0.864413 1.070225 0.030596 -0.011871 207490.000000 1 0 0
7.977449 11.511906 -0.329741 14.009726 0.964802 1.594335 0.008518 -0.004859 5634.120000 1 0 0
7.347849 13.493406 -8.578741 17.597093 1.072146 2.080031 0.050812 -0.020743 -393443.000000 1 0 0
2.626849 15.414606 -2.229841 15.795019 1.402005 1.712443 0.012179 -0.011170 591091.000000 1 0 0
12.209549 14.087206 -7.844141 20.225059 0.856680 1.969086 0.133597 -0.029448 654557.000000 1 0 0
-8.091151 14.595506 9.793259 19.349508 -1.064613 1.040111 0.031654 -0.021015 300813.000000 1 0 0
11.476449 9.692406 2.313659 15.198837 0.701320 1.417976 0.029303 -0.001477 -1930180.000000 1 0 0
12.016049 8.653206 4.542259 15.488562 0.624114 1.273156 0.025833 -0.004901 273680.000000 1 0 0
14.063149 8.029706 6.101559 17.305415 0.518804 1.210469 0.040630 -0.013012 -1963500.000000 1 0 0
16.277749 7.478806 7.048959 19.250597 0.430684 1.195908 0.103012 -0.021606 586589.000000 1 0 0
13.561949 8.361706 2.322659 16.100911 0.552504 1.426035 0.029658 0.000502 -1156970.000000 1 0 0
-4.452951 17.225806 -7.146041 19.173499 -1.317829 1.952718 0.017035 -0.013654 185398.000000 1 0 0
3.202049 19.550906 -3.906341 20.192834 1.408458 1.765476 0.042912 -0.022050 457552.000000 1 0 0
-0.098051 14.974506 6.432659 16.297992 -1.564249 1.165066 0.014826 0.000169 -373305.000000 1 0 0
6.764149 16.125106 8.155259 19.294585 1.173611 1.134406 0.031376 -0.015871 -2457270.000000 1 0 0
12.770949 15.081206 -2.140341 19.877650 0.868156 1.678681 0.125581 -0.023923 -319700.000000 1 0 0
12.566249 15.701206 4.165059 20.537434 0.895850 1.366576 0.069488 -0.018627 198489.000000 1 0 0
2.878449 18.196606 1.405259 18.476382 1.413910 1.494666 0.021960 -0.017854 -559558.000000 1 0 0
10.282349 14.476506 -1.203541 17.797316 0.953205 1.638473 0.066824 -0.007853 -759293.000000 1 0 0
-6.385551 15.762806 -0.519741 17.015036 -1.185899 1.601347 0.005542 -0.000256 -696736.000000 1 0 0
-4.064651 15.801206 -2.461041 16.500189 -1.319018 1.720507 0.010460 -0.001076 -1393670.000000 1 0 0
-6.923051 17.080906 1.687959 18.507706 -1.185721 1.479466 0.018210 -0.003732 -357329.000000 1 0 0
-0.183551 19.477806 -6.389441 20.499843 -1.561373 1.887759 0.041794 -0.013080 17864.400000 1 0 0
4.787749 14.979206 7.031259 17.226078 1.261432 1.150342 0.027265 -0.006987 -466223.000000 1 0 0
8.647049 12.348406 6.902759 16.580189 0.959898 1.141396 0.014465 -0.008830 -431774.000000 1 0 0
-7.664151 17.477906 -5.728541 19.925677 -1.157543 1.862407 0.031050 -0.009420 182631.000000 1 0 0
-8.024951 17.648706 -1.237741 19.427009 -1.144037 1.634552 0.049773 -0.006827 -204240.000000 1 0 0
-13.895651 -9.254294 9.082059 19.005653 0.587530 1.072578 0.048023 -0.023495 535721.000000 1 0 0
-12.806451 -13.066994 7.519559 19.781185 0.795468 1.180852 0.057390 -0.017623 20829.000000 1 0 0
-3.664851 -15.318294 12.431859 20.065702 1.335964 0.902617 0.028574 -0.016116 301880.000000 1 0 0
-2.194351 -14.131794 14.796959 20.578454 1.416749 0.768360 0.054709 -0.020102 -127836.000000 1 0 0
-7.549951 -13.832894 12.367059 20.032345 1.071186 0.905421 0.052482 -0.020058 31288.200000 1 0 0
-9.924051 -11.570894 8.910659 17.657073 0.861864 1.041819 0.033967 -0.015906 723991.000000 1 0 0
-10.584351 -10.671994 11.296359 18.802331 0.789521 0.926300 0.052335 -0.027954 146066.000000 1 0 0
-6.087051 -12.378094 10.691759 17.452310 1.113762 0.911416 0.030850 -0.009092 665907.000000 1 0 0
-12.525551 -10.380694 7.151459 17.770526 0.692034 1.156623 0.026321 -0.013611 148416.000000 1 0 0
-7.703851 -11.213094 12.283559 18.329447 0.968821 0.836380 0.035310 -0.024367 -295111.000000 1 0 0
-14.859851 -11.494494 7.263059 20.141762 0.658389 1.201888 0.053437 -0.010006 -43979.600000 1 0 0
-11.288751 -9.257094 9.191559 17.251505 0.686835 1.008893 0.029964 -0.011499 -802675.000000 1 0 0
-5.551551 -12.361794 13.183259 18.905872 1.148700 0.799158 0.038107 -0.013689 -587067.000000 1 0 0
4.040649 -12.419494 14.877959 19.797079 -1.256250 0.720429 0.010319 -0.005844 459074.000000 1 0 0
6.581349 -12.785094 14.248559 20.243375 -1.095405 0.789975 0.041171 -0.002553 406743.000000 1 0 0
6.711149 -8.267894 15.880259 19.120152 -0.888955 0.590700 0.045274 -0.024028 1346930.000000 1 0 0
0.662049 -1.753094 14.583159 14.703067 -1.209708 0.127800 0.007706 -0.005257 -1589930.000000 1 0 0
-0.159451 -6.365694 15.562059 16.814433 1.545753 0.388395 0.019315 -0.016736 -235234.000000 1 0 0
-1.559051 -4.699894 18.244859 18.904881 1.250498 0.265020 0.028092 -0.030992 -1787300.000000 1 0 0
-5.348451 12.713406 12.825159 18.834047 -1.172579 0.821729 0.016446 -0.010090 886498.000000 1 0 0
-4.036751 8.806606 11.613359 15.123551 -1.140997 0.695242 -0.003332 -0.000690 -547501.000000 1 0 0
-0.716951 -3.943194 15.055359 15.579687 1.390941 0.260173 0.011897 -0.010406 24216.600000 1 0 0
-4.735751 9.158806 14.189959 17.540411 -1.093586 0.628370 0.006615 -0.007867 287086.000000 1 0 0
-13.458651 -2.339894 16.920159 21.746314 0.172137 0.679208 0.037888 -0.001151 -650486.000000 1 0 0
-0.290851 0.790106 17.261559 17.282080 -1.218075 0.048737 0.009683 -0.005762 -515027.000000 1 0 0
-3.305651 -7.292794 15.409959 17.366030 1.145221 0.479204 0.017592 -0.014736 430874.000000 1 0 0
-7.487151 5.472906 12.503859 15.567807 -0.631212 0.638171 -0.003008 -0.002999 -1908610.000000 1 0 0
-9.948151 10.136606 13.279259 19.443642 -0.794781 0.818987 0.019458 -0.012832 -881775.000000 1 0 0
-5.581351 2.170706 11.076359 12.591631 -0.370919 0.495649 0.002964 0.001789 -1831310.000000 1 0 0
-7.096651 -7.456994 16.780359 19.686281 0.810153 0.550260 0.022987 -0.019395 -430414.000000 1 0 0
-4.669151 2.973506 18.567959 19.375547 -0.567069 0.289736 0.015131 -0.008576 500419.000000 1 0 0
0.772249 -8.447294 16.549959 18.597158 -1.479630 0.473629 0.027868 -0.018444 590026.000000 1 0 0
-15.024751 -3.637294 13.920659 20.802831 0.237517 0.837703 0.048940 -0.015985 10439.700000 1 0 0
-14.277851 2.480206 13.127259 19.553347 -0.171994 0.834759 0.011729 -0.011180 -2054170.000000 1 0 0
-5.635551 0.970906 15.996459 16.987902 -0.170608 0.343332 0.015250 -0.003365 410920.000000 1 0 0
4.527449 5.887506 15.210559 16.926950 0.915250 0.454228 0.009927 0.004842 276524.000000 1 0 0
-1.109351 -12.024594 13.706959 18.267519 1.478800 0.722211 0.013722 -0.014563 -26070.900000 1 0 0
-5.955851 -4.124794 16.775159 18.272713 0.605716 0.407677 0.015624 -0.010526 -112589.000000 1 0 0
-12.865151 -1.621594 9.833959 16.274164 0.125384 0.921949 0.002240 0.001901 -485224.000000 1 0 0
-15.133151 10.022806 9.986759 20.717245 -0.584979 1.067803 0.030963 -0.016052 454503.000000 1 0 0
-3.637551 -3.462394 17.687259 18.386383 0.760733 0.276649 0.018162 -0.016152 -1855760.000000 1 0 0
-7.945551 9.359606 11.863059 17.072381 -0.866930 0.802559 0.003917 -0.008209 83243.900000 1 0 0
-4.307651 10.594706 16.212059 19.840225 -1.184626 0.614380 0.000251 -0.013951 70053.400000 1 0 0
-12.453551 12.847506 8.205959 19.684692 -0.800968 1.140797 0.017688 -0.016542 1253.460000 1 0 0
-12.768451 3.150506 10.530959 16.848149 -0.241909 0.895599 0.000326 -0.006422 396641.000000 1 0 0
-10.159151 -3.381994 13.681959 17.373607 0.321362 0.664032 0.018833 -0.005988 -2204920.000000 1 0 0
-4.297251 -6.552594 17.715259 19.370939 0.990348 0.416458 0.026618 -0.018924 -661266.000000 1 0 0
0.808049 -3.764594 18.086759 18.492052 -1.359360 0.209751 0.029123 -0.021891 -1450730.000000 1 0 0
-6.067551 1.797706 13.527259 14.934312 -0.288042 0.437570 0.005026 0.000960 -1139600.000000 1 0 0
-10.553951 8.692006 10.268459 17.099067 -0.688954 0.926636 0.002089 -0.013505 -326834.000000 1 0 0
4.584649 2.388206 17.250159 18.008069 0.480238 0.291156 0.012453 -0.003130 378028.000000 1 0 0
0.514149 -5.332394 13.266659 14.307446 -1.474673 0.383781 0.009511 -0.007589 -1312080.000000 1 0 0
-4.265351 5.609206 20.504559 21.681636 -0.920660 0.331021 0.056525 -0.018836 -680653.000000 1 0 0
-11.013151 10.809506 9.026659 17.877793 -0.776067 1.041520 0.011742 -0.012947 178984.000000 1 0 0
0.609949 4.159506 13.133859 13.790279 1.425194 0.309783 0.004101 0.000904 -2405540.000000 1 0 0
-3.160551 7.180106 13.359159 15.492261 -1.156137 0.530979 -0.000973 0.001172 -733973.000000 1 0 0
0.686749 8.923806 14.107459 16.707075 1.493991 0.565352 0.010370 -0.004425 375395.000000 1 0 0
-4.264751 -6.705794 13.082659 15.307245 1.004340 0.545879 0.011885 -0.009004 121693.000000 1 0 0
-5.189151 8.123806 16.550159 19.152840 -1.002364 0.527417 0.011976 -0.000634 179007.000000 1 0 0
1.395449 -10.747694 15.707159 19.083371 -1.441682 0.603982 0.012332 -0.011173 -348370.000000 1 0 0
-15.338051 -1.140594 14.162659 20.907838 0.074227 0.826594 0.032546 -0.003821 191754.000000 1 0 0
-13.526451 -5.458394 8.718959 16.993504 0.383550 1.032032 0.027189 -0.007439 -995110.000000 1 0 0
-14.360151 -1.981894 12.012359 18.826540 0.137147 0.878827 0.026840 -0.006443 495095.000000 1 0 0
9.504149 1.091706 16.654259 19.206380 0.114365 0.521403 0.101067 -0.022785 -1407120.000000 1 0 0
4.857149 -6.814394 17.038459 18.982543 -0.951546 0.456534 0.052297 -0.020720 -497320.000000 1 0 0
-6.261551 -2.723394 11.154959 13.078876 0.410259 0.549283 0.003812 -0.001906 -476168.000000 1 0 0
0.422049 -6.374094 18.044659 19.142020 -1.504680 0.340246 0.037733 -0.032832 -246109.000000 1 0 0
-8.460151 11.853906 11.997959 18.869029 -0.950934 0.881681 0.015117 -0.015314 144865.000000 1 0 0
-6.683051 -5.812794 14.765359 17.218234 0.715867 0.540324 0.017037 -0.010536 -758325.000000 1 0 0
-4.459951 -9.035694 17.010459 19.770955 1.112288 0.534789 0.034753 -0.023335 303620.000000 1 0 0
2.424049 -6.427794 16.453259 17.829815 -1.210168 0.395524 0.038400 -0.017820 -475496.000000 1 0 0
2.142849 5.337906 16.071759 17.070047 1.189049 0.343689 0.006266 -0.002080 -1912940.000000 1 0 0
0.825649 -8.818594 13.963659 16.535812 -1.477443 0.565260 0.015329 -0.009574 -604015.000000 1 0 0
-9.914851 -2.879194 11.139659 15.188352 0.282619 0.747436 -0.001030 0.002281 -653314.000000 1 0 0
-1.366951 10.065206 12.339059 15.982156 -1.435813 0.688732 0.005799 -0.005180 -356319.000000 1 0 0
-12.448151 -3.703194 11.343359 17.243605 0.289152 0.852862 0.018501 0.001486 -102059.000000 1 0 0
-1.913951 6.571306 20.200959 21.328948 -1.287378 0.326675 0.037979 -0.008076 -688540.000000 1 0 0
0.152049 -13.449094 15.662159 20.644720 -1.559491 0.709555 0.015780 -0.013829 -618296.000000 1 0 0
4.124249 -8.762394 15.340059 18.141290 -1.130882 0.563130 0.031994 -0.015153 201817.000000 1 0 0
4.252149 -4.529394 16.192259 17.343167 -0.816959 0.366355 0.053736 -0.020626 -750082.000000 1 0 0
8.041549 1.823506 14.699559 16.854339 0.222990 0.511211 0.018496 0.000364 -285023.000000 1 0 0
-6.418451 -0.163694 11.824059 13.454801 0.025498 0.497458 0.004438 0.001054 163269.000000 1 0 0
-3.497451 -10.796394 18.528159 21.727562 1.257518 0.549570 0.060285 -0.026413 -568253.000000 1 0 0
3.235849 -1.525394 13.648559 14.109597 -0.440511 0.256339 0.005786 -0.002503 876536.000000 1 0 0
-2.689851 8.543306 15.731859 18.102894 -1.265773 0.517569 0.010476 -0.010598 -480231.000000 1 0 0
-3.372951 3.916306 14.890759 15.762264 -0.859803 0.334089 0.006110 -0.000515 -801036.000000 1 0 0
-5.154351 -8.979494 19.583159 22.151722 1.049704 0.486346 0.068530 -0.033051 43749.500000 1 0 0
-5.724451 -3.037794 19.097559 20.167159 0.487881 0.327146 0.024402 -0.018128 -1458450.000000 1 0 0
-6.757751 -8.683994 11.091659 15.623823 0.909500 0.781412 0.017985 -0.010252 -452969.000000 1 0 0
-11.699851 2.449106 12.687359 17.431400 -0.206348 0.755622 -0.002480 -0.010961 -692248.000000 1 0 0
-11.744651 -7.700794 11.717959 18.290697 0.580361 0.875450 0.036817 -0.017546 -609206.000000 1 0 0
-11.116551 -7.272194 15.671759 20.544258 0.579306 0.703119 0.046786 -0.031111 -337587.000000 1 0 0
0.294549 5.683506 17.757459 18.647154 1.519017 0.310150 0.011628 -0.003604 -298016.000000 1 0 0
-2.264251 -0.207594 13.248459 13.442158 0.091428 0.169968 0.008714 -0.000930 261478.000000 1 0 0
-6.082151 -10.784394 17.945259 21.802019 1.057286 0.603947 0.063447 -0.030477 269554.000000 1 0 0
0.303649 2.628106 19.185659 19.367206 1.455767 0.137030 0.019638 -0.011097 -280681.000000 1 0 0
-0.966651 10.893806 14.792459 18.396366 -1.482294 0.636642 0.017347 -0.010176 -619653.000000 1 0 0
-12.878651 -2.161694 14.286059 19.355207 0.166301 0.740548 0.025871 -0.007230 706109.000000 1 0 0
-13.814651 8.383706 11.605259 19.895053 -0.545456 0.947981 0.012773 -0.021536 116825.000000 1 0 0
-18.014851 -0.743794 6.832059 19.281211 0.041264 1.208591 0.077504 -0.030168 136107.000000 1 0 0
-2.169451 -7.952294 17.606959 19.440949 1.304469 0.437854 0.023260 -0.023459 -2593650.000000 1 0 0
5.611249 2.681406 14.439059 15.721402 0.445781 0.406695 0.008798 0.002420 -1119640.000000 1 0 0
-14.224051 -7.113294 11.125159 19.408548 0.463719 0.960379 0.053166 -0.019117 156242.000000 1 0 0
3.109549 7.799706 16.251859 18.292830 1.191433 0.476888 0.015613 -0.011607 -306320.000000 1 0 0
0.851849 2.019606 14.701259 14.863764 1.171648 0.148006 0.004926 -0.000620 -1298830.000000 1 0 0
-14.433951 0.500106 9.738259 17.419034 -0.034634 0.977546 0.017024 -0.006534 -1538790.000000 1 0 0
-9.562451 -5.148694 15.464059 18.896736 0.493916 0.612270 0.029363 -0.013313 -107099.000000 1 0 0
-2.519551 -0.228594 18.100859 18.276802 0.090480 0.138867 0.015746 -0.013001 163569.000000 1 0 0
6.789849 3.665106 17.448959 19.078816 0.494972 0.416347 0.038513 -0.006494 -320705.000000 1 0 0
-4.342751 -0.889694 14.671259 15.326346 0.202073 0.293430 0.016386 -0.001810 1183170.000000 1 0 0
4.985849 -9.270294 17.703659 20.596519 -1.077344 0.536415 0.051834 -0.015950 -386386.000000 1 0 0
1.872649 6.899906 13.443759 15.226627 1.305778 0.488770 0.008954 -0.000198 -460783.000000 1 0 0
-3.838251 -0.770594 20.247259 20.622257 0.198133 0.190995 0.025100 -0.017746 -58530.800000 1 0 0
-10.642451 1.637406 16.331159 19.561432 -0.152659 0.582908 0.010515 -0.006251 -481261.000000 1 0 0
-3.749551 6.963106 18.372559 20.002373 -1.076834 0.406478 0.015439 -0.008549 442950.000000 1 0 0
-12.776751 1.212406 14.779559 19.574235 -0.094608 0.715063 0.013414 -0.006576 1117020.000000 1 0 0
-15.986751 -4.968694 8.344959 18.705680 0.301336 1.108372 0.048746 -0.023875 -1465490.000000 1 0 0
-2.434751 0.651606 15.704859 15.905823 -0.261499 0.159131 0.013131 -0.003096 208628.000000 1 0 0
-13.690551 -8.791394 13.054659 20.860103 0.570837 0.894615 0.055349 -0.033210 294234.000000 1 0 0
6.019149 -3.256694 14.611359 16.134684 -0.495950 0.438035 0.035392 -0.014502 744308.000000 1 0 0
-15.740351 0.649906 7.462459 17.431848 -0.041266 1.128414 0.029299 -0.016511 587984.000000 1 0 0
-13.941351 5.950206 12.590659 19.705099 -0.403397 0.877658 0.013902 -0.013727 -593066.000000 1 0 0
0.165349 9.525906 16.630659 19.166352 1.553440 0.520238 0.014972 -0.009139 -332902.000000 1 0 0
-10.467451 -5.496794 10.864759 16.056938 0.483551 0.827607 0.019025 -0.008358 -66359.700000 1 0 0
-3.352251 -11.127694 14.865859 18.869471 1.278190 0.663525 0.033915 -0.016952 347308.000000 1 0 0
-3.608551 2.651806 12.635959 13.406013 -0.633746 0.340586 0.006952 0.002648 -1440470.000000 1 0 0
-12.464651 -7.805294 7.366659 16.448641 0.559458 1.106428 0.025539 -0.009740 162793.000000 1 0 0
-8.206851 -1.934094 13.156059 15.626100 0.231445 0.569949 0.010102 -0.001050 -776954.000000 1 0 0
-9.900751 6.463506 9.434259 15.126368 -0.578362 0.897334 0.000441 -0.010258 -740972.000000 1 0 0
-17.863951 -3.481694 6.564459 19.347740 0.192487 1.224636 0.067039 -0.026919 562584.000000 1 0 0
-1.324651 -0.194594 20.523959 20.567583 0.145859 0.065142 0.023498 -0.011606 -1140270.000000 1 0 0
-2.785551 2.495206 20.281659 20.623556 -0.730472 0.182340 0.031450 -0.007097 -474198.000000 1 0 0
-3.838151 11.260006 11.030359 16.223069 -1.242282 0.823145 0.006674 -0.009696 -1617200.000000 1 0 0
-4.244751 -4.844494 14.875359 16.209977 0.851286 0.408628 0.013355 -0.010923 519750.000000 1 0 0
-0.072351 -14.322194 13.229259 19.497276 1.565745 0.825053 0.018111 -0.011316 -1342310.000000 1 0 0
-12.134251 0.310906 8.362759 14.740164 -0.025617 0.967518 -0.006478 0.001653 -150174.000000 1 0 0
-7.854651 2.011806 15.310659 17.325103 -0.250739 0.487030 0.007536 -0.005350 -1053820.000000 1 0 0
3.405349 -2.221794 18.563359 19.003449 -0.578090 0.215631 0.036904 -0.014693 -432974.000000 1 0 0
-2.238251 4.874906 12.619459 13.712229 -1.140370 0.401932 -0.002250 0.003023 102509.000000 1 0 0
-10.439751 -6.282894 13.342659 18.069026 0.541760 0.740061 0.023341 -0.013354 -655864.000000 1 0 0
2.264349 -3.789194 14.378759 15.041077 -1.032158 0.297862 0.013962 -0.008872 -907072.000000 1 0 0
6.939249 1.002106 16.985459 18.375615 0.143420 0.391474 0.034630 -0.002698 -337807.000000 1 0 0
-1.972651 -5.831494 13.791759 15.103321 1.244605 0.419824 0.009134 -0.008573 -1635880.000000 1 0 0
-12.697251 3.858806 14.571859 19.709126 -0.295039 0.738698 -0.013044 -0.003841 -139141.000000 1 0 0
-13.365551 -6.269594 13.373459 19.919718 0.438612 0.834743 0.045778 -0.033751 -593474.000000 1 0 0
-9.497751 6.844806 11.968759 16.742456 -0.624468 0.774351 0.000918 -0.007870 -836924.000000 1 0 0
-1.011851 -2.569594 12.850459 13.143856 1.195665 0.211686 0.006951 -0.002035 327687.000000 1 0 0
0.039549 6.738106 15.381059 16.792279 1.564927 0.412902 0.007376 -0.001577 324530.000000 1 0 0
-16.537851 -0.946294 9.448959 19.070365 0.057158 1.052410 0.052250 -0.016802 -195249.000000 1 0 0
-1.330151 2.763606 13.745459 14.083482 -1.122212 0.219536 0.003672 0.000414 -2452610.000000 1 0 0
-11.241851 -3.270894 16.070759 19.883341 0.283140 0.629618 0.030173 -0.017064 -42148.300000 1 0 0
-5.228151 -1.490994 17.074959 17.919566 0.277811 0.308247 0.023281 -0.006070 276452.000000 1 0 0
-11.891851 6.644606 11.202759 17.637140 -0.509538 0.882555 0.003633 -0.010236 -1912860.000000 1 0 0
-2.546851 4.602606 18.820059 19.541368 -1.065385 0.272548 0.019220 -0.000909 254759.000000 1 0 0
5.064149 -2.120694 16.629159 17.512050 -0.396579 0.318891 0.038071 -0.013053 -56591.700000 1 0 0
-8.110851 -4.188594 12.179259 15.220531 0.476696 0.643191 0.013652 -0.004149 -1846810.000000 1 0 0
-11.662851 -0.676794 16.192659 19.967032 0.057965 0.624989 0.026938 -0.003063 196371.000000 1 0 0
2.088249 1.769606 17.486059 17.698999 0.702989 0.155276 0.005943 -0.001061 -1441700.000000 1 0 0
-9.104051 -7.605294 11.612859 16.600685 0.695942 0.796041 0.024350 -0.014447 487481.000000 1 0 0
-7.123951 6.977306 14.679559 17.746068 -0.774999 0.596689 -0.008889 -0.007368 -928527.000000 1 0 0
-5.820051 3.503406 15.745959 17.148821 -0.541855 0.407297 0.005246 -0.002667 -9455.870000 1 0 0
-9.491351 4.251206 11.604059 15.582448 -0.421109 0.730729 -0.003187 -0.005527 -46844.700000 1 0 0
-10.429451 0.164906 14.160259 17.587313 -0.015810 0.634884 0.011597 -0.002195 -664955.000000 1 0 0
8.050349 -0.695694 15.484659 17.466161 -0.086204 0.480958 0.051948 -0.019170 106055.000000 1 0 0
-8.685251 -7.571094 14.781859 18.741889 0.716968 0.662093 0.030724 -0.011199 -2187760.000000 1 0 0
-0.216151 4.248106 15.650159 16.217910 -1.519959 0.265382 0.005385 -0.004292 -174231.000000 1 0 0
-8.167351 3.127406 9.645259 13.019881 -0.365692 0.736521 -0.004986 0.001401 -397173.000000 1 0 0
-2.339851 -9.739694 13.039259 16.442592 1.335026 0.655050 0.014880 -0.008505 763761.000000 1 0 0
-6.123051 10.308006 10.495559 15.934350 -1.034793 0.851740 0.011646 -0.008683 -1201090.000000 1 0 0
-8.598451 -2.816794 15.602559 18.036284 0.316576 0.525516 0.022049 -0.009767 -684743.000000 1 0 0
4.026249 5.924906 17.771159 19.160618 0.973930 0.383171 0.007506 0.003750 103776.000000 1 0 0
-6.921751 -0.944394 15.159259 16.691484 0.135601 0.431826 0.010465 0.000072 -296868.000000 1 0 0
-1.040251 -9.958394 15.290459 18.277031 1.466714 0.579760 0.009254 -0.012845 -2167350.000000 1 0 0
-4.325151 5.754706 16.226059 17.751298 -0.926282 0.417569 0.007789 -0.002430 423635.000000 1 0 0
3.848849 -0.011794 17.432559 17.852392 -0.003064 0.217300 0.020515 -0.006744 -263285.000000 1 0 0
1.251749 0.087206 19.199659 19.240618 0.069555 0.065262 0.011196 -0.007336 -467425.000000 1 0 0
-6.272951 6.267406 17.897059 19.973358 -0.784956 0.460013 0.001559 -0.002328 -774150.000000 1 0 0
-12.226651 0.574506 10.987059 16.447994 -0.046953 0.839295 0.001086 -0.001366 -253932.000000 1 0 0
-5.399051 5.111606 13.891259 15.755804 -0.758057 0.491428 -0.001719 0.000812 -766199.000000 1 0 0
-8.813651 -9.456894 9.785259 16.213099 0.820590 0.922862 0.030412 -0.017261 -764378.000000 1 0 0
6.738149 -4.079294 17.063159 18.793475 -0.544383 0.432478 0.055590 -0.016334 -577088.000000 1 0 0
-16.789551 1.650006 9.519859 19.371093 -0.097961 1.057046 0.051527 -0.026091 428226.000000 1 0 0
-4.263351 -9.688094 11.276259 15.465747 1.156238 0.753773 0.009231 -0.007717 6043.100000 1 0 0
-11.054851 -3.976894 9.142659 14.886693 0.345327 0.909488 0.003068 0.003561 -167249.000000 1 0 0
3.419649 -5.195994 18.557059 19.571837 -0.988726 0.323429 0.043270 -0.029856 -540365.000000 1 0 0
2.532149 -1.893294 16.149459 16.456044 -0.642029 0.193332 0.017573 -0.008946 -792369.000000 1 0 0
-3.254051 -4.438094 20.163859 20.901357 0.938128 0.266436 0.024651 -0.024609 -822498.000000 1 0 0
-6.290751 -3.319194 14.391259 16.053004 0.485507 0.459027 0.009538 -0.002750 -85569.400000 1 0 0
-9.648251 5.192606 14.018459 17.792389 -0.493732 0.663420 0.002691 -0.003773 150170.000000 1 0 0
-5.980851 -5.276394 11.695359 14.156000 0.722902 0.598509 0.008610 -0.001874 -975694.000000 1 0 0
6.102549 1.878806 19.268259 20.298690 0.298663 0.319996 0.071215 -0.021057 203425.000000 1 0 0
-3.019751 11.772206 13.448159 18.126134 -1.319695 0.734865 0.016861 -0.017076 -389673.000000 1 0 0
3.320349 1.319506 15.181959 15.596721 0.378263 0.231135 0.006699 0.001251 -685665.000000 1 0 0
-5.643551 7.221606 12.602759 15.583029 -0.907450 0.628774 -0.010102 -0.010149 -1023020.000000 1 0 0
-1.885651 -1.789594 15.235759 15.455960 0.759268 0.169002 0.009789 -0.003990 -129090.000000 1 0 0
-7.438051 10.702606 14.077759 19.184725 -0.963450 0.746897 0.024532 -0.015825 201252.000000 1 0 0
-10.319751 2.088406 10.557459 14.910353 -0.199673 0.784046 -0.003478 -0.001124 -1378260.000000 1 0 0
-13.839751 5.114106 9.085159 17.327230 -0.353960 1.018870 0.004162 -0.012825 274400.000000 1 0 0
0.145749 -5.056294 20.207359 20.830860 -1.541979 0.245284 0.039942 -0.034156 -495464.000000 1 0 0
-14.366251 -3.234494 7.408059 16.484249 0.221453 1.104700 0.019287 -0.003549 169578.000000 1 0 0
-2.313651 2.375906 17.643159 17.952130 -0.798673 0.185798 0.012102 -0.006300 -811074.000000 1 0 0
-6.342551 -8.418694 14.470059 17.902094 0.925130 0.629557 0.018734 -0.012812 -121720.000000 1 0 0
-8.074151 1.966706 11.922759 14.533136 -0.238928 0.608713 -0.002268 0.000271 254499.000000 1 0 0
-14.596551 -3.616494 10.041059 18.082068 0.242873 0.982067 0.024709 -0.006880 1088180.000000 1 0 0
-0.592151 6.994606 12.835359 14.629477 -1.486340 0.500458 0.003068 -0.000369 -1361230.000000 1 0 0
-1.876651 -2.376794 19.282059 19.518421 0.902446 0.155783 0.023692 -0.022200 76426.400000 1 0 0
-13.060051 10.455006 7.403559 18.294392 -0.675066 1.154156 0.004670 -0.013063 83610.900000 1 0 0
-19.539851 1.943906 6.883459 20.807848 -0.099158 1.233634 0.099375 -0.036954 -132044.000000 1 0 0
-16.149051 8.285806 6.922459 19.425933 -0.474059 1.206436 0.014221 -0.008217 455584.000000 1 0 0
-12.399651 7.675906 13.628059 19.959831 -0.554304 0.819243 0.009380 -0.005337 32341.300000 1 0 0
-15.838951 7.451706 10.245459 20.282251 -0.439743 1.041247 0.020537 -0.038162 -416540.000000 1 0 0
1.571049 11.033706 15.054859 18.731248 1.429361 0.637259 0.020338 -0.013790 -420409.000000 1 0 0
2.290949 14.473806 12.771659 19.438487 1.413816 0.853925 0.035869 -0.009133 442676.000000 1 0 0
-3.207151 13.668206 11.677559 18.261190 -1.340323 0.876982 0.012682 -0.011708 -243924.000000 1 0 0
8.946949 4.736706 15.671659 18.657041 0.486907 0.573538 0.054424 -0.005591 -158364.000000 1 0 0
-0.586051 12.556506 12.813659 17.949907 -1.524157 0.775806 0.023436 -0.013104 -313127.000000 1 0 0
3.800449 13.445006 14.781059 20.339403 1.295317 0.757261 0.050333 -0.007159 -35428.600000 1 0 0
-2.797351 -4.193694 -13.787841 14.680490 0.982537 2.791074 0.001929 -0.006820 -321009.000000 1 0 0
6.159049 -11.376194 16.183759 20.718729 -1.074581 0.674343 0.047000 -0.015641 270045.000000 1 0 0
7.928449 -13.467894 7.343959 17.267837 -1.038733 1.131506 0.007652 -0.004727 39997.900000 1 0 0
-0.073351 15.488306 1.405859 15.552153 -1.566060 1.480276 0.006917 -0.004860 -2821800.000000 1 0 0
-13.629551 8.024206 8.988159 18.191744 -0.532096 1.054021 -0.009766 -0.013666 560801.000000 1 0 0
-15.517951 -9.684994 5.068659 18.981496 0.557963 1.300485 0.027144 -0.002627 -158951.000000 1 0 0
9.341649 -10.913294 11.168259 18.196055 -0.862836 0.909965 0.038213 -0.010898 204550.000000 1 0 0
-5.832151 -10.324594 -16.816441 20.576781 1.056601 2.527425 0.027200 -0.006776 39485.000000 1 0 0
-1.873151 -12.502294 -14.835641 19.491339 1.422078 2.435866 0.029088 -0.008462 88797.900000 1 0 0
5.576749 -15.800894 -12.148941 20.696984 -1.231506 2.198133 0.048846 -0.020977 295806.000000 1 0 0
1.184649 -12.538994 -16.257841 20.565679 -1.476599 2.482475 0.039235 -0.009942 339224.000000 1 0 0
0.914049 -15.010694 -13.670541 20.323388 -1.509978 2.308581 0.061110 0.013185 425597.000000 1 0 0
-6.342351 -5.845294 -14.675841 17.022725 0.744637 2.610259 0.008178 -0.004496 -52612.300000 1 0 0
-5.911651 -8.278094 -17.138041 19.929548 0.950649 2.605931 0.009766 -0.016585 -36383.600000 1 0 0
-2.398251 -16.305994 -13.101541 21.054392 1.424765 2.242437 0.042749 -0.007496 120239.000000 1 0 0
16.129749 -8.060594 -8.694841 20.018547 -0.463435 2.020101 0.078531 -0.022704 -156183.000000 1 0 0
18.812349 -2.823194 -3.591841 19.359138 -0.148960 1.757415 0.120997 -0.038827 200838.000000 1 0 0
15.336149 -12.254694 -8.625041 21.442162 -0.674175 1.984766 0.044479 -0.002008 8533.470000 1 0 0
18.661849 -2.728594 -6.679341 20.008084 -0.145184 1.911162 0.191488 -0.011898 -263739.000000 1 0 0
9.374349 -10.008694 -16.099841 21.148457 -0.818113 2.436077 0.102253 -0.016251 -11730.500000 1 0 0
-4.801551 9.271006 -16.293141 19.351302 -1.092923 2.571713 -0.000269 -0.004634 503455.000000 1 0 0
2.948149 -9.635194 -17.917941 20.556779 -1.273865 2.629318 0.060910 -0.021459 437166.000000 1 0 0
11.684549 9.603106 -14.282341 20.802250 0.687931 2.327566 0.137055 -0.060472 223739.000000 1 0 0
18.457249 -6.199994 -8.887441 21.403191 -0.324069 1.999002 0.097944 -0.021013 271797.000000 1 0 0
12.686049 5.586206 -13.805841 19.563813 0.414794 2.354182 0.088685 -0.030008 99828.200000 1 0 0
15.937849 6.268006 -10.629241 20.156480 0.374698 2.126259 0.083750 -0.030263 354986.000000 1 0 0
3.501349 -0.624194 -19.413841 19.736927 -0.176419 2.960405 0.056918 -0.010777 247099.000000 1 0 0
10.146749 -1.148194 -14.878641 18.045742 -0.112679 2.540107 0.032553 -0.009888 -161814.000000 1 0 0
12.580349 -5.658194 -14.382741 19.928462 -0.422658 2.377078 0.066213 -0.009370 7424.530000 1 0 0
10.184649 6.686706 -13.801541 18.409825 0.580964 2.418380 0.056641 -0.000575 36486.500000 1 0 0
10.973749 4.953506 -16.342241 20.298503 0.424014 2.506633 0.094035 -0.037374 234959.000000 1 0 0
11.966749 -10.405094 -15.174341 21.948341 -0.715707 2.334175 0.119417 -0.033850 371978.000000 1 0 0
-1.419051 1.981006 -17.341141 17.511518 -0.949196 3.001984 0.019316 -0.015161 293035.000000 1 0 0
6.581049 -1.154294 -16.984941 18.251872 -0.173630 2.766807 0.040214 -0.010869 16739.300000 1 0 0
6.380249 -5.745194 -15.886541 18.058156 -0.733072 2.646118 0.010145 -0.017243 220494.000000 1 0 0
-1.955951 -4.844894 -20.505341 21.160523 1.187092 2.892099 0.040724 -0.021764 326762.000000 1 0 0
16.251449 -0.033294 -13.373441 21.046606 -0.002049 2.259349 0.098502 -0.029370 169306.000000 1 0 0
-4.038651 -0.535394 -18.931541 19.364932 0.131799 2.929630 0.020772 -0.003148 178078.000000 1 0 0
3.324349 8.562606 -17.639441 19.887669 1.200468 2.661503 0.053371 -0.032974 -3501.370000 1 0 0
9.586949 -0.351694 -17.496741 19.954178 -0.036668 2.640058 0.061735 -0.014392 43092.500000 1 0 0
3.879849 4.541306 -18.570241 19.507192 0.863784 2.830400 0.048429 -0.004258 404395.000000 1 0 0
-2.656651 -11.218194 -18.073341 21.437148 1.338264 2.573791 0.049128 -0.016548 315082.000000 1 0 0
6.621049 -9.323794 -16.030041 19.690953 -0.953308 2.521942 0.049760 -0.023055 326625.000000 1 0 0
10.160549 -12.485894 -10.768741 19.367501 -0.887720 2.160387 0.035048 -0.005043 248568.000000 1 0 0
6.055849 6.785206 -17.245541 19.496692 0.842136 2.656296 0.067752 -0.017482 558624.000000 1 0 0
8.717849 1.558106 -19.980841 21.855493 0.176859 2.724388 0.078427 -0.027695 151791.000000 1 0 0
-1.078551 -0.720094 -20.175841 20.217477 0.588683 3.077404 0.045207 -0.024129 178056.000000 1 0 0
-1.098951 6.674606 -19.551941 20.689042 -1.407614 2.808509 0.027402 -0.010046 8076.280000 1 0 0
9.233049 5.721306 -18.091141 21.101467 0.554747 2.600877 0.106386 -0.033666 129423.000000 1 0 0
12.333749 -0.125194 -13.449941 18.249327 -0.010150 2.399432 0.026938 -0.001024 -28137.300000 1 0 0
-4.494251 -2.975794 -19.891841 20.609196 0.584858 2.876975 0.032160 -0.012434 389369.000000 1 0 0
6.086449 -11.318494 -14.631241 19.473735 -1.077412 2.420875 0.031655 -0.021161 140854.000000 1 0 0
12.034849 2.931706 -15.705841 20.002648 0.238947 2.473796 0.077843 -0.014331 -43498.300000 1 0 0
-2.738651 -4.351994 -17.214641 17.966188 1.009121 2.851330 0.006605 -0.008863 320339.000000 1 0 0
-6.795751 -4.866594 -17.566741 19.453954 0.621465 2.697476 0.023109 -0.011948 145622.000000 1 0 0
3.141949 10.723006 -15.649941 19.229544 1.285765 2.521542 0.018195 -0.007084 81899.400000 1 0 0
16.927549 -6.018794 -10.866241 20.996261 -0.341621 2.114761 0.104349 -0.022100 -93704.000000 1 0 0
9.869549 -3.197494 -17.501041 20.344985 -0.313305 2.606486 0.067386 -0.031217 -83122.400000 1 0 0
-7.036051 -1.578294 -19.007441 20.329285 0.220663 2.778994 0.008668 -0.003428 564077.000000 1 0 0
2.329349 -7.550694 -19.167841 20.732703 -1.271565 2.750576 0.062357 -0.029931 294067.000000 1 0 0
5.595149 10.213606 -14.628841 18.698300 1.069634 2.469246 0.058468 -0.021732 363223.000000 1 0 0
6.182449 -3.851794 -18.160741 19.567102 -0.557175 2.760144 0.053303 -0.026250 486450.000000 1 0 0
4.502549 13.528606 -14.331441 20.215992 1.249511 2.358756 0.058559 -0.031304 37269.200000 1 0 0
8.741249 11.164406 -15.544341 21.039960 0.906534 2.402086 0.107562 -0.051052 6170.000000 1 0 0
17.337449 2.400506 -11.836441 21.129385 0.137583 2.165410 0.139860 -0.005715 104846.000000 1 0 0
15.290149 -2.815594 -12.075141 19.685661 -0.182104 2.231152 0.094847 -0.027469 -17651.500000 1 0 0
-8.490051 0.185806 -17.331641 19.300292 -0.021882 2.685997 0.018711 -0.015955 440584.000000 1 0 0
-3.574451 3.999706 -19.184041 19.919884 -0.841485 2.868940 0.033343 -0.008628 68915.100000 1 0 0
4.056749 1.593806 -17.110341 17.656761 0.374351 2.892162 0.038329 -0.006797 584587.000000 1 0 0
-4.972351 14.218106 -13.957741 20.535271 -1.234371 2.318144 0.002219 -0.011241 438800.000000 1 0 0
0.677349 9.533606 -17.814941 20.216839 1.499867 2.649177 0.014142 -0.002608 145857.000000 1 0 0
1.588749 -4.950394 -19.701841 20.376287 -1.260246 2.883586 0.052173 -0.020870 369575.000000 1 0 0
3.849149 -6.239594 -18.209241 19.629695 -1.018049 2.758833 0.054275 -0.021669 -80316.900000 1 0 0
-7.255851 7.314706 -15.885141 18.933832 -0.789437 2.566206 0.011361 -0.005036 -71118.200000 1 0 0
-11.830751 3.016806 -16.869941 20.824569 -0.249676 2.515115 0.089393 -0.030121 315338.000000 1 0 0
-4.312151 6.449306 -17.415741 19.065577 -0.981441 2.722516 0.004164 0.010489 333721.000000 1 0 0
-8.380751 5.026606 -17.633141 20.160144 -0.540258 2.635517 0.021747 -0.014030 510365.000000 1 0 0
-8.532651 4.135506 -14.753041 17.537410 -0.451307 2.570355 -0.001124 -0.024733 481254.000000 1 0 0
9.424349 13.759506 -12.652441 20.933863 0.970254 2.219810 0.132638 -0.061151 357492.000000 1 0 0
14.133349 8.459306 -12.097341 20.436660 0.539342 2.204264 0.143394 -0.046022 9624.660000 1 0 0
8.555349 15.749806 -9.889841 20.470939 1.073186 2.075007 0.104431 -0.035150 10310.700000 1 0 0
7.495649 13.203206 -14.249541 20.822075 1.054455 2.324505 0.138731 -0.059236 164255.000000 1 0 0
4.441249 15.522906 -13.016041 20.738916 1.292131 2.249281 0.055650 -0.024374 239139.000000 1 0 0
11.008349 11.922606 -11.817241 20.074349 0.825247 2.200213 0.123444 -0.033850 105321.000000 1 0 0
16.133449 10.200506 -10.508541 21.789170 0.563802 2.074055 0.162492 -0.032490 362879.000000 1 0 0
13.120449 11.012806 -9.059641 19.377956 0.698286 2.057283 0.145619 -0.053310 223491.000000 1 0 0
10.152049 11.835606 -7.472041 17.290953 0.861817 2.017656 0.087269 -0.022749 -63211.900000 1 0 0
5.664749 17.167206 -9.912541 20.617003 1.252071 2.072357 0.076998 -0.015474 46027.800000 1 0 0
11.180449 13.897206 -10.601241 20.749002 0.893311 2.107060 0.172260 -0.058991 139326.000000 1 0 0
8.703449 -19.184994 -1.837641 21.146890 -1.144904 1.657805 0.052505 -0.011346 271258.000000 1 0 0
7.914949 -16.870094 -4.296841 19.123528 -1.132115 1.797420 0.059435 -0.014934 197912.000000 1 0 0
4.282049 -19.062494 5.592559 20.322188 -1.349832 1.292004 0.070928 -0.012701 284641.000000 1 0 0
10.610649 -17.446194 -2.200841 20.537752 -1.024374 1.678163 0.053538 -0.023257 340307.000000 1 0 0
-3.446651 -14.956194 7.831059 17.230572 1.344301 1.099001 0.038890 -0.032207 135604.000000 1 0 0
-15.437151 -12.692694 -4.037441 20.388993 0.688142 1.770134 0.086150 -0.018608 318563.000000 1 0 0
-9.470451 -13.197594 -6.980941 17.680482 0.948363 1.976689 0.043255 -0.004700 74783.600000 1 0 0
-11.668551 -15.361794 6.581259 20.382658 0.921191 1.242020 0.065553 -0.020380 412583.000000 1 0 0
-14.637051 -8.649794 -8.104241 18.834567 0.533740 2.015605 0.058382 -0.015271 -63761.400000 1 0 0
4.245449 -15.412894 5.213059 16.815384 -1.302014 1.255585 0.025930 -0.015981 164898.000000 1 0 0
2.992649 -14.159194 9.001159 17.042875 -1.362504 1.014378 0.016504 -0.003571 275544.000000 1 0 0
3.273949 -17.549994 10.112259 20.517768 -1.386366 1.055430 0.060210 -0.010869 217409.000000 1 0 0
-8.588851 -18.052694 -4.811941 20.562658 1.126724 1.807000 0.060826 -0.012555 69622.400000 1 0 0
2.431349 -19.872894 -3.975141 20.411887 -1.449056 1.766795 0.064867 -0.019416 114672.000000 1 0 0
-18.258951 -10.737394 -2.066341 21.282638 0.531595 1.668040 0.040377 -0.004157 17993.400000 1 0 0
-4.069151 -14.828094 2.751559 15.620545 1.302968 1.393722 0.016357 -0.007704 101790.000000 1 0 0
-10.793051 -9.805594 -14.480641 20.550634 0.737497 2.352701 0.051920 -0.020818 134477.000000 1 0 0
1.133449 -20.268994 2.374359 20.439041 -1.514934 1.454366 0.053468 -0.028970 218284.000000 1 0 0
7.307749 -17.781194 0.700759 19.237077 -1.180859 1.534361 0.050070 -0.022016 173845.000000 1 0 0
-6.622351 -18.170294 -2.638041 19.518565 1.221298 1.706367 -0.000727 -0.050545 229735.000000 1 0 0
-8.349251 -16.085594 -7.214641 19.506598 1.092024 1.949651 0.057305 -0.005223 -148673.000000 1 0 0
-11.798151 -11.161494 -12.311841 20.380302 0.757676 2.219439 0.043739 -0.003080 359743.000000 1 0 0
-13.319751 -15.045094 -3.353441 20.371946 0.846150 1.736160 0.078011 -0.019982 279275.000000 1 0 0
-0.494751 -20.521294 -2.431841 20.670804 1.546692 1.688716 0.061436 -0.027924 403547.000000 1 0 0
-12.293651 -16.780394 -0.074241 20.801946 0.938512 1.574365 0.090241 -0.026108 142591.000000 1 0 0
0.944949 -19.928694 5.086859 20.589364 -1.523415 1.321149 0.077295 -0.038069 228310.000000 1 0 0
-17.999051 -8.779794 2.810859 20.222550 0.453834 1.431349 0.044404 -0.004331 -86085.800000 1 0 0
-14.604751 -15.340994 -0.138541 21.181691 0.809979 1.577337 0.072186 -0.019530 75580.000000 1 0 0
10.156449 -15.501494 -4.846341 19.155594 -0.990780 1.826575 0.035366 -0.005581 35745.600000 1 0 0
-0.169251 -19.160094 -7.037541 20.412369 1.561963 1.922788 0.048050 -0.006445 246319.000000 1 0 0
-10.273551 -18.604794 -2.097541 21.356120 1.066266 1.669172 0.075613 0.033667 366973.000000 1 0 0
-14.948651 -6.818094 -11.351741 19.970242 0.427916 2.175396 0.081670 -0.026025 117492.000000 1 0 0
-11.968651 -15.511794 2.403759 19.739362 0.913624 1.448718 0.064127 -0.019908 223611.000000 1 0 0
-2.774351 -16.286094 9.890159 19.254847 1.402065 1.031368 0.044957 -0.025798 342865.000000 1 0 0
-11.884751 -15.494494 -6.658341 20.631533 0.916484 1.899405 0.047736 0.006840 214944.000000 1 0 0
5.829749 -16.892194 -6.512241 19.019502 -1.238480 1.920264 0.049261 -0.030111 -744482.000000 1 0 0
-17.466451 -7.521494 -3.202241 19.284816 0.406626 1.737619 0.006945 -0.006257 -89590.400000 1 0 0
-12.146351 -13.634694 -8.315541 20.064569 0.843064 1.998123 0.068278 -0.041415 285358.000000 1 0 0
-7.840651 -14.163594 9.881759 18.966612 1.065210 1.022765 0.046892 -0.012545 457196.000000 1 0 0
-16.126651 -8.543194 -5.634441 19.099789 0.487168 1.870252 0.068040 -0.000971 373111.000000 1 0 0
-0.694351 -19.571794 0.103459 19.584380 1.535334 1.565514 0.042900 -0.028072 303823.000000 1 0 0
-15.385451 -11.790094 -1.804641 19.467284 0.653861 1.663631 0.049624 0.011475 262160.000000 1 0 0
-6.530251 -19.192294 1.672359 20.341708 1.242830 1.488490 0.057304 -0.030599 -365391.000000 1 0 0
-1.220251 -21.214694 -4.682941 21.759646 1.513341 1.787705 0.043291 -0.009007 63064.100000 1 0 0
-9.441751 -19.586694 -0.186741 21.744427 1.121612 1.579384 0.083956 -0.035998 228864.000000 1 0 0
-17.997151 -6.988094 4.876959 19.912700 0.370370 1.323362 0.066850 -0.011671 -15351.300000 1 0 0
-2.697751 -15.633794 -10.636841 19.100674 1.399920 2.161425 0.021855 -0.000432 102508.000000 1 0 0
-3.305151 -18.712894 -7.693341 20.500827 1.395975 1.955484 0.023339 0.005607 169394.000000 1 0 0
4.040449 -17.497794 -6.182741 18.992743 -1.343862 1.902370 0.028002 0.014976 7794.570000 1 0 0
0.494849 -17.414494 -9.055041 19.634236 -1.542388 2.050128 0.031940 -0.005981 110997.000000 1 0 0
-7.557851 -10.081294 -14.493641 19.204666 0.927493 2.425983 0.005494 -0.013287 341508.000000 1 0 0
-4.641251 -19.680094 -1.896041 20.308675 1.339193 1.664294 0.055122 -0.027254 299974.000000 1 0 0
-10.440051 -15.006794 8.719159 20.253944 0.962970 1.125759 0.057538 -0.047541 146623.000000 1 0 0
-7.097451 -15.348994 -10.217141 19.757413 1.137674 2.114290 0.020192 -0.005323 375944.000000 1 0 0
-12.672251 -8.056894 -12.408541 19.480025 0.566321 2.261381 0.060367 -0.021909 367501.000000 1 0 0
-15.802351 -13.032294 3.227659 20.735784 0.689625 1.414504 0.060995 -0.011175 117536.000000 1 0 0
-6.459951 -14.069794 -12.957941 20.189064 1.140371 2.267678 0.023347 0.001907 593479.000000 1 0 0
-14.093551 -11.579194 -6.841141 19.480942 0.687771 1.929618 0.075238 -0.016863 218284.000000 1 0 0
-11.518251 -10.681594 -7.858841 17.564963 0.747728 2.034670 0.037107 -0.014429 292588.000000 1 0 0
-9.738251 -15.103794 3.423859 18.294287 0.998117 1.382532 0.031052 -0.003810 275901.000000 1 0 0
5.394549 -18.124894 8.038959 20.548426 -1.281513 1.168839 0.086050 -0.025824 139960.000000 1 0 0
-4.759251 -16.858894 5.196159 18.272188 1.295657 1.282442 0.027205 -0.003367 339536.000000 1 0 0
-17.965051 -7.764294 -6.872841 20.742788 0.407944 1.908516 0.041515 -0.020292 135915.000000 1 0 0
-17.210851 -4.733994 -10.840041 20.883739 0.268421 2.116554 0.100349 -0.015921 -324194.000000 1 0 0
-15.833551 -4.184994 -12.960741 20.885313 0.258403 2.240262 0.100791 -0.034233 340245.000000 1 0 0
-19.396651 -4.945194 -6.039841 20.908483 0.249633 1.863843 0.062619 -0.021038 175602.000000 1 0 0
5.394749 -13.519294 8.564459 16.888593 -1.191117 1.038962 0.028478 -0.003514 177112.000000 1 0 0
19.648149 -3.572294 2.875359 20.176193 -0.179849 1.427797 0.084841 -0.023369 21264.600000 1 0 0
18.310149 -2.314294 0.639559 18.466904 -0.125727 1.536157 0.058229 -0.023263 254575.000000 1 0 0
14.298349 -11.152194 0.228259 18.134672 -0.662404 1.558209 0.033737 0.003638 101144.000000 1 0 0
11.384549 -13.917594 5.402459 18.774822 -0.885178 1.278919 0.037732 0.005565 432302.000000 1 0 0
9.729349 -13.030694 9.014659 18.593636 -0.929444 1.064633 0.035841 -0.009596 242448.000000 1 0 0
18.941549 3.905606 -4.301741 19.812648 0.203343 1.789660 0.108530 -0.001459 -57058.400000 1 0 0
18.916749 -6.056894 -4.322841 20.327723 -0.309872 1.785090 0.103640 -0.030423 56060.500000 1 0 0
17.811049 -9.958494 -0.343341 20.408894 -0.509817 1.587620 0.068097 -0.005363 304283.000000 1 0 0
17.572549 -8.808194 8.367759 21.363477 -0.464645 1.168334 0.126804 -0.026077 -117760.000000 1 0 0
19.813049 0.433006 -2.375341 19.959626 0.021851 1.690086 0.127380 -0.011832 228433.000000 1 0 0
7.431149 -13.392094 11.556959 19.186804 -1.064206 0.924368 0.038176 0.001355 229025.000000 1 0 0
16.267349 -6.638794 -3.423041 17.900208 -0.387474 1.763211 0.060525 -0.009945 242278.000000 1 0 0
14.197949 -7.187594 10.812959 19.239630 -0.468628 0.973976 0.098816 -0.059507 421410.000000 1 0 0
16.497849 1.419706 10.704759 19.717669 0.085843 0.996908 0.150217 -0.028538 333443.000000 1 0 0
16.428449 -9.974994 2.545659 19.387492 -0.545681 1.439112 0.008785 -0.008879 308183.000000 1 0 0
16.321949 -7.014094 -5.929841 18.728763 -0.405873 1.892957 0.068776 -0.012480 361783.000000 1 0 0
18.982549 -4.544794 5.651159 20.320628 -0.234996 1.288981 0.200262 -0.024709 -57373.700000 1 0 0
13.794349 -12.821894 7.972159 20.450926 -0.748878 1.170361 0.076689 -0.032893 258774.000000 1 0 0
15.288349 -14.215694 -1.600041 20.937519 -0.749058 1.647291 0.045531 0.003617 160129.000000 1 0 0
18.794949 -6.259994 7.916959 21.333445 -0.321512 1.190597 0.159121 -0.026137 286096.000000 1 0 0
19.474549 3.145806 2.302559 19.860915 0.160151 1.454601 0.100920 -0.013906 189891.000000 1 0 0
15.724949 -10.175494 8.287159 20.481497 -0.574328 1.154236 0.079385 -0.038742 275844.000000 1 0 0
14.184649 -4.216294 10.608459 18.207713 -0.288926 0.948829 0.076665 -0.020028 5656.200000 1 0 0
18.645849 -7.659494 1.686759 20.228215 -0.389772 1.487313 0.108702 -0.022536 38406.500000 1 0 0
18.782849 -4.887094 -1.951541 19.506092 -0.254545 1.671012 0.072754 -0.019033 418185.000000 1 0 0
14.609349 -13.703694 -5.920941 20.887361 -0.753422 1.858207 0.068447 -0.014188 464750.000000 1 0 0
13.829049 -9.654094 10.144859 19.681522 -0.609451 1.029263 0.067385 -0.022033 359775.000000 1 0 0
14.265949 2.281906 0.540259 14.457396 0.158611 1.533419 0.005922 -0.002597 -187914.000000 1 0 0
12.929349 2.521506 13.545159 18.894375 0.192604 0.771467 0.092569 -0.021038 79615.100000 1 0 0
18.413549 -3.036494 9.120259 20.771572 -0.163435 1.116228 0.143551 -0.031023 228908.000000 1 0 0
7.378749 -18.030794 4.482859 19.991285 -1.182358 1.344633 0.067414 -0.036276 403577.000000 1 0 0
12.835749 -2.953694 14.612259 19.672287 -0.226177 0.733577 0.093231 -0.023000 362173.000000 1 0 0
11.243349 -13.486694 -6.686941 18.788800 -0.875864 1.934674 0.031187 -0.019558 -28284.900000 1 0 0
11.154349 -17.069694 4.142859 20.807625 -0.991993 1.370354 0.052559 -0.024617 527242.000000 1 0 0
18.189049 -0.413194 -5.517541 19.011983 -0.022713 1.865247 0.116881 -0.017025 238439.000000 1 0 0
4.327349 -13.793994 11.525859 18.489068 -1.266807 0.897728 0.015366 -0.002384 157539.000000 1 0 0
9.271149 -2.524294 14.363459 17.281066 -0.265830 0.589592 0.038553 -0.011014 253959.000000 1 0 0
9.383849 -9.414194 14.435659 19.623250 -0.787012 0.744184 0.083480 0.001071 333565.000000 1 0 0
20.993549 5.599006 -3.064841 21.942453 0.260635 1.710931 0.178134 -0.009699 522501.000000 1 0 0
14.827649 -13.682694 2.270159 20.303421 -0.745260 1.458750 0.028106 0.009248 312340.000000 1 0 0
11.821649 -0.431594 15.178159 19.243549 -0.036493 0.662040 0.099177 -0.015411 -136491.000000 1 0 0
19.088049 0.562306 7.973759 20.694218 0.029450 1.175249 0.126935 -0.031709 210656.000000 1 0 0
19.996749 1.210206 0.235959 20.034726 0.060446 1.559019 0.108939 -0.012107 308539.000000 1 0 0
18.052949 0.344606 3.142359 18.327634 0.019086 1.398490 0.064348 -0.009479 -92274.100000 1 0 0
10.520349 -8.408594 16.454359 21.263305 -0.674295 0.685917 0.096668 -0.008932 -15230.500000 1 0 0
18.859849 3.348306 5.542659 19.940565 0.175705 1.289128 0.079283 -0.006336 74680.800000 1 0 0
16.026749 2.335706 7.367959 17.793230 0.144719 1.143856 0.092362 -0.014743 -60172.500000 1 0 0
11.549549 -16.026894 1.932659 19.849146 -0.946355 1.473274 0.013807 0.007773 184859.000000 1 0 0
9.035349 -16.368394 6.847159 19.910938 -1.066419 1.219741 0.055095 -0.001629 282847.000000 1 0 0
6.162249 6.587306 7.162759 11.518292 0.818725 0.899681 0.002592 0.001869 -1447020.000000 1 0 0
18.442649 2.017906 -6.796041 19.758275 0.108982 1.921926 0.110811 -0.009851 100069.000000 1 0 0
14.281349 4.584206 -7.179641 16.628864 0.310603 2.017237 0.030762 -0.001992 375450.000000 1 0 0
-10.573551 -3.961194 -13.412841 17.532693 0.358448 2.441867 0.027905 -0.025629 -272269.000000 1 0 0
7.634349 -14.268294 -10.373441 19.221753 -1.079498 2.140844 0.027397 -0.007866 -100549.000000 1 0 0
1.974649 -15.855794 13.802059 21.114030 -1.446896 0.858344 0.017212 -0.014125 250856.000000 1 0 0
-9.490551 -8.036194 2.231959 12.634580 0.702609 1.393210 0.010032 -0.000152 434112.000000 1 0 0
-13.866651 2.930106 -9.543241 17.086339 -0.208243 2.163409 0.025376 -0.003481 237885.000000 1 0 0
-13.176051 -5.395094 -13.340741 19.511297 0.388637 2.323678 0.064196 -0.009970 -144207.000000 1 0 0
-18.067551 -1.429494 -8.292541 19.931033 0.078955 1.999906 0.092390 -0.038391 277632.000000 1 0 0
-12.391051 15.178306 3.816559 19.962095 -0.886156 1.378422 0.042651 -0.022743 403335.000000 1 0 0
-16.231951 5.227406 8.594559 19.096294 -0.311556 1.103959 -0.031591 -0.052375 -8213.780000 1 0 0
-14.242651 15.311006 -0.570341 20.919018 -0.821532 1.598064 0.063871 -0.024870 338278.000000 1 0 0
-16.168951 5.148106 -10.605741 20.010490 -0.308246 2.129408 0.049338 -0.010553 137457.000000 1 0 0
-18.357351 2.977506 -0.307041 18.599789 -0.160797 1.587305 0.085797 -0.010008 -33205.200000 1 0 0
-9.614451 15.416906 -0.241641 18.170775 -1.013183 1.584095 0.015047 -0.008198 -166533.000000 1 0 0
-18.736351 11.431306 2.064959 22.045173 -0.547823 1.476989 0.152037 -0.049748 18355.500000 1 0 0
-8.708751 16.305006 -7.677541 20.015998 -1.080231 1.964455 0.055496 -0.029565 156945.000000 1 0 0
-14.990251 -1.699194 -12.759741 19.758691 0.112871 2.272839 0.090409 -0.038262 78.455400 1 0 0
-19.012051 5.347406 -4.756441 20.314442 -0.274180 1.807131 0.086523 -0.012258 28069.800000 1 0 0
-17.166651 9.644206 -5.755741 20.514218 -0.511857 1.855188 0.063585 0.002792 6712.080000 1 0 0
-19.141451 1.064706 2.367459 19.316666 -0.055566 1.447927 0.102998 -0.025112 178388.000000 1 0 0
-14.589651 11.584106 -7.614941 20.125525 -0.671068 1.958834 0.054213 -0.021667 121058.000000 1 0 0
-12.879651 5.323706 -13.612141 19.481212 -0.391955 2.344419 0.058676 -0.021911 -192365.000000 1 0 0
-14.143651 9.418006 -6.748341 18.283375 -0.587459 1.948834 0.031311 -0.013132 496149.000000 1 0 0
-6.451351 10.950206 -15.305041 19.893999 -1.038390 2.448587 0.013890 -0.040947 174894.000000 1 0 0
-14.936251 13.922506 3.082959 20.650240 -0.750285 1.420942 0.030104 -0.024019 -15273.200000 1 0 0
-18.930551 8.349506 -4.694041 21.215891 -0.415394 1.793894 0.101760 -0.020907 261695.000000 1 0 0
-5.069051 16.213106 -11.101241 20.292798 -1.267774 2.149636 0.005716 -0.002166 109125.000000 1 0 0
-19.456251 -2.338894 -6.467841 20.636111 0.119639 1.889592 0.063055 -0.026369 -31501.800000 1 0 0
-11.074051 13.039906 -6.487341 18.296430 -0.866742 1.933249 0.034804 -0.038326 210350.000000 1 0 0
-19.512451 2.814006 4.056559 20.127345 -0.143228 1.367862 0.099787 -0.028389 68316.200000 1 0 0
-14.918551 11.973206 0.624059 19.139234 -0.676307 1.538184 0.015215 -0.019818 105692.000000 1 0 0
-17.256451 2.258706 -8.164041 19.223382 -0.130151 2.009419 0.026654 -0.018326 130434.000000 1 0 0
-16.073851 13.998106 -4.312241 21.746519 -0.716482 1.770415 0.041741 0.013521 150238.000000 1 0 0
-10.183051 15.595906 -9.252841 20.797641 -0.992363 2.031857 0.018495 -0.026438 125292.000000 1 0 0
-19.363851 1.333606 -6.693141 20.531326 -0.068762 1.902862 0.092927 -0.034578 192265.000000 1 0 0
-17.183451 10.574006 -0.620841 20.185788 -0.551637 1.601558 0.051218 -0.009388 84948.100000 1 0 0
-11.587651 6.803806 -14.714741 19.927093 -0.530925 2.401534 0.046592 -0.019973 285783.000000 1 0 0
-13.140851 12.422406 -4.974741 18.754897 -0.757301 1.839260 0.040562 -0.020952 190641.000000 1 0 0
-18.772251 7.801406 0.287759 20.330817 -0.393866 1.556642 0.083740 -0.019736 178629.000000 1 0 0
-14.542251 8.992806 -10.345141 19.984233 -0.553833 2.114916 0.021859 -0.013833 476399.000000 1 0 0
-18.433051 11.238006 5.070159 22.176038 -0.547497 1.340124 0.071372 -0.041241 62055.600000 1 0 0
-8.135351 11.869506 -13.578241 19.784785 -0.969937 2.327182 0.001607 -0.013808 374639.000000 1 0 0
-21.082051 -0.609194 -5.353641 21.759721 0.028888 1.819383 0.112321 -0.030703 89129.800000 1 0 0
-10.856551 13.660906 -3.607741 17.818553 -0.899285 1.774677 0.021136 0.002890 427356.000000 1 0 0
-18.675351 -5.108394 3.718059 19.715181 0.267005 1.381072 0.057027 -0.013113 -40735.000000 1 0 0
-11.379151 11.424206 -12.509441 20.407931 -0.787374 2.230610 0.050645 -0.030294 451534.000000 1 0 0
-14.959451 11.376206 -10.260241 21.412047 -0.650168 2.070517 0.046111 -0.026098 429375.000000 1 0 0
-12.285651 9.402506 -14.116241 20.943080 -0.653237 2.310446 0.060088 -0.029679 482780.000000 1 0 0
-18.173651 -5.003394 -3.244841 19.127062 0.268655 1.741267 0.018198 -0.008013 -201959.000000 1 0 0
-9.419751 12.628106 -11.528641 19.522047 -0.929902 2.202530 0.030552 -0.018112 -22469.400000 1 0 0
-15.151751 7.529106 -8.357341 18.870828 -0.461175 2.029595 -0.001013 -0.001637 -76194.700000 1 0 0
-14.428151 9.004106 1.943559 17.117911 -0.557927 1.457011 0.009579 -0.003863 -109101.000000 1 0 0
-19.769751 5.721506 8.481059 22.259987 -0.281710 1.179918 0.080469 -0.033104 275875.000000 1 0 0
-18.556151 5.891706 3.879259 19.851740 -0.307440 1.374119 0.023288 -0.011274 196176.000000 1 0 0
-14.682851 12.828606 5.813659 20.345955 -0.718101 1.281017 0.026311 -0.016213 141323.000000 1 0 0
18.132349 6.195606 5.707059 19.993453 0.329251 1.281324 0.100729 -0.018969 255522.000000 1 0 0
18.266449 7.549606 0.485959 19.771087 0.391923 1.546215 0.063341 -0.003260 -53307.200000 1 0 0
15.786749 5.339406 9.022759 18.951013 0.326143 1.074571 0.080025 -0.007481 -63322.800000 1 0 0
12.484249 12.925006 10.744359 20.936894 0.802743 1.031913 0.070347 -0.022725 125466.000000 1 0 0
15.364049 12.602806 4.237159 20.318422 0.686984 1.360717 0.084957 -0.009355 194247.000000 1 0 0
4.888949 10.458506 14.248159 18.338272 1.133517 0.680969 0.034324 -0.008661 234756.000000 1 0 0
12.433649 14.489306 -5.113441 19.765700 0.861604 1.832475 0.094156 0.011867 321661.000000 1 0 0
17.531749 9.160806 -3.169441 20.033171 0.481506 1.729674 0.026073 -0.000573 -71765.900000 1 0 0
14.500349 7.911906 9.530059 19.070407 0.499486 1.047509 0.085886 -0.019874 158690.000000 1 0 0
4.705549 18.970506 -1.342641 19.591452 1.327658 1.639382 0.017680 -0.028487 460349.000000 1 0 0
-4.606251 19.584106 3.658959 20.448539 -1.339792 1.390892 0.014205 0.005440 342198.000000 1 0 0
8.185549 13.319206 12.118459 19.780332 1.019734 0.911385 0.082282 -0.001842 22623.500000 1 0 0
-0.252451 16.977606 -10.009241 19.710092 -1.555928 2.103452 0.024098 -0.001502 117892.000000 1 0 0
10.724849 9.537806 15.406959 21.056271 0.726882 0.749978 0.069241 -0.015828 350058.000000 1 0 0
-1.111651 12.224606 1.228459 12.336364 -1.480110 1.471051 -0.001205 0.001554 434762.000000 1 0 0
-4.795151 19.262606 -2.509741 20.008505 -1.326820 1.696561 0.029402 0.005298 26488.600000 1 0 0
6.684049 17.885206 6.108759 20.046797 1.213149 1.261147 0.047384 -0.031239 64737.400000 1 0 0
11.230349 17.322006 -1.358641 20.688609 0.995597 1.636515 0.116115 -0.027099 395036.000000 1 0 0
18.438849 10.815006 3.285859 21.627584 0.530459 1.418277 0.081800 -0.009781 360778.000000 1 0 0
11.706249 16.722906 6.318959 21.368695 0.960062 1.270597 0.054153 -0.010261 -52967.400000 1 0 0
18.161049 7.799206 -5.662141 20.559941 0.405631 1.849799 0.076321 0.020120 572038.000000 1 0 0
-0.762951 15.719406 11.862959 19.708161 -1.522299 0.924879 0.033583 0.026890 214924.000000 1 0 0
1.412449 20.382906 -1.911641 20.521020 1.501611 1.664087 0.031389 -0.011371 240955.000000 1 0 0
14.611349 9.742706 -1.085241 17.595158 0.588088 1.632514 0.054090 -0.010046 95126.000000 1 0 0
10.223249 16.910506 2.089159 19.870698 1.027038 1.465464 0.060652 -0.036982 385367.000000 1 0 0
-0.024951 17.787606 -0.641841 17.799200 -1.569394 1.606864 0.008777 -0.006363 164715.000000 1 0 0
-0.180751 20.942706 1.284359 20.982831 -1.562166 1.509548 0.028791 -0.008907 279988.000000 1 0 0
6.247849 17.426806 -0.353741 18.516326 1.226552 1.589902 0.026654 -0.026785 -17658.100000 1 0 0
6.537849 18.593606 -2.826141 19.911121 1.232681 1.713215 0.029654 -0.026352 -27058.800000 1 0 0
10.224549 9.575006 12.682559 18.896282 0.752604 0.835015 0.035249 -0.008647 159494.000000 1 0 0
12.026949 14.373806 8.275859 20.487647 0.874059 1.154972 0.062415 -0.028234 69438.800000 1 0 0
0.119049 17.810806 7.202059 19.212200 1.564112 1.186541 0.034883 -0.007992 193626.000000 1 0 0
7.607649 18.042806 -7.826841 21.087404 1.171771 1.951056 0.066730 -0.017425 719.729000 1 0 0
-1.135051 18.753206 9.638459 21.115657 -1.510344 1.096784 0.067540 -0.015122 -145944.000000 1 0 0
16.246249 7.303306 -8.017741 19.533639 0.422470 1.993753 0.095631 0.004937 -138521.000000 1 0 0
-5.238551 19.823606 -6.479341 21.503479 -1.312444 1.876869 0.028813 -0.012315 286234.000000 1 0 0
4.592949 16.291606 10.168059 19.745912 1.296007 1.029853 0.049487 -0.004409 205403.000000 1 0 0
9.158549 14.870206 7.379859 18.959546 1.018768 1.170987 0.024522 -0.012363 45923.500000 1 0 0
-2.796751 19.193306 6.555859 20.473986 -1.426100 1.244851 0.032360 -0.014342 312105.000000 1 0 0
4.876949 18.135306 8.012159 20.417362 1.308091 1.167536 0.050602 -0.021500 101613.000000 1 0 0
14.431349 12.339406 -6.289141 20.001952 0.707414 1.890649 0.079910 -0.016466 62746.900000 1 0 0
11.821449 6.595706 15.845959 20.840932 0.508922 0.706977 0.119094 -0.023208 285236.000000 1 0 0
17.235949 9.544906 5.068059 20.343756 0.505740 1.319024 0.099043 -0.017505 118945.000000 1 0 0
5.271249 14.634006 11.892259 19.579735 1.225059 0.918043 0.038731 -0.039423 144668.000000 1 0 0
15.787649 10.715006 -3.741241 19.443716 0.596284 1.764418 0.073459 -0.018241 317186.000000 1 0 0
15.052749 14.367606 6.995659 21.953419 0.762114 1.246482 0.099334 0.007377 130389.000000 1 0 0
12.896649 13.642606 -8.326541 20.537175 0.813498 1.988254 0.201236 -0.062120 328474.000000 1 0 0
-8.557351 15.414106 9.670359 20.108177 -1.063997 1.069096 0.043712 -0.020035 184629.000000 1 0 0
-3.729951 17.319706 -7.755041 19.339737 -1.358677 1.983394 -0.003162 0.025435 127152.000000 1 0 0
2.453849 19.672806 -4.478941 20.324901 1.446704 1.792987 0.039814 -0.025156 66396.500000 1 0 0
7.052649 16.714306 8.842359 20.181556 1.171509 1.117267 0.029005 -0.013126 476591.000000 1 0 0
13.546849 15.294406 -1.635341 20.496593 0.845916 1.650667 0.146539 -0.031279 336212.000000 1 0 0
12.851349 16.577106 4.397359 21.431155 0.911332 1.364143 0.102395 -0.031248 323531.000000 1 0 0
2.182049 18.396206 0.790659 18.542030 1.452734 1.528142 0.009387 -0.021897 -250203.000000 1 0 0
-6.698751 18.004006 1.688459 19.283889 -1.214597 1.483126 -0.009760 0.021964 253303.000000 1 0 0
0.190049 19.855406 -5.601741 20.631354 1.561225 1.845764 0.049355 -0.009451 304153.000000 1 0 0
-7.235651 17.879206 -6.475441 20.345810 -1.186248 1.894699 0.037979 -0.017939 15697.900000 1 0 0
-7.496151 18.270306 -0.751441 19.762617 -1.181450 1.608829 0.053664 -0.002911 179091.000000 1 0 0
-14.736551 -9.264394 8.640159 19.433149 0.561232 1.110058 0.059265 -0.022520 611656.000000 1 0 0
-13.443351 -13.586494 7.995859 20.718356 0.790694 1.174579 0.062785 -0.015604 -106097.000000 1 0 0
-3.833051 -16.249894 12.353059 20.768953 1.339149 0.933798 0.059875 -0.010125 146081.000000 1 0 0
-2.062751 -15.012094 15.128759 21.412549 1.434245 0.786204 0.055944 -0.016179 446457.000000 1 0 0
-7.683851 -14.016094 13.289559 20.787131 1.069324 0.877187 0.035730 -0.015130 234314.000000 1 0 0
-10.107751 -11.456894 11.539859 19.146681 0.847879 0.923906 0.055390 -0.021222 -11979.700000 1 0 0
-7.237351 -10.473094 12.654059 17.949656 0.966108 0.788408 0.030804 -0.023415 341188.000000 1 0 0
-15.318851 -12.236794 7.638459 21.041682 0.674013 1.199294 0.059935 -0.004443 185233.000000 1 0 0
-4.674451 -12.653994 12.964459 18.709657 1.216940 0.805253 0.036589 -0.020746 470451.000000 1 0 0
3.794449 -12.866194 14.076459 19.444369 -1.284010 0.761307 0.006132 0.013271 521231.000000 1 0 0
6.627249 -13.600894 14.733159 21.118019 -1.117388 0.798673 0.046086 -0.001754 249946.000000 1 0 0
7.411949 -8.504894 16.476159 19.968326 -0.853956 0.600391 0.077095 -0.024747 603758.000000 1 0 0
-5.342651 13.386806 13.495259 19.745190 -1.191068 0.818290 0.013822 -0.006169 417483.000000 1 0 0
-13.459651 -1.605694 17.523059 22.153963 0.118736 0.658408 0.045072 -0.013829 200395.000000 1 0 0
-10.551051 10.242306 12.552759 19.333941 -0.770551 0.864185 0.021651 0.000760 433293.000000 1 0 0
-7.410651 -8.286194 17.121459 20.413797 0.841119 0.575868 0.040255 -0.023750 133866.000000 1 0 0
-4.972951 2.087306 18.725359 19.486564 -0.397400 0.280428 0.019715 0.002119 571277.000000 1 0 0
-15.897751 -3.582394 14.291359 21.675216 0.221638 0.850854 0.071543 -0.023695 225988.000000 1 0 0
-14.500251 3.309506 12.720659 19.571031 -0.224394 0.863246 0.019707 -0.004109 296491.000000 1 0 0
-14.530151 10.520506 9.447159 20.274495 -0.626683 1.086074 -0.018050 -0.004917 -82011.200000 1 0 0
-4.695251 11.149106 15.544959 19.697556 -1.172206 0.661320 0.014612 -0.015087 226929.000000 1 0 0
-13.175251 13.044806 7.620559 20.045626 -0.780423 1.180826 0.018853 -0.029122 104753.000000 1 0 0
-3.969851 -6.542394 18.607059 20.119276 1.025400 0.390188 0.027900 -0.020209 281011.000000 1 0 0
0.341449 -2.960394 17.891459 18.137939 -1.455965 0.165046 0.015682 -0.026636 65981.100000 1 0 0
-4.781451 6.317106 20.871959 22.325026 -0.922891 0.362782 0.047629 -0.016369 477786.000000 1 0 0
2.171149 -10.442394 16.162859 19.364800 -1.365800 0.583297 0.025812 -0.024172 271772.000000 1 0 0
-14.904551 -0.305094 14.290959 20.651156 0.020467 0.806516 0.008220 -0.000573 88997.000000 1 0 0
-13.963751 -6.301694 8.710859 17.623188 0.423926 1.053785 0.029120 -0.002720 151323.000000 1 0 0
10.194749 0.520206 16.339659 19.266240 0.050983 0.558411 0.099168 -0.007582 308758.000000 1 0 0
-7.641151 12.296006 11.807459 18.681409 -1.014766 0.886609 0.018620 -0.013754 -3719.780000 1 0 0
-1.730651 7.427906 19.833259 21.249167 -1.341887 0.367116 0.044350 -0.026045 334822.000000 1 0 0
0.900449 -14.025794 15.563359 20.970261 -1.506685 0.734504 -0.001949 -0.000509 415064.000000 1 0 0
-3.451551 -11.586094 18.002059 21.684670 1.281263 0.591376 0.060091 -0.019956 381414.000000 1 0 0
-2.267451 8.317906 16.552359 18.663052 -1.304664 0.480194 0.019991 -0.023348 478997.000000 1 0 0
-6.047751 -9.130094 19.868959 22.687209 0.985755 0.503751 0.128693 -0.051013 128409.000000 1 0 0
-6.670251 -2.953494 19.066859 20.414713 0.416839 0.365413 0.028544 -0.019816 -91458.300000 1 0 0
-10.859251 -8.059394 16.137259 21.054413 0.638470 0.697493 0.061029 -0.031164 198253.000000 1 0 0
-0.454251 6.229006 17.967959 19.022471 -1.498000 0.334529 0.020396 -0.003955 -87513.300000 1 0 0
-6.263251 -11.459594 18.588559 22.717507 1.070605 0.612439 0.085490 -0.038424 363886.000000 1 0 0
1.032249 3.227106 19.298759 19.593924 1.261213 0.173793 0.022125 0.006726 135909.000000 1 0 0
-18.547851 -0.334894 7.503759 20.011030 0.018054 1.186420 0.079915 -0.030932 175708.000000 1 0 0
-1.788851 -8.821794 17.565959 19.737957 1.370733 0.473543 0.022328 -0.019880 362974.000000 1 0 0
5.098249 3.425806 14.147159 15.423048 0.591656 0.409616 0.010195 -0.001818 112849.000000 1 0 0
-14.855451 -7.790194 10.911459 20.010784 0.482976 0.994074 0.095175 0.010728 247981.000000 1 0 0
3.558749 8.362506 16.871559 19.163656 1.168451 0.494105 0.029663 -0.004790 129417.000000 1 0 0
6.162549 4.336906 17.208959 18.786539 0.613240 0.412738 0.048451 -0.033372 245668.000000 1 0 0
4.067049 -9.420694 17.892459 20.625966 -1.163252 0.520697 0.008782 -0.019704 164862.000000 1 0 0
-4.483251 -0.903394 19.562459 20.089935 0.198841 0.229658 0.021170 -0.020163 575682.000000 1 0 0
-11.083351 1.953406 17.111059 20.480352 -0.174455 0.581779 0.027605 -0.006467 121133.000000 1 0 0
-16.685451 -4.367994 8.576259 19.262291 0.256039 1.109359 0.047744 -0.026931 315452.000000 1 0 0
-13.695251 -8.702094 14.000459 21.431267 0.566050 0.858897 0.087523 -0.043041 119484.000000 1 0 0
-14.744551 6.082606 13.080359 20.627546 -0.391263 0.883925 0.032625 -0.023409 466698.000000 1 0 0
1.038649 9.428606 16.991659 19.460059 1.461079 0.509157 0.018778 -0.014400 220188.000000 1 0 0
-4.081251 -10.625894 14.520359 18.450124 1.204084 0.664855 0.034380 -0.023134 544429.000000 1 0 0
-17.266751 -2.924394 7.049559 18.878269 0.167774 1.188101 0.035515 -0.020593 -95599.200000 1 0 0
-0.571651 -0.660194 20.868559 20.886824 0.857153 0.041823 0.032848 -0.021817 445532.000000 1 0 0
-1.876351 2.273106 20.444259 20.655639 -0.880725 0.143185 0.026168 -0.009418 52026.400000 1 0 0
-7.970551 1.962706 16.252259 18.207631 -0.241441 0.467701 -0.001043 0.004792 522027.000000 1 0 0
2.554749 -1.936194 18.875359 19.145620 -0.648525 0.168223 0.019847 -0.013394 -8825.750000 1 0 0
-12.068151 4.369906 14.076359 19.049415 -0.347416 0.739302 -0.022225 -0.013354 152325.000000 1 0 0
-13.647151 -5.484894 12.917959 19.575558 0.382150 0.850107 0.056626 -0.027055 -23263.000000 1 0 0
-17.463451 -0.975194 9.661059 19.981471 0.055784 1.066147 0.071281 -0.031305 424785.000000 1 0 0
-7.488951 7.822106 14.443459 18.052236 -0.807154 0.643347 0.002991 -0.014462 31271.900000 1 0 0
-9.739851 0.808206 14.045359 17.111108 -0.082790 0.607929 0.018986 -0.004624 164493.000000 1 0 0
7.407349 -0.900494 14.815959 16.588923 -0.120974 0.466554 0.036790 -0.013165 152450.000000 1 0 0
4.104149 6.708106 18.303259 19.921145 1.021731 0.405804 0.013198 0.010432 164650.000000 1 0 0
2.067449 0.160106 19.681159 19.790099 0.077287 0.104974 0.019589 -0.016257 285696.000000 1 0 0
-6.982651 6.896506 17.842559 20.363598 -0.779191 0.502879 -0.002577 -0.003374 540467.000000 1 0 0
7.407449 -3.425594 16.897959 18.765554 -0.433161 0.449930 0.043867 -0.007053 159073.000000 1 0 0
-16.382851 2.465206 9.250459 18.974879 -0.149354 1.061560 0.032471 -0.021719 353439.000000 1 0 0
3.896349 -5.676994 19.223359 20.419288 -0.969297 0.343946 0.059668 -0.034640 157654.000000 1 0 0
-3.916751 -3.909494 20.592659 21.323290 0.784471 0.262534 0.024995 -0.020552 411700.000000 1 0 0
-9.803851 6.002406 14.490159 18.496191 -0.549378 0.670658 0.005417 -0.005321 7699.340000 1 0 0
6.444349 2.578906 19.811859 20.992622 0.380662 0.336992 0.095231 -0.020857 -20787.100000 1 0 0
-7.468451 11.433906 14.683359 20.052756 -0.992186 0.749196 0.026381 -0.017543 92946.900000 1 0 0
-14.334651 5.143306 9.895559 18.161991 -0.344495 0.994586 0.002747 -0.010227 284913.000000 1 0 0
0.929749 -5.563194 20.383259 21.149251 -1.405202 0.269960 0.054372 -0.037384 236120.000000 1 0 0
-6.492051 -8.470194 13.533259 17.234849 0.916845 0.667735 0.023483 -0.006996 331753.000000 1 0 0
-12.986951 9.720006 6.806159 17.591566 -0.642505 1.173530 -0.009565 -0.025795 128562.000000 1 0 0
-19.624151 2.440006 7.689259 21.217578 -0.123702 1.199954 0.088034 -0.041245 -141311.000000 1 0 0
-16.076351 9.122006 6.477459 19.586156 -0.516117 1.233734 0.018010 -0.010954 35461.300000 1 0 0
-13.123951 7.938406 14.183859 20.891104 -0.544000 0.824475 0.026036 -0.006484 341071.000000 1 0 0
-16.704051 7.781706 10.032759 20.981814 -0.435962 1.072233 0.048240 -0.054211 19418.500000 1 0 0
2.137449 10.982606 14.293859 18.152155 1.378578 0.664140 0.023371 -0.046270 418188.000000 1 0 0
2.339249 14.768406 11.869759 19.091074 1.413706 0.899829 0.041116 -0.045797 572846.000000 1 0 0
8.564549 4.932806 16.518959 19.249938 0.522553 0.539179 0.057583 -0.010949 6104.820000 1 0 0
-0.385551 13.191606 13.491059 18.872620 -1.541578 0.774389 0.022846 0.000850 282760.000000 1 0 0
4.581049 13.717506 15.248859 21.016272 1.248485 0.758928 0.065324 0.013998 115013.000000 1 0 0
-3.645151 -4.618394 -13.845341 15.043608 0.902634 2.739763 -0.000661 -0.007520 32141.200000 1 0 0
5.936349 -11.912494 16.935659 21.539831 -1.108486 0.666082 0.034669 0.001834 221658.000000 1 0 0
8.649349 -14.008794 7.043559 17.907241 -1.017664 1.166539 0.021970 -0.001815 265003.000000 1 0 0
-0.338851 15.374006 0.500859 15.385894 -1.548759 1.538237 0.004013 -0.003445 -512120.000000 1 0 0
-14.042951 7.656506 8.215859 17.981293 -0.499166 1.096276 -0.010741 -0.012851 -35255.700000 1 0 0
-16.134951 -9.933794 4.390459 19.449756 0.551861 1.343101 0.034229 -0.005463 138882.000000 1 0 0
8.750149 -10.191594 11.346659 17.583526 -0.861351 0.869380 0.014455 -0.005624 66508.600000 1 0 0
-26.776611 6.036706 30.869725 41.308215 -0.221740 0.726803 0.086645 -0.033182 -704541.000000 0 0 1
-25.727451 5.167806 30.561165 40.281419 -0.198229 0.709494 0.091547 -0.028648 102764.000000 0 0 1
-24.679851 5.444406 31.511856 40.394723 -0.217124 0.675973 0.089546 -0.024932 1278770.000000 0 0 1
-23.304851 4.786706 31.056675 39.122189 -0.202578 0.653702 0.088980 -0.029876 653832.000000 0 0 1
-23.140751 3.398306 31.180355 38.977652 -0.145812 0.643577 0.062900 -0.033485 477590.000000 0 0 1
-21.806451 2.956506 30.922885 37.953749 -0.134758 0.618495 0.076384 -0.028672 541740.000000 0 0 1
-21.358851 1.714406 31.676442 38.243126 -0.080095 0.594745 0.063596 -0.031257 -379909.000000 0 0 1
-21.979451 0.548006 31.307765 38.256669 -0.024927 0.612243 0.061316 -0.027615 -182601.000000 0 0 1
-21.826151 -0.383394 32.351960 39.027902 0.017564 0.593579 0.059390 -0.031833 -543170.000000 0 0 1
-22.573851 -1.702994 32.103461 39.282453 0.075298 0.614179 0.068633 -0.039757 -384136.000000 0 0 1
-21.921551 -2.586094 31.199255 38.218265 0.117428 0.615744 0.092285 -0.044716 -52881.300000 0 0 1
-22.291551 -3.930494 31.343254 38.662147 0.174528 0.625456 0.101687 -0.045040 -551989.000000 0 0 1
-23.669751 -4.542794 30.990825 39.259716 0.189618 0.660998 0.070704 -0.033803 875133.000000 0 0 1
-24.780151 -4.209694 31.874173 40.592367 0.168275 0.667736 0.052531 -0.021244 867096.000000 0 0 1
-24.723951 -4.547494 33.241045 41.676378 0.181898 0.647492 0.059907 -0.026044 -252199.000000 0 0 1
-25.974971 -4.054994 -33.250871 42.388235 0.154862 2.472583 0.068474 -0.015499 498827.000000 0 0 1
-26.144811 -4.583694 -31.950691 41.538031 0.173556 2.448371 0.067732 -0.026664 710914.000000 0 0 1
-27.289451 -4.174694 -31.170921 41.638546 0.151801 2.416755 0.084963 -0.028395 490264.000000 0 0 1
-27.431551 -4.900494 -29.839761 40.827884 0.176780 2.390388 0.082940 -0.032291 -239750.000000 0 0 1
-27.670741 -6.269694 -30.098391 41.362931 0.222820 2.385709 0.080230 -0.024012 542911.000000 0 0 1
-27.385561 -6.991094 -28.893331 40.418670 0.249946 2.367207 0.078022 -0.012681 -375483.000000 0 0 1
-27.642841 -8.514794 -28.921391 40.903242 0.298806 2.356140 0.077903 -0.012242 100777.000000 0 0 1
-28.985891 -8.964494 -28.826081 41.850770 0.299940 2.330605 0.083557 -0.015475 -48899.900000 0 0 1
-29.152341 -10.358094 -29.014001 42.414164 0.341397 2.324116 0.084033 -0.008463 145478.000000 0 0 1
-30.463791 -10.861794 -28.388461 43.034008 0.342496 2.291183 0.109811 -0.013956 135397.000000 0 0 1
-30.393131 -11.072094 -26.984811 42.124977 0.349353 2.266062 0.129984 -0.025693 -375136.000000 0 0 1
-31.683831 -11.326194 -26.498431 42.828899 0.343319 2.237889 0.120975 -0.029989 20154.800000 0 0 1
-31.593991 -12.081794 -25.139701 42.144449 0.365249 2.209945 0.136367 -0.029897 -136726.000000 0 0 1
-31.365151 -11.256394 -24.032541 41.085789 0.344566 2.195597 0.145245 -0.025436 50805.300000 0 0 1
-31.248491 -11.963594 -22.762941 40.469090 0.365638 2.168175 0.152187 -0.022288 -369407.000000 0 0 1
-30.711901 -11.015094 -21.677841 39.172464 0.344368 2.157231 0.168065 -0.032419 -22119.000000 0 0 1
-30.564511 -11.576194 -20.405241 38.530137 0.362051 2.128915 0.177606 -0.031069 331174.000000 0 0 1
-29.536641 -12.557794 -20.262341 37.956209 0.402006 2.133925 0.175884 -0.036346 -332734.000000 0 0 1
-29.193521 -12.786094 -18.756841 36.980602 0.412811 2.102738 0.162993 -0.040192 -255853.000000 0 0 1
-28.306861 -11.818694 -18.274641 35.706055 0.395518 2.108084 0.144307 -0.038698 -40045.300000 0 0 1
-28.287721 -11.843094 -16.859941 34.995880 0.396493 2.073469 0.144035 -0.043558 4202.760000 0 0 1
-27.889891 -10.447794 -16.262041 33.933116 0.358428 2.070583 0.130992 -0.037934 -1328670.000000 0 0 1
-26.539611 -10.236494 -16.215441 32.742591 0.368124 2.088907 0.123829 -0.034366 -1194590.000000 0 0 1
-26.241691 -9.037594 -15.622441 31.849099 0.331676 2.083476 0.123677 -0.039795 803624.000000 0 0 1
-24.751251 -8.544194 -15.770941 30.567143 0.332395 2.112906 0.132920 -0.033581 653120.000000 0 0 1
-23.857051 -9.133894 -14.877541 29.562275 0.365643 2.098165 0.138327 -0.041642 -1002970.000000 0 0 1
-22.668451 -8.448894 -14.852041 28.387067 0.356767 2.121395 0.165103 -0.066894 -1165610.000000 0 0 1
-21.639451 -8.943894 -13.849741 27.204308 0.391931 2.104936 0.141532 -0.041039 247240.000000 0 0 1
-20.755751 -10.000794 -14.297841 27.115407 0.449008 2.126211 0.131400 -0.032134 1943600.000000 0 0 1
-19.452551 -9.922694 -13.659841 25.757578 0.471693 2.129778 0.145200 -0.027101 1815450.000000 0 0 1
-18.380551 -10.989094 -14.130841 25.657075 0.538848 2.154069 0.149322 -0.023003 945005.000000 0 0 1
-17.675051 -10.789994 -15.378041 25.793711 0.548079 2.209548 0.154708 -0.043039 627434.000000 0 0 1
-18.518251 -10.970494 -16.490541 27.114853 0.534824 2.224554 0.150506 -0.047986 148240.000000 0 0 1
-17.902151 -10.427694 -17.809641 27.320452 0.527440 2.280857 0.158663 -0.049497 920375.000000 0 0 1
-18.892051 -10.764594 -18.818141 28.756016 0.517914 2.284195 0.131758 -0.036629 1059560.000000 0 0 1
-18.466551 -10.365394 -20.112241 29.205429 0.511482 2.330418 0.135823 -0.043723 164612.000000 0 0 1
-19.415551 -10.652494 -21.338341 30.753277 0.501812 2.337626 0.141845 -0.035070 603557.000000 0 0 1
-20.564451 -9.795894 -21.366341 31.231021 0.444550 2.324218 0.116314 -0.037649 96138.800000 0 0 1
-21.566151 -10.269094 -22.183241 32.598302 0.444400 2.319245 0.121652 -0.020611 -154913.000000 0 0 1
-22.680151 -9.282594 -22.596141 33.333787 0.388483 2.315665 0.105636 -0.021435 -39200.800000 0 0 1
-22.145051 -8.245694 -23.370241 33.234965 0.356445 2.350660 0.111483 -0.045960 269233.000000 0 0 1
-22.944151 -7.800994 -24.431741 34.412200 0.327738 2.360257 0.110471 -0.032047 -253787.000000 0 0 1
-21.971351 -7.138894 -25.400241 34.334768 0.314158 2.403543 0.109664 -0.036655 165345.000000 0 0 1
-21.068651 -7.969294 -26.101141 34.477054 0.361620 2.429595 0.110401 -0.045368 91595.600000 0 0 1
-20.388951 -7.291094 -27.120391 34.704250 0.343430 2.467817 0.113346 -0.061192 283548.000000 0 0 1
-19.317551 -8.190594 -27.829851 34.853324 0.401021 2.495571 0.103664 -0.059493 680346.000000 0 0 1
-20.001451 -9.297794 -28.460651 36.007161 0.435139 2.482285 0.103607 -0.045278 1081890.000000 0 0 1
-19.059751 -10.082594 -29.201851 36.299874 0.486577 2.505565 0.090289 -0.040465 700175.000000 0 0 1
-19.809651 -11.126994 -30.149651 37.752267 0.511778 2.495792 0.090688 -0.024314 298654.000000 0 0 1
-20.367351 -10.618494 -31.335561 38.852268 0.480580 2.509057 0.095874 -0.021433 286711.000000 0 0 1
-20.533451 -11.681594 -32.299751 40.016948 0.517242 2.510108 0.082586 -0.018326 86459.300000 0 0 1
-21.168951 -11.339394 33.640195 41.332421 0.491768 0.619974 0.077078 -0.019778 -242624.000000 0 0 1
-20.332751 -10.534294 32.847926 40.042207 0.478018 0.608804 0.066335 -0.019183 -94008.400000 0 0 1
-20.623051 -10.542294 31.509474 39.106229 0.472559 0.633872 0.066050 -0.025078 -496381.000000 0 0 1
-20.150751 -11.752094 30.678835 38.540308 0.527981 0.650106 0.074592 -0.023425 22777.200000 0 0 1
-18.730451 -11.702094 30.647805 37.776404 0.558429 0.624433 0.070875 -0.026278 657599.000000 0 0 1
-18.028151 -12.756894 29.944085 37.207537 0.615815 0.635482 0.072357 -0.026862 214645.000000 0 0 1
-18.202851 -14.278994 30.407625 38.208076 0.665179 0.650398 0.069718 -0.018817 -364804.000000 0 0 1
-19.445051 -14.909794 30.076665 38.794558 0.654145 0.683637 0.064183 -0.027408 445345.000000 0 0 1
-19.657151 -16.251794 30.503655 39.761757 0.690848 0.696393 0.076920 -0.032104 -111778.000000 0 0 1
-20.023351 -16.461194 31.975628 41.162437 0.688072 0.681203 0.043637 -0.041198 501282.000000 0 0 1
-18.945651 -16.178994 32.896914 41.266263 0.706794 0.648175 0.072633 -0.031566 699799.000000 0 0 1
-19.449551 -15.455494 -33.295211 41.541887 0.671467 2.500571 0.059971 -0.027207 56501.800000 0 0 1
-18.311151 -14.993194 -32.389901 40.114832 0.686100 2.510578 0.085738 -0.027741 -217400.000000 0 0 1
-17.441351 -14.018394 -32.990171 39.863109 0.677020 2.545591 0.076771 -0.023396 813049.000000 0 0 1
-16.169551 -13.906094 -32.324801 38.726303 0.710281 2.558382 0.075465 -0.022326 790756.000000 0 0 1
-16.088051 -13.428894 -30.869801 37.310925 0.695552 2.545198 0.088099 -0.025191 -492165.000000 0 0 1
-16.788351 -14.239194 -29.928481 37.152622 0.703424 2.507408 0.082086 -0.025941 -146275.000000 0 0 1
-16.765151 -13.672694 -28.636011 35.889190 0.684147 2.494601 0.060570 -0.018919 -185579.000000 0 0 1
-16.895451 -14.849794 -27.583101 35.592135 0.721047 2.457476 0.074656 -0.014725 506141.000000 0 0 1
-15.734951 -15.640794 -27.256851 35.144829 0.782397 2.458395 0.104078 -0.042095 542623.000000 0 0 1
-15.143851 -16.393794 -28.332481 36.066912 0.825011 2.474386 0.106072 -0.049616 -474403.000000 0 0 1
-13.814551 -17.033594 -27.898581 35.486842 0.889373 2.475378 0.162594 -0.047640 441084.000000 0 0 1
-12.757251 -16.034494 -27.811481 34.544622 0.898736 2.506621 0.136401 -0.046380 -167172.000000 0 0 1
-11.958151 -16.287794 -26.727971 33.506328 0.937498 2.494267 0.171881 -0.051891 -437515.000000 0 0 1
-10.482251 -15.949194 -27.018631 33.079613 0.989357 2.526597 0.142628 -0.056962 65167.300000 0 0 1
-10.234151 -14.579594 -27.172211 32.490482 0.958763 2.561320 0.131259 -0.058490 343327.000000 0 0 1
-8.846651 -14.237794 -27.298671 32.034285 1.014826 2.590916 0.174245 -0.061526 914883.000000 0 0 1
-8.530751 -12.788894 -27.847921 31.809373 0.982533 2.637189 0.149087 -0.069468 -47241.900000 0 0 1
-9.040351 -12.533294 -29.143111 32.986850 0.945913 2.654028 0.169451 -0.062661 132795.000000 0 0 1
-8.644351 -11.272094 -29.716511 32.937151 0.916579 2.695683 0.144786 -0.063893 -117344.000000 0 0 1
-7.245751 -11.061194 -30.316591 33.074863 0.990872 2.730301 0.140293 -0.044975 -966626.000000 0 0 1
-6.175351 -10.965794 -29.393291 31.974195 1.057916 2.737048 0.135421 -0.045084 217091.000000 0 0 1
-4.927651 -10.822694 -30.021491 32.290902 1.143538 2.764448 0.135830 -0.043278 -419693.000000 0 0 1
-4.689851 -9.517594 -30.841891 32.615970 1.112961 2.810252 0.118847 -0.034290 -1211390.000000 0 0 1
-3.421951 -9.235194 -31.408591 32.916533 1.215947 2.837733 0.146229 -0.043121 308055.000000 0 0 1
-3.400251 -7.838394 -31.725011 32.855417 1.161500 2.878516 0.139170 -0.036526 1353440.000000 0 0 1
-1.962551 -7.347694 -32.219971 33.105388 1.309792 2.909793 0.147783 -0.039156 1299090.000000 0 0 1
-1.532551 -7.823894 -33.478111 34.414327 1.377365 2.907804 0.151224 -0.038524 185246.000000 0 0 1
-0.430751 -7.076194 33.322455 34.068227 1.509998 0.209623 0.162782 -0.032330 514643.000000 0 0 1
0.250249 -7.629094 32.012657 32.910119 -1.538006 0.234072 0.145180 -0.027268 -162188.000000 0 0 1
-0.562651 -7.551494 30.869485 31.784693 1.496425 0.240555 0.117546 -0.017501 -86586.700000 0 0 1
0.025449 -8.180994 29.787065 30.890104 -1.567686 0.268041 0.093921 -0.018219 -178988.000000 0 0 1
-0.380651 -7.486894 28.495735 29.465325 1.519998 0.257248 0.065966 -0.008675 63480.800000 0 0 1
0.271649 -6.237894 28.315035 28.995281 -1.527276 0.217039 0.090978 -0.010977 131722.000000 0 0 1
0.161149 -5.799994 26.968075 27.585195 -1.543019 0.211921 0.086493 -0.011196 424187.000000 0 0 1
-1.076051 -4.846794 26.726025 27.183261 1.352327 0.183673 0.060086 -0.002051 874244.000000 0 0 1
-2.292151 -5.556994 26.785965 27.452178 1.179578 0.220757 0.032178 0.006412 -919650.000000 0 0 1
-3.403051 -4.816494 26.427655 27.077672 0.955694 0.219555 0.026471 0.000463 -79795.900000 0 0 1
-4.740951 -5.368794 26.999645 27.933517 0.847421 0.259306 0.032701 0.010121 357550.000000 0 0 1
-5.060451 -6.557694 26.280445 27.554914 0.913563 0.305329 0.035793 0.008596 -130650.000000 0 0 1
-6.361851 -7.009594 26.622025 28.254907 0.833803 0.341633 0.044002 0.001837 568997.000000 0 0 1
-6.571451 -8.531894 26.448055 28.556554 0.914478 0.386686 0.064565 -0.006219 202549.000000 0 0 1
-5.851051 -9.290294 27.406465 29.523866 1.008751 0.381031 0.061797 -0.011043 -11118.500000 0 0 1
-5.902451 -10.650294 27.251305 29.847970 1.064730 0.420209 0.057864 -0.014257 -124640.000000 0 0 1
-5.193351 -11.399394 28.371775 31.014105 1.143311 0.415778 0.048192 -0.007387 -170044.000000 0 0 1
-5.190451 -12.774094 28.268945 31.452369 1.184848 0.453804 0.080588 -0.019837 97302.300000 0 0 1
-4.941051 -13.304494 29.548585 32.780214 1.215201 0.447769 0.106845 -0.028002 -127907.000000 0 0 1
-4.953751 -14.896294 29.432945 33.357720 1.249752 0.489979 0.157781 -0.060608 438846.000000 0 0 1
-6.286751 -15.380294 29.213295 33.607935 1.182767 0.517137 0.171949 -0.055106 536797.000000 0 0 1
-6.365651 -16.777594 29.156875 34.236421 1.208162 0.551703 0.173560 -0.057236 105515.000000 0 0 1
-6.534951 -17.453394 30.569585 35.802599 1.212532 0.547484 0.199834 -0.053139 829163.000000 0 0 1
-7.879251 -17.236294 31.031765 36.361282 1.142028 0.548268 0.167892 -0.059842 555410.000000 0 0 1
-8.054151 -17.466394 32.430584 37.705265 1.138731 0.535316 0.177999 -0.057604 502144.000000 0 0 1
-9.495951 -17.241194 33.043523 38.461751 1.067361 0.537235 0.173147 -0.043289 683471.000000 0 0 1
-10.418451 -18.165194 32.612456 38.756814 1.050061 0.570810 0.199997 -0.048777 -381897.000000 0 0 1
-11.173751 -17.772494 31.445652 37.809301 1.009533 0.588650 0.189773 -0.061415 43954.900000 0 0 1
-12.008551 -19.002394 30.958045 38.258291 1.007215 0.628032 0.193083 -0.052590 287938.000000 0 0 1
-13.094851 -19.368394 31.806875 39.475145 0.976296 0.633865 0.183544 -0.053784 268110.000000 0 0 1
-13.375351 -20.726994 31.633259 40.114478 0.997725 0.662309 0.183543 -0.054430 -4553.290000 0 0 1
-12.481251 -21.694894 32.464225 40.992389 1.048730 0.656788 0.197036 -0.058674 872696.000000 0 0 1
-11.082051 -21.751294 32.113957 40.339024 1.099586 0.649971 0.204809 -0.065594 1238540.000000 0 0 1
-10.269751 -22.148794 33.255835 41.255150 1.136632 0.633262 0.213825 -0.073800 396037.000000 0 0 1
-10.271751 -23.598694 -33.573391 42.303425 1.160261 2.487554 0.202658 -0.056602 -333271.000000 0 0 1
-9.957851 -24.550194 32.735473 42.112730 1.185461 0.680386 0.208904 -0.065728 -24651.500000 0 0 1
-10.011551 -25.843504 33.282275 43.310826 1.201206 0.694378 0.211440 -0.066837 -193222.000000 0 0 1
-9.228551 -26.864414 32.360498 43.058852 1.239903 0.720401 0.184018 -0.051608 994104.000000 0 0 1
-7.819951 -26.746954 32.144365 42.541878 1.286356 0.714237 0.191186 -0.067663 690729.000000 0 0 1
-7.081851 -27.272164 33.257325 43.588682 1.316734 0.702885 0.196894 -0.059659 -821442.000000 0 0 1
-5.570351 -27.151604 33.104391 43.175677 1.368447 0.697054 0.193995 -0.079419 -558553.000000 0 0 1
-5.177951 -25.870494 33.444155 42.598182 1.373258 0.667927 0.196508 -0.075376 -265812.000000 0 0 1
-3.952651 -25.575864 32.805443 41.784511 1.417463 0.667922 0.250930 -0.067850 -280662.000000 0 0 1
-3.358351 -24.237894 33.258235 41.290001 1.433115 0.634313 0.232146 -0.067203 -500355.000000 0 0 1
-2.542651 -24.244794 -32.892031 40.940943 1.466304 2.503783 0.183381 -0.074322 78598.500000 0 0 1
-2.174851 -22.930394 -32.606231 39.921163 1.476233 2.526579 0.169046 -0.068969 -238484.000000 0 0 1
35.914429 -15.685594 1.574059 39.221955 -0.411780 1.530653 0.259595 -0.068699 328317.000000 0 0 1
37.048849 -15.704194 2.438359 40.313577 -0.400920 1.510275 0.222541 -0.055518 450559.000000 0 0 1
36.649039 -15.808194 3.799959 40.093525 -0.407228 1.475876 0.212384 -0.040014 -397754.000000 0 0 1
37.754969 -15.795294 4.845259 41.211716 -0.396236 1.452954 0.184620 -0.023639 -600825.000000 0 0 1
-37.870941 -16.983094 5.058559 41.811752 0.421561 1.449515 0.171306 -0.026080 85203.800000 0 0 1
-37.270581 -17.086294 6.334659 41.486932 0.429850 1.417506 0.162147 -0.018620 74849.100000 0 0 1
-35.995771 -17.957594 6.406759 40.733490 0.462752 1.412856 0.118180 -0.025898 -236297.000000 0 0 1
-36.166591 -19.334494 6.180559 41.473416 0.490939 1.421215 0.116886 -0.022379 -62473.700000 0 0 1
-35.218631 -20.153394 6.840959 41.149848 0.519755 1.403776 0.092356 -0.015064 24970.300000 0 0 1
-35.614174 -21.667494 6.840059 42.244953 0.546570 1.408166 0.098012 -0.012188 -134534.000000 0 0 1
-35.337699 -22.222094 5.577459 42.115110 0.561363 1.437972 0.117075 -0.015854 286818.000000 0 0 1
-35.727322 -23.592394 5.572259 43.175139 0.583614 1.441374 0.108412 -0.017940 -206547.000000 0 0 1
-35.100129 -24.439794 4.500259 43.006684 0.608230 1.465963 0.115627 -0.013327 -318160.000000 0 0 1
-35.612816 -24.113594 3.218559 43.128844 0.595194 1.496100 0.113377 -0.007904 308312.000000 0 0 1
-35.152763 -25.009204 2.203559 43.197600 0.618365 1.519763 0.101171 -0.004702 -197754.000000 0 0 1
-35.524532 -24.570094 0.772259 43.200443 0.605091 1.552919 0.097185 -0.006626 372847.000000 0 0 1
-36.929521 -24.707094 0.587659 44.436194 0.589640 1.557571 0.074863 0.001930 221456.000000 0 0 1
-37.443521 -23.719894 -0.261041 44.325148 0.564677 1.576686 0.079169 -0.003201 65742.500000 0 0 1
37.665969 -22.983494 0.330559 44.125678 -0.547880 1.563305 0.108948 -0.010757 324139.000000 0 0 1
36.383009 -23.438294 -0.054041 43.279093 -0.572294 1.572045 0.072291 -0.006375 -69733.500000 0 0 1
35.376289 -22.734494 0.616459 42.056142 -0.571189 1.556138 0.120435 -0.025279 -765029.000000 0 0 1
33.958309 -23.048394 0.200059 41.041872 -0.596305 1.565922 0.079885 -0.013577 -600324.000000 0 0 1
33.674839 -22.701394 -1.139541 40.628151 -0.593155 1.598848 0.091647 -0.024586 -1501880.000000 0 0 1
32.371939 -22.942794 -1.444241 39.703905 -0.616558 1.607180 0.096711 -0.020070 -1266530.000000 0 0 1
31.981109 -22.529294 -2.825241 39.221708 -0.613711 1.642891 0.097846 -0.008310 -90622.300000 0 0 1
32.200329 -21.137494 -3.101141 38.642877 -0.580887 1.651134 0.133652 -0.029803 61273.200000 0 0 1
31.780149 -20.973694 -4.432241 38.334299 -0.583347 1.686676 0.138763 -0.047136 157580.000000 0 0 1
31.814889 -19.531694 -4.934541 37.656659 -0.550590 1.702215 0.166305 -0.047229 318514.000000 0 0 1
30.913179 -18.789094 -4.120041 36.409194 -0.546137 1.684199 0.191463 -0.053363 219439.000000 0 0 1
30.800679 -17.438694 -4.486841 35.678027 -0.515180 1.696889 0.203941 -0.055911 -419009.000000 0 0 1
29.982779 -16.778494 -3.394541 34.525466 -0.510187 1.669275 0.224890 -0.045107 -493883.000000 0 0 1
30.493779 -16.538294 -2.105141 34.753667 -0.496951 1.631407 0.224855 -0.045115 -42389.400000 0 0 1
31.147179 -17.587594 -1.357541 35.795435 -0.514029 1.608730 0.204933 -0.027987 75907.700000 0 0 1
30.375579 -18.905794 -1.057041 35.794164 -0.556728 1.600332 0.178119 -0.024361 -314213.000000 0 0 1
29.411479 -18.654594 -0.079641 34.828657 -0.565232 1.573083 0.160087 0.000155 -322887.000000 0 0 1
28.597979 -19.795694 0.075759 34.781024 -0.605476 1.568618 0.136333 0.000723 62049.700000 0 0 1
27.499779 -19.600594 1.151259 33.789740 -0.619235 1.536718 0.114024 0.007833 419356.000000 0 0 1
26.306679 -20.353694 0.951159 33.274899 -0.658503 1.542208 0.097273 -0.004306 459214.000000 0 0 1
25.489479 -20.379694 2.127859 32.704331 -0.674456 1.505687 0.088875 0.003058 844531.000000 0 0 1
23.973579 -20.078994 1.825059 31.324580 -0.697220 1.512500 0.069847 -0.000842 765772.000000 0 0 1
23.599779 -18.771794 1.358259 30.185670 -0.671944 1.525784 0.129442 -0.021858 287884.000000 0 0 1
23.638679 -17.798394 2.404659 29.687579 -0.645377 1.489709 0.162875 -0.029085 -414953.000000 0 0 1
23.432779 -16.307694 2.076059 28.624221 -0.607993 1.498205 0.132263 -0.008214 926921.000000 0 0 1
22.027679 -16.205394 1.768059 27.403640 -0.634275 1.506232 0.120734 -0.018300 875702.000000 0 0 1
21.706379 -14.913894 1.291459 26.367764 -0.601998 1.521798 0.141847 -0.030399 -871443.000000 0 0 1
20.315779 -14.705994 0.762159 25.091393 -0.626567 1.540416 0.087259 -0.013869 -1110410.000000 0 0 1
19.313179 -14.682994 1.738159 24.323043 -0.650034 1.499274 0.069404 -0.009500 515047.000000 0 1 0
18.342679 -13.613294 1.648559 22.901821 -0.638468 1.498750 0.072047 -0.015570 218110.000000 0 1 0
18.778279 -12.204294 2.136559 22.497410 -0.576316 1.475684 0.095443 -0.018651 -958215.000000 0 1 0
19.754379 -11.612294 1.357659 22.954828 -0.531426 1.511617 0.118549 -0.018811 -39858.900000 0 1 0
20.056879 -10.282594 1.847059 22.614636 -0.473733 1.489030 0.139557 -0.018203 -629988.000000 0 1 0
20.991379 -9.547794 0.942759 23.080017 -0.426875 1.529938 0.148545 -0.027926 -566464.000000 0 1 0
20.363679 -9.175494 -0.299341 22.337384 -0.423337 1.584198 0.152558 -0.023819 748848.000000 0 1 0
21.238079 -8.497894 -1.183041 22.905672 -0.380614 1.622468 0.147269 -0.022849 -681073.000000 0 1 0
20.661879 -8.221094 -2.564141 22.384692 -0.378684 1.685597 0.144277 -0.024609 -757280.000000 0 1 0
21.421679 -7.510694 -3.506741 22.969460 -0.337220 1.724065 0.180446 -0.036174 596291.000000 0 1 0
22.574979 -8.157094 -4.038741 24.340898 -0.346735 1.737491 0.179612 -0.042563 -151495.000000 0 1 0
22.212679 -9.214394 -5.094841 24.581814 -0.393222 1.779570 0.157994 -0.041057 -297462.000000 0 1 0
21.584079 -8.727094 -6.245941 24.104904 -0.384234 1.832902 0.154291 -0.053222 672195.000000 0 1 0
20.153279 -8.741494 -6.176441 22.819220 -0.409259 1.844884 0.136569 -0.029179 252724.000000 0 1 0
19.464679 -8.899994 -7.541341 22.692630 -0.428857 1.909565 0.141744 -0.030519 -369032.000000 0 1 0
19.489279 -10.115594 -8.264241 23.461776 -0.478758 1.930763 0.137322 -0.027728 125755.000000 0 1 0
20.736379 -10.494694 -8.792541 24.848436 -0.468516 1.932477 0.141653 -0.030058 -320513.000000 0 1 0
20.678879 -11.895794 -9.447841 25.659066 -0.522032 1.947876 0.112150 -0.034991 -38603.100000 0 0 1
19.745079 -12.071894 -10.495641 25.411754 -0.548751 1.996567 0.152055 -0.037638 150697.000000 0 0 1
19.654379 -13.452294 -10.763141 26.136259 -0.600208 1.995234 0.158233 -0.036758 -306799.000000 0 0 1
18.703679 -13.726094 -11.918841 26.082409 -0.633099 2.045380 0.162788 -0.033835 -214262.000000 0 0 1
18.583879 -15.113694 -12.178441 26.871895 -0.682780 2.041152 0.145791 -0.040280 420888.000000 0 0 1
17.821979 -15.351594 -13.365441 27.054193 -0.711067 2.087509 0.143564 -0.038632 -272465.000000 0 0 1
17.734379 -16.854394 -13.786941 28.083065 -0.759962 2.083958 0.105242 -0.043125 -385979.000000 0 0 1
16.821879 -17.565394 -13.000541 27.577758 -0.807017 2.061690 0.098909 -0.036594 7911.840000 0 0 1
16.900579 -18.923294 -13.204541 28.602107 -0.841801 2.050666 0.088477 -0.037893 363673.000000 0 0 1
15.761079 -19.721594 -12.454041 28.150595 -0.896556 2.029078 0.075828 -0.034934 416234.000000 0 0 1
14.493579 -19.417894 -13.003141 27.499093 -0.929601 2.063327 0.079742 -0.048644 -432721.000000 0 0 1
13.545279 -19.823594 -12.034441 26.856605 -0.971373 2.035435 0.079140 -0.033291 -202785.000000 0 0 1
12.084479 -19.809294 -12.513841 26.363592 -1.023027 2.065378 0.087688 -0.041043 -99678.300000 0 0 1
11.250279 -20.427894 -11.550541 26.024654 -1.067392 2.030665 0.097948 -0.045206 -118242.000000 0 0 1
9.900779 -20.454294 -11.972941 25.685694 -1.119995 2.055711 0.083017 -0.045517 635420.000000 0 0 1
8.874279 -21.018794 -10.929441 25.298126 -1.171294 2.017534 0.076918 -0.034451 276346.000000 0 0 1
8.879679 -22.393894 -10.881041 26.433544 -1.193292 1.995047 0.103548 -0.042252 -66366.000000 0 0 1
8.154279 -22.886494 -9.759641 26.182713 -1.228527 1.952769 0.103771 -0.040088 76541.700000 0 0 1
8.232079 -24.412794 -9.629541 27.504176 -1.245567 1.928487 0.101479 -0.035113 909326.000000 0 0 1
9.545579 -24.779894 -9.184541 28.098345 -1.203101 1.903787 0.095323 -0.023298 87682.900000 0 0 1
10.032679 -25.820464 -9.958741 29.436840 -1.200195 1.915915 0.087700 -0.025759 -51624.800000 0 0 1
11.458879 -26.191314 -9.507341 30.127734 -1.158380 1.891851 0.073840 -0.023195 30028.100000 0 0 1
11.581479 -26.814914 -8.219641 30.343579 -1.163092 1.845109 0.076064 -0.021009 -294206.000000 0 0 1
12.903579 -27.258004 -7.991341 31.198761 -1.128665 1.829826 0.087900 -0.008747 -169239.000000 0 0 1
13.325379 -27.740644 -6.565341 31.467646 -1.122987 1.780978 0.082135 -0.014554 -218066.000000 0 0 1
12.798179 -28.877194 -5.934641 32.138850 -1.153617 1.756518 0.092207 -0.020119 -747722.000000 0 0 1
11.416979 -28.910864 -5.770741 31.614663 -1.194692 1.754359 0.089131 -0.019908 -644385.000000 0 0 1
10.918879 -30.006504 -4.797841 32.289804 -1.221807 1.719935 0.095404 -0.017054 35317.700000 0 0 1
11.152079 -31.394094 -5.105041 33.704887 -1.229471 1.722844 0.106750 -0.021657 -84150.400000 0 0 1
10.439179 -31.920954 -6.207341 34.153402 -1.254727 1.753561 0.103702 -0.031306 73487.400000 0 0 1
10.648079 -33.458704 -6.238841 35.662159 -1.262686 1.746644 0.109454 -0.028579 185712.000000 0 0 1
9.989079 33.162503 -5.257441 35.031043 1.278224 1.721445 0.104314 -0.029286 66923.700000 0 0 1
10.510279 31.863165 -5.204741 33.953152 1.252178 1.724695 0.101805 -0.019321 147247.000000 0 0 1
9.741779 31.022010 -4.142541 32.778468 1.266520 1.697515 0.088011 -0.022815 243705.000000 0 0 1
8.413079 30.698840 -4.460941 32.141852 1.303312 1.710035 0.082337 -0.024326 -828033.000000 0 0 1
7.818279 29.979820 -3.416041 31.170249 1.315693 1.680610 0.058761 -0.019710 1510790.000000 0 0 1
6.295679 29.611390 -3.736641 30.502991 1.361306 1.693606 0.066309 -0.026307 1283070.000000 0 0 1
6.186479 28.710820 -4.877341 29.772003 1.358566 1.735361 0.074690 -0.034256 -96346.000000 0 0 1
6.153479 29.465390 -6.109241 30.714774 1.364918 1.771034 0.058013 -0.032021 -443284.000000 0 0 1
6.444279 28.697110 -7.411941 30.331332 1.349899 1.817662 0.070796 -0.037708 -314723.000000 0 0 1
5.548879 27.685730 -7.779541 29.288410 1.372993 1.839642 0.079799 -0.042758 -292284.000000 0 0 1
5.889279 26.416800 -7.316941 28.036914 1.351446 1.834829 0.067769 -0.037292 16238.400000 0 0 1
4.836879 25.383990 -7.833341 27.001918 1.382505 1.865131 0.076884 -0.044234 -143865.000000 0 0 1
3.556179 25.577310 -7.281541 26.830319 1.432646 1.845636 0.078213 -0.037871 -553107.000000 0 0 1
2.577479 25.972890 -8.215641 27.362952 1.471883 1.875748 0.095772 -0.041612 213220.000000 0 0 1
2.118579 25.090620 -9.448641 26.894319 1.486559 1.929782 0.099854 -0.049812 -336288.000000 0 0 1
3.115479 24.823570 -10.434041 27.106918 1.445944 1.965919 0.093278 -0.043773 32395.700000 0 0 1
2.650479 24.135520 -11.565841 26.894554 1.461418 2.015338 0.105527 -0.041978 -106138.000000 0 0 1
2.190379 22.643590 -11.346841 25.422052 1.474363 2.033466 0.110190 -0.037504 -33850.400000 0 0 1
0.961979 22.530550 -10.677941 24.951342 1.528126 2.013020 0.121473 -0.032951 -440409.000000 0 1 0
0.880779 21.341650 -9.941641 23.560093 1.529549 2.006413 0.091694 -0.025647 -1369070.000000 0 1 0
-0.260721 21.268950 -9.000041 23.096253 -1.558539 1.971075 0.086089 -0.020567 -1156690.000000 0 1 0
-1.444621 21.024450 -9.704841 23.201257 -1.502193 2.002358 0.087461 -0.018563 -957439.000000 0 1 0
-2.506821 20.618950 -8.885041 22.591352 -1.449812 1.975008 0.077340 -0.025290 4856.160000 0 1 0
-3.594821 19.972850 -9.760941 22.519179 -1.392718 2.019114 0.062280 -0.032625 -297973.000000 0 1 0
-4.824121 19.694550 -9.164541 22.251657 -1.330579 1.995289 0.054466 -0.025580 -134821.000000 0 1 0
-5.712121 19.160050 -10.148341 22.421522 -1.281059 2.040493 0.043776 -0.025240 159792.000000 0 1 0
-6.775021 18.165750 -9.595441 21.632564 -1.213819 2.030368 0.046804 -0.024664 311020.000000 0 1 0
-7.844621 18.673450 -8.808441 22.086748 -1.173088 1.981016 0.078594 -0.021516 643510.000000 0 1 0
-9.006721 18.891850 -9.666741 23.053609 -1.125920 2.003488 0.083916 -0.025956 108821.000000 0 1 0
-10.161921 19.137750 -8.702141 23.350489 -1.082667 1.952686 0.088282 -0.033563 -736306.000000 0 1 0
-10.495321 17.950950 -8.089041 22.311901 -1.041728 1.941792 0.070507 -0.029572 -524025.000000 0 1 0
-11.367821 18.172550 -7.012741 22.553214 -1.011802 1.886980 0.096564 -0.026316 -331379.000000 0 1 0
-11.935221 16.952450 -6.367541 21.688260 -0.957363 1.868781 0.067148 -0.029656 -452795.000000 0 1 0
-12.821121 17.242350 -5.314141 22.134133 -0.931415 1.813253 0.082253 -0.018613 -62811.000000 0 1 0
-13.158221 16.028750 -4.678541 21.259076 -0.883433 1.792685 0.063181 -0.021474 -601909.000000 0 1 0
-14.208521 16.341150 -3.640441 21.958325 -0.855094 1.737354 0.053198 -0.031031 -1931650.000000 0 1 0
-15.487521 16.385350 -4.093341 22.915026 -0.813560 1.750392 0.122860 -0.054344 -1073030.000000 0 1 0
-16.374421 16.732150 -3.025041 23.605875 -0.796203 1.699297 0.139225 -0.048361 142840.000000 0 1 0
-17.844221 17.010950 -3.368841 24.882478 -0.761496 1.706603 0.159557 -0.056773 -144328.000000 0 1 0
-18.146521 18.093750 -4.251741 25.976091 -0.783942 1.735215 0.153440 -0.056146 -434192.000000 0 0 1
-19.529221 18.279250 -4.321341 27.096041 -0.752350 1.730963 0.150505 -0.059640 -495866.000000 0 0 1
-19.932621 19.199850 -5.456641 28.208483 -0.766675 1.765463 0.142801 -0.037839 -203912.000000 0 0 1
-19.531521 20.553050 -5.414741 28.865681 -0.810877 1.759498 0.150835 -0.061145 100786.000000 0 0 1
-19.701221 21.165750 -6.708341 29.683815 -0.821219 1.798759 0.131364 -0.034432 -212874.000000 0 0 1
-19.656221 22.659940 -6.656941 30.727101 -0.856262 1.789175 0.139584 -0.036717 113496.000000 0 0 1
-18.437021 23.366310 -6.533341 30.472819 -0.902772 1.786873 0.140104 -0.040874 60871.900000 0 0 1
-17.866921 23.462730 -5.264741 29.957370 -0.919974 1.747455 0.148269 -0.049932 -82584.700000 0 0 1
-16.502921 24.183270 -5.217041 29.738770 -0.971973 1.747138 0.122689 -0.048682 -371807.000000 0 0 1
-16.097221 24.489680 -3.893741 29.563933 -0.989302 1.702886 0.115526 -0.048224 -32324.200000 0 0 1
-14.851121 25.135670 -3.756541 29.435850 -1.037140 1.698763 0.136808 -0.051541 -53746.600000 0 0 1
-14.490221 26.464360 -4.556341 30.513752 -1.069846 1.720678 0.139818 -0.045213 -645654.000000 0 0 1
-15.276621 27.558060 -4.204741 31.788388 -1.064625 1.703458 0.164604 -0.037746 70184.600000 0 0 1
-14.985021 28.583210 -5.170141 32.684569 -1.087930 1.729646 0.128155 -0.042594 232918.000000 0 0 1
-15.710521 29.891680 -4.744041 34.100424 -1.086893 1.710369 0.129892 -0.035116 -286202.000000 0 0 1
-17.100821 29.854560 -4.887841 34.750882 -1.050614 1.711918 0.153352 -0.036628 -413173.000000 0 0 1
-17.638821 31.164380 -4.804041 36.130671 -1.055757 1.704154 0.170901 -0.030736 -100682.000000 0 0 1
13.565349 -8.552094 18.321065 24.347863 -0.562499 0.718990 0.179766 -0.031641 309939.000000 0 1 0
14.327949 -9.598794 18.953965 25.625764 -0.590262 0.738254 0.167433 -0.026716 204219.000000 0 0 1
14.636149 -10.581294 17.989865 25.491487 -0.625967 0.787357 0.168876 -0.032104 18818.900000 0 0 1
15.101649 -11.887694 18.685065 26.805013 -0.666874 0.799489 0.205994 -0.051310 715789.000000 0 0 1
16.465849 -11.931794 19.149665 27.932088 -0.627071 0.815397 0.186098 -0.046023 1088410.000000 0 0 1
16.647749 -13.091494 20.026465 29.147797 -0.666382 0.813353 0.182860 -0.048003 -51156.300000 0 0 1
17.274149 -14.365994 19.364965 29.661084 -0.693742 0.859423 0.176591 -0.050729 -471769.000000 0 0 1
16.443949 -14.924594 18.411765 28.846838 -0.737000 0.878561 0.205138 -0.060311 -106056.000000 0 0 1
16.976549 -16.074794 17.808865 29.389758 -0.758121 0.919831 0.212808 -0.064084 -362341.000000 0 0 1
16.248249 -16.283994 16.496565 28.307432 -0.786497 0.948670 0.208373 -0.066708 -517841.000000 0 0 1
14.843049 -16.320394 16.633565 27.628732 -0.832769 0.924744 0.267140 -0.060986 45183.900000 0 0 1
14.197649 -15.836994 15.430765 26.277217 -0.839926 0.943164 0.281060 -0.060264 172061.000000 0 0 1
13.727649 -17.051994 14.588365 26.306639 -0.892986 0.982973 0.218511 -0.051174 -104402.000000 0 0 1
14.821549 -17.874994 14.182165 27.208961 -0.878515 1.022503 0.206262 -0.049354 224511.000000 0 0 1
14.389149 -18.939894 13.379965 27.290853 -0.921099 1.058394 0.175393 -0.043764 -740124.000000 0 0 1
15.418449 -19.773994 12.651865 28.085745 -0.908536 1.103501 0.146066 -0.037072 -814061.000000 0 0 1
16.176849 -20.566594 13.522565 29.453947 -0.904305 1.093805 0.109887 -0.030411 -131786.000000 0 0 1
16.711449 -21.674094 12.821365 30.222943 -0.913969 1.132689 0.055857 -0.027263 -489724.000000 0 0 1
17.424849 -22.610594 13.746365 31.683227 -0.914210 1.122014 0.048575 -0.031184 -1394170.000000 0 0 1
18.613149 -22.124194 14.208465 32.215055 -0.871373 1.114028 0.041623 -0.022825 -1160130.000000 0 0 1
19.143849 -23.034094 15.198565 33.586498 -0.877372 1.101207 0.045833 -0.035509 49205.500000 0 0 1
20.506649 -22.492994 15.700165 34.248396 -0.831560 1.094579 0.037130 -0.014048 -292640.000000 0 0 1
21.543349 -22.807994 14.825265 34.700273 -0.813905 1.129361 0.020144 -0.017722 -1544320.000000 0 0 1
22.722249 -22.199794 15.212465 35.221450 -0.773768 1.124188 0.020230 -0.005778 -183065.000000 0 0 1
23.925549 -22.955594 14.524765 36.198895 -0.764711 1.157916 0.019263 -0.015233 456147.000000 0 0 1
24.458249 -24.014494 15.314065 37.542276 -0.776244 1.150627 0.028806 -0.012061 -152321.000000 0 0 1
25.450849 -24.651994 14.565065 38.309368 -0.769455 1.180788 0.047086 -0.017266 -214576.000000 0 0 1
26.016649 -25.925944 15.282965 39.781775 -0.783652 1.176488 0.060737 -0.014102 419583.000000 0 0 1
26.839049 -25.712594 16.471365 40.654371 -0.763966 1.153647 0.064509 -0.004049 604313.000000 0 0 1
27.191349 -26.963224 17.015765 41.903713 -0.781186 1.152649 0.088368 -0.001828 203403.000000 0 0 1
27.775249 -26.868504 18.429965 42.814070 -0.768806 1.125788 0.074541 0.008091 316617.000000 0 0 1
26.714149 -26.391074 19.233965 42.190994 -0.779315 1.097437 0.084901 0.003355 274591.000000 0 0 1
27.146749 -26.246304 20.549365 42.989427 -0.768535 1.072409 0.080641 0.001743 194261.000000 0 0 1
25.940449 -26.038514 21.488765 42.575558 -0.787285 1.041738 0.073635 -0.013450 242106.000000 0 0 1
25.136949 -27.189424 21.656865 42.896979 -0.824603 1.041579 0.083090 -0.007167 17822.000000 0 0 1
24.011449 -26.898334 22.463995 42.481774 -0.842043 1.013620 0.090677 -0.015223 149595.000000 0 0 1
23.358049 -28.229754 22.949475 43.234198 -0.879554 1.011231 0.121738 -0.019585 -106484.000000 0 0 1
24.235549 -29.046104 23.710035 44.645311 -0.875439 1.010927 0.115278 -0.026306 337022.000000 0 0 1
24.586549 -30.261024 23.015625 45.276340 -0.888490 1.037544 0.123237 -0.025840 -270433.000000 0 0 1
25.663749 -31.067174 23.758015 46.778634 -0.880358 1.038072 0.094705 -0.021479 -389562.000000 0 0 1
25.372649 -31.329624 25.135565 47.509086 -0.890071 1.013294 0.104303 -0.023087 179015.000000 0 0 1
26.356949 -32.057654 25.863895 48.901156 -0.882681 1.013491 0.101382 -0.027496 -519668.000000 0 0 1
25.890549 -32.330164 27.299735 49.606810 -0.895557 0.988046 0.087276 -0.033035 322409.000000 0 0 1
25.045049 -33.428984 27.545985 50.035315 -0.927806 0.987796 0.084243 -0.026407 258037.000000 0 0 1
23.769549 -33.479204 26.935445 49.105669 -0.953404 0.990203 0.098617 -0.027932 -692749.000000 0 0 1
22.982049 32.736872 27.369185 48.465964 0.958714 0.970715 0.113407 -0.039674 -399664.000000 0 0 1
22.571249 32.706830 28.720595 49.031322 0.966740 0.944979 0.114780 -0.035480 -39953.200000 0 0 1
21.949249 31.513707 29.090685 48.178327 0.962424 0.922521 0.117112 -0.042749 -229966.000000 0 0 1
21.727449 31.519114 30.563135 48.986139 0.967259 0.897055 0.121043 -0.044019 -290548.000000 0 0 1
22.917549 31.552476 31.298654 50.003785 0.942616 0.894478 0.099983 -0.039419 -206183.000000 0 0 1
22.648849 31.856734 32.650148 50.929893 0.952753 0.874891 0.099893 -0.040436 419300.000000 0 0 1
23.917549 32.155740 33.539235 52.258215 0.931273 0.873955 0.086575 -0.028484 277409.000000 0 0 1
24.549649 30.951810 -33.513081 51.805660 0.900242 2.274309 0.073197 -0.024089 -793399.000000 0 0 1
25.690649 31.208140 -32.769421 52.036452 0.882066 2.252014 0.076693 -0.025711 -530745.000000 0 0 1
26.337049 29.996890 -32.047801 51.190967 0.850274 2.247266 0.070482 -0.022856 -234284.000000 0 0 1
26.820549 28.992970 -32.971611 51.449599 0.824301 2.266405 0.072698 -0.024375 374220.000000 0 0 1
25.789949 28.093290 -33.382811 50.683000 0.828119 2.289831 0.065391 -0.028543 276719.000000 0 0 1
26.148449 27.547340 32.528258 50.006848 0.811444 0.862585 0.082463 -0.031771 313886.000000 0 0 1
27.215549 26.602900 32.465644 50.024178 0.774015 0.864528 0.063757 -0.029675 348435.000000 0 0 1
27.179849 25.742790 31.265471 48.774636 0.758251 0.874971 0.074357 -0.037771 843401.000000 0 0 1
28.501949 24.836830 31.093165 48.949097 0.716792 0.882510 0.037460 -0.018154 1257500.000000 0 0 1
28.745649 23.948210 32.176724 49.347449 0.694605 0.860519 0.058957 -0.017046 187731.000000 0 0 1
29.468649 24.531080 33.238505 50.744195 0.694215 0.856586 0.075267 -0.026636 -1208560.000000 0 0 1
29.341449 23.826190 -32.672311 49.960863 0.682034 2.283601 0.085839 -0.026906 -344165.000000 0 0 1
28.130549 23.957630 -31.959321 48.853802 0.705456 2.283898 0.077228 -0.029719 224031.000000 0 0 1
26.997249 23.323290 -32.521021 48.274673 0.712516 2.309955 0.062547 -0.028826 -417217.000000 0 0 1
26.992549 21.748150 -32.470371 47.496365 0.678213 2.323534 0.045367 -0.024747 -649706.000000 0 0 1
26.690149 21.197350 -31.216071 46.218338 0.671195 2.312309 0.027397 -0.033806 336277.000000 0 0 1
26.705649 19.771850 -31.289221 45.641353 0.637304 2.326149 0.032944 -0.030752 -380211.000000 0 0 1
26.540049 19.045450 -29.906711 44.288991 0.622448 2.312117 0.043548 -0.025494 783742.000000 0 0 1
25.205149 19.245150 -29.391331 43.238012 0.652111 2.318227 0.035261 -0.022418 1108460.000000 0 0 1
24.967849 18.423150 -28.260051 41.969470 0.635696 2.309524 0.050470 -0.017787 -16736.100000 0 0 1
23.582649 18.638550 -27.591241 40.802125 0.668829 2.313417 0.053204 -0.021339 144891.000000 0 0 1
23.370749 18.064550 -26.327761 39.568559 0.658031 2.298787 0.069294 -0.018664 140924.000000 0 0 1
23.986149 18.839450 -25.286221 39.618849 0.665794 2.263003 0.071800 -0.006950 14490.700000 0 0 1
23.984249 17.950850 -24.022641 38.400058 0.642504 2.246682 0.105570 -0.007752 -209827.000000 0 0 1
24.829549 16.867050 -24.255841 38.592094 0.596707 2.250443 0.087149 -0.019452 -52225.400000 0 0 1
24.942349 16.036050 -23.073441 37.572055 0.571385 2.232056 0.122692 -0.027065 -3819.180000 0 0 1
25.870449 14.800650 -22.980741 37.635805 0.519657 2.227625 0.139606 -0.029074 1405020.000000 0 0 1
27.302949 15.070250 -22.978141 38.737042 0.504350 2.205803 0.171319 -0.037006 1713770.000000 0 0 1
28.195549 13.959150 -22.869841 38.895713 0.459707 2.199354 0.174604 -0.043003 241115.000000 0 0 1
28.122949 12.922150 -21.738641 37.821300 0.430716 2.183122 0.164550 -0.038161 -7666.960000 0 0 1
26.877649 12.210250 -21.812541 36.705383 0.426416 2.207142 0.153491 -0.030370 619686.000000 0 0 1
26.494649 11.794150 -20.487341 35.507739 0.418815 2.185826 0.132186 -0.032945 548220.000000 0 0 1
24.979149 11.473250 -20.329241 34.188761 0.430572 2.207586 0.128520 -0.021286 1052470.000000 0 0 1
24.072649 12.586350 -20.241741 33.876787 0.481759 2.211189 0.166062 -0.021327 638195.000000 0 0 1
22.726049 12.285850 -20.575541 33.026781 0.495603 2.243363 0.146247 -0.023262 549245.000000 0 0 1
21.751249 13.489250 -20.408941 32.735326 0.555111 2.243948 0.145998 -0.027115 -91336.100000 0 0 1
22.019049 14.560150 -21.365541 33.960607 0.584245 2.251226 0.135060 -0.023958 344009.000000 0 0 1
21.017549 15.547250 -21.386441 33.776237 0.636894 2.256451 0.120876 -0.028475 222608.000000 0 0 1
19.729949 15.324050 -22.219441 33.433530 0.660365 2.297735 0.100936 -0.007838 224170.000000 0 0 1
18.716249 14.574550 -21.559241 32.054896 0.661624 2.308476 0.086044 -0.018795 1046230.000000 0 0 1
17.516849 14.636650 -22.371541 31.961811 0.696060 2.346118 0.092678 -0.033548 461762.000000 0 0 1
16.373249 13.768850 -21.870341 30.593730 0.699208 2.367225 0.063548 -0.026736 -170415.000000 0 0 1
15.188849 13.920050 -22.649141 30.617846 0.741838 2.403475 0.090205 -0.029699 165531.000000 0 0 1
14.167249 13.156150 -21.986641 29.278108 0.748410 2.420309 0.104483 -0.030870 -348664.000000 0 0 1
12.830949 13.314150 -22.705741 29.282256 0.803878 2.458160 0.104551 -0.035952 -787441.000000 0 0 1
12.428149 14.663250 -22.714541 29.756010 0.867714 2.439295 0.109923 -0.028546 20041.200000 0 0 1
11.965549 15.045850 -23.997441 30.747831 0.898945 2.466197 0.122457 -0.038741 -624626.000000 0 0 1
11.741249 16.546750 -24.229841 31.602801 0.953669 2.444480 0.134273 -0.039294 849985.000000 0 0 1
12.920749 17.391950 -24.175041 32.463183 0.931845 2.410868 0.129334 -0.032959 1916230.000000 0 0 1
14.094149 17.080950 -24.992141 33.391780 0.880914 2.416521 0.141427 -0.045287 980245.000000 0 0 1
13.835849 17.063050 -26.536261 34.449260 0.889465 2.450108 0.177773 -0.048498 -324048.000000 0 0 1
15.057649 16.852550 -27.228151 35.385215 0.841587 2.448820 0.164981 -0.048854 175500.000000 0 0 1
14.993149 16.842450 -28.626521 36.440916 0.843422 2.474397 0.194639 -0.056051 -578703.000000 0 0 1
16.306649 17.297850 -29.247981 37.690407 0.814886 2.459105 0.167059 -0.054191 166632.000000 0 0 1
17.298449 16.275550 -29.453581 37.837062 0.754941 2.462960 0.122141 -0.052657 521406.000000 0 0 1
18.456649 16.853550 -30.031741 39.071671 0.740029 2.447496 0.100837 -0.041657 -388756.000000 0 0 1
19.594349 15.872250 -30.287691 39.410799 0.680834 2.447309 0.105205 -0.036837 -457702.000000 0 0 1
20.767449 16.606250 -30.548261 40.500009 0.674515 2.425350 0.092391 -0.038659 -239118.000000 0 0 1
21.897349 15.782950 -30.706181 40.883553 0.624530 2.420469 0.085352 -0.034003 147588.000000 0 0 1
23.174849 16.558750 -31.131701 42.195363 0.620400 2.400600 0.082602 -0.026779 68874.400000 0 0 1
23.132049 17.138250 -32.418141 43.356051 0.637644 2.415416 0.095354 -0.033483 -356147.000000 0 0 1
24.349249 17.708650 -32.771651 44.502397 0.628799 2.398533 0.077988 -0.035550 -778841.000000 0 0 1
24.216249 18.554450 33.251725 45.126174 0.653788 0.742381 0.051639 -0.021237 -28598.700000 0 0 1
25.408449 19.208050 32.847930 45.755054 0.647312 0.770004 0.046840 -0.014527 128355.000000 0 0 1
25.369549 19.760550 31.540597 45.043341 0.661747 0.795080 0.075791 -0.023447 -415534.000000 0 0 1
26.522349 20.734850 31.236729 45.924963 0.663537 0.822803 0.085632 -0.025671 -397899.000000 0 0 1
27.754349 20.097350 31.056015 46.245902 0.626728 0.834510 0.048267 -0.016002 -421041.000000 0 0 1
28.738549 21.107850 30.943975 47.212023 0.633493 0.856050 0.033996 -0.024978 -259680.000000 0 0 1
30.134649 20.744650 31.449884 48.244510 0.602897 0.860728 0.076272 -0.015850 -367905.000000 0 0 1
30.190649 20.498150 32.851538 49.100641 0.596463 0.837846 0.065343 -0.026169 1255820.000000 0 0 1
31.529149 20.089950 33.236575 50.023627 0.567315 0.844082 0.079406 -0.025431 1067630.000000 0 0 1
31.494049 19.575150 -32.650411 49.407600 0.556115 2.292731 0.080002 -0.008409 -233981.000000 0 0 1
31.210349 20.605250 -31.736131 49.049406 0.583516 2.274471 0.069267 -0.022797 -78826.800000 0 0 1
30.903249 20.116550 -30.419011 47.801701 0.577045 2.260564 0.090001 -0.035188 96699.800000 0 0 1
32.025649 20.076550 -29.330901 47.843618 0.559957 2.230722 0.109570 -0.041978 935559.000000 0 0 1
33.103549 19.171950 -29.703601 48.432556 0.524948 2.231026 0.112799 -0.048670 961486.000000 0 0 1
34.124049 19.085550 -28.702641 48.503098 0.509955 2.204048 0.137456 -0.055154 91600.700000 0 0 1
35.442949 18.430850 -29.142561 49.448839 0.479531 2.201048 0.118495 -0.046600 318565.000000 0 0 1
36.320849 19.345950 -29.828601 50.825341 0.489418 2.198002 0.132607 -0.046005 576779.000000 0 0 1
37.340249 19.952650 -29.024231 51.330385 0.490746 2.171762 0.106353 -0.034670 623794.000000 0 0 1
-37.951781 20.678850 -29.963981 52.590803 -0.498897 2.177007 0.087623 -0.035904 736145.000000 0 0 1
-37.147881 19.925850 -30.872921 52.250758 -0.492336 2.202922 0.068841 -0.034253 60843.100000 0 0 1
-36.074281 20.707450 -31.297131 52.054419 -0.521099 2.215847 0.061749 -0.027791 -756679.000000 0 0 1
-35.120581 20.120050 -32.297971 51.782531 -0.520243 2.244293 0.064163 -0.037013 73507.500000 0 0 1
-34.260781 19.104950 -31.731141 50.454588 -0.508685 2.250940 0.071009 -0.032685 417407.000000 0 0 1
-33.386081 18.514150 -32.668621 50.245825 -0.506327 2.278612 0.062991 -0.026193 -136592.000000 0 0 1
-32.575081 17.411650 -31.975771 48.854389 -0.490872 2.284333 0.056276 -0.009711 -244705.000000 0 0 1
-33.339081 16.283850 -31.585361 48.726718 -0.454350 2.276033 0.054588 -0.007392 45164.900000 0 0 1
-32.951081 15.103050 -32.311871 48.558550 -0.429774 2.298854 0.054973 -0.004779 582200.000000 0 0 1
-34.038381 13.957150 -32.226311 48.907550 -0.389133 2.290182 0.071311 -0.007357 735636.000000 0 0 1
-33.490681 12.710550 -32.742741 48.531133 -0.362732 2.311321 0.085323 -0.013952 395898.000000 0 0 1
-34.532781 11.810150 -33.020801 49.217536 -0.329529 2.306239 0.100027 -0.020116 38212.900000 0 0 1
-34.002881 10.350250 -33.098281 48.567682 -0.295482 2.320590 0.107057 -0.023614 113508.000000 0 0 1
-33.203181 10.021550 33.113268 47.951759 -0.293130 0.808542 0.079430 -0.028199 -77270.200000 0 0 1
-33.515181 8.674550 32.781244 47.677302 -0.253267 0.812666 0.123541 -0.042505 -588357.000000 0 0 1
-32.484481 8.007150 31.939312 46.254465 -0.241674 0.808598 0.119207 -0.037799 -1099700.000000 0 0 1
-31.263981 7.794050 32.565510 45.811528 -0.244318 0.780078 0.075945 -0.021951 -606284.000000 0 0 1
-30.367981 7.151950 31.676294 44.460682 -0.231295 0.777804 0.067594 -0.019988 -188806.000000 0 0 1
22.492149 -4.257594 -32.061081 39.394629 -0.187079 2.521533 0.098563 -0.046390 -323671.000000 0 0 1
23.738649 -4.011394 -32.683251 40.593221 -0.167400 2.506709 0.073248 -0.051161 3778.730000 0 0 1
24.509649 -3.065994 -31.992191 40.418109 -0.124447 2.484107 0.065555 -0.041352 -46752.800000 0 0 1
24.115949 -1.516494 -32.244141 40.293466 -0.062801 2.498479 0.070455 -0.034338 -194329.000000 0 0 1
24.956649 -0.651994 -31.509061 40.200502 -0.026119 2.471554 0.073803 -0.028771 290923.000000 0 0 1
24.817449 0.703006 -31.911191 40.431722 0.028320 2.480401 0.083169 -0.036856 -448093.000000 0 0 1
25.909049 1.664906 -31.393371 40.738121 0.064171 2.450601 0.063142 -0.021296 577381.000000 0 0 1
27.196649 1.479206 -32.001591 42.023179 0.054336 2.436455 0.056373 -0.019279 303448.000000 0 0 1
28.178249 2.096306 -31.197251 42.091290 0.074258 2.405624 0.062307 -0.015332 135344.000000 0 0 1
29.606449 1.938606 -31.779531 43.476874 0.065386 2.390513 0.058609 -0.015381 -12225.200000 0 0 1
29.833449 2.664306 -32.972721 44.545859 0.089070 2.404160 0.068010 -0.019051 86687.400000 0 0 1
30.515149 1.929306 33.326335 45.227659 0.063140 0.742386 0.052436 -0.011352 -84278.400000 0 0 1
31.217449 2.881506 32.293029 45.007465 0.092044 0.770584 0.069727 -0.004801 252180.000000 0 0 1
30.337549 3.678906 31.478734 43.872679 0.120677 0.770587 0.069161 0.002789 516161.000000 0 0 1
30.221849 4.964206 32.020464 44.309295 0.162805 0.763156 0.074830 0.001070 6507.570000 0 0 1
29.424549 5.957606 31.142105 43.256536 0.199770 0.767081 0.081996 -0.003710 43213.200000 0 0 1
29.616949 7.270606 31.596144 43.912888 0.240728 0.767687 0.126134 -0.030138 513168.000000 0 0 1
28.882649 8.219206 30.814345 43.026581 0.277244 0.772497 0.132785 -0.035377 588414.000000 0 0 1
29.572549 9.543506 31.230767 44.056498 0.312164 0.782887 0.141954 -0.043766 955652.000000 0 0 1
30.886649 9.779906 30.730805 44.654384 0.306651 0.811802 0.144589 -0.050494 347990.000000 0 0 1
31.373749 11.116206 30.839435 45.375687 0.340514 0.823515 0.136341 -0.032202 569900.000000 0 0 1
32.781549 11.214106 30.173465 45.943706 0.329607 0.854297 0.141632 -0.039266 -190478.000000 0 0 1
33.812349 10.591606 30.890665 47.007343 0.303565 0.853771 0.136460 -0.048393 -294288.000000 0 0 1
35.075049 10.664906 30.271775 47.543450 0.295177 0.880562 0.140374 -0.047593 285868.000000 0 0 1
35.856849 12.013106 30.336985 48.480522 0.323276 0.894696 0.127560 -0.038835 -742461.000000 0 0 1
36.350149 12.300506 31.603620 49.713425 0.326294 0.881861 0.130651 -0.043272 -321917.000000 0 0 1
36.745449 13.648506 31.728044 50.429937 0.355641 0.890336 0.131311 -0.030024 -163071.000000 0 0 1
35.681449 14.764306 31.882300 50.076258 0.392330 0.880618 0.124502 -0.029530 -246150.000000 0 0 1
35.095149 15.031606 30.615925 48.938263 0.404671 0.894892 0.123409 -0.040187 308864.000000 0 0 1
34.188349 16.149606 30.594785 48.638399 0.441302 0.890498 0.116762 -0.036084 641078.000000 0 0 1
32.690249 15.778706 30.714985 47.550292 0.449690 0.868533 0.106755 -0.033321 -201660.000000 0 0 1
32.154649 15.240406 29.555675 46.257209 0.442609 0.877674 0.128514 -0.029189 -85928.400000 0 0 1
30.772449 15.029906 29.810545 45.403858 0.454341 0.854542 0.110550 -0.035859 520732.000000 0 0 1
29.966249 14.413706 28.623895 43.875487 0.448331 0.860064 0.109527 -0.029222 253373.000000 0 0 1
30.216649 13.036906 28.570355 43.580638 0.407319 0.855853 0.137416 -0.035180 -111302.000000 0 0 1
29.465549 12.549106 27.512655 42.221379 0.402625 0.861067 0.150347 -0.044322 -12067.600000 0 0 1
29.377849 11.051006 27.498445 41.729453 0.359794 0.851348 0.143666 -0.038291 140975.000000 0 0 1
30.551149 10.408006 27.045515 42.108897 0.328343 0.873333 0.152758 -0.036979 185662.000000 0 0 1
30.268549 9.020706 26.806325 41.426287 0.289642 0.867042 0.166753 -0.036375 233278.000000 0 0 1
31.468049 8.168806 26.301435 41.817855 0.253984 0.890592 0.141542 -0.037947 81007.100000 0 0 1
31.825749 8.522206 24.950045 41.328090 0.261639 0.922654 0.149509 -0.036942 611185.000000 0 0 1
32.737949 7.500906 24.450195 41.543338 0.225232 0.941536 0.162118 -0.029772 580125.000000 0 0 1
33.343749 7.814906 23.087105 41.302455 0.230219 0.977645 0.145784 -0.030497 -33402.600000 0 0 1
34.050049 9.050106 22.972805 42.060196 0.259782 0.992989 0.132169 -0.036427 826508.000000 0 0 1
33.218749 10.236906 22.760795 41.549168 0.298932 0.991059 0.156007 -0.039511 576574.000000 0 0 1
32.480849 10.304206 21.397865 40.237431 0.307197 1.010083 0.154127 -0.019244 -28230.500000 0 0 1
33.379449 10.591106 20.345865 40.500783 0.307247 1.044473 0.165568 -0.028734 71954.300000 0 0 1
32.935849 10.170306 19.075065 39.396236 0.299503 1.065365 0.184100 -0.036420 -955650.000000 0 0 1
33.964749 10.451006 17.942965 39.809267 0.298507 1.103221 0.206949 -0.063974 648974.000000 0 0 1
35.170149 9.685406 18.028965 40.691400 0.268726 1.111781 0.186125 -0.051931 192679.000000 0 0 1
36.099849 10.254006 18.896865 42.017083 0.276756 1.104319 0.163090 -0.041301 -611493.000000 0 0 1
37.592449 10.069706 18.462565 43.075022 0.261721 1.127838 0.164124 -0.027678 355499.000000 0 0 1
37.930849 8.759606 18.422465 43.068170 0.226957 1.128793 0.122518 -0.010622 -210328.000000 0 0 1
-37.615581 8.480506 17.318065 42.270158 -0.221745 1.148672 0.132023 -0.021535 -783683.000000 0 0 1
-37.354981 7.000306 16.990665 41.630296 -0.185251 1.150389 0.131490 -0.023284 -596744.000000 0 0 1
37.880449 6.204706 16.673565 41.850144 0.162355 1.161012 0.131793 -0.029299 -469167.000000 0 0 1
-38.030381 5.081806 15.966365 41.557904 -0.132838 1.176460 0.167538 -0.035639 -775311.000000 0 0 1
37.311249 3.967306 15.780565 40.704976 0.105932 1.172681 0.160235 -0.037752 -550568.000000 0 0 1
37.079349 3.278506 17.013665 40.927882 0.088189 1.142086 0.152742 -0.020744 457241.000000 0 0 1
35.840049 2.563506 16.939465 39.724378 0.071405 1.130260 0.128364 -0.019036 575303.000000 0 0 1
35.575249 1.753506 18.202665 40.000127 0.049250 1.098351 0.144078 -0.032328 -92733.600000 0 0 1
36.423949 0.679606 18.430265 40.826959 0.018656 1.102436 0.166633 -0.032243 -199761.000000 0 0 1
35.842749 -0.073994 19.437565 40.774098 -0.002064 1.073884 0.150845 -0.023836 130728.000000 0 0 1
36.388549 -1.506094 19.496465 41.309890 -0.041366 1.079288 0.148519 -0.026063 373308.000000 0 0 1
35.761349 -2.233194 20.575265 41.318311 -0.062366 1.049540 0.160319 -0.020003 215064.000000 0 0 1
36.154449 -3.585794 20.449065 41.691323 -0.098857 1.058147 0.130535 -0.018474 126116.000000 0 0 1
35.519849 -4.563594 21.502565 41.771358 -0.127780 1.030059 0.122734 -0.019658 146264.000000 0 0 1
35.981549 -4.117594 22.771315 42.780361 -0.113941 1.009500 0.139492 -0.028818 470435.000000 0 0 1
35.426349 -4.914794 23.806985 42.964566 -0.137853 0.983506 0.139662 -0.031439 -4104.650000 0 0 1
35.715049 -4.223294 25.122175 43.869404 -0.117703 0.961052 0.139201 -0.036890 363079.000000 0 0 1
34.682149 -4.330994 26.083795 43.611619 -0.124234 0.929677 0.128052 -0.038672 407900.000000 0 0 1
35.176549 -3.740894 27.285235 44.675138 -0.105948 0.913792 0.138525 -0.034523 -18704.500000 0 0 1
34.232849 -3.977394 28.439065 44.682078 -0.115668 0.880876 0.120284 -0.027417 -342891.000000 0 0 1
34.183249 -5.340294 28.818075 45.027711 -0.154973 0.876288 0.126255 -0.040466 440698.000000 0 0 1
33.343349 -5.497394 29.976445 45.172863 -0.163402 0.845183 0.124634 -0.037478 57689.400000 0 0 1
33.457549 -6.929594 30.591485 45.861376 -0.204228 0.840564 0.130012 -0.027903 475787.000000 0 0 1
34.785949 -7.143594 31.062145 47.179975 -0.202543 0.852138 0.131761 -0.029300 323279.000000 0 0 1
35.077149 -8.522494 30.972685 47.564131 -0.238346 0.861662 0.127771 -0.032228 -142855.000000 0 0 1
36.461749 -8.971294 31.456390 48.984158 -0.241254 0.873464 0.128022 -0.030523 -159906.000000 0 0 1
36.578549 -9.147494 32.813187 49.983719 -0.245052 0.854657 0.117364 -0.036904 -1173370.000000 0 0 1
37.853849 -9.467994 33.168391 51.212293 -0.245091 0.866281 0.095424 -0.038028 -1199010.000000 0 0 1
37.851549 -9.865294 -32.630111 50.939061 -0.254959 2.266039 0.100865 -0.043549 -191282.000000 0 0 1
37.523549 -8.872394 -31.665931 49.894562 -0.232184 2.258361 0.084916 -0.041592 95446.900000 0 0 1
-37.945381 -7.780394 -31.614561 49.998669 0.202239 2.255325 0.097827 -0.038520 -189432.000000 0 0 1
37.789949 -6.605794 -30.793331 49.192947 -0.173054 2.247172 0.097232 -0.040864 -143694.000000 0 0 1
38.006949 -6.767294 -29.407031 48.529351 -0.176207 2.221773 0.076027 -0.032084 342775.000000 0 0 1
37.208249 -5.819194 -28.727971 47.366794 -0.155139 2.222448 0.094187 -0.034646 -19876.900000 0 0 1
37.796349 -5.491994 -27.331681 46.965379 -0.144295 2.191926 0.101094 -0.033298 -235248.000000 0 0 1
-37.348381 -4.769494 -27.482731 46.614913 0.127015 2.201322 0.109398 -0.034604 -630182.000000 0 0 1
-37.014281 -4.269394 -26.238971 45.571573 0.114837 2.184348 0.110055 -0.029527 -637541.000000 0 0 1
-35.509181 -4.032594 -26.181711 44.301757 0.113080 2.203077 0.133451 -0.020448 -1670460.000000 0 0 1
-35.098481 -3.658394 -24.898641 43.188303 0.103857 2.185252 0.146304 -0.027387 -222591.000000 0 0 1
-33.745281 -3.859894 -24.613441 41.945968 0.113888 2.197884 0.152269 -0.019966 -335880.000000 0 0 1
-32.672781 -3.086094 -25.378851 41.486391 0.094175 2.229054 0.163096 -0.021420 -1047130.000000 0 0 1
-32.515481 -3.415794 -26.762941 42.251380 0.104667 2.256763 0.156954 -0.018589 42163.300000 0 0 1
-31.630381 -2.546494 -27.477621 41.976008 0.080335 2.284454 0.158383 -0.013676 358125.000000 0 0 1
-31.150481 -3.189194 -28.801951 42.544985 0.102025 2.314443 0.142691 -0.024115 -4218.250000 0 0 1
-32.186281 -3.283794 -29.752521 43.953981 0.101673 2.314341 0.156451 -0.028386 -225959.000000 0 0 1
-31.887081 -4.215794 -30.770711 44.512869 0.131448 2.334051 0.113491 -0.016226 -375755.000000 0 0 1
-33.103781 -4.545594 -31.694411 46.054950 0.136460 2.329783 0.114408 -0.031928 515667.000000 0 0 1
-34.079481 -5.471094 -31.139421 46.486637 0.159181 2.304813 0.131421 -0.036640 1313280.000000 0 0 1
-34.951381 -4.934494 -30.100041 46.389230 0.140255 2.276879 0.141661 -0.040446 63049.400000 0 0 1
-36.110881 -4.002094 -30.538771 47.461869 0.110377 2.269777 0.169465 -0.038133 -503164.000000 0 0 1
-35.724381 -2.754294 -31.161311 47.485206 0.076946 2.286611 0.195697 -0.030228 180007.000000 0 0 1
-35.048081 -1.803294 -30.275471 46.348937 0.051407 2.282609 0.208566 -0.030339 371386.000000 0 0 1
-34.844081 -0.388094 -30.884901 46.563265 0.011138 2.296001 0.198506 -0.028189 279041.000000 0 0 1
-36.088681 0.273306 -31.004801 47.579042 -0.007573 2.280552 0.235886 -0.028540 118892.000000 0 0 1
-35.951281 1.509206 -31.728511 47.973646 -0.041955 2.293445 0.250080 -0.023279 258020.000000 0 0 1
-37.269981 2.233306 -32.140651 49.265206 -0.059851 2.281544 0.220035 -0.020408 222695.000000 0 0 1
-37.803981 1.860606 -33.386831 50.470618 -0.049178 2.293627 0.200003 -0.020128 -369020.000000 0 0 1
37.347349 2.539206 -33.652231 50.336316 0.067884 2.303051 0.155414 -0.015678 -504614.000000 0 0 1
36.541149 2.007606 32.431948 48.899052 0.054886 0.845653 0.125842 -0.012242 -66326.500000 0 0 1
37.068049 2.254506 31.126345 48.455881 0.060746 0.873217 0.148450 -0.025397 144743.000000 0 0 1
38.094049 1.337706 30.815545 49.015751 0.035101 0.890933 0.141733 -0.021782 -226999.000000 0 0 1
-37.795381 1.528806 29.344015 47.873785 -0.040428 0.911013 0.160923 -0.022939 -38282.800000 0 0 1
-36.925081 2.628306 29.143775 47.114002 -0.071060 0.903862 0.160833 -0.035655 140852.000000 0 0 1
-36.548481 2.732006 27.761145 45.977565 -0.074611 0.922540 0.144320 -0.039343 157118.000000 0 0 1
-35.680081 4.011206 27.563085 45.264573 -0.111951 0.916082 0.123308 -0.036170 -60066.000000 0 0 1
-35.219881 4.186606 26.247665 44.123776 -0.118315 0.933699 0.119235 -0.025786 -185464.000000 0 0 1
-34.592281 5.379406 26.103325 43.668610 -0.154273 0.930093 0.109947 -0.025046 -269519.000000 0 0 1
-33.843381 5.560706 24.720675 42.277744 -0.162852 0.946261 0.087097 -0.008199 929807.000000 0 0 1
-32.623981 4.790906 24.571815 41.122390 -0.145810 0.930381 0.079854 -0.012026 813798.000000 0 0 1
-31.884581 5.204006 23.444955 39.917090 -0.161787 0.943026 0.081579 -0.004992 60465.200000 0 0 1
-32.291281 4.696506 22.048065 39.381482 -0.144429 0.976581 0.099184 -0.012433 -101344.000000 0 0 1
-32.319881 3.303106 21.932565 39.198502 -0.101847 0.976983 0.097678 -0.014580 -98351.500000 0 0 1
-33.094381 2.904806 20.827265 39.210342 -0.087549 1.010818 0.114453 -0.020616 -926128.000000 0 0 1
-32.797181 1.400406 20.554865 38.731365 -0.042673 1.011366 0.109454 -0.024939 -492869.000000 0 0 1
-31.571281 1.039706 19.977365 37.375418 -0.032920 1.006874 0.126303 -0.025060 -174053.000000 0 0 1
-31.379081 1.598606 18.682165 36.554419 -0.050901 1.034358 0.135494 -0.028851 -626019.000000 0 0 1
-30.225381 0.963806 17.896265 35.139420 -0.031877 1.036433 0.146693 -0.036892 -404248.000000 0 0 1
-30.440881 -0.346294 17.444365 35.086650 0.011375 1.050451 0.164088 -0.030133 -123563.000000 0 0 1
-29.407081 -0.865894 16.637965 33.798640 0.029437 1.056104 0.185744 -0.040114 -105157.000000 0 0 1
-29.159181 -0.257994 15.210465 32.888944 0.008848 1.090007 0.190942 -0.040114 34464.100000 0 0 1
-28.585281 1.041406 15.322065 32.449476 -0.036415 1.079032 0.211547 -0.043977 134465.000000 0 0 1
-28.607181 1.694606 14.054865 31.918360 -0.059168 1.114821 0.236965 -0.050573 -45035.500000 0 0 1
-27.750381 2.970306 13.952565 31.202250 -0.106631 1.107203 0.230502 -0.052035 98514.100000 0 0 1
-26.383981 2.798306 13.635065 29.830520 -0.105666 1.096082 0.225138 -0.058800 3354.630000 0 0 1
-25.906581 3.956006 13.006665 29.257037 -0.151532 1.110107 0.225823 -0.060779 -111539.000000 0 0 1
-24.416881 3.796306 12.631665 27.751666 -0.154244 1.098236 0.205303 -0.067101 -110697.000000 0 0 1
-23.520281 3.917706 13.709565 27.504621 -0.165052 1.048991 0.173528 -0.057253 5108.310000 0 0 1
-22.173281 3.930106 13.258565 26.132157 -0.175423 1.038671 0.158024 -0.054879 -110458.000000 0 0 1
-21.275981 4.488806 14.338665 26.046383 -0.207931 0.987827 0.132658 -0.057648 -539941.000000 0 0 1
-21.598981 5.806506 14.759765 26.797055 -0.262623 0.987476 0.124499 -0.045006 366229.000000 0 0 1
-20.859281 6.187506 15.914965 26.957020 -0.288363 0.939263 0.106487 -0.026462 -19495.900000 0 0 1
-21.104081 7.622806 16.397765 27.791655 -0.346618 0.939707 0.105133 -0.020819 -235670.000000 0 0 1
-20.389881 8.591706 15.637465 27.094187 -0.398793 0.955559 0.085627 -0.017960 528637.000000 0 0 1
-20.888981 9.906406 15.709265 27.951161 -0.442829 0.973964 0.088157 -0.006845 -117425.000000 0 0 1
-20.469581 10.690006 17.022565 28.688808 -0.481280 0.935579 0.101326 -0.003803 -35151.400000 0 0 1
-21.221581 10.286706 18.143565 29.755012 -0.451356 0.915032 0.122128 -0.014453 372268.000000 0 0 1
-20.760081 10.862906 19.353065 30.389551 -0.482081 0.880413 0.145939 -0.007406 -10816.800000 0 0 1
-13.282851 -33.173837 -19.843641 40.874291 1.189944 2.077708 0.174167 -0.054428 341390.000000 0 0 1
-14.397851 -33.624737 -19.050741 41.241384 1.166225 2.050969 0.197164 -0.047147 245605.000000 0 0 1
-15.453251 -32.703937 -19.346941 41.020173 1.129374 2.061951 0.163048 -0.060727 -237791.000000 0 0 1
-16.746351 -33.208237 -18.696441 41.626724 1.103728 2.036605 0.143143 -0.046797 -1178560.000000 0 0 1
-17.333451 33.071706 -19.329641 42.045467 -1.088042 2.048490 0.147119 -0.042179 55502.400000 0 0 1
-17.961451 32.108306 -18.516141 41.187431 -1.060763 2.037067 0.160904 -0.038551 275546.000000 0 0 1
-19.308751 32.548306 -17.889341 41.859869 -1.035367 2.012370 0.140494 -0.035961 -437904.000000 0 0 1
-19.103551 33.611206 -16.954541 42.215107 -1.053960 1.984084 0.159080 -0.027656 482353.000000 0 0 1
-20.341551 -33.423537 -16.341541 42.402329 1.024078 1.966430 0.130061 -0.025682 638925.000000 0 0 1
-20.512551 33.421006 -14.871841 41.939242 -1.020319 1.933287 0.128252 -0.020072 -26488.200000 0 0 1
-20.597351 32.003806 -14.843741 40.851329 -0.998940 1.942668 0.128774 -0.027606 134593.000000 0 0 1
-20.715051 31.558606 -13.536941 40.103712 -0.989936 1.915107 0.133910 -0.023491 -76810.900000 0 0 1
-20.853251 30.043706 -13.304541 38.916489 -0.964043 1.919707 0.115823 -0.032494 184442.000000 0 0 1
-19.685551 29.232306 -13.348441 37.685932 -0.978135 1.932857 0.138807 -0.046351 104320.000000 0 0 1
-19.963251 27.838806 -13.356841 36.768678 -0.948685 1.942568 0.129466 -0.052623 168200.000000 0 0 1
-18.724051 26.982806 -12.968841 35.310802 -0.964159 1.946876 0.133604 -0.049102 -42609.000000 0 0 1
-17.805851 26.836306 -14.008541 35.120861 -0.984990 1.981077 0.160283 -0.053408 -336235.000000 0 0 1
-16.692951 26.080706 -13.543341 33.797632 -1.001448 1.983097 0.173086 -0.071043 390317.000000 0 0 1
-15.360151 26.527606 -14.191841 33.779527 -1.045942 2.004386 0.133082 -0.062564 29163.300000 0 0 1
-15.346351 26.486506 -15.585841 34.350603 -1.045660 2.041741 0.124144 -0.067250 -555315.000000 0 0 1
-14.152951 27.120306 -15.950841 34.499947 -1.089816 2.051433 0.163613 -0.059717 -240909.000000 0 0 1
-14.031151 27.267206 -17.478241 35.296779 -1.095553 2.088838 0.189707 -0.078414 72380.000000 0 0 1
-13.835351 26.105506 -18.235441 34.719529 -1.083455 2.123772 0.191004 -0.077414 146168.000000 0 0 1
-14.546351 26.174606 -19.436641 35.699991 -1.063555 2.146522 0.167517 -0.080790 -548421.000000 0 0 1
-13.758251 25.490306 -20.481541 35.475889 -1.075861 2.186260 0.161009 -0.065662 -389168.000000 0 0 1
-12.430751 25.979806 -20.581041 35.398490 -1.124515 2.191257 0.126772 -0.053656 105909.000000 0 0 1
-11.571051 25.019706 -21.178141 34.761884 -1.137615 2.225891 0.118655 -0.049435 407811.000000 0 0 1
-10.326651 25.677106 -21.839841 35.255243 -1.188418 2.238874 0.128813 -0.044465 205284.000000 0 0 1
-10.595651 26.343406 -23.042741 36.567892 -1.188384 2.252525 0.107691 -0.035524 1045190.000000 0 0 1
-9.414251 26.316306 -23.895641 36.771969 -1.227248 2.278161 0.102569 -0.040497 948541.000000 0 0 1
-9.696351 26.983006 -25.294141 38.234741 -1.225816 2.293678 0.093692 -0.032865 470962.000000 0 0 1
-10.790451 26.331906 -25.956611 38.516863 -1.181882 2.310275 0.080171 -0.028574 329226.000000 0 0 1
-11.098651 26.961306 -27.157141 39.844728 -1.180286 2.320708 0.087931 -0.027068 141097.000000 0 0 1
-12.136351 26.186006 -28.015161 40.222471 -1.136800 2.341312 0.062843 -0.018059 417810.000000 0 0 1
-12.604951 26.971106 -29.163901 41.675634 -1.133608 2.345890 0.064074 -0.009141 -120303.000000 0 0 1
-13.757751 26.319606 -29.624521 41.947701 -1.089139 2.354948 0.060893 -0.004721 -435190.000000 0 0 1
-14.115151 26.582706 -31.065951 43.254723 -1.082665 2.372022 0.067385 -0.006693 23409.100000 0 0 1
-13.207751 26.197306 -32.099921 43.487337 -1.103823 2.401112 0.074265 -0.010535 111760.000000 0 0 1
-13.154751 24.822306 -32.212201 42.741318 -1.083471 2.424401 0.070849 -0.011851 141663.000000 0 0 1
-12.325851 24.307806 -33.398591 43.107562 -1.101506 2.457153 0.062515 -0.015297 146431.000000 0 0 1
-13.020451 24.660806 32.718725 42.990725 -1.085015 0.705843 0.061546 -0.016253 472011.000000 0 0 1
-12.510051 23.839506 31.670964 41.567696 -1.087536 0.704535 0.056600 -0.020986 -315888.000000 0 0 1
-13.409351 23.811606 30.429445 40.899320 -1.057918 0.731747 0.065770 -0.013703 144530.000000 0 0 1
-14.536951 22.942306 30.443925 40.798344 -1.006015 0.728453 0.077751 -0.026548 252708.000000 0 0 1
-15.126351 22.871206 29.145805 40.017203 -0.986469 0.754912 0.094765 -0.027072 -245007.000000 0 0 1
-16.326251 21.942206 29.100665 39.935643 -0.931110 0.754391 0.087753 -0.025291 -539684.000000 0 0 1
-15.934351 20.639306 29.390155 39.289511 -0.913339 0.725691 0.083004 -0.027537 -254194.000000 0 0 1
-16.976651 19.699106 29.502675 39.327716 -0.859493 0.722469 0.076184 -0.021959 -143245.000000 0 0 1
-16.430751 18.308206 29.821255 38.658340 -0.839390 0.689749 0.062596 -0.030519 -90114.000000 0 0 1
-15.781751 17.846806 28.666705 37.274014 -0.846729 0.693396 0.082416 -0.040263 -130486.000000 0 0 1
-15.169151 16.633906 28.866535 36.606923 -0.831423 0.662342 0.082817 -0.048241 -236226.000000 0 0 1
-14.537051 15.928806 27.638255 35.056039 -0.831049 0.662589 0.106573 -0.043160 584648.000000 0 0 1
-13.415251 16.696606 27.155915 34.585970 -0.893942 0.667823 0.060787 -0.039974 585717.000000 0 0 1
-12.754951 15.926406 26.136865 33.158331 -0.895526 0.662846 0.035334 -0.031495 141479.000000 0 0 1
-11.744251 16.735106 25.280385 32.512906 -0.958881 0.680037 0.053184 -0.025101 184653.000000 0 0 1
-12.263351 17.722106 24.350825 32.518079 -0.965473 0.724487 0.055324 -0.023176 -48116.600000 0 0 1
-12.920851 18.896306 24.798435 33.748795 -0.971042 0.745432 0.042941 -0.021988 362309.000000 0 0 1
-12.053051 19.951006 25.592105 34.616102 -1.027344 0.738748 0.033065 -0.022633 169124.000000 0 0 1
-11.702451 19.642606 26.915425 35.315994 -1.033494 0.704198 0.044348 -0.027341 -510973.000000 0 0 1
-12.739851 19.813606 27.832875 36.463018 -0.999368 0.702363 0.082245 -0.033924 -562511.000000 0 0 1
-12.414751 19.432506 29.308115 37.292277 -1.002289 0.666641 0.080379 -0.035249 48172.100000 0 0 1
-11.443651 20.335906 29.828395 37.871353 -1.058231 0.663853 0.062290 -0.039518 85563.300000 0 0 1
-11.307051 20.147106 31.208545 38.829481 -1.059376 0.637253 0.056984 -0.039808 -808874.000000 0 0 1
-10.245551 20.984306 31.862115 39.503250 -1.116594 0.632471 0.046555 -0.033661 222007.000000 0 0 1
-8.930351 20.412206 31.700227 38.746790 -1.158385 0.612631 0.060211 -0.035172 690519.000000 0 0 1
-7.953651 21.275506 32.283963 39.473561 -1.213042 0.613109 0.071857 -0.027213 56223.100000 0 0 1
-6.720651 20.453006 32.709059 39.158334 -1.253321 0.582113 0.069333 -0.023990 -590494.000000 0 0 1
-6.884851 19.604306 -33.473011 39.397620 -1.233061 2.586061 0.072784 -0.032688 202720.000000 0 0 1
-5.679051 19.059006 -32.953721 38.489545 -1.281201 2.598614 0.065343 -0.026905 407357.000000 0 0 1
-4.973051 17.983406 33.472105 38.321220 -1.301003 0.508530 0.052831 -0.022935 -136913.000000 0 0 1
-5.547551 16.697206 33.521185 37.858181 -1.250026 0.483354 0.052943 -0.025733 -81421.700000 0 0 1
-4.915051 15.834906 32.580893 36.557032 -1.269832 0.470736 0.051356 -0.016917 -61302.400000 0 0 1
-5.615151 14.500606 32.331686 35.876669 -1.201342 0.448290 0.065030 -0.024837 -186935.000000 0 0 1
-5.231651 13.501906 33.281635 36.295163 -1.201134 0.410374 0.066835 -0.025792 379917.000000 0 0 1
-5.809351 12.255406 32.861468 35.550241 -1.128145 0.391423 0.079921 -0.027308 562613.000000 0 0 1
-4.873751 11.047106 33.271105 35.394328 -1.155302 0.348130 0.094509 -0.041809 265046.000000 0 0 1
-4.756451 10.805106 -32.614841 34.685760 -1.156119 2.794292 0.104670 -0.043193 -35216.600000 0 0 1
-3.795351 9.820906 -32.303751 33.976274 -1.202020 2.826520 0.124807 -0.044922 82061.200000 0 0 1
-3.997751 9.340306 -30.842101 32.472427 -1.166378 2.823372 0.124906 -0.046793 800837.000000 0 0 1
-5.047151 8.398906 -30.542021 32.075386 -1.029694 2.831139 0.141251 -0.043598 860943.000000 0 0 1
-5.836551 8.751706 -29.387061 31.213091 -0.982629 2.797844 0.172904 -0.048861 204889.000000 0 0 1
-6.698051 7.648406 -28.798651 30.540535 -0.851545 2.802223 0.169451 -0.043861 50402.000000 0 0 1
-5.965051 6.608606 -28.174321 29.547383 -0.836536 2.835539 0.181393 -0.038314 360536.000000 0 0 1
-6.860151 5.546406 -27.874931 29.237579 -0.679900 2.835088 0.185787 -0.058995 109666.000000 0 0 1
-6.480451 4.985706 -26.520561 27.752363 -0.655768 2.842535 0.177803 -0.057155 -65049.800000 0 0 1
-6.666451 5.759606 -25.388561 26.873661 -0.712548 2.807590 0.141292 -0.042984 424351.000000 0 0 1
-5.598551 6.671806 -25.112931 26.580370 -0.872643 2.807757 0.131572 -0.048524 230403.000000 0 0 1
-6.089051 7.821506 -24.152341 26.107242 -0.909303 2.752149 0.082907 -0.026068 316240.000000 0 0 1
-6.303351 7.372106 -22.825541 24.800917 -0.863391 2.739773 0.065440 -0.016949 409874.000000 0 1 0
-7.658251 7.525106 -22.392541 24.833484 -0.776629 2.694499 0.072136 -0.017187 598592.000000 0 1 0
-7.702151 7.494406 -20.847141 23.454051 -0.771729 2.665626 0.059737 -0.018361 129488.000000 0 1 0
-7.180351 8.740606 -20.310741 23.248265 -0.883086 2.633441 0.038415 -0.011154 241434.000000 0 1 0
-7.005951 8.919406 -18.892441 22.035505 -0.904976 2.600922 0.026159 -0.014010 -1022850.000000 0 1 0
-8.242051 9.248206 -18.121141 21.950774 -0.842861 2.541947 0.038271 -0.010890 -1465500.000000 0 1 0
-7.983251 9.315106 -16.734041 20.749256 -0.862240 2.508985 0.021647 -0.007869 -328785.000000 0 1 0
-9.073751 9.556706 -15.898641 20.650190 -0.811315 2.449485 0.033053 -0.021114 -223302.000000 0 1 0
-9.817851 10.907806 -16.031441 21.734248 -0.837939 2.400323 0.067497 -0.033990 65687.200000 0 1 0
-8.856151 11.895506 -15.698041 21.595438 -0.930827 2.384615 0.036366 -0.028840 489809.000000 0 1 0
-9.270151 13.236706 -16.102241 22.812896 -0.959844 2.354404 0.065572 -0.032237 736372.000000 0 1 0
-8.063451 14.209806 -15.876441 22.781554 -1.054649 2.341861 0.062284 -0.024221 783720.000000 0 1 0
-7.547051 14.487106 -14.505341 21.845803 -1.090530 2.296935 0.056579 -0.019414 892068.000000 0 1 0
-8.517451 15.072106 -13.623741 22.030017 -1.056424 2.237523 0.060146 -0.032640 -236785.000000 0 1 0
-7.842451 15.971906 -12.533341 21.764431 -1.114362 2.184456 0.052778 -0.026739 323276.000000 0 1 0
-7.410251 17.281406 -12.921941 22.815244 -1.165712 2.172895 0.060153 -0.022765 115436.000000 0 1 0
-6.354751 17.260106 -13.869741 23.036142 -1.218022 2.216908 0.068296 -0.018956 -365753.000000 0 1 0
-5.947451 18.641206 -14.354541 24.267665 -1.261957 2.203725 0.088920 -0.012709 147263.000000 0 1 0
-5.300551 19.412006 -13.370041 24.159466 -1.304239 2.157247 0.079635 -0.026054 -205474.000000 0 1 0
-5.139951 20.777206 -13.729641 25.428614 -1.328281 2.141149 0.083841 -0.019148 -14960.800000 0 0 1
-4.687951 21.754506 -12.623141 25.584744 -1.358549 2.086774 0.096922 -0.021897 -560005.000000 0 0 1
-4.706051 23.136106 -12.946541 26.926553 -1.370127 2.072374 0.101947 -0.029635 687651.000000 0 0 1
-5.987551 23.776206 -13.121241 27.808734 -1.324097 2.062172 0.100752 -0.032018 811729.000000 0 0 1
-6.943751 23.991306 -11.922941 27.675891 -1.289067 2.016182 0.097563 -0.031012 -186324.000000 0 0 1
-7.376051 22.715006 -11.531341 26.520736 -1.256816 2.020618 0.095389 -0.022644 -397005.000000 0 0 1
-8.172251 22.711506 -10.347641 26.261604 -1.225392 1.975799 0.099689 -0.024307 -34020.300000 0 0 1
-7.456751 22.934006 -9.023741 25.748780 -1.256438 1.928851 0.103846 -0.024104 -120524.000000 0 0 1
-7.142151 24.291806 -8.833441 26.816634 -1.284840 1.906466 0.110721 -0.024800 -335094.000000 0 0 1
-6.512551 24.582406 -7.620541 26.547705 -1.311819 1.861943 0.113050 -0.023461 112714.000000 0 0 1
-6.569751 26.083506 -7.240341 27.855582 -1.324055 1.833740 0.123623 -0.026731 308493.000000 0 0 1
-5.855751 27.020406 -8.067641 28.800677 -1.357381 1.854715 0.126087 -0.032772 119519.000000 0 0 1
-6.195051 27.018306 -9.459941 29.289213 -1.345402 1.899677 0.127463 -0.034973 122968.000000 0 0 1
-5.691751 28.323706 -10.180341 30.631156 -1.372484 1.909593 0.127702 -0.033316 264368.000000 0 0 1
-6.589551 29.419406 -10.083441 31.789926 -1.350447 1.893561 0.116634 -0.031756 98384.000000 0 0 1
-7.491151 29.448406 -11.217341 32.390658 -1.321698 1.924436 0.119474 -0.024803 6480.950000 0 0 1
-8.649051 30.361706 -10.802741 33.366727 -1.293280 1.900495 0.122786 -0.029628 -419762.000000 0 0 1
-9.652951 29.742206 -10.014341 32.833905 -1.256968 1.880735 0.115009 -0.033697 204034.000000 0 0 1
-10.643551 30.742006 -9.708241 33.950052 -1.237491 1.860801 0.102362 -0.035898 -445323.000000 0 0 1
-11.727851 30.157206 -8.886941 33.555585 -1.199904 1.838837 0.119460 -0.046006 -716953.000000 0 0 1
-12.629351 29.288006 -9.549641 33.293895 -1.163676 1.861711 0.121999 -0.048828 -504200.000000 0 0 1
-13.767051 29.058306 -8.779541 33.331624 -1.128349 1.837341 0.136028 -0.042409 -143353.000000 0 0 1
-14.686651 28.001306 -9.430441 32.995516 -1.087742 1.860648 0.137672 -0.043013 127727.000000 0 0 1
-14.377351 26.674906 -9.059441 31.628030 -1.076450 1.861302 0.133123 -0.050975 224680.000000 0 0 1
-15.405051 25.845006 -9.576441 31.575119 -1.033282 1.878940 0.150438 -0.052914 177976.000000 0 0 1
-15.447351 24.422806 -8.947941 30.251607 -1.006824 1.871072 0.156529 -0.046265 -28859.200000 0 0 1
-14.415951 23.572606 -9.395041 29.184828 -1.021924 1.898548 0.158945 -0.045693 121437.000000 0 0 1
-14.610851 22.310506 -8.882341 28.109280 -0.990994 1.892300 0.144547 -0.042210 340037.000000 0 0 1
-13.510751 21.287006 -9.379041 26.900621 -1.005256 1.926932 0.143583 -0.042140 283037.000000 0 0 1
-13.556851 21.004806 -10.767341 27.219951 -0.997650 1.977483 0.140123 -0.033440 164648.000000 0 0 1
-12.930951 19.786806 -11.124041 26.124155 -0.991955 2.010658 0.134472 -0.031486 -194413.000000 0 0 1
-13.391651 19.372006 -12.530041 26.676073 -0.965941 2.059760 0.136922 -0.027314 -1395610.000000 0 0 1
-14.720851 19.097806 -12.548341 27.182540 -0.914107 2.050631 0.153110 -0.024778 -1899870.000000 0 0 1
-15.085951 18.488606 -13.759941 27.545425 -0.886400 2.093860 0.150618 -0.023632 378579.000000 0 0 1
-16.625351 18.315806 -13.883741 28.365988 -0.833741 2.082256 0.146834 -0.014184 324457.000000 0 0 1
-17.209151 19.456606 -14.382341 29.691179 -0.846617 2.076471 0.145861 -0.015778 -579346.000000 0 0 1
-18.576951 19.347006 -14.683141 30.577841 -0.805701 2.071666 0.118868 -0.014955 -281701.000000 0 0 1
-19.292751 20.571706 -15.269641 32.071284 -0.817470 2.067029 0.113908 -0.022911 -8051.650000 0 0 1
-19.747851 21.580106 -14.389541 32.599654 -0.829704 2.027956 0.118073 -0.043072 158284.000000 0 0 1
-20.325951 22.651106 -15.081341 33.965626 -0.839448 2.030874 0.109583 -0.040170 -20525.300000 0 0 1
-20.986451 23.758106 -14.249141 34.755096 -0.847263 1.993236 0.114105 -0.030371 235363.000000 0 0 1
-22.173551 23.428006 -13.546241 34.986261 -0.812900 1.968375 0.139739 -0.034663 -2961.300000 0 0 1
-22.775451 24.530306 -12.978941 35.901392 -0.822477 1.940690 0.146062 -0.041580 -38434.800000 0 0 1
-27.044231 -0.255594 3.340459 27.250952 0.009451 1.447906 0.296097 -0.080939 -90987.600000 0 0 1
-27.572361 0.115906 4.595259 27.952905 -0.004204 1.405654 0.290467 -0.079391 1611900.000000 0 0 1
-29.009421 -0.078394 4.751159 29.396023 0.002702 1.408458 0.267188 -0.073013 1440110.000000 0 0 1
-29.472541 0.697906 6.001359 30.085446 -0.023675 1.369972 0.264954 -0.048014 -503288.000000 0 0 1
-29.581911 2.060906 5.804159 30.216304 -0.069555 1.377508 0.297534 -0.061408 61797.100000 0 0 1
-29.789421 2.747706 7.053059 30.736056 -0.091977 1.339261 0.297161 -0.057967 -405096.000000 0 0 1
-28.581351 3.100706 7.950059 29.828031 -0.108064 1.301006 0.312836 -0.054072 -791466.000000 0 0 1
-27.882651 1.990106 8.309859 29.162587 -0.071254 1.281843 0.286295 -0.064382 -597984.000000 0 0 1
-26.877471 2.374506 9.178659 28.500605 -0.088117 1.242901 0.286606 -0.077837 -906456.000000 0 0 1
-26.291381 1.179706 9.977359 28.145623 -0.044840 1.208427 0.275753 -0.070081 931546.000000 0 0 1
-25.027281 0.696106 9.434159 26.755424 -0.027807 1.210440 0.265847 -0.072929 1371240.000000 0 0 1
-25.131861 -0.268494 8.417159 26.505303 0.010683 1.247636 0.227937 -0.064056 9320.920000 0 0 1
-23.729851 -0.638394 7.851659 25.003238 0.026896 1.251366 0.189811 -0.068293 525547.000000 0 0 1
-22.879051 -1.248994 8.831059 24.556029 0.054537 1.202926 0.214265 -0.082416 -923871.000000 0 1 0
-21.875351 -1.946194 8.265359 23.465609 0.088734 1.210841 0.219853 -0.065609 -1409680.000000 0 1 0
-20.657051 -2.064494 9.181759 22.699793 0.099611 1.154379 0.159119 -0.047131 -296847.000000 0 1 0
-19.991851 -0.844394 9.464859 22.135281 0.042212 1.128970 0.138312 -0.052418 765572.000000 0 1 0
-20.608251 -0.147194 10.549159 23.151813 0.007142 1.097692 0.170008 -0.060207 -555779.000000 0 1 0
-20.139851 1.320006 10.624359 22.808617 -0.065448 1.086253 0.116523 -0.049504 -147906.000000 0 1 0
-20.659451 2.261806 9.683259 22.928022 -0.109046 1.134779 0.149452 -0.049341 -945076.000000 0 1 0
-22.003751 2.477406 9.775159 24.204469 -0.112118 1.155067 0.170107 -0.057610 -1819430.000000 0 1 0
-22.450551 3.807906 9.240959 24.574839 -0.168014 1.185285 0.166657 -0.061469 -463310.000000 0 1 0
-22.079551 4.906006 10.071759 24.759156 -0.218645 1.151860 0.129203 -0.053076 733489.000000 0 1 0
-22.612351 6.146806 9.621459 25.331287 -0.265420 1.181189 0.121086 -0.043305 -523685.000000 0 0 1
-22.572651 7.117306 10.863559 26.042226 -0.305440 1.140487 0.118903 -0.049082 499070.000000 0 0 1
-23.569251 6.743406 11.846259 27.227136 -0.278666 1.120658 0.136655 -0.052039 754693.000000 0 0 1
-23.682451 7.652206 12.913259 28.038670 -0.312528 1.092180 0.150063 -0.044630 -13102.200000 0 0 1
-24.716151 7.211606 13.969759 29.292483 -0.283896 1.073665 0.180351 -0.052285 184138.000000 0 0 1
-26.073561 7.347406 13.596559 30.309757 -0.274673 1.105613 0.179099 -0.052653 289713.000000 0 0 1
-26.927991 7.000706 14.674459 31.455784 -0.254348 1.085455 0.175611 -0.050355 -345832.000000 0 0 1
-28.439241 7.071106 14.452259 32.675048 -0.243697 1.112632 0.176701 -0.048420 -434134.000000 0 0 1
-28.805361 6.113206 13.499259 32.393674 -0.209122 1.140957 0.203435 -0.039809 -152754.000000 0 0 1
-30.109781 6.391906 13.046659 33.431582 -0.209181 1.169894 0.233792 -0.040320 -56916.600000 0 0 1
-30.612591 5.330706 11.982359 33.303514 -0.172406 1.202751 0.269051 -0.046308 70926.400000 0 0 1
-31.109631 4.072706 12.517559 33.779955 -0.130174 1.191183 0.224325 -0.046460 478151.000000 0 0 1
-31.588821 3.176606 11.530859 33.777287 -0.100224 1.222413 0.212522 -0.033325 98653.800000 0 0 1
-32.833101 2.381206 12.026359 35.047339 -0.072398 1.220532 0.163746 -0.022744 153687.000000 0 0 1
-32.654181 1.212906 12.837059 35.107788 -0.037127 1.196468 0.164333 -0.018711 70300.800000 0 0 1
-33.931523 0.632406 13.074159 36.368693 -0.018636 1.203076 0.136665 -0.019683 158851.000000 0 0 1
-33.939272 -0.594294 13.974659 36.708561 0.017509 1.180252 0.126991 -0.032443 -85921.900000 0 0 1
-33.445191 -1.751794 13.318459 36.042071 0.052330 1.192298 0.165894 -0.036692 60376.900000 0 0 1
-33.524921 -2.798594 14.321559 36.563089 0.083285 1.168324 0.165172 -0.036028 11811.300000 0 0 1
-33.486601 -4.287394 13.803759 36.472975 0.127340 1.182659 0.179494 -0.046449 853394.000000 0 0 1
-34.714078 -4.594894 13.108059 37.389858 0.131599 1.212608 0.148892 -0.046923 917955.000000 0 0 1
-34.781233 -5.930794 12.738959 37.512525 0.168893 1.224313 0.171901 -0.046777 -653214.000000 0 0 1
-35.968601 -6.150494 11.764959 38.340358 0.169358 1.258909 0.167989 -0.044807 1122800.000000 0 0 1
-37.279401 -6.440994 12.295659 39.779685 0.171087 1.256556 0.143667 -0.045466 975860.000000 0 0 1
-37.868361 -5.344494 12.997259 40.391894 0.140207 1.243189 0.157186 -0.051950 51780.600000 0 0 1
36.989069 -5.131594 12.477959 39.372884 -0.137853 1.248319 0.165000 -0.046441 596003.000000 0 0 1
36.074569 -5.998394 13.099559 38.845254 -0.164770 1.226830 0.151477 -0.044652 223016.000000 0 0 1
34.757099 -5.716894 12.593959 37.407842 -0.163022 1.227422 0.176986 -0.040932 718587.000000 0 0 1
33.739709 -6.778194 13.096859 36.821727 -0.198258 1.207152 0.153553 -0.026619 -59121.100000 0 0 1
33.389679 -6.560994 14.475459 36.979133 -0.194026 1.168590 0.152314 -0.023752 -217349.000000 0 0 1
32.419509 -7.490394 14.837559 36.431906 -0.227061 1.151335 0.133796 -0.022668 -254243.000000 0 0 1
31.988709 -7.337694 16.314559 36.650841 -0.225483 1.109472 0.132982 -0.024415 -243302.000000 0 0 1
33.032909 -7.645694 17.175859 38.008418 -0.227452 1.101907 0.104158 -0.023587 -350359.000000 0 0 1
32.526519 -7.933994 18.439159 38.222053 -0.239252 1.067379 0.111412 -0.033669 545565.000000 0 0 1
33.552679 -8.689694 19.396959 39.718196 -0.253419 1.060582 0.122856 -0.030856 1493980.000000 0 0 1
34.642279 -7.908694 19.928759 40.740525 -0.224449 1.059666 0.124555 -0.024705 738124.000000 0 0 1
35.889759 -8.263994 19.350559 41.603035 -0.226316 1.087022 0.077998 -0.007840 408527.000000 0 0 1
37.155069 -7.659994 19.999059 42.885161 -0.203314 1.085648 0.058707 -0.016616 208487.000000 0 0 1
37.218149 -8.191594 21.325359 43.669941 -0.216643 1.060621 0.061380 -0.017578 501926.000000 0 0 1
-37.797751 -8.190994 21.871659 44.431203 0.213406 1.056113 0.073777 -0.021751 508124.000000 0 0 1
-37.851351 -8.792794 23.302159 45.310359 0.228250 1.030630 0.070420 -0.020049 -26176.400000 0 0 1
38.100119 -7.869594 24.296059 45.867724 -0.203686 1.012551 0.090190 -0.019946 196015.000000 0 0 1
37.555899 -8.584794 25.420159 46.155485 -0.224726 0.987533 0.102544 -0.034731 162658.000000 0 0 1
37.075999 -7.768094 26.637859 46.309271 -0.206531 0.957927 0.128682 -0.031253 248049.000000 0 0 1
38.144089 -7.621294 27.551859 47.667186 -0.197206 0.954515 0.121008 -0.045765 80520.400000 0 0 1
37.931309 -6.653794 28.590059 47.962993 -0.173650 0.932179 0.122299 -0.049909 946940.000000 0 0 1
-36.988141 -6.233494 29.144959 47.501659 0.166958 0.910239 0.140226 -0.046101 1002360.000000 0 0 1
-36.485711 -7.069494 30.137659 47.848337 0.191389 0.889426 0.132991 -0.037129 -812894.000000 0 0 1
-35.105842 -6.906594 30.228859 46.839141 0.194255 0.869281 0.121205 -0.051578 -613445.000000 0 0 1
-34.562272 -7.590194 31.451559 47.343027 0.216178 0.844195 0.100807 -0.045622 -360704.000000 0 0 1
-34.673455 -9.006094 31.453159 47.672418 0.254125 0.850275 0.091493 -0.042049 322830.000000 0 0 1
-34.027501 -9.676494 32.538559 48.065197 0.277059 0.827162 0.074111 -0.042124 -109862.000000 0 0 1
-34.300329 -11.188994 32.560759 48.599477 0.315323 0.836612 0.089308 -0.030069 -641070.000000 0 0 1
-35.652973 -11.495894 32.697859 49.723637 0.311913 0.853178 0.079235 -0.034551 -377319.000000 0 0 1
-35.881501 -12.859494 32.623259 50.170965 0.344128 0.862894 0.080983 -0.033658 1336880.000000 0 0 1
-37.439981 -13.153994 32.722259 51.434677 0.337864 0.881246 0.077405 -0.028222 1389150.000000 0 0 1
-37.814281 -14.540194 32.854759 52.161022 0.367087 0.889408 0.070953 -0.033219 -253035.000000 0 0 1
37.135589 -14.627294 33.063659 51.828711 -0.375227 0.878975 0.052542 -0.023256 -80122.900000 0 0 1
36.530759 -16.054094 33.192059 51.903209 -0.414061 0.876950 0.040940 -0.012171 -58238.200000 0 0 1
36.993319 -16.544594 -32.882246 52.186889 -0.420550 2.252461 0.049854 -0.024667 208931.000000 0 0 1
37.146419 -17.955894 -32.896246 52.767733 -0.450265 2.243900 0.036856 -0.031443 -321121.000000 0 0 1
37.656849 -18.658694 -31.659746 52.616772 -0.460035 2.216430 0.054947 -0.036301 104675.000000 0 0 1
36.772329 -18.643994 -30.561746 51.320786 -0.469241 2.208690 0.061097 -0.035835 6380.490000 0 0 1
37.366289 -19.430294 -29.535646 51.440551 -0.479516 2.182387 0.067111 -0.032375 -540841.000000 0 0 1
36.381199 -19.602394 -28.354746 50.118232 -0.494208 2.172147 0.085168 -0.034492 -62238.700000 0 0 1
35.216319 -20.348894 -28.631646 49.739700 -0.523955 2.184170 0.076078 -0.032805 713769.000000 0 0 1
34.199239 -19.523094 -29.288846 49.077242 -0.518720 2.210292 0.066089 -0.028159 -1474890.000000 0 0 1
32.871099 -20.230594 -29.294346 48.455596 -0.551704 2.220011 0.069942 -0.019259 -1556720.000000 0 0 1
31.983919 -19.411894 -29.969646 47.937172 -0.545497 2.246166 0.064277 -0.011516 -377355.000000 0 0 1
30.721179 -20.044894 -30.058146 47.424475 -0.578115 2.257266 0.063467 -0.008154 -397965.000000 0 0 1
29.736379 -19.571594 -31.068446 47.249845 -0.582097 2.288339 0.054208 0.000130 -408352.000000 0 0 1
30.187479 -19.723894 -32.409246 48.483762 -0.578748 2.302927 0.035068 -0.001773 -852806.000000 0 0 1
29.132279 -19.710594 -33.277346 48.420853 -0.594841 2.328496 0.081362 -0.001845 -713014.000000 0 0 1
29.473379 -19.633894 32.535859 48.091080 -0.587650 0.827733 0.078441 -0.010899 -247339.000000 0 0 1
30.067179 -18.465794 32.083059 47.690078 -0.550760 0.832889 0.040148 -0.009018 -40129.100000 0 0 1
30.339979 -18.424194 30.690159 46.923887 -0.545739 0.857882 0.046802 -0.009907 -372072.000000 0 0 1
29.140779 -18.172594 29.743059 45.432123 -0.557602 0.857050 0.033956 -0.001318 -167513.000000 0 0 1
28.667879 -16.850894 30.006659 44.790619 -0.531398 0.836679 0.049940 -0.012062 -6736.940000 0 0 1
27.855379 -16.380394 28.966259 43.396816 -0.531587 0.839985 0.046273 -0.005567 -403373.000000 0 0 1
27.399179 -14.974594 29.367159 42.864712 -0.500179 0.816038 0.064297 -0.013428 -26471.800000 0 0 1
28.498179 -14.109494 29.552859 43.411928 -0.459721 0.822004 0.078699 -0.015044 311666.000000 0 0 1
28.095879 -12.839394 30.118659 43.143506 -0.428647 0.798050 0.093012 -0.007373 734015.000000 0 0 1
29.390279 -11.950394 30.257359 43.841855 -0.386192 0.809103 0.108293 -0.005912 948444.000000 0 0 1
29.902379 -11.523794 29.019759 43.233049 -0.367840 0.834916 0.115653 -0.011580 39043.900000 0 0 1
31.265679 -11.156594 29.004459 44.082547 -0.342748 0.852693 0.132513 -0.014580 206072.000000 0 0 1
31.792189 -10.327194 27.815059 43.486455 -0.314082 0.876785 0.144327 -0.025880 -41964.300000 0 0 1
31.403279 -8.974994 27.767859 42.869225 -0.278377 0.866190 0.126878 -0.022688 -92727.300000 0 0 1
32.152069 -8.327094 26.739059 42.638871 -0.253423 0.892965 0.162060 -0.033898 173094.000000 0 0 1
31.883329 -6.784094 26.635259 42.095221 -0.209652 0.885712 0.140250 -0.034637 -366845.000000 0 0 1
30.686079 -6.401794 26.035259 40.748658 -0.205672 0.877699 0.141988 -0.030732 -751065.000000 0 0 1
30.520779 -4.972094 25.958759 40.374458 -0.161490 0.872453 0.146788 -0.032837 847196.000000 0 0 1
29.054879 -4.589094 25.562259 38.970179 -0.156652 0.855364 0.109820 -0.013502 596304.000000 0 0 1
28.624279 -4.843894 24.231459 37.815027 -0.167635 0.875271 0.139369 -0.024040 -59894.300000 0 0 1
27.229779 -4.675894 24.088559 36.654925 -0.170061 0.853737 0.115249 -0.015382 -178088.000000 0 0 1
26.787879 -4.999294 22.667659 35.445820 -0.184503 0.876947 0.122591 -0.019016 -156133.000000 0 0 1
27.255779 -3.989294 21.779059 35.115800 -0.145333 0.901790 0.144247 -0.015219 203898.000000 0 0 1
27.225579 -4.420194 20.449059 34.335613 -0.160950 0.932829 0.149380 -0.012856 70011.200000 0 0 1
27.563679 -3.238794 19.476759 33.905609 -0.116966 0.958876 0.148356 -0.011005 335255.000000 0 0 1
26.521379 -2.266794 19.388559 32.930808 -0.085263 0.941264 0.126285 -0.001080 42959.900000 0 0 1
26.872879 -1.201794 18.599859 32.703986 -0.044692 0.965831 0.133989 -0.007378 -751777.000000 0 0 1
25.703979 -0.391694 18.125159 31.454242 -0.015237 0.956677 0.094507 -0.008369 -652410.000000 0 0 1
24.952479 -0.974694 17.081559 30.254849 -0.039042 0.970861 0.091713 -0.018995 122965.000000 0 0 1
23.807079 -0.187994 16.748259 29.108702 -0.007896 0.957740 0.124600 -0.019804 802849.000000 0 0 1
22.561179 -1.098594 16.464559 27.951662 -0.048656 0.940930 0.139125 -0.029720 175215.000000 0 0 1
22.643579 -1.856094 15.314559 27.399133 -0.081787 0.977686 0.202658 -0.052333 -802310.000000 0 0 1
21.485379 -2.570694 15.105859 26.389713 -0.119082 0.961349 0.204984 -0.052306 -729052.000000 0 0 1
21.509179 -3.147394 13.651959 25.669571 -0.145297 1.010031 0.228897 -0.061953 -42247.000000 0 0 1
20.558179 -4.178894 13.455459 24.922907 -0.200539 1.000498 0.237151 -0.054503 504140.000000 0 1 0
20.545479 -4.544794 12.130059 24.288067 -0.217701 1.047862 0.216954 -0.051616 186900.000000 0 1 0
19.321579 -5.469494 11.844359 23.313679 -0.275860 1.037885 0.192360 -0.043570 186198.000000 0 1 0
19.528879 -6.772694 12.301859 24.053737 -0.333825 1.033946 0.211149 -0.049959 400384.000000 0 1 0
18.360979 -7.532094 12.162459 23.276241 -0.389288 1.020985 0.188990 -0.034352 -397307.000000 0 1 0
18.647179 -9.038594 12.471059 24.185549 -0.451346 1.029041 0.212912 -0.057066 -164682.000000 0 1 0
19.483179 -9.529594 11.444359 24.523067 -0.454905 1.085266 0.205377 -0.061301 517782.000000 0 1 0
19.489779 -10.971394 11.489159 25.144060 -0.512717 1.096252 0.231313 -0.061063 25824.900000 0 0 1
19.988079 -11.632294 10.204959 25.277950 -0.527050 1.155228 0.233591 -0.057191 30982.200000 0 0 1
18.994479 -11.391794 9.231059 23.995326 -0.540230 1.175911 0.176431 -0.042121 703125.000000 0 1 0
19.352479 -11.889394 7.961959 24.068006 -0.550912 1.233634 0.169071 -0.050866 -303972.000000 0 1 0
18.460379 -11.275494 6.860059 22.693232 -0.548319 1.263697 0.117765 -0.028069 -103528.000000 0 1 0
18.694679 -9.934694 6.710559 22.208574 -0.488465 1.263838 0.094841 -0.020186 510072.000000 0 1 0
19.556479 -9.669194 5.626659 22.530168 -0.459177 1.318386 0.107485 -0.019332 -176113.000000 0 1 0
19.999479 -8.218394 5.326359 22.268616 -0.389893 1.329268 0.123612 -0.015419 -289861.000000 0 1 0
20.773679 -7.933094 4.189059 22.628034 -0.364790 1.384595 0.148681 -0.024584 498446.000000 0 1 0
20.991479 -6.561894 4.129259 22.377476 -0.302974 1.385205 0.148542 -0.028602 -54002.400000 0 1 0
21.811079 -6.140594 2.884159 22.841814 -0.274432 1.444192 0.195123 -0.040553 89072.500000 0 1 0
21.022079 -6.199694 1.697059 21.982812 -0.286784 1.493520 0.145084 -0.046757 987171.000000 0 1 0
21.581579 -5.436594 0.630759 22.264747 -0.246775 1.542463 0.164042 -0.043219 -44993.200000 0 1 0
-25.235401 -14.421994 -0.639341 29.072807 0.519199 1.592789 0.153640 -0.018158 592330.000000 0 0 1
-23.932451 -13.847094 -0.848841 27.662696 0.524529 1.601487 0.117512 -0.003672 1187770.000000 0 0 1
-22.869351 -14.604894 -0.259141 27.136272 0.568336 1.580346 0.138102 -0.007162 556393.000000 0 0 1
-22.522551 -14.287194 1.251759 26.701238 0.565295 1.523899 0.170228 -0.030794 -404158.000000 0 0 1
-23.428351 -14.911394 2.132559 27.852919 0.566803 1.494156 0.166414 -0.011716 38821.000000 0 0 1
-23.259351 -14.473694 3.456159 27.612139 0.556637 1.445299 0.156833 -0.003882 229604.000000 0 0 1
-24.249251 -15.169294 4.426059 28.943456 0.559000 1.417273 0.184908 0.002000 211726.000000 0 0 1
-23.897951 -16.509094 4.481359 29.389536 0.604536 1.417718 0.231350 -0.029152 508909.000000 0 0 1
-24.831451 -17.158394 5.331759 30.650270 0.604656 1.395952 0.245901 -0.030266 187174.000000 0 0 1
-24.626051 -18.673294 5.187359 31.337565 0.648775 1.404499 0.188959 -0.023557 262104.000000 0 0 1
-25.426091 -19.457294 6.074659 32.587940 0.653189 1.383291 0.190694 -0.035919 311166.000000 0 0 1
-25.338521 -20.820694 5.667859 33.281625 0.687834 1.399662 0.177080 -0.041074 53473.300000 0 0 1
-25.980801 -21.779294 6.708059 34.559191 0.697653 1.375453 0.149637 -0.033236 321912.000000 0 0 1
-25.193321 -21.863594 7.912459 34.283045 0.714756 1.337899 0.144019 -0.025885 478294.000000 0 0 1
-25.677211 -22.837894 8.864059 35.488873 0.726940 1.318354 0.117899 -0.020645 155080.000000 0 0 1
-24.643551 -22.973394 9.992559 35.141609 0.750338 1.282467 0.112708 -0.028047 201932.000000 0 0 1
-24.655051 -21.784094 10.772959 34.618997 0.723655 1.254355 0.111257 -0.032453 257610.000000 0 0 1
-23.696551 -21.840794 11.834959 34.330934 0.744668 1.218843 0.119143 -0.035697 71347.700000 0 0 1
-24.113751 -21.083594 13.069159 34.594708 0.718456 1.183400 0.091123 -0.025737 1029360.000000 0 0 1
-25.417631 -21.456394 13.614059 35.941277 0.701090 1.182312 0.077223 -0.029455 1314590.000000 0 0 1
-25.732291 -20.727694 14.795359 36.203463 0.678093 1.149797 0.080402 -0.018988 -258644.000000 0 0 1
-27.052871 -21.113494 15.495759 37.653101 0.662708 1.146653 0.059379 -0.026550 -161757.000000 0 0 1
-28.241251 -20.784394 14.798959 38.060064 0.634454 1.171433 0.071306 -0.028811 395369.000000 0 0 1
-28.735301 -21.792194 13.911459 38.654184 0.648841 1.202641 0.060442 -0.026292 365166.000000 0 0 1
-29.793331 -22.758294 14.593159 40.231117 0.652320 1.199597 0.073187 -0.035359 264406.000000 0 0 1
-29.119541 -23.643694 15.527059 40.596323 0.681987 1.178323 0.050369 -0.025615 63919.200000 0 0 1
-29.741471 -24.860294 15.872159 41.886928 0.696239 1.182158 0.047647 -0.024958 -634369.000000 0 0 1
-29.470871 -26.045284 14.909159 42.061527 0.723772 1.208459 0.051674 -0.023659 -302897.000000 0 0 1
-30.079341 -26.006764 13.626059 42.033177 0.712912 1.240658 0.055868 -0.037248 -204202.000000 0 0 1
-31.405731 -26.507134 13.777059 43.344612 0.701013 1.247336 0.108100 -0.056193 -151613.000000 0 0 1
-32.087181 -26.649334 12.436759 43.525247 0.693081 1.281021 0.143601 -0.065418 -200860.000000 0 0 1
-31.561721 -27.757014 11.750059 43.642387 0.721346 1.298198 0.105674 -0.060978 -51889.500000 0 0 1
-32.257701 -27.868574 10.557659 43.916749 0.712529 1.328017 0.111601 -0.039524 -82949.300000 0 0 1
-31.939961 -29.148784 9.776559 44.332762 0.739739 1.348442 0.097127 -0.031670 196975.000000 0 0 1
-32.295021 -30.391314 10.396559 45.548751 0.755039 1.340515 0.097881 -0.020204 248228.000000 0 0 1
-31.704081 -31.416984 9.616059 45.657904 0.780850 1.358596 0.105815 -0.033502 -315013.000000 0 0 1
-31.773671 -32.811894 10.251859 46.811186 0.801472 1.350002 0.107250 -0.030431 237868.000000 0 0 1
-33.060371 -33.399994 10.404559 48.133175 0.790508 1.352915 0.090846 -0.021029 416162.000000 0 0 1
-32.947431 32.687066 10.919959 47.678328 -0.781431 1.339711 0.122357 -0.028111 -315842.000000 0 0 1
-34.197459 32.157895 11.685259 48.375011 -0.754671 1.326828 0.119513 -0.020714 -24516.300000 0 0 1
-35.299818 31.813867 10.923659 48.759877 -0.733504 1.344849 0.084566 -0.018561 -200940.000000 0 0 1
-36.148641 32.909132 10.611659 50.023419 -0.738522 1.357038 0.106140 -0.019770 309328.000000 0 0 1
-37.599091 32.533580 10.125259 50.740973 -0.713296 1.369900 0.118958 -0.010914 744335.000000 0 0 1
-37.768401 32.121001 8.765259 50.349186 -0.704769 1.395815 0.091466 -0.007341 100042.000000 0 0 1
37.215479 31.863983 8.444659 49.715365 0.708084 1.400109 0.077673 -0.006854 -107708.000000 0 0 1
36.912059 31.304770 7.050259 48.910069 0.703385 1.426145 0.073252 -0.011552 -281303.000000 0 0 1
37.097279 29.930690 6.802159 48.148974 0.678883 1.429049 0.111177 -0.018928 299640.000000 0 0 1
36.502139 29.466850 5.576359 47.241901 0.679154 1.452482 0.122038 -0.025636 154663.000000 0 0 1
36.560619 27.923710 5.349659 46.314482 0.652252 1.455031 0.128696 -0.018847 -169803.000000 0 0 1
35.742699 27.086680 6.106059 45.260498 0.648490 1.435474 0.129310 -0.021208 12427.600000 0 0 1
36.264799 26.882860 7.404059 45.745425 0.637906 1.408228 0.127256 -0.020929 548282.000000 0 0 1
35.357279 25.841350 8.205259 44.556019 0.631141 1.385583 0.111458 -0.012426 708668.000000 0 0 1
35.466049 24.584500 7.600959 43.817951 0.606137 1.396448 0.103914 -0.020609 -188353.000000 0 0 1
34.313089 23.903230 7.975659 42.571864 0.608455 1.382337 0.106293 -0.023913 -750222.000000 0 0 1
34.219969 22.515530 7.279459 41.604638 0.581954 1.394924 0.112474 -0.025291 722178.000000 0 0 1
35.121929 21.423550 7.665159 41.848214 0.547723 1.386591 0.116123 -0.022068 96357.600000 0 0 1
36.451629 21.669350 7.324659 43.034087 0.536342 1.399758 0.110770 -0.019351 -742255.000000 0 0 1
37.444879 20.515450 7.251959 43.308124 0.501217 1.402553 0.064567 -0.012343 -56012.300000 0 0 1
37.319449 19.728350 6.084959 42.649452 0.486292 1.427634 0.094654 -0.023683 35689.600000 0 0 1
38.075879 18.520850 6.201959 42.793209 0.452724 1.425356 0.115107 -0.026658 -15798.900000 0 0 1
37.760129 17.370550 5.217659 41.890182 0.431158 1.445916 0.114455 -0.032079 -212174.000000 0 0 1
-38.141481 17.491650 3.864759 42.138661 -0.429982 1.478952 0.132736 -0.035684 -102948.000000 0 0 1
37.572389 16.498250 3.089159 41.151180 0.413757 1.495657 0.139659 -0.035973 -974411.000000 0 0 1
-38.059281 16.081750 1.785059 41.355991 -0.399789 1.527620 0.168645 -0.029143 -638751.000000 0 0 1
-36.891541 15.358350 1.810259 40.001771 -0.394488 1.525526 0.163872 -0.051200 -88572.500000 0 0 1
-35.720510 16.064350 2.209359 39.228808 -0.422624 1.514447 0.181079 -0.052706 -612142.000000 0 0 1
-34.377183 15.367950 2.242859 37.722606 -0.420389 1.511305 0.199124 -0.052973 -390388.000000 0 0 1
-34.280648 14.418950 3.309259 37.336579 -0.398151 1.482047 0.218655 -0.048996 -295430.000000 0 0 1
-32.966861 13.959050 3.436959 35.965006 -0.400537 1.475086 0.221731 -0.062047 -448429.000000 0 0 1
-32.599351 13.242250 4.739459 35.504046 -0.385850 1.436906 0.258014 -0.052700 -14002.200000 0 0 1
-32.999081 11.889250 4.738659 35.394187 -0.345813 1.436511 0.288899 -0.051718 223273.000000 0 0 1
-32.501811 11.275250 5.909759 34.905934 -0.333921 1.400672 0.249616 -0.031768 -66613.900000 0 0 1
-32.636031 9.745750 5.957659 34.577216 -0.290190 1.397632 0.296628 -0.043820 17260.700000 0 0 1
-33.932987 9.238450 6.192859 35.709215 -0.265813 1.396490 0.285584 -0.023110 49398.200000 0 0 1
-33.920911 7.855750 6.505459 35.421208 -0.227578 1.386088 0.315635 -0.036256 -1331590.000000 0 0 1
-35.243420 7.187050 6.456359 36.543630 -0.201168 1.393189 0.265668 -0.025424 -1151690.000000 0 0 1
-36.021041 7.257050 7.640759 37.530805 -0.198806 1.365777 0.241347 -0.029934 430961.000000 0 0 1
-37.291141 6.639950 7.445959 38.602596 -0.176210 1.376692 0.176182 -0.032097 433681.000000 0 0 1
-37.906081 6.011750 8.686059 39.350473 -0.157286 1.348227 0.157766 -0.037993 -297606.000000 0 0 1
37.924689 6.890150 9.700459 39.747391 0.179720 1.324254 0.169231 -0.039607 357226.000000 0 0 1
-37.450251 7.562350 10.500559 39.622874 -0.199251 1.302579 0.184915 -0.044043 -430545.000000 0 0 1
-38.113251 8.562250 11.436059 40.702770 -0.220984 1.285997 0.151446 -0.037944 -262084.000000 0 0 1
37.505679 7.873050 12.437059 40.290710 0.206912 1.256988 0.139726 -0.043631 453520.000000 0 0 1
36.973139 8.783650 13.380559 40.289017 0.233245 1.232252 0.151566 -0.042359 -203374.000000 0 0 1
36.203929 8.166850 14.571659 39.871734 0.221866 1.196666 0.174109 -0.045613 49737.400000 0 0 1
34.996199 7.449550 14.343859 38.548360 0.209737 1.189525 0.175980 -0.051524 613827.000000 0 0 1
34.426769 7.136350 15.615759 38.470532 0.204396 1.152817 0.160899 -0.041988 952253.000000 0 0 1
32.868209 6.954450 15.675659 37.073034 0.208511 1.134228 0.173995 -0.036215 659862.000000 0 0 1
32.073989 8.161350 15.631059 36.601618 0.249166 1.129558 0.161902 -0.041220 61603.100000 0 0 1
30.691779 7.962750 15.726159 35.393541 0.253846 1.110378 0.158753 -0.040044 -144215.000000 0 0 1
30.173279 7.567450 17.167259 35.530379 0.245731 1.066523 0.142399 -0.047544 -722599.000000 0 0 1
29.976479 8.691550 17.995559 36.027385 0.282207 1.047779 0.171660 -0.044717 190271.000000 0 0 1
29.376879 8.372550 19.247059 36.104708 0.277644 1.008548 0.156863 -0.035326 396539.000000 0 0 1
30.200079 7.439150 20.305459 37.144278 0.241520 0.992421 0.159121 -0.030740 520729.000000 0 0 1
29.421379 7.064650 21.437459 37.082226 0.235658 0.954391 0.127685 -0.021060 186662.000000 0 0 1
29.896779 5.907550 22.104959 37.647653 0.195085 0.943258 0.140252 -0.022773 -269948.000000 0 0 1
29.056679 5.543650 23.362059 37.693613 0.188522 0.902323 0.123868 -0.012351 1013710.000000 0 0 1
27.687279 5.218950 23.134659 36.455937 0.186310 0.883315 0.110518 -0.005585 516373.000000 0 0 1
26.687679 6.194850 23.284159 35.954978 0.228085 0.866376 0.115131 -0.004805 1427940.000000 0 0 1
25.243979 5.759050 22.774259 34.483214 0.224297 0.849385 0.105943 -0.009266 1174520.000000 0 0 1
25.219479 5.581150 21.393959 33.539124 0.217793 0.879053 0.116890 -0.003610 -396404.000000 0 0 1
23.914579 5.481550 20.919959 32.242816 0.225321 0.864756 0.135242 -0.004275 -1047130.000000 0 0 1
23.284279 4.066850 20.763759 31.461574 0.172916 0.850015 0.133491 -0.013602 641203.000000 0 0 1
21.894779 4.114250 20.414259 30.216724 0.185744 0.829025 0.135100 -0.023566 1242730.000000 0 0 1
20.920979 4.296850 21.431959 30.256886 0.202568 0.783662 0.161971 -0.023222 838186.000000 0 0 1
19.445479 4.319550 20.864459 28.846331 0.218587 0.762232 0.244355 -0.040337 730970.000000 0 0 1
18.924379 3.090150 20.509259 28.076874 0.161861 0.751789 0.233277 -0.039210 463415.000000 0 0 1
17.624579 3.182450 19.922759 26.789366 0.178644 0.732236 0.288079 -0.052241 902583.000000 0 0 1
16.521579 2.287550 20.541559 26.460369 0.137584 0.681999 0.310268 -0.054962 -144.175000 0 0 1
16.730579 0.946350 20.135559 26.196347 0.056504 0.694084 0.227559 -0.038690 -387172.000000 0 0 1
15.807879 0.197450 20.848459 26.164600 0.012490 0.648784 0.271166 -0.045333 -610009.000000 0 0 1
16.002179 -1.303650 20.845659 26.311799 -0.081288 0.656300 0.198274 -0.031075 -300571.000000 0 0 1
15.545079 -1.940350 19.713459 25.180050 -0.124179 0.671483 0.232542 -0.033638 -107615.000000 0 0 1
15.690679 -3.350250 19.882259 25.548499 -0.210360 0.678976 0.171099 -0.029526 -114384.000000 0 0 1
15.159279 -4.212950 18.699159 24.437906 -0.271072 0.699491 0.162822 -0.028399 255648.000000 0 1 0
13.752979 -4.296550 18.582859 23.514409 -0.302802 0.659538 0.178610 -0.030723 -72303.400000 0 1 0
13.297879 -5.008550 17.427259 22.486185 -0.360210 0.684048 0.170750 -0.028871 1183240.000000 0 1 0
11.743679 -4.912450 17.231759 21.423811 -0.396187 0.636254 0.144434 -0.021635 1216320.000000 0 1 0
10.907479 -5.709750 18.074559 21.869249 -0.482248 0.597965 0.142988 -0.016917 -1171510.000000 0 1 0
9.591779 -5.537050 17.714059 20.891363 -0.523539 0.558760 0.132147 -0.036161 -879825.000000 0 1 0
8.614779 -6.317050 18.630659 21.476057 -0.632715 0.520625 0.146102 -0.042455 -21044.300000 0 1 0
8.428079 -7.722450 18.422859 21.681109 -0.741735 0.555343 0.129883 -0.050939 126233.000000 0 1 0
9.491979 -8.513250 18.941659 22.833299 -0.731094 0.592472 0.158100 -0.055260 326068.000000 0 1 0
9.306579 -9.992350 18.701159 23.155838 -0.820917 0.630688 0.162489 -0.048284 143647.000000 0 1 0
9.607079 -10.245150 17.310359 22.291425 -0.817528 0.681628 0.145076 -0.038930 -89552.700000 0 1 0
9.834179 -11.622050 17.050159 22.858064 -0.868533 0.728890 0.149499 -0.038993 275079.000000 0 1 0
9.915279 -11.934350 15.552459 21.968625 -0.877544 0.784220 0.144254 -0.034352 257313.000000 0 1 0
10.486479 -13.132450 15.055459 22.563119 -0.896961 0.840273 0.132491 -0.032837 -123485.000000 0 1 0
10.314379 -13.203450 13.658159 21.616263 -0.907632 0.886863 0.119863 -0.028115 -740768.000000 0 1 0
11.039379 -14.400650 12.999159 22.320949 -0.916763 0.949149 0.149406 -0.035573 355757.000000 0 1 0
12.382479 -14.190150 12.596959 22.657660 -0.853321 0.981268 0.127205 -0.035859 154012.000000 0 1 0
12.499079 -13.220450 11.579359 21.565919 -0.813438 1.004004 0.080511 -0.033955 -451680.000000 0 1 0
13.999479 -12.875050 11.328759 22.138047 -0.743583 1.033596 0.115775 -0.037392 403367.000000 0 1 0
14.717579 -13.758050 10.520759 22.728341 -0.751714 1.089542 0.120409 -0.037634 682268.000000 0 1 0
16.063579 -13.299650 10.290059 23.255206 -0.691546 1.112429 0.106529 -0.045918 715002.000000 0 1 0
17.076679 -14.347650 9.860459 24.386404 -0.698771 1.154537 0.096165 -0.045693 -105552.000000 0 1 0
17.758079 -14.980350 10.948159 25.683116 -0.700755 1.130422 0.100407 -0.032015 285429.000000 0 0 1
17.014979 -16.047150 11.478959 26.053542 -0.756133 1.114539 0.151881 -0.028187 119206.000000 0 0 1
17.738479 -16.825150 12.648259 27.526674 -0.758980 1.093374 0.127888 -0.027772 -262275.000000 0 0 1
18.655179 -17.777450 12.217659 28.518847 -0.761311 1.128068 0.130314 -0.035518 -397546.000000 0 0 1
19.234279 -18.384150 13.318059 29.754078 -0.762803 1.106712 0.102620 -0.033137 -454592.000000 0 0 1
20.418179 -19.303550 12.927659 30.929815 -0.757345 1.139589 0.049938 -0.025542 786106.000000 0 0 1
21.590379 -18.478450 12.674459 31.116547 -0.707889 1.151276 0.049711 -0.020611 190517.000000 0 0 1
22.672479 -19.339350 12.412559 32.281936 -0.706226 1.176125 0.039625 -0.019005 177877.000000 0 0 1
23.608679 -18.731050 11.308059 32.188417 -0.670702 1.211828 0.074402 -0.021809 -159414.000000 0 0 1
23.165279 -18.857650 9.944859 31.482398 -0.683248 1.249406 0.075087 -0.018393 919555.000000 0 0 1
21.922679 -18.243250 9.517159 30.066532 -0.694047 1.248720 0.088740 -0.026130 897577.000000 0 0 1
21.595579 -16.742250 9.705759 28.997823 -0.659474 1.229503 0.158339 -0.047795 -179840.000000 0 0 1
22.436779 -15.925850 8.929959 28.927253 -0.617280 1.256966 0.142973 -0.032956 130736.000000 0 0 1
22.052079 -14.609350 9.134659 27.985162 -0.585108 1.238292 0.165269 -0.039014 22144.200000 0 0 1
-36.959781 24.912906 7.956559 45.276761 -0.593100 1.394147 0.121440 -0.019193 524392.000000 0 0 1
-35.888164 24.223306 8.594259 44.142838 -0.593727 1.374853 0.151952 -0.019710 639271.000000 0 0 1
-34.726557 24.979506 8.885659 43.690553 -0.623575 1.365990 0.185271 -0.030153 -126897.000000 0 0 1
-33.659331 24.184706 9.626859 42.550288 -0.623044 1.342574 0.221641 -0.036393 -639096.000000 0 0 1
-32.838841 23.480206 8.765459 41.310323 -0.620731 1.356985 0.240248 -0.030507 -336854.000000 0 0 1
-32.083901 22.493206 9.445659 40.305601 -0.611447 1.334245 0.234425 -0.030953 -335123.000000 0 0 1
-31.320181 21.667306 8.474859 39.016011 -0.605201 1.351836 0.198314 -0.034234 -804089.000000 0 0 1
-32.119171 20.821206 7.721259 39.048452 -0.575143 1.371749 0.202018 -0.038786 -311677.000000 0 0 1
-31.439061 20.101306 6.724959 37.917043 -0.568869 1.392493 0.206883 -0.043530 -396073.000000 0 0 1
-32.381391 19.421806 5.731959 38.191836 -0.540260 1.420144 0.197774 -0.030606 -377200.000000 0 0 1
-33.082771 18.315106 6.317559 38.338289 -0.505614 1.405257 0.215179 -0.039158 681659.000000 0 0 1
-34.050513 17.829806 5.369259 38.809385 -0.482371 1.432002 0.151710 -0.044075 207942.000000 0 0 1
-34.814547 16.595806 5.856859 39.009951 -0.444828 1.420089 0.140594 -0.027437 -120020.000000 0 0 1
-35.565011 16.773706 7.048459 39.948817 -0.440699 1.393431 0.095178 -0.018206 212994.000000 0 0 1
-36.135561 15.564906 7.528259 40.058953 -0.406719 1.381743 0.100679 -0.027406 -255065.000000 0 0 1
-36.981091 15.647006 8.794059 41.106755 -0.400267 1.355198 0.082684 -0.013850 -368714.000000 0 0 1
-38.070931 16.511906 8.601459 42.379522 -0.409229 1.366414 0.106198 -0.022295 -332242.000000 0 0 1
37.582179 16.701906 9.802759 42.278457 0.418196 1.336805 0.110852 -0.018647 -250255.000000 0 0 1
36.641499 17.906206 9.782159 41.939508 0.454556 1.335383 0.070895 -0.011326 -357722.000000 0 0 1
35.476149 17.740606 9.034559 40.680579 0.463705 1.346844 0.093890 -0.018764 -324282.000000 0 0 1
34.491449 18.693006 9.383859 40.337890 0.496650 1.336014 0.096375 -0.017390 536328.000000 0 0 1
33.074269 18.502906 8.778959 38.901606 0.510058 1.343165 0.115177 -0.029182 308337.000000 0 0 1
32.218789 19.605306 9.051059 38.785823 0.546650 1.335265 0.116971 -0.024110 525464.000000 0 0 1
30.845879 19.444206 8.691459 37.484489 0.562449 1.336799 0.095620 -0.022782 754841.000000 0 0 1
30.432079 19.390106 7.180359 36.791918 0.567296 1.374374 0.072048 -0.018281 -837769.000000 0 0 1
30.466779 18.092706 6.560759 36.036290 0.535885 1.387715 0.088986 -0.016811 221715.000000 0 0 1
30.247779 18.101606 5.155059 35.625425 0.539275 1.425585 0.072367 -0.023688 1205460.000000 0 0 1
28.762679 18.530706 4.735259 34.541301 0.572331 1.433273 0.081395 -0.024539 695604.000000 0 0 1
27.780379 17.504206 5.073759 33.224836 0.562253 1.417487 0.080534 -0.028546 1786090.000000 0 0 1
26.398479 17.723906 4.723259 32.145384 0.591272 1.423328 0.106381 -0.029997 1261500.000000 0 0 1
25.742779 19.060506 5.169959 32.445679 0.637343 1.410772 0.113172 -0.021970 -1408640.000000 0 0 1
26.284379 20.150206 4.464459 33.419018 0.654055 1.436805 0.091366 -0.025921 52426.300000 0 0 1
25.847379 21.395606 5.036559 33.929720 0.691444 1.421805 0.103930 -0.018317 -803382.000000 0 0 1
26.656279 22.551106 4.545359 35.210366 0.702165 1.441344 0.066632 -0.009083 -484817.000000 0 0 1
27.855079 22.552206 5.308659 36.231054 0.680583 1.423745 0.074162 -0.022174 630817.000000 0 0 1
28.731379 23.645506 4.897759 37.531189 0.688600 1.439925 0.073981 -0.015420 90250.700000 0 0 1
30.005879 23.789406 5.816359 38.731365 0.670351 1.420054 0.089517 -0.019878 870067.000000 0 0 1
31.039779 22.767406 5.777759 38.925637 0.632852 1.421815 0.077091 -0.020465 1000780.000000 0 0 1
31.504089 22.449206 4.444259 38.938746 0.619120 1.456412 0.073972 -0.014177 -1244270.000000 0 0 1
32.376819 23.488606 3.765259 40.176488 0.627620 1.476941 0.096424 -0.018815 -977735.000000 0 0 1
31.745249 24.736406 3.517659 40.398324 0.661939 1.483612 0.079207 -0.019954 -71980.500000 0 0 1
32.591039 25.658906 2.857959 41.577918 0.666949 1.502005 0.126329 -0.018261 -585409.000000 0 0 1
32.101809 27.147806 3.065259 42.153592 0.701980 1.498016 0.115717 -0.016301 626488.000000 0 0 1
30.867779 27.495606 2.471159 41.411771 0.727683 1.511088 0.123248 -0.021043 28691.500000 0 0 1
29.705879 27.079906 3.143659 40.319266 0.739188 1.492748 0.096202 -0.015135 606398.000000 0 0 1
28.325379 27.557906 2.526259 39.599839 0.771666 1.506958 0.058133 -0.003077 1037450.000000 0 0 1
28.078879 28.963906 2.605259 40.424234 0.800912 1.506304 0.046033 0.001932 204160.000000 0 0 1
26.776079 29.223606 2.104259 39.691378 0.829076 1.517756 0.032731 0.001153 347634.000000 0 0 1
26.294779 30.643906 2.472259 40.454622 0.861633 1.509646 0.051176 -0.005145 -232773.000000 0 0 1
26.101279 31.042606 3.823859 40.737478 0.871655 1.476792 0.029674 -0.015822 70140.800000 0 0 1
27.225179 31.004206 4.689159 41.526611 0.850206 1.457636 0.046121 -0.018571 91498.000000 0 0 1
26.789379 30.778106 6.203259 41.272789 0.854575 1.419926 0.026393 -0.026508 -15927.500000 0 0 1
26.337279 29.481906 6.565659 40.074218 0.841675 1.406217 0.032479 -0.031844 -227996.000000 0 0 1
27.232179 28.415906 6.461359 39.884890 0.806667 1.408079 0.073153 -0.038034 -535772.000000 0 0 1
26.735479 27.196506 7.171159 38.805429 0.793946 1.384930 0.090812 -0.043980 -47719.200000 0 0 1
25.535979 26.750306 6.570359 37.561080 0.808619 1.394967 0.050578 -0.036912 232789.000000 0 0 1
25.257479 25.352106 6.795259 36.425885 0.787268 1.383147 0.060385 -0.035896 186827.000000 0 0 1
24.021479 24.845306 5.958359 35.068829 0.802255 1.400063 0.069149 -0.016106 289774.000000 0 0 1
24.121279 24.727906 4.539159 34.841203 0.797816 1.440144 0.062361 -0.025429 197430.000000 0 0 1
24.360179 25.953506 3.898859 35.807875 0.817055 1.461697 0.051513 -0.024100 -365893.000000 0 0 1
24.503579 25.894006 2.378259 35.729275 0.812980 1.504184 0.063685 -0.009277 -988451.000000 0 0 1
25.605979 25.258506 1.884659 36.016805 0.778567 1.518445 0.032696 0.007213 -703600.000000 0 0 1
25.468479 25.165206 0.523359 35.807889 0.779409 1.556180 0.053370 0.001818 1481010.000000 0 0 1
26.821679 24.595406 -0.161341 36.391792 0.742127 1.575230 0.070096 -0.003562 941964.000000 0 0 1
27.908079 25.466606 0.103159 37.781206 0.739688 1.568066 0.070221 0.002689 1707080.000000 0 0 1
29.231279 25.009606 -0.354741 38.471729 0.707723 1.580017 0.084996 0.014654 2140350.000000 0 0 1
29.819379 23.740006 0.446459 38.118009 0.672375 1.559084 0.069504 0.007777 -310353.000000 0 0 1
29.125479 22.524106 0.105959 36.819019 0.658277 1.567918 0.063580 -0.000149 164941.000000 0 0 1
29.254379 21.534406 1.142159 36.343553 0.634551 1.539364 0.059148 -0.000294 511531.000000 0 0 1
27.950579 20.746206 1.558659 34.843498 0.638520 1.526048 0.051844 -0.012644 581574.000000 0 0 1
27.631779 19.773006 0.564459 33.982431 0.621112 1.554185 0.070296 -0.022494 1235900.000000 0 0 1
26.407679 19.086806 0.939859 32.596856 0.625848 1.541960 0.066496 -0.024299 533443.000000 0 0 1
26.089079 17.787406 0.190759 31.576388 0.598403 1.564755 0.075220 -0.024137 288766.000000 0 0 1
24.697479 17.494606 0.344959 30.267899 0.616312 1.559399 0.080966 -0.025161 653020.000000 0 0 1
24.257279 16.507106 -0.570641 29.346649 0.597519 1.590242 0.103559 -0.053302 -355564.000000 0 0 1
22.762079 16.228106 -0.431541 27.958003 0.619361 1.586232 0.103789 -0.036617 -1182780.000000 0 0 1
22.170779 15.379306 -1.383941 27.018175 0.606468 1.622041 0.121587 -0.038406 -756083.000000 0 0 1
20.859779 15.076706 -1.095641 25.761170 0.625841 1.613340 0.155411 -0.040421 -1388150.000000 0 0 1
19.786379 16.058806 -1.474241 25.525662 0.681780 1.628584 0.182405 -0.042434 -1278110.000000 0 0 1
19.762479 17.252506 -0.677941 26.242411 0.717692 1.596633 0.143775 -0.033085 556234.000000 0 0 1
18.625479 18.012406 -1.126541 25.935002 0.768666 1.614247 0.143190 -0.036767 656771.000000 0 0 1
18.594179 19.441406 -0.705541 26.911142 0.807669 1.597017 0.142804 -0.030008 -188107.000000 0 0 1
18.038779 19.635706 0.570859 26.669915 0.827760 1.549390 0.151285 -0.027311 688.446000 0 0 1
18.115279 20.935706 1.138559 27.708545 0.857497 1.529694 0.169363 -0.030345 -115806.000000 0 0 1
16.990779 21.852606 0.655159 27.688485 0.909915 1.547132 0.162444 -0.041907 94983.500000 0 0 1
15.704979 21.648806 1.228659 26.773621 0.943198 1.524890 0.135162 -0.038104 225261.000000 0 0 1
14.837579 22.648006 0.759959 27.086223 0.990817 1.542736 0.114623 -0.034538 1126810.000000 0 0 1
13.340679 22.561106 1.283759 26.241671 1.036789 1.521856 0.091095 -0.034767 1292020.000000 0 0 1
13.080179 23.139706 2.527059 26.700620 1.056305 1.476010 0.079074 -0.009159 -74985.100000 0 0 1
11.739079 22.904006 2.896159 25.899560 1.097172 1.458739 0.059798 -0.015285 -2494.060000 0 0 1
11.382979 23.365106 4.336859 26.349739 1.117458 1.405456 0.078307 -0.022449 -99083.000000 0 0 1
11.966679 22.556406 5.367459 26.092192 1.083030 1.363606 0.079797 -0.032857 304450.000000 0 0 1
11.362379 22.644506 6.652259 26.194081 1.105732 1.314024 0.064940 -0.021767 -396729.000000 0 0 1
11.923279 21.578506 7.683859 25.823211 1.065995 1.268664 0.068805 -0.023867 609762.000000 0 0 1
13.207279 21.840706 8.245659 26.822371 1.026921 1.258319 0.083793 -0.025253 855962.000000 0 0 1
14.289079 21.418306 7.404859 26.790923 0.982464 1.290756 0.100556 -0.020510 129568.000000 0 0 1
15.644079 21.436406 8.150859 27.761362 0.940355 1.272801 0.115081 -0.027660 -63809.500000 0 0 1
15.768779 20.286506 9.040759 27.238430 0.910049 1.232467 0.116165 -0.031018 1129850.000000 0 0 1
17.126679 20.142706 9.530759 28.104931 0.866147 1.224822 0.116341 -0.039608 1110500.000000 0 0 1
17.528679 20.941606 10.812059 29.371859 0.873882 1.193821 0.093801 -0.037987 -671688.000000 0 0 1
16.917979 20.527006 11.972459 29.170461 0.881483 1.147870 0.091577 -0.042054 -72553.200000 0 0 1
17.091479 21.414606 13.064659 30.354396 0.897201 1.125856 0.091707 -0.042706 520251.000000 0 0 1
18.189979 20.992406 14.116159 31.158023 0.856799 1.100612 0.107095 -0.032140 937632.000000 0 0 1
19.541779 20.995706 13.691859 31.783137 0.821249 1.125428 0.119913 -0.032097 364606.000000 0 0 1
20.461379 20.603506 14.718659 32.554745 0.788859 1.101655 0.124352 -0.040390 -181321.000000 0 0 1
21.848879 21.114106 14.377159 33.613713 0.768297 1.128831 0.140214 -0.044820 -960048.000000 0 0 1
22.464079 20.515606 13.294859 33.200576 0.740094 1.158799 0.144628 -0.052769 -106800.000000 0 0 1
23.769479 21.038506 13.147559 34.357899 0.724525 1.178117 0.169778 -0.053419 -307084.000000 0 0 1
24.724979 20.368106 12.196659 34.277439 0.689078 1.207003 0.165454 -0.054128 -333651.000000 0 0 1
24.512679 20.788106 10.871359 33.929386 0.703364 1.244633 0.174203 -0.048550 275816.000000 0 0 1
25.447379 20.196706 9.993259 33.990312 0.670866 1.272384 0.172216 -0.065138 -431910.000000 0 0 1
25.407279 20.827406 8.568659 33.951916 0.686663 1.315661 0.150307 -0.054940 21281.200000 0 0 1
25.862579 22.161806 8.532659 35.111607 0.708490 1.325323 0.123155 -0.039845 -469792.000000 0 0 1
27.218379 22.383206 8.739859 36.307482 0.688225 1.327691 0.110017 -0.052462 -1050400.000000 0 0 1
27.559779 23.863706 9.140059 37.584020 0.713646 1.325143 0.148502 -0.052255 -331238.000000 0 0 1
28.910379 24.272406 9.116059 38.833777 0.698410 1.333839 0.141314 -0.042159 256960.000000 0 0 1
29.172179 25.378106 9.966459 39.929871 0.715958 1.318530 0.149204 -0.037756 -134460.000000 0 0 1
30.468479 26.048906 9.491259 41.194147 0.707359 1.338304 0.141299 -0.043717 -106601.000000 0 0 1
30.370279 26.815606 8.314459 41.358927 0.723318 1.368385 0.134127 -0.047755 72649.300000 0 0 1
31.655759 27.293906 7.981959 42.552980 0.711540 1.382102 0.149727 -0.039244 36120.300000 0 0 1
31.764699 28.089206 6.663159 42.923156 0.724067 1.414931 0.168986 -0.029508 94655.900000 0 0 1
31.206579 29.402006 6.680659 43.393084 0.755633 1.416225 0.174247 -0.028924 186036.000000 0 0 1
31.339079 30.050806 5.400759 43.753366 0.764416 1.447044 0.171240 -0.018320 69501.200000 0 0 1
31.335379 31.615906 5.410359 44.841315 0.789854 1.449846 0.126730 -0.014347 371006.000000 0 0 1
30.109779 32.154806 5.897859 44.444517 0.818231 1.437702 0.127536 -0.029202 125151.000000 0 0 1
30.128879 33.518006 6.298359 45.506872 0.838597 1.431946 0.103846 -0.015928 -36212.800000 0 0 1
28.752179 -33.328037 6.653959 44.516526 -0.858974 1.420762 0.097554 -0.031283 -90993.400000 0 0 1
27.736479 -33.227337 5.685359 43.654227 -0.875223 1.440189 0.085900 -0.023237 348062.000000 0 0 1
26.679079 -32.368937 6.177359 42.399070 -0.881461 1.424580 0.078698 -0.031996 -328252.000000 0 0 1
25.520479 -32.357937 5.249359 41.543793 -0.902988 1.444100 0.059047 -0.019561 -802439.000000 0 0 1
25.974879 -31.779637 4.025959 41.241339 -0.885569 1.473021 0.052172 -0.002767 205566.000000 0 0 1
25.038879 -31.974037 2.996159 40.721757 -0.906445 1.497153 0.052156 -0.013216 -22627.700000 0 0 1
25.551779 -31.297137 1.722659 40.439730 -0.886120 1.528185 0.062931 0.001248 176399.000000 0 0 1
25.418679 -29.899137 1.717959 39.281281 -0.866217 1.527048 0.073539 0.003057 216038.000000 0 0 1
26.176079 -29.266437 0.674559 39.270428 -0.841080 1.553618 0.067637 0.006187 -217585.000000 0 0 1
26.289779 -27.724337 0.976759 38.219699 -0.811951 1.545237 0.090665 -0.004843 -5200.080000 0 0 1
25.121779 -26.931837 0.966159 36.842382 -0.820157 1.544569 0.083292 -0.002280 -176504.000000 0 0 1
24.482179 -26.812037 -0.289541 36.309038 -0.830788 1.578771 0.079785 -0.000933 36402.300000 0 0 1
23.282179 -25.829137 -0.370241 34.775585 -0.837213 1.581443 0.068499 0.004249 60152.800000 0 0 1
23.561479 -24.440537 -0.298841 33.949558 -0.803709 1.579599 0.100749 -0.014595 -289619.000000 0 0 1
23.760579 -23.858037 0.958459 33.685156 -0.787445 1.542339 0.079014 -0.001499 403152.000000 0 0 1
22.533979 -23.829637 1.940759 32.854199 -0.813336 1.511690 0.070764 -0.008307 396110.000000 0 0 1
22.663279 -23.061937 3.107459 32.482818 -0.794117 1.474985 0.065378 -0.010778 -172475.000000 0 0 1
21.427379 -22.926537 3.781659 31.607905 -0.819185 1.450866 0.070680 -0.014541 -29188.800000 0 0 1
21.552879 -22.177037 5.134259 31.348177 -0.799670 1.406273 0.047952 -0.011694 -258556.000000 0 0 1
21.523079 -20.752137 5.149859 30.338345 -0.767164 1.400223 0.086515 -0.013107 -177326.000000 0 0 1
20.419279 -20.138437 4.509059 29.031625 -0.778474 1.414850 0.056611 -0.004052 -422109.000000 0 0 1
20.307879 -18.663537 4.916259 28.016195 -0.743230 1.394404 0.064503 -0.002110 76398.900000 0 0 1
19.965079 -18.337037 6.249359 27.819163 -0.742918 1.344220 0.083637 -0.008164 275154.000000 0 0 1
18.568179 -18.473637 6.467359 26.979238 -0.782846 1.328723 0.049786 -0.003105 210005.000000 0 0 1
20.020149 -25.896124 -12.171841 34.922333 -0.912678 1.926810 0.097657 -0.032536 201666.000000 0 0 1
20.136349 -24.647194 -12.734441 34.280063 -0.885785 1.951402 0.113031 -0.031471 -605469.000000 0 0 1
18.918649 -24.178094 -13.227441 33.428442 -0.906836 1.977620 0.088820 -0.034743 -188486.000000 0 0 1
19.124349 -22.662994 -13.662441 32.649875 -0.869879 2.002538 0.077346 -0.045371 12754.500000 0 0 1
19.172549 -21.623794 -12.678941 31.558369 -0.845411 1.984236 0.083209 -0.043371 237375.000000 0 0 1
20.357049 -21.386694 -11.896641 31.832848 -0.810059 1.953815 0.084274 -0.036545 -71204.900000 0 0 1
20.340949 -22.130194 -10.540041 31.852663 -0.827502 1.908053 0.080705 -0.028105 685163.000000 0 0 1
19.426849 -21.667994 -9.501741 30.613518 -0.839880 1.886386 0.086647 -0.026764 658478.000000 0 0 1
18.063549 -21.955994 -9.772541 30.064265 -0.882357 1.901866 0.087292 -0.016084 -414868.000000 0 0 1
17.101949 -21.318694 -8.800241 28.712499 -0.894713 1.882305 0.082127 -0.015850 -801585.000000 0 0 1
17.064349 -19.817894 -8.817941 27.598859 -0.859918 1.896002 0.075560 -0.025227 320978.000000 0 0 1
16.217649 -19.188794 -7.867741 26.327235 -0.869117 1.874278 0.093200 -0.030704 -66382.400000 0 0 1
14.703649 -19.127594 -8.103041 25.450372 -0.915425 1.894823 0.085029 -0.019168 -17810.900000 0 0 1
14.055549 -20.381694 -8.016141 26.023651 -0.967073 1.883921 0.073736 -0.021790 -64953.600000 0 0 1
12.664849 -20.400194 -8.273841 25.397298 -1.015208 1.902629 0.081842 -0.027344 512376.000000 0 0 1
12.036749 -21.830894 -8.145741 26.226406 -1.066907 1.886613 0.090901 -0.025107 178119.000000 0 0 1
12.191349 -22.339794 -6.857241 26.357487 -1.071242 1.833987 0.084429 -0.020758 20218.600000 0 0 1
11.238349 -23.329094 -6.526441 26.704710 -1.121870 1.817690 0.060017 -0.023899 100331.000000 0 0 1
11.603949 -23.939294 -5.162641 27.099710 -1.119444 1.762473 0.069605 -0.019602 -64230.200000 0 0 1
10.757749 -24.910994 -4.613841 27.524068 -1.163140 1.739221 0.065597 -0.015396 -60153.100000 0 0 1
11.434849 -25.609484 -3.522241 28.266723 -1.150850 1.695728 0.060663 -0.019315 246354.000000 0 0 1
10.561449 -26.627594 -2.760841 28.778381 -1.193194 1.666879 0.066884 -0.019551 -379680.000000 0 0 1
9.770449 -26.025854 -1.814941 27.858585 -1.211663 1.635991 0.044799 -0.010120 -654484.000000 0 0 1
9.074349 -26.964084 -1.024841 28.468508 -1.246167 1.606803 0.040675 -0.015845 -193635.000000 0 0 1
8.552449 -26.380464 0.255959 27.733351 -1.257291 1.561567 0.051750 -0.018028 -139104.000000 0 0 1
7.334449 -25.719194 0.009959 26.744554 -1.292996 1.570424 0.037658 -0.026555 -178581.000000 0 0 1
6.690549 -25.263694 1.188059 26.161597 -1.311911 1.525368 0.044369 -0.022759 484314.000000 0 0 1
5.252449 -24.675394 1.135259 25.253754 -1.361065 1.525827 0.076775 -0.034597 317478.000000 0 0 1
4.212849 -25.565554 0.854759 25.924434 -1.407478 1.537819 0.078207 -0.041472 -74304.400000 0 0 1
2.959449 -24.961094 1.201359 25.164614 -1.452785 1.523038 0.090289 -0.049586 110269.000000 0 0 1
1.805349 -25.822324 0.691259 25.894585 -1.500996 1.544098 0.103789 -0.046723 -130049.000000 0 0 1
1.283849 -26.858224 1.522659 26.931969 -1.523032 1.514229 0.102905 -0.047888 265322.000000 0 0 1
2.043549 -28.053944 1.321259 28.159290 -1.498081 1.523858 0.080564 -0.046938 396142.000000 0 0 1
1.408149 -29.242734 2.145359 29.355118 -1.522680 1.497648 0.118202 -0.045744 264889.000000 0 0 1
1.846149 -29.175564 3.501659 29.442884 -1.507603 1.451584 0.085591 -0.035716 -249610.000000 0 0 1
1.147249 -30.047324 4.294559 30.374349 -1.532633 1.428933 0.128467 -0.043918 -271220.000000 0 0 1
1.470549 -29.875934 5.787159 30.466788 -1.521614 1.379685 0.140556 -0.055185 335583.000000 0 0 1
2.847749 -30.194544 6.050359 30.926154 -1.476761 1.373887 0.061903 -0.032049 588434.000000 0 0 1
3.149649 -29.816474 7.426859 30.888520 -1.465552 1.327976 0.079825 -0.033710 185795.000000 0 0 1
4.539349 -30.315114 7.863059 31.645529 -1.422162 1.319693 0.086679 -0.037000 65935.200000 0 0 1
4.633749 -31.691694 7.759659 32.955233 -1.425612 1.333104 0.101972 -0.034305 349337.000000 0 0 1
5.954049 -32.205724 7.985259 33.710884 -1.387985 1.331648 0.067135 -0.026851 549885.000000 0 0 1
6.184049 33.709200 7.922359 35.175508 1.389361 1.343624 0.070011 -0.019494 -382528.000000 0 0 1
5.925349 33.282968 6.560159 34.436919 1.394613 1.379127 0.054329 -0.010873 3363.640000 0 0 1
5.781849 31.886864 6.446859 33.041850 1.391421 1.374425 0.054536 -0.012661 -406202.000000 0 0 1
6.078549 31.323140 5.012059 32.298739 1.379119 1.414989 0.054799 -0.016302 -267897.000000 0 0 1
7.386749 31.219620 4.524259 32.399038 1.338463 1.430697 0.057365 -0.014016 -608771.000000 0 0 1
8.017349 29.976210 4.850959 31.406732 1.309456 1.415719 0.062987 -0.018933 127151.000000 0 0 1
9.417649 30.098980 4.196259 31.815865 1.267557 1.438519 0.048768 -0.015758 -48074.900000 0 0 1
10.409349 30.883020 4.861759 32.950753 1.245698 1.422709 0.055761 -0.021283 -395764.000000 0 0 1
11.485149 30.985520 3.982259 33.284673 1.215834 1.450867 0.046760 -0.020333 -177117.000000 0 0 1
12.810749 31.345200 4.714759 34.188679 1.182813 1.432451 0.073135 -0.036067 201277.000000 0 0 1
13.329249 30.329680 5.532659 33.588222 1.156726 1.405322 0.083397 -0.033938 252678.000000 0 0 1
14.556149 30.721040 6.148559 34.546614 1.128314 1.391864 0.102981 -0.030325 558783.000000 0 0 1
15.143349 29.614560 7.044459 33.999523 1.098111 1.362092 0.086084 -0.020414 -135146.000000 0 0 1
14.826849 29.674800 8.428159 34.226643 1.107433 1.321992 0.093037 -0.020666 301968.000000 0 0 1
15.478249 28.624180 9.134859 33.798898 1.075090 1.297122 0.082136 -0.023934 193944.000000 0 0 1
15.117649 28.698060 10.617259 34.129872 1.085953 1.254463 0.063599 -0.007828 685855.000000 0 0 1
15.988849 29.580170 11.375059 35.496784 1.075256 1.244588 0.042578 -0.016255 987572.000000 0 0 1
15.247149 30.084260 12.472359 35.959672 1.101712 1.216593 0.048040 -0.013969 195644.000000 0 0 1
16.084649 31.140430 13.218059 37.458769 1.094020 1.210160 0.035978 -0.008200 151369.000000 0 0 1
17.139549 30.552480 13.934359 37.701254 1.059557 1.192219 0.047376 -0.010612 75453.200000 0 0 1
17.978449 31.521321 14.541759 39.093235 1.052457 1.189659 0.043952 -0.003239 69482.900000 0 0 1
19.217849 31.045130 15.336759 39.602298 1.016502 1.173128 0.053311 -0.002899 -217438.000000 0 0 1
20.305649 30.646700 14.567159 39.544174 0.985634 1.193534 0.043480 -0.001562 -276041.000000 0 0 1
20.510649 29.265360 14.599359 38.604265 0.959500 1.182967 0.034127 -0.001971 -60820.400000 0 0 1
21.815249 28.734550 13.970359 38.687858 0.921434 1.201344 0.060711 -0.015214 1073780.000000 0 0 1
23.046349 28.846830 14.720659 39.748857 0.896713 1.191419 0.092964 -0.022830 412074.000000 0 0 1
24.191249 28.605260 13.978859 39.986072 0.868808 1.213659 0.096985 -0.026560 -551736.000000 0 0 1
25.460249 28.822150 14.819159 41.213445 0.847253 1.202988 0.136014 -0.044976 -553983.000000 0 0 1
25.747849 27.766130 15.735559 41.006311 0.823095 1.176959 0.138665 -0.033119 170333.000000 0 0 1
26.869349 28.033260 16.572559 42.219371 0.806595 1.167411 0.128393 -0.034712 118870.000000 0 0 1
27.736449 26.780370 16.767359 42.043348 0.767863 1.160576 0.090798 -0.021204 -282638.000000 0 0 1
27.143249 25.757760 17.564159 41.336641 0.759214 1.131939 0.108556 -0.025037 185428.000000 0 0 1
27.208349 26.083280 18.952559 42.188046 0.764290 1.104882 0.141578 -0.018801 201642.000000 0 0 1
26.583749 24.901130 19.795359 41.456221 0.752728 1.072989 0.135728 -0.018478 317260.000000 0 0 1
27.440649 23.772730 19.752259 41.331388 0.713900 1.072534 0.106579 -0.022135 815278.000000 0 0 1
26.661849 22.568100 19.998059 40.250412 0.702433 1.050841 0.101959 -0.016123 889224.000000 0 0 1
27.533249 21.248550 19.918959 40.079242 0.657271 1.050670 0.073006 -0.012886 480874.000000 0 0 1
26.802349 20.044750 20.149659 39.066183 0.642138 1.028875 0.062328 0.006873 317310.000000 0 0 1
27.659749 18.906150 20.032059 39.035722 0.599584 1.031919 0.066922 -0.003356 242212.000000 0 0 1
28.317749 18.525950 21.388659 40.032243 0.579334 1.007134 0.105351 0.007048 305646.000000 0 0 1
27.433049 18.132550 22.461359 39.823036 0.584052 0.971539 0.078196 0.016510 374120.000000 0 0 1
28.208449 17.672150 23.574559 40.789476 0.559666 0.954573 0.122662 0.009029 226785.000000 0 0 1
27.472049 16.743750 24.570959 40.482079 0.547363 0.918568 0.091820 0.008851 -47249.400000 0 0 1
27.083149 15.572250 23.928659 39.351908 0.521819 0.917171 0.104119 -0.002065 474229.000000 0 0 1
26.027149 14.960150 24.658159 38.848982 0.521677 0.883152 0.107036 -0.003078 225242.000000 0 0 1
25.367049 13.704450 24.009459 37.520038 0.495324 0.876415 0.115026 -0.009213 272499.000000 0 0 1
24.260949 13.260250 24.793459 37.136821 0.500204 0.839783 0.096482 -0.006554 439948.000000 0 0 1
23.564049 12.260250 24.068859 35.845336 0.479751 0.834613 0.103522 -0.010033 -303169.000000 0 0 1
22.273249 11.737150 24.707559 35.274946 0.484984 0.794799 0.103785 -0.010455 132955.000000 0 0 1
21.148849 12.548550 24.426659 34.661241 0.535511 0.788760 0.090629 -0.014264 774380.000000 0 0 1
19.883749 11.885650 24.535659 33.743603 0.538769 0.756678 0.102519 -0.013651 1932860.000000 0 0 1
18.557449 12.767050 24.508259 33.287103 0.602609 0.743256 0.084517 -0.019094 1068980.000000 0 0 1
18.298049 13.266150 25.807559 34.305094 0.627310 0.719257 0.105691 -0.015491 -27867.200000 0 0 1
17.224049 14.165850 25.855459 34.144457 0.688278 0.711723 0.115908 -0.012353 -235760.000000 0 0 1
16.908649 14.469250 27.379759 35.283322 0.707812 0.682502 0.105046 -0.004188 -83243.900000 0 0 1
16.293949 13.450250 28.146659 35.194267 0.690083 0.643916 0.113988 -0.009339 20307.700000 0 0 1
16.374849 13.651550 29.524359 36.416868 0.694949 0.625393 0.102876 -0.010088 -290338.000000 0 0 1
17.712649 13.315450 30.195559 37.454118 0.644619 0.633093 0.109977 -0.021287 677794.000000 0 0 1
18.751649 14.264050 29.804359 37.991937 0.650303 0.668920 0.131603 -0.031310 321151.000000 0 0 1
20.055349 13.768150 29.804359 38.471792 0.601613 0.684545 0.114548 -0.024995 -282022.000000 0 0 1
21.111449 14.878250 29.482059 39.194992 0.613905 0.719418 0.121401 -0.026437 -133336.000000 0 0 1
21.007549 15.574150 28.238959 38.487791 0.637948 0.747027 0.127030 -0.028746 98054.200000 0 0 1
21.288349 14.787150 27.140959 37.529792 0.607101 0.762394 0.116536 -0.012365 -518274.000000 0 0 1
20.972949 15.531850 25.823659 36.714634 0.637436 0.790681 0.077755 -0.007202 -359550.000000 0 0 1
21.842049 16.590750 25.509659 37.457587 0.649603 0.821631 0.071915 -0.007404 67129.400000 0 0 1
22.049149 16.687450 24.076659 36.664990 0.647858 0.854407 0.055816 0.004224 86308.500000 0 0 1
23.036249 17.830050 23.744159 37.581439 0.658685 0.886916 0.058521 0.001352 -106943.000000 0 0 1
23.281549 18.040550 22.390259 36.997509 0.659239 0.920801 0.085093 -0.002925 715032.000000 0 0 1
24.346349 19.010150 22.134759 38.001027 0.662937 0.949023 0.085950 -0.002260 626843.000000 0 0 1
24.537549 20.417650 22.764359 39.206987 0.694009 0.951306 0.101371 -0.017771 -1492800.000000 0 0 1
23.490949 21.216950 22.495059 38.833122 0.734578 0.952957 0.102787 -0.018529 -1239060.000000 0 0 1
23.652749 22.461850 23.064259 39.949309 0.759579 0.955331 0.132763 -0.025384 101493.000000 0 0 1
22.693649 23.561630 22.569059 39.743107 0.804161 0.966876 0.130917 -0.037496 80049.500000 0 0 1
23.180849 24.025400 21.324759 39.614605 0.803287 1.002371 0.137770 -0.033420 256108.000000 0 0 1
22.526949 25.212670 20.974559 39.787866 0.841597 1.015542 0.131410 -0.033705 -60665.200000 0 0 1
23.006349 25.919910 19.633759 39.832378 0.844878 1.055366 0.136530 -0.033567 -82727.200000 0 0 1
22.777049 25.045260 18.525859 38.591015 0.832793 1.070077 0.134899 -0.037756 358976.000000 0 0 1
23.155749 25.838460 17.373859 38.802908 0.840099 1.106553 0.128272 -0.044682 65127.200000 0 0 1
22.963249 25.115530 16.038859 37.621080 0.830134 1.130369 0.091991 -0.019458 -1189980.000000 0 0 1
21.654849 25.332690 15.625059 36.807881 0.863512 1.132383 0.068215 -0.018352 -666439.000000 0 0 1
21.421749 24.856250 14.325559 35.804275 0.859477 1.159162 0.081121 -0.014726 762434.000000 0 0 1
19.889849 24.808460 13.976159 34.733252 0.894997 1.156675 0.068431 -0.017317 501910.000000 0 0 1
19.363149 26.120810 13.894359 35.359319 0.932892 1.166961 0.045666 -0.015186 840691.000000 0 0 1
18.241249 26.374310 14.796159 35.316762 0.965710 1.138501 0.053667 -0.003703 2584340.000000 0 0 1
16.773249 25.938400 14.297059 34.037455 0.996775 1.137308 0.052568 -0.013026 1073930.000000 0 0 1
16.451849 24.554600 14.242659 32.809222 0.980482 1.121751 0.058048 -0.018380 91518.500000 0 0 1
16.255549 23.826500 15.430159 32.711386 0.972085 1.079572 0.070332 -0.022623 -478752.000000 0 0 1
15.214949 24.230300 16.473359 33.014749 1.010092 1.048387 0.114892 -0.033385 -543775.000000 0 0 1
15.570749 25.347530 17.183159 34.354133 1.019935 1.046993 0.096869 -0.032114 166083.000000 0 0 1
14.512549 25.837370 17.995459 34.670165 1.059024 1.025060 0.098329 -0.036873 -6967.000000 0 0 1
14.870349 27.160940 18.743559 36.196201 1.069882 1.026481 0.104334 -0.041411 -548783.000000 0 0 1
14.887249 28.243060 17.869159 36.586985 1.085695 1.060539 0.084968 -0.031259 371534.000000 0 0 1
15.553249 29.334480 18.501759 38.009609 1.083279 1.062413 0.067252 -0.019491 -163360.000000 0 0 1
15.730349 30.643910 17.620559 38.690790 1.096544 1.097952 0.037776 -0.019477 147219.000000 0 0 1
14.456749 31.233920 17.422959 38.576092 1.137304 1.102181 0.060981 -0.025786 316742.000000 0 0 1
14.508149 32.456788 16.709059 39.282593 1.150441 1.131442 0.052100 -0.016995 -547433.000000 0 0 1
13.155149 33.165624 16.729759 39.406870 1.193181 1.132343 0.073012 -0.028703 -401394.000000 0 0 1
12.999149 -33.021144 16.068159 38.955867 -1.195766 1.145632 0.085899 -0.032877 -137459.000000 0 0 1
13.572849 -31.909844 16.795959 38.530048 -1.168629 1.119738 0.068649 -0.026933 -116933.000000 0 0 1
13.367849 -31.737694 18.299259 38.997993 -1.172151 1.082371 0.076836 -0.031966 98845.100000 0 0 1
14.147649 -32.588934 19.170959 40.369794 -1.161223 1.075964 0.079561 -0.030828 489964.000000 0 0 1
13.924349 -32.309774 20.549459 40.744193 -1.163885 1.042164 0.083902 -0.035466 748557.000000 0 0 1
15.118949 -32.812754 21.513059 42.048438 -1.139027 1.033721 0.099375 -0.028958 2076440.000000 0 0 1
16.417849 -32.314734 21.131959 41.956495 -1.100721 1.042962 0.103141 -0.027014 818873.000000 0 0 1
17.435049 -32.655624 22.053759 43.089895 -1.080393 1.033508 0.108178 -0.027249 -1438.750000 0 0 1
18.782749 -32.010854 21.723159 43.004443 -1.040168 1.041255 0.123323 -0.026441 -97544.000000 0 0 1
18.904549 -30.751524 22.317159 42.439295 -1.019601 1.017070 0.131034 -0.028408 -173568.000000 0 0 1
20.118649 -30.152154 21.968359 42.385389 -0.982399 1.025934 0.123287 -0.028240 -408580.000000 0 0 1
-4.931551 12.943006 18.439265 23.061832 -1.206758 0.644238 0.013241 -0.004292 -100071.000000 0 1 0
-4.756651 14.322106 18.267765 23.695141 -1.250139 0.690465 0.021230 -0.001194 -355021.000000 0 1 0
-5.916851 14.857606 17.720665 23.870055 -1.191811 0.734180 0.016652 -0.011546 -383784.000000 0 1 0
-5.712851 16.312406 17.438165 24.552410 -1.233930 0.780954 0.045296 -0.019838 73337.600000 0 1 0
-5.434051 16.957106 18.688365 25.813317 -1.260677 0.761240 0.052076 -0.016387 354157.000000 0 0 1
-4.831251 18.241206 18.501065 26.426729 -1.311887 0.795274 0.069072 -0.015315 -256939.000000 0 0 1
-4.203351 18.872106 19.753265 27.640840 -1.351645 0.774686 0.069345 -0.017865 -783539.000000 0 0 1
-5.076251 19.062306 20.821965 28.682644 -1.310538 0.758392 0.046667 -0.011765 -213213.000000 0 0 1
-4.711351 19.945106 21.869065 29.970987 -1.338832 0.752951 0.060594 -0.015274 -605599.000000 0 0 1
-5.924951 20.010706 22.785105 30.898130 -1.282931 0.741544 0.038257 -0.005663 -163265.000000 0 0 1
-6.116251 18.861006 23.621405 30.840182 -1.257216 0.698311 0.025026 -0.009157 -17282.800000 0 0 1
-6.794551 19.146506 24.864625 32.109254 -1.229788 0.685069 0.012079 -0.007014 177494.000000 0 0 1
-5.987151 19.948006 25.889855 33.227301 -1.279213 0.677449 0.014700 0.001700 -460014.000000 0 0 1
-5.689751 21.294406 25.503475 33.708341 -1.309701 0.712710 0.024199 -0.004841 670776.000000 0 0 1
-4.636451 21.912106 26.274605 34.525236 -1.362279 0.705903 0.034911 -0.000036 1477620.000000 0 0 1
-3.150251 21.521306 25.958215 33.866202 -1.425450 0.697433 0.058479 0.004283 161424.000000 0 0 1
-2.712951 20.250206 26.297525 33.301513 -1.437618 0.660510 0.066787 0.005599 265947.000000 0 0 1
-1.402551 19.982206 25.807235 32.669085 -1.500721 0.660054 0.076352 0.003714 496955.000000 0 0 1
-0.735851 18.677606 26.332195 32.292088 -1.531419 0.617311 0.087669 0.008865 -50283.300000 0 0 1
-1.379151 17.435606 25.931325 31.278364 -1.491861 0.593390 0.080353 -0.000506 216928.000000 0 0 1
-0.668551 16.265706 26.357625 30.979744 -1.529718 0.553287 0.085976 -0.001700 801689.000000 0 0 1
0.852649 16.094906 26.007855 30.597084 1.517869 0.554790 0.106862 -0.001344 534588.000000 0 0 1
1.142649 15.912806 24.604575 29.324191 1.499112 0.575255 0.101042 -0.013604 -187135.000000 0 0 1
0.676749 14.691106 24.043215 28.184442 1.524764 0.548961 0.097265 -0.007141 -243493.000000 0 0 1
1.003449 14.526506 22.555925 26.847645 1.501829 0.573245 0.112250 -0.029102 -762777.000000 0 0 1
2.351049 14.278606 22.367205 26.640155 1.407605 0.574241 0.107619 -0.025645 -1224760.000000 0 0 1
2.586749 13.879206 21.055965 25.351081 1.386535 0.590658 0.093169 -0.028193 1447430.000000 0 0 1
4.108849 13.854006 20.593665 25.157805 1.282478 0.611863 0.087852 -0.028958 1529800.000000 0 0 1
4.676649 15.046006 20.110365 25.547605 1.269440 0.664586 0.091056 -0.031896 827120.000000 0 0 1
6.087549 14.967106 19.833465 25.582003 1.184503 0.683623 0.102011 -0.036242 1008270.000000 0 0 1
6.685349 16.066606 18.970365 25.743047 1.176486 0.742305 0.107346 -0.034085 15345.000000 0 0 1
6.390349 15.764306 17.598165 24.475402 1.185671 0.768413 0.090063 -0.037625 205039.000000 0 1 0
7.013649 16.663006 16.704865 24.615027 1.172394 0.824880 0.081666 -0.031380 -10847.000000 0 1 0
6.814149 16.095506 15.274065 23.211958 1.170318 0.852603 0.079756 -0.031123 888796.000000 0 1 0
7.940749 15.314506 14.790865 22.723540 1.092449 0.862020 0.062006 -0.023737 829294.000000 0 1 0
8.061749 14.067206 15.440065 22.389142 1.050400 0.809828 0.068494 -0.023001 -653696.000000 0 1 0
9.126249 13.166106 14.874765 21.860773 0.964674 0.822445 0.059321 -0.024369 372133.000000 0 1 0
10.466149 13.607206 15.117865 22.874575 0.915144 0.848776 0.063413 -0.028786 239266.000000 0 1 0
11.439149 12.783206 14.574465 22.509543 0.840830 0.866524 0.068626 -0.016454 134474.000000 0 1 0
12.827449 13.402206 14.243965 23.389167 0.807307 0.915999 0.073280 -0.017207 126772.000000 0 1 0
13.543149 13.676706 15.428465 24.667929 0.790305 0.895093 0.071475 -0.019331 -650348.000000 0 1 0
14.846149 14.083806 15.214065 25.499598 0.759053 0.931489 0.079056 -0.021415 -941473.000000 0 0 1
15.954649 13.012806 15.218665 25.602573 0.684188 0.934253 0.083742 -0.020581 -822869.000000 0 0 1
17.151949 13.632006 14.831665 26.457499 0.671549 0.975705 0.098993 -0.041388 -234814.000000 0 0 1
17.975949 12.720906 14.133365 26.166930 0.615850 1.000213 0.126238 -0.048943 -758947.000000 0 0 1
19.297349 13.350706 13.714065 27.179121 0.605229 1.041900 0.129167 -0.057801 -380719.000000 0 0 1
20.268349 13.246406 14.758665 28.356506 0.578868 1.023397 0.109932 -0.045166 373397.000000 0 0 1
21.548149 13.547506 14.230865 29.161193 0.561262 1.060991 0.156659 -0.060511 55050.000000 0 0 1
22.734849 13.449106 15.191465 30.471830 0.534193 1.048881 0.175163 -0.046162 -111461.000000 0 0 1
23.235849 12.155706 15.588865 30.507025 0.481991 1.034457 0.167521 -0.042333 519114.000000 0 0 1
24.108749 12.332606 16.708165 31.819613 0.472837 1.017975 0.143859 -0.040392 -159487.000000 0 0 1
24.624049 10.929406 17.145365 31.933670 0.417729 1.004031 0.162920 -0.028362 -69850.700000 0 0 1
23.634849 10.048506 17.692165 31.186396 0.402003 0.967568 0.131921 -0.017727 708779.000000 0 0 1
23.819249 8.766006 17.126865 30.619095 0.352639 0.977192 0.104647 -0.015172 288143.000000 0 0 1
22.615449 7.875006 17.564665 29.698345 0.335082 0.937958 0.155283 -0.022056 287544.000000 0 0 1
22.695249 6.558706 17.082065 29.152837 0.281326 0.944746 0.175491 -0.033765 647435.000000 0 0 1
21.691149 5.731206 17.702765 28.578673 0.258316 0.902768 0.183697 -0.032389 216058.000000 0 0 1
21.409249 4.355706 17.131565 27.763621 0.200710 0.905807 0.244934 -0.030096 -706281.000000 0 0 1
20.695649 4.428406 15.930065 26.489388 0.210799 0.925575 0.257321 -0.045860 359194.000000 0 0 1
20.433749 3.177206 15.351165 25.754437 0.154253 0.932212 0.215031 -0.041848 -66101.000000 0 0 1
19.403449 2.178006 15.927865 25.197905 0.111781 0.886522 0.220542 -0.041206 -96338.700000 0 0 1
19.852949 1.573306 17.117865 26.260925 0.079083 0.860791 0.223148 -0.049534 -130291.000000 0 0 1
18.828549 0.710406 17.478565 25.700568 0.037712 0.822918 0.216846 -0.051758 -446910.000000 0 0 1
18.974249 -0.341594 18.556965 26.542415 -0.018001 0.796597 0.193892 -0.046905 -462297.000000 0 0 1
19.813449 -1.423094 18.166265 26.918602 -0.071702 0.830023 0.197158 -0.048597 276242.000000 0 0 1
19.452049 -2.523094 18.993665 27.303984 -0.128988 0.801490 0.131123 -0.019468 36528.500000 0 0 1
19.333349 -3.846394 18.174065 26.811747 -0.196387 0.825976 0.114475 -0.025761 6014.540000 0 0 1
18.426649 -3.775094 17.084865 25.410339 -0.202075 0.833406 0.145034 -0.044364 260658.000000 0 0 1
18.344849 -4.997794 16.344565 25.073018 -0.265981 0.860737 0.159983 -0.048568 -431105.000000 0 0 1
17.555349 -4.761994 15.061365 23.615918 -0.264882 0.879206 0.129918 -0.045950 519482.000000 0 1 0
16.187049 -4.343294 15.238765 22.651815 -0.262144 0.832891 0.132600 -0.044549 1250910.000000 0 1 0
15.461049 -4.433994 13.971765 21.305271 -0.279289 0.855569 0.121164 -0.043660 537204.000000 0 1 0
15.651549 -3.162794 13.061665 20.629623 -0.199390 0.885179 0.111594 -0.037509 -297011.000000 0 1 0
15.185549 -2.032294 13.707665 20.557996 -0.133040 0.840916 0.116816 -0.026029 356219.000000 0 1 0
15.644949 -0.957694 12.948265 20.330745 -0.061138 0.880350 0.133094 -0.030734 -47799.100000 0 1 0
14.805349 0.218106 13.397465 19.968425 0.014731 0.835331 0.143337 -0.020740 -305370.000000 0 1 0
15.036049 1.440506 12.761965 19.774367 0.095512 0.869277 0.148891 -0.022340 406756.000000 0 1 0
15.986949 2.192606 13.518365 21.050802 0.136299 0.873460 0.182343 -0.033990 146580.000000 0 1 0
16.202149 3.613806 12.899665 21.023097 0.219453 0.910191 0.165025 -0.036901 42947.900000 0 1 0
15.173149 4.524906 13.218965 20.626203 0.289821 0.875149 0.140103 -0.025361 425716.000000 0 1 0
15.433049 5.734806 12.543665 20.698081 0.355780 0.919736 0.172108 -0.032551 932028.000000 0 1 0
14.175649 6.711806 12.497065 20.054277 0.442203 0.898017 0.122843 -0.030569 935521.000000 0 1 0
14.562449 7.989106 11.996965 20.489459 0.501775 0.945276 0.112672 -0.031854 -148863.000000 0 1 0
13.544049 8.897806 12.208465 20.289378 0.581248 0.925147 0.078904 -0.020666 -593458.000000 0 1 0
13.756149 9.924106 13.352065 21.586967 0.624965 0.903933 0.073704 -0.023661 -64647.400000 0 1 0
13.429149 9.266206 14.574465 21.877378 0.603988 0.841710 0.098525 -0.025822 170860.000000 0 1 0
14.201149 9.670106 15.635065 23.230128 0.597818 0.832470 0.143337 -0.039089 -450490.000000 0 1 0
13.739749 8.961106 16.928065 23.572050 0.577922 0.769668 0.140675 -0.045329 660391.000000 0 1 0
12.432949 9.286606 17.425065 23.333499 0.641537 0.727584 0.110862 -0.044947 539520.000000 0 1 0
12.023349 8.514406 18.509465 23.657057 0.616179 0.672274 0.149268 -0.038572 -161533.000000 0 1 0
12.617449 8.920006 19.864665 25.166872 0.615380 0.661099 0.174171 -0.034866 -814771.000000 0 0 1
13.981149 8.638906 19.923065 25.826958 0.553475 0.689749 0.202628 -0.047570 -764355.000000 0 0 1
14.453549 8.880506 21.216665 27.164597 0.550953 0.674465 0.187948 -0.031215 -830425.000000 0 0 1
15.968749 8.766906 21.271165 28.005750 0.502078 0.708208 0.181661 -0.033977 -54799.200000 0 0 1
16.649949 9.668506 20.289665 27.970901 0.526102 0.759203 0.168624 -0.029457 299922.000000 0 0 1
17.525049 8.855706 19.535165 27.697898 0.467892 0.787958 0.136946 -0.027716 140519.000000 0 0 1
18.504649 9.724106 18.681165 28.035089 0.483835 0.841494 0.153525 -0.033817 626214.000000 0 0 1
19.451249 10.533906 19.392865 29.417639 0.496336 0.851008 0.136642 -0.032246 823239.000000 0 0 1
20.310549 11.302706 18.531565 29.726898 0.507816 0.897721 0.137392 -0.034475 987183.000000 0 0 1
21.409649 12.134906 19.306965 31.279193 0.515647 0.905559 0.126420 -0.024670 -16273.000000 0 0 1
20.897449 13.300806 19.915565 31.784345 0.566812 0.893634 0.097293 -0.021724 298286.000000 0 0 1
21.603849 13.934206 21.000965 33.195315 0.572843 0.885828 0.089154 -0.008412 272415.000000 0 0 1
22.865449 14.819006 20.720365 34.231057 0.575036 0.920642 0.068981 -0.001860 591279.000000 0 0 1
24.031049 14.051106 20.500865 34.571815 0.529098 0.936025 0.049579 0.004183 -352260.000000 0 0 1
25.162649 14.825306 20.301065 35.567989 0.532425 0.963356 0.053242 -0.002147 -618065.000000 0 0 1
26.472049 14.051706 20.137065 36.107080 0.487993 0.979179 0.063187 -0.016111 -326620.000000 0 0 1
26.702849 13.270506 18.992165 35.353229 0.461220 1.003669 0.085533 -0.030269 544348.000000 0 0 1
27.955949 12.608606 19.191165 36.177519 0.423699 1.011639 0.131881 -0.041779 384609.000000 0 0 1
28.433149 11.831306 17.969565 35.655702 0.394316 1.042602 0.178475 -0.047144 -366781.000000 0 0 1
28.964449 12.692106 17.023365 35.914118 0.412994 1.076966 0.184347 -0.055768 29007.500000 0 0 1
29.338149 12.002506 15.804565 35.419930 0.388334 1.108276 0.214028 -0.064292 -555129.000000 0 0 1
28.286249 11.742206 14.750365 33.993596 0.393473 1.121962 0.197748 -0.064611 -344481.000000 0 0 1
27.672949 12.836406 14.050865 33.585596 0.434321 1.139158 0.226594 -0.062475 758720.000000 0 0 1
26.596649 12.399906 13.208165 32.180663 0.436261 1.147862 0.224514 -0.059590 439679.000000 0 0 1
26.020149 13.562106 12.379765 31.847095 0.480476 1.171549 0.211926 -0.061452 188873.000000 0 0 1
25.170349 14.456106 13.107065 31.848401 0.521331 1.146647 0.199418 -0.061047 315090.000000 0 0 1
24.959849 15.650106 12.386465 31.958480 0.560044 1.172791 0.181899 -0.054194 -426518.000000 0 0 1
23.964249 16.648606 12.927565 31.915251 0.607178 1.153753 0.180892 -0.051829 1906750.000000 0 0 1
22.546649 16.461906 12.538165 30.603126 0.630660 1.148669 0.184954 -0.064961 2247410.000000 0 0 1
21.672849 17.434606 13.026565 30.714317 0.677445 1.132806 0.167026 -0.059737 -1207180.000000 0 0 1
20.759949 17.982806 11.982965 29.965785 0.713839 1.159401 0.185159 -0.053304 -37234.300000 0 0 1
19.660049 17.186706 11.518865 28.540930 0.718374 1.155358 0.161849 -0.054188 659108.000000 0 0 1
18.535949 17.301306 12.379165 28.216313 0.750960 1.116618 0.125380 -0.046825 -274865.000000 0 0 1
17.216049 16.776506 11.752765 26.757634 0.772468 1.116055 0.111683 -0.033482 -56298.400000 0 0 1
17.092949 15.380706 11.667665 25.785062 0.732720 1.101233 0.116073 -0.028929 -498843.000000 0 0 1
15.875949 14.947706 11.188165 24.508258 0.755293 1.096732 0.114996 -0.025461 -651942.000000 0 1 0
16.092549 13.718706 10.268765 23.507883 0.705937 1.118733 0.130648 -0.035536 17135.000000 0 1 0
16.295849 12.457106 10.893665 23.225119 0.652675 1.082585 0.120316 -0.030988 450829.000000 0 1 0
16.809449 11.530406 9.983365 22.697476 0.601233 1.115371 0.126166 -0.030453 -222474.000000 0 1 0
17.062249 10.206906 10.692065 22.574799 0.539107 1.077390 0.142294 -0.049650 -666661.000000 0 1 0
17.642149 9.238406 9.875665 22.228863 0.482392 1.110435 0.154923 -0.045907 437280.000000 0 1 0
18.220549 8.097806 10.526165 22.546907 0.418214 1.085064 0.162436 -0.041374 1387300.000000 0 1 0
19.505349 8.301606 11.473065 24.104077 0.402384 1.074718 0.172745 -0.046396 724413.000000 0 1 0
19.255549 8.985806 12.682065 24.745821 0.436622 1.032711 0.158120 -0.052101 42645.400000 0 1 0
20.391049 9.048606 13.514365 26.082757 0.417647 1.026128 0.174948 -0.055605 -829322.000000 0 0 1
19.941249 9.427406 14.976965 26.661562 0.441618 0.974304 0.134597 -0.036442 127354.000000 0 0 1
19.243049 8.474106 15.750265 26.271206 0.414819 0.927888 0.138475 -0.037991 655446.000000 0 0 1
17.974849 8.135606 15.205865 24.909870 0.425023 0.914186 0.161591 -0.043925 -307827.000000 0 1 0
17.372349 6.697706 15.558465 24.263628 0.367978 0.874702 0.194499 -0.052199 294469.000000 0 1 0
16.538549 6.681906 16.704065 24.437620 0.383967 0.818196 0.218568 -0.047388 136534.000000 0 1 0
15.977549 5.409406 16.910165 23.885088 0.326450 0.784162 0.212544 -0.031591 -816801.000000 0 1 0
14.764549 5.417706 17.853965 23.793014 0.351686 0.722149 0.194600 -0.037742 138219.000000 0 1 0
14.052949 4.196306 18.114865 23.307567 0.290178 0.680577 0.188052 -0.032500 608986.000000 0 1 0
13.359649 3.744706 16.942965 21.899021 0.273287 0.686158 0.160043 -0.029852 -634429.000000 0 1 0
13.074149 2.217006 16.910865 21.490134 0.167974 0.665006 0.154618 -0.031284 -396033.000000 0 1 0
14.282949 1.526506 16.932065 22.204227 0.106472 0.703534 0.191743 -0.035291 -400665.000000 0 1 0
14.201349 0.135806 16.858465 22.043244 0.009563 0.700080 0.181200 -0.028834 -302873.000000 0 1 0
13.442949 -0.729294 17.871665 22.375012 -0.054198 0.645609 0.164429 -0.035218 -722045.000000 0 1 0
12.059849 -0.700094 17.690665 21.421711 -0.057987 0.599126 0.149821 -0.017392 -855403.000000 0 1 0
11.461749 -1.532094 18.658765 21.951504 -0.132882 0.554812 0.146603 -0.028769 20590.400000 0 1 0
-27.050301 14.441806 28.276575 41.711500 -0.490388 0.825883 0.061045 -0.008156 -801919.000000 0 0 1
-26.085771 14.219206 29.246045 41.689140 -0.499069 0.793259 0.063609 -0.012551 -58535.800000 0 0 1
-25.670111 12.853906 29.314205 41.030478 -0.464235 0.774959 0.070172 -0.002162 -888239.000000 0 0 1
-24.459051 12.770306 30.211135 40.915016 -0.481178 0.740120 0.067671 -0.010326 -865576.000000 0 0 1
-24.646551 12.879306 31.629315 42.115823 -0.481532 0.721209 0.072344 -0.016683 535446.000000 0 0 1
-23.393051 13.024806 32.303026 41.956714 -0.508034 0.692091 0.076202 -0.014064 361214.000000 0 0 1
-23.598351 13.168406 -33.487311 43.031257 -0.508982 2.462605 0.081451 -0.011885 98972.800000 0 0 1
-24.225951 12.101806 -32.794851 42.530608 -0.463279 2.451345 0.069409 -0.011081 45013.300000 0 0 1
-24.783351 12.605606 -31.616991 42.104036 -0.470529 2.420259 0.054240 -0.009814 -506087.000000 0 0 1
-25.480081 11.538806 -30.818371 41.619113 -0.425226 2.404590 0.056289 -0.015603 -300968.000000 0 0 1
-24.690851 10.604006 -30.082001 40.336210 -0.405652 2.412504 0.074571 -0.019388 232351.000000 0 0 1
-24.265451 9.462806 -30.822821 40.353477 -0.371830 2.440009 0.068470 -0.027624 208132.000000 0 0 1
-23.456851 8.355506 -30.041121 39.019319 -0.342194 2.449487 0.077857 -0.016459 -228834.000000 0 0 1
-24.151651 7.502406 -29.180251 38.614445 -0.301187 2.427492 0.079164 -0.013451 -279233.000000 0 0 1
-23.364651 6.557906 -28.509891 37.439643 -0.273636 2.436404 0.074098 -0.009359 -327686.000000 0 0 1
-24.166851 5.812106 -27.404571 36.997672 -0.236017 2.404924 0.068563 -0.009242 237328.000000 0 0 1
-25.013911 4.804006 -27.980551 37.837619 -0.189743 2.403109 0.088276 -0.021062 422171.000000 0 0 1
-25.497131 3.911806 -26.997501 37.339938 -0.152234 2.378959 0.105851 -0.013630 -466657.000000 0 0 1
-26.319621 2.735206 -27.558901 38.205979 -0.103551 2.376509 0.122693 -0.014295 1024270.000000 0 0 1
-27.682371 2.910906 -27.993491 39.476861 -0.104769 2.359033 0.161252 -0.030277 1044350.000000 0 0 1
-27.965261 3.954706 -28.965391 40.456018 -0.140483 2.368812 0.157570 -0.025965 -326942.000000 0 0 1
-29.330381 3.627606 -29.624411 41.845388 -0.123056 2.357387 0.185530 -0.037706 10756.100000 0 0 1
-30.464211 4.048306 -28.927161 42.204710 -0.132113 2.325951 0.167771 -0.030254 470039.000000 0 0 1
-31.728421 3.861206 -29.573051 43.544999 -0.121100 2.317384 0.167295 -0.037678 729532.000000 0 0 1
-32.374251 5.115206 -30.051421 44.467351 -0.156707 2.312858 0.173003 -0.048086 -595684.000000 0 0 1
-31.586781 5.631406 -31.109811 44.690690 -0.176430 2.340767 0.180814 -0.049780 230287.000000 0 0 1
-31.861051 6.919406 -31.548851 45.368874 -0.213854 2.339752 0.175382 -0.051561 -1011880.000000 0 0 1
-31.230181 8.147206 -30.845091 44.644381 -0.255188 2.333538 0.129723 -0.044213 645352.000000 0 0 1
-29.796211 8.166906 -30.730211 43.575892 -0.267522 2.353517 0.089510 -0.042540 1064700.000000 0 0 1
-29.221701 7.529306 -29.582411 42.257748 -0.252176 2.346260 0.076747 -0.037075 -434236.000000 0 0 1
-29.296321 8.205406 -28.158271 41.454690 -0.273086 2.317542 0.054922 -0.021170 -402139.000000 0 0 1
-30.576711 8.412306 -27.614851 42.050947 -0.268479 2.287231 0.074516 -0.026609 90990.000000 0 0 1
-31.224201 7.288406 -27.008161 41.922695 -0.229316 2.270822 0.077427 -0.013190 -718392.000000 0 0 1
-32.573381 7.706806 -26.449841 42.661623 -0.232326 2.239528 0.070698 -0.011657 -717077.000000 0 0 1
-32.618071 8.481106 -25.271761 42.125166 -0.254380 2.214198 0.033024 -0.005337 -205617.000000 0 0 1
-32.366451 7.683706 -24.119041 41.089592 -0.233083 2.198128 0.041749 -0.011084 -73425.500000 0 0 1
-31.841181 8.359506 -22.831841 40.062889 -0.256743 2.177180 0.043310 -0.002044 79460.900000 0 0 1
-32.776461 9.235106 -22.187841 40.643374 -0.274640 2.148278 0.051665 -0.002692 605652.000000 0 0 1
-32.050371 10.159806 -21.392541 39.850831 -0.306975 2.137454 0.056465 -0.010420 -147746.000000 0 0 1
-32.982181 11.104506 -20.661941 40.472832 -0.324761 2.106579 0.050997 0.001758 -48947.500000 0 0 1
-33.667391 10.512706 -19.526541 40.314960 -0.302659 2.076416 0.064832 -0.019662 610239.000000 0 0 1
-34.460226 11.495906 -18.842741 40.923244 -0.321990 2.049288 0.055818 -0.012482 240333.000000 0 0 1
-33.673361 12.437306 -17.888241 40.106994 -0.353809 2.033102 0.067272 -0.013228 -408729.000000 0 0 1
-33.016191 11.785506 -16.827741 38.886243 -0.342863 2.018329 0.130869 -0.020730 166533.000000 0 0 1
-33.740991 11.353306 -15.647841 38.887105 -0.324584 1.984924 0.129378 -0.020720 -105759.000000 0 0 1
-34.231629 12.476506 -14.729141 39.299048 -0.349510 1.954973 0.103925 -0.020233 749604.000000 0 0 1
-35.216759 13.301906 -15.430341 40.684840 -0.361149 1.959798 0.068179 -0.012748 1014770.000000 0 0 1
-36.126991 13.975406 -14.549841 41.378368 -0.369111 1.930107 0.041089 -0.011350 368529.000000 0 0 1
-36.733751 15.205506 -15.285641 42.593740 -0.392464 1.937854 0.028943 -0.002820 385816.000000 0 0 1
-37.560601 14.944506 -16.435741 43.637949 -0.378675 1.956961 0.030167 -0.013504 486835.000000 0 0 1
-38.148361 16.128706 -16.953041 44.753080 -0.399996 1.959310 0.025212 -0.011805 77153.100000 0 0 1
37.605499 16.013206 -18.414841 44.829708 0.402566 1.994098 0.038906 -0.011531 450679.000000 0 0 1
36.480659 15.172306 -18.572741 43.657577 0.394138 2.010221 0.062669 -0.020366 1569750.000000 0 0 1
35.176239 15.853906 -18.540341 42.807223 0.423435 2.018739 0.108718 -0.031398 1820180.000000 0 0 1
34.065789 14.759406 -18.814841 41.621104 0.408848 2.039859 0.131914 -0.037110 183002.000000 0 0 1
33.793559 14.488606 -20.175741 41.940254 0.405033 2.072659 0.136010 -0.037349 102478.000000 0 0 1
32.942639 13.374406 -20.361041 40.971505 0.385660 2.090884 0.116999 -0.033037 -75802.700000 0 0 1
33.504969 11.949906 -20.066641 40.841808 0.342596 2.084408 0.117443 -0.009609 -272166.000000 0 0 1
33.684729 11.765106 -18.682141 40.275316 0.336025 2.053145 0.119534 -0.011362 51485.500000 0 0 1
34.153469 10.430006 -18.485841 40.211575 0.296391 2.048470 0.086541 -0.004230 -241023.000000 0 0 1
34.447509 10.097606 -17.008541 39.722575 0.285142 2.013278 0.059851 -0.000419 -196574.000000 0 0 1
33.282179 10.177306 -16.217641 38.396522 0.296759 2.006858 0.094426 -0.002504 -242707.000000 0 0 1
33.540349 9.909706 -14.836941 37.990685 0.287283 1.972016 0.072189 -0.010720 1026.300000 0 0 1
32.748969 10.807706 -13.870541 37.171137 0.318763 1.953202 0.095592 -0.020054 72877.500000 0 0 1
31.374879 10.506206 -13.659941 35.796053 0.323124 1.962328 0.105995 -0.009718 212862.000000 0 0 1
30.921279 11.520106 -12.784141 35.387464 0.356632 1.940417 0.103261 -0.016855 668515.000000 0 0 1
29.360279 11.619706 -12.670241 34.023206 0.376848 1.952390 0.140786 -0.011728 462521.000000 0 0 1
28.725279 10.466906 -12.203741 32.918522 0.349427 1.950587 0.133915 -0.025693 390541.000000 0 0 1
27.322479 10.456906 -12.467441 31.800972 0.365523 1.973651 0.150905 -0.012869 559293.000000 0 0 1
26.935079 9.719806 -13.776941 31.776992 0.346317 2.019226 0.125358 -0.029871 -424503.000000 0 0 1
27.246779 8.347106 -13.814041 31.668421 0.297274 2.022177 0.125880 -0.023590 1326610.000000 0 0 1
28.600879 7.985906 -14.200841 32.915784 0.272284 2.016873 0.131830 -0.033188 1001030.000000 0 0 1
29.247679 6.850906 -13.310641 32.856275 0.230089 1.987903 0.134929 -0.031786 28885.000000 0 0 1
28.614079 5.571106 -13.309141 32.045842 0.192292 1.999086 0.136901 -0.040326 268505.000000 0 0 1
27.559279 5.445906 -12.385541 30.701358 0.195094 1.986048 0.160002 -0.043931 -389469.000000 0 0 1
27.044679 4.039206 -12.298941 29.983225 0.148257 1.993463 0.165191 -0.045237 -493378.000000 0 0 1
26.239379 3.715506 -11.200341 28.770778 0.140665 1.970663 0.207095 -0.047969 430659.000000 0 0 1
25.952879 2.318406 -11.247141 28.380013 0.089095 1.978285 0.221087 -0.061775 -144237.000000 0 0 1
25.584879 1.647906 -9.884041 27.477189 0.064321 1.938762 0.268637 -0.069710 111389.000000 0 0 1
26.685779 1.629606 -8.961441 28.197409 0.060991 1.894216 0.298303 -0.050806 823028.000000 0 0 1
26.534779 0.925506 -7.764541 27.662957 0.034865 1.855303 0.344497 -0.037243 -188436.000000 0 0 1
27.891779 0.248206 -7.447641 28.870059 0.008899 1.831718 0.417134 -0.025589 -165806.000000 0 0 1
28.014279 -0.747594 -6.448641 28.756629 -0.026680 1.796969 0.377697 -0.042956 30550.800000 0 0 1
27.522679 -2.020494 -6.810041 28.424583 -0.073281 1.812732 0.279770 -0.040403 -251135.000000 0 0 1
27.971679 -3.219694 -5.912041 28.770358 -0.114601 1.777761 0.230186 -0.048579 -201516.000000 0 0 1
29.359579 -3.450494 -5.960741 30.156612 -0.116989 1.769766 0.222477 -0.047364 90614.300000 0 0 1
29.640879 -4.535794 -5.095641 30.415797 -0.151847 1.739123 0.247049 -0.076253 601925.000000 0 0 1
31.184179 -4.816194 -5.019541 31.950658 -0.153233 1.728553 0.233227 -0.064208 901763.000000 0 0 1
31.821979 -5.245194 -6.213241 32.844403 -0.163360 1.761115 0.163480 -0.047055 431527.000000 0 0 1
33.228319 -5.414394 -6.108941 34.216312 -0.161526 1.750298 0.173423 -0.041683 448635.000000 0 0 1
33.841169 -5.992394 -7.398541 35.154970 -0.175257 1.782837 0.181883 -0.058793 -235964.000000 0 0 1
33.222609 -7.231094 -7.724941 34.866964 -0.214313 1.794205 0.203854 -0.066892 39665.800000 0 0 1
33.209749 -7.456094 -9.127241 35.239003 -0.220853 1.832793 0.202107 -0.047222 -759427.000000 0 0 1
31.824719 -7.742794 -9.723041 34.165789 -0.238658 1.859369 0.173870 -0.054857 296189.000000 0 0 1
30.873579 -6.697794 -9.972141 33.128265 -0.213632 1.876554 0.141410 -0.059647 400202.000000 0 0 1
30.383979 -6.108394 -8.795141 32.215729 -0.198395 1.847314 0.174097 -0.053235 -1816290.000000 0 0 1
29.121979 -5.358494 -9.202841 31.007989 -0.181966 1.872125 0.169513 -0.052517 115246.000000 0 0 1
27.956879 -6.196194 -9.302641 30.108455 -0.218108 1.884907 0.158589 -0.047627 812657.000000 0 0 1
26.800079 -5.477994 -9.672741 29.014041 -0.201625 1.910684 0.195110 -0.056380 -75208.900000 0 0 1
25.435779 -6.144494 -9.563041 27.860104 -0.237028 1.921174 0.245881 -0.055920 -1146350.000000 0 0 1
25.172379 -6.496394 -8.202741 27.260535 -0.252565 1.876434 0.239509 -0.068485 2284020.000000 0 0 1
23.783879 -6.917994 -7.904041 26.000104 -0.283059 1.879685 0.214629 -0.066107 1717590.000000 0 0 1
22.868479 -5.729494 -7.673241 24.792601 -0.245488 1.885461 0.225923 -0.054599 -890058.000000 0 1 0
22.823979 -4.931894 -8.841841 24.968695 -0.212812 1.932766 0.264475 -0.052552 107131.000000 0 1 0
22.188179 -3.670694 -8.600141 24.078034 -0.163950 1.936041 0.245732 -0.059216 33283.200000 0 1 0
22.375179 -2.682194 -9.758841 24.557642 -0.119304 1.979462 0.265672 -0.048786 -190387.000000 0 1 0
23.749279 -2.400494 -9.865141 25.828504 -0.100734 1.962699 0.269965 -0.062704 389059.000000 0 0 1
24.014379 -1.493294 -10.949041 26.434860 -0.062103 1.997848 0.281041 -0.060373 -722819.000000 0 0 1
25.357679 -1.845794 -11.589941 27.941825 -0.072662 1.998506 0.226353 -0.049329 -606832.000000 0 0 1
26.447379 -1.386794 -10.841241 28.616771 -0.052388 1.959341 0.219223 -0.053519 -620726.000000 0 0 1
27.664879 -1.675894 -11.437841 29.982968 -0.060504 1.962191 0.187167 -0.044929 -329842.000000 0 0 1
28.807379 -0.775594 -10.865741 30.798230 -0.026917 1.931363 0.153716 -0.032485 610327.000000 0 0 1
30.083079 -0.993094 -11.473041 32.211932 -0.033000 1.934966 0.121033 -0.025509 1496060.000000 0 0 1
31.132679 -0.022594 -11.207441 33.088532 -0.000726 1.916343 0.111844 -0.024810 912282.000000 0 0 1
31.088179 1.236706 -12.183541 33.413216 0.039760 1.944034 0.113742 -0.022094 -210686.000000 0 0 1
31.271579 1.002906 -13.541641 34.092426 0.032060 1.979264 0.109850 -0.023429 271524.000000 0 0 1
31.436619 2.234806 -14.263441 34.593368 0.070970 1.995792 0.135649 -0.030589 -20387.900000 0 0 1
31.628059 2.028506 -15.798441 35.412423 0.064049 2.033230 0.131613 -0.026095 -166699.000000 0 0 1
30.474679 1.649406 -16.505741 34.696774 0.054071 2.066572 0.131939 -0.012701 -155901.000000 0 0 1
30.715679 1.543406 -17.915441 35.592107 0.050206 2.098273 0.104181 -0.009321 396794.000000 0 0 1
29.411679 1.043106 -18.607141 34.818969 0.035451 2.134590 0.075058 -0.003228 450962.000000 0 0 1
29.083779 -0.330194 -18.349541 34.390128 -0.011353 2.133612 0.091492 -0.009325 282116.000000 0 0 1
28.995279 -0.986794 -19.595041 35.009507 -0.034020 2.164828 0.063223 -0.007927 -180787.000000 0 0 1
28.767579 -2.524094 -19.548441 34.872428 -0.087517 2.165870 0.072564 -0.016694 312356.000000 0 0 1
27.472079 -3.040894 -19.224841 33.668333 -0.110242 2.178528 0.077980 -0.010504 508098.000000 0 0 1
27.268879 -4.434994 -19.183441 33.634288 -0.161228 2.177733 0.082096 -0.011903 -578015.000000 0 0 1
27.972879 -5.368794 -18.193141 33.797874 -0.189623 2.139206 0.074258 -0.009978 355718.000000 0 0 1
29.397279 -5.408894 -18.404141 35.102259 -0.181958 2.122690 0.085083 -0.008763 769186.000000 0 0 1
30.024479 -5.942794 -17.267141 35.141717 -0.195406 2.084444 0.088485 -0.015490 -293161.000000 0 0 1
31.533509 -5.644994 -17.249941 36.383906 -0.177139 2.064748 0.132213 -0.010715 -156375.000000 0 0 1
32.326019 -6.310794 -18.206641 37.633488 -0.192798 2.075774 0.105010 -0.019413 151501.000000 0 0 1
33.616799 -5.721094 -18.268041 38.685158 -0.168571 2.062608 0.137165 -0.016737 347450.000000 0 0 1
34.578729 -6.644894 -19.119541 40.067443 -0.189853 2.068244 0.137705 -0.014818 108299.000000 0 0 1
34.919289 -7.778194 -18.310141 40.188535 -0.219170 2.043849 0.153713 -0.026809 145432.000000 0 0 1
35.726239 -8.725194 -18.990941 41.390204 -0.239535 2.047471 0.134366 -0.025609 110101.000000 0 0 1
36.813419 -9.372094 -18.110341 42.083826 -0.249288 2.015665 0.133999 -0.023110 -551082.000000 0 0 1
36.252479 -10.180594 -17.045441 41.333204 -0.273773 1.995873 0.134138 -0.028109 967446.000000 0 0 1
37.184209 -11.016894 -16.297941 42.067330 -0.288039 1.968633 0.155947 -0.038224 409887.000000 0 0 1
-37.887831 -10.328194 -15.685241 42.286949 0.266133 1.950800 0.160578 -0.042974 -214290.000000 0 0 1
-37.207541 -10.932294 -14.637441 41.450824 0.285777 1.931709 0.154946 -0.048339 400745.000000 0 0 1
-36.612201 -12.245594 -14.853841 41.364772 0.322771 1.938093 0.128398 -0.037475 -378156.000000 0 0 1
-35.186658 -12.303994 -15.417241 40.338325 0.336388 1.962970 0.117985 -0.040908 -280703.000000 0 0 1
-35.146171 -11.904594 -16.753241 40.714171 0.326588 1.994878 0.136979 -0.032424 -243527.000000 0 0 1
-33.808001 -12.013994 -17.161341 39.772209 0.341441 2.016941 0.157895 -0.032697 -354955.000000 0 0 1
-33.615441 -11.267694 -18.521241 39.999939 0.323424 2.052209 0.182232 -0.032530 92079.100000 0 0 1
-33.767831 -9.852394 -18.474141 39.731976 0.283888 2.054396 0.192375 -0.034112 -55835.200000 0 0 1
-35.056279 -9.419594 -18.841441 40.898305 0.262499 2.049569 0.182543 -0.031411 -139922.000000 0 0 1
-35.339453 -7.973294 -18.379941 40.623547 0.221905 2.040302 0.189879 -0.038691 192881.000000 0 0 1
-36.703791 -7.641494 -18.591141 41.847236 0.205261 2.031147 0.173756 -0.028412 448420.000000 0 0 1
-36.861081 -6.351994 -18.020141 41.518822 0.170647 2.019750 0.163361 -0.033905 -9866.570000 0 0 1
25.950849 27.438006 -26.194721 45.961442 0.813246 2.177215 0.052162 -0.008739 129471.000000 0 0 1
26.550649 26.522706 -25.293031 45.256252 0.784872 2.163837 0.071221 -0.018072 -360259.000000 0 0 1
27.586149 25.848706 -25.917231 45.835075 0.752894 2.171769 0.083037 -0.022723 -709231.000000 0 0 1
28.245849 24.801406 -24.982341 45.133747 0.720558 2.157379 0.096843 -0.023927 -171174.000000 0 0 1
29.012949 25.417506 -23.940341 45.397585 0.719438 2.126273 0.094524 -0.021281 331624.000000 0 0 1
29.426149 24.497106 -22.955641 44.642669 0.694243 2.110881 0.093054 -0.020747 -130392.000000 0 0 1
30.145249 25.214106 -21.793741 44.938339 0.696557 2.077125 0.092048 -0.018527 -51241.200000 0 0 1
29.341949 25.965806 -20.890141 44.402377 0.724431 2.060624 0.097427 -0.026579 -57327.800000 0 0 1
30.045949 26.362806 -19.756841 44.587996 0.720197 2.029848 0.088002 -0.025832 -207252.000000 0 0 1
29.257649 27.379506 -18.937041 44.319961 0.752249 2.012279 0.108847 -0.021958 -64076.700000 0 0 1
28.106049 26.903206 -18.278141 42.986311 0.763535 2.009988 0.113026 -0.019979 78696.200000 0 0 1
27.213049 27.972206 -18.060541 43.002064 0.799154 2.004233 0.107715 -0.024850 58712.900000 0 0 1
26.068949 27.691906 -17.062341 41.683993 0.815577 1.992512 0.098108 -0.013931 -337233.000000 0 0 1
25.079649 26.807306 -17.467941 40.654021 0.818682 2.014927 0.104945 -0.016216 -694361.000000 0 0 1
23.966449 26.912606 -16.624941 39.687123 0.843239 2.003030 0.083873 -0.009226 -363403.000000 0 0 1
22.884549 25.947606 -17.147241 38.613582 0.848042 2.030935 0.092973 -0.017009 -525644.000000 0 0 1
22.286849 26.279306 -18.396941 39.060889 0.867420 2.061199 0.084517 -0.020554 -229503.000000 0 0 1
21.406949 25.238306 -18.694141 38.009216 0.867352 2.084989 0.090428 -0.013771 -220647.000000 0 0 1
20.588549 25.410406 -19.989741 38.329712 0.889842 2.119429 0.093021 -0.013479 375053.000000 0 0 1
19.531349 26.339006 -19.827241 38.318877 0.932734 2.114638 0.076671 -0.011403 -816381.000000 0 0 1
18.436549 26.053606 -20.636541 38.007415 0.954962 2.144755 0.085729 -0.017556 -366394.000000 0 0 1
17.370949 27.157106 -20.447541 38.175388 1.001734 2.136039 0.084030 -0.013571 -80067.200000 0 0 1
16.794449 27.158006 -19.133141 37.224829 1.016959 2.110625 0.093466 -0.005612 184041.000000 0 0 1
15.707449 28.090006 -19.127441 37.438368 1.060930 2.107033 0.080559 -0.014190 138496.000000 0 0 1
14.989749 28.118006 -17.784541 36.491160 1.081020 2.079867 0.075140 -0.005899 84321.000000 0 0 1
14.155449 26.964606 -17.647441 35.197996 1.087377 2.095985 0.086587 -0.001771 189141.000000 0 0 1
13.573049 26.863206 -16.341341 34.247612 1.102945 2.068208 0.107646 -0.004390 817739.000000 0 0 1
12.658949 25.590306 -16.025541 32.740353 1.111416 2.082282 0.112452 -0.004278 624956.000000 0 0 1
13.393349 24.389506 -15.993941 32.094173 1.068611 2.092484 0.117458 -0.010409 -172171.000000 0 0 1
12.590849 23.235606 -15.864641 30.823850 1.074211 2.111439 0.131935 -0.012503 323107.000000 0 0 1
13.440449 21.948806 -16.083441 30.349182 1.021342 2.129334 0.119635 -0.022796 355181.000000 0 0 1
13.862649 21.873306 -17.416441 31.208124 1.005915 2.162859 0.117925 -0.015220 435620.000000 0 0 1
14.853349 20.825206 -17.658641 31.082773 0.951240 2.175012 0.125487 -0.016823 547277.000000 0 0 1
14.291949 19.385106 -17.626941 29.845455 0.935496 2.202607 0.131821 -0.025845 -65239.500000 0 0 1
13.758649 19.013906 -16.328841 28.591259 0.944400 2.178657 0.128729 -0.033659 88262.200000 0 0 1
13.226949 17.705006 -16.214141 27.410177 0.929171 2.203760 0.112512 -0.037438 -208792.000000 0 0 1
14.237749 16.552706 -16.165541 27.166713 0.860441 2.208124 0.149483 -0.037327 -371692.000000 0 0 1
14.850649 16.294606 -14.919541 26.620456 0.831727 2.165730 0.167430 -0.053453 282378.000000 0 0 1
15.969649 15.448806 -15.126741 26.879613 0.768822 2.168516 0.166849 -0.053041 -349104.000000 0 0 1
16.698949 14.928506 -13.893241 26.357871 0.729478 2.125981 0.251792 -0.067840 -60685.600000 0 0 1
17.689049 15.668806 -13.194141 27.064724 0.724909 2.080024 0.211410 -0.064225 1210890.000000 0 0 1
18.967649 15.868406 -13.792441 28.316240 0.696665 2.079546 0.161549 -0.053426 1311420.000000 0 0 1
19.932849 14.682806 -14.418641 28.649616 0.634879 2.098181 0.153497 -0.052608 720785.000000 0 0 1
20.444449 13.822206 -13.402141 28.082847 0.594495 2.068303 0.212624 -0.067916 589514.000000 0 0 1
21.666649 14.228306 -12.787041 28.903232 0.581065 2.029079 0.199675 -0.052625 -172380.000000 0 0 1
22.380549 13.000506 -12.296041 28.654751 0.526245 2.014304 0.225985 -0.062835 -769501.000000 0 0 1
21.671149 12.394606 -11.243041 27.380119 0.519532 1.993939 0.321239 -0.071245 317853.000000 0 0 1
22.285049 11.253006 -10.629341 27.133678 0.467606 1.973318 0.327556 -0.040144 -211299.000000 0 0 1
22.317549 9.947406 -11.429441 26.975100 0.419290 2.008326 0.279787 -0.039314 -325138.000000 0 0 1
23.231749 9.992406 -12.512641 28.215750 0.406198 2.030255 0.230951 -0.028991 294168.000000 0 0 1
23.096649 9.025806 -13.509641 28.238817 0.372537 2.069636 0.201000 -0.032664 -170379.000000 0 0 1
23.510549 7.603206 -13.010841 27.925556 0.312780 2.055461 0.213600 -0.014376 270694.000000 0 0 1
22.590149 7.044406 -12.016941 26.539506 0.302279 2.040693 0.239412 -0.036003 888268.000000 0 0 1
23.061649 5.971206 -11.195941 26.321931 0.253360 2.010141 0.239493 -0.015826 -512128.000000 0 0 1
22.849549 4.555806 -11.782341 26.109018 0.196802 2.038990 0.254227 -0.027027 -382994.000000 0 0 1
21.595349 3.944106 -11.950041 24.994371 0.180646 2.069297 0.241328 -0.050382 287325.000000 0 1 0
20.922149 4.343606 -13.162141 25.096717 0.204700 2.122873 0.180035 -0.058410 259954.000000 0 0 1
19.781949 3.393506 -13.638841 24.266425 0.169892 2.167653 0.168191 -0.065722 103930.000000 0 1 0
20.265749 2.117506 -13.924941 24.679716 0.104109 2.170292 0.172830 -0.085377 258832.000000 0 1 0
20.386649 1.245406 -12.837541 24.124033 0.061013 2.131931 0.218960 -0.094307 -531756.000000 0 1 0
21.392349 0.090906 -13.037941 25.052520 0.004249 2.118144 0.234356 -0.086579 -1152440.000000 0 0 1
22.750649 0.356406 -13.017141 26.213833 0.015664 2.090445 0.290497 -0.067737 -555013.000000 0 0 1
23.241549 0.754206 -14.288841 27.293029 0.032439 2.121790 0.185146 -0.052785 -228454.000000 0 0 1
23.592449 -0.446094 -15.245441 28.093169 -0.018906 2.144414 0.152875 -0.037647 -628785.000000 0 0 1
22.403749 -0.939194 -15.773241 27.415419 -0.041897 2.183818 0.153172 -0.043459 -66395.700000 0 0 1
22.723949 -2.086694 -16.543541 28.185473 -0.091571 2.198086 0.112924 -0.028963 33461.700000 0 0 1
21.518949 -2.465894 -17.426841 27.800011 -0.114094 2.248319 0.108122 -0.037687 -207308.000000 0 0 1
20.804349 -3.506894 -16.800941 26.970185 -0.166996 2.243298 0.146940 -0.034424 119491.000000 0 0 1
20.312349 -4.456894 -17.711341 27.315692 -0.215995 2.276270 0.112125 -0.021068 -273909.000000 0 0 1
19.517849 -5.585194 -17.085241 26.533871 -0.278710 2.270385 0.118223 -0.027937 7797.220000 0 0 1
20.414449 -6.458594 -16.404841 26.973728 -0.306410 2.224560 0.126046 -0.029483 836682.000000 0 0 1
19.728749 -7.488994 -15.724641 26.316780 -0.362796 2.211193 0.140256 -0.027716 -121700.000000 0 0 1
20.755349 -8.428294 -15.093041 27.011489 -0.385735 2.163691 0.182508 -0.028592 -33512.000000 0 0 1
21.432149 -9.168994 -16.096141 28.328311 -0.404253 2.175113 0.159346 -0.027256 546036.000000 0 0 1
22.299949 -10.139794 -15.510041 28.994215 -0.426756 2.135228 0.142168 -0.022835 61214.000000 0 0 1
22.946349 -11.096794 -16.581441 30.407531 -0.450440 2.147552 0.114587 -0.021336 -143803.000000 0 0 1
23.885349 -10.480494 -17.433741 31.373332 -0.413487 2.159985 0.097547 -0.015739 419683.000000 0 0 1
24.412149 -11.359594 -18.439741 32.634605 -0.435525 2.171274 0.086568 -0.017051 -111115.000000 0 0 1
23.493549 -11.395994 -19.674741 32.694204 -0.451632 2.216525 0.091179 -0.013465 -559812.000000 0 0 1
22.197949 -11.842594 -19.511441 31.838535 -0.490087 2.230427 0.104626 -0.024045 -629943.000000 0 0 1
22.022749 -13.278594 -19.472641 32.256880 -0.542585 2.218898 0.080423 -0.018393 1168490.000000 0 0 1
20.493749 -13.749494 -19.398041 31.389908 -0.590936 2.236955 0.081092 -0.019769 1554100.000000 0 0 1
19.792749 -13.458494 -20.579241 31.565632 -0.597157 2.280951 0.077058 -0.010327 -504575.000000 0 0 1
18.407149 -13.563194 -20.391241 30.636352 -0.635028 2.299080 0.103472 -0.016281 -317900.000000 0 0 1
17.582249 -12.996394 -21.529841 30.685107 -0.636538 2.348490 0.094330 -0.019089 -430273.000000 0 0 1
17.835349 -13.765894 -22.720141 31.996942 -0.657328 2.360397 0.081061 -0.013902 412634.000000 0 0 1
17.325349 -13.075494 -23.863041 32.258037 -0.646504 2.403502 0.086198 -0.022739 -103258.000000 0 0 1
17.253149 -13.952894 -25.112691 33.511217 -0.680033 2.417924 0.075201 -0.029632 282031.000000 0 0 1
16.097649 -14.801694 -25.271361 33.419547 -0.743482 2.428260 0.081258 -0.025987 683884.000000 0 0 1
16.062149 -15.599994 -26.456581 34.659820 -0.770803 2.439235 0.088396 -0.024423 -404.812000 0 0 1
17.051649 -16.804894 -26.564211 35.760600 -0.778110 2.408091 0.104724 -0.021327 810808.000000 0 0 1
18.438949 -16.456294 -26.585891 36.298954 -0.728642 2.392658 0.095574 -0.016068 557475.000000 0 0 1
19.249849 -17.617994 -26.731721 37.356864 -0.741165 2.368246 0.105377 -0.017631 1341840.000000 0 0 1
20.800249 -17.311394 -26.732561 38.038987 -0.694110 2.350076 0.079376 -0.012417 1134660.000000 0 0 1
21.337749 -16.853794 -25.531081 37.298606 -0.668526 2.324721 0.074591 -0.017239 906761.000000 0 0 1
22.785149 -16.821894 -25.623281 38.192822 -0.635960 2.306208 0.080969 -0.013837 1234660.000000 0 0 1
23.378049 -16.146894 -24.328541 37.404990 -0.604448 2.278919 0.097022 -0.021199 -173972.000000 0 0 1
23.095849 -14.797194 -24.014841 36.456656 -0.569800 2.289917 0.106815 -0.025248 -124053.000000 0 0 1
21.728049 -14.485794 -23.851941 35.367519 -0.588016 2.310951 0.100781 -0.023001 4117.360000 0 0 1
21.265649 -13.186894 -23.207941 34.128149 -0.555070 2.318591 0.096740 -0.013794 -175174.000000 0 0 1
21.736749 -12.076894 -23.955541 34.528330 -0.507131 2.337540 0.107440 -0.024062 288732.000000 0 0 1
21.518249 -10.879094 -23.233941 33.484410 -0.468098 2.337650 0.107412 -0.024214 87883.500000 0 0 1
21.935749 -9.653794 -24.075041 33.970287 -0.414586 2.358463 0.107448 -0.022400 -8437.460000 0 0 1
21.672349 -8.462794 -23.434441 33.022456 -0.372280 2.359800 0.104876 -0.016466 3268.510000 0 0 1
21.715249 -7.394794 -24.381541 33.476776 -0.328218 2.386652 0.081934 -0.016830 -608486.000000 0 0 1
21.086749 -6.158094 -23.836441 32.415259 -0.284135 2.396974 0.079146 -0.018606 1490630.000000 0 0 1
19.667449 -6.451194 -23.567141 31.366169 -0.316955 2.420910 0.094780 -0.020027 1707870.000000 0 0 1
19.001649 -5.525394 -22.721441 30.130658 -0.282981 2.425075 0.091241 -0.020353 187404.000000 0 0 1
19.531749 -5.481994 -21.213841 29.352488 -0.273631 2.378537 0.092543 -0.016927 -329031.000000 0 0 1
19.244949 -6.521294 -20.298841 28.721739 -0.326714 2.355678 0.099018 -0.028050 46663.100000 0 0 1
19.735549 -7.761194 -20.661441 29.607823 -0.374682 2.343170 0.091308 -0.019108 -292815.000000 0 0 1
19.498549 -8.819694 -19.548641 28.984992 -0.424786 2.311002 0.100385 -0.024132 -487067.000000 0 0 1
18.180549 -9.252094 -19.473641 28.202062 -0.470743 2.332982 0.115967 -0.031435 -567317.000000 0 0 1
18.087949 -10.165394 -18.408341 27.737631 -0.512008 2.296497 0.135646 -0.037198 767648.000000 0 0 1
16.584149 -10.521594 -18.144341 26.738643 -0.565357 2.316626 0.159049 -0.046437 420477.000000 0 0 1
15.855649 -9.546694 -17.427041 25.421305 -0.541963 2.326126 0.174279 -0.040392 1779570.000000 0 0 1
14.432649 -9.666994 -17.795341 24.868178 -0.590169 2.368260 0.129766 -0.051847 1372470.000000 0 1 0
13.760849 -8.491294 -17.092941 23.529379 -0.552871 2.383940 0.161065 -0.041984 -912859.000000 0 1 0
12.454049 -8.339394 -17.551541 23.080412 -0.590040 2.434805 0.148828 -0.047603 -775014.000000 0 1 0
12.075949 -6.986994 -17.380641 22.287515 -0.524526 2.465203 0.154912 -0.046917 -544159.000000 0 1 0
10.607949 -6.611294 -17.494341 21.500924 -0.557332 2.521209 0.144420 -0.042787 -562895.000000 0 1 0
10.107449 -6.326194 -18.775641 22.241986 -0.559242 2.575780 0.127350 -0.048939 397610.000000 0 1 0
8.684449 -6.266694 -18.697841 21.547630 -0.625076 2.621443 0.114516 -0.058921 433791.000000 0 1 0
7.996549 -5.847894 -20.017441 22.334740 -0.631427 2.682031 0.121158 -0.061186 46492.600000 0 1 0
8.142849 -6.885394 -21.018741 23.569092 -0.701920 2.672088 0.118441 -0.053861 57472.600000 0 1 0
7.618449 -6.437094 -22.247841 24.381209 -0.701546 2.720149 0.129964 -0.049995 -69684.600000 0 1 0
7.720649 -7.429794 -23.409441 25.745139 -0.766203 2.712338 0.116341 -0.043468 -295082.000000 0 0 1
6.991549 -8.618194 -23.301341 25.809059 -0.889230 2.697116 0.119478 -0.037721 -114475.000000 0 0 1
7.120949 -9.498794 -24.392341 27.127869 -0.927507 2.688646 0.111257 -0.018205 -396348.000000 0 0 1
6.009949 -10.555794 -24.336641 27.199565 -1.053218 2.678653 0.099110 -0.020722 -149176.000000 0 0 1
6.226449 -11.444294 -23.240341 26.643085 -1.072521 2.630650 0.089383 -0.036255 147449.000000 0 0 1
5.419149 -12.606694 -23.374841 27.104964 -1.164814 2.610753 0.103076 -0.043851 -490966.000000 0 0 1
5.899849 -13.864994 -22.582241 27.147815 -1.168484 2.553185 0.107651 -0.034936 146080.000000 0 0 1
7.008249 -14.588394 -23.134341 28.233571 -1.122952 2.531145 0.104176 -0.022611 1703000.000000 0 0 1
8.338749 -13.996794 -23.159141 28.315910 -1.033499 2.528521 0.100881 -0.029477 1448630.000000 0 0 1
8.989449 -13.595094 -21.799341 27.218524 -0.986569 2.499595 0.117583 -0.027805 -594207.000000 0 0 1
9.418649 -14.566294 -20.860541 27.130242 -0.996811 2.447921 0.111900 -0.027809 611019.000000 0 0 1
8.380249 -15.404794 -20.335141 26.852452 -1.072569 2.429953 0.127451 -0.027203 267878.000000 0 0 1
8.753949 -15.809694 -18.903941 26.152190 -1.065111 2.378705 0.128455 -0.029151 673724.000000 0 0 1
9.959949 -16.586894 -18.814341 26.987128 -1.030031 2.342224 0.125885 -0.031062 382188.000000 0 0 1
10.468049 -16.907594 -17.542941 26.517948 -1.016427 2.293680 0.136862 -0.035482 -663124.000000 0 0 1
9.609949 -17.790294 -16.623641 26.176155 -1.075524 2.258893 0.099855 -0.038290 -758727.000000 0 0 1
9.412149 -19.142294 -16.936641 27.237213 -1.113816 2.241861 0.110101 -0.042940 258511.000000 0 0 1
8.579549 -19.311194 -18.085541 27.813983 -1.152711 2.278686 0.121927 -0.032129 1007010.000000 0 0 1
7.005449 -19.229594 -17.937441 27.214066 -1.221434 2.290449 0.132867 -0.031374 882534.000000 0 0 1
6.607749 -17.876694 -17.762541 26.052762 -1.216743 2.321005 0.136384 -0.035318 472704.000000 0 0 1
5.190449 -17.652794 -17.733041 25.554307 -1.284826 2.337737 0.121160 -0.031619 968423.000000 0 0 1
4.773249 -16.225994 -17.179841 24.108374 -1.284694 2.364006 0.092499 -0.023805 118743.000000 0 1 0
5.176149 -16.097694 -15.811041 23.149887 -1.259692 2.322639 0.059746 -0.021452 322810.000000 0 1 0
5.042349 -14.766494 -15.334141 21.877168 -1.241739 2.347483 0.045531 -0.018301 -342593.000000 0 1 0
11.110649 29.457006 -18.016941 36.273570 1.210114 2.090584 0.079247 -0.025456 -734312.000000 0 0 1
10.106249 29.129606 -18.886641 36.157647 1.236849 2.120391 0.114999 -0.020048 -1126050.000000 0 0 1
9.268449 28.153406 -18.347741 34.859117 1.252759 2.125086 0.106623 -0.023853 -118580.000000 0 0 1
8.215149 27.686806 -19.377541 34.778398 1.282354 2.161772 0.116031 -0.022228 207243.000000 0 0 1
7.358049 28.759106 -19.837141 35.703490 1.320318 2.159890 0.108816 -0.027743 108012.000000 0 0 1
6.645449 28.318306 -20.976941 35.862522 1.340297 2.195586 0.102855 -0.033314 -197733.000000 0 0 1
5.570049 29.245406 -21.532141 36.741697 1.382591 2.196961 0.084999 -0.033468 -915182.000000 0 0 1
4.404249 29.218406 -20.793941 36.131712 1.421187 2.184016 0.089266 -0.031089 -1155870.000000 0 0 1
3.454049 30.101506 -21.336041 37.057493 1.456549 2.184324 0.119937 -0.051103 -731761.000000 0 0 1
2.089049 29.865806 -20.622341 36.353974 1.500962 2.173977 0.151585 -0.048201 102891.000000 0 0 1
1.468949 28.638906 -20.927841 35.500976 1.519549 2.201237 0.152011 -0.066958 -912.843000 0 0 1
1.007549 28.524606 -22.296041 36.218528 1.535489 2.233940 0.204789 -0.081890 -851802.000000 0 0 1
0.139649 27.286306 -22.513641 35.375500 1.565678 2.260643 0.174666 -0.071609 900205.000000 0 0 1
-1.144451 27.306506 -21.847941 34.989821 -1.528910 2.245170 0.184054 -0.069919 680791.000000 0 0 1
-1.777351 26.092606 -22.027541 34.193503 -1.502784 2.270777 0.179541 -0.079177 234737.000000 0 0 1
-2.906351 25.714306 -21.022741 33.341086 -1.458249 2.253039 0.160930 -0.074069 710606.000000 0 0 1
-4.073951 26.526606 -20.998141 34.076089 -1.418407 2.234722 0.163787 -0.068411 275093.000000 0 0 1
-5.045151 25.965506 -20.127441 33.238155 -1.378886 2.221256 0.160567 -0.064827 -56910.100000 0 0 1
-6.217551 26.907506 -19.894741 34.036341 -1.343711 2.195078 0.169557 -0.074526 875086.000000 0 0 1
-7.355951 26.270306 -19.225441 33.374490 -1.297778 2.184687 0.144786 -0.056497 856137.000000 0 0 1
-8.363951 27.244006 -18.890441 34.191231 -1.272929 2.156149 0.144705 -0.066949 -106565.000000 0 0 1
-9.583451 26.473906 -18.420541 33.645602 -1.223475 2.150155 0.178456 -0.062360 -614006.000000 0 0 1
-9.345151 25.613406 -17.302941 32.291952 -1.220950 2.136285 0.177068 -0.074873 -231240.000000 0 0 1
-10.559351 25.041706 -16.845741 31.974457 -1.171749 2.125686 0.158605 -0.062572 334014.000000 0 0 1
-10.413651 24.326406 -15.484441 30.659192 -1.166320 2.100237 0.145656 -0.043169 160036.000000 0 0 1
-9.712951 23.107806 -15.397141 29.417411 -1.172886 2.121635 0.163466 -0.043196 -287137.000000 0 0 1
-9.594751 22.562006 -14.091041 28.278274 -1.168704 2.092432 0.142399 -0.035503 -153927.000000 0 0 1
-9.052951 21.131606 -14.047341 26.941204 -1.166043 2.119296 0.126923 -0.014799 250403.000000 0 0 1
-9.913051 20.081506 -14.541241 26.701744 -1.112249 2.146685 0.134301 -0.011938 -250601.000000 0 0 1
-10.164251 20.039606 -15.916941 27.536282 -1.101399 2.187115 0.147143 -0.008687 -29419.600000 0 0 1
-9.024151 19.860106 -16.944841 27.622215 -1.144301 2.231218 0.155825 -0.016293 16698.700000 0 0 1
-8.428151 18.574506 -16.923841 26.504007 -1.144830 2.263395 0.144711 -0.012821 -315395.000000 0 0 1
-7.574851 18.418306 -18.031141 26.865115 -1.180614 2.306586 0.124855 -0.015724 -224837.000000 0 0 1
-7.022851 17.017306 -18.187441 25.878411 -1.179399 2.350127 0.084528 -0.010864 -299625.000000 0 0 1
-7.913151 15.976506 -18.499841 25.692622 -1.110916 2.374663 0.103846 -0.020719 -337776.000000 0 0 1
-7.537551 15.268606 -19.669241 26.015842 -1.112231 2.428051 0.081227 -0.025816 -149049.000000 0 0 1
-6.272351 14.394806 -19.584141 25.101621 -1.159867 2.465773 0.044882 -0.019179 -385352.000000 0 0 1
-6.400751 13.271106 -18.760741 23.854921 -1.121403 2.475839 0.039921 -0.017469 986312.000000 0 1 0
-5.095951 12.728906 -18.436941 22.976391 -1.189993 2.502152 0.030756 -0.008396 1501320.000000 0 1 0
-4.339351 13.482106 -17.276141 22.339700 -1.259407 2.454886 0.010195 0.007277 -115295.000000 0 1 0
-3.793951 14.718106 -17.645141 23.288789 -1.318514 2.430527 0.023709 -0.003191 -554418.000000 0 1 0
-3.254151 15.290606 -16.474141 22.710998 -1.361105 2.382385 0.021745 0.005039 -146434.000000 0 1 0
-2.497651 16.605706 -16.569541 23.591045 -1.421506 2.349512 0.056999 -0.004154 107524.000000 0 1 0
-3.268151 17.760006 -16.916841 24.744254 -1.388815 2.323573 0.050475 -0.006964 -80680.400000 0 1 0
-2.463051 18.928006 -16.913341 25.502885 -1.441396 2.295874 0.068238 -0.012510 355081.000000 0 0 1
-3.203251 20.169206 -17.479741 26.881202 -1.413293 2.278721 0.074945 -0.017212 329955.000000 0 0 1
-3.383851 20.068506 -18.862841 27.748913 -1.403753 2.318243 0.070682 -0.013306 -455508.000000 0 0 1
-3.706751 21.330706 -19.409541 29.076955 -1.398739 2.301674 0.108059 -0.025785 -344838.000000 0 0 1
-2.611751 22.380706 -19.524341 29.814713 -1.454625 2.284788 0.090099 -0.044291 -444799.000000 0 0 1
-1.626351 22.253706 -20.531541 30.321884 -1.497844 2.314638 0.115122 -0.041451 1421200.000000 0 0 1
-0.345951 22.877306 -20.221241 30.535052 -1.555675 2.294588 0.119319 -0.053380 1716790.000000 0 0 1
0.627449 22.280706 -19.181441 29.406653 1.542643 2.281388 0.108746 -0.048542 -189731.000000 0 0 1
0.184749 22.471006 -17.833241 28.688059 1.562575 2.241613 0.098108 -0.043606 -300079.000000 0 0 1
1.050549 21.877106 -16.903341 27.666484 1.522813 2.228079 0.110004 -0.042431 -180340.000000 0 0 1
0.637049 22.072306 -15.407441 26.925485 1.541942 2.180013 0.114089 -0.036919 -255934.000000 0 0 1
-0.442351 21.260006 -15.027541 26.038635 -1.549993 2.186000 0.093147 -0.021594 -261945.000000 0 0 1
-0.467151 20.939206 -13.646241 24.997769 -1.548490 2.148257 0.111511 -0.023893 526142.000000 0 1 0
-1.523551 19.881806 -13.176041 23.900114 -1.494315 2.154713 0.077069 -0.016723 528373.000000 0 1 0
-0.926151 18.631106 -13.353741 22.941191 -1.521127 2.192088 0.056316 -0.012603 501517.000000 0 1 0
-1.869651 17.662006 -12.873241 21.935414 -1.465332 2.197984 0.048095 -0.007783 449723.000000 0 1 0
-1.441751 16.242606 -12.873741 20.775806 -1.482265 2.239094 0.028307 -0.001906 -269360.000000 0 1 0
-0.411451 15.914306 -11.934341 19.896304 -1.544948 2.214081 0.022534 -0.007187 292509.000000 0 1 0
-0.055751 14.545806 -11.903641 18.795751 -1.566964 2.256626 0.016515 -0.002838 562883.000000 0 1 0
0.740549 13.969506 -13.146641 19.197127 1.517834 2.325158 0.012513 -0.003303 -767104.000000 0 1 0
-0.065751 13.873906 -14.233141 19.876415 -1.566057 2.368969 0.019700 -0.010415 -578935.000000 0 1 0
0.448449 12.923906 -15.099341 19.880104 1.536111 2.433372 0.018689 -0.014272 -738094.000000 0 1 0
-0.394551 12.667106 -16.342541 20.680665 -1.539659 2.481985 0.019395 -0.012081 -233549.000000 0 1 0
-0.409151 13.784106 -17.174041 22.025364 -1.541122 2.465046 0.030946 -0.019882 17872.400000 0 1 0
-0.348451 13.586106 -18.585841 23.024708 -1.545154 2.510211 0.032561 -0.016939 -119381.000000 0 1 0
-0.941451 14.744006 -19.476741 24.446175 -1.507030 2.492644 0.032328 -0.007501 335994.000000 0 1 0
-0.218251 15.988006 -19.407641 25.145984 -1.557146 2.452462 0.047572 -0.018022 13262.100000 0 0 1
-1.010351 16.983006 -19.961941 26.228275 -1.511375 2.435780 0.066319 -0.029112 -59168.900000 0 0 1
-0.187751 18.211106 -20.396141 27.343778 -1.560487 2.412704 0.084308 -0.037730 240822.000000 0 0 1
0.709849 17.972206 -21.472641 28.010326 1.531320 2.444321 0.130933 -0.051668 20173.900000 0 0 1
1.472449 19.156806 -21.665541 28.957676 1.494084 2.416110 0.127176 -0.051718 161333.000000 0 0 1
2.169549 18.998006 -23.047941 29.947266 1.457090 2.449038 0.136295 -0.060063 -502469.000000 0 0 1
3.277849 18.158206 -23.108241 29.571194 1.392203 2.467773 0.137702 -0.051987 -589184.000000 0 0 1
3.754549 18.204306 -24.434741 30.700977 1.367403 2.491280 0.137834 -0.061865 53125.200000 0 0 1
4.773949 17.134806 -24.817941 30.533954 1.299076 2.519736 0.123875 -0.049073 -542597.000000 0 0 1
6.007049 17.178406 -24.147341 30.237003 1.234401 2.495766 0.112530 -0.041660 259990.000000 0 0 1
6.922549 16.117306 -24.500641 30.132551 1.165112 2.520246 0.109430 -0.037950 622447.000000 0 0 1
7.579649 16.101906 -25.885061 31.412718 1.130838 2.539286 0.115699 -0.049062 -1185060.000000 0 0 1
8.549349 17.128606 -26.080631 32.352431 1.107847 2.508398 0.118202 -0.041046 359613.000000 0 0 1
9.189549 17.114606 -27.341161 33.539479 1.078034 2.523859 0.125117 -0.052160 548211.000000 0 0 1
9.911749 15.781406 -27.806341 33.473693 1.009996 2.551146 0.133395 -0.057383 206572.000000 0 0 1
11.009349 15.290106 -27.001561 32.925331 0.946753 2.532355 0.138602 -0.050056 388672.000000 0 0 1
11.373449 13.942006 -27.335081 32.725243 0.886514 2.559457 0.124292 -0.045349 -265060.000000 0 0 1
10.715549 12.732806 -26.652271 31.421185 0.871217 2.583423 0.111120 -0.042287 2039320.000000 0 0 1
9.245949 12.797606 -26.814751 31.117474 0.945145 2.609459 0.128051 -0.046652 1529240.000000 0 0 1
8.669149 11.838406 -26.009871 29.863278 0.938726 2.627959 0.122476 -0.044170 -212607.000000 0 0 1
7.133549 11.936706 -26.067471 29.544636 1.032133 2.651540 0.104957 -0.044082 -513819.000000 0 0 1
6.605149 13.031306 -25.407781 29.308672 1.101670 2.619752 0.129738 -0.039446 689811.000000 0 0 1
5.189349 12.856506 -25.181821 28.746186 1.187159 2.638313 0.130805 -0.048540 1657840.000000 0 0 1
4.212449 13.493906 -26.245051 29.809947 1.268208 2.647528 0.146562 -0.046372 -65073.700000 0 0 1
4.437349 12.864506 -27.539651 30.718365 1.238646 2.682648 0.152291 -0.060970 53119.100000 0 0 1
3.638249 13.428806 -28.514611 31.727791 1.306219 2.687653 0.141875 -0.077833 -384722.000000 0 0 1
4.095849 12.877106 -29.909211 32.820066 1.262843 2.717248 0.189435 -0.075451 -230780.000000 0 0 1
5.330549 13.384406 -30.341981 33.588583 1.191786 2.698295 0.166182 -0.065581 -359179.000000 0 0 1
5.541649 13.270706 -31.690491 34.800987 1.175223 2.715579 0.161099 -0.064869 -1119110.000000 0 0 1
6.642449 12.280706 -32.089931 34.995736 1.074978 2.731207 0.163687 -0.058681 1159840.000000 0 0 1
8.000749 12.669306 -31.705721 35.068163 1.007532 2.700105 0.183454 -0.056078 1485630.000000 0 0 1
8.270449 12.578406 -30.321451 33.852725 0.989159 2.680770 0.166888 -0.053687 -971602.000000 0 0 1
8.345449 11.213406 -29.626281 32.758259 0.930993 2.700747 0.147438 -0.041581 315923.000000 0 0 1
9.504149 10.477106 -30.022191 33.187807 0.834053 2.701272 0.122659 -0.037039 300756.000000 0 0 1
9.355549 9.159406 -29.524241 32.297087 0.774805 2.724192 0.110075 -0.039421 291797.000000 0 0 1
10.469749 8.121006 -29.869821 32.676790 0.659725 2.724077 0.087277 -0.030890 179334.000000 0 0 1
11.723249 8.324506 -29.286111 32.625270 0.617463 2.685207 0.080770 -0.029486 -604181.000000 0 0 1
12.562649 7.220706 -29.383421 32.761932 0.521666 2.683453 0.065618 -0.023661 -836432.000000 0 0 1
13.857549 7.328106 -28.568911 32.587045 0.486434 2.639745 0.068423 -0.012000 -211786.000000 0 0 1
14.395449 6.080606 -28.200101 32.240478 0.399664 2.635572 0.078376 -0.013181 538464.000000 0 0 1
15.372749 5.641206 -29.166911 33.449265 0.351705 2.630018 0.077557 -0.014038 19649.200000 0 0 1
16.137949 4.334806 -28.712161 33.220658 0.262415 2.614526 0.082241 -0.025222 296878.000000 0 0 1
17.133249 4.618006 -27.728731 32.920461 0.263278 2.572323 0.060364 -0.013252 728307.000000 0 0 1
17.928849 3.458206 -27.443381 32.962736 0.190545 2.554505 0.075741 -0.024527 -12390.500000 0 0 1
18.854249 3.639906 -26.250601 32.524232 0.190709 2.510035 0.066058 -0.015936 -170693.000000 0 0 1
19.894049 4.587306 -26.393491 33.368142 0.226626 2.483203 0.096003 -0.019106 91365.500000 0 0 1
20.480549 4.780206 -25.140781 32.777464 0.229297 2.444971 0.106626 -0.017517 106644.000000 0 0 1
21.601349 5.885706 -25.246041 33.743479 0.266012 2.416104 0.096851 -0.006641 -124562.000000 0 0 1
21.229349 7.219706 -25.244511 33.765289 0.327811 2.415308 0.104073 -0.003968 -236787.000000 0 0 1
22.081949 8.095506 -25.917521 34.998108 0.351397 2.404671 0.105011 -0.019512 -1055460.000000 0 0 1
22.145749 7.964806 -27.487641 36.186223 0.345249 2.433519 0.145774 -0.025519 -240505.000000 0 0 1
21.085349 8.476506 -28.252041 36.257702 0.382237 2.464187 0.119441 -0.023035 -310447.000000 0 0 1
19.889149 7.765406 -28.096121 35.288409 0.372233 2.491761 0.115573 -0.016865 -540518.000000 0 0 1
18.645949 8.384606 -28.797851 35.316983 0.422583 2.524235 0.101397 -0.019320 52785.800000 0 0 1
18.551649 8.383606 -30.220751 36.438199 0.424438 2.548776 0.094187 -0.017535 131978.000000 0 0 1
17.436749 9.079206 -30.738731 36.487556 0.480065 2.572600 0.078315 -0.012487 -277329.000000 0 0 1
17.124149 8.592506 -32.161651 37.435804 0.465068 2.604334 0.056145 -0.005541 -30398.800000 0 0 1
16.373749 7.383406 -32.261411 36.924422 0.423627 2.633584 0.056604 -0.006983 949237.000000 0 0 1
15.010649 7.671306 -32.611261 36.710528 0.472454 2.664504 0.052807 -0.007684 518658.000000 0 0 1
14.192349 6.486806 -33.133541 36.624213 0.428712 2.701447 0.066968 -0.015851 -51702.000000 0 0 1
13.838549 5.590106 -32.095591 35.396069 0.383908 2.706322 0.067471 -0.019477 213911.000000 0 0 1
12.947049 4.569106 -32.512461 35.292533 0.339262 2.742021 0.063336 -0.022144 -66015.000000 0 0 1
12.658649 3.505306 -31.481761 34.112019 0.270141 2.746325 0.071819 -0.021649 120529.000000 0 0 1
13.761149 2.650506 -31.159031 34.165474 0.190278 2.718939 0.081628 -0.030806 414869.000000 0 0 1
13.528549 1.752706 -30.098491 33.045617 0.128838 2.716054 0.089136 -0.029222 -59248.100000 0 0 1
12.877949 0.349306 -30.444061 33.057593 0.027118 2.741282 0.097701 -0.029315 -165029.000000 0 0 1
13.670449 -0.580694 -31.107521 33.983764 -0.042453 2.727208 0.101080 -0.034709 493032.000000 0 0 1
14.582249 -1.314394 -30.220781 33.580727 -0.089894 2.690438 0.115164 -0.035911 792605.000000 0 0 1
15.104749 -2.611494 -30.885041 34.479836 -0.171200 2.680894 0.127196 -0.031271 -469081.000000 0 0 1
14.166549 -3.622394 -30.916671 34.200196 -0.250337 2.699810 0.123676 -0.027976 -99805.000000 0 0 1
14.558049 -4.733094 -31.725611 35.225748 -0.314339 2.692029 0.145035 -0.028307 49729.200000 0 0 1
13.650949 -5.961794 -31.454571 34.803469 -0.411765 2.699310 0.136738 -0.030826 57062.000000 0 0 1
13.888549 -6.571194 -30.156571 33.845105 -0.441928 2.670377 0.135269 -0.022655 370979.000000 0 0 1
13.229949 -7.834194 -30.137981 33.833475 -0.534632 2.669842 0.145785 -0.032877 199547.000000 0 0 1
13.578349 -8.684294 -28.806201 33.008874 -0.569008 2.631462 0.114573 -0.027499 -651103.000000 0 0 1
14.929549 -8.977694 -28.667961 33.546124 -0.541402 2.595544 0.108902 -0.031881 -416434.000000 0 0 1
15.285049 -9.773794 -27.491421 32.938397 -0.568912 2.558260 0.109039 -0.035398 -35900.800000 0 0 1
15.392549 -11.249494 -27.700831 33.627633 -0.631126 2.538794 0.087843 -0.020802 165324.000000 0 0 1
14.082849 -11.751294 -27.904851 33.393117 -0.695391 2.560106 0.069654 -0.025393 281710.000000 0 0 1
14.114549 -13.034194 -28.364251 34.258451 -0.745625 2.546237 0.067169 -0.025876 10668.100000 0 0 1
-10.094651 -3.272994 -17.478141 20.447490 0.313536 2.595926 0.037894 -0.015821 187306.000000 0 1 0
-10.812151 -2.995594 -18.658541 21.771939 0.270279 2.600215 0.059451 -0.022669 -559723.000000 0 1 0
-11.800851 -3.932694 -18.913041 22.636901 0.321680 2.559831 0.077853 -0.028675 148990.000000 0 1 0
-12.842851 -3.406094 -19.998041 24.009621 0.259245 2.555156 0.101441 -0.045735 735932.000000 0 1 0
-13.636651 -2.289694 -19.583241 23.972990 0.166356 2.526791 0.112307 -0.041786 117890.000000 0 1 0
-14.674051 -2.000994 -20.491941 25.283421 0.135527 2.515783 0.109215 -0.034630 120751.000000 0 0 1
-15.456851 -0.700594 -20.210141 25.452993 0.045295 2.488187 0.117160 -0.035178 268492.000000 0 0 1
-14.847051 0.469706 -20.684341 25.465614 -0.031626 2.518788 0.123573 -0.035654 -14479.100000 0 0 1
-15.637951 1.530506 -20.194841 25.587488 -0.097561 2.480378 0.122967 -0.034839 258092.000000 0 0 1
-15.299651 2.955906 -20.745641 25.946065 -0.190849 2.497372 0.161157 -0.040443 -41534.400000 0 0 1
-14.043351 3.457006 -20.362841 24.976226 -0.241368 2.524024 0.159610 -0.038223 14310.900000 0 1 0
-13.963751 4.690606 -21.073441 25.711438 -0.324071 2.531532 0.170896 -0.044489 -650849.000000 0 0 1
-12.703051 5.434406 -20.691041 24.880101 -0.404243 2.552833 0.154396 -0.041393 -768683.000000 0 1 0
-12.589651 5.914706 -19.350041 23.830802 -0.439203 2.518326 0.149097 -0.051354 199134.000000 0 1 0
-11.274351 6.326506 -19.040741 23.014897 -0.511357 2.545121 0.107352 -0.034343 -206931.000000 0 1 0
-11.082651 6.908906 -17.687541 21.986524 -0.557447 2.505582 0.098548 -0.036577 -345923.000000 0 1 0
-11.665451 8.145106 -17.410541 22.484493 -0.609534 2.456461 0.115658 -0.055261 298812.000000 0 1 0
-12.991651 8.088706 -16.871741 22.778626 -0.556877 2.404883 0.144510 -0.043994 611668.000000 0 1 0
-13.800751 9.413806 -16.906641 23.767940 -0.598627 2.362173 0.163412 -0.050119 173348.000000 0 1 0
-13.182651 10.369506 -16.040141 23.207651 -0.666518 2.333886 0.121492 -0.041779 1159420.000000 0 1 0
-14.037551 11.564106 -15.988141 24.215739 -0.689084 2.291931 0.137284 -0.043139 495759.000000 0 1 0
-13.375951 12.758806 -15.284341 23.985710 -0.761789 2.261691 0.128845 -0.035907 -143853.000000 0 1 0
-13.154151 12.749806 -13.880441 22.983818 -0.769790 2.219209 0.127132 -0.041396 92918.300000 0 1 0
-12.575251 14.003906 -13.563741 23.199599 -0.839097 2.195250 0.112708 -0.033459 -645687.000000 0 1 0
-12.994851 14.507306 -12.143541 22.951986 -0.840337 2.128318 0.087970 -0.039257 1449360.000000 0 1 0
-14.356051 14.952006 -11.947041 23.924683 -0.805730 2.093657 0.084905 -0.036397 1507920.000000 0 1 0
-15.439251 14.055706 -12.198741 24.181452 -0.738525 2.099561 0.085007 -0.029304 -869619.000000 0 1 0
-16.715151 14.456306 -11.488541 24.907180 -0.713059 2.050205 0.041657 -0.016344 -980065.000000 0 1 0
-17.739251 13.560806 -11.806741 25.258179 -0.652686 2.057192 0.035284 -0.013326 -957476.000000 0 0 1
-18.919651 13.933506 -11.171741 26.017370 -0.634777 2.014620 0.114439 -0.018973 -233460.000000 0 0 1
-20.148351 13.125306 -11.698741 26.741171 -0.577382 2.023591 0.098066 -0.033779 153659.000000 0 0 1
-20.200751 11.808606 -11.276341 25.974398 -0.528991 2.019872 0.110285 -0.035827 -586028.000000 0 0 1
-21.407751 11.258206 -11.648841 26.846499 -0.484148 2.019619 0.162955 -0.031777 -852960.000000 0 0 1
-21.596051 9.784306 -11.104741 26.180858 -0.425396 2.008825 0.149340 -0.032400 -458119.000000 0 0 1
-21.015451 8.739806 -11.842841 25.657090 -0.394117 2.050574 0.117465 -0.038444 382734.000000 0 0 1
-20.799751 7.569006 -11.012541 24.722369 -0.349003 2.032471 0.076659 -0.032456 -870890.000000 0 1 0
-19.851151 6.551006 -11.618741 23.916082 -0.318753 2.078089 0.090848 -0.028267 -664202.000000 0 1 0
-20.367251 5.658306 -12.540841 24.578731 -0.270980 2.106250 0.126124 -0.030613 80684.600000 0 1 0
-19.458151 4.615206 -12.781641 23.733733 -0.232883 2.139504 0.150488 -0.033691 -309324.000000 0 1 0
-20.000451 3.488006 -13.691041 24.487319 -0.172660 2.164105 0.194771 -0.053460 -525585.000000 0 1 0
-20.951451 2.679306 -13.073041 24.840418 -0.127191 2.125017 0.196368 -0.059231 645738.000000 0 1 0
-21.924351 2.267506 -14.063241 26.145621 -0.103058 2.138718 0.193367 -0.054631 507596.000000 0 0 1
-22.778351 1.044206 -13.624041 26.562344 -0.045810 2.109365 0.252310 -0.053598 639386.000000 0 0 1
-23.886451 0.765506 -14.503741 27.955447 -0.032037 2.116262 0.174351 -0.044164 812721.000000 0 0 1
-24.513951 -0.439894 -14.112241 28.289267 0.017943 2.093073 0.173246 -0.053889 424702.000000 0 0 1
-25.877441 -0.732294 -14.859841 29.849507 0.028291 2.091886 0.147670 -0.037437 124977.000000 0 0 1
-26.859621 0.061106 -14.292841 30.425783 -0.002275 2.059816 0.187730 -0.054066 -1612870.000000 0 0 1
-28.081531 -0.313194 -14.800741 31.744801 0.011153 2.055834 0.148557 -0.031456 -350641.000000 0 0 1
-29.329671 0.129406 -13.963141 32.484083 -0.004412 2.015118 0.152595 -0.027767 180459.000000 0 0 1
-29.495991 -0.620294 -12.818541 32.166958 0.021027 1.980677 0.178246 -0.033856 526552.000000 0 0 1
-30.795431 -0.500694 -12.250041 33.146233 0.016257 1.949349 0.200723 -0.037360 383528.000000 0 0 1
-30.771671 -1.187494 -10.866441 32.655557 0.038571 1.910024 0.208778 -0.052161 -177282.000000 0 0 1
-30.929121 -2.643994 -10.931441 32.910448 0.085278 1.909386 0.241289 -0.045536 1067180.000000 0 0 1
-29.757011 -3.444394 -11.231341 31.991976 0.115238 1.929507 0.236267 -0.043579 571102.000000 0 0 1
-30.012721 -4.910394 -10.787741 32.268417 0.162174 1.911672 0.228942 -0.054323 -423301.000000 0 0 1
-30.993621 -5.589094 -11.487441 33.523183 0.178413 1.920555 0.215963 -0.044886 -467183.000000 0 0 1
-31.278501 -6.916094 -11.134341 33.913869 0.217612 1.905313 0.202443 -0.041774 -204714.000000 0 0 1
-30.256821 -7.969494 -11.579041 33.362587 0.257545 1.925238 0.197977 -0.050596 737149.000000 0 0 1
-28.937211 -7.793094 -11.029941 31.933588 0.263069 1.923464 0.155269 -0.051598 573785.000000 0 0 1
-27.985901 -8.568994 -11.712241 31.524829 0.297126 1.951447 0.137233 -0.051439 669056.000000 0 0 1
-26.562971 -8.370494 -11.052641 29.963602 0.305269 1.948588 0.158336 -0.063360 457283.000000 0 0 1
-25.916561 -7.127594 -11.405841 29.198697 0.268386 1.972110 0.146772 -0.045252 1217720.000000 0 0 1
-24.503351 -7.148394 -11.160941 27.858218 0.283854 1.983005 0.159803 -0.054419 597356.000000 0 0 1
-24.054651 -7.036294 -9.686941 26.869545 0.284574 1.939619 0.151017 -0.058969 -760047.000000 0 0 1
-24.399051 -5.805194 -9.081641 26.673773 0.233584 1.918214 0.160799 -0.047506 2315110.000000 0 0 1
-25.815751 -5.794894 -8.673341 27.843502 0.220811 1.887571 0.170032 -0.056065 1416380.000000 0 0 1
-26.271231 -4.445294 -8.077641 27.842171 0.167620 1.865151 0.191439 -0.057917 -249563.000000 0 0 1
-25.867171 -4.235094 -6.736541 27.063398 0.162285 1.822358 0.187167 -0.052189 354702.000000 0 0 1
-26.170831 -2.873494 -6.420141 27.099586 0.109360 1.809980 0.245878 -0.056263 -36710.200000 0 0 1
-25.933111 -2.599594 -4.898141 26.519350 0.099909 1.756564 0.228217 -0.052081 446903.000000 0 0 1
-24.560851 -2.688194 -4.525841 25.118619 0.109016 1.751964 0.180260 -0.043213 472324.000000 0 0 1
-24.411151 -2.626094 -3.132041 24.750966 0.107165 1.697679 0.153507 -0.035654 283401.000000 0 1 0
-22.931051 -2.946094 -2.795041 23.287868 0.127776 1.691108 0.134045 -0.023539 199906.000000 0 1 0
-22.763451 -4.365194 -2.810241 23.347956 0.189463 1.691452 0.138200 -0.018808 -200610.000000 0 1 0
-21.514451 -4.728394 -2.315841 22.149321 0.216338 1.675544 0.109820 -0.010913 -679397.000000 0 1 0
-21.273951 -6.227094 -2.332641 22.288986 0.284755 1.675643 0.105342 -0.008924 -182082.000000 0 1 0
-22.030651 -6.876994 -1.328241 23.117241 0.302571 1.628285 0.124550 -0.002031 359876.000000 0 1 0
-22.612251 -8.021594 -1.899341 24.067973 0.340896 1.649794 0.123257 -0.002977 240787.000000 0 1 0
-23.045651 -9.016494 -0.721441 24.757214 0.372936 1.599941 0.144064 -0.011070 92241.600000 0 1 0
-21.840351 -9.602794 -0.312941 23.860270 0.414240 1.583912 0.096500 -0.000516 278201.000000 0 1 0
-21.992151 -10.409194 0.830159 24.345332 0.442072 1.536690 0.065616 0.002439 575050.000000 0 1 0
-20.614151 -10.989894 1.289259 23.396221 0.489794 1.515663 0.072606 0.002129 518963.000000 0 1 0
-20.003351 -11.986694 0.489859 23.324983 0.539856 1.549793 0.069148 0.003779 820750.000000 0 1 0
-18.922351 -12.603294 1.206859 22.767408 0.587578 1.517763 0.048644 -0.014156 526405.000000 0 1 0
-18.297251 -13.867394 0.557259 22.965290 0.648535 1.546529 0.050297 -0.009778 160223.000000 0 1 0
-19.198351 -14.946894 0.793859 24.343716 0.661525 1.538180 0.088389 -0.007921 476594.000000 0 1 0
-18.765451 -16.191294 0.287859 24.786750 0.711892 1.559183 0.096751 -0.018583 23250.200000 0 1 0
-17.811751 -16.964594 1.239259 24.629082 0.761043 1.520458 0.094033 -0.018442 -514624.000000 0 1 0
-16.461151 -16.598594 1.175059 23.406485 0.789556 1.520573 0.093487 -0.005379 -134464.000000 0 1 0
-15.629551 -17.168694 2.169159 23.318494 0.832291 1.477639 0.106108 -0.009508 245793.000000 0 1 0
-15.728851 -16.665094 3.621359 23.199921 0.814292 1.414062 0.126025 -0.030196 -439776.000000 0 1 0
-15.330151 -15.309094 3.839059 22.002733 0.784711 1.395418 0.088906 -0.021810 459563.000000 0 1 0
-14.408551 -15.107594 4.923759 21.449688 0.809077 1.339182 0.063210 -0.022619 216251.000000 0 1 0
-14.935651 -15.490594 6.353759 22.436631 0.803635 1.283681 0.108520 -0.027451 -1376400.000000 0 1 0
-15.840251 -14.518494 6.805459 22.539177 0.741888 1.264070 0.096332 -0.020434 199147.000000 0 1 0
-16.324751 -14.791294 8.144659 23.486493 0.736156 1.216660 0.118614 -0.019230 270172.000000 0 1 0
-17.306151 -15.964094 8.356959 24.983873 0.745082 1.229728 0.108718 -0.020518 -403300.000000 0 1 0
-16.601551 -17.151394 8.131159 25.217009 0.801687 1.242482 0.113908 -0.018063 160334.000000 0 0 1
-17.290251 -18.250594 8.694459 26.601326 0.812412 1.237835 0.127874 -0.030567 198888.000000 0 0 1
-16.816151 -18.505794 10.171759 26.994666 0.833197 1.184450 0.146296 -0.030520 9551.530000 0 0 1
-15.517151 -19.027294 10.268159 26.613060 0.886663 1.174687 0.091489 -0.026720 -303127.000000 0 0 1
-15.253651 -19.257694 11.636659 27.183533 0.900903 1.128432 0.107099 -0.034184 218657.000000 0 0 1
-14.019051 -20.197494 11.832259 27.285067 0.964042 1.122253 0.095662 -0.026444 1649590.000000 0 0 1
-12.775151 -19.470294 11.568859 26.002602 0.990120 1.109721 0.084513 -0.033987 1867410.000000 0 0 1
-11.621951 -20.212994 12.085059 26.261826 1.048981 1.092603 0.089161 -0.030830 1534630.000000 0 0 1
-10.334751 -19.395194 12.352359 25.210343 1.081215 1.058739 0.084627 -0.031001 51384.800000 0 0 1
-9.612551 -18.951594 11.255659 24.046911 1.101393 1.083690 0.076422 -0.029848 -633451.000000 0 1 0
-8.713451 -17.982194 11.675359 23.142980 1.119577 1.042007 0.069211 -0.033934 -380686.000000 0 1 0
-7.883151 -17.345594 10.555259 21.781350 1.144227 1.064890 0.049774 -0.027570 601597.000000 0 1 0
-6.768951 -18.127894 10.094959 21.825385 1.213429 1.089946 0.059094 -0.029240 975627.000000 0 1 0
-5.981651 -17.433594 9.069759 20.541930 1.240272 1.113500 0.048107 -0.021902 741380.000000 0 1 0
-4.820451 -18.228994 8.453459 20.663832 1.312275 1.149335 0.045849 -0.023126 246648.000000 0 1 0
-3.701051 -18.528494 9.256859 21.040254 1.373642 1.115243 0.059089 -0.015333 22713.400000 0 1 0
-2.708251 -19.202494 8.499659 21.173441 1.430684 1.157718 0.063979 -0.013752 55696.500000 0 1 0
-1.337951 -19.340694 9.174959 21.448367 1.501728 1.128773 0.067932 -0.017341 128935.000000 0 1 0
-0.356051 -19.724194 8.214359 21.369284 1.552747 1.176238 0.071175 -0.017801 -142600.000000 0 1 0
0.875549 -19.951994 8.838259 21.839493 -1.526942 1.154155 0.091073 -0.030182 194560.000000 0 1 0
2.098349 -20.472794 8.023159 22.088672 -1.468658 1.199069 0.103101 -0.038287 630392.000000 0 1 0
2.019749 -21.780794 7.550959 23.140859 -1.478330 1.238405 0.110620 -0.040929 -123927.000000 0 1 0
2.489349 -22.656894 8.597759 24.360894 -1.461364 1.210093 0.136283 -0.049513 18805.900000 0 1 0
2.165149 -24.174794 8.348259 25.667138 -1.481472 1.239519 0.126282 -0.054612 -86352.200000 0 0 1
2.489949 -25.023154 9.426759 26.855574 -1.471617 1.212139 0.152248 -0.061605 -99726.400000 0 0 1
2.307049 -26.356424 8.943959 27.928086 -1.483486 1.244803 0.161188 -0.060910 -888954.000000 0 0 1
2.159949 -27.383254 10.109459 29.269594 -1.492081 1.218141 0.178493 -0.068670 589529.000000 0 0 1
1.003649 -27.178604 10.913459 29.305075 -1.533885 1.189193 0.178259 -0.077089 494758.000000 0 0 1
-0.253851 -27.457074 10.316359 29.332279 1.561551 1.211403 0.166797 -0.068145 -48352.900000 0 0 1
-1.449151 -27.493584 11.288359 29.756079 1.518136 1.181688 0.165664 -0.068650 293575.000000 0 0 1
-1.366251 -28.571824 12.168059 31.085003 1.523015 1.168595 0.185442 -0.075183 -266409.000000 0 0 1
-1.226351 -28.053174 13.509159 31.160582 1.527109 1.122386 0.159817 -0.069826 173811.000000 0 0 1
-1.059851 -29.193414 14.537559 32.630037 1.534508 1.109034 0.138597 -0.060843 173848.000000 0 0 1
-1.007751 -28.805814 15.892559 32.914494 1.535826 1.066897 0.137971 -0.060343 -108050.000000 0 0 1
-1.024851 -29.936584 16.675559 34.282994 1.536576 1.062821 0.155106 -0.063547 -120980.000000 0 0 1
-1.401551 -29.587064 18.111359 34.718583 1.523461 1.021999 0.144868 -0.058341 -556738.000000 0 0 1
-2.786551 -29.473944 18.341359 34.826480 1.476534 1.016142 0.133565 -0.055452 -127358.000000 0 0 1
-3.025651 -29.475034 19.735059 35.600628 1.468503 0.983220 0.132644 -0.055240 13324.300000 0 0 1
-4.533251 -29.463904 20.065459 35.934588 1.418136 0.978354 0.166130 -0.054509 -992.124000 0 0 1
-5.265451 -28.286084 19.651459 34.842608 1.386753 0.971567 0.131960 -0.051357 355272.000000 0 0 1
-6.515651 -28.223924 20.313259 35.378978 1.343915 0.959216 0.132134 -0.052417 109075.000000 0 0 1
-6.499751 -27.278674 21.534359 35.356774 1.336886 0.915923 0.183186 -0.061137 -317835.000000 0 0 1
-5.566451 -27.691314 22.516659 36.121935 1.372422 0.897775 0.205144 -0.057991 98354.100000 0 0 1
-5.568251 -26.826734 23.643559 36.189736 1.366139 0.858832 0.218195 -0.059886 -266194.000000 0 0 1
-4.410151 -26.943974 24.679559 36.803638 1.408556 0.835814 0.249019 -0.053335 128019.000000 0 0 1
-4.508151 -28.100414 25.527159 38.230780 1.411722 0.839665 0.238742 -0.047255 242886.000000 0 0 1
-3.756551 -29.254674 25.116559 38.740020 1.443087 0.865399 0.236229 -0.043213 174064.000000 0 0 1
-3.924651 -30.518714 26.016559 40.294617 1.442900 0.868911 0.225031 -0.026499 -44088.200000 0 0 1
-3.255651 -30.389884 27.221859 40.928889 1.464074 0.843167 0.226664 -0.038153 -153962.000000 0 0 1
-3.388251 -31.546884 28.004759 42.319649 1.463803 0.847654 0.210421 -0.042802 -299329.000000 0 0 1
-2.812651 -31.461704 29.417759 43.164272 1.481634 0.820945 0.235655 -0.038101 -257265.000000 0 0 1
-1.406651 -31.494704 29.410559 43.114685 1.526163 0.820101 0.233606 -0.030770 -24035.700000 0 0 1
-0.921151 -31.540554 30.753259 44.061525 1.541599 0.798249 0.220876 -0.043628 -141924.000000 0 0 1
-29.781581 3.025906 -9.936141 31.540855 -0.101256 1.891279 0.237902 -0.052402 -93413.300000 0 0 1
-30.694881 2.859106 -10.998741 32.731063 -0.092878 1.913499 0.206220 -0.065001 12624.700000 0 0 1
-31.303541 4.052306 -11.430941 33.570809 -0.128736 1.918247 0.179811 -0.052392 -597976.000000 0 0 1
-32.373601 3.840906 -12.465041 34.902433 -0.118091 1.936000 0.171299 -0.045745 -976224.000000 0 0 1
-33.475131 3.100206 -12.037641 35.708549 -0.092349 1.914640 0.181701 -0.054682 -286214.000000 0 0 1
-34.179301 2.745106 -13.234241 36.754664 -0.080143 1.939139 0.172504 -0.037226 -321645.000000 0 0 1
-35.487315 1.996606 -13.022541 37.853963 -0.056203 1.921992 0.141613 -0.035375 -407993.000000 0 0 1
-35.282123 0.627406 -12.706241 37.505605 -0.017781 1.916419 0.168551 -0.029028 -1593.740000 0 0 1
-36.460921 -0.150994 -12.782141 38.636830 0.004141 1.907977 0.154443 -0.031603 -256170.000000 0 0 1
-36.319051 -1.622894 -12.338441 38.391983 0.044655 1.897983 0.168395 -0.036444 -86717.700000 0 0 1
-35.517111 -2.347294 -13.238541 37.976755 0.065993 1.926869 0.165317 -0.031501 210764.000000 0 0 1
-35.009688 -3.558994 -12.714941 37.416766 0.101309 1.917521 0.178676 -0.041653 104007.000000 0 0 1
-34.777733 -4.690094 -13.732741 37.683894 0.134050 1.943806 0.199945 -0.039849 -160806.000000 0 0 1
-34.956325 -5.926494 -13.167841 37.821422 0.167943 1.926402 0.198609 -0.046600 202416.000000 0 0 1
-35.301859 -6.953794 -14.096641 38.643133 0.194491 1.944204 0.192302 -0.047383 -592915.000000 0 0 1
-35.129415 -8.318894 -13.383441 38.501899 0.232524 1.925812 0.175924 -0.053847 410999.000000 0 0 1
-33.761771 -8.690194 -13.259741 37.298758 0.251929 1.934246 0.160520 -0.054132 862498.000000 0 0 1
-33.092031 -9.069794 -14.478541 37.242070 0.267509 1.970091 0.157636 -0.042995 44358.500000 0 0 1
-31.782381 -9.890294 -14.301641 36.228091 0.301689 1.976610 0.122821 -0.037269 332072.000000 0 0 1
-32.088141 -11.219794 -14.170241 36.828362 0.336368 1.965749 0.107090 -0.033848 516492.000000 0 0 1
-30.920151 -11.984294 -13.912141 35.961461 0.369761 1.968023 0.115978 -0.034205 119949.000000 0 0 1
-31.223091 -13.413694 -14.362441 36.892930 0.405767 1.970669 0.118049 -0.028817 9705.480000 0 0 1
-31.181351 -13.516394 -15.753641 37.458600 0.409029 2.004860 0.126041 -0.043578 112072.000000 0 0 1
-31.675951 -14.654594 -16.456141 38.586624 0.433316 2.011386 0.145984 -0.053188 -235045.000000 0 0 1
-30.917731 -15.971394 -16.160841 38.368793 0.476821 2.005562 0.124734 -0.035300 1468370.000000 0 0 1
-29.521371 -15.908094 -16.546841 37.394876 0.494256 2.029169 0.135085 -0.040665 1116720.000000 0 0 1
-28.745861 -17.075094 -16.257841 37.177960 0.535997 2.023388 0.136491 -0.043430 1256920.000000 0 0 1
-27.197211 -16.807594 -16.272041 35.874264 0.553542 2.041581 0.151023 -0.062383 923721.000000 0 0 1
-26.803731 -16.189894 -17.512041 35.877907 0.543368 2.080709 0.156836 -0.049733 -191681.000000 0 0 1
-25.414301 -16.357994 -17.709041 35.029713 0.571900 2.100808 0.118450 -0.029724 -151948.000000 0 0 1
-25.033391 -15.648694 -19.014941 35.115812 0.558680 2.143007 0.132738 -0.017490 -178397.000000 0 0 1
-25.544431 -16.275794 -20.150141 36.379219 0.567293 2.157827 0.130712 -0.034988 17955.400000 0 0 1
-26.833431 -15.889894 -20.565641 37.355954 0.534641 2.153797 0.122781 -0.042066 1445.890000 0 0 1
-27.602661 -16.977194 -21.361341 38.812870 0.551417 2.153601 0.141752 -0.052301 142557.000000 0 0 1
-27.014671 -17.058594 -22.644541 39.160736 0.563229 2.187374 0.134552 -0.028667 275597.000000 0 0 1
-27.763571 -17.990394 -23.399941 40.521937 0.574958 2.186415 0.136249 -0.022654 57813.800000 0 0 1
-27.171581 -18.360394 -24.799841 41.114851 0.594244 2.218284 0.113044 -0.019311 807090.000000 0 0 1
-25.838981 -18.887294 -24.781141 40.478238 0.631205 2.229648 0.111695 -0.022891 496563.000000 0 0 1
-25.843161 -20.299794 -24.599341 41.049703 0.665837 2.213370 0.099377 -0.029241 -1795670.000000 0 0 1
-24.523651 -20.931194 -24.460641 40.470326 0.706529 2.219821 0.089128 -0.012367 -1731850.000000 0 0 1
-23.733351 -20.886494 -25.601841 40.681345 0.721682 2.251482 0.095439 -0.022438 -845145.000000 0 0 1
-22.424551 -21.178594 -25.219201 39.842206 0.756831 2.256189 0.080438 -0.021905 -749370.000000 0 0 1
-21.400451 -21.131794 -26.342591 39.980796 0.779082 2.290127 0.061116 -0.026758 -453909.000000 0 0 1
-21.385451 -22.115594 -27.360121 41.170538 0.802181 2.297696 0.085739 -0.022889 240991.000000 0 0 1
-22.370351 -21.768694 -28.348501 42.165698 0.771768 2.308124 0.106104 -0.023002 306748.000000 0 0 1
-21.777351 -21.806394 -29.784361 42.858838 0.786065 2.339134 0.099797 -0.031896 164222.000000 0 0 1
-21.407351 -23.100294 -30.216601 43.645632 0.823417 2.335491 0.098838 -0.039539 -86355.000000 0 0 1
-20.681051 -23.003394 -31.411311 44.085513 0.838510 2.363863 0.093512 -0.036808 -76528.700000 0 0 1
-20.098351 -24.362594 -31.826321 44.837422 0.881016 2.360033 0.109628 -0.037379 -133108.000000 0 0 1
-19.391751 -24.335894 -33.046531 45.391066 0.897987 2.386255 0.109756 -0.036104 219182.000000 0 0 1
-20.228351 -24.164594 33.091958 45.696733 0.873835 0.760974 0.116264 -0.027832 307037.000000 0 0 1
-19.433551 -24.341494 31.759007 44.483769 0.897049 0.775679 0.122732 -0.032722 444162.000000 0 0 1
-18.543351 -23.243194 31.505792 43.321090 0.897400 0.756472 0.110823 -0.034214 148637.000000 0 0 1
-18.093851 -23.102794 30.160635 42.080761 0.906390 0.771691 0.111845 -0.028913 2682.990000 0 0 1
-17.281051 -21.814294 29.902455 40.849173 0.900836 0.749513 0.077375 -0.023179 58445.600000 0 0 1
-18.069251 -20.644294 29.661335 40.403954 0.851816 0.746427 0.069426 -0.026019 81456.600000 0 0 1
-17.375351 -19.425594 29.497245 39.361707 0.841052 0.723657 0.068762 -0.033800 -161514.000000 0 0 1
-16.533551 -18.797294 30.624825 39.554727 0.849383 0.685284 0.081133 -0.038965 -9801.110000 0 0 1
-16.000751 -17.554694 30.378895 38.562528 0.831675 0.663595 0.091091 -0.040048 -255970.000000 0 0 1
-15.445751 -17.054094 31.607724 39.095544 0.834846 0.629242 0.095971 -0.039225 -44477.200000 0 0 1
-14.825151 -15.666694 31.327464 38.034726 0.812990 0.602971 0.110633 -0.034753 -289876.000000 0 0 1
-13.765951 -15.780694 30.406515 36.920020 0.853481 0.603106 0.134385 -0.048133 -44431.100000 0 0 1
-13.319651 -14.471694 30.024625 35.893190 0.826828 0.579933 0.120169 -0.043376 -139796.000000 0 0 1
-11.857451 -14.426094 29.545475 34.952059 0.882817 0.563643 0.141017 -0.050313 -128770.000000 0 0 1
-11.403451 -13.108994 29.449725 34.193138 0.854865 0.533021 0.161842 -0.050353 -330118.000000 0 0 1
-10.084251 -12.952594 29.894845 34.105184 0.909272 0.502153 0.144044 -0.045015 -245392.000000 0 0 1
-9.663651 -11.448494 29.895905 33.439786 0.869739 0.464553 0.128171 -0.027402 68527.200000 0 0 1
-10.404151 -10.630594 30.799295 34.203106 0.796163 0.449919 0.128820 -0.023518 246293.000000 0 0 1
-10.002551 -9.284294 30.703065 33.599514 0.748175 0.418265 0.096027 -0.006288 -300919.000000 0 0 1
-10.756851 -8.337594 31.609604 34.415002 0.659370 0.406568 0.084061 -0.012200 -544293.000000 0 0 1
-12.100251 -8.121694 31.255636 34.486124 0.591135 0.436292 0.100225 -0.021915 51044.700000 0 0 1
-12.879151 -7.471094 32.279638 35.548063 0.525653 0.432177 0.072968 -0.022152 197013.000000 0 0 1
-12.487951 -6.061694 32.781687 35.599607 0.451902 0.400557 0.048425 -0.012691 -553176.000000 0 0 1
-12.665451 -5.122494 31.757150 34.571233 0.384333 0.406272 0.071663 -0.021077 360601.000000 0 0 1
-12.919551 -3.818094 32.285824 34.983812 0.287349 0.395305 0.073287 -0.024850 -485510.000000 0 0 1
-12.391551 -2.740194 31.363794 33.834106 0.217632 0.384496 0.073574 -0.019602 -6839.860000 0 0 1
-11.027551 -2.436594 31.606877 33.563947 0.217461 0.343174 0.078787 -0.016197 299856.000000 0 0 1
-10.651651 -1.348494 30.801995 32.619611 0.125930 0.335401 0.080856 -0.009311 -373351.000000 0 0 1
-9.157951 -0.990294 30.875475 32.220237 0.107716 0.289932 0.076327 -0.007540 -211998.000000 0 0 1
-8.723751 -0.501294 32.116157 33.283670 0.057400 0.265649 0.077390 -0.026580 1119170.000000 0 0 1
-7.310551 -0.198794 31.983257 32.808724 0.027186 0.224794 0.108841 -0.020899 866789.000000 0 0 1
-6.720351 0.502906 33.187274 33.864601 -0.074694 0.200340 0.133732 -0.038659 -632572.000000 0 0 1
-7.199351 1.766606 33.522685 34.332520 -0.240630 0.217630 0.140453 -0.033416 -64652.700000 0 0 1
-6.736651 2.873606 32.742378 33.551504 -0.403194 0.220061 0.149074 -0.037731 -282267.000000 0 0 1
-7.533751 4.145206 32.998385 34.100345 -0.503011 0.254915 0.144186 -0.042422 -593036.000000 0 0 1
-8.787951 4.036506 32.395171 33.807818 -0.430580 0.290100 0.094703 -0.021431 -702787.000000 0 0 1
-9.515651 5.172106 32.715690 34.461785 -0.497868 0.319692 0.085229 -0.016683 445255.000000 0 0 1
-10.941251 5.262006 32.047872 34.270480 -0.448278 0.362128 0.063253 -0.000611 698520.000000 0 0 1
-11.716451 6.339806 32.466806 35.093615 -0.495987 0.389370 0.074777 -0.002477 -602827.000000 0 0 1
-12.741951 6.590106 31.579489 34.685025 -0.477311 0.426390 0.053337 0.003023 -540102.000000 0 0 1
-13.548451 7.875906 31.877658 35.521479 -0.526567 0.456912 0.070548 -0.013691 87310.200000 0 0 1
-14.363151 7.797106 33.052340 36.872105 -0.497341 0.459205 0.060533 -0.017118 275796.000000 0 0 1
-15.138051 8.979906 33.078202 37.469544 -0.535405 0.489001 0.055563 -0.004822 763411.000000 0 0 1
-16.236751 9.169106 -33.105161 37.995477 -0.514069 2.628625 0.051812 0.004003 1245120.000000 0 0 1
-15.591751 9.417606 -31.816231 36.661513 -0.543364 2.621629 0.050959 0.000600 1344680.000000 0 0 1
-16.571451 10.114906 -30.971401 36.553413 -0.548018 2.581661 0.074022 -0.009822 -706318.000000 0 0 1
-15.924951 10.575606 -29.655761 35.283305 -0.586217 2.569009 0.093293 -0.012108 448690.000000 0 0 1
-14.932951 11.590906 -29.868481 35.347818 -0.660057 2.577339 0.084963 -0.016269 457528.000000 0 0 1
-13.681951 11.192706 -30.397071 35.163253 -0.685659 2.614863 0.084257 -0.022954 453090.000000 0 0 1
-12.602151 12.377706 -30.497241 35.243489 -0.776413 2.616604 0.090911 -0.025608 776829.000000 0 0 1
-13.080351 13.326606 -31.422771 36.552490 -0.794723 2.605403 0.091025 -0.031355 -43819.000000 0 0 1
-12.243651 14.400706 -31.790621 36.985550 -0.866179 2.605168 0.096952 -0.040872 -219328.000000 0 0 1
-12.329151 15.599606 -30.859521 36.710566 -0.901967 2.569217 0.105202 -0.043210 215401.000000 0 0 1
-13.631251 16.138306 -30.725181 37.286628 -0.869415 2.539279 0.099542 -0.038094 215763.000000 0 0 1
-13.687151 17.135006 -29.721111 36.936309 -0.896798 2.505896 0.092910 -0.031900 -243263.000000 0 0 1
-15.049751 17.843206 -29.640511 37.728436 -0.870121 2.474507 0.078721 -0.037179 -300616.000000 0 0 1
-15.341451 18.691306 -30.752841 39.121123 -0.883512 2.475259 0.064558 -0.037291 -496085.000000 0 0 1
-16.707551 18.860106 -30.984261 39.935827 -0.845844 2.458860 0.046198 -0.034125 -481966.000000 0 0 1
-17.266551 20.099606 -30.281111 40.237714 -0.861072 2.422730 0.034386 -0.028262 -827423.000000 0 0 1
-16.743351 21.272806 -30.769201 40.983116 -0.903985 2.420035 0.035001 -0.025142 -172904.000000 0 0 1
-17.268351 22.418706 -30.135911 41.339659 -0.914451 2.387631 0.026665 -0.010958 17725.100000 0 0 1
-18.667551 22.814306 -30.627781 42.509187 -0.885033 2.375316 0.031784 -0.010934 -223249.000000 0 0 1
-19.780851 22.073006 -30.200951 42.315447 -0.840109 2.365577 0.045277 -0.016986 888915.000000 0 0 1
-20.868551 22.071706 -31.166691 43.520331 -0.813410 2.369054 0.085812 -0.023042 241645.000000 0 0 1
-22.172551 21.382406 -30.722391 43.505110 -0.767259 2.354883 0.105763 -0.030954 86243.100000 0 0 1
-23.067651 22.086606 -29.849191 43.713944 -0.763675 2.322426 0.150508 -0.032682 320315.000000 0 0 1
-23.799251 23.079806 -30.505191 45.051620 -0.770053 2.314633 0.151935 -0.033055 144850.000000 0 0 1
-25.190381 22.687406 -31.142591 46.034059 -0.733167 2.313812 0.151928 -0.041959 536130.000000 0 0 1
-25.046601 21.773706 -32.197441 46.239612 -0.715608 2.341050 0.149168 -0.036200 156188.000000 0 0 1
-26.312861 21.525706 -32.778141 47.224243 -0.685661 2.337959 0.144400 -0.033709 5433.460000 0 0 1
-26.389991 20.580706 33.295605 47.207991 -0.662344 0.787956 0.132998 -0.027542 -140154.000000 0 0 1
-26.304681 19.192006 33.515805 46.728776 -0.630320 0.770961 0.117235 -0.029597 154460.000000 0 0 1
-25.884831 18.456006 32.397037 45.389609 -0.619401 0.775952 0.103019 -0.032549 -561203.000000 0 0 1
-25.614281 16.978906 32.821346 44.962377 -0.585369 0.752513 0.092561 -0.017217 -160762.000000 0 0 1
-26.715481 16.158306 33.176868 45.557791 -0.543963 0.755050 0.084358 -0.010123 321084.000000 0 0 1
-26.846771 15.162206 32.210997 44.589123 -0.514111 0.763535 0.078280 -0.011220 12915.100000 0 0 1
-27.862731 14.033206 32.571908 45.102016 -0.466567 0.763843 0.048144 -0.002872 -197868.000000 0 0 1
-29.234281 14.361906 32.678649 46.138938 -0.456639 0.783757 0.055060 -0.000059 183890.000000 0 0 1
-30.038201 13.175106 32.551798 46.211432 -0.413343 0.789205 0.052236 0.003535 -65287.200000 0 0 1
-29.918661 12.005706 33.561505 46.536414 -0.381608 0.765281 0.050929 -0.007828 -552542.000000 0 0 1
-28.742861 11.234506 33.483105 45.535530 -0.372604 0.744660 0.052560 -0.020173 -395465.000000 0 0 1
-29.129061 9.874906 33.555845 45.519344 -0.326847 0.741912 0.074118 -0.019191 -1456020.000000 0 0 1
-28.062291 8.890606 -33.236691 44.398341 -0.306813 2.416747 0.073844 -0.024300 534128.000000 0 0 1
-26.944191 8.708906 33.184859 43.624183 -0.312621 0.706407 0.070394 -0.016313 835618.000000 0 0 1
-26.196311 9.848006 32.762019 43.088047 -0.359587 0.706944 0.061199 -0.017402 -1127690.000000 0 0 1
-24.954321 9.467806 31.904338 41.596205 -0.362627 0.696642 0.058926 -0.015927 229939.000000 0 0 1
-25.264261 9.148006 30.559685 40.692299 -0.347407 0.721230 0.059061 -0.014430 950972.000000 0 0 1
-24.057351 8.841206 29.825935 39.325684 -0.352184 0.709889 0.079605 -0.017620 993395.000000 0 0 1
-24.346351 8.669906 28.299625 38.324677 -0.342105 0.740075 0.115028 -0.017352 -142640.000000 0 0 1
-24.646851 9.893106 27.667495 38.351416 -0.381708 0.764945 0.069492 -0.009554 185720.000000 0 0 1
-24.578451 9.798806 26.270065 37.285830 -0.379363 0.788995 0.076640 -0.011821 -478687.000000 0 0 1
-24.740551 11.142906 25.528025 37.255057 -0.423179 0.815886 0.073126 -0.010197 40021.800000 0 0 1
-25.947351 11.779606 25.865325 38.484272 -0.426160 0.833753 0.068113 -0.004570 176428.000000 0 0 1
-26.980361 11.536306 24.901375 38.485123 -0.404055 0.867102 0.070741 -0.007117 646037.000000 0 0 1
-28.326911 12.260406 25.207525 39.851609 -0.408474 0.885975 0.063456 -0.005074 456307.000000 0 0 1
-28.201831 13.641606 24.863855 39.995599 -0.450534 0.899930 0.073143 -0.008396 -61955.700000 0 0 1
-29.403551 14.307806 25.166325 41.262889 -0.452871 0.914859 0.064790 -0.014875 -27344.200000 0 0 1
-29.338571 15.739606 24.747135 41.483824 -0.492405 0.931602 0.082158 -0.019437 -355068.000000 0 0 1
-28.499051 16.543106 25.509835 41.672796 -0.525942 0.912025 0.101845 -0.026657 -82939.100000 0 0 1
-28.537611 17.894806 25.002175 41.949113 -0.560080 0.932271 0.086124 -0.029145 -597654.000000 0 0 1
-24.058551 -8.810394 30.470835 39.810912 0.351039 0.699151 0.082788 -0.026742 -1195290.000000 0 0 1
-22.905651 -8.596594 29.728505 38.501354 0.359038 0.688592 0.084332 -0.026684 -539289.000000 0 0 1
-23.041151 -8.875394 28.378025 37.616214 0.367681 0.716042 0.080603 -0.025023 -96828.200000 0 0 1
-21.801251 -8.583894 27.500715 36.128480 0.375093 0.705647 0.108943 -0.039078 -531036.000000 0 0 1
-21.511951 -7.153094 27.371705 35.540695 0.321016 0.691718 0.116343 -0.041455 -423667.000000 0 0 1
-20.591651 -6.624494 28.268545 35.595093 0.311251 0.653156 0.101684 -0.039869 677161.000000 0 0 1
-19.064151 -6.897494 27.925115 34.508395 0.347152 0.627962 0.103326 -0.028450 193046.000000 0 0 1
-18.704551 -8.235394 27.746305 34.460693 0.414748 0.634854 0.104682 -0.034560 -46836.700000 0 0 1
-18.370151 -9.007194 28.924105 35.428743 0.455871 0.615643 0.097453 -0.030245 -623155.000000 0 0 1
-16.982051 -8.621894 29.477065 35.094507 0.469794 0.573635 0.095568 -0.025622 -539175.000000 0 0 1
-15.932351 -9.135694 28.696935 34.070732 0.520635 0.569306 0.081256 -0.019199 -1588290.000000 0 0 1
-14.712751 -8.901694 29.246285 33.927133 0.544112 0.531531 0.093872 -0.029211 -928452.000000 0 0 1
-13.578451 -9.833194 28.764735 33.293783 0.626768 0.527701 0.111005 -0.027671 -84930.800000 0 0 1
-13.045451 -9.537394 27.496045 31.893230 0.631288 0.531342 0.116111 -0.021332 299544.000000 0 0 1
-12.126051 -10.570394 27.102225 31.516740 0.716963 0.535662 0.152144 -0.030805 210102.000000 0 0 1
-11.456351 -10.356894 25.742805 30.020080 0.735038 0.540368 0.134689 -0.030503 -320656.000000 0 0 1
-12.186251 -10.815994 24.655635 29.553185 0.725898 0.583971 0.106924 -0.035114 -654717.000000 0 0 1
-11.501751 -10.764494 23.442885 28.244176 0.752299 0.591675 0.094727 -0.041704 304377.000000 0 0 1
-12.415451 -11.108394 22.184865 27.743613 0.729892 0.644103 0.095075 -0.056003 -238365.000000 0 0 1
-12.805551 -12.461194 22.292185 28.569302 0.771770 0.675676 0.093751 -0.050439 -371614.000000 0 0 1
-14.019151 -12.721194 21.659465 28.766261 0.736897 0.718268 0.095691 -0.044807 148040.000000 0 0 1
-15.275851 -12.335794 22.519615 29.877357 0.679319 0.717069 0.099404 -0.042072 -132671.000000 0 0 1
-16.519751 -12.892894 22.134565 30.480614 0.662708 0.758040 0.067203 -0.026609 -93091.400000 0 0 1
-17.431351 -12.942194 23.174585 31.755531 0.638662 0.752795 0.060285 -0.023280 -129834.000000 0 0 1
-18.770851 -13.619794 22.756845 32.491808 0.627690 0.794857 0.089100 -0.030654 -279285.000000 0 0 1
-18.792051 -15.071894 22.629115 33.051172 0.675981 0.816647 0.081013 -0.036040 246252.000000 0 0 1
-20.129751 -15.545594 22.561325 33.998320 0.657602 0.845174 0.082106 -0.025506 25239.500000 0 0 1
-20.949151 -15.572194 23.830615 35.344849 0.639221 0.830873 0.083737 -0.026887 -1090770.000000 0 0 1
-20.695051 -16.550194 24.746455 36.257152 0.674569 0.819583 0.074643 -0.024837 204064.000000 0 0 1
-21.326251 -16.266394 26.005405 37.358876 0.651605 0.800849 0.075599 -0.027777 120037.000000 0 0 1
-20.733351 -17.172694 27.099475 38.198885 0.691739 0.782106 0.073526 -0.031079 46502.500000 0 0 1
-20.972551 -18.529994 26.763905 38.723574 0.723644 0.807713 0.085460 -0.022519 153300.000000 0 0 1
-20.748651 -19.357594 27.892575 39.789681 0.750728 0.793997 0.075969 -0.026657 -227687.000000 0 0 1
-20.942451 -20.870394 27.645925 40.477855 0.783675 0.818950 0.080792 -0.013255 990777.000000 0 0 1
-22.286451 -21.258794 27.263025 41.132648 0.761803 0.846234 0.087863 -0.013155 932640.000000 0 0 1
-22.253351 -22.586994 26.745265 41.481238 0.792839 0.870093 0.095363 -0.006206 -192119.000000 0 0 1
-23.608251 -23.171794 26.329005 42.278813 0.776068 0.898548 0.093712 -0.000900 49208.800000 0 0 1
-24.369451 -23.649294 27.471485 43.678847 0.770402 0.890604 0.087071 -0.002412 184873.000000 0 0 1
-25.525701 -24.321594 27.019535 44.420227 0.761247 0.916916 0.058649 -0.000575 -103369.000000 0 0 1
-26.188681 -25.146264 28.106605 45.914734 0.765095 0.912022 0.036517 0.000776 -285044.000000 0 0 1
-26.883641 -24.453094 29.121145 46.569572 0.738088 0.895248 0.030230 0.007669 74738.600000 0 0 1
-27.382891 -25.374704 30.055365 47.927271 0.747352 0.892967 0.017357 0.018954 -62618.700000 0 0 1
-28.665301 -24.839894 30.725385 48.813616 0.714024 0.889960 0.029192 0.009410 197552.000000 0 0 1
-29.767261 -24.583194 29.863735 48.808461 0.690304 0.912392 0.031382 0.002604 7280.830000 0 0 1
-30.758661 -23.850494 30.510805 49.455540 0.659565 0.905955 0.049799 -0.012904 -710524.000000 0 0 1
-31.898611 -23.515894 29.559685 49.439798 0.635263 0.929927 0.057970 -0.020210 -619320.000000 0 0 1
-32.813581 -24.556194 29.308815 50.385954 0.642447 0.949996 0.060493 -0.021371 -294515.000000 0 0 1
-33.996684 -24.032294 28.764145 50.603376 0.615343 0.966208 0.067665 -0.024292 -345679.000000 0 0 1
-35.223480 -24.726494 29.367975 52.101545 0.612060 0.971977 0.073529 -0.027157 -364642.000000 0 0 1
-35.437558 -26.129104 29.126645 52.791211 0.635342 0.986356 0.080957 -0.028628 -352558.000000 0 0 1
-36.504151 -26.658944 29.846115 54.166806 0.630773 0.987230 0.079939 -0.023683 -259912.000000 0 0 1
-36.207401 -28.109724 30.280635 54.936775 0.660155 0.987006 0.079695 -0.030519 -152591.000000 0 0 1
-35.344821 -28.253504 31.369095 55.059395 0.674355 0.964617 0.071144 -0.026690 -390344.000000 0 0 1
-35.120532 -29.605504 31.568092 55.735824 0.700398 0.968680 0.070151 -0.032038 185422.000000 0 0 1
-33.978348 -30.019784 32.529602 55.802245 0.723623 0.948449 0.059845 -0.026423 322894.000000 0 0 1
-34.433341 -30.014204 -33.435221 56.607609 0.716936 2.202659 0.061230 -0.014780 335668.000000 0 0 1
-33.308681 -30.194694 -32.586801 55.525556 0.736401 2.197996 0.052593 -0.019223 175852.000000 0 0 1
-33.593601 -29.786854 -31.135681 54.637142 0.725408 2.177135 0.067279 -0.024093 -53642.300000 0 0 1
-33.772491 -28.388964 -30.929041 53.880608 0.699008 2.182214 0.063812 -0.015595 274124.000000 0 0 1
-32.604741 -27.565194 -31.000251 52.762909 0.701838 2.198810 0.068207 -0.014514 267686.000000 0 0 1
-32.937181 -26.097234 -30.687331 52.034947 0.670049 2.201539 0.063886 -0.012191 -150803.000000 0 0 1
-33.326251 -25.783624 -29.400901 51.379443 0.658481 2.180020 0.056763 -0.020318 10825.200000 0 0 1
-33.435991 -24.402394 -29.173101 50.641012 0.630463 2.184717 0.059695 -0.013882 -4736.950000 0 0 1
-32.112201 -23.781294 -28.673371 49.182370 0.637438 2.193214 0.075043 -0.014694 -165453.000000 0 0 1
-32.122641 -22.370094 -28.716951 48.548413 0.608303 2.203729 0.077532 -0.009805 868223.000000 0 0 1
-30.923391 -21.843894 -28.119791 47.160730 0.615000 2.209624 0.092044 -0.008664 617297.000000 0 0 1
-30.860991 -20.356294 -28.480761 46.668332 0.583103 2.227211 0.103100 -0.018904 -95423.800000 0 0 1
-30.386421 -20.005594 -29.785001 47.018131 0.582239 2.256838 0.106133 -0.008309 463323.000000 0 0 1
-30.271631 -18.605194 -29.866381 46.416867 0.551092 2.269777 0.094819 -0.018611 -148994.000000 0 0 1
-29.639931 -18.172694 -31.223561 46.729894 0.550007 2.302544 0.107838 -0.018391 137313.000000 0 0 1
-30.579351 -18.017294 -32.261161 47.963549 0.532439 2.308538 0.106872 -0.022503 692782.000000 0 0 1
-31.471521 -16.868394 -32.127231 48.032887 0.492023 2.303469 0.097133 -0.024575 152080.000000 0 0 1
-32.037901 -16.476694 -33.520181 49.208851 0.475012 2.320172 0.095867 -0.037348 824692.000000 0 0 1
-33.129131 -17.183594 33.144486 49.913647 0.478484 0.844592 0.090245 -0.037388 1128610.000000 0 0 1
-34.429253 -16.848394 33.597835 50.971132 0.455102 0.851103 0.079761 -0.033903 439228.000000 0 0 1
-35.566806 -17.546494 32.793210 51.461362 0.458305 0.879885 0.085648 -0.033880 158660.000000 0 0 1
-35.737679 -18.938994 32.991736 52.195036 0.487315 0.886554 0.071055 -0.028328 67908.900000 0 0 1
-36.718361 -19.495194 32.142280 52.549279 0.488091 0.912639 0.070693 -0.023370 -116865.000000 0 0 1
-37.011831 -20.977094 32.524667 53.551546 0.515625 0.918073 0.065006 -0.024045 198616.000000 0 0 1
-35.828311 -21.757594 32.467628 53.020822 0.545751 0.911759 0.078793 -0.029966 285943.000000 0 0 1
-36.048311 -23.009294 33.097020 54.076992 0.568099 0.912165 0.086419 -0.033815 -1366300.000000 0 0 1
-34.726150 -23.713994 33.164935 53.555316 0.599147 0.902990 0.070152 -0.024102 -971214.000000 0 0 1
-33.843161 -23.433594 -33.122931 52.835796 0.605619 2.248368 0.048607 -0.028934 -340398.000000 0 0 1
-33.105551 -22.230294 -33.233331 51.909707 0.591340 2.265573 0.058164 -0.028708 -1405860.000000 0 0 1
-31.794691 -22.285094 -32.477281 50.619181 0.611334 2.267379 0.060858 -0.015472 -896191.000000 0 0 1
-30.790221 -23.054394 -33.175651 50.795340 0.642705 2.282499 0.068270 -0.011574 960727.000000 0 0 1
-29.533941 -23.018394 -32.486971 49.573212 0.662046 2.285420 0.078103 -0.012100 492669.000000 0 0 1
-29.290521 -23.557594 -31.077811 48.772176 0.677341 2.261661 0.076797 0.002122 -964733.000000 0 0 1
-29.269151 -24.938294 -31.070411 49.436546 0.705673 2.250408 0.075438 -0.005419 103059.000000 0 0 1
-28.875181 -25.347774 -29.769171 48.605444 0.720436 2.229972 0.069549 -0.008609 -97410.900000 0 0 1
-28.410661 -26.841044 -29.570171 49.010226 0.756997 2.218488 0.068986 -0.014144 586756.000000 0 0 1
-29.443071 -27.860274 -29.558091 50.167420 0.757784 2.200851 0.064442 -0.009808 607355.000000 0 0 1
-28.956961 -29.080134 -29.090711 50.303372 0.787520 2.187446 0.061222 -0.014412 -677001.000000 0 0 1
-29.934871 -30.200224 -29.315741 51.648453 0.789811 2.174386 0.070571 -0.005034 -551720.000000 0 0 1
-29.981751 -30.460184 -30.732731 52.642463 0.793314 2.194199 0.082254 -0.023392 248074.000000 0 0 1
-30.257271 -31.802704 -31.018931 53.750242 0.810295 2.185962 0.104715 -0.017188 -430578.000000 0 0 1
-29.894241 -32.241734 -32.466501 54.655912 0.823160 2.206839 0.081206 -0.034193 -9248.190000 0 0 1
-28.482771 -32.209324 -32.558761 53.933122 0.846722 2.218915 0.088982 -0.034093 83624.700000 0 0 1
-28.063441 -33.017424 -33.646751 54.861743 0.866326 2.231029 0.086226 -0.037262 -616302.000000 0 0 1
-26.704111 -32.552464 33.123384 53.571737 0.883775 0.904219 0.101881 -0.036866 -262141.000000 0 0 1
-26.234611 -33.434674 32.146494 53.287234 0.905484 0.923204 0.091536 -0.033320 -148660.000000 0 0 1
-25.195091 33.137508 32.590212 52.867844 -0.920723 0.906574 0.096799 -0.033368 -310749.000000 0 0 1
-24.819851 32.158718 31.503497 51.406988 -0.913493 0.911165 0.101292 -0.036154 -102895.000000 0 0 1
-25.900021 31.300070 31.194885 51.221346 -0.879525 0.915970 0.116272 -0.054295 221576.000000 0 0 1
-25.609211 30.396350 30.151345 49.888609 -0.870667 0.921817 0.112278 -0.045795 44652.400000 0 0 1
-26.964961 29.976750 29.524175 49.973908 -0.838241 0.938756 0.119196 -0.039005 29949.700000 0 0 1
-27.652461 29.155570 30.426425 50.403107 -0.811851 0.922710 0.126641 -0.045102 591160.000000 0 0 1
-28.753261 28.483590 29.763235 50.238581 -0.780687 0.936715 0.125893 -0.044123 728429.000000 0 0 1
-29.542641 27.569640 30.731445 50.766863 -0.750866 0.920598 0.117700 -0.060114 -182894.000000 0 0 1
-28.882071 26.335870 30.903755 49.827644 -0.739319 0.901782 0.128776 -0.060246 -570359.000000 0 0 1
-29.646561 25.298850 31.313113 49.994614 -0.706435 0.893960 0.142790 -0.054623 -341400.000000 0 0 1
-30.511271 24.717890 30.124055 49.491114 -0.680883 0.916405 0.136555 -0.050607 528439.000000 0 0 1
-29.719051 24.257820 29.039365 48.113912 -0.684564 0.922845 0.117729 -0.037300 585782.000000 0 0 1
-30.592441 23.606010 28.106535 47.781988 -0.657200 0.941935 0.120446 -0.029547 1006360.000000 0 0 1
-29.792821 23.395340 26.758615 46.378632 -0.665693 0.955795 0.122840 -0.038391 205495.000000 0 0 1
-28.703111 22.517400 26.905895 45.330222 -0.665214 0.935330 0.120395 -0.039564 23948.800000 0 0 1
-27.988601 22.419720 25.667695 44.100297 -0.675369 0.949573 0.101869 -0.035555 272386.000000 0 0 1
-26.555731 21.877550 25.927375 43.082047 -0.689107 0.925026 0.094173 -0.035641 -126552.000000 0 0 1
-26.582901 20.524750 26.324565 42.671989 -0.657498 0.905992 0.119455 -0.044847 113569.000000 0 0 1
-25.338601 19.924350 26.610585 41.798895 -0.666346 0.880671 0.104490 -0.037500 -167494.000000 0 0 1
-25.442271 18.456350 27.068195 41.480515 -0.627584 0.859849 0.113389 -0.034227 940579.000000 0 0 1
-24.127051 17.923150 27.358095 40.642579 -0.638919 0.832351 0.103579 -0.024959 1266910.000000 0 0 1
-24.313051 16.739750 28.093925 40.750611 -0.602972 0.810121 0.093843 -0.017949 210440.000000 0 0 1
-23.007051 15.936450 28.378725 39.857833 -0.605794 0.778456 0.100058 -0.020148 714338.000000 0 0 1
-22.054951 16.592350 29.227025 40.198830 -0.644983 0.756764 0.128243 -0.014138 331775.000000 0 0 1
-20.878951 15.855050 29.429665 39.413429 -0.649477 0.727722 0.119713 -0.016537 -39353.500000 0 0 1
-19.839951 16.398450 30.417775 39.846880 -0.690714 0.702287 0.103296 -0.026338 -229508.000000 0 0 1
-20.165351 16.240150 31.750289 40.969070 -0.677994 0.684110 0.089665 -0.026010 352470.000000 0 0 1
-19.041251 16.565450 32.545067 41.184520 -0.715978 0.659619 0.083792 -0.027977 -649588.000000 0 0 1
-19.249151 16.340450 -33.250491 41.750871 -0.703850 2.492119 0.070709 -0.034198 -462328.000000 0 0 1
-20.240951 17.074650 -32.616521 42.012821 -0.700749 2.459645 0.086550 -0.030733 614000.000000 0 0 1
-21.553851 16.509550 -32.816631 42.591841 -0.653642 2.450407 0.097831 -0.020128 533112.000000 0 0 1
-22.685451 17.231950 -32.017281 42.856458 -0.649619 2.414457 0.113381 -0.026857 216425.000000 0 0 1
-22.861951 16.808550 -30.665041 41.779670 -0.633974 2.394946 0.117359 -0.031989 172570.000000 0 0 1
-23.697451 17.733250 -29.972871 42.123750 -0.642424 2.362488 0.116763 -0.032491 -604331.000000 0 0 1
-23.838351 17.483450 -28.486171 41.053622 -0.632803 2.337656 0.111738 -0.028841 528369.000000 0 0 1
-24.639851 16.406450 -27.937841 40.704014 -0.587437 2.327276 0.088569 -0.022640 925311.000000 0 0 1
-25.951061 16.276650 -28.523341 41.856515 -0.560184 2.320546 0.105126 -0.024525 441163.000000 0 0 1
-26.827011 15.283550 -27.708741 41.485536 -0.517848 2.302198 0.101428 -0.018314 -52126.900000 0 0 1
-26.418671 13.961350 -27.894151 40.877244 -0.486160 2.321821 0.089579 -0.005947 -70959.600000 0 0 1
-27.246501 13.036650 -27.216101 40.657621 -0.446276 2.304194 0.058088 0.001388 149698.000000 0 0 1
-26.753141 11.588150 -27.395601 40.006683 -0.408754 2.325092 0.076882 -0.006498 169812.000000 0 0 1
-25.836061 11.149750 -26.413731 38.594094 -0.407412 2.324574 0.070662 -0.005714 -272053.000000 0 0 1
-25.261861 9.962450 -26.820921 38.167706 -0.375641 2.349999 0.064911 0.000725 -274679.000000 0 0 1
-24.056651 9.454850 -26.021861 36.677702 -0.374478 2.359547 0.106522 -0.002031 -209605.000000 0 0 1
-24.401351 8.562950 -24.939141 35.926463 -0.337495 2.338065 0.087287 -0.002931 450532.000000 0 0 1
-23.322551 8.138650 -24.104141 34.513600 -0.335748 2.343949 0.124680 0.003154 165594.000000 0 0 1
-23.898251 7.145850 -23.114541 34.006934 -0.290550 2.318151 0.105355 0.001901 393287.000000 0 0 1
-24.410251 5.933750 -23.734441 34.559997 -0.238459 2.327819 0.104588 -0.020648 398611.000000 0 0 1
-24.692351 4.870950 -22.827641 33.978515 -0.194765 2.307467 0.095320 -0.022672 -646034.000000 0 0 1
37.080649 24.783006 -10.095041 45.728348 0.589170 1.793391 0.072622 -0.018285 -457310.000000 0 0 1
38.118399 24.292506 -9.316441 46.151211 0.567389 1.774061 0.078931 -0.022180 -507005.000000 0 0 1
-37.689121 23.134506 -9.967741 45.332450 -0.550523 1.792489 0.093698 -0.030660 498297.000000 0 0 1
-36.526961 22.531206 -9.127341 43.876901 -0.552708 1.780348 0.099989 -0.029466 423986.000000 0 0 1
-37.094971 21.715306 -8.077241 43.735948 -0.529613 1.756545 0.092308 -0.020590 1034030.000000 0 0 1
-36.075871 21.188206 -7.189541 42.451125 -0.531046 1.740977 0.101741 -0.019896 547556.000000 0 0 1
-36.706781 20.297506 -6.093541 42.385230 -0.505116 1.715062 0.112701 -0.003472 -217439.000000 0 0 1
-37.240331 19.134606 -6.553341 42.378316 -0.474638 1.726058 0.105679 -0.000584 229593.000000 0 0 1
-38.009301 18.474206 -5.554841 42.624635 -0.452421 1.701488 0.111059 -0.009134 26042.800000 0 0 1
37.624299 17.157606 -6.028241 41.788886 0.427853 1.715556 0.109379 0.001634 304862.000000 0 0 1
36.520179 17.452706 -6.882041 41.057069 0.445805 1.739213 0.104104 -0.003440 218877.000000 0 0 1
36.024889 16.230606 -7.376441 40.194988 0.423302 1.755359 0.114020 0.002746 293721.000000 0 0 1
35.098819 16.399306 -8.623341 39.689121 0.437092 1.789815 0.075878 -0.010450 164167.000000 0 0 1
34.441769 15.265906 -9.113541 38.760031 0.417217 1.808146 0.088076 -0.009022 44759.600000 0 0 1
33.836919 15.469706 -10.400541 38.631854 0.428812 1.843381 0.079223 -0.003654 -430941.000000 0 0 1
33.182639 14.173106 -10.914041 37.697225 0.403668 1.864520 0.071089 -0.015089 -333124.000000 0 0 1
31.986639 13.761606 -10.303941 36.313883 0.406292 1.858495 0.076818 -0.004817 16486.500000 0 0 1
32.009649 13.521206 -8.909441 35.872257 0.399675 1.821789 0.081193 0.000249 -550116.000000 0 0 1
31.065279 12.277406 -8.644641 34.503856 0.376373 1.824036 0.090380 0.006883 450937.000000 0 0 1
31.492459 11.137106 -9.306741 34.676008 0.339917 1.842519 0.104836 -0.005439 886981.000000 0 0 1
30.499079 10.082106 -9.109741 33.389071 0.319262 1.847136 0.156686 -0.013983 430241.000000 0 0 1
30.890379 8.681106 -9.554841 33.479428 0.273963 1.860214 0.160683 -0.017427 96236.900000 0 0 1
32.102859 8.272506 -8.916841 34.329841 0.252201 1.833550 0.140912 -0.021245 473940.000000 0 0 1
32.227129 6.856206 -8.908441 34.131448 0.209621 1.834858 0.152302 -0.023643 -685102.000000 0 0 1
33.406889 6.376106 -8.094641 34.959951 0.188594 1.804457 0.168401 -0.027245 161629.000000 0 0 1
34.681439 6.657206 -8.666641 36.362498 0.189646 1.811453 0.146927 -0.024523 280055.000000 0 0 1
35.766969 6.516806 -7.799641 37.183051 0.180225 1.782129 0.141444 -0.012461 -173236.000000 0 0 1
37.153919 6.745506 -8.412941 38.687119 0.179599 1.790009 0.151048 -0.012728 -95960.600000 0 0 1
37.361649 5.801706 -9.382541 38.956189 0.154055 1.814036 0.151509 -0.025338 136873.000000 0 0 1
-37.599611 5.668906 -9.712141 39.245291 -0.149643 1.820867 0.147055 -0.030988 -185608.000000 0 0 1
-37.288581 5.727206 -11.255241 39.369018 -0.152400 1.860732 0.158062 -0.034330 503151.000000 0 0 1
-35.933331 5.471906 -11.682241 38.178800 -0.151118 1.881772 0.170295 -0.043948 1615550.000000 0 0 1
-35.081691 6.630906 -11.901041 37.634143 -0.186809 1.892549 0.163736 -0.041749 379511.000000 0 0 1
-34.461682 7.271906 -10.615941 36.785681 -0.207963 1.863549 0.168267 -0.040991 -1339210.000000 0 0 1
-35.348055 8.000906 -9.854341 37.558055 -0.222596 1.836280 0.185048 -0.036775 -183160.000000 0 0 1
-35.506750 9.343906 -10.267341 38.124220 -0.257324 1.843476 0.169920 -0.039862 142979.000000 0 0 1
-36.526811 10.193306 -9.456341 39.083676 -0.272140 1.815173 0.145332 -0.030798 371927.000000 0 0 1
-35.978971 10.465606 -8.182241 38.353152 -0.283070 1.785788 0.146798 -0.024954 143053.000000 0 0 1
-36.774111 11.483906 -7.616841 39.271256 -0.302687 1.765988 0.131780 -0.021080 357795.000000 0 0 1
-35.979741 12.590506 -6.828841 38.725904 -0.336615 1.748061 0.157030 -0.019143 633682.000000 0 0 1
-35.176832 13.473106 -7.634041 38.434524 -0.365775 1.770751 0.146850 -0.028282 287245.000000 0 0 1
-34.317327 14.236806 -6.783141 37.767401 -0.393249 1.751379 0.175357 -0.024612 37895.700000 0 0 1
-33.132261 14.870106 -7.533641 37.089385 -0.421864 1.775341 0.132977 -0.020620 -443479.000000 0 0 1
-33.393801 15.806906 -8.589141 37.931221 -0.442100 1.799217 0.117765 -0.019249 -307033.000000 0 0 1
-34.039429 17.013006 -8.278941 38.944396 -0.463490 1.785015 0.075631 -0.004289 117335.000000 0 0 1
-34.903550 17.616806 -9.422841 40.216907 -0.467423 1.807295 0.052803 -0.009500 -199291.000000 0 0 1
-34.154881 18.001506 -10.528741 40.018302 -0.485057 1.837028 0.039201 -0.001634 -539202.000000 0 0 1
-34.935725 18.525106 -11.586241 41.205891 -0.487564 1.855819 0.037270 -0.007579 -565479.000000 0 0 1
-34.340422 18.559006 -13.022441 41.149547 -0.495475 1.892798 0.016664 0.004319 -289115.000000 0 0 1
-33.519401 19.655906 -13.271441 41.061369 -0.530362 1.899916 0.018097 -0.005465 -233084.000000 0 0 1
-33.329341 19.843306 -14.699141 41.480917 -0.537009 1.933025 -0.001624 0.000103 -29345.800000 0 0 1
-32.437941 21.094706 -14.953341 41.482635 -0.576593 1.939571 0.009051 0.000384 863123.000000 0 0 1
-31.085141 20.919206 -14.468341 40.165060 -0.592350 1.939302 0.015127 0.001548 979651.000000 0 0 1
-30.427021 22.146606 -14.254241 40.242504 -0.629180 1.932864 0.006916 -0.001963 147770.000000 0 0 1
-29.577331 22.679606 -15.452141 40.347883 -0.654160 1.963809 0.005837 -0.008765 -609921.000000 0 0 1
-30.348881 23.129906 -16.548741 41.592162 -0.651222 1.980003 0.028817 0.004896 -148920.000000 0 0 1
-29.651891 23.782006 -17.560441 41.871082 -0.675984 2.003573 0.044501 0.001291 -341463.000000 0 0 1
-29.078051 25.203906 -17.303041 42.192003 -0.714148 1.993363 0.046521 -0.005827 26718.700000 0 0 1
-30.061611 26.197406 -17.200441 43.426486 -0.716820 1.978042 0.063725 -0.016340 474686.000000 0 0 1
-29.422111 27.496806 -17.244841 43.807756 -0.751586 1.975393 0.060866 -0.018221 356573.000000 0 0 1
-30.419871 28.526406 -16.712941 44.927127 -0.753287 1.951960 0.071879 -0.022203 -47646.900000 0 0 1
-30.500631 28.742706 -15.298141 44.614625 -0.755734 1.920794 0.068337 -0.027890 391294.000000 0 0 1
-29.325941 29.372306 -14.803041 44.066690 -0.786188 1.913382 0.067444 -0.025661 159005.000000 0 0 1
-29.299211 29.735606 -13.314041 43.816820 -0.792790 1.879535 0.097024 -0.031922 631357.000000 0 0 1
-30.471831 30.521906 -12.981141 45.040307 -0.786219 1.863155 0.087963 -0.028603 566615.000000 0 0 1
-30.358311 31.469106 -11.951341 45.329529 -0.803362 1.837605 0.091565 -0.033931 -314030.000000 0 0 1
-29.332101 32.616306 -12.062341 45.493908 -0.838364 1.839147 0.081292 -0.036249 -11206.100000 0 0 1
-29.552421 33.499706 -13.143641 46.565343 -0.847920 1.856948 0.074127 -0.037068 50064.300000 0 0 1
-28.699161 -32.774737 -13.027141 45.470118 0.851599 1.861367 0.105567 -0.038904 222626.000000 0 0 1
-28.807231 -31.903837 -14.277941 45.294271 0.836360 1.891491 0.082349 -0.031148 -168059.000000 0 0 1
-28.261741 -32.494437 -15.422741 45.743583 0.854953 1.914691 0.074906 -0.023728 -295578.000000 0 0 1
-28.486571 -31.798537 -16.615041 45.811475 0.840281 1.941942 0.062389 -0.006282 152132.000000 0 0 1
-27.648761 -32.267037 -17.881141 46.101528 0.862326 1.969110 0.065911 -0.006926 -71255.600000 0 0 1
-27.929651 -33.529237 -18.426341 47.368821 0.876258 1.970339 0.068010 -0.000345 -100714.000000 0 0 1
-27.566871 32.785106 -17.592841 46.306626 -0.871647 1.960507 0.070329 -0.018688 -490496.000000 0 0 1
-27.582951 31.342906 -18.280441 45.578190 -0.849120 1.983490 0.085233 -0.026313 203055.000000 0 0 1
-28.849461 30.820906 -18.634341 46.146054 -0.818425 1.986476 0.089896 -0.018037 296057.000000 0 0 1
-29.599081 31.400106 -19.709341 47.439755 -0.814915 1.999245 0.078644 -0.007132 813524.000000 0 0 1
-31.154161 31.267706 -19.713541 48.341234 -0.787217 1.990839 0.067799 -0.016833 919075.000000 0 0 1
-31.649481 30.027706 -20.279941 48.110589 -0.759110 2.005926 0.071824 -0.026917 -17785.500000 0 0 1
-33.042121 29.872006 -20.254541 48.932248 -0.735053 1.997564 0.094292 -0.028344 -393612.000000 0 0 1
-33.466721 28.486506 -20.759741 48.605239 -0.705184 2.012090 0.095971 -0.030994 -236837.000000 0 0 1
-34.861670 28.289806 -20.746041 49.457531 -0.681706 2.003660 0.113104 -0.032736 108244.000000 0 0 1
-35.269240 27.024106 -21.224541 49.241270 -0.653803 2.016432 0.111982 -0.028487 -131452.000000 0 0 1
-36.749251 26.623206 -21.131041 50.058200 -0.626951 2.006589 0.101881 -0.018166 -57338.800000 0 0 1
-37.590951 27.069006 -22.181741 51.359909 -0.624085 2.017382 0.112527 -0.025638 -382818.000000 0 0 1
37.965929 25.986406 -22.602741 51.260013 0.600225 2.027445 0.121743 -0.030916 20061.500000 0 0 1
37.056599 26.443506 -23.789541 51.365288 0.619794 2.052336 0.126443 -0.044362 222165.000000 0 0 1
37.859659 26.747606 -24.909341 52.623792 0.615071 2.063883 0.135169 -0.041370 129816.000000 0 0 1
37.027239 27.164706 -25.969611 52.757543 0.632949 2.085463 0.152140 -0.040798 276709.000000 0 0 1
37.877929 27.549706 -27.217671 54.171260 0.628833 2.097212 0.144128 -0.039922 234122.000000 0 0 1
-37.915211 26.409706 -27.818701 53.934366 -0.608404 2.112724 0.109282 -0.028482 -528549.000000 0 0 1
-37.186241 26.782906 -28.943171 54.201916 -0.624179 2.134107 0.077136 -0.023022 -853661.000000 0 0 1
-36.634251 25.496806 -29.707671 53.616240 -0.608025 2.158053 0.067165 -0.022793 1405560.000000 0 0 1
-35.535465 24.822906 -29.030551 52.170095 -0.609745 2.160915 0.063923 -0.022720 1068760.000000 0 0 1
-34.278232 25.489006 -28.971121 51.614072 -0.639387 2.166755 0.055170 -0.013851 -361828.000000 0 0 1
-33.265421 24.823106 -28.087851 50.116885 -0.641073 2.165722 0.059037 -0.026748 -1009820.000000 0 0 1
-32.702731 23.604806 -28.516401 49.394742 -0.625207 2.186235 0.072283 -0.028792 -77810.400000 0 0 1
-33.539141 22.487006 -28.291571 49.304689 -0.590631 2.181948 0.035318 -0.014942 -184900.000000 0 0 1
-33.021041 21.264606 -29.006671 48.825808 -0.572126 2.206924 0.049697 -0.018207 -475641.000000 0 0 1
-31.751891 20.751506 -28.733211 47.585764 -0.578868 2.219080 0.078299 -0.017771 -423272.000000 0 0 1
-31.617321 19.385106 -29.103421 47.142830 -0.550008 2.236160 0.061318 -0.019747 -363064.000000 0 0 1
-30.147251 18.928706 -29.100551 45.978198 -0.560664 2.256116 0.081006 -0.023208 -192352.000000 0 0 1
-29.497121 19.536606 -30.205331 46.520115 -0.584989 2.277455 0.101825 -0.025066 639822.000000 0 0 1
-28.287571 18.961606 -30.738931 45.876040 -0.590525 2.305063 0.117744 -0.030508 672367.000000 0 0 1
-28.408241 17.662806 -31.613971 46.026579 -0.556258 2.327961 0.099838 -0.027570 -366519.000000 0 0 1
-28.641231 16.582006 -30.723641 45.157780 -0.524802 2.319053 0.065120 -0.018914 169536.000000 0 0 1
-28.712211 15.293806 -31.414891 45.223743 -0.489432 2.338736 0.034005 -0.007544 -230252.000000 0 0 1
-29.227221 14.101806 -30.628751 44.622996 -0.449541 2.327309 0.049841 -0.008352 -181100.000000 0 0 1
-30.569771 14.148906 -30.218001 45.252956 -0.433480 2.301988 0.038546 -0.007922 -18117.900000 0 0 1
-31.271461 12.920106 -29.940031 45.180071 -0.391799 2.295191 0.047317 -0.005325 39541.800000 0 0 1
-30.872261 11.903706 -28.815881 43.876528 -0.368013 2.287296 0.034529 -0.011337 -469361.000000 0 0 1
-30.952181 12.461206 -27.554641 43.273287 -0.382742 2.261084 0.015573 -0.003577 235915.000000 0 0 1
-31.250351 11.460806 -26.607941 42.613578 -0.351511 2.245160 0.028304 -0.001603 -77604.100000 0 0 1
-31.208601 12.025906 -25.140181 41.840505 -0.367804 2.215370 0.018252 0.000831 -278987.000000 0 0 1
-29.915301 12.405106 -24.748441 40.759014 -0.393092 2.223315 0.016432 0.003772 -254590.000000 0 0 1
-29.850731 13.046106 -23.505341 40.171732 -0.412028 2.195826 0.012067 0.013156 -530432.000000 0 0 1
-28.430471 13.539606 -23.244441 39.139706 -0.444456 2.206674 0.035548 0.014657 -868884.000000 0 0 1
-28.069491 14.556906 -24.144441 39.783839 -0.478419 2.222939 0.039515 0.002946 1500490.000000 0 0 1
-26.682621 15.031406 -24.153241 39.003647 -0.513028 2.238591 0.067271 -0.007328 1412920.000000 0 0 1
-26.073181 15.622706 -22.930041 38.074486 -0.539821 2.217102 0.081294 -0.006022 -741150.000000 0 0 1
-26.792941 16.723506 -22.432441 38.739537 -0.558006 2.188369 0.102109 -0.006533 -27863.500000 0 0 1
-26.571461 16.829006 -21.025641 37.832995 -0.564581 2.160060 0.094879 -0.002409 -546972.000000 0 0 1
-27.827391 16.797106 -20.187541 38.262818 -0.543075 2.126572 0.078556 0.001689 -383173.000000 0 0 1
-28.608111 15.627506 -20.378141 38.443615 -0.499968 2.129490 0.074570 0.003392 772149.000000 0 0 1
-29.836801 15.594506 -19.659241 38.986011 -0.481611 2.099326 0.061674 0.009376 368800.000000 0 0 1
-30.890041 14.510406 -20.092641 39.603797 -0.439151 2.102893 0.033045 0.005987 368722.000000 0 0 1
-31.341391 14.548406 -21.430541 40.659648 -0.434593 2.125947 0.014019 0.009457 127636.000000 0 0 1
-32.327071 15.551306 -21.646341 41.898051 -0.448382 2.113722 0.016271 0.010610 -242446.000000 0 0 1
-32.795171 15.656606 -23.138641 43.081890 -0.445409 2.137774 0.002751 0.013096 -18419.800000 0 0 1
-33.709891 14.647706 -23.535441 43.644347 -0.409909 2.140349 0.020702 0.005942 101967.000000 0 0 1
-34.161073 14.822806 -24.852541 44.769892 -0.409393 2.159300 0.040704 0.002928 -539604.000000 0 0 1
-35.327298 13.928206 -25.243131 45.598558 -0.375550 2.157471 0.039323 -0.002881 -520204.000000 0 0 1
-35.136468 12.508306 -25.258231 45.044504 -0.342003 2.166075 0.060829 0.000476 -14130.500000 0 0 1
-34.920250 11.844006 -24.054941 44.026634 -0.326997 2.148823 0.059457 -0.000493 -262583.000000 0 0 1
-35.069452 10.315306 -24.300641 43.895252 -0.286071 2.157484 0.069377 -0.004024 -187200.000000 0 0 1
-36.374551 9.956106 -24.701941 45.082345 -0.267167 2.150683 0.093173 -0.001714 -111051.000000 0 0 1
-36.399651 8.971806 -25.737561 45.473618 -0.241664 2.172429 0.079410 -0.001907 909024.000000 0 0 1
-37.895741 8.839306 -26.212841 46.918371 -0.229156 2.163602 0.127446 0.001203 709855.000000 0 0 1
37.614669 8.063306 -25.416401 46.107198 0.211170 2.154653 0.111296 -0.000271 -419353.000000 0 0 1
36.743139 7.255306 -26.175561 45.693082 0.194952 2.180782 0.130513 -0.010124 112387.000000 0 0 1
35.623979 6.578706 -25.350241 44.215178 0.182613 2.181370 0.134079 -0.010270 176727.000000 0 0 1
36.184059 5.659606 -24.465241 44.043902 0.155154 2.159729 0.122735 -0.025168 1211100.000000 0 0 1
35.116269 4.904106 -23.807941 42.708555 0.138756 2.162109 0.122905 -0.016633 1217490.000000 0 0 1
35.740829 3.855606 -22.868141 42.605451 0.107461 2.137367 0.104637 -0.018184 216927.000000 0 0 1
36.321649 2.755306 -23.556841 43.379473 0.075713 2.144851 0.113675 -0.032164 253642.000000 0 0 1
37.206959 2.111606 -22.659341 43.614933 0.056692 2.117099 0.148813 -0.027125 -232685.000000 0 0 1
38.060219 0.975006 -23.213641 44.591524 0.025612 2.118331 0.162627 -0.034586 -257458.000000 0 0 1
37.417359 -0.185394 -23.659841 44.270546 -0.004955 2.134638 0.117440 -0.030681 -352847.000000 0 0 1
-37.972421 -1.096094 -24.146341 45.012797 0.028858 2.137001 0.138590 -0.034393 -67995.700000 0 0 1
-24.276951 29.065606 26.861745 46.429873 -0.874930 0.953853 0.086340 -0.027826 609444.000000 0 0 1
-25.663541 29.385706 26.556805 47.195349 -0.852911 0.973148 0.075841 -0.024873 1819090.000000 0 0 1
-26.159251 28.918906 25.287655 46.476607 -0.835461 0.995487 0.064794 -0.022179 -38899.500000 0 0 1
-26.240581 27.416906 25.063705 45.480151 -0.807318 0.987125 0.071384 -0.021146 -252356.000000 0 0 1
-27.294191 26.788006 25.807045 46.136468 -0.776039 0.977179 0.093170 -0.019995 534552.000000 0 0 1
-27.147471 26.524506 27.196155 46.692242 -0.773792 0.949050 0.095465 -0.023906 -300983.000000 0 0 1
-26.175681 25.369106 27.654765 45.755260 -0.769751 0.921776 0.084140 -0.017198 427979.000000 0 0 1
-24.790951 25.595206 27.698395 45.132105 -0.801359 0.910035 0.083373 -0.021531 -72085.400000 0 0 1
-24.348951 26.189506 28.940445 46.003380 -0.821801 0.890409 0.081481 -0.027484 -348499.000000 0 0 1
-22.922751 25.794406 29.312475 45.277203 -0.844276 0.866628 0.076259 -0.022991 -520988.000000 0 0 1
-21.835151 26.451806 28.653045 44.693051 -0.880717 0.874856 0.093763 -0.032599 879188.000000 0 0 1
-20.575951 26.059506 29.192015 44.211326 -0.902444 0.849600 0.112331 -0.040075 434930.000000 0 0 1
-20.005851 24.605006 29.031095 42.993544 -0.888130 0.829502 0.102649 -0.033112 -887129.000000 0 0 1
-19.534251 24.476906 27.745755 41.839369 -0.897234 0.845778 0.105578 -0.030933 -137638.000000 0 0 1
-20.476251 23.961506 26.813565 41.381130 -0.863668 0.865885 0.096752 -0.026363 -135271.000000 0 0 1
-20.536151 22.385406 26.808625 40.515951 -0.828456 0.847738 0.089699 -0.012897 -57554.500000 0 0 1
-21.059351 21.937306 28.016135 41.347859 -0.805814 0.826341 0.074329 -0.010970 -96442.500000 0 0 1
-21.189351 20.527506 28.102805 40.744751 -0.769534 0.809683 0.095663 -0.009658 142532.000000 0 0 1
-21.579751 20.079106 29.544775 41.734277 -0.749392 0.784239 0.096810 -0.020280 6833.660000 0 0 1
-20.580251 20.367506 30.488775 42.046967 -0.780203 0.759599 0.093414 -0.023642 -86005.300000 0 0 1
-20.976551 20.001106 31.782503 43.013805 -0.761598 0.739374 0.092413 -0.017151 150273.000000 0 0 1
-19.961951 20.444506 32.893734 43.571264 -0.797340 0.715232 0.104199 -0.015761 -101262.000000 0 0 1
-20.041051 21.834606 33.173182 44.484309 -0.828203 0.729170 0.069594 -0.007257 508203.000000 0 0 1
-19.256251 22.693206 32.291165 43.914737 -0.867146 0.744665 0.088124 -0.015364 170594.000000 0 0 1
-17.748751 22.788106 32.591459 43.549043 -0.909079 0.725172 0.079463 -0.016741 -70575.000000 0 0 1
-17.082951 21.539006 32.582670 42.630815 -0.900266 0.700843 0.088326 -0.036529 -41569.500000 0 0 1
-15.744951 21.643206 33.039685 42.520026 -0.941866 0.680850 0.070889 -0.033056 12443.500000 0 0 1
-14.933651 20.326506 33.209233 41.701726 -0.937167 0.649557 0.073502 -0.034793 314258.000000 0 0 1
-13.567151 20.501006 33.546525 41.590001 -0.986185 0.632418 0.057992 -0.042443 361360.000000 0 0 1
-13.307851 20.720206 -32.380451 40.680701 -0.999878 2.491398 0.066637 -0.040298 -560295.000000 0 0 1
-11.831451 20.617106 -31.982041 39.848453 -1.049815 2.502424 0.078068 -0.038882 -142623.000000 0 0 1
-11.105051 21.821706 -32.154501 40.415603 -1.100055 2.490787 0.074727 -0.037130 1232250.000000 0 0 1
-9.726751 21.615006 -31.712091 39.591348 -1.147942 2.499736 0.071253 -0.036448 1289570.000000 0 0 1
-8.827251 22.865406 -31.782041 40.135337 -1.202371 2.484664 0.084851 -0.031340 5259.670000 0 0 1
-8.711651 23.716306 -30.669671 39.736441 -1.218769 2.452506 0.084512 -0.032205 -171392.000000 0 0 1
-8.116951 23.196906 -29.515721 38.407800 -1.234197 2.447262 0.068676 -0.030825 -171702.000000 0 0 1
-7.767151 24.260806 -28.437971 38.178967 -1.260955 2.411121 0.081812 -0.031232 989841.000000 0 0 1
-6.535051 24.897006 -28.851781 38.665140 -1.314104 2.413126 0.093377 -0.026291 560293.000000 0 0 1
-6.118651 25.850706 -27.915201 38.535118 -1.338382 2.380974 0.122472 -0.030618 31546.500000 0 0 1
-4.844951 26.502006 -28.497861 39.216807 -1.389979 2.384265 0.118665 -0.039500 1168120.000000 0 0 1
-3.618851 25.695806 -28.364251 38.443481 -1.430882 2.400627 0.126430 -0.021092 2002580.000000 0 0 1
-2.523251 26.046806 -29.222771 39.227200 -1.474224 2.411274 0.139525 -0.022089 837426.000000 0 0 1
-1.728351 27.352006 -28.973411 39.882051 -1.507691 2.383978 0.151750 -0.039314 -332959.000000 0 0 1
-0.917451 27.303506 -27.815391 38.987423 -1.537207 2.365199 0.158921 -0.053558 649490.000000 0 0 1
-0.131551 28.533206 -27.714161 39.777329 -1.566186 2.341629 0.166372 -0.057611 -92686.000000 0 0 1
0.399149 28.805206 -26.301051 39.008262 1.556940 2.310736 0.175842 -0.066108 303686.000000 0 0 1
1.496249 28.007006 -25.854191 38.145384 1.517423 2.315536 0.207008 -0.069096 65541.800000 0 0 1
2.747949 28.499106 -26.216791 38.821005 1.474671 2.312201 0.189688 -0.066442 -537541.000000 0 0 1
3.878749 28.364606 -25.174561 38.122881 1.434893 2.292085 0.166781 -0.070911 80699.900000 0 0 1
4.382249 27.080806 -24.926841 37.066448 1.410366 2.308365 0.165426 -0.056723 -388063.000000 0 0 1
5.722049 27.087006 -24.545741 36.999205 1.362610 2.296167 0.117241 -0.043084 -479878.000000 0 0 1
6.207449 25.739306 -23.997841 35.734307 1.334149 2.307113 0.134270 -0.046350 -410153.000000 0 0 1
7.486149 25.774906 -23.434741 35.631100 1.288130 2.288564 0.114914 -0.042228 -633251.000000 0 0 1
7.880749 24.511106 -22.865941 34.434747 1.259717 2.297001 0.137038 -0.030772 174589.000000 0 0 1
9.357949 24.628906 -22.461341 34.621757 1.207686 2.276755 0.138926 -0.010362 -455502.000000 0 0 1
9.464949 25.411906 -21.285741 34.473657 1.214253 2.236292 0.139464 -0.017053 -31000.700000 0 0 1
10.752549 25.896806 -20.964541 35.011053 1.177249 2.212795 0.123010 -0.017768 122603.000000 0 0 1
11.804849 24.928306 -20.363741 34.284936 1.128530 2.206764 0.104958 -0.010980 -120446.000000 0 0 1
12.321249 23.948006 -21.172741 34.257921 1.095616 2.237042 0.113792 -0.018448 -284662.000000 0 0 1
12.795249 22.863406 -20.496741 33.265149 1.060583 2.234658 0.105546 -0.006549 -207062.000000 0 0 1
12.832049 21.585006 -21.380241 32.980125 1.034439 2.276115 0.125221 -0.019383 -161065.000000 0 0 1
11.578049 21.127906 -21.818341 32.503533 1.069491 2.306705 0.135797 -0.032326 -295378.000000 0 0 1
11.642449 20.314706 -22.996741 32.818958 1.050388 2.347196 0.161754 -0.037210 -31061.700000 0 0 1
10.703049 20.687506 -24.169041 33.565916 1.093351 2.374667 0.168691 -0.040894 907251.000000 0 0 1
9.311049 20.343806 -23.987041 32.801589 1.141570 2.390988 0.135183 -0.038147 610666.000000 0 0 1
8.805049 20.583106 -25.274021 33.763431 1.166573 2.416687 0.144970 -0.049403 -615622.000000 0 0 1
7.308249 20.298206 -25.468421 33.377659 1.225202 2.438797 0.122659 -0.053230 532439.000000 0 0 1
6.308849 21.125306 -24.805141 33.186973 1.280588 2.414991 0.137490 -0.053371 770040.000000 0 0 1
6.224049 21.102006 -23.409141 32.125089 1.283978 2.387199 0.129295 -0.050316 -594906.000000 0 0 1
4.788949 21.369206 -22.918241 31.698940 1.350334 2.378927 0.147368 -0.055686 -177381.000000 0 0 1
4.343249 22.685406 -23.129641 32.687486 1.381630 2.356891 0.148094 -0.055164 1445950.000000 0 0 1
2.894049 22.801706 -23.250141 32.693461 1.444549 2.361937 0.156392 -0.055860 1568280.000000 0 0 1
2.396149 24.134406 -23.799341 33.979696 1.471837 2.346753 0.153300 -0.044386 -56218.500000 0 0 1
1.010449 24.115706 -24.053441 34.075744 1.528921 2.354463 0.179082 -0.062093 -140854.000000 0 0 1
0.667349 24.727006 -25.337531 35.409895 1.543814 2.368207 0.172428 -0.050804 209178.000000 0 0 1
-0.850451 24.710606 -25.588391 35.582342 -1.536393 2.373348 0.181628 -0.046358 29833.000000 0 0 1
-1.502251 23.473106 -25.675281 34.820447 -1.506885 2.399953 0.180053 -0.045867 -52363.100000 0 0 1
-2.861051 23.637206 -26.034741 35.280460 -1.450342 2.400804 0.183568 -0.030090 547182.000000 0 0 1
-3.518151 22.312206 -26.698521 34.971745 -1.414406 2.439405 0.175334 -0.037480 207789.000000 0 0 1
-2.817451 22.037006 -27.926221 35.685312 -1.443635 2.469578 0.208665 -0.054594 327133.000000 0 0 1
-3.124051 20.694106 -28.382791 35.264551 -1.420964 2.506225 0.150558 -0.048295 794276.000000 0 0 1
-4.399151 20.641406 -29.336341 36.139190 -1.360815 2.517956 0.130683 -0.038786 754784.000000 0 0 1
-4.267251 20.973906 -30.740831 37.458148 -1.370081 2.533381 0.133300 -0.043647 -240043.000000 0 0 1
-3.755851 22.269406 -30.925861 38.294147 -1.403714 2.510846 0.153764 -0.044087 -146777.000000 0 0 1
-3.224951 22.480406 -32.339761 39.517453 -1.428312 2.529359 0.120923 -0.039532 354381.000000 0 0 1
-2.103351 21.685606 -32.746601 39.332295 -1.474106 2.554514 0.109306 -0.028730 493185.000000 0 0 1
-1.655151 21.930906 33.246365 39.862576 -1.495468 0.584434 0.111620 -0.011499 65173.200000 0 0 1
-0.597451 20.885806 32.808895 38.897268 -1.542199 0.567075 0.132226 -0.013808 -236268.000000 0 0 1
-1.080051 19.600506 32.626011 38.076278 -1.515749 0.541650 0.110180 -0.001651 -306661.000000 0 0 1
-0.146851 18.896306 31.850874 37.034715 -1.563025 0.535473 0.115990 -0.016634 -78886.200000 0 0 1
-0.499851 17.407906 31.547685 36.035281 -1.542090 0.504396 0.095721 -0.009727 -175829.000000 0 0 1
-1.513551 17.359706 30.591385 35.206293 -1.483829 0.517784 0.079159 0.001049 -370514.000000 0 0 1
-1.744251 16.032506 30.186665 34.224529 -1.462428 0.490668 0.065080 0.002480 753489.000000 0 0 1
-2.994351 15.825506 29.209435 33.355717 -1.383797 0.503923 0.063803 0.008441 1675710.000000 0 0 1
-4.220851 16.401206 29.687235 34.178166 -1.318912 0.518422 0.042772 0.001149 536954.000000 0 0 1
-4.354151 17.686506 29.085595 34.318260 -1.329412 0.559491 0.043986 0.000910 -62763.600000 0 0 1
-5.720351 18.356506 29.408365 35.135960 -1.268709 0.579041 0.032556 -0.010144 473653.000000 0 0 1
-6.759451 17.942306 28.548075 34.389084 -1.210508 0.591421 0.011514 -0.002161 -810325.000000 0 0 1
-7.999151 18.322406 29.053235 35.267371 -1.159160 0.602715 0.023615 -0.022110 -512127.000000 0 0 1
-9.182151 17.840306 28.157225 34.574814 -1.095469 0.619127 0.028928 -0.024363 45480.400000 0 0 1
-9.483351 16.465506 28.177165 33.985283 -1.048246 0.593302 0.043222 -0.026746 -104317.000000 0 0 1
-10.184051 16.065306 29.325425 34.954106 -1.005811 0.575410 0.049733 -0.034407 -943020.000000 0 0 1
-10.827851 14.712806 29.326485 34.550712 -0.936350 0.557094 0.052291 -0.030893 41304.800000 0 0 1
-9.942951 13.565006 29.319695 33.801127 -0.938274 0.520807 0.052598 -0.021186 496179.000000 0 0 1
-9.015851 13.429306 30.383695 34.420935 -0.979554 0.489199 0.046259 -0.024091 -27630.200000 0 0 1
-9.611451 13.292106 31.849108 35.824932 -0.944738 0.475594 0.087907 -0.038029 -389421.000000 0 0 1
-10.181651 12.032006 31.968304 35.642778 -0.868504 0.458069 0.102006 -0.026941 80872.600000 0 0 1
-10.473651 11.800106 33.318325 36.865304 -0.844880 0.442263 0.091955 -0.018587 -293271.000000 0 0 1
-11.131051 10.422406 33.565315 36.866749 -0.752532 0.426427 0.092347 -0.021606 -669061.000000 0 0 1
-10.261251 9.332506 33.437355 36.200078 -0.738034 0.393215 0.107427 -0.027638 -133453.000000 0 0 1
-10.128051 8.426506 -32.797191 35.344577 -0.693949 2.759609 0.151748 -0.039165 -128338.000000 0 0 1
-9.231151 8.971706 -31.662301 34.179042 -0.771146 2.755443 0.133646 -0.038792 -226845.000000 0 0 1
-9.848351 10.038806 -30.921001 33.968749 -0.794975 2.714751 0.119371 -0.031441 445222.000000 0 0 1
-8.943151 10.866006 -30.181001 33.300793 -0.882164 2.705277 0.114904 -0.033428 280533.000000 0 0 1
-8.130651 11.941806 -30.997651 34.198956 -0.973035 2.705459 0.088318 -0.035201 205209.000000 0 0 1
-8.630651 13.285606 -31.124631 34.924749 -0.994685 2.670761 0.090435 -0.031605 54317.200000 0 0 1
-7.726151 14.143706 -31.800521 35.651240 -1.070829 2.672523 0.059573 -0.027451 -768.439000 0 0 1
-8.289751 15.550106 -31.995391 36.527124 -1.081021 2.638167 0.062906 -0.024544 -196027.000000 0 0 1
-8.878151 15.784006 -33.223851 37.838878 -1.058424 2.642537 0.077392 -0.034173 -390339.000000 0 0 1
-9.324751 17.092506 -33.308061 38.581494 -1.071379 2.612602 0.096604 -0.035936 -311074.000000 0 0 1
-10.123651 17.273306 32.656807 38.305645 -1.040670 0.549985 0.064016 -0.041643 1250880.000000 0 0 1
-11.418951 16.671406 32.500247 38.270018 -0.970248 0.556261 0.071628 -0.041363 1389740.000000 0 0 1
-12.522851 17.237006 33.251145 39.491452 -0.942499 0.569847 0.077457 -0.061538 -619991.000000 0 0 1
-13.803951 16.848906 32.588026 39.197119 -0.884410 0.589195 0.087700 -0.057060 -1336600.000000 0 0 1
-14.014551 15.452606 32.556070 38.666372 -0.834161 0.569865 0.083815 -0.053708 -294064.000000 0 0 1
-15.361451 15.149106 32.373040 38.903513 -0.778439 0.587847 0.085528 -0.040303 -773899.000000 0 0 1
-15.588451 13.625706 32.396484 38.447260 -0.718314 0.568664 0.082721 -0.024676 -61158.300000 0 0 1
-15.177651 12.931806 31.222647 37.046543 -0.705671 0.568341 0.071511 -0.032296 -95309.200000 0 0 1
-13.850551 12.481906 31.293581 36.426967 -0.733469 0.537332 0.072835 -0.016630 -338412.000000 0 0 1
-13.329251 11.629106 30.094235 34.907993 -0.717384 0.531394 0.089780 -0.011800 288175.000000 0 0 1
-14.130351 10.444106 29.845075 34.633433 -0.636505 0.532104 0.076873 -0.004363 520532.000000 0 0 1
-13.988051 9.955106 28.534145 33.301158 -0.618526 0.541665 0.071582 -0.010608 -141500.000000 0 0 1
-14.964351 8.823006 28.258215 33.170830 -0.532739 0.551195 0.096934 -0.005380 -30186.600000 0 0 1
-14.305451 7.585106 28.356855 32.654111 -0.487534 0.518828 0.064618 -0.006963 304277.000000 0 0 1
-15.156951 6.531306 27.939325 32.449915 -0.406867 0.533567 0.090800 -0.003687 667844.000000 0 0 1
-14.448251 5.071306 28.076295 31.980438 -0.337564 0.499294 0.085024 -0.007845 969621.000000 0 0 1
-13.415951 4.769406 27.134915 30.643736 -0.341569 0.483235 0.076615 -0.016924 401649.000000 0 0 1
-13.949651 4.442006 25.832835 29.692752 -0.308279 0.515584 0.084125 -0.007840 -189343.000000 0 0 1
-12.923151 4.233806 24.706155 28.201543 -0.316594 0.503173 0.062235 -0.002263 -460576.000000 0 0 1
-12.169751 3.051706 24.803215 27.795957 -0.245695 0.468311 0.056474 -0.014982 -54657.400000 0 0 1
-11.461551 2.685806 23.622375 26.393130 -0.230179 0.462321 0.047819 -0.019661 -487062.000000 0 0 1
-10.613651 1.458006 23.909655 26.200133 -0.136516 0.421252 0.041404 -0.012768 -792373.000000 0 0 1
-9.354751 1.908306 24.331535 26.137647 -0.201232 0.373927 0.025968 -0.018454 -535770.000000 0 0 1
-8.568151 0.789306 24.691205 26.147501 -0.091862 0.335321 0.032971 -0.005765 146328.000000 0 0 1
-7.045551 1.084606 24.626635 25.637615 -0.152743 0.281764 0.048571 -0.016377 -193208.000000 0 0 1
-6.667151 1.131106 23.256695 24.219912 -0.168053 0.282970 0.046704 -0.017545 666725.000000 0 1 0
-5.294451 1.365806 22.886755 23.530835 -0.252465 0.234510 0.045987 -0.019284 774867.000000 0 1 0
-4.759351 2.791306 23.281685 23.926547 -0.530426 0.232696 0.071566 -0.025473 -524393.000000 0 1 0
-4.419051 2.978106 24.617675 25.187835 -0.593010 0.213177 0.075290 -0.027717 -82691.200000 0 0 1
-4.014951 4.316906 24.821105 25.511620 -0.821623 0.233194 0.077085 -0.037094 17103.400000 0 0 1
5.668949 -23.292394 13.397159 27.461910 -1.332056 1.061177 0.193356 -0.053972 186823.000000 0 0 1
4.995349 -24.465794 13.708159 28.485825 -1.369388 1.068742 0.226291 -0.062780 186165.000000 0 0 1
3.817049 -24.652094 12.888659 28.078695 -1.417179 1.093905 0.223901 -0.065215 700383.000000 0 0 1
3.036049 -25.875604 13.416659 29.304799 -1.453998 1.095242 0.197767 -0.072085 -65698.500000 0 0 1
2.553149 -25.627714 14.750059 29.679328 -1.471499 1.050680 0.207370 -0.065349 121310.000000 0 0 1
2.018549 -26.837094 15.326959 30.971274 -1.495723 1.053103 0.203642 -0.062166 214140.000000 0 0 1
1.562349 -26.709044 16.779459 31.581074 -1.512368 1.010646 0.189375 -0.066075 -428121.000000 0 0 1
2.645549 -26.642474 17.617759 32.050051 -1.471823 0.988797 0.216948 -0.062659 -559576.000000 0 0 1
2.176849 -26.199584 18.845959 32.346979 -1.487900 0.948849 0.199342 -0.064136 236108.000000 0 0 1
3.340049 -25.839434 19.787059 32.716357 -1.442247 0.921274 0.162916 -0.056340 92338.300000 0 0 1
2.977649 -24.849294 20.726759 32.495420 -1.451537 0.879111 0.148554 -0.042532 306798.000000 0 0 1
4.132749 -24.241494 21.290459 32.527116 -1.401937 0.857216 0.127735 -0.033529 346703.000000 0 0 1
3.750349 -22.980694 22.119759 32.116369 -1.409027 0.811050 0.128942 -0.037823 -154347.000000 0 0 1
3.228749 -21.830294 21.487259 30.800793 -1.423959 0.798726 0.144678 -0.038472 -33037.600000 0 0 1
4.198649 -21.028994 20.846459 29.906891 -1.373728 0.799528 0.131809 -0.026248 -105258.000000 0 0 1
3.593249 -19.984894 19.907559 28.436215 -1.392899 0.795290 0.091052 -0.019744 -144471.000000 0 0 1
2.938949 -18.953894 20.647659 28.181791 -1.416964 0.748575 0.044985 -0.020232 332750.000000 0 0 1
2.156949 -18.197794 19.696559 26.902910 -1.452819 0.749345 0.037768 -0.028256 153837.000000 0 0 1
1.710249 -16.788694 20.204659 26.325149 -1.469277 0.695858 0.058676 -0.037591 -1229630.000000 0 0 1
2.667849 -15.870294 20.307059 25.910621 -1.404250 0.670140 0.011272 -0.013580 -1516670.000000 0 0 1
2.157549 -14.630294 20.713759 25.451136 -1.424380 0.620025 0.036196 -0.021595 -277062.000000 0 0 1
3.146049 -13.478294 20.585859 24.806040 -1.341486 0.591917 -0.012019 -0.001109 -1107600.000000 0 1 0
3.551749 -13.041294 19.275459 23.542166 -1.304899 0.611543 -0.024776 -0.008522 -9728.000000 0 1 0
2.596449 -12.540394 18.321059 22.353171 -1.366634 0.610053 0.001539 -0.019590 174556.000000 0 1 0
1.633249 -11.459894 18.832359 22.105529 -1.429231 0.551137 0.014428 -0.026557 -670375.000000 0 1 0
2.157949 -10.124694 18.835359 21.492718 -1.360801 0.502544 0.024102 -0.020272 -433848.000000 0 1 0
1.676149 -9.338694 19.900059 22.046157 -1.393203 0.444899 0.034616 -0.027097 446088.000000 0 1 0
0.181749 -8.899894 19.870259 21.773111 -1.550378 0.421184 0.038867 -0.034164 256596.000000 0 1 0
-0.249051 -8.362494 21.084859 22.684017 1.541023 0.377734 0.040265 -0.035916 -3503.970000 0 1 0
-1.596251 -7.909994 20.990059 22.487743 1.371669 0.367022 0.041999 -0.034553 270131.000000 0 1 0
-2.060551 -7.373794 22.288359 23.566707 1.298305 0.330882 0.039629 -0.023544 -280879.000000 0 1 0
-2.247751 -8.430194 23.238359 24.822206 1.310227 0.359160 0.040674 -0.014930 -13323.800000 0 1 0
-2.451051 -7.880894 24.502459 25.855109 1.269268 0.324897 0.035400 -0.001557 -27828.100000 0 0 1
-2.579351 -8.874894 25.646559 27.261012 1.287954 0.345879 0.033843 0.000043 -548211.000000 0 0 1
-1.493751 -9.725894 25.671759 27.492972 1.418402 0.366026 0.031345 0.003386 -655399.000000 0 0 1
-1.619251 -10.599694 26.775359 28.842596 1.419204 0.380909 0.052233 -0.017618 -110033.000000 0 0 1
-0.550151 -11.696794 26.885059 29.324462 1.523797 0.410771 0.062268 -0.026241 -240371.000000 0 0 1
0.668249 -11.279494 27.436659 29.672273 -1.511621 0.390664 0.055272 -0.017054 -500318.000000 0 0 1
1.553849 -12.340394 27.747059 30.407221 -1.445540 0.421404 0.081265 -0.033669 14430.600000 0 0 1
2.667249 -11.665194 28.567759 30.972695 -1.346010 0.396669 0.122553 -0.043707 -433428.000000 0 0 1
2.220349 -11.166994 29.787859 31.889626 -1.374525 0.365088 0.124978 -0.050598 31407.500000 0 0 1
3.280049 -10.570094 30.516159 32.461078 -1.269904 0.347918 0.178395 -0.035061 -106875.000000 0 0 1
2.831249 -9.979594 31.868359 33.514185 -1.294356 0.314692 0.178515 -0.045183 -323086.000000 0 0 1
2.336649 -10.981594 32.770459 34.640415 -1.361144 0.330075 0.191834 -0.054210 61752.900000 0 0 1
2.140349 -10.582594 -33.194846 34.906593 -1.371236 2.827128 0.178816 -0.061130 180680.000000 0 0 1
3.437149 -10.497594 -32.323246 34.158538 -1.254375 2.812300 0.158598 -0.040414 80838.100000 0 0 1
4.325349 -9.527994 -32.865046 34.490616 -1.144652 2.833353 0.143697 -0.054357 554393.000000 0 0 1
5.115349 -8.901694 -31.822446 33.437629 -1.049226 2.829508 0.138871 -0.055217 9214.470000 0 0 1
4.321649 -7.782494 -31.140546 32.387922 -1.063890 2.863156 0.148952 -0.038935 -296175.000000 0 0 1
4.071649 -6.699194 -31.972746 32.919812 -1.024674 2.901144 0.159166 -0.047019 176658.000000 0 0 1
3.803249 -5.460894 -31.286546 31.986467 -0.962456 2.932012 0.152592 -0.040790 -36113.900000 0 0 1
3.791349 -4.283494 -32.267746 32.770873 -0.846271 2.966137 0.153176 -0.038377 342786.000000 0 0 1
2.704649 -4.242094 -33.212246 33.591127 -1.003206 2.991257 0.164519 -0.046825 488737.000000 0 0 1
2.704449 -3.069894 33.303859 33.554215 -0.848602 0.122234 0.159557 -0.028558 62176.700000 0 0 1
2.053749 -3.290594 31.924259 32.159046 -1.012825 0.120911 0.172032 -0.030994 1366970.000000 0 0 1
0.606249 -3.269994 32.005259 32.177586 -1.387480 0.103540 0.164914 -0.025584 907109.000000 0 0 1
0.109249 -3.771494 30.823459 31.053530 -1.541837 0.121803 0.154160 -0.013222 -915125.000000 0 0 1
-1.342751 -4.196994 30.772059 31.085967 1.261155 0.142233 0.126842 -0.011214 -189619.000000 0 0 1
-2.219851 -3.205894 30.182659 30.433508 0.965170 0.128482 0.115178 -0.008460 392988.000000 0 0 1
-3.566251 -3.624594 30.243759 30.668238 0.793512 0.166571 0.076412 -0.003730 -59434.500000 0 0 1
-4.591551 -2.530794 29.860659 30.317424 0.503753 0.173805 0.056459 -0.004794 -55465.000000 0 0 1
-4.714751 -2.372394 28.467159 28.952310 0.466193 0.183324 0.048381 -0.013207 638402.000000 0 0 1
-5.859351 -1.601194 28.039659 28.690038 0.266759 0.213332 0.026234 -0.017374 869230.000000 0 0 1
-5.756151 -0.028094 28.225059 28.806042 0.004881 0.201181 0.067746 -0.023175 -308453.000000 0 0 1
-7.016951 0.579806 28.172559 29.039058 -0.082442 0.244903 0.056754 -0.017776 -460303.000000 0 0 1
-7.029651 1.970206 28.334759 29.260148 -0.273260 0.252168 0.072418 -0.016741 -698403.000000 0 0 1
-8.336051 2.472506 28.944359 30.222160 -0.288338 0.291827 0.054205 -0.020257 -122652.000000 0 0 1
-9.397451 2.299606 27.992259 29.617003 -0.239989 0.332769 0.058174 -0.014892 371530.000000 0 0 1
-10.620451 2.648406 28.609359 30.631740 -0.244384 0.365409 0.063169 -0.013847 -542884.000000 0 0 1
-11.912851 2.089506 28.039759 30.537029 -0.173633 0.407230 0.070039 -0.009991 -482819.000000 0 0 1
-12.063751 0.730506 28.288159 30.761789 -0.060480 0.403767 0.075858 -0.007615 40747.200000 0 0 1
-12.433151 0.045006 27.129859 29.843165 -0.003620 0.429723 0.071963 -0.000489 -898091.000000 0 0 1
-12.557951 -1.477894 27.394059 30.171523 0.117147 0.432444 0.077536 -0.002878 564068.000000 0 0 1
-11.385951 -2.197194 27.847659 30.165538 0.190631 0.394571 0.076490 -0.006889 868847.000000 0 0 1
-10.202251 -2.142394 27.081659 29.018822 0.206985 0.367455 0.059916 -0.000510 -427495.000000 0 0 1
-10.155651 -2.810094 25.689159 27.766288 0.269948 0.389254 0.065130 -0.001635 -273438.000000 0 0 1
-11.013351 -2.198894 24.687259 27.121759 0.197066 0.426938 0.046662 -0.006265 650767.000000 0 0 1
-10.866151 -2.765494 23.376559 25.926525 0.249215 0.447235 0.040377 -0.003467 288529.000000 0 0 1
-9.602851 -2.396894 22.538059 24.615523 0.244604 0.413790 0.032167 -0.005761 761178.000000 0 1 0
-8.375751 -2.796194 23.133559 24.761532 0.322210 0.364635 0.032738 -0.007309 -219931.000000 0 1 0
-7.309351 -2.197994 22.432959 23.695895 0.292108 0.327957 0.029145 -0.006158 -327544.000000 0 1 0
-5.907551 -2.482694 22.985759 23.862273 0.397847 0.271880 0.024496 -0.000521 -119358.000000 0 1 0
-5.393151 -3.760294 22.696559 23.629636 0.608868 0.281958 0.024968 -0.007561 -99198.500000 0 1 0
-6.017851 -4.739594 23.505859 24.722534 0.667127 0.315031 0.031634 -0.003604 -262758.000000 0 1 0
-5.853451 -6.217994 23.066559 24.596595 0.815588 0.354573 0.048160 -0.010031 -56980.700000 0 1 0
-6.640351 -6.693894 21.993359 23.929278 0.789414 0.405010 0.050371 -0.019084 -158967.000000 0 1 0
-6.231551 -6.158094 20.760159 22.533055 0.779469 0.399334 0.038853 -0.021611 226233.000000 0 1 0
-7.406551 -6.195894 19.727759 21.964302 0.696629 0.455199 0.038600 -0.020051 174417.000000 0 1 0
-8.368951 -5.210794 19.975559 22.275877 0.556896 0.458460 0.043856 -0.020147 -807198.000000 0 1 0
-9.178951 -5.034994 18.864459 21.574803 0.501719 0.506651 0.042534 -0.023311 -151853.000000 0 1 0
-9.857751 -3.676194 18.922059 21.650265 0.356950 0.507448 0.035380 -0.023404 806481.000000 0 1 0
-8.840351 -2.641294 18.845959 20.983289 0.290334 0.455272 0.031589 -0.014638 344672.000000 0 1 0
-9.436951 -1.419694 18.682159 20.978433 0.149320 0.472263 0.027821 -0.014471 -232179.000000 0 1 0
-8.468651 -0.284994 18.330759 20.194455 0.033640 0.432997 0.014262 -0.008019 74784.500000 0 1 0
-7.415651 0.035806 19.243159 20.622617 -0.004828 0.367831 0.024388 -0.001386 501304.000000 0 1 0
-7.753451 0.882406 20.368859 21.812498 -0.113321 0.365861 0.031619 -0.002155 -254068.000000 0 1 0
-7.682951 2.382406 20.083459 21.634438 -0.300688 0.380956 0.028290 -0.011767 -249788.000000 0 1 0
-8.738051 2.695106 19.229859 21.293300 -0.299176 0.443875 0.019276 -0.015417 -73244.600000 0 1 0
-8.599851 4.041306 18.889859 21.145126 -0.439301 0.466065 0.014587 -0.014259 -232694.000000 0 1 0
-9.322651 4.394106 17.588059 20.385284 -0.440455 0.530049 0.009830 -0.012101 114243.000000 0 1 0
-10.713951 4.445606 17.936759 21.360700 -0.393316 0.574050 0.017386 -0.008850 -110585.000000 0 1 0
-11.432751 5.176406 17.030559 21.155210 -0.425155 0.635072 0.010886 0.005476 -673331.000000 0 1 0
-11.339951 6.724006 16.994559 21.508644 -0.535218 0.659780 0.013342 0.004397 -416899.000000 0 1 0
-10.145251 7.231106 16.422759 20.613637 -0.619237 0.648991 0.005113 -0.010300 103829.000000 0 1 0
-10.186451 8.632106 16.319559 21.085660 -0.702989 0.685718 0.001710 -0.011290 -185686.000000 0 1 0
-8.838651 9.231506 16.724059 21.048435 -0.807135 0.652528 0.001090 -0.008409 -268687.000000 0 1 0
-8.690551 9.500806 18.135759 22.241779 -0.829909 0.617391 0.021505 0.004037 -22439.800000 0 1 0
-8.090251 10.798506 18.410059 22.825209 -0.927807 0.632475 0.036783 0.002183 26541.100000 0 1 0
-8.899051 12.082906 18.166059 23.562585 -0.935992 0.690433 0.049988 -0.001273 102596.000000 0 1 0
-8.618651 12.490106 16.842459 22.670517 -0.966787 0.733369 0.032604 -0.008488 -332273.000000 0 1 0
-9.462251 13.540606 16.539859 23.376252 -0.960872 0.784772 0.046789 -0.016267 -452426.000000 0 1 0
-9.177151 13.933906 15.068559 22.481889 -0.988385 0.836246 0.046396 -0.019574 916007.000000 0 1 0
-7.992251 14.735906 14.931859 22.449575 -1.073833 0.843130 0.049764 -0.014112 529994.000000 0 1 0
-7.799051 15.178706 13.578359 21.808030 -1.096158 0.898696 0.039477 -0.016871 588331.000000 0 1 0
-6.772051 16.375406 13.334759 22.177250 -1.178664 0.925693 0.015477 -0.013285 -825544.000000 0 1 0
-5.479051 16.114006 13.624459 21.801538 -1.243042 0.895753 0.023910 -0.016272 -1946300.000000 0 1 0
-4.748451 17.342606 13.732859 22.625322 -1.303544 0.918556 0.029207 -0.016998 -1277020.000000 0 1 0
-3.283051 17.093706 13.754159 22.184456 -1.381045 0.902065 0.026445 -0.016520 -1379030.000000 0 1 0
-2.657651 16.503206 14.885859 22.383202 -1.411129 0.843241 0.043200 -0.022741 -86890.100000 0 1 0
-2.895951 15.082706 14.985259 21.457692 -1.381100 0.797688 0.026840 -0.019656 -390499.000000 0 1 0
-1.929151 14.330406 15.962359 21.537852 -1.436981 0.736044 0.030075 -0.020545 1006970.000000 0 1 0
-0.591751 14.488706 15.453759 21.191778 -1.529977 0.753595 0.055641 -0.025639 362571.000000 0 1 0
0.438349 13.981006 16.279259 21.463340 1.539453 0.709837 0.056407 -0.017060 199585.000000 0 1 0
1.311749 15.061306 16.904759 22.678944 1.483922 0.729670 0.052383 -0.024764 -450267.000000 0 1 0
0.643149 15.819506 17.872959 23.877041 1.530163 0.724936 0.048096 -0.027265 -198367.000000 0 1 0
1.406149 16.939206 18.324659 24.994141 1.487975 0.747842 0.086197 -0.031868 -212380.000000 0 1 0
0.551549 18.124106 18.856159 26.159934 1.540374 0.765836 0.097861 -0.032005 161309.000000 0 0 1
0.133849 19.026306 17.864759 26.099193 1.563761 0.816886 0.075661 -0.031997 1021720.000000 0 0 1
-1.072451 18.593906 17.160359 25.325115 -1.513183 0.826299 0.077309 -0.032155 293827.000000 0 0 1
-1.870551 19.680506 16.506259 25.754182 -1.476035 0.875106 0.072271 -0.025703 -388409.000000 0 0 1
-2.577551 20.500506 17.416159 27.022900 -1.445722 0.870432 0.065578 -0.026981 57744.400000 0 0 1
-3.125151 21.637906 16.760259 27.547629 -1.427359 0.916740 0.084737 -0.036052 -137771.000000 0 0 1
-4.000551 22.516606 17.702759 28.920402 -1.394960 0.912057 0.072490 -0.023105 -351727.000000 0 0 1
-5.156651 21.911306 18.181759 28.935666 -1.339660 0.891364 0.095912 -0.023736 -569927.000000 0 0 1
-5.614551 22.637006 19.264459 30.250233 -1.327677 0.880408 0.097754 -0.013483 -141925.000000 0 0 1
-6.905451 22.042906 19.860559 30.463368 -1.267207 0.860644 0.077349 -0.022681 210558.000000 0 0 1
-8.128951 22.551906 19.330859 30.795299 -1.224838 0.892174 0.071882 -0.023538 -269143.000000 0 0 1
-9.190451 21.914006 19.973359 31.042280 -1.173689 0.871833 0.033383 -0.021269 -267073.000000 0 0 1
-10.572751 22.385106 19.478159 31.500392 -1.129544 0.904159 0.052654 -0.029383 92723.100000 0 0 1
-11.062951 23.674706 19.939159 32.870209 -1.133658 0.919016 0.080129 -0.026827 323566.000000 0 0 1
-12.067451 24.170306 19.057259 33.060644 -1.107735 0.956439 0.061653 -0.028443 -37375.400000 0 0 1
-12.600351 25.544706 19.377859 34.449997 -1.112550 0.973399 0.081252 -0.031833 -177611.000000 0 0 1
-13.319251 25.568306 20.603459 35.435057 -1.090547 0.950295 0.078123 -0.037370 102894.000000 0 0 1
-13.858851 26.827206 20.903259 36.724828 -1.093960 0.965281 0.083072 -0.040703 -291374.000000 0 0 1
-14.902451 26.769106 22.049959 37.747434 -1.062821 0.946971 0.104838 -0.048477 -1420200.000000 0 0 1
-16.191051 26.488106 21.695959 37.874590 -1.022140 0.960834 0.085212 -0.047265 -1321270.000000 0 0 1
-16.971051 26.666306 22.860159 39.008913 -1.004025 0.944653 0.071648 -0.039648 -169907.000000 0 0 1
-18.398351 26.120906 22.724559 39.207227 -0.957155 0.952557 0.085377 -0.036424 -264466.000000 0 0 1
-18.395351 24.704406 22.629359 38.220211 -0.930748 0.937161 0.100112 -0.034587 643808.000000 0 0 1
-19.723351 24.153606 22.624759 38.526445 -0.886027 0.943136 0.103398 -0.021224 759609.000000 0 0 1
29.449649 24.449406 23.332935 44.827237 0.692892 1.023351 0.100834 -0.023981 141727.000000 0 0 1
29.179549 23.455506 24.337695 44.653446 0.677074 0.994365 0.092011 -0.027189 -13239.100000 0 0 1
28.675149 22.290106 23.737955 43.388979 0.660765 0.991905 0.096766 -0.019448 -409700.000000 0 0 1
28.253949 21.215106 24.748915 43.137862 0.644059 0.959760 0.117960 -0.021306 -64413.200000 0 0 1
27.006249 21.595506 25.285015 42.837313 0.674527 0.939419 0.110589 -0.025272 7373.470000 0 0 1
26.679649 20.766406 26.416545 42.905491 0.661407 0.907533 0.107867 -0.031220 -66263.800000 0 0 1
25.373549 21.186306 27.103595 42.746713 0.695707 0.884016 0.119377 -0.036918 -133740.000000 0 0 1
25.472349 22.379706 27.835435 43.869161 0.720859 0.883422 0.114634 -0.042884 940259.000000 0 0 1
24.252649 22.534206 28.613145 43.757211 0.748685 0.858059 0.135571 -0.038224 785260.000000 0 0 1
24.102549 23.770606 29.539025 44.928038 0.778464 0.853335 0.135486 -0.040716 -598786.000000 0 0 1
23.919749 24.954606 28.818585 45.004418 0.806569 0.875842 0.138739 -0.044306 -56614.200000 0 0 1
23.467549 26.019506 29.610665 45.875179 0.836921 0.869169 0.138553 -0.047029 423515.000000 0 0 1
21.992949 25.936306 30.126115 45.430877 0.867488 0.845817 0.155325 -0.043424 -1050680.000000 0 0 1
21.044349 25.974006 29.090945 44.314746 0.889862 0.854677 0.144629 -0.050736 -492797.000000 0 0 1
19.794349 26.371706 29.578065 44.296107 0.926917 0.839634 0.133772 -0.048114 -274133.000000 0 0 1
18.921549 25.317406 30.287905 43.776172 0.928979 0.806705 0.148531 -0.041493 -941071.000000 0 0 1
19.274149 24.956806 31.553933 44.609256 0.913175 0.785068 0.127373 -0.043785 -670525.000000 0 0 1
18.161549 24.485806 32.246213 44.375836 0.932617 0.757346 0.164247 -0.042996 -338235.000000 0 0 1
18.353149 23.925706 -33.640601 45.177069 0.916448 2.410790 0.163575 -0.050587 -258575.000000 0 0 1
18.702449 24.961306 -32.729361 45.211276 0.927770 2.380264 0.149228 -0.045010 249510.000000 0 0 1
19.142649 24.408006 -31.477211 44.192834 0.905716 2.363523 0.112490 -0.025837 -93567.200000 0 0 1
19.526749 25.571006 -30.582821 44.390080 0.918630 2.330844 0.074466 -0.006489 124617.000000 0 0 1
18.385149 26.379706 -30.251891 44.148381 0.962125 2.325719 0.106888 -0.028520 594188.000000 0 0 1
18.670049 27.597406 -29.660441 44.608624 0.976007 2.298161 0.095900 -0.023687 -439160.000000 0 0 1
17.957749 27.760306 -28.355241 43.556114 0.996613 2.279704 0.105872 -0.018330 -328270.000000 0 0 1
18.551549 26.997706 -27.311901 42.649455 0.968745 2.265791 0.061674 -0.004008 238438.000000 0 0 1
18.111649 27.385706 -26.002661 41.882539 0.986481 2.240619 0.083665 -0.011390 -143485.000000 0 0 1
18.849349 26.728306 -24.815841 41.055161 0.956575 2.219873 0.089190 -0.022697 -69911.300000 0 0 1
20.238649 26.937006 -24.837341 41.858078 0.926443 2.206036 0.064531 -0.009136 -447648.000000 0 0 1
20.861449 26.327606 -23.714041 41.118106 0.900719 2.185516 0.058838 -0.012526 1350740.000000 0 0 1
22.417749 26.572206 -23.578341 42.006854 0.869998 2.166749 0.065461 -0.013521 1322390.000000 0 0 1
23.064249 25.905206 -22.514041 41.351195 0.843348 2.146541 0.074058 -0.016709 436666.000000 0 0 1
24.476349 26.090506 -22.526841 42.276054 0.817309 2.132763 0.087109 -0.014774 690583.000000 0 0 1
25.213449 25.812506 -21.198141 41.849309 0.797138 2.101958 0.101631 -0.017126 152848.000000 0 0 1
25.051049 24.470706 -20.875741 40.769683 0.773680 2.108355 0.118919 -0.020198 169042.000000 0 0 1
25.489049 24.401006 -19.545341 40.337589 0.763593 2.076638 0.119700 -0.026620 -118898.000000 0 0 1
24.762649 23.254906 -18.765641 38.808874 0.754009 2.075491 0.110262 -0.024716 -94466.700000 0 0 1
25.110449 21.923506 -19.175941 38.456358 0.717743 2.092827 0.118300 -0.015507 223705.000000 0 0 1
25.075049 21.076406 -18.022541 37.386963 0.698972 2.073794 0.139494 -0.018747 -598334.000000 0 0 1
25.179449 19.526106 -18.327441 36.758245 0.659609 2.092772 0.164368 -0.021942 161970.000000 0 0 1
24.341049 19.044806 -19.361741 36.470102 0.663926 2.130451 0.141542 -0.025118 1454880.000000 0 0 1
22.921649 19.057706 -19.008141 35.354032 0.693613 2.138445 0.141481 -0.038084 1162230.000000 0 0 1
21.986149 18.930406 -20.252941 35.382660 0.710854 2.180223 0.120491 -0.020606 117616.000000 0 0 1
22.044749 19.872006 -21.334941 36.551981 0.733610 2.194059 0.111366 -0.015540 -174635.000000 0 0 1
21.841249 21.215306 -20.938441 36.953318 0.770861 2.173193 0.105534 -0.014766 5133.280000 0 0 1
21.558849 22.202606 -22.140341 38.051733 0.800108 2.191796 0.089315 -0.006923 447688.000000 0 0 1
20.223849 21.975706 -22.555341 37.425648 0.826888 2.217640 0.114862 -0.012695 -69322.500000 0 0 1
19.911849 22.620306 -23.848041 38.430314 0.848993 2.240244 0.102474 -0.013321 271146.000000 0 0 1
18.441949 22.593606 -24.343341 37.989140 0.886227 2.266333 0.113966 -0.017044 216982.000000 0 0 1
17.621849 23.404506 -23.507941 37.562265 0.925426 2.247003 0.125645 -0.024262 -243732.000000 0 0 1
16.268649 23.190506 -23.826241 37.015649 0.959050 2.270094 0.147409 -0.025573 19337.500000 0 0 1
15.299649 24.219406 -23.189041 36.856350 1.007386 2.251286 0.130500 -0.024555 -1080.540000 0 0 1
15.446649 25.532306 -23.698541 38.106672 1.026720 2.241963 0.124265 -0.027071 501187.000000 0 0 1
14.414649 26.436906 -23.248841 38.042091 1.071609 2.228290 0.130355 -0.025841 596388.000000 0 0 1
14.530449 27.857306 -23.740641 39.379963 1.090016 2.217878 0.119396 -0.034511 56956.400000 0 0 1
14.416149 27.908606 -25.168511 40.251330 1.093998 2.246292 0.131935 -0.042748 -276226.000000 0 0 1
14.061049 29.206606 -25.660151 41.342258 1.122112 2.240401 0.138944 -0.040540 -434633.000000 0 0 1
15.033449 30.356306 -25.525821 42.415533 1.110969 2.216554 0.112645 -0.038906 -647228.000000 0 0 1
16.102049 30.358306 -26.423841 43.348842 1.083125 2.226305 0.097797 -0.027256 -458563.000000 0 0 1
16.760049 31.596306 -26.485931 44.505397 1.083092 2.208208 0.099901 -0.033355 1127720.000000 0 0 1
18.276249 31.514006 -26.943331 45.311113 1.045257 2.207601 0.100709 -0.021067 1310350.000000 0 0 1
19.156049 30.988006 -25.959461 44.733705 1.017119 2.189907 0.067667 -0.021932 -182648.000000 0 0 1
20.425949 30.724106 -26.478391 45.412501 0.984074 2.193291 0.082814 -0.017881 23963.200000 0 0 1
21.394949 29.957906 -25.459731 44.759556 0.950625 2.175856 0.048201 -0.015554 65288.900000 0 0 1
21.821549 30.685806 -24.286641 44.806692 0.952641 2.143649 0.060631 -0.026014 482511.000000 0 0 1
22.597049 31.895006 -24.439141 46.099779 0.954400 2.129557 0.078129 -0.034803 698967.000000 0 0 1
24.029749 31.751306 -25.058641 47.047952 0.922950 2.132489 0.066390 -0.033126 134528.000000 0 0 1
24.026849 31.361206 -26.403401 47.517937 0.917050 2.159942 0.062518 -0.023332 280572.000000 0 0 1
25.331449 31.525006 -26.949651 48.598272 0.893904 2.158606 0.077330 -0.015712 -31184.200000 0 0 1
25.399849 30.969906 -28.362921 49.078944 0.883891 2.186954 0.052606 -0.008703 -240645.000000 0 0 1
24.616849 31.659706 -29.287981 49.659965 0.909898 2.201571 0.077087 -0.027041 73865.100000 0 0 1
23.313649 31.100406 -29.387271 48.727540 0.927535 2.218170 0.070838 -0.019465 -86505.800000 0 0 1
22.359149 31.896606 -30.293611 49.346002 0.959407 2.231791 0.086985 -0.023831 -365948.000000 0 0 1
21.498449 32.793106 -29.651921 49.161037 0.990510 2.218252 0.098249 -0.023119 159138.000000 0 0 1
20.618349 33.412606 -30.596691 49.776260 1.017910 2.232782 0.114516 -0.031607 1131390.000000 0 0 1
19.075949 33.140906 -30.363671 48.827902 1.048510 2.241900 0.118406 -0.033326 854244.000000 0 0 1
18.596549 31.798306 -30.383741 47.750766 1.041607 2.260487 0.116149 -0.030774 206534.000000 0 0 1
18.754149 31.079706 -31.629371 48.146478 1.027865 2.287550 0.123007 -0.033775 -573790.000000 0 0 1
18.219749 31.548606 -32.989991 49.148889 1.047075 2.306657 0.140190 -0.042056 -496963.000000 0 0 1
18.880649 32.706906 -33.460801 50.456375 1.047259 2.295833 0.136733 -0.041697 56094.600000 0 0 1
18.693949 33.073306 32.468622 49.975181 1.056337 0.863613 0.132236 -0.045163 -416719.000000 0 0 1
17.328649 33.682706 32.105845 49.654728 1.095642 0.867701 0.133665 -0.045756 -178146.000000 0 0 1
16.296049 32.712506 32.255626 48.745202 1.108622 0.847687 0.130016 -0.039787 415966.000000 0 0 1
14.963449 33.224706 32.305318 48.697223 1.147634 0.845454 0.113955 -0.036075 1298020.000000 0 0 1
14.212649 -33.563837 31.049975 47.881432 -1.170238 0.865215 0.124974 -0.037791 31791.200000 0 0 1
14.839949 -32.311037 30.624385 46.926327 -1.140249 0.859778 0.141943 -0.028711 324831.000000 0 0 1
14.126949 -31.691837 29.602425 45.609723 -1.151474 0.864478 0.135919 -0.036439 -307780.000000 0 0 1
14.760449 -30.370937 29.226645 44.659394 -1.118407 0.857362 0.142498 -0.033638 -79053.400000 0 0 1
14.294349 -29.301937 30.042095 44.333502 -1.116932 0.826249 0.146733 -0.038874 103103.000000 0 0 1
14.850749 -28.071537 29.784685 43.539447 -1.084194 0.817448 0.160514 -0.043077 -688353.000000 0 0 1
14.270149 -27.019637 30.726995 43.334123 -1.084891 0.782616 0.139438 -0.036414 -477402.000000 0 0 1
12.919649 -26.697637 30.633025 42.638755 -1.120091 0.769252 0.109638 -0.034139 -379794.000000 0 0 1
12.435649 -25.912537 29.562025 41.231278 -1.123351 0.771335 0.102075 -0.036342 -584684.000000 0 0 1
12.546249 -24.387937 29.835765 40.525951 -1.095660 0.743338 0.106677 -0.035568 189602.000000 0 0 1
11.668749 -23.962237 30.875945 40.788142 -1.117632 0.712112 0.113559 -0.036970 690784.000000 0 0 1
12.328749 -22.815537 31.425385 40.744345 -1.075379 0.689943 0.114558 -0.035666 466029.000000 0 0 1
11.503749 -22.060837 32.485697 40.918667 -1.090132 0.653585 0.104034 -0.031653 -353548.000000 0 0 1
11.371949 -22.620337 -33.503071 41.993531 -1.104966 2.494459 0.106048 -0.032144 174137.000000 0 0 1
12.541349 -22.800737 -32.724351 41.809595 -1.067921 2.469788 0.119347 -0.026755 219647.000000 0 0 1
13.217949 -21.535537 -32.142801 40.885856 -1.020311 2.475366 0.116988 -0.026682 -79127.700000 0 0 1
13.668549 -20.593637 -33.096041 41.307082 -0.984832 2.500127 0.101427 -0.029904 -72952.000000 0 0 1
14.567049 -19.668037 -32.562271 40.734900 -0.933309 2.497043 0.110095 -0.033771 -374024.000000 0 0 1
14.944849 -18.573037 -33.530251 41.141025 -0.893225 2.523539 0.094676 -0.028602 -1305630.000000 0 0 1
15.819849 -18.989037 32.801703 41.070706 -0.876193 0.645724 0.130476 -0.020434 -326955.000000 0 0 1
15.970449 -18.033037 31.774648 39.873223 -0.845982 0.648664 0.107690 -0.020811 -178058.000000 0 0 1
17.016849 -16.945237 32.049034 40.048156 -0.783290 0.643064 0.103419 -0.020689 -1158930.000000 0 0 1
16.829649 -16.136537 33.193817 40.564201 -0.764376 0.612344 0.086092 -0.019787 173756.000000 0 0 1
17.579849 -14.937437 33.105049 40.349999 -0.704315 0.608603 0.094383 -0.019286 505025.000000 0 0 1
19.084149 -14.957537 33.527975 41.377020 -0.664764 0.626125 0.099408 -0.011960 449212.000000 0 0 1
19.814249 -15.743337 32.583985 41.257402 -0.671407 0.660357 0.102892 -0.008909 296012.000000 0 0 1
21.216649 -15.509237 32.731394 41.976503 -0.631226 0.676522 0.104144 -0.010289 945363.000000 0 0 1
22.141349 -16.348937 31.776306 42.038800 -0.636029 0.713798 0.108330 -0.018183 64621.600000 0 0 1
21.971149 -15.777037 30.513655 40.776580 -0.622757 0.725281 0.098423 -0.002529 112016.000000 0 0 1
22.632149 -16.482437 29.527055 40.690686 -0.629452 0.758823 0.084385 -0.012499 -720526.000000 0 0 1
22.809249 -15.548437 28.310865 39.541381 -0.598319 0.772768 0.058350 -0.002399 -205992.000000 0 0 1
23.721849 -14.458337 28.574985 39.853474 -0.547372 0.771306 0.044737 0.000449 652538.000000 0 0 1
23.663249 -13.565137 27.489015 38.724776 -0.520524 0.781503 0.034980 -0.012680 -54295.700000 0 0 1
24.468049 -12.257937 27.577345 38.851672 -0.464429 0.781566 0.021385 -0.002236 -9882.390000 0 0 1
23.815749 -11.243937 28.325685 38.677648 -0.441097 0.749025 0.034571 -0.010436 222349.000000 0 0 1
24.553249 -10.022337 28.373885 38.837954 -0.387545 0.751638 0.042796 -0.007532 123558.000000 0 0 1
23.695149 -8.773437 28.025555 37.734136 -0.354611 0.733687 0.061789 -0.004328 466572.000000 0 0 1
22.680249 -8.605737 29.018935 37.822626 -0.362655 0.696274 0.071127 -0.004632 283711.000000 0 0 1
21.880749 -7.418037 28.820225 36.937783 -0.326861 0.675752 0.088564 -0.011856 -83618.500000 0 0 1
20.785149 -7.313937 29.879555 37.125516 -0.338351 0.635415 0.071585 0.003119 -536832.000000 0 0 1
21.125049 -6.990537 31.233558 38.349322 -0.319570 0.619018 0.096655 -0.005796 105367.000000 0 0 1
21.642649 -8.048937 32.013779 39.472417 -0.356052 0.624866 0.108944 -0.011853 -113595.000000 0 0 1
21.848649 -7.786137 33.543515 40.781795 -0.342336 0.604983 0.127561 -0.016482 518621.000000 0 0 1
20.559549 -7.611237 -33.170001 39.760218 -0.354560 2.557569 0.110663 -0.027677 741220.000000 0 0 1
20.672449 -7.187537 -31.870061 38.661501 -0.334613 2.539824 0.125716 -0.038177 -587446.000000 0 0 1
19.371749 -6.560937 -31.399611 37.473272 -0.326560 2.564258 0.126947 -0.037569 -579773.000000 0 0 1
19.518949 -5.693237 -30.269681 36.464447 -0.283804 2.550110 0.117024 -0.037922 795164.000000 0 0 1
18.266949 -5.280737 -29.699381 35.265009 -0.281415 2.572104 0.131470 -0.031432 529040.000000 0 0 1
18.388049 -4.272737 -28.543841 34.221740 -0.228313 2.557268 0.118595 -0.024877 -652742.000000 0 0 1
18.830949 -4.721637 -27.315351 33.511593 -0.245673 2.523701 0.112686 -0.025433 34247.400000 0 0 1
18.072749 -5.697637 -26.620701 32.676430 -0.305398 2.522966 0.105871 -0.023398 75266.000000 0 0 1
16.633749 -5.366237 -26.151681 31.454547 -0.312070 2.552440 0.119559 -0.026784 36539.100000 0 0 1
16.524049 -4.403537 -25.107041 30.377604 -0.260440 2.543655 0.114210 -0.028356 -116682.000000 0 0 1
15.228449 -4.416937 -24.550941 29.226079 -0.282299 2.568145 0.120332 -0.027372 -120073.000000 0 0 1
15.080349 -3.330137 -23.439641 28.069975 -0.217338 2.559008 0.135197 -0.027560 90456.500000 0 0 1
15.234049 -1.992037 -23.867141 28.384589 -0.130024 2.569645 0.125540 -0.037377 301921.000000 0 0 1
14.738249 -1.091037 -22.896941 27.252087 -0.073893 2.568430 0.130041 -0.034835 -23748.900000 0 0 1
14.940049 0.349963 -23.425641 27.786475 0.023420 2.573742 0.098295 -0.037603 -80618.100000 0 0 1
14.134549 0.739963 -24.539541 28.328821 0.052304 2.618422 0.104416 -0.039505 83940.900000 0 0 1
14.637549 1.936963 -25.188621 29.197197 0.131564 2.611394 0.103886 -0.023266 -291601.000000 0 0 1
13.999149 2.528963 -26.460581 30.042206 0.178724 2.648304 0.075246 -0.018666 -613463.000000 0 0 1
12.691749 2.968963 -26.209361 29.271587 0.229796 2.680093 0.079652 -0.028180 -215751.000000 0 0 1
12.151649 3.679963 -27.300641 30.108632 0.294057 2.706279 0.071037 -0.025381 215350.000000 0 0 1
10.718649 4.231963 -27.045031 29.397834 0.376035 2.738792 0.070161 -0.029198 191766.000000 0 0 1
10.657649 5.293963 -26.108001 28.692146 0.461027 2.713925 0.061799 -0.032818 320271.000000 0 0 1
9.938149 6.418963 -26.667431 29.173991 0.573481 2.724036 0.064832 -0.039828 61511.200000 0 0 1
9.006249 5.039506 -31.572211 33.216165 0.510151 2.825661 0.073432 -0.045430 -176414.000000 0 0 1
8.858049 4.240706 -30.432661 31.978047 0.446496 2.829436 0.070480 -0.022444 456925.000000 0 0 1
8.556449 2.879706 -30.738331 32.036706 0.324646 2.855920 0.059213 -0.020226 -103306.000000 0 0 1
8.041249 2.101506 -29.540821 30.687752 0.255624 2.867332 0.063692 -0.022771 695999.000000 0 0 1
9.159249 1.809406 -28.649571 30.132436 0.195038 2.826567 0.091312 -0.026653 1417940.000000 0 0 1
8.793349 0.818906 -27.682121 29.056727 0.092860 2.832771 0.092485 -0.024715 -130490.000000 0 0 1
9.965849 0.294906 -26.819881 28.613129 0.029583 2.785677 0.088891 -0.035287 -195030.000000 0 0 1
10.821949 -0.545294 -27.551051 29.605275 -0.050345 2.766880 0.131924 -0.030940 -527858.000000 0 0 1
11.839949 -0.901094 -26.678761 29.201929 -0.075960 2.722838 0.114075 -0.027494 -226908.000000 0 0 1
12.733949 -2.113694 -27.164261 30.075210 -0.164489 2.697989 0.114690 -0.026490 406073.000000 0 0 1
12.060349 -3.344894 -27.015451 29.773729 -0.270546 2.707754 0.121341 -0.020140 325677.000000 0 0 1
12.854749 -4.428294 -27.473631 30.653789 -0.331755 2.682050 0.130891 -0.025672 285997.000000 0 0 1
12.253849 -5.729994 -26.845071 30.060730 -0.437400 2.674826 0.104316 -0.025746 181035.000000 0 0 1
12.465149 -5.698194 -25.429251 28.887647 -0.428767 2.647251 0.127409 -0.022631 84630.300000 0 0 1
12.087349 -6.920594 -24.761941 28.410427 -0.519990 2.629211 0.123218 -0.025189 137906.000000 0 0 1
11.871349 -6.729994 -23.263641 26.970701 -0.515734 2.611089 0.137810 -0.030141 578558.000000 0 0 1
13.125849 -6.535894 -22.611541 26.949724 -0.461999 2.566288 0.119419 -0.029361 514802.000000 0 0 1
12.863649 -6.528994 -21.234041 25.670717 -0.469672 2.544849 0.154069 -0.045166 477440.000000 0 0 1
14.134349 -6.499494 -20.331641 25.600759 -0.431004 2.488455 0.148803 -0.047829 423476.000000 0 0 1
14.670249 -5.209994 -20.190541 25.495454 -0.341247 2.484755 0.134922 -0.049652 -793990.000000 0 0 1
15.928149 -5.234494 -19.617141 25.805776 -0.317513 2.434393 0.128394 -0.040629 -477573.000000 0 0 1
16.527849 -3.856894 -19.140341 25.581206 -0.229255 2.416170 0.134391 -0.034296 -3673.070000 0 0 1
16.999349 -3.064294 -20.201441 26.579428 -0.178344 2.434172 0.107859 -0.025757 215586.000000 0 0 1
17.518249 -1.814594 -19.745841 26.459026 -0.103215 2.413252 0.117042 -0.022538 430836.000000 0 0 1
18.655849 -1.234194 -20.642341 27.850856 -0.066060 2.405614 0.073908 -0.022104 -693060.000000 0 0 1
19.876149 -1.826194 -20.522041 28.627792 -0.091621 2.370081 0.108756 -0.030956 -998761.000000 0 0 1
20.821149 -1.268694 -21.422541 29.900754 -0.060858 2.369504 0.109791 -0.022035 845724.000000 0 0 1
22.192749 -2.022794 -21.528741 30.985424 -0.090895 2.338941 0.075670 -0.019598 203059.000000 0 0 1
23.099149 -1.718494 -20.461141 30.906022 -0.074260 2.294339 0.075057 -0.020140 1164680.000000 0 0 1
24.358049 -2.407794 -20.633941 32.013615 -0.098530 2.271213 0.058180 -0.020691 1423300.000000 0 0 1
25.438849 -1.795694 -21.591541 33.414880 -0.070472 2.273346 0.064572 -0.021119 -406343.000000 0 0 1
25.000749 -1.868494 -22.964141 33.998243 -0.074599 2.312372 0.061651 -0.024334 303743.000000 0 0 1
25.887649 -1.299394 -23.880541 35.243993 -0.050151 2.315260 0.068715 -0.016275 498852.000000 0 0 1
27.204749 -2.044894 -24.309341 36.540717 -0.075026 2.298648 0.075602 -0.022505 50604.700000 0 0 1
28.221349 -2.073294 -23.331841 36.675849 -0.073334 2.260312 0.078153 -0.015855 1438000.000000 0 0 1
29.427849 -2.801794 -23.760441 37.926335 -0.094923 2.247837 0.074894 -0.009278 1217010.000000 0 0 1
30.410349 -2.080894 -24.661541 39.208558 -0.068321 2.251041 0.088831 -0.016208 -1286440.000000 0 0 1
30.063749 -1.936394 -26.026771 39.811700 -0.064321 2.283322 0.086628 -0.019992 -3691.420000 0 0 1
30.514849 -0.805994 -26.675391 40.538650 -0.026407 2.288987 0.081111 -0.031518 -360894.000000 0 0 1
29.736049 -0.597794 -28.046941 40.880568 -0.020101 2.326870 0.062822 -0.038751 103865.000000 0 0 1
28.382149 -0.248594 -27.972321 39.850457 -0.008759 2.348903 0.054812 -0.023079 -370611.000000 0 0 1
28.074349 1.059806 -27.493981 39.309175 0.037732 2.345395 0.061041 -0.020277 -86134.900000 0 0 1
26.592749 1.512106 -27.660771 38.400248 0.056800 2.375071 0.064659 -0.025317 497742.000000 0 0 1
25.680249 0.997106 -26.710941 37.066748 0.038808 2.375489 0.058516 -0.020288 -173099.000000 0 0 1
24.357749 1.311206 -27.042141 36.418355 0.053779 2.407653 0.065241 -0.018310 -127407.000000 0 0 1
23.327649 0.933106 -25.931811 34.892818 0.039979 2.408614 0.079926 -0.016805 65445.600000 0 0 1
23.395149 1.709706 -24.733341 34.088037 0.072950 2.382662 0.087543 -0.023378 -112520.000000 0 0 1
22.530249 1.250606 -23.769241 32.774273 0.055451 2.382180 0.082821 -0.012079 -578136.000000 0 0 1
22.615849 2.027806 -22.407941 31.901480 0.089424 2.349575 0.082649 -0.021294 -225335.000000 0 0 1
22.357349 3.435506 -22.355441 31.802822 0.152471 2.350317 0.088391 -0.020786 465306.000000 0 0 1
22.308249 3.922606 -21.068741 30.934393 0.174057 2.320030 0.084962 -0.020852 -229629.000000 0 0 1
21.923149 5.399506 -20.901641 30.767803 0.241486 2.317652 0.107270 -0.017388 394623.000000 0 0 1
23.056949 6.229606 -21.175041 31.918854 0.263883 2.296153 0.097007 -0.010754 744519.000000 0 0 1
22.843949 7.580006 -20.781641 31.799043 0.320385 2.283036 0.091074 -0.009472 -470873.000000 0 0 1
23.109749 7.967406 -19.313341 31.153575 0.332003 2.239462 0.115817 -0.024948 -69538.100000 0 0 1
24.486349 8.069206 -18.968841 32.007973 0.318332 2.205115 0.089526 -0.014655 598885.000000 0 0 1
24.636949 8.353806 -17.570841 31.392671 0.326910 2.164834 0.107624 -0.036099 -236101.000000 0 0 1
24.422949 9.800606 -17.126041 31.397987 0.381615 2.147723 0.126220 -0.044165 -510623.000000 0 0 1
23.087749 10.114606 -16.844241 30.316297 0.412909 2.159901 0.116133 -0.051366 -500331.000000 0 0 1
22.971449 11.514906 -16.608641 30.596201 0.464663 2.144604 0.100377 -0.049225 -593837.000000 0 0 1
21.477049 11.814206 -16.466341 29.529299 0.502909 2.162321 0.112080 -0.052511 435921.000000 0 0 1
20.703549 11.603306 -17.724841 29.621675 0.510831 2.212266 0.111358 -0.055008 1015720.000000 0 0 1
20.277449 10.219706 -17.970241 28.957674 0.466837 2.240265 0.107967 -0.052239 -751800.000000 0 0 1
19.512849 10.096906 -19.269541 29.223518 0.477509 2.290796 0.101043 -0.028452 -571478.000000 0 0 1
20.311249 10.045006 -20.422641 30.504643 0.459281 2.304322 0.102669 -0.031271 -8871.410000 0 0 1
19.617149 9.735306 -21.609541 30.766556 0.460655 2.349519 0.082455 -0.029250 -435334.000000 0 0 1
20.504049 9.870806 -22.846141 32.245852 0.448663 2.358165 0.102420 -0.020130 -239517.000000 0 0 1
20.630549 11.238306 -23.166541 32.994056 0.498797 2.349199 0.090582 -0.017045 79100.500000 0 0 1
21.623149 11.399006 -24.150541 34.361993 0.485144 2.350160 0.102565 -0.020135 -73620.700000 0 0 1
21.820749 12.891306 -24.421841 35.195982 0.533614 2.337662 0.111597 -0.026765 -98950.100000 0 0 1
22.527949 13.270606 -25.588281 36.583843 0.532346 2.345413 0.105475 -0.028957 54033.700000 0 0 1
22.423349 14.682406 -25.876081 37.255217 0.579730 2.338608 0.114720 -0.024562 392725.000000 0 0 1
21.090049 15.164006 -26.516851 37.119815 0.623372 2.366503 0.099049 -0.025517 801287.000000 0 0 1
19.907749 15.023606 -25.755391 35.852021 0.646478 2.372268 0.108926 -0.029591 762914.000000 0 0 1
18.693749 15.493506 -26.389711 35.859752 0.692061 2.397813 0.115172 -0.037540 1073190.000000 0 0 1
17.453849 14.892306 -25.698481 34.450393 0.706372 2.412766 0.128120 -0.048947 -64310.300000 0 0 1
17.283949 13.502406 -25.900501 33.939443 0.663179 2.438952 0.121321 -0.038018 -73049.300000 0 0 1
15.966049 13.152906 -25.514311 32.846518 0.689088 2.460323 0.103345 -0.042267 196487.000000 0 0 1
15.503649 11.704006 -25.855141 32.339375 0.646642 2.497249 0.092577 -0.034264 -457695.000000 0 0 1
14.236449 11.402606 -25.355741 31.234748 0.675317 2.517990 0.093436 -0.034150 -491154.000000 0 0 1
14.046949 9.981306 -25.087341 30.435471 0.617783 2.539725 0.089663 -0.032877 -594778.000000 0 0 1
12.600549 9.450806 -24.930941 29.489717 0.643521 2.578131 0.098596 -0.045797 145182.000000 0 0 1
11.945049 9.911506 -23.777241 28.395058 0.692625 2.563255 0.117058 -0.049952 525046.000000 0 0 1
10.665049 9.264006 -23.633341 27.533614 0.715212 2.602832 0.109189 -0.044995 924075.000000 0 0 1
9.728849 9.856006 -22.533041 26.448616 0.791891 2.590505 0.113010 -0.048141 211950.000000 0 0 1
9.045249 11.046706 -22.903341 26.989058 0.884685 2.584159 0.116514 -0.051243 156319.000000 0 0 1
8.519849 11.873506 -21.831441 26.271273 0.948388 2.551700 0.120321 -0.044786 69849.600000 0 0 1
9.533749 12.667206 -20.998341 26.311230 0.925613 2.494890 0.124676 -0.048442 -230995.000000 0 0 1
10.376849 11.843306 -20.224041 25.631128 0.851299 2.480045 0.148979 -0.056690 315469.000000 0 0 1
11.281349 12.616006 -19.409141 25.751645 0.841190 2.424478 0.178671 -0.059160 549938.000000 0 0 1
12.366249 11.704506 -18.668741 25.267399 0.757914 2.402154 0.180110 -0.063913 1159980.000000 0 0 1
13.450849 11.258906 -19.516541 26.240878 0.696922 2.409453 0.143622 -0.053729 670126.000000 0 0 1
13.080649 10.214406 -20.405341 26.302384 0.662973 2.458775 0.141796 -0.055691 -872610.000000 0 0 1
14.264049 9.465606 -21.015441 27.105526 0.585876 2.458017 0.150812 -0.053169 -300988.000000 0 0 1
14.926249 8.667206 -20.044741 26.451938 0.526084 2.430700 0.166599 -0.062368 1080920.000000 0 0 1
16.034349 7.921006 -20.610041 27.287662 0.458838 2.426890 0.131081 -0.053737 869702.000000 0 0 1
16.611849 6.831306 -19.613741 26.595472 0.390151 2.400134 0.192934 -0.064283 -102407.000000 0 0 1
17.710949 7.138706 -18.814141 26.806916 0.383148 2.348772 0.137060 -0.045175 -165634.000000 0 0 1
17.934349 6.166206 -17.822141 26.024828 0.331160 2.325143 0.138812 -0.054312 -459201.000000 0 0 1
19.065449 6.350406 -16.807541 26.197566 0.321527 2.267338 0.210949 -0.047772 -977210.000000 0 0 1
20.284149 6.201606 -17.444541 27.463041 0.296711 2.259065 0.156944 -0.054289 -860966.000000 0 0 1
21.334849 6.465106 -16.541941 27.759849 0.294235 2.209175 0.161081 -0.077809 385306.000000 0 0 1
22.548249 5.452306 -16.636641 28.546961 0.237252 2.192944 0.142885 -0.065727 -232899.000000 0 0 1
23.572649 5.743906 -15.751241 28.926871 0.239011 2.146612 0.118640 -0.065610 183947.000000 0 0 1
24.193049 4.593406 -15.126441 28.900039 0.187631 2.121639 0.193775 -0.079638 837156.000000 0 0 1
25.414649 3.878706 -15.847841 30.201040 0.151448 2.123212 0.067728 -0.016276 317746.000000 0 0 1
25.780749 2.726206 -15.172341 30.037962 0.105354 2.100301 0.087301 -0.030324 232978.000000 0 0 1
26.904249 2.138706 -15.810941 31.279363 0.079326 2.100729 0.073635 -0.031460 -123008.000000 0 0 1
27.624249 1.095206 -15.023441 31.464304 0.039626 2.068576 0.099809 -0.040753 -458219.000000 0 0 1
26.945049 -0.119394 -15.069541 30.872982 -0.004431 2.080724 0.109952 -0.038122 446648.000000 0 0 1
27.869449 -1.183794 -15.277241 31.804114 -0.042451 2.071855 0.125540 -0.027001 -103886.000000 0 0 1
27.092949 -2.494094 -15.548441 31.336918 -0.091798 2.089978 0.099016 -0.026345 95390.400000 0 0 1
26.573949 -3.085294 -14.362641 30.364112 -0.115585 2.063505 0.106053 -0.032601 374167.000000 0 0 1
26.193449 -4.423494 -14.554241 30.290098 -0.167299 2.072015 0.102103 -0.025290 -969149.000000 0 0 1
25.411649 -5.095094 -13.370441 29.163000 -0.197878 2.047072 0.123848 -0.037792 1613980.000000 0 0 1
24.080349 -4.632494 -13.016641 27.762496 -0.190055 2.058793 0.163932 -0.035105 1479240.000000 0 0 1
23.139549 -4.633594 -14.077441 27.478779 -0.197632 2.108660 0.176185 -0.045466 -54556.800000 0 0 1
21.664749 -4.471194 -13.537741 25.934983 -0.203524 2.119976 0.188632 -0.041592 482624.000000 0 0 1
21.062449 -5.607194 -12.893941 25.324318 -0.260183 2.104996 0.200373 -0.041921 465068.000000 0 0 1
21.487349 -5.856194 -11.588841 25.105824 -0.266079 2.050594 0.244228 -0.038045 -421851.000000 0 0 1
20.985349 -7.261294 -11.144641 24.845810 -0.333122 2.035941 0.208798 -0.035771 240859.000000 0 1 0
19.589149 -7.386294 -10.963841 23.632560 -0.360576 2.053222 0.185558 -0.029962 463770.000000 0 1 0
19.087349 -8.545794 -11.581841 23.905994 -0.420957 2.076559 0.171206 -0.039016 751731.000000 0 1 0
17.615349 -9.033494 -11.259641 22.774636 -0.473850 2.087934 0.158671 -0.049636 1097130.000000 0 1 0
16.694549 -8.080994 -11.756741 21.959768 -0.450806 2.135750 0.134141 -0.035341 -857667.000000 0 1 0
15.392949 -8.569194 -11.762241 21.183113 -0.507970 2.159478 0.127713 -0.037793 -543518.000000 0 1 0
14.464949 -7.558694 -12.510641 20.564162 -0.481526 2.224803 0.090481 -0.023269 -218179.000000 0 1 0
14.665949 -7.205794 -13.906341 21.456930 -0.456686 2.275890 0.099644 -0.022454 -19031.900000 0 1 0
15.727449 -6.293394 -14.085541 22.030931 -0.380639 2.264453 0.094473 -0.013802 -84082.200000 0 1 0
15.362749 -5.113794 -14.978341 22.057100 -0.321333 2.317293 0.084798 -0.023297 -405239.000000 0 1 0
14.335949 -4.337994 -14.428441 20.797056 -0.293836 2.337511 0.088821 -0.021244 -341140.000000 0 1 0
14.042749 -3.133894 -15.111841 20.865949 -0.219570 2.380720 0.079632 -0.032768 532935.000000 0 1 0
15.209849 -2.069294 -15.331741 21.695248 -0.135219 2.355600 0.105738 -0.036178 -399198.000000 0 1 0
16.189449 -2.479394 -16.224741 23.054021 -0.151968 2.351487 0.109001 -0.032294 322741.000000 0 1 0
17.391149 -1.691494 -16.100941 23.760335 -0.096957 2.315344 0.143343 -0.044262 998318.000000 0 1 0
18.428549 -2.208994 -15.081341 23.915224 -0.119299 2.253144 0.167292 -0.048560 -656377.000000 0 1 0
17.934149 -2.027094 -13.760341 22.695590 -0.112552 2.222196 0.148116 -0.040632 189767.000000 0 1 0
18.577849 -2.926994 -12.905341 22.809024 -0.156268 2.172199 0.154801 -0.042271 -417940.000000 0 1 0
18.023049 -2.998294 -11.433941 21.553540 -0.164849 2.129975 0.151876 -0.037035 -573274.000000 0 1 0
18.116649 -1.756094 -10.786241 21.157501 -0.096631 2.105757 0.161541 -0.033501 590551.000000 0 1 0
17.500349 -1.868694 -9.526041 20.012488 -0.106377 2.066903 0.135298 -0.028143 -1406620.000000 0 1 0
17.453549 -0.626394 -8.613641 19.473406 -0.035874 2.028990 0.125301 -0.024393 316949.000000 0 1 0
18.667349 -0.257694 -7.922941 20.280762 -0.013804 1.972148 0.161205 -0.025320 2129470.000000 0 1 0
19.841449 0.087206 -8.708941 21.668788 0.004395 1.984400 0.191801 -0.027220 624062.000000 0 1 0
19.670749 1.444606 -9.488241 21.887256 0.073308 2.019175 0.203929 -0.029377 -534270.000000 0 1 0
19.379449 2.581206 -8.684541 21.392684 0.132414 1.988824 0.168499 -0.018879 418284.000000 0 1 0
19.214649 3.739606 -9.488641 21.753660 0.192220 2.022152 0.180547 -0.024724 -95356.500000 0 1 0
18.866149 5.030106 -8.768041 21.403553 0.260559 1.992871 0.160391 -0.012837 -73409.600000 0 1 0
18.633549 5.982806 -9.774141 21.875488 0.310680 2.033990 0.161981 -0.013816 466577.000000 0 1 0
18.937849 7.256206 -9.291341 22.307480 0.365904 2.000402 0.187783 -0.018584 -47768.100000 0 1 0
-28.183891 -29.182074 5.280259 40.912177 0.802797 1.441372 0.110355 -0.025429 37499.500000 0 0 1
-28.364811 -27.910744 5.838759 40.220184 0.777330 1.425112 0.087080 -0.015524 431433.000000 0 0 1
-27.177401 -27.150114 5.591459 38.820152 0.784896 1.426259 0.125016 -0.025361 -31899.400000 0 0 1
-27.003341 -25.974264 6.561359 38.038063 0.765976 1.397435 0.087492 -0.015463 256162.000000 0 0 1
-27.887371 -24.819994 6.447659 37.885483 0.727267 1.399776 0.100611 -0.028462 1196580.000000 0 0 1
-29.203541 -24.972594 7.008759 39.058929 0.707460 1.390378 0.075581 -0.024081 728101.000000 0 0 1
-29.390641 -24.842694 8.545159 39.420666 0.701735 1.352293 0.088623 -0.021377 -1347640.000000 0 0 1
-28.522011 -25.631174 9.166359 39.426949 0.732066 1.336160 0.073658 -0.022559 -1113670.000000 0 0 1
-28.726481 -25.752454 10.595359 40.008264 0.730862 1.302769 0.055849 -0.029372 -314029.000000 0 0 1
-27.689521 -26.667584 11.300559 40.069592 0.766600 1.284894 0.032682 -0.023346 1173140.000000 0 0 1
-26.467501 -26.081354 11.800259 38.987328 0.778050 1.263304 0.030209 -0.008823 655882.000000 0 0 1
-26.705331 -25.150724 12.840659 38.866645 0.755428 1.234093 0.046357 -0.009187 166136.000000 0 0 1
-25.401121 -24.682094 13.620659 37.946608 0.771043 1.203661 0.054780 -0.016613 890396.000000 0 0 1
-24.977191 -25.721024 14.484659 38.668288 0.800069 1.186844 0.046113 -0.013209 568433.000000 0 0 1
-23.753351 -25.400554 15.180659 37.945516 0.818897 1.159209 0.061291 -0.013677 544537.000000 0 0 1
-22.947551 -26.648114 15.503259 38.432579 0.859875 1.155579 0.059076 -0.021235 -469706.000000 0 0 1
-23.555551 -27.523924 16.425659 39.777288 0.862933 1.145116 0.058223 -0.014953 437957.000000 0 0 1
-22.768851 -28.687194 16.686559 40.246949 0.899912 1.143288 0.059270 -0.011224 649284.000000 0 0 1
-23.650051 -29.590444 17.637359 41.785113 0.896515 1.135039 0.080429 -0.027997 788491.000000 0 0 1
-24.798751 -30.124934 17.005459 42.563779 0.882070 1.159793 0.071225 -0.019526 207861.000000 0 0 1
-25.412791 -31.133534 17.774159 43.943459 0.886224 1.154388 0.097619 -0.015805 493417.000000 0 0 1
-26.428461 -31.987904 16.915459 44.808730 0.880282 1.183697 0.084513 -0.017745 509930.000000 0 0 1
-25.697831 -32.775184 16.004059 44.617498 0.905848 1.203927 0.084780 -0.018949 277311.000000 0 0 1
-26.466771 33.603030 15.437959 45.475094 -0.903643 1.224431 0.073207 -0.021958 -663934.000000 0 0 1
-25.728731 32.859012 14.283059 44.109954 -0.906505 1.241047 0.085660 -0.026998 317131.000000 0 0 1
-24.661251 32.041526 14.726459 43.031445 -0.914828 1.221512 0.080730 -0.030007 1224860.000000 0 0 1
-23.399851 32.749036 14.893859 42.917122 -0.950392 1.216386 0.081481 -0.032448 777267.000000 0 0 1
-22.161351 31.808520 14.827459 41.506155 -0.962281 1.205490 0.065491 -0.035959 138095.000000 0 0 1
-22.091451 31.238300 13.561759 40.592916 -0.955260 1.230155 0.041122 -0.022583 -459434.000000 0 0 1
-21.031251 30.362840 13.359759 39.277203 -0.965011 1.223730 0.040417 -0.023706 -329848.000000 0 0 1
-21.054051 29.690000 12.011759 38.328207 -0.953970 1.252033 0.036941 -0.026221 -286332.000000 0 0 1
-20.697051 30.562580 10.983259 38.510663 -0.975535 1.281581 0.027053 -0.019831 -157992.000000 0 0 1
-21.144451 30.086690 9.747959 38.043651 -0.958204 1.311675 0.045554 -0.025166 -168452.000000 0 0 1
-20.627051 30.922990 8.553759 38.142801 -0.982531 1.344617 0.041113 -0.017128 424925.000000 0 0 1
-19.303051 30.547410 8.186359 37.050890 -1.007247 1.348009 0.047376 -0.027845 105333.000000 0 0 1
-18.952751 31.041810 6.903059 37.019629 -1.022651 1.383228 0.091272 -0.026234 168073.000000 0 0 1
-18.109051 30.024330 6.108359 35.590872 -1.028067 1.398315 0.107336 -0.032539 193681.000000 0 0 1
-18.890451 28.886790 5.674359 34.978480 -0.991651 1.407852 0.076919 -0.019334 323042.000000 0 0 1
-19.086451 27.817650 6.595859 34.374694 -0.969442 1.377718 0.044789 -0.015258 -244551.000000 0 0 1
-20.084951 26.751170 6.127259 34.008435 -0.926779 1.389638 0.028002 -0.003471 -115450.000000 0 0 1
-19.820451 26.152260 4.886059 33.176264 -0.922267 1.422983 0.039999 -0.012190 35239.500000 0 0 1
-20.960551 25.438940 4.477959 33.264643 -0.881618 1.435770 0.036231 -0.012512 -828457.000000 0 0 1
-20.661151 24.471060 3.315959 32.198004 -0.869615 1.467627 0.065361 -0.023274 -690924.000000 0 0 1
-20.376251 25.105000 2.057059 32.398828 -0.888997 1.507262 0.085135 -0.028668 1166830.000000 0 0 1
-19.149851 25.854090 1.928259 32.231489 -0.933281 1.510935 0.104065 -0.027321 1711440.000000 0 0 1
-17.696951 25.230150 2.129159 30.891355 -0.959117 1.501818 0.108873 -0.033477 1103140.000000 0 0 1
-17.311051 24.135300 1.239459 29.727452 -0.948587 1.529090 0.158642 -0.044955 234730.000000 0 0 1
-17.064251 24.456940 -0.118941 29.821883 -0.961598 1.574785 0.154859 -0.043081 -290319.000000 0 0 1
-16.608951 23.220480 -0.934441 28.564333 -0.949894 1.603516 0.155941 -0.052167 -324561.000000 0 0 1
-17.555151 22.207050 -1.124541 28.330213 -0.901862 1.610501 0.159358 -0.066900 -148219.000000 0 0 1
-17.183251 21.248050 -2.158341 27.411716 -0.890774 1.649616 0.157721 -0.060937 128073.000000 0 0 1
-16.099451 20.230750 -1.725941 25.912437 -0.898627 1.637452 0.148098 -0.058823 -41929.800000 0 0 1
-16.508151 19.391750 -0.659441 25.475358 -0.865549 1.596685 0.161662 -0.064965 -567515.000000 0 0 1
-15.495751 18.736450 0.024459 24.314058 -0.879785 1.569790 0.162456 -0.056108 -479987.000000 0 1 0
-15.986151 17.534350 0.864059 23.743568 -0.831552 1.534397 0.133781 -0.048860 188503.000000 0 1 0
-16.540351 16.463150 0.124359 23.337394 -0.783059 1.565468 0.115053 -0.046587 145792.000000 0 1 0
-17.228151 15.637250 1.011759 23.288547 -0.737029 1.527338 0.145864 -0.066258 -177975.000000 0 1 0
-17.855251 14.322850 0.482059 22.895117 -0.676059 1.549740 0.133587 -0.065033 -833475.000000 0 1 0
-19.052451 14.557250 -0.174541 23.977903 -0.652440 1.578076 0.200102 -0.075745 -373306.000000 0 1 0
-19.723051 13.305050 -0.467341 23.795829 -0.593471 1.590437 0.213854 -0.070031 381217.000000 0 1 0
-21.102551 13.528750 -1.178541 25.094495 -0.570090 1.617778 0.225112 -0.065146 481453.000000 0 0 1
-21.963651 12.393750 -1.366741 25.256187 -0.513744 1.624938 0.220879 -0.069945 854628.000000 0 0 1
-22.620351 11.981050 -0.178741 25.598003 -0.487092 1.577779 0.234220 -0.073734 -789492.000000 0 0 1
-24.058351 12.546150 -0.065041 27.133270 -0.480690 1.573193 0.274124 -0.083448 -243471.000000 0 0 1
-24.121151 13.938750 0.188259 27.859542 -0.523984 1.564039 0.291348 -0.088474 -766187.000000 0 0 1
-25.385301 14.399350 -0.101241 29.185013 -0.515977 1.574265 0.270385 -0.072013 -907405.000000 0 0 1
-25.612111 15.828550 0.438759 30.111720 -0.553557 1.556225 0.261282 -0.071479 -124326.000000 0 0 1
-25.852101 15.913850 1.844859 30.413570 -0.551791 1.510100 0.255687 -0.062207 -104690.000000 0 0 1
-25.972121 17.252850 2.356359 31.269223 -0.586351 1.495368 0.206749 -0.048835 382460.000000 0 0 1
-27.415581 17.822350 2.406559 32.787829 -0.576432 1.497332 0.236011 -0.042234 -792488.000000 0 0 1
-28.212891 17.377450 3.473359 33.316770 -0.552058 1.466354 0.244316 -0.051016 500426.000000 0 0 1
-29.440441 18.092750 3.688159 34.751829 -0.551053 1.464468 0.237962 -0.049491 90459.800000 0 0 1
-30.500041 17.766350 2.628959 35.395015 -0.527454 1.496453 0.186624 -0.056742 -2030620.000000 0 0 1
-31.569181 18.620350 2.925359 36.768034 -0.532906 1.491150 0.160043 -0.046902 -460866.000000 0 0 1
-32.295651 18.918350 1.756359 37.469959 -0.529903 1.523905 0.124297 -0.043994 -850025.000000 0 0 1
-33.489721 19.820850 1.949659 38.964454 -0.534404 1.520739 0.131913 -0.044081 -41510.300000 0 0 1
-34.679440 19.042750 2.294359 39.630215 -0.502158 1.512870 0.132006 -0.037914 1078880.000000 0 0 1
-35.806967 19.902650 2.424059 41.038158 -0.507310 1.511694 0.144757 -0.029700 253486.000000 0 0 1
-36.097851 20.452050 3.804559 41.663123 -0.515478 1.479352 0.115299 -0.033844 -486888.000000 0 0 1
-35.155287 21.491850 4.009659 41.398927 -0.548716 1.473790 0.142675 -0.040196 468944.000000 0 0 1
-35.233703 21.950350 5.351959 41.855407 -0.557155 1.442577 0.134339 -0.036233 200971.000000 0 0 1
-33.929586 22.747690 5.667959 41.240756 -0.590609 1.432924 0.181936 -0.042802 45199.700000 0 0 1
-33.846701 23.984350 4.994959 41.782745 -0.616486 1.450964 0.162746 -0.040378 829405.000000 0 0 1
-32.791941 24.809970 5.562359 41.494407 -0.647704 1.436341 0.170348 -0.049581 591749.000000 0 0 1
-32.968981 26.296870 5.294959 42.503125 -0.673291 1.445894 0.170082 -0.048496 152352.000000 0 0 1
-34.067834 26.719870 6.089359 43.722409 -0.665103 1.431069 0.162354 -0.036697 515717.000000 0 0 1
-34.621751 28.030350 5.992059 44.947424 -0.680577 1.437086 0.142668 -0.035080 298930.000000 0 0 1
-35.725527 28.275140 7.048959 46.102978 -0.669509 1.417298 0.129274 -0.021635 -176532.000000 0 0 1
-35.121859 28.351730 8.352759 45.903531 -0.679139 1.387814 0.136870 -0.021060 463103.000000 0 0 1
-35.873832 29.078610 9.301959 47.106515 -0.681159 1.372023 0.145866 -0.014195 -255265.000000 0 0 1
-37.120561 28.294500 9.753259 47.682710 -0.651284 1.364797 0.137015 -0.009540 -420482.000000 0 0 1
-36.773271 27.233910 10.578759 46.966684 -0.637451 1.343607 0.159183 -0.014983 -18357.400000 0 0 1
-37.850931 26.813230 11.388259 47.763319 -0.616335 1.330046 0.147442 -0.017422 -42831.400000 0 0 1
-37.544541 25.669170 12.408959 47.143197 -0.599702 1.304440 0.162114 -0.007401 373346.000000 0 0 1
-36.602111 25.982420 13.451759 46.858835 -0.617314 1.279630 0.195289 -0.024741 42107.000000 0 0 1
-35.957251 24.870250 13.993259 45.904951 -0.605108 1.261035 0.181352 -0.024418 285141.000000 0 0 1
-34.662963 25.219570 14.786459 45.345199 -0.628988 1.238635 0.191009 -0.022207 235022.000000 0 0 1
-34.908868 26.250390 15.701159 46.413774 -0.644760 1.225701 0.175400 -0.031212 -848178.000000 0 0 1
-33.852471 26.430360 16.559359 46.030056 -0.662893 1.202795 0.191504 -0.021101 -773131.000000 0 0 1
-33.935567 27.704890 17.405759 47.139623 -0.684659 1.192607 0.187907 -0.034389 -275438.000000 0 0 1
-33.584471 28.883710 16.709659 47.343406 -0.710289 1.210079 0.195499 -0.030437 51113.800000 0 0 1
-33.574871 30.052080 17.482059 48.332410 -0.730088 1.200701 0.159894 -0.022227 -76781.400000 0 0 1
-33.286811 31.323290 16.652259 48.646253 -0.755017 1.221418 0.132175 -0.026204 210874.000000 0 0 1
-31.976741 31.372510 16.114259 47.606887 -0.775860 1.225489 0.120253 -0.015326 11518.300000 0 0 1
-31.697221 32.662215 15.520059 48.087486 -0.800391 1.242167 0.099461 -0.005784 322127.000000 0 0 1
-30.443081 32.623330 14.571059 46.940159 -0.819955 1.255164 0.122663 -0.012829 384738.000000 0 0 1
-30.481931 31.664843 13.533559 45.988777 -0.804430 1.272095 0.114991 -0.012216 85655.600000 0 0 1
-30.068671 30.333040 13.895759 44.914478 -0.789775 1.256253 0.134389 -0.017687 120107.000000 0 0 1
-31.044741 29.249130 13.342359 44.691230 -0.755626 1.267628 0.174662 -0.020651 342815.000000 0 0 1
-31.046021 29.152270 11.997259 44.245276 -0.753950 1.296205 0.182225 -0.030805 218366.000000 0 0 1
-32.093781 28.306260 11.549559 44.324343 -0.722773 1.307185 0.183794 -0.029790 294557.000000 0 0 1
-31.950831 28.036960 10.043059 43.678252 -0.720246 1.338788 0.177903 -0.015001 744198.000000 0 0 1
-30.780921 27.294490 9.654459 42.257104 -0.725437 1.340291 0.160525 -0.013581 527545.000000 0 0 1
-30.704971 27.208400 8.243159 41.845453 -0.725095 1.372509 0.164838 -0.024218 431676.000000 0 0 1
-29.476561 26.392010 7.724159 40.312138 -0.730243 1.377995 0.199064 -0.041398 499718.000000 0 0 1
-29.218261 26.921900 6.438159 40.248544 -0.744517 1.410146 0.203169 -0.054992 258648.000000 0 0 1
-28.223091 26.151170 5.733859 38.901204 -0.747312 1.422862 0.164435 -0.044298 346954.000000 0 0 1
-27.953401 26.690290 4.336259 38.891738 -0.762287 1.459068 0.162414 -0.035503 -333758.000000 0 0 1
-27.141991 27.827510 4.242459 39.103151 -0.797868 1.462088 0.113187 -0.026857 15250.000000 0 0 1
-26.978281 28.242960 2.918059 39.166407 -0.808296 1.496223 0.103604 -0.024728 -109700.000000 0 0 1
-25.949821 29.377430 2.741259 39.293015 -0.847271 1.500975 0.071508 -0.019297 190563.000000 0 0 1
-24.613651 29.009400 3.010859 38.163364 -0.867190 1.491820 0.044839 -0.009310 -185997.000000 0 0 1
-23.691351 29.922680 2.438859 38.243887 -0.901105 1.506982 0.049324 0.011076 579210.000000 0 0 1
-22.245251 29.507180 2.868259 37.064157 -0.924808 1.493333 0.046916 -0.001019 705504.000000 0 0 1
-21.302051 30.443550 2.366659 37.231548 -0.960256 1.507187 0.074141 -0.002752 278798.000000 0 0 1
-19.938551 30.081690 2.599959 36.183057 -0.985466 1.498879 0.101228 -0.023087 1165160.000000 0 0 1
-18.937551 31.232180 2.218459 36.592368 -1.025723 1.510133 0.119365 -0.021545 343265.000000 0 0 1
-18.932751 32.415673 3.063459 37.664435 -1.042179 1.489371 0.139351 -0.025241 -621060.000000 0 0 1
-17.721251 33.072237 2.943459 37.636146 -1.078894 1.492508 0.180292 -0.038195 -645769.000000 0 0 1
-17.598451 -33.116844 3.911059 37.705798 1.082342 1.466884 0.190005 -0.041162 -194606.000000 0 0 1
-18.541951 -32.081784 3.711759 37.240058 1.046741 1.470959 0.192197 -0.040032 35755.100000 0 0 1
-18.356751 -31.004784 4.590859 36.322760 1.036234 1.444067 0.172296 -0.063112 -631428.000000 0 0 1
-19.552151 -30.073654 4.670959 36.173597 0.994321 1.441309 0.181691 -0.054363 -550099.000000 0 0 1
-19.876651 -29.313514 3.543759 35.593842 0.974940 1.471070 0.208245 -0.061534 256287.000000 0 0 1
-20.774451 -28.293944 3.964259 35.324785 0.937460 1.458336 0.207110 -0.064272 -168826.000000 0 0 1
-21.149451 -27.216054 2.924459 34.591405 0.910179 1.486152 0.197959 -0.078162 -66121.000000 0 0 1
-20.087851 -26.340794 2.590159 33.227520 0.919271 1.492765 0.219730 -0.083316 -4477.990000 0 0 1
-20.386451 -25.451844 1.559859 32.647157 0.895457 1.522999 0.187629 -0.077544 -344077.000000 0 0 1
-19.291651 -24.400594 1.379859 31.136165 0.901800 1.526465 0.135456 -0.055719 -497462.000000 0 0 1
-18.142751 -24.967794 0.838159 30.874790 0.942410 1.543646 0.200286 -0.066516 -1139590.000000 0 0 1
-17.061951 -24.083094 1.050359 29.533182 0.954414 1.535223 0.162623 -0.053519 385270.000000 0 0 1
-15.710451 -24.664994 0.504159 29.247809 1.003647 1.553558 0.131456 -0.048935 210104.000000 0 0 1
-15.638351 -24.718994 -0.911141 29.264601 1.006718 1.601936 0.118018 -0.042610 35304.200000 0 0 1
-15.439251 -23.402494 -1.506441 28.076975 0.987614 1.624476 0.112112 -0.042338 -372519.000000 0 0 1
-15.532751 -23.286294 -3.075241 28.159811 0.982539 1.680221 0.063161 -0.019297 428639.000000 0 0 1
-14.342251 -23.752694 -3.708241 27.993600 1.027576 1.703654 0.100558 -0.016832 252740.000000 0 0 1
-14.472851 -23.632894 -5.118241 28.181083 1.021307 1.753430 0.073777 -0.005522 91401.700000 0 0 1
-13.275651 -24.147594 -5.937541 28.188714 1.068129 1.783021 0.101993 -0.015372 104854.000000 0 0 1
-13.085851 -25.548134 -5.815841 29.287722 1.097433 1.770701 0.089352 -0.014765 586227.000000 0 0 1
-11.883551 -25.990154 -6.482141 29.304010 1.141944 1.793844 0.104755 -0.013896 896086.000000 0 0 1
24.552049 13.475506 28.008075 39.608644 0.501963 0.785379 0.084568 -0.024843 85876.900000 0 0 1
25.452449 12.346406 28.029075 39.823234 0.451638 0.790011 0.108690 -0.032909 649798.000000 0 0 1
24.984049 11.237606 28.750545 39.712471 0.422680 0.761260 0.118648 -0.036082 -229370.000000 0 0 1
24.833449 11.437606 30.242445 40.769161 0.431611 0.735050 0.136917 -0.042133 11030.100000 0 0 1
23.704149 12.176706 30.607475 40.582957 0.474544 0.716369 0.097251 -0.031446 -189952.000000 0 0 1
23.945149 12.579306 31.930333 41.846807 0.483712 0.702810 0.119293 -0.042616 -320352.000000 0 0 1
22.992449 13.563106 32.639412 42.165647 0.532955 0.685542 0.091516 -0.035207 624426.000000 0 0 1
21.779249 12.996706 33.194043 41.774329 0.538024 0.652442 0.085083 -0.029942 850899.000000 0 0 1
20.955949 14.013406 -33.583841 41.992877 0.589414 2.497676 0.084359 -0.020756 -427386.000000 0 0 1
19.724549 13.452606 -32.877891 40.632329 0.598559 2.513511 0.086829 -0.009949 -701141.000000 0 0 1
18.715449 12.923106 33.612225 40.583942 0.604325 0.594882 0.092700 -0.010028 -191656.000000 0 0 1
17.809749 12.204306 -32.845961 39.306353 0.600765 2.560093 0.085682 -0.015599 -964720.000000 0 0 1
16.475049 12.139106 -33.514861 39.268703 0.635011 2.593414 0.077580 -0.014918 -1099030.000000 0 0 1
16.375749 11.297706 32.668969 38.250031 0.603918 0.546998 0.074086 -0.012428 659547.000000 0 0 1
15.003549 10.955506 32.380790 37.331557 0.630704 0.520875 0.082870 -0.005923 1097420.000000 0 0 1
14.858549 9.899506 31.228086 35.971795 0.587714 0.519380 0.080318 -0.000724 -14799.900000 0 0 1
15.349749 8.612106 31.553922 36.130779 0.511294 0.508809 0.064894 -0.006927 19569.300000 0 0 1
15.829149 7.975906 30.394215 35.185016 0.466742 0.527954 0.070790 -0.017258 161339.000000 0 0 1
16.343449 6.544506 30.706665 35.395454 0.380882 0.520579 0.099963 -0.029111 35831.000000 0 0 1
15.270149 5.660506 30.945485 34.969155 0.354988 0.484439 0.097633 -0.032006 45625.200000 0 0 1
15.700949 4.364206 31.304602 35.292268 0.271114 0.479967 0.111174 -0.042612 -181584.000000 0 0 1
14.511949 3.427806 31.600002 34.941475 0.231954 0.440897 0.084114 -0.038615 -320762.000000 0 0 1
14.866249 2.131506 32.105896 35.444848 0.142408 0.437535 0.090248 -0.043341 -460707.000000 0 0 1
13.797249 1.382506 32.579781 35.407874 0.099868 0.402389 0.091286 -0.035933 -719404.000000 0 0 1
14.230149 -0.014794 33.033945 35.968582 -0.001040 0.406751 0.068165 -0.040754 -194377.000000 0 0 1
14.708349 -0.841994 31.987408 35.217024 -0.057184 0.431609 0.058775 -0.028520 121585.000000 0 0 1
15.096749 -2.094394 32.484616 35.882427 -0.137852 0.438694 0.121624 -0.039261 -482660.000000 0 0 1
15.294649 -3.195294 31.356511 35.033798 -0.205954 0.462284 0.129081 -0.036240 -667471.000000 0 0 1
15.711349 -4.486394 31.807946 35.759190 -0.278149 0.474538 0.138035 -0.036029 2095820.000000 0 0 1
17.095049 -4.589594 32.279696 36.814180 -0.262290 0.501572 0.118092 -0.034922 1593200.000000 0 0 1
18.334949 -4.204694 31.462874 36.657363 -0.225429 0.538856 0.122572 -0.040117 -497439.000000 0 0 1
18.545949 -2.819094 31.339275 36.524645 -0.150851 0.539373 0.125105 -0.041571 218786.000000 0 0 1
19.780849 -2.492094 30.728745 36.629883 -0.125325 0.575540 0.157243 -0.050015 118401.000000 0 0 1
20.094449 -0.970194 30.691405 36.697282 -0.048244 0.580224 0.152591 -0.058131 -389798.000000 0 0 1
20.358249 -0.357594 31.927994 37.867968 -0.017563 0.567700 0.136031 -0.057364 101914.000000 0 0 1
20.179049 1.021906 31.886648 37.749128 0.050599 0.564794 0.126374 -0.048181 -149343.000000 0 0 1
21.294749 1.844106 31.192585 37.813284 0.086384 0.600752 0.135000 -0.039218 -182045.000000 0 0 1
21.501849 1.605606 29.806225 36.787478 0.074535 0.626256 0.130301 -0.043791 118679.000000 0 0 1
22.433249 2.490006 29.217045 36.920002 0.110544 0.657765 0.102408 -0.026628 -238618.000000 0 0 1
21.871749 3.833906 28.928335 36.468079 0.173527 0.654667 0.105848 -0.018089 -394633.000000 0 0 1
21.908549 4.604806 30.085385 37.500922 0.207168 0.639730 0.111107 -0.028599 911482.000000 0 0 1
20.827749 5.560406 30.089085 37.014407 0.260887 0.621679 0.113133 -0.031708 394974.000000 0 0 1
20.446249 5.970706 31.534268 38.054021 0.284119 0.594067 0.116324 -0.028154 -192055.000000 0 0 1
19.567849 5.059006 32.154257 37.978816 0.252997 0.561163 0.109284 -0.021229 260434.000000 0 0 1
19.111949 5.539506 33.424205 38.898974 0.282115 0.536981 0.098881 -0.026623 -346052.000000 0 0 1
18.044849 4.792006 -33.113861 38.014572 0.259570 2.628200 0.113568 -0.032802 -372829.000000 0 0 1
18.488149 3.509206 -32.881551 37.885651 0.187577 2.621787 0.111876 -0.033769 841601.000000 0 0 1
17.327649 2.695406 -32.633711 37.046885 0.154318 2.648506 0.100156 -0.031155 712799.000000 0 0 1
17.401249 1.199806 -33.013911 37.338470 0.068840 2.655531 0.105591 -0.046482 19727.000000 0 0 1
18.489549 0.546906 -32.331611 37.249102 0.029571 2.621924 0.106039 -0.045782 595420.000000 0 0 1
18.684449 -0.830994 -32.542021 37.533749 -0.044446 2.619960 0.118105 -0.043274 215116.000000 0 0 1
19.771849 -1.514894 -31.621881 37.325116 -0.076469 2.581491 0.125759 -0.042326 138733.000000 0 0 1
19.579149 -1.517494 -30.216001 36.036823 -0.077351 2.565276 0.113955 -0.037781 217005.000000 0 0 1
19.670249 -0.211094 -29.615531 35.553381 -0.010731 2.555282 0.104073 -0.034664 -321493.000000 0 0 1
19.301649 -0.071094 -28.130991 34.116145 -0.003683 2.540230 0.093588 -0.023762 641395.000000 0 0 1
17.931749 -0.385894 -27.818811 33.099589 -0.021517 2.568924 0.103095 -0.032228 895859.000000 0 0 1
17.582649 -0.469394 -26.432841 31.750039 -0.026690 2.554454 0.098876 -0.029574 -222103.000000 0 0 1
18.332249 -1.473694 -25.560861 31.489693 -0.080216 2.517890 0.104287 -0.022143 -286460.000000 0 0 1
19.639849 -1.022694 -25.196701 31.963156 -0.052025 2.478845 0.090881 -0.018977 722638.000000 0 0 1
20.495149 -2.165994 -24.896241 32.319738 -0.105292 2.450125 0.066934 -0.011567 709866.000000 0 0 1
21.189849 -2.769794 -26.151381 33.772418 -0.129976 2.456470 0.077026 -0.028725 -780614.000000 0 0 1
22.308349 -2.066694 -26.609141 34.784767 -0.092378 2.441784 0.074229 -0.020288 -436814.000000 0 0 1
22.553749 -2.472894 -27.947321 35.997771 -0.109208 2.459670 0.082002 -0.029780 -718726.000000 0 0 1
23.943149 -2.155294 -28.428911 37.230668 -0.089775 2.439649 0.058847 -0.029982 -370931.000000 0 0 1
24.994449 -2.955794 -27.899461 37.574448 -0.117711 2.407608 0.057413 -0.033666 605827.000000 0 0 1
26.282449 -2.458594 -28.254011 38.666535 -0.093274 2.390157 0.050212 -0.028529 523447.000000 0 0 1
27.463349 -3.394194 -27.879741 39.281498 -0.122966 2.359929 0.075312 -0.023915 -64907.000000 0 0 1
27.443349 -4.671294 -28.553341 39.877960 -0.168600 2.368878 0.103818 -0.040401 366318.000000 0 0 1
28.692849 -5.316594 -28.371661 40.700085 -0.183215 2.342128 0.100751 -0.043322 221389.000000 0 0 1
28.796749 -6.311994 -27.188341 40.103615 -0.215779 2.315770 0.104990 -0.041374 -267423.000000 0 0 1
28.674049 -5.795294 -25.885161 39.061849 -0.199423 2.295176 0.084943 -0.023632 149667.000000 0 0 1
28.652249 -6.864094 -24.935541 38.598554 -0.235134 2.273159 0.068134 -0.022736 -234440.000000 0 0 1
28.844849 -6.416894 -23.494241 37.751572 -0.218898 2.242523 0.050098 -0.008960 -825669.000000 0 0 1
30.163449 -6.183194 -23.145441 38.519826 -0.202189 2.215386 0.052088 -0.007045 -599786.000000 0 0 1
30.283749 -5.632394 -21.854141 37.768145 -0.183886 2.187856 0.057854 -0.009246 -439621.000000 0 0 1
31.700549 -5.295194 -21.377341 38.599930 -0.165510 2.157739 0.076250 -0.011873 -465758.000000 0 0 1
32.283649 -4.246194 -22.102041 39.354344 -0.130777 2.167134 0.085246 -0.014854 6065.600000 0 0 1
33.598949 -3.976594 -21.665441 40.175789 -0.117807 2.140362 0.104913 -0.009545 258931.000000 0 0 1
34.187449 -2.645594 -22.187541 40.841986 -0.077231 2.145103 0.121953 -0.024001 -162699.000000 0 0 1
33.417549 -1.560594 -21.723441 39.888293 -0.046666 2.146717 0.107867 -0.020072 218470.000000 0 0 1
33.832349 -0.297294 -22.232541 40.484591 -0.008787 2.152156 0.105959 -0.021253 1011250.000000 0 0 1
32.651549 0.779606 -22.093941 39.431887 0.023872 2.165552 0.099001 -0.016011 725045.000000 0 0 1
31.542149 0.540706 -22.913541 38.990126 0.017141 2.198979 0.090278 -0.012974 -98401.700000 0 0 1
30.482049 1.402706 -22.583841 37.962518 0.045985 2.207936 0.086005 -0.008529 213947.000000 0 0 1
29.131849 1.154306 -23.337841 37.345038 0.039603 2.245832 0.071780 -0.007750 -202598.000000 0 0 1
28.238849 2.138206 -22.933241 36.440885 0.075574 2.251484 0.068724 -0.006432 -389720.000000 0 0 1
27.217649 2.239306 -23.905041 36.294158 0.082089 2.289816 0.078194 -0.018900 -329026.000000 0 0 1
26.140249 3.269606 -23.524241 35.318449 0.124433 2.299712 0.085350 -0.012748 -229203.000000 0 0 1
26.610149 4.606006 -23.340041 35.694157 0.171394 2.283510 0.077723 0.000475 675627.000000 0 0 1
25.482449 5.473406 -23.227341 34.911642 0.211577 2.298716 0.086696 -0.006900 427799.000000 0 0 1
25.905549 6.921906 -22.757741 35.169945 0.261098 2.274544 0.091913 0.000493 246409.000000 0 0 1
26.790049 7.571806 -23.681141 36.549082 0.275450 2.275656 0.099729 -0.002428 604620.000000 0 0 1
27.331949 8.783306 -23.178941 36.897767 0.310933 2.250026 0.123669 -0.006000 107765.000000 0 0 1
28.364549 9.449606 -24.141041 38.426977 0.321584 2.250074 0.156778 -0.006316 -119042.000000 0 0 1
27.898549 10.119206 -25.336811 39.021550 0.347956 2.277464 0.154701 -0.018158 471017.000000 0 0 1
26.833349 11.059906 -25.231471 38.457474 0.390954 2.286419 0.153146 -0.019837 330462.000000 0 0 1
26.537849 11.727606 -26.637381 39.387108 0.416114 2.313520 0.135300 -0.012521 -328776.000000 0 0 1
26.031449 10.857506 -27.648021 39.496010 0.395153 2.346223 0.124699 -0.022156 310791.000000 0 0 1
26.923249 9.897406 -28.230121 40.246239 0.352281 2.348205 0.123145 -0.026699 582696.000000 0 0 1
27.889649 10.373906 -29.395361 41.827475 0.356105 2.350089 0.124906 -0.033520 -97672.800000 0 0 1
28.981649 11.152706 -28.986241 42.479654 0.367352 2.321777 0.123250 -0.023881 219757.000000 0 0 1
29.814749 11.687806 -29.980571 43.867513 0.373603 2.323253 0.133241 -0.029307 463001.000000 0 0 1
30.935349 10.758506 -30.513641 44.764088 0.334690 2.320818 0.123007 -0.033423 -471426.000000 0 0 1
30.368549 9.848806 -31.441331 44.808538 0.313607 2.348551 0.107434 -0.035669 593352.000000 0 0 1
31.122949 8.667906 -31.753521 45.299632 0.271622 2.347548 0.106818 -0.030013 -135395.000000 0 0 1
30.150849 7.784406 -32.533691 45.034561 0.252664 2.378086 0.106782 -0.034634 40238.500000 0 0 1
29.150849 7.289006 -31.654331 43.645140 0.245020 2.382217 0.114993 -0.036327 -355962.000000 0 0 1
28.130349 6.764206 -32.447191 43.472879 0.235979 2.413399 0.100946 -0.028242 -271015.000000 0 0 1
26.794049 6.516606 -31.690511 42.008043 0.238579 2.425523 0.100895 -0.023998 -696175.000000 0 0 1
26.110449 7.694006 -31.403191 41.558557 0.286561 2.427423 0.135288 -0.030671 -400824.000000 0 0 1
25.040549 7.485706 -30.536791 40.194036 0.290487 2.433701 0.131173 -0.030342 -57454.700000 0 0 1
23.686949 7.031106 -31.141771 39.753213 0.288550 2.470878 0.132066 -0.030918 -409780.000000 0 0 1
23.060749 8.048306 -31.884891 40.164906 0.335788 2.487910 0.127407 -0.029601 1157060.000000 0 0 1
21.684649 7.798506 -32.267941 39.651743 0.345230 2.521430 0.119013 -0.027816 1098810.000000 0 0 1
21.044549 8.986106 -32.949121 40.115679 0.403567 2.534575 0.114987 -0.024321 -404753.000000 0 0 1
21.531149 9.168706 33.023102 40.474447 0.402577 0.616512 0.100146 -0.032664 317387.000000 0 0 1
20.798149 10.150306 32.318072 39.749837 0.454033 0.621447 0.078420 -0.026509 -124762.000000 0 0 1
19.665349 9.601606 31.455023 38.318863 0.454203 0.607854 0.081185 -0.018871 -39223.800000 0 0 1
20.087149 8.823806 30.297965 37.407483 0.413900 0.626740 0.080462 -0.021556 -370912.000000 0 0 1
21.019449 9.328206 29.397715 37.323697 0.417677 0.663824 0.096705 -0.018119 -708586.000000 0 0 1
20.519749 10.266506 28.284185 36.420549 0.463906 0.681546 0.078468 -0.013020 -345933.000000 0 0 1
19.622249 9.629606 27.424315 35.069289 0.456220 0.672922 0.092079 -0.009044 -19491.900000 0 0 1
18.309949 10.127006 27.639825 34.666561 0.505211 0.647979 0.092812 -0.018179 195744.000000 0 0 1
17.181649 9.339006 26.913535 33.268070 0.497874 0.628365 0.108819 -0.017830 -172068.000000 0 0 1
17.037849 9.655906 25.542195 32.185844 0.515599 0.654118 0.122240 -0.014380 982462.000000 0 0 1
15.773249 9.110206 25.096805 31.010335 0.523766 0.627829 0.140587 -0.019301 978503.000000 0 0 1
15.734049 7.586406 24.810115 30.342308 0.449278 0.613438 0.152971 -0.020769 -317191.000000 0 0 1
15.927449 6.745506 25.932745 31.171987 0.400612 0.588229 0.127143 -0.021911 -17120.100000 0 0 1
15.902949 5.370906 25.590425 30.604253 0.325702 0.580530 0.155875 -0.027588 -167072.000000 0 0 1
16.312749 4.379906 26.657915 31.558419 0.262309 0.564761 0.100099 -0.025324 -1518710.000000 0 0 1
17.641849 4.426006 26.992635 32.548836 0.245808 0.592949 0.114034 -0.020673 -1060060.000000 0 0 1
17.847449 3.955106 28.286695 33.679540 0.218082 0.573738 0.104125 -0.023835 -268467.000000 0 0 1
17.861549 2.437306 28.528125 33.746545 0.135618 0.563550 0.116911 -0.019289 -559630.000000 0 0 1
16.593549 1.857306 28.354485 32.905505 0.111465 0.532197 0.095939 -0.029047 9321.990000 0 0 1
16.125449 1.006906 29.409615 33.555468 0.062361 0.502362 0.098511 -0.033120 -3489.700000 0 0 1
16.526249 -0.491194 29.352035 33.688279 -0.029713 0.512985 0.110483 -0.031099 -559204.000000 0 0 1
15.942349 -1.180594 28.273925 32.480258 -0.073919 0.514588 0.111602 -0.025175 188951.000000 0 0 1
16.568749 -1.035994 27.021925 31.714053 -0.062446 0.550909 0.132082 -0.016447 -247024.000000 0 0 1
17.886549 -1.776194 26.690865 32.178965 -0.098979 0.592673 0.105116 -0.014443 763662.000000 0 0 1
19.117149 -1.521194 27.366925 33.417481 -0.079405 0.611234 0.123231 -0.025114 694113.000000 0 0 1
19.734149 -0.285894 27.020165 33.460539 -0.014486 0.630855 0.113342 -0.017323 -647154.000000 0 0 1
21.270249 -0.326594 27.091175 34.445057 -0.015353 0.665669 0.109726 -0.006702 -451938.000000 0 0 1
21.873849 -0.932294 26.028385 34.011928 -0.042596 0.699332 0.090549 -0.011652 -399677.000000 0 0 1
23.255849 -1.006494 26.306425 35.126565 -0.043252 0.724390 0.089467 -0.010189 687265.000000 0 0 1
24.153449 -1.803594 25.227495 34.972397 -0.074534 0.765040 0.089010 -0.007678 649067.000000 0 0 1
24.194349 -0.971994 24.032955 34.115894 -0.040153 0.789148 0.098022 0.007371 105446.000000 0 0 1
24.205949 -1.715294 22.835015 33.321286 -0.070744 0.815783 0.095278 0.005566 4085.660000 0 0 1
23.979849 -0.896994 21.509265 32.225553 -0.037389 0.840004 0.089984 -0.006823 -653714.000000 0 0 1
22.688949 -0.390094 21.490065 31.253216 -0.017191 0.812602 0.061467 -0.000175 -688641.000000 0 0 1
22.343849 0.091506 20.216965 30.132734 0.004095 0.835334 0.072983 0.008962 -14441.100000 0 0 1
-32.015781 -26.676637 -9.776141 42.804510 0.694680 1.801220 0.078835 -0.000504 49167.100000 0 0 1
-31.863881 -25.525937 -8.919941 41.790498 0.675407 1.785895 0.078790 -0.001941 -318871.000000 0 0 1
-32.274551 -25.776737 -7.595841 41.997424 0.673930 1.752662 0.097406 -0.010620 -406816.000000 0 0 1
-32.285481 -24.470437 -6.764141 41.071988 0.648563 1.736240 0.135105 -0.019937 953296.000000 0 0 1
-31.037151 -23.923037 -6.330841 39.695037 0.656673 1.730967 0.140519 -0.019027 -99846.000000 0 0 1
-30.216161 -24.680237 -5.475541 39.396853 0.684895 1.710232 0.148761 -0.030399 493444.000000 0 0 1
-28.941831 -23.904537 -4.969841 37.864968 0.690366 1.702428 0.124452 -0.026308 238244.000000 0 0 1
-29.218031 -22.819637 -4.193341 37.309694 0.663055 1.683427 0.146876 -0.021982 158552.000000 0 0 1
-29.827891 -21.674937 -4.808641 37.183719 0.628400 1.700481 0.146445 -0.018243 -8757.580000 0 0 1
-30.029491 -20.399237 -3.980741 36.520480 0.596702 1.680014 0.142175 -0.023736 26305.200000 0 0 1
-28.816561 -19.714937 -3.750741 35.116107 0.600011 1.677810 0.153098 -0.029874 198808.000000 0 0 1
-28.980011 -18.662437 -2.791841 34.582105 0.572129 1.651615 0.161718 -0.021846 -331679.000000 0 0 1
-27.919991 -17.578637 -2.897041 33.119891 0.561906 1.658380 0.161820 -0.016830 -303295.000000 0 0 1
-28.062701 -16.692137 -4.014741 32.897732 0.536599 1.693138 0.154503 -0.025954 -19514.800000 0 0 1
-27.097481 -15.671637 -4.013841 31.559224 0.524343 1.698326 0.131105 -0.023391 -31314.800000 0 0 1
-27.328011 -14.819437 -5.284541 31.533510 0.496897 1.739176 0.148890 -0.031324 659582.000000 0 0 1
-28.570721 -14.126537 -5.127941 32.282207 0.459191 1.730319 0.112358 -0.016707 555123.000000 0 0 1
-28.934581 -13.230437 -6.174341 32.409519 0.428870 1.762478 0.136246 -0.036668 908424.000000 0 0 1
-30.343321 -12.546437 -5.952641 33.370108 0.392075 1.750139 0.122100 -0.029045 933145.000000 0 0 1
-31.421031 -13.356837 -6.364741 34.730335 0.401949 1.755100 0.105810 -0.024272 887080.000000 0 0 1
-32.676211 -12.650337 -6.227541 35.588594 0.369373 1.746689 0.115802 -0.025364 971748.000000 0 0 1
-33.887831 -13.190837 -7.019141 37.035815 0.371205 1.761473 0.077690 -0.020248 -242482.000000 0 0 1
-34.358097 -14.386437 -6.514641 37.813872 0.396540 1.743942 0.069219 -0.012052 -30615.000000 0 0 1
-34.715928 -15.196337 -7.618941 38.654528 0.412607 1.769199 0.072199 -0.013657 -971345.000000 0 0 1
-35.661321 -16.310537 -7.213441 39.872260 0.428969 1.752712 0.087814 -0.020870 433413.000000 0 0 1
-37.050551 -15.982137 -7.072941 40.965821 0.407246 1.744321 0.110332 -0.031964 842490.000000 0 0 1
-37.452201 -15.290337 -5.881341 40.878502 0.387609 1.715171 0.130480 -0.030185 -1113630.000000 0 0 1
37.385129 -15.108237 -5.744541 40.729676 -0.384057 1.712309 0.212975 -0.043807 -1178150.000000 0 0 1
36.857099 -14.209237 -6.727241 40.069988 -0.367964 1.739482 0.217629 -0.043664 847554.000000 0 0 1
35.436339 -14.099337 -6.852641 38.748989 -0.378676 1.748578 0.244238 -0.039361 1100510.000000 0 0 1
34.543169 -13.559837 -5.704641 37.545208 -0.374065 1.723328 0.265509 -0.051495 -320216.000000 0 0 1
34.556459 -14.433337 -4.571641 37.727576 -0.395649 1.692270 0.257282 -0.060476 450679.000000 0 0 1
33.703279 -13.857937 -3.566341 36.615191 -0.390103 1.668352 0.314405 -0.056905 -26334.000000 0 0 1
33.527609 -14.769737 -2.295041 36.708486 -0.414946 1.633358 0.306691 -0.056820 293836.000000 0 0 1
34.742299 -14.970437 -1.562041 37.862664 -0.406857 1.612063 0.319517 -0.052337 616969.000000 0 0 1
35.701789 -15.901437 -2.029241 39.135550 -0.419019 1.622671 0.272613 -0.050677 -209720.000000 0 0 1
35.269339 -17.335437 -2.424941 39.374154 -0.456837 1.632422 0.250585 -0.049631 -1328190.000000 0 0 1
35.154369 -18.105437 -1.266341 39.563116 -0.475597 1.602810 0.227821 -0.050087 122904.000000 0 0 1
35.314029 -19.510037 -1.459841 40.371442 -0.504740 1.606964 0.176351 -0.040552 212461.000000 0 0 1
36.712919 -19.998437 -1.934741 41.851155 -0.498784 1.617042 0.139771 -0.050855 -115942.000000 0 0 1
37.013659 -19.486337 -3.155241 41.948586 -0.484594 1.646084 0.112952 -0.052377 -1176490.000000 0 0 1
37.984359 -20.151537 -3.832641 43.169261 -0.487766 1.659695 0.132148 -0.037023 -929061.000000 0 0 1
38.011229 -19.443037 -5.238141 43.015385 -0.472811 1.692873 0.168206 -0.046244 1213030.000000 0 0 1
36.817679 -19.646437 -6.067641 42.170372 -0.490176 1.715181 0.148731 -0.055262 1275930.000000 0 0 1
36.658019 -18.541837 -6.949941 41.664275 -0.468281 1.738388 0.162552 -0.048562 205798.000000 0 0 1
35.375179 -18.639737 -7.827641 40.744510 -0.484948 1.764113 0.188168 -0.053522 275154.000000 0 0 1
35.447819 -19.695337 -8.796741 41.495022 -0.507144 1.784412 0.192505 -0.051025 -3555.260000 0 0 1
34.416919 -19.578237 -9.738441 40.775838 -0.517204 1.811956 0.168532 -0.058942 -395902.000000 0 0 1
34.161689 -20.882737 -10.550941 41.405701 -0.548680 1.828456 0.162668 -0.042680 -287667.000000 0 0 1
33.599759 -21.916937 -9.841441 41.305568 -0.577987 1.811370 0.151234 -0.042011 -98629.600000 0 0 1
33.349109 -22.984137 -10.732341 41.900081 -0.603439 1.829825 0.115050 -0.032550 -201445.000000 0 0 1
32.797649 -24.259737 -10.107841 42.028432 -0.636863 1.813677 0.112217 -0.017710 -1214320.000000 0 0 1
31.475599 -24.135237 -9.795141 40.855450 -0.654162 1.812906 0.111040 -0.026563 -1449160.000000 0 0 1
30.847879 -25.315837 -9.407241 40.999749 -0.687216 1.802305 0.058799 -0.011896 7730.280000 0 0 1
29.447679 -25.105137 -8.789641 39.682383 -0.705963 1.794149 0.047387 -0.011380 90223.500000 0 0 1
28.525679 -24.641737 -9.722041 38.928751 -0.712477 1.823207 0.048906 -0.011602 -315080.000000 0 0 1
27.270479 -24.258037 -9.213541 37.643336 -0.727003 1.818067 0.061616 -0.015923 190494.000000 0 0 1
26.244379 -23.699537 -10.221141 36.809064 -0.734488 1.852175 0.113707 -0.026886 -305305.000000 0 0 1
25.690579 -24.672837 -11.026541 37.287255 -0.765193 1.871004 0.091034 -0.022650 -44075.300000 0 0 1
24.962579 -24.021437 -12.050141 36.679227 -0.766187 1.905541 0.105181 -0.023200 -160894.000000 0 0 1
24.297479 -25.087937 -12.941041 37.245706 -0.801403 1.925647 0.104579 -0.035515 -98135.200000 0 0 1
25.148079 -25.856737 -13.761641 38.605434 -0.799291 1.935282 0.114174 -0.030359 91112.400000 0 0 1
24.658879 -27.187737 -13.695941 39.176679 -0.834135 1.927934 0.118275 -0.022181 -194150.000000 0 0 1
25.415479 -28.215537 -14.526241 40.658023 -0.837560 1.936149 0.114779 -0.027237 -390120.000000 0 0 1
25.314379 -28.069737 -15.907741 41.009562 -0.836966 1.969152 0.126332 -0.022291 547579.000000 0 0 1
25.962779 -29.253237 -16.421941 42.420490 -0.844920 1.968305 0.121572 -0.022584 10417.100000 0 0 1
25.914279 -29.266137 -17.980041 43.027184 -0.846067 2.001903 0.128780 -0.031826 -947991.000000 0 0 1
24.604479 -29.439637 -18.376841 42.541520 -0.874627 2.017477 0.131797 -0.029125 -744133.000000 0 0 1
24.437279 -29.292137 -19.744041 42.953895 -0.875511 2.048405 0.128078 -0.025999 -373537.000000 0 0 1
22.951179 -29.429137 -20.068441 42.374203 -0.908445 2.064171 0.114608 -0.027761 -358543.000000 0 0 1
22.668879 -29.326237 -21.469541 42.835119 -0.912743 2.095797 0.095235 -0.020088 142762.000000 0 0 1
21.313379 -29.620237 -21.783541 42.498720 -0.947067 2.108971 0.098482 -0.033348 108586.000000 0 0 1
21.144179 -29.883537 -23.312941 43.400407 -0.955019 2.137862 0.092408 -0.027849 -502818.000000 0 0 1
21.334479 -28.719237 -24.126341 43.151303 -0.931878 2.164109 0.089825 -0.035584 400901.000000 0 0 1
21.291879 -29.054737 -25.480971 44.122576 -0.938382 2.186465 0.100480 -0.033073 -625530.000000 0 0 1
21.712979 -27.983037 -26.491701 44.230239 -0.910903 2.212986 0.114633 -0.041704 219664.000000 0 0 1
20.833279 -26.861737 -26.674591 43.210094 -0.911127 2.236132 0.108599 -0.040901 423803.000000 0 0 1
19.605779 -27.186437 -27.301831 43.230532 -0.946010 2.254335 0.123068 -0.042997 -462385.000000 0 0 1
18.838979 -25.922537 -27.736141 42.381347 -0.942348 2.284241 0.116954 -0.040682 -339203.000000 0 0 1
18.050579 -25.463337 -26.652311 41.043277 -0.954132 2.277553 0.085855 -0.027877 -145898.000000 0 0 1
17.543779 -24.171737 -26.931611 40.216523 -0.942966 2.304554 0.076586 -0.013474 378452.000000 0 0 1
16.320679 -23.795837 -26.054031 38.876972 -0.969622 2.305229 0.072932 -0.014914 952131.000000 0 0 1
15.130179 -24.590337 -26.090821 38.914495 -1.019210 2.305632 0.110311 -0.031120 501991.000000 0 0 1
14.129279 -24.394737 -25.101951 37.747154 -1.045816 2.298293 0.088982 -0.024666 261330.000000 0 0 1
14.423379 -24.630637 -23.567741 37.015410 -1.041042 2.261008 0.081710 -0.022203 380383.000000 0 0 1
15.346079 -23.680437 -22.946541 36.370441 -0.995794 2.253524 0.051531 -0.015742 409708.000000 0 0 1
15.780879 -24.133337 -21.683941 36.078351 -0.991682 2.215578 0.049741 -0.028489 -541059.000000 0 0 1
16.926879 -23.325637 -21.163941 35.756356 -0.943045 2.204202 0.056140 -0.037664 -593545.000000 0 0 1
16.556979 -22.019737 -20.832641 34.539851 -0.926070 2.218238 0.036695 -0.037903 -57433.500000 0 0 1
17.734379 -21.338237 -20.489341 34.491182 -0.877373 2.206875 0.042210 -0.038306 -513464.000000 0 0 1
17.532879 -19.909037 -19.913241 33.170903 -0.848776 2.214701 0.062467 -0.028070 -187332.000000 0 0 1
16.919779 -19.845637 -18.640541 32.056170 -0.864813 2.191363 0.065308 -0.035215 805135.000000 0 0 1
15.498879 -19.834037 -18.811141 31.423929 -0.907483 2.212579 0.079597 -0.040820 188573.000000 0 0 1
14.532779 -19.817937 -17.628441 30.244243 -0.938060 2.193052 0.084853 -0.041273 48999.600000 0 0 1
14.691979 -18.627937 -16.952941 29.159158 -0.902980 2.191237 0.114486 -0.041712 413996.000000 0 0 1
13.640279 -18.471837 -16.015341 27.995663 -0.934737 2.179818 0.122324 -0.048685 172851.000000 0 0 1
13.821879 -17.212837 -15.212541 26.809467 -0.894230 2.174180 0.126329 -0.048472 -399576.000000 0 0 1
12.534479 -16.718437 -14.980141 25.710386 -0.927462 2.192781 0.120565 -0.057492 -79297.200000 0 0 1
12.612879 -15.348737 -14.706141 24.717181 -0.882931 2.208033 0.106875 -0.056079 -604705.000000 0 1 0
11.272979 -14.739037 -14.311141 23.433481 -0.917866 2.227758 0.112091 -0.049316 -572459.000000 0 1 0
10.468779 -14.533837 -15.452241 23.655856 -0.946573 2.282612 0.142872 -0.041518 -602735.000000 0 1 0
9.233279 -14.016437 -15.079441 22.563322 -0.988297 2.302740 0.138345 -0.037816 -730060.000000 0 1 0
8.402679 -13.376637 -16.173941 22.608313 -1.009927 2.367990 0.113250 -0.028280 -540758.000000 0 1 0
8.916579 -12.196737 -16.803141 22.596710 -0.939526 2.409250 0.107641 -0.029429 679313.000000 0 1 0
10.022979 -12.543637 -17.686241 23.887362 -0.896636 2.404464 0.137754 -0.031049 679215.000000 0 1 0
10.700579 -11.305437 -18.311041 24.033508 -0.812877 2.437032 0.146352 -0.032829 -187556.000000 0 1 0
9.769879 -10.596537 -19.103741 23.930943 -0.825965 2.495241 0.147027 -0.041687 184655.000000 0 1 0
10.345579 -9.537737 -19.809041 24.298097 -0.744791 2.523958 0.150278 -0.048388 -159028.000000 0 1 0
10.027779 -9.508737 -21.309341 25.398040 -0.758837 2.566267 0.134140 -0.043409 -191900.000000 0 0 1
10.906879 -10.333237 -22.049341 26.681627 -0.758397 2.543457 0.110666 -0.032501 -181837.000000 0 0 1
10.542679 -10.626937 -23.378941 27.760669 -0.789378 2.572074 0.105102 -0.026858 78383.600000 0 0 1
11.721079 -11.346237 -24.110841 29.111054 -0.769150 2.546750 0.114174 -0.024965 246336.000000 0 0 1
11.820979 -12.653037 -23.656741 29.316826 -0.819383 2.509739 0.106925 -0.026355 -162707.000000 0 0 1
12.846279 -13.351337 -24.316941 30.571207 -0.804675 2.490496 0.079024 -0.029193 -130378.000000 0 0 1
12.761979 -14.869037 -24.126441 31.081209 -0.861508 2.459474 0.075695 -0.025897 -336513.000000 0 0 1
11.729279 -15.396537 -24.901641 31.539199 -0.919778 2.480865 0.079894 -0.027252 -365054.000000 0 0 1
11.325279 -16.667537 -24.387841 31.635985 -0.973974 2.451032 0.076825 -0.028443 54414.100000 0 0 1
10.076679 -17.233737 -25.082241 32.057136 -1.041698 2.469344 0.091912 -0.031402 -60914.700000 0 0 1
10.357279 -17.969737 -26.259261 33.462419 -1.047930 2.473071 0.078492 -0.040686 780281.000000 0 0 1
9.251079 -18.832137 -26.639431 33.910045 -1.114182 2.474447 0.091730 -0.040139 379580.000000 0 0 1
9.516979 -19.589037 -27.951241 35.434096 -1.118547 2.479688 0.089751 -0.034600 -347595.000000 0 0 1
10.453179 -20.635737 -27.753821 36.130004 -1.101917 2.446767 0.075079 -0.036395 60761.400000 0 0 1
10.621279 -21.393237 -28.932621 37.517712 -1.109970 2.451477 0.082341 -0.031191 188863.000000 0 0 1
11.571279 -22.567137 -28.503411 38.152518 -1.097002 2.414472 0.071967 -0.023452 324172.000000 0 0 1
11.851079 -23.533837 -29.524081 39.572224 -1.104292 2.412953 0.074970 -0.017890 315745.000000 0 0 1
12.462579 -24.767837 -29.028061 40.142122 -1.104611 2.379123 0.097821 -0.024876 419882.000000 0 0 1
11.468179 -25.694137 -28.274821 39.889514 -1.150995 2.358632 0.087566 -0.022911 219737.000000 0 0 1
11.079579 -25.107737 -27.059051 38.540210 -1.155216 2.349138 0.094862 -0.027102 -562309.000000 0 0 1
10.578879 -25.989837 -26.101391 38.323190 -1.184237 2.320041 0.093902 -0.026231 81518.100000 0 0 1
9.714479 -25.264637 -25.019541 36.859875 -1.203715 2.316889 0.076403 -0.026826 294012.000000 0 0 1
10.390979 -24.198737 -24.254541 35.802711 -1.165203 2.315086 0.089432 -0.027359 102076.000000 0 0 1
10.238079 -22.933537 -24.865741 35.342191 -1.150920 2.351207 0.070137 -0.014534 -391795.000000 0 0 1
11.360379 -21.940037 -24.514741 34.805114 -1.093017 2.352294 0.100159 -0.018238 -120238.000000 0 0 1
11.569379 -21.584237 -23.150541 33.699813 -1.078757 2.328099 0.096561 -0.027273 -444390.000000 0 0 1
12.734879 -20.818137 -23.126641 33.621623 -1.021803 2.329319 0.101190 -0.031612 -625719.000000 0 0 1
13.236579 -20.449737 -21.700341 32.623666 -0.996340 2.298520 0.084441 -0.027111 418002.000000 0 0 1
12.265379 -19.781037 -20.857341 31.253122 -1.015759 2.301466 0.080335 -0.025835 194786.000000 0 0 1
11.870879 -18.489637 -21.138441 30.489640 -1.000045 2.336853 0.089907 -0.027835 -268243.000000 0 0 1
12.888279 -17.363737 -20.969441 30.121829 -0.932272 2.340823 0.108754 -0.036718 214593.000000 0 0 1
13.964779 -17.307237 -21.888241 31.203375 -0.891877 2.348255 0.093308 -0.023748 -403023.000000 0 0 1
14.987579 -16.448037 -21.555541 30.980749 -0.831823 2.340291 0.104664 -0.027454 272385.000000 0 0 1
16.285079 -16.586237 -22.435941 32.306014 -0.794560 2.338496 0.070837 -0.016532 88693.800000 0 0 1
17.366379 -17.244837 -21.833641 32.797613 -0.781887 2.299239 0.062422 -0.015232 -725337.000000 0 0 1
18.443179 -16.875537 -22.618141 33.712237 -0.741042 2.306242 0.058753 -0.007162 -1065940.000000 0 0 1
19.854479 -17.116737 -22.084741 34.277089 -0.711482 2.270904 0.045611 -0.013479 -308360.000000 0 0 1
20.215679 -18.482737 -22.208241 35.263171 -0.740647 2.252074 0.049559 -0.025034 -749618.000000 0 0 1
21.516079 -18.648937 -21.760341 35.836252 -0.714135 2.223348 0.039601 -0.031677 -582409.000000 0 0 1
21.886179 -20.140037 -21.763341 36.854700 -0.743873 2.202496 0.065402 -0.046828 -276318.000000 0 0 1
21.341979 -20.675937 -20.558541 36.133476 -0.769548 2.176038 0.053310 -0.048260 382313.000000 0 0 1
21.630979 -22.044437 -20.510441 37.074717 -0.794864 2.157020 0.086570 -0.049815 -387307.000000 0 0 1
-17.231351 13.138706 28.477845 35.784532 -0.651446 0.650445 0.128280 -0.029119 975521.000000 0 0 1
-18.521051 13.701806 28.148555 36.374578 -0.636939 0.685895 0.135151 -0.034839 779130.000000 0 0 1
-18.875651 13.376606 26.849835 35.442029 -0.616521 0.711213 0.143784 -0.040447 190228.000000 0 0 1
-20.192751 14.034206 26.338335 36.033512 -0.607371 0.751098 0.179009 -0.039044 173399.000000 0 0 1
-20.118551 15.453506 26.347255 36.575193 -0.654999 0.766477 0.166465 -0.037136 -105446.000000 0 0 1
-20.991751 16.064006 25.432205 36.681098 -0.653192 0.804693 0.149918 -0.039194 -963995.000000 0 0 1
-20.974151 17.596706 25.403525 37.348335 -0.698056 0.822791 0.138139 -0.024905 1263710.000000 0 0 1
-19.780351 18.317206 24.934475 36.722069 -0.747012 0.824390 0.120624 -0.034868 2186710.000000 0 0 1
-18.654351 18.289206 25.847635 36.750239 -0.775515 0.790722 0.112844 -0.024870 675326.000000 0 0 1
-17.473651 19.227006 25.516675 36.415751 -0.833136 0.794412 0.100559 -0.027957 149019.000000 0 0 1
-17.688151 20.606306 25.739255 37.416571 -0.861454 0.812190 0.107683 -0.024342 400768.000000 0 0 1
-16.568351 21.302506 25.202085 36.924952 -0.909761 0.819589 0.121711 -0.033407 490646.000000 0 0 1
-16.838151 22.880106 25.186715 37.965684 -0.936361 0.845433 0.117538 -0.032216 74057.700000 0 0 1
-16.377851 23.681306 26.280325 38.983249 -0.965734 0.830991 0.104574 -0.029204 19653.800000 0 0 1
-16.758551 25.034506 26.194615 39.921590 -0.980891 0.855089 0.100562 -0.032229 -88453.400000 0 0 1
-15.935851 25.853406 27.224075 40.786029 -1.018410 0.839970 0.085730 -0.028458 -115146.000000 0 0 1
-14.568251 25.950606 26.940125 40.142723 -1.059255 0.835093 0.089776 -0.030962 191934.000000 0 0 1
-13.877851 26.709806 27.992035 41.104288 -1.091609 0.821668 0.100906 -0.026243 639725.000000 0 0 1
-12.341151 26.828106 28.127795 40.782645 -1.139651 0.809722 0.110368 -0.031051 313171.000000 0 0 1
-11.797451 27.630206 27.123595 40.475888 -1.167253 0.836429 0.092058 -0.030244 -1380120.000000 0 0 1
-10.428951 27.599206 27.246865 40.160563 -1.209511 0.825148 0.083135 -0.017836 -991955.000000 0 0 1
-9.653951 28.171706 25.998585 39.531889 -1.240655 0.853087 0.086773 -0.025158 1484390.000000 0 0 1
-8.211851 28.144206 26.127485 39.270553 -1.286900 0.842874 0.084737 -0.019512 1554310.000000 0 0 1
-7.457551 28.536406 24.999885 38.664399 -1.315179 0.867695 0.110254 -0.025294 -397575.000000 0 0 1
-5.961451 28.257506 25.125925 38.279729 -1.362876 0.854790 0.097424 -0.025012 -764802.000000 0 0 1
-5.360951 29.235306 25.916765 39.435030 -1.389439 0.853696 0.109940 -0.023592 -517642.000000 0 0 1
-3.969651 29.189206 26.016585 39.301788 -1.435628 0.847353 0.117745 -0.025790 -295397.000000 0 0 1
-3.137251 29.926506 24.971835 39.102822 -1.466346 0.878093 0.125444 -0.021619 -362948.000000 0 0 1
-3.222251 29.354506 23.706645 37.869182 -1.461464 0.894365 0.132160 -0.015760 -39987.500000 0 0 1
-2.614351 30.178306 22.712955 37.860841 -1.484382 0.927412 0.129162 -0.025002 -303856.000000 0 0 1
-2.731451 29.558206 21.294165 36.532038 -1.478649 0.948515 0.141420 -0.021407 368687.000000 0 0 1
-4.016051 29.436306 20.713965 36.217304 -1.435202 0.961933 0.140427 -0.016087 -136047.000000 0 0 1
-4.855151 28.451306 21.260365 35.847628 -1.401777 0.935923 0.127424 -0.015727 -84156.400000 0 0 1
-6.363051 28.642006 20.915765 36.032238 -1.352189 0.951486 0.121380 -0.024764 425971.000000 0 0 1
-6.663351 28.617806 19.525465 35.279213 -1.342033 0.984289 0.099646 -0.022175 -69050.800000 0 0 1
-7.456851 27.544906 19.104765 34.341207 -1.306417 0.980843 0.076163 -0.025201 -809189.000000 0 0 1
-6.729251 26.160806 19.006465 33.029022 -1.319028 0.957645 0.063039 -0.025974 -15432.500000 0 0 1
-5.849251 25.937306 17.952965 32.082184 -1.348992 0.976902 0.069052 -0.023456 403852.000000 0 0 1
-4.552951 26.525406 18.144865 32.458630 -1.400808 0.977599 0.093562 -0.016182 -18835.000000 0 0 1
-3.774551 26.592906 16.818965 31.690811 -1.429800 1.011346 0.088902 -0.021539 -84078.100000 0 0 1
-3.241651 25.360906 16.329465 30.337028 -1.443665 1.002415 0.089699 -0.025432 82785.000000 0 0 1
-2.647251 25.557606 15.052065 29.778580 -1.467585 1.040874 0.095489 -0.039465 -141137.000000 0 0 1
-1.973951 24.299606 14.466065 28.348446 -1.489740 1.035269 0.094507 -0.041629 -829338.000000 0 0 1
-0.799051 24.022606 15.138065 28.405723 -1.537546 1.008745 0.092653 -0.036415 -768329.000000 0 0 1
-0.142151 22.904206 14.604465 27.164559 -1.564590 1.003173 0.080864 -0.050862 411595.000000 0 0 1
1.262549 22.617606 15.234465 27.299067 1.515033 0.978753 0.066771 -0.044913 796551.000000 0 0 1
2.252449 23.623106 15.052965 28.101894 1.475734 1.005511 0.073170 -0.045953 170403.000000 0 0 1
3.511849 23.113306 15.428865 28.010853 1.420009 0.987453 0.081508 -0.039092 -20160.900000 0 0 1
4.606149 24.198306 15.674265 29.196870 1.382697 1.004100 0.106234 -0.048726 240118.000000 0 0 1
5.849949 23.584706 15.417465 28.777743 1.327663 1.005409 0.105793 -0.044701 14146.000000 0 0 1
6.953249 24.459606 15.663165 29.865611 1.293828 1.018722 0.121078 -0.046113 260365.000000 0 0 1
8.331249 23.769306 15.692365 29.675578 1.233672 1.013613 0.130564 -0.045142 79894.500000 0 0 1
8.817149 23.092006 14.532465 28.673601 1.206054 1.039300 0.106789 -0.038738 -71959.200000 0 0 1
9.412049 23.930606 13.612365 29.095654 1.196074 1.083941 0.115072 -0.040418 -485963.000000 0 0 1
10.049749 23.171306 12.381665 28.128500 1.161567 1.114995 0.081806 -0.027052 -171445.000000 0 0 1
11.167849 22.328906 12.529265 27.933553 1.107027 1.105667 0.079930 -0.019973 -20781.300000 0 0 1
11.385749 21.574206 11.347065 26.904229 1.085197 1.135413 0.058998 -0.019287 -376218.000000 0 0 1
12.589749 20.663306 11.527165 26.802044 1.023581 1.126209 0.093967 -0.028564 -372501.000000 0 0 1
12.556249 19.719806 12.550265 26.533739 1.003804 1.078112 0.078176 -0.019446 -131182.000000 0 0 1
13.792249 19.046306 12.654665 26.704465 0.944050 1.077107 0.078023 -0.023844 -83778.700000 0 0 1
14.129949 18.517806 14.071165 27.213274 0.918998 1.027372 0.082855 -0.025710 -633132.000000 0 0 1
15.380049 17.918706 14.232265 27.571422 0.861490 1.028393 0.089976 -0.034668 -212926.000000 0 0 1
15.791649 17.818106 15.567565 28.446620 0.845619 0.991715 0.089179 -0.035084 -364063.000000 0 0 1
17.028549 16.947006 15.655165 28.675019 0.782998 0.993272 0.076278 -0.034855 -421616.000000 0 0 1
17.682249 16.812406 16.923865 29.694042 0.760187 0.964362 0.089407 -0.039974 476040.000000 0 0 1
18.814849 15.944806 16.761565 29.819213 0.703017 0.973866 0.093722 -0.039927 850463.000000 0 0 1
19.546549 15.686106 18.170565 30.956275 0.676263 0.943479 0.102554 -0.035298 129007.000000 0 0 1
20.268149 16.777706 18.638065 32.243864 0.691456 0.954478 0.114863 -0.022371 291454.000000 0 0 1
19.413849 17.674606 19.352465 32.616057 0.738538 0.935592 0.085845 -0.008324 230757.000000 0 0 1
20.197749 18.646206 20.280965 34.160615 0.745476 0.935154 0.076820 -0.001737 62740.200000 0 0 1
19.404849 19.728106 20.775865 34.603221 0.793658 0.926792 0.103493 -0.021341 157816.000000 0 0 1
20.157349 20.607106 21.558365 35.996314 0.796431 0.928664 0.094895 -0.014553 -213027.000000 0 0 1
19.253149 21.699906 22.121565 36.481959 0.845073 0.919309 0.125842 -0.023736 49340.300000 0 0 1
18.571049 21.289006 23.298975 36.618955 0.853480 0.881163 0.122547 -0.025097 124774.000000 0 0 1
17.871249 22.363506 23.874535 37.276016 0.896589 0.875673 0.113475 -0.032133 57713.900000 0 0 1
17.118549 22.114806 25.247845 37.677089 0.912064 0.836438 0.148741 -0.030059 313830.000000 0 0 1
16.050849 21.197906 25.028755 36.516018 0.922709 0.815618 0.143168 -0.028925 -402456.000000 0 0 1
15.377649 21.064506 26.238995 36.995545 0.940201 0.782366 0.154394 -0.029196 -292451.000000 0 0 1
14.242949 20.032506 26.184645 35.913765 0.952731 0.753794 0.171629 -0.022761 -34847.800000 0 0 1
14.641049 18.638706 26.228495 35.351034 0.904948 0.734831 0.135465 -0.019809 345139.000000 0 0 1
15.252249 17.998306 25.094815 34.442995 0.867798 0.754535 0.143753 -0.032503 -47184.700000 0 0 1
14.208649 17.803106 24.001015 33.089047 0.897215 0.759259 0.163317 -0.031748 -314199.000000 0 0 1
13.870149 18.890106 23.165805 32.952567 0.937449 0.791183 0.165234 -0.028760 444178.000000 0 0 1
14.878949 19.330406 22.229085 33.002726 0.914795 0.831791 0.147008 -0.027302 377992.000000 0 0 1
15.272349 18.317006 21.151465 31.876980 0.875795 0.845264 0.135240 -0.028050 -592743.000000 0 0 1
14.261749 17.922206 20.270765 30.586057 0.898647 0.846317 0.133124 -0.022538 -192280.000000 0 0 1
14.590149 16.707106 19.572065 29.581507 0.852936 0.847803 0.095049 -0.021199 -17256.400000 0 0 1
13.402849 16.143806 18.775265 28.156161 0.877900 0.840855 0.091278 -0.018970 -68135.900000 0 0 1
12.922049 16.971406 17.755865 27.753896 0.920038 0.876609 0.109381 -0.025031 1070930.000000 0 0 1
11.748349 16.404906 17.083765 26.438602 0.949314 0.868244 0.078353 -0.022593 1265120.000000 0 0 1
11.331149 17.019206 15.744965 25.806051 0.983404 0.914576 0.067672 -0.017139 -176370.000000 0 0 1
10.681649 18.262606 15.756965 26.379961 1.041560 0.930656 0.074866 -0.027284 1524.500000 0 0 1
10.207049 18.554106 14.473765 25.650119 1.067858 0.971239 0.061425 -0.014340 -204282.000000 0 0 1
9.088349 19.622206 14.343965 25.949536 1.137047 0.985119 0.070992 -0.020418 381286.000000 0 0 1
7.832949 19.184406 14.856065 25.497043 1.183157 0.948801 0.060135 -0.021836 -95429.600000 0 0 1
6.968449 20.307606 14.821365 26.088906 1.240242 0.966589 0.069077 -0.026152 634436.000000 0 0 1
5.573549 19.988406 15.447465 25.869384 1.298864 0.930874 0.070067 -0.031555 609885.000000 0 0 1
4.616049 19.175806 14.783265 24.648821 1.334568 0.927601 0.079251 -0.043900 -159745.000000 0 1 0
3.500749 19.018706 15.627965 24.863622 1.388765 0.891112 0.075381 -0.040118 420689.000000 0 1 0
2.283949 18.387306 14.872365 23.759139 1.447216 0.894429 0.060904 -0.036184 462431.000000 0 1 0
1.528249 19.284306 14.087265 23.930546 1.491713 0.941380 0.066340 -0.045230 78456.900000 0 1 0
0.529949 18.637406 13.306965 22.906529 1.542369 0.950932 0.060085 -0.047882 270640.000000 0 1 0
-0.232951 19.648506 12.418065 23.244922 -1.558941 1.007203 0.064032 -0.052438 -48042.200000 0 1 0
-1.228851 20.437906 13.008865 24.257961 -1.510743 1.004782 0.072535 -0.042206 -76633.600000 0 1 0
-2.374851 20.628306 12.217965 24.092439 -1.456175 1.038946 0.064928 -0.045597 388452.000000 0 1 0
-3.564851 21.409106 12.831465 25.213181 -1.405799 1.036868 0.061971 -0.037427 -76467.400000 0 0 1
-4.412651 20.654306 13.630965 25.137125 -1.360317 0.997667 0.070307 -0.037955 -502110.000000 0 0 1
-5.532351 21.456206 13.921165 26.168197 -1.318449 1.009850 0.084900 -0.022116 -82278.400000 0 0 1
-6.399651 20.931606 15.081065 26.580560 -1.274081 0.967485 0.073868 -0.020700 -586930.000000 0 0 1
-7.281751 19.877006 14.879865 25.875271 -1.219639 0.958117 0.062754 -0.015913 330233.000000 0 0 1
-8.093151 19.461306 15.985865 26.453533 -1.176694 0.921910 0.048997 0.002649 1133050.000000 0 0 1
-9.306751 20.300906 16.529165 27.784091 -1.140946 0.933637 0.039241 0.009831 829778.000000 0 0 1
-10.489251 20.364806 15.746265 27.797384 -1.095167 0.968586 0.032686 0.001808 590012.000000 0 0 1
-11.589251 19.773306 16.443865 28.208067 -1.040656 0.948443 0.017483 0.013219 1085770.000000 0 0 1
-12.967151 19.706206 15.700565 28.337066 -0.988801 0.983557 0.024992 -0.000937 689088.000000 0 0 1
-13.676751 20.905806 15.433765 29.365070 -0.991468 1.017397 0.021094 0.001666 375142.000000 0 0 1
-14.706851 20.614706 14.491965 29.176611 -0.951123 1.051006 0.024480 -0.004419 54315.600000 0 0 1
-15.737351 21.743806 14.305065 30.415328 -0.944300 1.081138 0.027149 -0.010647 -209653.000000 0 0 1
-16.834651 21.678306 15.186165 31.368360 -0.910508 1.065435 0.024543 -0.023334 -481102.000000 0 0 1
-17.762751 22.613606 14.756865 32.321132 -0.904966 1.096660 0.046769 -0.029106 -372907.000000 0 0 1
-19.203651 22.444506 15.269265 33.251865 -0.863057 1.093702 0.097787 -0.037468 -52118.000000 0 0 1
-19.937751 21.335006 14.696365 32.690664 -0.819239 1.104525 0.091239 -0.040922 695753.000000 0 0 1
-21.070451 20.844406 15.399465 33.400549 -0.780005 1.091613 0.111072 -0.048062 1244700.000000 0 0 1
-22.359151 21.758606 15.515665 34.844001 -0.771787 1.109299 0.107260 -0.043156 301429.000000 0 0 1
-22.875351 22.085206 14.207965 34.826775 -0.767826 1.150577 0.122511 -0.041627 -39996.200000 0 0 1
-23.828051 23.097306 14.277665 36.126351 -0.769827 1.164495 0.148769 -0.052445 -288738.000000 0 0 1
-23.345451 24.442806 13.657665 36.455351 -0.808357 1.186787 0.122288 -0.047040 -448005.000000 0 0 1
-22.269251 25.012106 14.314765 36.420289 -0.843345 1.166857 0.084123 -0.042320 -504512.000000 0 0 1
-21.784651 26.109006 13.547565 36.603111 -0.875445 1.191658 0.057521 -0.033517 -42026.800000 0 0 1
-20.419851 26.622506 14.108365 36.397446 -0.916495 1.172748 0.032998 -0.021830 603563.000000 0 0 1
-19.392451 25.931106 13.397465 35.042567 -0.928676 1.178491 0.034549 -0.014263 122351.000000 0 0 1
-18.067851 26.397606 13.568465 34.747433 -0.970583 1.169634 0.010430 -0.011966 -196009.000000 0 0 1
-17.137251 25.737906 12.569165 33.378273 -0.983368 1.184708 0.025378 -0.008376 -630294.000000 0 0 1
-15.854551 26.265806 12.750965 33.224185 -1.027720 1.176904 0.030682 -0.001961 -216714.000000 0 0 1
-14.906651 25.928706 11.763765 32.138640 -1.049030 1.196055 0.036190 0.005795 875115.000000 0 0 1
-13.485151 26.564006 11.920565 32.087312 -1.101049 1.190168 0.053336 0.011431 705909.000000 0 0 1
-12.362851 25.686306 11.727965 30.824853 -1.122219 1.180491 0.066300 0.008222 1003780.000000 0 0 1
-11.083751 26.256006 12.001365 30.923456 -1.171349 1.172228 0.093003 -0.001848 690621.000000 0 0 1
-10.598151 27.428806 11.046165 31.411430 -1.202080 1.211452 0.109627 -0.012100 -197462.000000 0 0 1
-9.398251 28.008106 11.574865 31.729460 -1.247048 1.197380 0.127540 -0.021427 664971.000000 0 0 1
-8.941351 29.170206 10.919565 32.405024 -1.273366 1.227098 0.128562 -0.024687 171062.000000 0 0 1
-7.681051 29.783306 11.608165 32.875422 -1.318398 1.209919 0.109006 -0.025043 1100250.000000 0 0 1
-6.438451 29.158706 11.246965 31.908902 -1.353476 1.210586 0.108492 -0.026088 243313.000000 0 0 1
-5.345751 29.711606 11.912165 32.453910 -1.392780 1.194962 0.142969 -0.034639 518296.000000 0 0 1
-3.965351 29.190406 11.357765 31.572181 -1.435778 1.202807 0.148351 -0.041226 560774.000000 0 0 1
-3.641751 29.554206 10.017865 31.417687 -1.448192 1.246269 0.134864 -0.046844 -68385.300000 0 0 1
-2.329351 29.298606 9.591665 30.916569 -1.491459 1.255347 0.134472 -0.052857 -183100.000000 0 0 1
-1.886451 30.217306 8.461365 31.436269 -1.508448 1.298276 0.133327 -0.059959 -20548.200000 0 0 1
-2.597951 30.059106 7.246565 31.029211 -1.484582 1.335079 0.132140 -0.045876 61195.300000 0 0 1
-2.090251 30.909206 6.233765 31.600759 -1.503274 1.372228 0.141476 -0.036745 -16916.400000 0 0 1
12.289249 -33.552837 -26.247381 44.336706 -1.219705 2.204336 0.147714 -0.045226 397.762000 0 0 1
12.791949 -33.639337 -24.927541 43.779233 -1.207416 2.176562 0.132582 -0.044595 657910.000000 0 0 1
13.855749 -32.689737 -24.790441 43.303195 -1.169895 2.180330 0.130172 -0.043473 589907.000000 0 0 1
14.761649 -32.757637 -23.536441 42.952685 -1.147417 2.150722 0.113226 -0.039566 -234921.000000 0 0 1
14.208249 -31.964337 -22.495041 41.588701 -1.152523 2.142295 0.118043 -0.041071 387510.000000 0 0 1
14.838949 -32.092837 -21.248641 41.251053 -1.137699 2.111927 0.098791 -0.031616 -929154.000000 0 0 1
16.247949 -31.598237 -21.026041 41.286061 -1.095850 2.105141 0.071452 -0.028668 -387085.000000 0 0 1
17.237049 -32.388237 -21.699941 42.626297 -1.081721 2.104905 0.083943 -0.025337 236694.000000 0 0 1
18.515949 -32.249137 -21.110541 42.760989 -1.049599 2.087121 0.075302 -0.032478 -660801.000000 0 0 1
19.407849 -33.391637 -21.445241 44.176514 -1.044301 2.077668 0.055903 -0.023603 -836465.000000 0 0 1
20.703249 -33.156837 -20.925341 44.338136 -1.012626 2.062297 0.077313 -0.021056 598685.000000 0 0 1
21.569849 33.137406 -21.213641 44.870532 0.993774 2.063233 0.075604 -0.021067 855851.000000 0 0 1
23.013349 33.328806 -20.625641 45.451519 0.966479 2.041815 0.109616 -0.026324 406869.000000 0 0 1
23.770249 -33.220737 -21.470641 46.147920 -0.949727 2.054721 0.098375 -0.029767 -678228.000000 0 0 1
25.043649 -33.116037 -20.913941 46.489238 -0.923314 2.037412 0.100415 -0.027442 -93063.300000 0 0 1
26.157749 -32.891137 -22.003041 47.436152 -0.898938 2.053127 0.123321 -0.029701 339636.000000 0 0 1
26.164849 -31.576437 -22.590941 46.819027 -0.878846 2.074322 0.126289 -0.027393 -303957.000000 0 0 1
25.090849 -31.422037 -23.470641 46.559275 -0.896964 2.099139 0.105060 -0.028884 -270768.000000 0 0 1
24.761749 -29.887237 -23.669141 45.460086 -0.878914 2.118417 0.105420 -0.036947 -30108.900000 0 0 1
25.845949 -29.127137 -24.230541 45.864173 -0.845015 2.127406 0.105095 -0.045400 466771.000000 0 0 1
25.826749 -27.769437 -23.839641 44.793873 -0.821629 2.132002 0.123794 -0.045470 126732.000000 0 0 1
26.525049 -26.840037 -24.837041 45.175706 -0.791301 2.152906 0.104150 -0.050196 225475.000000 0 0 1
25.711849 -26.525937 -25.957621 45.150001 -0.800981 2.183302 0.106483 -0.040423 229372.000000 0 0 1
26.441149 -25.724137 -26.865271 45.635604 -0.771654 2.200235 0.086274 -0.032622 18600.400000 0 0 1
25.500449 -25.442537 -28.084021 45.676119 -0.784261 2.232994 0.090887 -0.027994 348344.000000 0 0 1
24.608449 -24.418337 -27.869341 44.480683 -0.781520 2.247914 0.105526 -0.024495 529421.000000 0 0 1
23.350349 -24.715237 -27.211961 43.549656 -0.813787 2.245734 0.087340 -0.017168 327710.000000 0 0 1
22.388349 -23.571537 -27.104571 42.326272 -0.811136 2.265779 0.085985 -0.018947 -445432.000000 0 0 1
21.925449 -22.985837 -28.310021 42.550339 -0.809004 2.298732 0.116522 -0.025934 222556.000000 0 0 1
21.444449 -21.660937 -28.094611 41.453200 -0.790420 2.315485 0.100761 -0.010502 -82710.100000 0 0 1
20.604649 -21.047637 -29.256021 41.514688 -0.796033 2.352818 0.143765 -0.022524 314764.000000 0 0 1
19.389549 -21.779937 -29.376821 41.392244 -0.843395 2.359894 0.122216 -0.031515 136857.000000 0 0 1
18.587649 -21.229437 -30.404721 41.480559 -0.851649 2.393499 0.111222 -0.037633 158653.000000 0 0 1
17.242849 -22.014737 -30.498281 41.377647 -0.906358 2.399523 0.108794 -0.040887 130341.000000 0 0 1
17.340349 -23.317937 -30.986391 42.480235 -0.931373 2.388286 0.108311 -0.015878 -655226.000000 0 0 1
16.271549 -24.047137 -30.532041 42.133522 -0.975912 2.381322 0.106356 -0.027553 -744655.000000 0 0 1
16.474949 -25.511737 -30.797921 43.252568 -0.997394 2.363208 0.134153 -0.028445 656255.000000 0 0 1
15.457149 -26.335737 -30.197251 42.946111 -1.040045 2.350604 0.124850 -0.024312 652941.000000 0 0 1
15.832149 -27.641337 -30.550081 44.136243 -1.050639 2.335297 0.162741 -0.037354 400592.000000 0 0 1
15.187249 -28.743937 -29.677871 44.018661 -1.084716 2.310692 0.148608 -0.039575 212355.000000 0 0 1
15.776349 -28.854237 -28.348881 43.417960 -1.070444 2.282243 0.162918 -0.052868 262946.000000 0 0 1
15.316149 -27.868937 -27.416101 41.986958 -1.068277 2.282292 0.129676 -0.041971 -211657.000000 0 0 1
16.121649 -27.842237 -26.110021 41.434659 -1.045934 2.252542 0.108256 -0.037258 -409766.000000 0 0 1
15.928449 -28.979237 -25.216641 41.585943 -1.068222 2.222289 0.104970 -0.038163 201793.000000 0 0 1
16.766249 -28.888537 -24.078041 41.175317 -1.044930 2.195391 0.110659 -0.041872 -336744.000000 0 0 1
16.230949 -27.876137 -22.980641 39.605967 -1.043529 2.189810 0.091994 -0.035229 1134580.000000 0 0 1
15.069949 -28.264937 -22.235641 38.992740 -1.080968 2.177607 0.097568 -0.036354 1953780.000000 0 0 1
13.794549 -28.428937 -22.927341 39.040454 -1.119035 2.198480 0.096856 -0.033203 235943.000000 0 0 1
12.543049 -28.091437 -22.176541 37.924344 -1.150850 2.195377 0.076418 -0.026827 -719407.000000 0 0 1
12.226549 -26.733637 -22.086341 36.769312 -1.141849 2.215139 0.060925 -0.028494 1089010.000000 0 0 1
11.003049 -26.467837 -21.345241 35.738394 -1.176817 2.210881 0.064662 -0.028250 940976.000000 0 0 1
10.968049 -24.935937 -21.177841 34.505072 -1.156416 2.231611 0.076237 -0.029227 -4552.650000 0 0 1
11.725149 -24.397537 -20.129041 33.732732 -1.122799 2.210205 0.072893 -0.031457 32917.900000 0 0 1
11.263949 -23.038237 -20.006041 32.525046 -1.116049 2.233305 0.083092 -0.037281 -62234.500000 0 0 1
11.780749 -22.274037 -18.795941 31.435747 -1.084297 2.211695 0.090561 -0.040938 -225486.000000 0 0 1
11.198249 -22.666237 -17.579041 30.792560 -1.111920 2.178381 0.105353 -0.044334 -5909.960000 0 0 1
11.226749 -21.655937 -16.575441 29.491774 -1.092526 2.167642 0.096467 -0.047415 -365037.000000 0 0 1
10.379949 -21.960637 -15.369641 28.744370 -1.129258 2.134950 0.092450 -0.043325 -528023.000000 0 0 1
10.968449 -22.999037 -14.712841 29.423295 -1.125792 2.094442 0.088327 -0.033251 -239156.000000 0 0 1
10.249249 -23.541937 -13.628041 29.068770 -1.160182 2.058751 0.089558 -0.031650 15833.700000 0 0 1
10.570249 -25.064637 -13.486641 30.362077 -1.171707 2.031070 0.111695 -0.032497 535623.000000 0 0 1
11.862549 -25.416337 -13.001741 30.915296 -1.134118 2.004859 0.077264 -0.027988 50272.000000 0 0 1
11.986149 -26.845537 -13.116841 32.193200 -1.150869 1.990447 0.081080 -0.034944 -784965.000000 0 0 1
13.288449 -27.449637 -12.576341 32.988329 -1.119947 1.961929 0.063824 -0.033910 -174257.000000 0 0 1
14.529349 -27.006037 -13.074441 33.337202 -1.077210 1.973805 0.070960 -0.029685 -89829.000000 0 0 1
14.765349 -27.351937 -14.418641 34.264285 -1.075796 2.005131 0.074292 -0.034674 -1127100.000000 0 0 1
16.077549 -26.810337 -14.974541 34.662929 -1.030614 2.017511 0.065034 -0.028892 -415800.000000 0 0 1
17.271749 -27.452637 -14.608341 35.571959 -1.009220 1.993985 0.088659 -0.028523 -443582.000000 0 0 1
18.235549 -27.104237 -15.575841 36.190907 -0.978564 2.015710 0.116536 -0.028722 489356.000000 0 0 1
19.643449 -27.706037 -15.243741 37.227157 -0.954059 1.992679 0.120338 -0.031422 554512.000000 0 0 1
19.753049 -29.080437 -15.597841 38.459686 -0.974129 1.988391 0.111391 -0.028572 -115483.000000 0 0 1
21.115749 -29.440637 -15.623541 39.455304 -0.948599 1.977932 0.120612 -0.021149 159745.000000 0 0 1
21.529849 -30.516237 -16.663841 40.895706 -0.956375 1.990480 0.103451 -0.023532 13616.700000 0 0 1
21.056549 -31.812537 -16.312341 41.491062 -0.986105 1.974855 0.090761 -0.011900 150944.000000 0 0 1
21.386849 -32.718737 -17.318141 42.753141 -0.991854 1.987855 0.082048 -0.017738 86664.000000 0 0 1
21.161149 33.248706 -16.925641 42.892284 1.004005 1.976438 0.069546 -0.014851 407087.000000 0 0 1
22.293749 32.863906 -16.170541 42.878129 0.974738 1.957490 0.084953 -0.014278 454122.000000 0 0 1
22.043949 31.547206 -15.948041 41.659356 0.960903 1.963643 0.079914 -0.025182 -224729.000000 0 0 1
22.822949 30.879406 -14.793441 41.149370 0.934308 1.938535 0.072529 -0.020426 -1335280.000000 0 0 1
24.173649 30.740006 -15.058241 41.905416 0.904409 1.938356 0.074731 -0.016780 -479129.000000 0 0 1
24.935249 30.363706 -13.883441 41.670988 0.883250 1.910458 0.076120 -0.010094 326932.000000 0 0 1
24.618349 29.060306 -13.142241 40.289986 0.867961 1.903068 0.077891 -0.007894 -881721.000000 0 0 1
25.029549 27.849206 -13.828041 39.915803 0.838671 1.924559 0.079950 -0.002571 133384.000000 0 0 1
24.832949 26.602106 -13.120941 38.684706 0.819781 1.916838 0.054712 -0.002171 -793722.000000 0 0 1
23.420049 26.259206 -12.707141 37.410106 0.842486 1.917364 0.054449 -0.002576 -1352120.000000 0 0 1
22.608349 25.783506 -13.774541 36.954900 0.850918 1.952756 0.069751 -0.008830 1905550.000000 0 0 1
21.157849 25.931706 -13.613141 36.130674 0.886431 1.957109 0.079535 -0.012872 1633050.000000 0 0 1
20.637949 27.390606 -13.599341 36.893256 0.925079 1.948313 0.079732 -0.014150 -676016.000000 0 0 1
20.649949 28.051506 -14.869141 37.873457 0.936222 1.974254 0.083520 -0.015456 465815.000000 0 0 1
19.677349 27.442606 -15.743341 37.257851 0.948728 2.007054 0.074849 -0.009917 -70576.000000 0 0 1
19.548449 28.262206 -17.023741 38.349732 0.965675 2.030751 0.070900 -0.013986 369383.000000 0 0 1
18.612349 29.347406 -17.058641 38.712879 1.005603 2.027114 0.070241 -0.015164 2535.660000 0 0 1
18.887949 30.112806 -18.228541 39.947659 1.010588 2.044641 0.066001 -0.018447 -665362.000000 0 0 1
17.889349 31.143206 -18.677241 40.481693 1.049396 2.050341 0.056622 -0.017367 -576270.000000 0 0 1
17.869849 32.299506 -17.846541 41.001081 1.065458 2.021134 0.070594 -0.030108 -271657.000000 0 0 1
16.924449 33.220906 -18.271541 41.520053 1.099616 2.026468 0.062767 -0.024502 -398919.000000 0 0 1
16.712249 -32.937437 -17.376941 40.818282 -1.101251 2.010548 0.080412 -0.024964 1163590.000000 0 0 1
15.571149 -32.170237 -17.917441 39.980239 -1.120011 2.035499 0.071954 -0.025958 1201140.000000 0 0 1
15.242949 -31.188437 -16.982241 38.645344 -1.116199 2.025769 0.071120 -0.030361 -548935.000000 0 0 1
14.123549 -30.243337 -17.389041 37.636589 -1.133898 2.051073 0.059127 -0.029513 -753917.000000 0 0 1
12.856649 -30.826737 -17.451241 37.684572 -1.175669 2.052271 0.070190 -0.027709 -886162.000000 0 0 1
11.898549 -29.849937 -17.759141 36.714865 -1.191487 2.075679 0.052041 -0.020486 -828816.000000 0 0 1
10.557149 -30.538937 -17.875541 36.927159 -1.237962 2.076103 0.060130 -0.023260 -2203240.000000 0 0 1
10.016749 -31.188137 -16.729641 36.782007 -1.260031 2.042980 0.065587 -0.024859 702122.000000 0 0 1
8.797049 -31.867837 -17.036541 37.191274 -1.301456 2.046629 0.082128 -0.015254 1012330.000000 0 0 1
7.535049 -31.166737 -17.623141 36.588490 -1.333582 2.073342 0.085462 -0.006481 -632569.000000 0 0 1
7.674049 -30.640937 -18.935841 36.828306 -1.325393 2.110831 0.067933 -0.007002 -193411.000000 0 0 1
7.445049 -31.577037 -19.986141 38.104906 -1.339251 2.122928 0.075346 -0.017319 -1124780.000000 0 0 1
7.605749 -31.040537 -21.440141 38.484309 -1.330504 2.161703 0.067717 -0.013644 483439.000000 0 0 1
8.884349 -30.539737 -21.920041 38.627651 -1.287699 2.174227 0.069581 -0.022647 1936940.000000 0 0 1
9.974549 -31.504537 -21.967041 39.680957 -1.264174 2.157467 0.073898 -0.029858 585181.000000 0 0 1
9.785449 -32.694637 -22.983241 41.145154 -1.279983 2.163480 0.093991 -0.039751 -740011.000000 0 0 1
8.786849 -33.618237 -22.664941 41.486072 -1.315144 2.148768 0.100294 -0.049357 -387651.000000 0 0 1
8.581149 32.782506 -23.608641 41.300082 1.314780 2.179295 0.118037 -0.055098 -281797.000000 0 0 1
7.368649 31.838806 -23.295341 40.133271 1.343364 2.190077 0.118358 -0.057533 875576.000000 0 0 1
6.086649 32.435906 -23.498141 40.512935 1.385302 2.189544 0.113918 -0.060038 514168.000000 0 0 1
5.680949 33.284106 -22.433841 40.538650 1.401745 2.157230 0.089424 -0.051632 -972956.000000 0 0 1
4.317849 -33.458237 -22.658241 40.638570 -1.442454 2.162234 0.094229 -0.056374 -488394.000000 0 0 1
3.230949 33.087606 -22.608741 40.204277 1.473457 2.168017 0.109619 -0.061448 -1202720.000000 0 0 1
2.094949 -33.636637 -22.940841 40.768791 -1.508595 2.168452 0.124841 -0.063005 -425427.000000 0 0 1
0.786249 33.176106 -22.323941 39.995381 1.547101 2.162966 0.129670 -0.068096 342873.000000 0 0 1
0.616549 33.459706 -20.954541 39.484489 1.552372 2.130226 0.121234 -0.057627 153101.000000 0 0 1
-0.664451 33.013406 -20.525241 38.879455 -1.550672 2.126946 0.142677 -0.060891 338914.000000 0 0 1
-0.743951 33.121106 -18.950341 38.166432 -1.548339 2.090380 0.158193 -0.048928 456491.000000 0 0 1
0.158649 32.227906 -18.282441 37.052810 1.565874 2.086809 0.156103 -0.051630 179611.000000 0 0 1
-0.188751 32.161406 -16.906641 36.334917 -1.564928 2.054770 0.118897 -0.038437 -76785.500000 0 0 1
0.605349 31.171406 -16.056641 35.069056 1.551379 2.046380 0.069393 -0.032768 -729108.000000 0 0 1
1.637449 31.834506 -15.433641 35.416300 1.519405 2.021699 0.086300 -0.022757 -977298.000000 0 0 1
2.387749 30.851706 -14.752141 34.280531 1.493556 2.015661 0.105167 -0.015258 -48683.800000 0 0 1
3.443449 31.364106 -13.753241 34.419706 1.461445 1.981849 0.107279 -0.025642 2749.740000 0 0 1
4.612549 31.955706 -14.301941 35.312721 1.427444 1.987784 0.088603 -0.029285 239298.000000 0 0 1
5.360749 32.578906 -13.261341 35.580696 1.407711 1.952726 0.096344 -0.034119 1584740.000000 0 0 1
6.805649 33.080606 -13.776241 36.475035 1.367898 1.958096 0.080585 -0.038529 1789040.000000 0 0 1
7.687249 32.017806 -14.074741 35.809664 1.335163 1.974735 0.074239 -0.032837 -258651.000000 0 0 1
8.700549 32.370206 -14.991041 36.718675 1.308219 1.991352 0.079523 -0.023355 249550.000000 0 0 1
9.733049 31.255406 -15.230141 36.105261 1.268911 2.006255 0.063945 -0.031287 93605.500000 0 0 1
10.672649 31.020406 -14.203841 35.748009 1.239430 1.979404 0.074183 -0.041861 150570.000000 0 0 1
11.508049 29.879006 -14.393841 35.105169 1.203152 1.993273 0.088078 -0.041979 519790.000000 0 0 1
10.839349 28.500706 -13.992541 33.549559 1.207371 2.001016 0.087936 -0.036473 345869.000000 0 0 1
10.015849 27.930206 -15.012741 33.253512 1.226478 2.039201 0.101485 -0.040227 380685.000000 0 0 1
9.234049 26.844206 -14.511041 31.881803 1.239489 2.043338 0.086490 -0.030135 377360.000000 0 0 1
8.382949 26.015406 -15.524241 31.433696 1.259072 2.087334 0.091728 -0.023053 864456.000000 0 0 1
9.209149 25.284806 -16.460341 31.544772 1.221513 2.119766 0.111129 -0.017622 338892.000000 0 0 1
8.411649 24.302106 -17.097041 30.881338 1.237575 2.157521 0.105374 -0.017422 116406.000000 0 0 1
9.228749 23.344106 -17.914341 30.838948 1.194318 2.190630 0.120551 -0.013341 -233933.000000 0 0 1
8.366649 22.406906 -18.480141 30.225583 1.213433 2.228634 0.127129 -0.026256 -22091.800000 0 0 1
9.122349 21.562206 -19.367741 30.385118 1.170560 2.261927 0.132114 -0.025779 404141.000000 0 0 1
8.388149 20.487506 -20.226641 29.986930 1.182189 2.311104 0.116410 -0.041958 149631.000000 0 0 1
7.673849 19.427206 -19.616541 28.655069 1.194603 2.324817 0.121713 -0.047626 -75257.000000 0 0 1
7.019749 18.670406 -20.587341 28.665302 1.211164 2.372004 0.117040 -0.051817 -138537.000000 0 0 1
26.557549 -12.789394 -9.608341 31.003100 -0.448797 1.885900 0.162696 -0.025809 -40825.100000 0 0 1
26.806749 -12.051594 -8.452741 30.582537 -0.422499 1.850833 0.184791 -0.042986 1496520.000000 0 0 1
25.530649 -11.489494 -8.037241 29.127646 -0.422877 1.850355 0.171271 -0.034606 717772.000000 0 0 1
25.669649 -10.803494 -6.668841 28.637734 -0.398364 1.805823 0.150944 -0.052487 -160434.000000 0 0 1
26.110349 -9.487194 -6.491141 28.528794 -0.348518 1.800336 0.193028 -0.067045 -22604.800000 0 0 1
27.267649 -9.069794 -7.134441 29.608886 -0.321109 1.814147 0.168339 -0.062267 -1593990.000000 0 0 1
27.792849 -7.729694 -6.578341 29.588261 -0.271263 1.794999 0.235456 -0.060754 -129130.000000 0 0 1
28.202549 -7.705294 -5.209841 29.696764 -0.266704 1.747144 0.237491 -0.080515 360839.000000 0 0 1
29.300149 -8.542094 -4.903941 30.911402 -0.283675 1.730114 0.211420 -0.084813 -462162.000000 0 0 1
29.647049 -8.514794 -3.373941 31.029546 -0.279678 1.679745 0.217411 -0.095025 -263782.000000 0 0 1
30.386549 -7.386894 -2.927441 31.408255 -0.238472 1.664138 0.232487 -0.075123 323224.000000 0 0 1
30.756649 -7.471994 -1.576641 31.690503 -0.238322 1.620568 0.250570 -0.067226 -391907.000000 0 0 1
31.625249 -6.299594 -1.238541 32.270346 -0.196621 1.609186 0.231381 -0.069530 -737777.000000 0 0 1
30.914849 -5.068094 -1.291941 31.354148 -0.162492 1.612013 0.288169 -0.057329 251809.000000 0 0 1
31.631649 -3.898694 -0.880341 31.883163 -0.122634 1.598411 0.266516 -0.039011 -288802.000000 0 0 1
32.243649 -3.803594 0.542859 32.471756 -0.117421 1.554078 0.237487 -0.046363 -251636.000000 0 0 1
31.373349 -3.692694 1.658459 31.633424 -0.117163 1.518345 0.291713 -0.077910 -104158.000000 0 0 1
32.036249 -3.343094 2.835159 32.334744 -0.103977 1.483002 0.210998 -0.062498 -315069.000000 0 0 1
31.531849 -4.116094 4.072259 32.059056 -0.129804 1.443429 0.230325 -0.068111 -149442.000000 0 0 1
31.657449 -5.491794 3.978859 32.375689 -0.171766 1.447588 0.196603 -0.058185 123563.000000 0 0 1
31.307049 -6.038394 5.216359 32.307955 -0.190537 1.408629 0.178828 -0.064207 96417.100000 0 0 1
31.985649 -7.432394 5.407459 33.280067 -0.228315 1.407589 0.148444 -0.054898 1131020.000000 0 0 1
33.417549 -7.344994 5.488259 34.652598 -0.216354 1.411747 0.157947 -0.061344 868969.000000 0 0 1
34.092449 -8.584594 5.629259 35.604479 -0.246675 1.412025 0.151906 -0.060423 1056560.000000 0 0 1
35.658549 -8.504394 5.770959 37.110118 -0.234122 1.414654 0.217911 -0.074686 904877.000000 0 0 1
36.275749 -8.208694 4.563759 37.471863 -0.222538 1.448702 0.226002 -0.075270 198602.000000 0 0 1
37.556149 -7.587794 4.766259 38.610312 -0.199355 1.447035 0.230938 -0.066684 897070.000000 0 0 1
-37.816081 -7.656794 3.560759 38.747406 0.199774 1.478770 0.229030 -0.056324 20933.700000 0 0 1
-37.367881 -8.945194 3.269959 38.562516 0.234960 1.485898 0.293484 -0.069907 226605.000000 0 0 1
-36.484781 -8.916494 2.141059 37.619506 0.239691 1.513852 0.322496 -0.072210 228362.000000 0 0 1
-36.011081 -10.254994 1.624359 37.478012 0.277429 1.527441 0.306039 -0.054832 -455136.000000 0 0 1
-35.051281 -10.861994 2.444659 36.777052 0.300504 1.504275 0.294960 -0.058569 -352743.000000 0 0 1
-34.697181 -12.103194 1.803459 36.791767 0.335626 1.521759 0.283726 -0.054528 841.350000 0 0 1
-33.407681 -12.775594 2.319059 35.842251 0.365255 1.506049 0.192303 -0.056583 -18850.400000 0 0 1
-32.247381 -11.965094 2.240459 34.468488 0.355295 1.505750 0.219409 -0.034479 391492.000000 0 0 1
-31.237681 -12.510794 1.399059 33.678925 0.380940 1.529243 0.233389 -0.031930 88555.600000 0 0 1
-29.988681 -12.999694 2.187859 32.758201 0.409037 1.503958 0.227241 -0.029814 31218.200000 0 0 1
-29.310281 -11.893994 2.796559 31.755006 0.385493 1.482615 0.224668 -0.029844 89683.700000 0 0 1
-27.997081 -12.239494 3.162059 30.718730 0.412134 1.467678 0.219008 -0.012534 -242899.000000 0 0 1
-27.265681 -11.200594 4.020359 29.749520 0.389777 1.435241 0.220469 -0.017876 -531660.000000 0 0 1
-25.924781 -11.545194 4.181859 28.685775 0.418967 1.424493 0.189958 -0.001860 -700834.000000 0 0 1
-25.281281 -10.761994 5.095559 27.945096 0.402455 1.387429 0.180119 0.000042 -843521.000000 0 0 1
-23.855681 -11.170594 5.422759 26.893902 0.437932 1.367769 0.154401 0.008596 -584240.000000 0 0 1
-23.749081 -12.336094 6.221459 27.475527 0.479074 1.342379 0.159182 -0.003885 262526.000000 0 0 1
-22.412981 -12.518794 6.681959 26.527542 0.509385 1.316166 0.123684 0.005137 403813.000000 0 0 1
-22.104381 -11.988294 8.111859 26.422057 0.496950 1.258746 0.149280 -0.010171 -603219.000000 0 0 1
-21.815081 -10.564694 8.123259 25.563604 0.450996 1.247423 0.128830 -0.004617 456881.000000 0 0 1
-22.884781 -9.730694 8.526759 26.288880 0.402043 1.240473 0.153949 -0.016908 -414754.000000 0 0 1
-23.445581 -9.842894 9.995759 27.322024 0.397474 1.196251 0.139356 -0.009222 -197375.000000 0 0 1
-23.996381 -11.121494 10.424059 28.428417 0.433995 1.195361 0.126147 -0.017731 1158370.000000 0 0 1
-25.306081 -11.363594 9.879359 29.447083 0.422060 1.228665 0.134279 -0.022898 251437.000000 0 0 1
-26.496481 -10.819594 10.679059 30.547822 0.387676 1.213668 0.156431 -0.023297 -711871.000000 0 0 1
-26.704081 -11.555294 11.854159 31.419004 0.408388 1.183925 0.133349 -0.020225 -37278.900000 0 0 1
-27.921281 -11.159794 12.423859 32.534462 0.380237 1.178980 0.143921 -0.029136 -262650.000000 0 0 1
-28.173881 -11.901594 13.780159 33.545615 0.399695 1.147477 0.139855 -0.022623 -17888.900000 0 0 1
-28.205181 -13.350694 13.684259 34.073922 0.442095 1.157528 0.135233 -0.025130 308972.000000 0 0 1
-28.216681 -13.871994 14.986759 34.831254 0.456924 1.126007 0.116480 -0.018283 -133336.000000 0 0 1
-28.054881 -15.444694 15.166959 35.435174 0.503240 1.128496 0.106916 -0.019300 -1079080.000000 0 0 1
-29.205781 -16.132294 14.918859 36.548610 0.504658 1.150323 0.122479 -0.021884 -904899.000000 0 0 1
-28.996781 -17.531594 14.963859 37.041695 0.543799 1.154940 0.092049 -0.016675 -27838.000000 0 0 1
-30.098781 -18.248094 15.810659 38.586351 0.545020 1.148619 0.075221 -0.012379 99944.300000 0 0 1
-30.152581 -18.057394 17.245159 39.148986 0.539586 1.114640 0.081882 -0.005566 -118113.000000 0 0 1
-30.583681 -19.221694 17.948159 40.335734 0.561109 1.109656 0.089180 -0.002535 -123658.000000 0 0 1
-29.625781 -20.430694 17.950259 40.215817 0.603729 1.108116 0.058372 -0.002054 381350.000000 0 0 1
-28.389081 -20.192394 18.630959 39.506775 0.618252 1.079704 0.081747 -0.007138 426528.000000 0 0 1
-27.664481 -21.354894 18.955759 39.757714 0.657386 1.073806 0.073469 -0.006490 339763.000000 0 0 1
-26.329081 -21.129194 19.742559 39.107953 0.676266 1.041620 0.091854 -0.010765 297647.000000 0 0 1
-25.283281 -20.875094 18.861259 37.825400 0.690186 1.048767 0.096471 -0.018709 -703958.000000 0 0 1
-24.039081 -20.748994 19.489659 37.259159 0.712071 1.020331 0.099239 -0.016543 275166.000000 0 0 1
-22.823981 -20.453294 18.569159 35.834132 0.730674 1.026054 0.105428 -0.026116 192920.000000 0 0 1
-22.649181 -21.392194 17.550359 35.757887 0.756865 1.057776 0.094428 -0.028785 591379.000000 0 0 1
-21.347181 -21.187794 16.993259 34.545558 0.781651 1.056516 0.096255 -0.025869 645532.000000 0 0 1
-21.045381 -22.062594 15.758559 34.321980 0.808991 1.093771 0.094632 -0.016951 -295599.000000 0 0 1
-21.102681 -23.507094 15.972959 35.398334 0.839245 1.102648 0.085230 -0.018766 748106.000000 0 0 1
-20.022781 -24.198094 16.661759 35.553814 0.879539 1.083051 0.101359 -0.026756 1010240.000000 0 0 1
-18.605581 -24.255494 16.020359 34.513020 0.916462 1.088084 0.113438 -0.035980 701253.000000 0 0 1
-17.846781 -23.040394 16.051259 33.271764 0.911745 1.067371 0.127734 -0.044304 213824.000000 0 0 1
-16.494281 -23.314094 15.705459 32.592479 0.955067 1.068005 0.140155 -0.044718 282612.000000 0 0 1
-15.672781 -22.015294 15.625959 31.216659 0.952126 1.046545 0.125039 -0.037455 -411102.000000 0 0 1
-15.895181 -21.142294 14.481059 30.155504 0.926132 1.069899 0.134304 -0.036364 26837.300000 0 0 1
-17.020081 -20.303094 14.678659 30.287981 0.873134 1.064849 0.122493 -0.034088 -118035.000000 0 0 1
-16.799181 -19.026794 15.569459 29.776491 0.847497 1.020573 0.116780 -0.039092 -132709.000000 0 0 1
-15.958481 -18.020394 15.006859 28.365710 0.846006 1.013316 0.113881 -0.041159 151884.000000 0 0 1
-15.882681 -16.952094 15.865859 28.131095 0.817956 0.971578 0.103236 -0.040628 -432996.000000 0 0 1
-15.079481 -15.791394 15.254959 26.635928 0.808455 0.960975 0.095935 -0.036639 164192.000000 0 0 1
-15.668581 -15.061394 14.144559 25.931035 0.765642 0.993848 0.100144 -0.042874 196028.000000 0 0 1
-15.902781 -15.754494 12.952659 25.862596 0.780714 1.046244 0.114668 -0.041115 -59310.600000 0 0 1
-16.877481 -14.973794 12.023759 25.566279 0.725701 1.081168 0.099984 -0.032041 337306.000000 0 0 1
-18.248881 -15.212494 12.319559 26.762159 0.694903 1.092424 0.090381 -0.028928 -4389.390000 0 0 1
-19.016081 -14.246894 11.665559 26.470183 0.642990 1.114412 0.113345 -0.036154 10957.000000 0 0 1
-20.544581 -14.407394 11.928859 27.783997 0.611581 1.127031 0.123879 -0.037052 1024870.000000 0 0 1
-21.361681 -15.419994 11.270359 28.655167 0.625242 1.166568 0.147260 -0.039575 545828.000000 0 0 1
-21.353681 -15.498194 9.860459 28.167399 0.627823 1.213154 0.173037 -0.034151 -508039.000000 0 0 1
-22.228781 -16.601094 9.230659 29.239016 0.641468 1.249606 0.173306 -0.024064 -9594.370000 0 0 1
-21.751281 -17.926894 9.364159 29.701502 0.689310 1.250049 0.179859 -0.013293 -384542.000000 0 0 1
-22.505781 -18.809394 8.592159 30.563518 0.696168 1.285830 0.180953 -0.028377 -85196.500000 0 0 1
-21.942981 -20.239194 8.564659 31.055962 0.745029 1.291394 0.184526 -0.025640 117631.000000 0 0 1
-20.624581 -20.283794 8.073459 30.033088 0.777068 1.298630 0.197320 -0.025532 -236994.000000 0 0 1
-20.132781 -21.634094 8.043659 30.627819 0.821328 1.305054 0.180213 -0.025157 1004900.000000 0 0 1
-18.711281 -21.896294 7.434359 29.746082 0.863672 1.318191 0.173282 -0.034732 1033220.000000 0 0 1
-17.576781 -21.507894 8.181659 28.956385 0.885640 1.284344 0.141608 -0.039465 749476.000000 0 0 1
-16.343981 -21.853794 7.489159 28.298437 0.928654 1.302956 0.164449 -0.040121 1158840.000000 0 0 1
-15.128881 -21.681894 8.464059 27.760185 0.961572 1.260964 0.093845 -0.021064 484173.000000 0 0 1
-13.927681 -21.841994 7.709559 27.027584 1.003148 1.281531 0.111794 -0.020502 -4769.290000 0 0 1
-12.785481 -21.575994 8.484359 26.475958 1.035851 1.244586 0.097997 -0.014897 550646.000000 0 0 1
-11.423681 -21.986494 7.843259 25.988903 1.091610 1.264224 0.097267 -0.019995 501849.000000 0 0 1
-11.243681 -23.394794 7.665659 27.064720 1.122784 1.283631 0.093895 -0.017065 339632.000000 0 0 1
-10.048681 -23.697594 6.918759 26.653727 1.169741 1.308210 0.130128 -0.030349 882290.000000 0 0 1
-9.662681 -25.161214 6.812659 27.800475 1.204132 1.323219 0.147284 -0.030581 705741.000000 0 0 1
-10.522681 -25.889884 5.879159 28.558316 1.184751 1.363449 0.144507 -0.034695 427597.000000 0 0 1
-10.441681 -27.280524 6.173959 29.855878 1.205247 1.362501 0.168672 -0.033544 -151534.000000 0 0 1
-9.572681 -28.151104 5.272959 30.198095 1.243016 1.395284 0.205544 -0.035379 -796358.000000 0 0 1
-8.198681 -27.966664 5.462759 29.651212 1.285627 1.385504 0.198331 -0.037469 -420544.000000 0 0 1
-7.384681 -29.118284 5.272059 30.499222 1.322423 1.397065 0.207366 -0.035335 231975.000000 0 0 1
-7.584681 -30.324264 6.259659 31.879016 1.325705 1.373155 0.232593 -0.045146 -702176.000000 0 0 1
-7.154681 -30.032224 7.528359 31.777352 1.336922 1.331613 0.222256 -0.048211 25490.900000 0 0 1
-7.197681 -31.206954 8.303659 33.085213 1.344117 1.317106 0.256555 -0.060276 -249090.000000 0 0 1
-7.625681 -31.088144 9.776759 33.469519 1.330253 1.274365 0.199657 -0.059236 -363603.000000 0 0 1
-6.696681 -30.376364 10.539359 32.842763 1.353810 1.244113 0.200136 -0.058413 115883.000000 0 0 1
-6.945681 -30.646774 11.933159 33.613502 1.347925 1.207871 0.175518 -0.048354 -217838.000000 0 0 1
-5.858681 -29.954984 12.760259 33.082464 1.377652 1.174818 0.153349 -0.044629 -112188.000000 0 0 1
-5.912681 -28.560854 12.683859 31.805070 1.366660 1.160588 0.150367 -0.034161 -62585.700000 0 0 1
-5.305681 -28.025354 13.849859 31.707875 1.383694 1.118763 0.136895 -0.041299 -102462.000000 0 0 1
-6.278681 -27.485184 14.926959 31.900960 1.346211 1.083865 0.131438 -0.035501 -236195.000000 0 0 1
-7.022681 -28.388994 15.730459 33.206932 1.328291 1.077298 0.113155 -0.038417 41432.600000 0 0 1
-6.301681 -29.375494 16.424859 34.240427 1.359477 1.070493 0.090670 -0.048083 -620100.000000 0 0 1
-7.287681 -30.413384 16.933959 35.564634 1.335610 1.074530 0.084649 -0.042219 -25762.400000 0 0 1
-7.948681 -30.908634 15.753759 35.590815 1.319084 1.112261 0.102588 -0.041380 -28763.200000 0 0 1
-8.239681 -32.288834 15.764559 36.864379 1.320942 1.128920 0.105192 -0.042198 -489519.000000 0 0 1
-7.124681 -33.259974 15.353859 37.319270 1.359774 1.146786 0.117714 -0.044579 -480686.000000 0 0 1
-6.558681 -33.142414 14.107859 36.612397 1.375427 1.175231 0.118591 -0.047541 -144257.000000 0 0 1
-5.540681 33.298251 14.013259 36.549201 -1.405911 1.177313 0.144173 -0.048745 210026.000000 0 0 1
-4.367681 -33.649454 13.099959 36.372673 1.441719 1.202358 0.181876 -0.063091 -231169.000000 0 0 1
-4.765681 -33.468414 11.778759 35.799240 1.429354 1.235528 0.185058 -0.064375 54346.200000 0 0 1
-3.809681 -32.978734 10.850659 34.926313 1.455787 1.254895 0.210442 -0.070740 -425771.000000 0 0 1
-4.333681 -33.027544 9.409759 34.614202 1.440328 1.295485 0.206063 -0.072884 -1041590.000000 0 0 1
-4.320681 33.191561 8.660959 34.573981 -1.441350 1.317594 0.205283 -0.072700 460552.000000 0 0 1
-5.145681 32.086250 9.101759 33.746814 -1.411780 1.297707 0.209403 -0.072503 1235870.000000 0 0 1
-6.675681 32.352014 9.406759 34.346829 -1.367307 1.293376 0.214238 -0.059153 393641.000000 0 0 1
-7.417681 32.929426 8.371759 34.777225 -1.349234 1.327683 0.205650 -0.048284 379325.000000 0 0 1
-8.800681 32.891461 8.775859 35.161284 -1.309353 1.318541 0.174521 -0.053848 1202270.000000 0 0 1
-9.824681 33.117380 7.613759 35.373076 -1.282404 1.353857 0.190625 -0.067611 138354.000000 0 0 1
-9.849681 -32.982024 7.102959 35.146581 1.280590 1.367299 0.207238 -0.056024 -33753.700000 0 0 1
-10.823681 -32.932264 6.080859 35.194643 1.253253 1.397147 0.200899 -0.051814 193692.000000 0 0 1
-11.170681 -31.531554 5.450959 33.893007 1.230323 1.409266 0.192512 -0.058643 -71175.100000 0 0 1
-12.101881 -30.759684 6.157559 33.623343 1.195964 1.386623 0.205543 -0.057974 -245134.000000 0 0 1
-12.943881 -30.071244 5.277659 33.161385 1.164327 1.410966 0.200454 -0.054930 40928.500000 0 0 1
-14.088681 -29.194214 5.850559 32.939673 1.121178 1.392235 0.169560 -0.058269 -37805.000000 0 0 1
-15.154981 -29.938494 6.361459 34.153404 1.102198 1.383441 0.152203 -0.043495 -136355.000000 0 0 1
-16.123181 -29.148144 7.012359 34.040335 1.065541 1.363309 0.146255 -0.047338 -22153.000000 0 0 1
35.985029 -12.411994 -12.864441 40.180515 -0.332143 1.896701 0.168091 -0.041527 232963.000000 0 0 1
34.740089 -12.726794 -12.246141 38.971952 -0.351160 1.890441 0.203717 -0.046310 337743.000000 0 0 1
34.630839 -14.073894 -11.907041 39.231966 -0.386009 1.879164 0.200855 -0.056055 -246310.000000 0 0 1
35.537769 -14.667794 -10.796941 39.933083 -0.391439 1.844580 0.180558 -0.044733 -397611.000000 0 0 1
36.838539 -14.896394 -11.232241 41.293386 -0.384268 1.846278 0.181911 -0.043432 -740594.000000 0 0 1
37.706009 -15.028094 -10.131141 41.835711 -0.379264 1.815393 0.152403 -0.033644 736684.000000 0 0 1
-37.109781 -15.239494 -10.457741 41.457717 0.389662 1.825802 0.102876 -0.033435 569427.000000 0 0 1
-36.425621 -14.120994 -10.936141 40.568799 0.369829 1.843743 0.097390 -0.037159 706202.000000 0 0 1
-35.042288 -14.368494 -11.231941 39.504076 0.389125 1.859097 0.075053 -0.033955 726035.000000 0 0 1
-34.250841 -13.138694 -11.607141 38.476890 0.366291 1.877235 0.077547 -0.044177 -329007.000000 0 0 1
-34.020132 -12.183294 -10.569641 37.649958 0.343890 1.855356 0.091219 -0.036970 212803.000000 0 0 1
-33.303161 -11.071694 -10.998141 36.778282 0.320957 1.874482 0.109457 -0.035699 -368562.000000 0 0 1
-33.731271 -9.812794 -10.211541 36.583673 0.283097 1.853683 0.124649 -0.036684 -81919.400000 0 0 1
-33.157771 -9.796294 -8.912541 35.704881 0.287273 1.823081 0.144340 -0.040678 246649.000000 0 0 1
-33.864631 -8.924194 -8.042941 35.932483 0.257667 1.796544 0.207357 -0.054160 -75255.300000 0 0 1
-33.381371 -8.784494 -6.592241 35.141726 0.257322 1.759504 0.189709 -0.046798 556811.000000 0 0 1
-32.138351 -8.046194 -6.405541 33.743826 0.245319 1.761784 0.184602 -0.054907 1161200.000000 0 0 1
-31.890001 -7.632794 -5.060541 33.178920 0.234928 1.723917 0.202716 -0.044561 -255405.000000 0 0 1
-31.172631 -8.694194 -4.234941 32.638269 0.271993 1.700917 0.178968 -0.035164 -629251.000000 0 0 1
-32.012081 -9.823294 -4.021741 33.726026 0.297740 1.690328 0.174661 -0.031451 514396.000000 0 0 1
-32.425521 -9.927694 -2.629941 34.013087 0.297107 1.648195 0.178634 -0.035213 -25429.100000 0 0 1
-33.102731 -11.222994 -2.244441 35.025475 0.326874 1.634921 0.178626 -0.028419 -14974.300000 0 0 1
-34.369206 -11.478294 -2.817341 36.344614 0.322324 1.648392 0.193419 -0.044678 257362.000000 0 0 1
-34.820756 -12.809194 -2.551841 37.189681 0.352497 1.639467 0.201446 -0.045747 -129517.000000 0 0 1
-36.357711 -12.907594 -2.513141 38.662708 0.341137 1.635844 0.195699 -0.045906 211404.000000 0 0 1
-36.957271 -12.359694 -1.293041 38.990689 0.322739 1.603965 0.235540 -0.051856 42849.800000 0 0 1
38.002189 -12.605894 -1.210941 40.056726 -0.320293 1.601032 0.316446 -0.064931 -347925.000000 0 0 1
37.277569 -11.647494 -0.239241 39.055582 -0.302842 1.576922 0.291854 -0.074478 -300525.000000 0 0 1
37.580329 -11.762994 1.143959 39.394896 -0.303349 1.541754 0.312560 -0.070981 -334260.000000 0 0 1
36.467639 -11.812794 1.985559 38.384544 -0.313260 1.519045 0.317570 -0.065521 -284984.000000 0 0 1
36.915769 -11.892094 3.480059 38.939783 -0.311644 1.481307 0.295419 -0.072719 302869.000000 0 0 1
35.851959 -12.134194 4.391459 38.103629 -0.326351 1.455289 0.261349 -0.081356 133302.000000 0 0 1
36.348389 -12.181094 5.730359 38.761082 -0.323358 1.422414 0.253692 -0.070594 273209.000000 0 0 1
35.318919 -12.393894 6.894359 38.060043 -0.337489 1.388646 0.190080 -0.066693 635613.000000 0 0 1
34.477789 -11.294794 7.246659 36.997357 -0.316578 1.373652 0.180194 -0.056379 676991.000000 0 0 1
33.386119 -11.692094 8.092159 36.288029 -0.336860 1.345907 0.161755 -0.046604 699882.000000 0 0 1
32.750319 -10.475694 8.797059 35.492419 -0.309581 1.320328 0.149227 -0.043981 110582.000000 0 0 1
31.984099 -9.598394 7.935559 34.323241 -0.291548 1.337485 0.159782 -0.047422 -15339.800000 0 0 1
30.930479 -9.041994 8.644159 33.364258 -0.284408 1.308722 0.171962 -0.033254 158140.000000 0 0 1
29.493679 -9.335194 8.096459 31.977736 -0.306539 1.314820 0.145254 -0.017570 524178.000000 0 0 1
29.141579 -8.455494 7.007859 31.142208 -0.282398 1.343825 0.178684 -0.027573 31235.600000 0 0 1
28.035079 -9.049394 6.347259 30.135443 -0.312230 1.358583 0.203001 -0.041368 29525.500000 0 0 1
27.293479 -8.215294 5.294259 28.990589 -0.292373 1.387146 0.214986 -0.042300 -37991.100000 0 0 1
26.512479 -7.214294 5.954459 28.114288 -0.265677 1.357385 0.231284 -0.044414 -23878.600000 0 0 1
25.821579 -6.461394 4.966559 27.077117 -0.245197 1.386329 0.280380 -0.051268 -275909.000000 0 0 1
26.524979 -5.289394 4.213559 27.373460 -0.196830 1.416253 0.297570 -0.063842 -287322.000000 0 0 1
27.391979 -5.756594 3.203159 28.173021 -0.207142 1.456854 0.291277 -0.067347 -98018.900000 0 0 1
27.950479 -4.604594 2.650359 28.450940 -0.163275 1.477506 0.302741 -0.077793 -228161.000000 0 0 1
28.404679 -4.852694 1.204359 28.841375 -0.169208 1.529026 0.303562 -0.087136 229724.000000 0 0 1
27.260679 -4.893194 0.363559 27.698739 -0.177605 1.557670 0.310544 -0.085837 530346.000000 0 0 1
27.689879 -4.634094 -0.927441 28.090290 -0.165820 1.603819 0.308771 -0.087852 246119.000000 0 0 1
26.710379 -5.233894 -2.016641 27.292945 -0.193498 1.644752 0.301902 -0.074658 -634208.000000 0 0 1
25.560179 -4.493394 -2.076241 26.035056 -0.174019 1.650629 0.331924 -0.068741 -1129820.000000 0 0 1
24.657379 -5.064394 -2.978841 25.347740 -0.202573 1.688588 0.306982 -0.069368 -705083.000000 0 0 1
23.206979 -4.603294 -2.769941 23.820721 -0.195816 1.687343 0.249768 -0.055581 -391765.000000 0 1 0
22.934979 -3.255894 -3.140441 23.376837 -0.141020 1.705544 0.253559 -0.057062 34979.200000 0 1 0
23.184079 -2.894194 -4.492141 23.791957 -0.124193 1.760746 0.261292 -0.053617 -667789.000000 0 1 0
22.185979 -1.906594 -5.102141 22.844794 -0.085726 1.796035 0.225736 -0.040410 -356997.000000 0 1 0
22.327879 -0.577394 -4.679741 22.820332 -0.025854 1.777330 0.241586 -0.027019 545487.000000 0 1 0
21.405179 0.287406 -5.341041 22.063341 0.013426 1.815303 0.226750 -0.016226 -302546.000000 0 1 0
21.325479 1.688606 -4.722641 21.907323 0.079018 1.788076 0.203538 -0.002182 322934.000000 0 1 0
22.475879 2.558706 -4.801341 23.124986 0.113354 1.779943 0.261867 -0.008786 475239.000000 0 1 0
23.362379 2.353006 -3.761941 23.780025 0.100379 1.729661 0.280652 -0.008878 -1097380.000000 0 1 0
24.483879 3.388106 -3.801341 25.007795 0.137508 1.723394 0.310909 -0.023040 -667623.000000 0 0 1
24.076679 4.725906 -3.770541 24.824134 0.193822 1.723277 0.261334 -0.011424 1049580.000000 0 1 0
25.113479 5.652406 -3.351241 25.958955 0.221385 1.700255 0.257076 -0.020752 545003.000000 0 0 1
24.613779 7.094806 -3.571841 25.863728 0.280638 1.709341 0.225662 -0.022969 226433.000000 0 0 1
23.504679 7.340306 -2.709441 24.772790 0.302695 1.680387 0.250588 -0.036578 826252.000000 0 1 0
22.931179 8.620206 -2.980141 24.678496 0.359574 1.691850 0.231826 -0.027911 -122337.000000 0 1 0
21.906579 9.091706 -1.901741 23.794410 0.393389 1.650806 0.180504 -0.029275 271997.000000 0 1 0
22.430579 9.468406 -0.604241 24.354603 0.399429 1.595609 0.157605 -0.027169 768204.000000 0 1 0
21.307679 9.842706 0.187559 23.471924 0.432732 1.562805 0.111965 -0.023486 304703.000000 0 1 0
21.598179 10.259206 1.640259 23.967126 0.443451 1.502305 0.116649 -0.026054 -320807.000000 0 1 0
22.386479 11.426806 1.828559 25.200595 0.471959 1.498172 0.125443 -0.035222 102307.000000 0 0 1
21.906279 12.700706 1.484659 25.365276 0.525415 1.512232 0.128539 -0.025688 -102019.000000 0 0 1
20.865879 13.367206 2.448059 24.901006 0.569757 1.472326 0.118993 -0.016927 -518999.000000 0 1 0
19.585279 12.792906 2.475759 23.523839 0.578614 1.465356 0.133230 -0.017845 -140912.000000 0 1 0
18.738779 13.625806 3.244059 23.395050 0.628713 1.431684 0.142807 -0.023014 -193196.000000 0 1 0
18.898679 13.538906 4.775559 23.733268 0.621644 1.368195 0.149398 -0.025162 -386207.000000 0 1 0
18.406379 12.352906 5.381959 22.811282 0.591080 1.332617 0.118895 -0.016668 595897.000000 0 1 0
19.065179 12.292906 6.652459 23.640047 0.572699 1.285537 0.163205 -0.030185 241483.000000 0 1 0
19.028979 10.821906 7.187259 23.040668 0.517092 1.253564 0.132840 -0.026536 -152301.000000 0 1 0
19.982579 9.902706 6.700559 23.286575 0.460095 1.278927 0.132275 -0.037850 312612.000000 0 1 0
19.809679 8.631806 7.265959 22.797492 0.410930 1.246420 0.129452 -0.035826 451988.000000 0 1 0
20.707079 7.543206 6.565959 22.995541 0.349341 1.281235 0.143641 -0.036783 326844.000000 0 1 0
20.277479 7.378406 5.236959 22.204567 0.348979 1.332703 0.118611 -0.033382 509083.000000 0 1 0
21.240579 6.686106 4.483859 22.715000 0.304961 1.372095 0.134393 -0.034554 -66565.000000 0 1 0
20.847679 6.570906 2.985759 22.061670 0.305330 1.435043 0.133910 -0.020977 589267.000000 0 1 0
21.835679 5.844006 2.204159 22.711398 0.261507 1.473593 0.146122 -0.027377 1073950.000000 0 1 0
21.460679 5.862206 0.883259 22.264464 0.266655 1.531115 0.141242 -0.008765 -69838.300000 0 1 0
22.350079 4.904606 0.081959 22.882044 0.216021 1.567215 0.204477 -0.021689 13444.700000 0 1 0
22.234179 3.522906 0.448959 22.516020 0.157139 1.550855 0.180158 -0.020217 1191820.000000 0 1 0
23.372179 2.786106 -0.049041 23.537705 0.118646 1.572880 0.234077 -0.027745 636315.000000 0 1 0
23.172179 1.206306 0.030759 23.203578 0.052011 1.569471 0.268144 -0.033731 -205159.000000 0 1 0
22.234879 0.682406 -0.892541 22.263247 0.030681 1.610897 0.186448 -0.030406 609058.000000 0 1 0
22.279279 -0.694994 -1.084041 22.316461 -0.031185 1.619391 0.234715 -0.045364 -824285.000000 0 1 0
22.005779 -1.694094 0.072959 22.071013 -0.076832 1.567491 0.243745 -0.047527 269825.000000 0 1 0
23.057279 -1.728694 1.023059 23.144614 -0.074834 1.526579 0.243869 -0.051124 1074470.000000 0 1 0
24.305479 -2.338794 0.648859 24.426365 -0.095930 1.544229 0.282758 -0.065545 336783.000000 0 1 0
25.363179 -2.142494 1.755159 25.513952 -0.084273 1.501950 0.294471 -0.061217 -400688.000000 0 0 1
25.778779 -0.777094 1.892559 25.859836 -0.030136 1.497546 0.290635 -0.057869 446444.000000 0 0 1
26.527379 -0.592394 3.083959 26.712611 -0.022328 1.455089 0.283080 -0.062986 -350683.000000 0 0 1
26.712379 0.838106 3.664859 26.975634 0.031365 1.434517 0.269835 -0.055242 204365.000000 0 0 1
27.313479 1.909406 2.944959 27.538060 0.069794 1.463650 0.306537 -0.041681 79268.700000 0 0 1
28.655479 1.678906 2.578759 28.820222 0.058522 1.481199 0.279904 -0.043869 -93992.300000 0 0 1
29.260779 2.754106 1.636259 29.435619 0.093846 1.515180 0.305786 -0.052936 -65410.300000 0 0 1
28.876079 2.497706 0.327459 28.985750 0.086283 1.559499 0.353739 -0.037182 5065.190000 0 0 1
29.243379 3.518206 -0.616141 29.460696 0.119732 1.591712 0.331577 -0.031078 -227888.000000 0 0 1
30.616179 3.393106 -1.312141 30.831564 0.110377 1.613368 0.279131 -0.027467 -424450.000000 0 0 1
31.604969 3.732006 -0.359441 31.826579 0.117539 1.582090 0.225491 -0.027815 172153.000000 0 0 1
32.895289 3.521906 -0.961641 33.097260 0.106658 1.599855 0.166922 -0.024460 -162297.000000 0 0 1
34.020149 3.963706 -0.089741 34.250395 0.115988 1.573416 0.093605 -0.019200 -987099.000000 0 0 1
34.236009 3.256606 1.071359 34.407232 0.094837 1.539654 0.118997 -0.023662 -246064.000000 0 0 1
33.438069 3.610006 2.164059 33.701925 0.107544 1.506540 0.127081 -0.021201 -238684.000000 0 0 1
33.697289 2.778106 3.425459 33.984687 0.082257 1.469831 0.156018 -0.025491 54274.200000 0 0 1
33.026649 1.509106 3.402159 33.235698 0.045662 1.468252 0.195972 -0.027381 272134.000000 0 0 1
33.366229 0.719706 4.541759 33.681609 0.021567 1.435540 0.184224 -0.029365 -393350.000000 0 0 1
34.557319 -0.215494 4.339559 34.829392 -0.006236 1.445877 0.169492 -0.026817 -1000690.000000 0 0 1
35.737629 0.512906 4.353359 36.005457 0.014351 1.449591 0.158886 -0.031780 -905926.000000 0 0 1
36.801739 -0.392794 4.539259 37.082707 -0.010673 1.448079 0.126693 -0.035409 -558347.000000 0 0 1
-38.148221 0.256106 4.827659 38.453330 -0.006713 1.444918 0.157026 -0.054366 359107.000000 0 0 1
-37.641171 1.140106 3.823559 37.852043 -0.030280 1.469610 0.145161 -0.047126 -196974.000000 0 0 1
-37.093371 0.394106 2.818759 37.202404 -0.010624 1.494955 0.157613 -0.041722 -765288.000000 0 0 1
-36.547031 1.301306 1.656459 36.607686 -0.035591 1.525532 0.158716 -0.041075 447731.000000 0 0 1
-35.381385 2.022806 2.023159 35.496863 -0.057109 1.513770 0.192415 -0.068590 128194.000000 0 0 1
-34.834094 2.740706 0.934659 34.954244 -0.078517 1.544054 0.247792 -0.048743 758203.000000 0 0 1
-33.681461 3.716506 1.475959 33.918014 -0.109898 1.527267 0.280522 -0.059536 1050370.000000 0 0 1
-32.685751 2.955606 2.164759 32.890425 -0.090180 1.504931 0.287744 -0.076246 680017.000000 0 0 1
-31.818661 3.693306 3.076259 32.179668 -0.115556 1.475054 0.306710 -0.053465 206690.000000 0 0 1
-32.272521 3.817306 4.551559 32.814693 -0.117736 1.431643 0.315337 -0.061771 -153179.000000 0 0 1
-33.443221 4.582006 4.788059 34.093538 -0.136161 1.429892 0.297941 -0.034953 156743.000000 0 0 1
-34.719703 4.008606 4.829959 35.282505 -0.114947 1.433471 0.270794 -0.029440 -64878.700000 0 0 1
-34.979020 3.033906 6.043059 35.626605 -0.086519 1.400350 0.210016 -0.028578 -809746.000000 0 0 1
-35.092058 3.715706 7.271459 36.029614 -0.105491 1.367582 0.211617 -0.036667 292606.000000 0 0 1
-34.895049 2.928306 8.406559 36.012632 -0.083721 1.335189 0.161450 -0.038267 85065.900000 0 0 1
-35.984301 1.840506 8.684759 37.063222 -0.051103 1.334274 0.151343 -0.037957 -120696.000000 0 0 1
-35.926791 0.676106 7.889959 36.789168 -0.018817 1.354653 0.150912 -0.039284 412721.000000 0 0 1
-36.909241 -0.305294 8.222759 37.815328 0.008271 1.351600 0.148943 -0.036056 162755.000000 0 0 1
-36.482871 -1.145194 9.468559 37.708950 0.031380 1.316984 0.169727 -0.036459 -266866.000000 0 0 1
-35.250602 -1.769194 9.254159 36.488004 0.050147 1.314374 0.161488 -0.038135 -440735.000000 0 0 1
-34.832121 -2.396494 10.434359 36.440303 0.068693 1.280390 0.154466 -0.029799 -249685.000000 0 0 1
-33.671841 -3.358494 10.204759 35.344157 0.099413 1.277901 0.180403 -0.022404 -204759.000000 0 0 1
-34.152558 -4.541294 9.586959 35.762135 0.132195 1.299401 0.197761 -0.043518 28164.800000 0 0 1
-33.128901 -5.168694 8.881259 34.685966 0.154770 1.311865 0.236755 -0.065313 -45830.300000 0 0 1
-33.720581 -6.201294 7.874159 35.178630 0.181870 1.345050 0.237746 -0.053060 328929.000000 0 0 1
-34.113444 -7.464394 8.495059 35.938979 0.215416 1.332163 0.240930 -0.057196 -61918.900000 0 0 1
-34.596383 -8.249094 7.385759 36.325015 0.234068 1.366044 0.250371 -0.069739 23597.600000 0 0 1
-35.626721 -9.280894 7.830659 37.639307 0.254840 1.361221 0.251544 -0.070431 459904.000000 0 0 1
-36.829881 -8.777894 8.422159 38.786909 0.233971 1.351914 0.227932 -0.072922 296327.000000 0 0 1
-37.729971 -9.822994 8.680459 39.942362 0.254696 1.351724 0.217444 -0.078335 -131744.000000 0 0 1
8.756149 -23.480194 10.597059 27.208222 -1.213854 1.170729 0.181627 -0.057054 -72641.100000 0 0 1
8.139749 -24.120994 9.518159 27.178543 -1.245341 1.213003 0.165366 -0.054843 -112810.000000 0 0 1
6.867249 -24.622294 9.913259 27.416951 -1.298804 1.200841 0.185856 -0.062230 758237.000000 0 0 1
6.252149 -25.658904 8.924059 27.876649 -1.331790 1.244933 0.150460 -0.046322 38829.400000 0 0 1
5.635749 -25.171294 7.756759 26.935534 -1.350533 1.278685 0.135854 -0.043639 -292552.000000 0 0 1
5.502249 -26.205994 6.811259 27.630094 -1.363841 1.321713 0.099018 -0.036718 -241832.000000 0 0 1
4.829949 -25.700264 5.501859 26.722695 -1.385029 1.363426 0.088151 -0.028696 -140953.000000 0 0 1
3.468249 -25.429454 5.393459 26.225470 -1.435246 1.363661 0.097125 -0.045561 -937657.000000 0 0 1
2.766249 -26.622124 5.113659 27.249571 -1.467260 1.382017 0.089920 -0.041733 -746583.000000 0 0 1
1.261549 -26.403714 4.934759 26.890509 -1.523053 1.386237 0.128626 -0.056459 -607688.000000 0 0 1
0.642649 -26.052504 6.170659 26.781019 -1.546134 1.338296 0.129922 -0.059162 391338.000000 0 0 1
-0.780351 -26.197134 6.204359 26.933118 1.541017 1.338347 0.142583 -0.057360 1268690.000000 0 0 1
-1.417451 -27.645704 6.149959 28.356941 1.519569 1.352182 0.165416 -0.052085 -370207.000000 0 0 1
-1.229251 -28.339654 7.380259 29.310668 1.527448 1.316262 0.159377 -0.057835 -41655.500000 0 0 1
-1.758451 -29.629984 7.302059 30.567109 1.511519 1.329578 0.191493 -0.058609 -302606.000000 0 0 1
-1.514051 -30.363884 8.657159 31.610191 1.520974 1.293379 0.197455 -0.063075 396037.000000 0 0 1
-0.187051 -30.802744 8.914759 32.067381 1.564724 1.289084 0.184771 -0.052921 188233.000000 0 0 1
-0.135851 -31.186704 10.301259 32.844252 1.566440 1.251773 0.189491 -0.043857 115065.000000 0 0 1
1.261649 -31.196864 10.959159 33.089866 -1.530377 1.233228 0.145879 -0.050000 -448052.000000 0 0 1
2.049249 -32.268814 10.580859 34.021028 -1.507376 1.254541 0.153876 -0.044357 -371859.000000 0 0 1
3.388649 -32.219384 11.027559 34.222488 -1.466007 1.242711 0.142670 -0.039718 255067.000000 0 0 1
3.696249 -32.690554 12.462859 35.180356 -1.458207 1.208678 0.166562 -0.036883 -147102.000000 0 0 1
3.057449 -31.821594 13.434059 34.676156 -1.475009 1.172970 0.160500 -0.044609 292248.000000 0 0 1
3.311849 -32.141054 14.776559 35.529740 -1.468118 1.141872 0.162903 -0.052470 -573625.000000 0 0 1
3.053649 -30.963434 15.772159 34.882947 -1.472493 1.101627 0.190834 -0.057983 58533.000000 0 0 1
3.843749 -29.822834 15.526559 33.841541 -1.442617 1.094150 0.196886 -0.058003 290421.000000 0 0 1
5.209349 -29.960944 15.913559 34.322541 -1.398646 1.088689 0.181183 -0.050455 87910.800000 0 0 1
5.983849 -28.745974 15.352659 33.133693 -1.365564 1.089019 0.191367 -0.044974 -57581.100000 0 0 1
6.465249 -28.843044 14.006559 32.709392 -1.350288 1.128283 0.171277 -0.042215 -33995.300000 0 0 1
5.451449 -28.875974 13.023459 32.142661 -1.384204 1.153624 0.159862 -0.043932 -450835.000000 0 0 1
5.955549 -28.904664 11.570559 31.698991 -1.367599 1.197149 0.132455 -0.038685 10738.900000 0 0 1
6.305449 -30.136864 10.992159 32.692764 -1.364544 1.227890 0.124596 -0.039178 686769.000000 0 0 1
7.637449 -30.596294 11.276159 33.490530 -1.326175 1.227390 0.118695 -0.032503 371399.000000 0 0 1
7.864949 -32.049574 10.944159 34.767905 -1.330152 1.250574 0.111221 -0.027432 30618.700000 0 0 1
7.237149 -33.113944 11.712759 35.862213 -1.355627 1.238088 0.100670 -0.048302 325049.000000 0 0 1
7.657149 33.018459 11.294959 35.727114 1.342919 1.249133 0.113265 -0.038221 9876.510000 0 0 1
7.167449 32.006446 12.284259 35.024105 1.350493 1.212438 0.106740 -0.029918 -913413.000000 0 0 1
5.792449 31.895471 12.334659 34.684540 1.391147 1.207215 0.137707 -0.034167 -931023.000000 0 0 1
5.360149 30.818570 13.198659 33.951731 1.398593 1.171524 0.152874 -0.025085 373892.000000 0 0 1
4.531949 31.118130 14.506659 34.631196 1.426176 1.138574 0.157417 -0.046210 597478.000000 0 0 1
5.239249 31.805851 15.559159 35.793146 1.407536 1.121095 0.133950 -0.048917 -188754.000000 0 0 1
4.339649 31.920664 16.579059 36.230188 1.435674 1.095498 0.160282 -0.050407 -657095.000000 0 0 1
4.927749 32.404866 17.936459 37.364082 1.419884 1.070090 0.191346 -0.043676 -360041.000000 0 0 1
5.203349 -33.627824 17.863659 38.431962 -1.417280 1.087373 0.233111 -0.046441 150500.000000 0 0 1
5.727949 -33.136394 19.070259 38.658826 -1.399628 1.054921 0.199548 -0.045508 -216873.000000 0 0 1
5.115149 -31.755824 19.343359 37.533487 -1.411091 1.029365 0.186212 -0.065374 825512.000000 0 0 1
3.727249 -31.905994 19.664359 37.663933 -1.454504 1.021484 0.203094 -0.068534 495655.000000 0 0 1
3.040549 -30.718234 20.043959 36.805097 -1.472136 0.994887 0.174000 -0.059962 164903.000000 0 0 1
1.601749 -30.603604 19.470959 36.307911 -1.518505 1.004781 0.177976 -0.058562 680201.000000 0 0 1
0.511249 -31.420374 19.930959 37.212154 -1.554526 1.005574 0.205285 -0.058558 607860.000000 0 0 1
0.051149 -31.095934 21.230659 37.652365 -1.569151 0.971744 0.161234 -0.051440 -401451.000000 0 0 1
-0.915951 -32.127664 21.893259 38.888823 1.542294 0.972821 0.195280 -0.047876 173186.000000 0 0 1
-2.243851 -32.021164 21.427359 38.594320 1.500837 0.982199 0.185741 -0.045426 -142026.000000 0 0 1
-2.973651 -33.185524 21.861859 39.850502 1.481428 0.990111 0.185002 -0.037418 829898.000000 0 0 1
-4.349351 -32.886274 22.541359 40.106567 1.439305 0.973950 0.190293 -0.030710 29100.700000 0 0 1
-5.351751 -32.475864 21.663459 39.403406 1.407473 0.988688 0.180836 -0.039020 -1076990.000000 0 0 1
-6.398051 -31.941624 22.412659 39.541493 1.373108 0.968163 0.172400 -0.024271 -1201850.000000 0 0 1
-7.494551 -31.466224 21.514059 38.847732 1.336975 0.983870 0.123282 -0.021846 -937563.000000 0 0 1
-8.183851 -32.533804 20.871659 39.510125 1.324360 1.014245 0.094133 -0.022415 -19312.200000 0 0 1
-9.326351 -31.941054 20.259559 38.957175 1.286708 1.023890 0.092772 -0.028084 -180558.000000 0 0 1
-10.428951 -32.957334 20.011659 39.942651 1.264328 1.046031 0.088734 -0.026747 -358878.000000 0 0 1
-11.036251 -33.337784 21.209459 41.024966 1.251108 1.027467 0.088420 -0.026719 -1089710.000000 0 0 1
-12.327251 33.597810 21.085959 41.537833 -1.219140 1.038362 0.083008 -0.026118 -291730.000000 0 0 1
-12.933751 33.349802 22.537359 42.277934 -1.200833 1.008564 0.088169 -0.030641 68955.400000 0 0 1
-13.158451 -32.988744 23.412959 42.539026 1.191258 0.987968 0.096075 -0.028398 904747.000000 0 0 1
-11.943651 -32.424944 23.960259 42.049040 1.217871 0.964513 0.106442 -0.024307 573307.000000 0 0 1
-12.135751 -31.173724 24.769359 41.624496 1.199553 0.933447 0.114238 -0.025142 -149766.000000 0 0 1
-12.962551 -31.327904 25.889359 42.658225 1.178476 0.918640 0.117353 -0.031165 446909.000000 0 0 1
-13.919151 -30.265824 25.953659 42.229791 1.139743 0.908941 0.149378 -0.032837 234268.000000 0 0 1
-14.538251 -29.952134 27.311159 43.062634 1.118911 0.883798 0.158361 -0.037246 292265.000000 0 0 1
-13.655051 -29.282384 28.220159 42.898669 1.134451 0.852858 0.146506 -0.035072 977618.000000 0 0 1
-14.412451 -29.088774 29.445559 43.828261 1.110784 0.834107 0.156301 -0.035549 516424.000000 0 0 1
-13.647051 -28.449884 30.618759 43.967560 1.123530 0.800435 0.133407 -0.038458 -141816.000000 0 0 1
-14.478451 -28.308304 31.746859 44.931600 1.098026 0.786172 0.128131 -0.037479 383720.000000 0 0 1
-13.773351 -27.801824 32.877959 45.206270 1.110826 0.756435 0.114084 -0.037197 53044.300000 0 0 1
-13.033051 -28.917944 -33.609946 46.214028 1.147368 2.385128 0.120443 -0.034844 -26324.500000 0 0 1
-11.684151 -29.175794 33.396359 45.859166 1.189881 0.755050 0.129423 -0.037112 -75052.800000 0 0 1
-11.255651 -30.287554 -33.132246 46.279276 1.214987 2.368737 0.115365 -0.030021 -1256580.000000 0 0 1
-9.840151 -30.671474 -33.377046 46.385290 1.260346 2.373966 0.115319 -0.027636 -1313540.000000 0 0 1
-8.834651 -29.841314 -32.822646 45.231418 1.282963 2.382790 0.153005 -0.040460 326562.000000 0 0 1
-7.671751 -30.599394 -32.530346 45.314480 1.325144 2.371548 0.184906 -0.054704 -189016.000000 0 0 1
-6.771751 -29.883294 -31.532146 43.967535 1.347953 2.370528 0.205828 -0.055403 -513598.000000 0 0 1
-7.113551 -29.973574 -30.186846 43.130771 1.337780 2.346041 0.212933 -0.066530 -10339.700000 0 0 1
-6.293451 -29.193474 -29.331246 41.859150 1.358468 2.347193 0.208249 -0.071799 315499.000000 0 0 1
-6.823951 -29.303774 -27.852446 41.000442 1.342004 2.317633 0.208164 -0.070544 269797.000000 0 0 1
-6.679651 -30.621704 -27.424146 41.646012 1.356026 2.289628 0.194967 -0.074661 294096.000000 0 0 1
-7.589351 -30.938324 -26.367546 41.352456 1.330241 2.262213 0.204477 -0.076509 600496.000000 0 0 1
-6.900951 -31.882144 -25.307846 41.286575 1.357633 2.230623 0.192691 -0.083273 417402.000000 0 0 1
-5.869551 -31.277054 -24.584746 40.213374 1.385291 2.228571 0.196852 -0.086763 -435292.000000 0 0 1
-4.883351 -32.148744 -24.133046 40.494355 1.420050 2.209258 0.198511 -0.095151 -160196.000000 0 0 1
-4.048251 -31.571434 -22.985546 39.261675 1.443267 2.196225 0.221583 -0.102882 -89086.800000 0 0 1
-4.753051 -31.578304 -21.718446 38.619576 1.421401 2.168044 0.226885 -0.095201 353608.000000 0 0 1
-4.905451 -30.324664 -21.148646 37.294958 1.410421 2.173734 0.194981 -0.072332 -112591.000000 0 0 1
-6.002951 -30.178334 -20.034946 36.717385 1.374443 2.147964 0.222667 -0.082132 161751.000000 0 0 1
-7.379351 -30.261154 -20.292846 37.175151 1.331609 2.148225 0.247023 -0.083274 219659.000000 0 0 1
-8.012751 -28.974554 -20.442746 36.354296 1.300995 2.167985 0.230292 -0.079181 236182.000000 0 0 1
-8.059851 -28.454934 -21.914346 36.808736 1.294777 2.208506 0.240382 -0.092580 -326289.000000 0 0 1
-6.761051 -28.096524 -22.330246 36.520766 1.334650 2.228675 0.250858 -0.070183 -305527.000000 0 0 1
-6.633451 -27.972634 -23.750046 37.289886 1.337957 2.261271 0.287514 -0.068899 105950.000000 0 0 1
-5.147451 -27.912844 -24.244846 37.328751 1.388434 2.277717 0.284564 -0.071354 754994.000000 0 0 1
-4.354451 -26.757224 -23.978746 36.192410 1.409471 2.294995 0.259253 -0.073343 168201.000000 0 0 1
-3.999051 -26.699634 -22.571446 35.189957 1.422122 2.267141 0.192531 -0.061163 -178071.000000 0 0 1
-2.443751 -26.802174 -22.292546 34.946904 1.479870 2.262562 0.165299 -0.050314 1401190.000000 0 0 1
-1.604951 -25.715484 -22.658446 34.311327 1.508465 2.292118 0.152580 -0.048048 315019.000000 0 0 1
-1.897651 -24.630694 -21.844746 32.976736 1.493904 2.294853 0.151756 -0.053615 -1031940.000000 0 0 1
-1.495051 -23.242194 -22.499546 32.383087 1.506560 2.338929 0.144073 -0.046337 147998.000000 0 0 1
-2.319051 -22.748594 -23.543546 32.820346 1.469205 2.370782 0.190081 -0.053837 183305.000000 0 0 1
-3.624051 -22.393694 -23.116646 32.388125 1.410354 2.365617 0.207158 -0.058796 -98734.300000 0 0 1
-4.590451 -22.029294 -24.277246 33.102065 1.365357 2.394115 0.191799 -0.064227 90770.800000 0 0 1
-4.267751 -20.730094 -24.818946 32.617949 1.367761 2.435493 0.192472 -0.044683 134891.000000 0 0 1
-4.936151 -20.493894 -26.039046 33.502197 1.334439 2.461054 0.247538 -0.053901 -162681.000000 0 0 1
-4.215851 -20.927094 -27.324246 34.674646 1.372003 2.478379 0.209527 -0.052375 133731.000000 0 0 1
-5.093651 -21.245194 -28.387846 35.821409 1.335483 2.485665 0.218373 -0.049844 216496.000000 0 0 1
-4.316751 -21.925994 -29.364246 36.900441 1.376404 2.491074 0.222202 -0.048201 896834.000000 0 0 1
-5.184051 -22.375194 -30.636746 38.290128 1.343126 2.498294 0.250722 -0.066824 414211.000000 0 0 1
-5.544451 -21.341594 -31.511946 38.460464 1.316620 2.531044 0.265210 -0.068608 -8415.920000 0 0 1
-6.388551 -21.941594 -32.484746 39.717828 1.287468 2.528528 0.259401 -0.066841 69648.200000 0 0 1
-6.339151 -21.263394 33.408759 40.105635 1.281061 0.586254 0.217037 -0.051079 -234136.000000 0 0 1
-5.075251 -21.389494 32.817759 39.500303 1.337827 0.590212 0.213450 -0.066760 -389173.000000 0 0 1
-5.111751 -21.291494 31.458759 38.328987 1.335172 0.608063 0.212100 -0.069094 -329062.000000 0 0 1
-3.713751 -21.333694 30.856359 37.696596 1.398444 0.611923 0.162639 -0.078586 -1390960.000000 0 0 1
-3.160751 -22.625794 30.660059 38.235535 1.431998 0.640372 0.216362 -0.072227 275111.000000 0 0 1
-1.879051 -22.634694 30.056859 37.673266 1.487970 0.647109 0.200794 -0.060847 538872.000000 0 0 1
-0.690651 -22.082994 30.913159 37.996829 1.539531 0.620527 0.143147 -0.064005 -1020520.000000 0 0 1
-0.474851 -20.710294 30.641259 36.986870 1.547872 0.594487 0.123483 -0.059067 -165724.000000 0 0 1
0.165949 -20.070394 31.737959 37.551915 -1.562528 0.563903 0.133300 -0.059758 -127130.000000 0 0 1
-0.694151 -19.820394 32.995559 38.497231 1.535789 0.541204 0.131499 -0.058658 60107.100000 0 0 1
-1.727751 -18.869594 32.772559 37.856140 1.479488 0.524223 0.138605 -0.060218 6464.660000 0 0 1
-2.594951 -18.906694 -33.409346 38.475723 1.434398 2.622607 0.155888 -0.064457 953246.000000 0 0 1
-3.931051 -18.093194 -33.514346 38.288748 1.356855 2.636863 0.195687 -0.067873 659418.000000 0 0 1
-3.557551 -16.724994 -33.476646 37.590789 1.361211 2.669359 0.149701 -0.048789 547272.000000 0 0 1
-4.640951 -15.775394 -33.509946 37.327175 1.284679 2.685399 0.183533 -0.055775 361672.000000 0 0 1
-4.168351 -14.340294 33.628059 36.794912 1.287917 0.417927 0.165775 -0.053347 -524959.000000 0 0 1
-3.252451 -13.971394 -32.685846 35.695137 1.342076 2.728029 0.145541 -0.053133 -139910.000000 0 0 1
-2.937951 -12.592994 -32.629346 35.098281 1.341596 2.764276 0.145149 -0.050269 -21703.300000 0 0 1
-2.003151 -12.036894 33.600959 35.748061 1.405890 0.348348 0.146325 -0.048825 -696270.000000 0 0 1
-2.683551 -11.890594 32.371359 34.590354 1.348828 0.360135 0.145074 -0.032464 -8241.880000 0 0 1
-1.874951 -11.582694 31.246359 33.376776 1.410313 0.359222 0.138608 -0.021222 -223809.000000 0 0 1
-1.058251 -12.803994 30.766759 33.341500 1.488334 0.395571 0.107397 -0.030289 -234385.000000 0 0 1
-1.758051 -13.921694 30.266859 33.361461 1.445180 0.434121 0.132931 -0.052233 357051.000000 0 0 1
-0.901651 -15.112994 30.277459 33.851737 1.511206 0.463678 0.116442 -0.052101 285793.000000 0 0 1
-1.648451 -16.409394 30.461559 34.639460 1.470674 0.496219 0.104474 -0.055200 -68239.400000 0 0 1
-2.304651 -16.901394 29.269059 33.876930 1.435274 0.527671 0.134386 -0.053788 262680.000000 0 0 1
-2.347651 -18.295894 29.370059 34.682151 1.443178 0.560790 0.159284 -0.053159 -242870.000000 0 0 1
-2.838051 -19.058494 28.121659 34.089712 1.422970 0.600716 0.160166 -0.052909 578668.000000 0 0 1
-4.260151 -18.986694 27.968759 34.071908 1.350076 0.607856 0.175652 -0.058030 626830.000000 0 0 1
-4.884151 -19.871994 27.014959 33.890398 1.329793 0.648274 0.185966 -0.063844 366336.000000 0 0 1
-4.478051 -19.665394 25.513259 32.522408 1.346902 0.668935 0.177228 -0.062718 -686294.000000 0 0 1
-4.867851 -20.496594 24.452759 32.276056 1.337621 0.711148 0.214402 -0.059593 -344196.000000 0 0 1
-4.296151 -21.796194 24.402259 33.000019 1.376185 0.738526 0.229195 -0.072999 -136952.000000 0 0 1
-31.346021 -32.795037 -0.271141 45.366959 0.807985 1.576773 0.090437 -0.025073 -467234.000000 0 0 1
-30.697601 -31.660537 0.160659 44.099412 0.800839 1.567153 0.086422 -0.031564 -177269.000000 0 0 1
-30.991741 -31.423337 1.511259 44.161046 0.792313 1.536568 0.052855 -0.012422 -80258.500000 0 0 1
-30.601951 -29.946837 1.893959 42.858833 0.774579 1.526591 0.064676 -0.022671 -367059.000000 0 0 1
-29.247481 -29.735237 1.648959 41.741089 0.793667 1.531282 0.095190 -0.028779 -845288.000000 0 0 1
-28.954951 -28.344637 1.620759 40.551627 0.774747 1.530818 0.101151 -0.033366 -714896.000000 0 0 1
-27.461251 -28.146037 1.490959 39.351527 0.797712 1.532899 0.141617 -0.038055 -888351.000000 0 0 1
-26.715421 -28.731037 2.514359 39.312952 0.821735 1.506795 0.115173 -0.018607 -413485.000000 0 0 1
-25.383271 -28.277837 2.541059 38.084163 0.839288 1.504025 0.139287 -0.023540 -289280.000000 0 0 1
-24.456251 -29.060337 3.451259 38.138204 0.871218 1.480179 0.128834 -0.030493 -528438.000000 0 0 1
-24.810351 -29.032137 4.812359 38.491263 0.863648 1.445444 0.102376 -0.009854 125561.000000 0 0 1
-23.963951 -29.914737 5.567059 38.731829 0.895400 1.426563 0.090187 -0.015160 389242.000000 0 0 1
-24.105351 -29.726937 7.117059 38.928284 0.889449 1.386937 0.072927 0.003717 67989.700000 0 0 1
-23.744751 -28.524937 7.711059 37.907066 0.876597 1.365947 0.088302 -0.022043 100119.000000 0 0 1
-24.291751 -28.568837 9.019059 38.569561 0.866135 1.334772 0.042428 -0.015085 15642.400000 0 0 1
-23.973251 -27.376437 9.874159 37.705239 0.851576 1.305829 0.068507 -0.016547 -231530.000000 0 0 1
-22.722551 -27.491937 10.493959 37.178544 0.880094 1.284649 0.075754 -0.026872 -520339.000000 0 0 1
-22.533251 -26.413037 11.374759 36.534656 0.864499 1.254192 0.096871 -0.022412 444922.000000 0 0 1
-21.081051 -26.301137 11.907359 35.748367 0.895125 1.231219 0.085089 -0.027424 269910.000000 0 0 1
-20.832751 -27.279937 12.920459 36.676106 0.918606 1.210784 0.068576 -0.015193 218338.000000 0 0 1
-19.497451 -27.286637 13.425059 36.124000 0.950377 1.190023 0.080898 -0.022623 684886.000000 0 0 1
-19.086151 -28.355937 14.447559 37.108925 0.978359 1.170894 0.090778 -0.027579 -49942.600000 0 0 1
-19.271251 -29.707037 13.923659 38.049408 0.995329 1.196158 0.084457 -0.023335 -27883.100000 0 0 1
-19.082851 -30.652837 14.976059 39.090075 1.013962 1.177628 0.087517 -0.024118 31981.500000 0 0 1
-18.689351 -32.028437 14.439159 39.794496 1.042580 1.199479 0.078583 -0.028784 64986.700000 0 0 1
-18.634751 -33.008737 15.422759 40.923003 1.056859 1.184379 0.083520 -0.019133 101087.000000 0 0 1
-18.318251 33.151206 14.790959 40.661201 -1.065985 1.198494 0.067135 -0.018166 -214429.000000 0 0 1
-18.036951 32.011306 15.838459 40.011400 -1.057681 1.163805 0.082836 -0.018093 -17284.900000 0 0 1
-19.133751 31.636406 16.676159 40.559301 -1.026854 1.147076 0.085914 -0.028954 333118.000000 0 0 1
-18.956051 30.444706 17.468059 39.891667 -1.013897 1.117549 0.055081 -0.019923 -616135.000000 0 0 1
-19.690451 30.529706 18.781559 40.896501 -0.997972 1.093650 0.069200 -0.031491 -598045.000000 0 0 1
-19.297351 31.516806 19.654059 41.856647 -1.021391 1.082008 0.077170 -0.031964 -207224.000000 0 0 1
-20.169051 31.771606 20.757759 42.978019 -1.005171 1.066735 0.089331 -0.026023 37710.100000 0 0 1
-19.709151 32.851206 21.746059 44.051600 -1.030412 1.054515 0.080986 -0.015069 150926.000000 0 0 1
-18.530051 32.527106 22.472959 43.662447 -1.052969 1.030141 0.075713 -0.028849 65887.400000 0 0 1
-18.462551 33.141106 23.802059 44.785452 -1.062527 1.010463 0.071772 -0.033086 192546.000000 0 0 1
-19.396451 32.487806 24.877259 45.283086 -1.032558 0.989184 0.071184 -0.032675 1839500.000000 0 0 1
-20.818751 32.635706 24.580159 45.855141 -1.002965 1.005058 0.070745 -0.034827 1450300.000000 0 0 1
-21.679451 31.756406 25.305859 46.031016 -0.971790 0.988723 0.061488 -0.029942 53864.100000 0 0 1
-23.144651 31.979806 24.930659 46.689620 -0.944323 1.007512 0.103384 -0.042428 -636517.000000 0 0 1
-23.455251 31.611406 23.599559 45.895196 -0.932443 1.030715 0.092741 -0.022410 140173.000000 0 0 1
-24.836051 31.742706 23.333659 46.571327 -0.906869 1.046007 0.093730 -0.025337 -29143.400000 0 0 1
-25.029591 31.390806 21.883359 45.724660 -0.897671 1.071748 0.091946 -0.027083 -73212.800000 0 0 1
-24.439751 32.318006 20.959459 45.618569 -0.923322 1.093420 0.102249 -0.019586 196235.000000 0 0 1
-24.350751 31.875506 19.628059 44.657224 -0.918438 1.115724 0.074524 -0.005549 -9900.480000 0 0 1
-23.837651 32.873006 18.543259 44.639899 -0.943394 1.142418 0.080076 -0.003151 -372822.000000 0 0 1
-22.602151 33.378806 18.959359 44.547269 -0.975577 1.131170 0.078862 -0.013322 -370772.000000 0 0 1
-22.053151 -33.236437 17.868859 43.706960 0.984973 1.149621 0.090823 -0.008445 700234.000000 0 0 1
-20.683151 -32.620037 18.297159 42.739275 1.005707 1.128395 0.085200 -0.017927 562948.000000 0 0 1
-20.907551 -31.493137 19.062359 42.335764 0.984728 1.103733 0.083837 -0.027068 965696.000000 0 0 1
-19.651351 -31.048237 19.610559 41.650242 1.006515 1.080555 0.070420 -0.031058 574948.000000 0 0 1
-19.756651 -29.933837 20.628859 41.375230 0.987416 1.048837 0.073489 -0.023020 -566971.000000 0 0 1
-20.310251 -28.746237 20.136959 40.550580 0.955697 1.051132 0.081893 -0.025522 -172105.000000 0 0 1
-20.897551 -28.048737 21.181959 40.891499 0.930474 1.026281 0.085582 -0.017263 -667566.000000 0 0 1
-21.749851 -26.886537 20.689059 40.298624 0.890622 1.031662 0.069963 -0.023855 -612475.000000 0 0 1
-21.074951 -25.829137 20.023759 38.887643 0.886413 1.029890 0.067536 -0.014538 -37678.700000 0 0 1
-21.845051 -24.665237 19.831859 38.456245 0.845960 1.028973 0.062777 -0.000454 -320522.000000 0 0 1
-22.948851 -24.671037 18.734759 38.552575 0.821548 1.063342 0.068488 -0.011018 -182050.000000 0 0 1
-24.184251 -24.893037 19.397659 39.759407 0.799839 1.061142 0.069179 -0.005317 -192077.000000 0 0 1
-25.230011 -24.661337 18.484859 39.829951 0.774000 1.088184 0.057330 0.000505 -1232540.000000 0 0 1
-26.579651 -25.133037 18.972759 41.208166 0.757431 1.092336 0.067884 -0.012025 -786114.000000 0 0 1
-26.939431 -26.489437 18.878859 42.235465 0.776976 1.107398 0.053546 -0.013274 -32833.400000 0 0 1
-27.110741 -26.940737 17.514959 42.042471 0.782253 1.141093 0.053532 -0.021944 -479700.000000 0 0 1
-28.040661 -28.163537 17.411059 43.389036 0.787584 1.157885 0.072494 -0.027310 1649440.000000 0 0 1
-29.400521 -27.957237 17.898559 44.343615 0.760241 1.155312 0.069780 -0.031336 932956.000000 0 0 1
-30.330001 -28.874437 17.406859 45.350202 0.760818 1.176854 0.065516 -0.018900 797275.000000 0 0 1
-31.805991 -28.440937 17.737359 46.207379 0.729602 1.176819 0.067816 -0.026636 840348.000000 0 0 1
-32.238171 -27.237937 17.175659 45.565427 0.701524 1.184301 0.075756 -0.024296 1215220.000000 0 0 1
-33.684091 -27.106337 17.258659 46.553548 0.677614 1.191005 0.097962 -0.013970 1575180.000000 0 0 1
-34.298115 -25.810737 16.536559 46.000137 0.645125 1.203076 0.127751 -0.039119 83629.900000 0 0 1
-34.389864 -25.895637 15.088259 45.616908 0.645420 1.233687 0.135213 -0.056010 185473.000000 0 0 1
-35.074652 -24.784037 14.531559 45.339231 0.615147 1.244531 0.127089 -0.047108 -121860.000000 0 0 1
-34.222594 -23.497437 14.367259 43.928733 0.601680 1.237607 0.127398 -0.047520 103808.000000 0 0 1
-33.819181 -22.883737 15.590959 43.709043 0.594882 1.206065 0.112337 -0.035430 348381.000000 0 0 1
-33.208061 -21.617437 15.372059 42.501636 0.577057 1.200725 0.106308 -0.024825 -424881.000000 0 0 1
-34.185075 -20.481537 15.680959 42.825287 0.539785 1.195916 0.120089 -0.029537 -74062.200000 0 0 1
-34.538955 -20.283837 17.037259 43.527482 0.531010 1.168629 0.112326 -0.017913 -8095.420000 0 0 1
-35.475839 -19.290137 17.258959 43.914874 0.498035 1.166894 0.115194 -0.017301 -606295.000000 0 0 1
-36.010671 -19.109637 18.635559 44.824443 0.487878 1.142034 0.090325 -0.003803 -1102820.000000 0 0 1
-37.014111 -19.942237 19.036059 46.153101 0.494183 1.145649 0.097428 0.000981 -547373.000000 0 0 1
-37.314531 -19.595837 20.357059 46.805778 0.483567 1.120840 0.102480 0.002121 254098.000000 0 0 1
37.538869 -19.830637 20.837159 47.292791 -0.486007 1.114530 0.120544 -0.000795 614974.000000 0 0 1
37.066769 -21.155537 20.962259 47.549116 -0.518628 1.114245 0.121898 -0.014110 224276.000000 0 0 1
37.729079 -21.929737 22.008259 48.874945 -0.526513 1.103698 0.098410 -0.004548 -13733.200000 0 0 1
37.076559 -23.263437 22.458559 49.195992 -0.560354 1.096725 0.101770 0.001879 -151746.000000 0 0 1
35.973669 -23.145337 23.314859 48.717494 -0.571719 1.071768 0.115701 -0.012230 -152308.000000 0 0 1
35.630629 -24.343237 23.960659 49.358364 -0.599369 1.063927 0.104692 -0.023541 119597.000000 0 0 1
34.561859 -24.171437 25.074559 49.066425 -0.610301 1.034410 0.116425 -0.023794 112397.000000 0 0 1
33.206929 -24.212837 24.738259 47.968147 -0.630023 1.028945 0.112311 -0.015196 -480725.000000 0 0 1
32.376389 -24.173037 25.870459 47.977567 -0.641338 1.001286 0.069970 -0.013258 -466984.000000 0 0 1
30.974079 -24.702737 25.593559 47.166186 -0.673233 0.997237 0.071456 -0.023354 -703451.000000 0 0 1
30.062779 -23.836637 24.978259 45.780666 -0.670394 0.993683 0.074592 -0.014842 -438938.000000 0 0 1
28.985379 -24.599737 24.483159 45.218629 -0.703736 0.998648 0.073229 -0.014139 98967.200000 0 0 1
27.775579 -23.674037 24.119759 43.745921 -0.705847 0.986803 0.072279 -0.004903 28942.000000 0 0 1
27.839279 -22.813837 22.970359 42.698174 -0.686509 1.002769 0.069066 -0.002785 -912666.000000 0 0 1
28.733279 -21.802637 23.036259 42.797495 -0.649105 1.002423 0.072351 0.005064 -815303.000000 0 0 1
28.712079 -20.975837 21.736559 41.675499 -0.630942 1.022110 0.078299 0.005829 664477.000000 0 0 1
27.676279 -19.980237 21.636959 40.414655 -0.625291 1.005846 0.064959 0.002661 533268.000000 0 0 1
27.742279 -19.339637 20.372759 39.480438 -0.608789 1.028596 0.046135 0.002511 34186.800000 0 0 1
26.909479 -18.021137 20.295759 38.220404 -0.590096 1.010994 0.040551 0.007755 16944.800000 0 0 1
27.370279 -16.812637 20.862059 38.301729 -0.550843 0.994793 0.060980 -0.015414 -76921.300000 0 0 1
26.951979 -16.645237 22.212059 38.689129 -0.553252 0.959272 0.072142 -0.006487 -95466.800000 0 0 1
27.060679 -15.232737 22.843959 38.550786 -0.512701 0.936553 0.085376 0.000531 808537.000000 0 0 1
25.909679 -14.437437 22.460659 37.205272 -0.508371 0.922668 0.042337 -0.010216 548982.000000 0 0 1
25.687379 -13.317337 23.311859 37.156907 -0.478290 0.892600 0.036909 -0.016747 -935317.000000 0 0 1
24.396679 -12.562837 23.192559 35.929342 -0.475528 0.869112 0.018564 -0.015662 -484900.000000 0 0 1
23.329579 -13.380637 23.679059 35.833065 -0.520742 0.848891 0.038027 -0.016784 -164651.000000 0 0 1
22.088579 -12.747237 23.613059 34.755920 -0.523408 0.823856 0.058238 -0.015320 685465.000000 0 0 1
20.783979 -13.554437 24.002059 34.522390 -0.577891 0.802014 0.063034 -0.017706 717431.000000 0 0 1
20.457979 -14.635837 23.100859 34.152399 -0.620993 0.827925 0.077486 -0.024135 342926.000000 0 0 1
19.224679 -15.233137 23.480759 33.955601 -0.670074 0.807214 0.110608 -0.022998 356134.000000 0 0 1
18.841279 -16.509737 22.633859 33.761766 -0.719540 0.836050 0.126423 -0.032494 278093.000000 0 0 1
19.634379 -17.660437 22.945659 34.984328 -0.732519 0.855443 0.105756 -0.021261 416395.000000 0 0 1
19.256179 -18.692837 22.084559 34.755580 -0.770555 0.882238 0.132994 -0.028067 21594.500000 0 0 1
19.717679 -20.028137 22.622359 36.078862 -0.793209 0.893068 0.099134 -0.019522 -348142.000000 0 0 1
19.242779 -20.329737 23.902959 36.809431 -0.812859 0.864040 0.119678 -0.021863 174501.000000 0 0 1
19.551979 -21.670337 24.285559 37.969353 -0.836742 0.876806 0.112996 -0.020477 -255427.000000 0 0 1
19.011079 -22.879737 23.458259 37.883947 -0.877488 0.903055 0.109956 -0.028951 40737.600000 0 0 1
19.587179 -23.048537 22.149559 37.489940 -0.866405 0.938730 0.103351 -0.016944 162991.000000 0 0 1
20.784979 -23.794637 22.163659 38.593107 -0.852808 0.959059 0.095727 -0.021055 -111208.000000 0 0 1
21.643979 -23.905137 20.900659 38.428570 -0.835000 0.995738 0.072085 -0.007457 -164150.000000 0 0 1
21.068579 -24.763637 19.927359 38.134268 -0.865846 1.020948 0.072455 -0.022346 923076.000000 0 0 1
22.003979 -24.903137 18.837159 38.199214 -0.847126 1.055113 0.067700 -0.013641 431856.000000 0 0 1
21.254379 -25.488337 17.678659 37.602380 -0.875732 1.081339 0.068731 -0.022120 -3275.240000 0 0 1
20.675179 -26.765237 17.927759 38.278525 -0.913073 1.083374 0.087422 -0.030110 184768.000000 0 0 1
19.741179 -27.077737 16.912359 37.535928 -0.940835 1.103399 0.097161 -0.032117 276148.000000 0 0 1
18.796279 -28.289537 17.261259 38.099201 -0.984347 1.100600 0.107489 -0.031488 665364.000000 0 0 1
17.857979 -27.935137 18.290459 37.865819 -1.002004 1.066680 0.103752 -0.037439 -60892.600000 0 0 1
17.127579 -29.000837 18.785959 38.565721 -1.037325 1.062013 0.116762 -0.036823 -561374.000000 0 0 1
15.826379 -28.610037 19.473959 38.055796 -1.065518 1.033609 0.108854 -0.028396 -331359.000000 0 0 1
14.917779 -28.062537 18.546059 36.796772 -1.082197 1.042557 0.106164 -0.032822 1096800.000000 0 0 1
13.556379 -27.905037 19.026259 36.393201 -1.118570 1.020667 0.085906 -0.031528 1438840.000000 0 0 1
12.564279 -27.548137 17.895459 35.171131 -1.142894 1.036993 0.103917 -0.036155 -54071.600000 0 0 1
12.410179 -28.689237 17.034159 35.598419 -1.162529 1.071841 0.089181 -0.038750 -165512.000000 0 0 1
11.776979 -28.333137 15.866559 34.542895 -1.176862 1.093556 0.133569 -0.038500 -249776.000000 0 0 1
11.432879 -29.613437 15.023659 35.119464 -1.202355 1.128753 0.125293 -0.039831 -264831.000000 0 0 1
10.440779 -30.450437 15.559859 35.753996 -1.240480 1.120545 0.161181 -0.047689 -262385.000000 0 0 1
9.904879 -31.197837 14.505359 35.802474 -1.263375 1.153654 0.130082 -0.036167 286444.000000 0 0 1
8.752279 -32.158637 14.948459 36.527206 -1.305073 1.149173 0.139800 -0.042480 547539.000000 0 0 1
9.161079 -33.185237 15.887359 37.915611 -1.301446 1.138432 0.153454 -0.045536 274944.000000 0 0 1
8.175779 33.197606 15.929459 37.718326 1.329326 1.134786 0.153449 -0.033992 392776.000000 0 0 1
8.697379 32.053206 16.830459 37.233275 1.305834 1.101759 0.154451 -0.038314 744778.000000 0 0 1
9.846379 31.351506 16.320359 36.690901 1.266487 1.109838 0.126999 -0.036405 403580.000000 0 0 1
10.267479 30.398706 17.247659 36.427795 1.245067 1.077564 0.150338 -0.036747 398253.000000 0 0 1
11.603479 29.742706 16.725859 36.041971 1.198829 1.088216 0.083663 -0.053143 617481.000000 0 0 1
11.468579 28.882006 15.644259 34.791399 1.192806 1.104413 0.137044 -0.040518 -226337.000000 0 0 1
12.744679 28.333506 15.439559 34.692858 1.148101 1.109582 0.106114 -0.051719 -202131.000000 0 0 1
12.998279 27.312406 14.346659 33.477596 1.126605 1.127914 0.097281 -0.047695 -368749.000000 0 0 1
12.426479 26.077906 14.517359 32.329991 1.126114 1.105109 0.121632 -0.043517 -9237.590000 0 0 1
12.778279 25.249806 13.421359 31.320441 1.102301 1.127945 0.117116 -0.038274 -426275.000000 0 0 1
-9.406351 -9.222194 19.057065 23.166787 0.775513 0.604823 0.069789 -0.043917 28.813900 0 1 0
-9.521151 -9.318294 17.671665 22.130763 0.774631 0.645978 0.063150 -0.043447 -13251.600000 0 1 0
-9.391951 -10.653594 17.288565 22.374143 0.848254 0.687708 0.074438 -0.049357 -66118.200000 0 1 0
-9.776851 -10.915394 15.823065 21.566224 0.840365 0.747050 0.069564 -0.042821 551103.000000 0 1 0
-11.184551 -10.706094 15.649665 22.014237 0.763545 0.780036 0.082569 -0.051278 854498.000000 0 1 0
-11.721951 -11.121394 14.370465 21.624056 0.759114 0.843893 0.093247 -0.051664 159472.000000 0 1 0
-11.852451 -12.630894 14.167465 22.377156 0.817182 0.885217 0.079450 -0.048194 -785037.000000 0 1 0
-10.634951 -13.270794 13.896665 21.962091 0.895214 0.885688 0.087959 -0.041789 -205065.000000 0 1 0
-10.636151 -14.685894 14.209065 23.036942 0.943985 0.906132 0.103029 -0.040434 22056.000000 0 1 0
-10.403451 -15.096594 15.668265 24.117078 0.967406 0.863639 0.116530 -0.043421 -530094.000000 0 1 0
-11.477651 -14.851994 16.500065 24.991405 0.912861 0.849672 0.120673 -0.044310 -722111.000000 0 1 0
-11.129151 -14.894694 17.868965 25.787784 0.929097 0.805260 0.139948 -0.041555 176113.000000 0 0 1
-12.331751 -14.364694 18.734065 26.634220 0.861402 0.790650 0.097889 -0.047215 191721.000000 0 0 1
-12.687951 -13.023994 18.552465 25.976960 0.798467 0.775331 0.102232 -0.042249 -34710.900000 0 0 1
-13.633951 -12.840294 17.517565 25.644158 0.755429 0.818795 0.116593 -0.053611 1124340.000000 0 0 1
-15.167451 -13.021394 17.900065 26.833199 0.709413 0.840505 0.081128 -0.047097 808878.000000 0 0 1
-15.569051 -14.255294 18.339865 27.963537 0.741377 0.855489 0.092734 -0.033822 -725878.000000 0 0 1
-16.664151 -14.227294 19.193565 29.129070 0.706677 0.851422 0.092846 -0.032373 -489198.000000 0 0 1
-17.106851 -15.646494 19.610165 30.364711 0.740841 0.868698 0.090396 -0.030160 -16432.400000 0 0 1
-17.935851 -16.225594 18.619965 30.523233 0.735376 0.914703 0.085817 -0.027548 -203053.000000 0 0 1
-18.425651 -17.456894 19.052865 31.737350 0.758407 0.926883 0.080450 -0.033867 565134.000000 0 0 1
-19.798751 -17.911694 18.440065 32.447732 0.735399 0.966357 0.089743 -0.027655 512132.000000 0 0 1
-19.776651 -18.200594 17.055365 31.831792 0.743922 1.005345 0.099914 -0.032216 34207.300000 0 0 1
-20.203851 -17.059294 16.288365 31.056818 0.701210 1.018704 0.096842 -0.035689 -230040.000000 0 0 1
-19.914051 -17.174494 14.773665 30.162789 0.711667 1.058939 0.112006 -0.044760 216243.000000 0 0 1
-20.661051 -18.243594 14.167665 30.990813 0.723340 1.096000 0.122865 -0.046707 420596.000000 0 0 1
-20.346351 -18.240394 12.791865 30.171473 0.730875 1.132970 0.152817 -0.049232 214310.000000 0 0 1
-20.496251 -19.661194 12.163865 30.896900 0.764607 1.166152 0.165880 -0.049189 798444.000000 0 0 1
-19.445151 -20.551294 12.633065 30.984898 0.813047 1.150844 0.162957 -0.046884 725904.000000 0 0 1
-19.579051 -21.732094 11.898665 31.578495 0.837469 1.184461 0.138294 -0.033956 175410.000000 0 0 1
-18.538451 -22.831894 12.277865 31.870292 0.888809 1.175323 0.130768 -0.028264 133046.000000 0 0 1
-18.668651 -24.099094 11.625065 32.625557 0.911698 1.206472 0.143803 -0.045942 32963.100000 0 0 1
-17.934051 -24.208494 10.388365 31.868471 0.933199 1.238752 0.136818 -0.038035 -105514.000000 0 0 1
-18.362051 -25.326484 9.387865 32.660798 0.943479 1.279248 0.153167 -0.044391 122937.000000 0 0 1
-19.571551 -25.057194 8.709165 32.966015 0.907702 1.303436 0.127397 -0.041545 -293503.000000 0 0 1
-19.878251 -26.003434 7.714865 33.628003 0.918113 1.339317 0.150903 -0.049408 1054920.000000 0 0 1
-21.259251 -25.767234 6.983465 34.127333 0.880967 1.364711 0.143482 -0.051878 988781.000000 0 0 1
-21.183551 -24.586594 6.256065 33.051199 0.859612 1.380363 0.169065 -0.055684 343313.000000 0 0 1
-22.360051 -24.373594 5.482365 33.527605 0.828457 1.406541 0.180718 -0.055404 493610.000000 0 0 1
-22.040951 -23.244094 4.483065 32.344849 0.811960 1.431747 0.189436 -0.053197 713648.000000 0 0 1
-23.073551 -23.149994 3.475865 32.869326 0.787052 1.464850 0.192504 -0.062959 659626.000000 0 0 1
-23.077551 -21.928494 2.758765 31.953763 0.759873 1.484353 0.182682 -0.044613 -21957.600000 0 0 1
-23.524751 -22.196194 1.347865 32.371309 0.756348 1.529147 0.163710 -0.044118 -149487.000000 0 0 1
-22.547351 -22.769394 0.518865 32.048362 0.790298 1.554606 0.163634 -0.057793 -175839.000000 0 0 1
-22.904151 -22.781694 -0.827335 32.315479 0.782718 1.596401 0.157388 -0.057409 -682074.000000 0 0 1
-21.984351 -23.566194 -1.728035 32.274809 0.820111 1.624363 0.171517 -0.053513 -916291.000000 0 0 1
-20.635251 -23.164494 -1.590935 31.063458 0.843080 1.622034 0.169669 -0.054814 375057.000000 0 0 1
-19.727051 -23.752894 -2.561035 30.982501 0.877726 1.653551 0.147371 -0.046692 644548.000000 0 0 1
-19.630451 -25.332944 -2.687435 32.161078 0.911550 1.654456 0.158111 -0.038806 -957795.000000 0 0 1
-20.757251 -25.938394 -3.280535 33.383014 0.895902 1.669225 0.218539 -0.052462 -427809.000000 0 0 1
-20.494851 -27.309814 -3.525235 34.326260 0.927003 1.673676 0.209383 -0.044964 -394808.000000 0 0 1
-21.664451 -28.170714 -4.022935 35.764809 0.915220 1.683518 0.205413 -0.051980 -340737.000000 0 0 1
-22.032251 -27.775684 -5.319235 35.849727 0.900203 1.719722 0.185802 -0.043398 -200787.000000 0 0 1
-22.710251 -28.796004 -5.985935 37.159073 0.903008 1.732591 0.188185 -0.067443 -48330.200000 0 0 1
-23.406251 -28.459464 -7.337935 37.571784 0.882520 1.767364 0.181831 -0.024942 505370.000000 0 0 1
-22.478451 -28.021944 -8.349435 36.881203 0.894732 1.799163 0.215641 -0.025027 325986.000000 0 0 1
-23.067051 -27.936314 -9.614435 37.482847 0.880579 1.830198 0.211889 -0.014519 348957.000000 0 0 1
-24.022751 -26.666654 -9.793735 37.203766 0.837510 1.837181 0.186057 -0.008858 72923.400000 0 0 1
-23.539751 -25.440594 -10.303235 36.159374 0.824187 1.859740 0.185917 -0.006734 264047.000000 0 0 1
-22.728251 -24.692494 -9.368035 34.843259 0.826796 1.843008 0.173059 -0.007193 335778.000000 0 0 1
-22.466951 -23.239694 -9.907135 33.808262 0.802303 1.868200 0.149053 -0.015164 52991.200000 0 0 1
-23.658951 -22.491294 -9.921935 34.118163 0.760102 1.865871 0.164854 -0.014141 -104063.000000 0 0 1
-23.478151 -21.208994 -10.489935 33.332922 0.734663 1.890939 0.159776 -0.016514 535378.000000 0 0 1
-24.783151 -20.343794 -10.589035 33.766880 0.687339 1.889770 0.172662 -0.014686 181743.000000 0 0 1
-25.708691 -20.701994 -11.608635 34.989566 0.677936 1.908980 0.151936 -0.008015 1235090.000000 0 0 1
-26.934781 -19.927994 -11.587835 35.452578 0.636981 1.903770 0.137899 -0.006804 896119.000000 0 0 1
-26.806331 -18.408994 -11.751535 34.577001 0.601771 1.917570 0.137151 -0.026086 -1720520.000000 0 0 1
-26.201671 -17.984294 -12.934235 34.311176 0.601526 1.957318 0.150662 -0.020531 529281.000000 0 0 1
-25.752651 -16.585094 -12.953635 33.257496 0.572156 1.970880 0.154000 -0.035183 358082.000000 0 0 1
-24.695451 -16.146194 -11.884335 31.808840 0.579051 1.953702 0.154490 -0.031482 -650919.000000 0 0 1
-25.254371 -15.929694 -10.627235 31.693477 0.562738 1.912734 0.177732 -0.031644 -167617.000000 0 0 1
-24.482551 -16.342294 -9.549035 30.945919 0.588585 1.884487 0.183788 -0.034121 -377449.000000 0 0 1
-25.338931 -16.643994 -8.297435 31.431376 0.581179 1.837949 0.164999 -0.042284 -23017.300000 0 0 1
-26.097261 -17.826294 -8.390635 32.699335 0.599274 1.830299 0.154045 -0.028576 180471.000000 0 0 1
-26.750741 -18.144094 -7.155835 33.106136 0.595989 1.788664 0.148442 -0.021598 280161.000000 0 0 1
-27.269671 -19.593094 -7.119035 34.324990 0.623030 1.779714 0.148550 -0.022357 162167.000000 0 0 1
-28.051221 -19.968894 -8.233635 35.403678 0.618650 1.805510 0.132494 -0.024741 264547.000000 0 0 1
-28.641511 -21.270094 -8.263535 36.620200 0.638769 1.798412 0.131152 -0.015000 115652.000000 0 0 1
-27.596701 -22.354494 -8.564535 36.532897 0.680834 1.807432 0.114546 -0.006073 83568.000000 0 0 1
-28.039151 -23.636594 -8.294635 37.598983 0.700408 1.793234 0.136728 -0.011338 -100734.000000 0 0 1
-26.993991 -24.576194 -8.528535 37.488675 0.738549 1.800302 0.126021 -0.000257 434344.000000 0 0 1
-27.465051 -26.017384 -8.279735 38.727087 0.758337 1.786257 0.135404 -0.026371 59640.200000 0 0 1
-27.544521 -26.269864 -6.885035 38.680875 0.761716 1.749746 0.178350 -0.056083 9263.040000 0 0 1
-27.685921 -27.682194 -6.590735 39.702038 0.785331 1.737573 0.169674 -0.057675 -86817.700000 0 0 1
-27.717271 -27.942434 -5.094935 39.686082 0.789443 1.699533 0.196897 -0.076720 1596060.000000 0 0 1
-29.015021 -27.717664 -4.411435 40.368318 0.762534 1.680295 0.163355 -0.065367 1774070.000000 0 0 1
-29.111211 -28.121684 -3.060935 40.591391 0.768110 1.646276 0.166705 -0.060954 -263386.000000 0 0 1
-29.642231 -29.573814 -2.852535 41.969147 0.784243 1.638816 0.137275 -0.040173 -782081.000000 0 0 1
-28.810691 -30.664804 -3.234535 42.200098 0.816562 1.647519 0.200866 -0.075539 24267.100000 0 0 1
-28.384641 -31.498544 -2.185635 42.457309 0.837351 1.622298 0.180760 -0.077821 -161996.000000 0 0 1
-27.400061 -30.871474 -1.179135 41.294087 0.844901 1.599355 0.185494 -0.075439 -1514760.000000 0 0 1
-26.165681 -30.584014 -1.709635 40.285824 0.863098 1.613247 0.192817 -0.081862 -885609.000000 0 0 1
-25.225601 -30.414534 -0.633335 39.519311 0.878388 1.586823 0.249908 -0.064017 1135160.000000 0 0 1
-24.016751 -29.469164 -1.005835 38.029563 0.886988 1.597248 0.255758 -0.062081 774043.000000 0 0 1
-24.361351 -28.103544 -0.904235 37.203524 0.856605 1.595104 0.212569 -0.078686 -161425.000000 0 0 1
-24.872251 -27.550114 -2.073735 37.174427 0.836436 1.626609 0.250125 -0.092371 129703.000000 0 0 1
-25.580781 -26.149034 -1.938835 36.632054 0.796383 1.623748 0.152108 -0.065248 686944.000000 0 0 1
-26.864701 -26.195074 -1.324935 37.545299 0.772779 1.606093 0.175326 -0.069392 120101.000000 0 0 1
-27.466621 -24.970194 -1.013635 37.134260 0.737826 1.598096 0.178076 -0.086046 148432.000000 0 0 1
-26.959531 -24.318594 0.298665 36.308394 0.733941 1.562570 0.182062 -0.067030 -178273.000000 0 0 1
-27.486311 -24.952694 1.414865 37.150182 0.737120 1.532702 0.144646 -0.069861 -158554.000000 0 0 1
-26.874301 -24.592194 2.647665 36.524159 0.741086 1.498242 0.159620 -0.053270 108142.000000 0 0 1
-27.527601 -23.404094 3.382065 36.289927 0.704613 1.477465 0.173659 -0.056116 9166.050000 0 0 1
-27.255191 -22.257094 2.636365 35.287024 0.684792 1.496015 0.167243 -0.049950 279811.000000 0 0 1
-28.116351 -21.192194 3.028665 35.338521 0.645885 1.484987 0.151698 -0.041465 218570.000000 0 0 1
-28.010111 -19.985294 2.129165 34.474797 0.619731 1.508997 0.153975 -0.031047 -882781.000000 0 0 1
-26.794991 -19.365794 2.249865 33.137100 0.625825 1.502848 0.162728 -0.029539 -1086320.000000 0 0 1
-26.517771 -18.485294 1.208265 32.347460 0.608771 1.533435 0.137954 -0.028296 -711131.000000 0 0 1
-25.130591 -17.918594 1.424465 30.897438 0.619410 1.524677 0.157348 -0.026272 -1301980.000000 0 0 1
-24.119751 -18.786094 1.013365 30.589322 0.661722 1.537662 0.159747 -0.040867 -812401.000000 0 0 1
-22.943851 -18.104794 1.352165 29.258028 0.668054 1.524565 0.153046 -0.033660 -104220.000000 0 0 1
-21.586051 -18.863294 1.256865 28.694270 0.718187 1.526980 0.135858 -0.041975 339965.000000 0 0 1
-21.041651 -18.863894 -0.054135 28.259520 0.730879 1.572712 0.080761 -0.042085 712257.000000 0 0 1
-20.023651 -19.887294 -0.192535 28.222121 0.781982 1.577619 0.116487 -0.044710 614239.000000 0 0 1
-19.613551 -20.268694 -1.639835 28.252440 0.801824 1.628871 0.122025 -0.046624 -62049.700000 0 0 1
-18.862751 -19.281494 -2.299935 27.071555 0.796376 1.655856 0.127396 -0.047671 -105981.000000 0 0 1
-18.570851 -19.804194 -3.565835 27.382435 0.817526 1.701391 0.134266 -0.040084 -251028.000000 0 0 1
-17.580851 -18.968894 -4.346735 26.225929 0.823357 1.737307 0.141485 -0.022604 -81284.300000 0 0 1
-16.187751 -19.059294 -4.117535 25.342732 0.866688 1.733994 0.157933 -0.027983 -116786.000000 0 0 1
-15.570751 -18.531994 -5.222535 24.762026 0.872014 1.783301 0.149242 -0.016232 -566466.000000 0 1 0
-14.050351 -18.376894 -5.107135 23.689774 0.918038 1.788086 0.148089 -0.025503 -403174.000000 0 1 0
-13.245051 -19.518894 -5.100135 24.133586 0.974594 1.783731 0.109525 -0.025828 -47495.800000 0 1 0
-12.045551 -19.176794 -5.777335 23.371399 1.009948 1.820583 0.111810 -0.032843 915118.000000 0 1 0
-10.875751 -20.245394 -5.784435 23.698473 1.077836 1.817372 0.111308 -0.039114 1034750.000000 0 1 0
-11.231151 -21.375094 -6.557635 25.020711 1.087011 1.835982 0.104545 -0.033509 774079.000000 0 0 1
-10.003951 -21.941594 -7.055935 25.125660 1.143017 1.855451 0.112343 -0.027185 835127.000000 0 0 1
-10.279251 -23.070294 -8.087035 26.519834 1.151639 1.880675 0.110879 -0.017259 -123608.000000 0 0 1
-10.827351 -22.759994 -9.365335 26.887885 1.126762 1.926565 0.094260 -0.022305 51863.000000 0 0 1
-10.795651 -23.794194 -10.316435 28.091610 1.144862 1.946839 0.118807 -0.020913 35732.000000 0 0 1
-11.495451 -23.411694 -11.638535 28.560607 1.114364 1.990514 0.151992 -0.035053 -260841.000000 0 0 1
-10.766951 -22.475194 -12.404235 27.837504 1.124041 2.032634 0.143054 -0.028427 459806.000000 0 0 1
-11.509251 -22.155594 -13.599035 28.430036 1.091691 2.069552 0.145671 -0.031635 -343909.000000 0 0 1
-10.950851 -20.875594 -14.248435 27.545044 1.087681 2.114463 0.119532 -0.023963 29120.700000 0 0 1
-11.233051 -19.735394 -13.417535 26.376077 1.053345 2.104472 0.122124 -0.021579 77049.800000 0 0 1
-10.712351 -18.512894 -13.890335 25.503394 1.046229 2.146764 0.099174 -0.009522 -146271.000000 0 0 1
-10.559551 -17.415194 -12.846035 24.079321 1.025727 2.133516 0.101836 -0.008733 15269.100000 0 1 0
-11.771151 -16.902494 -12.313435 23.997395 0.962480 2.109607 0.129224 -0.019403 75253.500000 0 1 0
-11.577251 -15.933594 -11.307635 22.710675 0.942444 2.091971 0.124908 -0.024998 152565.000000 0 1 0
-11.221051 -14.529194 -11.846835 21.848500 0.913169 2.143881 0.124204 -0.015461 566268.000000 0 1 0
-12.348151 -13.944494 -12.507135 22.435556 0.846038 2.162131 0.117817 -0.006841 -125797.000000 0 1 0
-11.998151 -13.806594 -13.885935 22.965122 0.855366 2.220127 0.108493 -0.009030 656994.000000 0 1 0
-13.070651 -13.008694 -14.741935 23.609165 0.783022 2.245180 0.110640 -0.007288 377432.000000 0 1 0
-13.077951 -11.608994 -14.346835 22.619311 0.725965 2.257865 0.090470 -0.009167 -273446.000000 0 1 0
-13.907851 -10.817694 -15.137335 23.229071 0.661065 2.280560 0.092418 -0.023782 -415146.000000 0 1 0
-14.023151 -9.385694 -14.582535 22.302249 0.589823 2.283470 0.084351 -0.030335 1081270.000000 0 1 0
-12.840251 -8.520794 -14.575635 21.211438 0.585877 2.328368 0.068651 -0.031778 1065360.000000 0 1 0
-12.712651 -7.735894 -15.734835 21.657345 0.546660 2.384063 0.079414 -0.031316 -421337.000000 0 1 0
-11.501351 -6.807694 -15.801935 20.696060 0.534445 2.439549 0.039401 -0.020066 62704.600000 0 1 0
-10.274451 -7.503994 -15.973335 20.421109 0.630809 2.468981 0.031826 -0.017030 374117.000000 0 1 0
-9.162451 -6.662594 -15.732335 19.386774 0.628724 2.517508 0.007904 -0.008300 -347998.000000 0 1 0
12.066249 21.907706 15.752165 29.557954 1.067357 1.008743 0.117224 -0.033874 -208078.000000 0 0 1
12.873549 21.850506 16.889265 30.469988 1.038382 0.983284 0.139454 -0.042987 -111592.000000 0 0 1
13.162749 20.543506 17.253665 29.882814 1.000969 0.955283 0.126507 -0.039720 161827.000000 0 0 1
14.443949 20.586506 18.135765 31.005449 0.958982 0.946013 0.126995 -0.040713 344694.000000 0 0 1
15.678049 20.853906 17.494265 31.412353 0.926142 0.980120 0.115049 -0.032831 425477.000000 0 0 1
16.728749 20.708006 18.473665 32.402915 0.891293 0.964140 0.133663 -0.042466 940579.000000 0 0 1
18.167749 20.989106 17.945965 33.055519 0.857327 0.996905 0.105577 -0.025723 -341231.000000 0 0 1
18.382049 22.404306 18.041265 34.137075 0.883698 1.013970 0.110922 -0.029991 1158250.000000 0 0 1
19.641249 22.871806 17.479865 34.848872 0.861242 1.045360 0.103790 -0.028027 1048870.000000 0 0 1
20.944949 22.506706 18.185665 35.720598 0.821325 1.036647 0.100175 -0.028322 -844508.000000 0 0 1
21.410349 21.182006 18.052865 35.113906 0.780037 1.030812 0.120190 -0.020364 131065.000000 0 0 1
22.756549 21.122006 18.489565 36.136736 0.748164 1.033686 0.140435 -0.024595 193077.000000 0 0 1
23.313949 19.667706 18.416065 35.630189 0.700768 1.027609 0.137201 -0.026390 -132267.000000 0 0 1
23.343049 19.130006 17.064665 34.670706 0.686528 1.056190 0.120749 -0.027734 33328.600000 0 0 1
23.216449 17.735906 16.903265 33.753315 0.652361 1.046287 0.125328 -0.023369 211443.000000 0 0 1
24.412349 16.822306 17.320565 34.335911 0.603366 1.042058 0.126797 -0.028506 1045510.000000 0 0 1
25.550149 16.878306 16.441165 34.756284 0.583787 1.078057 0.149044 -0.042500 1556110.000000 0 0 1
26.465849 15.733306 16.428965 34.898266 0.536348 1.080636 0.127308 -0.018038 435236.000000 0 0 1
27.782549 15.911206 15.611765 35.619710 0.520108 1.117101 0.242614 -0.055039 296690.000000 0 0 1
28.762449 16.776306 16.214865 37.035723 0.528028 1.117627 0.212958 -0.046791 765856.000000 0 0 1
29.505449 16.174006 17.288465 37.829367 0.501437 1.096164 0.217381 -0.047584 -317972.000000 0 0 1
30.683849 15.278606 16.800265 38.173071 0.461995 1.115078 0.198466 -0.057061 -340328.000000 0 0 1
31.771549 15.997206 16.223265 39.096500 0.466449 1.142904 0.245408 -0.044757 -183445.000000 0 0 1
32.583149 15.323706 15.359365 39.145724 0.439603 1.167596 0.228282 -0.044050 -411530.000000 0 0 1
31.967049 14.790506 14.043965 37.919444 0.433348 1.191396 0.217172 -0.049373 -438188.000000 0 0 1
31.831449 15.792306 13.056665 37.856500 0.460541 1.218665 0.214433 -0.037657 -38660.800000 0 0 1
31.016249 15.526206 11.948265 36.685581 0.464114 1.239051 0.225871 -0.041384 -314761.000000 0 0 1
29.822449 16.476306 11.778165 36.049581 0.504745 1.237964 0.216038 -0.056227 -440852.000000 0 0 1
30.030549 17.816706 11.500365 36.763124 0.535468 1.252632 0.218175 -0.049891 -261006.000000 0 0 1
30.544349 18.652806 12.487665 37.905491 0.548235 1.235084 0.252041 -0.048788 129616.000000 0 0 1
29.658349 18.905306 13.790465 37.778370 0.567492 1.197125 0.246375 -0.048313 402090.000000 0 0 1
28.449249 19.612206 13.533865 37.110159 0.603560 1.197492 0.258461 -0.055816 856104.000000 0 0 1
27.522249 19.537706 14.634765 36.788212 0.617331 1.161666 0.219081 -0.055678 224948.000000 0 0 1
27.813749 20.425106 15.853565 37.975323 0.633411 1.140137 0.195675 -0.050779 -511464.000000 0 0 1
27.653549 21.788606 15.606465 38.510049 0.667328 1.153536 0.165128 -0.043963 259538.000000 0 0 1
26.403849 22.268006 16.062765 38.092516 0.700628 1.135502 0.149145 -0.045757 -5197.100000 0 0 1
26.126849 23.680706 15.612765 38.563539 0.736326 1.153973 0.140154 -0.033620 -643161.000000 0 0 1
25.917449 23.845406 14.177665 37.964770 0.743784 1.188079 0.156236 -0.051100 218672.000000 0 0 1
25.769549 25.202706 13.831065 38.607570 0.774278 1.204406 0.149648 -0.050114 -462340.000000 0 0 1
25.475949 25.554506 12.351165 38.139324 0.786938 1.241007 0.137499 -0.051377 -695426.000000 0 0 1
24.198749 25.091106 12.109465 36.902334 0.803500 1.236453 0.124944 -0.037932 -595484.000000 0 0 1
24.203849 24.841006 10.702765 36.296709 0.798389 1.271478 0.100602 -0.048653 -35272.700000 0 0 1
23.348649 23.595206 10.343365 34.768928 0.790650 1.268735 0.106199 -0.047566 -65981.800000 0 0 1
21.972749 23.697406 10.676765 34.034719 0.823144 1.251707 0.097030 -0.034676 668221.000000 0 0 1
21.289349 22.452706 10.986165 32.833767 0.811988 1.229616 0.128297 -0.042793 261221.000000 0 0 1
21.062549 21.402606 9.814665 31.591616 0.793406 1.254895 0.143844 -0.052621 -774229.000000 0 0 1
20.100749 21.670706 8.823465 30.846607 0.822965 1.280701 0.135939 -0.046422 167925.000000 0 0 1
20.465349 22.624106 7.805865 31.489875 0.835456 1.320300 0.118684 -0.034385 -735806.000000 0 0 1
19.331049 22.886206 6.850665 30.731084 0.869411 1.345984 0.121911 -0.030935 -1131880.000000 0 0 1
18.910749 21.767206 6.159065 29.484942 0.855504 1.360358 0.124970 -0.025904 687407.000000 0 0 1
18.244449 22.003006 4.889265 28.998226 0.878514 1.401381 0.154415 -0.033884 647257.000000 0 0 1
16.904349 22.803506 4.724865 28.776401 0.932883 1.405857 0.127304 -0.016384 133147.000000 0 0 1
16.841449 24.161606 5.038965 29.879906 0.962064 1.401346 0.131602 -0.022898 67866.500000 0 0 1
15.495449 24.500806 5.288565 29.468074 1.006860 1.390351 0.123256 -0.023174 11552.800000 0 0 1
15.284749 26.012906 5.275465 30.628832 1.039557 1.397695 0.118659 -0.028098 -128516.000000 0 0 1
15.009849 26.418006 3.901565 30.633786 1.054112 1.443088 0.102764 -0.023538 354071.000000 0 0 1
14.794949 27.792306 3.637965 31.694441 1.081613 1.455760 0.105143 -0.024924 -96527.900000 0 0 1
14.163749 28.282706 2.272965 31.712610 1.106515 1.499061 0.104580 -0.028351 -106080.000000 0 0 1
14.921949 27.973606 1.127565 31.724732 1.080764 1.535247 0.133503 -0.031904 29224.100000 0 0 1
14.522149 26.726406 0.609865 30.423109 1.073063 1.550749 0.113954 -0.024817 -97336.700000 0 0 1
15.574449 26.153906 -0.340035 30.441845 1.033698 1.581967 0.113416 -0.032636 -33845.300000 0 0 1
15.720649 26.863206 -1.575835 31.164947 1.041322 1.621382 0.103102 -0.017240 178229.000000 0 0 1
16.840849 26.388906 -2.321835 31.390755 1.002776 1.644830 0.109066 -0.013603 330952.000000 0 0 1
16.897349 26.933606 -3.765735 32.017500 1.010494 1.688684 0.122415 -0.029861 -8932.100000 0 0 1
15.894249 26.381906 -4.591035 31.140163 1.028564 1.718767 0.147308 -0.034442 -294391.000000 0 0 1
15.852949 27.118806 -5.772235 31.938446 1.041797 1.752525 0.142402 -0.029792 -68903.800000 0 0 1
14.560949 26.866506 -6.552235 31.253195 1.074136 1.782013 0.152203 -0.051280 -69066.200000 0 0 1
14.374849 25.516606 -6.940635 30.098271 1.057759 1.803490 0.144068 -0.038905 -272061.000000 0 0 1
13.206649 25.430906 -7.724835 29.678606 1.091816 1.834112 0.117608 -0.050940 -23943.100000 0 0 1
12.727849 24.041206 -8.160235 28.400126 1.083892 1.862235 0.129466 -0.039705 13950.500000 0 0 1
13.480349 23.367006 -9.156135 28.488096 1.047538 1.898006 0.129085 -0.040206 104925.000000 0 0 1
12.893849 22.124406 -9.471235 27.302839 1.043128 1.925055 0.136514 -0.031390 -102204.000000 0 0 1
13.467749 21.545006 -10.793335 27.605500 1.012126 1.972498 0.139293 -0.031871 -50783.100000 0 0 1
12.803249 20.392306 -11.278035 26.588784 1.010152 2.008836 0.162428 -0.040238 -258919.000000 0 0 1
13.010049 19.894906 -12.636235 26.921053 0.991657 2.059386 0.150807 -0.043795 49567.500000 0 0 1
14.327749 19.138506 -12.924835 27.177531 0.928170 2.066409 0.163977 -0.042117 -111362.000000 0 0 1
15.478149 19.929306 -12.832535 28.309438 0.910455 2.041255 0.128998 -0.029539 -407346.000000 0 0 1
16.565949 19.234506 -13.431135 28.719197 0.859800 2.057450 0.128149 -0.031045 411293.000000 0 0 1
17.956449 19.851106 -13.131135 29.814882 0.835469 2.026865 0.143710 -0.022960 -60183.400000 0 0 1
18.323149 21.049506 -13.869835 31.163951 0.854533 2.032038 0.127906 -0.024525 -178237.000000 0 0 1
17.469849 22.167606 -13.844835 31.436887 0.903366 2.026842 0.123575 -0.024849 -73001.300000 0 0 1
18.110449 23.417706 -14.611235 33.013111 0.912508 2.029280 0.119036 -0.028582 486412.000000 0 0 1
18.248049 23.374706 -16.024935 33.707072 0.907950 2.066235 0.105875 -0.022702 -439003.000000 0 0 1
17.072849 23.898506 -16.569235 33.721808 0.950478 2.084436 0.123305 -0.015163 53991.200000 0 0 1
17.118149 23.947806 -18.082735 34.547269 0.950199 2.121656 0.105232 -0.009705 140860.000000 0 0 1
17.150249 22.670306 -18.663135 34.005683 0.923144 2.151753 0.120629 -0.010287 -292270.000000 0 0 1
17.280949 22.792006 -20.061035 34.936398 0.922066 2.182442 0.112686 -0.006087 -46306.400000 0 0 1
17.417449 21.417706 -20.745535 34.532056 0.888042 2.215250 0.124077 -0.002843 142168.000000 0 0 1
16.235749 20.652206 -20.781735 33.496174 0.904557 2.240076 0.118657 -0.000115 -26952.700000 0 0 1
16.651849 19.389506 -21.279435 33.257351 0.861211 2.265088 0.124162 -0.008634 24472.000000 0 0 1
15.547449 18.347506 -21.393035 32.187204 0.867821 2.297814 0.115478 -0.013326 -651363.000000 0 0 1
15.206449 17.731806 -20.144535 30.845670 0.861918 2.282434 0.115277 -0.020334 -251274.000000 0 0 1
14.461549 16.585006 -20.358435 29.977737 0.853688 2.317357 0.097455 -0.022493 425471.000000 0 0 1
12.903049 16.741906 -20.491635 29.439552 0.914176 2.340689 0.106139 -0.028578 366090.000000 0 0 1
12.253949 16.920306 -19.239335 28.400846 0.944002 2.315048 0.091705 -0.033683 -82538.300000 0 0 1
10.873049 17.088906 -19.503835 28.118561 1.004138 2.337310 0.111110 -0.039630 387442.000000 0 0 1
9.988149 16.678706 -18.263935 26.674214 1.031218 2.324994 0.139686 -0.046414 -393203.000000 0 0 1
9.967249 15.271906 -18.104835 25.697514 0.992559 2.352566 0.150804 -0.069603 505158.000000 0 0 1
8.624649 14.809406 -18.242835 25.030064 1.043436 2.387418 0.171498 -0.055866 1040590.000000 0 0 1
7.682349 14.978106 -16.968035 23.901388 1.096878 2.360179 0.161837 -0.063188 255890.000000 0 1 0
7.380249 16.339406 -16.763835 24.545273 1.146543 2.322626 0.174936 -0.055724 -195760.000000 0 1 0
6.455149 16.546706 -15.687135 23.697018 1.198839 2.294264 0.146316 -0.060661 252909.000000 0 1 0
6.305449 18.093406 -15.401235 24.583085 1.235463 2.247847 0.135887 -0.043660 -46963.400000 0 1 0
7.501349 18.746906 -15.038035 25.176561 1.190171 2.210930 0.132326 -0.043788 -51629.100000 0 0 1
8.149249 19.384106 -16.152835 26.515428 1.172821 2.225830 0.139146 -0.034392 1212530.000000 0 0 1
9.499249 20.146506 -15.749235 27.279220 1.130201 2.186257 0.134633 -0.021646 1212420.000000 0 0 1
9.532249 21.414206 -15.119335 27.893123 1.151994 2.143665 0.122514 -0.031097 -296512.000000 0 0 1
9.358449 21.442606 -13.739235 27.131762 1.159274 2.101789 0.136357 -0.038353 -10402.200000 0 0 1
9.010149 22.811206 -13.079435 27.795783 1.194618 2.060716 0.123670 -0.038619 101320.000000 0 0 1
7.736349 23.344106 -13.474535 28.042138 1.250782 2.072033 0.104923 -0.035439 406953.000000 0 0 1
7.178449 24.182306 -12.448435 28.129657 1.282235 2.029223 0.090889 -0.040768 242569.000000 0 0 1
6.686749 23.514706 -11.129335 26.861052 1.293745 1.998003 0.066982 -0.038810 -456500.000000 0 0 1
7.721049 23.385806 -10.205635 26.658311 1.251905 1.963655 0.066724 -0.034889 -275484.000000 0 0 1
7.152249 22.786206 -9.035235 25.534317 1.266650 1.932477 0.067194 -0.040804 197571.000000 0 0 1
8.021849 22.712506 -7.771935 25.310294 1.231282 1.882905 0.060088 -0.043240 -89310.900000 0 0 1
8.164849 23.987506 -7.177635 26.335977 1.242718 1.846829 0.054723 -0.039764 -226303.000000 0 0 1
9.115649 24.038206 -6.168935 26.438347 1.208335 1.806300 0.062952 -0.039237 -411225.000000 0 0 1
9.366049 25.511006 -5.688835 27.765035 1.218936 1.777150 0.043999 -0.035343 -136038.000000 0 0 1
10.064849 26.328406 -6.584835 28.945573 1.205658 1.800296 0.070313 -0.042868 -7116.730000 0 0 1
10.230449 27.646406 -6.219135 30.127454 1.216376 1.778719 0.064796 -0.037395 121267.000000 0 0 1
10.511849 28.677506 -7.367935 31.419497 1.219451 1.807503 0.075512 -0.029383 703688.000000 0 0 1
11.887449 28.721606 -7.762835 32.039097 1.178378 1.815524 0.088976 -0.032735 357357.000000 0 0 1
12.152849 29.906006 -8.467835 33.373121 1.184812 1.827333 0.095761 -0.029543 673060.000000 0 0 1
13.609249 29.903206 -9.034035 34.073849 1.143701 1.839136 0.115338 -0.037858 297514.000000 0 0 1
14.620349 29.943506 -8.081235 34.288111 1.116581 1.808721 0.106634 -0.025388 -523869.000000 0 0 1
15.846849 30.237206 -8.746635 35.240813 1.088067 1.821614 0.104758 -0.025512 590877.000000 0 0 1
17.032549 30.501706 -7.775535 35.789953 1.061517 1.789797 0.098155 -0.017944 455706.000000 0 0 1
17.696949 29.276206 -7.328935 34.985591 1.027088 1.781844 0.095263 -0.023538 753764.000000 0 0 1
18.900349 29.767506 -6.664335 35.885108 1.005087 1.757594 0.086164 -0.016551 673226.000000 0 0 1
19.943149 28.680006 -6.528235 35.537161 0.963186 1.755547 0.076797 -0.013472 -759641.000000 0 0 1
19.650849 27.761206 -5.479835 34.450966 0.954819 1.730537 0.102871 -0.019806 -440275.000000 0 0 1
20.656249 26.892806 -5.057935 34.285367 0.915814 1.718861 0.093348 -0.019049 -557544.000000 0 0 1
20.993649 25.675506 -5.973735 33.699413 0.885384 1.749003 0.104985 -0.015346 -167850.000000 0 0 1
21.657149 26.071206 -7.164035 34.641930 0.877619 1.779102 0.074203 -0.008629 249107.000000 0 0 1
21.499149 25.025106 -8.115135 33.975355 0.861041 1.811981 0.084309 -0.019363 -748856.000000 0 0 1
22.264149 25.352506 -9.423835 35.032136 0.850166 1.843157 0.083263 -0.017204 604602.000000 0 0 1
23.682149 25.457206 -9.344735 36.003300 0.821505 1.833355 0.061687 -0.012508 436969.000000 0 0 1
24.374149 24.263506 -9.151335 35.588816 0.783123 1.830859 0.084949 -0.015013 46521.400000 0 0 1
25.933749 24.380206 -9.258235 36.778645 0.754531 1.825262 0.034866 -0.006121 611097.000000 0 0 1
26.524649 24.673906 -10.475235 37.710598 0.749266 1.852278 0.044729 -0.001875 -110082.000000 0 0 1
27.929449 24.595506 -10.332135 38.623129 0.722010 1.841606 0.051499 0.001359 108713.000000 0 0 1
28.721049 24.863406 -11.618535 39.725030 0.713530 1.867609 0.068026 -0.000073 -304649.000000 0 0 1
28.595549 26.087706 -12.281335 40.609174 0.739569 1.878035 0.055364 0.002836 334926.000000 0 0 1
29.338149 26.064006 -13.523535 41.508378 0.726369 1.902657 0.071163 -0.001368 452587.000000 0 0 1
28.899849 27.228506 -14.458935 42.256995 0.755630 1.920018 0.077486 -0.009756 70295.700000 0 0 1
29.502149 28.449506 -14.163935 43.363213 0.767236 1.903537 0.070238 -0.007088 -101809.000000 0 0 1
29.580049 29.274806 -15.320435 44.347597 0.780212 1.923528 0.088611 -0.006114 -217687.000000 0 0 1
29.889549 30.769506 -15.048335 45.459873 0.799904 1.908185 0.084323 -0.010873 748025.000000 0 0 1
31.256749 31.042406 -14.714735 46.445008 0.781958 1.893172 0.088449 -0.016865 637854.000000 0 0 1
31.468949 32.410106 -14.621335 47.481504 0.800131 1.883821 0.068940 -0.026593 -4039.650000 0 0 1
16.473949 -32.212437 -28.242931 45.898750 -1.098058 2.233602 0.115735 -0.039198 -375516.000000 0 0 1
17.627149 -32.702737 -27.626101 46.296726 -1.076429 2.210202 0.100112 -0.037409 339.309000 0 0 1
17.849449 -31.971837 -26.412241 45.148728 -1.061613 2.195683 0.100345 -0.048664 -348219.000000 0 0 1
18.960149 -32.449137 -25.454761 45.391394 -1.041998 2.166129 0.058829 -0.040503 1264830.000000 0 0 1
20.348749 -32.126337 -25.684391 45.889662 -1.006181 2.164819 0.098670 -0.050600 1507280.000000 0 0 1
20.994149 -32.830537 -26.730291 47.255761 -1.001859 2.172019 0.097811 -0.043776 -438311.000000 0 0 1
22.528749 -32.737137 -26.755151 47.907231 -0.968053 2.163347 0.116203 -0.040623 41838.000000 0 0 1
23.057049 -31.507337 -27.307521 47.644942 -0.939046 2.181137 0.114424 -0.046966 1633470.000000 0 0 1
24.477349 -31.348337 -27.029601 48.088025 -0.907862 2.167702 0.095058 -0.042735 1585760.000000 0 0 1
25.124449 -29.964137 -27.442281 47.772024 -0.873026 2.182719 0.079264 -0.036754 236719.000000 0 0 1
25.495049 -29.901837 -28.833671 48.739081 -0.864780 2.203829 0.094123 -0.036948 -190461.000000 0 0 1
26.254149 -28.781037 -29.185811 48.676894 -0.831280 2.213776 0.076350 -0.031229 -79286.900000 0 0 1
26.653049 -28.709537 -30.669831 49.751996 -0.822527 2.235028 0.073419 -0.039773 -209271.000000 0 0 1
27.679949 -29.594537 -30.989771 51.013548 -0.818814 2.223682 0.065965 -0.035625 -466531.000000 0 0 1
27.762449 -29.735737 -32.364371 51.984807 -0.819704 2.242823 0.058742 -0.038895 282250.000000 0 0 1
28.975849 -30.595837 -32.836171 53.422085 -0.812585 2.232745 0.041474 -0.035812 -108067.000000 0 0 1
30.197449 -29.934637 -32.907001 53.766524 -0.781028 2.229428 0.039102 -0.032544 -1019320.000000 0 0 1
31.144449 -30.783137 -33.487631 55.127123 -0.779564 2.223658 0.036392 -0.025568 -1010440.000000 0 0 1
32.460549 -30.106037 33.567715 55.559448 -0.747784 0.922064 0.047909 -0.030986 -1061340.000000 0 0 1
32.491649 -29.047937 32.627787 54.443204 -0.729497 0.928171 0.059003 -0.037762 401188.000000 0 0 1
33.828349 -28.599537 32.353058 54.854454 -0.701836 0.939987 0.058233 -0.041807 583657.000000 0 0 1
33.974449 -27.551437 31.253223 53.759733 -0.681380 0.950409 0.065494 -0.042493 57393.400000 0 0 1
35.285349 -27.252837 30.778725 54.176590 -0.657656 0.966579 0.068524 -0.047833 574444.000000 0 0 1
35.231249 -26.065637 29.975315 53.095931 -0.636970 0.970908 0.074473 -0.045929 -390074.000000 0 0 1
35.982549 -26.192037 28.640255 52.924766 -0.629213 0.998992 0.076188 -0.035704 23864.600000 0 0 1
35.408249 -27.039537 27.633945 52.426287 -0.652181 1.015611 0.061707 -0.037318 60320.700000 0 0 1
34.061649 -26.825437 27.298055 51.234596 -0.667107 1.008884 0.068453 -0.033103 -685881.000000 0 0 1
33.483549 -28.025037 26.513605 51.083481 -0.696886 1.025086 0.051070 -0.027189 -472798.000000 0 0 1
32.141649 -27.858337 26.147825 49.928763 -0.714131 1.019605 0.058371 -0.016176 -251615.000000 0 0 1
31.689849 -28.884737 25.285035 49.778586 -0.739123 1.037993 0.048073 -0.010040 384739.000000 0 0 1
30.349749 -28.515737 24.570595 48.352546 -0.754252 1.037755 0.045439 -0.003562 588561.000000 0 0 1
29.261349 -28.474737 25.503475 48.140050 -0.771775 1.012459 0.051372 -0.007780 256613.000000 0 0 1
28.090649 -28.201537 24.731495 46.862118 -0.787368 1.014847 0.062270 -0.002745 20957.900000 0 0 1
26.849749 -28.073537 25.613345 46.530377 -0.807676 0.987875 0.087034 -0.012836 -281891.000000 0 0 1
26.832449 -26.819537 26.259975 46.139508 -0.785157 0.965333 0.083356 -0.021940 475269.000000 0 0 1
25.585149 -26.684837 26.939905 45.743184 -0.806434 0.941052 0.095176 -0.027995 318010.000000 0 0 1
25.543949 -25.524637 28.011805 45.701878 -0.785020 0.911040 0.095072 -0.022504 480402.000000 0 0 1
24.242949 -25.465437 28.627955 45.340588 -0.809986 0.887442 0.110001 -0.018096 845610.000000 0 0 1
24.133449 -24.507337 29.686925 45.435080 -0.793085 0.858740 0.107346 -0.015571 -156886.000000 0 0 1
23.788449 -22.992537 29.285155 44.183338 -0.768386 0.846231 0.113277 -0.014285 200727.000000 0 0 1
24.692749 -22.520037 28.239565 43.753365 -0.739411 0.869215 0.123612 -0.018860 695887.000000 0 0 1
24.513849 -21.141937 27.920945 42.749146 -0.711677 0.859080 0.129517 -0.012819 -133167.000000 0 0 1
25.260649 -20.140837 28.832345 43.301938 -0.673105 0.842172 0.114587 -0.013743 -433764.000000 0 0 1
24.824949 -20.054237 30.170705 43.917217 -0.679495 0.813457 0.121407 -0.009580 169398.000000 0 0 1
25.552949 -19.109237 30.984555 44.476497 -0.642110 0.800079 0.101297 -0.017424 50557.700000 0 0 1
24.940849 -18.858737 32.380263 45.013102 -0.647418 0.767927 0.119099 -0.008093 -84699.300000 0 0 1
25.130749 -19.912237 33.305725 46.231192 -0.670056 0.766393 0.104080 -0.005528 162464.000000 0 0 1
24.449549 -19.739737 -32.774211 45.404698 -0.679216 2.377231 0.116481 -0.005538 -128521.000000 0 0 1
24.588749 -20.872737 -31.744181 45.254511 -0.703840 2.348239 0.084807 0.002291 492968.000000 0 0 1
25.898149 -21.087537 -31.228591 45.723334 -0.683369 2.322645 0.069098 0.002098 334201.000000 0 0 1
25.745349 -22.074237 -30.223941 45.426661 -0.708778 2.298739 0.079474 -0.003593 793690.000000 0 0 1
27.035749 -22.318837 -29.345571 45.718976 -0.690116 2.267729 0.075577 0.001536 945053.000000 0 0 1
28.148049 -22.778537 -30.094971 47.083773 -0.680350 2.264227 0.066993 -0.000315 -456229.000000 0 0 1
29.107349 -23.322737 -29.245551 47.397153 -0.675513 2.235762 0.076358 -0.012784 -153646.000000 0 0 1
30.209749 -24.150837 -29.975211 48.932659 -0.674398 2.230118 0.059962 -0.022873 -302355.000000 0 0 1
31.054749 -23.317937 -30.768311 49.546065 -0.644055 2.240819 0.054290 -0.016366 -145948.000000 0 0 1
30.676349 -23.030837 -32.088101 50.011040 -0.643993 2.267405 0.051869 -0.008892 -245805.000000 0 0 1
30.770649 -24.201637 -33.048951 51.232658 -0.666465 2.271919 0.049811 -0.013949 363103.000000 0 0 1
29.879049 -25.264237 -32.654721 50.964400 -0.701905 2.266253 0.066630 -0.027171 432255.000000 0 0 1
30.322349 -26.587737 -33.154441 52.206988 -0.719869 2.258879 0.054258 -0.034825 187647.000000 0 0 1
29.980049 -27.005637 32.696575 51.934322 -0.733250 0.889790 0.051119 -0.030041 -282564.000000 0 0 1
30.759549 -26.278437 31.800371 51.458427 -0.706996 0.904623 0.037354 -0.035241 149705.000000 0 0 1
30.253649 -26.427037 30.464535 50.415865 -0.717989 0.921953 0.038089 -0.027314 -328119.000000 0 0 1
31.192849 -25.794537 29.414855 50.035844 -0.690952 0.942366 0.052179 -0.034262 -294229.000000 0 0 1
31.329649 -24.366937 29.346545 49.361060 -0.661032 0.934117 0.036321 -0.029924 293072.000000 0 0 1
31.722249 -23.701137 30.570365 50.025916 -0.641672 0.913359 0.032699 -0.023830 -1345720.000000 0 0 1
32.229449 -22.269037 30.426675 49.602721 -0.604628 0.910429 0.025998 -0.007494 505475.000000 0 0 1
33.513949 -22.026037 29.862575 50.001045 -0.581434 0.930742 0.054833 -0.011155 -244087.000000 0 0 1
34.544049 -22.463737 30.652215 51.356296 -0.576581 0.931222 0.048512 -0.021054 -712955.000000 0 0 1
35.991249 -21.920937 30.350945 51.933394 -0.547057 0.946630 0.062692 -0.029247 821627.000000 0 0 1
36.543249 -22.272637 29.096715 51.750346 -0.547366 0.973690 0.072063 -0.027688 -330629.000000 0 0 1
37.580549 -21.408637 28.758825 51.939363 -0.517822 0.983995 0.076139 -0.027231 -370526.000000 0 0 1
38.067649 -21.840737 27.351095 51.713114 -0.520883 1.013492 0.090117 -0.033171 -383806.000000 0 0 1
-37.486281 -22.989237 27.339365 51.779988 0.550120 1.014563 0.090041 -0.028539 42683.300000 0 0 1
-36.842281 -23.172137 26.071565 50.734880 0.561438 1.031096 0.081803 -0.015236 73460.900000 0 0 1
-36.705481 -24.618237 25.585715 51.068373 0.590787 1.046032 0.083886 -0.030162 -360204.000000 0 0 1
-37.927681 -25.308537 25.577975 52.280626 0.588430 1.059574 0.087918 -0.026464 -339732.000000 0 0 1
-37.874681 -26.701737 25.221605 52.759867 0.614075 1.072368 0.078546 -0.016718 116349.000000 0 0 1
-37.205981 -27.715937 26.216165 53.289262 0.640250 1.056457 0.076006 -0.024799 -394784.000000 0 0 1
-37.149781 -28.986437 25.655325 53.651798 0.662587 1.072213 0.073920 -0.025709 279502.000000 0 0 1
-36.237381 -29.887637 26.276505 53.822610 0.689665 1.060764 0.077391 -0.034491 1273860.000000 0 0 1
-34.709881 -29.570237 26.018825 52.499086 0.705611 1.052265 0.078075 -0.033883 200804.000000 0 0 1
-34.235581 -29.767037 24.696955 51.653568 0.715693 1.072276 0.074213 -0.029442 293457.000000 0 0 1
-32.986381 -29.089037 24.583705 50.384838 0.722696 1.061093 0.050566 -0.023381 277858.000000 0 0 1
-32.371581 -29.023437 23.154995 49.258836 0.730918 1.081429 0.060928 -0.021471 -47612.100000 0 0 1
-32.174081 -30.327637 22.559905 49.637550 0.755864 1.098994 0.075841 -0.024630 387903.000000 0 0 1
-31.814481 -30.113737 21.231565 48.680363 0.757942 1.119489 0.069455 -0.020724 -1081440.000000 0 0 1
-31.902481 -31.343537 20.225865 49.084328 0.776561 1.146079 0.078062 -0.017277 670184.000000 0 0 1
-30.884481 -32.366137 20.442465 49.186506 0.808819 1.142182 0.103534 -0.018774 1071830.000000 0 0 1
-29.542881 -31.891237 20.347965 47.998672 0.823605 1.133019 0.111849 -0.017835 241994.000000 0 0 1
-28.430981 -32.967837 20.624565 48.172312 0.859156 1.128361 0.108004 -0.007565 445511.000000 0 0 1
-28.371981 33.352706 19.754865 48.037766 -0.865916 1.146987 0.099531 -0.006654 -614772.000000 0 0 1
-29.455581 32.480606 19.811565 48.115685 -0.834200 1.146424 0.102024 -0.007661 -409220.000000 0 0 1
-29.476681 31.367006 20.847665 47.826655 -0.816457 1.119758 0.105492 -0.001805 -105734.000000 0 0 1
-28.596781 30.343806 20.485965 46.456401 -0.815030 1.114115 0.098517 -0.007123 -225168.000000 0 0 1
-28.413481 29.417406 21.498565 46.204956 -0.802756 1.086838 0.096298 -0.012380 -34486.300000 0 0 1
-27.469781 28.241506 21.094165 44.689320 -0.799250 1.079218 0.089164 -0.005490 -303962.000000 0 0 1
-26.174281 28.701606 20.880665 44.100763 -0.831421 1.077563 0.092503 -0.000915 -443966.000000 0 0 1
-25.269481 27.666206 20.483365 42.702855 -0.830643 1.070515 0.079316 -0.008979 374607.000000 0 0 1
-23.782981 28.049006 20.622765 42.162487 -0.867518 1.059709 0.063782 -0.008959 -240844.000000 0 0 1
-23.269481 28.032306 21.916465 42.516001 -0.877972 1.029220 0.070732 -0.015396 892251.000000 0 0 1
-21.886281 28.420606 21.949665 42.053869 -0.914564 1.021671 0.084986 -0.021468 868317.000000 0 0 1
-21.341681 28.671606 23.416525 42.730106 -0.930922 0.990813 0.080991 -0.018558 -331002.000000 0 0 1
-21.264181 27.478906 24.147065 42.312367 -0.912214 0.963456 0.088408 -0.032479 347783.000000 0 0 1
-21.009181 27.653006 25.557805 43.119321 -0.921089 0.936361 0.089919 -0.036043 25306.100000 0 0 1
-19.547881 27.931506 25.996955 42.873422 -0.960171 0.919315 0.104511 -0.035505 -376254.000000 0 0 1
-19.124981 29.206006 25.512905 43.239611 -0.991033 0.939694 0.081736 -0.035147 843112.000000 0 0 1
-17.763981 29.551506 25.851395 43.094607 -1.029554 0.927451 0.100387 -0.030828 774511.000000 0 0 1
-17.438581 29.834606 27.352265 44.072148 -1.041846 0.901257 0.096746 -0.025710 -449895.000000 0 0 1
-17.246281 28.685306 28.148585 43.733555 -1.029478 0.871554 0.092738 -0.027323 273558.000000 0 0 1
-17.620881 28.917806 29.522745 44.925799 -1.023535 0.853772 0.085046 -0.025102 -176636.000000 0 0 1
-17.434381 27.684906 30.437335 44.686049 -1.008793 0.821481 0.072935 -0.017904 -945933.000000 0 0 1
-16.134881 27.376206 30.805795 44.258197 -1.038225 0.800919 0.083613 -0.010401 -617168.000000 0 0 1
-15.913981 26.198206 31.645052 44.056896 -1.024920 0.769474 0.090119 -0.014998 -78006.500000 0 0 1
-16.342881 26.447706 33.145548 45.444452 -1.017296 0.753404 0.077548 -0.004530 394551.000000 0 0 1
-17.722281 26.215106 33.377435 45.993088 -0.976337 0.758737 0.068134 -0.006924 -173438.000000 0 0 1
-18.171281 26.661406 -32.707071 45.943209 -0.972555 2.362999 0.067352 -0.006438 493244.000000 0 0 1
-19.573581 26.097406 -32.344331 45.938605 -0.927282 2.351919 0.051817 -0.005750 204954.000000 0 0 1
-20.620881 26.323306 -33.229091 47.141379 -0.906278 2.353053 0.066923 -0.011821 160602.000000 0 0 1
-21.856281 25.797806 -32.755861 47.076217 -0.867921 2.340336 0.098311 -0.021829 1057150.000000 0 0 1
-23.157181 25.955406 -33.623511 48.378493 -0.842312 2.339229 0.122590 -0.043341 521181.000000 0 0 1
-23.237681 25.188506 32.457638 47.201154 -0.825661 0.812556 0.120276 -0.036470 -107436.000000 0 0 1
-23.133581 23.739306 32.668744 46.539919 -0.798320 0.792663 0.107220 -0.026477 -208021.000000 0 0 1
-23.567081 22.946606 31.424668 45.491359 -0.772059 0.808225 0.100672 -0.024983 530815.000000 0 0 1
-24.983681 22.887006 31.275060 46.109963 -0.741627 0.825389 0.118141 -0.038009 252087.000000 0 0 1
-25.363881 22.455206 29.972975 45.232090 -0.724646 0.846447 0.131006 -0.030923 -510854.000000 0 0 1
-26.823581 22.157906 29.693095 45.740105 -0.690431 0.864304 0.127442 -0.034922 -658161.000000 0 0 1
-27.187781 20.897906 30.187155 45.685471 -0.655331 0.848965 0.131064 -0.044958 289417.000000 0 0 1
-28.385781 20.447406 29.554325 45.796365 -0.624247 0.869325 0.121413 -0.043842 230095.000000 0 0 1
-28.842281 19.033406 30.094965 45.824171 -0.583313 0.854297 0.127964 -0.047092 -420525.000000 0 0 1
-29.445881 19.250206 31.351096 47.122410 -0.579006 0.842885 0.127276 -0.041126 44605.700000 0 0 1
-29.689681 18.054306 32.126856 47.324095 -0.546354 0.824575 0.097523 -0.023290 -231760.000000 0 0 1
-30.633681 16.947506 31.668189 47.207145 -0.505321 0.835463 0.078011 -0.024559 -434351.000000 0 0 1
-32.009881 17.207106 31.502713 48.095092 -0.493239 0.856602 0.068539 -0.031430 -281887.000000 0 0 1
-32.577681 16.030206 31.016095 47.752182 -0.457276 0.863841 0.063406 -0.018857 -553375.000000 0 0 1
-34.103481 16.151106 31.024705 48.851181 -0.442298 0.882676 0.086883 -0.021002 -802696.000000 0 0 1
-34.657981 16.201306 32.310495 50.076202 -0.437280 0.869477 0.079305 -0.022032 -89111.100000 0 0 1
-36.034681 16.395906 32.055286 50.939820 -0.427007 0.890173 0.115739 -0.021960 -198812.000000 0 0 1
-36.839181 16.467906 33.397865 52.380670 -0.420374 0.879419 0.109571 -0.023724 -838042.000000 0 0 1
38.151249 16.752606 33.213637 53.285207 0.413761 0.897817 0.107183 -0.024887 -935725.000000 0 0 1
37.739049 17.323806 -32.878281 52.965380 0.430348 2.240496 0.104639 -0.036462 -559794.000000 0 0 1
36.261249 17.670006 -32.802501 51.991455 0.453434 2.253536 0.107889 -0.035649 -383046.000000 0 0 1
35.378649 16.609006 -32.539911 50.856206 0.438922 2.265088 0.113100 -0.023192 139312.000000 0 0 1
34.154549 16.976506 -31.938171 49.747178 0.461285 2.267913 0.108103 -0.026113 -296895.000000 0 0 1
33.132449 15.864606 -31.820961 48.600602 0.446564 2.284640 0.114421 -0.019722 -487808.000000 0 0 1
32.569449 15.483806 -33.029261 48.902447 0.443782 2.312318 0.109519 -0.037271 311191.000000 0 0 1
31.695949 14.317606 -32.994171 47.939987 0.424281 2.329855 0.111381 -0.043661 712437.000000 0 0 1
32.357049 12.897206 -33.208511 48.126103 0.379291 2.332328 0.113044 -0.043183 499043.000000 0 0 1
33.371549 12.438006 -32.321451 48.094079 0.356764 2.307765 0.112592 -0.030268 521593.000000 0 0 1
33.997649 11.237306 -32.828111 48.577794 0.319227 2.312825 0.118884 -0.024665 16006.800000 0 0 1
19.098149 -20.954394 9.349359 29.853584 -0.831710 1.252263 0.039512 -0.010838 3145.410000 0 0 1
18.749649 -22.008594 10.223459 30.666703 -0.865186 1.230917 0.023313 -0.012503 -92607.800000 0 0 1
19.727149 -23.018494 10.334759 32.028405 -0.862245 1.242242 0.019584 -0.019770 -291676.000000 0 0 1
19.373349 -24.261294 11.287359 33.035459 -0.896953 1.222099 0.016514 -0.017001 -334185.000000 0 0 1
18.575549 -25.274374 10.716859 33.146585 -0.936993 1.241564 0.022299 -0.020858 -419974.000000 0 0 1
17.264349 -25.218954 11.223659 32.558009 -0.970496 1.218847 0.033681 -0.018386 -683971.000000 0 0 1
16.350249 -26.102794 10.411859 32.512971 -1.011206 1.244817 0.051769 -0.020677 -589789.000000 0 0 1
16.152649 -25.676844 9.089759 31.667525 -1.009272 1.279664 0.055435 -0.031358 250207.000000 0 0 1
15.302849 -26.499924 8.306159 31.708287 -1.047110 1.305748 0.067883 -0.024206 23517.700000 0 0 1
15.151149 -25.906124 6.902759 30.795010 -1.041592 1.344724 0.070331 -0.029146 -280364.000000 0 0 1
14.514249 -24.676894 6.943559 29.458879 -1.039120 1.332854 0.071974 -0.032688 149086.000000 0 0 1
13.876949 -24.305694 5.712759 28.565225 -1.052023 1.369449 0.078697 -0.015538 -98509.000000 0 0 1
13.541949 -22.793694 5.775159 27.134652 -1.034719 1.356322 0.104843 -0.021174 -572513.000000 0 0 1
12.459449 -22.459094 4.959659 26.158115 -1.064305 1.380038 0.080585 -0.014409 -303767.000000 0 0 1
12.162649 -21.114094 5.083459 24.891295 -1.048178 1.365123 0.110181 -0.021278 -361495.000000 0 1 0
11.083749 -20.591294 4.139859 23.748459 -1.077001 1.395580 0.087435 -0.020834 -435847.000000 0 1 0
11.535349 -20.301394 2.869059 23.525356 -1.054084 1.448536 0.063962 -0.017456 96183.700000 0 1 0
10.540049 -19.645794 2.059759 22.389561 -1.078374 1.478670 0.041486 0.000875 400640.000000 0 1 0
11.156849 -19.103994 0.713459 22.134744 -1.042220 1.538558 0.043193 0.002423 253270.000000 0 1 0
12.051149 -18.029094 0.841059 21.702207 -0.981575 1.532032 0.036736 0.004751 -375255.000000 0 1 0
12.764649 -17.843894 -0.368941 21.942583 -0.949842 1.587611 0.042407 -0.006276 -568677.000000 0 1 0
13.903249 -16.844694 -0.136141 21.841762 -0.880771 1.577029 0.030283 0.005294 -762202.000000 0 1 0
14.881149 -17.453794 0.641259 22.945473 -0.864793 1.542846 0.036773 -0.002927 -547723.000000 0 1 0
16.005249 -16.595594 0.730459 23.067625 -0.803504 1.539125 0.053671 -0.017735 630535.000000 0 1 0
17.266849 -17.148294 1.475459 24.380013 -0.781953 1.510240 0.042166 -0.005291 305037.000000 0 1 0
17.828349 -18.210694 0.779659 25.496809 -0.796007 1.540213 0.062195 -0.018420 801393.000000 0 0 1
19.209849 -18.461094 1.089459 26.664906 -0.765525 1.529928 0.077978 -0.017483 885781.000000 0 0 1
19.707749 -19.816094 0.612559 27.954395 -0.788139 1.548882 0.055898 -0.025576 -217534.000000 0 0 1
18.899649 -20.922894 0.896859 28.209371 -0.836161 1.538998 0.057171 -0.015747 -210697.000000 0 0 1
19.311549 -22.073894 0.212959 29.329816 -0.852046 1.563535 0.074496 -0.022133 -83837.600000 0 0 1
18.270849 -23.199394 0.281059 29.531590 -0.903689 1.561279 0.072239 -0.015675 57776.800000 0 0 1
18.298849 -23.930794 1.473759 30.161279 -0.917981 1.521914 0.054786 -0.006256 429959.000000 0 0 1
17.151449 -24.790194 1.508159 30.182784 -0.965551 1.520808 0.055291 -0.007375 263148.000000 0 0 1
17.137949 -25.673464 2.813859 30.996030 -0.982192 1.479890 0.053311 -0.008586 640809.000000 0 0 1
18.193649 -26.639184 2.904259 32.389654 -0.971594 1.481009 0.072018 -0.015345 1059170.000000 0 0 1
19.433049 -26.084434 3.396259 32.704368 -0.930499 1.466761 0.058874 -0.006489 545598.000000 0 0 1
20.574449 -27.121514 3.545959 34.226573 -0.921812 1.467008 0.061160 -0.001644 -156391.000000 0 0 1
21.208549 -27.416454 2.322459 34.739866 -0.912380 1.503894 0.071250 -0.001267 628198.000000 0 0 1
22.264649 -28.432914 2.437959 36.195149 -0.906471 1.503389 0.086534 -0.001864 813223.000000 0 0 1
21.968049 -29.916204 2.813759 37.222193 -0.937407 1.495131 0.077029 -0.006091 -395126.000000 0 0 1
21.697149 -30.135074 4.186159 37.368608 -0.946776 1.458537 0.086613 -0.015278 -111608.000000 0 0 1
21.053949 -31.373154 4.285259 38.025084 -0.979743 1.457861 0.067719 -0.024061 -265235.000000 0 0 1
20.817749 -31.728784 5.717359 38.376850 -0.990134 1.421260 0.072395 -0.031337 -772896.000000 0 0 1
21.905349 -32.282564 6.338359 39.524461 -0.974612 1.409735 0.055426 -0.040535 -621940.000000 0 0 1
21.471549 -32.760404 7.603159 39.900871 -0.990626 1.379073 0.045772 -0.039587 -348433.000000 0 0 1
22.441049 -33.595334 8.391159 41.263285 -0.981884 1.366011 0.053640 -0.041706 -116475.000000 0 0 1
23.639249 -32.894184 8.733059 41.437999 -0.947666 1.358454 0.050888 -0.042031 346452.000000 0 0 1
24.601949 33.573190 9.147459 42.615619 0.938404 1.354462 0.082601 -0.046243 -20937.600000 0 0 1
25.766549 -33.171054 9.923159 43.159043 -0.910376 1.338800 0.089952 -0.040346 -188413.000000 0 0 1
26.603649 -32.316294 9.157259 42.848015 -0.882052 1.355420 0.083546 -0.034781 -32342.800000 0 0 1
27.458349 -31.686944 10.083759 43.124304 -0.856772 1.334781 0.089247 -0.032216 -221757.000000 0 0 1
28.360849 -30.673634 9.416359 42.823795 -0.824555 1.349099 0.098004 -0.028784 -45623.800000 0 0 1
27.529549 -29.596854 8.981859 41.406807 -0.821571 1.352141 0.074660 -0.029281 523941.000000 0 0 1
28.093149 -28.857004 7.902159 41.041392 -0.798810 1.377045 0.102747 -0.033062 220964.000000 0 0 1
27.474949 -27.446094 7.847959 39.620088 -0.784873 1.371397 0.091607 -0.030839 120719.000000 0 0 1
27.944349 -26.729314 8.945259 39.690812 -0.763178 1.343470 0.077248 -0.028208 51746.000000 0 0 1
27.435049 -25.426104 8.845559 38.437125 -0.747412 1.338584 0.072923 -0.026024 63056.700000 0 0 1
28.136349 -24.422294 9.830959 38.532458 -0.714850 1.312810 0.093334 -0.037044 134623.000000 0 0 1
29.520149 -24.317194 9.587059 39.429391 -0.689055 1.325189 0.095606 -0.026583 -730090.000000 0 0 1
29.971649 -23.279194 10.418659 39.354404 -0.660376 1.302863 0.076369 -0.032645 -108073.000000 0 0 1
31.501649 -23.145694 10.237459 40.408942 -0.633667 1.314658 0.085473 -0.029912 206504.000000 0 0 1
31.622549 -22.388694 9.009459 39.779512 -0.616073 1.342329 0.099030 -0.027027 -41237.600000 0 0 1
32.929749 -22.362394 8.456159 40.693386 -0.596557 1.361469 0.106606 -0.029193 218057.000000 0 0 1
32.994649 -21.580894 7.177959 40.073744 -0.579233 1.390706 0.101246 -0.004455 -52328.500000 0 0 1
32.709849 -20.149594 7.361859 39.116970 -0.552108 1.381466 0.106357 0.000712 97402.800000 0 0 1
32.948549 -19.477594 6.161159 38.767815 -0.533888 1.411195 0.097662 -0.004696 9960.660000 0 0 1
32.585549 -17.933294 6.222859 37.711338 -0.503108 1.405025 0.117755 -0.008471 71024.400000 0 0 1
33.202349 -17.264994 7.295759 38.127472 -0.479514 1.378257 0.127611 -0.009669 44509.100000 0 0 1
32.995749 -15.866794 7.250959 37.323599 -0.448230 1.375280 0.135238 -0.011578 124356.000000 0 0 1
33.490249 -15.220994 8.587759 37.775985 -0.426582 1.341457 0.133713 -0.042543 -750704.000000 0 0 1
34.868449 -15.143394 8.665159 38.989949 -0.409722 1.346684 0.116746 -0.037960 -1263120.000000 0 0 1
35.336349 -14.802394 9.923359 39.575769 -0.396692 1.317348 0.100126 -0.048256 -206366.000000 0 0 1
36.873949 -14.880094 9.917059 40.981135 -0.383554 1.326379 0.094182 -0.057872 -344186.000000 0 0 1
37.442449 -13.907494 9.093459 40.963965 -0.355643 1.346945 0.151969 -0.050731 -857447.000000 0 0 1
-37.524481 -14.162594 8.995159 41.104484 0.360893 1.350174 0.126491 -0.050156 -25481.300000 0 0 1
-36.701881 -13.151194 8.115059 39.822558 0.344072 1.365578 0.149400 -0.059732 -104758.000000 0 0 1
-37.023681 -13.196294 6.733059 39.877678 0.342390 1.401141 0.222881 -0.074806 111263.000000 0 0 1
-36.020381 -12.614594 5.917459 38.621395 0.336859 1.416973 0.231442 -0.064374 674881.000000 0 0 1
-34.777081 -13.514394 5.642859 37.734944 0.370641 1.420694 0.202285 -0.049700 -59969.100000 0 0 1
-33.939681 -13.865094 6.684059 37.266867 0.387831 1.390464 0.190914 -0.044794 -918062.000000 0 0 1
-32.829381 -14.552794 6.233359 36.447315 0.417256 1.398928 0.183550 -0.023697 -515562.000000 0 0 1
-32.236381 -15.416294 7.351459 36.481369 0.446078 1.367894 0.150264 -0.033017 -42395.700000 0 0 1
-33.194881 -16.334094 7.840259 37.817620 0.457281 1.361964 0.120615 -0.037504 -35902.200000 0 0 1
-32.889881 -16.892394 9.072159 38.071003 0.474472 1.330186 0.122850 -0.036785 -17364.000000 0 0 1
-34.126181 -17.715194 9.532259 39.614243 0.478817 1.327784 0.067697 -0.033496 -1368760.000000 0 0 1
-35.189881 -16.853694 9.784859 40.225839 0.446655 1.325083 0.083614 -0.029015 -263754.000000 0 0 1
-36.150981 -17.354694 10.706659 41.505558 0.447570 1.309889 0.091692 -0.029797 357217.000000 0 0 1
-36.834081 -18.757694 10.438459 42.632875 0.471019 1.323436 0.086716 -0.018935 -700028.000000 0 0 1
-36.026181 -19.957094 10.583859 42.522810 0.505879 1.319254 0.100870 -0.015779 -67378.200000 0 0 1
-35.702781 -20.280294 11.891959 42.748071 0.516581 1.288890 0.117001 -0.039227 -55721.500000 0 0 1
-36.799281 -20.993494 12.733759 44.238699 0.518436 1.278824 0.110415 -0.061929 100545.000000 0 0 1
-36.925481 -22.386694 12.490959 44.951966 0.545015 1.289217 0.151341 -0.069388 -386847.000000 0 0 1
38.119949 -22.775994 12.140959 46.035631 -0.538566 1.303910 0.151020 -0.044742 -472348.000000 0 0 1
38.145649 -24.295494 11.861859 46.755377 -0.567121 1.314292 0.148019 -0.044743 -503132.000000 0 0 1
-37.823881 -25.155654 12.969659 47.240501 0.586899 1.292679 0.161053 -0.044673 53009.100000 0 0 1
37.859849 -26.402534 13.057859 47.968424 -0.608962 1.295099 0.151070 -0.052580 587479.000000 0 0 1
36.360149 -26.417774 13.515559 46.932181 -0.628329 1.278679 0.145559 -0.054183 644000.000000 0 0 1
35.475549 -25.735404 12.627459 45.610068 -0.627597 1.290275 0.129425 -0.041271 295132.000000 0 0 1
34.232049 -25.401604 13.245259 44.637558 -0.638388 1.269531 0.116993 -0.012860 495553.000000 0 0 1
34.199449 -23.922194 13.720659 43.933247 -0.610384 1.253176 0.127748 -0.024766 267531.000000 0 0 1
35.123949 -23.555994 14.769859 44.796489 -0.590758 1.234800 0.146463 -0.037219 223301.000000 0 0 1
35.018849 -22.212794 15.072959 44.123940 -0.565266 1.222172 0.144344 -0.044700 -399162.000000 0 0 1
36.280549 -21.559094 15.626459 45.002878 -0.536168 1.216178 0.121493 -0.033053 -497508.000000 0 0 1
36.218149 -20.196894 15.953359 44.431729 -0.508694 1.203543 0.143457 -0.011045 85396.000000 0 0 1
35.698649 -19.908594 17.264359 44.371204 -0.508724 1.171154 0.131076 -0.009638 -29841.200000 0 0 1
36.056749 -18.578194 17.840359 44.311589 -0.475772 1.156428 0.117439 -0.000557 -427372.000000 0 0 1
35.615249 -17.454494 17.095259 43.189735 -0.455684 1.163838 0.110647 -0.015653 168691.000000 0 0 1
35.715249 -16.210894 17.803859 43.073768 -0.426086 1.144684 0.104016 -0.015015 237535.000000 0 0 1
37.138149 -15.597794 17.945659 44.097392 -0.397623 1.151678 0.085904 -0.020350 481399.000000 0 0 1
38.026749 -16.193294 18.903859 45.449008 -0.402582 1.141825 0.095719 -0.006325 445981.000000 0 0 1
-37.225981 -15.325394 19.138859 44.575074 0.390539 1.127010 0.072480 -0.013698 -182809.000000 0 0 1
-36.723381 -15.392994 20.598359 44.831276 0.396914 1.093405 0.069288 -0.006551 -224034.000000 0 0 1
-36.089981 -16.585594 20.960559 44.910062 0.430777 1.085214 0.082480 -0.002567 42406.400000 0 0 1
-35.706481 -16.487194 22.326259 45.224354 0.432576 1.054483 0.071638 -0.002656 36026.400000 0 0 1
-34.764681 -17.666794 22.695559 45.119697 0.470172 1.043721 0.072077 -0.005201 -546367.000000 0 0 1
-35.412681 -18.939294 22.771959 46.166188 0.491112 1.054962 0.073283 -0.007104 300136.000000 0 0 1
-34.596081 -20.044594 23.130559 46.191961 0.525127 1.046333 0.057141 0.000237 -68378.000000 0 0 1
-33.574281 -20.565394 22.077159 45.139436 0.549585 1.059752 0.055639 0.003712 477105.000000 0 0 1
-32.422081 -19.769094 21.942159 43.857345 0.547552 1.046842 0.055885 0.004861 952936.000000 0 0 1
-31.167081 -20.402094 21.637359 43.079086 0.579605 1.044574 0.072854 0.003165 1313410.000000 0 0 1
-29.924881 -19.469594 21.636959 41.745917 0.576808 1.025933 0.087266 -0.001235 271573.000000 0 0 1
-29.484281 -19.194294 22.955959 42.008568 0.577079 0.992666 0.073284 -0.002711 260543.000000 0 0 1
-28.328981 -18.380394 22.940659 40.824550 0.575545 0.974076 0.098322 -0.008434 70661.600000 0 0 1
-27.876681 -17.693494 24.275359 40.981241 0.565548 0.936820 0.087503 -0.016986 -976808.000000 0 0 1
-26.715081 -16.946694 24.154659 39.803687 0.565294 0.918712 0.096693 -0.021236 -485244.000000 0 0 1
-26.400981 -16.329994 25.409659 40.116471 0.553939 0.884861 0.095044 -0.036981 568350.000000 0 0 1
-25.317681 -17.002894 26.313659 40.280169 0.591398 0.858906 0.084145 -0.028359 354078.000000 0 0 1
-25.780581 -18.338894 26.639659 41.359700 0.618300 0.870954 0.096111 -0.028681 845462.000000 0 0 1
-24.839881 -18.962394 27.571459 41.674662 0.652013 0.847862 0.088477 -0.025254 627262.000000 0 0 1
-25.346981 -20.256794 28.222759 43.003852 0.674241 0.854913 0.075048 -0.014853 -716316.000000 0 0 1
-26.374781 -20.016394 29.123159 44.095844 0.649187 0.849377 0.073837 -0.023808 -554781.000000 0 0 1
-26.734681 -21.227894 29.699659 45.248606 0.671084 0.854804 0.059236 -0.016093 -503363.000000 0 0 1
-28.017281 -20.942194 30.503959 46.411583 0.641883 0.853634 0.076247 -0.022967 -837387.000000 0 0 1
-27.850881 -20.100694 31.655859 46.709773 0.625159 0.826147 0.084020 -0.033167 -477924.000000 0 0 1
-28.880881 -20.123194 32.570459 47.957096 0.608552 0.824181 0.087737 -0.030085 -508056.000000 0 0 1
-30.205581 -19.415894 32.244259 48.260194 0.571291 0.839099 0.076838 -0.037671 -303215.000000 0 0 1
-30.943281 -19.922094 31.157559 48.220016 0.572023 0.868262 0.084329 -0.034981 2295040.000000 0 0 1
-32.377281 -19.623194 31.390259 49.180346 0.544877 0.878550 0.093730 -0.037749 2248390.000000 0 0 1
-33.402481 -20.070594 30.328359 49.379792 0.541060 0.909443 0.087964 -0.016476 -197284.000000 0 0 1
-33.509181 -19.307594 29.094559 48.395679 0.522727 0.925818 0.077511 -0.026455 473545.000000 0 0 1
-34.384981 -19.921394 28.143459 48.695412 0.525107 0.954583 0.076104 -0.026230 477019.000000 0 0 1
-35.071981 -18.900594 27.172059 48.224445 0.494288 0.972241 0.067852 -0.013665 673457.000000 0 0 1
-36.148081 -19.363794 26.343159 48.740151 0.491782 0.999787 0.056971 -0.012979 929689.000000 0 0 1
-36.834181 -18.303794 25.661259 48.479748 0.461184 1.012998 0.093855 -0.007614 154082.000000 0 0 1
-38.096381 -18.751594 24.883759 49.215424 0.457400 1.040709 0.094698 -0.009742 182356.000000 0 0 1
37.112349 -18.994294 25.703359 48.977264 -0.473047 1.018314 0.096953 -0.009704 -109920.000000 0 0 1
35.985549 -19.408094 24.962359 47.903583 -0.494615 1.022662 0.122609 -0.015696 -509203.000000 0 0 1
34.995049 -20.151894 25.817059 47.929874 -0.522473 1.001971 0.109830 -0.019583 -973053.000000 0 0 1
34.261449 -19.319394 26.634659 47.502536 -0.513438 0.975566 0.102684 -0.009421 -732317.000000 0 0 1
33.393249 -20.116794 27.353159 47.623417 -0.542198 0.958970 0.077762 -0.005705 -379711.000000 0 0 1
-30.071801 -5.504594 33.129886 45.079963 0.181044 0.745257 0.083270 -0.037219 902087.000000 0 0 1
-31.273881 -5.318094 32.334850 45.297685 0.168438 0.775844 0.101442 -0.032351 1252980.000000 0 0 1
-31.041981 -4.346094 31.424126 44.384330 0.139103 0.784134 0.099766 -0.028136 -350049.000000 0 0 1
-31.991091 -4.392194 30.216105 44.223684 0.136441 0.818584 0.096633 -0.034221 -115361.000000 0 0 1
-31.857801 -5.400994 29.217515 43.563211 0.167938 0.835654 0.098359 -0.030639 428825.000000 0 0 1
-30.724501 -5.199494 28.355835 42.131735 0.167641 0.832501 0.085398 -0.029389 555123.000000 0 0 1
-30.525751 -6.263794 27.290665 41.422662 0.202388 0.851528 0.079543 -0.032093 -186926.000000 0 0 1
-31.391331 -6.048894 26.231115 41.353067 0.190360 0.883667 0.078921 -0.031846 -644018.000000 0 0 1
-30.921231 -6.696194 25.111505 40.392440 0.213263 0.899900 0.092004 -0.027273 -279030.000000 0 0 1
-31.374471 -6.336894 23.666475 39.807231 0.199295 0.934119 0.105501 -0.021356 -42223.500000 0 0 1
-30.915661 -5.120894 23.160435 38.966747 0.164150 0.934322 0.111892 -0.022897 137937.000000 0 0 1
-31.518951 -4.966694 21.860765 38.678228 0.156293 0.970126 0.119714 -0.019590 182557.000000 0 0 1
-31.052041 -3.748094 21.084765 37.720614 0.120123 0.977651 0.117503 -0.022603 857982.000000 0 0 1
-29.671951 -3.881594 20.702965 36.388242 0.130078 0.965572 0.141256 -0.026841 868256.000000 0 0 1
-29.195291 -2.629694 20.102465 35.544189 0.089830 0.969681 0.157297 -0.028179 1338710.000000 0 0 1
-27.703361 -2.602094 19.577165 34.022235 0.093652 0.957675 0.159316 -0.029603 1144070.000000 0 0 1
-27.526851 -3.400994 18.399465 33.284149 0.122929 0.985076 0.181723 -0.045641 899144.000000 0 0 1
-26.203811 -3.177494 17.857665 31.868987 0.120672 0.975993 0.178236 -0.035973 940838.000000 0 0 1
-26.014901 -3.736294 16.439265 30.999748 0.142646 1.011838 0.180625 -0.037854 -434519.000000 0 0 1
-26.813521 -3.056094 15.544565 31.143829 0.113486 1.048211 0.184136 -0.042672 -103159.000000 0 0 1
-26.671591 -3.575194 14.225065 30.438598 0.133251 1.084521 0.184479 -0.045196 -622742.000000 0 0 1
-28.016641 -3.779694 13.528565 31.340713 0.134099 1.124463 0.208904 -0.050198 -382154.000000 0 0 1
-28.610691 -2.536694 13.212065 31.615899 0.088431 1.139671 0.209372 -0.051696 -381125.000000 0 0 1
-29.797501 -2.793194 12.520765 32.441679 0.093466 1.174562 0.209020 -0.051101 -190869.000000 0 0 1
-30.531201 -1.601394 11.853965 32.790779 0.052403 1.200917 0.199436 -0.041169 220880.000000 0 0 1
-29.761301 -1.135594 10.711265 31.650526 0.038138 1.225556 0.235238 -0.042824 454382.000000 0 0 1
-30.223731 0.035306 10.074265 31.858530 -0.001168 1.249055 0.229639 -0.035104 677301.000000 0 0 1
-31.612391 -0.035694 9.320165 32.957700 0.001129 1.284093 0.220693 -0.025441 861463.000000 0 0 1
-31.597801 -0.793894 8.172065 32.647112 0.025120 1.317791 0.220198 -0.038119 -452762.000000 0 0 1
-32.855621 -0.842294 7.561665 33.725066 0.025631 1.344659 0.202851 -0.046526 -496192.000000 0 0 1
-32.838551 -1.745394 6.312065 33.485205 0.053101 1.381159 0.249687 -0.057176 139780.000000 0 0 1
-32.219711 -1.251094 5.145765 32.652012 0.038811 1.412542 0.250748 -0.073249 718168.000000 0 0 1
-33.169891 -0.463294 4.429765 33.467583 0.013966 1.438047 0.225915 -0.053588 318468.000000 0 0 1
-32.677091 -0.192194 3.025065 32.817377 0.005882 1.478487 0.215651 -0.051951 -97519.300000 0 0 1
-32.825781 -1.316194 2.193365 32.925296 0.040075 1.504131 0.191709 -0.073508 136743.000000 0 0 1
-32.377881 -1.109694 0.894465 32.409237 0.034260 1.543194 0.201650 -0.080136 -505639.000000 0 0 1
-33.250181 -1.858894 -0.095535 33.302239 0.055848 1.573665 0.175712 -0.072451 64268.700000 0 0 1
-34.599755 -1.419394 -0.023935 34.628865 0.041000 1.571488 0.189100 -0.061240 -178467.000000 0 0 1
-35.366366 -1.957594 -1.069235 35.436637 0.055295 1.600974 0.195742 -0.064720 -671744.000000 0 0 1
-36.829071 -1.571394 -0.903635 36.873653 0.042641 1.595305 0.189693 -0.051241 -775136.000000 0 0 1
-37.535721 -2.276394 0.090365 37.604793 0.060572 1.568393 0.186199 -0.053702 727147.000000 0 0 1
37.399939 -1.932994 0.026865 37.449868 -0.051638 1.570079 0.156908 -0.041048 1035910.000000 0 0 1
36.475409 -3.036394 0.617265 36.606778 -0.083053 1.553933 0.188284 -0.049957 50665.200000 0 0 1
36.656129 -3.175494 1.986865 36.847024 -0.086414 1.516848 0.185829 -0.053749 69200.700000 0 0 1
35.880129 -4.257694 2.434465 36.213785 -0.118112 1.503521 0.178912 -0.045542 -20974.000000 0 0 1
35.880129 -4.326294 4.002965 36.361026 -0.119997 1.460483 0.155909 -0.033097 66286.300000 0 0 1
35.110739 -3.331894 4.650065 35.573707 -0.094613 1.439705 0.171921 -0.040048 179381.000000 0 0 1
34.975149 -3.770794 5.951565 35.677739 -0.107399 1.403198 0.164469 -0.043456 -107700.000000 0 0 1
34.392969 -2.770194 6.962365 35.199785 -0.080372 1.371688 0.183450 -0.041411 542685.000000 0 0 1
32.988839 -2.564694 6.802965 33.780490 -0.077588 1.368022 0.205163 -0.052317 379384.000000 0 0 1
32.493639 -1.473894 7.497665 33.379993 -0.045328 1.344248 0.213788 -0.047070 -1523460.000000 0 0 1
31.010979 -1.479994 7.641565 31.972875 -0.047689 1.329459 0.217143 -0.057815 -1885620.000000 0 0 1
30.342679 -1.324394 6.383465 31.035155 -0.043620 1.363633 0.260791 -0.059341 1987530.000000 0 0 1
28.965479 -0.859394 6.658165 29.733293 -0.029661 1.344952 0.235478 -0.049853 1520750.000000 0 0 1
27.939579 -1.984094 6.651465 28.788864 -0.070895 1.337647 0.280252 -0.064020 -815648.000000 0 0 1
28.172779 -2.978494 7.625965 29.338239 -0.105331 1.307844 0.225147 -0.065245 283696.000000 0 0 1
27.268579 -4.035094 7.390065 28.538929 -0.146910 1.308865 0.238481 -0.074255 -77689.700000 0 0 1
27.481879 -5.261394 8.339365 29.197277 -0.189161 1.281142 0.210179 -0.036433 15015.100000 0 0 1
26.975579 -4.989894 9.640065 29.077685 -0.182911 1.232874 0.202862 -0.040467 538856.000000 0 0 1
27.360879 -6.078194 10.445965 29.911208 -0.218599 1.214044 0.177203 -0.028681 -411200.000000 0 0 1
26.693479 -5.992294 11.801965 29.794895 -0.220824 1.163523 0.162755 -0.018666 -246467.000000 0 0 1
25.398379 -6.519094 11.637565 28.688136 -0.251250 1.153098 0.195489 -0.023593 -258197.000000 0 0 1
24.584179 -6.247794 12.778765 28.402705 -0.248870 1.104128 0.204546 -0.032070 652977.000000 0 0 1
23.369479 -7.236894 12.819065 27.619443 -0.300307 1.088142 0.193546 -0.035273 484629.000000 0 0 1
23.743779 -8.512394 13.415265 28.569166 -0.344236 1.081991 0.169843 -0.034082 325948.000000 0 0 1
22.797479 -9.532494 13.156565 27.994441 -0.396044 1.081539 0.240803 -0.069436 87671.600000 0 0 1
23.229779 -10.765694 13.980365 29.171449 -0.433977 1.070998 0.168324 -0.059847 49418.700000 0 0 1
23.024979 -10.552994 15.376865 29.630446 -0.429758 1.025168 0.127815 -0.052596 350638.000000 0 0 1
23.419879 -11.710594 16.080465 30.728002 -0.463670 1.020058 0.119576 -0.053881 -255647.000000 0 0 1
23.319579 -11.577994 17.597865 31.425110 -0.460838 0.976418 0.129943 -0.058768 494716.000000 0 0 1
21.991379 -11.695294 18.122465 30.802993 -0.488773 0.941799 0.111486 -0.048896 453111.000000 0 0 1
21.891079 -11.942994 19.530465 31.674809 -0.499431 0.906389 0.129001 -0.041953 164761.000000 0 0 1
22.248779 -10.808994 20.544865 32.154844 -0.452243 0.877683 0.105225 -0.043180 91646.000000 0 0 1
21.232179 -9.821494 20.700165 31.237221 -0.433263 0.846410 0.096772 -0.044797 124969.000000 0 0 1
21.203179 -8.747194 19.776465 30.285257 -0.391271 0.859249 0.114609 -0.045084 -474803.000000 0 0 1
22.143979 -7.535694 20.204665 30.909076 -0.328011 0.858358 0.114619 -0.030898 2315180.000000 0 0 1
23.570979 -7.843394 20.212765 32.026017 -0.321231 0.887780 0.151224 -0.040891 1355910.000000 0 0 1
24.207979 -8.122194 18.978365 31.814692 -0.323715 0.931628 0.165030 -0.046267 -280624.000000 0 0 1
25.684179 -8.540994 19.239065 33.207940 -0.321036 0.952864 0.191072 -0.053426 363034.000000 0 0 1
25.759379 -9.778994 19.922865 34.001395 -0.362822 0.944754 0.157988 -0.054919 290091.000000 0 0 1
26.969379 -10.500094 19.658365 34.986436 -0.371278 0.974133 0.152711 -0.052808 583547.000000 0 0 1
26.916079 -11.956794 20.083765 35.648252 -0.418041 0.972317 0.121973 -0.047348 77774.700000 0 0 1
26.063679 -12.668394 19.201365 34.763429 -0.452430 0.985623 0.123885 -0.047218 119934.000000 0 0 1
26.234079 -14.067094 19.319065 35.487129 -0.492198 0.995127 0.075579 -0.038793 -188912.000000 0 0 1
25.258679 -14.877494 18.466165 34.645923 -0.532296 1.008658 0.093593 -0.034739 -518505.000000 0 0 1
25.392379 -14.675794 17.106265 33.952557 -0.524056 1.042771 0.105227 -0.039864 323836.000000 0 0 1
24.453079 -15.318694 16.233465 33.108018 -0.559643 1.058341 0.084251 -0.033522 -249238.000000 0 0 1
24.375779 -16.860294 16.325365 33.837341 -0.605122 1.067329 0.049668 -0.025156 129502.000000 0 0 1
25.569479 -17.541394 15.875165 34.835609 -0.601288 1.097619 0.079451 -0.024455 751732.000000 0 0 1
25.448879 -18.961594 16.186365 35.625636 -0.640348 1.099158 0.046583 -0.002236 -497429.000000 0 0 1
26.635279 -19.871494 15.943165 36.857820 -0.640974 1.123468 0.055609 0.005523 -504785.000000 0 0 1
26.630579 -20.257094 14.581565 36.498762 -0.650295 1.159816 0.062855 -0.007525 -307117.000000 0 0 1
27.777279 -20.975094 14.267965 37.617903 -0.646768 1.181771 0.080656 -0.012657 -513600.000000 0 0 1
28.140579 -20.811594 12.764265 37.255081 -0.636785 1.221094 0.073243 -0.030554 -608292.000000 0 0 1
27.186179 -21.286194 11.870165 36.511522 -0.664275 1.239671 0.067521 -0.025424 -259354.000000 0 0 1
27.380279 -20.809794 10.549765 35.972556 -0.649889 1.273148 0.092767 -0.026771 -151005.000000 0 0 1
26.064679 -20.710394 9.741065 34.686831 -0.671425 1.286139 0.059544 -0.023671 17136.400000 0 0 1
25.607979 -21.968394 9.249865 34.984839 -0.709047 1.303218 0.049501 -0.026216 150109.000000 0 0 1
24.193579 -21.909194 9.132065 33.893018 -0.735889 1.297987 0.035306 -0.011240 265755.000000 0 0 1
23.765979 -22.998594 8.155465 34.062717 -0.768990 1.329023 0.042519 -0.014299 -326442.000000 0 0 1
24.088879 -24.383594 8.510265 35.316545 -0.791478 1.327430 0.044363 -0.015559 58714.800000 0 0 1
23.697879 -25.345734 7.588765 35.518799 -0.818985 1.355482 0.049342 -0.014136 -12609.500000 0 0 1
22.230879 -25.804194 7.744165 34.929078 -0.859651 1.347227 0.052113 -0.008268 873824.000000 0 0 1
21.162379 -24.915894 7.311365 33.497823 -0.866678 1.350761 0.041308 -0.006651 645037.000000 0 0 1
19.928379 -25.619394 7.371965 33.284223 -0.909700 1.347459 0.053841 -0.023601 632122.000000 0 0 1
18.722079 -24.638294 7.198865 31.770827 -0.921004 1.342224 0.054551 -0.030365 55698.100000 0 0 1
18.526379 -24.125394 5.884165 30.982007 -0.915925 1.379714 0.068218 -0.034375 247377.000000 0 0 1
17.544579 -23.094794 6.003065 29.617876 -0.921131 1.366698 0.065490 -0.010905 -57181.400000 0 0 1
17.174179 -22.391694 4.716665 28.610965 -0.916511 1.405185 0.072120 -0.011332 -163560.000000 0 0 1
16.443479 -21.177494 4.918965 27.259319 -0.910575 1.389352 0.103055 -0.006339 181213.000000 0 0 1
16.117579 -20.587694 3.667265 26.402241 -0.906585 1.431446 0.102340 -0.009154 -626397.000000 0 0 1
15.144379 -19.454594 3.850565 24.953162 -0.909336 1.415866 0.093836 0.000761 -724300.000000 0 1 0
15.703679 -18.255894 4.388565 24.477392 -0.860412 1.390531 0.070081 0.000622 -238871.000000 0 1 0
14.780779 -17.219094 4.465965 23.128196 -0.861449 1.376480 0.040059 0.016274 -506105.000000 0 1 0
15.357579 -15.832194 4.773565 22.567688 -0.800614 1.357664 0.022675 0.008077 -546456.000000 0 1 0
16.102579 -15.918594 5.972065 23.417093 -0.779652 1.312917 0.057224 -0.005165 490251.000000 0 1 0
17.083279 -14.892994 6.148665 23.482883 -0.717008 1.305872 0.061216 -0.003626 1871080.000000 0 1 0
18.476179 -15.157094 5.384065 24.496833 -0.687032 1.349201 0.080318 -0.033166 638858.000000 0 1 0
19.326479 -14.065294 5.438465 24.513714 -0.629124 1.347081 0.128416 -0.031938 -1044590.000000 0 1 0
20.619579 -14.423994 5.128465 25.681118 -0.610410 1.369747 0.163670 -0.028468 -849645.000000 0 0 1
21.576879 -13.218794 5.042065 25.801563 -0.549660 1.374114 0.144294 -0.027592 -95931.900000 0 0 1
21.852479 -12.515594 6.263965 25.950110 -0.520127 1.327004 0.170321 -0.034731 396441.000000 0 0 1
22.942079 -11.628694 6.048465 26.422518 -0.469130 1.339835 0.181999 -0.032783 -22309.900000 0 0 1
23.321779 -10.901194 7.339165 26.769474 -0.437250 1.293078 0.202903 -0.032971 158924.000000 0 0 1
24.113279 -11.701294 8.253265 28.044374 -0.451789 1.272081 0.202380 -0.016976 781485.000000 0 0 1
24.346079 -10.947594 9.451965 28.318210 -0.422576 1.230489 0.242121 -0.041675 115658.000000 0 0 1
25.137779 -11.787494 10.490865 29.680148 -0.438472 1.209525 0.194678 -0.031048 -193907.000000 0 0 1
24.328579 -12.743494 11.076965 29.613773 -0.482512 1.187427 0.198291 -0.039611 171215.000000 0 0 1
25.072179 -13.657494 11.841765 30.909039 -0.498786 1.177628 0.194106 -0.048183 -27276.700000 0 0 1
24.075179 -14.688394 12.395365 30.805977 -0.547817 1.156693 0.138187 -0.051748 -74384.500000 0 0 1
23.107879 -14.051594 13.183765 30.087091 -0.546344 1.117216 0.129731 -0.055072 -1079340.000000 0 0 1
21.950279 -14.796094 13.263265 29.608332 -0.593113 1.106317 0.097175 -0.051458 -461839.000000 0 0 1
20.756679 -13.957094 13.807565 28.570773 -0.591971 1.066404 0.081500 -0.052716 -591015.000000 0 0 1
20.722779 -13.762494 15.187865 29.146373 -0.586240 1.022670 0.095153 -0.053007 -51023.600000 0 0 1
19.916979 -12.770294 15.744765 28.419432 -0.570147 0.983618 0.125674 -0.065124 460654.000000 0 0 1
18.351979 -12.893994 15.638065 27.342262 -0.612465 0.961930 0.171052 -0.065983 515297.000000 0 0 1
17.836779 -12.876894 14.299565 26.238191 -0.625293 0.994419 0.198480 -0.079204 1896480.000000 0 0 1
16.372179 -12.934994 14.359365 25.328910 -0.668650 0.968039 0.260053 -0.078228 1818620.000000 0 0 1
15.633979 -11.575594 14.111765 24.032428 -0.637337 0.943205 0.202311 -0.067568 -342781.000000 0 1 0
15.973079 -10.601294 15.011465 24.348938 -0.585944 0.906489 0.172766 -0.056769 44934.300000 0 1 0
15.473479 -9.298694 14.764865 23.321567 -0.541113 0.885246 0.151913 -0.043743 -420073.000000 0 1 0
16.105179 -8.199994 15.670765 23.920484 -0.470943 0.856456 0.164765 -0.043039 1439140.000000 0 1 0
17.539079 -7.953894 15.658765 24.820972 -0.425757 0.888124 0.161142 -0.054604 1476960.000000 0 1 0
18.284479 -8.879094 16.434165 26.138903 -0.452068 0.890885 0.167294 -0.051738 414130.000000 0 0 1
19.828079 -8.714294 16.188365 27.039874 -0.414082 0.928938 0.137408 -0.050912 663568.000000 0 0 1
20.281079 -7.451194 16.657365 27.282050 -0.352088 0.914027 0.114097 -0.049218 -810656.000000 0 0 1
21.533479 -7.247294 16.115365 27.855322 -0.324651 0.953861 0.117705 -0.035770 -872784.000000 0 0 1
22.171679 -5.875994 16.422265 28.209953 -0.259067 0.949433 0.097368 -0.029184 -72295.100000 0 0 1
22.436979 -5.594894 17.807865 29.186314 -0.244377 0.914554 0.135511 -0.035411 55584.800000 0 0 1
23.449379 -4.632294 17.935965 29.883614 -0.195033 0.927053 0.134094 -0.028846 -10400.600000 0 0 1
-5.745251 -32.938037 -6.554541 34.071751 1.398108 1.764378 0.089280 -0.037560 -330775.000000 0 0 1
-6.406651 -31.734037 -6.404241 33.001645 1.371588 1.766094 0.077964 -0.037006 -254589.000000 0 0 1
-5.943651 -31.061137 -5.272641 32.061222 1.381729 1.736002 0.096294 -0.046052 -850814.000000 0 0 1
-6.483851 -29.583337 -5.158441 30.721713 1.355036 1.739504 0.095431 -0.039001 1131560.000000 0 0 1
-7.883751 -29.387737 -4.890341 30.817334 1.308701 1.730158 0.087795 -0.032781 973362.000000 0 0 1
-8.730051 -29.868637 -5.934741 31.679180 1.286436 1.759249 0.087699 -0.030579 -840484.000000 0 0 1
-10.227151 -29.682337 -5.588741 31.888396 1.238982 1.746966 0.132830 -0.017624 359771.000000 0 0 1
-11.057151 -30.110737 -6.692741 32.767512 1.218867 1.776493 0.105343 -0.015219 -839769.000000 0 0 1
-12.380451 -29.992837 -6.296241 33.052814 1.179321 1.762458 0.098306 -0.008525 -607902.000000 0 0 1
-13.355851 -30.594837 -7.345541 34.181571 1.159192 1.787383 0.113720 -0.017109 21247.200000 0 0 1
-13.472851 -29.795237 -8.511741 33.789401 1.146130 1.825445 0.142416 -0.034509 10069.700000 0 0 1
-14.371751 -30.380837 -9.422041 34.904403 1.128938 1.844125 0.136583 -0.030250 -72314.600000 0 0 1
-14.666551 -29.487037 -10.684741 34.623067 1.109239 1.884519 0.189594 -0.027487 -494380.000000 0 0 1
-15.244951 -28.221337 -10.430141 33.728923 1.075514 1.885184 0.189563 -0.031882 -124160.000000 0 0 1
-14.541851 -27.215337 -9.725741 32.353208 1.080067 1.876130 0.167145 -0.028108 -202238.000000 0 0 1
-15.353651 -25.875737 -9.509141 31.554907 1.035273 1.876907 0.157474 -0.017345 178693.000000 0 0 1
-15.458351 -25.102137 -10.640641 31.341684 1.018827 1.917186 0.177371 -0.033262 202812.000000 0 0 1
-16.065551 -23.875637 -10.294341 30.563400 0.978501 1.914333 0.129151 -0.012662 -92594.200000 0 0 1
-16.711751 -23.061437 -11.474741 30.704758 0.943710 1.953804 0.154236 -0.021345 215201.000000 0 0 1
-17.990351 -23.594137 -11.802841 31.931851 0.919348 1.949403 0.164057 -0.027305 167669.000000 0 0 1
-18.390751 -23.212537 -13.070741 32.371065 0.900783 1.986440 0.188949 -0.036234 -1161540.000000 0 0 1
-19.834051 -23.491537 -13.439741 33.553964 0.869617 1.982904 0.177585 -0.020353 -717442.000000 0 0 1
-20.334251 -24.782937 -13.517741 34.790876 0.883683 1.969846 0.211476 -0.029115 26307.300000 0 0 1
-20.463151 -25.449237 -12.305141 34.897288 0.893574 1.931155 0.232601 -0.034235 -1491580.000000 0 0 1
-20.481651 -26.990837 -12.414341 36.084888 0.921663 1.922004 0.233712 -0.042480 898127.000000 0 0 1
-19.375351 -27.727237 -12.980741 36.231251 0.960887 1.937216 0.220785 -0.043628 1131610.000000 0 0 1
-18.037551 -27.270337 -12.830741 35.123389 0.986425 1.944756 0.229131 -0.044799 -16956.600000 0 0 1
-16.901651 -28.195037 -13.266841 35.449048 1.030778 1.954385 0.202740 -0.034564 -172168.000000 0 0 1
-16.953851 -28.451937 -14.651341 36.216123 1.033414 1.987286 0.198840 -0.038770 -87591.400000 0 0 1
-15.934651 -29.396437 -14.893241 36.604265 1.074069 1.989823 0.208297 -0.036339 -86648.200000 0 0 1
-16.255151 -30.950237 -14.769941 37.951262 1.087190 1.970540 0.198159 -0.042279 -118268.000000 0 0 1
-16.703551 -31.285137 -13.481641 37.941047 1.080388 1.934065 0.190782 -0.036123 61376.600000 0 0 1
-16.954151 -32.659837 -13.428441 39.171817 1.091975 1.920702 0.179634 -0.030059 -635079.000000 0 0 1
-17.455851 -33.085437 -12.023741 39.292788 1.085314 1.881789 0.201340 -0.032305 1041920.000000 0 0 1
-18.834551 -32.820937 -11.662241 39.597501 1.049821 1.869749 0.239143 -0.031732 1402240.000000 0 0 1
-19.239051 -31.423137 -11.648941 38.642625 1.021413 1.877013 0.240568 -0.044149 -609980.000000 0 0 1
-18.565651 -30.428937 -10.684041 37.212261 1.022961 1.862006 0.239879 -0.040297 -478121.000000 0 0 1
-18.985251 -30.602837 -9.383741 37.215964 1.015529 1.825690 0.243980 -0.051432 -3243.480000 0 0 1
-18.365351 -29.748137 -8.466341 35.971054 1.017709 1.808391 0.220124 -0.040398 -162519.000000 0 0 1
-18.887251 -29.989937 -7.011241 36.128688 1.008763 1.766099 0.247795 -0.045069 -230830.000000 0 0 1
-18.291051 -30.919537 -6.165841 36.449937 1.036599 1.740773 0.230071 -0.040402 10078.400000 0 0 1
-18.862951 -30.943037 -4.863841 36.564182 1.023346 1.704214 0.239078 -0.054553 -430891.000000 0 0 1
-18.167651 -32.063537 -4.049141 37.074648 1.055287 1.680231 0.216847 -0.039736 183701.000000 0 0 1
-16.784251 -31.943637 -3.811841 36.285495 1.087010 1.676042 0.194425 -0.034960 152601.000000 0 0 1
-16.386051 -30.907437 -2.853341 35.098631 1.083309 1.652181 0.196946 -0.042014 203298.000000 0 0 1
-14.891351 -30.503037 -2.735541 34.053939 1.116639 1.651213 0.191920 -0.043876 1243610.000000 0 0 1
-13.931251 -31.555837 -2.467141 34.582328 1.155051 1.642198 0.139232 -0.027085 434314.000000 0 0 1
-12.596951 -31.142837 -2.604441 33.694845 1.186426 1.648168 0.143679 -0.026504 787484.000000 0 0 1
-11.438651 -32.203737 -2.473941 34.264323 1.229500 1.643061 0.154409 -0.040920 774189.000000 0 0 1
-11.230951 -32.700237 -1.180841 34.595291 1.239967 1.604936 0.173700 -0.030039 155567.000000 0 0 1
-9.950751 -33.305437 -1.096941 34.777476 1.280466 1.602343 0.168669 -0.041835 920733.000000 0 0 1
-8.773051 -32.646737 -0.276241 33.806097 1.308272 1.578968 0.186303 -0.053317 517598.000000 0 0 1
-9.030951 -32.322137 1.074759 33.577280 1.298340 1.538782 0.200762 -0.051879 136606.000000 0 0 1
-7.808451 -31.978837 1.718959 32.963203 1.331307 1.518625 0.213542 -0.053368 1041930.000000 0 0 1
-6.911651 -33.152337 2.268159 33.941021 1.365259 1.503920 0.199025 -0.055598 77674.500000 0 0 1
-7.409551 33.646206 3.413259 34.621077 -1.354037 1.472047 0.234328 -0.064386 -29771.800000 0 0 1
-6.549851 32.660706 3.980759 33.548006 -1.372879 1.451858 0.183786 -0.054088 -324115.000000 0 0 1
-5.677151 32.970906 5.159359 33.851583 -1.400282 1.417789 0.183797 -0.050109 -574282.000000 0 0 1
-4.625451 -33.657737 4.654059 34.291374 1.434226 1.434655 0.183544 -0.052205 -866228.000000 0 0 1
-3.851551 -33.276437 5.770359 33.991951 1.455565 1.400214 0.173590 -0.052946 -202513.000000 0 0 1
-2.578251 -32.542537 5.282859 33.069211 1.491734 1.410357 0.207644 -0.052361 -95358.500000 0 0 1
-2.691251 -31.276437 4.625659 31.730980 1.484961 1.424498 0.212330 -0.051516 -289353.000000 0 0 1
-3.281751 -31.312337 3.334559 31.659937 1.466371 1.465276 0.203048 -0.055860 -69142.100000 0 0 1
-3.333751 -29.947337 2.566259 30.241405 1.459932 1.485835 0.184884 -0.056774 365280.000000 0 0 1
-2.058551 -29.437337 2.181659 29.589763 1.500980 1.496999 0.146241 -0.055723 119593.000000 0 0 1
-2.083751 -28.167137 1.535059 28.285792 1.496953 1.516500 0.151886 -0.055521 -77615.800000 0 0 1
-2.466651 -26.913137 2.357159 27.128537 1.479399 1.483798 0.168890 -0.055194 26669.100000 0 0 1
-2.445351 -25.708437 1.595259 25.873700 1.475963 1.509102 0.164472 -0.061052 -327775.000000 0 0 1
-2.465351 -24.468037 2.255459 24.695139 1.470377 1.479337 0.125550 -0.054857 299934.000000 0 1 0
-3.741751 -23.973437 3.025159 24.451544 1.415966 1.446758 0.121747 -0.050554 438905.000000 0 1 0
-3.933851 -24.801137 4.170859 25.455209 1.413491 1.406203 0.138840 -0.049506 83648.700000 0 0 1
-5.230551 -24.589237 4.705059 25.575903 1.361203 1.385778 0.133945 -0.043428 174642.000000 0 0 1
-5.718451 -25.765437 5.619659 26.984051 1.352394 1.361002 0.159941 -0.046050 6374.480000 0 0 1
-4.971051 -25.959337 6.828659 27.298885 1.381593 1.317967 0.143727 -0.040070 338272.000000 0 0 1
-5.713351 -26.656537 7.833659 28.365112 1.359659 1.290987 0.156151 -0.042203 445238.000000 0 0 1
-4.851851 -26.991937 9.090559 28.891926 1.392944 1.250719 0.147391 -0.041949 129542.000000 0 0 1
-4.526851 -25.970637 10.022359 28.203086 1.398224 1.207493 0.132722 -0.046152 1071140.000000 0 0 1
-5.664451 -25.478337 10.821259 28.254758 1.352030 1.177767 0.123668 -0.038902 1332900.000000 0 0 1
-5.237851 -24.532037 11.996559 27.805995 1.360444 1.124710 0.106826 -0.039318 272286.000000 0 0 1
-4.481051 -25.102937 13.040759 28.640857 1.394150 1.098065 0.112936 -0.045399 -146184.000000 0 0 1
-3.716751 -24.112837 13.698059 27.979993 1.417860 1.059204 0.099960 -0.044155 738871.000000 0 0 1
-2.696051 -24.643437 14.781659 28.862868 1.461827 1.033129 0.101863 -0.045618 368971.000000 0 0 1
-3.375751 -24.957837 15.960059 29.816318 1.436354 1.005958 0.097820 -0.048799 191253.000000 0 0 1
-2.621851 -25.925737 16.650559 30.923439 1.470010 1.002206 0.119006 -0.041468 145092.000000 0 0 1
-3.075451 -26.105537 18.115859 31.924001 1.453528 0.967368 0.137202 -0.045052 -137584.000000 0 0 1
-2.836351 -24.983737 18.899759 31.455253 1.457752 0.926237 0.138823 -0.032802 -23859.900000 0 0 1
-3.203551 -25.251737 20.262659 32.534418 1.444606 0.898471 0.157823 -0.040740 329142.000000 0 0 1
-2.458851 -24.292337 21.265359 32.378683 1.469921 0.854268 0.137593 -0.042848 465016.000000 0 0 1
-1.120251 -24.665537 21.624759 32.821851 1.525410 0.851504 0.075355 -0.063920 435281.000000 0 0 1
-0.462051 -23.666837 22.384559 32.579152 1.551276 0.813331 0.106104 -0.063722 312431.000000 0 0 1
-0.018251 -22.374137 21.679959 31.154823 1.569981 0.801154 0.106350 -0.068203 -25136.300000 0 0 1
-1.129751 -21.535237 21.338459 30.337644 1.518384 0.790675 0.154361 -0.051098 218861.000000 0 0 1
-0.671651 -20.415037 20.612359 29.018860 1.537908 0.780859 0.172945 -0.043375 143382.000000 0 0 1
-1.787651 -19.361537 20.422359 28.198184 1.478727 0.760859 0.152482 -0.021521 -812854.000000 0 0 1
-2.193751 -18.674237 21.590259 28.630036 1.453858 0.716495 0.163184 -0.048747 477095.000000 0 0 1
-3.500951 -18.952237 22.103859 29.326175 1.388131 0.717085 0.202415 -0.060452 1250290.000000 0 0 1
-4.743951 -18.657937 21.160359 28.607420 1.321813 0.738200 0.184129 -0.058430 -35346.700000 0 0 1
-4.942851 -19.527837 20.090559 28.449934 1.322885 0.786719 0.169690 -0.055467 -347877.000000 0 0 1
-5.364151 -20.851837 20.318559 29.604342 1.319005 0.814356 0.173840 -0.052687 -54169.100000 0 0 1
-5.534851 -21.559437 18.994959 29.261791 1.319498 0.864345 0.132378 -0.052515 269156.000000 0 0 1
-6.176651 -22.816537 19.051059 30.359319 1.306423 0.892433 0.126823 -0.057476 -150587.000000 0 0 1
-6.176251 -23.496837 17.795359 30.115150 1.313756 0.938609 0.109809 -0.049860 -58010.700000 0 0 1
-6.686851 -24.896937 17.876859 31.371222 1.308407 0.964474 0.114551 -0.045753 772378.000000 0 0 1
-8.106651 -25.001737 18.063759 31.892069 1.257249 0.968662 0.139248 -0.051580 160688.000000 0 0 1
-8.636651 -26.166537 17.548759 32.668614 1.251990 1.003712 0.143750 -0.052446 743688.000000 0 0 1
-10.157651 -26.310437 17.888359 33.397760 1.202357 1.005560 0.102243 -0.049557 780554.000000 0 0 1
-11.093351 -25.581737 17.114859 32.717062 1.161628 1.020292 0.118945 -0.044363 330690.000000 0 0 1
-12.454151 -25.767037 17.492159 33.541343 1.120568 1.022176 0.110594 -0.036639 696123.000000 0 0 1
-12.962151 -24.674437 18.469859 33.436221 1.087093 0.985567 0.112742 -0.052445 -673087.000000 0 0 1
-13.183351 -23.438937 17.846559 32.275133 1.058441 0.984895 0.111431 -0.042519 -119763.000000 0 0 1
-13.148951 -22.277137 18.711959 31.926528 1.037581 0.944566 0.114056 -0.048453 65395.500000 0 0 1
-11.791151 -21.790137 19.300059 31.405949 1.074794 0.909000 0.128273 -0.051299 87737.400000 0 0 1
-11.277951 -22.627437 20.276459 32.408763 1.108414 0.894835 0.137651 -0.054196 -1019050.000000 0 0 1
-9.929751 -22.859137 20.040959 31.980934 1.161000 0.893545 0.155430 -0.064840 -609166.000000 0 0 1
-9.372651 -23.864337 21.111059 33.211895 1.196558 0.881949 0.167550 -0.069951 112034.000000 0 0 1
-9.266551 -23.332037 22.436659 33.669817 1.192741 0.841463 0.177182 -0.076468 81032.800000 0 0 1
-8.663651 -24.316237 23.268459 34.752833 1.228528 0.837205 0.190277 -0.081541 -49738.200000 0 0 1
-8.204651 -23.652837 24.606159 35.103220 1.236905 0.794045 0.223448 -0.077599 290927.000000 0 0 1
-7.322151 -24.526937 25.307659 35.995307 1.280684 0.791074 0.229945 -0.068097 70300.500000 0 0 1
-6.998451 -23.944637 26.590159 36.460397 1.286440 0.753514 0.241024 -0.072632 -424162.000000 0 0 1
-5.693251 -24.476637 27.198659 37.030878 1.342261 0.745887 0.233718 -0.066825 1323980.000000 0 0 1
-4.479451 -23.962837 26.538859 36.036011 1.385996 0.742983 0.230438 -0.062613 446846.000000 0 0 1
-3.352651 -24.275237 27.270759 36.663629 1.433555 0.732044 0.200815 -0.053304 -1386260.000000 0 0 1
-2.063751 -23.930237 26.585559 35.828861 1.484769 0.734725 0.171098 -0.050423 -1101350.000000 0 0 1
-1.923451 -22.526037 26.527959 34.854765 1.485615 0.705789 0.176939 -0.057400 -584363.000000 0 0 1
-0.844751 -21.959437 25.849259 33.928081 1.532347 0.704580 0.152789 -0.063031 492382.000000 0 0 1
0.446249 -21.782037 26.751359 34.500602 -1.550312 0.683467 0.123179 -0.040012 712403.000000 0 0 1
1.025549 -22.954837 27.304659 35.686422 -1.526149 0.699557 0.111549 -0.039228 79872.000000 0 0 1
1.705549 -22.629237 28.499859 36.431213 -1.495569 0.672459 0.088213 -0.048220 -562144.000000 0 0 1
2.154049 -23.807937 29.339059 37.844923 -1.480566 0.683695 0.097446 -0.052614 -1093400.000000 0 0 1
3.194649 -24.448637 28.683659 37.824515 -1.440865 0.710041 0.077364 -0.049985 -148581.000000 0 0 1
3.917949 -25.331137 29.546159 39.115117 -1.417343 0.714587 0.085733 -0.041807 -375774.000000 0 0 1
5.141649 -24.735337 30.277659 39.433617 -1.365848 0.695375 0.058243 -0.046148 -520708.000000 0 0 1
6.271549 -24.403337 29.521959 38.812386 -1.319245 0.706510 0.075755 -0.043453 301935.000000 0 0 1
7.075149 -25.557837 29.157659 39.413575 -1.300731 0.738042 0.066565 -0.041256 -201176.000000 0 0 1
8.479649 -25.142437 28.653459 39.052110 -1.245512 0.747010 0.076508 -0.029201 140671.000000 0 0 1
8.408849 -24.372937 27.454859 37.663220 -1.238576 0.754000 0.072422 -0.043686 141723.000000 0 0 1
9.725849 -24.252037 26.947659 37.535714 -1.189400 0.769986 0.085185 -0.019881 152443.000000 0 0 1
9.844849 -23.242437 25.785059 36.083254 -1.170136 0.774746 0.098897 -0.022756 -214758.000000 0 0 1
9.153849 -23.512037 24.599559 35.238433 -1.199525 0.798071 0.095367 -0.022661 -139709.000000 0 0 1
8.947749 -22.323837 23.883559 33.894547 -1.189587 0.788876 0.092686 -0.031229 132186.000000 0 0 1
8.255349 -22.512437 22.496059 32.879071 -1.219321 0.817282 0.090424 -0.019914 862784.000000 0 0 1
9.102249 -23.125037 21.463859 32.837715 -1.195811 0.858420 0.096319 -0.018458 714148.000000 0 0 1
8.541449 -22.853637 20.159559 31.648901 -1.213126 0.880228 0.115775 -0.010618 375313.000000 0 0 1
9.282449 -23.611637 19.006959 31.700754 -1.196226 0.927827 0.157063 -0.030388 -687895.000000 0 0 1
10.529349 -23.093637 18.772459 31.568790 -1.143012 0.933963 0.153034 -0.026121 -1393540.000000 0 0 1
11.242949 -23.868637 17.855759 31.858184 -1.130589 0.975835 0.175093 -0.034523 -106172.000000 0 0 1
12.533149 -23.245237 17.308559 31.575419 -1.076305 0.990627 0.157052 -0.034637 -173311.000000 0 0 1
12.308649 -22.081737 16.514459 30.196578 -1.062280 0.992141 0.162200 -0.032845 -121232.000000 0 0 1
13.444249 -21.755037 15.738859 30.029006 -1.017259 1.019113 0.141454 -0.038491 99831.200000 0 0 1
-13.006251 22.343906 11.198159 28.174660 -1.043647 1.162055 0.057183 0.000220 -8922.940000 0 0 1
-14.062851 21.426906 10.990059 27.886511 -0.989993 1.165709 0.026122 -0.010826 -118784.000000 0 0 1
-13.633751 20.209506 10.435559 26.517998 -0.977307 1.166331 0.072299 -0.019430 -203528.000000 0 0 1
-14.531951 19.583306 9.357959 26.120009 -0.932397 1.204384 0.078261 -0.019835 -418757.000000 0 0 1
-14.686451 20.485606 8.198159 26.505881 -0.948808 1.256344 0.088836 -0.021398 -64200.700000 0 0 1
-15.427551 19.959106 7.124859 26.213334 -0.912763 1.295530 0.089018 -0.021539 817779.000000 0 0 1
-16.990951 19.815406 7.165159 27.068104 -0.861986 1.302895 0.070119 -0.020306 556378.000000 0 0 1
-17.441551 19.062706 8.259959 27.126028 -0.829779 1.261380 0.056340 -0.021345 -114366.000000 0 0 1
-18.852351 19.055706 8.234559 28.041737 -0.790763 1.272750 0.070826 -0.015680 -39886.200000 0 0 1
-19.487451 18.103006 9.282859 28.171813 -0.748585 1.235013 0.077649 -0.020854 -36988.000000 0 0 1
-19.298551 16.779306 8.839259 27.057562 -0.715683 1.238004 0.080069 -0.023491 238700.000000 0 0 1
-19.690051 15.741206 9.735759 27.023484 -0.674405 1.202239 0.091513 -0.030074 405767.000000 0 0 1
-18.500351 15.305806 10.697659 26.286319 -0.691182 1.151665 0.076003 -0.014615 782707.000000 0 0 1
-17.631351 14.429206 9.975459 24.871194 -0.685850 1.158096 0.047265 -0.000804 801213.000000 0 1 0
-16.763751 13.562206 10.808059 24.119928 -0.680217 1.106161 0.048353 -0.009063 858366.000000 0 1 0
-17.477451 12.522606 11.719659 24.487290 -0.621715 1.071735 0.051282 -0.005906 -395341.000000 0 1 0
-18.102051 11.488306 11.026259 24.108999 -0.565502 1.095783 0.032512 -0.013206 -425076.000000 0 1 0
-19.019951 10.782006 11.798659 24.843883 -0.515710 1.075932 0.062331 -0.014179 164649.000000 0 1 0
-20.043851 9.937406 10.930659 24.899544 -0.460269 1.116322 0.069663 -0.025681 123027.000000 0 1 0
-19.627851 8.754706 10.276459 23.822322 -0.419552 1.124775 0.054568 -0.025944 183323.000000 0 1 0
-18.895851 8.955906 9.086559 22.799715 -0.442601 1.160874 0.054109 -0.025115 -847013.000000 0 1 0
-19.754951 9.229206 7.851659 23.175092 -0.437052 1.225158 0.055577 -0.022162 -227652.000000 0 1 0
-20.365051 8.059506 7.349559 23.102098 -0.376839 1.247036 0.044728 -0.030600 346423.000000 0 1 0
-21.064651 8.315006 6.175659 23.473338 -0.375961 1.304570 0.064648 -0.037712 -276599.000000 0 1 0
-21.429851 7.040306 5.374659 23.188173 -0.317420 1.336885 0.092591 -0.041024 -39683.400000 0 1 0
-22.367851 6.224906 6.072459 23.998853 -0.271429 1.314984 0.143011 -0.043800 487761.000000 0 1 0
-22.172851 4.927006 5.600959 23.394047 -0.218656 1.329030 0.149627 -0.045868 -928411.000000 0 1 0
-23.270051 3.942706 5.933059 24.336010 -0.167839 1.324517 0.170907 -0.046853 -128224.000000 0 1 0
-24.445051 4.281706 5.170259 25.350051 -0.173397 1.365401 0.224317 -0.052143 338428.000000 0 0 1
-25.399211 3.258206 5.268059 26.143608 -0.127583 1.367902 0.257619 -0.061570 -295270.000000 0 0 1
-26.687141 3.623106 4.488159 27.303369 -0.134937 1.405666 0.281377 -0.058992 -119698.000000 0 0 1
-26.635961 3.451606 3.081259 27.034832 -0.128866 1.456574 0.301893 -0.059424 273172.000000 0 0 1
-27.942271 3.355106 2.559459 28.259123 -0.119501 1.480101 0.312066 -0.052889 -95468.000000 0 0 1
-27.886581 3.180606 0.997359 28.085091 -0.113564 1.535277 0.330965 -0.061022 -174433.000000 0 0 1
-27.377261 4.368706 0.409659 27.726663 -0.158240 1.556021 0.333410 -0.063138 92033.400000 0 0 1
-27.481031 4.454406 -0.989941 27.857293 -0.160693 1.606340 0.373213 -0.057022 677823.000000 0 0 1
-28.880031 4.835106 -1.607541 29.326074 -0.165882 1.625640 0.343692 -0.061632 489461.000000 0 0 1
-29.873921 3.862306 -1.568641 30.163375 -0.128574 1.622825 0.297968 -0.062455 464515.000000 0 0 1
-31.152471 4.441306 -1.871341 31.523064 -0.141612 1.630195 0.260651 -0.030668 1026750.000000 0 0 1
-32.278551 3.365206 -2.091241 32.520805 -0.103880 1.635145 0.214783 -0.026446 165319.000000 0 0 1
-32.185511 2.791506 -3.369741 32.481606 -0.086515 1.674726 0.201121 -0.033406 601165.000000 0 0 1
-33.161321 1.766606 -3.443341 33.386385 -0.053223 1.674116 0.193185 -0.034874 70131.000000 0 0 1
-33.400351 1.289806 -4.884541 33.780257 -0.038597 1.715903 0.204896 -0.051687 37775.900000 0 0 1
-32.241611 0.585106 -5.332241 32.684807 -0.018146 1.734670 0.234011 -0.055782 597019.000000 0 0 1
-32.376601 -0.340094 -6.381341 33.001234 0.010504 1.765389 0.256983 -0.051415 -423963.000000 0 0 1
-32.733321 0.304406 -7.729541 33.634933 -0.009299 1.802676 0.223957 -0.042960 -448751.000000 0 0 1
-34.087413 0.655606 -7.801041 34.974816 -0.019231 1.795736 0.226305 -0.039756 -154719.000000 0 0 1
-34.396828 1.445806 -8.937341 35.568359 -0.042008 1.824791 0.196558 -0.036622 -372407.000000 0 0 1
-35.899060 1.722206 -9.040941 37.060047 -0.047937 1.817237 0.181752 -0.029575 -311491.000000 0 0 1
-36.372041 2.527406 -7.995741 37.326197 -0.069376 1.786682 0.150696 -0.023879 -480625.000000 0 0 1
-37.743261 2.440006 -7.760241 38.609956 -0.064558 1.773165 0.138750 -0.019639 -537182.000000 0 0 1
38.013499 3.287906 -6.635441 38.728097 0.086278 1.742980 0.157984 -0.019285 784249.000000 0 0 1
36.620889 3.064406 -6.348841 37.293269 0.083485 1.741870 0.154292 -0.018809 990619.000000 0 0 1
36.194159 3.786106 -5.225241 36.764860 0.104226 1.713405 0.152590 -0.020997 -479580.000000 0 0 1
34.782569 3.459406 -4.763541 35.277272 0.099132 1.706242 0.169497 -0.023314 -465434.000000 0 0 1
34.677159 2.259606 -4.008741 34.981155 0.065069 1.685646 0.149896 -0.023208 -435635.000000 0 0 1
33.448829 1.610506 -4.180541 33.747516 0.048111 1.694992 0.165242 -0.023677 -243159.000000 0 0 1
33.273579 0.360806 -3.303341 33.439099 0.010843 1.669744 0.223358 -0.028122 -74196.000000 0 0 1
34.029009 -0.743494 -3.797941 34.248366 -0.021845 1.681919 0.118318 -0.027200 314027.000000 0 0 1
33.797289 -1.902094 -3.076441 33.990281 -0.056220 1.661430 0.163484 -0.034295 215587.000000 0 0 1
34.878549 -2.951894 -3.481041 35.175908 -0.084432 1.669920 0.121516 -0.029251 440836.000000 0 0 1
34.753989 -4.088694 -2.606241 35.090592 -0.117108 1.645137 0.123864 -0.039680 -375201.000000 0 0 1
35.767199 -5.005794 -2.848841 36.227978 -0.139052 1.649514 0.172213 -0.042490 -299744.000000 0 0 1
35.613899 -6.337294 -2.084541 36.233361 -0.176101 1.628359 0.204972 -0.052333 -248928.000000 0 0 1
36.008799 -6.245194 -0.730741 36.553660 -0.171727 1.590789 0.191969 -0.059252 10785.000000 0 0 1
36.052109 -7.503094 -0.028241 36.824609 -0.205189 1.571563 0.236635 -0.067355 108173.000000 0 0 1
35.100949 -7.691594 1.191859 35.953550 -0.215718 1.537640 0.224907 -0.053654 682526.000000 0 0 1
33.734649 -7.865294 0.834159 34.649462 -0.229060 1.546720 0.189049 -0.049682 252602.000000 0 0 1
32.784009 -7.625294 1.824959 33.708557 -0.228529 1.516630 0.244578 -0.076492 -412262.000000 0 0 1
32.123749 -8.986694 2.300459 33.436328 -0.272779 1.501941 0.229521 -0.067972 -537114.000000 0 0 1
31.053379 -9.498594 1.593259 32.512676 -0.296842 1.521772 0.213006 -0.072192 28972.400000 0 0 1
29.799179 -8.959894 2.028959 31.183128 -0.292077 1.505684 0.221055 -0.067820 -674918.000000 0 0 1
28.618079 -9.900494 1.585259 30.323708 -0.333064 1.518495 0.216548 -0.063138 235066.000000 0 0 1
27.358479 -9.457794 2.106259 29.023655 -0.332838 1.498162 0.218417 -0.070865 653687.000000 0 0 1
26.832179 -8.345494 1.408059 28.135311 -0.301541 1.520729 0.244322 -0.072489 -955214.000000 0 0 1
26.037079 -8.626994 0.073859 27.429181 -0.319951 1.568104 0.210546 -0.057654 60928.400000 0 0 1
26.852179 -9.131994 -1.011141 28.380543 -0.327814 1.606432 0.219459 -0.075836 725716.000000 0 0 1
26.133979 -9.261794 -2.233241 27.816417 -0.340586 1.651168 0.212588 -0.078728 -299131.000000 0 0 1
25.342279 -10.555094 -2.394541 27.556759 -0.394650 1.657801 0.174835 -0.050255 -843523.000000 0 0 1
24.092279 -10.618694 -1.797741 26.389893 -0.415136 1.638971 0.165237 -0.031330 -512181.000000 0 0 1
23.651479 -11.951594 -1.909441 26.568384 -0.467896 1.642727 0.142453 -0.027160 -535536.000000 0 0 1
22.200479 -12.168094 -1.472141 25.359239 -0.501384 1.628880 0.137079 -0.024565 65287.900000 0 0 1
21.266379 -11.771094 -2.497741 24.434734 -0.505532 1.673196 0.131881 -0.021106 691623.000000 0 1 0
19.948979 -12.160394 -2.134841 23.460488 -0.547430 1.661920 0.128513 -0.020732 1148870.000000 0 1 0
18.795479 -11.673294 -3.138441 22.346938 -0.555768 1.711704 0.097589 -0.012809 941813.000000 0 1 0
18.826879 -12.331294 -4.404741 22.932813 -0.579871 1.764069 0.108277 -0.020521 558063.000000 0 1 0
17.841879 -11.759994 -5.264541 22.007851 -0.582762 1.812350 0.086740 -0.021018 33011.100000 0 1 0
17.872479 -12.270694 -6.704541 22.692428 -0.601655 1.870726 0.109053 -0.031493 -574757.000000 0 1 0
17.046679 -13.368194 -6.870941 22.726806 -0.665039 1.877930 0.081517 -0.029075 123972.000000 0 1 0
17.527279 -14.112894 -7.976141 23.874633 -0.677901 1.911430 0.102781 -0.031920 -813844.000000 0 1 0
16.587679 -15.149494 -8.553041 24.037736 -0.740114 1.934585 0.089772 -0.031684 -249646.000000 0 1 0
15.558879 -14.549694 -9.343141 23.260838 -0.751893 1.984134 0.113419 -0.021668 478688.000000 0 1 0
15.319979 -15.440694 -10.369841 24.096688 -0.789322 2.015669 0.115259 -0.017313 -377354.000000 0 1 0
14.675679 -14.998394 -11.675641 24.013495 -0.796273 2.078546 0.121088 -0.046598 926861.000000 0 1 0
13.320079 -14.462094 -11.606341 22.831641 -0.826481 2.104058 0.098231 -0.042188 1427570.000000 0 1 0
13.292379 -13.051294 -11.426341 21.853715 -0.776247 2.120994 0.076327 -0.024156 -410155.000000 0 1 0
13.699879 -12.112094 -12.540441 22.173231 -0.723962 2.171917 0.099440 -0.029746 907205.000000 0 1 0
15.085479 -12.141694 -12.966541 23.305012 -0.677697 2.160824 0.131992 -0.038384 1123980.000000 0 1 0
15.272479 -11.668594 -14.289941 23.950096 -0.652418 2.210123 0.160720 -0.035861 -510983.000000 0 1 0
16.698779 -11.326094 -14.695941 24.961977 -0.595985 2.200287 0.178970 -0.057637 -185963.000000 0 1 0
17.565979 -12.466694 -14.903541 26.193465 -0.617211 2.176061 0.183853 -0.055383 693237.000000 0 0 1
18.754079 -11.988394 -15.524941 27.137812 -0.568775 2.179833 0.179159 -0.046698 -264248.000000 0 0 1
19.797279 -13.049394 -15.851341 28.521640 -0.582781 2.160080 0.156172 -0.037323 166212.000000 0 0 1
20.680679 -13.307594 -14.713541 28.657823 -0.571778 2.109963 0.139384 -0.047553 727053.000000 0 0 1
21.686279 -14.274894 -14.965641 29.967277 -0.582150 2.093702 0.090809 -0.031947 170719.000000 0 0 1
22.807679 -14.230794 -13.888841 30.258976 -0.557842 2.047665 0.077676 -0.030140 -336149.000000 0 0 1
23.573479 -13.088094 -14.089541 30.422398 -0.506830 2.052320 0.118503 -0.031317 -328850.000000 0 0 1
24.594279 -13.000394 -13.115941 30.755759 -0.486260 2.011366 0.116355 -0.033651 221054.000000 0 0 1
25.469579 -11.724394 -13.216241 30.997256 -0.431411 2.011270 0.124071 -0.029571 -585738.000000 0 0 1
24.806679 -10.594094 -12.739741 29.831312 -0.403619 2.012034 0.139397 -0.028025 304078.000000 0 0 1
25.536479 -9.346094 -12.812041 30.060100 -0.350848 2.011100 0.166134 -0.035081 54272.300000 0 0 1
26.612779 -9.202594 -11.691541 30.489668 -0.332925 1.964335 0.189886 -0.038587 -516126.000000 0 0 1
27.611079 -10.141694 -11.847841 31.711149 -0.352008 1.953702 0.161556 -0.039135 -1008360.000000 0 0 1
28.739879 -9.864694 -11.068341 32.338847 -0.330640 1.920119 0.186294 -0.044913 159425.000000 0 0 1
29.933179 -10.823894 -11.463441 33.831381 -0.346973 1.916480 0.191210 -0.046534 434361.000000 0 0 1
30.529579 -10.354694 -12.638241 34.626580 -0.326994 1.944415 0.168733 -0.042409 77893.100000 0 0 1
31.909379 -10.653594 -12.774441 35.984634 -0.322234 1.933707 0.164276 -0.041365 392896.000000 0 0 1
32.405969 -10.012794 -14.106341 36.734068 -0.299675 1.964934 0.128401 -0.033271 209014.000000 0 0 1
31.759329 -10.541394 -15.280341 36.786747 -0.320473 1.999153 0.109376 -0.026227 785884.000000 0 0 1
32.527609 -10.157494 -16.444241 37.836928 -0.302678 2.020400 0.098980 -0.033738 444580.000000 0 0 1
32.062909 -10.895694 -17.716941 38.218272 -0.327579 2.052819 0.077516 -0.021215 -221929.000000 0 0 1
30.875979 -10.482994 -18.335241 37.408559 -0.327308 2.083041 0.065596 -0.017176 -172714.000000 0 0 1
30.897779 -9.223994 -19.046041 37.450053 -0.290110 2.104322 0.057557 -0.011452 -190909.000000 0 0 1
29.535279 -8.769494 -19.629241 36.531409 -0.288625 2.138058 0.014138 -0.011177 392361.000000 0 0 1
29.000479 -9.549794 -20.739341 36.909980 -0.318114 2.167465 0.030645 -0.010685 1077900.000000 0 0 1
27.674279 -9.119794 -21.075441 35.961237 -0.318333 2.196984 0.059124 -0.015371 809706.000000 0 0 1
27.125879 -9.787394 -22.410641 36.521818 -0.346276 2.231438 0.080496 -0.023068 114585.000000 0 0 1
26.552579 -11.076394 -22.290041 36.394668 -0.395202 2.229957 0.085342 -0.022596 152261.000000 0 0 1
26.067679 -11.444794 -23.558941 36.953090 -0.413704 2.262093 0.104372 -0.031365 -764082.000000 0 0 1
26.398579 -12.940994 -23.979541 37.939065 -0.455789 2.254997 0.111312 -0.026538 716187.000000 0 0 1
27.646479 -13.306494 -24.574341 39.310162 -0.448583 2.246107 0.112826 -0.029195 723309.000000 0 0 1
28.770379 -13.026794 -23.744641 39.512530 -0.425167 2.215472 0.090582 -0.028727 -537496.000000 0 0 1
30.154179 -13.541494 -24.109741 40.913643 -0.422085 2.200968 0.094872 -0.029034 -395521.000000 0 0 1
30.755579 -12.916594 -25.245181 41.833757 -0.397607 2.218635 0.113956 -0.048656 738334.000000 0 0 1
32.120589 -13.368694 -25.202461 42.960659 -0.394396 2.197701 0.078273 -0.047863 699437.000000 0 0 1
33.068979 -12.809294 -26.298581 44.150320 -0.369555 2.208883 0.103036 -0.046294 -47653.200000 0 0 1
32.826239 -13.294494 -27.625141 44.916077 -0.384806 2.233232 0.099039 -0.050292 -809722.000000 0 0 1
33.872179 -13.127694 -28.490921 46.167017 -0.369741 2.235883 0.084082 -0.044283 -753392.000000 0 0 1
33.731129 -13.772394 -29.893131 47.128199 -0.387640 2.257891 0.081542 -0.047132 23405.800000 0 0 1
33.925159 -15.203194 -29.778751 47.632211 -0.421305 2.246160 0.103000 -0.045013 -70111.100000 0 0 1
34.063489 -15.855294 -31.064471 48.751543 -0.435638 2.261656 0.056652 -0.038695 559086.000000 0 0 1
32.729749 -16.354094 -31.704131 48.413271 -0.463384 2.284800 0.058858 -0.030590 115619.000000 0 0 1
31.910629 -15.473594 -32.388271 48.028330 -0.451498 2.310891 0.069860 -0.039566 -528552.000000 0 0 1
30.731179 -16.217894 -32.637881 47.672389 -0.485588 2.324890 0.059264 -0.024774 140056.000000 0 0 1
29.849979 -15.474794 33.595565 47.530543 -0.478274 0.785803 0.077546 -0.017868 89696.400000 0 0 1
29.133579 -14.363094 -33.247261 46.480579 -0.458039 2.367840 0.086055 -0.022221 473607.000000 0 0 1
29.975579 -13.192294 -33.277561 46.690128 -0.414592 2.364182 0.105659 -0.021756 95198.100000 0 0 1
29.311079 -11.942294 -32.706051 45.513114 -0.386897 2.372594 0.120206 -0.022350 103057.000000 0 0 1
28.280379 -11.450894 -33.561271 45.357047 -0.384728 2.403770 0.110589 -0.014429 60329.700000 0 0 1
27.748479 -10.245094 -33.068761 44.367589 -0.353687 2.411835 0.092259 -0.020281 -8449.730000 0 0 1
21.775049 -29.206737 9.153159 37.562835 -0.930150 1.324642 0.036164 -0.028773 -34766.700000 0 0 1
22.232149 -28.830737 7.843059 37.242361 -0.913911 1.358613 0.042227 -0.030057 773342.000000 0 0 1
23.502049 -29.468437 7.638959 38.458924 -0.897562 1.370840 0.062669 -0.026553 687447.000000 0 0 1
24.164049 -29.149337 6.275659 38.379279 -0.878636 1.406542 0.066180 -0.022132 -48064.100000 0 0 1
24.482649 -27.814937 6.055659 37.546529 -0.849030 1.408805 0.078869 -0.024427 278159.000000 0 0 1
25.207949 -27.658337 4.818959 37.731243 -0.831716 1.442729 0.078383 -0.012041 147702.000000 0 0 1
25.422749 -26.241437 4.343059 36.793904 -0.801243 1.452483 0.087122 -0.015962 204182.000000 0 0 1
26.335849 -25.451537 5.099759 36.977902 -0.768324 1.432442 0.079252 -0.012784 131601.000000 0 0 1
26.101949 -24.066937 4.932459 35.844921 -0.744857 1.432753 0.079234 -0.010128 350773.000000 0 0 1
26.993149 -23.122637 5.831959 36.018026 -0.708320 1.408163 0.076572 -0.009510 617436.000000 0 0 1
28.370149 -23.006637 5.459459 36.932051 -0.681379 1.422428 0.080341 -0.005692 773285.000000 0 0 1
29.154549 -22.200637 6.336859 37.188867 -0.650809 1.399564 0.077975 -0.010329 317888.000000 0 0 1
28.673949 -20.719137 6.480059 35.964833 -0.625718 1.389629 0.069820 -0.006186 -362965.000000 0 0 1
28.774349 -19.972637 5.312159 35.427228 -0.606764 1.420283 0.079475 0.018057 178061.000000 0 0 1
27.981149 -18.802337 5.428059 34.145811 -0.591661 1.411152 0.103999 0.003815 -303236.000000 0 0 1
28.251849 -17.739337 4.352459 33.642161 -0.560682 1.441058 0.126238 0.004946 293828.000000 0 0 1
29.414849 -16.936837 4.493659 34.238616 -0.522429 1.439171 0.159884 0.014002 253094.000000 0 0 1
29.550049 -16.230937 3.276259 33.873037 -0.502282 1.473923 0.170020 0.018651 18097.000000 0 0 1
30.582949 -15.107337 3.370959 34.276986 -0.458819 1.472292 0.197246 -0.014142 -120361.000000 0 0 1
30.038049 -14.044137 4.086659 33.409923 -0.437348 1.448171 0.188411 -0.025250 -11059.200000 0 0 1
30.934449 -12.977537 4.171059 33.804650 -0.397218 1.447094 0.193481 -0.044978 -414142.000000 0 0 1
30.446549 -11.827737 5.066359 33.053831 -0.370532 1.416914 0.203918 -0.045736 1866.540000 0 0 1
30.276449 -12.051337 6.488559 33.226488 -0.378818 1.374251 0.181037 -0.039417 161183.000000 0 0 1
29.296149 -13.001037 6.877859 32.781035 -0.417669 1.359414 0.188992 -0.030856 -115778.000000 0 0 1
29.057649 -13.186737 8.448859 33.009396 -0.426020 1.311963 0.178667 -0.035317 552990.000000 0 0 1
30.129049 -13.934437 9.028559 34.401207 -0.433193 1.305237 0.124616 -0.022540 352819.000000 0 0 1
29.909749 -14.048837 10.397759 34.642118 -0.439121 1.265949 0.161515 -0.013930 41768.100000 0 0 1
30.840749 -14.990537 11.217159 36.078978 -0.452436 1.254651 0.151501 -0.025146 161245.000000 0 0 1
31.857449 -14.275837 11.914359 36.886970 -0.421286 1.241902 0.125096 -0.020375 44989.000000 0 0 1
32.369149 -15.196237 12.860559 38.001072 -0.438924 1.225552 0.130581 -0.017784 -588050.000000 0 0 1
33.399649 -14.718037 13.827859 39.030333 -0.415063 1.208647 0.120387 -0.025946 -511171.000000 0 0 1
34.677649 -14.453137 13.294859 39.852049 -0.394892 1.230671 0.085058 -0.030673 -287393.000000 0 0 1
35.608849 -14.305237 14.334859 40.964840 -0.381999 1.213299 0.064615 -0.030120 -668089.000000 0 0 1
36.988449 -14.036437 13.736759 41.879178 -0.362694 1.236601 0.084503 -0.020976 -793209.000000 0 0 1
37.201549 -12.738537 13.296759 41.509389 -0.329906 1.244717 0.100554 -0.031635 40398.100000 0 0 1
-37.955381 -12.541837 12.549759 41.897554 0.319141 1.266592 0.102629 -0.028524 -306202.000000 0 0 1
-37.401581 -11.111937 12.706159 41.034130 0.288792 1.255973 0.115273 -0.032875 -754373.000000 0 0 1
-36.323081 -10.934637 11.848759 39.740729 0.292409 1.268041 0.126985 -0.040295 -273129.000000 0 0 1
-35.521881 -9.775637 12.028259 38.756240 0.268553 1.255228 0.136289 -0.053837 950707.000000 0 0 1
-34.140281 -9.810737 11.273559 37.267982 0.279826 1.263482 0.169321 -0.046571 856289.000000 0 0 1
-33.345081 -10.954137 11.523959 36.941699 0.317402 1.253552 0.147973 -0.045176 295667.000000 0 0 1
-33.603181 -12.007637 10.603159 37.226121 0.343196 1.281966 0.137075 -0.039429 -391538.000000 0 0 1
-32.870781 -13.276037 11.055559 37.134442 0.383852 1.268496 0.114801 -0.039446 90835.400000 0 0 1
-31.486081 -13.233037 10.776659 35.813725 0.397868 1.265151 0.153928 -0.040097 -578471.000000 0 0 1
-30.920381 -14.314537 11.404959 35.931170 0.433569 1.247798 0.142100 -0.029916 -41534.300000 0 0 1
-29.453081 -14.467037 10.923359 34.584663 0.456574 1.249450 0.151957 -0.020705 9164.150000 0 0 1
-29.371781 -14.744437 9.514159 34.214312 0.465241 1.289006 0.149924 -0.030797 514121.000000 0 0 1
-28.035081 -14.748737 9.004859 32.932939 0.484294 1.293839 0.134400 -0.027624 523129.000000 0 0 1
-27.868281 -14.454037 7.510559 32.279541 0.478460 1.335972 0.185440 -0.022263 -133574.000000 0 0 1
-28.298781 -15.516537 6.745759 32.971035 0.501546 1.364745 0.189690 -0.009113 33428.600000 0 0 1
-28.295481 -15.184437 5.372959 32.558717 0.492527 1.405014 0.211503 -0.006780 -173454.000000 0 0 1
-28.796781 -16.345437 4.434459 33.407968 0.516265 1.437667 0.179841 -0.008375 792490.000000 0 0 1
-30.194981 -16.627137 4.540459 34.768007 0.503349 1.439829 0.123512 -0.019389 462378.000000 0 0 1
-30.700181 -17.453637 3.557559 35.493475 0.516950 1.470396 0.118733 -0.014172 530895.000000 0 0 1
-32.231881 -17.709637 3.795559 36.972039 0.502417 1.467955 0.135030 -0.025242 1154260.000000 0 0 1
-33.118781 -16.701237 3.277159 37.236068 0.467068 1.482672 0.181056 -0.033710 -514199.000000 0 0 1
-34.447081 -17.046737 3.450059 38.588800 0.459533 1.481271 0.189456 -0.027600 -609705.000000 0 0 1
-35.406481 -16.111237 2.667859 38.991131 0.427034 1.502321 0.156792 -0.035069 23149.100000 0 0 1
-35.279481 -16.320937 1.260259 38.892197 0.433298 1.538387 0.145511 -0.036054 -12770.400000 0 0 1
-36.210381 -15.564537 0.522559 39.417249 0.405960 1.557539 0.186907 -0.036589 -211918.000000 0 0 1
-36.448681 -16.151537 -0.870541 39.876513 0.417127 1.592629 0.148392 -0.037794 423152.000000 0 0 1
-35.333681 -16.048137 -1.767441 38.847594 0.426331 1.616309 0.140486 -0.036610 748701.000000 0 0 1
-35.679181 -16.820537 -2.909041 39.552458 0.440538 1.644412 0.120395 -0.025696 956208.000000 0 0 1
-34.443781 -17.379037 -3.736341 38.760356 0.467291 1.667342 0.105099 -0.015371 760430.000000 0 0 1
-34.871281 -18.497737 -4.464641 39.725376 0.487716 1.683422 0.113224 -0.024254 415978.000000 0 0 1
-33.778881 -19.223137 -4.997441 39.185663 0.517379 1.698677 0.104237 -0.021650 -32397.100000 0 0 1
-34.302181 -20.384737 -5.892841 40.334882 0.536195 1.717419 0.095531 -0.024308 216065.000000 0 0 1
-34.982981 -21.450337 -5.238441 41.368674 0.550043 1.697765 0.103840 -0.033087 277661.000000 0 0 1
-35.750881 -22.186737 -6.201841 42.530455 0.555424 1.717139 0.125548 -0.027894 500190.000000 0 0 1
-36.556581 -23.370437 -5.549941 43.742002 0.568813 1.698018 0.139705 -0.028649 -153807.000000 0 0 1
-35.811581 -24.476737 -5.292341 43.698843 0.599557 1.692204 0.153569 -0.029860 -551203.000000 0 0 1
-36.669781 -25.468437 -4.820641 44.906043 0.607049 1.678353 0.133877 -0.023791 231854.000000 0 0 1
-35.827981 -26.657437 -4.339941 44.867563 0.639676 1.667676 0.106721 -0.024039 -914131.000000 0 0 1
-34.958481 -27.094737 -5.329241 44.549085 0.659344 1.690710 0.086075 -0.027795 -63811.000000 0 0 1
-34.241481 -28.281037 -4.960841 44.686754 0.690353 1.682039 0.082271 -0.027049 -28988.000000 0 0 1
-33.155481 -28.235937 -3.879741 43.721922 0.705435 1.659650 0.104206 -0.045423 -737802.000000 0 0 1
-33.672881 -27.910937 -2.572841 43.812131 0.692107 1.629555 0.062597 -0.032311 10510.700000 0 0 1
-32.643381 -27.914037 -1.612441 42.981202 0.707460 1.608320 0.091219 -0.031565 -209323.000000 0 0 1
-33.233481 -27.760037 -0.188341 43.302649 0.695900 1.575146 0.064360 -0.018585 49711.900000 0 0 1
-33.987181 -28.856837 0.224059 44.585824 0.703943 1.565771 0.048177 -0.008818 -460823.000000 0 0 1
-34.421281 -28.733137 1.522559 44.863525 0.695573 1.536852 0.058250 0.000072 -149683.000000 0 0 1
-34.929481 -30.081437 2.096459 46.144952 0.710963 1.525349 0.047087 -0.003651 -831995.000000 0 0 1
-35.684881 -29.860337 3.258859 46.644084 0.696768 1.500873 0.045498 0.001248 295518.000000 0 0 1
-36.389581 -31.001737 3.738559 47.950872 0.705619 1.492751 0.036465 0.003862 299904.000000 0 0 1
-37.481081 -31.640837 2.845859 49.133216 0.701106 1.512843 0.033308 0.006606 -746641.000000 0 0 1
-38.106281 -32.710737 3.504659 50.342463 0.709355 1.501124 0.062474 0.000237 -624334.000000 0 0 1
37.282649 -33.293837 2.677859 50.056433 -0.728941 1.517274 0.068045 -0.004733 -1634810.000000 0 0 1
36.318749 33.169906 3.417059 49.304873 0.740115 1.501436 0.078011 -0.007912 263888.000000 0 0 1
35.452349 -33.500237 4.338759 48.968968 -0.757095 1.482078 0.069772 -0.004371 1257920.000000 0 0 1
34.650649 -32.369137 3.913559 47.578824 -0.751369 1.488449 0.077107 -0.002774 -173475.000000 0 0 1
33.530449 -32.569537 2.860959 46.832156 -0.770862 1.509669 0.080671 -0.000817 -359330.000000 0 0 1
33.995349 -32.931237 1.578059 47.356525 -0.769500 1.537467 0.072567 0.004628 467110.000000 0 0 1
33.027949 -32.680837 0.516659 46.466649 -0.780116 1.559677 0.071511 0.004406 462929.000000 0 0 1
33.592849 -33.353737 -0.803541 47.345507 -0.781826 1.587769 0.055107 -0.001399 1244320.000000 0 0 1
34.629549 -32.724737 -1.582741 47.671996 -0.757125 1.604003 0.040286 -0.004873 1112840.000000 0 0 1
35.894849 -32.497937 -0.923941 48.429431 -0.735771 1.589876 0.044510 -0.007194 -136047.000000 0 0 1
37.037949 -32.353637 -1.891041 49.215278 -0.717995 1.609230 0.031744 -0.001870 -815321.000000 0 0 1
37.470249 -33.571037 -2.492141 50.371072 -0.730567 1.620292 0.034598 -0.016493 64860.900000 0 0 1
-38.093981 -33.261937 -3.618041 50.701066 0.717784 1.642217 0.042831 -0.012551 -384294.000000 0 0 1
-37.306181 33.054206 -4.369641 50.034242 -0.725040 1.658241 0.044368 -0.018148 8019.210000 0 0 1
-36.137081 32.622706 -3.706341 48.824855 -0.734332 1.646780 0.072274 -0.019907 -374747.000000 0 0 1
-35.556881 31.626806 -4.469441 47.796679 -0.726967 1.664443 0.098448 -0.030704 -496375.000000 0 0 1
-34.255281 31.168806 -3.808441 46.469592 -0.738257 1.652844 0.122842 -0.030687 -419436.000000 0 0 1
-33.155581 32.079306 -3.887341 46.297795 -0.768901 1.654859 0.109082 -0.030273 465902.000000 0 0 1
-31.920681 31.506006 -3.486841 44.985735 -0.778860 1.648384 0.147362 -0.030239 512082.000000 0 0 1
-31.645181 31.294406 -1.974141 44.549462 -0.779825 1.615124 0.134374 -0.022550 -249187.000000 0 0 1
-32.516581 30.315006 -1.412341 44.478335 -0.750373 1.602555 0.112763 -0.023200 48475.000000 0 0 1
-32.194881 30.110706 -0.025441 44.081352 -0.751960 1.571373 0.122598 -0.022403 597744.000000 0 0 1
-33.273081 29.237606 0.749159 44.300076 -0.720931 1.553885 0.122050 -0.033326 574907.000000 0 0 1
-33.487881 27.963806 0.141159 43.628345 -0.695746 1.567561 0.136186 -0.037315 241885.000000 0 0 1
-34.674381 27.993206 -0.640041 44.568396 -0.679186 1.585158 0.110110 -0.029364 140663.000000 0 0 1
-35.028881 26.635506 -1.278941 44.023952 -0.650116 1.599851 0.119731 -0.022283 114137.000000 0 0 1
-35.153081 25.631106 -0.291341 43.506063 -0.630009 1.577493 0.108425 -0.027740 -55626.900000 0 0 1
-35.501681 24.354406 -0.795041 43.059709 -0.601273 1.589261 0.117346 -0.025917 -416214.000000 0 0 1
-35.532681 23.253106 0.265659 42.465856 -0.579472 1.564540 0.125070 -0.026124 -1709.070000 0 0 1
-34.263881 22.844706 0.736359 41.187818 -0.588045 1.552917 0.149329 -0.033107 1045.250000 0 0 1
-33.806581 23.755206 1.744159 41.355009 -0.612522 1.528609 0.157657 -0.040234 -1399510.000000 0 0 1
-32.386781 23.474806 2.213659 40.060833 -0.627195 1.515511 0.147597 -0.048262 383750.000000 0 0 1
-31.333481 24.161606 1.488259 39.595267 -0.656876 1.533201 0.166180 -0.042760 596381.000000 0 0 1
-31.175381 25.545706 1.928759 40.351054 -0.686470 1.522979 0.152695 -0.046958 -885531.000000 0 0 1
-30.357281 26.408706 1.026759 40.249702 -0.715951 1.545284 0.139063 -0.036209 -256313.000000 0 0 1
-28.982381 26.100106 0.994659 39.015167 -0.733119 1.545299 0.138170 -0.030864 -405539.000000 0 0 1
-28.446681 26.805806 -0.047441 39.086662 -0.755709 1.572010 0.123931 -0.024986 201572.000000 0 0 1
-27.162281 26.294506 -0.753541 37.812146 -0.769166 1.590726 0.116713 -0.024452 190040.000000 0 0 1
-27.511181 25.397406 -1.798641 37.485042 -0.745468 1.618798 0.134199 -0.024232 89847.900000 0 0 1
-26.360381 24.832706 -2.386441 36.293637 -0.755566 1.636597 0.131801 -0.011163 587271.000000 0 0 1
-25.448481 23.853806 -1.630741 34.918312 -0.753065 1.617515 0.118522 -0.019957 587364.000000 0 0 1
-26.202881 22.673306 -1.324441 34.675985 -0.713309 1.609000 0.118665 -0.024380 188298.000000 0 0 1
-25.255481 21.813106 -0.737041 33.379547 -0.712393 1.592879 0.132288 -0.043727 -776627.000000 0 0 1
-25.768581 20.373206 -0.493541 32.853171 -0.668996 1.585820 0.169741 -0.048510 129222.000000 0 0 1
-26.803581 20.267606 0.491459 33.607281 -0.647427 1.556172 0.156413 -0.046641 588373.000000 0 0 1
-28.050081 20.874206 0.188559 34.965341 -0.639764 1.565404 0.148918 -0.047558 -488536.000000 0 0 1
-28.963881 20.246006 -0.880041 35.349422 -0.610060 1.595694 0.149294 -0.049818 -440518.000000 0 0 1
-29.493781 18.956506 -0.548141 35.064693 -0.571247 1.586429 0.183715 -0.059876 151065.000000 0 0 1
-30.405581 18.528506 -1.517041 35.638551 -0.547287 1.613377 0.163223 -0.051089 -269129.000000 0 0 1
-30.665081 17.001706 -1.429341 35.091996 -0.506240 1.611539 0.177184 -0.048970 -116492.000000 0 0 1
-31.186581 16.596106 -0.177241 35.327963 -0.489040 1.575813 0.170198 -0.058836 253238.000000 0 0 1
-31.265981 15.182506 -0.141441 34.757590 -0.452055 1.574866 0.172964 -0.059842 250057.000000 0 0 1
-29.996781 14.557006 0.508859 33.346247 -0.451807 1.555536 0.246087 -0.067044 -16723.400000 0 0 1
-29.905281 14.710406 1.917759 33.382625 -0.457147 1.513317 0.268301 -0.064098 -154064.000000 0 0 1
-28.677381 14.187306 2.354559 32.081393 -0.459416 1.497337 0.321772 -0.076060 -192311.000000 0 0 1
-28.366281 12.678306 2.405259 31.163610 -0.420315 1.493538 0.346665 -0.079003 -316124.000000 0 0 1
-28.427381 12.045306 1.131359 30.894746 -0.400788 1.534168 0.342346 -0.082892 139856.000000 0 0 1
-28.154881 10.678306 1.246459 30.137637 -0.362509 1.529426 0.390284 -0.082161 -168202.000000 0 0 1
-28.214381 9.959006 -0.126941 29.920715 -0.339324 1.575039 0.376472 -0.075132 -1236410.000000 0 0 1
-29.452881 9.715806 -0.641741 31.020653 -0.318636 1.591485 0.347716 -0.064197 -1136930.000000 0 0 1
-29.325481 8.972406 -1.810341 30.720762 -0.296915 1.629759 0.350422 -0.055191 982219.000000 0 0 1
-30.641081 8.562406 -2.612341 31.922013 -0.272491 1.652723 0.320845 -0.051538 916784.000000 0 0 1
-30.322781 7.673306 -3.609441 31.486167 -0.247851 1.685685 0.336275 -0.046987 621075.000000 0 0 1
-31.510481 7.237706 -4.274541 32.612367 -0.225776 1.702246 0.304535 -0.039843 381864.000000 0 0 1
-11.832151 17.688806 -21.019041 29.911431 -0.981245 2.349995 0.192202 -0.010355 316737.000000 0 0 1
-11.876451 16.449606 -21.602141 29.635993 -0.945464 2.387533 0.197390 -0.041885 908694.000000 0 0 1
-10.555251 15.853106 -21.621941 28.813931 -0.983383 2.419462 0.182466 -0.047995 867874.000000 0 0 1
-10.630651 14.428706 -22.313641 28.619868 -0.935816 2.464912 0.166611 -0.030520 321151.000000 0 0 1
-9.373451 13.770706 -22.197741 27.753083 -0.973155 2.497808 0.202248 -0.053474 317190.000000 0 0 1
-9.482851 12.438806 -22.654941 27.529887 -0.919432 2.537331 0.171422 -0.056926 -73921.400000 0 0 1
-8.332151 11.549306 -22.169841 26.349821 -0.945824 2.570602 0.161658 -0.054685 211289.000000 0 0 1
-7.077351 11.867806 -22.759041 26.625320 -1.033066 2.595941 0.091692 -0.034428 351693.000000 0 0 1
-6.045051 11.178606 -22.012241 25.417368 -1.075067 2.618006 0.077866 -0.034824 838638.000000 0 0 1
-4.623751 11.549506 -22.515041 25.723476 -1.189995 2.636794 0.029528 -0.020360 403024.000000 0 0 1
-4.532451 11.282406 -23.882241 26.799202 -1.188802 2.670681 0.028407 -0.027390 -308038.000000 0 0 1
-3.215151 11.559306 -24.304841 27.104982 -1.299510 2.683037 0.027605 -0.017205 37106.500000 0 0 1
-2.742251 10.999606 -25.649741 28.043189 -1.326472 2.725441 0.068164 -0.033872 -773266.000000 0 0 1
-2.534151 9.593306 -25.643181 27.495930 -1.312537 2.772395 0.071692 -0.039446 57141.500000 0 0 1
-2.310251 9.048606 -26.954591 28.526558 -1.320821 2.808069 0.089494 -0.041032 -88397.300000 0 0 1
-2.167951 7.532706 -26.943551 28.060588 -1.290565 2.858485 0.105532 -0.021628 941386.000000 0 0 1
-1.043651 6.904806 -26.266601 27.179034 -1.420783 2.881744 0.101587 -0.032829 936346.000000 0 0 1
-1.186751 6.961106 -24.811641 25.796955 -1.401937 2.864318 0.111461 -0.046743 -399624.000000 0 0 1
-0.170551 6.076106 -24.074441 24.829959 -1.542735 2.894274 0.035892 -0.034780 -28444.900000 0 1 0
1.114849 6.716206 -24.112641 25.055334 1.406302 2.866410 0.055213 -0.011533 196709.000000 0 0 1
2.055149 6.030906 -23.319041 24.173811 1.242368 2.874873 0.059013 0.005924 -26373.400000 0 1 0
2.061749 6.392706 -21.807541 22.818552 1.258813 2.842803 0.060346 -0.008282 -378142.000000 0 1 0
2.634849 7.672406 -21.745541 23.209412 1.239996 2.784530 0.062852 -0.026828 84612.400000 0 1 0
2.627149 8.201406 -20.413641 22.155850 1.260795 2.742376 0.079260 -0.026813 47262.400000 0 1 0
3.247449 9.593306 -20.373841 22.752381 1.244392 2.680259 0.068198 -0.029873 -74006.500000 0 1 0
2.926749 10.278506 -19.153941 21.933695 1.293393 2.632661 0.077719 -0.038071 412979.000000 0 1 0
3.603849 11.558106 -19.044941 22.567395 1.268547 2.575334 0.083177 -0.036975 739010.000000 0 1 0
4.968949 11.583606 -18.311541 22.230225 1.165573 2.538742 0.102595 -0.050229 349075.000000 0 1 0
6.033249 10.829506 -18.849041 22.560245 1.062509 2.559835 0.109491 -0.047116 -191948.000000 0 1 0
6.995149 10.553906 -17.855341 21.889044 0.985474 2.524770 0.110013 -0.046265 -56531.700000 0 1 0
8.054449 9.545206 -18.326241 22.177381 0.869900 2.543389 0.140766 -0.057763 1341.530000 0 1 0
7.506949 8.224506 -18.529541 21.618064 0.830979 2.600473 0.125733 -0.051410 374785.000000 0 1 0
6.901849 8.100206 -19.823641 22.499458 0.865108 2.648920 0.099850 -0.036861 124120.000000 0 1 0
6.607349 6.670406 -20.147741 22.227974 0.790147 2.705511 0.111007 -0.029336 -903573.000000 0 1 0
7.796249 5.984906 -20.103241 22.377241 0.654711 2.686861 0.102030 -0.028477 -507159.000000 0 1 0
7.619449 4.638006 -20.546941 22.399640 0.546797 2.732014 0.087608 -0.013420 206536.000000 0 1 0
8.195849 4.485206 -21.991841 23.894143 0.500732 2.739863 0.097234 -0.020963 -371967.000000 0 1 0
7.294849 5.044706 -22.888541 24.546877 0.605028 2.771910 0.107868 -0.017507 -199277.000000 0 1 0
7.654549 4.897206 -24.267541 25.913091 0.569155 2.783301 0.097584 -0.013861 -448595.000000 0 0 1
6.580849 5.494906 -25.210561 26.628442 0.695712 2.813793 0.074264 -0.017844 23404.100000 0 0 1
6.498049 6.903606 -25.334991 27.050807 0.815651 2.783510 0.060336 -0.030813 205044.000000 0 0 1
6.093349 7.479306 -24.081241 25.941763 0.887159 2.760559 0.105029 -0.037333 -1192920.000000 0 0 1
5.894949 9.015106 -24.295041 26.575770 0.991687 2.724277 0.114246 -0.051654 369001.000000 0 0 1
4.698149 9.541506 -24.868941 27.047683 1.113255 2.737471 0.101036 -0.054552 -285142.000000 0 0 1
3.594449 9.380506 -24.035641 26.050451 1.204871 2.745712 0.102181 -0.050602 -777296.000000 0 0 1
2.267949 9.546706 -24.826841 26.695603 1.337556 2.765202 0.119067 -0.040957 57832.600000 0 0 1
2.036949 10.946406 -25.106601 27.464784 1.386817 2.724173 0.128213 -0.048312 249376.000000 0 0 1
1.015549 11.040906 -26.116721 28.372805 1.479074 2.740114 0.149254 -0.055511 326932.000000 0 0 1
0.688749 12.445306 -26.582191 29.359375 1.515511 2.703134 0.119816 -0.056149 44512.000000 0 0 1
-0.087251 13.178706 -25.600951 28.794003 -1.564176 2.666187 0.109870 -0.047197 355953.000000 0 0 1
-0.464751 14.447406 -26.053141 29.794457 -1.538639 2.635054 0.096107 -0.048045 -108340.000000 0 0 1
-0.810651 15.314606 -24.842241 29.194713 -1.517913 2.588522 0.098290 -0.047714 551096.000000 0 0 1
-2.050451 14.902406 -24.251541 28.538102 -1.434063 2.586393 0.075783 -0.032842 420414.000000 0 0 1
-2.386451 15.714106 -23.139441 28.072442 -1.420081 2.539719 0.062688 -0.034239 -793747.000000 0 0 1
-3.567251 15.284006 -22.273241 27.247447 -1.341503 2.527754 0.046831 -0.033187 1040190.000000 0 0 1
-4.940051 15.447106 -22.684341 27.885417 -1.261271 2.520914 0.044770 -0.030269 908033.000000 0 0 1
-5.282351 14.939206 -23.927041 28.698195 -1.230927 2.556656 0.055641 -0.039597 -1628660.000000 0 0 1
-6.753951 14.913306 -24.289441 29.291628 -1.145549 2.548521 0.051645 -0.035168 -605056.000000 0 0 1
-7.327251 16.200106 -24.498341 30.270460 -1.146034 2.513781 0.064063 -0.031549 -730810.000000 0 0 1
-8.660751 16.078606 -24.857541 30.845219 -1.076708 2.507956 0.098429 -0.035989 -879450.000000 0 0 1
-9.422351 17.299106 -25.333271 32.090721 -1.072052 2.480671 0.120619 -0.035835 -128413.000000 0 0 1
-9.599351 18.277806 -24.327641 31.907050 -1.087199 2.437893 0.129286 -0.032885 498112.000000 0 0 1
-10.650351 19.181006 -24.739241 33.066161 -1.063927 2.416102 0.118688 -0.016950 884270.000000 0 0 1
-11.070151 20.261706 -23.706641 33.092141 -1.070753 2.369400 0.112360 -0.027827 154815.000000 0 0 1
-10.100251 21.288906 -23.599741 33.349368 -1.127807 2.356966 0.144875 -0.024641 229174.000000 0 0 1
-10.607251 22.634806 -23.758441 34.486399 -1.132562 2.330797 0.124381 -0.030264 -133212.000000 0 0 1
-10.869551 23.145806 -25.197671 35.899834 -1.131753 2.348841 0.094543 -0.018135 -508262.000000 0 0 1
-11.798651 22.314006 -25.779431 36.079109 -1.084410 2.366741 0.100114 -0.021384 -438413.000000 0 0 1
-12.016451 22.707906 -27.075971 37.324955 -1.084082 2.382429 0.092504 -0.013463 -119797.000000 0 0 1
-12.662251 21.708506 -28.038871 37.653288 -1.042758 2.410821 0.095479 -0.012690 337088.000000 0 0 1
-11.757551 20.827706 -28.757181 37.403326 -1.056878 2.447822 0.097998 -0.024969 336855.000000 0 0 1
-11.411451 19.653906 -28.044031 36.096605 -1.044749 2.460549 0.097139 -0.026600 -99784.700000 0 0 1
-10.371351 18.840006 -28.815131 35.955841 -1.067572 2.500434 0.077675 -0.030055 -148687.000000 0 0 1
-9.110451 19.479006 -29.009471 36.110682 -1.133316 2.503694 0.066258 -0.029670 1401470.000000 0 0 1
-7.997751 18.665706 -29.492241 35.807330 -1.165988 2.538591 0.062150 -0.024282 1440850.000000 0 0 1
-7.548951 17.396706 -28.709371 34.407267 -1.161386 2.557837 0.076784 -0.038215 -826263.000000 0 0 1
-8.414251 16.297506 -28.924781 34.249836 -1.094201 2.576470 0.067084 -0.024880 139274.000000 0 0 1
-8.006251 15.094506 -28.299261 33.057410 -1.083119 2.598402 0.055789 -0.031841 261879.000000 0 0 1
-9.241951 14.128706 -28.215171 32.880539 -0.991526 2.602377 0.068027 -0.020384 700499.000000 0 0 1
-10.230951 14.698206 -27.364501 32.703601 -0.962714 2.562104 0.096182 -0.021709 30602.300000 0 0 1
-11.278951 13.757206 -27.112531 32.427839 -0.884064 2.560910 0.146831 -0.035214 286475.000000 0 0 1
-12.157051 14.257206 -25.962621 32.017487 -0.864740 2.516466 0.145180 -0.038094 -130809.000000 0 0 1
-13.133551 15.185606 -26.306801 33.092908 -0.857733 2.489701 0.125614 -0.037428 -22191.900000 0 0 1
-14.154351 15.427706 -25.347371 32.876267 -0.828416 2.451195 0.138089 -0.038784 901073.000000 0 0 1
-15.180451 16.583506 -25.510321 34.003459 -0.829541 2.419202 0.116856 -0.029912 565994.000000 0 0 1
-14.669451 17.915106 -25.588691 34.509780 -0.884678 2.406086 0.106262 -0.024753 53625.000000 0 0 1
-15.787051 18.777206 -25.767581 35.577839 -0.871693 2.380756 0.079210 -0.020838 107771.000000 0 0 1
-15.412951 20.274006 -25.948311 36.358069 -0.920779 2.365545 0.074604 -0.023085 121325.000000 0 0 1
-16.521351 21.132206 -26.190871 37.489824 -0.907246 2.344253 0.027741 -0.009725 365762.000000 0 0 1
-16.087051 22.504006 -26.418001 38.250938 -0.950171 2.333183 0.042380 -0.013736 125148.000000 0 0 1
-15.627651 23.415706 -25.285601 37.840195 -0.982286 2.302611 0.011885 -0.012273 345071.000000 0 0 1
-15.000151 24.648206 -25.736941 38.664308 -1.024099 2.299162 0.043803 -0.018509 434720.000000 0 0 1
-14.503951 25.360606 -24.585641 38.183487 -1.051288 2.270357 0.058044 -0.028058 73485.100000 0 0 1
-13.999251 26.839806 -24.799541 39.132741 -1.090030 2.257160 0.068754 -0.025480 264502.000000 0 0 1
-15.008751 27.791906 -25.127041 40.361130 -1.075632 2.242800 0.087456 -0.031561 -33019.900000 0 0 1
-15.553951 28.442306 -23.981141 40.323508 -1.070367 2.207712 0.085193 -0.035221 526963.000000 0 0 1
-16.887851 29.199006 -24.327641 41.588647 -1.046433 2.195625 0.074131 -0.034147 555845.000000 0 0 1
-17.916751 28.301206 -24.664341 41.596850 -1.006412 2.205498 0.048701 -0.027725 -597232.000000 0 0 1
-19.156151 28.970906 -24.678541 42.606360 -0.986574 2.188570 0.048903 -0.026513 17410.400000 0 0 1
-20.365551 28.054806 -24.948441 42.711269 -0.942885 2.194590 0.052696 -0.009306 -206623.000000 0 0 1
-20.855251 27.575406 -23.726641 41.932064 -0.923276 2.172242 0.054834 -0.015395 334787.000000 0 0 1
-21.966151 26.670406 -23.925241 42.026652 -0.881821 2.176435 0.053914 -0.028910 634877.000000 0 0 1
-22.583451 26.240706 -22.573041 41.329518 -0.860165 2.148584 0.058743 -0.023375 -186209.000000 0 0 1
-23.242651 27.260306 -21.918141 41.997024 -0.864784 2.119870 0.058049 -0.018834 -383439.000000 0 0 1
-23.759951 26.829806 -20.664641 41.369084 -0.846005 2.093840 0.041305 -0.006454 -37219.900000 0 0 1
-24.936111 27.721706 -20.170041 42.392607 -0.838249 2.066660 0.030508 -0.001492 932918.000000 0 0 1
-26.156801 27.372706 -20.842041 43.218444 -0.808109 2.074016 0.045295 -0.009784 916278.000000 0 0 1
-27.329281 28.028406 -20.323341 44.108041 -0.798027 2.049651 0.048622 -0.009279 1177020.000000 0 0 1
-28.634641 27.315106 -20.797541 44.705653 -0.761818 2.054669 0.056890 -0.015991 321098.000000 0 0 1
-28.991651 27.495506 -22.134241 45.677602 -0.758918 2.076674 0.069107 -0.020573 -1035430.000000 0 0 1
-30.315631 27.132106 -22.279241 46.384838 -0.730039 2.071808 0.084311 -0.023332 -920085.000000 0 0 1
-30.698951 26.683006 -23.723041 47.087058 -0.715526 2.098803 0.079667 -0.023601 -9567.580000 0 0 1
-30.396051 25.360006 -24.064541 46.326579 -0.695320 2.117009 0.088775 -0.008434 -194242.000000 0 0 1
-30.822201 25.136706 -25.363621 47.171764 -0.684144 2.138487 0.088227 -0.018631 -173177.000000 0 0 1
-30.860961 23.615906 -25.790621 46.639747 -0.653181 2.156727 0.084102 -0.018491 82743.900000 0 0 1
-29.568751 23.048406 -26.000381 45.624115 -0.662106 2.177159 0.111802 -0.028587 313081.000000 0 0 1
-29.594611 21.806506 -26.661231 45.411297 -0.635026 2.198275 0.099711 -0.019720 234506.000000 0 0 1
-28.564361 20.745306 -26.129381 43.920781 -0.628137 2.207963 0.121547 -0.017083 351848.000000 0 0 1
-28.822401 20.347406 -24.820141 43.136842 -0.614713 2.183867 0.105439 -0.007742 198123.000000 0 0 1
-28.122691 19.119006 -24.565741 41.951135 -0.597069 2.196392 0.107962 -0.008050 93634.300000 0 0 1
-28.971701 17.804706 -24.594341 41.967232 -0.551053 2.196955 0.083375 -0.000792 -420893.000000 0 0 1
-29.515731 17.536906 -25.886881 42.998279 -0.536110 2.216856 0.069457 -0.011360 132695.000000 0 0 1
-30.069021 16.256006 -25.841041 42.850474 -0.495616 2.218117 0.041752 -0.004820 -673317.000000 0 0 1
-30.928051 15.845006 -27.034851 44.028306 -0.473454 2.231957 0.028658 -0.004008 689038.000000 0 0 1
-32.209231 16.498006 -27.167521 45.251441 -0.473371 2.214758 0.021794 -0.012354 891157.000000 0 0 1
-32.858531 15.984806 -28.321201 46.230807 -0.452768 2.230148 0.032001 -0.010587 1055700.000000 0 0 1
-34.304870 16.539806 -28.622291 47.640579 -0.449259 2.215293 0.054489 -0.019687 703187.000000 0 0 1
-35.322431 16.329606 -27.678041 47.753577 -0.433036 2.189036 0.039326 -0.015563 -605427.000000 0 0 1
-36.517591 16.547306 -28.363181 49.110262 -0.425456 2.186509 0.069509 -0.022152 568379.000000 0 0 1
-37.861311 16.268006 -27.569531 49.580297 -0.405823 2.160432 0.084574 -0.017173 950685.000000 0 0 1
38.143329 17.217906 -26.601761 49.588542 0.424018 2.137021 0.093053 -0.024357 -336474.000000 0 0 1
36.961509 16.893706 -25.924671 48.204139 0.428711 2.138634 0.110263 -0.022642 -54640.400000 0 0 1
36.366199 17.986806 -24.988541 47.649269 0.459320 2.122838 0.122183 -0.023931 307212.000000 0 0 1
35.685989 19.061906 -25.647601 47.902458 0.490598 2.135793 0.125033 -0.040484 149660.000000 0 0 1
34.962429 19.881806 -24.758841 47.229841 0.517058 2.122596 0.142405 -0.037172 -351938.000000 0 0 1
34.270399 21.079406 -25.428831 47.596503 0.551442 2.134427 0.148628 -0.050723 -484031.000000 0 0 1
33.046399 20.771206 -26.016301 46.907946 0.561146 2.158708 0.152007 -0.048280 -1083690.000000 0 0 1
32.005339 21.255506 -25.202341 45.948844 0.586240 2.151350 0.141105 -0.035508 -448991.000000 0 0 1
30.616879 21.048806 -25.835131 45.253724 0.602281 2.178392 0.100908 -0.030678 -176830.000000 0 0 1
30.169979 19.731706 -25.884531 44.379914 0.579195 2.193519 0.117228 -0.046494 -972640.000000 0 0 1
28.845379 19.828806 -26.312201 43.790060 0.602231 2.215387 0.102364 -0.044512 -521150.000000 0 0 1
28.183179 18.422606 -26.289211 42.717755 0.578954 2.233711 0.123205 -0.036675 -193698.000000 0 0 1
28.782679 17.505006 -27.225921 43.314185 0.546411 2.250507 0.125898 -0.040466 594858.000000 0 0 1
29.750779 16.742506 -26.487481 43.208877 0.512586 2.230661 0.138665 -0.044785 381349.000000 0 0 1
30.707979 15.787606 -27.269201 43.998157 0.474880 2.239259 0.117052 -0.033914 141683.000000 0 0 1
30.232279 14.514106 -27.738991 43.521277 0.447590 2.261872 0.124033 -0.028295 171544.000000 0 0 1
29.643679 13.570606 -26.864741 42.244803 0.429314 2.260009 0.144986 -0.025152 -134554.000000 0 0 1
30.669979 12.968106 -25.859411 42.160746 0.400029 2.231095 0.143002 -0.020426 242026.000000 0 0 1
31.044979 13.936106 -24.907841 42.171155 0.421939 2.202644 0.141323 -0.031774 -451831.000000 0 0 1
32.070249 13.465806 -24.102141 42.317160 0.397530 2.176766 0.125651 -0.023311 -289296.000000 0 0 1
-15.407351 -30.918537 -24.149041 42.148767 1.108493 2.180894 0.128380 -0.024149 23530.700000 0 0 1
-14.883351 -29.612437 -24.418141 41.166202 1.105067 2.205774 0.121567 -0.034032 19569.200000 0 0 1
-14.909351 -29.366437 -25.770621 41.818671 1.101007 2.234764 0.090309 -0.023782 92518.200000 0 0 1
-14.234751 -28.044737 -26.319331 41.010274 1.101109 2.267606 0.105639 -0.025857 -90132.200000 0 0 1
-14.760551 -26.872537 -25.754821 40.041452 1.068506 2.269472 0.108946 -0.020463 -8997.160000 0 0 1
-14.228951 -25.663037 -26.263351 39.380428 1.064541 2.300856 0.106903 -0.019102 -171432.000000 0 0 1
-14.725351 -24.410937 -25.504931 38.252207 1.028007 2.300645 0.064044 -0.024410 26864.200000 0 0 1
-14.199251 -24.199337 -24.172941 37.034547 1.040168 2.281957 0.099276 -0.034864 218083.000000 0 0 1
-14.713351 -23.017237 -23.570341 36.080976 1.002028 2.282682 0.065181 -0.031362 -329728.000000 0 0 1
-13.919551 -22.589037 -22.358641 34.697656 1.018544 2.271015 0.087691 -0.034801 -137436.000000 0 0 1
-12.551651 -22.319737 -22.577641 34.138900 1.058516 2.293409 0.136442 -0.046668 -29642.200000 0 0 1
-11.934751 -21.740237 -21.418341 32.769216 1.068744 2.283143 0.111114 -0.041294 407138.000000 0 0 1
-10.427151 -21.459937 -21.656041 32.221708 1.118501 2.307830 0.130302 -0.046745 61354.800000 0 0 1
-10.089051 -20.571237 -22.672641 32.233731 1.114822 2.350941 0.146623 -0.048420 347429.000000 0 0 1
-8.694951 -20.621737 -22.965441 32.066644 1.171775 2.369108 0.185809 -0.053561 331879.000000 0 0 1
-8.175151 -19.455537 -23.780241 31.793881 1.173001 2.415765 0.209030 -0.044996 -237269.000000 0 0 1
-8.350251 -18.234537 -23.041441 30.547226 1.141362 2.425367 0.157218 -0.038571 -296863.000000 0 0 1
-8.288651 -17.022937 -23.793141 30.407165 1.117675 2.469443 0.138050 -0.040255 1373700.000000 0 0 1
-6.942151 -16.511337 -24.518041 30.363663 1.172788 2.510663 0.186101 -0.049417 1327660.000000 0 0 1
-6.597451 -17.201237 -25.705951 31.626015 1.204555 2.519757 0.206283 -0.054448 431038.000000 0 0 1
-5.510651 -16.534637 -26.378941 31.616610 1.249094 2.557727 0.180836 -0.057082 474410.000000 0 0 1
-5.273351 -17.187437 -27.797861 33.104944 1.273100 2.567507 0.176889 -0.047177 -319895.000000 0 0 1
-6.320751 -17.082037 -28.728581 34.015867 1.216396 2.576547 0.200014 -0.047095 -271218.000000 0 0 1
-6.031151 -17.909437 -29.850161 35.329235 1.245967 2.577200 0.191645 -0.053051 -729059.000000 0 0 1
-7.148151 -18.028737 -30.858131 36.446614 1.193323 2.580486 0.200363 -0.047329 -240544.000000 0 0 1
-7.595351 -16.928137 -31.693531 36.725074 1.149039 2.611963 0.166699 -0.046744 -96020.200000 0 0 1
-7.910151 -15.708737 -31.025051 35.663548 1.104312 2.625871 0.141749 -0.035040 -397048.000000 0 0 1
-8.473551 -14.688537 -32.056631 36.265435 1.047549 2.655028 0.109719 -0.039857 -147870.000000 0 0 1
-7.622451 -14.346737 -33.153161 36.919679 1.082422 2.685955 0.138420 -0.049407 -81853.600000 0 0 1
-8.285351 -13.566137 33.204744 36.813613 1.022519 0.446488 0.132245 -0.035053 -586870.000000 0 0 1
-8.409251 -12.048037 33.594865 36.667229 0.961429 0.412280 0.105172 -0.034249 960507.000000 0 0 1
-7.191451 -11.257137 33.649265 36.203772 1.002310 0.377902 0.099869 -0.030645 858848.000000 0 0 1
-6.598951 -10.951537 32.384619 34.817321 1.028497 0.376031 0.086150 -0.023933 296222.000000 0 0 1
-5.313151 -10.085637 32.551971 34.490295 1.085936 0.336849 0.101341 -0.025278 109716.000000 0 0 1
-5.038051 -9.359237 31.349783 33.102661 1.076982 0.326885 0.079616 -0.010577 -51176.100000 0 0 1
-3.987851 -8.458837 31.652642 33.005221 1.130255 0.287276 0.077191 -0.019136 -683707.000000 0 0 1
-4.016751 -7.165437 30.766645 31.844375 1.059872 0.260907 0.063477 -0.009294 -472603.000000 0 0 1
-5.158851 -6.426437 30.966385 32.044186 0.894378 0.260096 0.061504 -0.007093 708799.000000 0 0 1
-6.390451 -6.927037 30.350595 31.780188 0.825668 0.301082 0.064339 -0.004709 726372.000000 0 0 1
-7.531451 -5.920937 30.168585 31.653179 0.666246 0.307484 0.058974 -0.000988 -400350.000000 0 0 1
-8.618251 -6.474637 29.484775 31.393425 0.644314 0.350497 0.086198 -0.000103 -278846.000000 0 0 1
-9.648451 -5.478937 29.436535 31.458241 0.516449 0.360463 0.068460 -0.000536 991563.000000 0 0 1
-10.873051 -5.850737 28.511405 31.070156 0.493657 0.408680 0.089451 -0.000907 804698.000000 0 0 1
-10.509051 -5.898637 27.102375 29.660964 0.511471 0.418403 0.080175 -0.003098 1427930.000000 0 0 1
-11.648651 -6.478937 26.397445 29.571824 0.507588 0.467594 0.081982 -0.007810 1189110.000000 0 0 1
-11.342551 -6.548637 24.901575 28.135859 0.523600 0.484200 0.054035 -0.009220 -266531.000000 0 0 1
-10.296251 -7.373737 24.497485 27.577374 0.621488 0.477126 0.054912 -0.002969 -364217.000000 0 0 1
-9.672251 -6.995137 23.270815 26.153684 0.626139 0.473951 0.049512 -0.013239 -67346.400000 0 0 1
-10.499051 -6.982937 21.950765 25.314572 0.586918 0.521406 0.053912 -0.021648 -181263.000000 0 0 1
-11.524651 -6.009937 21.910565 25.475670 0.480688 0.535412 0.037444 -0.017872 -446744.000000 0 0 1
-12.293451 -6.120737 20.766565 24.896638 0.461955 0.584277 0.037821 -0.024878 -211852.000000 0 1 0
-13.527251 -5.176937 20.829665 25.370497 0.365508 0.607602 0.039218 -0.015514 20466.100000 0 0 1
-13.228651 -3.831537 20.653265 24.824086 0.281925 0.588120 0.034867 -0.008957 -232530.000000 0 1 0
-14.342851 -3.069737 21.039965 25.648017 0.210845 0.608800 0.058757 -0.009227 11113.000000 0 0 1
-14.275151 -1.656037 20.476065 25.015827 0.115492 0.611959 0.045748 -0.003746 666116.000000 0 0 1
-13.229251 -0.894037 21.130265 24.945951 0.067478 0.560401 0.038809 -0.007978 536203.000000 0 1 0
-13.309251 0.506963 20.867965 24.756113 -0.038073 0.568068 0.045047 -0.016651 -114943.000000 0 1 0
-12.755751 0.973963 19.462065 23.290121 -0.076207 0.581507 0.048007 -0.025506 -410539.000000 0 1 0
-13.424851 0.571963 18.344165 22.739001 -0.042579 0.632204 0.047440 -0.020950 301940.000000 0 1 0
-14.660751 1.318963 18.157765 23.374809 -0.089724 0.681213 0.041470 -0.016608 611147.000000 0 1 0
-15.611651 0.572963 17.249765 23.272437 -0.036685 0.735925 0.063474 -0.016371 -491482.000000 0 1 0
-15.979151 -0.705037 17.726965 23.876256 0.044094 0.734074 0.056903 -0.022205 208223.000000 0 1 0
-16.925951 -1.423037 16.972965 24.012380 0.083877 0.785772 0.077612 -0.014643 5898.130000 0 1 0
-16.808251 -2.915437 17.392265 24.362018 0.171744 0.775731 0.056711 -0.006486 60064.000000 0 1 0
-17.391051 -3.191237 18.674265 25.716936 0.181480 0.758096 0.085913 -0.012864 70634.200000 0 0 1
-17.285151 -4.543637 18.992465 26.079394 0.257048 0.755023 0.107845 -0.014852 16155.200000 0 0 1
-18.012551 -4.948437 20.303565 27.589378 0.268107 0.743772 0.125216 -0.011399 247926.000000 0 0 1
-17.396751 -4.268437 21.410165 27.915258 0.240605 0.696691 0.111980 -0.006838 254328.000000 0 0 1
-18.107151 -4.422737 22.632245 29.319755 0.239563 0.688954 0.104263 -0.014015 -694252.000000 0 0 1
-18.246051 -5.785837 23.298265 30.153000 0.307071 0.687763 0.137557 -0.011031 214796.000000 0 0 1
-17.092351 -6.462137 23.790085 29.997930 0.361461 0.654984 0.063163 -0.019625 356846.000000 0 0 1
-16.163851 -6.822837 22.768275 28.743965 0.399416 0.656544 0.098755 -0.015065 -32057.300000 0 0 1
-14.953451 -7.712137 23.209295 28.666254 0.476163 0.627261 0.107651 -0.011009 257555.000000 0 0 1
-15.277651 -9.032537 23.720755 29.625454 0.533943 0.642353 0.101341 -0.025957 -136221.000000 0 0 1
-15.580551 -8.940037 25.071575 30.842531 0.520928 0.621700 0.094853 -0.024082 -411664.000000 0 0 1
-16.779551 -9.765137 25.500675 32.049893 0.527054 0.650707 0.074231 -0.017916 -718909.000000 0 0 1
-16.580851 -11.199637 25.518775 32.427833 0.594063 0.664962 0.077078 -0.035965 45776.600000 0 0 1
-15.947751 -11.659937 26.721935 33.231712 0.631317 0.636620 0.060308 -0.033095 -86573.400000 0 0 1
-15.773251 -13.159237 26.740965 33.720026 0.695294 0.655031 0.052639 -0.042379 226525.000000 0 0 1
-16.997251 -13.733837 27.183385 34.877804 0.679602 0.677106 0.067484 -0.045906 428080.000000 0 0 1
-17.231751 -15.073637 26.721825 35.188119 0.718694 0.708407 0.081658 -0.035048 -288137.000000 0 0 1
-16.382551 -16.200037 27.363755 35.771557 0.779797 0.699819 0.071034 -0.035761 -168399.000000 0 0 1
-15.103151 -16.244437 26.774515 34.768686 0.821790 0.691837 0.100747 -0.045856 -95505.100000 0 0 1
-14.225951 -17.024437 27.568555 35.386924 0.874710 0.677630 0.115312 -0.043158 -970368.000000 0 0 1
-12.899051 -17.133437 26.870005 34.379316 0.925468 0.673610 0.120286 -0.055066 -763387.000000 0 0 1
-11.939451 -17.989937 27.489525 34.955147 0.984869 0.665800 0.163160 -0.058917 -79600.200000 0 0 1
-10.880451 -18.297937 26.631205 34.094278 1.034337 0.674363 0.151927 -0.065544 -322876.000000 0 0 1
-9.699151 -18.960637 27.377995 34.686221 1.097958 0.661121 0.197234 -0.076795 -53250.400000 0 0 1
-9.959451 -20.279537 27.869735 35.877185 1.114287 0.681213 0.213870 -0.064954 -216550.000000 0 0 1
-8.990651 -20.581237 28.822155 36.539509 1.158942 0.661951 0.222824 -0.070422 -222015.000000 0 0 1
-9.247051 -21.905237 29.524655 37.908477 1.171352 0.677981 0.211454 -0.066635 -116619.000000 0 0 1
-9.141951 -22.992437 28.676875 37.875990 1.192355 0.711895 0.242641 -0.071350 6757.260000 0 0 1
-9.431251 -24.154237 29.366215 39.175889 1.198542 0.723340 0.202721 -0.068888 -241841.000000 0 0 1
-9.662951 -25.411537 28.514945 39.398235 1.207424 0.761558 0.207312 -0.057938 -199828.000000 0 0 1
-10.856851 -25.274937 27.772885 39.089983 1.165078 0.780608 0.180734 -0.058807 281079.000000 0 0 1
-11.326751 -26.526037 27.221305 39.660123 1.167229 0.814318 0.172843 -0.053512 477491.000000 0 0 1
-12.688651 -26.510637 26.453975 39.542743 1.124395 0.837938 0.154683 -0.047697 325795.000000 0 0 1
-12.516651 -25.983837 25.133665 38.256077 1.121888 0.853984 0.158059 -0.053512 345490.000000 0 0 1
-12.750751 -24.586137 25.024045 37.326433 1.092368 0.836034 0.131800 -0.041778 -164757.000000 0 0 1
-13.017651 -24.048137 23.597835 36.119662 1.074644 0.858830 0.115302 -0.060344 881014.000000 0 0 1
-14.342551 -24.370937 23.127715 36.531391 1.038868 0.885256 0.095965 -0.048025 964966.000000 0 0 1
-14.552951 -23.718637 21.897765 35.410087 1.020461 0.904085 0.095285 -0.048657 240838.000000 0 0 1
-15.951151 -23.947937 21.252565 35.771699 0.983203 0.934629 0.078980 -0.046240 107398.000000 0 0 1
-16.165851 -25.225837 20.826265 36.488504 1.000884 0.963362 0.099155 -0.039262 166954.000000 0 0 1
-17.414851 -25.391637 20.176565 36.811765 0.969630 0.990704 0.091607 -0.034453 295902.000000 0 0 1
-17.607551 -26.855637 19.676265 37.661738 0.990469 1.021078 0.085948 -0.033186 40946.700000 0 0 1
-16.690351 -27.235237 18.665065 36.996089 1.021002 1.041977 0.084195 -0.035144 -53718.200000 0 0 1
-16.936051 -28.584537 18.200965 37.883779 1.035917 1.069638 0.086879 -0.025995 444620.000000 0 0 1
-15.894851 -29.168937 17.194065 37.404666 1.071859 1.093165 0.100640 -0.034732 486091.000000 0 0 1
-16.168851 -28.511937 15.944565 36.449848 1.054927 1.118048 0.100941 -0.038236 -290799.000000 0 0 1
-15.038151 -28.512337 15.121865 35.605760 1.085449 1.132163 0.102744 -0.036683 -487932.000000 0 0 1
-15.205451 -27.866137 13.793065 34.611790 1.071291 1.160907 0.114361 -0.031820 -251703.000000 0 0 1
-15.257051 -26.422637 13.852465 33.508568 1.047143 1.144611 0.127303 -0.039175 -74958.400000 0 0 1
-15.446751 -25.804837 12.565765 32.594327 1.031408 1.175025 0.140570 -0.052952 447043.000000 0 0 1
-14.448551 -26.200137 11.396365 32.016948 1.066826 1.206868 0.129330 -0.041731 477577.000000 0 0 1
-14.825251 -25.643137 10.156465 31.313133 1.046608 1.240470 0.121051 -0.035051 324493.000000 0 0 1
-13.868051 -25.937537 9.119665 30.793619 1.079798 1.270132 0.127214 -0.030322 536986.000000 0 0 1
-14.186251 -25.251237 7.748965 29.982014 1.058936 1.309375 0.139653 -0.037920 245187.000000 0 0 1
-15.211951 -25.913637 7.024865 30.858852 1.039972 1.341138 0.140236 -0.047368 97770.700000 0 0 1
-15.629151 -25.097737 5.927365 30.154609 1.013830 1.372942 0.128199 -0.042043 -254068.000000 0 0 1
-16.559751 -25.844837 4.940965 31.090096 1.000960 1.411196 0.141646 -0.058951 -51835.200000 0 0 1
-15.969951 -26.928837 4.314765 31.604095 1.035508 1.433843 0.143291 -0.053125 172654.000000 0 0 1
-16.829951 -27.465937 3.305865 32.381379 1.021049 1.468527 0.189121 -0.057434 253808.000000 0 0 1
-16.177251 -28.716637 2.687465 33.069188 1.057768 1.489439 0.189394 -0.060224 84886.200000 0 0 1
-15.081451 -28.408437 1.837565 32.215929 1.082752 1.513726 0.163064 -0.041993 -72395.200000 0 0 1
-14.407251 -29.603037 1.455565 32.954929 1.117860 1.526614 0.161515 -0.047253 -579720.000000 0 0 1
-12.983651 -29.314837 1.015765 32.077510 1.153859 1.539125 0.143922 -0.041329 -699648.000000 0 0 1
-12.828251 -28.660537 -0.231535 31.401338 1.149946 1.578170 0.149887 -0.033093 -211685.000000 0 0 1
-13.166151 -27.299637 -0.294235 30.310135 1.121423 1.580504 0.126922 -0.041560 -382624.000000 0 0 1
-12.721851 -26.556137 -1.612635 29.490244 1.124045 1.625507 0.119815 -0.033439 714485.000000 0 0 1
-11.331351 -26.711937 -1.895135 29.077803 1.169599 1.636017 0.133383 -0.036874 66647.500000 0 0 1
-10.875351 -26.046137 -3.031135 28.387714 1.175260 1.677777 0.137199 -0.031616 378675.000000 0 0 1
-9.445351 -26.541337 -3.383435 28.374370 1.228899 1.690323 0.131295 -0.034009 507850.000000 0 0 1
-8.871051 -25.673937 -4.375335 27.513454 1.238111 1.730500 0.122164 -0.031734 537548.000000 0 0 1
-7.661151 -26.208137 -4.959635 27.751715 1.286401 1.750476 0.129890 -0.027825 865725.000000 0 0 1
-6.808151 -25.183137 -5.724135 26.707809 1.306762 1.786796 0.091833 -0.028727 -171709.000000 0 0 1
-7.280251 -24.833237 -6.941435 26.793194 1.285621 1.832860 0.104989 -0.024240 26365.900000 0 0 1
-6.547151 -23.662037 -7.415435 25.646557 1.300856 1.864124 0.096275 -0.020924 116332.000000 0 0 1
-6.433751 -23.422837 -8.942135 25.884054 1.302729 1.923535 0.098142 -0.023385 17432.000000 0 0 1
-5.397351 -24.121537 -9.627035 26.526586 1.350666 1.942196 0.069480 -0.029705 55221.700000 0 0 1
-5.443351 -24.147037 -11.054035 27.109061 1.349077 1.990798 0.052105 -0.015502 -301205.000000 0 0 1
-6.610451 -24.895737 -11.702135 28.291973 1.311260 1.997223 0.085755 -0.019012 -195018.000000 0 0 1
-6.682351 -24.736337 -13.117335 28.785494 1.306951 2.043946 0.107204 -0.024933 25469.800000 0 0 1
-7.828451 -25.363437 -13.654335 29.850117 1.271422 2.045899 0.149764 -0.025795 -380668.000000 0 0 1
-8.074351 -25.060137 -15.200135 30.401476 1.259100 2.094372 0.153418 -0.032586 772022.000000 0 0 1
-7.111351 -25.680437 -16.099535 31.132799 1.300649 2.114284 0.134914 -0.046580 2733820.000000 0 0 1
-5.748251 -25.094537 -16.106835 30.367883 1.345617 2.129857 0.137344 -0.039346 1789880.000000 0 0 1
-4.715551 -25.999937 -16.812235 31.319074 1.391379 2.137442 0.122974 -0.031473 -176314.000000 0 0 1
-4.995151 -26.176037 -18.199935 32.270328 1.382234 2.169998 0.199666 -0.043851 1033140.000000 0 0 1
-3.796651 -26.684737 -18.821235 32.874438 1.429467 2.180371 0.200001 -0.050703 786423.000000 0 0 1
-26.425781 14.100806 -3.873641 30.201982 -0.490165 1.699408 0.209373 -0.058815 122810.000000 0 0 1
-25.838381 12.919006 -3.314541 29.077634 -0.463642 1.685034 0.210665 -0.054453 104454.000000 0 0 1
-24.533251 12.725406 -3.800041 27.897252 -0.478496 1.707437 0.234010 -0.047242 -492811.000000 0 0 1
-24.219751 11.241606 -3.715041 26.958701 -0.434559 1.709041 0.235510 -0.055857 -270494.000000 0 0 1
-24.664251 10.359306 -4.734541 27.167193 -0.397639 1.745965 0.217402 -0.032755 430866.000000 0 0 1
-26.065741 10.132906 -4.765841 28.369206 -0.370766 1.739590 0.221337 -0.029870 17354.400000 0 0 1
-26.413471 9.521606 -6.134341 28.739564 -0.345983 1.785897 0.231532 -0.028336 -216648.000000 0 0 1
-26.283651 10.387606 -7.256541 29.178589 -0.376372 1.822128 0.260360 -0.025836 109107.000000 0 0 1
-26.524561 9.621006 -8.449841 29.453623 -0.347962 1.861771 0.243473 -0.035304 -229613.000000 0 0 1
-26.939331 10.547806 -9.587641 30.477969 -0.373191 1.890806 0.245115 -0.031905 17264.000000 0 0 1
-25.963141 11.487406 -10.021441 30.107714 -0.416558 1.910124 0.208860 -0.025405 560717.000000 0 0 1
-26.539631 12.279206 -11.057141 31.263257 -0.433344 1.932297 0.205987 -0.037384 -119882.000000 0 0 1
-25.543621 13.267806 -11.678741 31.062907 -0.479061 1.956240 0.165141 -0.025672 -208567.000000 0 0 1
-25.312241 14.366206 -10.779441 31.036974 -0.516225 1.925497 0.153837 -0.019740 259321.000000 0 0 1
-24.632251 15.328406 -11.558641 31.229953 -0.556648 1.949928 0.133767 -0.016416 -167438.000000 0 0 1
-24.640351 16.692806 -10.912441 31.699811 -0.595436 1.922229 0.145707 -0.023467 -459386.000000 0 0 1
-23.726351 16.862306 -9.879141 30.738811 -0.617871 1.897993 0.132541 -0.015389 -303960.000000 0 0 1
-23.740951 18.193906 -9.404541 31.354367 -0.653884 1.875430 0.093743 -0.005977 -91920.600000 0 0 1
-22.653351 18.430506 -8.341941 30.371793 -0.682972 1.849033 0.113412 -0.013484 -402358.000000 0 0 1
-22.792051 17.856506 -7.059141 29.802078 -0.664570 1.809937 0.143258 -0.024180 -208106.000000 0 0 1
-23.848351 18.267006 -6.238141 30.681293 -0.653641 1.775545 0.147106 -0.027884 -279798.000000 0 0 1
-24.160151 17.424306 -4.982841 30.201788 -0.624813 1.736539 0.159833 -0.020626 607517.000000 0 0 1
-23.023051 17.445006 -4.090941 29.174045 -0.648423 1.711485 0.158147 -0.042890 1029450.000000 0 0 1
-23.326151 16.945606 -2.804441 28.967702 -0.628267 1.667761 0.166508 -0.045828 995.332000 0 0 1
-22.067351 16.865806 -1.902741 27.839609 -0.652583 1.639196 0.188149 -0.066462 -62294.100000 0 0 1
-21.587251 18.050206 -1.353941 28.171839 -0.696399 1.618875 0.172924 -0.061877 -219812.000000 0 0 1
-20.452951 17.778706 -0.573441 27.105985 -0.715563 1.591953 0.222491 -0.081774 -390699.000000 0 0 1
-19.934851 19.086706 -0.054841 27.598979 -0.763666 1.572783 0.169977 -0.069556 17039.700000 0 0 1
-20.865451 19.639406 0.880059 28.667888 -0.755138 1.540093 0.155264 -0.060014 364740.000000 0 0 1
-20.973751 21.063806 0.778159 29.735293 -0.787540 1.544624 0.168453 -0.054050 -53517.400000 0 0 1
-22.057151 21.649806 1.697359 30.953401 -0.776079 1.515933 0.126594 -0.040439 -188561.000000 0 0 1
-21.803051 21.410706 3.066559 30.711482 -0.776319 1.470779 0.135467 -0.033149 84707.300000 0 0 1
-22.970051 21.190206 3.823659 31.484416 -0.745116 1.449050 0.120969 -0.018991 20595.100000 0 0 1
-22.578651 20.995806 5.294959 31.283477 -0.749089 1.400720 0.115177 -0.014976 2493.190000 0 0 1
-22.188251 22.227506 5.870559 31.950649 -0.786282 1.386008 0.097918 -0.006976 248655.000000 0 0 1
-21.440351 21.922006 7.073959 31.469094 -0.796505 1.344068 0.077046 -0.005829 220706.000000 0 0 1
-22.236251 21.729406 8.376059 32.199011 -0.773870 1.307635 0.074160 -0.019277 -483907.000000 0 0 1
-23.155551 20.642806 8.487759 32.161266 -0.728090 1.303720 0.116374 -0.021068 485877.000000 0 0 1
-23.427251 20.368606 9.852159 32.569637 -0.715673 1.263487 0.143457 -0.024871 -71593.700000 0 0 1
-24.092051 21.406706 10.814359 33.994475 -0.726446 1.247049 0.155836 -0.018112 16338.100000 0 0 1
-25.390931 21.760406 10.330159 34.998955 -0.708553 1.271177 0.181213 -0.018547 212714.000000 0 0 1
-26.062161 22.560706 11.227359 36.252935 -0.713510 1.255924 0.182739 -0.023689 -557424.000000 0 0 1
-27.434651 22.943106 10.612659 37.305157 -0.696476 1.282330 0.188881 -0.029738 -370181.000000 0 0 1
-28.166951 23.798106 11.408259 38.598903 -0.701523 1.270756 0.184757 -0.032318 -130959.000000 0 0 1
-27.713121 25.154006 11.410859 39.127341 -0.737029 1.274862 0.167943 -0.029775 -88702.800000 0 0 1
-28.308361 25.906506 12.611159 40.392471 -0.741125 1.253272 0.168446 -0.029064 219511.000000 0 0 1
-27.671261 25.416206 13.771759 40.016791 -0.742946 1.219464 0.136425 -0.029029 419991.000000 0 0 1
-28.402781 25.675506 14.947359 41.101984 -0.735009 1.198597 0.133404 -0.020937 624726.000000 0 0 1
-27.314301 25.814606 16.057759 40.869506 -0.757178 1.167010 0.106386 -0.027952 711398.000000 0 0 1
-26.710261 24.616406 16.486359 39.889918 -0.744626 1.144725 0.119430 -0.030509 123281.000000 0 0 1
-25.685101 24.786206 17.448959 39.730927 -0.767590 1.116113 0.107052 -0.029571 101803.000000 0 0 1
-25.114401 23.459806 17.976659 38.784738 -0.751348 1.088857 0.103111 -0.028655 -574420.000000 0 0 1
-24.120251 23.553606 18.939059 38.668421 -0.773513 1.058958 0.104613 -0.038369 -40755.700000 0 0 1
-23.594251 22.257306 19.239759 37.712659 -0.756248 1.035417 0.108089 -0.039426 -509387.000000 0 0 1
-22.187451 22.197406 19.841559 37.130786 -0.785622 1.007035 0.099533 -0.042417 367837.000000 0 0 1
-21.223351 22.482606 18.748159 36.157871 -0.814202 1.025691 0.116408 -0.049772 1837080.000000 0 0 1
-19.816751 22.295606 18.965559 35.348127 -0.844193 1.004469 0.094870 -0.047440 1094210.000000 0 0 1
-19.287751 20.847706 19.033359 34.189369 -0.824246 0.980383 0.105141 -0.046670 -560237.000000 0 0 1
-19.664651 20.084406 20.169859 34.596316 -0.795958 0.948373 0.112895 -0.048958 113898.000000 0 0 1
-18.979351 20.434606 21.341859 35.117856 -0.822304 0.917609 0.119539 -0.040918 -478719.000000 0 0 1
-19.873051 20.289806 22.561359 36.271605 -0.795774 0.899487 0.106682 -0.038274 -338767.000000 0 0 1
-20.921351 21.225806 22.602359 37.404604 -0.792622 0.921951 0.085715 -0.039925 212229.000000 0 0 1
-21.844551 20.952406 23.662759 38.420228 -0.764555 0.907277 0.091075 -0.028107 -268894.000000 0 0 1
-23.027151 21.881006 23.731459 39.651107 -0.759882 0.929160 0.090003 -0.021962 -1081960.000000 0 0 1
-22.661351 23.217506 24.093159 40.411257 -0.797520 0.932038 0.093743 -0.027758 -23155.200000 0 0 1
-23.687251 24.098306 24.459959 41.714552 -0.794000 0.944232 0.090305 -0.030731 -334024.000000 0 0 1
-24.622551 24.658106 23.352259 41.947827 -0.786120 0.980391 0.084209 -0.035287 -126953.000000 0 0 1
-25.596241 23.746006 22.945959 41.779868 -0.747918 0.989377 0.084581 -0.032335 -217251.000000 0 0 1
-26.130021 24.046406 21.653059 41.591617 -0.743896 1.023230 0.077846 -0.030488 532042.000000 0 0 1
-27.300521 23.051506 21.321159 41.608679 -0.701211 1.032795 0.084679 -0.024863 1546360.000000 0 0 1
-28.573271 23.267706 22.000959 42.916898 -0.683410 1.032538 0.088547 -0.025846 774084.000000 0 0 1
-29.455851 22.315406 21.536959 42.772247 -0.648340 1.043121 0.100339 -0.027396 187270.000000 0 0 1
-30.931541 22.465706 22.034159 44.124509 -0.628162 1.047933 0.112079 -0.021698 208970.000000 0 0 1
-31.653481 23.558106 21.484359 44.927774 -0.639811 1.072195 0.139062 -0.025378 1616650.000000 0 0 1
-33.080111 23.523606 21.786259 46.068372 -0.618144 1.078204 0.141018 -0.029795 1523580.000000 0 0 1
-33.960675 22.652306 20.892959 45.858152 -0.588244 1.097751 0.156691 -0.038421 -1425990.000000 0 0 1
-33.781661 21.237506 21.056159 45.117559 -0.561234 1.085246 0.144215 -0.028239 335753.000000 0 0 1
-34.511148 20.382406 20.182659 44.875400 -0.533482 1.104312 0.138388 -0.018771 583611.000000 0 0 1
-36.066101 20.492906 20.266859 46.167829 -0.516712 1.116331 0.171749 -0.025988 197644.000000 0 0 1
-36.801051 19.792006 19.287859 46.022411 -0.493437 1.138346 0.154852 -0.018525 -1581610.000000 0 0 1
-38.128741 20.069006 19.287559 47.207794 -0.484504 1.149913 0.188331 -0.031908 -1592250.000000 0 0 1
37.429949 19.180806 18.316259 45.873628 0.473554 1.160069 0.181846 -0.031189 -234095.000000 0 0 1
37.340639 17.825306 18.614259 45.371307 0.445380 1.148052 0.195345 -0.033414 327648.000000 0 0 1
36.614899 17.071106 17.616959 44.073016 0.436272 1.159583 0.212449 -0.049646 370273.000000 0 0 1
36.995759 15.544506 17.686959 43.853693 0.397772 1.155657 0.215185 -0.065943 -2443.420000 0 0 1
36.366199 14.778006 16.694459 42.656710 0.385983 1.168679 0.244653 -0.063233 -87856.200000 0 0 1
36.952289 13.519406 16.513459 42.672478 0.350735 1.173441 0.229365 -0.057450 -179364.000000 0 0 1
36.167069 12.583806 15.606059 41.351640 0.334834 1.183811 0.230267 -0.067363 -231718.000000 0 0 1
36.004649 12.990106 14.265559 40.848302 0.346254 1.214044 0.209033 -0.058393 414319.000000 0 0 1
35.154149 12.054906 13.620059 39.580816 0.330350 1.219508 0.209167 -0.043772 14506.400000 0 0 1
34.881999 12.281106 12.117859 38.915575 0.338523 1.254143 0.212335 -0.043332 284833.000000 0 0 1
36.117869 12.187006 11.413959 39.790728 0.325427 1.279860 0.192631 -0.035544 689501.000000 0 0 1
35.958939 12.181506 10.013459 39.264536 0.326628 1.312922 0.189531 -0.033382 -337522.000000 0 0 1
37.289989 12.331906 9.256159 40.352146 0.319381 1.339351 0.126558 -0.014422 -173179.000000 0 0 1
-38.140611 11.277206 9.575159 40.909232 -0.287484 1.334546 0.168777 -0.032249 339761.000000 0 0 1
-36.837331 11.415706 9.036159 39.610093 -0.300510 1.340642 0.206301 -0.032678 300781.000000 0 0 1
-36.535831 11.175806 7.513859 38.938717 -0.296848 1.376612 0.161893 -0.039425 -337553.000000 0 0 1
-37.105841 12.120806 6.626259 39.593745 -0.315728 1.402649 0.152931 -0.040945 139319.000000 0 0 1
-36.714721 11.783706 5.315159 38.923995 -0.310567 1.433816 0.192114 -0.054190 -9956.640000 0 0 1
-37.561621 12.579206 4.298259 39.844533 -0.323156 1.462710 0.191761 -0.052565 392936.000000 0 0 1
37.425019 12.141006 4.197859 39.568398 0.313697 1.464505 0.175346 -0.051654 415116.000000 0 0 1
36.407039 13.134206 4.286959 38.940440 0.346228 1.460483 0.134532 -0.049819 490589.000000 0 0 1
36.051999 13.838106 5.594259 39.019682 0.366496 1.426930 0.134030 -0.035465 -1478190.000000 0 0 1
35.286349 14.989106 5.455959 38.724246 0.401688 1.429433 0.129550 -0.030386 18894.400000 0 0 1
34.686969 15.473906 6.682159 38.565255 0.419607 1.396649 0.105795 -0.023542 224733.000000 0 0 1
33.447029 14.643006 7.058759 37.188002 0.412660 1.379825 0.169373 -0.030126 -1036540.000000 0 0 1
33.717859 13.407706 7.689859 37.091705 0.378474 1.361961 0.209469 -0.034961 -353095.000000 0 0 1
32.592899 12.695706 8.124959 35.909511 0.371443 1.342558 0.227862 -0.042285 -373783.000000 0 0 1
32.228959 11.510206 7.244659 34.981077 0.343020 1.362184 0.215792 -0.037289 -69899.400000 0 0 1
31.925379 11.847506 5.888559 34.558188 0.355347 1.399565 0.175802 -0.045329 173131.000000 0 0 1
32.183959 10.739406 5.041959 34.301070 0.322070 1.423270 0.183191 -0.052597 -256909.000000 0 0 1
31.489449 10.779406 3.667659 33.484813 0.329815 1.461044 0.151432 -0.061869 505131.000000 0 0 1
30.067979 10.606406 3.713859 32.099408 0.339120 1.454838 0.146978 -0.056144 546634.000000 0 0 1
29.533879 11.032706 2.473259 31.624162 0.357509 1.492508 0.171269 -0.059010 42999.200000 0 0 1
28.069479 10.615906 2.191659 30.089807 0.361574 1.497895 0.190157 -0.043911 133176.000000 0 0 1
27.913679 9.269706 1.817659 29.468709 0.320626 1.509076 0.183535 -0.045850 68574.300000 0 0 1
26.590879 8.786306 1.732459 28.058429 0.319131 1.509012 0.199131 -0.049811 -42873.200000 0 0 1
26.705879 7.269406 1.384459 27.712181 0.265764 1.520817 0.227618 -0.048615 278836.000000 0 0 1
27.267579 6.402506 2.374559 28.109633 0.230625 1.486221 0.241752 -0.033667 937740.000000 0 0 1
28.695079 6.269406 2.298459 29.461771 0.215104 1.492702 0.243696 -0.051380 326616.000000 0 0 1
29.150079 5.782306 3.649359 29.941276 0.195821 1.448609 0.243622 -0.051401 483297.000000 0 0 1
30.569579 5.822606 3.869959 31.358866 0.188216 1.447072 0.259741 -0.052536 998562.000000 0 0 1
30.840979 5.426306 5.191559 31.742134 0.174162 1.406504 0.244541 -0.041940 -763713.000000 0 0 1
32.275899 5.462606 5.662659 33.221069 0.167658 1.399506 0.201123 -0.046564 -694512.000000 0 0 1
32.866029 6.705906 5.951659 34.067100 0.201275 1.395191 0.206831 -0.050436 -773949.000000 0 0 1
34.203649 6.571506 6.294659 35.393461 0.189816 1.391997 0.183993 -0.042286 -687847.000000 0 0 1
34.665739 7.654706 7.237259 36.231008 0.217327 1.369690 0.169869 -0.045073 122.455000 0 0 1
33.961129 7.604206 8.467059 35.817221 0.220276 1.332141 0.178839 -0.045382 476286.000000 0 0 1
34.616989 8.416606 9.475959 36.864197 0.238507 1.310827 0.206604 -0.047737 200484.000000 0 0 1
33.995969 8.356106 10.880559 36.659746 0.241019 1.269458 0.211936 -0.047800 -654742.000000 0 0 1
32.852929 9.127206 11.020959 35.834095 0.270986 1.258174 0.223830 -0.051203 -438385.000000 0 0 1
32.258269 8.952306 12.281759 35.659239 0.270707 1.219175 0.217389 -0.050231 -215306.000000 0 0 1
30.740779 9.261906 12.294959 34.379419 0.292640 1.205072 0.198176 -0.053613 -331734.000000 0 0 1
30.373379 10.623406 12.363859 34.471205 0.336461 1.203951 0.254352 -0.064861 303801.000000 0 0 1
30.500879 11.430306 11.192959 34.441804 0.358554 1.239804 0.252110 -0.067448 -858024.000000 0 0 1
29.235279 11.521106 10.342759 33.081870 0.375395 1.252824 0.205422 -0.056207 -611943.000000 0 0 1
29.296579 12.352106 9.227859 33.106155 0.399007 1.288319 0.183338 -0.035329 415553.000000 0 0 1
28.196379 12.168106 8.338759 31.821903 0.407404 1.305656 0.161940 -0.037754 161153.000000 0 0 1
28.019779 13.388306 7.465459 31.938814 0.445744 1.334871 0.163894 -0.036747 -59087.400000 0 0 1
27.624579 14.467406 8.290259 32.266881 0.482439 1.310954 0.155885 -0.030310 127551.000000 0 0 1
27.937479 15.752506 7.808759 33.009406 0.513413 1.331971 0.148830 -0.027285 -1030900.000000 0 0 1
27.371079 16.953206 8.606159 33.326463 0.554551 1.309598 0.169815 -0.034076 1434950.000000 0 0 1
25.962779 17.287106 8.470959 32.321310 0.587431 1.305613 0.178835 -0.044620 1332120.000000 0 0 1
25.045679 16.298206 8.878059 31.172705 0.576895 1.281996 0.202058 -0.046098 -424073.000000 0 0 1
23.575479 16.809406 8.948559 30.305710 0.619400 1.271052 0.192152 -0.059732 -121244.000000 0 0 1
23.131079 17.175606 7.683659 29.817560 0.638706 1.310167 0.186393 -0.061028 -245543.000000 0 0 1
22.352379 18.319306 7.831359 29.942545 0.686560 1.306172 0.226056 -0.061834 -310003.000000 0 0 1
21.782479 18.992206 6.541359 29.630553 0.717073 1.348199 0.200023 -0.053329 -48452.000000 0 0 1
22.726379 19.758206 5.831659 30.673821 0.715647 1.379514 0.115856 -0.036018 -149249.000000 0 0 1
22.121179 20.380606 4.730359 30.448185 0.744468 1.414807 0.151016 -0.036540 -119714.000000 0 0 1
20.501449 17.311406 32.278509 41.974949 0.701233 0.693529 0.106757 -0.042025 -7271.300000 0 0 1
19.266749 17.893206 31.895172 41.336140 0.748452 0.689436 0.127184 -0.041135 197053.000000 0 0 1
18.463049 16.899706 31.290681 40.069826 0.741218 0.674685 0.142873 -0.041809 -279344.000000 0 0 1
17.811649 17.461306 30.013925 39.025476 0.775466 0.693387 0.150617 -0.043951 -159084.000000 0 0 1
18.679449 17.841106 28.993685 38.831182 0.762447 0.727770 0.143183 -0.031507 -286014.000000 0 0 1
17.860149 18.293506 27.960345 37.886913 0.797384 0.740702 0.160634 -0.032979 173353.000000 0 0 1
18.631749 18.689606 26.660315 37.512876 0.786948 0.780307 0.141587 -0.026837 -57879.700000 0 0 1
19.444349 19.792206 26.977955 38.699150 0.794264 0.799424 0.152393 -0.038240 -133534.000000 0 0 1
20.178649 20.255306 25.885485 38.568298 0.787294 0.835024 0.127279 -0.025443 -181282.000000 0 0 1
21.166949 21.417306 26.205425 39.918229 0.791277 0.854657 0.128319 -0.029426 -14704.300000 0 0 1
20.503749 22.620506 26.372705 40.343656 0.834444 0.858331 0.131900 -0.034792 359356.000000 0 0 1
21.430349 23.703206 26.295035 41.382735 0.835714 0.882256 0.138245 -0.033750 447731.000000 0 0 1
20.719549 25.112606 26.145455 41.755569 0.880957 0.894184 0.158783 -0.033167 245279.000000 0 0 1
20.209749 25.204006 24.848045 40.756610 0.894930 0.915153 0.158738 -0.040568 114892.000000 0 0 1
19.281049 26.234906 24.581255 40.795432 0.937004 0.924105 0.156306 -0.044605 -175036.000000 0 0 1
19.415749 26.954406 23.248655 40.546409 0.946564 0.960166 0.131062 -0.040165 159095.000000 0 0 1
20.671249 27.611606 23.106005 41.516127 0.928164 0.980563 0.150286 -0.039861 266896.000000 0 0 1
20.624049 28.541806 22.033965 41.538918 0.945069 1.011675 0.135564 -0.037691 -839514.000000 0 0 1
21.794549 29.470806 21.833365 42.664114 0.934030 1.033576 0.128621 -0.028507 -714617.000000 0 0 1
22.918349 28.724106 21.397065 42.522458 0.897350 1.043505 0.135655 -0.029992 -443850.000000 0 0 1
24.049649 29.511406 21.191765 43.570628 0.887019 1.062858 0.141387 -0.043290 -265724.000000 0 0 1
24.527849 29.649106 19.715265 43.236288 0.879646 1.097313 0.137895 -0.042151 290019.000000 0 0 1
23.683149 30.546906 18.985665 43.063448 0.911296 1.114221 0.118162 -0.027870 555281.000000 0 0 1
24.103649 30.585106 17.629365 42.746101 0.903363 1.145687 0.119935 -0.014118 51813.300000 0 0 1
23.537949 31.755206 16.785365 42.943878 0.932931 1.169222 0.122301 -0.024646 24439.200000 0 0 1
24.294149 32.986606 17.009865 44.358284 0.936001 1.177251 0.133384 -0.027348 536085.000000 0 0 1
24.455849 -33.617737 15.878665 44.501380 -0.941872 1.205942 0.124405 -0.029272 125454.000000 0 0 1
25.352149 33.221706 14.704265 44.301565 0.918951 1.232466 0.102378 -0.030090 -45720.600000 0 0 1
24.806649 32.207906 13.899765 42.964201 0.914490 1.241349 0.123816 -0.033106 328635.000000 0 0 1
23.818549 32.652706 12.958265 42.443364 0.940577 1.260535 0.088830 -0.027905 122836.000000 0 0 1
23.269349 31.613206 11.969965 41.038244 0.936274 1.274815 0.074365 -0.028884 -445501.000000 0 0 1
24.112449 31.109106 10.966565 40.858931 0.911428 1.299064 0.086943 -0.049749 -112324.000000 0 0 1
23.592749 29.858606 10.591165 39.500974 0.902091 1.299351 0.072498 -0.044219 -1390680.000000 0 0 1
24.585249 29.208806 9.661365 39.381859 0.871137 1.322941 0.082055 -0.047187 1450180.000000 0 0 1
25.821549 28.612106 10.188165 39.864818 0.836619 1.312361 0.112300 -0.050453 1320790.000000 0 0 1
26.651549 29.431806 10.938865 41.184889 0.834931 1.301966 0.112864 -0.060445 -1463040.000000 0 0 1
28.077749 28.871006 11.098665 41.774099 0.799327 1.301884 0.148946 -0.068281 -27756.400000 0 0 1
28.189649 27.906106 12.099365 41.470492 0.780344 1.274732 0.143516 -0.060361 230286.000000 0 0 1
29.510949 28.007206 12.614865 42.596180 0.759260 1.270137 0.132654 -0.046543 410172.000000 0 0 1
29.988449 26.903306 13.604865 42.522786 0.731223 1.245127 0.128524 -0.057767 1414850.000000 0 0 1
31.240949 27.022706 14.355765 43.729985 0.713125 1.236312 0.110768 -0.062640 1468800.000000 0 0 1
31.497949 25.861806 15.158365 43.482524 0.687453 1.214711 0.118421 -0.058252 39611.400000 0 0 1
32.630849 26.046106 16.178365 44.776238 0.673645 1.201118 0.119990 -0.064553 520199.000000 0 0 1
33.993949 25.964306 15.743265 45.580524 0.652270 1.218137 0.128565 -0.052393 675675.000000 0 0 1
34.793249 26.265006 16.881565 46.748347 0.646622 1.201332 0.105736 -0.046918 422334.000000 0 0 1
36.320149 26.372806 16.617165 47.862389 0.628042 1.216227 0.129815 -0.053487 318627.000000 0 0 1
36.690249 27.493406 15.862665 48.514801 0.643077 1.237706 0.143107 -0.037875 314205.000000 0 0 1
38.124049 27.560206 15.899365 49.656801 0.625936 1.244872 0.165741 -0.029786 766557.000000 0 0 1
-37.719981 28.591406 14.918365 49.626838 -0.648596 1.265463 0.132166 -0.026218 -49537.500000 0 0 1
-38.131781 29.925506 15.247265 50.813853 -0.665399 1.266040 0.129734 -0.034770 -30952.800000 0 0 1
-38.067981 30.826206 14.117465 50.977730 -0.680668 1.290195 0.112970 -0.013096 48870.300000 0 0 1
37.204949 31.912206 14.357465 51.075767 0.708971 1.285855 0.101990 -0.024001 -601367.000000 0 0 1
37.219549 32.940506 13.421265 51.483028 0.724484 1.307056 0.066714 -0.028093 695257.000000 0 0 1
36.192649 -33.481137 13.588365 51.142332 -0.746501 1.301869 0.064835 -0.026313 1570040.000000 0 0 1
34.728549 33.558406 13.130265 50.046405 0.768264 1.305327 0.119538 -0.024415 911031.000000 0 0 1
34.101449 32.462506 13.806565 49.064696 0.760781 1.285549 0.110374 -0.044143 737401.000000 0 0 1
32.857849 32.124306 13.167265 47.801529 0.774110 1.291731 0.136872 -0.044249 445792.000000 0 0 1
32.120149 30.886906 13.795865 46.647946 0.765828 1.270562 0.154230 -0.059134 302200.000000 0 0 1
31.241749 31.285706 14.869165 46.646912 0.786101 1.246375 0.126561 -0.046233 593587.000000 0 0 1
30.724149 30.242006 15.655565 45.865554 0.777490 1.222458 0.122847 -0.054093 -159076.000000 0 0 1
29.739749 30.648606 16.747865 45.872440 0.800447 1.197060 0.106245 -0.045804 -241948.000000 0 0 1
29.556949 29.661606 17.789865 45.496191 0.787165 1.169058 0.088006 -0.037941 -443451.000000 0 0 1
30.552949 29.660706 18.755765 46.529764 0.770581 1.155904 0.078131 -0.036774 -548028.000000 0 0 1
30.405149 28.646706 19.865465 46.257362 0.755629 1.126907 0.084808 -0.033635 -198851.000000 0 0 1
29.297149 28.759906 20.725365 45.989085 0.776145 1.103294 0.096090 -0.041305 -41330.100000 0 0 1
29.282949 27.759806 21.701665 45.815502 0.758703 1.077337 0.070455 -0.033782 -40975.500000 0 0 1
28.037549 27.827806 22.625485 45.523659 0.781644 1.050652 0.090957 -0.032860 -92231.100000 0 0 1
26.918949 27.231906 22.011865 44.167055 0.791177 1.049070 0.145876 -0.035048 -430264.000000 0 0 1
25.780749 27.124206 22.817665 43.829390 0.810786 1.023241 0.150876 -0.041077 -395549.000000 0 0 1
25.594249 25.959706 23.811255 43.542483 0.792487 0.992198 0.122750 -0.041497 -454658.000000 0 0 1
26.452649 26.044106 24.935435 44.719280 0.777616 0.979305 0.079824 -0.035938 -19253.100000 0 0 1
26.207449 25.007806 25.919425 44.542534 0.761979 0.949730 0.095723 -0.036094 -989648.000000 0 0 1
27.411349 24.735806 26.793535 45.619466 0.734136 0.943044 0.080432 -0.037736 -471772.000000 0 0 1
27.792149 25.874706 27.624315 46.957499 0.749685 0.941862 0.091611 -0.030195 2870.820000 0 0 1
28.650249 26.771206 26.979265 47.596376 0.751507 0.968138 0.054613 -0.013853 -769924.000000 0 0 1
28.796649 28.061806 27.797205 48.881454 0.772475 0.965914 0.037924 -0.016438 -311368.000000 0 0 1
29.721549 27.922006 28.851055 49.953902 0.754190 0.955068 0.040743 -0.017526 -97510.100000 0 0 1
29.897549 29.090906 29.594625 51.146712 0.771724 0.953758 0.050754 -0.024649 730107.000000 0 0 1
31.407349 29.206406 30.006595 52.343400 0.749103 0.960312 0.031469 -0.018883 1323430.000000 0 0 1
32.294749 29.051106 28.863775 52.153956 0.732573 0.984315 0.011041 -0.016677 672896.000000 0 0 1
33.620249 29.523306 29.096825 53.372015 0.720606 0.994204 0.040691 -0.031933 517383.000000 0 0 1
34.322049 29.890406 27.759705 53.310793 0.716492 1.023109 0.033181 -0.024819 -330463.000000 0 0 1
33.794049 31.000906 27.078085 53.257081 0.742317 1.037423 0.011719 -0.020600 195865.000000 0 0 1
34.494149 31.348806 25.876765 53.312296 0.737664 1.063998 0.023912 -0.030401 -27251.900000 0 0 1
34.258249 32.849306 25.505415 53.881637 0.764406 1.077695 0.022267 -0.030055 -219397.000000 0 0 1
34.687549 33.704306 26.531395 55.164493 0.771023 1.069058 0.036045 -0.032820 -9801.810000 0 0 1
34.711449 -32.390837 26.082265 54.169508 -0.750829 1.068438 0.034878 -0.023007 -81336.100000 0 0 1
35.743049 -31.407937 26.770535 54.595656 -0.720930 1.058314 0.033783 -0.026143 129163.000000 0 0 1
35.599949 -31.028637 28.094895 54.949575 -0.716897 1.034117 0.040141 -0.028607 580529.000000 0 0 1
36.748749 -30.268637 28.493325 55.484507 -0.689005 1.031495 0.052229 -0.035377 438281.000000 0 0 1
36.815449 -30.025337 30.020905 56.197446 -0.684159 1.007230 0.053362 -0.031975 -232933.000000 0 0 1
36.969349 -31.155737 30.846085 57.348877 -0.700267 1.002891 0.056452 -0.031537 148837.000000 0 0 1
35.750949 -31.811437 31.140585 57.094956 -0.727155 0.993909 0.038485 -0.036410 -249426.000000 0 0 1
35.697549 -32.796337 32.257535 58.227686 -0.743066 0.983647 0.059323 -0.030041 -598142.000000 0 0 1
35.382549 -32.133537 33.473655 58.352160 -0.737313 0.959843 0.054708 -0.031685 263391.000000 0 0 1
35.483049 -32.882137 -32.631501 58.353205 -0.747372 2.164225 0.063389 -0.030778 114372.000000 0 0 1
34.501749 33.352006 -32.398071 57.899586 0.768455 2.164647 0.062145 -0.028651 -373811.000000 0 0 1
34.895249 32.270506 -33.257621 58.009769 0.746339 2.181337 0.071318 -0.034373 624469.000000 0 0 1
34.090649 31.052906 -33.107991 56.767899 0.738800 2.193479 0.085015 -0.026303 529087.000000 0 0 1
34.161049 30.011606 33.000431 56.184537 0.720827 0.943006 0.066357 -0.028577 283920.000000 0 0 1
35.456249 29.436406 33.002242 56.681528 0.692897 0.949315 0.060679 -0.028074 132604.000000 0 0 1
35.573749 28.443706 31.989027 55.658188 0.674479 0.958509 0.058719 -0.027837 627334.000000 0 0 1
36.988749 27.763806 31.959352 56.217406 0.643886 0.966120 0.069919 -0.021912 639417.000000 0 0 1
37.194349 26.955406 33.157100 56.651627 0.627123 0.945570 0.077874 -0.019251 171497.000000 0 0 1
-37.851481 26.377406 33.228685 56.856377 -0.608619 0.946616 0.068933 -0.023566 119947.000000 0 0 1
-37.800081 24.994806 -33.325951 56.251270 -0.584234 2.204890 0.065461 -0.026987 109808.000000 0 0 1
37.958349 23.965806 33.185732 55.825522 0.563168 0.934209 0.076464 -0.022883 75269.700000 0 0 1
37.789949 22.779006 -33.353351 55.311928 0.542461 2.218059 0.073398 -0.033446 -71433.800000 0 0 1
37.455149 21.549606 33.086784 54.424342 0.522093 0.917332 0.075917 -0.036554 88038.100000 0 0 1
-37.812581 21.140406 32.252815 54.008815 -0.509791 0.930819 0.085066 -0.032513 148505.000000 0 0 1
38.120349 20.071906 31.450691 53.340308 0.484654 0.940204 0.082159 -0.023218 467176.000000 0 0 1
-37.010781 19.571306 30.595495 51.854780 -0.486421 0.939709 0.089188 -0.038002 757138.000000 0 0 1
-36.417981 20.433306 29.568015 51.166950 -0.511308 0.954676 0.091665 -0.027802 766708.000000 0 0 1
-35.349181 19.835006 28.806065 49.727069 -0.511338 0.952947 0.089386 -0.031676 446595.000000 0 0 1
-35.763681 18.891206 27.668525 49.004753 -0.485970 0.970837 0.110201 -0.026947 -417098.000000 0 0 1
-36.328281 17.696606 28.169185 49.258673 -0.453299 0.962022 0.096503 -0.025864 258532.000000 0 0 1
-36.902481 16.845506 27.183265 48.831281 -0.428235 0.980416 0.115130 -0.036873 12309.900000 0 0 1
-37.383081 15.545006 27.859185 49.145459 -0.394078 0.968092 0.105503 -0.037101 -90566.100000 0 0 1
-36.350181 14.674206 28.283055 48.338382 -0.383683 0.945786 0.087974 -0.026825 -110008.000000 0 0 1
-36.827581 13.406606 28.660145 48.553184 -0.349125 0.939386 0.087170 -0.033309 -561030.000000 0 0 1
-35.790581 12.348806 28.989565 47.684940 -0.332240 0.917333 0.086435 -0.025490 36247.800000 0 0 1
-34.831881 12.783406 29.974295 47.698362 -0.351741 0.891284 0.090821 -0.024195 544274.000000 0 0 1
-34.062581 11.716406 30.522105 47.213689 -0.331290 0.867851 0.085759 -0.024605 621885.000000 0 0 1
-32.528381 11.982406 30.388155 46.098954 -0.352943 0.851050 0.081285 -0.014681 -477365.000000 0 0 1
-32.105981 11.866006 29.052115 44.895673 -0.354018 0.867018 0.060372 -0.009635 994742.000000 0 0 1
-30.819181 12.443406 28.719095 43.925467 -0.383739 0.858182 0.038304 -0.000272 927901.000000 0 0 1
-29.579481 11.663306 29.159995 43.142597 -0.375586 0.828614 0.043764 -0.004254 -689658.000000 0 0 1
-29.447881 10.505106 28.360615 42.212077 -0.342663 0.834079 0.044904 -0.010504 413209.000000 0 0 1
-28.243381 9.792806 28.676595 41.423842 -0.333758 0.806163 0.050091 -0.010368 44456.600000 0 0 1
-28.049681 8.465606 27.833025 40.411983 -0.293114 0.811058 0.040114 -0.009287 -462068.000000 0 0 1
-28.888581 7.408906 28.138615 41.002727 -0.251054 0.814459 0.047306 -0.014450 68564.400000 0 0 1
-30.237681 7.593006 27.718095 41.716470 -0.246024 0.844052 0.058919 -0.015298 -457619.000000 0 0 1
-31.101781 6.322306 27.746895 42.156642 -0.200545 0.852390 0.066830 -0.024896 -367736.000000 0 0 1
-31.569281 5.994906 29.026035 43.302068 -0.187662 0.836163 0.077064 -0.029165 25594.800000 0 0 1
-32.090781 4.668006 29.065535 43.547833 -0.144449 0.840032 0.107859 -0.030083 -112450.000000 0 0 1
-32.874981 4.379106 30.349775 44.956087 -0.132425 0.829698 0.117398 -0.036192 1024570.000000 0 0 1
-34.160881 5.036606 30.495625 46.068604 -0.146383 0.847364 0.124409 -0.035624 1204150.000000 0 0 1
-34.986081 4.521606 31.538322 47.319515 -0.128528 0.841296 0.152545 -0.042382 482494.000000 0 0 1
-36.465881 4.956806 31.467312 48.420265 -0.135102 0.863371 0.158785 -0.034487 18971.600000 0 0 1
-36.705681 6.302006 31.596060 48.839874 -0.170032 0.867243 0.151422 -0.039105 -209601.000000 0 0 1
-38.099381 6.499506 31.500625 49.860764 -0.168967 0.886959 0.160949 -0.036489 116921.000000 0 0 1
38.066449 7.990806 31.707232 50.182229 0.206913 0.886869 0.139729 -0.041052 -91706.100000 0 0 1
-38.077581 8.313606 33.073123 51.116041 -0.214960 0.867126 0.132744 -0.037801 -43577.900000 0 0 1
37.828349 9.575106 33.355615 51.334820 0.247913 0.863520 0.135530 -0.042665 -89310.500000 0 0 1
37.683549 9.833106 -32.444681 50.689221 0.255247 2.265386 0.118158 -0.030771 13732.000000 0 0 1
36.481149 9.269206 -31.962621 49.380174 0.248817 2.274802 0.127851 -0.022457 -41778.500000 0 0 1
36.416849 9.598106 -30.583751 48.514703 0.257702 2.252867 0.124033 -0.006905 -611293.000000 0 0 1
35.210149 9.093206 -29.844541 47.043997 0.252733 2.258024 0.132518 -0.002568 -694237.000000 0 0 1
35.270749 7.685206 -29.671081 46.727521 0.214539 2.258780 0.119758 -0.010427 409022.000000 0 0 1
34.175849 7.120806 -28.942191 45.346940 0.205419 2.263005 0.131074 -0.020459 226727.000000 0 0 1
37.369029 5.646006 -18.634741 42.137576 0.149954 2.028886 0.116987 -0.026251 -489575.000000 0 0 1
36.675899 6.807606 -18.248641 41.526834 0.183527 2.025774 0.096150 -0.013037 555439.000000 0 0 1
37.312689 8.068506 -18.605141 42.467503 0.212961 2.024284 0.072677 -0.018066 311021.000000 0 0 1
-37.534401 8.449006 -18.324641 42.614662 -0.221410 2.015298 0.094566 -0.027110 509746.000000 0 0 1
-36.548781 7.751706 -19.030441 41.929226 -0.208995 2.041901 0.111579 -0.034503 -169010.000000 0 0 1
-36.202141 8.273206 -20.294141 42.318945 -0.224670 2.070941 0.100791 -0.027757 26097.200000 0 0 1
-35.226813 7.366906 -21.135141 41.736001 -0.206157 2.101802 0.099738 -0.026388 307846.000000 0 0 1
-35.824778 6.293106 -21.870041 42.441920 -0.173889 2.112146 0.097731 -0.021771 502062.000000 0 0 1
-36.742891 6.563006 -22.935841 43.808285 -0.176756 2.121809 0.089006 -0.012612 529133.000000 0 0 1
-36.569341 5.374606 -23.965341 44.051568 -0.145926 2.146028 0.119199 -0.021985 623201.000000 0 0 1
-35.253636 5.325306 -24.512841 43.267275 -0.149923 2.173103 0.127283 -0.026883 327187.000000 0 0 1
-35.014091 4.065206 -25.105061 43.275588 -0.115585 2.189673 0.131422 -0.031741 230555.000000 0 0 1
-33.655451 3.962706 -25.864801 42.630744 -0.117204 2.222721 0.138809 -0.028145 619871.000000 0 0 1
-32.544861 4.147306 -25.003441 41.249729 -0.126750 2.222005 0.123485 -0.028326 -481676.000000 0 0 1
-31.366921 3.718506 -25.602971 40.659846 -0.117998 2.251946 0.142956 -0.028024 -81793.400000 0 0 1
-30.018411 3.930506 -24.883141 39.188322 -0.130196 2.258757 0.121560 -0.035298 95168.800000 0 0 1
-29.603491 5.295106 -24.860341 39.018474 -0.176996 2.261582 0.093871 -0.018259 772746.000000 0 0 1
-28.301291 5.519606 -24.296841 37.706307 -0.192612 2.270996 0.090614 -0.024827 808981.000000 0 0 1
-27.807091 6.983906 -24.305341 37.586684 -0.246066 2.273978 0.067862 -0.016006 99086.000000 0 0 1
-28.580031 7.796706 -23.440441 37.776461 -0.266322 2.240181 0.064646 -0.005968 -128676.000000 0 0 1
-28.443461 9.184306 -23.683541 38.135181 -0.312329 2.240868 0.043495 -0.006072 -467401.000000 0 0 1
-27.155041 9.930106 -23.313341 37.141824 -0.350576 2.249371 0.082877 0.002670 -199839.000000 0 0 1
-26.978671 9.985706 -21.897341 36.153237 -0.354497 2.221418 0.063959 0.005890 256761.000000 0 0 1
-25.653461 10.447506 -21.686241 35.178736 -0.386745 2.235034 0.101486 -0.003903 -89308.500000 0 0 1
-25.357431 10.839406 -20.211241 34.190441 -0.403956 2.203264 0.124687 -0.023445 -630119.000000 0 0 1
-25.886311 12.097206 -19.655141 34.680946 -0.437164 2.173342 0.121709 -0.023135 1005720.000000 0 0 1
-27.294481 12.270506 -19.501541 35.719240 -0.422488 2.148340 0.106310 -0.001672 358317.000000 0 0 1
-27.984191 11.274306 -18.514141 35.397716 -0.382988 2.121201 0.087259 -0.009970 -841769.000000 0 0 1
-27.776921 11.453806 -17.108741 34.575367 -0.391107 2.088429 0.109951 -0.022232 361834.000000 0 0 1
-28.662591 10.713606 -16.257441 34.650106 -0.357704 2.059168 0.133520 -0.031626 -692647.000000 0 0 1
-28.282761 10.525206 -14.773241 33.599749 -0.356263 2.026042 0.176419 -0.043005 602831.000000 0 0 1
-27.230721 9.562006 -14.531741 32.312778 -0.337697 2.037249 0.193394 -0.044072 1122790.000000 0 0 1
-25.917071 9.944606 -14.902241 31.506611 -0.366384 2.063475 0.155584 -0.034525 -450605.000000 0 0 1
-25.008991 8.672606 -14.834741 30.343587 -0.333803 2.081616 0.114837 -0.023896 158399.000000 0 0 1
-23.638451 8.972206 -15.065341 29.431978 -0.362762 2.108156 0.102724 -0.012254 456468.000000 0 0 1
-22.892251 7.763606 -14.950941 28.422867 -0.326965 2.124708 0.104037 -0.017179 449850.000000 0 0 1
-21.347651 7.960906 -14.979941 27.267138 -0.356943 2.152415 0.169290 -0.040314 203482.000000 0 0 1
-20.775151 8.475706 -16.161641 27.652181 -0.387361 2.195013 0.180666 -0.054573 -174901.000000 0 0 1
-19.379451 8.432106 -15.972941 26.491477 -0.410399 2.217986 0.196688 -0.049861 -326435.000000 0 0 1
-18.608251 8.926706 -17.265841 26.908406 -0.447290 2.267447 0.148332 -0.038745 125283.000000 0 0 1
-18.330651 8.107506 -18.433141 27.230958 -0.416426 2.314364 0.217930 -0.061224 1852.140000 0 0 1
-17.518351 7.022906 -18.129641 26.170550 -0.381272 2.336091 0.238108 -0.064298 -774691.000000 0 0 1
-17.014651 6.225706 -19.370841 26.523334 -0.350771 2.389604 0.205442 -0.061557 201756.000000 0 0 1
-17.991851 5.581106 -20.168141 27.597270 -0.300790 2.390292 0.200415 -0.048618 91324.400000 0 0 1
-18.962851 6.306206 -20.876941 28.899907 -0.321051 2.378046 0.188359 -0.049122 -301958.000000 0 0 1
-19.942251 5.423606 -21.669541 29.944580 -0.265543 2.379880 0.151495 -0.029322 129003.000000 0 0 1
-20.912851 4.799706 -20.827941 29.902970 -0.225603 2.341329 0.136133 -0.028867 450622.000000 0 0 1
-21.704151 3.868106 -21.530041 30.815176 -0.176368 2.344351 0.096364 -0.011280 -270595.000000 0 0 1
-22.451051 2.915006 -20.497841 30.540275 -0.129116 2.306588 0.112619 -0.019546 381686.000000 0 0 1
-23.396451 1.987206 -21.018641 31.513904 -0.084733 2.300923 0.105390 -0.015736 621218.000000 0 0 1
-23.906351 1.253006 -19.915541 31.140205 -0.052365 2.264702 0.114451 -0.016131 -156111.000000 0 0 1
-24.410951 -0.227394 -20.149741 31.653724 0.009315 2.260836 0.117390 0.001406 529781.000000 0 0 1
-23.313151 -1.144294 -20.275741 30.917925 0.049044 2.286028 0.112832 -0.012705 557292.000000 0 0 1
-23.764451 -2.467894 -20.450641 31.449457 0.103477 2.278736 0.133064 -0.018555 -356505.000000 0 0 1
-24.451751 -2.786394 -21.823341 32.892405 0.113465 2.296252 0.129997 -0.020857 93874.900000 0 0 1
-23.656951 -2.630394 -22.971241 33.079422 0.110734 2.338419 0.112362 -0.026301 255682.000000 0 0 1
-22.563151 -3.547494 -23.107741 32.490740 0.155948 2.362014 0.106511 -0.037516 692040.000000 0 0 1
-21.737051 -3.230094 -24.412241 32.846467 0.147519 2.408671 0.118386 -0.042343 359978.000000 0 0 1
-22.494351 -3.533594 -25.590281 34.254117 0.155815 2.414442 0.114490 -0.040144 512691.000000 0 0 1
-21.697651 -3.573394 -26.770521 34.644162 0.163225 2.453924 0.120203 -0.043203 -47985.100000 0 0 1
-22.543251 -3.958394 -27.988421 36.155480 0.173819 2.456109 0.113744 -0.042934 42241.800000 0 0 1
-23.022351 -5.283394 -27.875931 36.537794 0.225584 2.438636 0.122735 -0.046954 70198.400000 0 0 1
-23.758351 -5.726694 -28.982641 37.911050 0.236527 2.441047 0.088191 -0.035594 -231784.000000 0 0 1
-23.058551 -6.877294 -29.770311 38.278784 0.289854 2.461833 0.102850 -0.036195 -418375.000000 0 0 1
-21.795351 -6.555994 -30.250071 37.856111 0.292189 2.496560 0.105084 -0.042708 -471476.000000 0 0 1
-21.219151 -7.548894 -31.061261 38.367174 0.341796 2.514231 0.098927 -0.032244 -149793.000000 0 0 1
-19.898451 -6.979694 -31.652601 38.033559 0.337357 2.553911 0.101459 -0.032522 -306809.000000 0 0 1
-19.983151 -6.322194 -32.928461 39.033063 0.306412 2.574757 0.103727 -0.045485 285293.000000 0 0 1
-20.123951 -7.283094 33.321395 39.602174 0.347247 0.570922 0.090197 -0.036019 -815559.000000 0 0 1
-19.866651 -6.815894 31.862244 38.162060 0.330499 0.582810 0.083480 -0.032382 -49454.600000 0 0 1
-18.538751 -6.538094 31.470729 37.105778 0.339053 0.558340 0.105251 -0.034419 42545.600000 0 0 1
-17.916651 -5.442394 32.086492 37.150626 0.294904 0.528258 0.095413 -0.039653 -1393120.000000 0 0 1
-16.578651 -5.205594 31.459838 35.939828 0.304245 0.504642 0.098709 -0.038130 -978859.000000 0 0 1
-16.833951 -4.899694 30.078855 34.815606 0.283235 0.527740 0.098817 -0.037592 1567020.000000 0 0 1
-15.563651 -4.795194 29.370855 33.583749 0.298873 0.506278 0.084421 -0.022642 1298250.000000 0 0 1
-15.737751 -4.770794 27.845505 32.338977 0.294338 0.533464 0.087774 -0.016076 282771.000000 0 0 1
-16.409051 -3.626594 27.272125 32.034012 0.217515 0.552245 0.081550 -0.023298 280334.000000 0 0 1
-16.537851 -3.789794 25.893545 30.957046 0.225269 0.580051 0.085650 -0.018160 163444.000000 0 0 1
-15.471151 -3.057894 25.031415 29.585114 0.195136 0.562206 0.108523 -0.011645 239616.000000 0 0 1
-15.677651 -1.654694 25.009205 29.563272 0.105155 0.562442 0.103151 -0.013656 -322956.000000 0 0 1
-14.637651 -0.972994 24.388765 28.460840 0.066374 0.541525 0.093716 -0.021599 -412220.000000 0 0 1
-14.921051 0.533606 24.364575 28.575427 -0.035747 0.549777 0.074627 0.002041 -414423.000000 0 0 1
-15.850651 0.988906 23.448425 28.320482 -0.062308 0.595324 0.071216 -0.006740 -348331.000000 0 0 1
-16.390751 2.222806 23.890275 29.057578 -0.134791 0.605583 0.051652 -0.008078 157895.000000 0 0 1
-16.869451 3.071806 22.623635 28.387378 -0.180119 0.648549 0.065468 -0.010655 -686551.000000 0 0 1
-15.703551 3.453706 22.021465 27.266729 -0.216485 0.630672 0.064434 -0.011636 -575288.000000 0 0 1
-15.903451 4.359706 20.937265 26.651376 -0.267563 0.667134 0.074983 -0.014820 -308756.000000 0 0 1
-14.596351 4.643106 20.203365 25.353261 -0.307979 0.648692 0.076877 -0.008859 -123393.000000 0 0 1
-13.732751 5.435706 20.970465 25.649478 -0.376898 0.613603 0.039715 -0.011632 497334.000000 0 0 1
-12.447651 5.712906 20.417365 24.585567 -0.430276 0.590861 0.027991 -0.008280 517866.000000 0 1 0
-11.778351 7.008206 20.828065 24.932966 -0.536740 0.582004 0.037343 -0.007996 -186980.000000 0 1 0
-12.408151 8.142206 20.292565 25.140523 -0.580720 0.631462 0.057623 -0.012972 34650.200000 0 0 1
-11.579051 9.277306 20.440565 25.257861 -0.675481 0.627879 0.029754 -0.009232 -277653.000000 0 0 1
-12.204051 10.653906 20.448465 26.088010 -0.717685 0.669993 0.028365 -0.002901 -416907.000000 0 0 1
-12.718751 11.102606 19.189365 25.559073 -0.717658 0.721547 0.046560 -0.003510 260410.000000 0 0 1
-13.443951 12.271506 19.397465 26.600589 -0.739837 0.753627 0.043171 -0.002690 -422678.000000 0 0 1
-13.830751 12.973006 18.043265 26.175331 -0.753408 0.810242 0.057164 0.001868 273330.000000 0 0 1
-12.753751 13.671106 17.407065 25.545317 -0.820100 0.821097 0.044778 -0.002242 657627.000000 0 0 1
-12.357951 15.002706 17.874465 26.406375 -0.881761 0.827254 0.050844 -0.008123 -376174.000000 0 0 1
-13.353551 16.149006 17.473065 27.283983 -0.879869 0.875758 0.048613 -0.001616 230607.000000 0 0 1
-13.400651 16.489606 16.097965 26.657626 -0.888376 0.922438 0.027057 -0.009482 55487.200000 0 0 1
-13.837851 15.453706 15.240665 25.740649 -0.840507 0.937152 0.055287 -0.007041 -334549.000000 0 0 1
-14.395651 15.934806 13.892665 25.576531 -0.836101 0.996576 0.045652 -0.009595 261094.000000 0 0 1
-15.513351 16.804606 13.886265 26.756068 -0.825332 1.025122 0.043552 -0.009094 174384.000000 0 0 1
-15.887351 17.184006 12.583365 26.571395 -0.824586 1.077459 0.035590 -0.008270 48076.100000 0 0 1
-16.971451 18.327906 12.562965 27.960157 -0.823806 1.104796 0.057797 -0.021255 583733.000000 0 0 1
-18.201651 17.746206 12.975665 28.541125 -0.772729 1.098839 0.077738 -0.023815 -326818.000000 0 0 1
-19.264551 18.649906 13.027765 29.810478 -0.769188 1.118514 0.099632 -0.034890 -115934.000000 0 0 1
-20.606451 17.927106 13.332665 30.393534 -0.715977 1.116681 0.107923 -0.026641 448540.000000 0 0 1
-21.332651 17.369706 12.236865 30.108629 -0.683358 1.152260 0.111435 -0.026934 1055590.000000 0 0 1
-22.630051 16.878806 12.665765 30.942445 -0.640845 1.149073 0.156318 -0.044549 1164270.000000 0 0 1
-23.447151 16.278506 11.492365 30.770653 -0.606866 1.188034 0.156006 -0.029577 35671.000000 0 0 1
-22.796051 15.152706 10.837265 29.439951 -0.586645 1.193816 0.123942 -0.016911 -84586.100000 0 0 1
-23.419051 14.675006 9.672265 29.280718 -0.559768 1.234144 0.149815 -0.022664 -148105.000000 0 0 1
-22.729651 13.438006 8.990065 27.893338 -0.533932 1.242637 0.138583 -0.019273 -401983.000000 0 0 1
-22.801551 12.195806 9.703065 27.618796 -0.491151 1.211815 0.141135 -0.025990 -269692.000000 0 0 1
-24.026451 11.594606 9.987265 28.485973 -0.449612 1.212582 0.200735 -0.035275 -317815.000000 0 0 1
-24.882951 11.051406 8.814265 28.617933 -0.417966 1.257708 0.223545 -0.035554 -272214.000000 0 0 1
-25.399841 12.033606 7.935665 29.205040 -0.442442 1.295614 0.232796 -0.034792 123452.000000 0 0 1
-26.305271 11.284206 7.139265 29.500334 -0.405230 1.326363 0.307975 -0.047640 -548132.000000 0 0 1
-26.813171 12.163606 5.941665 30.036691 -0.425879 1.371669 0.302538 -0.047719 -601410.000000 0 0 1
-26.054921 12.280606 4.765965 29.195661 -0.440454 1.406820 0.304719 -0.061207 1000090.000000 0 0 1
-24.727451 12.831306 4.892465 28.284721 -0.478660 1.396950 0.282090 -0.058468 455087.000000 0 0 1
-24.667751 14.375006 5.246365 29.028659 -0.527635 1.389067 0.252993 -0.046171 173935.000000 0 0 1
-23.348051 14.838106 5.622665 28.229687 -0.566127 1.370280 0.187396 -0.044318 1295660.000000 0 0 1
-23.338751 16.254506 5.865165 29.039739 -0.608346 1.367427 0.181022 -0.040170 27427.600000 0 0 1
-21.896651 16.757406 6.085965 28.236730 -0.653219 1.353558 0.140391 -0.029803 383484.000000 0 0 1
-21.177451 17.117006 4.896065 27.666727 -0.679761 1.392894 0.149842 -0.048589 -454517.000000 0 0 1
-19.924051 17.641006 5.059765 27.088265 -0.724697 1.382905 0.140547 -0.034560 -1088430.000000 0 0 1
-19.644951 18.683706 3.969765 27.400073 -0.760324 1.425403 0.141146 -0.029846 153807.000000 0 0 1
-18.272351 19.058006 3.996265 26.703118 -0.806441 1.420577 0.122029 -0.030007 379435.000000 0 0 1
-17.822651 20.146806 3.183565 27.086450 -0.846533 1.452991 0.133964 -0.028653 114493.000000 0 0 1
-18.139551 21.625606 3.600565 28.454775 -0.872841 1.443920 0.116570 -0.038165 -81639.000000 0 0 1
-17.399051 22.014606 4.750865 28.459455 -0.901973 1.403077 0.106482 -0.036288 77048.300000 0 0 1
-17.645251 23.304806 5.186265 29.687812 -0.922734 1.395202 0.077407 -0.029402 -267674.000000 0 0 1
-16.799751 23.757806 6.369565 29.786513 -0.955304 1.355292 0.059515 -0.012783 -147892.000000 0 0 1
-17.314251 23.120406 7.505265 29.844019 -0.928017 1.316584 0.050465 -0.008920 557324.000000 0 0 1
-16.505151 23.378206 8.661265 29.899465 -0.956051 1.276904 0.051361 -0.014497 405847.000000 0 0 1
-17.063451 22.605006 9.905965 30.004596 -0.924197 1.234336 0.028747 -0.007808 561586.000000 0 0 1
-18.193951 23.215106 10.516465 31.313847 -0.906066 1.228299 0.028735 -0.007396 -250453.000000 0 0 1
-19.167751 22.312706 10.938965 31.383443 -0.861071 1.214764 0.031794 -0.007870 -56258.100000 0 0 1
-20.411151 23.050306 11.502665 32.867050 -0.846048 1.213251 0.056309 -0.025974 -278390.000000 0 0 1
-21.251551 23.681306 10.576765 33.530592 -0.839421 1.249880 0.079632 -0.020537 -251507.000000 0 0 1
-20.790551 24.921806 10.013765 33.964966 -0.875528 1.271523 0.022012 -0.020923 -637032.000000 0 0 1
-21.879951 25.825306 9.442865 35.140381 -0.867913 1.298734 0.035221 -0.023961 -157785.000000 0 0 1
-22.563651 26.545206 10.449565 36.372513 -0.866297 1.279397 0.065788 -0.039299 -508760.000000 0 0 1
-23.553051 27.355106 9.934265 37.439787 -0.859944 1.302240 0.090239 -0.032113 -245348.000000 0 0 1
-24.607551 27.928706 10.934465 38.795705 -0.848531 1.285077 0.105120 -0.036443 48676.700000 0 0 1
-24.010951 28.837306 11.827665 39.344754 -0.876470 1.265458 0.109592 -0.036489 409111.000000 0 0 1
-24.934731 29.268206 12.839565 40.536688 -0.865178 1.248506 0.104994 -0.031787 289752.000000 0 0 1
10.469949 -31.834437 27.160245 43.136181 -1.253052 0.889707 0.074840 -0.042201 -282496.000000 0 0 1
11.836049 -32.136337 27.048735 43.640237 -1.217906 0.902293 0.080114 -0.047824 139007.000000 0 0 1
12.325549 -31.845537 25.739425 42.761845 -1.201511 0.924887 0.097879 -0.045011 -1051340.000000 0 0 1
13.808449 -32.057137 25.626635 43.301937 -1.164070 0.937491 0.055387 -0.033332 -1196790.000000 0 0 1
14.218649 -33.414937 25.558575 44.406855 -1.168487 0.957514 0.082109 -0.045842 427985.000000 0 0 1
15.643449 -33.407237 25.592995 44.897243 -1.132857 0.964248 0.094548 -0.033266 509466.000000 0 0 1
16.325249 32.614906 25.332745 44.407137 1.106712 0.963724 0.118902 -0.030800 94503.400000 0 0 1
16.253049 32.166006 23.990585 43.293899 1.102928 0.983475 0.093222 -0.031535 394160.000000 0 0 1
17.159149 31.105206 23.730475 42.721256 1.066688 0.981865 0.095595 -0.032122 -517606.000000 0 0 1
17.002349 30.612306 22.317725 41.524379 1.063810 1.003373 0.101359 -0.037509 -445477.000000 0 0 1
15.828549 29.901206 22.051565 40.384361 1.083936 0.993164 0.089343 -0.029366 -209933.000000 0 0 1
15.961849 28.502806 22.135165 39.460818 1.060301 0.975275 0.102931 -0.028584 -100996.000000 0 0 1
15.607049 27.912106 23.565195 39.723848 1.060955 0.935737 0.133285 -0.039132 183274.000000 0 0 1
16.567149 28.273206 24.585935 40.967216 1.040760 0.927124 0.125092 -0.034467 436384.000000 0 0 1
16.157349 27.991606 25.877925 41.403586 1.047294 0.895644 0.133466 -0.038078 -511756.000000 0 0 1
17.200049 28.312306 26.955345 42.708535 1.024872 0.887766 0.144093 -0.039407 -61109.000000 0 0 1
17.538449 29.695606 27.161745 43.899734 1.037312 0.903681 0.147953 -0.042665 181369.000000 0 0 1
18.251149 29.941306 28.360305 45.098705 1.023374 0.890723 0.142736 -0.046755 -1758.100000 0 0 1
18.083149 31.413006 28.826365 46.311301 1.048468 0.898930 0.135469 -0.047063 -196113.000000 0 0 1
18.754049 32.345406 28.035375 46.732450 1.045358 0.927405 0.120138 -0.041597 -143055.000000 0 0 1
18.329549 33.692006 28.331725 47.684487 1.072546 0.934588 0.127614 -0.030165 30912.300000 0 0 1
19.168449 -32.701237 27.559455 46.864954 -1.040609 0.942137 0.105946 -0.031337 -658250.000000 0 0 1
18.965949 -32.692337 26.164595 45.968274 -1.045112 0.965278 0.113592 -0.029284 53396.000000 0 0 1
19.440549 -31.551537 25.462125 44.963922 -1.018585 0.968812 0.125325 -0.029522 1171700.000000 0 0 1
20.963349 -31.074337 25.551505 45.364698 -0.977308 0.972487 0.127561 -0.029726 1158460.000000 0 0 1
21.324649 -30.599937 26.821185 45.939882 -0.962164 0.947355 0.122034 -0.028169 -180334.000000 0 0 1
22.341149 -29.630737 26.717725 45.726845 -0.924749 0.946792 0.135196 -0.026760 -109631.000000 0 0 1
22.346749 -28.626137 27.919175 45.807350 -0.907971 0.915378 0.133479 -0.026412 969810.000000 0 0 1
21.075249 -27.924237 28.008915 44.815494 -0.924275 0.895687 0.135140 -0.028731 1217380.000000 0 0 1
21.146349 -26.942137 29.045365 44.907461 -0.905343 0.867438 0.143026 -0.025108 1130140.000000 0 0 1
19.664849 -26.659037 29.567415 44.403182 -0.935251 0.842117 0.159677 -0.029840 861458.000000 0 0 1
19.023149 -25.900737 28.629455 43.039216 -0.937313 0.843042 0.155703 -0.029515 -941358.000000 0 0 1
17.739949 -25.636037 29.084105 42.635635 -0.965465 0.820091 0.160701 -0.026430 -788616.000000 0 0 1
16.750749 -25.085337 28.028745 41.176113 -0.982044 0.822073 0.148328 -0.029175 -1091790.000000 0 0 1
16.383549 -25.952437 27.015575 40.887541 -1.007686 0.849007 0.139701 -0.030843 16022.900000 0 0 1
15.616649 -25.307837 26.062935 39.542925 -1.017921 0.851168 0.139139 -0.040836 -1442900.000000 0 0 1
14.252349 -24.687137 26.333425 38.807647 -1.047221 0.824992 0.096599 -0.034104 -551783.000000 0 0 1
13.174349 -25.615437 26.555845 39.178145 -1.095764 0.825999 0.081079 -0.028778 648178.000000 0 0 1
12.789149 -26.420237 25.468775 38.861932 -1.119977 0.856130 0.065548 -0.032886 -747001.000000 0 0 1
11.754149 -27.533937 25.685805 39.446651 -1.167320 0.861694 0.079345 -0.034867 1055750.000000 0 0 1
10.387649 -27.188037 25.955135 38.996944 -1.205844 0.842541 0.059765 -0.041962 499527.000000 0 0 1
9.532149 -28.264737 26.114775 39.645160 -1.245529 0.851690 0.046857 -0.042033 -448356.000000 0 0 1
8.076949 -27.865737 26.445215 39.256666 -1.288675 0.831661 0.067243 -0.054801 240643.000000 0 0 1
7.145949 -27.763637 25.361085 38.276217 -1.318879 0.846537 0.113394 -0.050944 437163.000000 0 0 1
7.464949 -26.765037 24.388115 36.971243 -1.298802 0.850442 0.112895 -0.044481 -436184.000000 0 0 1
6.332149 -26.615637 23.319095 35.948136 -1.337228 0.864938 0.132865 -0.034758 -185835.000000 0 0 1
6.223449 -27.553137 22.285165 35.979651 -1.348653 0.902840 0.124057 -0.039603 -131765.000000 0 0 1
5.545349 -28.735837 22.631455 36.995702 -1.380163 0.912548 0.131572 -0.043354 1137670.000000 0 0 1
4.063149 -28.732737 23.209565 37.158623 -1.430316 0.896167 0.152569 -0.045670 816208.000000 0 0 1
2.968149 -28.662537 22.231055 36.394653 -1.467609 0.913684 0.168359 -0.042046 2095560.000000 0 0 1
1.736549 -28.432337 22.988335 36.604330 -1.509796 0.891787 0.176657 -0.034645 886512.000000 0 0 1
1.469349 -26.981737 23.318465 35.692071 -1.516393 0.858830 0.165295 -0.041535 -736309.000000 0 0 1
2.427649 -26.399037 24.202445 35.896532 -1.479094 0.830878 0.124849 -0.039472 16554.000000 0 0 1
2.192049 -25.147437 24.737915 35.343502 -1.483848 0.795499 0.107072 -0.037579 -311317.000000 0 0 1
3.365349 -24.643637 25.611405 35.701239 -1.435075 0.770760 0.087937 -0.030942 128186.000000 0 0 1
4.532749 -24.303837 24.878215 35.073464 -1.386411 0.782267 0.096300 -0.034268 -34102.400000 0 0 1
5.504449 -23.584937 25.607175 35.245931 -1.341512 0.757540 0.079506 -0.032578 79093.200000 0 0 1
5.193849 -22.116437 26.031965 34.551065 -1.340135 0.717526 0.057338 -0.020114 -455738.000000 0 0 1
5.262849 -21.257437 24.944755 33.193629 -1.328100 0.720475 0.066620 -0.015164 170941.000000 0 0 1
4.283149 -20.249637 25.068485 32.508801 -1.362351 0.690184 0.076885 -0.031388 -157005.000000 0 0 1
4.443949 -19.130137 24.001925 31.012953 -1.342544 0.685769 0.086249 -0.030294 -95256.600000 0 0 1
5.651249 -18.408137 23.917605 30.705829 -1.272932 0.677843 0.060867 -0.014615 -300957.000000 0 0 1
5.660949 -17.420137 22.912275 29.333937 -1.256595 0.674396 0.058292 -0.007765 496111.000000 0 0 1
7.025749 -17.098937 22.223515 28.907083 -1.180939 0.693847 0.067652 -0.010468 -1030630.000000 0 0 1
7.560249 -18.179637 21.422865 29.096318 -1.176690 0.743249 0.074656 -0.011819 838545.000000 0 0 1
8.889549 -17.887037 20.941065 28.939564 -1.109565 0.761773 0.090061 -0.015980 998133.000000 0 0 1
9.980349 -17.762137 22.030665 30.007517 -1.058871 0.746351 0.109957 -0.016943 -1554980.000000 0 0 1
9.938749 -16.879637 23.085605 30.276163 -1.038652 0.703626 0.116283 -0.002236 -774868.000000 0 0 1
11.099449 -16.942537 23.854435 31.293472 -0.990828 0.703966 0.133931 -0.002566 -469511.000000 0 0 1
11.126049 -16.070737 25.152125 31.854151 -0.965245 0.660635 0.168249 -0.024081 -315509.000000 0 0 1
11.481349 -14.726037 24.942915 31.158090 -0.908579 0.642621 0.205393 -0.033484 156698.000000 0 0 1
11.645149 -13.945437 26.112935 31.811477 -0.875045 0.607872 0.193158 -0.036526 29951.700000 0 0 1
11.790649 -12.443937 25.898725 31.058251 -0.812348 0.584703 0.206425 -0.034747 779759.000000 0 0 1
10.553549 -11.956637 25.354385 29.953020 -0.847649 0.561473 0.214753 -0.032020 600688.000000 0 0 1
10.562949 -10.569137 25.116535 29.225381 -0.785691 0.536685 0.210614 -0.027841 -12391.600000 0 0 1
9.367649 -10.051437 24.298155 27.913878 -0.820596 0.514643 0.199136 -0.023839 363312.000000 0 0 1
8.131949 -10.012037 24.992255 28.124407 -0.888650 0.476442 0.160863 -0.020814 32379.500000 0 0 1
7.112949 -9.504137 24.156315 26.915613 -0.928316 0.456766 0.152451 -0.014854 215476.000000 0 0 1
5.691249 -9.466337 24.756795 27.109053 -1.029488 0.419654 0.113853 -0.027026 -888866.000000 0 0 1
5.408649 -8.550537 25.801855 27.714633 -1.006786 0.373700 0.118636 -0.026725 322475.000000 0 0 1
4.116049 -8.651137 26.392235 28.077288 -1.126711 0.348209 0.092675 -0.020963 952255.000000 0 0 1
2.845449 -8.580837 25.508955 27.063520 -1.250602 0.340587 0.064259 -0.021929 -638257.000000 0 0 1
2.788149 -7.374137 24.779115 26.003004 -1.209312 0.308030 0.079760 -0.024197 558547.000000 0 0 1
1.689449 -7.338837 23.829835 24.991475 -1.344532 0.306092 0.066410 -0.026692 957272.000000 0 1 0
1.538849 -5.978737 23.153515 23.962442 -1.318877 0.260575 0.061804 -0.033604 34146.700000 0 1 0
1.250449 -4.909637 24.050015 24.577864 -1.321406 0.207624 0.061294 -0.026040 59401.600000 0 1 0
1.703149 -3.606537 23.579605 23.914548 -1.129603 0.167563 0.065602 -0.021147 -68519.600000 0 1 0
0.887049 -2.973437 22.359445 22.573723 -1.280877 0.137894 0.043452 -0.031085 1078580.000000 0 1 0
-0.104851 -1.986037 22.720525 22.807402 1.518051 0.087311 0.044728 -0.028109 924916.000000 0 1 0
-1.323551 -2.542737 23.240575 23.416695 1.090866 0.122724 0.042551 -0.027519 16238.100000 0 1 0
-2.291151 -1.465037 23.698235 23.853764 0.568911 0.114256 0.040300 -0.027708 -536545.000000 0 1 0
-1.762851 -0.724037 24.778765 24.851943 0.389713 0.076759 0.059807 -0.020235 -132623.000000 0 1 0
-2.516551 0.370963 25.172635 25.300834 -0.146355 0.100710 0.058854 -0.019222 -391412.000000 0 0 1
-2.012051 1.016963 26.557965 26.653481 -0.467987 0.084685 0.112279 -0.027370 -212452.000000 0 0 1
-2.239851 0.194963 27.704005 27.795086 -0.086824 0.080978 0.132489 -0.026006 -271692.000000 0 0 1
-1.350551 -0.857037 27.907625 27.953426 0.565461 0.057253 0.130321 -0.020803 -1230210.000000 0 0 1
-0.008051 -0.458037 28.555095 28.558769 1.553222 0.016042 0.164187 -0.016269 -517344.000000 0 0 1
0.903249 0.147963 27.639195 27.654346 0.162370 0.033103 0.120894 -0.017186 143986.000000 0 0 1
1.496549 -0.669037 26.635295 26.685693 -0.420401 0.061468 0.104622 -0.015637 -270039.000000 0 0 1
2.648349 -1.590037 27.174705 27.349709 -0.540705 0.113186 0.119423 -0.018241 -459281.000000 0 0 1
2.213949 -2.636937 27.962535 28.173718 -0.872376 0.122516 0.131491 -0.022398 -692421.000000 0 0 1
3.167649 -3.551237 28.377185 28.773424 -0.842427 0.166149 0.152040 -0.020977 -199350.000000 0 0 1
3.847249 -4.545337 27.344845 27.985746 -0.868386 0.214424 0.130422 -0.017953 155983.000000 0 0 1
4.886949 -3.942337 26.631735 27.361901 -0.678817 0.231538 0.130899 -0.018349 -421668.000000 0 0 1
5.434649 -4.781537 25.620325 26.623290 -0.721556 0.275359 0.130700 -0.023073 -943948.000000 0 0 1
6.627549 -4.086837 24.938265 26.125537 -0.552568 0.302633 0.136889 -0.032071 239471.000000 0 0 1
7.785749 -4.129237 25.827625 27.289828 -0.487638 0.328834 0.136951 -0.032554 1124220.000000 0 0 1
8.509849 -5.392437 25.772655 27.671748 -0.564810 0.372637 0.179058 -0.021607 -449895.000000 0 0 1
9.468449 -5.565537 24.589865 26.931175 -0.531399 0.420063 0.156170 -0.021765 -378584.000000 0 0 1
8.782949 -5.902237 23.378795 25.662125 -0.591693 0.425037 0.165332 -0.029888 -192058.000000 0 0 1
9.592649 -5.935537 22.235375 24.933139 -0.554099 0.469488 0.164485 -0.036830 36160.800000 0 1 0
9.803149 -4.500137 21.638465 24.178009 -0.430355 0.462444 0.188853 -0.032332 886688.000000 0 1 0
8.516549 -3.895337 21.433465 23.390141 -0.428978 0.411939 0.156234 -0.027193 362496.000000 0 1 0
8.510849 -2.745137 20.547165 22.408845 -0.312010 0.410498 0.139478 -0.026631 436899.000000 0 1 0
7.112749 -2.108037 20.219165 21.537169 -0.288127 0.351657 0.126732 -0.026855 634779.000000 0 1 0
6.605249 -1.514037 21.412365 22.459096 -0.225325 0.306505 0.132568 -0.025358 908405.000000 0 1 0
5.256649 -1.065037 21.140465 21.810225 -0.199902 0.248463 0.054846 -0.018059 1005840.000000 0 1 0
4.552049 -0.285037 22.302905 22.764489 -0.062536 0.201720 0.047960 -0.022249 -246095.000000 0 1 0
3.228749 0.037963 21.988565 22.224384 0.011757 0.145806 0.043329 -0.026063 -504745.000000 0 1 0
2.605249 0.460963 23.203115 23.353466 0.175124 0.113534 0.062525 -0.027611 144392.000000 0 1 0
1.105749 0.814963 23.122995 23.163759 0.635144 0.059335 0.060881 -0.035407 -34656.000000 0 1 0
0.921549 2.152963 22.631005 22.751855 1.166355 0.103115 0.065994 -0.031167 -1155560.000000 0 1 0
-0.399251 2.440963 22.817275 22.950942 -1.408669 0.107979 0.048327 -0.022113 -1421930.000000 0 1 0
-0.722451 3.924963 22.498985 22.850199 -1.388768 0.175555 0.054006 -0.014633 1398.450000 0 1 0
-0.350751 4.904963 23.509345 24.018139 -1.499409 0.206199 0.080051 -0.018880 321048.000000 0 1 0
-1.182151 6.045963 23.288855 24.089872 -1.377705 0.258600 0.064754 -0.015397 79103.200000 0 1 0
-0.867151 7.301963 24.117415 25.213495 -1.452594 0.295941 0.078559 -0.013398 -394620.000000 0 0 1
0.053949 8.162963 23.534695 24.910214 1.564187 0.333871 0.072133 -0.016122 -315688.000000 0 1 0
0.075849 9.376963 24.331055 26.075533 1.562708 0.367860 0.102918 -0.020100 -68787.800000 0 0 1
0.703049 10.628963 23.615745 25.906998 1.504748 0.423738 0.104493 -0.027331 -1102110.000000 0 0 1
2.044549 10.822963 23.472825 25.928560 1.384088 0.438738 0.096683 -0.023961 -1497530.000000 0 0 1
2.647149 11.426963 24.628075 27.278654 1.343154 0.444483 0.124155 -0.033629 -539064.000000 0 0 1
3.945849 12.162963 24.336745 27.491536 1.257093 0.483776 0.112586 -0.042386 1665580.000000 0 0 1
5.214749 11.455963 24.046875 27.141940 1.143627 0.482220 0.113307 -0.034009 1982000.000000 0 0 1
5.140649 10.819963 22.766195 25.725425 1.127260 0.484370 0.100762 -0.030478 -262914.000000 0 0 1
6.496549 10.265963 22.231895 25.334804 1.006590 0.500122 0.115553 -0.029758 77467.400000 0 0 1
7.465649 11.219963 21.968565 25.772880 0.983678 0.550256 0.103466 -0.030349 -998121.000000 0 0 1
8.539649 10.632963 21.336265 25.322356 0.894150 0.568729 0.107253 -0.031390 -180141.000000 0 0 1
9.525249 11.645963 20.627165 25.531133 0.885235 0.630179 0.095114 -0.036045 -199467.000000 0 0 1
8.977149 12.345963 19.499665 24.763864 0.942092 0.664177 0.093292 -0.037899 -106048.000000 0 1 0
9.776549 13.346963 18.927465 25.139039 0.938595 0.718322 0.106472 -0.038400 11189.500000 0 0 1
11.178149 12.907963 18.402565 25.104201 0.857093 0.748005 0.087508 -0.036713 338690.000000 0 0 1
12.201449 12.794963 19.394465 26.243698 0.809138 0.739190 0.094348 -0.037867 756618.000000 0 0 1
13.367549 12.246963 18.745565 26.078261 0.741678 0.768693 0.091439 -0.041059 787899.000000 0 0 1
14.642449 12.116963 19.608665 27.307908 0.691299 0.769788 0.103906 -0.029958 -32873.300000 0 0 1
15.331449 13.274963 19.964865 28.458282 0.713633 0.793228 0.104142 -0.030320 456206.000000 0 0 1
16.586449 12.881963 20.550765 29.383485 0.660344 0.796241 0.111890 -0.025316 917712.000000 0 0 1
17.448049 14.105963 21.009865 30.738039 0.679875 0.818231 0.110413 -0.013632 14525.800000 0 0 1
16.903749 14.816963 22.030865 31.474404 0.719707 0.795453 0.116469 -0.013216 -308001.000000 0 0 1
17.798949 15.830963 22.314865 32.640085 0.726946 0.818024 0.108160 -0.001178 -231281.000000 0 0 1
-22.396351 12.775406 -24.508941 35.573806 -0.518388 2.330850 0.102689 -0.004794 186027.000000 0 0 1
-22.210651 12.517706 -25.914341 36.353253 -0.513217 2.364347 0.100075 -0.013059 -553704.000000 0 0 1
-22.855351 13.452106 -26.665491 37.608172 -0.531977 2.358924 0.095059 -0.010717 -298189.000000 0 0 1
-22.601651 13.417006 -28.173651 38.530576 -0.535722 2.390879 0.098992 -0.018299 1124450.000000 0 0 1
-21.214451 13.632406 -28.515981 38.066476 -0.571156 2.417514 0.111854 -0.019464 709458.000000 0 0 1
-21.009451 14.316706 -29.709481 39.102664 -0.598162 2.433773 0.103336 -0.029688 -252979.000000 0 0 1
-19.614751 14.937606 -29.779461 38.661180 -0.650852 2.450057 0.086213 -0.029665 -280895.000000 0 0 1
-18.535351 14.053306 -30.096661 38.037661 -0.648722 2.483619 0.088986 -0.024298 -1436700.000000 0 0 1
-17.363951 14.692306 -29.891121 37.561280 -0.702248 2.491117 0.087624 -0.022833 -1165120.000000 0 0 1
-16.582151 14.250406 -28.671501 36.056854 -0.709916 2.490092 0.119405 -0.018528 -146652.000000 0 0 1
-17.372751 14.600606 -27.537191 35.683148 -0.698913 2.452328 0.137184 -0.024033 194739.000000 0 0 1
-17.695351 13.438406 -26.822321 34.830347 -0.649510 2.449770 0.154285 -0.019317 212992.000000 0 0 1
-18.376851 13.572706 -25.447271 34.197815 -0.636150 2.410013 0.160907 -0.022802 406523.000000 0 0 1
-17.439851 14.048906 -24.501341 33.193913 -0.678124 2.401087 0.217752 -0.040214 529718.000000 0 0 1
-18.131151 14.192206 -23.285241 32.746905 -0.664135 2.361811 0.201658 -0.038130 364852.000000 0 0 1
-17.263151 14.875006 -22.185741 31.803919 -0.711226 2.342809 0.207608 -0.036703 239523.000000 0 0 1
-16.841851 16.159206 -22.573041 32.470141 -0.764716 2.339486 0.182021 -0.036420 -170014.000000 0 0 1
-16.157051 16.791806 -21.512341 31.714285 -0.804661 2.316266 0.171154 -0.032270 -223513.000000 0 0 1
-15.861451 18.319006 -21.894841 32.658164 -0.857174 2.305577 0.152428 -0.031994 658758.000000 0 0 1
-17.053851 19.086006 -21.749741 33.588103 -0.841569 2.275152 0.098607 -0.025554 571091.000000 0 0 1
-18.015351 18.945506 -22.787541 34.680788 -0.810559 2.287715 0.091008 -0.028851 441980.000000 0 0 1
-19.312651 19.804806 -22.590541 35.714722 -0.797979 2.255608 0.059540 -0.023961 432087.000000 0 0 1
-19.044451 21.154806 -22.641541 36.371091 -0.837847 2.242748 0.043391 -0.017616 -421083.000000 0 0 1
-20.195251 21.904506 -22.912241 37.584921 -0.825976 2.226368 0.050708 -0.029011 -404376.000000 0 0 1
-19.882751 23.312006 -23.555441 38.647538 -0.864623 2.226218 0.030453 -0.024422 -296556.000000 0 0 1
-19.316951 24.142306 -22.617441 38.308539 -0.895977 2.202353 0.035903 -0.023192 -111563.000000 0 0 1
-18.311151 24.961306 -23.203641 38.688163 -0.937886 2.213998 0.043341 -0.018486 -139758.000000 0 0 1
-17.201851 25.313006 -22.179041 37.796320 -0.973917 2.197903 0.053932 -0.032795 -105721.000000 0 0 1
-16.193951 24.340706 -21.903141 36.530283 -0.983738 2.213783 0.086773 -0.047699 -173800.000000 0 0 1
-16.620351 23.061406 -21.468441 35.622443 -0.946313 2.217634 0.092901 -0.031414 -795845.000000 0 0 1
-15.464751 22.036806 -21.283941 34.318879 -0.958884 2.239771 0.146039 -0.030341 341281.000000 0 0 1
-14.601251 22.418506 -20.238041 33.546449 -0.993505 2.218409 0.185183 -0.042635 -414466.000000 0 0 1
-13.607151 21.436706 -20.023141 32.335941 -1.005210 2.238548 0.179911 -0.038036 -10120.900000 0 0 1
-12.788151 21.809506 -18.769941 31.488125 -1.040469 2.209426 0.166833 -0.038479 -160803.000000 0 0 1
-13.487751 21.742406 -17.559341 31.031953 -1.015553 2.172257 0.179810 -0.038457 -50953.900000 0 0 1
-14.273851 22.870506 -17.196641 31.976981 -1.012833 2.138600 0.177344 -0.042065 132616.000000 0 0 1
-14.757451 22.828106 -15.726041 31.404031 -0.996914 2.095279 0.175602 -0.047547 449321.000000 0 0 1
-13.711751 23.039606 -14.765941 30.608309 -1.033959 2.074207 0.170393 -0.053667 450777.000000 0 0 1
-14.150551 22.869906 -13.425841 30.058674 -1.016710 2.033819 0.175143 -0.047090 -249715.000000 0 0 1
-13.150651 23.498606 -12.478241 29.678790 -1.060586 2.004730 0.212686 -0.052479 -307046.000000 0 0 1
-13.063451 24.944306 -12.619741 30.856604 -1.088365 1.992133 0.184007 -0.059139 -74298.100000 0 0 1
-12.143451 25.340006 -11.655341 30.420820 -1.123910 1.963986 0.140005 -0.049435 -305072.000000 0 0 1
-11.900551 26.874006 -11.774441 31.661850 -1.153923 1.951831 0.143898 -0.048909 -113445.000000 0 0 1
-11.358251 27.309306 -12.991741 32.304696 -1.176649 1.984674 0.136548 -0.044399 -32491.600000 0 0 1
-11.514651 28.717606 -13.138841 33.614241 -1.189461 1.972374 0.122394 -0.033073 -322752.000000 0 0 1
-10.699651 29.262506 -14.347141 34.301855 -1.220254 2.002327 0.146981 -0.052602 846528.000000 0 0 1
-9.279051 29.146406 -14.344541 33.784310 -1.262582 2.009307 0.149085 -0.051809 366779.000000 0 0 1
-8.768151 27.877706 -14.578041 32.658326 -1.266070 2.033513 0.152061 -0.051044 309519.000000 0 0 1
-7.321251 27.778006 -15.191341 32.496079 -1.313094 2.057237 0.172894 -0.056075 653638.000000 0 0 1
-6.293851 28.157306 -14.336841 32.217875 -1.350887 2.031967 0.166512 -0.049113 -375821.000000 0 0 1
-5.015351 27.840706 -14.884241 31.965595 -1.392563 2.055146 0.160088 -0.051184 1064610.000000 0 0 1
-3.785051 28.536706 -14.229041 32.111303 -1.438928 2.029868 0.158192 -0.038668 114195.000000 0 0 1
-3.645951 29.975206 -14.347541 33.431390 -1.449759 2.014363 0.149833 -0.032648 -148129.000000 0 0 1
-4.576351 30.769406 -13.630141 33.962922 -1.423148 1.983758 0.151440 -0.035649 16000.400000 0 0 1
-4.432851 32.318406 -13.875241 35.449286 -1.434485 1.972961 0.137418 -0.044074 -542443.000000 0 0 1
-3.435951 33.023506 -13.235241 35.742542 -1.467124 1.950122 0.109464 -0.037757 -727793.000000 0 0 1
-3.449051 -33.025037 -13.471041 35.833197 1.466736 1.956205 0.110537 -0.033902 542411.000000 0 0 1
-2.531051 -32.139437 -12.553941 34.596981 1.492206 1.942134 0.093230 -0.037958 467028.000000 0 0 1
-2.933351 -32.427137 -11.239741 34.444964 1.480582 1.903194 0.080059 -0.044281 531861.000000 0 0 1
-2.218651 -31.534737 -10.358441 33.266490 1.500556 1.887439 0.063035 -0.038483 -142863.000000 0 0 1
-2.527251 -31.697837 -8.838941 33.004042 1.491235 1.841920 0.057351 -0.038224 -184801.000000 0 0 1
-1.717451 -30.803437 -8.091341 31.894689 1.515099 1.827289 0.087436 -0.045095 -62721.300000 0 0 1
-1.940951 -30.851637 -6.710741 31.632655 1.507967 1.784567 0.083218 -0.053986 -343098.000000 0 0 1
-0.837851 -30.165937 -5.921941 30.753132 1.543029 1.764571 0.105284 -0.053148 -308556.000000 0 0 1
-0.776351 -30.407937 -4.554341 30.756908 1.545271 1.719418 0.104833 -0.058110 -252211.000000 0 0 1
0.303349 -29.717137 -3.963941 29.981879 -1.560589 1.703396 0.096277 -0.051226 -87814.400000 0 0 1
0.522149 -29.779437 -2.385441 29.879388 -1.553264 1.650717 0.099097 -0.046418 -295088.000000 0 0 1
0.663149 -31.122137 -1.812841 31.181943 -1.549492 1.628967 0.099924 -0.039007 161148.000000 0 0 1
1.741549 -31.939837 -2.233241 32.065146 -1.516324 1.640500 0.085968 -0.036087 -185067.000000 0 0 1
3.152649 -31.635337 -1.730141 31.839082 -1.471468 1.625163 0.080544 -0.027488 -806958.000000 0 0 1
3.335749 -32.025137 -0.363041 32.200442 -1.467010 1.582071 0.073317 -0.019718 -292509.000000 0 0 1
4.522149 -31.692337 0.303859 32.014784 -1.429064 1.561305 0.067264 -0.013670 -133499.000000 0 0 1
4.946549 -30.193837 0.474859 30.600027 -1.408412 1.555277 0.043035 -0.021102 -525143.000000 0 0 1
5.383349 -29.644537 -0.738841 30.138429 -1.391157 1.595314 0.044637 -0.024787 -30257.600000 0 0 1
5.321949 -28.258037 -0.625341 28.761621 -1.384643 1.592540 0.062969 -0.028303 -344000.000000 0 0 1
4.787149 -27.640537 -1.924141 28.117938 -1.399304 1.639281 0.066161 -0.026615 -1269500.000000 0 0 1
3.484049 -27.973337 -2.220041 28.276753 -1.446885 1.649388 0.086828 -0.036467 -967148.000000 0 0 1
2.864049 -26.962637 -3.007241 27.280581 -1.464970 1.681255 0.094925 -0.040326 92054.200000 0 0 1
3.312949 -26.918237 -4.499041 27.491972 -1.448338 1.735185 0.094201 -0.037885 -117749.000000 0 0 1
2.605549 -27.872237 -5.260041 28.483654 -1.477585 1.756531 0.103948 -0.041623 21734.400000 0 0 1
3.131849 -27.859437 -6.564341 28.793181 -1.458850 1.800801 0.111933 -0.050207 1983.220000 0 0 1
2.407949 -28.835137 -7.490241 29.889247 -1.487482 1.824096 0.098816 -0.047359 -1095950.000000 0 0 1
1.180049 -28.357037 -7.887941 29.457320 -1.529206 1.841880 0.098273 -0.045283 -1239540.000000 0 0 1
0.946149 -28.686637 -9.207141 30.142823 -1.537826 1.881208 0.093911 -0.035354 -406196.000000 0 0 1
-0.491351 -28.304337 -9.557541 29.878479 1.553439 1.896400 0.079913 -0.033753 -1081610.000000 0 0 1
-0.658551 -26.910237 -9.406041 28.514350 1.546329 1.906963 0.081128 -0.037576 -104180.000000 0 0 1
-2.021251 -26.532037 -9.420741 28.227377 1.494762 1.911070 0.086175 -0.033575 462491.000000 0 0 1
-2.901051 -26.939337 -8.192441 28.306538 1.463521 1.864416 0.090753 -0.024354 -308863.000000 0 0 1
-2.517151 -26.272837 -6.975241 27.299304 1.475280 1.829171 0.108636 -0.038139 71484.100000 0 0 1
-1.322051 -26.737937 -6.364541 27.516767 1.521392 1.804207 0.105278 -0.045920 397953.000000 0 0 1
-1.213951 -26.219837 -4.895841 26.700614 1.524530 1.755200 0.128353 -0.047684 738599.000000 0 0 1
-2.308751 -26.810037 -4.154341 27.228055 1.484893 1.723970 0.143131 -0.052961 597539.000000 0 0 1
-2.105451 -26.689137 -2.742041 26.912112 1.492071 1.672862 0.146569 -0.049295 412219.000000 0 0 1
-3.388051 -26.976237 -1.888741 27.253690 1.445857 1.640154 0.159900 -0.051777 146806.000000 0 0 1
-4.328451 -25.935537 -1.910141 26.363540 1.405428 1.643314 0.158492 -0.047993 -299669.000000 0 0 1
-5.119151 -26.001637 -0.704641 26.510137 1.376404 1.597380 0.177962 -0.055750 -286358.000000 0 0 1
-6.199551 -24.963837 -0.738141 25.732712 1.327379 1.599485 0.162966 -0.052257 -573454.000000 0 0 1
-5.647051 -23.668137 -0.705041 24.342699 1.336582 1.599764 0.139921 -0.049256 -209951.000000 0 1 0
-6.521451 -22.797737 -0.012441 23.712155 1.292180 1.571321 0.146474 -0.054028 125198.000000 0 1 0
-5.833651 -21.482337 0.411559 22.264134 1.305635 1.552310 0.107797 -0.050593 160009.000000 0 1 0
-4.767751 -21.659137 1.320259 22.216948 1.354125 1.511336 0.105765 -0.049528 106071.000000 0 1 0
-4.155551 -20.382537 1.642059 20.866547 1.369675 1.492021 0.070581 -0.040265 -303597.000000 0 1 0
-3.123351 -20.306537 2.786359 20.733417 1.418182 1.435999 0.067502 -0.030605 397.139000 0 1 0
-3.704051 -20.464537 4.079059 21.193301 1.391736 1.377118 0.051438 -0.013687 173877.000000 0 1 0
-2.796651 -20.322437 5.182859 21.158562 1.434041 1.323325 0.052541 -0.011885 535537.000000 0 1 0
-1.820551 -21.502537 5.410859 22.247492 1.486331 1.325120 0.069244 -0.034682 476593.000000 0 1 0
-0.772151 -21.612337 4.454659 22.080157 1.535084 1.367653 0.084642 -0.038723 -37950.700000 0 1 0
-0.001551 -22.790037 4.634059 23.256404 1.570728 1.370194 0.094914 -0.043625 -1083690.000000 0 1 0
0.915549 -23.018437 3.429559 23.290525 -1.531043 1.423008 0.101810 -0.050636 -569487.000000 0 1 0
1.992349 -22.158237 3.275859 22.487512 -1.481123 1.424602 0.076215 -0.046706 9870.210000 0 1 0
3.039049 -22.513337 4.206459 23.103690 -1.436619 1.387706 0.101858 -0.050611 -1001380.000000 0 1 0
4.318749 -21.697237 4.258059 22.528932 -1.374318 1.380649 0.101466 -0.041201 -247073.000000 0 1 0
5.088449 -21.837537 3.090259 22.634488 -1.341867 1.433840 0.073296 -0.024020 403874.000000 0 1 0
6.329449 -21.120037 3.270559 22.289335 -1.279625 1.423533 0.084043 -0.018470 1226090.000000 0 1 0
7.066549 -20.692937 1.958959 21.953845 -1.241718 1.481447 0.076732 -0.016162 -152685.000000 0 1 0
7.796249 -21.706137 1.366059 23.104199 -1.225973 1.511636 0.074121 -0.010868 -221052.000000 0 1 0
7.452449 -21.681837 -0.044941 22.926908 -1.239728 1.572757 0.064876 -0.021456 -4229.710000 0 1 0
8.423249 -22.576837 -0.805341 24.110439 -1.213699 1.604205 0.054608 -0.007565 662975.000000 0 1 0
9.654149 -21.898437 -1.103941 23.957522 -1.155569 1.616892 0.048413 -0.002659 79617.500000 0 1 0
10.613049 -22.732237 -1.706241 25.145630 -1.134000 1.638703 0.049998 -0.006508 523194.000000 0 0 1
11.992549 -22.081237 -1.984541 25.205965 -1.073258 1.649611 0.055956 -0.005533 341355.000000 0 0 1
11.869349 -21.050837 -2.970141 24.348325 -1.057388 1.693086 0.062072 0.004040 151813.000000 0 1 0
13.061049 -20.907937 -3.747541 24.935455 -1.012418 1.721658 0.063781 0.006916 251298.000000 0 1 0
13.158749 -19.617537 -4.601541 24.066047 -0.979962 1.763186 0.066751 -0.008245 -147559.000000 0 1 0
13.590949 -18.485837 -3.905941 23.274373 -0.936829 1.739416 0.094365 -0.006471 -6213.470000 0 1 0
13.476649 -17.275737 -4.656841 22.399941 -0.908313 1.780219 0.095644 -0.016976 -585408.000000 0 1 0
14.039849 -16.065637 -3.927941 21.694488 -0.852587 1.752858 0.105032 -0.007995 2060580.000000 0 1 0
15.468649 -15.984237 -3.592541 22.531784 -0.801789 1.730923 0.100797 -0.005758 1496720.000000 0 1 0
16.304149 -15.755337 -4.675541 23.149873 -0.768281 1.774164 0.103763 -0.012616 -920419.000000 0 1 0
17.717149 -15.458437 -4.141241 23.874893 -0.717420 1.745134 0.106131 -0.011967 -314565.000000 0 1 0
18.380049 -16.529237 -3.534441 24.970666 -0.732430 1.712817 0.115984 -0.017977 -521093.000000 0 1 0
19.706349 -16.174437 -3.304941 25.707494 -0.687280 1.699713 0.076100 -0.005936 -777489.000000 0 0 1
20.537249 -17.257737 -2.609841 26.952168 -0.698844 1.667781 0.094098 -0.026122 -80255.800000 0 0 1
21.906149 -16.946637 -2.795641 27.836729 -0.658436 1.671396 0.098449 -0.021772 138594.000000 0 0 1
22.683449 -17.641837 -1.820141 28.793857 -0.661020 1.634051 0.091180 -0.014723 -156702.000000 0 0 1
24.205949 -17.470437 -1.842141 29.908822 -0.625169 1.632427 0.105146 -0.019568 -391731.000000 0 0 1
24.570949 -16.143337 -1.471141 29.436425 -0.581287 1.620794 0.122408 -0.025040 253968.000000 0 0 1
25.909549 -16.145537 -1.001041 30.544806 -0.557268 1.603575 0.171238 -0.020636 111440.000000 0 0 1
26.414149 -14.722537 -0.556941 30.245174 -0.508486 1.589212 0.162672 -0.024161 -461189.000000 0 0 1
25.745249 -13.945337 0.394359 29.282176 -0.496423 1.557328 0.148738 -0.023782 -717386.000000 0 0 1
26.479249 -13.065937 1.149059 29.549783 -0.458386 1.531901 0.138669 -0.025115 -486901.000000 0 0 1
25.684949 -12.468637 2.363559 28.649083 -0.451936 1.488202 0.151291 -0.031048 364238.000000 0 0 1
25.247749 -13.285137 3.462359 28.739027 -0.484380 1.450027 0.166099 -0.022581 1308110.000000 0 0 1
26.388149 -13.874537 4.139659 30.099402 -0.484063 1.432826 0.178736 -0.009029 965417.000000 0 0 1
25.963849 -14.545137 5.468659 30.258697 -0.510646 1.389068 0.156822 -0.007508 -34789.800000 0 0 1
25.274149 -15.744437 5.291059 30.243433 -0.557121 1.394942 0.171729 -0.021950 -31851.500000 0 0 1
24.758949 -16.200737 6.533359 30.301060 -0.579419 1.353475 0.139594 -0.022197 -306559.000000 0 0 1
24.123249 -17.570037 6.381159 30.518135 -0.629497 1.360148 0.126796 -0.021452 -151602.000000 0 0 1
24.987849 -18.626137 5.945059 31.728053 -0.640556 1.382307 0.127541 -0.020025 -292657.000000 0 0 1
24.279149 -19.802637 5.670259 31.839808 -0.684195 1.391754 0.089752 -0.011118 -633174.000000 0 0 1
2.012749 24.553906 -2.582941 24.771295 1.489007 1.675258 0.050401 -0.007333 1028530.000000 0 1 0
3.189749 25.410706 -2.581441 25.739898 1.445922 1.671255 0.056146 -0.013093 729237.000000 0 0 1
4.026749 25.181906 -3.672941 25.764968 1.412232 1.713839 0.078373 -0.024882 -296627.000000 0 0 1
5.416549 25.850606 -3.655141 26.663700 1.364252 1.708312 0.061645 -0.017376 -542322.000000 0 0 1
6.239749 25.260806 -2.739841 26.163897 1.328631 1.675707 0.024363 -0.028974 -1093140.000000 0 0 1
6.718149 26.177906 -1.830641 27.088144 1.319583 1.638429 0.028136 -0.020496 -561499.000000 0 0 1
7.844549 25.410606 -1.119841 26.617474 1.271367 1.612880 0.007129 -0.030137 751391.000000 0 0 1
8.998649 25.218806 -1.999041 26.850699 1.228056 1.645316 0.014307 -0.039932 602316.000000 0 0 1
9.847249 24.206006 -1.522941 26.176677 1.184433 1.629008 0.021132 -0.032709 -131091.000000 0 0 1
10.989449 23.963506 -2.524641 26.483796 1.140821 1.666269 0.057224 -0.032293 -277647.000000 0 0 1
12.000249 25.020806 -2.611541 27.872332 1.123593 1.664630 0.064329 -0.031717 447578.000000 0 0 1
12.778149 24.823606 -3.749741 28.170074 1.095412 1.704303 0.107931 -0.036548 49415.800000 0 0 1
13.819349 23.696506 -3.819841 27.696390 1.042836 1.709156 0.100693 -0.033643 -802700.000000 0 0 1
13.229849 22.434306 -3.962841 26.344470 1.037974 1.721793 0.105747 -0.035060 -239916.000000 0 0 1
13.124149 22.026606 -5.307341 26.183631 1.033447 1.774908 0.143317 -0.048537 -409806.000000 0 0 1
12.142449 20.865206 -5.476841 24.754630 1.043757 1.793887 0.146743 -0.049228 900342.000000 0 1 0
10.786049 21.234306 -5.151541 24.367458 1.100806 1.783814 0.098939 -0.046158 815007.000000 0 1 0
9.935849 20.081806 -4.991141 22.954553 1.111343 1.789983 0.084028 -0.041784 407576.000000 0 1 0
8.472749 20.572806 -4.879941 22.778096 1.180123 1.786708 0.061279 -0.028729 -40369.800000 0 1 0
8.117249 21.138006 -3.595941 22.926749 1.204148 1.728291 0.059913 -0.024452 107876.000000 0 1 0
6.827649 21.710206 -3.569141 23.036680 1.266099 1.726356 0.052887 -0.014277 174512.000000 0 1 0
6.321149 22.181806 -2.187741 23.168420 1.293185 1.665365 0.031232 -0.021239 -94908.100000 0 1 0
5.842549 21.186506 -1.338741 22.018076 1.301717 1.631636 0.020578 -0.031349 10376.900000 0 1 0
5.267549 21.778606 -0.195041 22.407427 1.333486 1.579501 0.033468 -0.025305 -98457.900000 0 1 0
4.738949 20.878906 0.974359 21.432119 1.347605 1.525318 0.019328 -0.029479 -157090.000000 0 1 0
4.086049 21.610006 2.001859 22.083831 1.383921 1.480024 0.035863 -0.024203 253919.000000 0 1 0
3.640449 20.756606 3.046659 21.292527 1.397175 1.427218 0.045252 -0.022698 -128112.000000 0 1 0
2.766849 21.430706 4.127859 21.999315 1.442400 1.382042 0.044683 -0.016865 -191512.000000 0 1 0
1.464949 21.614106 3.653659 21.969636 1.503122 1.403715 0.028660 -0.006577 -865397.000000 0 1 0
0.499749 21.963306 4.579059 22.441131 1.548046 1.365306 0.040229 -0.015227 -64979.300000 0 1 0
-0.895651 22.146606 3.941959 22.512516 -1.530376 1.394788 0.031319 -0.007178 247347.000000 0 1 0
-1.899451 22.519606 4.859559 23.116139 -1.486649 1.358993 0.055894 -0.019627 -272750.000000 0 1 0
-3.145051 22.722706 4.237959 23.327516 -1.433260 1.388110 0.078933 -0.017136 670794.000000 0 1 0
-4.384651 22.698906 5.200859 23.696296 -1.379981 1.349515 0.089915 -0.035158 710014.000000 0 1 0
-4.864651 24.001106 5.584159 25.117738 -1.370821 1.346604 0.130273 -0.027570 26703.900000 0 0 1
-6.032151 23.876906 6.372559 25.438219 -1.323339 1.317588 0.145781 -0.023865 -113635.000000 0 0 1
-6.587951 25.148706 6.867459 26.889041 -1.314593 1.312535 0.166337 -0.030739 -266988.000000 0 0 1
-5.902751 25.746406 7.986359 27.595323 -1.345426 1.277186 0.132907 -0.039673 -145392.000000 0 0 1
-6.405451 26.934106 8.528159 28.969042 -1.337314 1.271980 0.166283 -0.030227 -234172.000000 0 0 1
-6.403251 28.238906 7.709159 29.964455 -1.347814 1.310593 0.192004 -0.034548 165744.000000 0 0 1
-7.539451 28.333106 6.884059 30.116416 -1.310723 1.340176 0.186935 -0.048836 -306423.000000 0 0 1
-7.512651 29.579006 6.190359 31.139654 -1.322070 1.370670 0.192158 -0.053363 -292924.000000 0 0 1
-8.752051 29.939906 5.358359 31.649777 -1.286400 1.400675 0.183350 -0.059905 620908.000000 0 0 1
-9.940751 30.446806 5.955159 32.577453 -1.255212 1.386963 0.181933 -0.047819 573480.000000 0 0 1
-10.789551 29.497406 6.571459 32.088868 -1.220134 1.364548 0.169896 -0.040734 339679.000000 0 0 1
-11.903351 30.030706 7.530859 33.169970 -1.193421 1.341761 0.138572 -0.042377 542005.000000 0 0 1
-11.378351 30.624506 8.742359 33.819463 -1.215059 1.309326 0.130939 -0.031596 1132130.000000 0 0 1
-12.486951 30.993506 9.624859 34.772968 -1.187802 1.290343 0.141491 -0.015945 1164050.000000 0 0 1
-11.992151 31.377406 11.048959 35.361459 -1.205736 1.253017 0.114250 -0.025392 72344.400000 0 0 1
-11.384451 32.682806 11.184059 36.371070 -1.235609 1.258233 0.109324 -0.024344 383779.000000 0 0 1
-10.827951 32.777906 12.472959 36.704364 -1.251740 1.224068 0.097534 -0.037450 -103423.000000 0 0 1
-10.281951 -33.258037 12.723759 37.063589 1.270960 1.220373 0.098513 -0.044440 131859.000000 0 0 1
-11.336851 -32.379637 13.086359 36.718087 1.234012 1.206383 0.097935 -0.029663 253154.000000 0 0 1
-10.887051 -31.040837 13.170659 35.433427 1.233469 1.189955 0.092357 -0.029405 225791.000000 0 0 1
-11.943551 -30.015837 13.672859 35.079139 1.192094 1.170413 0.085558 -0.025259 -100504.000000 0 0 1
-12.210751 -29.974937 15.034959 35.688223 1.183957 1.135933 0.080815 -0.033030 515795.000000 0 0 1
-11.104451 -29.545137 15.866359 35.326553 1.211283 1.105000 0.107309 -0.037251 584493.000000 0 0 1
-11.273151 -29.917537 17.377059 36.388256 1.210442 1.072937 0.115235 -0.046376 -154901.000000 0 0 1
-12.117751 -29.099337 18.161859 36.379451 1.176209 1.048082 0.107079 -0.047559 167042.000000 0 0 1
-12.577251 -29.770937 19.310659 37.648340 1.171073 1.032211 0.096656 -0.054044 60958.300000 0 0 1
-12.847651 -28.853337 20.510459 37.659742 1.151879 0.994854 0.116605 -0.060296 -201515.000000 0 0 1
-11.626251 -28.609237 21.139659 37.423834 1.184801 0.970519 0.122040 -0.058477 -119984.000000 0 0 1
-11.752051 -27.746637 22.266159 37.466898 1.170156 0.934415 0.140558 -0.056829 908405.000000 0 0 1
-10.366551 -27.469737 22.981259 37.285253 1.209940 0.906680 0.182203 -0.060778 1027790.000000 0 0 1
-9.921351 -28.620137 23.744859 38.488489 1.237103 0.905955 0.161290 -0.037388 680438.000000 0 0 1
-8.651551 -28.461237 24.392959 38.469570 1.275695 0.883972 0.189676 -0.036828 421632.000000 0 0 1
-8.388051 -29.495437 25.505259 39.885567 1.293726 0.877000 0.184215 -0.034123 -10853.900000 0 0 1
-8.258751 -30.811237 25.012959 40.536248 1.308909 0.905806 0.177427 -0.015485 277604.000000 0 0 1
-8.323651 -31.792537 26.028259 41.922773 1.314732 0.900954 0.173392 -0.015826 -230418.000000 0 0 1
-8.611151 -33.210537 25.506959 42.751569 1.317094 0.931498 0.160030 -0.016266 257995.000000 0 0 1
-7.473551 33.650006 24.814959 42.473039 -1.352247 0.946838 0.157812 -0.016083 943692.000000 0 0 1
-7.635051 32.283906 24.347359 41.150194 -1.338566 0.937667 0.128709 -0.011255 -256206.000000 0 0 1
-8.702151 31.977506 23.284959 40.502810 -1.305097 0.958318 0.119224 -0.015207 -111080.000000 0 0 1
-8.995051 30.577006 23.153459 39.394757 -1.284690 0.942547 0.125385 -0.019351 -294563.000000 0 0 1
-9.813351 30.403106 22.059659 38.823695 -1.258579 0.966478 0.102054 -0.030753 -413708.000000 0 0 1
-10.694951 29.154206 22.150959 38.144655 -1.219198 0.951197 0.103913 -0.036829 4718.480000 0 0 1
-9.884651 28.009506 21.965259 36.942000 -1.231537 0.934044 0.095291 -0.031348 328760.000000 0 0 1
-10.453551 26.829906 22.494759 36.539496 -1.199267 0.907613 0.083048 -0.034000 -428216.000000 0 0 1
-9.637451 25.553306 22.212259 35.202789 -1.210141 0.887980 0.080302 -0.030825 -248594.000000 0 0 1
-8.370351 25.664406 22.806459 35.339201 -1.255528 0.869304 0.065251 -0.033856 -221516.000000 0 0 1
-7.691451 24.423906 22.886659 34.343628 -1.265713 0.841424 0.060061 -0.033682 856153.000000 0 0 1
-6.237351 24.539306 23.474659 34.527405 -1.321889 0.823191 0.055326 -0.030795 151231.000000 0 0 1
-5.312251 25.086506 22.615659 34.190947 -1.362122 0.848044 0.074166 -0.025206 -1176180.000000 0 0 1
-4.110451 25.104506 23.318859 34.509437 -1.408503 0.828850 0.096204 -0.023362 77647.700000 0 0 1
-2.845451 25.581706 22.508059 34.192587 -1.460022 0.852274 0.110955 -0.018680 447226.000000 0 0 1
-2.466851 24.822406 21.375359 32.850315 -1.471742 0.862304 0.091322 -0.013728 -202831.000000 0 0 1
-1.736851 25.577606 20.468659 32.805436 -1.502995 0.897021 0.097038 -0.008593 -174054.000000 0 0 1
-1.156051 24.770706 19.277159 31.409126 -1.524160 0.910002 0.074969 -0.018136 -454594.000000 0 0 1
-0.255151 23.820706 19.704959 30.915636 -1.560085 0.879705 0.084840 -0.011295 -513617.000000 0 0 1
0.121449 22.857006 18.758959 29.569512 1.565483 0.883562 0.079650 -0.014541 -212269.000000 0 0 1
1.157049 21.766706 19.156459 29.018928 1.517689 0.849796 0.084997 -0.012533 1412630.000000 0 0 1
2.493649 22.328106 18.937859 29.383756 1.459575 0.870426 0.075859 -0.021716 1118400.000000 0 0 1
3.452349 21.350606 19.345959 29.017809 1.410486 0.841034 0.092171 -0.021175 1350050.000000 0 0 1
4.939149 21.775906 19.003559 29.320992 1.347753 0.865681 0.082771 -0.025471 832366.000000 0 0 1
5.923949 20.836706 19.349159 29.045679 1.293801 0.841744 0.098253 -0.027484 285731.000000 0 0 1
7.174949 21.402706 18.919759 29.453574 1.247335 0.873224 0.112957 -0.029380 531498.000000 0 0 1
8.246149 20.357206 18.556759 28.753576 1.185925 0.869286 0.105429 -0.018224 12097.100000 0 0 1
8.881349 19.643606 19.623259 29.151705 1.146177 0.832346 0.127371 -0.027036 232787.000000 0 0 1
10.098349 19.090206 19.150659 28.864518 1.084234 0.845353 0.106741 -0.022790 464283.000000 0 0 1
10.789949 18.238406 20.292459 29.340184 1.036572 0.807057 0.134723 -0.021974 309206.000000 0 0 1
10.011749 17.067906 20.550259 28.528261 1.040300 0.766493 0.141752 -0.028236 350912.000000 0 0 1
10.495049 16.387906 21.735759 29.174522 1.001189 0.730223 0.145663 -0.041182 -109001.000000 0 0 1
9.690749 15.164606 22.086059 28.489821 1.002166 0.683723 0.130383 -0.036469 646084.000000 0 0 1
8.505149 15.436306 22.867159 28.870817 1.067198 0.656635 0.156299 -0.019938 737290.000000 0 0 1
7.637149 14.357406 23.161159 28.300185 1.081931 0.612157 0.148901 -0.016122 8054.810000 0 0 1
8.071649 13.387306 24.276559 28.874259 1.028223 0.572096 0.154960 -0.022985 -274614.000000 0 0 1
7.961049 14.087206 25.499259 30.199998 1.056414 0.565452 0.167009 -0.038700 39298.200000 0 0 1
8.167749 13.189806 26.587059 30.782379 1.016345 0.528210 0.170854 -0.040414 255709.000000 0 0 1
9.191949 13.903406 27.569059 32.215674 0.986637 0.543768 0.139960 -0.035466 883854.000000 0 0 1
10.552649 13.898006 27.161059 32.283682 0.921375 0.571067 0.167073 -0.031273 283557.000000 0 0 1
10.919249 15.009906 26.336659 32.220287 0.941871 0.613924 0.153097 -0.024249 196658.000000 0 0 1
12.318649 14.742406 25.671359 32.064097 0.874726 0.642457 0.151263 -0.030368 630609.000000 0 0 1
12.382549 13.689906 24.721559 30.852821 0.835499 0.641375 0.151110 -0.040637 -930519.000000 0 0 1
13.639249 13.311706 24.287559 30.872580 0.773245 0.665346 0.148824 -0.038084 -1055080.000000 0 0 1
13.623749 12.268206 23.130659 29.515129 0.733092 0.670215 0.118188 -0.034483 -30203.100000 0 0 1
13.155049 10.981906 23.566859 29.138539 0.695606 0.628710 0.116540 -0.026555 1355630.000000 0 0 1
11.714349 10.858506 23.662759 28.549244 0.747502 0.593765 0.138325 -0.031014 751815.000000 0 0 1
11.220649 9.470006 24.111359 28.230155 0.700989 0.546979 0.127326 -0.029747 -76391.300000 0 0 1
11.454149 8.460806 23.105559 27.141290 0.636209 0.552326 0.132704 -0.025979 210198.000000 0 0 1
11.141749 7.171106 23.556659 27.027385 0.571880 0.512370 0.143972 -0.033939 -53292.300000 0 0 1
11.635949 6.049506 22.609559 26.137789 0.479439 0.525618 0.176574 -0.053741 -404192.000000 0 0 1
13.021549 5.942806 22.426359 26.604873 0.428149 0.568068 0.202555 -0.049092 -82450.700000 0 0 1
13.353449 4.808806 21.633059 25.873316 0.345659 0.580635 0.232992 -0.052730 -48667.500000 0 0 1
13.276949 3.377406 22.286459 26.160476 0.249098 0.551168 0.208887 -0.055360 -121330.000000 0 0 1
14.380649 3.122906 23.144959 27.427081 0.213840 0.566336 0.218303 -0.047613 328698.000000 0 0 1
14.201449 1.960506 23.874859 27.848405 0.137183 0.540765 0.221894 -0.042154 -716654.000000 0 0 1
15.449449 1.480406 24.595059 29.082538 0.095531 0.562924 0.187640 -0.020937 -19668.300000 0 0 1
16.414649 0.959306 23.660559 28.812897 0.058376 0.607322 0.190029 -0.030227 -39321.100000 0 0 1
17.727349 1.347206 23.953259 29.830060 0.075850 0.638500 0.168774 -0.021070 51031.700000 0 0 1
18.777149 0.503306 23.128659 29.795462 0.026798 0.682104 0.135371 -0.019410 195320.000000 0 0 1
18.826649 -0.821394 23.514659 30.133978 -0.043602 0.675592 0.110727 -0.013097 -545360.000000 0 0 1
19.821149 -1.479594 22.829259 30.269494 -0.074509 0.716361 0.086654 -0.002913 -517075.000000 0 0 1
19.843849 -2.979394 23.097259 30.596381 -0.149029 0.715292 0.066991 0.002425 -56538.200000 0 0 1
18.819149 -3.688594 22.426059 29.507529 -0.193549 0.707466 0.067228 0.005949 26909.700000 0 0 1
18.830649 -5.051494 22.702359 29.925041 -0.262089 0.709572 0.075718 -0.004455 -106969.000000 0 0 1
17.587849 -5.894694 22.350059 29.044879 -0.323391 0.692737 0.090655 -0.010722 -42625.800000 0 0 1
17.554249 -6.006094 20.908159 27.953103 -0.329660 0.725794 0.088368 -0.013464 42907.500000 0 0 1
16.697249 -7.039494 20.453259 27.325600 -0.398984 0.724997 0.107647 -0.025906 -83868.200000 0 0 1
17.300749 -8.470494 20.393859 28.053069 -0.455295 0.756891 0.118864 -0.030398 -81163.700000 0 0 1
17.558249 -8.910094 21.693859 29.296850 -0.469597 0.737006 0.103103 -0.024603 51102.800000 0 0 1
18.124149 -10.210794 21.664859 30.035167 -0.513058 0.765095 0.080998 -0.029321 -52360.100000 0 0 1
18.071249 -10.976494 22.968759 31.218862 -0.545844 0.744047 0.096837 -0.021733 1072940.000000 0 0 1
16.721649 -11.506994 23.049059 30.712922 -0.602728 0.722027 0.148344 -0.033563 1223410.000000 0 0 1
16.613049 -12.467894 24.102659 31.817919 -0.643813 0.711293 0.156705 -0.030334 609198.000000 0 0 1
15.319149 -13.324794 23.892959 31.354425 -0.715885 0.704357 0.199840 -0.033217 584275.000000 0 0 1
15.508149 -14.255794 22.805259 31.045293 -0.743347 0.745748 0.208268 -0.046527 557007.000000 0 0 1
14.423649 -15.181994 22.729359 30.905637 -0.811007 0.744475 0.230546 -0.052458 169871.000000 0 0 1
14.513049 -16.163594 21.546359 30.596339 -0.839151 0.789481 0.225666 -0.055621 -570309.000000 0 0 1
15.560349 -17.062494 21.596059 31.617131 -0.831411 0.818867 0.218007 -0.060312 -315581.000000 0 0 1
15.410549 -18.013294 20.582759 31.394486 -0.863112 0.855797 0.194529 -0.045770 -33869.100000 0 0 1
-24.824351 -32.024137 25.561565 47.908114 0.911376 1.007999 0.099295 -0.041354 -110016.000000 0 0 1
-25.312011 -33.369637 25.573185 49.073601 0.921856 1.022635 0.089377 -0.031094 467191.000000 0 0 1
-26.656221 -33.558637 26.006785 50.130720 0.899530 1.025374 0.079777 -0.039700 352134.000000 0 0 1
-26.876351 -33.707137 27.532985 51.152464 0.897674 1.002433 0.064815 -0.034012 -233095.000000 0 0 1
-28.210201 -33.628937 27.985125 52.056585 0.872801 1.003219 0.077801 -0.040130 117738.000000 0 0 1
-28.225321 -33.679537 29.366265 52.852223 0.873278 0.981676 0.059332 -0.039306 -221406.000000 0 0 1
-29.395821 -33.027437 30.097405 53.486257 0.843510 0.973132 0.052541 -0.048381 -472783.000000 0 0 1
-29.313681 -31.616637 29.994315 52.522020 0.823177 0.962975 0.039585 -0.036257 366334.000000 0 0 1
-30.046671 -30.878037 30.974965 53.063208 0.799043 0.947473 0.027519 -0.014458 -65022.700000 0 0 1
-30.252951 -29.428637 30.550185 52.101819 0.771587 0.944244 0.022424 -0.017813 372318.000000 0 0 1
-31.106941 -29.244137 29.381915 51.828161 0.754542 0.968046 0.013754 -0.003691 749247.000000 0 0 1
-31.277481 -27.828837 29.254785 51.074137 0.727118 0.960890 0.025949 0.001664 156792.000000 0 0 1
-31.906741 -27.373137 27.856925 50.431508 0.709069 0.985590 0.020930 -0.014482 406584.000000 0 0 1
-31.053421 -27.381637 26.687215 49.257248 0.722645 0.998228 0.037667 -0.018984 264485.000000 0 0 1
-30.332611 -26.177937 26.584675 48.084266 0.712010 0.984984 0.033272 -0.016389 -100701.000000 0 0 1
-29.394391 -26.104637 25.356775 46.780854 0.726192 0.997942 0.027608 -0.001977 -12745.900000 0 0 1
-30.029131 -25.846437 24.132105 46.391222 0.710680 1.023727 0.028647 -0.008357 235593.000000 0 0 1
-29.045271 -25.501737 23.157015 45.057893 0.720526 1.031026 0.050146 0.000301 119631.000000 0 0 1
-29.453421 -25.686437 21.667765 44.685446 0.717187 1.064553 0.045375 0.000882 -230317.000000 0 0 1
-30.290661 -24.736937 21.068465 44.422071 0.684813 1.076651 0.035837 -0.001718 4144.750000 0 0 1
-30.673871 -25.218337 19.805265 44.374535 0.688098 1.108147 0.039049 0.000673 -280923.000000 0 0 1
-31.542611 -24.252737 18.994465 44.089922 0.655480 1.125404 0.054444 -0.000789 14646.900000 0 0 1
-32.825631 -24.166337 19.596965 45.228032 0.634613 1.122654 0.093930 -0.017011 317569.000000 0 0 1
-33.554491 -23.020937 19.098765 44.951421 0.601320 1.131972 0.107557 -0.010958 146244.000000 0 0 1
-35.037538 -22.985237 19.535365 46.233977 0.580594 1.134558 0.108882 -0.010232 229781.000000 0 0 1
-35.874098 -23.920937 18.860865 47.062664 0.588097 1.158449 0.106657 -0.021603 -56487.500000 0 0 1
-37.126061 -23.340937 18.591865 47.631934 0.561251 1.169813 0.103502 -0.023753 -301818.000000 0 0 1
-37.911911 -24.132837 17.542965 48.243781 0.566862 1.198633 0.123829 -0.023201 -296657.000000 0 0 1
37.896249 -25.292437 18.117865 49.031522 -0.588519 1.192310 0.109315 -0.019225 -302078.000000 0 0 1
37.082359 -25.930937 17.141165 48.387337 -0.610242 1.208685 0.111188 -0.014716 297012.000000 0 0 1
36.188419 -27.097137 17.667865 48.538747 -0.642719 1.198243 0.105793 -0.004602 154161.000000 0 0 1
35.141919 -26.819937 18.559565 47.944979 -0.651889 1.173311 0.093344 -0.010352 -365965.000000 0 0 1
35.570739 -26.323337 19.779065 48.470682 -0.637088 1.150466 0.095666 -0.003514 -222718.000000 0 0 1
34.478929 -26.341137 20.904265 48.162645 -0.652387 1.121830 0.082398 -0.006023 23543.100000 0 0 1
33.367209 -25.544837 20.640065 46.817963 -0.653390 1.114242 0.088664 -0.004014 -772101.000000 0 0 1
32.676459 -25.278937 21.828365 46.725295 -0.658443 1.084716 0.094071 -0.003935 -162142.000000 0 0 1
31.506719 -24.286137 21.529365 45.232769 -0.656696 1.074732 0.094494 0.006039 -41295.400000 0 0 1
31.712659 -22.875637 21.158265 44.459641 -0.624906 1.074811 0.078122 0.013507 -60715.600000 0 0 1
32.697199 -22.230337 21.965765 45.230405 -0.597098 1.063699 0.101742 -0.000157 306827.000000 0 0 1
33.502599 -21.100537 21.314965 44.966483 -0.562056 1.076947 0.105436 -0.003817 202067.000000 0 0 1
32.731769 -19.912037 21.085565 43.731670 -0.546529 1.067680 0.098622 -0.007387 -197779.000000 0 0 1
33.500949 -18.865337 20.684365 43.658418 -0.512867 1.077221 0.115546 -0.007424 -1229110.000000 0 0 1
32.623079 -17.639737 20.373265 42.314248 -0.495685 1.068459 0.102707 0.002310 32047.400000 0 0 1
32.112299 -17.135037 21.588465 42.318685 -0.490163 1.035448 0.121911 -0.007282 29704.900000 0 0 1
30.865579 -17.675637 21.962565 41.802708 -0.520078 1.017627 0.115191 -0.011710 -814520.000000 0 0 1
30.541779 -17.542837 23.491905 42.336993 -0.521374 0.982579 0.104619 -0.004548 -99733.100000 0 0 1
30.192179 -16.250537 23.945725 41.821590 -0.493767 0.961161 0.119774 -0.009791 249409.000000 0 0 1
29.946979 -16.173137 25.334885 42.429333 -0.495179 0.930906 0.118355 -0.011306 -338474.000000 0 0 1
29.869579 -14.750437 25.888825 42.190027 -0.458698 0.910154 0.093127 -0.018857 5883.350000 0 0 1
28.714779 -14.001237 25.550535 40.907249 -0.453676 0.896181 0.121586 -0.026647 139225.000000 0 0 1
28.704379 -12.631237 25.985915 40.727844 -0.414545 0.878849 0.110126 -0.027289 -208076.000000 0 0 1
29.534679 -11.687437 25.107755 40.488181 -0.376811 0.901894 0.132572 -0.037700 -235247.000000 0 0 1
29.009179 -11.514137 23.755685 39.222958 -0.377843 0.920204 0.136802 -0.040859 139237.000000 0 0 1
29.618279 -10.495437 22.974755 38.926033 -0.340551 0.939470 0.162154 -0.038409 338413.000000 0 0 1
30.969279 -10.985537 22.354255 39.742811 -0.340877 0.973423 0.169785 -0.052615 251181.000000 0 0 1
30.765979 -11.752437 21.183765 39.158871 -0.364889 0.999207 0.147265 -0.047919 101286.000000 0 0 1
30.828879 -13.135437 21.510165 39.820180 -0.402781 1.000142 0.148367 -0.040038 -206276.000000 0 0 1
30.095279 -14.113537 20.526665 39.067400 -0.438510 1.017592 0.134965 -0.034033 -88656.500000 0 0 1
30.604479 -14.048237 19.242765 38.784934 -0.430334 1.051649 0.132846 -0.033117 -135267.000000 0 0 1
30.308179 -15.190437 18.503165 38.622561 -0.464607 1.071194 0.134966 -0.036342 -286527.000000 0 0 1
30.603079 -15.109237 16.983565 38.121896 -0.458608 1.109056 0.140666 -0.037508 -228193.000000 0 0 1
30.125479 -16.182137 16.173165 37.828261 -0.492930 1.129025 0.120053 -0.041560 509858.000000 0 0 1
28.712179 -16.327937 16.077865 36.735385 -0.517069 1.117794 0.112137 -0.036354 343662.000000 0 0 1
27.939379 -15.296837 15.168765 35.280215 -0.500923 1.126358 0.148793 -0.038645 -541250.000000 0 0 1
28.077479 -15.531637 13.759165 34.912623 -0.505274 1.165705 0.140903 -0.047412 312902.000000 0 0 1
27.232279 -16.596837 13.308565 34.556764 -0.547342 1.175456 0.136319 -0.045336 -25102.300000 0 0 1
27.595479 -17.157137 11.885065 34.599604 -0.556250 1.220152 0.127211 -0.028165 -132432.000000 0 0 1
27.028679 -16.269337 10.924065 33.385267 -0.541836 1.237445 0.148799 -0.024031 -120145.000000 0 0 1
27.049579 -16.808637 9.550265 33.247821 -0.556007 1.279447 0.129143 -0.035297 -408531.000000 0 0 1
28.354079 -17.135437 8.816665 34.282803 -0.543603 1.310699 0.128691 -0.025809 -263916.000000 0 0 1
28.997979 -18.209037 9.476365 35.528205 -0.560712 1.300800 0.110725 -0.025228 -585078.000000 0 0 1
30.355179 -18.262937 9.094265 36.574273 -0.541626 1.319508 0.118298 -0.010525 -111485.000000 0 0 1
31.157079 -19.154837 10.080265 37.937885 -0.551218 1.301862 0.121792 -0.034058 -103509.000000 0 0 1
31.299179 -18.552537 11.404765 38.130092 -0.535070 1.267045 0.106772 -0.037148 101111.000000 0 0 1
31.758939 -19.465337 12.381365 39.253379 -0.549857 1.249895 0.083315 -0.031277 -92021.400000 0 0 1
31.500079 -18.887337 13.786165 39.230662 -0.540123 1.211716 0.104007 -0.023249 41324.900000 0 0 1
31.469559 -19.896937 14.751665 40.047882 -0.563803 1.193562 0.107104 -0.016785 77190.700000 0 0 1
31.303079 -19.391637 16.068965 40.176237 -0.554620 1.159321 0.118532 -0.027686 9720.240000 0 0 1
31.053379 -20.476637 17.107565 40.942323 -0.582956 1.139724 0.106927 -0.012943 73943.800000 0 0 1
29.833879 -21.155137 16.900665 40.289362 -0.616806 1.137922 0.047945 0.002987 -104901.000000 0 0 1
29.554679 -22.062837 17.983165 41.032208 -0.641263 1.117124 0.070585 -0.004794 -16332.100000 0 0 1
28.200679 -22.768537 17.783665 40.372557 -0.679222 1.114653 0.068679 0.007417 424615.000000 0 0 1
27.109079 -22.086537 18.426865 39.525519 -0.683657 1.085804 0.078728 0.009877 956030.000000 0 0 1
25.906379 -22.880937 18.294765 39.107240 -0.723465 1.083985 0.070282 -0.004557 206889.000000 0 0 1
24.789179 -22.286537 19.119265 38.428368 -0.732286 1.050047 0.047390 0.002801 -837617.000000 0 0 1
24.253779 -21.108637 18.563565 37.127164 -0.716175 1.047198 0.038853 0.003123 744764.000000 0 0 1
23.079779 -20.510637 19.168965 36.342973 -0.726528 1.015204 0.047779 -0.000434 1043910.000000 0 0 1
23.161279 -19.983837 20.625165 36.894390 -0.711885 0.977578 0.035974 0.004108 -239026.000000 0 0 1
23.340379 -21.084437 21.547665 38.126482 -0.734661 0.970166 0.057025 0.000324 -56019.500000 0 0 1
23.836979 -20.746137 22.828455 38.983870 -0.716181 0.945192 0.048769 -0.001975 -46972.200000 0 0 1
24.122379 -21.971937 23.688765 40.321369 -0.738779 0.942832 0.068125 -0.004062 -80676.800000 0 0 1
23.058779 -22.535837 24.429325 40.451986 -0.773929 0.922400 0.091581 -0.011696 189572.000000 0 0 1
23.496779 -23.674037 25.108055 41.748929 -0.789156 0.925537 0.101829 -0.004867 470332.000000 0 0 1
22.262479 -24.299437 25.851995 41.885633 -0.829118 0.905612 0.114106 -0.015412 709702.000000 0 0 1
21.404579 -25.001937 24.964125 41.309326 -0.862762 0.921882 0.114661 -0.021433 -43878.700000 0 0 1
20.504079 -25.792437 25.681605 41.775734 -0.899133 0.908728 0.132651 -0.022015 166902.000000 0 0 1
19.625079 -26.807137 24.821935 41.471614 -0.938860 0.929134 0.133807 -0.028901 89111.000000 0 0 1
18.660579 -26.160337 24.061805 40.144127 -0.951189 0.928063 0.140688 -0.031139 -118961.000000 0 0 1
18.282579 -26.983237 22.951665 39.863852 -0.975295 0.957274 0.118005 -0.034424 -175772.000000 0 0 1
17.412079 -26.115037 22.006265 38.333424 -0.982739 0.959322 0.111586 -0.027424 1340770.000000 0 0 1
16.063179 -25.774137 22.430605 37.755316 -1.013472 0.934644 0.092589 -0.028352 1240240.000000 0 0 1
15.573279 -24.623637 21.789165 36.381565 -1.006856 0.928661 0.071486 -0.026683 263327.000000 0 0 1
14.099079 -24.264037 22.121265 35.733428 -1.044413 0.903247 0.077215 -0.029797 583446.000000 0 0 1
13.213879 -25.279137 21.644165 35.806581 -1.089139 0.921690 0.080413 -0.022997 406679.000000 0 0 1
11.842479 -24.970737 21.914465 35.270750 -1.127957 0.900369 0.099910 -0.026109 622724.000000 0 0 1
10.936279 -26.191837 21.846365 35.817289 -1.175257 0.914813 0.097612 -0.028127 -234326.000000 0 0 1
10.500279 -26.591937 20.599265 35.238001 -1.194723 0.946440 0.123516 -0.036538 363022.000000 0 0 1
9.133979 -27.011037 20.637465 35.198447 -1.244711 0.944291 0.137369 -0.044796 634124.000000 0 0 1
8.714779 -27.865937 19.413165 35.061786 -1.267693 0.984014 0.164500 -0.053458 32515.200000 0 0 1
9.094079 -29.237937 19.543665 36.325117 -1.269245 1.002709 0.161264 -0.052215 98186.700000 0 0 1
8.697479 -30.052437 18.514565 36.353600 -1.289083 1.036435 0.171953 -0.056916 -260186.000000 0 0 1
9.339979 -31.426637 18.687265 37.737019 -1.281911 1.052735 0.150772 -0.048337 28908.800000 0 0 1
8.914179 -32.168137 19.841165 38.831990 -1.300468 1.034508 0.144846 -0.056223 565463.000000 0 0 1
9.778079 -33.315037 19.885265 40.011577 -1.285310 1.050672 0.125749 -0.049124 256339.000000 0 0 1
9.406779 32.951006 20.878565 40.126933 1.292715 1.023579 0.134486 -0.058435 -63784.300000 0 0 1
8.298579 32.188606 20.427965 39.016337 1.318480 1.019755 0.125161 -0.058586 32183.300000 0 0 1
8.175879 30.997106 21.116665 38.387226 1.312907 0.988317 0.130224 -0.065075 283568.000000 0 0 1
7.117079 29.998006 20.540265 37.046399 1.337852 0.983098 0.126576 -0.056893 453969.000000 0 0 1
5.796179 30.230606 20.987665 37.255433 1.381363 0.972367 0.158325 -0.063998 -3566.320000 0 0 1
4.898679 29.242806 20.536765 36.067956 1.404820 0.965032 0.175715 -0.043747 -46154.200000 0 0 1
3.419179 29.296006 20.903865 36.151325 1.454611 0.954236 0.169218 -0.037403 -201769.000000 0 0 1
3.087479 29.182306 22.279415 36.844428 1.465389 0.921421 0.136131 -0.041873 -149369.000000 0 0 1
1.687879 29.159506 22.424225 36.823520 1.512976 0.916042 0.126461 -0.030644 -90081.700000 0 0 1
1.274979 28.376406 23.709965 37.000114 1.525896 0.875246 0.127052 -0.020703 -44671.500000 0 0 1
1.243679 29.102206 24.936515 38.344686 1.528087 0.862784 0.142209 -0.030661 77696.400000 0 0 1
0.861979 28.309006 26.032685 38.468734 1.540357 0.827494 0.142924 -0.035038 -854319.000000 0 0 1
1.956779 27.667106 26.822165 38.584016 1.500188 0.802150 0.131800 -0.026021 -823974.000000 0 0 1
2.336779 26.394206 26.362345 37.377639 1.482493 0.787954 0.129143 -0.030392 -15020.600000 0 0 1
3.414579 25.866906 27.079745 37.604106 1.439549 0.766810 0.118554 -0.018089 -15091.500000 0 0 1
3.956279 24.496806 26.517325 36.316858 1.410677 0.752232 0.110792 -0.005183 751235.000000 0 0 1
2.954179 23.471906 26.667155 35.648208 1.445594 0.725656 0.121286 -0.002797 288592.000000 0 0 1
3.427079 22.206506 26.302615 34.593371 1.417677 0.706965 0.114546 0.004702 86816.700000 0 0 1
2.441579 20.992606 26.437075 33.846266 1.455010 0.674382 0.120675 0.004014 76674.700000 0 0 1
3.010679 19.691506 26.473875 33.131340 1.419079 0.645069 0.145152 0.005740 53328.000000 0 0 1
3.689179 19.263806 25.284195 31.999919 1.381579 0.659770 0.146177 -0.002562 194865.000000 0 0 1
4.269979 17.837906 25.475495 31.391471 1.335841 0.624010 0.147839 -0.017200 132533.000000 0 0 1
5.393079 17.629006 26.303425 32.120668 1.273917 0.611315 0.145678 -0.016809 -196649.000000 0 0 1
6.536079 17.338406 25.536505 31.550812 1.210299 0.627706 0.160004 -0.013270 -303816.000000 0 0 1
7.800879 17.068306 26.411745 32.400016 1.142104 0.617762 0.135283 -0.019910 392601.000000 0 0 1
8.368279 18.207406 27.121105 33.720796 1.139981 0.636326 0.131051 -0.005642 372973.000000 0 0 1
9.202479 19.012106 26.299915 33.731756 1.120004 0.676645 0.115812 -0.021870 -163624.000000 0 0 1
9.689579 20.302806 26.988075 35.134713 1.125511 0.694879 0.112659 -0.021809 336026.000000 0 0 1
10.809279 20.222306 27.857025 36.080411 1.079914 0.688686 0.128012 -0.041564 72607.600000 0 0 1
10.937479 21.384306 28.656855 37.391608 1.098013 0.697581 0.165363 -0.045724 284640.000000 0 0 1
12.018679 21.189006 29.755865 38.455612 1.054834 0.686023 0.192146 -0.048951 472709.000000 0 0 1
13.375679 21.220306 29.341355 38.602141 1.008377 0.707335 0.187133 -0.051437 1520.950000 0 0 1
14.172379 21.025806 30.491275 39.656761 0.977702 0.693709 0.186814 -0.036701 -1029090.000000 0 0 1
15.616479 20.746806 30.209375 39.836048 0.925558 0.710029 0.147742 -0.042338 -718646.000000 0 0 1
16.354379 21.792406 29.592615 40.225583 0.926999 0.744146 0.125840 -0.056436 -440061.000000 0 0 1
17.738179 21.617806 29.662365 40.765530 0.883659 0.755931 0.195132 -0.037622 -185169.000000 0 0 1
-8.754251 16.833706 4.366559 19.469910 -1.091243 1.344600 0.043916 -0.021792 -155968.000000 0 1 0
-8.485151 18.065906 4.951059 20.564234 -1.131700 1.327647 0.060561 -0.025922 -772848.000000 0 1 0
-7.138051 18.276506 5.177959 20.292701 -1.198455 1.312779 0.049451 -0.020506 -1164660.000000 0 1 0
-6.951751 19.651106 5.780159 21.631067 -1.230777 1.300294 0.063105 -0.020526 -266247.000000 0 1 0
-7.154951 20.815106 5.014659 22.574516 -1.239711 1.346790 0.080086 -0.025812 -1204440.000000 0 1 0
-8.402251 20.952906 4.478959 23.014847 -1.189423 1.374935 0.086318 -0.033622 -1198180.000000 0 1 0
-8.347351 22.206406 3.525659 23.984016 -1.211238 1.423261 0.141530 -0.035640 588966.000000 0 1 0
-7.653451 22.105706 2.225759 23.498756 -1.237492 1.475936 0.100145 -0.029187 345128.000000 0 1 0
-8.252451 21.244106 1.270459 22.826061 -1.200279 1.515109 0.110752 -0.031343 -764723.000000 0 1 0
-7.690551 21.333006 -0.160741 22.677468 -1.224798 1.577885 0.078706 -0.005325 422996.000000 0 1 0
-6.401351 20.772006 -0.366141 21.739080 -1.271859 1.587640 0.056719 -0.005591 -442739.000000 0 1 0
-5.405551 21.672906 -0.033341 22.336874 -1.326368 1.572289 0.068142 -0.010416 -1837130.000000 0 1 0
-4.025751 21.281306 -0.486341 21.664191 -1.383837 1.593247 0.052765 -0.009433 -952490.000000 0 1 0
-3.948251 21.383506 -1.905041 21.828243 -1.388213 1.658182 0.054588 -0.019238 -732784.000000 0 1 0
-2.654351 21.211206 -2.367741 21.507372 -1.446304 1.681110 0.047135 -0.017565 -747355.000000 0 1 0
-2.405551 21.748306 -3.787141 22.206259 -1.460635 1.742178 0.057222 -0.009340 291633.000000 0 1 0
-1.029651 21.877406 -4.116641 22.285148 -1.523766 1.756589 0.064773 -0.021257 272330.000000 0 1 0
-0.896551 22.549906 -5.355541 23.194480 -1.531059 1.803796 0.079618 -0.020533 353981.000000 0 1 0
0.562249 23.012706 -5.608341 23.692916 1.546369 1.809774 0.090565 -0.027411 258867.000000 0 1 0
1.487449 21.978306 -5.851541 22.792520 1.503221 1.830434 0.074998 -0.028928 -564110.000000 0 1 0
2.730449 22.532506 -6.180841 23.523860 1.450206 1.836665 0.067886 -0.019008 -201757.000000 0 1 0
3.847049 21.525706 -6.517941 22.817523 1.393945 1.860486 0.077587 -0.016860 -90451.600000 0 1 0
3.643349 20.884006 -7.732041 22.565464 1.398078 1.920532 0.069863 -0.016324 40112.100000 0 1 0
4.246449 19.619306 -7.865641 21.559634 1.357642 1.944249 0.058232 -0.018695 -9110.880000 0 1 0
3.635749 18.982306 -9.100741 21.362821 1.381555 2.010873 0.051143 -0.013942 104236.000000 0 1 0
4.331349 19.331006 -10.264441 22.311592 1.350375 2.048847 0.055409 -0.014340 538377.000000 0 1 0
3.373349 19.178806 -11.314141 22.521454 1.396688 2.097136 0.057992 -0.012232 409975.000000 0 1 0
3.919749 19.498006 -12.711241 23.603227 1.372407 2.139498 0.062727 -0.010046 157588.000000 0 1 0
4.368949 20.834906 -12.844341 24.862786 1.364097 2.113682 0.115280 -0.019891 -82641.400000 0 1 0
4.722249 21.157806 -14.205641 25.918191 1.351204 2.150882 0.131039 -0.032737 184878.000000 0 0 1
4.786549 22.659306 -14.525041 27.337374 1.362617 2.130961 0.114006 -0.042136 494905.000000 0 0 1
3.532649 23.346706 -14.694441 27.811417 1.420623 2.127464 0.126176 -0.047761 254666.000000 0 0 1
3.672649 24.562806 -15.453341 29.251078 1.422375 2.127393 0.121699 -0.039261 715075.000000 0 0 1
2.322949 25.274806 -15.882241 29.940900 1.479146 2.129931 0.121332 -0.045413 767904.000000 0 0 1
1.506949 25.728306 -14.829341 29.734256 1.512292 2.092928 0.135950 -0.047738 -522022.000000 0 0 1
1.918749 26.911406 -14.179741 30.479016 1.499618 2.054690 0.125738 -0.047072 -910271.000000 0 0 1
1.124149 27.132106 -12.863741 30.048140 1.529388 2.013191 0.138480 -0.054639 1102680.000000 0 0 1
-0.303151 27.320006 -12.947541 30.234309 -1.559700 2.013341 0.136558 -0.049220 1503370.000000 0 0 1
-1.140151 26.238106 -13.458741 29.510606 -1.527370 2.044364 0.127187 -0.050791 -204375.000000 0 0 1
-1.320251 25.003406 -12.521141 27.994506 -1.518042 2.034509 0.141544 -0.047200 -519438.000000 0 0 1
-2.138851 25.237606 -11.433341 27.789076 -1.486250 1.994822 0.137681 -0.041236 -383811.000000 0 0 1
-2.191351 23.984806 -10.725841 26.365064 -1.479685 1.989767 0.137458 -0.039913 -117907.000000 0 0 1
-3.015951 24.004406 -9.440041 25.969633 -1.445810 1.942822 0.117699 -0.030935 -210729.000000 0 0 1
-2.408951 24.473606 -8.264941 25.943587 -1.472682 1.895021 0.122430 -0.030463 -234658.000000 0 0 1
-2.247951 25.909706 -8.179541 27.262998 -1.484252 1.875514 0.133147 -0.035355 89062.300000 0 0 1
-2.037151 26.422606 -6.767741 27.351534 -1.493850 1.820829 0.127273 -0.040554 354215.000000 0 0 1
-0.911151 25.979606 -6.014941 26.682385 -1.535739 1.798178 0.123903 -0.036261 113434.000000 0 0 1
-0.878451 26.458006 -4.699341 26.886457 -1.537607 1.746483 0.117232 -0.043848 -66302.000000 0 0 1
-1.793851 25.736506 -3.662741 26.057654 -1.501208 1.711826 0.113241 -0.032899 1808470.000000 0 0 1
-3.209451 25.703406 -4.033441 26.215154 -1.446574 1.725269 0.115663 -0.035477 1195740.000000 0 0 1
-3.992451 25.476006 -2.893741 25.948801 -1.415347 1.682546 0.113506 -0.021208 39980.100000 0 0 1
-5.229651 24.577006 -3.147541 25.323615 -1.361137 1.695411 0.114853 -0.024935 -309572.000000 0 0 1
-6.410151 25.255006 -3.407241 26.277646 -1.322228 1.700826 0.127232 -0.023895 -883735.000000 0 0 1
-7.402351 24.387606 -3.913641 25.785009 -1.276105 1.723165 0.107139 -0.021932 832834.000000 0 0 1
-8.751651 25.144206 -4.205641 26.953848 -1.235852 1.727468 0.096777 -0.018547 560348.000000 0 0 1
-9.456051 25.395806 -3.005041 27.265255 -1.214354 1.681236 0.126079 -0.028614 1186460.000000 0 0 1
-10.794251 25.921406 -3.312341 28.273782 -1.176213 1.688218 0.139133 -0.034114 1884570.000000 0 0 1
-11.713651 26.121306 -2.061641 28.701613 -1.149246 1.642688 0.164000 -0.037269 201789.000000 0 0 1
-12.273751 25.055906 -1.319641 27.931789 -1.115298 1.618059 0.167761 -0.034176 798015.000000 0 0 1
-11.246451 24.234306 -0.697141 26.725835 -1.136302 1.596884 0.180566 -0.040599 762607.000000 0 0 1
-11.719951 22.832406 -0.207041 25.665519 -1.096563 1.578863 0.153602 -0.030728 812079.000000 0 0 1
-12.685051 22.848206 0.897159 26.148727 -1.063979 1.536480 0.176114 -0.038860 903034.000000 0 0 1
-13.388251 21.611406 0.989359 25.441638 -1.016162 1.531899 0.168587 -0.040442 622463.000000 0 0 1
-14.420151 21.640006 2.190959 26.096569 -0.983002 1.486742 0.172227 -0.049340 618102.000000 0 0 1
-13.781751 21.541306 3.476159 25.807910 -1.001637 1.435692 0.163730 -0.045332 174267.000000 0 0 1
-13.431651 22.779906 4.014659 26.747913 -1.038039 1.420135 0.175189 -0.045717 -8425.930000 0 0 1
-13.154651 22.839906 5.503259 26.925676 -1.048248 1.364959 0.165088 -0.040898 -748689.000000 0 0 1
-11.922951 22.361406 5.933259 26.026771 -1.080948 1.340807 0.152059 -0.034937 -516385.000000 0 0 1
-11.967551 21.911406 7.247059 25.997151 -1.070891 1.288290 0.120175 -0.032332 -1024000.000000 0 0 1
-10.610451 21.506706 7.770159 25.209035 -1.112478 1.257465 0.103363 -0.026424 -714658.000000 0 0 1
-9.918651 22.712706 8.122659 26.081109 -1.159057 1.254090 0.120717 -0.028109 -20291.000000 0 0 1
-8.766451 22.531706 8.925959 25.772101 -1.199746 1.217127 0.125662 -0.032653 -8276.110000 0 0 1
-8.919051 22.314406 10.485159 26.218710 -1.190549 1.159376 0.104002 -0.032457 -429925.000000 0 0 1
-9.595851 21.129506 10.762359 25.580554 -1.144501 1.136553 0.103480 -0.025390 -194930.000000 0 0 1
-9.551751 20.809906 12.139659 25.916394 -1.140483 1.083299 0.080919 -0.014444 -126364.000000 0 0 1
-10.420751 19.637806 12.612859 25.560119 -1.082932 1.054735 0.067121 -0.007955 -166825.000000 0 0 1
-10.144751 18.449606 11.948759 24.209023 -1.068059 1.054611 0.075548 -0.028065 -163747.000000 0 1 0
-10.896551 17.405906 12.497359 24.039226 -1.011460 1.024093 0.076173 -0.025607 -145206.000000 0 1 0
-10.832151 16.069206 11.662859 22.618072 -0.977670 1.029038 0.073027 -0.032890 -211749.000000 0 1 0
-11.340151 14.896006 12.261559 22.379362 -0.920110 0.990949 0.068396 -0.025543 103267.000000 0 1 0
-11.820051 13.988506 11.262859 21.499858 -0.869222 1.019423 0.050779 -0.015328 199222.000000 0 1 0
-12.323151 12.630906 11.792459 21.224088 -0.797730 0.981692 0.035845 -0.020630 -244059.000000 0 1 0
-13.366951 12.754706 12.689959 22.414124 -0.761964 0.968958 0.058865 -0.018006 -687405.000000 0 1 0
-13.762251 11.507106 13.185659 22.263752 -0.696390 0.936951 0.042250 -0.010675 123309.000000 0 1 0
-14.586751 11.664706 14.484659 23.635651 -0.674545 0.911158 0.064892 -0.008834 1031990.000000 0 1 0
-15.816851 12.398606 14.281959 24.655072 -0.664838 0.952963 0.083241 -0.010648 851373.000000 0 1 0
-16.644751 12.379106 15.462459 25.872333 -0.639473 0.930236 0.081320 -0.004788 777920.000000 0 0 1
-17.821751 13.410806 15.313759 27.055050 -0.645097 0.969124 0.082099 -0.006219 411205.000000 0 0 1
-18.878951 12.955406 14.511759 27.108089 -0.601428 1.005899 0.092331 -0.006435 204465.000000 0 0 1
-19.849251 13.970606 14.245459 28.144337 -0.613295 1.040073 0.133128 -0.016449 33786.700000 0 0 1
-21.060051 13.590806 13.404159 28.423709 -0.573089 1.079710 0.115521 -0.022152 5651.510000 0 0 1
-21.993951 12.760406 14.099159 29.074871 -0.525717 1.064518 0.129981 -0.018050 684858.000000 0 0 1
-23.284051 12.778706 13.514759 29.800857 -0.501935 1.100105 0.105470 -0.017050 4832.740000 0 0 1
-24.302251 11.811806 14.081159 30.469611 -0.452415 1.090392 0.136405 -0.031842 -262615.000000 0 0 1
-24.803351 12.079206 15.374359 31.582976 -0.453193 1.062382 0.129126 -0.026504 87803.900000 0 0 1
-25.760561 11.164006 15.841259 32.236424 -0.408944 1.057090 0.119681 -0.027117 -49938.200000 0 0 1
-26.641491 11.811306 16.949159 33.712757 -0.417304 1.044017 0.104069 -0.025259 -245667.000000 0 0 1
-27.455791 12.858906 16.559559 34.545490 -0.438008 1.070877 0.105384 -0.014178 193602.000000 0 0 1
-28.336061 13.304206 17.610459 35.917440 -0.438964 1.058358 0.080475 -0.006610 260518.000000 0 0 1
-29.500441 14.183306 17.097959 36.929424 -0.448156 1.089431 0.077892 -0.002502 -263040.000000 0 0 1
-29.167361 15.380106 16.424559 36.838142 -0.485253 1.108664 0.096832 -0.011304 -388809.000000 0 0 1
-30.204061 16.334206 16.347059 38.030487 -0.495749 1.126480 0.107780 -0.006075 -132968.000000 0 0 1
-29.769151 17.813306 16.385859 38.366816 -0.539229 1.129531 0.112823 -0.007964 -173574.000000 0 0 1
-29.204901 18.257806 17.637359 38.695609 -0.558716 1.097528 0.103122 -0.005918 -61609.800000 0 0 1
-30.082331 18.372406 18.736259 39.919160 -0.548277 1.082236 0.099507 -0.021934 -1135930.000000 0 0 1
-29.406611 18.763706 20.006159 40.212832 -0.567948 1.050074 0.081671 -0.024213 -382839.000000 0 0 1
-28.854501 17.815106 20.817859 39.791249 -0.553124 1.020222 0.081036 -0.024117 -474491.000000 0 0 1
-27.610101 17.322006 20.410259 38.457096 -0.560308 1.011337 0.087136 -0.013207 -869462.000000 0 0 1
-27.181671 15.996406 21.043159 37.914941 -0.531921 0.982422 0.079995 -0.017375 -349962.000000 0 0 1
-28.183771 15.024306 20.913459 38.176269 -0.489763 0.991048 0.065035 -0.004834 273931.000000 0 0 1
-27.759891 13.804106 21.509959 37.733847 -0.461460 0.964237 0.057712 0.008713 127926.000000 0 0 1
-28.970521 12.854306 21.623559 38.367989 -0.417605 0.972079 0.069825 -0.003628 130535.000000 0 0 1
-29.542071 12.423806 20.408059 37.994391 -0.398092 1.003761 0.079872 -0.005743 115410.000000 0 0 1
-30.759501 11.722806 20.564259 38.813140 -0.364118 1.012399 0.104101 -0.015357 255720.000000 0 0 1
-31.631171 11.793206 19.260359 38.866079 -0.356871 1.052320 0.120957 -0.023784 -410423.000000 0 0 1
-31.103141 11.120506 18.147859 37.688404 -0.343373 1.068404 0.147723 -0.032484 208709.000000 0 0 1
-30.928091 9.711406 18.212859 37.182878 -0.304250 1.058915 0.166018 -0.033454 -250607.000000 0 0 1
-30.196571 9.136406 16.996259 35.835452 -0.293808 1.076643 0.178693 -0.048819 -127421.000000 0 0 1
-30.960261 8.963306 15.786659 35.890071 -0.281805 1.115352 0.182349 -0.046290 326370.000000 0 0 1
-31.433051 10.096906 15.066059 36.290086 -0.310809 1.142682 0.171094 -0.036414 -1029240.000000 0 0 1
-30.473951 11.087506 14.524359 35.532400 -0.348947 1.149697 0.161281 -0.029119 -832820.000000 0 0 1
-29.702351 10.504406 13.465759 34.262207 -0.339928 1.166882 0.184422 -0.047276 632883.000000 0 0 1
-28.511401 11.248206 13.244559 33.389227 -0.375770 1.162908 0.150845 -0.032037 455218.000000 0 0 1
-27.806521 11.133806 11.809359 32.196664 -0.380853 1.195242 0.205095 -0.034325 264542.000000 0 0 1
-27.209481 9.834706 11.569459 31.159744 -0.346833 1.190393 0.219730 -0.033604 264290.000000 0 0 1
-27.964301 8.903306 10.860659 31.292569 -0.308234 1.216353 0.239730 -0.036713 -661047.000000 0 0 1
-27.124471 7.781406 10.263359 30.027050 -0.279375 1.221961 0.257726 -0.040120 -165628.000000 0 0 1
-26.575541 8.070106 8.964959 29.184867 -0.294817 1.258570 0.250436 -0.033920 393186.000000 0 0 1
-25.867321 6.965706 8.451959 28.090478 -0.263046 1.265177 0.289676 -0.046874 -548735.000000 0 0 1
-25.163331 7.289806 7.129159 27.150679 -0.281980 1.305104 0.272149 -0.042578 -287477.000000 0 0 1
-26.106221 7.616106 6.138859 27.878763 -0.283857 1.348778 0.301140 -0.049939 630253.000000 0 0 1
-25.369061 7.831306 4.933059 27.004697 -0.299415 1.387091 0.289676 -0.052353 546178.000000 0 0 1
-26.203371 8.629606 3.823459 27.851491 -0.318145 1.433081 0.287763 -0.056194 1213600.000000 0 0 1
-27.237051 7.923006 3.049659 28.529483 -0.283079 1.463697 0.346851 -0.057334 1351960.000000 0 0 1
-26.780201 6.750506 2.303159 27.713770 -0.246927 1.487595 0.339334 -0.056630 -37157.900000 0 0 1
-25.722171 7.054806 1.207559 26.699411 -0.267687 1.525553 0.322313 -0.053288 1178200.000000 0 0 1
-24.403051 7.436006 1.663359 25.565012 -0.295778 1.505686 0.263759 -0.051289 1584710.000000 0 0 1
-23.494951 7.725206 0.588559 24.739400 -0.317668 1.547004 0.259662 -0.034433 -274185.000000 0 1 0
-22.145751 8.231306 1.076759 23.650541 -0.355864 1.525253 0.169229 -0.039271 -706766.000000 0 1 0
-22.230551 9.508106 1.659159 24.235393 -0.404159 1.502283 0.178976 -0.054893 252009.000000 0 1 0
-21.371251 9.631006 2.738559 23.600558 -0.423396 1.454496 0.153240 -0.053484 -522503.000000 0 1 0
-21.342251 11.055206 3.363559 24.269791 -0.477941 1.431758 0.131845 -0.071565 -730019.000000 0 1 0
-21.184451 12.155106 2.431159 24.544614 -0.520913 1.471583 0.195191 -0.061595 259974.000000 0 1 0
-21.279851 13.460506 3.038659 25.362388 -0.564008 1.450698 0.183647 -0.065729 -106218.000000 0 0 1
-20.020351 14.000206 3.767659 24.718727 -0.610255 1.417779 0.129697 -0.048159 -184628.000000 0 1 0
-19.607351 13.199406 4.870459 24.132839 -0.592503 1.367582 0.120106 -0.050955 -237443.000000 0 1 0
-18.905251 13.930806 5.811559 24.191943 -0.635048 1.328197 0.104608 -0.037515 -42683.000000 0 1 0
-18.181051 13.191006 7.006759 23.529724 -0.627659 1.268427 0.059199 -0.031467 500612.000000 0 1 0
-17.152851 12.292806 6.612859 22.114775 -0.621822 1.267126 0.044213 -0.021940 285209.000000 0 1 0
-16.491951 11.730706 7.707659 21.656452 -0.618269 1.206913 0.031419 -0.020687 -339518.000000 0 1 0
11.936949 -32.030737 -14.302041 37.054113 -1.214068 1.967063 0.060965 -0.031382 -1172690.000000 0 0 1
13.147449 -32.077837 -13.667441 37.264487 -1.181818 1.946329 0.042577 -0.037468 -1036830.000000 0 0 1
13.777149 -30.845437 -13.531941 36.391816 -1.150731 1.951787 0.046180 -0.044686 -962114.000000 0 0 1
15.129349 -30.981637 -12.882741 36.806576 -1.116526 1.928380 0.077954 -0.036600 -807761.000000 0 0 1
16.097449 -31.547637 -13.728341 37.984847 -1.098976 1.940583 0.076395 -0.036911 -240561.000000 0 0 1
17.414349 -31.100337 -13.520941 38.122256 -1.060353 1.933361 0.098675 -0.037850 -156860.000000 0 0 1
18.527549 -31.996137 -14.002841 39.536090 -1.045919 1.932832 0.108773 -0.035368 -306024.000000 0 0 1
18.458049 -33.233837 -13.393441 40.305977 -1.063817 1.909531 0.099671 -0.037980 -146463.000000 0 0 1
19.552749 33.378106 -13.781341 41.064989 1.040887 1.913037 0.094759 -0.019608 55573.500000 0 0 1
19.523449 31.977006 -13.158041 39.709294 1.022658 1.908540 0.088570 -0.031339 -45519.600000 0 0 1
20.118649 31.973606 -11.863541 39.595645 1.009163 1.875088 0.078001 -0.029290 -18387.800000 0 0 1
19.941049 30.688106 -11.334241 38.312796 0.994564 1.871125 0.068213 -0.024999 -309371.000000 0 0 1
20.818749 30.264706 -10.191241 38.121308 0.968245 1.841425 0.064229 -0.020543 -305322.000000 0 0 1
22.142149 29.902206 -10.516641 38.665442 0.933412 1.846257 0.057854 -0.025043 274731.000000 0 0 1
22.896549 29.715806 -9.298641 38.649008 0.914293 1.813772 0.044036 -0.021443 647238.000000 0 0 1
24.189549 28.854206 -9.382541 38.803757 0.873112 1.815011 0.035994 -0.010761 -309622.000000 0 0 1
25.197049 29.327406 -10.175641 39.981642 0.861006 1.828135 0.049473 -0.019068 -949767.000000 0 0 1
26.360449 28.599206 -9.890141 40.132316 0.826110 1.819800 0.052615 -0.011007 237529.000000 0 0 1
27.624149 28.963306 -10.749041 41.442835 0.809059 1.833166 0.044849 -0.013085 493013.000000 0 0 1
28.232649 30.183106 -10.332641 42.601242 0.818775 1.815783 0.056584 -0.021444 305171.000000 0 0 1
29.243949 30.536306 -11.272041 43.757668 0.807013 1.831335 0.057015 -0.017337 270336.000000 0 0 1
29.715449 31.989706 -11.101941 45.051108 0.822238 1.819791 0.047538 -0.019641 -247371.000000 0 0 1
28.855349 32.915706 -11.736241 45.319027 0.851036 1.832751 0.060820 -0.017624 -32465.600000 0 0 1
29.333749 -33.172837 -11.523741 45.756995 -0.846740 1.825384 0.046898 -0.017874 -368165.000000 0 0 1
28.394349 -32.052037 -11.868341 44.434555 -0.845836 1.841176 0.044992 -0.010089 647096.000000 0 0 1
27.356249 -31.886537 -10.844741 43.390368 -0.861719 1.823409 0.068869 -0.024280 1100060.000000 0 0 1
26.219149 -31.061237 -11.134541 42.145252 -0.869731 1.838165 0.071638 -0.024615 765870.000000 0 0 1
26.405949 -29.527037 -11.030041 41.119118 -0.841141 1.842368 0.058203 -0.020947 -509350.000000 0 0 1
27.324749 -28.962937 -11.917041 41.563319 -0.814494 1.861598 0.043908 -0.012598 -361533.000000 0 0 1
27.821249 -27.786037 -11.356141 40.927347 -0.784765 1.851957 0.030059 -0.005276 -366465.000000 0 0 1
28.841349 -27.039637 -12.217841 41.379234 -0.753167 1.870529 0.068896 -0.010279 509144.000000 0 0 1
30.100549 -27.681737 -12.429441 42.741229 -0.743562 1.865866 0.042526 0.001432 250510.000000 0 0 1
30.159049 -28.383437 -13.684141 43.617009 -0.755077 1.889919 0.070979 -0.008552 438536.000000 0 0 1
31.505849 -29.133537 -13.956941 45.124026 -0.746296 1.885255 0.068582 -0.004714 496527.000000 0 0 1
31.888649 -30.138737 -13.023341 45.769388 -0.757194 1.859326 0.065056 -0.006941 -428989.000000 0 0 1
33.142549 -30.611237 -13.418441 47.069427 -0.745715 1.859884 0.065435 -0.009225 -392101.000000 0 0 1
33.639349 -31.810937 -12.593841 47.980688 -0.757470 1.836385 0.068945 -0.007789 -93042.300000 0 0 1
34.907249 -32.325037 -12.924341 49.299723 -0.747010 1.836055 0.061826 -0.015723 -62761.900000 0 0 1
35.554449 -33.140537 -11.925041 50.046185 -0.750273 1.811392 0.068532 -0.016590 -86355.600000 0 0 1
34.910649 32.995306 -11.401741 49.370470 0.757200 1.803843 0.069068 -0.022945 -337904.000000 0 0 1
33.874149 33.275606 -10.482341 48.627188 0.776485 1.788067 0.055751 -0.026496 11272.000000 0 0 1
33.277849 32.046506 -9.982241 47.265621 0.766551 1.783593 0.056870 -0.028268 -162760.000000 0 0 1
32.594749 32.336906 -8.638841 46.719619 0.781427 1.756775 0.032206 -0.027136 -255557.000000 0 0 1
31.478349 33.175506 -8.791041 46.570195 0.811642 1.760705 0.026779 -0.024732 -786703.000000 0 0 1
30.804549 33.312806 -7.575141 46.000501 0.824498 1.736225 0.023471 -0.021490 275873.000000 0 0 1
29.789149 -32.933637 -7.618141 45.056120 -0.835489 1.740694 0.024158 -0.026081 -99572.000000 0 0 1
30.380449 -31.627437 -7.731741 44.531408 -0.805506 1.745305 0.003412 -0.024900 -220305.000000 0 0 1
29.521549 -30.618037 -8.200341 43.315490 -0.803629 1.761262 0.005988 -0.010439 -85041.300000 0 0 1
28.266449 -30.255937 -7.384941 42.058902 -0.819380 1.747297 0.007400 -0.016785 281099.000000 0 0 1
27.513549 -29.150837 -7.890141 40.853654 -0.814285 1.765149 0.011076 -0.016523 -264389.000000 0 0 1
26.728749 -28.456637 -6.992141 39.662278 -0.816699 1.748014 0.028823 -0.025934 -330462.000000 0 0 1
25.803049 -27.471937 -7.717841 38.471675 -0.816714 1.772778 0.092471 -0.033668 158441.000000 0 0 1
24.694749 -28.103737 -8.376941 38.338282 -0.849875 1.791074 0.116325 -0.036887 349636.000000 0 0 1
24.031049 -27.154537 -9.160141 37.400112 -0.846345 1.818236 0.132698 -0.039563 -628324.000000 0 0 1
22.814949 -27.770637 -9.839941 37.263315 -0.883053 1.838031 0.120394 -0.036699 -613006.000000 0 0 1
23.065349 -28.560337 -11.020741 38.329622 -0.891438 1.862438 0.129478 -0.036283 -108696.000000 0 0 1
21.922349 -29.166437 -11.582541 38.280879 -0.926253 1.878181 0.122868 -0.039648 77660.600000 0 0 1
21.466349 -30.487137 -10.891141 38.844390 -0.957316 1.854985 0.110665 -0.046924 -154939.000000 0 0 1
22.345949 -31.554537 -11.108341 40.229660 -0.954609 1.850554 0.098584 -0.039706 -547259.000000 0 0 1
22.026549 -32.779037 -10.544441 40.875658 -0.979131 1.831710 0.081177 -0.040118 206860.000000 0 0 1
23.074049 33.482906 -10.815841 42.077300 0.967404 1.830762 0.072346 -0.034216 806499.000000 0 0 1
24.150649 33.685606 -9.902741 42.615000 0.948790 1.805317 0.065806 -0.029984 53568.200000 0 0 1
25.208349 32.746306 -10.065241 42.533405 0.914739 1.809706 0.060596 -0.027714 -243007.000000 0 0 1
26.460849 33.031006 -9.263441 43.324765 0.895390 1.786274 0.052377 -0.027640 -876409.000000 0 0 1
26.524649 32.844606 -7.873941 42.945595 0.891450 1.755186 0.044365 -0.033791 -107238.000000 0 0 1
26.563049 31.491806 -7.457041 41.868089 0.870093 1.749860 0.045414 -0.026801 -649996.000000 0 0 1
26.615249 31.305406 -5.958141 41.519867 0.866197 1.714794 0.045155 -0.022962 -440564.000000 0 0 1
27.847749 31.769806 -5.396141 42.590328 0.851090 1.697837 0.053279 -0.030130 761173.000000 0 0 1
28.882949 30.822806 -5.184541 42.557603 0.817877 1.692924 0.061555 -0.024423 229057.000000 0 0 1
28.467149 29.633806 -4.246341 41.310682 0.805475 1.673769 0.070916 -0.011121 -767115.000000 0 0 1
28.265749 30.111306 -2.901441 41.401228 0.817002 1.640935 0.072688 -0.007459 108625.000000 0 0 1
28.120749 29.051306 -1.930741 40.478176 0.801673 1.618513 0.064778 0.000128 -351147.000000 0 0 1
26.790949 28.296706 -1.902641 39.013826 0.812725 1.619584 0.060720 0.005870 -362859.000000 0 0 1
25.683549 28.971906 -1.355941 38.740865 0.845491 1.605804 0.058653 -0.001774 308439.000000 0 0 1
24.454949 28.316806 -1.645341 37.451211 0.858448 1.614743 0.068521 -0.001909 835672.000000 0 0 1
23.137649 28.882106 -1.056241 37.022190 0.895381 1.599330 0.087010 -0.009064 384083.000000 0 0 1
22.942449 28.683206 0.320159 36.731251 0.896143 1.562080 0.094079 -0.018158 202087.000000 0 0 1
21.795949 29.333106 0.863159 36.554611 0.931758 1.547181 0.079208 -0.017886 258662.000000 0 0 1
21.287649 28.559806 2.134459 35.684485 0.930264 1.510946 0.081770 -0.028499 62920.200000 0 0 1
20.622249 27.358306 1.733959 34.303946 0.924878 1.520228 0.116419 -0.021234 416685.000000 0 0 1
19.768449 26.752206 2.699059 33.372999 0.934407 1.489832 0.144831 -0.026110 39802.100000 0 0 1
19.113349 25.514206 2.050959 31.945286 0.927855 1.506550 0.161547 -0.017320 169022.000000 0 0 1
20.044249 24.528506 1.579959 31.716176 0.885666 1.520960 0.164541 -0.020566 371231.000000 0 0 1
20.727949 23.838706 2.615959 31.698187 0.855085 1.488175 0.134181 -0.011898 -5214.240000 0 0 1
22.053949 23.229806 2.087859 32.099217 0.811359 1.505706 0.123454 -0.017797 -127060.000000 0 0 1
21.879349 22.050606 1.348159 31.092647 0.789297 1.527423 0.123068 -0.014799 980191.000000 0 0 1
23.139849 21.395606 1.143159 31.536192 0.746253 1.534539 0.089786 -0.011453 631831.000000 0 0 1
22.972649 20.276706 0.084959 30.641388 0.723144 1.568024 0.090325 -0.014059 -185006.000000 0 0 1
22.769249 20.770906 -1.221441 30.844143 0.739534 1.610407 0.074085 -0.006005 298343.000000 0 0 1
23.052549 19.822506 -2.260141 30.487047 0.710204 1.644999 0.088801 -0.005087 112833.000000 0 0 1
22.890749 20.406706 -3.685241 30.886908 0.728089 1.690395 0.086537 -0.005327 -443684.000000 0 0 1
23.778649 21.427406 -3.901441 32.245607 0.733433 1.692085 0.092792 -0.010189 -360217.000000 0 0 1
23.547149 22.044906 -5.136841 32.662414 0.752460 1.728723 0.079607 -0.009620 -54511.800000 0 0 1
24.434849 23.321706 -5.432441 34.212209 0.762094 1.730258 0.066137 -0.000062 -44267.200000 0 0 1
24.301649 24.568306 -4.781341 34.886001 0.790855 1.708285 0.056301 0.001470 -167107.000000 0 0 1
24.561249 24.630006 -3.394041 34.948701 0.786796 1.668065 0.061456 -0.003163 2973.670000 0 0 1
23.364949 24.349406 -2.408241 33.832145 0.806028 1.642039 0.066916 -0.006002 139143.000000 0 0 1
22.409549 25.441406 -2.470741 33.993494 0.848674 1.643543 0.093205 -0.020317 759193.000000 0 0 1
21.361049 25.417506 -1.534041 33.236987 0.871898 1.616967 0.122282 -0.011921 -45929.400000 0 0 1
20.240349 24.404806 -1.822341 31.758262 0.878408 1.628209 0.154332 -0.030558 -788354.000000 0 0 1
19.584649 24.533606 -3.082941 31.543000 0.897106 1.668690 0.141252 -0.028183 231842.000000 0 0 1
18.788549 23.456106 -3.506741 30.257160 0.895441 1.686955 0.159537 -0.030978 -90673.100000 0 0 1
18.198949 23.710506 -4.924341 30.292557 0.916159 1.734080 0.154972 -0.031582 -51490.200000 0 0 1
17.443849 22.643806 -5.482541 29.104778 0.914393 1.760301 0.159407 -0.040574 216531.000000 0 0 1
16.912549 23.024106 -6.746141 29.353947 0.937251 1.802690 0.144012 -0.043045 -120939.000000 0 0 1
16.140949 21.823106 -7.353041 28.121974 0.933967 1.835341 0.158255 -0.043951 -846517.000000 0 0 1
16.883149 20.706606 -7.788241 27.829139 0.886765 1.854444 0.174980 -0.049149 -175889.000000 0 0 1
16.264849 19.839806 -8.698041 27.089096 0.884093 1.897677 0.219382 -0.063606 -328724.000000 0 0 1
17.069349 18.537506 -8.988741 26.754425 0.826607 1.913433 0.215765 -0.063597 248535.000000 0 0 1
18.234749 18.692106 -9.787241 27.887112 0.797783 1.929392 0.192189 -0.055698 267184.000000 0 0 1
18.822149 17.432706 -9.991541 27.531862 0.747093 1.942183 0.189931 -0.060729 1267260.000000 0 0 1
20.400849 17.480106 -10.153541 28.720083 0.708447 1.932143 0.156206 -0.057355 1307980.000000 0 0 1
20.917649 17.881706 -11.419541 29.794452 0.707310 1.964138 0.169650 -0.056980 1275570.000000 0 0 1
22.364249 17.855606 -11.427141 30.814962 0.673764 1.950700 0.165184 -0.045394 1443970.000000 0 0 1
23.103349 18.223506 -12.759541 32.072836 0.667863 1.979947 0.158146 -0.054290 147093.000000 0 0 1
23.006749 17.173006 -13.680441 31.802156 0.641215 2.015481 0.147302 -0.050047 70950.900000 0 0 1
23.294149 17.677806 -14.944241 32.839801 0.649169 2.043241 0.156021 -0.051695 56066.900000 0 0 1
22.995849 16.632606 -16.060241 32.609569 0.626185 2.085757 0.146087 -0.037556 -139443.000000 0 0 1
24.048649 15.705106 -16.136141 32.944847 0.578520 2.082648 0.162507 -0.041518 -1315.430000 0 0 1
24.039949 14.920906 -17.364741 33.197693 0.555480 2.121246 0.173627 -0.044908 -284611.000000 0 0 1
24.822649 15.621106 -18.495441 34.673682 0.561692 2.133428 0.172264 -0.043108 27799.400000 0 0 1
26.224149 15.582506 -18.265541 35.554894 0.536147 2.110321 0.185857 -0.038080 480412.000000 0 0 1
26.948049 16.017806 -19.414741 36.874105 0.536289 2.125292 0.178087 -0.037664 341689.000000 0 0 1
28.487349 16.063806 -19.238441 37.943281 0.513447 2.102534 0.156002 -0.036569 339863.000000 0 0 1
28.910149 17.260506 -18.584241 38.459015 0.538240 2.075127 0.144021 -0.040316 -1125080.000000 0 0 1
30.260549 17.205906 -18.327641 39.340138 0.517005 2.055421 0.111955 -0.043051 -1089540.000000 0 0 1
30.756149 18.370106 -17.448141 39.847699 0.538419 2.024025 0.115338 -0.040158 250240.000000 0 0 1
30.089449 18.542306 -16.179641 38.871234 0.552275 2.000099 0.113245 -0.044560 578502.000000 0 0 1
28.907649 19.368506 -16.247541 38.402784 0.590316 2.007641 0.116451 -0.044813 1083440.000000 0 0 1
27.853549 18.986006 -15.130441 36.948868 0.598295 1.992699 0.117878 -0.039658 394340.000000 0 0 1
28.246649 19.264306 -13.757741 36.854608 0.598545 1.953357 0.101347 -0.042960 424941.000000 0 0 1
27.244249 18.858706 -12.824941 35.529974 0.605478 1.940095 0.106242 -0.043117 293446.000000 0 0 1
27.703449 19.240806 -11.420141 35.610523 0.607044 1.897260 0.091804 -0.028853 -19286.300000 0 0 1
27.569949 20.646306 -11.190641 36.216053 0.642777 1.884934 0.096205 -0.028155 -65087.200000 0 0 1
27.948849 21.027806 -9.865541 36.340552 0.645015 1.845721 0.080335 -0.019525 230080.000000 0 0 1
27.016649 20.656506 -8.665041 35.095206 0.652770 1.820277 0.087073 -0.017456 -568975.000000 0 0 1
27.106949 19.321206 -8.163241 34.274396 0.619250 1.811281 0.100996 -0.025556 -110475.000000 0 0 1
26.228849 19.046506 -7.105941 33.184580 0.628072 1.786601 0.104659 -0.026590 711473.000000 0 0 1
24.700049 18.923206 -7.447241 31.994399 0.653738 1.805718 0.138776 -0.029626 426219.000000 0 0 1
23.981449 20.068306 -7.787541 32.225652 0.696796 1.814869 0.116013 -0.024629 477236.000000 0 0 1
22.589749 19.856706 -7.994641 31.120730 0.721099 1.830600 0.096223 -0.033432 354953.000000 0 0 1
21.812949 21.163606 -8.272541 31.498221 0.770290 1.836549 0.126104 -0.034534 -663892.000000 0 0 1
22.025549 21.730706 -9.573341 32.388227 0.778660 1.870860 0.142433 -0.036373 -13317.100000 0 0 1
21.214049 21.377006 -10.685941 31.956245 0.789224 1.911757 0.158018 -0.038681 496603.000000 0 0 1
19.714049 21.795806 -10.570841 31.232092 0.835507 1.916077 0.150208 -0.035575 78267.000000 0 0 1
19.520349 23.174506 -10.509941 32.071181 0.870778 1.904672 0.138238 -0.036579 -558441.000000 0 0 1
18.168049 23.455306 -10.353141 31.423191 0.911748 1.906543 0.130796 -0.031238 -607876.000000 0 0 1
17.802049 24.882706 -9.981741 32.182249 0.949784 1.886161 0.121333 -0.034457 -46487.200000 0 0 1
18.264349 25.897606 -10.846941 33.495202 0.956554 1.900577 0.144710 -0.028610 47036.200000 0 0 1
17.865649 27.198906 -10.440841 34.175621 0.989619 1.881266 0.144043 -0.037492 -153789.000000 0 0 1
21.073449 28.693906 33.172055 48.660207 0.937340 0.820702 0.081010 -0.020941 850560.000000 0 0 1
19.694149 29.099206 33.087333 48.263805 0.975816 0.815435 0.106508 -0.034355 329895.000000 0 0 1
18.910349 27.954406 33.191058 47.335995 0.976037 0.793745 0.116474 -0.034601 -193405.000000 0 0 1
17.397649 28.267606 33.076789 46.859468 1.019085 0.787143 0.144207 -0.045043 72553.400000 0 0 1
17.095649 28.493606 31.709251 45.930637 1.030390 0.808792 0.149550 -0.044449 -752998.000000 0 0 1
15.847449 29.103406 31.650054 45.824402 1.072168 0.808366 0.171739 -0.043043 -591985.000000 0 0 1
15.040049 28.874906 30.330295 44.495956 1.090593 0.820792 0.170384 -0.042915 6973.630000 0 0 1
14.499249 27.608706 30.262565 43.454479 1.087216 0.800400 0.170128 -0.044734 -373178.000000 0 0 1
13.142349 27.533606 30.626565 43.229704 1.125457 0.783481 0.169172 -0.031726 -527494.000000 0 0 1
12.643849 26.100306 30.691075 42.225999 1.119680 0.757103 0.153873 -0.030166 -173383.000000 0 0 1
12.618949 25.340106 29.438495 40.840958 1.108763 0.765829 0.153323 -0.031021 1229830.000000 0 0 1
13.926549 24.958206 28.923965 40.662717 1.061836 0.779430 0.135967 -0.031252 943336.000000 0 0 1
13.958649 24.171806 27.618605 39.267129 1.047103 0.790695 0.153373 -0.037151 -331818.000000 0 0 1
13.391449 24.974906 26.607055 38.871741 1.078613 0.816902 0.149898 -0.036051 176259.000000 0 0 1
13.347049 24.351506 25.297425 37.564602 1.069413 0.831947 0.142733 -0.042821 -123190.000000 0 0 1
12.222649 23.344906 24.996885 36.321097 1.088472 0.811764 0.143657 -0.034998 -267360.000000 0 0 1
12.327549 22.813506 23.682765 35.118341 1.075383 0.830685 0.148298 -0.042987 -279738.000000 0 0 1
11.147649 22.173806 23.295415 34.038568 1.104959 0.817039 0.154251 -0.040533 -352173.000000 0 0 1
11.072849 21.892406 21.803165 32.821692 1.102531 0.844251 0.162549 -0.055087 -109180.000000 0 0 1
10.608949 23.005506 21.114665 32.979269 1.138710 0.875985 0.167193 -0.050415 43331.800000 0 0 1
10.828449 22.873406 19.691665 32.065709 1.128648 0.909547 0.166950 -0.044540 -460521.000000 0 0 1
10.516749 24.113906 18.752765 32.307100 1.159538 0.951511 0.132729 -0.040561 1265570.000000 0 0 1
9.125149 24.512706 18.623365 32.108735 1.214428 0.952056 0.136079 -0.048263 1296510.000000 0 0 1
8.635849 25.211706 19.792365 33.195568 1.240789 0.931993 0.132380 -0.051579 -1072710.000000 0 0 1
7.237049 25.706106 19.525265 33.081940 1.296369 0.939478 0.132728 -0.048751 -888216.000000 0 0 1
7.200149 26.778806 18.664865 33.426394 1.308133 0.978356 0.125562 -0.044389 -697815.000000 0 0 1
5.908949 26.921906 18.182265 33.019683 1.354737 0.987654 0.122981 -0.051291 -1266960.000000 0 0 1
5.667049 27.913206 17.019465 33.180186 1.370495 1.032189 0.137377 -0.053281 -223048.000000 0 0 1
6.365549 27.658406 15.832765 32.498986 1.344587 1.061942 0.127590 -0.045350 -88229.500000 0 0 1
7.447549 28.581006 15.708165 33.452748 1.315888 1.082001 0.135879 -0.050961 -293577.000000 0 0 1
8.333549 28.341306 14.508765 32.911730 1.284814 1.114263 0.119551 -0.048819 -299970.000000 0 0 1
7.718549 28.393806 13.182265 32.242152 1.305371 1.149601 0.132204 -0.052019 -88902.100000 0 0 1
7.438549 27.053006 12.729265 30.809598 1.302465 1.144876 0.114948 -0.051365 483934.000000 0 0 1
6.528249 27.023906 11.448665 30.066285 1.333764 1.180156 0.105504 -0.053877 -210049.000000 0 0 1
7.211449 27.499906 10.321465 30.245371 1.314336 1.222542 0.088668 -0.046656 125004.000000 0 0 1
7.383749 28.917106 10.208865 31.542665 1.320796 1.241209 0.107072 -0.048520 -170677.000000 0 0 1
7.565249 29.396606 8.771565 31.596421 1.318911 1.289488 0.098655 -0.033110 986698.000000 0 0 1
6.335249 29.375206 7.986865 31.093860 1.358383 1.311021 0.083644 -0.037332 972936.000000 0 0 1
6.133749 28.075006 7.447965 29.686715 1.355699 1.317201 0.069312 -0.027566 -68255.800000 0 0 1
4.642749 27.750306 7.147465 29.029655 1.405027 1.322026 0.085504 -0.034575 435274.000000 0 0 1
4.064449 28.602506 6.108965 29.528674 1.429640 1.362409 0.090030 -0.022405 526461.000000 0 0 1
2.900949 29.258606 6.615465 30.137119 1.471971 1.349482 0.089365 -0.010166 308432.000000 0 0 1
2.035649 30.004006 5.578865 30.586075 1.503054 1.387371 0.101558 -0.019187 -130846.000000 0 0 1
1.403549 29.182206 4.652765 29.584106 1.522737 1.412868 0.110547 -0.014998 32925.600000 0 0 1
0.483849 29.918906 3.866165 30.171548 1.554626 1.442304 0.119332 -0.018281 156979.000000 0 0 1
-0.111751 29.061106 2.680265 29.184657 -1.566951 1.478829 0.095757 -0.026433 249018.000000 0 0 1
0.788649 28.868706 1.619565 28.924854 1.543485 1.514775 0.097171 -0.023159 -3807.950000 0 0 1
0.318349 27.739506 0.878465 27.755238 1.559320 1.539141 0.108268 -0.028459 162743.000000 0 0 1
-0.197551 28.139206 -0.500835 28.144356 -1.563776 1.588592 0.092336 -0.028233 -575325.000000 0 0 1
-1.363651 28.885906 -0.560235 28.923502 -1.523623 1.590167 0.104582 -0.031613 -802807.000000 0 0 1
-1.297051 29.677006 -1.700135 29.753949 -1.527119 1.627967 0.102923 -0.034820 -270538.000000 0 0 1
-2.553451 30.498006 -2.074135 30.674917 -1.487266 1.638465 0.139311 -0.032995 172748.000000 0 0 1
-3.724051 29.833306 -2.546735 30.172513 -1.446610 1.655303 0.123421 -0.037480 459114.000000 0 0 1
-3.590751 29.081306 -3.729135 29.538489 -1.447945 1.697381 0.113136 -0.040060 332217.000000 0 0 1
-4.981651 28.812406 -4.457535 29.577715 -1.399589 1.722079 0.132987 -0.029689 972857.000000 0 0 1
-5.515451 29.972306 -5.098435 30.899084 -1.388814 1.736557 0.128742 -0.033861 -313545.000000 0 0 1
-6.589951 29.485406 -5.851035 30.774198 -1.350911 1.762089 0.124289 -0.037227 -490245.000000 0 0 1
-7.226551 30.570206 -6.698135 32.118928 -1.338666 1.780880 0.124110 -0.030422 -198757.000000 0 0 1
-8.131951 31.453106 -6.061535 33.047976 -1.317794 1.755257 0.109499 -0.021608 81362.900000 0 0 1
-8.700551 32.370106 -6.989635 34.240011 -1.308219 1.776378 0.092180 -0.037568 231555.000000 0 0 1
-9.830951 33.165506 -6.247135 35.151459 -1.282626 1.749466 0.097419 -0.026438 305200.000000 0 0 1
-11.101651 32.586806 -6.321835 35.001603 -1.242449 1.752409 0.109597 -0.029433 -337812.000000 0 0 1
-12.097651 33.315906 -5.598135 35.883727 -1.222482 1.727444 0.123845 -0.029577 679833.000000 0 0 1
-13.530851 32.774006 -5.813535 35.930719 -1.179259 1.733309 0.147284 -0.032357 42788.600000 0 0 1
-14.094751 33.258606 -6.995735 36.793168 -1.169949 1.762098 0.124800 -0.028539 -633226.000000 0 0 1
-15.460351 32.969806 -7.014935 37.084227 -1.132317 1.761105 0.145465 -0.035172 -1141760.000000 0 0 1
-16.055151 33.075406 -8.457235 37.726319 -1.118888 1.796891 0.177878 -0.035079 1098790.000000 0 0 1
-17.456051 32.740406 -8.500735 38.064556 -1.080970 1.796020 0.238622 -0.033940 998999.000000 0 0 1
-18.345951 -33.660337 -8.168135 39.195799 1.071776 1.780728 0.242196 -0.037137 -271596.000000 0 0 1
-19.872151 33.443806 -8.343535 39.786997 -1.034656 1.782070 0.245957 -0.036037 981251.000000 0 0 1
-20.599551 32.779606 -7.312135 39.399383 -1.009737 1.757469 0.225115 -0.035782 269866.000000 0 0 1
-20.906251 33.670006 -6.269435 40.125384 -1.015139 1.727685 0.192737 -0.048527 -400009.000000 0 0 1
-21.424751 33.196706 -4.916235 39.814703 -0.997670 1.694590 0.189272 -0.042660 -202650.000000 0 0 1
-21.315451 -33.194937 -3.957435 39.647365 0.999974 1.670779 0.176254 -0.047386 -458881.000000 0 0 1
-22.252851 -33.205937 -2.932435 40.080205 0.980388 1.644026 0.178232 -0.039905 -124575.000000 0 0 1
-23.515151 -32.359737 -3.265835 40.134531 0.942388 1.652259 0.211324 -0.061239 165146.000000 0 0 1
-24.307451 -32.764137 -4.360835 41.028743 0.932505 1.677285 0.221514 -0.066883 -627423.000000 0 0 1
-25.418171 -31.967437 -4.557535 41.094666 0.899034 1.681928 0.222735 -0.083721 -577087.000000 0 0 1
-26.031011 -32.124537 -5.935835 41.771205 0.889797 1.713383 0.266624 -0.068185 320745.000000 0 0 1
-25.085711 -31.765537 -6.983635 41.074486 0.902358 1.741650 0.273547 -0.051817 386881.000000 0 0 1
-25.356121 -32.304237 -8.309235 41.899165 0.905321 1.770435 0.226445 -0.046773 92004.800000 0 0 1
-26.653701 -31.833137 -9.014135 42.485562 0.873725 1.784591 0.193332 -0.032354 401047.000000 0 0 1
-27.877261 -32.247037 -8.371135 43.440637 0.857950 1.764712 0.211849 -0.029352 46516.800000 0 0 1
-29.021531 -31.778437 -8.992435 43.965694 0.830711 1.776783 0.110844 -0.024040 -625097.000000 0 0 1
-29.450651 -30.289837 -8.787335 43.151273 0.799444 1.775871 0.081213 -0.008289 -376496.000000 0 0 1
-28.636201 -29.274237 -9.424835 42.021905 0.796415 1.797004 0.110572 -0.012359 131307.000000 0 0 1
-28.701151 -29.221337 -10.843335 42.370043 0.794379 1.829595 0.091264 0.003095 -245764.000000 0 0 1
-27.825491 -28.147137 -11.532235 41.225134 0.791145 1.854317 0.158783 -0.003053 -137462.000000 0 0 1
-26.451321 -28.456537 -11.471235 40.509704 0.821902 1.857897 0.149837 -0.011558 -316448.000000 0 0 1
-25.873721 -28.003437 -12.656735 40.172564 0.824907 1.891315 0.145337 -0.022487 -475280.000000 0 0 1
-24.475851 -28.580937 -12.932735 39.789356 0.862616 1.901840 0.170967 -0.029162 -337732.000000 0 0 1
-24.333351 -29.799137 -13.636535 40.817345 0.886028 1.911432 0.187934 -0.035455 -136760.000000 0 0 1
-25.006141 -30.946237 -13.162735 41.907449 0.891165 1.890295 0.168088 -0.037384 -81277.800000 0 0 1
-24.704151 -32.151837 -14.088435 42.924582 0.915649 1.905208 0.181042 -0.029116 238006.000000 0 0 1
-25.269181 -33.294337 -13.478135 43.917018 0.921583 1.882731 0.160204 -0.039040 179175.000000 0 0 1
-24.758551 32.957306 -14.097135 43.564884 -0.926508 1.900317 0.157696 -0.031924 50992.600000 0 0 1
-25.065311 31.683006 -13.261735 42.520069 -0.901489 1.887982 0.124577 -0.040033 728685.000000 0 0 1
-24.132751 31.385706 -12.159435 41.416230 -0.915303 1.868778 0.121959 -0.039286 1145140.000000 0 0 1
-23.886251 32.417906 -11.160635 41.785564 -0.935782 1.841172 0.188089 -0.037290 -138417.000000 0 0 1
-23.366351 31.871506 -9.789435 40.713785 -0.938172 1.813621 0.191579 -0.034884 153338.000000 0 0 1
-24.337151 31.279306 -8.954135 40.630880 -0.909578 1.792998 0.179853 -0.032120 203839.000000 0 0 1
-23.695651 30.642506 -7.865335 39.526074 -0.912553 1.771125 0.168113 -0.035468 507192.000000 0 0 1
-24.601851 29.549106 -7.173535 39.113429 -0.876506 1.755244 0.155303 -0.029725 231850.000000 0 0 1
-24.899051 28.528106 -8.065535 38.715222 -0.853219 1.780663 0.145939 -0.005898 335685.000000 0 0 1
-25.593391 27.417206 -7.426435 38.234497 -0.819789 1.766273 0.132902 -0.002041 314187.000000 0 0 1
-24.626651 26.263606 -6.978335 36.673507 -0.817553 1.762246 0.132283 -0.010502 495096.000000 0 0 1
-23.813451 26.694706 -5.886935 36.253879 -0.842382 1.733899 0.148619 -0.007375 -216438.000000 0 0 1
-22.927951 25.717306 -5.455135 34.883080 -0.842676 1.727824 0.127617 -0.021106 -188579.000000 0 0 1
-21.533951 26.279606 -5.089135 34.354447 -0.884327 1.719480 0.116843 -0.035341 -270584.000000 0 0 1
-20.772451 26.748006 -6.137735 34.418343 -0.910489 1.750083 0.126943 -0.031551 -868415.000000 0 0 1
-19.596651 27.322606 -5.662435 34.097165 -0.948599 1.737637 0.135412 -0.035780 -335881.000000 0 0 1
-18.386451 27.219606 -6.607535 33.505642 -0.976713 1.769304 0.144225 -0.038772 -324946.000000 0 0 1
-18.416351 27.903806 -7.880435 34.349463 -0.987427 1.802278 0.143227 -0.040617 -153446.000000 0 0 1
-18.959251 29.170606 -7.959735 35.689422 -0.994461 1.795716 0.172546 -0.039205 -293068.000000 0 0 1
-18.861751 29.741006 -9.373535 36.443878 -1.005609 1.830925 0.169616 -0.029735 -555986.000000 0 0 1
-17.552351 29.913106 -9.826835 36.047824 -1.040156 1.846896 0.153294 -0.041094 -253780.000000 0 0 1
-17.504251 30.541306 -11.082135 36.905066 -1.050366 1.875791 0.152835 -0.037817 545055.000000 0 0 1
-16.028451 30.822806 -11.567735 36.616514 -1.091262 1.892218 0.138929 -0.043563 949272.000000 0 0 1
-15.865251 31.127906 -12.937535 37.256309 -1.099435 1.925441 0.133174 -0.032888 -188554.000000 0 0 1
-16.020551 30.052706 -13.837635 36.760078 -1.081035 1.956737 0.135853 -0.042914 -86068.800000 0 0 1
-15.866151 30.383106 -15.339335 37.552138 -1.089544 1.991586 0.173717 -0.031077 346324.000000 0 0 1
-14.532551 30.712506 -15.699835 37.429105 -1.128834 2.003641 0.164608 -0.062637 8605.820000 0 0 1
-14.371351 30.867006 -17.104435 38.103405 -1.135054 2.036325 0.137666 -0.060044 -74638.000000 0 0 1
-12.950551 31.361406 -17.429235 38.144892 -1.179180 2.045328 0.168830 -0.065286 -569548.000000 0 0 1
-11.991751 30.349806 -17.379235 36.972295 -1.194506 2.060156 0.187160 -0.070425 197353.000000 0 0 1
-10.687051 30.813506 -17.759235 37.135908 -1.236948 2.069426 0.188341 -0.069086 877862.000000 0 0 1
-10.400851 30.874706 -19.319235 37.876880 -1.245864 2.106043 0.197239 -0.074909 -914814.000000 0 0 1
-10.007951 29.694306 -19.931935 37.137487 -1.245720 2.137325 0.182475 -0.074933 -202514.000000 0 0 1
-10.409751 29.552606 -21.282435 37.876925 -1.232123 2.167458 0.174748 -0.082033 877571.000000 0 0 1
-11.926751 29.148306 -21.436335 38.097081 -1.182406 2.168416 0.152082 -0.069267 655308.000000 0 0 1
-12.774751 30.189806 -21.047735 38.956717 -1.170496 2.141572 0.152697 -0.059155 -652751.000000 0 0 1
-14.130351 29.827306 -20.930235 39.082090 -1.128378 2.135950 0.148436 -0.063316 9022.320000 0 0 1
-15.104551 31.009706 -21.065035 40.416396 -1.117529 2.119053 0.189964 -0.068722 -57496.200000 0 0 1
-15.375851 31.311906 -22.427235 41.470871 -1.114331 2.142178 0.128289 -0.057117 -1481.740000 0 0 1
-16.058551 32.554806 -22.641635 42.782427 -1.112541 2.128486 0.115339 -0.053050 416562.000000 0 0 1
-16.555551 32.805106 -24.094535 43.940959 -1.103425 2.151173 0.099097 -0.036878 609182.000000 0 0 1
-15.453251 32.949406 -24.996435 44.150743 -1.132255 2.172638 0.125685 -0.040551 448928.000000 0 0 1
-15.854351 32.839306 -26.355735 44.993391 -1.121015 2.196625 0.128150 -0.028612 399693.000000 0 0 1
-16.666251 -33.479037 -27.143735 46.210304 1.108901 2.198633 0.106564 -0.020889 980719.000000 0 0 1
-17.996451 -33.287937 -26.664335 46.291962 1.075176 2.184628 0.100190 -0.017960 621133.000000 0 0 1
-18.657551 -32.190837 -27.348335 46.176678 1.045518 2.204650 0.084227 -0.008981 671811.000000 0 0 1
-20.082751 -31.802937 -26.846535 46.211256 1.007555 2.190695 0.093442 -0.023026 669634.000000 0 0 1
-21.017651 -32.798637 -27.210335 47.517308 1.000910 2.180519 0.098475 -0.019713 196203.000000 0 0 1
-22.374551 -32.345437 -27.258835 47.852815 0.965637 2.176863 0.080988 -0.013768 615072.000000 0 0 1
-23.408351 -33.430537 -27.445035 49.181111 0.959930 2.162818 0.071872 -0.013043 -296196.000000 0 0 1
-23.743651 33.376906 -26.177635 48.611186 -0.952474 2.139465 0.098467 -0.018371 -31856.600000 0 0 1
-24.789251 32.400206 -26.254035 48.513448 -0.917704 2.142624 0.076374 -0.013077 252918.000000 0 0 1
-24.463751 31.020706 -26.866735 47.776362 -0.903029 2.168014 0.081776 -0.013217 -78728.700000 0 0 1
-23.541251 30.151006 -26.198935 46.364403 -0.907886 2.171309 0.077976 -0.031036 -273663.000000 0 0 1
-23.879051 29.479506 -25.011135 45.440150 -0.889974 2.153663 0.065241 -0.021416 -382889.000000 0 0 1
33.271869 9.860006 -26.077521 43.408226 0.288102 2.215236 0.102912 -0.011045 105646.000000 0 0 1
32.778269 8.541206 -26.047941 42.730111 0.254907 2.226342 0.089967 -0.006487 -231770.000000 0 0 1
31.381579 8.466906 -25.959911 41.598185 0.263530 2.244729 0.099251 -0.013559 -335354.000000 0 0 1
30.899179 7.023506 -25.700531 40.799586 0.223506 2.252248 0.082680 -0.003550 -152943.000000 0 0 1
30.930579 6.661706 -24.333941 39.915157 0.212136 2.226405 0.080167 0.010388 221988.000000 0 0 1
30.374479 5.372006 -24.050541 39.113884 0.175049 2.233036 0.087357 0.006183 253358.000000 0 0 1
30.191279 5.069206 -22.554541 38.025222 0.166351 2.205758 0.089006 -0.004193 30434.700000 0 0 1
31.474489 5.003106 -21.985541 38.717419 0.157639 2.174683 0.105413 -0.010934 62701.300000 0 0 1
31.368179 4.841406 -20.594441 37.835603 0.153133 2.146367 0.102000 -0.011001 -345745.000000 0 0 1
32.653689 4.640006 -19.791641 38.464297 0.141152 2.111274 0.099832 -0.013136 -171555.000000 0 0 1
33.306559 3.382706 -19.878041 38.934639 0.101216 2.106619 0.113391 -0.008260 171262.000000 0 0 1
34.321079 3.186506 -18.938441 39.328804 0.092579 2.073209 0.118737 -0.012719 -387917.000000 0 0 1
34.826529 1.707006 -18.803541 39.615327 0.048975 2.065366 0.129335 -0.017300 -85235.900000 0 0 1
34.024589 0.730806 -18.156841 38.573017 0.021475 2.060896 0.125778 -0.010999 -83704.900000 0 0 1
34.600909 -0.549194 -18.206941 39.102650 -0.015871 2.055130 0.142403 -0.012193 239695.000000 0 0 1
33.544599 -1.617694 -17.810341 38.014015 -0.048188 2.058412 0.124113 -0.007225 329182.000000 0 0 1
33.209779 -1.627794 -16.464041 37.102612 -0.048976 2.030568 0.140357 -0.023476 -379502.000000 0 0 1
31.831389 -1.820894 -16.320241 35.817639 -0.057142 2.043897 0.136079 -0.022474 -362027.000000 0 0 1
31.279779 -2.128394 -14.924741 34.723228 -0.067939 2.015090 0.153146 -0.028165 -451219.000000 0 0 1
31.301679 -3.495994 -14.617041 34.722831 -0.111226 2.005303 0.136042 -0.031061 357275.000000 0 0 1
30.687279 -3.822494 -13.374541 33.692713 -0.123925 1.978995 0.134669 -0.030303 -110677.000000 0 0 1
30.465079 -5.315894 -13.116241 33.591897 -0.172752 1.971926 0.131286 -0.027590 174996.000000 0 0 1
29.656679 -5.997394 -14.081841 33.373426 -0.199536 2.006389 0.110537 -0.030169 573982.000000 0 0 1
29.315179 -7.308594 -13.549441 33.111669 -0.244330 1.992378 0.119174 -0.030714 -278430.000000 0 0 1
28.638479 -8.133094 -14.650741 33.180626 -0.276706 2.028116 0.081575 -0.015802 -104529.000000 0 0 1
27.417579 -7.581094 -15.124441 32.217159 -0.269765 2.059467 0.087728 -0.015469 181868.000000 0 0 1
26.987779 -8.281794 -16.270141 32.582907 -0.297749 2.093640 0.083532 -0.016351 -97717.600000 0 0 1
25.549879 -7.858194 -16.632641 31.483206 -0.298381 2.127396 0.068973 -0.014620 -417664.000000 0 0 1
25.326179 -6.586294 -17.171241 31.299299 -0.254423 2.151502 0.062799 -0.011343 -245135.000000 0 0 1
24.007279 -6.452194 -17.654441 30.490319 -0.262556 2.188320 0.096898 -0.021942 -60340.700000 0 0 1
23.869779 -6.853894 -19.111241 31.336588 -0.279614 2.226693 0.056846 -0.009256 -249247.000000 0 0 1
24.598879 -6.152594 -20.117441 32.367742 -0.245089 2.241487 0.054167 -0.010150 408835.000000 0 0 1
24.391579 -6.709894 -21.404841 33.138181 -0.268450 2.273033 0.072625 -0.017816 -12019.700000 0 0 1
24.972479 -5.666794 -22.408241 34.027438 -0.223143 2.289666 0.076763 -0.019570 -1314.740000 0 0 1
25.040679 -6.132294 -23.724641 35.035685 -0.240167 2.314688 0.094874 -0.030170 301224.000000 0 0 1
25.181679 -5.093094 -24.623641 35.586237 -0.199562 2.334973 0.080067 -0.030192 -238471.000000 0 0 1
25.148679 -5.725594 -26.079011 36.679058 -0.223854 2.361723 0.095863 -0.036672 554542.000000 0 0 1
23.816379 -6.224994 -26.294861 36.019303 -0.255655 2.389150 0.094243 -0.034771 626430.000000 0 0 1
23.588179 -6.252394 -27.673501 36.896033 -0.259106 2.418919 0.094488 -0.040564 830051.000000 0 0 1
22.166979 -6.818094 -28.038151 36.386801 -0.298395 2.450513 0.096623 -0.039196 844536.000000 0 0 1
22.141579 -8.240794 -27.925171 36.578346 -0.356302 2.439410 0.092585 -0.037998 451402.000000 0 0 1
20.824579 -8.685094 -28.178001 36.098389 -0.395126 2.466404 0.105721 -0.038756 43479.600000 0 0 1
20.835479 -10.145794 -27.768921 36.168595 -0.453152 2.446139 0.119420 -0.032642 -581887.000000 0 0 1
19.585379 -10.735694 -27.566731 35.479104 -0.501421 2.460658 0.127651 -0.031472 -155011.000000 0 0 1
19.679779 -12.039194 -27.006691 35.518970 -0.549018 2.434641 0.123402 -0.036013 -139939.000000 0 0 1
19.886979 -13.235094 -27.944221 36.763285 -0.587205 2.434282 0.110773 -0.030761 -778794.000000 0 0 1
18.751579 -13.469294 -28.677221 36.816119 -0.622904 2.463756 0.100846 -0.025706 -561657.000000 0 0 1
18.888279 -14.661994 -29.402011 37.897485 -0.660089 2.458826 0.084614 -0.026219 -387595.000000 0 0 1
17.727779 -15.010394 -30.327921 38.201687 -0.702584 2.487976 0.077948 -0.027413 -15748.700000 0 0 1
16.570379 -15.510994 -29.671561 37.357327 -0.752388 2.488591 0.090298 -0.029491 620204.000000 0 0 1
15.558679 -15.947294 -30.572861 37.829730 -0.797732 2.511835 0.089737 -0.035107 -890603.000000 0 0 1
14.357979 -16.511294 -29.882631 37.037090 -0.855041 2.509563 0.095683 -0.041397 -1116480.000000 0 0 1
14.408479 -17.674894 -29.150181 37.009988 -0.886859 2.477750 0.091931 -0.034840 -229151.000000 0 0 1
13.299579 -17.915894 -28.309311 36.045459 -0.932219 2.474103 0.089029 -0.034638 -70308.900000 0 0 1
13.448479 -19.197694 -27.492611 36.128336 -0.959718 2.435605 0.073916 -0.032033 620883.000000 0 0 1
14.614179 -19.140494 -26.646311 35.915994 -0.918697 2.406706 0.092952 -0.028185 572768.000000 0 0 1
14.830679 -20.301994 -25.921961 36.111882 -0.939890 2.371468 0.076506 -0.021331 108052.000000 0 0 1
15.964979 -20.201694 -24.858841 35.790375 -0.902011 2.338615 0.066911 -0.017592 42436.800000 0 0 1
17.274079 -20.438494 -25.318961 36.839865 -0.869111 2.328521 0.084842 -0.018729 113332.000000 0 0 1
18.207079 -20.148294 -24.286741 36.432091 -0.835966 2.300475 0.082993 -0.018635 -17421.500000 0 0 1
19.672579 -20.516394 -24.616641 37.602018 -0.806391 2.284533 0.050056 -0.011453 -154847.000000 0 0 1
20.000479 -21.884894 -24.821041 38.665900 -0.830358 2.267817 0.071694 -0.021121 230276.000000 0 0 1
19.719079 -22.812194 -23.804441 38.417310 -0.857996 2.239065 0.069506 -0.032986 -592896.000000 0 0 1
20.292879 -24.233294 -24.027841 39.703786 -0.873665 2.220785 0.070408 -0.034835 143558.000000 0 0 1
21.706079 -24.302494 -23.820941 40.363378 -0.841772 2.202056 0.081202 -0.040608 710104.000000 0 0 1
22.097679 -25.648184 -23.557941 41.244555 -0.859624 2.178735 0.099471 -0.057892 -50369.700000 0 0 1
22.063579 -25.991824 -22.012241 40.582203 -0.866961 2.144101 0.115336 -0.057603 253209.000000 0 0 1
20.724579 -26.132254 -21.509141 39.686849 -0.900298 2.143578 0.091376 -0.045675 970736.000000 0 0 1
20.775879 -26.091494 -20.105841 38.944166 -0.898334 2.113290 0.093436 -0.048265 492103.000000 0 0 1
19.429879 -26.588944 -19.485241 38.264432 -0.939729 2.105081 0.089781 -0.037914 9647.320000 0 0 1
19.249379 -27.990914 -19.648141 39.243844 -0.968373 2.095167 0.098385 -0.038844 632959.000000 0 0 1
18.171879 -28.585794 -18.911641 38.794522 -1.004542 2.080000 0.093653 -0.033251 2176750.000000 0 0 1
16.648079 -28.206004 -19.204841 37.967922 -1.037590 2.101126 0.075193 -0.032755 1300130.000000 0 0 1
16.173279 -26.931114 -18.758841 36.588987 -1.029978 2.109112 0.072927 -0.033348 1508830.000000 0 0 1
14.819279 -26.690294 -19.282041 36.107893 -1.063946 2.134135 0.073570 -0.022169 1710420.000000 0 0 1
13.928079 -25.678454 -18.563641 34.611893 -1.073804 2.136887 0.063169 -0.030777 -600681.000000 0 0 1
13.449079 -26.190954 -17.368141 34.183272 -1.096406 2.103761 0.065584 -0.025904 347591.000000 0 0 1
12.368279 -25.497624 -16.738641 32.913299 -1.119159 2.104317 0.077635 -0.039673 804984.000000 0 0 1
10.907279 -25.809574 -17.152541 32.852892 -1.170955 2.120109 0.094174 -0.033320 68104.200000 0 0 1
10.291179 -26.949224 -16.637241 33.301153 -1.206014 2.093933 0.096130 -0.021473 303715.000000 0 0 1
8.923779 -26.810064 -16.257041 32.599152 -1.249479 2.092889 0.090760 -0.012836 998849.000000 0 0 1
7.885379 -27.400574 -17.258141 33.328877 -1.290586 2.115089 0.085974 -0.002405 60207.000000 0 0 1
7.778779 -26.652104 -18.446641 33.333506 -1.286821 2.157233 0.096289 -0.007116 -249824.000000 0 0 1
7.256979 -27.519374 -19.398741 34.442573 -1.312962 2.169074 0.086895 -0.004215 -230956.000000 0 0 1
7.224079 -27.025334 -20.829141 34.877057 -1.309596 2.210822 0.080728 -0.015363 -605574.000000 0 0 1
6.217279 -26.131584 -21.133341 34.177951 -1.337217 2.237416 0.100575 -0.019818 -207474.000000 0 0 1
6.580879 -25.399594 -22.294541 34.431002 -1.317277 2.275113 0.082237 -0.017248 -202091.000000 0 0 1
5.357879 -24.546494 -22.682041 33.848371 -1.355892 2.305150 0.063576 -0.013612 -188054.000000 0 0 1
4.416579 -25.456494 -23.179141 34.710399 -1.399011 2.302028 0.061343 -0.010974 -409031.000000 0 0 1
3.287579 -24.875894 -23.794041 34.579975 -1.439399 2.329646 0.067095 -0.011852 798000.000000 0 0 1
2.220879 -25.895564 -24.351541 35.616149 -1.485243 2.323647 0.049941 -0.019926 659108.000000 0 0 1
2.692379 -26.585784 -25.471891 36.917070 -1.469869 2.332252 0.053040 -0.021135 -469930.000000 0 0 1
1.646979 -27.221764 -26.095811 37.745573 -1.510368 2.334167 0.078671 -0.037846 -507308.000000 0 0 1
2.164779 -28.271284 -27.136381 39.247101 -1.494374 2.334254 0.065138 -0.035004 -334116.000000 0 0 1
2.744879 -27.643884 -28.243181 39.615602 -1.471826 2.364465 0.047237 -0.033132 142274.000000 0 0 1
3.332379 -28.553994 -29.205931 40.980748 -1.454617 2.364100 0.073688 -0.043239 1077610.000000 0 0 1
4.805979 -29.045664 -28.952321 41.291463 -1.406819 2.347833 0.058219 -0.035175 270384.000000 0 0 1
4.979279 -29.879894 -27.851301 41.149681 -1.405671 2.314243 0.050619 -0.047329 -1070930.000000 0 0 1
6.228279 -30.449334 -27.898351 41.764475 -1.369034 2.302304 0.072394 -0.045457 -950906.000000 0 0 1
6.331279 -31.592644 -26.939291 41.998877 -1.373013 2.267156 0.094093 -0.055674 -624069.000000 0 0 1
5.541979 -32.623594 -27.379191 42.949185 -1.402526 2.262018 0.094636 -0.067019 -444634.000000 0 0 1
5.782979 33.593140 -26.619941 43.250007 1.400320 2.233804 0.109826 -0.071361 -620997.000000 0 0 1
4.588679 32.705063 -26.361161 42.256217 1.431401 2.244444 0.128751 -0.071414 -684911.000000 0 0 1
3.856579 32.254646 -27.477671 42.547124 1.451795 2.272890 0.123981 -0.075607 950673.000000 0 0 1
2.508779 31.911785 -27.083381 41.930484 1.492342 2.273013 0.073166 -0.072892 724996.000000 0 0 1
1.521279 32.127774 -28.245391 42.805493 1.523481 2.291421 0.100686 -0.067900 -343462.000000 0 0 1
1.329579 30.972290 -29.024071 42.467013 1.527895 2.323274 0.129421 -0.062610 84748.300000 0 0 1
0.398879 31.326010 -30.027871 43.395288 1.558064 2.334999 0.134655 -0.064583 178646.000000 0 0 1
0.090179 30.321060 -31.187511 43.497536 1.567822 2.370278 0.125525 -0.053053 135179.000000 0 0 1
1.152179 30.273500 -32.133011 44.162684 1.532756 2.385621 0.136279 -0.047298 246102.000000 0 0 1
0.938879 29.332060 -33.156311 44.278574 1.538799 2.417064 0.152145 -0.046832 -536144.000000 0 0 1
2.267279 28.956200 33.513195 44.347901 1.492655 0.714092 0.145724 -0.037136 -637249.000000 0 0 1
2.782079 30.036090 32.775489 44.543679 1.478435 0.743941 0.143436 -0.035068 -36837.000000 0 0 1
3.917279 29.508390 32.084900 43.766779 1.438817 0.747945 0.128990 -0.044236 -203816.000000 0 0 1
3.705179 28.930790 30.645345 42.306691 1.443419 0.760688 0.132199 -0.020942 -42993.000000 0 0 1
3.050779 27.649070 30.659645 41.397973 1.460902 0.736822 0.144391 -0.030626 835467.000000 0 0 1
4.035379 26.622670 30.918785 41.000269 1.420365 0.716496 0.145320 -0.027273 488296.000000 0 0 1
3.449079 25.290140 31.316404 40.400550 1.435252 0.683847 0.145637 -0.032608 -388338.000000 0 0 1
2.647379 24.638190 30.401035 39.220810 1.463757 0.683883 0.149606 -0.023414 -113279.000000 0 0 1
2.550779 23.253100 30.749995 38.636450 1.461537 0.650336 0.136029 -0.007561 198426.000000 0 0 1
1.656379 22.411750 29.775095 37.303973 1.497024 0.646537 0.131111 0.004358 794108.000000 0 0 1
0.290979 22.298450 30.168875 37.516217 1.557748 0.636543 0.102530 -0.003009 605090.000000 0 0 1
-0.477521 21.518750 29.208925 36.282860 -1.548609 0.635064 0.113538 0.002667 1574050.000000 0 0 1
-1.950721 21.138450 29.650325 36.466164 -1.478774 0.621353 0.099053 0.001238 1190330.000000 0 0 1
-2.778921 22.267150 29.948765 37.422946 -1.446639 0.643037 0.101930 -0.006143 113017.000000 0 0 1
-4.123521 21.925650 30.178415 37.529645 -1.384899 0.636599 0.066757 -0.007891 -141791.000000 0 0 1
-4.958821 23.191600 30.398735 38.555457 -1.360149 0.662525 0.039425 -0.017275 -185535.000000 0 0 1
-4.882821 23.624650 31.773806 39.894119 -1.366983 0.649389 0.052017 -0.015088 -139627.000000 0 0 1
-5.639421 24.759170 32.004547 40.854750 -1.346846 0.670721 0.045722 -0.020731 -215459.000000 0 0 1
-5.639421 25.241210 33.462405 42.292485 -1.350985 0.658005 0.079586 -0.020910 -161941.000000 0 0 1
-6.855821 25.904450 -33.635361 43.004422 -1.312070 2.468885 0.062857 -0.016732 -286509.000000 0 0 1
-6.969921 26.205110 -32.252061 42.136480 -1.310839 2.442488 0.078113 -0.014330 20924.500000 0 0 1
-8.274521 26.848660 -31.737681 42.386302 -1.271842 2.417004 0.089269 -0.009941 -395954.000000 0 0 1
-8.590521 28.091700 -32.307621 43.666039 -1.274024 2.403688 0.098278 -0.019674 -557150.000000 0 0 1
-9.835521 28.616770 -31.949001 44.004495 -1.239747 2.383341 0.091455 -0.020742 -191749.000000 0 0 1
-10.029421 28.978290 -30.469471 43.228685 -1.237599 2.352999 0.087384 -0.013694 -459671.000000 0 0 1
-9.235321 30.084200 -30.104301 43.550191 -1.272946 2.334021 0.104584 -0.012029 65677.200000 0 0 1
-9.499721 30.505670 -28.797461 43.013188 -1.268906 2.304336 0.105834 -0.016159 -124877.000000 0 0 1
-8.570121 31.678108 -28.427951 43.417714 -1.306583 2.284654 0.091521 -0.027787 742102.000000 0 0 1
-7.222721 31.260010 -28.182981 42.704055 -1.343728 2.291562 0.102672 -0.037563 223723.000000 0 0 1
-6.471421 32.353071 -27.736851 43.103752 -1.373377 2.269846 0.123956 -0.042004 -951069.000000 0 0 1
-4.994521 32.230613 -27.408551 42.602656 -1.417057 2.269666 0.159647 -0.048696 -806822.000000 0 0 1
-4.295521 33.439390 -27.120531 43.268550 -1.443039 2.248230 0.186153 -0.064019 -94919.600000 0 0 1
-4.168621 -32.909304 -28.046351 43.439584 1.444797 2.272658 0.198052 -0.071393 -675339.000000 0 0 1
-3.236021 -33.215224 -29.232911 44.365369 1.473677 2.290169 0.183342 -0.061348 -469402.000000 0 0 1
-3.681021 33.207482 -30.111471 44.977632 -1.460398 2.304300 0.165524 -0.059578 -518559.000000 0 0 1
-4.637221 33.702520 -31.008281 46.031262 -1.434062 2.309913 0.175022 -0.044884 -202027.000000 0 0 1
-4.178621 -32.934704 -32.333721 46.342476 1.444595 2.342996 0.129416 -0.039741 -96400.800000 0 0 1
-3.835521 -31.561074 -32.078301 45.164477 1.449862 2.360657 0.139437 -0.056622 174875.000000 0 0 1
-3.450821 -30.945854 -33.313971 45.600161 1.459744 2.389948 0.104724 -0.060322 -10964.400000 0 0 1
35.211899 17.610706 13.277165 41.548742 0.463756 1.245535 0.096935 -0.045141 290908.000000 0 0 1
36.543309 17.207106 13.010065 42.435360 0.440072 1.259193 0.101985 -0.051954 197303.000000 0 0 1
36.950039 15.977306 13.612665 42.495698 0.408124 1.244718 0.121187 -0.021941 767912.000000 0 0 1
-37.823141 15.773906 13.701265 43.210308 -0.395112 1.248144 0.080257 -0.037860 1028990.000000 0 0 1
-37.159881 15.344406 12.534965 42.112146 -0.391602 1.268559 0.088294 -0.028232 -106690.000000 0 0 1
-37.375201 13.971106 12.225365 41.731966 -0.357724 1.273486 0.142280 -0.040423 -871955.000000 0 0 1
-36.124061 13.145806 11.967465 40.261398 -0.349010 1.268991 0.163987 -0.025382 -471213.000000 0 0 1
-35.602330 12.384806 13.053065 39.890999 -0.334772 1.237438 0.131503 -0.025123 28847.400000 0 0 1
-36.441311 11.371006 13.599165 40.524143 -0.302462 1.228574 0.139886 -0.027873 14628.700000 0 0 1
-35.863507 10.803606 14.938665 40.324592 -0.292596 1.191292 0.168884 -0.047022 120613.000000 0 0 1
-35.783817 11.776806 15.984065 40.922671 -0.317945 1.169522 0.156697 -0.030843 192708.000000 0 0 1
-35.093056 11.355906 17.136565 40.671132 -0.312960 1.135869 0.141750 -0.024523 -72619.700000 0 0 1
-35.049772 12.511006 18.191965 41.424140 -0.342853 1.116129 0.137387 -0.019897 873339.000000 0 0 1
-36.388531 12.753006 18.683165 42.846528 -0.337091 1.119593 0.161025 -0.030375 1139080.000000 0 0 1
-36.341851 13.561306 19.805865 43.553547 -0.357156 1.098708 0.169868 -0.031716 31958.000000 0 0 1
-37.664451 13.651906 20.612465 45.053958 -0.347733 1.095608 0.196631 -0.049547 138252.000000 0 0 1
-37.847361 12.347506 21.130465 45.070835 -0.315357 1.082833 0.166648 -0.037961 -234771.000000 0 0 1
37.327419 12.241306 21.891365 44.971298 0.316892 1.062391 0.186758 -0.046980 -324404.000000 0 0 1
37.359419 10.751006 22.502195 44.918361 0.280201 1.046091 0.158100 -0.044152 267074.000000 0 0 1
-37.940931 10.514706 23.452175 45.826606 -0.270349 1.033565 0.143229 -0.031531 88248.200000 0 0 1
38.096099 10.983306 24.729305 46.727768 0.280693 1.013114 0.152848 -0.033657 -600764.000000 0 0 1
-36.982611 11.168606 25.644075 46.368846 -0.293287 0.984781 0.120892 -0.033204 56908.700000 0 0 1
-36.150971 12.209706 25.334765 45.801964 -0.325713 0.984671 0.112563 -0.030823 -289631.000000 0 0 1
-35.232783 11.905306 24.262375 44.404371 -0.325859 0.992741 0.105956 -0.032427 -321753.000000 0 0 1
-34.297459 13.095906 23.941605 43.829429 -0.364748 0.992922 0.107266 -0.029720 200899.000000 0 0 1
-33.460921 13.623806 24.949275 43.905667 -0.386660 0.966422 0.070827 -0.025608 -223518.000000 0 0 1
-34.149895 14.320306 25.899225 45.189117 -0.397064 0.960476 0.070998 -0.024134 -1181750.000000 0 0 1
-33.290411 15.016606 26.957685 45.392364 -0.423751 0.934922 0.069827 -0.017693 -625539.000000 0 0 1
-32.517091 16.043806 26.430725 44.870348 -0.458351 0.940918 0.088198 -0.029007 -258576.000000 0 0 1
-32.082141 16.925006 27.438935 45.482026 -0.485446 0.923174 0.087230 -0.023862 -204227.000000 0 0 1
-31.363391 18.159006 26.976295 45.178892 -0.524826 0.930916 0.087001 -0.024605 -1002250.000000 0 0 1
-32.207691 18.998406 26.253345 45.689308 -0.532939 0.958674 0.089220 -0.045849 -46577.400000 0 0 1
-31.767111 20.305606 26.075285 45.840893 -0.568747 0.965724 0.093448 -0.052568 -347314.000000 0 0 1
-32.870531 21.106606 25.375325 46.581839 -0.570811 0.994709 0.113494 -0.033749 194961.000000 0 0 1
-34.022483 21.432706 26.142355 47.961578 -0.562156 0.994325 0.114000 -0.037673 405520.000000 0 0 1
-34.946865 22.353606 25.634075 48.765489 -0.569062 1.017305 0.125072 -0.035390 -718739.000000 0 0 1
-34.505621 23.788606 25.311185 48.961125 -0.603585 1.027495 0.127624 -0.037500 -450435.000000 0 0 1
-35.452762 24.447306 24.486965 49.539687 -0.603694 1.053779 0.130955 -0.037674 146519.000000 0 0 1
-35.233588 25.846806 24.498615 50.096359 -0.632912 1.059819 0.128245 -0.033209 650745.000000 0 0 1
-36.355721 26.573206 23.665695 50.871788 -0.631179 1.086933 0.133059 -0.033690 518696.000000 0 0 1
-36.279791 26.256306 22.286495 50.023041 -0.626467 1.109036 0.141513 -0.035754 -153605.000000 0 0 1
-37.386061 26.656906 21.523065 50.710458 -0.619409 1.132463 0.143383 -0.041663 -129073.000000 0 0 1
-37.119961 26.328806 20.048665 49.729734 -0.616933 1.155837 0.175056 -0.053892 130448.000000 0 0 1
-37.216921 24.959906 19.748965 48.970580 -0.590762 1.155695 0.165342 -0.051591 155900.000000 0 0 1
-36.782801 24.743206 18.436165 48.011383 -0.592157 1.176676 0.172548 -0.060627 -133054.000000 0 0 1
-37.057821 23.254006 18.080565 47.338544 -0.560399 1.178900 0.177341 -0.047847 1489510.000000 0 0 1
37.940429 23.046806 17.525765 47.726134 0.545877 1.194783 0.152624 -0.046820 1159970.000000 0 0 1
38.018759 22.379206 16.262565 47.018357 0.532022 1.217623 0.140087 -0.041614 324669.000000 0 0 1
36.703049 22.364706 15.415965 45.661208 0.547260 1.226413 0.129438 -0.033782 37107.700000 0 0 1
35.770079 21.497306 15.955265 44.678890 0.541144 1.205625 0.141151 -0.041633 130957.000000 0 0 1
34.667469 21.366206 15.027865 43.407199 0.552332 1.217272 0.128302 -0.039091 50898.300000 0 0 1
33.419209 20.548906 15.402165 42.146504 0.551291 1.196687 0.136249 -0.047092 36960.200000 0 0 1
32.631529 21.080806 16.435765 42.182360 0.573576 1.170560 0.131966 -0.043734 25117.800000 0 0 1
31.669199 21.995506 15.946565 41.725692 0.607052 1.178646 0.137181 -0.035503 -477220.000000 0 0 1
30.901079 22.666706 17.107165 41.967980 0.632873 1.150946 0.127075 -0.032828 -261960.000000 0 0 1
31.673789 23.531006 17.882965 43.321330 0.638953 1.145272 0.070221 -0.026814 -536995.000000 0 0 1
30.943079 24.219306 18.881765 43.595527 0.664106 1.122853 0.068266 -0.009510 -473022.000000 0 0 1
31.715329 24.706606 20.062765 44.930981 0.661811 1.107919 0.062584 -0.017696 -282969.000000 0 0 1
32.535539 25.814706 19.720565 45.976745 0.670723 1.127494 0.073818 -0.026283 119322.000000 0 0 1
33.429969 26.117006 20.761965 47.230499 0.663200 1.115656 0.075962 -0.028665 -285574.000000 0 0 1
34.616959 27.053206 20.401165 48.439832 0.663359 1.136067 0.098662 -0.041551 336938.000000 0 0 1
35.580509 27.346506 21.393565 49.714069 0.655287 1.125936 0.095956 -0.036793 500535.000000 0 0 1
35.059569 28.254106 22.428985 50.304346 0.678321 1.108655 0.056585 -0.023109 -114609.000000 0 0 1
36.079119 28.432806 23.564345 51.627567 0.667423 1.096818 0.052484 -0.027743 297796.000000 0 0 1
37.187619 29.270006 23.230595 52.719188 0.666819 1.114476 0.101695 -0.041714 142287.000000 0 0 1
37.725659 29.697906 24.485855 53.895715 0.666892 1.099189 0.113797 -0.031475 -19579.800000 0 0 1
-37.298681 30.501306 24.399565 54.007963 -0.685476 1.102040 0.111222 -0.038966 191819.000000 0 0 1
-36.110621 29.798606 24.117305 52.664772 -0.689921 1.095120 0.117516 -0.033596 901550.000000 0 0 1
-34.954585 30.673306 24.199315 52.424055 -0.720255 1.090990 0.115878 -0.028162 1003600.000000 0 0 1
-33.594131 30.083406 23.777635 50.979926 -0.730321 1.085566 0.136378 -0.033681 23888.200000 0 0 1
-33.324361 30.154406 22.360645 50.197606 -0.735502 1.109117 0.120577 -0.021448 125352.000000 0 0 1
-33.610041 28.932306 21.717165 49.379636 -0.710744 1.115420 0.132039 -0.029031 -321621.000000 0 0 1
-32.837941 27.691906 22.141765 48.326284 -0.700586 1.094858 0.137614 -0.026304 -1205700.000000 0 0 1
-31.477521 27.659006 21.861165 47.262728 -0.720917 1.089932 0.112613 -0.019981 -175620.000000 0 0 1
-30.772261 26.565306 22.454775 46.442055 -0.712158 1.066147 0.115576 -0.029177 119151.000000 0 0 1
-30.357171 26.657006 23.938465 46.959599 -0.720590 1.035882 0.126936 -0.018078 -84823.300000 0 0 1
-31.486031 26.596006 24.815495 48.109526 -0.701405 1.028841 0.117761 -0.019307 232891.000000 0 0 1
-31.197191 26.758606 26.189055 48.735555 -0.708962 1.003480 0.135704 -0.035809 198439.000000 0 0 1
-32.354501 27.170606 27.183605 50.239466 -0.698530 0.999075 0.135219 -0.029871 730280.000000 0 0 1
-33.323081 26.136406 27.385515 50.433182 -0.665115 0.996784 0.123578 -0.031318 684814.000000 0 0 1
-34.313453 26.527206 28.339065 51.809346 -0.658112 0.992035 0.114375 -0.028388 509350.000000 0 0 1
-35.083160 25.363606 28.981445 52.096687 -0.625968 0.980868 0.106318 -0.027121 339362.000000 0 0 1
-34.198599 24.627006 29.797375 51.613149 -0.624100 0.955352 0.107570 -0.040029 274942.000000 0 0 1
-34.880992 23.493306 30.229175 51.792104 -0.592737 0.947563 0.094528 -0.041605 -175313.000000 0 0 1
-34.040763 22.680906 31.192295 51.440804 -0.587739 0.919305 0.096202 -0.052845 447962.000000 0 0 1
-32.784501 22.214806 30.653145 50.079301 -0.595534 0.912093 0.099676 -0.044588 837962.000000 0 0 1
-32.179471 21.117706 31.361181 49.648761 -0.580755 0.887103 0.093379 -0.045431 169613.000000 0 0 1
-31.410581 21.517106 32.679248 50.175130 -0.600606 0.861495 0.093607 -0.049098 -809500.000000 0 0 1
-32.090421 21.996106 -33.475631 51.324864 -0.600888 2.281319 0.114404 -0.052268 -37132.100000 0 0 1
-31.431701 21.736306 -32.233091 49.993909 -0.605026 2.271480 0.097699 -0.042787 -32682.300000 0 0 1
-30.078161 22.423606 -31.928691 49.264137 -0.640622 2.275899 0.102046 -0.042444 -71855.900000 0 0 1
-30.190031 23.808306 -31.812721 49.903132 -0.667760 2.262032 0.098034 -0.045584 274829.000000 0 0 1
-29.610151 24.102806 -30.535071 48.888617 -0.683222 2.245396 0.133300 -0.032367 117221.000000 0 0 1
-30.171181 25.388206 -29.763761 49.403872 -0.699522 2.217374 0.105575 -0.033276 -215088.000000 0 0 1
-29.848071 26.664206 -30.385161 50.250823 -0.729118 2.220148 0.112797 -0.041142 166956.000000 0 0 1
-30.826251 27.081906 -31.308471 51.613058 -0.720828 2.222573 0.083828 -0.040329 -60500.300000 0 0 1
-30.655671 28.581806 -31.644181 52.517083 -0.750403 2.217489 0.101671 -0.038086 99476.700000 0 0 1
-31.206641 29.426306 -30.630061 52.706380 -0.756044 2.190932 0.077671 -0.046016 68031.300000 0 0 1
-30.939021 30.787806 -30.929511 53.495296 -0.782948 2.187283 0.105168 -0.063384 -127000.000000 0 0 1
-31.001901 31.792806 -29.744651 53.447588 -0.797993 2.160988 0.103648 -0.050777 -165944.000000 0 0 1
-29.860421 31.728506 -28.917611 52.293126 -0.815720 2.156746 0.082824 -0.038986 32522.700000 0 0 1
-29.826911 32.893106 -28.141981 52.569688 -0.834246 2.135691 0.048473 -0.032264 -280250.000000 0 0 1
-28.763581 32.941406 -27.034401 51.413409 -0.853001 2.124480 0.055031 -0.024318 -141530.000000 0 0 1
-27.493901 33.459806 -27.336901 51.213078 -0.882963 2.133870 0.037934 -0.023496 -299320.000000 0 0 1
-27.397581 -32.531337 -27.400101 50.593289 0.870854 2.143107 0.045761 -0.003977 -583261.000000 0 0 1
-27.823271 -31.670537 -26.157121 49.612018 0.849975 2.126138 0.048420 -0.000963 42987.200000 0 0 1
-29.222151 -31.509437 -26.247641 50.355907 0.823043 2.119103 0.041885 -0.009721 -211157.000000 0 0 1
-29.778991 -30.757537 -25.146261 49.650265 0.801561 2.101880 0.031576 0.000223 1580540.000000 0 0 1
-31.370841 -30.822937 -25.148101 50.661722 0.776589 2.090235 0.019145 -0.004082 1361170.000000 0 0 1
-31.863831 -29.903837 -26.092761 50.895730 0.753677 2.109089 0.028400 -0.006535 366937.000000 0 0 1
-33.263421 -29.706737 -25.920991 51.583361 0.728976 2.097292 0.046858 -0.009620 525454.000000 0 0 1
-33.892591 -28.632637 -26.906651 51.889339 0.701470 2.115938 0.063107 -0.019434 1156090.000000 0 0 1
-35.329519 -28.701037 -27.008001 52.927843 0.682245 2.106306 0.072787 -0.024322 898602.000000 0 0 1
-35.803367 -27.786937 -27.986721 53.265857 0.659996 2.124000 0.075719 -0.030206 1011380.000000 0 0 1
-37.354671 -27.924737 -28.178021 54.490029 0.641936 2.114282 0.077412 -0.038209 811683.000000 0 0 1
38.124719 -27.414637 -27.201361 54.267583 -0.623415 2.095833 0.085138 -0.026138 -633475.000000 0 0 1
36.800949 -27.572037 -27.618811 53.640710 -0.643002 2.111670 0.087499 -0.026034 -194291.000000 0 0 1
35.682279 -26.960337 -26.745761 52.109697 -0.647054 2.109774 0.096742 -0.020755 60180.000000 0 0 1
35.462779 -27.580637 -25.511711 51.663794 -0.661016 2.087254 0.092893 -0.021106 129106.000000 0 0 1
34.215219 -27.144037 -25.018541 50.332965 -0.670662 2.091004 0.098041 -0.016399 -100126.000000 0 0 1
33.898479 -27.456237 -23.560041 49.578497 -0.680782 2.065995 0.074494 -0.016195 -40476.200000 0 0 1
33.525449 -28.811437 -23.362641 49.998676 -0.709920 2.056991 0.103033 -0.020426 149798.000000 0 0 1
33.161239 -29.174637 -21.983241 49.336499 -0.721532 2.032616 0.108696 -0.023494 583661.000000 0 0 1
34.361889 -29.320137 -20.951941 49.793511 -0.706392 2.005097 0.087951 -0.022151 -518661.000000 0 0 1
35.172259 -30.485937 -21.237741 51.161722 -0.714144 1.998860 0.072147 -0.018756 344096.000000 0 0 1
36.089869 -30.705637 -20.196841 51.509486 -0.704964 1.973709 0.034678 -0.001227 684805.000000 0 0 1
37.270049 -29.689237 -19.887641 51.633571 -0.672663 1.966187 0.040738 -0.000789 -185114.000000 0 0 1
36.865649 -28.391937 -19.492741 50.449431 -0.656270 1.967502 0.041267 0.010643 -165630.000000 0 0 1
37.244749 -27.360437 -20.409141 50.520272 -0.633580 1.986659 0.031534 0.005353 -471383.000000 0 0 1
36.374729 -26.159137 -20.189741 49.143128 -0.623468 1.994167 0.040072 0.003710 -11598.600000 0 0 1
35.024229 -26.224137 -20.604341 48.362598 -0.642696 2.010906 0.066293 -0.003563 533921.000000 0 0 1
34.284979 -25.056637 -20.190741 47.020856 -0.631122 2.014624 0.093927 -0.010575 -348047.000000 0 0 1
33.033119 -24.806137 -21.003341 46.342979 -0.644107 2.041165 0.115457 -0.021214 -601001.000000 0 0 1
31.919789 -25.587337 -20.673041 45.836224 -0.675724 2.038704 0.136755 -0.026293 -112679.000000 0 0 1
30.780079 -25.282637 -21.448241 45.239939 -0.687652 2.064738 0.139805 -0.040405 471736.000000 0 0 1
30.026079 -26.551637 -22.031041 45.737530 -0.724065 2.073372 0.135202 -0.049344 185433.000000 0 0 1
29.451079 -27.392137 -21.021341 45.382728 -0.749193 2.052400 0.131463 -0.046883 353213.000000 0 0 1
29.021279 -28.593737 -21.648241 46.135483 -0.777978 2.059217 0.129321 -0.042164 -315747.000000 0 0 1
28.434979 -29.652337 -20.691441 45.999401 -0.806352 2.037360 0.130256 -0.030475 -214066.000000 0 0 1
29.249779 -30.289237 -19.723641 46.497414 -0.802855 2.008861 0.133840 -0.033295 -34420.300000 0 0 1
30.168979 -31.274137 -20.216141 47.926311 -0.803383 2.006245 0.136299 -0.030332 848579.000000 0 0 1
31.109479 -31.782937 -19.039841 48.378408 -0.796106 1.975298 0.114097 -0.030902 627156.000000 0 0 1
30.408279 -32.343637 -17.916241 47.872393 -0.816230 1.954384 0.117587 -0.022444 -24797.500000 0 0 1
30.033879 -31.415237 -16.939341 46.646461 -0.807874 1.942435 0.105052 -0.025866 -37634.900000 0 0 1
29.285179 -32.082137 -15.747741 46.204725 -0.830944 1.918591 0.098687 -0.016670 -461976.000000 0 0 1
28.084279 -32.625637 -16.209841 45.999107 -0.860063 1.930925 0.121608 -0.024736 -454953.000000 0 0 1
27.562379 -33.392637 -15.106841 45.858147 -0.880757 1.906491 0.104770 -0.017285 97045.000000 0 0 1
26.020179 -33.485437 -14.996741 44.980290 -0.910201 1.910711 0.092333 -0.017014 184476.000000 0 0 1
25.518479 -32.346537 -14.362241 43.632158 -0.902855 1.906217 0.079865 -0.007916 536747.000000 0 0 1
24.121279 -32.144737 -14.589041 42.754653 -0.927042 1.919018 0.103134 -0.015902 520904.000000 0 0 1
0.371249 -6.875994 -28.700541 29.515050 -1.516857 2.906118 0.173432 -0.038789 25566.600000 0 0 1
0.452849 -8.293594 -28.449441 29.637130 -1.516248 2.857533 0.164866 -0.035320 -126983.000000 0 0 1
0.379149 -9.018794 -29.662331 31.005423 -1.528781 2.846180 0.196577 -0.047484 -82200.400000 0 0 1
0.516449 -10.515394 -29.415241 31.242545 -1.521722 2.797887 0.222202 -0.038149 1083570.000000 0 0 1
1.872049 -10.831594 -29.019261 31.031363 -1.399655 2.779504 0.132049 -0.043127 926329.000000 0 0 1
2.168149 -12.199594 -28.843681 31.392497 -1.394910 2.735846 0.153669 -0.044256 477161.000000 0 0 1
3.645349 -12.535794 -28.478371 31.328139 -1.287806 2.711758 0.120835 -0.038755 33928.900000 0 0 1
4.632349 -12.223894 -29.467111 32.236514 -1.208560 2.724057 0.140787 -0.041105 658854.000000 0 0 1
5.953649 -12.555594 -29.070641 32.220972 -1.128015 2.695703 0.114389 -0.043934 366287.000000 0 0 1
6.445949 -13.946794 -28.718881 32.570499 -1.137859 2.650345 0.101980 -0.042553 -1132700.000000 0 0 1
5.878849 -14.458794 -27.543971 31.658931 -1.184619 2.626044 0.104374 -0.037051 -318827.000000 0 0 1
6.514749 -15.519294 -26.916871 31.745998 -1.173352 2.582775 0.103095 -0.034756 -347273.000000 0 0 1
6.138649 -16.904794 -27.436031 32.805348 -1.222472 2.561347 0.077956 -0.037910 -173338.000000 0 0 1
6.526149 -17.109094 -28.749431 34.085796 -1.206389 2.574457 0.092441 -0.049321 28469.600000 0 0 1
6.145749 -18.398694 -29.055321 34.935567 -1.248417 2.552928 0.081517 -0.042185 -318702.000000 0 0 1
6.550549 -18.803994 -30.454431 36.386429 -1.235584 2.562523 0.088373 -0.054051 -580627.000000 0 0 1
7.923649 -18.949994 -30.634461 36.883013 -1.174755 2.550953 0.078493 -0.046984 -693373.000000 0 0 1
8.170149 -19.650694 -31.800131 38.264206 -1.176770 2.551820 0.081949 -0.044363 326289.000000 0 0 1
9.655249 -19.683894 -32.268081 39.011646 -1.114765 2.544795 0.091481 -0.040019 311421.000000 0 0 1
10.028149 -18.443894 -32.829231 38.967928 -1.072794 2.572644 0.099483 -0.047123 -87514.000000 0 0 1
11.100149 -18.559394 33.570405 39.932900 -1.031784 0.572276 0.100154 -0.043902 -447896.000000 0 0 1
11.555149 -17.175194 32.998116 38.953619 -0.978572 0.560268 0.109667 -0.041897 41813.900000 0 0 1
10.528649 -16.523694 32.244464 37.730496 -1.003483 0.546017 0.110873 -0.037167 343203.000000 0 0 1
10.833149 -15.195894 31.812627 36.882456 -0.951465 0.530526 0.116142 -0.032196 -273458.000000 0 0 1
9.761449 -14.713394 30.846555 35.542648 -0.985031 0.519889 0.156699 -0.044809 28680.600000 0 0 1
9.760649 -15.499494 29.667155 34.866096 -1.008796 0.553122 0.163639 -0.046063 17784.000000 0 0 1
8.683449 -15.080994 28.855705 33.697038 -1.048370 0.542680 0.142436 -0.044133 -52765.800000 0 0 1
8.532749 -15.858894 27.511925 32.881885 -1.077180 0.579586 0.117194 -0.028826 -595393.000000 0 0 1
8.039649 -17.169294 27.715715 33.579480 -1.132864 0.599928 0.116383 -0.029624 174239.000000 0 0 1
7.994849 -17.991694 26.576535 33.074626 -1.152640 0.637590 0.102371 -0.026038 -51564.900000 0 0 1
7.543749 -19.418994 26.928875 34.046583 -1.200267 0.658449 0.106918 -0.037094 231784.000000 0 0 1
8.494949 -19.990794 27.869665 35.334321 -1.168974 0.662036 0.108161 -0.037149 923488.000000 0 0 1
8.024049 -21.130694 28.524885 36.394514 -1.207882 0.670085 0.098413 -0.041705 -200044.000000 0 0 1
8.735649 -21.307794 29.890985 37.733336 -1.181721 0.656450 0.101315 -0.045669 -36202.100000 0 0 1
8.101749 -20.667694 30.995235 38.124749 -1.197205 0.621519 0.120255 -0.051734 243851.000000 0 0 1
8.311649 -19.253094 30.918965 37.359705 -1.163261 0.595974 0.117570 -0.048806 -232423.000000 0 0 1
7.597049 -18.417794 32.001045 37.696116 -1.179574 0.556855 0.116060 -0.042878 114286.000000 0 0 1
6.179849 -18.413294 32.044951 37.471573 -1.246990 0.544898 0.145806 -0.051000 50805.800000 0 0 1
5.800049 -17.358594 32.882165 37.632408 -1.248328 0.507890 0.165183 -0.048147 378670.000000 0 0 1
4.308249 -17.467394 33.313375 37.860954 -1.328978 0.495171 0.186869 -0.055727 401792.000000 0 0 1
4.094649 -18.404194 -32.945111 37.958673 -1.351877 2.621797 0.148763 -0.054150 1260650.000000 0 0 1
2.682149 -18.462694 -32.612161 37.571505 -1.426532 2.621962 0.157505 -0.071930 1251960.000000 0 0 1
2.280549 -19.301794 -31.396441 36.925555 -1.453189 2.587281 0.097759 -0.038015 -705025.000000 0 0 1
1.514849 -20.406894 -31.813581 37.826446 -1.496700 2.570000 0.080739 -0.038268 131756.000000 0 0 1
0.895549 -21.131794 -30.764041 37.333375 -1.528442 2.539295 0.087756 -0.044397 324580.000000 0 0 1
-0.063751 -20.423594 -29.766431 36.099413 1.567675 2.540235 0.103358 -0.041117 -831067.000000 0 0 1
-1.203251 -19.913094 -30.399821 36.361081 1.510445 2.560847 0.119112 -0.046579 -209146.000000 0 0 1
-1.915051 -18.934694 -29.629831 35.215294 1.469999 2.570648 0.161386 -0.037565 345751.000000 0 0 1
-1.458851 -17.465694 -29.836821 34.603679 1.487463 2.610480 0.159931 -0.036268 113420.000000 0 0 1
-2.362951 -16.627694 -29.131041 33.625604 1.429632 2.618614 0.185652 -0.038697 -37137.100000 0 0 1
-2.278251 -15.273394 -29.553591 33.344890 1.422723 2.660091 0.205672 -0.042529 -154103.000000 0 0 1
-3.462251 -14.384694 -29.160961 32.699667 1.334599 2.672064 0.203326 -0.027405 -242604.000000 0 0 1
-3.437051 -14.077594 -27.780001 31.332418 1.331331 2.660785 0.176511 -0.037843 -54550.800000 0 0 1
-4.359851 -13.085094 -27.401631 30.676984 1.249173 2.675277 0.163754 -0.042176 -114948.000000 0 0 1
-4.250051 -12.769594 -25.832731 29.128258 1.249503 2.661304 0.157633 -0.043273 -258584.000000 0 0 1
-4.817051 -13.806494 -25.024541 28.983631 1.235104 2.612772 0.159099 -0.040854 242111.000000 0 0 1
-4.898151 -13.613594 -23.615341 27.694876 1.225419 2.591923 0.124375 -0.035085 -286402.000000 0 0 1
-6.020751 -12.621894 -23.238741 27.121960 1.125711 2.599874 0.112932 -0.036096 504026.000000 0 0 1
-7.317651 -13.172194 -23.527841 27.939470 1.063711 2.571962 0.112545 -0.033174 346963.000000 0 0 1
-8.311451 -12.183494 -23.451441 27.703570 0.972124 2.580198 0.093261 -0.032879 -519472.000000 0 0 1
-9.726551 -12.606094 -23.798641 28.633803 0.913629 2.551947 0.116378 -0.042958 -472713.000000 0 0 1
-10.367351 -13.492194 -22.912441 28.539467 0.915625 2.502829 0.088756 -0.036893 -423558.000000 0 0 1
-11.356151 -14.192494 -23.605941 29.793111 0.895963 2.485413 0.077687 -0.034754 -385588.000000 0 0 1
-12.185451 -15.224594 -22.873941 30.058121 0.895824 2.435635 0.065117 -0.037154 -282204.000000 0 0 1
-11.418251 -16.375294 -22.550141 30.117031 0.961895 2.416971 0.072710 -0.030912 -405028.000000 0 0 1
-12.044551 -17.420894 -21.824441 30.411592 0.965875 2.371198 0.080788 -0.032492 28934.700000 0 0 1
-12.862251 -18.390794 -22.718841 31.934378 0.960483 2.362317 0.076755 -0.028428 745726.000000 0 0 1
-14.061251 -17.833994 -23.246841 32.499011 0.903137 2.367863 0.059645 -0.022665 -217262.000000 0 0 1
-14.906651 -18.686294 -23.932841 33.825533 0.897440 2.356804 0.041777 -0.023354 -39503.900000 0 0 1
-16.023051 -17.940894 -24.681541 34.464362 0.841805 2.369062 0.071288 -0.029977 303575.000000 0 0 1
-16.980051 -17.295194 -23.856241 34.008324 0.794592 2.348272 0.073632 -0.024280 656160.000000 0 0 1
-18.075751 -16.725694 -24.587341 34.799697 0.746624 2.355392 0.063598 -0.017904 898151.000000 0 0 1
-18.728151 -15.432194 -24.006841 34.135387 0.689211 2.350802 0.072114 -0.014757 106142.000000 0 0 1
-19.331651 -15.591794 -22.737941 33.672403 0.678717 2.312126 0.076747 -0.009936 151111.000000 0 0 1
-20.069851 -14.424994 -22.438041 33.381807 0.623192 2.307924 0.094101 -0.014017 282781.000000 0 0 1
-20.824751 -14.484494 -21.052641 32.964898 0.607728 2.263523 0.092349 -0.014507 378177.000000 0 0 1
-20.114051 -13.860594 -19.951841 31.539928 0.603373 2.255689 0.103615 -0.008087 306395.000000 0 0 1
-20.715851 -13.958294 -18.676541 31.189639 0.592923 2.212806 0.111578 -0.016723 -310458.000000 0 0 1
-21.660851 -12.783494 -18.316241 31.114222 0.533157 2.200218 0.105368 -0.020851 -321195.000000 0 0 1
-22.756051 -12.784594 -19.196241 32.400298 0.511866 2.204919 0.113171 -0.027733 -643223.000000 0 0 1
-23.692651 -11.901594 -18.666841 32.425924 0.465512 2.184228 0.122880 -0.030053 -363488.000000 0 0 1
-25.040641 -11.794594 -19.393041 33.796984 0.440194 2.181946 0.130094 -0.030797 -9265.010000 0 0 1
-25.075211 -10.814194 -20.428641 34.103407 0.407170 2.213074 0.118804 -0.027433 868642.000000 0 0 1
-26.489661 -10.656594 -20.632741 35.227477 0.382481 2.196540 0.113130 -0.028282 566080.000000 0 0 1
-26.854011 -9.654994 -21.694841 35.847216 0.345145 2.220817 0.108529 -0.018987 -112205.000000 0 0 1
-26.669201 -10.003294 -23.057441 36.646388 0.358848 2.251303 0.099456 -0.016822 155371.000000 0 0 1
-27.268781 -8.958294 -23.801841 37.287599 0.317411 2.263125 0.078667 -0.023654 -185768.000000 0 0 1
-27.399121 -9.351794 -25.325011 38.464582 0.328919 2.289485 0.075668 -0.018691 1483810.000000 0 0 1
-26.139461 -9.370494 -26.067141 38.086394 0.344210 2.324606 0.070248 -0.027873 603242.000000 0 0 1
-25.359681 -10.484294 -25.829181 37.685281 0.392025 2.325938 0.073475 -0.011972 -572774.000000 0 0 1
-24.314451 -10.641494 -26.949291 37.824571 0.412546 2.363824 0.088743 -0.022157 -2633.950000 0 0 1
-24.970951 -10.611294 -28.233571 39.157151 0.401825 2.376087 0.081932 -0.013723 -43720.600000 0 0 1
-24.128551 -10.771794 -29.356611 39.497204 0.419884 2.408723 0.084915 -0.009812 -64391.200000 0 0 1
-24.831851 -11.263894 -30.654671 41.026881 0.425849 2.414613 0.085110 -0.012817 407943.000000 0 0 1
-25.816451 -10.347494 -31.155251 41.763733 0.381205 2.412814 0.077354 -0.018810 215882.000000 0 0 1
-25.311201 -9.246994 -31.897701 41.756761 0.350268 2.440121 0.068481 -0.018634 -1222800.000000 0 0 1
-26.324461 -8.325894 -32.554861 42.686259 0.306325 2.438203 0.079468 -0.018838 -1084130.000000 0 0 1
-27.082301 -9.040594 -33.541001 44.047498 0.322188 2.436380 0.074318 -0.023054 2199560.000000 0 0 1
-28.382831 -9.612194 -33.179471 44.708574 0.326539 2.407036 0.072276 -0.031388 1935180.000000 0 0 1
-29.371421 -8.859194 -32.195381 44.471431 0.292948 2.380317 0.067474 -0.019454 -996531.000000 0 0 1
-30.687901 -9.292494 -32.119221 45.384381 0.294030 2.357055 0.076609 -0.027545 -133006.000000 0 0 1
-31.476231 -8.380794 -31.325461 45.191540 0.260221 2.336675 0.085171 -0.026085 120748.000000 0 0 1
-32.971751 -8.727894 -31.318801 46.305289 0.258773 2.313599 0.080468 -0.035548 -175906.000000 0 0 1
-33.274461 -10.041794 -30.791331 46.434184 0.293095 2.295773 0.074656 -0.034022 1172580.000000 0 0 1
-34.704029 -10.230594 -30.693021 47.445718 0.286675 2.274319 0.069491 -0.031703 988260.000000 0 0 1
-35.063154 -11.705294 -30.496841 47.921769 0.322202 2.260603 0.073965 -0.032637 819983.000000 0 0 1
-36.486471 -11.945294 -30.392841 48.966084 0.316392 2.240421 0.051031 -0.022728 970677.000000 0 0 1
-36.777731 -13.274294 -30.817621 49.784878 0.346381 2.238285 0.052243 -0.029869 163734.000000 0 0 1
38.059959 -13.634394 -30.641691 50.728398 -0.343992 2.219350 0.063956 -0.035477 251186.000000 0 0 1
37.761729 -14.121794 -29.349891 49.867718 -0.357868 2.200067 0.063712 -0.038918 -127824.000000 0 0 1
-38.129741 -15.411394 -29.046131 50.349438 0.384107 2.185713 0.063606 -0.040349 -194561.000000 0 0 1
-37.714791 -15.699794 -27.579971 49.290402 0.394459 2.164627 0.096732 -0.040071 1156270.000000 0 0 1
-36.470771 -15.126194 -27.089781 47.882931 0.393156 2.172139 0.080738 -0.043891 919898.000000 0 0 1
-36.238871 -15.548294 -25.767601 47.105992 0.405296 2.149588 0.127094 -0.055020 385921.000000 0 0 1
-34.904272 -14.985394 -25.153901 45.558632 0.405531 2.155703 0.134600 -0.046904 -60404.900000 0 0 1
-33.838181 -15.791294 -25.547901 45.244698 0.436631 2.170818 0.131574 -0.044936 -1302770.000000 0 0 1
-32.754731 -15.338494 -24.798641 43.853328 0.437954 2.171824 0.143538 -0.031923 -902538.000000 0 0 1
-31.443551 -16.080394 -25.028041 43.286011 0.472730 2.187319 0.121825 -0.025968 -529502.000000 0 0 1
-31.357111 -17.406594 -24.506841 43.437808 0.506757 2.170239 0.134574 -0.033232 -246841.000000 0 0 1
-32.120691 -18.418894 -25.095861 44.730265 0.520652 2.166449 0.120740 -0.035624 -267996.000000 0 0 1
-31.973981 -19.787994 -24.416041 44.833505 0.554185 2.146701 0.119227 -0.035167 794508.000000 0 0 1
-30.656031 -20.356694 -24.393541 44.150108 0.586179 2.156173 0.116772 -0.025296 690876.000000 0 0 1
-30.747871 -21.577794 -23.624641 44.375178 0.611910 2.132211 0.111169 -0.019166 -62454.500000 0 0 1
-29.416241 -22.361294 -23.620541 43.855132 0.649977 2.139575 0.100166 -0.022133 770479.000000 0 0 1
-28.285831 -21.735594 -22.980141 42.433608 0.655190 2.143082 0.112279 -0.026952 502666.000000 0 0 1
-28.271621 -21.545394 -21.548841 41.567308 0.651191 2.115785 0.122264 -0.038395 -511381.000000 0 0 1
-28.283231 -22.804894 -20.606041 41.768568 0.678573 2.086720 0.098529 -0.027665 -212239.000000 0 0 1
-28.085641 -22.433894 -19.261741 40.781092 0.673989 2.062718 0.100978 -0.026611 104272.000000 0 0 1
-28.034291 -23.540494 -18.397641 40.970105 0.698486 2.036499 0.089106 0.010095 -23075.400000 0 0 1
-28.138521 -23.195794 -16.896641 40.191015 0.689409 2.004692 0.088830 0.007692 1466960.000000 0 0 1
-29.501331 -22.755794 -16.595641 40.786885 0.657024 1.989840 0.094293 -0.002029 1413590.000000 0 0 1
-29.552671 -21.887094 -15.512141 39.912802 0.637466 1.969963 0.091357 -0.016073 -308448.000000 0 0 1
-30.949121 -21.348194 -15.196841 40.552897 0.603836 1.954914 0.095589 -0.007366 -323373.000000 0 0 1
-31.457141 -20.453994 -16.177741 40.861190 0.576528 1.977865 0.115454 -0.020164 531911.000000 0 0 1
-32.739331 -20.009194 -15.716541 41.463734 0.548590 1.959558 0.119185 -0.022816 134109.000000 0 0 1
-33.513541 -19.167394 -16.708241 42.067942 0.519524 1.979230 0.128101 -0.052495 -531169.000000 0 0 1
-34.383387 -19.979794 -17.474041 43.436753 0.526398 1.984810 0.095962 -0.043815 -71857.900000 0 0 1
-34.861154 -19.279494 -18.637541 43.981324 0.505172 2.008389 0.095419 -0.035991 -491911.000000 0 0 1
-36.268761 -19.629594 -19.189841 45.486195 0.496082 2.006317 0.073153 -0.024330 921576.000000 0 0 1
-37.371241 -19.343394 -18.301041 45.887957 0.477629 1.981026 0.066972 -0.016538 607723.000000 0 0 1
-37.479051 -20.018494 -17.021741 45.772907 0.490573 1.951823 0.084723 -0.025097 -1037970.000000 0 0 1
-37.813241 -21.516594 -16.978341 46.701917 0.517331 1.942869 0.069385 0.013701 534617.000000 0 0 1
37.122809 -21.772494 -17.128341 46.319807 -0.530433 1.949573 0.069951 -0.017534 575168.000000 0 0 1
36.799809 -23.167894 -17.198141 46.762734 -0.561876 1.947411 0.071175 -0.011987 -383480.000000 0 0 1
35.397129 -23.486494 -16.694541 45.642960 -0.585817 1.945250 0.061775 -0.016144 -945362.000000 0 0 1
34.341589 -23.244694 -17.563041 45.034664 -0.595031 1.971416 0.077196 -0.022646 -986727.000000 0 0 1
33.216789 -23.734194 -16.907941 44.187617 -0.620407 1.963448 0.100522 -0.022308 -621268.000000 0 0 1
31.881679 -23.724694 -17.668041 43.490944 -0.639745 1.989139 0.106831 -0.041871 -74092.000000 0 0 1
31.422309 -22.413194 -17.938841 42.561894 -0.619589 2.005869 0.081163 -0.036407 738997.000000 0 0 1
30.155579 -22.419994 -18.618041 41.936220 -0.639314 2.030811 0.130715 -0.050205 615091.000000 0 0 1
36.908989 28.911006 -17.525841 50.052721 0.664478 1.928525 0.095570 -0.022748 861836.000000 0 0 1
35.868999 29.023306 -18.529341 49.721966 0.680294 1.952669 0.098925 -0.030880 756163.000000 0 0 1
36.444839 28.823206 -19.819741 50.515598 0.669150 1.973980 0.101977 -0.025487 120991.000000 0 0 1
35.462769 28.916906 -21.012841 50.352110 0.684070 2.001288 0.117581 -0.034593 -77541.200000 0 0 1
34.429399 27.905106 -21.070341 49.071761 0.681112 2.014600 0.110901 -0.035587 990720.000000 0 0 1
33.541889 28.048506 -22.191941 49.033247 0.696441 2.040464 0.119676 -0.028322 134200.000000 0 0 1
32.500879 29.170806 -22.095941 48.943576 0.731454 2.039194 0.117687 -0.035982 -1036210.000000 0 0 1
33.012389 30.493006 -22.149641 50.102374 0.745747 2.028721 0.118468 -0.038251 198474.000000 0 0 1
31.988229 31.464606 -22.423641 50.160621 0.777146 2.034246 0.132785 -0.036314 -108719.000000 0 0 1
32.421019 32.909006 -22.117941 51.218439 0.792868 2.017323 0.122816 -0.032946 80931.300000 0 0 1
32.900029 33.203506 -20.813641 51.167298 0.789989 1.989719 0.123590 -0.032654 693716.000000 0 0 1
34.268099 32.820606 -20.635641 51.742869 0.763826 1.981017 0.115391 -0.028345 292423.000000 0 0 1
34.727279 32.995906 -19.133841 51.583114 0.759838 1.950809 0.087163 -0.031724 -176563.000000 0 0 1
34.575829 -33.085937 -18.649741 51.361270 -0.763382 1.942399 0.092278 -0.027044 195067.000000 0 0 1
34.614609 -33.096237 -17.227641 50.895223 -0.762978 1.916110 0.064457 -0.033442 -439781.000000 0 0 1
34.530299 -31.639237 -16.690041 49.718612 -0.741734 1.913134 0.068842 -0.013170 -264051.000000 0 0 1
35.649289 -30.804137 -16.639841 49.966499 -0.712616 1.910301 0.067955 -0.017131 -189273.000000 0 0 1
36.650879 -31.148037 -15.671441 50.587362 -0.704412 1.885768 0.061965 -0.017039 406747.000000 0 0 1
37.978489 -30.376037 -15.896641 51.164172 -0.674632 1.886724 0.058498 -0.001888 357094.000000 0 0 1
-37.583171 -30.966537 -16.949741 51.562727 0.689173 1.905745 0.060198 -0.013611 -1254380.000000 0 0 1
-36.422241 -30.270537 -17.153441 50.369888 0.693419 1.918298 0.053190 -0.001369 -830312.000000 0 0 1
-35.552501 -31.001437 -18.211541 50.564114 0.717123 1.939244 0.068000 -0.008754 -694948.000000 0 0 1
-34.981160 -32.159237 -17.616341 50.677742 0.743393 1.925823 0.065160 -0.017546 131801.000000 0 0 1
-33.885281 -32.762937 -18.245541 50.542280 0.768560 1.940132 0.076394 -0.019178 1025310.000000 0 0 1
-32.556861 -31.973737 -18.591841 49.273985 0.776362 1.957692 0.057399 -0.015606 -198907.000000 0 0 1
-32.672401 -31.093737 -19.752241 49.238778 0.760646 1.983571 0.058553 -0.013639 288665.000000 0 0 1
-31.460001 -30.453837 -20.156941 48.202387 0.769149 2.002230 0.061676 -0.001206 521465.000000 0 0 1
-30.452591 -31.416837 -20.844641 48.465214 0.800982 2.015394 0.055423 0.003100 121008.000000 0 0 1
-31.129491 -32.095237 -21.939441 49.804503 0.800672 2.026964 0.052798 0.005479 361912.000000 0 0 1
-30.396621 -33.236337 -22.282041 50.250353 0.829995 2.030208 0.050542 0.007308 245432.000000 0 0 1
-31.124621 33.397106 -23.467041 51.330407 -0.820604 2.045614 0.040040 -0.011802 -90906.800000 0 0 1
-32.222141 32.616906 -23.093541 51.336542 -0.791486 2.037389 0.057674 -0.029168 -237897.000000 0 0 1
-32.797711 31.890206 -24.178341 51.742316 -0.771370 2.057012 0.056220 -0.026324 452462.000000 0 0 1
-33.628941 32.643906 -25.274271 53.247714 -0.770536 2.065368 0.063792 -0.039505 -487807.000000 0 0 1
-32.930351 33.345606 -26.288361 53.734676 -0.791664 2.081998 0.045695 -0.039852 -315501.000000 0 0 1
-33.788261 -33.210137 -26.983971 54.522422 0.776769 2.088533 0.054976 -0.037033 447776.000000 0 0 1
-33.038451 -32.421137 -28.167391 54.185526 0.775968 2.117451 0.052607 -0.031760 477758.000000 0 0 1
-32.862491 -33.251837 -29.341531 55.195592 0.791287 2.131275 0.058589 -0.036209 -11115.600000 0 0 1
-34.066063 -33.266637 -30.081081 56.320842 0.773526 2.134242 0.070168 -0.038301 25819.200000 0 0 1
-34.079182 33.224006 -31.308071 56.968592 -0.772693 2.152642 0.086334 -0.041227 361919.000000 0 0 1
-33.196541 33.673106 -32.378611 57.308488 -0.792525 2.171215 0.073586 -0.044961 466815.000000 0 0 1
-33.278711 32.820806 -33.498051 57.504759 -0.778471 2.192630 0.061433 -0.047219 -638614.000000 0 0 1
-32.385891 33.146006 32.621028 56.671290 -0.796997 0.957436 0.080267 -0.050073 -864415.000000 0 0 1
-31.060491 32.762606 32.617496 55.695992 -0.812061 0.945134 0.089939 -0.046423 -822165.000000 0 0 1
-30.836491 31.365106 32.491294 54.684031 -0.793896 0.934570 0.104743 -0.057165 -1117050.000000 0 0 1
-29.382531 30.934606 32.661749 53.731488 -0.811124 0.917421 0.112323 -0.049793 -1312690.000000 0 0 1
-28.957701 30.981606 -33.292011 53.914435 -0.819151 2.236353 0.114585 -0.064679 -138416.000000 0 0 1
-27.573151 30.866506 -33.080681 52.984444 -0.841693 2.245092 0.116103 -0.061789 -433519.000000 0 0 1
-27.098261 29.433606 -33.411941 52.124953 -0.826685 2.266593 0.153577 -0.061499 -1208920.000000 0 0 1
-27.405381 28.453906 -32.469511 51.136570 -0.804167 2.258749 0.148975 -0.061309 251725.000000 0 0 1
-26.851321 27.215506 -32.933341 50.460699 -0.792134 2.281877 0.157639 -0.055696 -67847.600000 0 0 1
-26.580731 26.191006 -31.804201 49.030717 -0.778013 2.276617 0.160020 -0.055819 468963.000000 0 0 1
-25.383591 26.416406 -31.044431 48.019890 -0.805334 2.273772 0.158422 -0.050679 335918.000000 0 0 1
-25.363801 27.531406 -30.166211 48.075992 -0.826354 2.249095 0.134708 -0.054654 -1062980.000000 0 0 1
-24.185951 27.581006 -29.239601 46.910834 -0.850888 2.243754 0.150103 -0.046493 -695059.000000 0 0 1
-23.021451 27.969806 -29.955321 47.006579 -0.882138 2.261731 0.141801 -0.044587 -423215.000000 0 0 1
-21.844751 27.884906 -29.201231 45.907222 -0.906266 2.260220 0.094023 -0.038513 -40804.800000 0 0 1
-21.437651 29.064306 -28.311911 45.889771 -0.935283 2.235664 0.074066 -0.025749 -409039.000000 0 0 1
-20.769351 30.055406 -29.089321 46.699914 -0.966112 2.243239 0.072700 -0.019008 194524.000000 0 0 1
-20.346051 31.182506 -28.315931 46.777157 -0.992678 2.220985 0.082857 -0.021557 140692.000000 0 0 1
-19.901551 32.380706 -29.160431 47.905246 -1.019702 2.225231 0.099183 -0.016993 -55766.100000 0 0 1
-18.683051 32.299106 -29.860001 47.790253 -1.046382 2.245689 0.089708 -0.017725 -285487.000000 0 0 1
-18.657251 33.347506 -30.772231 49.061995 -1.060704 2.248764 0.099662 -0.015588 713640.000000 0 0 1
-17.251751 -33.517837 -31.207311 48.938375 1.095455 2.262287 0.073495 -0.009440 726245.000000 0 0 1
-16.499351 -32.844137 -30.146541 47.537142 1.105268 2.257728 0.083503 -0.025869 1751580.000000 0 0 1
-15.088751 -32.613937 -30.395781 47.066366 1.137475 2.272876 0.127288 -0.024194 1639190.000000 0 0 1
-14.161851 33.567206 -30.441041 47.476018 -1.171558 2.266841 0.126453 -0.023074 -504903.000000 0 0 1
-14.071851 32.861406 -29.211031 46.164633 -1.166203 2.255906 0.110212 -0.022956 -239813.000000 0 0 1
-13.551951 31.570406 -29.461091 45.258168 -1.165322 2.279640 0.096843 -0.022873 -104083.000000 0 0 1
-13.477051 30.664606 -28.219421 43.798227 -1.156710 2.270911 0.066457 -0.026644 49395.300000 0 0 1
-12.450651 30.884406 -27.247511 43.026644 -1.187588 2.256568 0.085938 -0.028618 217632.000000 0 0 1
-12.647751 30.183806 -26.034541 41.818956 -1.173998 2.242798 0.065119 -0.037848 286526.000000 0 0 1
-11.543451 30.584906 -25.001741 41.155495 -1.209903 2.223699 0.098047 -0.040744 433207.000000 0 0 1
-10.245151 30.159306 -25.333431 40.698029 -1.243326 2.242695 0.113410 -0.032765 -872818.000000 0 0 1
-9.307451 30.927306 -24.653141 40.631321 -1.278472 2.222765 0.126646 -0.043260 -1086360.000000 0 0 1
-7.919551 30.428506 -24.975041 40.154277 -1.316178 2.242061 0.137561 -0.050753 -1239540.000000 0 0 1
-7.498551 29.181406 -24.483641 38.823078 -1.319275 2.253182 0.121958 -0.062322 -191333.000000 0 0 1
-6.288451 28.867606 -25.135771 38.790337 -1.356310 2.275739 0.109347 -0.070922 -50652.900000 0 0 1
-5.497051 27.725506 -24.458441 37.378290 -1.375068 2.284118 0.123958 -0.047910 132099.000000 0 0 1
-6.162351 26.478606 -24.599141 36.663454 -1.342137 2.306278 0.138351 -0.046307 212739.000000 0 0 1
-5.392451 25.448406 -24.003941 35.396173 -1.361988 2.316040 0.132470 -0.054095 -264773.000000 0 0 1
-6.118851 24.092206 -23.900441 34.483413 -1.322079 2.336577 0.137079 -0.051170 -174672.000000 0 0 1
-6.252351 23.369806 -25.062841 34.833686 -1.309379 2.373879 0.130261 -0.046003 -243092.000000 0 0 1
-7.013651 22.248606 -24.854641 34.087313 -1.265417 2.387870 0.114501 -0.050986 -656959.000000 0 0 1
-7.182251 21.363506 -26.084521 34.472980 -1.246475 2.428994 0.087539 -0.031732 287740.000000 0 0 1
-6.093051 20.463106 -26.332121 33.900510 -1.281398 2.460281 0.104435 -0.046019 42052.800000 0 0 1
-6.197151 19.241906 -25.649301 32.657959 -1.259221 2.474126 0.083541 -0.037393 -18341.000000 0 0 1
-4.975251 18.307606 -25.807151 32.030151 -1.305446 2.507677 0.087843 -0.050878 61126.200000 0 0 1
-4.810951 17.820906 -27.133861 32.817318 -1.307121 2.544218 0.104082 -0.056248 311262.000000 0 0 1
-3.766651 16.832006 -27.214021 32.219668 -1.350644 2.576689 0.094845 -0.053868 431936.000000 0 0 1
-3.296951 16.455606 -28.636791 33.192208 -1.373060 2.611493 0.104569 -0.045104 -145179.000000 0 0 1
-2.553251 17.496906 -29.214201 34.148651 -1.425893 2.597314 0.122269 -0.051538 -87580.800000 0 0 1
-2.426951 17.472306 -30.617381 35.335472 -1.432777 2.618898 0.120370 -0.051695 -69638.000000 0 0 1
-1.455751 18.507706 -31.182961 36.290928 -1.492301 2.604597 0.137876 -0.043405 582.063000 0 0 1
-0.065051 18.369906 -30.932461 35.976031 -1.567255 2.605689 0.164373 -0.053438 -43168.400000 0 0 1
0.718949 19.354006 -31.524691 36.998656 1.533666 2.590685 0.177908 -0.041842 130494.000000 0 0 1
0.675349 20.739306 -30.772231 37.114756 1.538244 2.548311 0.162423 -0.040252 -470568.000000 0 0 1
1.436249 20.703706 -29.608111 36.157247 1.501536 2.530237 0.174292 -0.052833 -456992.000000 0 0 1
1.344749 21.923406 -28.882311 36.285424 1.509535 2.491414 0.165724 -0.052943 145293.000000 0 0 1
2.473249 22.019206 -27.820361 35.565923 1.458943 2.469017 0.177668 -0.061406 70446.800000 0 0 1
3.710349 22.203106 -28.496811 36.315463 1.405217 2.473011 0.160805 -0.060353 890180.000000 0 0 1
4.834049 22.170806 -27.538121 35.682780 1.356119 2.452382 0.147547 -0.063360 1074390.000000 0 0 1
5.267849 23.641106 -27.229771 36.443279 1.351552 2.414609 0.169003 -0.063244 -597187.000000 0 0 1
6.057249 24.168606 -28.267101 37.680775 1.325230 2.419120 0.157414 -0.059279 -208690.000000 0 0 1
6.135949 25.596406 -28.144741 38.535079 1.335517 2.389655 0.155308 -0.064079 303286.000000 0 0 1
7.248749 26.242706 -29.018011 39.790312 1.301297 2.388056 0.185135 -0.059713 1325500.000000 0 0 1
8.633449 25.929406 -28.788621 39.694524 1.249382 2.382200 0.189657 -0.056025 1696980.000000 0 0 1
9.525549 26.649006 -29.706851 41.029290 1.227505 2.380438 0.198051 -0.054297 569692.000000 0 0 1
11.011849 26.490406 -29.336821 41.032323 1.176836 2.367375 0.183001 -0.048623 157120.000000 0 0 1
11.779249 27.563306 -29.894531 42.334023 1.166935 2.354854 0.177414 -0.039430 -415728.000000 0 0 1
13.014149 27.805906 -29.295971 42.435721 1.133046 2.332784 0.152178 -0.041199 -512629.000000 0 0 1
13.821049 28.773006 -30.144021 43.904092 1.122994 2.327582 0.141560 -0.038654 -68810.600000 0 0 1
13.241449 30.113106 -30.193701 44.651928 1.156521 2.313391 0.144667 -0.033873 481684.000000 0 0 1
14.179149 31.016206 -30.761811 45.927577 1.142010 2.304722 0.149903 -0.037072 111772.000000 0 0 1
13.680849 32.428306 -31.066251 46.945422 1.171571 2.293950 0.156411 -0.046569 27754.800000 0 0 1
12.737749 32.498606 -32.124521 47.438323 1.197251 2.314726 0.138327 -0.043291 409401.000000 0 0 1
12.028549 -33.664737 -32.077761 48.031066 -1.227629 2.302119 0.128984 -0.042476 -244922.000000 0 0 1
10.927349 -33.571337 -33.110501 48.401931 -1.256116 2.324130 0.094757 -0.036850 -220064.000000 0 0 1
11.276449 -32.922037 32.966625 47.935553 -1.240801 0.812441 0.086198 -0.027724 377385.000000 0 0 1
10.038949 -32.768337 32.301101 47.094645 -1.273514 0.814989 0.088471 -0.030434 354466.000000 0 0 1
10.144749 -31.894637 31.038515 45.646174 -1.262844 0.823060 0.111883 -0.032810 -37709.400000 0 0 1
10.377849 -30.507837 31.377981 44.977834 -1.242905 0.798709 0.086594 -0.037727 22203.900000 0 0 1
10.427749 -29.725737 30.181855 43.626847 -1.233410 0.806792 0.116012 -0.036558 -362325.000000 0 0 1
9.869249 -28.275537 30.364265 42.648525 -1.234978 0.778504 0.110735 -0.044795 -362277.000000 0 0 1
8.488849 -28.223837 30.590435 42.478468 -1.278634 0.766793 0.057317 -0.038164 -553788.000000 0 0 1
8.091149 -28.462937 31.935123 43.536853 -1.293833 0.747311 0.054015 -0.031508 1103880.000000 0 0 1
6.497749 -28.633837 31.969834 43.407231 -1.347650 0.742901 0.054357 -0.035579 1522490.000000 0 0 1
5.968649 -29.874037 31.472122 43.801568 -1.373599 0.769130 0.077036 -0.035772 -12379.600000 0 0 1
6.195349 -30.379937 30.169835 43.261321 -1.369626 0.799053 0.072115 -0.034730 -588941.000000 0 0 1
5.783149 -29.503637 28.899025 41.702075 -1.377236 0.805171 0.071385 -0.041651 -8683.150000 0 0 1
4.395549 -29.296437 28.733745 41.270209 -1.421870 0.800658 0.113984 -0.044160 222220.000000 0 0 1
4.198849 -28.361337 27.722795 39.881689 -1.423816 0.802201 0.132028 -0.043437 102657.000000 0 0 1
2.730649 -28.311837 27.196975 39.353425 -1.474645 0.807793 0.118387 -0.041483 342267.000000 0 0 1
2.265149 -29.372037 26.413485 39.566648 -1.493829 0.839857 0.149878 -0.043801 205989.000000 0 0 1
1.811349 -30.529537 27.190695 40.922702 -1.511535 0.844052 0.191110 -0.047717 -503613.000000 0 0 1
2.288749 -31.904637 26.650265 41.633891 -1.499182 0.876155 0.203546 -0.043789 551725.000000 0 0 1
3.696149 -32.185037 26.602895 41.919592 -1.456457 0.883283 0.165841 -0.042812 941304.000000 0 0 1
4.301449 -31.744437 25.414795 40.891608 -1.436114 0.900120 0.163216 -0.059106 -93533.400000 0 0 1
5.847649 -31.705537 25.434865 41.065417 -1.388410 0.902851 0.175024 -0.050033 437324.000000 0 0 1
6.506149 -31.624137 24.145095 40.316270 -1.367894 0.928679 0.157711 -0.062544 -110260.000000 0 0 1
7.873349 -31.433737 24.345115 40.530903 -1.325371 0.926475 0.126505 -0.057640 -821544.000000 0 0 1
8.687349 -31.251337 23.054575 39.794843 -1.299659 0.952883 0.122952 -0.044547 -421918.000000 0 0 1
10.018449 -30.921437 23.335095 40.012889 -1.257472 0.948147 0.117420 -0.023385 -258271.000000 0 0 1
10.812349 -30.864137 22.167365 39.508150 -1.233836 0.975102 0.121542 -0.040613 -88534.300000 0 0 1
11.844749 -29.719537 22.104165 38.886284 -1.191540 0.966199 0.074143 -0.031751 -88647.200000 0 0 1
13.016349 -30.030037 22.834375 39.907858 -1.161795 0.961638 0.079980 -0.024358 -170026.000000 0 0 1
13.865149 -28.892737 22.784365 39.321240 -1.123371 0.952753 0.085987 -0.021966 -190253.000000 0 0 1
15.263849 -29.107837 23.375215 40.331774 -1.087828 0.952591 0.102315 -0.019536 -420753.000000 0 0 1
15.247949 -29.303237 24.783865 41.296727 -1.091001 0.927119 0.099826 -0.023006 597858.000000 0 0 1
16.569349 -29.302737 25.317735 42.121033 -1.056166 0.925956 0.115500 -0.032978 145983.000000 0 0 1
-11.379651 -13.901294 25.472915 31.170688 0.884814 0.614248 0.147774 -0.056471 -1012170.000000 0 0 1
-10.018451 -13.923994 25.288185 30.557147 0.947096 0.596031 0.154263 -0.049817 -1359650.000000 0 0 1
-9.426851 -14.719894 26.313915 31.590551 1.001188 0.586346 0.161700 -0.058707 -9261.120000 0 0 1
-7.882151 -14.652494 26.387945 31.195312 1.077260 0.562556 0.176138 -0.044850 377478.000000 0 0 1
-7.176751 -15.370594 25.367945 30.517102 1.133966 0.589408 0.170323 -0.053507 83751.500000 0 0 1
-7.275351 -14.968594 24.037715 29.236985 1.118378 0.605587 0.180155 -0.061823 -877103.000000 0 0 1
-6.619951 -15.819794 22.975745 28.670097 1.174478 0.641192 0.174462 -0.067397 -120398.000000 0 0 1
-7.262451 -17.080294 22.762775 29.370454 1.168761 0.684045 0.206745 -0.066396 -202248.000000 0 0 1
-7.179351 -17.977894 23.807275 30.684427 1.190856 0.682696 0.207524 -0.070085 -167431.000000 0 0 1
-7.963951 -19.337294 23.675975 31.589670 1.180121 0.723513 0.199224 -0.071268 295964.000000 0 0 1
-9.365551 -19.266194 23.572725 31.852365 1.118320 0.737634 0.170665 -0.066344 -188965.000000 0 0 1
-10.000151 -20.508294 23.338265 32.638440 1.117106 0.774094 0.155350 -0.064547 569479.000000 0 0 1
-11.528351 -20.399594 23.050145 32.868761 1.056414 0.793607 0.117170 -0.058371 581513.000000 0 0 1
-12.281951 -20.412394 24.243805 33.989325 1.029134 0.776634 0.119387 -0.054316 -717294.000000 0 0 1
-13.663851 -20.416194 24.039625 34.371869 0.980997 0.796241 0.085698 -0.037577 -230429.000000 0 0 1
-14.420851 -20.351394 25.399005 35.598450 0.954327 0.776335 0.082072 -0.047285 -673265.000000 0 0 1
-14.228651 -21.434494 26.286185 36.781185 0.984767 0.774653 0.083176 -0.039197 -360077.000000 0 0 1
-13.222251 -21.103694 27.198755 36.877718 1.011092 0.741378 0.113141 -0.045434 -343554.000000 0 0 1
-12.745951 -22.238694 28.123695 38.052082 1.050359 0.739086 0.152436 -0.048101 -256864.000000 0 0 1
-13.733651 -22.789094 28.979545 39.341708 1.028437 0.742750 0.107429 -0.038810 -18968.000000 0 0 1
-13.431751 -24.139594 29.229905 40.218395 1.063038 0.757175 0.134561 -0.039540 -325423.000000 0 0 1
-14.444851 -24.754594 30.196735 41.632757 1.042581 0.759309 0.121760 -0.039158 -79854.800000 0 0 1
-14.365451 -24.243694 31.503142 42.267846 1.035877 0.729779 0.144835 -0.045164 -303818.000000 0 0 1
-15.411251 -24.695894 32.316699 43.494400 1.012887 0.733242 0.121342 -0.047212 -638365.000000 0 0 1
-15.320151 -24.319094 -33.528401 44.161963 1.008635 2.432902 0.124796 -0.050453 64522.100000 0 0 1
-15.506851 -22.934494 -33.308131 43.311488 0.976266 2.448129 0.133680 -0.054520 445279.000000 0 0 1
-16.868751 -22.515694 -33.423871 43.688286 0.927808 2.441921 0.117425 -0.050142 -178308.000000 0 0 1
-17.116851 -21.015394 -33.294321 42.931866 0.887282 2.458327 0.112427 -0.049200 -283715.000000 0 0 1
-16.952151 -20.504394 -31.971581 41.593119 0.879952 2.447563 0.104452 -0.053949 108841.000000 0 0 1
-17.371751 -19.144394 -31.940211 41.090907 0.833904 2.461169 0.087763 -0.053455 -51436.500000 0 0 1
-17.262651 -18.575294 -30.501331 39.665751 0.822009 2.448007 0.081033 -0.040287 320608.000000 0 0 1
-18.398551 -19.003894 -29.760171 39.816107 0.801581 2.414997 0.080043 -0.037741 527960.000000 0 0 1
-18.143551 -18.807494 -28.363581 38.566864 0.803364 2.397111 0.065610 -0.037858 -30599.000000 0 0 1
-17.390851 -19.919694 -27.632251 38.246270 0.853073 2.378182 0.069499 -0.025536 83187.600000 0 0 1
-15.987251 -19.784194 -27.662401 37.579448 0.891147 2.398093 0.069907 -0.032554 -12745.800000 0 0 1
-15.280251 -20.848094 -27.063731 37.424251 0.938308 2.379163 0.064456 -0.031575 -87213.700000 0 0 1
-13.764751 -20.943894 -27.226131 37.005098 0.989362 2.397555 0.155898 -0.038979 -784805.000000 0 0 1
-13.014251 -19.821794 -26.724641 35.727869 0.989821 2.415848 0.152729 -0.049447 837080.000000 0 0 1
-11.600451 -19.997694 -26.811111 35.402173 1.045146 2.430010 0.136478 -0.065176 613567.000000 0 0 1
-10.994251 -21.032894 -25.829351 35.077222 1.089141 2.398466 0.176071 -0.065343 -1124280.000000 0 0 1
-11.088151 -22.406594 -26.183581 36.201967 1.111268 2.379314 0.190526 -0.062838 174867.000000 0 0 1
-10.573151 -23.175494 -25.111201 35.769644 1.142781 2.349034 0.241703 -0.061408 -83794.200000 0 0 1
-10.574151 -24.650394 -25.495711 37.006565 1.165572 2.330837 0.220660 -0.061158 -100018.000000 0 0 1
-9.698751 -25.104114 -26.512501 37.778234 1.202120 2.348708 0.232811 -0.059727 -49081.600000 0 0 1
-9.998051 -26.393874 -27.044021 39.089342 1.208697 2.334847 0.229398 -0.049175 -141010.000000 0 0 1
-9.874651 -27.685624 -26.233561 39.397997 1.228191 2.299443 0.257209 -0.051334 -156810.000000 0 0 1
-10.833951 -27.741194 -25.200801 39.013186 1.198475 2.273071 0.197575 -0.051947 -88556.800000 0 0 1
-10.777851 -28.954364 -24.462541 39.407273 1.214451 2.240511 0.195986 -0.058486 -335381.000000 0 0 1
-11.879351 -29.039794 -23.402441 39.142085 1.182494 2.211656 0.180063 -0.058094 -320264.000000 0 0 1
-11.672951 -28.052274 -22.406241 37.752185 1.176476 2.206207 0.197109 -0.064236 -157705.000000 0 0 1
-12.399351 -26.898524 -22.652841 37.288412 1.138859 2.223710 0.152980 -0.051768 -462730.000000 0 0 1
-12.128451 -25.823844 -21.619841 35.796477 1.131713 2.219264 0.183883 -0.053301 -209539.000000 0 0 1
-12.656451 -26.110364 -20.375441 35.455542 1.119440 2.183004 0.128003 -0.041267 -90922.500000 0 0 1
-12.678951 -24.951594 -19.615441 34.177527 1.100656 2.182091 0.126275 -0.032959 -323142.000000 0 0 1
-13.209951 -25.152774 -18.231441 33.757225 1.087201 2.141323 0.157393 -0.039073 112296.000000 0 0 1
-14.551051 -25.633284 -18.290341 34.689118 1.054494 2.126174 0.181220 -0.042725 298086.000000 0 0 1
-14.921051 -25.946094 -16.962041 34.402738 1.048903 2.086381 0.177252 -0.042923 -895171.000000 0 0 1
-16.405851 -26.202734 -16.772341 35.171673 1.011398 2.067887 0.175943 -0.046773 -1457120.000000 0 0 1
-17.132751 -25.045164 -17.034541 34.798950 0.970839 2.082328 0.159139 -0.038605 -42991.200000 0 0 1
-18.485851 -25.158184 -16.618341 35.367077 0.937104 2.059953 0.187636 -0.031925 722552.000000 0 0 1
-19.570951 -25.929784 -17.442241 36.872857 0.924251 2.063531 0.167039 -0.026797 -472841.000000 0 0 1
-19.445851 -27.316034 -17.598241 37.868257 0.952139 2.054118 0.158858 -0.033496 -141875.000000 0 0 1
-19.742751 -28.146104 -16.487041 38.128754 0.959106 2.017954 0.158394 -0.032714 109685.000000 0 0 1
-21.268251 -28.285304 -16.221441 38.929835 0.926068 2.000591 0.158836 -0.019636 367722.000000 0 0 1
-21.998051 -29.096724 -17.128741 40.297982 0.923446 2.009816 0.133356 -0.016168 45499.700000 0 0 1
-23.334851 -29.280414 -16.689441 40.992625 0.897922 1.990109 0.140574 -0.010695 232501.000000 0 0 1
-24.072151 -30.203264 -17.677841 42.476012 0.897884 2.000041 0.099113 -0.016246 -138330.000000 0 0 1
-23.544851 -31.542944 -17.665141 43.143650 0.929579 1.992647 0.099628 -0.018968 19804.200000 0 0 1
-24.125451 -32.423424 -18.615541 44.495552 0.931098 2.002445 0.061609 0.008602 67184.800000 0 0 1
-23.466051 33.542780 -18.687741 45.000058 -0.960348 1.999050 0.055611 0.000976 1040000.000000 0 0 1
-24.187551 32.579269 -17.854341 44.330845 -0.932163 1.985318 0.053141 -0.003394 184600.000000 0 0 1
-23.313451 31.540973 -17.660541 43.014470 -0.934277 1.993878 0.050283 -0.007764 -405717.000000 0 0 1
-24.070751 30.249090 -17.472341 42.422767 -0.898651 1.995293 0.061606 -0.027026 -338639.000000 0 0 1
-24.738151 30.222420 -16.244141 42.299443 -0.884854 1.964950 0.064974 -0.032919 -26024.800000 0 0 1
-25.395861 28.942970 -16.018841 41.704298 -0.850583 1.965035 0.067155 -0.027656 -333879.000000 0 0 1
-24.582051 27.744980 -15.536741 40.192679 -0.845770 1.967691 0.058934 -0.033654 -630197.000000 0 0 1
-23.791851 27.329850 -16.609141 39.860211 -0.854495 2.000592 0.039345 -0.025735 486231.000000 0 0 1
-22.823151 26.284300 -16.300141 38.437679 -0.855763 2.008727 0.056991 -0.023725 627141.000000 0 0 1
-22.118951 25.771960 -17.541441 38.224914 -0.861528 2.047554 0.058839 -0.012837 -645116.000000 0 0 1
-22.153251 24.358080 -17.598141 37.333324 -0.832767 2.061650 0.068681 -0.030120 138429.000000 0 0 1
-21.631451 23.740570 -18.781341 37.205820 -0.831850 2.099942 0.063046 -0.021426 2236000.000000 0 0 1
-20.060451 23.911330 -19.172741 36.630143 -0.872751 2.121649 0.057009 -0.036624 1905580.000000 0 0 1
-19.212251 23.386530 -18.177341 35.305185 -0.883077 2.111644 0.090071 -0.043071 921465.000000 0 0 1
-17.965051 24.116850 -17.998641 35.047347 -0.930556 2.110116 0.112610 -0.056543 1051830.000000 0 0 1
-17.991151 25.468480 -17.220441 35.621181 -0.955782 2.075368 0.139559 -0.055631 -605878.000000 0 0 1
-18.658451 26.508780 -17.889441 37.025468 -0.957485 2.075063 0.100194 -0.048344 -39027.400000 0 0 1
-18.403751 27.723220 -17.198141 37.457322 -0.984754 2.047823 0.115213 -0.052699 -486197.000000 0 0 1
-19.505051 28.783140 -17.326941 38.847638 -0.975225 2.033113 0.083244 -0.038103 -204598.000000 0 0 1
-19.649851 29.390140 -18.607141 39.951503 -0.981466 2.055271 0.088042 -0.035478 31215.200000 0 0 1
-20.165051 28.601190 -19.630641 40.125047 -0.956694 2.082011 0.066794 -0.024745 -483191.000000 0 0 1
-20.552351 29.372700 -20.908941 41.501065 -0.960265 2.098808 0.072253 -0.023341 149683.000000 0 0 1
-21.618451 30.301410 -20.792241 42.636253 -0.951102 2.080210 0.072704 -0.018768 182216.000000 0 0 1
-22.126851 30.539470 -22.074541 43.698307 -0.943794 2.100361 0.078536 -0.021943 -66581.500000 0 0 1
-22.899051 31.843963 -22.258341 45.098095 -0.947365 2.086968 0.073429 -0.024965 54367.000000 0 0 1
-21.991551 32.976859 -22.267141 45.463469 -0.982647 2.082635 0.054464 -0.019261 923503.000000 0 0 1
-22.552651 -33.390104 -23.045341 46.417764 0.976752 2.090332 0.082611 -0.004530 539523.000000 0 0 1
-21.309551 -32.479674 -23.444241 45.372443 0.990153 2.113796 0.086240 -0.009039 1291510.000000 0 0 1
-20.724451 -31.527714 -22.569241 43.964420 0.989278 2.109883 0.102658 -0.015217 260085.000000 0 0 1
-20.082051 -32.217124 -21.495541 43.626713 1.013395 2.086003 0.124534 -0.022458 -813288.000000 0 0 1
-19.805751 -31.331914 -20.276841 42.250525 1.007088 2.071359 0.138215 -0.028440 176912.000000 0 0 1
-18.600151 -30.626534 -20.555741 41.309668 1.025011 2.091627 0.141241 -0.028880 346228.000000 0 0 1
-18.357551 -29.860174 -19.396741 40.060744 1.019577 2.076226 0.127058 -0.021000 454532.000000 0 0 1
-17.153751 -28.831994 -19.399441 38.754011 1.034094 2.095064 0.139120 -0.030554 1531710.000000 0 0 1
-15.911851 -29.518814 -19.640341 38.862454 1.076406 2.100620 0.137690 -0.032655 497277.000000 0 0 1
-14.779251 -28.705114 -19.809441 37.879067 1.095328 2.121123 0.131598 -0.042269 -68380.000000 0 0 1
-13.461951 -29.484074 -20.077141 38.126452 1.142481 2.125385 0.210689 -0.057052 169348.000000 0 0 1
-12.907151 -30.126774 -18.942441 37.855424 1.166026 2.094844 0.209094 -0.052745 531726.000000 0 0 1
-12.153451 -29.252284 -18.042041 36.454324 1.177025 2.088541 0.165720 -0.044730 -164865.000000 0 0 1
-11.230851 -29.934944 -17.029041 36.224592 1.211872 2.060196 0.167390 -0.024979 -251114.000000 0 0 1
-11.866051 -30.689784 -16.036841 36.603910 1.201856 2.024301 0.195826 -0.035509 -95754.000000 0 0 1
-12.224151 -32.022414 -16.428741 38.010109 1.206132 2.017750 0.207909 -0.029868 96778.400000 0 0 1
-12.931851 -32.893564 -15.346641 38.532307 1.196216 1.980437 0.193237 -0.029378 -40457.900000 0 0 1
-12.115751 -33.128074 -14.255741 38.045852 1.220182 1.954868 0.184636 -0.034507 -15655.700000 0 0 1
-12.954451 -33.417324 -13.147441 38.175785 1.200976 1.922388 0.163628 -0.033385 93892.100000 0 0 1
-12.181751 -33.577724 -11.848941 37.633177 1.222771 1.891099 0.147192 -0.029777 -176437.000000 0 0 1
-11.833951 -32.368304 -11.199541 36.237814 1.220289 1.884997 0.126396 -0.025944 136121.000000 0 0 1
-11.599551 -32.652104 -9.837541 36.020642 1.229455 1.847419 0.132825 -0.028961 1372510.000000 0 0 1
-10.087451 -32.282574 -9.467141 35.121902 1.267936 1.843723 0.118845 -0.027976 1986180.000000 0 0 1
-9.035651 -33.098374 -9.982641 35.732317 1.304296 1.853937 0.078715 -0.034856 -89723.000000 0 0 1
-7.805251 -32.443954 -9.864541 34.797144 1.334706 1.858225 0.061506 -0.037727 -1419660.000000 0 0 1
-6.624651 -33.174034 -10.361741 35.380336 1.373695 1.868020 0.062810 -0.048740 -1015660.000000 0 0 1
-6.252651 33.198997 -9.476441 35.086635 -1.384638 1.844280 0.066468 -0.023219 484034.000000 0 0 1
-5.142051 32.418096 -9.954241 34.299571 -1.413490 1.865248 0.083985 -0.023463 568855.000000 0 0 1
-4.390251 31.608073 -8.918141 33.134239 -1.432783 1.843309 0.097633 -0.035710 -27180.200000 0 0 1
-3.800451 32.388187 -7.878141 33.548520 -1.453990 1.807838 0.101367 -0.038630 -213448.000000 0 0 1
-3.157151 31.510033 -7.012641 32.434964 -1.470935 1.788723 0.104603 -0.044832 -8287.780000 0 0 1
-2.698251 32.085706 -5.636841 32.688638 -1.486899 1.744103 0.117012 -0.043375 -25974.900000 0 0 1
-1.720651 33.104947 -5.707841 33.637443 -1.518867 1.741309 0.091718 -0.041490 40477.700000 0 0 1
-1.305251 33.567830 -4.401641 33.880338 -1.531932 1.701082 0.096416 -0.041444 531417.000000 0 0 1
-0.091551 32.820214 -3.780441 33.037351 -1.568007 1.685477 0.092014 -0.039237 -496950.000000 0 0 1
1.156849 33.013649 -4.375041 33.322369 1.535769 1.702471 0.091566 -0.036591 114104.000000 0 0 1
2.113449 32.181884 -3.659041 32.458110 1.505218 1.683768 0.089728 -0.029403 1918840.000000 0 0 1
3.609349 32.156699 -4.211341 32.631519 1.459022 1.700215 0.092857 -0.021305 1215440.000000 0 0 1
4.325749 33.264015 -3.782441 33.756683 1.441479 1.683082 0.085436 -0.022602 -467491.000000 0 0 1
5.694249 33.195965 -4.113941 33.931122 1.400915 1.692339 0.088622 -0.020401 373970.000000 0 0 1
6.510349 -32.951914 -3.703441 33.792436 -1.375737 1.680611 0.091001 -0.023893 225241.000000 0 0 1
6.283249 -31.812404 -4.519241 32.740370 -1.375797 1.709271 0.091108 -0.029399 56737.300000 0 0 1
6.843749 -30.712364 -3.769341 31.690600 -1.351545 1.690020 0.074663 -0.030455 205865.000000 0 0 1
6.759049 -29.391344 -4.474041 30.488570 -1.344759 1.718073 0.079524 -0.028900 24780.000000 0 0 1
7.624349 -29.279664 -5.593541 30.768769 -1.316056 1.753606 0.095757 -0.033296 100209.000000 0 0 1
7.284349 -28.193474 -6.493341 29.834497 -1.317956 1.790198 0.095977 -0.027685 239586.000000 0 0 1
7.728649 -26.785344 -6.036241 28.524075 -1.289886 1.784028 0.086094 -0.024035 -102511.000000 0 0 1
6.901349 -26.359854 -5.031541 27.708968 -1.314731 1.753395 0.069367 -0.028542 -518303.000000 0 0 1
7.460849 -25.275644 -4.315141 26.704735 -1.283768 1.733095 0.059188 -0.031163 -55809.000000 0 0 1
6.463749 -24.691194 -3.296541 25.735234 -1.314758 1.699244 0.057344 -0.029079 645630.000000 0 0 1
5.356249 -23.993594 -3.883341 24.888999 -1.351161 1.727463 0.069493 -0.036145 28803.100000 0 1 0
4.415049 -23.590194 -2.934841 24.178569 -1.385781 1.692478 0.079894 -0.040713 94646.700000 0 1 0
3.123049 -22.976694 -3.520841 23.453746 -1.435702 1.721484 0.090632 -0.039686 435112.000000 0 1 0
2.175649 -23.896394 -4.035441 24.332198 -1.480002 1.737414 0.096955 -0.036670 160508.000000 0 1 0
0.877549 -23.310394 -4.064341 23.678332 -1.533168 1.743299 0.097459 -0.032831 564699.000000 0 1 0
-15.753651 23.095006 17.947865 33.221720 -0.972169 1.000068 0.025041 -0.024843 -102588.000000 0 0 1
-15.965351 22.480606 19.141365 33.565785 -0.953269 0.963969 0.043146 -0.029362 317871.000000 0 0 1
-15.678351 23.381306 20.227565 34.664831 -0.980110 0.947742 0.059178 -0.034935 -1015220.000000 0 0 1
-15.728851 22.734406 21.642565 35.109124 -0.965560 0.906587 0.082586 -0.038398 284561.000000 0 0 1
-14.632551 21.875306 22.059465 34.340363 -0.981244 0.873200 0.073237 -0.033273 2362240.000000 0 0 1
-13.308351 22.514206 22.055165 34.211577 -1.036940 0.870205 0.048611 -0.029251 913553.000000 0 0 1
-13.045151 23.591206 23.124245 35.516921 -1.065678 0.861794 0.076931 -0.033588 -783821.000000 0 0 1
-12.822251 23.031806 24.406745 35.924412 -1.062809 0.823863 0.063210 -0.023420 2903.780000 0 0 1
-12.483451 24.049406 25.277505 37.056210 -1.092005 0.820112 0.093560 -0.032655 -18200.000000 0 0 1
-11.823651 23.491106 26.549955 37.370187 -1.104493 0.780647 0.089234 -0.029278 -284246.000000 0 0 1
-10.460351 23.185506 26.496915 36.729731 -1.146979 0.764971 0.051103 -0.021546 -640703.000000 0 0 1
-10.123151 22.419406 27.655585 37.012691 -1.146666 0.726969 0.039603 -0.017409 216433.000000 0 0 1
-8.574651 22.145906 27.772775 36.541659 -1.201382 0.707436 0.034796 -0.019507 1714970.000000 0 0 1
-7.747951 23.302706 28.143595 37.351155 -1.249804 0.717447 0.031630 -0.020158 597703.000000 0 0 1
-7.647051 24.224706 27.055715 37.112336 -1.265025 0.753904 0.037473 -0.015869 -464001.000000 0 0 1
-6.588451 25.340606 27.407365 37.904059 -1.316432 0.762557 0.035409 -0.019722 1442520.000000 0 0 1
-5.216151 24.910406 27.442335 37.427507 -1.364382 0.747761 0.034241 -0.015479 602742.000000 0 0 1
-4.350651 25.958906 27.889705 38.348776 -1.404742 0.756468 0.060129 -0.006588 529899.000000 0 0 1
-2.888651 25.443706 27.746575 37.757104 -1.457749 0.745321 0.061891 -0.007913 -367095.000000 0 0 1
-2.461151 25.327506 26.377085 36.650927 -1.473927 0.767449 0.072737 -0.014284 363966.000000 0 0 1
-1.135951 24.795506 26.376325 36.219029 -1.525016 0.755039 0.109053 -0.008734 525351.000000 0 0 1
-0.437751 24.441406 25.094975 35.033295 -1.552888 0.772285 0.114382 -0.017609 -147968.000000 0 0 1
-0.786951 23.155406 24.604405 33.795989 -1.536824 0.755356 0.102584 -0.012615 -6343.650000 0 0 1
-0.224451 22.976506 23.315435 32.734992 -1.561028 0.778101 0.099566 -0.013925 126340.000000 0 0 1
-0.620751 21.613806 22.644515 31.309998 -1.542084 0.762320 0.086673 -0.013650 159967.000000 0 0 1
0.286149 20.598606 22.988465 30.868333 1.556906 0.730671 0.101711 -0.014268 -18468.200000 0 0 1
-0.066351 19.422506 22.284215 29.560521 -1.567380 0.716893 0.098691 -0.018698 312653.000000 0 0 1
1.003449 18.315806 22.509115 29.036803 1.516065 0.683776 0.113644 -0.009754 970567.000000 0 0 1
2.207849 18.550406 21.761965 28.680573 1.452335 0.709373 0.120301 -0.017140 203282.000000 0 0 1
3.155349 17.523806 21.942265 28.257795 1.392645 0.681699 0.115632 -0.022586 -805967.000000 0 0 1
4.509049 17.867306 21.380565 28.225887 1.323595 0.711351 0.119261 -0.024416 -1599220.000000 0 0 1
5.432449 18.292706 22.280105 29.334923 1.282118 0.708240 0.120052 -0.016783 -1156560.000000 0 0 1
6.611449 18.729106 21.659065 29.387170 1.231448 0.742139 0.132648 -0.028156 -313268.000000 0 0 1
7.731149 19.090906 22.656005 30.619078 1.186017 0.737829 0.146129 -0.034697 -522033.000000 0 0 1
7.578149 20.164806 23.599535 31.952868 1.211315 0.739845 0.136874 -0.031929 -4497.150000 0 0 1
7.382249 21.515306 23.173795 32.472000 1.240267 0.776095 0.139129 -0.034250 -537352.000000 0 0 1
5.964249 22.006006 22.860995 32.287175 1.306126 0.784061 0.109437 -0.016842 -316887.000000 0 0 1
5.934449 23.380206 22.671335 33.103492 1.322222 0.816382 0.095068 -0.020708 321258.000000 0 0 1
4.636349 23.933406 22.846695 33.410704 1.379448 0.817820 0.075178 -0.015585 43869.800000 0 0 1
4.438049 25.367506 22.358855 34.104619 1.397599 0.855825 0.082348 -0.010557 4750.820000 0 0 1
4.258049 25.591306 20.976565 33.362587 1.405920 0.890858 0.088436 -0.017689 -92078.000000 0 0 1
3.073149 25.070206 20.408965 32.472840 1.448823 0.891182 0.097327 -0.024143 -117020.000000 0 0 1
2.755049 25.605006 18.908265 31.948852 1.463611 0.937470 0.101962 -0.024945 -761934.000000 0 0 1
2.006249 26.770306 18.941065 32.854806 1.495993 0.956348 0.116793 -0.033153 -44797.800000 0 0 1
1.622949 27.107306 17.642665 32.383694 1.510996 0.994645 0.126869 -0.028602 298075.000000 0 0 1
0.631549 28.333806 17.620565 33.371960 1.548510 1.014547 0.124375 -0.015353 368856.000000 0 0 1
1.258549 29.542606 18.002965 34.618727 1.528221 1.023904 0.145126 -0.024147 335495.000000 0 0 1
0.377949 30.645506 17.994165 35.539835 1.558464 1.039896 0.123166 -0.024174 164768.000000 0 0 1
1.177649 31.906206 18.393265 36.847049 1.533903 1.048146 0.141261 -0.019166 -307610.000000 0 0 1
1.394049 31.909306 19.803365 37.580852 1.527136 1.015784 0.168655 -0.029342 -187514.000000 0 0 1
2.065249 33.045406 20.228365 38.800140 1.508380 1.022367 0.193657 -0.036708 -397579.000000 0 0 1
2.553249 32.872306 21.659265 39.449098 1.493280 0.989577 0.189105 -0.058610 198197.000000 0 0 1
1.429749 32.842406 22.517915 39.846259 1.527290 0.970218 0.196283 -0.044038 445821.000000 0 0 1
1.842649 32.496806 23.818225 40.332935 1.514155 0.939068 0.200214 -0.053795 696187.000000 0 0 1
0.555949 32.272806 24.705855 40.647538 1.553571 0.917500 0.198023 -0.031214 589805.000000 0 0 1
-0.281951 33.412906 24.739865 41.575987 -1.562358 0.933466 0.199435 -0.026052 135849.000000 0 0 1
-1.240651 33.393306 25.780105 42.205046 -1.533661 0.913688 0.213218 -0.026703 -107635.000000 0 0 1
-0.676051 33.535106 27.194385 43.180956 -1.550640 0.889530 0.221385 -0.037357 -951138.000000 0 0 1
-0.005651 32.426006 27.719705 42.659441 -1.570622 0.863487 0.209284 -0.046858 80166.800000 0 0 1
0.470249 32.745406 29.024575 43.759670 1.556437 0.845614 0.197219 -0.051402 -399233.000000 0 0 1
1.308449 31.530106 29.510805 43.205870 1.529322 0.818896 0.162459 -0.050609 314774.000000 0 0 1
2.678249 31.433906 29.137645 42.944916 1.485799 0.825093 0.129524 -0.043107 552112.000000 0 0 1
2.914449 31.131206 27.742875 41.800875 1.477450 0.845054 0.140946 -0.048022 -813592.000000 0 0 1
4.432949 31.133806 27.548235 41.807537 1.429363 0.851401 0.113127 -0.040069 -260732.000000 0 0 1
5.098449 30.000406 27.997155 41.350444 1.402459 0.827022 0.109455 -0.036562 1059890.000000 0 0 1
6.543849 30.047606 27.891635 41.516550 1.356362 0.834134 0.119480 -0.042311 1375290.000000 0 0 1
7.322149 28.890706 28.581485 41.293923 1.322580 0.806336 0.133700 -0.031175 116874.000000 0 0 1
7.379149 29.088606 30.005745 42.437526 1.322359 0.785469 0.140074 -0.043664 54780.100000 0 0 1
7.876549 27.988606 30.767135 42.332242 1.296471 0.757143 0.129253 -0.036637 90987.800000 0 0 1
8.004049 28.047806 32.276967 43.503412 1.292813 0.734836 0.149337 -0.046462 225259.000000 0 0 1
6.668949 28.164706 32.756762 43.711909 1.338294 0.723673 0.163246 -0.047622 304278.000000 0 0 1
6.543649 27.835406 -33.185391 43.805243 1.339905 2.430374 0.171239 -0.046761 79590.500000 0 0 1
6.449349 26.363406 -32.801311 42.574045 1.330876 2.450348 0.177269 -0.045044 -127661.000000 0 0 1
7.768249 25.887806 -32.893221 42.573327 1.279272 2.453762 0.158938 -0.044007 -90603.600000 0 0 1
7.817649 24.531406 -32.548191 41.500485 1.262292 2.472338 0.165711 -0.047681 -723844.000000 0 0 1
9.195849 23.897906 -32.501681 41.376718 1.203464 2.474310 0.173802 -0.042456 -1208230.000000 0 0 1
9.866349 23.945506 33.556325 42.388195 1.179960 0.657303 0.146022 -0.024936 44949.000000 0 0 1
11.087749 23.244506 -33.608831 42.341454 1.125713 2.487758 0.151860 -0.044468 -187685.000000 0 0 1
11.133849 21.665406 -33.430331 41.363504 1.096091 2.511900 0.160981 -0.045892 -1004290.000000 0 0 1
10.563549 20.979106 32.793559 40.337687 1.104331 0.621552 0.152422 -0.044634 171296.000000 0 0 1
10.227049 19.576206 32.943120 39.661941 1.089372 0.590616 0.152548 -0.044872 -205063.000000 0 0 1
8.909549 19.299606 -33.634991 39.789037 1.138301 2.577985 0.169212 -0.051874 -515337.000000 0 0 1
8.892549 19.618006 -32.249191 38.780845 1.145214 2.552734 0.178186 -0.046010 248337.000000 0 0 1
7.675649 20.268206 -31.896821 38.563233 1.208782 2.544779 0.190118 -0.058704 142212.000000 0 0 1
7.655249 20.895606 -30.490921 37.748185 1.219625 2.511114 0.204003 -0.065454 -356597.000000 0 0 1
8.547549 21.949006 -30.342841 38.412335 1.199437 2.481482 0.218009 -0.063801 -243432.000000 0 0 1
8.526149 22.532106 -29.026961 37.722082 1.209048 2.448847 0.186266 -0.060059 -118104.000000 0 0 1
9.997749 22.772006 -28.573221 37.880710 1.157097 2.425376 0.194328 -0.063703 317939.000000 0 0 1
10.660249 21.537006 -28.535391 37.306194 1.111178 2.441678 0.197128 -0.063634 -777624.000000 0 0 1
12.034149 21.706106 -28.336681 37.668863 1.064571 2.422278 0.216727 -0.062574 43351.900000 0 0 1
12.839149 20.378806 -28.171011 37.064071 1.008592 2.434206 0.212268 -0.067391 136444.000000 0 0 1
12.956749 19.438306 -29.262611 37.443631 0.982869 2.467880 0.206919 -0.063475 577268.000000 0 0 1
11.737949 18.808906 -29.733451 37.089520 1.012871 2.500875 0.219416 -0.063045 598322.000000 0 0 1
11.781449 17.780706 -30.837541 37.495466 0.985616 2.536473 0.210916 -0.067856 -525413.000000 0 0 1
12.337249 16.550006 -30.384151 36.732915 0.930212 2.544839 0.198306 -0.062599 129549.000000 0 0 1
12.380149 15.631406 -31.494031 37.275769 0.900950 2.577161 0.185281 -0.055890 380666.000000 0 0 1
13.652549 15.769406 -32.400601 38.533949 0.857223 2.569616 0.157058 -0.040727 -37783.100000 0 0 1
13.663449 17.042506 -33.063961 39.627798 0.895003 2.557772 0.160842 -0.049741 -519599.000000 0 0 1
14.231549 17.077606 32.990523 39.781355 0.876051 0.592949 0.158687 -0.046759 -318120.000000 0 0 1
13.422449 16.505906 31.801728 38.261691 0.888064 0.589599 0.164165 -0.045551 -758545.000000 0 0 1
13.919849 16.940406 30.545535 37.600123 0.882966 0.622577 0.157994 -0.051458 565558.000000 0 0 1
13.092449 16.703706 29.356015 36.224324 0.906009 0.625970 0.154437 -0.043209 1195600.000000 0 0 1
11.650849 17.332506 29.311095 35.990253 0.978975 0.619072 0.140174 -0.042739 782326.000000 0 0 1
10.838149 16.684406 30.275795 36.227871 0.994704 0.581382 0.143707 -0.037818 -690747.000000 0 0 1
9.534349 17.186006 30.347705 36.155855 1.064295 0.574695 0.144842 -0.040324 708218.000000 0 0 1
8.479649 16.312006 31.175555 36.192558 1.091402 0.532816 0.161388 -0.045774 849433.000000 0 0 1
8.741949 16.451806 32.557768 37.511223 1.082371 0.519742 0.169675 -0.042669 105509.000000 0 0 1
8.148549 15.471706 33.378865 37.681841 1.086038 0.482565 0.183473 -0.052266 -142177.000000 0 0 1
8.189349 15.774206 -32.408601 36.962257 1.091938 2.639968 0.180302 -0.054943 -334356.000000 0 0 1
7.187449 16.688506 -32.026671 36.822185 1.164122 2.625523 0.166184 -0.056834 -7253.760000 0 0 1
6.979749 16.658406 -30.637371 35.564981 1.174025 2.608910 0.172681 -0.069249 210292.000000 0 0 1
5.784249 17.542806 -30.176421 35.381124 1.252299 2.592304 0.165875 -0.072977 -400986.000000 0 0 1
5.751849 17.782606 -28.743631 34.285582 1.257964 2.565062 0.157449 -0.079608 561210.000000 0 0 1
4.727449 18.729106 -28.377921 34.328335 1.323549 2.543945 0.157317 -0.077162 1075600.000000 0 0 1
3.225749 18.356606 -28.516331 34.066869 1.396845 2.562701 0.167717 -0.078116 -1100340.000000 0 0 1
2.860549 17.436406 -27.522901 32.706591 1.408189 2.570867 0.174447 -0.071871 -562579.000000 0 0 1
1.525449 17.046106 -27.595771 32.471885 1.481544 2.586470 0.160691 -0.067382 -188470.000000 0 0 1
0.373849 18.049906 -27.375101 32.792301 1.550087 2.558571 0.147773 -0.069571 -774101.000000 0 0 1
0.246249 18.550506 -26.032601 31.966830 1.557523 2.522427 0.147721 -0.061965 93133.800000 0 0 1
-0.707251 19.615506 -26.015691 32.589637 -1.534756 2.495232 0.147105 -0.057195 200941.000000 0 0 1
-1.252351 20.123706 -24.663141 31.855964 -1.508644 2.456259 0.131242 -0.064798 622554.000000 0 0 1
-2.367351 19.403806 -24.095141 31.027211 -1.449392 2.460017 0.115135 -0.051076 287256.000000 0 0 1
-2.817051 20.047206 -22.940241 30.595439 -1.431190 2.418545 0.098209 -0.045474 -361565.000000 0 0 1
-3.731851 19.252306 -22.039741 29.501325 -1.379332 2.414449 0.069702 -0.033973 -1281970.000000 0 0 1
-5.018751 19.225906 -22.533241 30.042807 -1.315453 2.418916 0.086424 -0.025311 -1196450.000000 0 0 1
-5.825351 18.398506 -21.669441 29.017312 -1.264162 2.413998 0.077615 -0.024354 -61563.800000 0 0 1
-7.285751 18.869006 -21.723541 29.682213 -1.202310 2.391859 0.138596 -0.021626 -326333.000000 0 0 1
-7.676651 20.063806 -21.020141 30.055509 -1.205369 2.345322 0.104166 -0.025359 -55190.900000 0 0 1
-7.104751 21.318306 -21.393141 31.026023 -1.249103 2.331626 0.119939 -0.035891 -325878.000000 0 0 1
-7.430751 22.522706 -20.511541 31.356206 -1.252119 2.283849 0.133083 -0.038771 -152625.000000 0 0 1
-6.880151 22.315006 -19.243341 30.258918 -1.271725 2.260043 0.135809 -0.037656 -148371.000000 0 0 1
-7.194751 23.315206 -18.278741 30.487303 -1.271481 2.213738 0.148692 -0.047504 -353342.000000 0 0 1
-6.283651 23.375006 -17.055641 29.610303 -1.308185 2.184628 0.142128 -0.047663 174331.000000 0 0 1
-4.958351 23.772206 -17.347241 29.843421 -1.365167 2.191091 0.128589 -0.051573 -480717.000000 0 0 1
-4.160351 23.733406 -16.197641 29.033544 -1.397264 2.162642 0.113506 -0.043128 -25654.800000 0 0 1
-2.699351 24.187706 -16.335241 29.311631 -1.459656 2.161921 0.116238 -0.050268 138923.000000 0 0 1
-2.624251 25.573506 -16.552241 30.575604 -1.468538 2.142844 0.124073 -0.056535 -1099090.000000 0 0 1
-1.350951 25.875606 -16.985741 30.982050 -1.518634 2.151060 0.126420 -0.059984 -753966.000000 0 0 1
-1.174451 27.366006 -17.269341 32.380669 -1.527906 2.133320 0.138965 -0.061540 5169.970000 0 0 1
-1.972851 27.914706 -18.301241 33.437380 -1.500239 2.149966 0.145334 -0.056386 -285784.000000 0 0 1
-1.419951 29.036706 -18.899141 34.674545 -1.521933 2.147238 0.163956 -0.069216 -634561.000000 0 0 1
-2.487451 29.769206 -19.775941 35.825701 -1.487432 2.155562 0.213522 -0.065065 717465.000000 0 0 1
-3.413451 30.595806 -19.060241 36.208394 -1.459690 2.125162 0.202539 -0.064514 -215932.000000 0 0 1
-4.455551 29.813106 -18.534941 35.386682 -1.422445 2.122082 0.162079 -0.056964 -1182010.000000 0 0 1
-5.207551 30.606806 -17.474041 35.626356 -1.402267 2.083438 0.187116 -0.048481 -77511.300000 0 0 1
-5.773051 31.754906 -18.055141 36.982297 -1.390960 2.080834 0.217607 -0.061752 -386504.000000 0 0 1
-6.261451 32.665806 -17.117941 37.407012 -1.381411 2.046105 0.220256 -0.073850 -88175.200000 0 0 1
-7.063851 -33.642637 -17.822941 38.721857 1.363836 2.049108 0.223840 -0.059045 -397317.000000 0 0 1
-8.404951 33.469106 -18.040041 38.939277 -1.324759 2.052496 0.200492 -0.066273 -511475.000000 0 0 1
-9.196851 -32.839937 -18.371641 38.737072 1.297741 2.064925 0.224966 -0.055757 -70931.200000 0 0 1
30.045449 -20.055794 -26.424241 44.757171 -0.588590 2.202340 0.122540 -0.033294 244644.000000 0 0 1
29.800349 -21.406194 -26.043721 44.995126 -0.622916 2.188067 0.114240 -0.039071 -515260.000000 0 0 1
28.460049 -21.715194 -25.798881 44.126027 -0.651773 2.195262 0.098170 -0.037593 -655405.000000 0 0 1
28.350549 -22.808694 -24.728441 43.994158 -0.677493 2.167700 0.110942 -0.036111 84344.800000 0 0 1
28.738749 -24.119994 -25.116311 45.149960 -0.698240 2.160707 0.118583 -0.017339 -105235.000000 0 0 1
30.127349 -24.335794 -25.232801 46.223179 -0.679457 2.148248 0.112077 -0.016897 -450268.000000 0 0 1
30.470749 -25.615714 -25.933771 47.509913 -0.699050 2.148212 0.101063 -0.023521 -292473.000000 0 0 1
30.193249 -26.793854 -25.223061 47.599850 -0.725817 2.129277 0.115965 -0.026749 -85007.300000 0 0 1
30.374949 -28.087444 -25.790611 48.751386 -0.746290 2.128245 0.101727 -0.018752 -359694.000000 0 0 1
29.423249 -28.465714 -26.917761 48.995819 -0.768859 2.152429 0.102158 -0.026518 -745205.000000 0 0 1
29.423949 -27.823614 -28.182031 49.337097 -0.757451 2.178780 0.075021 -0.025355 352685.000000 0 0 1
30.445349 -28.139354 -29.154511 50.682621 -0.746057 2.183690 0.052913 -0.023006 -66536.200000 0 0 1
30.677449 -29.621164 -29.550851 51.882290 -0.767882 2.176785 0.057791 -0.021146 -672051.000000 0 0 1
31.404949 -30.409784 -28.619331 52.250281 -0.769300 2.150451 0.070290 -0.024400 751740.000000 0 0 1
32.780649 -30.102604 -28.363171 52.775062 -0.742836 2.138189 0.078394 -0.023840 776069.000000 0 0 1
33.826649 -30.180764 -29.511781 54.093123 -0.728499 2.147870 0.070946 -0.023787 -368851.000000 0 0 1
33.663449 -29.148714 -30.500491 53.973654 -0.713645 2.171350 0.070563 -0.030335 -866177.000000 0 0 1
34.868449 -28.858654 -31.107681 54.921020 -0.691371 2.172937 0.074629 -0.034338 -739677.000000 0 0 1
34.841449 -27.486574 -31.836621 54.616927 -0.667939 2.193099 0.069349 -0.030389 -12625.100000 0 0 1
34.853849 -26.290954 -31.030301 53.561970 -0.646260 2.188708 0.075267 -0.021905 -351506.000000 0 0 1
33.650049 -25.958754 -30.390421 52.247109 -0.657078 2.191573 0.082189 -0.030687 -456821.000000 0 0 1
33.651449 -24.683594 -29.610031 51.170829 -0.632862 2.187869 0.081440 -0.031942 -788697.000000 0 0 1
34.521449 -24.633694 -28.513461 51.103491 -0.619780 2.162716 0.088625 -0.020706 89774.800000 0 0 1
34.538849 -23.371094 -27.949191 50.202564 -0.594890 2.161238 0.081211 -0.026341 -448429.000000 0 0 1
35.340049 -23.208994 -26.680981 49.994512 -0.581094 2.133740 0.090499 -0.029447 -32931.700000 0 0 1
34.681749 -23.911194 -25.549091 49.267890 -0.603608 2.115980 0.096280 -0.031670 520772.000000 0 0 1
33.675549 -23.237794 -24.859841 47.875352 -0.604016 2.116783 0.103323 -0.026131 -517583.000000 0 0 1
34.031749 -21.872794 -24.122141 47.100496 -0.571239 2.108473 0.117996 -0.019391 -340170.000000 0 0 1
34.364749 -20.763694 -24.912641 47.251525 -0.543513 2.126139 0.122207 -0.035550 104594.000000 0 0 1
34.617549 -19.644294 -24.111941 46.536638 -0.516154 2.115457 0.099817 -0.046000 80393.100000 0 0 1
34.869949 -18.394794 -24.985041 46.674769 -0.485425 2.135660 0.085731 -0.057429 -75480.000000 0 0 1
33.679349 -18.162594 -25.677901 46.081807 -0.494576 2.161836 0.107391 -0.048291 81315.900000 0 0 1
33.866149 -17.006294 -26.444581 46.210886 -0.465376 2.180054 0.091787 -0.039676 183772.000000 0 0 1
32.642949 -16.839494 -27.384911 45.815544 -0.476262 2.211452 0.100665 -0.031808 276308.000000 0 0 1
31.426249 -16.683394 -26.662291 44.461472 -0.488041 2.213887 0.113409 -0.040558 92229.100000 0 0 1
30.496249 -16.052694 -27.546461 44.119357 -0.484530 2.245111 0.088340 -0.037860 768649.000000 0 0 1
29.138649 -15.820494 -26.769741 42.614175 -0.497406 2.250019 0.085753 -0.033201 797289.000000 0 0 1
28.409849 -17.032594 -26.473321 42.403602 -0.540075 2.245054 0.093828 -0.026325 66513.600000 0 0 1
27.515849 -16.611394 -25.451111 40.997798 -0.543138 2.240549 0.117930 -0.035217 -29526.800000 0 0 1
27.145549 -17.666194 -24.440941 40.575052 -0.576934 2.217255 0.109825 -0.032178 -207831.000000 0 0 1
26.242149 -17.269594 -23.449141 39.201422 -0.582039 2.212013 0.101889 -0.024302 -162807.000000 0 0 1
26.104249 -18.255394 -22.469041 38.981393 -0.610274 2.185118 0.123608 -0.026912 -198043.000000 0 0 1
26.391149 -17.741494 -21.092341 38.159405 -0.591859 2.156448 0.115594 -0.033406 -177546.000000 0 0 1
25.471749 -16.817794 -20.538641 36.789726 -0.583549 2.163097 0.110463 -0.031313 26462.700000 0 0 1
25.564349 -15.449294 -20.918641 36.466507 -0.543597 2.181739 0.105584 -0.018632 -420969.000000 0 0 1
26.872949 -14.679494 -20.699641 36.961035 -0.499964 2.165230 0.106382 -0.024767 -322039.000000 0 0 1
27.110449 -14.281394 -19.345941 36.238103 -0.484846 2.133951 0.096200 -0.027183 388826.000000 0 0 1
28.220549 -13.403694 -19.447641 36.800396 -0.443417 2.127585 0.083916 -0.024019 -8535.060000 0 0 1
28.385149 -12.557994 -18.146541 35.954372 -0.416528 2.099843 0.087233 -0.013411 -348534.000000 0 0 1
28.619649 -13.234194 -16.957641 35.802092 -0.433131 2.064226 0.092753 -0.017489 236127.000000 0 0 1
28.642749 -12.274394 -15.922641 34.994261 -0.404860 2.043177 0.077053 -0.021772 -30136.600000 0 0 1
29.076849 -12.820394 -14.529541 34.941855 -0.415272 1.999641 0.104659 -0.033006 -283294.000000 0 0 1
28.293849 -13.876494 -14.032141 34.496376 -0.455972 1.989713 0.145828 -0.037892 451103.000000 0 0 1
28.809549 -14.413994 -12.722241 34.635369 -0.463904 1.946922 0.153044 -0.042000 50235.700000 0 0 1
27.977749 -15.567294 -12.154541 34.246576 -0.507756 1.933617 0.161903 -0.070302 -545995.000000 0 0 1
26.629949 -15.203894 -11.988441 32.924691 -0.518772 1.943481 0.143348 -0.063375 -27406.200000 0 0 1
25.960349 -16.271494 -11.353541 32.674212 -0.559880 1.925676 0.119328 -0.058590 495813.000000 0 0 1
24.491049 -16.036494 -10.868241 31.226580 -0.579735 1.926281 0.127459 -0.054520 523305.000000 0 0 1
24.500049 -15.335994 -9.651141 30.472769 -0.559288 1.893059 0.116850 -0.048811 -182032.000000 0 0 1
23.175849 -15.244894 -9.237441 29.237939 -0.581834 1.892244 0.127222 -0.047458 -698836.000000 0 0 1
22.835849 -14.899394 -7.734841 28.342472 -0.578100 1.847209 0.101695 -0.034184 -311140.000000 0 0 1
22.972949 -13.544594 -7.381441 27.671250 -0.532729 1.840821 0.140610 -0.036731 393041.000000 0 0 1
22.490949 -13.301194 -6.064341 26.824257 -0.534074 1.798845 0.128783 -0.030483 -189037.000000 0 0 1
23.194549 -14.053194 -4.863141 27.552305 -0.544734 1.748232 0.126943 -0.029235 -136378.000000 0 0 1
24.522649 -13.596494 -4.858041 28.457434 -0.506251 1.742349 0.164669 -0.043026 3655.880000 0 0 1
25.459049 -14.462394 -4.237841 29.585188 -0.516607 1.714533 0.167907 -0.046534 362957.000000 0 0 1
26.931649 -14.089994 -4.548541 30.733221 -0.482016 1.719343 0.172707 -0.047703 -74841.600000 0 0 1
27.575949 -13.405894 -3.543541 30.865963 -0.452502 1.685854 0.187149 -0.046039 16574.300000 0 0 1
28.905249 -13.036394 -3.865441 31.943742 -0.423689 1.692101 0.197526 -0.062655 456644.000000 0 0 1
29.561449 -12.152194 -2.756741 32.080441 -0.390024 1.656835 0.254937 -0.071880 -269244.000000 0 0 1
30.290849 -12.751594 -1.695441 32.909166 -0.398454 1.622338 0.258199 -0.065217 742923.000000 0 0 1
31.026449 -11.825294 -0.876241 33.215146 -0.364139 1.597180 0.271875 -0.061464 479446.000000 0 0 1
32.412549 -11.333894 -1.370641 34.364359 -0.336386 1.610692 0.269107 -0.064656 -385603.000000 0 0 1
32.319049 -10.632094 -2.575541 34.120313 -0.317821 1.646352 0.277963 -0.072576 -57573.100000 0 0 1
33.527349 -10.247794 -3.163341 35.200954 -0.296637 1.660783 0.296359 -0.068472 -402721.000000 0 0 1
33.245249 -9.846594 -4.599541 34.976532 -0.287949 1.702682 0.272847 -0.064110 -12958.300000 0 0 1
32.670849 -10.886694 -5.385841 34.855585 -0.321652 1.725937 0.275622 -0.068134 454764.000000 0 0 1
32.458549 -10.544994 -6.763041 34.792140 -0.314119 1.766426 0.253565 -0.062949 -73835.400000 0 0 1
31.271149 -11.332594 -7.382741 34.070769 -0.347677 1.789217 0.252824 -0.059667 25834.800000 0 0 1
31.397249 -12.732494 -7.621541 34.727389 -0.385264 1.792065 0.237864 -0.054343 1009580.000000 0 0 1
30.105949 -13.331394 -7.868941 33.852836 -0.416864 1.805388 0.220101 -0.050645 914838.000000 0 0 1
30.251449 -14.834794 -8.012841 34.632743 -0.455924 1.804278 0.231355 -0.048116 132021.000000 0 0 1
30.920849 -15.280694 -9.182041 35.691853 -0.458987 1.830981 0.239993 -0.056402 305584.000000 0 0 1
30.832249 -16.665694 -9.392241 36.284806 -0.495542 1.832625 0.229761 -0.057662 -60214.100000 0 0 1
31.143149 -17.034394 -10.862941 37.122363 -0.500515 1.867767 0.197928 -0.061505 1067310.000000 0 0 1
32.564549 -17.166194 -11.150941 38.463899 -0.485126 1.864926 0.217932 -0.052973 1584540.000000 0 0 1
32.809249 -17.711294 -12.457441 39.310617 -0.494999 1.893253 0.188603 -0.035036 57735.300000 0 0 1
32.316249 -16.839494 -13.728541 38.940742 -0.480373 1.931091 0.168164 -0.042686 -237308.000000 0 0 1
32.976549 -15.621294 -13.963041 39.069734 -0.442395 1.936266 0.154600 -0.040415 -38987.100000 0 0 1
32.473649 -14.882294 -15.061641 38.766914 -0.429725 1.969819 0.124395 -0.035411 -386239.000000 0 0 1
33.389949 -13.709994 -15.556641 39.304729 -0.389613 1.977730 0.119688 -0.038454 439828.000000 0 0 1
34.424949 -13.987994 -16.470841 40.645168 -0.385954 1.988032 0.078846 -0.035846 857551.000000 0 0 1
35.656249 -14.461694 -15.912441 41.637897 -0.385313 1.962932 0.100567 -0.043822 320900.000000 0 0 1
36.591749 -15.140294 -16.941741 43.072116 -0.392314 1.975052 0.101001 -0.045774 -507613.000000 0 0 1
37.907649 -15.302194 -16.496241 44.082570 -0.383666 1.954344 0.115429 -0.049894 -365453.000000 0 0 1
-37.683981 -15.952994 -17.528641 44.517790 0.400461 1.975498 0.111054 -0.056238 -517529.000000 0 0 1
-36.210181 -15.916494 -17.122141 43.100808 0.414137 1.979323 0.137956 -0.053145 -712440.000000 0 0 1
-35.676381 -16.779494 -16.154041 42.606438 0.439627 1.959669 0.124087 -0.053586 98823.400000 0 0 1
-35.925081 -16.409194 -14.804541 42.178756 0.428463 1.929430 0.102756 -0.048578 -507296.000000 0 0 1
-35.124781 -17.264494 -13.800341 41.500149 0.456840 1.909789 0.089903 -0.035250 553413.000000 0 0 1
-33.734881 -16.906294 -13.812341 40.182654 0.464569 1.921692 0.093279 -0.040736 516555.000000 0 0 1
-33.061481 -17.633994 -12.791941 39.593598 0.489986 1.899780 0.068441 -0.019109 827951.000000 0 0 1
-31.505481 -17.439894 -12.849241 38.234123 0.505566 1.913535 0.095434 -0.026225 741372.000000 0 0 1
-31.011981 -16.131894 -12.563541 37.145975 0.479663 1.915822 0.103616 -0.037098 145953.000000 0 0 1
-29.861381 -16.070694 -11.743741 35.887110 0.493720 1.904179 0.134185 -0.033606 -78102.500000 0 0 1
-30.087781 -15.822494 -10.243941 35.504425 0.484135 1.863483 0.132966 -0.038330 -90366.200000 0 0 1
-30.701581 -16.960494 -9.642541 36.376146 0.504707 1.839082 0.100243 -0.031028 50143.900000 0 0 1
-31.042781 -16.605494 -8.264741 36.162171 0.491194 1.801381 0.121274 -0.026832 -124635.000000 0 0 1
-31.716881 -17.771294 -7.476641 37.117106 0.510724 1.773618 0.114510 -0.021656 594871.000000 0 0 1
-33.006281 -18.178894 -7.961341 38.513240 0.503435 1.779015 0.077144 -0.017012 462856.000000 0 0 1
-32.962781 -18.933094 -9.157441 39.100712 0.521367 1.807193 0.084216 -0.017135 -347265.000000 0 0 1
-34.244781 -19.697094 -9.552941 40.644055 0.521974 1.808055 0.070701 -0.016831 594320.000000 0 0 1
-35.354381 -18.946394 -10.048341 41.350541 0.491953 1.816258 0.087531 -0.015610 683827.000000 0 0 1
-36.471681 -19.755494 -10.391141 42.760248 0.496423 1.816263 0.096009 -0.029037 -62368.200000 0 0 1
-37.667481 -18.921794 -10.820841 43.519696 0.465516 1.822075 0.109844 -0.047108 -426527.000000 0 0 1
-37.800181 -18.743494 -12.266041 43.938912 0.460328 1.853717 0.092743 -0.047112 357795.000000 0 0 1
37.458649 -17.869794 -12.606241 43.375076 -0.445123 1.865685 0.135698 -0.053552 240046.000000 0 0 1
36.877349 -18.051494 -14.043741 43.393801 -0.455213 1.900365 0.120159 -0.054311 -398978.000000 0 0 1
36.057149 -19.154494 -14.201941 43.228553 -0.488315 1.905545 0.084691 -0.046098 -458112.000000 0 0 1
35.599549 -19.157694 -15.490641 43.293245 -0.493695 1.936715 0.079915 -0.047552 -452776.000000 0 0 1
34.371849 -20.094194 -15.577741 42.753557 -0.529028 1.943743 0.105360 -0.048274 -673242.000000 0 0 1
33.293749 -19.619994 -14.826041 41.391175 -0.532514 1.937128 0.141149 -0.049643 -613809.000000 0 0 1
32.195249 -20.501494 -14.783941 40.931775 -0.567030 1.940335 0.163447 -0.045428 927877.000000 0 0 1
31.125049 -20.067494 -15.912341 40.307265 -0.572667 1.976620 0.169749 -0.045637 281614.000000 0 0 1
30.462749 -18.816994 -15.695841 39.094984 -0.553336 1.983928 0.158946 -0.046380 371995.000000 0 0 1
29.841449 -18.364294 -16.904541 38.904021 -0.551663 2.020301 0.143802 -0.043722 299763.000000 0 0 1
28.881549 -17.153794 -16.765941 37.543219 -0.535949 2.033732 0.136344 -0.032340 -110954.000000 0 0 1
27.657949 -17.346994 -16.108741 36.405657 -0.560178 2.029158 0.140843 -0.031620 21548.200000 0 0 1
27.070249 -16.052394 -16.019041 35.314125 -0.535249 2.041615 0.108785 -0.027001 468751.000000 0 0 1
25.621549 -16.110994 -15.353341 33.937486 -0.561332 2.040252 0.084835 -0.028804 1604030.000000 0 0 1
24.516349 -16.704094 -16.028541 33.719316 -0.598096 2.066160 0.073461 -0.025861 588241.000000 0 0 1
24.175249 -16.168894 -17.259341 33.819531 -0.589492 2.106372 0.084197 -0.016224 -593936.000000 0 0 1
23.115949 -17.050894 -18.004941 33.900708 -0.635534 2.130704 0.064220 -0.016019 228275.000000 0 0 1
21.874549 -17.019394 -17.326441 32.685795 -0.661210 2.129504 0.058919 -0.015808 -250884.000000 0 0 1
20.906249 -17.415094 -18.285241 32.782721 -0.694547 2.162494 0.051449 -0.028568 -1159710.000000 0 0 1
19.492349 -17.525494 -17.806241 31.688434 -0.732315 2.167497 0.065340 -0.024470 -1055710.000000 0 0 1
18.861749 -16.218094 -17.668541 30.511793 -0.710179 2.188387 0.084081 -0.026819 -535596.000000 0 0 1
17.543949 -16.563194 -17.425941 29.762274 -0.756651 2.196298 0.104978 -0.037387 -508649.000000 0 0 1
16.450749 -15.489194 -17.096841 28.334506 -0.755302 2.218545 0.133699 -0.045821 269687.000000 0 0 1
15.853949 -14.888994 -18.209341 28.365647 -0.754021 2.267836 0.135547 -0.041521 -340630.000000 0 0 1
14.603649 -14.361094 -17.896341 27.199018 -0.777024 2.288926 0.159668 -0.044236 -454741.000000 0 0 1
13.928449 -13.747994 -19.118141 27.358954 -0.778878 2.344500 0.150333 -0.045125 -192974.000000 0 0 1
14.488349 -12.569194 -19.571941 27.403609 -0.714588 2.366292 0.147160 -0.048202 -134260.000000 0 0 1
13.708149 -12.102294 -20.631841 27.569036 -0.723261 2.416398 0.135013 -0.038130 92712.300000 0 0 1
14.205049 -10.723494 -21.153641 27.645131 -0.646634 2.442125 0.128100 -0.029659 470956.000000 0 0 1
15.322749 -10.699994 -22.045341 28.901100 -0.609589 2.438406 0.107314 -0.024022 247131.000000 0 0 1
15.538649 -9.330494 -22.341041 28.768556 -0.540765 2.460013 0.103752 -0.020977 -658735.000000 0 0 1
16.741849 -9.055794 -23.206341 30.013850 -0.495836 2.454649 0.085946 -0.017395 -689975.000000 0 0 1
16.728549 -9.308994 -24.594541 31.167181 -0.507800 2.480166 0.099714 -0.015625 202482.000000 0 0 1
17.993949 -9.110794 -25.214621 32.288789 -0.468695 2.466917 0.102368 -0.019125 753.356000 0 0 1
22.887849 5.392406 -7.593741 24.710253 0.231382 1.883163 0.287295 0.014853 -56552.000000 0 1 0
22.427049 6.722306 -7.493041 24.582669 0.291219 1.880535 0.268827 -0.003432 407507.000000 0 1 0
21.741449 6.945106 -6.288941 23.674372 0.309196 1.839668 0.249289 -0.007001 -322953.000000 0 1 0
21.345149 8.420506 -6.098541 23.742631 0.375750 1.830568 0.203487 -0.001173 -859294.000000 0 1 0
20.208049 8.804406 -6.816341 23.072610 0.410889 1.870702 0.107479 -0.019095 199414.000000 0 1 0
19.826349 10.191606 -6.843741 23.319300 0.474819 1.868661 0.099169 -0.015260 -334226.000000 0 1 0
19.423649 10.874006 -5.543141 22.940108 0.510361 1.814847 0.134895 -0.019083 -860110.000000 0 1 0
20.393249 11.229806 -4.607241 23.732253 0.503352 1.766171 0.141266 -0.011235 -256768.000000 0 1 0
21.044349 12.443206 -4.774941 24.909799 0.533987 1.763679 0.205221 -0.021526 208805.000000 0 1 0
22.034649 12.861706 -3.644041 25.772627 0.528351 1.712664 0.181003 -0.037607 142279.000000 0 0 1
23.248249 12.162006 -3.523141 26.472779 0.481985 1.704278 0.150697 -0.054775 56940.700000 0 0 1
23.912949 12.616806 -2.381041 27.141892 0.485494 1.658635 0.128745 -0.057863 -628849.000000 0 0 1
24.782049 11.584406 -1.746541 27.411655 0.437271 1.634555 0.156839 -0.058552 -613942.000000 0 0 1
26.017049 11.299806 -2.386941 28.465241 0.409741 1.654749 0.148399 -0.045324 338826.000000 0 0 1
26.626449 10.264306 -1.632441 28.583013 0.367938 1.627940 0.181257 -0.053417 -126887.000000 0 0 1
28.137249 10.097306 -1.844241 29.950987 0.344545 1.632411 0.198004 -0.045356 -331354.000000 0 0 1
28.983749 11.105506 -1.360041 31.068307 0.365908 1.614586 0.158888 -0.058525 54235.100000 0 0 1
30.321849 10.721106 -1.635641 32.202981 0.339858 1.621610 0.129139 -0.041912 -40639.100000 0 0 1
31.341049 11.775406 -1.198641 33.501616 0.359400 1.606583 0.106105 -0.029993 -1114890.000000 0 0 1
31.546649 11.831906 0.207459 33.693147 0.358824 1.564639 0.142406 -0.049209 197565.000000 0 0 1
32.530449 12.757706 0.613059 34.948033 0.373745 1.553253 0.136953 -0.038320 -973863.000000 0 0 1
33.982249 12.543406 0.244859 36.224167 0.353603 1.564037 0.150871 -0.035365 -1776070.000000 0 0 1
34.720249 13.640706 0.697359 37.310198 0.374349 1.552104 0.148733 -0.048014 -64390.200000 0 0 1
35.666749 14.007606 -0.300341 38.319972 0.374228 1.578634 0.168413 -0.026631 -189444.000000 0 0 1
35.222949 15.249206 -1.152841 38.399525 0.408571 1.600823 0.121029 -0.000369 -691793.000000 0 0 1
34.057149 14.897706 -1.803441 37.216710 0.412354 1.619273 0.130588 0.008857 -796503.000000 0 0 1
33.578249 15.951806 -2.575041 37.263786 0.443500 1.639954 0.107115 0.029115 115532.000000 0 0 1
32.237949 15.605306 -3.271541 35.965455 0.450820 1.661886 0.108908 0.003840 -483739.000000 0 0 1
32.418149 14.739906 -4.364141 35.878224 0.426740 1.692736 0.081325 0.007302 79066.500000 0 0 1
31.279349 14.602306 -5.163341 34.903941 0.436766 1.719271 0.061995 -0.000287 -64582.700000 0 0 1
30.064449 13.831106 -4.623941 33.414839 0.431179 1.709622 0.083825 -0.024022 -389678.000000 0 0 1
29.047049 13.413706 -5.489041 32.462103 0.432617 1.740703 0.120323 -0.039083 688129.000000 0 0 1
27.992749 12.682906 -4.841341 31.110910 0.425411 1.727047 0.126038 -0.020426 487945.000000 0 0 1
26.883849 12.160906 -5.777041 30.066646 0.424806 1.764140 0.123417 -0.029723 -255761.000000 0 0 1
27.357249 11.199106 -6.744641 30.320443 0.388554 1.795118 0.125157 -0.020099 309623.000000 0 0 1
26.527949 10.942006 -7.891141 29.761211 0.391211 1.839154 0.151504 -0.023328 15465.200000 0 0 1
26.364149 12.117806 -8.903341 30.350932 0.430835 1.868522 0.171119 -0.016176 112562.000000 0 0 1
25.620449 13.253706 -8.469141 30.063175 0.477399 1.856374 0.153736 -0.028958 129954.000000 0 0 1
25.525249 14.347706 -9.420341 30.759354 0.512084 1.882057 0.147199 -0.039259 -1023150.000000 0 0 1
24.605249 15.544606 -8.996441 30.462912 0.563445 1.870591 0.125088 -0.033773 1423310.000000 0 0 1
23.184149 15.315106 -9.055341 29.224244 0.583781 1.885839 0.189663 -0.050816 1056000.000000 0 0 1
22.738749 14.299506 -8.180241 28.079226 0.561371 1.866410 0.221583 -0.054350 -1060960.000000 0 0 1
21.261249 13.876306 -8.394441 26.740591 0.578241 1.890117 0.268326 -0.046501 569502.000000 0 0 1
20.252749 14.643306 -7.752141 26.166696 0.626014 1.871571 0.325049 -0.075706 -114631.000000 0 0 1
18.966449 14.141106 -7.966041 24.963070 0.640670 1.895590 0.334579 -0.073273 -109013.000000 0 1 0
17.972049 14.774906 -6.920941 24.273274 0.688075 1.859934 0.306402 -0.050872 226993.000000 0 1 0
18.403049 14.390306 -5.614941 24.026666 0.663639 1.806674 0.319737 -0.046496 493539.000000 0 1 0
17.617949 15.003906 -4.621141 23.597972 0.705437 1.767898 0.265648 -0.026101 -190893.000000 0 1 0
17.080849 14.052606 -3.511941 22.395644 0.688437 1.728260 0.173641 0.001761 -18158.800000 0 1 0
18.053749 13.431006 -2.684541 22.661345 0.639615 1.689539 0.170048 -0.008708 110063.000000 0 1 0
17.504149 12.469206 -1.843141 21.570200 0.618971 1.656349 0.137722 -0.017335 -94587.400000 0 1 0
17.303849 12.965706 -0.325641 21.624957 0.643050 1.585855 0.152169 -0.027041 359503.000000 0 1 0
16.221449 13.893606 -0.294541 21.360114 0.708253 1.584586 0.140580 -0.030390 500388.000000 0 1 0
16.328849 14.649706 0.824759 21.952800 0.731248 1.533218 0.139374 -0.025012 -521478.000000 0 1 0
15.191049 15.638806 1.055359 21.827827 0.799921 1.522428 0.154330 -0.020674 -407807.000000 0 1 0
15.009949 16.741206 0.134759 22.485211 0.839870 1.564803 0.161065 -0.020786 -133626.000000 0 1 0
14.044549 17.621506 0.601459 22.541708 0.897880 1.544111 0.131211 -0.026540 -289435.000000 0 1 0
13.801149 18.846006 -0.245941 23.360312 0.938712 1.581325 0.134149 -0.031067 -408560.000000 0 1 0
13.105449 18.678506 -1.418341 22.861563 0.958975 1.632877 0.130514 -0.051428 -240104.000000 0 1 0
12.639449 19.968706 -1.859241 23.705731 1.006491 1.649307 0.123030 -0.046416 1669790.000000 0 1 0
11.069449 20.215506 -1.694241 23.109951 1.069819 1.644174 0.092914 -0.044099 1357040.000000 0 1 0
10.679349 20.535106 -0.403541 23.149556 1.091235 1.588229 0.075164 -0.031207 529492.000000 0 1 0
9.245249 20.521706 -0.446641 22.512542 1.147518 1.590637 0.047514 -0.028539 536758.000000 0 1 0
8.511349 20.578206 0.866359 22.285785 1.178613 1.531912 0.017350 -0.023626 -639346.000000 0 1 0
8.604449 21.865006 1.491259 23.544403 1.195883 1.507416 0.013031 -0.019905 271839.000000 0 1 0
7.941549 21.923606 2.757559 23.480137 1.223261 1.453082 0.031791 -0.024127 35097.400000 0 1 0
7.417949 23.304106 3.183859 24.662609 1.262626 1.441338 0.024728 -0.016828 145112.000000 0 1 0
8.012749 23.682106 4.429259 25.390247 1.244541 1.395452 0.027508 -0.022824 162360.000000 0 0 1
7.516249 24.879106 4.948759 26.456647 1.277404 1.382636 0.035628 -0.019751 123920.000000 0 0 1
8.163449 25.168006 6.362359 27.213049 1.257145 1.334814 0.042916 -0.027271 20542.600000 0 0 1
7.628349 24.452206 7.439959 26.673116 1.268395 1.288116 0.049892 -0.023909 13066.500000 0 0 1
8.037949 24.927606 8.717559 27.604167 1.258871 1.249490 0.053563 -0.017453 -255413.000000 0 0 1
7.668349 23.809906 9.757159 26.849904 1.259221 1.198885 0.061607 -0.024776 1081800.000000 0 0 1
6.339249 23.920406 10.326059 26.814164 1.311737 1.175483 0.063854 -0.028940 1073080.000000 0 0 1
5.993749 22.782006 11.109159 26.045312 1.313535 1.130141 0.055857 -0.036116 -127007.000000 0 0 1
4.661949 23.035506 11.825059 26.309701 1.371112 1.104640 0.070057 -0.043923 401889.000000 0 0 1
3.520749 23.212806 10.977259 25.917760 1.420271 1.133445 0.068573 -0.041861 1460920.000000 0 0 1
2.276749 23.123706 11.734759 26.030635 1.472653 1.103129 0.077386 -0.048920 1133460.000000 0 0 1
1.047349 23.395806 10.840159 25.806390 1.526060 1.137288 0.097157 -0.040459 -183280.000000 0 0 1
0.908449 24.769906 10.553759 26.939847 1.534137 1.168260 0.087032 -0.038493 431050.000000 0 0 1
0.038549 25.083106 9.439859 26.800646 1.569259 1.210849 0.087990 -0.038284 1068080.000000 0 0 1
-1.336051 25.743506 9.819759 27.585156 -1.518944 1.206834 0.105420 -0.053816 757943.000000 0 0 1
-2.274451 24.789406 10.308059 26.943346 -1.479302 1.178206 0.110160 -0.047469 312948.000000 0 0 1
-3.504451 25.471306 10.531859 27.784684 -1.434070 1.182024 0.115280 -0.049207 1244710.000000 0 0 1
-4.760451 24.573406 10.980259 27.332769 -1.379443 1.157396 0.114325 -0.042480 1308110.000000 0 0 1
-5.115651 24.461706 12.397159 27.896855 -1.364639 1.110300 0.100463 -0.035946 -19854.700000 0 0 1
-5.912651 25.531206 12.784059 29.158774 -1.343223 1.116946 0.100086 -0.023224 -636127.000000 0 0 1
-6.618051 25.433806 14.142359 29.844320 -1.316235 1.077115 0.089305 -0.032590 -514399.000000 0 0 1
-7.606151 24.460806 14.047559 29.215039 -1.269322 1.069192 0.095337 -0.027117 -519839.000000 0 0 1
-8.174251 24.262906 15.327259 29.840105 -1.245836 1.031367 0.077726 -0.010541 408407.000000 0 0 1
-9.607151 23.653606 15.312759 29.770304 -1.184991 1.030531 0.072859 -0.011662 503791.000000 0 0 1
-10.666351 24.562306 15.103659 30.744080 -1.161111 1.057249 0.080224 -0.010748 -61501.400000 0 0 1
-11.910451 23.905406 15.207159 30.734101 -1.108564 1.053194 0.065287 -0.004175 609431.000000 0 0 1
-13.179151 24.805806 15.023759 31.854849 -1.082429 1.079656 0.062413 -0.000130 465729.000000 0 0 1
-13.553851 25.498906 16.193259 33.107744 -1.082231 1.059730 0.060348 -0.012863 -90836.800000 0 0 1
-14.551751 26.443906 15.937559 34.132674 -1.067732 1.084981 0.049301 -0.005451 -201768.000000 0 0 1
-15.361151 27.057806 17.094759 35.500995 -1.054453 1.068398 0.053972 -0.005122 584836.000000 0 0 1
-16.496051 26.262406 17.499959 35.610142 -1.009954 1.057063 0.048598 -0.017850 541496.000000 0 0 1
-17.101451 26.843806 18.634559 36.882195 -1.003563 1.041130 0.075340 -0.031447 -128712.000000 0 0 1
-18.439251 26.174406 19.006059 37.233530 -0.957072 1.035082 0.064140 -0.039607 824816.000000 0 0 1
-19.526351 26.471706 18.104759 37.547462 -0.935258 1.067651 0.061916 -0.028150 1153210.000000 0 0 1
-20.762151 25.828506 18.453559 37.930364 -0.893714 1.062704 0.079057 -0.037832 1538820.000000 0 0 1
-21.945351 26.031206 17.418659 38.244370 -0.870357 1.097911 0.074592 -0.033829 681920.000000 0 0 1
-22.595751 27.296906 17.502559 39.522508 -0.879346 1.112021 0.067514 -0.032366 2729.790000 0 0 1
-23.402351 27.566806 16.414559 39.711920 -0.866922 1.144676 0.063907 -0.033389 -276881.000000 0 0 1
-24.360251 28.820706 16.524959 41.196228 -0.869075 1.158048 0.068554 -0.025781 -1094780.000000 0 0 1
-25.572161 28.411206 16.979459 41.826237 -0.837941 1.152776 0.080911 -0.029856 -1446550.000000 0 0 1
-26.462651 29.507506 16.862959 43.073474 -0.839746 1.168543 0.080865 -0.032121 927010.000000 0 0 1
-27.890811 29.336306 17.510759 44.103774 -0.810652 1.162512 0.099397 -0.025616 1029390.000000 0 0 1
-28.792191 28.464206 16.833159 43.846967 -0.779670 1.176772 0.122192 -0.015038 1729640.000000 0 0 1
-30.149661 28.470006 17.403559 44.971404 -0.756753 1.173429 0.155501 -0.022493 1601650.000000 0 0 1
-30.325531 27.315206 18.386359 44.764009 -0.733220 1.147531 0.146161 -0.024830 -591826.000000 0 0 1
-30.371821 26.090606 17.704159 43.779042 -0.709719 1.154476 0.141825 -0.025336 155122.000000 0 0 1
-30.618681 25.015906 18.603159 43.696415 -0.685030 1.131021 0.133909 -0.017174 -89322.200000 0 0 1
-30.848121 23.643906 17.924759 42.801143 -0.653954 1.138682 0.135081 -0.022704 68082.600000 0 0 1
-31.825551 23.787006 16.900659 43.177768 -0.641847 1.168622 0.171061 -0.030409 233184.000000 0 0 1
-31.698571 22.757506 15.885259 42.131282 -0.622662 1.184196 0.168312 -0.029555 -122545.000000 0 0 1
-32.150541 21.309006 16.188159 41.830461 -0.585313 1.173426 0.154972 -0.030983 -893282.000000 0 0 1
-33.530841 21.203206 16.170959 42.841489 -0.563867 1.183744 0.162078 -0.023686 -884634.000000 0 0 1
-33.891631 19.827506 16.179059 42.468042 -0.529337 1.179951 0.131732 -0.017963 -1215120.000000 0 0 1
-35.357162 19.682906 15.931559 43.489772 -0.507963 1.195736 0.128851 -0.026069 -1362440.000000 0 0 1
-35.772934 19.917806 14.624759 43.477642 -0.508037 1.227732 0.108941 -0.015421 1090330.000000 0 0 1
-37.151161 19.542406 14.380059 44.372294 -0.484249 1.240760 0.126720 -0.022594 1231250.000000 0 0 1
-37.625151 19.833406 12.922859 44.452404 -0.485117 1.275825 0.109086 -0.020660 -265692.000000 0 0 1
-37.646031 21.246506 12.588759 45.023488 -0.513813 1.287414 0.094463 -0.027564 30626.900000 0 0 1
-37.451131 21.579906 11.179759 44.646014 -0.522747 1.317694 0.059964 -0.015533 -479259.000000 0 0 1
-36.222541 21.070106 10.450459 43.188354 -0.526844 1.326397 0.108992 -0.017819 -912743.000000 0 0 1
-36.471901 19.821806 9.889459 42.672063 -0.497825 1.336915 0.111208 -0.014018 421375.000000 0 0 1
-35.357732 19.218306 9.222259 41.286348 -0.497869 1.345523 0.125889 -0.016617 239533.000000 0 0 1
-34.539922 18.272706 10.080959 40.354971 -0.486602 1.318315 0.112818 -0.015728 -515212.000000 0 0 1
-33.932689 18.817506 11.183859 40.380745 -0.506333 1.290167 0.134190 -0.017463 38183.100000 0 0 1
-33.375541 17.765706 11.981059 39.662234 -0.489150 1.263925 0.155618 -0.034740 -36788.100000 0 0 1
-32.527591 18.048106 13.228659 39.481334 -0.506563 1.229126 0.118651 -0.009560 654066.000000 0 0 1
-31.284291 18.749706 13.081959 38.747851 -0.539929 1.226412 0.158753 -0.008058 567178.000000 0 0 1
-31.372451 20.115006 12.720059 39.378218 -0.570141 1.241875 0.172854 -0.005394 105611.000000 0 0 1
-29.977691 20.817106 12.689259 38.639761 -0.606971 1.236188 0.194629 -0.024571 374776.000000 0 0 1
-29.544531 21.038906 13.996959 38.877111 -0.618806 1.202495 0.164713 -0.012259 -18181.700000 0 0 1
-28.264581 21.639606 14.044559 38.267594 -0.653416 1.195005 0.170706 -0.023506 -127588.000000 0 0 1
-27.622551 21.628506 15.459059 38.337711 -0.664290 1.155748 0.137858 -0.031625 -220847.000000 0 0 1
-27.170631 20.333406 15.768559 37.421091 -0.642451 1.135828 0.156818 -0.041149 166752.000000 0 0 1
-26.671921 20.173406 17.078159 37.550249 -0.647555 1.098640 0.124377 -0.032118 -578280.000000 0 0 1
-25.593591 19.134606 17.304359 36.340142 -0.641984 1.074494 0.135570 -0.038229 -220267.000000 0 0 1
-24.977971 19.277906 18.581659 36.617137 -0.657305 1.038564 0.122602 -0.041281 395504.000000 0 0 1
-24.035151 18.240906 18.852959 35.578831 -0.649189 1.012322 0.110317 -0.035702 245556.000000 0 0 1
-23.485851 18.371006 20.290159 36.066184 -0.663803 0.973292 0.097972 -0.041037 790614.000000 0 0 1
-24.560751 18.084606 21.212159 37.151570 -0.634689 0.963118 0.079342 -0.029980 1170260.000000 0 0 1
-23.999151 18.149706 22.549559 37.601246 -0.647498 0.927667 0.111840 -0.042815 390648.000000 0 0 1
-24.854651 17.410506 23.617259 38.453274 -0.611057 0.909449 0.103182 -0.038726 -53923.100000 0 0 1
-24.775951 16.005306 23.563759 37.752726 -0.573559 0.896740 0.101157 -0.032203 206906.000000 0 0 1
-25.587451 15.362706 24.546159 38.642519 -0.540714 0.882514 0.093804 -0.031561 -223431.000000 0 0 1
22.281949 25.014906 -33.515641 47.387013 0.843117 2.356432 0.074800 -0.028609 742519.000000 0 0 1
23.321849 24.319206 33.058476 47.203763 0.806330 0.794929 0.093071 -0.036686 363790.000000 0 0 1
23.343749 22.923506 33.328255 46.703216 0.776315 0.776147 0.090748 -0.041631 -91113.800000 0 0 1
22.308149 21.940206 32.728018 45.278575 0.777083 0.762930 0.091730 -0.051039 -215661.000000 0 0 1
22.525649 21.420706 31.423876 44.200809 0.760260 0.779970 0.102371 -0.044945 -263043.000000 0 0 1
21.571049 20.482006 30.978735 42.947698 0.759507 0.765100 0.152167 -0.043462 -249920.000000 0 0 1
21.878749 19.867806 29.571495 41.807687 0.737265 0.785094 0.137597 -0.033877 245760.000000 0 0 1
22.962249 18.942906 29.508685 41.914927 0.689775 0.789763 0.123111 -0.033266 -12232.700000 0 0 1
23.006449 18.374506 28.246755 40.801941 0.673928 0.806139 0.112014 -0.026777 -416981.000000 0 0 1
24.105549 17.367906 28.045215 40.856526 0.624348 0.814226 0.127341 -0.031270 -625834.000000 0 0 1
25.418849 17.836006 27.996635 41.809719 0.611855 0.837099 0.109392 -0.029058 -74281.400000 0 0 1
26.297449 17.094906 28.867845 42.627974 0.576417 0.826840 0.092602 -0.018163 -214185.000000 0 0 1
27.713349 17.596306 28.995805 43.799731 0.565715 0.847301 0.090112 -0.022980 -689326.000000 0 0 1
28.573349 17.468306 27.868725 43.568840 0.548723 0.876756 0.096505 -0.018432 1122520.000000 0 0 1
29.774449 18.266106 28.084945 44.821118 0.550274 0.893613 0.100108 -0.006179 1125720.000000 0 0 1
30.813849 18.075906 26.954495 44.752391 0.530520 0.924413 0.096356 0.002803 40187.900000 0 0 1
30.913049 19.085306 25.968265 44.656649 0.553106 0.950213 0.110014 0.003278 -57954.600000 0 0 1
31.898449 18.701806 25.050235 44.662992 0.530279 0.975357 0.111003 0.004298 -267460.000000 0 0 1
32.258649 19.771606 24.036265 44.824981 0.549857 1.004838 0.133907 0.000107 857046.000000 0 0 1
31.163749 20.028306 23.089725 43.651434 0.571212 1.013425 0.114366 -0.003778 1171090.000000 0 0 1
31.470849 20.902206 22.010865 43.724075 0.586277 1.043263 0.110364 -0.013218 -87855.400000 0 0 1
32.153749 20.247606 20.759965 43.299022 0.561981 1.070762 0.136440 -0.008444 287572.000000 0 0 1
31.230449 19.380506 20.105065 41.894613 0.555403 1.070260 0.133972 -0.021083 723292.000000 0 0 1
31.784649 18.842706 18.865365 41.487510 0.535126 1.098734 0.159690 -0.027586 896180.000000 0 0 1
32.975449 17.815006 19.068965 42.052112 0.495327 1.100152 0.192628 -0.040584 303514.000000 0 0 1
32.533649 16.634606 19.618065 41.473087 0.472650 1.078068 0.216751 -0.034412 654461.000000 0 0 1
33.558849 15.766606 20.181365 42.214568 0.439213 1.072344 0.216934 -0.042159 -61759.800000 0 0 1
33.117549 14.307306 20.478665 41.483091 0.407798 1.054500 0.231936 -0.042527 -50756.800000 0 0 1
32.472649 14.065406 21.701165 41.512036 0.408750 1.020702 0.194361 -0.041441 552757.000000 0 0 1
31.108849 14.472106 21.748065 40.622416 0.435429 1.005849 0.191959 -0.032213 -240808.000000 0 0 1
30.254549 13.812206 22.819815 40.334337 0.428274 0.969434 0.155392 -0.024372 -140897.000000 0 0 1
29.754149 12.535206 22.393065 39.292368 0.398726 0.964401 0.157540 -0.023714 14277.300000 0 0 1
29.234749 11.916206 23.550955 39.386724 0.387044 0.929866 0.149984 -0.023559 35110.400000 0 0 1
28.496549 10.592306 23.216365 38.252449 0.355879 0.918611 0.165180 -0.028242 -351817.000000 0 0 1
27.287049 10.688006 22.527325 36.963454 0.373320 0.915431 0.120221 -0.013745 -369166.000000 0 0 1
26.934249 9.446106 21.999465 36.036914 0.337307 0.914142 0.131677 -0.009124 -295140.000000 0 0 1
25.665349 9.524906 21.140865 34.588584 0.355364 0.913209 0.125023 -0.013803 -648782.000000 0 0 1
24.488649 9.551706 21.875065 34.197186 0.371896 0.876722 0.113886 -0.015712 336685.000000 0 0 1
23.352449 9.201106 21.069965 32.771034 0.375332 0.872459 0.100400 -0.003740 542409.000000 0 0 1
21.913149 9.334906 21.579365 32.140249 0.402714 0.834683 0.103741 -0.011431 -29061.500000 0 0 1
21.603849 8.515906 22.653865 32.441402 0.375483 0.797775 0.119372 -0.009895 277136.000000 0 0 1
20.213749 8.566506 22.932415 31.747068 0.400850 0.763605 0.090550 -0.009926 285019.000000 0 0 1
19.823849 7.770606 24.166505 32.208497 0.373576 0.722259 0.088945 -0.006360 -108656.000000 0 0 1
20.102349 6.420606 23.924455 31.901539 0.309155 0.722815 0.082548 -0.001387 172510.000000 0 0 1
20.091349 5.643906 25.124925 32.661565 0.273854 0.693129 0.097755 -0.014397 -39920.600000 0 0 1
20.408049 4.110106 25.023695 32.550987 0.198738 0.693906 0.092365 -0.016816 -418290.000000 0 0 1
21.741849 3.872206 24.686175 33.122639 0.176251 0.729817 0.093098 -0.005591 -419877.000000 0 0 1
22.039249 2.530406 24.886035 33.338359 0.114313 0.728057 0.063454 0.001084 -116032.000000 0 0 1
23.525249 2.284706 24.505595 34.046753 0.096814 0.767335 0.070883 0.004769 38145.100000 0 0 1
24.335649 2.810906 25.547855 35.395168 0.114996 0.764412 0.082400 -0.006196 -435806.000000 0 0 1
25.680249 2.557406 25.218285 36.082924 0.099259 0.796941 0.094345 -0.002914 -176370.000000 0 0 1
26.601349 3.245306 26.264065 37.522858 0.121398 0.795471 0.094736 -0.004328 -812313.000000 0 0 1
26.534149 2.801206 27.654185 38.427357 0.105180 0.767501 0.094177 0.000118 -39733.300000 0 0 1
27.417349 3.353906 28.589665 39.753348 0.121723 0.768180 0.101039 -0.003383 935461.000000 0 0 1
28.965749 3.296206 28.303375 40.632015 0.113309 0.800179 0.093220 0.000353 209618.000000 0 0 1
29.446049 4.251306 27.344295 40.408587 0.143385 0.827532 0.115767 -0.007075 -151493.000000 0 0 1
30.843549 4.274306 27.231545 41.366064 0.137703 0.852230 0.115795 -0.002956 -19309.400000 0 0 1
31.544949 3.176906 26.364855 41.234478 0.100372 0.877094 0.122228 -0.005611 -436069.000000 0 0 1
31.259749 3.344106 25.017775 40.177656 0.106573 0.898635 0.128925 -0.006877 -80600.100000 0 0 1
31.687049 2.308306 24.223655 39.952257 0.072719 0.919378 0.117866 0.002486 -463033.000000 0 0 1
31.352849 2.521906 22.701865 38.790925 0.080263 0.945625 0.139776 -0.008170 153108.000000 0 0 1
32.155449 3.501506 22.103165 39.176311 0.108466 0.971336 0.135434 -0.011844 -544674.000000 0 0 1
33.490549 3.130206 21.879265 40.126267 0.093195 0.994097 0.131226 -0.016367 -702985.000000 0 0 1
34.371949 4.275806 21.445865 40.738662 0.123762 1.016406 0.142938 -0.030943 -901912.000000 0 0 1
34.174549 4.778806 20.103765 39.936176 0.138934 1.043270 0.139649 -0.029148 -151261.000000 0 0 1
34.730649 6.023406 19.703165 40.382102 0.171724 1.061093 0.129758 -0.030990 -723678.000000 0 0 1
36.256749 5.983006 19.590065 41.642753 0.163544 1.081017 0.098609 -0.024042 -369699.000000 0 0 1
36.995349 5.918206 20.824165 42.864051 0.158628 1.063497 0.093855 -0.028345 252276.000000 0 0 1
37.103749 7.153006 21.475165 43.463047 0.190447 1.053995 0.113355 -0.030401 -367920.000000 0 0 1
37.596449 7.014306 22.957125 44.606312 0.184448 1.030184 0.119298 -0.026235 605584.000000 0 0 1
36.643349 6.354806 23.775545 44.140629 0.171715 1.001984 0.126875 -0.012843 948567.000000 0 0 1
37.486649 5.563006 24.609785 45.186695 0.147324 0.994855 0.135755 -0.024717 618544.000000 0 0 1
36.720949 4.390906 25.246445 44.778244 0.119010 0.971804 0.139949 -0.022438 57478.600000 0 0 1
36.619649 3.200606 24.464815 44.156197 0.087180 0.983573 0.143178 -0.027950 143607.000000 0 0 1
36.032449 2.174106 25.260945 44.058818 0.060264 0.960212 0.151295 -0.025748 -83500.100000 0 0 1
35.853349 0.792506 24.577405 43.475735 0.022101 0.969983 0.145238 -0.028143 -282295.000000 0 0 1
34.781949 0.419306 23.742445 42.114885 0.012055 0.971872 0.141233 -0.021631 -37459.900000 0 0 1
34.790649 -0.976294 23.607465 42.055378 -0.028055 0.974789 0.147738 -0.028896 792010.000000 0 0 1
33.632949 -1.479194 22.648335 40.574750 -0.043952 0.978596 0.147725 -0.013838 1621170.000000 0 0 1
32.290049 -1.305494 23.149945 39.752629 -0.040408 0.949180 0.127283 -0.009416 970456.000000 0 0 1
31.335249 -1.806694 22.228735 38.461392 -0.057593 0.954583 0.133411 -0.009494 1385270.000000 0 0 1
29.787549 -1.634794 22.442595 37.331498 -0.054827 0.925831 0.122758 0.001011 1096940.000000 0 0 1
29.332049 -0.353994 22.151065 36.758184 -0.012068 0.924021 0.109755 0.007882 202742.000000 0 0 1
27.915949 -0.236994 22.149365 35.636369 -0.008489 0.900092 0.099534 0.001797 166685.000000 0 0 1
27.367649 1.151106 22.056565 35.168243 0.042036 0.892878 0.084179 0.016869 -210861.000000 0 0 1
27.493649 1.703306 20.783665 34.507430 0.061874 0.924423 0.088480 0.003330 262532.000000 0 0 1
26.831149 2.947606 20.718765 34.027433 0.109419 0.916143 0.096991 0.004345 -283728.000000 0 0 1
27.234049 3.739006 19.404665 33.648397 0.136439 0.956126 0.111787 -0.012503 -50046.200000 0 0 1
26.794249 3.164106 18.166865 32.526579 0.117545 0.978191 0.089704 -0.011308 -399764.000000 0 0 1
25.598949 3.665006 17.694465 31.334208 0.142204 0.970725 0.122383 -0.023326 -805093.000000 0 0 1
25.238649 3.111706 16.311965 30.211791 0.122672 1.000454 0.129254 -0.030243 66105.900000 0 0 1
26.159649 3.551206 15.292965 30.509230 0.134926 1.045745 0.113238 -0.021736 341093.000000 0 0 1
25.587049 3.926706 14.055865 29.456467 0.152277 1.073360 0.087084 -0.030078 -906184.000000 0 0 1
25.137249 2.763306 13.153565 28.504972 0.109489 1.091170 0.117569 -0.025892 -844130.000000 0 0 1
24.048949 2.091506 13.626865 27.720350 0.086750 1.056889 0.167355 -0.025040 -351203.000000 0 0 1
23.375449 1.264606 12.674865 26.620726 0.054047 1.074550 0.163474 -0.035815 13529.900000 0 0 1
22.107349 0.497806 13.196665 25.751401 0.022514 1.032745 0.232136 -0.043617 916668.000000 0 0 1
20.834749 1.050506 12.817165 24.484078 0.050378 1.019855 0.262725 -0.041866 1213630.000000 0 1 0
20.429849 0.909906 11.423765 23.424540 0.044509 1.061362 0.234606 -0.037048 -865634.000000 0 1 0
20.213949 -0.557194 10.874965 22.960381 -0.027558 1.077377 0.223442 -0.027015 94562.800000 0 1 0
21.338649 -1.445194 10.714765 23.921386 -0.067623 1.106364 0.230102 -0.053797 637383.000000 0 1 0
22.258749 -1.042594 9.724865 24.312793 -0.046806 1.159291 0.227525 -0.054320 -159246.000000 0 1 0
23.649049 -1.723394 9.849865 25.676204 -0.072745 1.177085 0.242667 -0.069028 -145274.000000 0 0 1
24.211249 -1.455594 11.063365 26.658983 -0.060048 1.142858 0.204167 -0.063403 -433274.000000 0 0 1
25.266849 -2.341494 11.309065 27.781131 -0.092407 1.151544 0.132460 -0.053802 -333229.000000 0 0 1
25.836149 -2.241294 12.766665 28.905324 -0.086534 1.113335 0.159500 -0.038349 6045.710000 0 0 1
26.596249 -1.066994 12.917465 29.586481 -0.040097 1.118980 0.114171 -0.038539 -123884.000000 0 0 1
26.774149 -0.814194 14.273465 30.352097 -0.030400 1.081208 0.096874 -0.030395 -320751.000000 0 0 1
27.772449 0.295406 14.642365 31.397373 0.010636 1.085629 0.173629 -0.032793 741083.000000 0 0 1
29.109849 -0.235894 14.565265 32.551281 -0.008103 1.106878 0.190758 -0.029602 1040570.000000 0 0 1
30.134849 0.754206 14.816265 33.588684 0.025022 1.113963 0.180728 -0.032444 145202.000000 0 0 1
31.480849 0.107206 15.099465 34.914885 0.003405 1.123571 0.197853 -0.038090 -645932.000000 0 0 1
32.079349 -0.497394 13.967065 34.991584 -0.015504 1.160201 0.240714 -0.046387 72262.100000 0 0 1
33.377649 -0.893194 14.365965 36.348951 -0.026754 1.164485 0.231423 -0.042613 -57060.900000 0 0 1
34.076849 -1.840994 13.412865 36.667777 -0.053972 1.196310 0.195139 -0.050979 -155850.000000 0 0 1
34.317349 -1.282194 12.132065 36.421305 -0.037345 1.231203 0.216073 -0.051127 238428.000000 0 0 1
35.349749 -2.069894 11.573665 37.253711 -0.058488 1.254897 0.196860 -0.061330 -13628.500000 0 0 1
35.662949 -1.574994 10.166465 37.117160 -0.044135 1.293348 0.236013 -0.055385 -95381.200000 0 0 1
36.414449 -0.405594 10.006665 37.766519 -0.011138 1.302633 0.182374 -0.042995 458558.000000 0 0 1
35.531049 0.718306 9.980765 36.913237 0.020214 1.297004 0.201251 -0.048702 -79291.000000 0 0 1
36.122949 2.009406 9.440765 37.390282 0.055570 1.315541 0.206957 -0.051664 -350664.000000 0 0 1
36.216549 1.974606 8.051865 37.153332 0.054468 1.352343 0.169299 -0.049340 277113.000000 0 0 1
36.706549 3.174806 7.555765 37.610367 0.086277 1.368524 0.173053 -0.043477 -273691.000000 0 0 1
36.577449 3.279206 6.063065 37.221281 0.089412 1.407175 0.143766 -0.034059 -69431.000000 0 0 1
37.060949 4.544106 5.574865 37.752377 0.122003 1.422585 0.132926 -0.016103 303507.000000 0 0 1
37.161749 4.602806 4.188265 37.679212 0.123231 1.459410 0.129930 -0.019716 -45195.200000 0 0 1
37.399549 6.015806 3.678365 38.058463 0.159486 1.473995 0.160979 -0.032233 182239.000000 0 0 1
36.264549 6.860206 3.774365 37.100213 0.186962 1.468886 0.142442 -0.034514 -118821.000000 0 0 1
36.583349 8.202406 3.472265 37.652059 0.220564 1.478445 0.141549 -0.037047 -717519.000000 0 0 1
35.373849 9.147306 3.693465 36.723618 0.253046 1.470051 0.156469 -0.051986 763161.000000 0 0 1
34.318949 9.072306 2.721365 35.602006 0.258441 1.494283 0.157058 -0.056715 437873.000000 0 0 1
33.573649 7.871006 2.693765 34.589002 0.230281 1.492838 0.181463 -0.049209 -1167370.000000 0 0 1
32.428149 8.008706 1.692465 33.445309 0.242123 1.520171 0.203641 -0.053271 -43180.400000 0 0 1
32.930149 7.775406 0.393465 33.837945 0.231871 1.559168 0.213572 -0.043099 527838.000000 0 0 1
31.844849 7.358006 -0.411535 32.686450 0.227073 1.583387 0.227709 -0.046143 -98147.300000 0 0 1
32.175249 7.221406 -1.880335 33.029245 0.220781 1.627757 0.187423 -0.028723 -582425.000000 0 0 1
31.176749 6.531606 -2.601835 31.959680 0.206516 1.652296 0.245082 -0.036212 500747.000000 0 0 1
31.451749 6.347006 -3.956335 32.328774 0.199127 1.693482 0.197019 -0.030061 -535308.000000 0 0 1
30.441049 5.427006 -4.666735 31.271206 0.176426 1.720590 0.251864 -0.030427 -401111.000000 0 0 1
30.500649 4.007706 -4.472735 31.086278 0.130649 1.715179 0.252473 -0.028535 519887.000000 0 0 1
29.305849 3.369606 -4.865235 29.897451 0.114478 1.734254 0.275579 -0.026620 -225920.000000 0 0 1
29.328049 1.797306 -4.773435 29.768280 0.061206 1.731845 0.316114 -0.017769 -391956.000000 0 0 1
29.240449 1.359306 -3.431735 29.472502 0.046454 1.687500 0.365210 -0.028855 392744.000000 0 0 1
29.346949 -0.065594 -3.358035 29.538520 -0.002235 1.684726 0.328023 -0.035607 -163951.000000 0 0 1
29.397649 -0.467894 -1.879535 29.461388 -0.015915 1.634636 0.334506 -0.039827 -447994.000000 0 0 1
30.593149 -0.039394 -1.314335 30.621395 -0.001288 1.613732 0.285489 -0.041627 -553832.000000 0 0 1
30.743049 -0.430394 0.008965 30.746063 -0.013999 1.570505 0.306474 -0.041563 -642872.000000 0 0 1
32.043049 0.058506 0.620165 32.049104 0.001826 1.551445 0.325604 -0.036141 -447119.000000 0 0 1
33.185349 -0.412794 -0.067035 33.187984 -0.012438 1.572816 0.254196 -0.032276 -397043.000000 0 0 1
34.338849 0.132206 0.491965 34.342628 0.003850 1.556471 0.172462 -0.033118 -574077.000000 0 0 1
-3.176151 -21.364494 -8.246141 23.119870 1.423212 1.935496 0.068915 -0.002670 104249.000000 0 1 0
-3.393751 -21.719394 -6.869041 23.031138 1.415795 1.873655 0.074762 -0.014715 -149382.000000 0 1 0
-2.885851 -22.972794 -6.493941 24.046801 1.445831 1.844246 0.078030 -0.015484 -65771.500000 0 1 0
-3.467351 -23.391194 -5.089941 24.188385 1.423635 1.782810 0.084335 -0.023244 -176191.000000 0 1 0
-2.980851 -22.593294 -4.034941 23.143534 1.439619 1.746036 0.097500 -0.027500 139284.000000 0 1 0
-3.542551 -23.035094 -2.822041 23.476140 1.418203 1.691297 0.107341 -0.043202 -80810.200000 0 1 0
-2.740251 -22.414594 -1.654041 22.641971 1.449147 1.643913 0.114364 -0.057189 583583.000000 0 1 0
-1.360151 -22.753694 -1.551341 22.847040 1.511090 1.638750 0.102193 -0.043719 -129474.000000 0 1 0
-0.869051 -22.527494 -0.277841 22.545962 1.532238 1.583120 0.094237 -0.051506 -144975.000000 0 1 0
0.655649 -22.591794 -0.099741 22.601526 -1.541783 1.575209 0.087351 -0.047221 -283800.000000 0 1 0
1.304749 -21.471494 -0.655841 21.521095 -1.510104 1.601275 0.063422 -0.038200 676566.000000 0 1 0
2.589949 -21.305794 -0.001141 21.462635 -1.449829 1.570849 0.048828 -0.030505 1003640.000000 0 1 0
3.428249 -20.136694 -0.509041 20.432779 -1.402164 1.595712 0.052466 -0.025080 450965.000000 0 1 0
4.156449 -20.444794 -1.711441 20.933100 -1.370229 1.652645 0.048882 -0.025859 451652.000000 0 1 0
4.969049 -19.344594 -2.254041 20.099390 -1.319362 1.683177 0.053238 -0.023344 35005.300000 0 1 0
5.606249 -19.990094 -3.467741 21.048969 -1.297369 1.736297 0.057154 -0.012792 94201.400000 0 1 0
6.772149 -20.747194 -3.046541 22.036095 -1.255287 1.709493 0.058657 -0.024797 948303.000000 0 1 0
7.570949 -21.323194 -4.090441 22.994120 -1.229624 1.749639 0.063539 -0.018984 1109020.000000 0 1 0
8.788749 -20.488394 -4.641141 22.771838 -1.165574 1.776045 0.074337 -0.019273 689989.000000 0 1 0
8.465449 -19.462894 -5.607141 21.952405 -1.160525 1.829081 0.066087 -0.017473 -127934.000000 0 1 0
9.673249 -18.810494 -5.897341 21.958713 -1.095816 1.842699 0.081135 -0.023945 -307836.000000 0 1 0
9.712749 -17.810794 -7.090841 21.490507 -1.071546 1.907049 0.074516 -0.013064 -316160.000000 0 1 0
10.947749 -17.155594 -7.312341 21.624938 -1.002801 1.915740 0.092333 -0.027506 117075.000000 0 1 0
11.193249 -16.315694 -8.414641 21.501090 -0.969500 1.972904 0.099655 -0.013278 -132713.000000 0 1 0
11.282849 -16.980994 -9.809041 22.624635 -0.984337 2.019231 0.086019 -0.000990 -191665.000000 0 1 0
10.096449 -17.447094 -10.407741 22.686129 -1.046194 2.047408 0.080395 -0.023260 -100405.000000 0 1 0
9.601049 -16.524594 -11.338841 22.221873 -1.044453 2.106279 0.066242 -0.031399 -191497.000000 0 1 0
8.847349 -17.014094 -12.543641 22.915015 -1.091276 2.150049 0.073738 -0.043896 -275360.000000 0 1 0
7.561449 -17.544294 -12.347541 22.747297 -1.163861 2.144580 0.064783 -0.041092 185630.000000 0 1 0
7.088649 -18.088994 -13.590441 23.709929 -1.197313 2.181197 0.078460 -0.036908 -237756.000000 0 1 0
5.926149 -19.067494 -13.473241 24.087689 -1.269462 2.164387 0.077581 -0.022877 -105467.000000 0 1 0
6.242149 -20.323594 -12.851241 24.842852 -1.272804 2.114491 0.092141 -0.030110 622806.000000 0 1 0
5.035949 -21.103694 -12.801941 25.191593 -1.336548 2.103870 0.130089 -0.034188 692369.000000 0 0 1
5.284949 -22.529394 -12.319741 26.216031 -1.340382 2.060010 0.090865 -0.027897 -259141.000000 0 0 1
5.856449 -23.289594 -13.396541 27.498554 -1.324442 2.079646 0.115540 -0.037711 80330.600000 0 0 1
5.417049 -24.674694 -13.470241 28.629222 -1.354686 2.060661 0.087061 -0.032521 1793280.000000 0 0 1
3.862149 -24.956094 -13.712041 28.735742 -1.417257 2.068236 0.103893 -0.037135 1706000.000000 0 0 1
2.980849 -24.618794 -12.640141 27.834217 -1.450303 2.042183 0.126086 -0.039592 496283.000000 0 0 1
1.588949 -24.678094 -12.952641 27.916017 -1.506498 2.053286 0.102379 -0.046019 643012.000000 0 0 1
0.863649 -26.037444 -12.601141 28.939301 -1.537639 2.021316 0.073435 -0.028253 -424973.000000 0 0 1
1.208649 -27.032754 -13.546441 30.261141 -1.526116 2.034933 0.090841 -0.023515 225630.000000 0 0 1
0.756649 -28.325874 -13.133841 31.231801 -1.544090 2.004823 0.071822 -0.020064 443161.000000 0 0 1
-0.721051 -28.650514 -13.484441 31.673364 1.545635 2.010570 0.040704 -0.019498 222622.000000 0 0 1
-1.691751 -27.998664 -12.725141 30.801240 1.510447 1.996693 0.050301 -0.028234 -125708.000000 0 0 1
-3.016151 -28.178054 -13.182941 31.255237 1.464163 2.006208 0.071993 -0.022279 228773.000000 0 0 1
-4.154051 -27.583154 -12.309741 30.489609 1.421319 1.986393 0.051623 -0.023449 83126.200000 0 0 1
-4.401751 -28.053664 -10.983241 30.446922 1.415161 1.939851 0.041420 -0.032970 -89267.900000 0 0 1
-5.010851 -29.336384 -10.911341 31.698413 1.401622 1.922208 0.054616 -0.032335 -575291.000000 0 0 1
-5.616851 -29.612014 -9.483041 31.596652 1.383342 1.875623 0.041808 -0.026512 75769.300000 0 0 1
-6.880851 -29.017774 -9.234041 31.219302 1.337971 1.871068 0.056200 -0.022248 -122728.000000 0 0 1
-6.833051 -27.597644 -8.957241 29.808601 1.328082 1.876005 0.064261 -0.018246 -1358490.000000 0 0 1
-8.220851 -26.972734 -8.871341 29.560302 1.274957 1.875604 0.072291 -0.023953 -275155.000000 0 0 1
-9.054151 -26.966404 -10.009741 30.155588 1.246866 1.909152 0.111445 -0.031248 -16005.100000 0 0 1
-9.571551 -28.278514 -10.298841 31.580929 1.244426 1.902981 0.104778 -0.037532 -1561160.000000 0 0 1
-10.971251 -28.192144 -10.879741 32.148625 1.199670 1.916034 0.131456 -0.043360 -786428.000000 0 0 1
-10.990051 -27.737464 -12.192941 32.230667 1.193556 1.958758 0.153983 -0.048739 -73889.100000 0 0 1
-11.732551 -28.596584 -13.024441 33.541816 1.181461 1.969587 0.170033 -0.055558 54953.300000 0 0 1
-12.412851 -27.821074 -14.248241 33.631880 1.151134 2.008270 0.178714 -0.049466 868313.000000 0 0 1
-13.553651 -26.956894 -14.118641 33.312334 1.104919 2.008462 0.174256 -0.057619 762101.000000 0 0 1
-13.283751 -25.855464 -13.283441 31.959550 1.096194 1.999435 0.174349 -0.044227 -502085.000000 0 0 1
-14.184151 -24.673594 -13.622441 31.552294 1.049058 2.017219 0.193113 -0.044346 -659198.000000 0 0 1
-13.860651 -24.004794 -14.821641 31.432925 1.047151 2.061824 0.189538 -0.047164 344910.000000 0 0 1
-14.632451 -22.800594 -14.896441 30.917303 1.000237 2.073522 0.200472 -0.046454 -505826.000000 0 0 1
-14.590451 -22.094294 -16.238741 31.060196 0.987164 2.120946 0.179358 -0.039256 345047.000000 0 0 1
-13.331051 -21.482294 -16.556341 30.221156 1.015396 2.150576 0.148331 -0.035400 879728.000000 0 0 1
-13.419951 -20.659994 -17.727041 30.350921 0.994729 2.194529 0.105880 -0.029106 -81026.700000 0 0 1
-13.737151 -19.141194 -17.486141 29.340411 0.948306 2.209275 0.096858 -0.021907 404696.000000 0 0 1
-12.539851 -18.391694 -17.238141 28.154143 0.972375 2.229734 0.082622 -0.007082 706226.000000 0 0 1
-12.728951 -16.966794 -17.231441 27.328023 0.927150 2.253046 0.077440 -0.000778 -174875.000000 0 0 1
-11.391151 -16.232894 -17.332241 26.337648 0.958908 2.289060 0.068067 -0.003093 -45011.900000 0 0 1
-10.667351 -16.091794 -16.109341 25.144563 0.985402 2.266166 0.083180 -0.004680 -627098.000000 0 0 1
-9.386951 -15.688794 -16.461241 24.601332 1.031612 2.303820 0.067526 0.002741 -1358720.000000 0 1 0
-8.588351 -14.917394 -15.387641 23.088263 1.048416 2.300261 0.051870 0.003445 -32182.500000 0 1 0
-8.128451 -15.612494 -14.238141 22.639486 1.090775 2.250943 0.055783 0.001983 125587.000000 0 1 0
-7.032651 -16.426494 -14.629241 23.093344 1.166279 2.256843 0.055501 0.004692 -675408.000000 0 1 0
-6.461451 -17.291194 -13.521241 22.881427 1.213179 2.203003 0.053211 0.002169 -536632.000000 0 1 0
-5.840251 -16.650394 -12.425341 21.580853 1.233447 2.184327 0.049744 -0.005283 255312.000000 0 1 0
-5.442951 -17.556494 -11.382441 21.619809 1.270168 2.125254 0.044634 -0.007808 -277892.000000 0 1 0
-4.399451 -18.661694 -11.626441 22.422937 1.339276 2.115900 0.055833 -0.006053 -802292.000000 0 1 0
-3.130951 -18.055394 -11.629141 21.703387 1.399096 2.136277 0.061724 -0.003444 -905533.000000 0 1 0
-2.152151 -19.069394 -11.513541 22.379347 1.458413 2.111188 0.046541 -0.000503 83401.400000 0 1 0
-0.771451 -18.617494 -12.021441 22.174789 1.529383 2.143757 0.052463 -0.001738 -477464.000000 0 1 0
-0.731251 -18.405694 -13.426941 22.794452 1.531088 2.200672 0.060519 -0.001361 449392.000000 0 1 0
0.488149 -17.804394 -13.881041 22.581364 -1.543386 2.232817 0.067501 -0.009189 993448.000000 0 1 0
1.813249 -18.616394 -13.985041 23.354643 -1.473702 2.212813 0.076720 -0.020254 38814.200000 0 1 0
1.935849 -19.693294 -14.933341 24.790684 -1.472811 2.217272 0.102915 -0.015890 -54950.700000 0 1 0
1.264849 -20.904094 -14.594141 25.525868 -1.510363 2.179421 0.118089 -0.022002 -555937.000000 0 0 1
1.413049 -21.951194 -15.782341 27.072752 -1.506513 2.193164 0.134179 -0.022976 1169570.000000 0 0 1
2.745749 -22.435694 -16.014841 27.701527 -1.449019 2.187221 0.139037 -0.031333 1592370.000000 0 0 1
3.812749 -21.509194 -16.366241 27.295353 -1.395357 2.213795 0.130356 -0.038276 506268.000000 0 0 1
5.203049 -22.144894 -16.555141 28.134334 -1.340027 2.199914 0.130653 -0.034125 51338.400000 0 0 1
5.520449 -22.671494 -17.800741 29.348567 -1.331947 2.222483 0.123492 -0.022388 406859.000000 0 0 1
6.870449 -23.123994 -17.909541 30.044531 -1.281990 2.209431 0.125402 -0.029817 585894.000000 0 0 1
7.372249 -23.175094 -19.363041 31.086370 -1.262808 2.243213 0.116846 -0.020240 -45238.000000 0 0 1
7.717349 -21.884594 -19.902341 30.571164 -1.231773 2.279720 0.133922 -0.032260 59411.200000 0 0 1
7.749749 -21.937094 -21.336541 31.568064 -1.231210 2.312968 0.111268 -0.027390 -23629.500000 0 0 1
7.888349 -20.566994 -21.958741 31.103273 -1.204556 2.354623 0.102282 -0.034557 -139444.000000 0 0 1
6.716649 -19.831894 -21.765041 30.201563 -1.244242 2.375549 0.125915 -0.031994 -244195.000000 0 0 1
6.931949 -18.439594 -22.007241 29.536235 -1.211213 2.411471 0.130334 -0.030600 704326.000000 0 0 1
5.592649 -17.685194 -22.348041 29.042705 -1.264514 2.448837 0.126110 -0.029363 -354332.000000 0 0 1
5.168049 -18.064494 -23.628941 30.188765 -1.292150 2.469799 0.117311 -0.030147 880059.000000 0 0 1
4.045749 -17.263094 -24.099941 29.919720 -1.340593 2.507293 0.133615 -0.029526 1985900.000000 0 0 1
2.660749 -17.227494 -23.350041 29.139158 -1.417559 2.500309 0.123807 -0.019220 -69239.700000 0 0 1
2.694049 -16.603494 -22.063941 27.744394 -1.409940 2.490229 0.134155 -0.021492 -584444.000000 0 0 1
1.456049 -16.120294 -21.603641 26.994467 -1.480717 2.498590 0.137119 -0.021828 48316.400000 0 0 1
1.587549 -15.206894 -20.370041 25.469756 -1.466776 2.497714 0.125537 -0.032053 234124.000000 0 0 1
2.367149 -14.060394 -20.666841 25.108094 -1.404005 2.537671 0.117558 -0.025380 19741.400000 0 0 1
2.388849 -13.201094 -19.562241 23.720387 -1.391775 2.540471 0.114794 -0.032541 -35322.400000 0 1 0
3.690749 -12.386094 -19.547841 23.434057 -1.281198 2.557411 0.106057 -0.032563 -120737.000000 0 1 0
4.803449 -13.067494 -18.952941 23.516940 -1.218540 2.508036 0.103055 -0.039121 417811.000000 0 1 0
6.024049 -12.356894 -19.079341 23.516021 -1.117194 2.517226 0.097787 -0.036265 319823.000000 0 1 0
6.249649 -11.144094 -18.123641 22.174654 -1.059696 2.527529 0.104981 -0.036050 12042.000000 0 1 0
5.295549 -10.033794 -18.152441 21.406330 -1.085179 2.582985 0.058637 -0.019532 565018.000000 0 1 0
5.723749 -8.984194 -19.015341 21.795876 -1.003550 2.630945 0.075589 -0.023759 12307.400000 0 1 0
5.271249 -9.087494 -20.484341 23.021226 -1.045171 2.667708 0.095130 -0.032516 -558058.000000 0 1 0
3.890049 -8.942794 -20.561241 22.756772 -1.160492 2.698714 0.078577 -0.027367 -866595.000000 0 1 0
3.284849 -9.152194 -21.829541 23.897317 -1.226203 2.722534 0.083192 -0.025930 1060170.000000 0 1 0
1.737249 -8.959794 -21.937841 23.760572 -1.379279 2.747350 0.064043 -0.025183 784801.000000 0 1 0
1.308149 -7.647294 -21.810241 23.149060 -1.401376 2.799830 0.058142 -0.025667 88463.700000 0 1 0
-0.110751 -7.498094 -21.836041 23.087797 1.556027 2.810793 0.057766 -0.026015 574226.000000 0 1 0
-0.556251 -6.518794 -22.893741 23.810238 1.485672 2.863236 0.068468 -0.021047 -78323.400000 0 1 0
-0.452351 -7.009094 -24.206441 25.204837 1.506348 2.859190 0.070519 -0.019837 -508542.000000 0 0 1
-1.078151 -6.165094 -25.133001 25.900551 1.397667 2.897535 0.102080 -0.037782 160520.000000 0 0 1
-0.397351 -4.810994 -25.563011 26.014824 1.488391 2.954948 0.102011 -0.036441 421991.000000 0 0 1
-1.243451 -4.130894 -26.522251 26.870806 1.278411 2.980349 0.107295 -0.040840 457551.000000 0 0 1
-0.721951 -2.925594 -27.059141 27.226410 1.328859 3.030688 0.097581 -0.037908 -474302.000000 0 0 1
-1.102051 -1.675894 -26.231811 26.308383 0.989104 3.065278 0.091430 -0.036502 473646.000000 0 0 1
-2.457351 -1.322394 -25.982751 26.132176 0.493691 3.034602 0.082455 -0.040237 221198.000000 0 0 1
-3.216451 -0.813894 -27.064241 27.266850 0.247839 3.019610 0.101800 -0.036398 623765.000000 0 0 1
-4.748951 -1.065894 -26.863281 27.300632 0.220789 2.962357 0.109721 -0.041368 765645.000000 0 0 1
-5.368551 -0.094794 -26.033251 26.581205 0.017655 2.938194 0.110302 -0.040742 174966.000000 0 0 1
-6.767551 -0.304194 -25.973231 26.842150 0.044919 2.886455 0.125316 -0.050183 303663.000000 0 0 1
-7.680551 0.718106 -25.222991 26.376235 -0.093226 2.844792 0.136427 -0.047230 -632306.000000 0 0 1
-7.978951 1.922806 -25.875031 27.145498 -0.236476 2.834439 0.157673 -0.049058 -26166.700000 0 0 1
-8.978151 1.866706 -26.861771 28.383913 -0.204996 2.812615 0.165449 -0.051494 -284983.000000 0 0 1
-10.410151 1.624006 -26.358991 28.386705 -0.154755 2.761333 0.157814 -0.049458 -965801.000000 0 0 1
-11.447151 1.851006 -27.278821 29.641146 -0.160313 2.739649 0.152444 -0.049737 -237595.000000 0 0 1
-12.711051 1.584606 -26.744821 29.654127 -0.124024 2.694926 0.099295 -0.029725 780528.000000 0 0 1
-13.930851 2.056406 -27.657381 31.035917 -0.146557 2.670650 0.077853 -0.025428 -338279.000000 0 0 1
-15.172851 1.645706 -27.210961 31.198720 -0.108042 2.630441 0.071090 -0.024661 -946969.000000 0 0 1
-16.089851 2.046906 -28.211401 32.541608 -0.126538 2.619812 0.053466 -0.021882 223351.000000 0 0 1
-17.060551 3.166606 -27.721001 32.703878 -0.183521 2.582311 0.068958 -0.007599 -103130.000000 0 0 1
-16.404451 4.420206 -27.628041 32.433823 -0.263201 2.590262 0.072826 -0.007348 52866.900000 0 0 1
-16.027351 5.087606 -28.814431 33.362121 -0.307372 2.613336 0.066391 -0.015083 60366.600000 0 0 1
-17.160851 5.607006 -29.786451 34.830532 -0.315798 2.596699 0.073072 -0.009271 397999.000000 0 0 1
-17.925151 6.583306 -29.090311 34.797947 -0.351973 2.560708 0.072813 0.002584 140230.000000 0 0 1
-18.682051 7.365306 -30.002001 36.102449 -0.375535 2.551742 0.070351 -0.002455 58426.100000 0 0 1
-19.471251 8.599106 -29.369341 36.271647 -0.415872 2.514446 0.057699 -0.002688 193782.000000 0 0 1
-18.759051 9.641206 -28.668841 35.591534 -0.474745 2.507308 0.070298 0.002336 95385.500000 0 0 1
-19.708051 10.467406 -28.020351 35.820579 -0.488235 2.469052 0.091828 -0.001393 266241.000000 0 0 1
-9.127451 24.952606 30.649085 40.562413 -1.220123 0.714222 0.062911 -0.018966 -167025.000000 0 0 1
-9.999051 26.092306 30.719445 41.526784 -1.204840 0.738097 0.069575 -0.019322 369622.000000 0 0 1
-9.641751 27.025106 31.737582 42.785439 -1.228103 0.735069 0.081410 -0.024611 505116.000000 0 0 1
-8.310651 27.830206 31.540886 42.876739 -1.280606 0.744218 0.068262 -0.022951 503140.000000 0 0 1
-8.298951 28.670606 30.348235 42.566320 -1.289038 0.777081 0.091354 -0.014623 -712664.000000 0 0 1
-6.955351 28.854606 30.081495 42.259455 -1.334260 0.778698 0.096322 -0.009440 -698814.000000 0 0 1
-6.679251 29.737006 28.909625 42.007956 -1.349852 0.811799 0.130559 -0.019138 -263570.000000 0 0 1
-7.046451 31.036906 29.174425 43.175098 -1.347546 0.828851 0.134691 -0.023034 295014.000000 0 0 1
-6.300551 31.997506 28.449405 43.277084 -1.376376 0.853462 0.162559 -0.022152 -16814.800000 0 0 1
-6.435751 33.317606 29.218145 44.779256 -1.379983 0.859927 0.177943 -0.030841 24319.700000 0 0 1
-5.549651 33.451406 30.312245 45.482166 -1.406392 0.841340 0.182589 -0.034341 86184.300000 0 0 1
-5.978251 -32.934937 31.196565 45.756696 1.391234 0.820586 0.184013 -0.029449 119003.000000 0 0 1
-7.160551 -33.274637 32.144755 46.816239 1.358833 0.813973 0.150109 -0.029731 80036.100000 0 0 1
-6.944451 33.150606 33.146268 47.390539 -1.364300 0.796200 0.151695 -0.033154 71081.400000 0 0 1
-7.109851 31.849106 32.664784 46.172542 -1.351162 0.784912 0.135146 -0.023119 -153637.000000 0 0 1
-7.089851 30.811806 -33.505571 46.067957 -1.344631 2.385187 0.111831 -0.018750 1317970.000000 0 0 1
-5.779351 30.717006 -32.859231 45.350462 -1.384822 2.381195 0.108113 -0.018379 1178310.000000 0 0 1
-5.931251 30.159906 -31.544691 44.043923 -1.376614 2.369152 0.118747 -0.024545 738966.000000 0 0 1
-4.564551 29.693606 -30.860701 43.068878 -1.418269 2.369630 0.123393 -0.034546 1641960.000000 0 0 1
-3.885751 28.551206 -31.418251 42.630704 -1.435530 2.399397 0.129312 -0.022843 377142.000000 0 0 1
-3.353051 28.750606 -32.730991 43.693913 -1.454695 2.417495 0.108609 -0.025662 -482887.000000 0 0 1
-2.666151 27.438106 -33.232421 43.178140 -1.473931 2.449102 0.116650 -0.037868 -89075.000000 0 0 1
-1.538751 27.050706 -32.458781 42.280976 -1.513974 2.446029 0.135740 -0.028771 497928.000000 0 0 1
-0.906151 25.796306 -32.725551 41.680117 -1.535684 2.473750 0.153120 -0.028272 538157.000000 0 0 1
-0.360851 25.370806 33.163905 41.757067 -1.556574 0.653089 0.132106 -0.023966 694443.000000 0 0 1
-1.487951 25.158206 32.262925 40.939537 -1.511721 0.663141 0.129032 -0.017130 806586.000000 0 0 1
-1.201251 24.963906 30.922635 39.759891 -1.522714 0.679743 0.162157 -0.024058 -162627.000000 0 0 1
-0.689151 26.175406 30.124835 39.914064 -1.544474 0.715535 0.140015 -0.023067 334174.000000 0 0 1
-1.681051 27.229106 30.128205 40.644297 -1.509137 0.735843 0.112327 -0.023969 735082.000000 0 0 1
-1.141651 28.473606 29.611035 41.095778 -1.530723 0.766220 0.116725 -0.023380 561878.000000 0 0 1
-2.145851 29.662506 29.793865 42.096833 -1.498580 0.784494 0.122900 -0.022493 386286.000000 0 0 1
-2.172651 30.137606 31.106815 43.366227 -1.498830 0.770870 0.141626 -0.030460 75644.400000 0 0 1
-2.998851 31.274106 31.186295 44.267910 -1.475199 0.789092 0.153087 -0.028135 162056.000000 0 0 1
-2.407951 32.110606 32.357801 45.649935 -1.495947 0.782966 0.160861 -0.014008 1370950.000000 0 0 1
-1.033351 32.443006 32.064996 45.626532 -1.538956 0.791511 0.196013 -0.034970 421480.000000 0 0 1
-0.362451 32.842106 33.206752 46.705714 -1.559761 0.779908 0.150800 -0.026443 750953.000000 0 0 1
1.164749 33.141406 32.979215 46.768986 1.535666 0.788160 0.163458 -0.044170 840103.000000 0 0 1
1.229249 -32.920837 32.660384 46.389581 -1.533474 0.789718 0.202669 -0.052493 -240756.000000 0 0 1
2.540349 -32.538437 32.374785 45.970969 -1.492882 0.789438 0.142372 -0.049846 -498925.000000 0 0 1
2.722349 -31.010337 32.175109 44.769296 -1.483232 0.768884 0.146683 -0.044285 -77189.800000 0 0 1
2.529549 -30.216137 33.371055 45.089255 -1.487276 0.737561 0.147110 -0.038812 213329.000000 0 0 1
2.922549 -28.906137 33.054245 44.007831 -1.470034 0.721071 0.109871 -0.049205 -148640.000000 0 0 1
2.315249 -27.858837 -33.264421 43.451086 -1.487880 2.442708 0.115893 -0.052589 451175.000000 0 0 1
0.895849 -27.747637 -33.263981 43.326970 -1.538522 2.446108 0.126797 -0.056830 430370.000000 0 0 1
0.444649 -27.484537 -31.951771 42.148703 -1.554620 2.431149 0.117881 -0.053946 599219.000000 0 0 1
-1.108351 -27.279037 -31.957201 42.031381 1.530189 2.434598 0.170740 -0.061181 442033.000000 0 0 1
-1.697751 -27.226637 -30.702981 41.071221 1.508521 2.415169 0.178450 -0.063518 1183200.000000 0 0 1
-3.061851 -26.728837 -30.821371 40.911643 1.456741 2.423959 0.191724 -0.061093 1152990.000000 0 0 1
-3.412251 -25.900737 -29.589941 39.472221 1.439807 2.418314 0.207718 -0.065100 -132186.000000 0 0 1
-3.773151 -26.693937 -28.440921 39.187867 1.430378 2.382932 0.227697 -0.068696 63824.700000 0 0 1
-3.899751 -25.878737 -27.265781 37.793384 1.421228 2.376681 0.241921 -0.063186 165638.000000 0 0 1
-2.633051 -25.432337 -26.462041 36.796417 1.467632 2.373371 0.216469 -0.058731 39446.200000 0 0 1
-1.940251 -24.390037 -27.135601 36.537369 1.491413 2.407861 0.200947 -0.053869 -173837.000000 0 0 1
-0.740451 -24.270737 -26.410231 35.876416 1.540298 2.398153 0.157295 -0.046247 -1151930.000000 0 0 1
0.225249 -23.227937 -26.975911 35.598983 -1.561099 2.430688 0.096900 -0.029471 62794.800000 0 0 1
0.840849 -23.423637 -28.245631 36.704080 -1.534914 2.448933 0.067240 -0.038276 312016.000000 0 0 1
1.771649 -24.517437 -28.213381 37.419758 -1.498661 2.424881 0.064237 -0.032507 93953.100000 0 0 1
2.790849 -24.637837 -29.386721 38.449853 -1.458002 2.440731 0.040469 -0.037366 599955.000000 0 0 1
3.855749 -23.697937 -29.409391 37.965396 -1.409506 2.456937 0.050232 -0.032560 394895.000000 0 0 1
4.593949 -23.790537 -30.609241 39.038694 -1.380044 2.472000 0.063457 -0.029451 -840862.000000 0 0 1
5.590049 -22.642837 -30.826711 38.655308 -1.328757 2.493898 0.079453 -0.042580 -240972.000000 0 0 1
6.784949 -22.583937 -30.056451 38.202879 -1.278943 2.476337 0.053913 -0.037791 1192530.000000 0 0 1
7.755549 -23.644537 -30.224081 39.149812 -1.253848 2.452795 0.061403 -0.025843 -18218.100000 0 0 1
8.437649 -23.820037 -31.566201 40.435296 -1.230363 2.466517 0.077381 -0.022089 -999955.000000 0 0 1
7.654349 -24.618837 -32.412491 41.415526 -1.269357 2.469655 0.057786 -0.024837 6853.200000 0 0 1
7.807049 -24.478737 33.491595 42.211912 -1.262063 0.654396 0.067819 -0.024598 -107095.000000 0 0 1
7.258049 -23.158937 32.851382 40.843959 -1.267090 0.636276 0.083556 -0.027208 1736400.000000 0 0 1
5.814949 -23.013437 33.103657 40.734310 -1.323300 0.622072 0.079908 -0.034019 1789850.000000 0 0 1
5.332649 -21.966537 32.303326 39.426777 -1.332641 0.610564 0.101274 -0.049501 -199425.000000 0 0 1
3.900349 -21.478737 32.624909 39.254727 -1.391163 0.589700 0.094103 -0.055515 1305050.000000 0 0 1
2.753949 -22.352437 32.438777 39.490378 -1.448208 0.606874 0.082529 -0.052712 1116760.000000 0 0 1
2.656149 -23.329437 33.451415 40.869487 -1.457431 0.612012 0.079680 -0.044713 -172881.000000 0 0 1
1.277649 -24.048237 33.336355 41.124964 -1.517718 0.625601 0.093350 -0.051466 339845.000000 0 0 1
1.121649 -25.024937 32.312108 40.884935 -1.526005 0.659468 0.097601 -0.039684 73186.000000 0 0 1
-0.216651 -25.449037 32.166105 41.016567 1.562283 0.669355 0.139082 -0.048052 -676656.000000 0 0 1
-0.495651 -26.394637 31.023175 40.735242 1.552020 0.705048 0.134765 -0.048636 -375542.000000 0 0 1
-1.794851 -26.403637 30.493955 40.376414 1.502923 0.714773 0.171008 -0.054146 -308818.000000 0 0 1
-1.909151 -27.433437 29.572485 40.382796 1.501316 0.749097 0.186114 -0.059613 -388914.000000 0 0 1
-3.245851 -27.588237 28.874015 40.066883 1.453681 0.766064 0.226427 -0.059199 -1081020.000000 0 0 1
-4.369751 -27.896237 29.605745 40.912039 1.415416 0.761729 0.249177 -0.059392 -1618900.000000 0 0 1
-5.426351 -28.069337 28.775635 40.563162 1.379832 0.782145 0.246284 -0.049167 -713372.000000 0 0 1
-6.730551 -28.513237 29.495925 41.573003 1.338990 0.782012 0.198648 -0.041074 -356592.000000 0 0 1
-7.776651 -28.973337 28.701055 41.517239 1.308570 0.807503 0.206639 -0.040073 169767.000000 0 0 1
-9.025851 -29.049937 29.373265 42.286564 1.269551 0.802899 0.178636 -0.038004 94286.200000 0 0 1
-9.300651 -30.222937 30.354225 43.832716 1.272259 0.805845 0.130872 -0.024808 -637173.000000 0 0 1
-9.473751 -31.525637 29.791375 44.397565 1.278872 0.835221 0.141892 -0.025387 1037830.000000 0 0 1
-10.805051 -31.788937 29.322285 44.576698 1.243148 0.852910 0.139529 -0.025934 475369.000000 0 0 1
-10.854951 -33.159237 28.652565 45.147917 1.254433 0.883257 0.129896 -0.021286 -239669.000000 0 0 1
-10.700851 33.244006 29.587465 45.772156 -1.259382 0.867930 0.127378 -0.023041 287787.000000 0 0 1
-10.335451 31.990006 29.065105 44.440549 -1.258299 0.857907 0.127085 -0.028927 -300876.000000 0 0 1
-10.809151 30.780106 29.832615 44.206760 -1.233077 0.830045 0.106775 -0.012227 -998535.000000 0 0 1
-12.186751 30.666306 29.769355 44.442702 -1.192534 0.836807 0.106790 -0.002416 -662847.000000 0 0 1
-12.773651 29.458206 30.345415 44.179138 -1.161648 0.813620 0.093051 -0.007095 391250.000000 0 0 1
-12.836451 29.308806 31.906687 45.186472 -1.157989 0.786805 0.102933 -0.022928 533362.000000 0 0 1
-13.895451 30.132306 32.478065 46.431284 -1.138711 0.796117 0.095974 -0.018013 985192.000000 0 0 1
-14.121751 29.774906 -33.439061 46.948266 -1.127933 2.363500 0.104488 -0.020367 677654.000000 0 0 1
-15.452951 30.240106 -32.732921 47.166745 -1.098381 2.337803 0.093376 -0.017218 748353.000000 0 0 1
-15.577251 29.645006 -31.482201 45.963095 -1.086989 2.325325 0.061726 -0.013490 241561.000000 0 0 1
-16.870151 29.974306 -30.979391 46.290211 -1.058164 2.303986 0.081331 -0.019501 406708.000000 0 0 1
-17.078851 29.414906 -29.582611 45.078317 -1.044750 2.286633 0.084337 -0.022935 -58355.300000 0 0 1
-17.362751 28.056506 -29.436991 44.217294 -1.016632 2.299274 0.066643 -0.021789 -41291.100000 0 0 1
-17.355551 27.766706 -28.023491 43.098969 -1.012162 2.278660 0.058485 -0.016093 -21395.600000 0 0 1
-17.725951 26.367406 -27.609881 42.092220 -0.978926 2.286221 0.046758 -0.023271 187735.000000 0 0 1
-19.116151 26.160606 -27.775331 42.676381 -0.939747 2.279482 0.044425 -0.018478 -12654.100000 0 0 1
-19.476351 24.893106 -27.222221 41.713838 -0.906880 2.281800 0.034174 -0.018407 -300357.000000 0 0 1
-20.906351 24.477806 -27.519201 42.350264 -0.863930 2.278118 0.051961 -0.018869 -38820.000000 0 0 1
-21.998751 25.016606 -26.772661 42.738168 -0.849499 2.247767 0.060656 -0.024915 162929.000000 0 0 1
-23.180551 24.374606 -27.140031 43.220836 -0.810502 2.249698 0.107235 -0.029875 270554.000000 0 0 1
-24.430551 24.499406 -26.213001 43.407305 -0.786805 2.219162 0.124093 -0.032058 356336.000000 0 0 1
-25.131931 25.722106 -26.270211 44.534982 -0.797003 2.201704 0.090094 -0.023255 -424638.000000 0 0 1
-26.261181 25.778306 -25.429121 44.730424 -0.776119 2.175474 0.085644 -0.032889 42388.600000 0 0 1
-26.233521 25.560906 -23.894741 43.732324 -0.772413 2.148840 0.074379 -0.013434 -574219.000000 0 0 1
-25.969741 24.162106 -23.507041 42.553681 -0.749356 2.156048 0.097586 -0.008581 112123.000000 0 0 1
-27.132431 23.379106 -23.240741 42.695239 -0.711228 2.146399 0.097749 -0.009000 361259.000000 0 0 1
-27.928431 23.635506 -21.918141 42.650197 -0.702335 2.110527 0.080122 -0.005859 23700.100000 0 0 1
-27.397581 23.288106 -20.622941 41.452008 -0.704498 2.091527 0.076953 -0.001956 193801.000000 0 0 1
-26.251801 24.028206 -20.214041 40.928220 -0.741203 2.087354 0.061662 -0.001291 30793.400000 0 0 1
-25.613151 23.489606 -18.915241 39.567429 -0.742178 2.069230 0.051233 0.001660 -308542.000000 0 0 1
-26.282121 23.642006 -17.691441 39.530765 -0.732565 2.034804 0.037194 0.006006 -85422.500000 0 0 1
-25.378431 23.319706 -16.648241 38.275806 -0.743148 2.020784 0.064167 -0.014957 256734.000000 0 0 1
-25.925351 23.584506 -15.222241 38.210854 -0.738153 1.980541 0.064642 -0.019382 -56821.400000 0 0 1
-26.332351 24.904106 -14.931441 39.198917 -0.757530 1.961582 0.071379 -0.023355 177896.000000 0 0 1
-26.882941 24.989606 -13.589041 39.138663 -0.748915 1.925383 0.044533 -0.033217 125942.000000 0 0 1
-26.855731 26.411706 -12.955341 39.832767 -0.777063 1.902065 0.048550 -0.025393 -79340.900000 0 0 1
-25.544241 26.702106 -12.535741 39.021219 -0.807556 1.897850 0.077313 -0.041221 -316673.000000 0 0 1
-25.462581 27.605406 -11.466141 39.266701 -0.825755 1.867121 0.091062 -0.041142 -220528.000000 0 0 1
-24.063451 28.155906 -11.109241 38.668074 -0.863609 1.862201 0.110761 -0.038150 201451.000000 0 0 1
-23.245251 27.069306 -10.631041 37.230472 -0.861255 1.860373 0.109467 -0.037998 420492.000000 0 0 1
-22.020651 27.532106 -10.064341 36.663563 -0.896167 1.848871 0.110403 -0.039186 92905.600000 0 0 1
-21.237351 26.346206 -9.501041 35.148505 -0.892354 1.844513 0.171155 -0.041707 -74639.400000 0 0 1
-20.423451 25.753506 -10.501241 34.505601 -0.900316 1.880036 0.149704 -0.045644 94603.400000 0 0 1
-19.482851 24.865106 -9.924941 33.111319 -0.906172 1.875221 0.160945 -0.038696 188484.000000 0 0 1
-18.806951 23.910006 -10.997541 32.347113 -0.904297 1.917698 0.154961 -0.043409 -115255.000000 0 0 1
-18.347551 22.776406 -10.424441 31.049416 -0.892680 1.913184 0.117014 -0.035267 -127414.000000 0 0 1
-17.816951 21.888006 -11.371441 30.427590 -0.887574 1.953814 0.142061 -0.032301 202374.000000 0 0 1
-17.380351 20.521106 -10.829641 28.990921 -0.868076 1.953633 0.126817 -0.022696 -496406.000000 0 0 1
-18.447551 19.649006 -10.763741 29.021607 -0.816925 1.950760 0.121771 -0.015315 -533018.000000 0 0 1
-18.040251 18.397206 -10.326141 27.758549 -0.795194 1.951958 0.150469 -0.038423 -859800.000000 0 0 1
-19.218751 17.440706 -10.202741 27.886099 -0.736934 1.945366 0.124981 -0.016362 -205412.000000 0 0 1
-19.724851 16.881206 -11.395241 28.353066 -0.707872 1.984393 0.112348 -0.011027 -124369.000000 0 0 1
-20.592151 17.689806 -12.140441 29.738127 -0.709728 1.991327 0.124736 -0.015556 -439440.000000 0 0 1
-21.355851 16.956006 -13.285541 30.332888 -0.671056 2.024159 0.120569 -0.017115 672475.000000 0 0 1
-20.525351 16.822706 -14.445241 30.215202 -0.686582 2.069262 0.107147 -0.016840 609454.000000 0 0 1
-21.372851 16.422206 -15.487141 31.085996 -0.655153 2.092322 0.122766 -0.016628 449972.000000 0 0 1
-20.570251 16.352806 -16.828541 31.204956 -0.671669 2.140391 0.129290 -0.021106 213988.000000 0 0 1
-20.107951 17.615906 -17.258741 31.820025 -0.719434 2.144071 0.114175 -0.027125 -15229.200000 0 0 1
-19.388551 17.426906 -18.461641 31.944407 -0.732165 2.186987 0.118563 -0.021790 -402512.000000 0 0 1
-18.418551 18.601506 -18.801441 32.229695 -0.790340 2.193653 0.098911 -0.015194 129151.000000 0 0 1
-17.285151 18.566606 -17.939541 31.069638 -0.821126 2.186334 0.136016 -0.019812 534643.000000 0 0 1
-16.539751 19.794006 -17.901941 31.398177 -0.874725 2.177495 0.153844 -0.017486 296675.000000 0 0 1
34.339579 30.517106 1.855659 45.977646 0.726529 1.530425 0.112455 -0.013918 -33813.400000 0 0 1
35.672169 30.695606 1.441559 47.082927 0.710554 1.540174 0.117015 -0.015408 -219791.000000 0 0 1
35.750199 31.146006 0.115859 47.414806 0.716681 1.568353 0.091920 -0.012525 951804.000000 0 0 1
37.183919 30.991306 -0.546841 48.408718 0.694813 1.582093 0.058231 -0.015688 1078860.000000 0 0 1
38.136539 31.844106 0.042759 49.683443 0.695723 1.569936 0.056408 -0.014247 -427991.000000 0 0 1
-37.040351 31.898306 -0.739941 48.888005 -0.710947 1.585932 0.060315 -0.024797 368616.000000 0 0 1
-35.953161 32.952106 -0.244241 48.770183 -0.741872 1.575804 0.046981 -0.023962 814399.000000 0 0 1
-35.210050 32.519606 0.883859 47.938018 -0.745696 1.552358 0.044712 -0.014338 280673.000000 0 0 1
-34.476343 33.553306 1.513759 48.132463 -0.771831 1.539341 0.033995 -0.009760 -75876.300000 0 0 1
-33.574601 33.241406 2.733159 47.325628 -0.780411 1.513012 0.063142 -0.005368 -74127.200000 0 0 1
-33.215061 -32.973337 3.330359 46.920918 0.781746 1.499758 0.048576 0.001555 257303.000000 0 0 1
-32.617721 -33.145737 4.646059 46.734799 0.793427 1.471219 0.069880 -0.011088 -193853.000000 0 0 1
-32.578891 -31.884537 5.519259 45.918080 0.774627 1.450307 0.073762 -0.007964 -307214.000000 0 0 1
-33.754681 -31.408237 6.101559 46.508976 0.749405 1.439226 0.065477 -0.006742 -340719.000000 0 0 1
-34.162373 -32.132637 7.203259 47.449563 0.754791 1.418398 0.063717 -0.022087 -365117.000000 0 0 1
-35.326178 -31.384737 7.978059 47.922750 0.726384 1.403540 0.078650 -0.018114 610727.000000 0 0 1
-36.601691 -31.148837 7.473059 48.639289 0.705087 1.416543 0.059160 -0.011481 108542.000000 0 0 1
-37.356341 -32.261837 6.978359 49.849973 0.712351 1.430348 0.066282 -0.012420 -418876.000000 0 0 1
37.465449 -32.048537 6.777259 49.766453 -0.707630 1.434191 0.084205 -0.007151 37640.300000 0 0 1
36.747979 -32.260837 8.002759 49.550174 -0.720467 1.408578 0.079917 -0.006737 -258664.000000 0 0 1
35.383529 -32.158037 7.674859 48.425582 -0.737679 1.411638 0.069472 0.002925 -205797.000000 0 0 1
34.510999 -32.419137 8.974559 48.192865 -0.754154 1.383481 0.077933 -0.009271 776981.000000 0 0 1
33.145689 -32.074237 8.655659 46.928817 -0.768971 1.385292 0.092173 -0.013043 1445830.000000 0 0 1
32.223949 -32.217337 9.777359 46.604039 -0.785296 1.359430 0.109991 -0.026218 649582.000000 0 0 1
32.203989 -31.057937 10.761859 46.016410 -0.767284 1.334740 0.105599 -0.017885 -845657.000000 0 0 1
31.683069 -29.841637 10.277459 44.720983 -0.755477 1.338911 0.100298 -0.025523 93255.000000 0 0 1
32.408489 -29.053437 9.323359 44.512217 -0.730865 1.359778 0.097827 -0.023308 34334.900000 0 0 1
31.709909 -27.693537 8.984959 43.048575 -0.717889 1.360534 0.090575 -0.025386 361555.000000 0 0 1
32.040869 -27.209737 7.649759 42.725940 -0.704041 1.390783 0.095853 -0.029789 212391.000000 0 0 1
31.329179 -25.959337 7.492059 41.370710 -0.691938 1.388696 0.082271 -0.028622 392917.000000 0 0 1
31.392879 -25.467637 6.078559 40.878629 -0.681566 1.421545 0.062669 -0.011426 1171180.000000 0 0 1
32.672579 -24.878037 5.729759 41.463771 -0.650779 1.432166 0.071555 -0.009696 795156.000000 0 0 1
32.646449 -24.337437 4.428159 40.959860 -0.640605 1.462475 0.067820 -0.008078 391928.000000 0 0 1
34.048719 -23.847737 3.957459 41.757530 -0.610995 1.475882 0.087051 -0.012662 804482.000000 0 0 1
35.047899 -24.835337 3.792159 43.122264 -0.616482 1.482743 0.069582 -0.004817 931920.000000 0 0 1
36.388759 -24.311637 3.877559 43.934417 -0.589000 1.482423 0.071463 -0.006621 1172840.000000 0 0 1
37.479399 -25.413237 3.894459 45.450025 -0.595848 1.485004 0.061583 -0.001484 -229270.000000 0 0 1
37.443759 -26.266337 5.029059 46.013553 -0.611724 1.461282 0.040692 0.013657 -277792.000000 0 0 1
38.022229 -27.494837 4.699359 47.156547 -0.626078 1.470976 0.040717 0.007533 -776391.000000 0 0 1
37.459599 -28.642337 5.596859 47.486102 -0.652792 1.452659 0.054829 0.006690 1498640.000000 0 0 1
36.078699 -29.008237 5.387659 46.606622 -0.677191 1.454939 0.045937 0.011597 894526.000000 0 0 1
35.059479 -28.053637 5.680259 45.259684 -0.674846 1.444961 0.050392 0.005320 -124748.000000 0 0 1
33.692439 -28.814837 5.588659 44.684543 -0.707523 1.445399 0.079625 -0.001654 -113582.000000 0 0 1
33.343419 -29.163937 4.246759 44.501166 -0.718634 1.475221 0.065270 -0.000265 -98829.200000 0 0 1
32.146329 -28.543237 3.833459 43.160147 -0.726099 1.481860 0.068156 -0.003608 488387.000000 0 0 1
30.817379 -29.333037 4.093559 42.742194 -0.760726 1.474876 0.073386 -0.010838 487109.000000 0 0 1
30.814279 -30.590437 3.390159 43.552128 -0.781753 1.492876 0.074247 -0.005645 -372866.000000 0 0 1
29.540779 -31.175937 3.521159 43.092868 -0.812323 1.488994 0.085188 -0.004756 146045.000000 0 0 1
29.422079 -32.562137 2.827859 43.976679 -0.836014 1.506448 0.086806 -0.000286 91477.400000 0 0 1
29.159679 -32.433937 1.418959 43.637835 -0.838507 1.538274 0.081898 0.004919 84992.500000 0 0 1
29.082479 33.671606 0.857359 44.500592 0.858397 1.551529 0.081785 0.002719 62842.100000 0 0 1
28.810679 33.626606 -0.657441 44.285845 0.862378 1.585642 0.076198 -0.002130 -155835.000000 0 0 1
29.980879 -33.537037 -1.397741 45.005996 -0.841326 1.601858 0.066170 -0.005500 -77034.800000 0 0 1
29.816679 -33.695337 -2.814341 45.081378 -0.846392 1.633265 0.059948 -0.011720 -128671.000000 0 0 1
30.942679 -33.118737 -3.686541 45.474067 -0.819353 1.651954 0.029468 -0.007771 -151596.000000 0 0 1
30.937479 -31.693437 -3.723241 44.446193 -0.797468 1.654664 0.022589 -0.008122 -586005.000000 0 0 1
31.724919 -31.236037 -4.745941 44.773703 -0.777633 1.676994 0.016744 -0.006985 -544304.000000 0 0 1
31.997379 -29.719537 -4.625141 43.914407 -0.748507 1.676314 0.015935 0.005708 -101726.000000 0 0 1
30.823179 -28.919437 -4.832941 42.541269 -0.753543 1.684648 0.009132 -0.012964 297537.000000 0 0 1
30.975979 -27.504237 -4.742741 41.695179 -0.726102 1.684791 0.015442 -0.006322 417075.000000 0 0 1
31.938189 -26.880537 -5.863341 42.154359 -0.699622 1.710341 0.050941 -0.008443 947916.000000 0 0 1
33.329239 -27.021037 -5.529741 43.261446 -0.681250 1.698968 0.056225 -0.005973 712397.000000 0 0 1
34.192309 -26.590337 -6.601141 43.814782 -0.660976 1.722032 0.082222 -0.009269 392116.000000 0 0 1
34.345589 -27.532937 -7.800641 44.704945 -0.675743 1.746186 0.091353 -0.000217 -852516.000000 0 0 1
33.205639 -27.640637 -8.627641 44.057411 -0.694192 1.767897 0.088856 -0.000492 -243743.000000 0 0 1
33.200579 -28.678337 -9.591441 44.907919 -0.712446 1.786035 0.075849 0.006114 443.504000 0 0 1
33.136009 -30.137937 -9.144841 45.715626 -0.738051 1.772193 0.071751 0.011126 8847.840000 0 0 1
34.187339 -30.569337 -8.290141 46.604560 -0.729585 1.749631 0.077049 0.001767 -423767.000000 0 0 1
34.109089 -31.985537 -7.984141 47.436811 -0.753280 1.739912 0.085390 -0.016639 274609.000000 0 0 1
35.502349 -32.513937 -7.547441 48.729219 -0.741490 1.726308 0.073147 -0.020921 481915.000000 0 0 1
35.458089 33.671506 -6.820841 49.371756 0.759560 1.709392 0.053844 -0.023032 -119332.000000 0 0 1
34.996159 -33.646737 -5.463041 48.853648 -0.765742 1.682855 0.051980 -0.019386 -106083.000000 0 0 1
34.840469 32.329906 -4.859541 47.777571 0.748040 1.672684 0.030543 -0.021170 687509.000000 0 0 1
33.778339 31.519306 -5.433241 46.518415 0.750816 1.687861 0.054107 -0.033914 892607.000000 0 0 1
33.910309 30.165806 -5.020941 45.662838 0.727026 1.680976 0.058548 -0.014079 406197.000000 0 0 1
32.712779 29.338306 -5.569441 44.293124 0.731070 1.696871 0.072848 -0.020982 409879.000000 0 0 1
32.758719 29.245206 -7.003941 44.468764 0.728793 1.728957 0.060321 -0.018339 502364.000000 0 0 1
31.510659 28.767306 -7.520041 43.324711 0.739918 1.745254 0.060522 -0.018971 690019.000000 0 0 1
31.619609 28.247106 -8.947341 43.333054 0.729124 1.778771 0.069706 -0.017984 -520997.000000 0 0 1
32.354499 27.049606 -9.112541 43.145489 0.696333 1.783604 0.078322 -0.010739 -92526.000000 0 0 1
32.591909 26.730106 -10.513741 43.442719 0.686905 1.815237 0.085056 -0.012892 425861.000000 0 0 1
33.671119 27.705506 -11.107141 44.996755 0.688506 1.820218 0.107158 -0.023006 -210213.000000 0 0 1
34.889529 27.681706 -10.388741 45.732724 0.670710 1.799959 0.098407 -0.031629 -122563.000000 0 0 1
35.928299 28.370406 -11.009741 47.084361 0.668392 1.806811 0.105017 -0.035010 -258776.000000 0 0 1
36.233719 29.776906 -10.334641 48.024487 0.687894 1.787688 0.094347 -0.037190 -788437.000000 0 0 1
36.821169 29.682006 -9.096041 48.161789 0.678457 1.760802 0.067829 -0.028514 -58573.700000 0 0 1
36.662179 30.854206 -8.363641 48.642039 0.699586 1.743598 0.066937 -0.032537 -883043.000000 0 0 1
37.648909 31.016106 -7.202841 49.308418 0.689100 1.717398 0.053877 -0.022605 1313590.000000 0 0 1
-37.307241 31.271906 -7.589541 49.268280 -0.697619 1.725457 0.074616 -0.022890 864914.000000 0 0 1
-36.540781 30.164306 -7.858841 48.029943 -0.690096 1.735159 0.082606 -0.031588 -1245700.000000 0 0 1
-35.137470 30.486706 -8.364241 47.265649 -0.714647 1.748696 0.146849 -0.036070 -804957.000000 0 0 1
-34.314689 31.040706 -7.375241 46.855282 -0.735345 1.728858 0.122866 -0.036508 -279097.000000 0 0 1
-32.982011 31.256106 -7.747241 46.095303 -0.758537 1.739668 0.161044 -0.045427 -191685.000000 0 0 1
-32.621321 32.473806 -8.674141 46.839506 -0.783132 1.757060 0.127691 -0.042492 -473684.000000 0 0 1
-32.624671 -33.705737 -8.034641 47.592030 0.801695 1.740432 0.101827 -0.035876 318610.000000 0 0 1
-31.647311 -33.416737 -7.020041 46.556542 0.812587 1.722159 0.151507 -0.049652 155111.000000 0 0 1
-31.796041 -32.026137 -6.374041 45.577298 0.789003 1.711107 0.116668 -0.045412 496101.000000 0 0 1
-32.991791 -31.940837 -5.590041 46.259311 0.769214 1.691934 0.107521 -0.048839 251210.000000 0 0 1
-32.790661 -32.229737 -4.233141 46.172534 0.776771 1.662606 0.117431 -0.053582 34824.400000 0 0 1
-34.064019 -32.273437 -3.346641 47.043938 0.758413 1.641995 0.081194 -0.044514 -22696.600000 0 0 1
-34.652978 -30.994537 -3.168341 46.599663 0.729727 1.638839 0.035965 -0.031634 -44448.900000 0 0 1
-35.477973 -31.008137 -2.016741 47.162044 0.718270 1.613571 0.043667 -0.024607 -302956.000000 0 0 1
-36.286941 -29.717037 -1.864041 46.939525 0.686187 1.610518 0.068198 -0.013036 -134722.000000 0 0 1
-37.128021 -29.804937 -0.720741 47.616632 0.676422 1.585933 0.049555 0.003755 -91826.200000 0 0 1
-37.762031 -28.550437 -0.416141 47.342070 0.647370 1.579587 0.067826 -0.003575 276590.000000 0 0 1
37.589479 -28.674737 0.802859 47.284819 -0.651668 1.553816 0.063054 0.003757 -591690.000000 0 0 1
36.368099 -29.189037 0.345959 46.634303 -0.676324 1.563378 0.035752 0.003209 -928698.000000 0 0 1
35.420109 -29.204637 1.364759 45.927743 -0.689515 1.541077 0.040647 -0.002822 -157497.000000 0 0 1
34.488729 -27.967037 1.260959 44.420914 -0.681354 1.542406 0.028796 0.010323 -1294540.000000 0 0 1
33.585229 -27.897437 0.214859 43.660976 -0.693150 1.565875 0.031469 0.005273 -494110.000000 0 0 1
32.973539 -26.666937 0.222059 42.407890 -0.680046 1.565560 0.037949 0.002049 -961967.000000 0 0 1
31.724829 -26.554137 -0.646541 41.376382 -0.696907 1.586423 0.033914 0.001239 8710.790000 0 0 1
30.460379 -27.018837 -0.183641 40.717146 -0.725595 1.575306 0.043965 0.006252 339971.000000 0 0 1
30.296679 -28.403337 0.112259 41.528917 -0.753155 1.568093 0.054236 0.000599 -541151.000000 0 0 1
29.874179 -29.204637 -1.173641 41.794196 -0.774066 1.598881 0.036971 -0.002035 315281.000000 0 0 1
28.551879 -28.912037 -1.615941 40.666042 -0.791666 1.610544 0.046411 -0.003612 135321.000000 0 0 1
28.323779 -29.455737 -2.856341 40.963833 -0.804987 1.640581 0.038392 -0.001471 252324.000000 0 0 1
26.904679 -29.976437 -3.211641 40.407465 -0.839349 1.650362 0.054552 -0.013295 407716.000000 0 0 1
25.882379 -29.025637 -3.216441 39.022182 -0.842582 1.653316 0.073866 -0.010789 348442.000000 0 0 1
24.563579 -29.601237 -3.280341 38.605224 -0.878137 1.655870 0.049868 -0.010202 319562.000000 0 0 1
23.512879 -28.531037 -3.372841 37.124812 -0.881523 1.661773 0.045913 -0.006561 -655286.000000 0 0 1
23.467679 -27.801337 -4.599541 36.671543 -0.869726 1.696553 0.057628 -0.016550 -73509.800000 0 0 1
22.855579 -26.563137 -4.317841 35.307528 -0.860281 1.693396 0.070724 -0.020578 -156748.000000 0 0 1
22.485879 -25.773237 -5.623641 34.662658 -0.853412 1.733756 0.071688 -0.024807 -377324.000000 0 0 1
21.191779 -26.065037 -6.054841 34.134129 -0.888158 1.749124 0.089415 -0.023159 -773758.000000 0 0 1
20.797379 -25.309937 -7.201141 33.540727 -0.882958 1.787179 0.099282 -0.026492 -535034.000000 0 0 1
19.358079 -25.530937 -7.625641 32.935002 -0.922055 1.804453 0.089501 -0.023758 -482470.000000 0 0 1
18.483679 -25.002237 -6.643741 31.794615 -0.934191 1.781306 0.091481 -0.022980 -411654.000000 0 0 1
17.150679 -25.404737 -6.875441 31.413662 -0.976980 1.791450 0.087302 -0.028231 -18242.400000 0 0 1
16.190979 -24.651137 -5.926841 30.082450 -0.989652 1.769114 0.077070 -0.020769 -88259.500000 0 0 1
16.345779 -24.977137 -4.541941 30.193892 -0.991313 1.721795 0.067232 -0.013852 -226861.000000 0 0 1
15.718179 -24.011837 -3.770541 28.945578 -0.991193 1.701431 0.082285 -0.016497 -95338.400000 0 0 1
15.447779 -24.447537 -2.310241 29.011259 -1.007269 1.650513 0.066821 -0.013905 266087.000000 0 0 1
14.477779 -25.473037 -2.143841 29.378185 -1.053969 1.643835 0.066152 -0.008809 452931.000000 0 0 1
15.088879 -26.666437 -1.618841 30.682141 -1.055875 1.623582 0.064959 -0.009074 88969.400000 0 0 1
14.327879 -27.932937 -2.038041 31.459350 -1.096852 1.635625 0.072857 -0.009393 -384882.000000 0 0 1
13.276979 -28.248837 -1.185941 31.235900 -1.131435 1.608773 0.076788 -0.020927 -659742.000000 0 0 1
12.753679 -29.559537 -1.334841 32.221179 -1.163469 1.612236 0.082087 -0.019813 -117389.000000 0 0 1
13.514279 -30.769937 -0.720241 33.614633 -1.156957 1.592224 0.085060 -0.016001 254946.000000 0 0 1
14.725079 -31.013037 -1.441441 34.361522 -1.127509 1.612758 0.103774 -0.012878 119233.000000 0 0 1
15.403679 -32.176937 -1.043341 35.689175 -1.124319 1.600035 0.101080 -0.013299 535601.000000 0 0 1
16.853679 -32.374037 -1.631041 36.534711 -1.090811 1.615455 0.083518 -0.006943 799703.000000 0 0 1
17.692979 -31.404437 -1.045341 36.060684 -1.057730 1.599789 0.078159 -0.007788 -59414.300000 0 0 1
18.967779 -31.339337 -1.666041 36.670239 -1.026534 1.616245 0.069599 -0.010523 204927.000000 0 0 1
19.935279 -30.294937 -1.073841 36.281562 -0.988790 1.600398 0.060830 -0.011369 -91972.300000 0 0 1
19.696379 -28.996537 -1.606941 35.090295 -0.974121 1.616607 0.062652 -0.010796 147351.000000 0 0 1
19.849179 -27.902737 -0.666341 34.249039 -0.952480 1.590253 0.065787 -0.001586 -74532.000000 0 0 1
19.314079 -26.472737 -1.113641 32.788408 -0.940490 1.604767 0.065524 -0.007202 -167413.000000 0 0 1
19.907479 -25.878737 -2.234941 32.726316 -0.915082 1.639141 0.073623 -0.008632 -3406.770000 0 0 1
19.242379 -26.194037 -3.448641 32.684704 -0.937218 1.676505 0.084703 -0.008563 -190365.000000 0 0 1
34.388189 -29.668037 13.412259 47.356401 -0.711843 1.283647 0.092183 -0.042088 -10133.200000 0 0 1
35.194799 -29.854337 14.567659 48.395992 -0.703483 1.265045 0.097471 -0.039766 -227839.000000 0 0 1
34.514819 -30.248837 15.714159 48.509790 -0.719623 1.240907 0.086946 -0.032731 -390216.000000 0 0 1
35.488429 -30.616337 16.839559 49.803207 -0.711829 1.225876 0.083718 -0.026626 -299445.000000 0 0 1
34.808859 -31.295037 17.857959 50.099329 -0.732292 1.206330 0.073180 -0.026153 250938.000000 0 0 1
35.645659 -31.604537 18.959959 51.273188 -0.725379 1.192021 0.049091 -0.025535 -25467.000000 0 0 1
36.475939 -32.913737 18.808659 52.607736 -0.734107 1.205178 0.047309 -0.016628 -350297.000000 0 0 1
37.437579 -32.731737 17.808759 52.821311 -0.718434 1.226907 0.060575 -0.016550 -120415.000000 0 0 1
-38.040721 33.519506 17.801159 53.735789 -0.722301 1.233145 0.058811 -0.016337 117347.000000 0 0 1
-36.956281 33.623606 16.718459 52.686056 -0.738215 1.247892 0.066894 -0.016538 -386619.000000 0 0 1
-35.990511 -32.822937 17.001359 51.591746 0.739399 1.234984 0.071603 -0.016369 -14028.500000 0 0 1
-34.969172 -32.757337 16.034959 50.527280 0.752751 1.247860 0.087332 -0.007960 -122538.000000 0 0 1
-33.871811 -31.714137 16.404659 49.215840 0.752512 1.230973 0.080886 -0.006740 101471.000000 0 0 1
-32.757611 -31.732937 15.553059 48.186492 0.769511 1.242144 0.096435 -0.011513 -143138.000000 0 0 1
-32.947201 -30.718037 14.587259 47.348748 0.750399 1.257621 0.102930 -0.020456 -412075.000000 0 0 1
-31.776291 -30.589537 13.599759 46.156320 0.766372 1.271712 0.102573 -0.023739 89847.100000 0 0 1
-30.551941 -30.328637 14.260859 45.349966 0.781730 1.250906 0.089571 -0.026141 47659.600000 0 0 1
-29.531941 -29.993337 13.312459 44.146997 0.793149 1.264480 0.081568 -0.015144 230126.000000 0 0 1
-28.185081 -29.777637 14.010159 43.328870 0.812867 1.241534 0.069231 -0.018827 567332.000000 0 0 1
-27.045591 -29.677837 13.141759 42.248596 0.831770 1.254490 0.052138 -0.008931 695886.000000 0 0 1
-25.846781 -29.472837 13.894459 41.590386 0.850852 1.230169 0.037095 -0.010674 160784.000000 0 0 1
-24.537751 -29.474437 13.130959 40.537214 0.876544 1.240923 0.042810 -0.007142 -171294.000000 0 0 1
-24.007651 -30.766137 12.750159 41.054708 0.908167 1.255009 0.068980 -0.018153 -342521.000000 0 0 1
-22.698951 -30.671337 12.277559 40.083809 0.933680 1.259495 0.061804 -0.022507 -154708.000000 0 0 1
-22.094251 -32.054337 11.895159 40.707877 0.967305 1.274262 0.059693 -0.020204 -302090.000000 0 0 1
-22.936151 -32.690837 11.003359 41.422600 0.958992 1.301932 0.062929 -0.023554 -279680.000000 0 0 1
-22.883751 33.307906 10.902159 41.856179 -0.968824 1.307290 0.069926 -0.017275 592608.000000 0 0 1
-23.979351 32.720106 9.914459 41.760162 -0.938354 1.331093 0.078925 -0.007223 352298.000000 0 0 1
-23.767651 33.189506 8.574859 41.712981 -0.949334 1.363752 0.083671 -0.001782 401877.000000 0 0 1
-24.892251 32.966606 7.729159 42.025720 -0.924055 1.385828 0.076680 -0.005510 -91062.900000 0 0 1
-24.622251 33.470706 6.281359 42.023789 -0.936552 1.420763 0.089715 -0.011285 -695770.000000 0 0 1
-23.932251 32.583606 5.451259 40.794120 -0.937297 1.436767 0.073970 -0.000219 856519.000000 0 0 1
-22.525251 32.335306 5.649159 39.810450 -0.962346 1.428414 0.084223 -0.009963 953312.000000 0 0 1
-21.633651 33.595706 5.269659 40.304536 -0.998692 1.439675 0.113894 -0.015948 -575994.000000 0 0 1
-21.515351 -32.756637 6.188559 39.676263 0.989639 1.414180 0.113182 -0.027818 -16169.300000 0 0 1
-20.742751 -32.929037 7.352659 39.606121 1.008665 1.384069 0.098739 -0.034869 -232043.000000 0 0 1
-20.858651 -31.796837 8.380259 38.940351 0.990216 1.353892 0.095468 -0.036556 -244378.000000 0 0 1
-20.126451 -30.674437 7.961259 37.541667 0.990123 1.357109 0.129995 -0.053646 -219028.000000 0 0 1
-20.073151 -29.563837 8.828559 36.808903 0.974320 1.328587 0.117652 -0.051924 -86690.400000 0 0 1
-19.349651 -29.732937 10.162059 36.901545 0.993872 1.291808 0.095148 -0.034619 -901870.000000 0 0 1
-17.998151 -29.931237 9.916559 36.306343 1.029409 1.294145 0.090995 -0.045864 -901074.000000 0 0 1
-17.289051 -29.997337 11.160259 36.377231 1.047946 1.258975 0.095521 -0.039394 1189840.000000 0 0 1
-15.934551 -30.813637 11.142259 36.435424 1.093542 1.260009 0.093665 -0.039218 960509.000000 0 0 1
-14.855751 -30.199437 10.507059 35.257590 1.113632 1.268191 0.122538 -0.043098 -674786.000000 0 0 1
-13.803351 -31.029037 10.134759 35.440753 1.152231 1.280785 0.118582 -0.038894 -209267.000000 0 0 1
-12.663151 -30.298237 9.414759 34.161034 1.174912 1.291583 0.124894 -0.027677 44227.900000 0 0 1
-11.771451 -29.676937 10.330459 33.556014 1.193178 1.257856 0.116487 -0.030165 -179015.000000 0 0 1
-10.838651 -28.840037 9.686459 32.296309 1.211307 1.266183 0.154126 -0.036262 562179.000000 0 0 1
-9.692751 -28.319837 10.604759 31.755685 1.241033 1.230307 0.157592 -0.030129 368841.000000 0 0 1
-10.138651 -27.289837 11.421959 31.272809 1.215082 1.196910 0.134605 -0.034297 142020.000000 0 0 1
-9.207751 -27.082837 12.513859 31.222739 1.243072 1.158414 0.127987 -0.021446 686361.000000 0 0 1
-9.369251 -25.737237 13.223359 30.414560 1.221673 1.121013 0.109514 -0.027703 92080.500000 0 0 1
-8.972151 -24.554537 12.530159 28.990165 1.220471 1.123842 0.092331 -0.026433 -373071.000000 0 0 1
-9.699051 -24.196237 11.401959 28.452314 1.189558 1.158473 0.095232 -0.023724 113405.000000 0 0 1
-9.131551 -22.818037 10.804459 26.847428 1.190126 1.156616 0.096282 -0.027024 -194066.000000 0 0 1
-7.958751 -22.937837 10.073659 26.286207 1.236823 1.177506 0.080212 -0.032582 -782097.000000 0 0 1
-7.481951 -21.694637 9.596059 24.874108 1.238694 1.174738 0.082850 -0.025617 -544371.000000 0 1 0
-6.296751 -21.893637 8.704459 24.387456 1.290748 1.205824 0.086793 -0.033249 59460.900000 0 1 0
-5.089251 -22.426437 9.268159 24.794038 1.347645 1.187687 0.084504 -0.041277 267337.000000 0 1 0
-4.153251 -22.687237 8.252559 24.496223 1.389736 1.227183 0.089197 -0.044033 381826.000000 0 1 0
-2.911351 -23.476137 8.748259 25.221757 1.447413 1.216582 0.115315 -0.046037 562659.000000 0 0 1
-1.951951 -22.899537 9.619359 24.914474 1.485762 1.174402 0.103811 -0.041071 -132783.000000 0 1 0
-1.075051 -23.909237 10.109259 25.980848 1.525863 1.171137 0.123847 -0.059353 102524.000000 0 0 1
-0.062151 -23.373637 11.096259 25.873882 1.568137 1.127566 0.122284 -0.054164 -348543.000000 0 0 1
-0.668851 -23.250237 12.397059 26.357313 1.542037 1.081113 0.117068 -0.043475 -124645.000000 0 0 1
0.210549 -23.058137 13.492359 26.716395 -1.561665 1.041389 0.154096 -0.041190 -173665.000000 0 0 1
0.954149 -21.676537 13.533359 25.572143 -1.526807 1.013112 0.123703 -0.036174 831632.000000 0 0 1
2.261049 -21.601037 12.933459 25.278282 -1.466503 1.033700 0.134209 -0.040818 672292.000000 0 0 1
2.566849 -20.248537 12.670859 24.023793 -1.444702 1.015224 0.111836 -0.039646 303141.000000 0 1 0
4.065549 -19.944237 12.402159 23.835160 -1.369706 1.023558 0.123202 -0.038632 397716.000000 0 1 0
4.540949 -20.372637 11.156659 23.667184 -1.351487 1.079921 0.119454 -0.025778 -343925.000000 0 1 0
5.939949 -20.267537 11.029359 23.826515 -1.285703 1.089529 0.167709 -0.035223 248889.000000 0 1 0
6.527049 -20.842437 9.711659 23.902424 -1.267309 1.152390 0.170976 -0.045280 -356626.000000 0 1 0
6.300149 -20.100537 8.536559 22.728755 -1.267063 1.185769 0.141774 -0.043189 -254409.000000 0 1 0
6.744749 -20.804437 7.359859 23.075610 -1.257290 1.246180 0.134013 -0.050613 846684.000000 0 1 0
8.219149 -21.326137 7.193459 23.960476 -1.202937 1.265871 0.124303 -0.029969 409687.000000 0 1 0
9.244649 -20.512737 6.675059 23.468966 -1.147378 1.282394 0.129870 -0.040104 87873.400000 0 1 0
9.779649 -19.502237 7.554259 23.087781 -1.105979 1.237460 0.138520 -0.027503 86682.000000 0 1 0
10.608649 -19.890337 8.798259 24.198726 -1.080821 1.198684 0.127179 -0.017129 526307.000000 0 1 0
9.801249 -20.091237 9.981659 24.481745 -1.116926 1.150842 0.159579 -0.029606 150565.000000 0 1 0
10.577449 -19.583137 11.022959 24.837217 -1.075562 1.110953 0.150988 -0.021506 301542.000000 0 1 0
10.100449 -20.053137 12.428859 25.663670 -1.104206 1.065236 0.184883 -0.034707 208061.000000 0 0 1
10.349849 -21.421437 12.753459 26.993482 -1.120716 1.078711 0.153230 -0.038038 -561078.000000 0 0 1
9.700749 -21.650337 13.953559 27.523507 -1.149553 1.039132 0.189168 -0.041643 -30024.100000 0 0 1
9.886049 -23.047837 14.548759 28.993157 -1.165597 1.045118 0.169687 -0.043002 -240921.000000 0 0 1
9.258349 -24.002437 13.777059 29.182895 -1.202656 1.079132 0.195404 -0.046808 -321224.000000 0 0 1
9.234349 -25.264837 14.436059 30.528430 -1.220379 1.078248 0.206321 -0.049659 283782.000000 0 0 1
9.179049 -26.442237 13.380659 31.024005 -1.236675 1.124863 0.214211 -0.058228 420646.000000 0 0 1
10.463549 -26.611037 12.815259 31.334710 -1.196163 1.149461 0.163675 -0.040388 238665.000000 0 0 1
10.357649 -27.714837 11.974159 31.918233 -1.213146 1.186237 0.152897 -0.051896 558987.000000 0 0 1
11.717449 -28.005337 11.247459 32.374417 -1.174529 1.215980 0.108399 -0.039699 314462.000000 0 0 1
12.670949 -28.501237 12.153059 33.474921 -1.152463 1.199258 0.097535 -0.034399 634327.000000 0 0 1
13.904249 -28.800137 11.469259 33.975285 -1.121016 1.226455 0.133443 -0.032975 861038.000000 0 0 1
14.980749 -29.530637 12.332759 35.335228 -1.101330 1.214269 0.103528 -0.036601 -675471.000000 0 0 1
15.438349 -28.683637 13.361259 35.208194 -1.077036 1.181548 0.081461 -0.034128 323568.000000 0 0 1
16.482949 -29.155437 14.190459 36.374390 -1.056247 1.170032 0.074492 -0.029403 700697.000000 0 0 1
17.852749 -29.551937 13.542459 37.086869 -1.027357 1.196997 0.078343 -0.028721 -569515.000000 0 0 1
18.502649 -28.353537 13.200859 36.339150 -0.992617 1.199023 0.066965 -0.034186 160526.000000 0 0 1
19.879549 -28.612937 12.965359 37.175223 -0.963586 1.214545 0.052225 -0.028890 -137933.000000 0 0 1
20.603949 -27.347337 12.585059 36.479903 -0.925112 1.218572 0.032267 -0.029098 -1504900.000000 0 0 1
21.916249 -27.562837 12.255959 37.285929 -0.899027 1.235867 0.043700 -0.029663 -1282420.000000 0 0 1
22.648249 -26.438337 11.970159 36.813226 -0.862458 1.239616 0.040347 -0.026213 -25023.400000 0 0 1
24.045949 -26.703137 11.368859 37.689736 -0.837710 1.264380 0.061993 -0.024671 191395.000000 0 0 1
25.019849 -27.265637 12.207959 38.967193 -0.828324 1.252143 0.069997 -0.024520 -140997.000000 0 0 1
26.063849 -27.887237 11.503059 39.866560 -0.819182 1.278096 0.059727 -0.028105 -377090.000000 0 0 1
27.206849 -28.431037 12.388459 41.255429 -0.807397 1.265803 0.079136 -0.025166 126901.000000 0 0 1
28.149549 -27.486637 12.872459 41.395804 -0.773484 1.254593 0.075007 -0.023389 455814.000000 0 0 1
29.356849 -27.510637 12.109459 42.015459 -0.752944 1.278435 0.062406 -0.022751 343555.000000 0 0 1
30.548549 -26.778937 12.790659 42.590214 -0.719737 1.265769 0.085297 -0.034975 96042.300000 0 0 1
30.319149 -25.417737 12.947259 41.628640 -0.697685 1.254532 0.093250 -0.031789 -186444.000000 0 0 1
29.618949 -25.017837 14.096759 41.254005 -0.701384 1.222064 0.099946 -0.021169 -223042.000000 0 0 1
30.433249 -24.747237 15.407859 42.142740 -0.682717 1.196507 0.084028 -0.008629 156769.000000 0 0 1
30.927549 -25.969637 15.965459 43.426159 -0.698480 1.194320 0.087629 -0.015343 -115919.000000 0 0 1
31.674649 -25.771937 17.130459 44.282376 -0.683006 1.173588 0.099969 0.002121 54237.300000 0 0 1
32.049449 -27.061537 17.866459 45.592810 -0.701215 1.168133 0.081248 0.010053 449318.000000 0 0 1
30.950749 -27.660037 18.580259 45.478045 -0.729312 1.149927 0.067488 -0.002458 505806.000000 0 0 1
31.427849 -28.765737 19.338959 46.788596 -0.741201 1.144692 0.080829 -0.007034 547467.000000 0 0 1
30.306049 -29.741537 19.857559 46.875775 -0.775997 1.133357 0.068162 -0.004557 -544177.000000 0 0 1
29.366549 -29.090637 20.653459 46.208492 -0.780678 1.107430 0.063811 0.002227 473741.000000 0 0 1
28.213849 -29.835637 21.077759 46.156890 -0.813329 1.096565 0.069182 -0.005292 1285440.000000 0 0 1
27.205449 -30.359937 19.998159 45.406923 -0.840142 1.114729 0.107917 -0.008965 -931221.000000 0 0 1
27.694949 -31.437237 19.328759 46.140124 -0.848601 1.138547 0.098068 -0.017428 -18548.100000 0 0 1
27.016949 -31.850637 18.109059 45.522705 -0.867326 1.161676 0.114679 -0.012493 55042.000000 0 0 1
27.462249 -30.939737 16.916059 44.694469 -0.844872 1.182640 0.108299 -0.010084 -237841.000000 0 0 1
28.766949 -31.258037 16.522859 45.580776 -0.826875 1.199851 0.087821 -0.022762 -388406.000000 0 0 1
29.308149 -30.171137 15.780559 44.925396 -0.799906 1.211878 0.095226 -0.034805 126217.000000 0 0 1
30.812749 -30.365037 15.436859 45.932098 -0.778080 1.228045 0.108126 -0.035851 -20442.000000 0 0 1
31.136949 -31.199137 14.347059 46.354438 -0.786396 1.256121 0.142706 -0.028668 244001.000000 0 0 1
30.953649 -32.618737 14.591059 47.275886 -0.811584 1.257037 0.145747 -0.035708 -664742.000000 0 0 1
29.698349 -33.256437 13.985859 46.728865 -0.841856 1.266839 0.141857 -0.045967 -354754.000000 0 0 1
29.747549 -33.356137 12.578959 46.430365 -0.842521 1.296447 0.136607 -0.039717 461673.000000 0 0 1
28.971749 32.926006 12.202559 45.523473 0.849195 1.299428 0.124063 -0.046421 -38916.800000 0 0 1
29.202949 32.547306 10.735859 45.026637 0.839505 1.330044 0.126923 -0.045803 -160413.000000 0 0 1
30.536749 32.091706 10.631659 45.556589 0.810221 1.335252 0.145885 -0.043793 326612.000000 0 0 1
30.792649 31.181906 9.554259 44.852897 0.791679 1.356138 0.148193 -0.046376 -446551.000000 0 0 1
32.269549 30.788906 9.502959 45.602487 0.761922 1.360871 0.147969 -0.040376 -177215.000000 0 0 1
32.804349 30.044106 10.593659 45.727445 0.741507 1.337003 0.142578 -0.034644 674103.000000 0 0 1
34.216949 29.868006 10.508959 46.619048 0.717640 1.343420 0.146519 -0.031452 543970.000000 0 0 1
34.817549 28.986106 11.637159 46.774775 0.694255 1.319364 0.136113 -0.033685 -90162.900000 0 0 1
34.657249 27.584506 11.463359 45.754109 0.672250 1.317556 0.125683 -0.045443 157550.000000 0 0 1
34.879849 26.882306 12.685659 45.827811 0.656625 1.290322 0.129340 -0.047043 -42334.000000 0 0 1
34.678049 25.317906 12.607359 44.749402 0.630633 1.285197 0.110173 -0.046717 -135530.000000 0 0 1
35.654849 24.714606 11.793359 44.957350 0.606122 1.305367 0.103793 -0.028246 -228874.000000 0 0 1
35.660249 23.258106 11.829959 44.187564 0.577930 1.299769 0.104291 -0.030395 -592829.000000 0 0 1
34.428549 22.516006 11.311759 42.664405 0.579177 1.302454 0.091931 -0.036054 -705910.000000 0 0 1
33.304549 22.560006 12.138159 42.017637 0.595386 1.277737 0.137557 -0.053183 -1063330.000000 0 0 1
32.225349 22.630706 11.255359 40.954916 0.612244 1.292391 0.149747 -0.055048 -202201.000000 0 0 1
30.869049 22.315406 11.973359 39.927896 0.625934 1.266235 0.170932 -0.052572 397846.000000 0 0 1
30.312849 23.419606 12.615059 40.329722 0.657807 1.252659 0.181655 -0.052599 -849074.000000 0 0 1
29.031249 23.185706 13.079059 39.388478 0.673915 1.232317 0.217950 -0.041447 -712102.000000 0 0 1
25.981849 9.788706 25.576365 37.749513 0.360306 0.826399 0.122739 -0.014898 -564357.000000 0 0 1
25.425149 8.544106 25.807445 37.221824 0.324193 0.804680 0.116849 -0.023189 276588.000000 0 0 1
24.025749 8.695906 25.999455 36.453080 0.347273 0.776700 0.102132 -0.019333 230059.000000 0 0 1
23.325249 7.558206 26.772885 36.304009 0.313359 0.741489 0.106878 -0.031340 -120562.000000 0 0 1
23.549849 7.533906 28.202745 37.506666 0.309624 0.719797 0.119034 -0.021513 161107.000000 0 0 1
24.662549 6.841406 28.746155 38.488798 0.270597 0.727453 0.106738 -0.021254 3155.900000 0 0 1
24.693249 6.791106 30.323845 39.691451 0.268384 0.701323 0.110377 -0.032199 -4115.690000 0 0 1
25.040049 8.075806 30.857615 40.551389 0.311983 0.706019 0.139112 -0.037733 146095.000000 0 0 1
24.948049 8.012306 32.281458 41.577575 0.310754 0.681839 0.148424 -0.044186 55221.100000 0 0 1
25.179849 9.330306 33.102619 42.624674 0.354861 0.681534 0.164725 -0.048743 266868.000000 0 0 1
26.438449 9.923306 32.834391 43.307746 0.359065 0.710303 0.145073 -0.049322 -117546.000000 0 0 1
26.766949 10.738706 -33.420701 44.144452 0.381534 2.429622 0.150414 -0.043134 224818.000000 0 0 1
28.044749 11.605106 33.629445 45.300398 0.392352 0.734202 0.125127 -0.047545 138794.000000 0 0 1
27.939449 12.763506 32.791737 44.931258 0.428517 0.752738 0.126177 -0.046984 27122.800000 0 0 1
27.116949 13.779506 33.281805 45.087496 0.470147 0.740457 0.106905 -0.048709 -716954.000000 0 0 1
26.874249 14.944606 32.262726 44.569609 0.507510 0.761397 0.092041 -0.044953 -386008.000000 0 0 1
28.024049 15.672306 31.862638 45.234900 0.509913 0.789245 0.100125 -0.031965 323047.000000 0 0 1
28.131149 16.983006 32.459939 46.189086 0.543142 0.791524 0.081669 -0.035507 -75571.400000 0 0 1
28.932349 17.123406 -33.540821 47.489773 0.534400 2.355018 0.085706 -0.034458 -718972.000000 0 0 1
28.224649 16.581106 -32.477661 46.112497 0.531155 2.352252 0.074733 -0.034612 142287.000000 0 0 1
28.988949 16.147006 -31.391351 45.678243 0.508206 2.328462 0.083993 -0.046897 -11601.300000 0 0 1
28.005149 15.658106 -30.259471 44.103291 0.509815 2.326917 0.083685 -0.036099 836334.000000 0 0 1
27.177349 14.525806 -30.637001 43.453805 0.490851 2.353287 0.091486 -0.029991 783903.000000 0 0 1
26.195049 14.282906 -29.625251 42.045660 0.499191 2.352652 0.111449 -0.035147 710805.000000 0 0 1
25.252849 13.078906 -30.055691 41.377636 0.477879 2.383830 0.104658 -0.030225 -603000.000000 0 0 1
24.241649 13.381906 -30.979461 41.550691 0.504394 2.412205 0.112646 -0.037415 -162067.000000 0 0 1
23.672949 12.250006 -31.551061 41.303034 0.477525 2.440119 0.108904 -0.041125 -352028.000000 0 0 1
22.751549 11.399606 -30.649101 39.836559 0.464485 2.448653 0.108509 -0.036979 -395736.000000 0 0 1
21.525849 12.104706 -30.427791 39.188475 0.512263 2.459805 0.119735 -0.032728 567663.000000 0 0 1
20.707849 11.454006 -29.471031 37.796176 0.505238 2.465040 0.113987 -0.020710 601322.000000 0 0 1
19.497049 12.288406 -28.940661 36.995969 0.562380 2.469090 0.118130 -0.017603 392198.000000 0 0 1
18.429249 12.554606 -29.816081 37.232433 0.598019 2.499442 0.103170 -0.017295 -504106.000000 0 0 1
17.399349 13.086006 -29.045611 36.299152 0.644842 2.498380 0.102016 -0.025240 151745.000000 0 0 1
16.001949 13.104606 -29.760281 36.241791 0.686182 2.534236 0.109664 -0.035319 836123.000000 0 0 1
15.327049 11.909106 -30.053321 35.776352 0.660558 2.568141 0.102774 -0.022378 -437523.000000 0 0 1
14.061749 11.683706 -29.508751 34.713227 0.693292 2.586919 0.098783 -0.031222 310896.000000 0 0 1
13.051949 11.123206 -30.588981 35.068003 0.705785 2.630634 0.097860 -0.027706 662408.000000 0 0 1
12.613949 12.090806 -31.595801 36.105317 0.764226 2.636441 0.113675 -0.031939 77096.500000 0 0 1
11.504449 11.640106 -32.335151 36.240949 0.791259 2.673049 0.110940 -0.024855 -37273.000000 0 0 1
11.031349 12.514806 -33.534451 37.454912 0.848317 2.679965 0.134097 -0.033514 -71119.200000 0 0 1
11.928449 12.660706 32.692754 37.032385 0.815169 0.488974 0.112147 -0.023651 270602.000000 0 0 1
11.262049 13.172506 31.516436 35.967130 0.863426 0.502759 0.128975 -0.034629 378973.000000 0 0 1
12.134749 13.086406 30.184065 35.065424 0.823113 0.533971 0.133482 -0.027096 307752.000000 0 0 1
12.409549 11.731706 29.806825 34.352244 0.757327 0.520276 0.108856 -0.025658 53852.800000 0 0 1
12.586449 11.661106 28.434155 33.209957 0.747254 0.542940 0.125406 -0.015791 -223217.000000 0 0 1
13.127649 10.299806 27.907545 32.515416 0.665273 0.538875 0.120529 -0.018000 113453.000000 0 0 1
12.350149 9.136506 28.175975 32.091860 0.636934 0.499173 0.119843 -0.023231 239732.000000 0 0 1
13.056449 8.096106 27.627085 31.611290 0.555057 0.507499 0.100262 -0.023350 65254.300000 0 0 1
12.176149 6.800906 27.661635 30.978654 0.509379 0.466994 0.101293 -0.021089 866596.000000 0 0 1
11.044749 6.820706 26.778085 29.758601 0.553225 0.451386 0.105359 -0.027021 1067900.000000 0 0 1
10.013649 5.846506 27.073215 29.451889 0.528463 0.404663 0.109129 -0.038165 32731.700000 0 0 1
10.311049 4.361106 26.546145 28.810324 0.400137 0.399101 0.119027 -0.033560 -466124.000000 0 0 1
11.384949 3.841706 27.268485 29.798424 0.325440 0.415045 0.113367 -0.027831 -130063.000000 0 0 1
11.610349 2.530406 26.796665 29.313212 0.214588 0.417391 0.131727 -0.026707 -213525.000000 0 0 1
12.149549 1.591706 27.860525 30.436063 0.130268 0.414349 0.092147 -0.021960 -110488.000000 0 0 1
11.194749 1.214106 28.816865 30.938781 0.108031 0.372513 0.068719 -0.015943 146158.000000 0 0 1
11.734849 0.201406 29.661785 31.899353 0.017161 0.376777 0.071496 -0.016451 295732.000000 0 0 1
10.718149 -0.123594 30.772555 32.585950 -0.011531 0.335182 0.076326 -0.008494 31486.500000 0 0 1
10.590549 0.967806 31.651278 33.390115 0.091131 0.324144 0.045683 -0.016538 22880.400000 0 0 1
9.258349 1.241506 32.035987 33.370089 0.133301 0.283719 0.055506 -0.019515 -344879.000000 0 0 1
9.189149 2.494406 33.002127 34.348259 0.265064 0.280889 0.049770 -0.025951 -313206.000000 0 0 1
9.424449 3.792406 32.454744 34.007543 0.382574 0.303355 0.046775 -0.032137 730456.000000 0 0 1
10.713649 4.019406 31.879937 33.871349 0.358917 0.344612 0.051564 -0.029453 66706.100000 0 0 1
10.747249 5.337206 31.072345 33.308854 0.460933 0.368537 0.063673 -0.033826 43682.300000 0 0 1
10.807349 6.474906 31.878199 34.277438 0.539773 0.376369 0.073118 -0.034330 105418.000000 0 0 1
10.810349 7.632706 31.076215 33.776515 0.614778 0.402578 0.081651 -0.028358 -273615.000000 0 0 1
10.996749 8.933306 31.939570 34.940930 0.682231 0.417509 0.093903 -0.036182 426654.000000 0 0 1
9.887549 9.447906 32.705747 35.449858 0.762664 0.396051 0.118851 -0.044041 395892.000000 0 0 1
9.446349 8.524406 -33.567651 35.898276 0.734141 2.779272 0.102510 -0.039873 289453.000000 0 0 1
8.033349 9.017806 -33.113141 35.246782 0.843070 2.791864 0.108588 -0.046013 378957.000000 0 0 1
7.479749 8.248206 -32.067661 33.945757 0.834219 2.807394 0.110824 -0.038618 47370.800000 0 0 1
6.103049 8.557906 -31.927171 33.612932 0.951301 2.823545 0.103617 -0.038554 417011.000000 0 0 1
5.431849 7.864506 -30.712191 32.165107 0.966353 2.839882 0.092210 -0.029644 -115364.000000 0 0 1
5.880549 8.541606 -29.544411 31.311533 0.967858 2.804026 0.103372 -0.040072 144330.000000 0 0 1
5.590849 7.969806 -28.281181 29.909874 0.959062 2.810066 0.090571 -0.035397 228316.000000 0 0 1
4.112249 7.805806 -27.815131 29.180862 1.085924 2.834438 0.089845 -0.030619 -17930.200000 0 0 1
3.439449 6.803806 -28.441371 29.445427 1.102744 2.879698 0.084142 -0.020689 -609818.000000 0 0 1
2.098849 6.708706 -28.020441 28.888700 1.267588 2.895800 0.110219 -0.024121 -303385.000000 0 0 1
1.155149 6.145306 -29.047171 29.712578 1.384992 2.929560 0.114004 -0.040061 -677742.000000 0 0 1
0.839949 7.031206 -30.139411 30.960095 1.451900 2.910830 0.098178 -0.036015 206801.000000 0 0 1
0.185849 6.349606 -31.223701 31.863326 1.541535 2.940886 0.122728 -0.041385 -270892.000000 0 0 1
-0.051551 7.218106 -32.479851 33.272277 -1.563655 2.922908 0.141075 -0.052487 1101330.000000 0 0 1
1.206549 7.723206 -33.025781 33.938266 1.415825 2.909179 0.101278 -0.039210 1639770.000000 0 0 1
2.107549 6.831906 33.586365 34.338908 1.271572 0.209741 0.112445 -0.044121 272881.000000 0 0 1
1.782549 6.508906 32.099320 32.801062 1.303487 0.207223 0.136845 -0.053944 -296351.000000 0 0 1
0.639249 5.703606 31.937716 32.449306 1.459184 0.177806 0.151865 -0.053938 -237018.000000 0 0 1
0.335649 5.395306 30.585725 31.059758 1.508665 0.174934 0.181156 -0.059557 210686.000000 0 0 1
1.385249 4.497206 29.845525 30.214221 1.271994 0.156382 0.192307 -0.055398 312869.000000 0 0 1
1.057549 4.534606 28.494825 28.872757 1.341674 0.161977 0.165446 -0.047121 346129.000000 0 0 1
1.864749 3.672206 27.689015 27.993641 1.100928 0.147660 0.135632 -0.034711 103070.000000 0 0 1
1.883249 4.207206 26.205225 26.607537 1.149919 0.174118 0.136278 -0.032693 363897.000000 0 0 1
2.664249 5.404606 26.040695 26.728745 1.112797 0.227390 0.130524 -0.029078 236347.000000 0 0 1
2.536349 5.943006 24.764925 25.594021 1.167420 0.255228 0.108311 -0.027398 -836586.000000 0 0 1
3.322649 7.283206 24.655315 25.922377 1.142793 0.313951 0.113869 -0.029060 471103.000000 0 0 1
4.738749 7.210706 24.656995 26.123121 0.989389 0.336620 0.094183 -0.022460 6599.330000 0 0 1
5.262849 6.740106 23.460765 24.970665 0.907857 0.349532 0.071390 -0.019254 -892055.000000 0 1 0
6.787249 6.461206 23.541545 25.338080 0.760793 0.378831 0.108243 -0.024616 126240.000000 0 0 1
7.174949 5.359306 24.388065 25.980373 0.641544 0.351924 0.122363 -0.026246 122915.000000 0 0 1
6.576949 4.049206 24.305085 25.502735 0.551859 0.307681 0.117736 -0.025078 -619361.000000 0 0 1
6.748049 3.396706 22.902055 24.115926 0.466333 0.318631 0.141171 -0.027591 343340.000000 0 1 0
5.928849 3.945306 21.844465 22.976017 0.587154 0.315147 0.078316 -0.021497 367933.000000 0 1 0
4.564349 3.518706 21.936265 22.680703 0.656750 0.256919 0.075940 -0.021962 -71631.200000 0 1 0
3.789449 4.276406 20.885665 21.653142 0.845698 0.267041 0.030682 -0.016860 -441395.000000 0 1 0
3.441149 5.579006 21.242365 22.230719 1.018113 0.299307 0.018640 -0.009849 22226.100000 0 1 0
2.188049 5.876506 20.647565 21.578759 1.214361 0.294847 0.018751 -0.002851 402936.000000 0 1 0
1.692949 7.340306 20.787865 22.110665 1.344123 0.347657 0.024241 0.012115 45679.200000 0 1 0
2.445849 8.214706 19.983465 21.744021 1.281414 0.405177 0.017687 0.006668 -224575.000000 0 1 0
1.915649 9.523706 19.989465 22.224972 1.372300 0.452368 0.034779 -0.006231 37944.500000 0 1 0
2.806849 10.573206 19.309265 22.192765 1.311313 0.515451 0.046642 -0.019430 -643814.000000 0 1 0
2.912349 10.390306 17.926165 20.923375 1.297514 0.541856 0.032940 -0.020724 228407.000000 0 1 0
3.859949 11.234706 17.282165 20.971196 1.239858 0.602201 0.047867 -0.030925 -399825.000000 0 1 0
5.352749 11.132806 17.565965 21.474506 1.122619 0.612886 0.056647 -0.024899 -1098160.000000 0 1 0
5.870449 9.970606 17.015065 20.576384 1.038671 0.597185 0.051740 -0.018812 -737046.000000 0 1 0
7.104749 9.736606 17.619365 21.347622 0.940418 0.599966 0.054150 -0.004078 -463075.000000 0 1 0
7.322749 8.233006 18.097165 21.187554 0.843847 0.546899 0.066232 -0.005993 70630.500000 0 1 0
6.712549 7.933906 19.380165 21.990816 0.868595 0.492223 0.078452 -0.011011 -8537.940000 0 1 0
6.727749 6.572406 19.769065 21.892352 0.773719 0.444066 0.073660 -0.020705 1555640.000000 0 1 0
8.111149 5.764106 20.061665 22.393885 0.617831 0.460446 0.136677 -0.025096 1680980.000000 0 1 0
8.955649 5.682106 18.903065 21.675236 0.565381 0.511310 0.119530 -0.026849 291160.000000 0 1 0
10.245949 5.144606 19.152965 22.322243 0.465335 0.539391 0.150343 -0.031431 351125.000000 0 1 0
10.251749 3.605206 19.242565 22.099144 0.338159 0.514095 0.157901 -0.032720 -564329.000000 0 1 0
9.577149 2.986406 20.333165 22.673288 0.302271 0.458337 0.190306 -0.038484 122563.000000 0 1 0
9.551549 1.617806 20.161265 22.367968 0.167784 0.447930 0.185662 -0.046992 -146184.000000 0 1 0
8.702649 0.928006 21.222465 22.956270 0.106233 0.391144 0.180365 -0.044490 -509017.000000 0 1 0
9.307549 1.023106 22.523755 24.392555 0.109483 0.393986 0.224733 -0.040590 315537.000000 0 1 0
8.846749 0.048806 23.446645 25.060178 0.005517 0.360803 0.206677 -0.037391 -73069.600000 0 0 1
9.863049 -0.074094 24.609465 26.512469 -0.007512 0.381191 0.199656 -0.032386 611392.000000 0 0 1
11.153049 -0.662894 24.446025 26.878208 -0.059366 0.428690 0.203993 -0.034144 693862.000000 0 0 1
11.219149 -2.040194 24.270465 26.815801 -0.179884 0.439227 0.201513 -0.028338 68585.500000 0 0 1
12.701049 -2.498594 24.391735 27.613699 -0.194243 0.487898 0.181573 -0.023465 428392.000000 0 0 1
12.875449 -3.866394 24.311765 27.781075 -0.291725 0.505113 0.169545 -0.012876 -240639.000000 0 0 1
14.163449 -4.244294 24.716015 28.801019 -0.291150 0.539113 0.150863 -0.003900 -268688.000000 0 0 1
14.253749 -5.749794 25.033775 29.375490 -0.383424 0.550622 0.150006 -0.013083 -69848.400000 0 0 1
14.266549 -6.510894 23.849195 28.543130 -0.428143 0.581664 0.174183 -0.016575 157363.000000 0 0 1
13.945449 -7.837194 24.093465 28.920446 -0.512001 0.586117 0.174852 -0.030720 -37025.600000 0 0 1
13.818049 -8.740594 22.826895 28.078526 -0.564009 0.621568 0.191381 -0.040089 -280234.000000 0 0 1
12.964349 -9.797494 22.943915 28.115627 -0.647156 0.616243 0.193860 -0.025738 -805372.000000 0 0 1
12.903749 -10.507194 21.701665 27.347214 -0.683384 0.654158 0.179108 -0.031071 -20484.600000 0 0 1
12.159849 -11.814894 21.704765 27.541795 -0.771011 0.663135 0.203021 -0.026136 398651.000000 0 0 1
10.743449 -11.685694 21.713865 26.897380 -0.827383 0.631258 0.199050 -0.025692 186107.000000 0 0 1
10.088149 -12.961194 21.786665 27.284099 -0.909406 0.645978 0.179986 -0.029241 -562216.000000 0 0 1
8.594649 -12.867794 21.978765 26.879625 -0.981927 0.613438 0.131853 -0.025461 -811565.000000 0 0 1
7.899649 -12.137594 21.008965 25.516705 -0.993830 0.603522 0.115375 -0.035067 -655853.000000 0 0 1
6.506149 -12.232894 21.158765 25.291639 -1.081989 0.579765 0.063058 -0.032373 -415349.000000 0 0 1
5.748449 -11.076094 20.570865 24.060029 -1.092068 0.545282 0.054665 -0.033870 -510355.000000 0 1 0
6.007449 -9.887594 21.263865 24.207559 -1.024826 0.498297 0.078103 -0.027072 -255399.000000 0 1 0
5.311549 -8.777794 20.755165 23.152518 -1.026626 0.459095 0.060810 -0.027000 49291.000000 0 1 0
5.741449 -7.439394 21.445365 23.413938 -0.913512 0.412995 0.088712 -0.035025 161533.000000 0 1 0
4.897649 -6.342494 21.175965 22.641459 -0.913240 0.361764 0.077922 -0.032143 -253067.000000 0 1 0
5.325749 -5.177394 21.836265 23.064940 -0.771274 0.327872 0.106344 -0.041150 134351.000000 0 1 0
-9.399251 -15.176994 -20.362941 27.080185 1.016300 2.421811 0.079330 -0.006015 -258718.000000 0 0 1
-8.638151 -14.506794 -19.374641 25.699055 1.033725 2.424782 0.067375 -0.001735 -167345.000000 0 0 1
-7.610551 -13.755394 -19.974441 25.418687 1.065440 2.474813 0.068714 -0.013010 627476.000000 0 0 1
-6.548351 -13.143894 -18.964641 23.985421 1.108586 2.482705 0.038287 -0.006437 140883.000000 0 1 0
-5.770451 -14.049994 -18.316741 23.795029 1.181093 2.449280 0.055197 -0.003872 -567673.000000 0 1 0
-5.202551 -13.505794 -17.143341 22.435845 1.203106 2.440449 0.069252 -0.010638 -372715.000000 0 1 0
-4.215451 -14.355394 -16.384341 22.187699 1.285176 2.401554 0.061191 -0.007658 -747050.000000 0 1 0
-3.022551 -14.538194 -17.069741 22.624565 1.365812 2.425655 0.057221 -0.012937 -762766.000000 0 1 0
-2.065951 -15.225994 -16.304541 22.403953 1.435934 2.385836 0.060508 -0.015994 464043.000000 0 1 0
-0.680651 -15.463894 -16.984841 22.979994 1.526809 2.402551 0.073112 -0.018252 533963.000000 0 1 0
-0.652551 -16.376094 -18.098241 24.416154 1.530970 2.405713 0.120978 -0.031123 -172467.000000 0 1 0
-0.764751 -17.722194 -17.775241 25.112152 1.527671 2.357224 0.122503 -0.026126 -247789.000000 0 0 1
-0.860651 -18.543394 -19.068841 26.612382 1.524417 2.369626 0.148577 -0.036323 -58989.300000 0 0 1
-2.138851 -18.332294 -19.617741 26.935171 1.454650 2.386681 0.141119 -0.030247 -98206.000000 0 0 1
-2.301251 -18.964394 -20.859141 28.285115 1.450041 2.400098 0.133086 -0.027252 142473.000000 0 0 1
-3.546451 -18.515294 -21.670541 28.722913 1.381547 2.425641 0.140609 -0.031109 301223.000000 0 0 1
-3.511151 -17.137794 -22.051741 28.148027 1.368715 2.470947 0.126236 -0.040947 -59628.700000 0 0 1
-4.124451 -16.208794 -21.126141 26.945313 1.321627 2.471941 0.090966 -0.023205 120214.000000 0 0 1
-3.149651 -15.247894 -20.399241 25.662182 1.367098 2.489663 0.099320 -0.012992 57126.600000 0 0 1
-2.758051 -14.179994 -21.241441 25.688088 1.378692 2.544366 0.092135 -0.017033 -85543.300000 0 0 1
-2.009351 -13.212094 -20.537541 24.502806 1.419869 2.564717 0.083286 -0.021170 122319.000000 0 1 0
-1.421751 -12.155594 -21.512341 24.749962 1.454363 2.624352 0.083442 -0.031674 458176.000000 0 1 0
-2.420051 -11.239694 -21.970941 24.797371 1.358721 2.659483 0.073867 -0.033488 316710.000000 0 1 0
-2.072051 -10.616794 -23.139841 25.543334 1.378052 2.704309 0.082014 -0.027553 -151442.000000 0 0 1
-3.060551 -9.481194 -23.442841 25.472079 1.258554 2.739732 0.069632 -0.027922 778101.000000 0 0 1
-4.432251 -9.801894 -23.735241 26.059233 1.146128 2.716060 0.116551 -0.042139 709956.000000 0 0 1
-5.054951 -8.625594 -24.158941 26.145895 1.040704 2.749222 0.077254 -0.032221 -37569.000000 0 0 1
-6.589951 -8.623594 -23.874741 26.225885 0.918284 2.714926 0.083467 -0.044976 927429.000000 0 0 1
-7.462251 -9.233394 -24.848141 27.538534 0.891087 2.695882 0.118761 -0.057988 506721.000000 0 0 1
-7.835651 -8.333694 -25.877261 28.292764 0.816190 2.725375 0.119707 -0.059386 -244.534000 0 0 1
-9.001351 -8.750394 -26.831221 29.622763 0.771262 2.703974 0.087252 -0.046840 729704.000000 0 0 1
-10.039451 -7.775294 -26.874361 29.723341 0.658981 2.700182 0.112379 -0.058188 464974.000000 0 0 1
-11.002251 -8.042194 -27.887371 31.039199 0.631203 2.687038 0.097252 -0.051975 694858.000000 0 0 1
-11.982151 -6.916494 -28.393881 31.585159 0.523511 2.688192 0.073768 -0.048391 493759.000000 0 0 1
-11.293251 -5.949294 -29.171051 31.841511 0.484858 2.729121 0.057521 -0.031939 296468.000000 0 0 1
-12.088251 -5.253494 -30.120881 32.878450 0.409970 2.729110 0.071695 -0.023541 -99851.900000 0 0 1
-11.250551 -4.148194 -30.788281 33.040893 0.353245 2.770202 0.047347 -0.009883 62473.900000 0 0 1
-10.260851 -4.619394 -31.696771 33.634939 0.423017 2.800460 0.044553 -0.013850 183013.000000 0 0 1
-9.911551 -3.538694 -32.536321 34.196102 0.342921 2.828751 0.046228 -0.008757 -243451.000000 0 0 1
-8.883651 -3.873694 -33.634801 35.003208 0.411191 2.861053 0.040106 -0.006454 -824620.000000 0 0 1
-7.572851 -3.867094 -33.185991 34.258028 0.472133 2.890764 0.057254 -0.009417 -765363.000000 0 0 1
-6.690251 -4.154494 33.027203 33.953135 0.555701 0.234076 0.062990 -0.008231 705369.000000 0 0 1
-5.207751 -3.884394 33.447415 34.072551 0.640864 0.191852 0.104210 -0.018824 346328.000000 0 0 1
-4.887051 -2.518894 33.555495 34.002931 0.475909 0.162405 0.127719 -0.026736 372031.000000 0 0 1
-3.488451 -2.354294 -33.537021 33.800055 0.593669 3.016755 0.136978 -0.032681 537964.000000 0 0 1
-3.078951 -0.863094 -33.103781 33.257859 0.273306 3.045297 0.147932 -0.038241 153709.000000 0 0 1
-3.664251 -0.668794 -31.824561 32.041796 0.180531 3.025082 0.148941 -0.044774 370923.000000 0 0 1
-4.011651 0.686606 -31.582451 31.843617 -0.169511 3.013430 0.166069 -0.044759 -694574.000000 0 0 1
-4.461251 0.989106 -30.118511 30.463187 -0.218181 2.991021 0.159670 -0.055431 457730.000000 0 0 1
-5.591951 0.289706 -29.651441 30.175516 -0.051761 2.954948 0.132859 -0.052350 193329.000000 0 0 1
-6.850251 0.672806 -30.175801 30.950889 -0.097902 2.917326 0.137551 -0.052596 -267476.000000 0 0 1
-7.874651 -0.472994 -30.206341 31.219495 0.059993 2.886134 0.112346 -0.047124 -76852.200000 0 0 1
-8.278751 -0.885794 -28.923641 30.098162 0.106591 2.861309 0.109944 -0.043902 145978.000000 0 0 1
-9.236651 -1.935794 -28.962071 30.460869 0.206587 2.826591 0.067110 -0.027872 162354.000000 0 0 1
-9.612151 -2.643994 -27.596391 29.341863 0.268429 2.794932 0.077386 -0.034612 100885.000000 0 0 1
-10.399651 -1.860394 -26.707691 28.721326 0.177018 2.764912 0.083913 -0.032254 221893.000000 0 0 1
-10.673151 -2.516194 -25.503501 27.761051 0.231522 2.735520 0.083035 -0.035619 -381075.000000 0 0 1
-11.792151 -1.941994 -24.671041 27.413252 0.163220 2.690492 0.111350 -0.033787 -144666.000000 0 0 1
-11.282151 -0.812694 -23.945041 26.482303 0.071909 2.700276 0.111236 -0.033035 -221435.000000 0 0 1
-12.303451 -0.174994 -23.270841 26.323707 0.014222 2.655202 0.130902 -0.040719 -295846.000000 0 0 1
-11.839951 1.163006 -22.605541 25.545009 -0.097913 2.657140 0.140128 -0.044030 182480.000000 0 0 1
-11.426451 2.195606 -23.478341 26.203377 -0.189837 2.681484 0.105701 -0.040267 999.392000 0 0 1
-10.718251 3.206806 -22.789341 25.387370 -0.290715 2.685237 0.120193 -0.039710 -350980.000000 0 0 1
-10.374251 4.406506 -23.611941 26.164214 -0.401662 2.696224 0.155567 -0.049338 80330.700000 0 0 1
-11.442351 5.322306 -23.785741 26.926117 -0.435374 2.653802 0.152522 -0.046129 -169153.000000 0 0 1
-12.304251 4.954106 -24.812041 28.134945 -0.382775 2.650661 0.131589 -0.042504 -441162.000000 0 0 1
-13.698051 5.598206 -24.883941 28.951460 -0.387972 2.605098 0.110913 -0.021909 166049.000000 0 0 1
-13.588451 6.983406 -25.244441 29.507554 -0.474723 2.597360 0.113576 -0.023895 178471.000000 0 0 1
-14.882351 7.496706 -25.542111 30.497285 -0.466628 2.563526 0.119096 -0.015403 341836.000000 0 0 1
-14.893851 9.002106 -25.728921 31.061907 -0.543661 2.546883 0.144095 -0.016008 -118563.000000 0 0 1
-14.752451 9.555906 -24.423041 30.090448 -0.574792 2.517775 0.196922 -0.036647 -103137.000000 0 0 1
-14.827851 10.962406 -24.422941 30.602607 -0.636626 2.494877 0.195368 -0.026188 -40277.800000 0 0 1
-14.669751 11.515406 -23.025141 29.630445 -0.665513 2.460805 0.206102 -0.043447 315296.000000 0 0 1
-15.778351 11.182706 -22.206941 29.447538 -0.616566 2.425108 0.224460 -0.046560 161042.000000 0 0 1
-15.595751 11.716506 -20.891741 28.582666 -0.644309 2.390470 0.218202 -0.042857 408129.000000 0 0 1
-16.803951 11.355506 -19.993041 28.478798 -0.594274 2.349044 0.213128 -0.046006 830349.000000 0 0 1
-18.083151 11.926406 -20.252741 29.654899 -0.583047 2.322587 0.191983 -0.035981 603391.000000 0 0 1
-18.634951 12.509706 -19.076041 29.455890 -0.591206 2.275245 0.170830 -0.025661 507700.000000 0 0 1
-20.143451 12.890406 -19.269041 30.711840 -0.569264 2.249024 0.136492 -0.019083 499530.000000 0 0 1
-20.336351 14.005906 -20.065941 31.817834 -0.603110 2.253188 0.114856 -0.021911 915577.000000 0 0 1
-21.723351 14.387606 -20.031141 32.865693 -0.584981 2.226207 0.091790 -0.019954 907463.000000 0 0 1
-21.966751 15.717606 -20.757241 34.065295 -0.621065 2.226020 0.091000 -0.016370 -98262.200000 0 0 1
-21.617551 15.712306 -22.127041 34.695835 -0.628507 2.262361 0.101380 -0.018037 180136.000000 0 0 1
-22.033251 16.859406 -22.797941 35.908910 -0.653146 2.258653 0.090806 -0.009079 -116322.000000 0 0 1
-21.842351 16.743306 -24.309841 36.720498 -0.654011 2.294312 0.086265 -0.012096 -218386.000000 0 0 1
-20.614951 17.157006 -24.836241 36.553767 -0.694105 2.317801 0.101893 -0.013231 -248479.000000 0 0 1
-20.453151 16.577606 -26.105271 37.076051 -0.681120 2.351952 0.097755 -0.021176 297777.000000 0 0 1
-19.393951 17.307006 -27.004751 37.482187 -0.728596 2.375275 0.065379 -0.014952 312051.000000 0 0 1
-19.807451 18.604406 -27.390821 38.583884 -0.754089 2.360157 0.045059 -0.020642 424931.000000 0 0 1
-19.252751 19.645706 -26.570341 38.244022 -0.795500 2.338880 0.022935 -0.024491 -387419.000000 0 0 1
-20.068651 21.031806 -26.726061 39.488858 -0.808828 2.314203 0.076039 -0.017729 1895500.000000 0 0 1
-21.189351 21.387006 -25.847591 39.679851 -0.790041 2.280229 0.096261 -0.019193 1938470.000000 0 0 1
-22.347451 20.530806 -25.966021 39.939414 -0.743056 2.278559 0.145218 -0.022882 29493.100000 0 0 1
-23.347151 20.688506 -24.821641 39.864992 -0.725097 2.242912 0.153583 -0.012854 -150529.000000 0 0 1
-22.974951 20.361006 -23.493441 38.656962 -0.725153 2.224010 0.110921 -0.009152 558663.000000 0 0 1
-24.150151 20.616606 -22.692641 39.028581 -0.706629 2.191289 0.088635 -0.012499 913564.000000 0 0 1
-24.001751 20.185506 -21.213941 37.862514 -0.699247 2.165531 0.085860 -0.004125 549929.000000 0 0 1
-22.860751 20.853706 -20.646641 37.199123 -0.739518 2.159196 0.075155 -0.007911 261164.000000 0 0 1
-21.998451 20.022406 -19.911341 35.795112 -0.738407 2.160673 0.067711 -0.010003 -330912.000000 0 0 1
-22.485351 19.383306 -18.580841 35.022153 -0.711443 2.130040 0.081994 -0.013210 -1355690.000000 0 0 1
-23.462251 18.406006 -18.876641 35.292858 -0.665215 2.135135 0.107969 -0.018602 103223.000000 0 0 1
-24.142851 17.896206 -17.704041 34.879571 -0.637886 2.103166 0.100227 -0.017635 610087.000000 0 0 1
-25.236851 18.897206 -17.188641 35.908946 -0.642729 2.069939 0.076514 -0.014518 -695383.000000 0 0 1
-26.416131 18.902906 -17.938441 37.106866 -0.621107 2.075361 0.074402 -0.007505 -592801.000000 0 0 1
-27.313971 19.895806 -17.528741 38.067740 -0.629541 2.049312 0.059790 -0.005884 -828949.000000 0 0 1
-28.702451 19.792606 -18.214741 39.336430 -0.603698 2.052230 0.035611 0.015974 237014.000000 0 0 1
-29.466271 18.646306 -17.875341 39.185120 -0.564190 2.044490 0.032679 0.006598 197581.000000 0 0 1
-29.877281 18.562406 -16.542441 38.869875 -0.555926 2.010405 0.042318 0.000641 -1042260.000000 0 0 1
-30.882451 17.425906 -16.271741 39.014837 -0.513730 2.001010 0.042546 -0.002183 1154.220000 0 0 1
-30.271051 16.166606 -16.160941 37.932462 -0.490524 2.010913 0.067581 -0.016473 334028.000000 0 0 1
-31.260811 15.216906 -15.825641 38.200045 -0.453010 1.997952 0.075515 -0.017352 580080.000000 0 0 1
-30.545321 13.846006 -15.548041 36.965796 -0.425590 2.004910 0.136920 -0.015326 415073.000000 0 0 1
-29.699531 13.786106 -14.392441 35.766761 -0.434588 1.984930 0.146333 -0.019412 125804.000000 0 0 1
-30.377511 13.859006 -13.130741 35.878706 -0.428019 1.945478 0.095354 -0.010082 -163127.000000 0 0 1
-29.626181 14.518706 -11.947241 35.089029 -0.455667 1.918228 0.130163 -0.027317 -76947.800000 0 0 1
-29.471981 15.949306 -12.027741 35.603996 -0.496037 1.915396 0.106459 -0.013618 -265486.000000 0 0 1
-30.662961 16.526506 -11.591941 36.711247 -0.494338 1.892054 0.065022 -0.012222 -147856.000000 0 0 1
-30.543691 18.056906 -11.747541 37.376110 -0.533911 1.890522 0.118192 0.004813 -276628.000000 0 0 1
-29.579351 18.696906 -10.960041 36.669262 -0.563684 1.874325 0.053977 -0.023082 -367695.000000 0 0 1
-29.518961 20.133606 -11.093741 37.413931 -0.598582 1.871836 0.020995 -0.021809 -207384.000000 0 0 1
-28.248291 20.740906 -10.473841 36.576665 -0.633335 1.861215 0.087522 -0.016442 98554.800000 0 0 1
-28.256871 22.178406 -10.500041 37.424368 -0.665457 1.855181 0.082541 -0.022822 241993.000000 0 0 1
-27.014041 22.694406 -10.027941 36.679068 -0.698717 1.847719 0.078545 -0.014223 336382.000000 0 0 1
-27.129041 24.198906 -9.542141 37.584895 -0.728374 1.827488 0.112016 -0.004354 127719.000000 0 0 1
-27.211251 24.289206 -8.098341 37.363094 -0.728721 1.789277 0.103539 -0.012987 182404.000000 0 0 1
-28.556931 24.435706 -7.675741 38.360383 -0.707785 1.772252 0.137390 -0.016702 78819.100000 0 0 1
-28.719051 24.173406 -6.154941 38.039726 -0.699668 1.733314 0.140014 -0.012415 -64448.700000 0 0 1
-28.793671 22.805706 -5.992041 37.216666 -0.669868 1.732504 0.138409 -0.021378 148502.000000 0 0 1
-29.190671 22.397806 -4.680141 37.089900 -0.654477 1.697317 0.150336 -0.024833 -237856.000000 0 0 1
-29.434421 20.849906 -4.621641 36.365688 -0.616309 1.698229 0.147378 -0.022110 763736.000000 0 0 1
-28.332591 19.890806 -4.664541 34.930471 -0.612098 1.704734 0.149313 -0.019280 981531.000000 0 0 1
-27.591081 19.858506 -5.891041 34.501194 -0.623854 1.742386 0.118222 -0.010309 -24833.900000 0 0 1
-28.333431 19.086406 -7.028541 34.877996 -0.592812 1.773704 0.124830 -0.020049 95628.900000 0 0 1
-27.995051 17.686606 -7.023241 33.850625 -0.563457 1.779792 0.131579 -0.021065 201442.000000 0 0 1
-28.562381 17.057806 -8.126541 34.246445 -0.538367 1.810378 0.098604 -0.018876 -211526.000000 0 0 1
-28.254931 15.578606 -8.304741 33.316704 -0.503886 1.822719 0.164825 -0.023727 -115272.000000 0 0 1
-28.802511 14.669106 -7.422941 33.164248 -0.471060 1.796532 0.153686 -0.017071 -171760.000000 0 0 1
-28.474311 13.380706 -7.883941 32.434337 -0.439297 1.816330 0.181452 -0.029748 -150066.000000 0 0 1
-29.168851 12.298506 -7.081941 32.438079 -0.399014 1.790891 0.181834 -0.030929 489082.000000 0 0 1
-30.593521 12.311906 -7.295441 33.775287 -0.382604 1.788512 0.187969 -0.031631 785999.000000 0 0 1
-31.231131 11.301006 -6.526141 33.847995 -0.347193 1.764819 0.217259 -0.036818 75261.800000 0 0 1
-31.605281 10.076606 -7.385441 33.984945 -0.308638 1.789859 0.173047 -0.026438 112074.000000 0 0 1
-30.493301 9.347406 -7.905441 32.858962 -0.297446 1.813767 0.194416 -0.025079 369380.000000 0 0 1
-30.950681 8.083706 -8.334841 33.056928 -0.255473 1.825683 0.179659 -0.016859 -428710.000000 0 0 1
-29.919371 7.066206 -8.798541 31.976778 -0.231925 1.849546 0.249775 -0.023752 -500755.000000 0 0 1
-29.240361 7.373906 -10.012241 31.774489 -0.247032 1.891362 0.261451 -0.042507 351512.000000 0 0 1
-28.342891 6.311806 -10.275741 30.801773 -0.219119 1.910925 0.255993 -0.049492 -353940.000000 0 0 1
-27.193751 6.714006 -11.233241 30.178861 -0.242054 1.952198 0.190199 -0.045234 87018.500000 0 0 1
-26.135811 7.412306 -10.605741 29.163412 -0.276351 1.942997 0.239001 -0.057137 879556.000000 0 0 1
-24.957511 7.577806 -11.401941 28.465852 -0.294782 1.982911 0.193856 -0.033107 591307.000000 0 0 1
-33.689011 24.770406 -33.086361 53.321944 -0.634005 2.240179 0.052458 -0.017527 135264.000000 0 0 1
-34.070734 26.148906 -33.270031 54.327480 -0.654600 2.229886 0.060393 -0.030627 201821.000000 0 0 1
-33.915661 26.574506 32.709503 54.096100 -0.664628 0.921463 0.061549 -0.032984 -93806.800000 0 0 1
-34.068282 28.116606 32.562582 54.877255 -0.689979 0.935556 0.079371 -0.046343 -51035.900000 0 0 1
-33.926152 28.626406 31.263390 54.294147 -0.700875 0.957196 0.104992 -0.038000 129377.000000 0 0 1
-34.129153 30.001006 31.268371 55.159500 -0.721115 0.968093 0.102838 -0.044058 -99922.400000 0 0 1
-33.985345 30.628406 29.903275 54.656278 -0.733491 0.991882 0.130304 -0.041554 1280010.000000 0 0 1
-32.599011 30.760506 29.493655 53.654263 -0.756389 0.988793 0.116627 -0.039687 1207850.000000 0 0 1
-32.505631 31.532106 28.333365 53.419746 -0.770197 1.011734 0.120921 -0.034280 -570803.000000 0 0 1
-31.127871 31.548806 27.702855 52.265856 -0.792114 1.012152 0.139922 -0.033034 -870211.000000 0 0 1
-30.879741 30.276906 27.096975 51.034258 -0.775541 1.011067 0.149994 -0.035974 128267.000000 0 0 1
-29.711611 30.197606 26.303395 49.865257 -0.793510 1.015154 0.119975 -0.023300 -109179.000000 0 0 1
-29.686471 30.968806 24.962795 49.633604 -0.806536 1.043798 0.133970 -0.025922 -305145.000000 0 0 1
-29.695801 32.377806 25.041655 50.569234 -0.828578 1.052737 0.113546 -0.030841 -310882.000000 0 0 1
-30.688321 32.890606 24.219325 51.089536 -0.820023 1.076904 0.121058 -0.030831 -387872.000000 0 0 1
-31.071321 -33.126637 24.691105 51.695761 0.817403 1.072849 0.116794 -0.028186 -194735.000000 0 0 1
-31.598971 -33.063237 25.989015 52.603246 0.808039 1.054046 0.114344 -0.044374 11279.600000 0 0 1
-31.716791 -31.764137 26.478525 52.115521 0.786144 1.037849 0.089052 -0.041046 -345787.000000 0 0 1
-32.214781 -31.828437 27.940335 53.211877 0.779366 1.017991 0.102924 -0.048673 1136920.000000 0 0 1
-33.592831 -32.277337 28.073045 54.391181 0.765430 1.028467 0.093021 -0.050693 1114530.000000 0 0 1
-33.824141 -32.605837 29.439305 55.442635 0.767061 1.011032 0.082548 -0.045053 160295.000000 0 0 1
-35.293462 -32.956637 29.768795 56.726974 0.751172 1.018348 0.099228 -0.044974 165767.000000 0 0 1
-35.410367 -33.238837 31.117235 57.680124 0.753776 1.000978 0.086877 -0.042740 1271150.000000 0 0 1
-36.809301 -33.535637 31.404745 58.871229 0.738894 1.008124 0.080735 -0.037132 1226400.000000 0 0 1
-37.195991 33.366106 32.781644 59.761818 -0.731175 0.990181 0.072229 -0.033004 -88094.500000 0 0 1
-36.814661 32.003506 32.919215 58.849115 -0.715601 0.977155 0.039035 -0.026347 68346.500000 0 0 1
-37.572291 31.430006 -33.342311 59.255650 -0.696617 2.168427 0.048172 -0.029809 443765.000000 0 0 1
-36.940621 30.094306 -32.785741 57.837544 -0.683620 2.173485 0.043319 -0.027329 1072950.000000 0 0 1
-35.888238 30.329606 -31.812841 56.744228 -0.701650 2.165950 0.045736 -0.030624 409811.000000 0 0 1
-35.405509 29.052006 -31.347301 55.499751 -0.687147 2.171010 0.047546 -0.032476 822379.000000 0 0 1
-34.465267 29.082806 -30.081271 54.208367 -0.700901 2.159062 0.043279 -0.034971 465135.000000 0 0 1
-35.192205 29.431206 -28.912411 54.227435 -0.696486 2.133139 0.062320 -0.036906 -286925.000000 0 0 1
-35.353074 30.835706 -28.748361 55.019531 -0.717254 2.120591 0.046469 -0.028677 1044480.000000 0 0 1
-36.459341 31.273806 -27.673121 55.435874 -0.708989 2.093462 0.045534 -0.020020 986522.000000 0 0 1
-36.127901 30.828906 -26.377531 54.326980 -0.706422 2.077769 0.035123 -0.034821 303220.000000 0 0 1
-37.235291 31.011306 -25.479681 54.748353 -0.694451 2.054879 0.076236 -0.033161 443184.000000 0 0 1
-36.937361 30.528206 -24.014341 53.600639 -0.690684 2.035350 0.073848 -0.038426 -599428.000000 0 0 1
-36.268431 31.382906 -23.177541 53.268042 -0.713307 2.020959 0.076680 -0.040519 -414875.000000 0 0 1
-36.274161 31.204606 -21.765341 52.566836 -0.710411 1.997696 0.069283 -0.036605 -472400.000000 0 0 1
-37.648301 31.289406 -21.090541 53.303212 -0.693417 1.977595 0.056393 -0.033606 -108621.000000 0 0 1
38.010239 32.591306 -21.086441 54.328717 0.708795 1.969395 0.064591 -0.034615 149975.000000 0 0 1
-37.864671 33.604006 -20.237641 54.520864 -0.725853 1.951087 0.060405 -0.026822 -302540.000000 0 0 1
-37.805581 33.321306 -18.676741 53.743763 -0.722435 1.925715 0.067728 -0.030378 59732.800000 0 0 1
-36.883181 32.282906 -18.368041 52.344436 -0.718985 1.929336 0.067488 -0.031792 103157.000000 0 0 1
-36.631121 32.263206 -16.948941 51.672237 -0.722083 1.904991 0.074705 -0.022171 437875.000000 0 0 1
-35.466697 31.242806 -16.682241 50.122816 -0.722165 1.910097 0.085336 -0.023649 389299.000000 0 0 1
-35.248203 30.877606 -15.340541 49.307145 -0.719399 1.887170 0.079901 -0.022738 196319.000000 0 0 1
-33.968450 30.267206 -15.237141 47.980515 -0.727842 1.893961 0.091366 -0.021889 403063.000000 0 0 1
-33.464731 30.141006 -13.806441 47.106117 -0.733191 1.868256 0.108963 -0.027025 -779960.000000 0 0 1
-34.266192 29.229706 -13.173141 46.926317 -0.706244 1.855340 0.098289 -0.024688 -219750.000000 0 0 1
-33.738081 28.791606 -11.941241 45.932645 -0.706457 1.833790 0.131682 -0.029745 8773.070000 0 0 1
-34.827206 27.989906 -11.188741 46.060363 -0.676980 1.816166 0.108356 -0.031863 90907.900000 0 0 1
-34.536017 27.563606 -9.880941 45.278271 -0.673589 1.790794 0.130990 -0.037587 213330.000000 0 0 1
-35.533052 26.643406 -9.438041 45.404245 -0.643386 1.780190 0.134753 -0.039774 -75504.700000 0 0 1
-35.121130 25.856306 -8.174541 44.371899 -0.634613 1.756083 0.128777 -0.034451 112299.000000 0 0 1
-34.795294 26.696106 -7.038841 44.417787 -0.654439 1.729936 0.145649 -0.033659 2293700.000000 0 0 1
-33.377331 27.109506 -7.166541 43.592784 -0.682144 1.735943 0.140384 -0.036882 1354530.000000 0 0 1
-32.942871 27.780106 -5.878741 43.491684 -0.700581 1.706381 0.155399 -0.030204 -248037.000000 0 0 1
-32.304341 26.818506 -5.059541 42.289498 -0.692876 1.690724 0.166366 -0.030573 181085.000000 0 0 1
-31.931701 27.298506 -3.806341 42.182107 -0.707334 1.661155 0.181118 -0.029123 -224101.000000 0 0 1
-31.163901 26.213206 -3.027441 40.834866 -0.699328 1.645003 0.176357 -0.025848 6210.700000 0 0 1
-31.957791 25.091506 -2.691641 40.720130 -0.665617 1.636946 0.153701 -0.018968 422639.000000 0 0 1
-31.228241 24.091406 -1.925041 39.488032 -0.657096 1.619566 0.151910 -0.029016 559179.000000 0 0 1
-32.133681 22.888806 -1.607441 39.484867 -0.618933 1.611518 0.144912 -0.032581 -143402.000000 0 0 1
-32.199551 22.017306 -2.692241 39.100141 -0.599755 1.639706 0.133306 -0.025996 497091.000000 0 0 1
-33.267621 21.066706 -2.503141 39.456386 -0.564510 1.634280 0.130632 -0.029738 608098.000000 0 0 1
-33.560981 20.252206 -3.757941 39.377829 -0.542949 1.666375 0.145857 -0.017930 352243.000000 0 0 1
-32.487501 19.332006 -3.999641 38.015277 -0.536779 1.676203 0.141797 -0.022262 507882.000000 0 0 1
-32.793681 18.456206 -5.049941 37.967867 -0.512616 1.704197 0.146971 -0.020964 277547.000000 0 0 1
-31.677501 17.384406 -5.283041 36.518381 -0.501916 1.715974 0.141738 -0.019152 212745.000000 0 0 1
-31.550451 16.399106 -4.303041 35.817283 -0.479341 1.691226 0.176370 -0.026372 -227291.000000 0 0 1
-30.774801 15.365306 -4.813541 34.732566 -0.463073 1.709833 0.180314 -0.032115 -615061.000000 0 0 1
-30.667161 14.098706 -3.888241 33.975972 -0.430918 1.685489 0.203792 -0.043556 -171788.000000 0 0 1
-31.878601 13.518006 -3.441341 34.796904 -0.401063 1.669856 0.188008 -0.034980 204808.000000 0 0 1
-31.693671 12.353906 -2.684741 34.122069 -0.371675 1.649558 0.193272 -0.046326 712171.000000 0 0 1
-33.111641 11.777906 -2.306041 35.219563 -0.341746 1.636319 0.193112 -0.041392 664604.000000 0 0 1
-33.724571 11.212006 -3.453241 35.706871 -0.320963 1.667659 0.206943 -0.019147 832974.000000 0 0 1
-34.832195 10.360006 -3.063741 36.469138 -0.289094 1.654905 0.185027 -0.022350 479186.000000 0 0 1
-35.511168 9.659206 -4.231941 37.043928 -0.265579 1.685287 0.136011 -0.017456 -536272.000000 0 0 1
-34.717149 8.771406 -4.941541 36.147431 -0.247474 1.707931 0.137341 -0.012730 234687.000000 0 0 1
-35.463502 8.066006 -5.968741 36.855750 -0.223641 1.733461 0.138870 -0.013748 -249450.000000 0 0 1
-34.593012 7.349006 -6.946241 36.040735 -0.209330 1.764743 0.155495 -0.020606 -578088.000000 0 0 1
-33.858031 6.260506 -6.399941 35.021699 -0.182840 1.754571 0.147761 -0.018130 362968.000000 0 0 1
-33.433351 5.348506 -7.424941 34.663024 -0.158631 1.786673 0.164211 -0.023339 -14738.500000 0 0 1
-32.492381 4.279306 -6.815641 33.474172 -0.130948 1.775839 0.197657 -0.035323 -348205.000000 0 0 1
-31.251651 4.709906 -6.338141 32.233847 -0.149583 1.768716 0.206587 -0.036734 -13025.200000 0 0 1
-30.459971 3.551506 -6.078741 31.262983 -0.116072 1.766482 0.221084 -0.041557 -121675.000000 0 0 1
-28.939781 3.764806 -5.916041 29.777243 -0.129365 1.770804 0.266939 -0.044486 -63350.600000 0 0 1
-28.389171 4.239406 -7.117541 29.573247 -0.148236 1.813858 0.263594 -0.039217 611830.000000 0 0 1
-26.971731 4.308306 -6.919741 28.176561 -0.158396 1.818919 0.286101 -0.054893 412250.000000 0 0 1
-26.080681 4.420706 -8.123841 27.672032 -0.167905 1.868762 0.254246 -0.041286 -560482.000000 0 0 1
-26.163321 3.293906 -8.986341 27.858993 -0.125239 1.899235 0.244901 -0.062273 16881.900000 0 0 1
-25.198971 3.193506 -9.963341 27.284698 -0.126060 1.944603 0.231967 -0.057671 -765798.000000 0 0 1
-25.857161 2.766606 -11.250141 28.333947 -0.106590 1.979102 0.205913 -0.060934 -401779.000000 0 0 1
-26.747481 3.630506 -11.858241 29.482642 -0.134908 1.984727 0.200567 -0.044603 391009.000000 0 0 1
-27.486021 3.058906 -12.957141 30.540559 -0.110833 2.008941 0.191548 -0.053778 159603.000000 0 0 1
-28.215891 4.119306 -13.797841 31.677840 -0.144968 2.021465 0.183448 -0.051121 -759899.000000 0 0 1
-27.413221 4.805806 -14.672241 31.461963 -0.173546 2.055955 0.142155 -0.033526 11819.600000 0 0 1
-28.105781 5.675706 -15.573741 32.629587 -0.199261 2.068363 0.174563 -0.042614 -380372.000000 0 0 1
-28.850331 5.107906 -16.748741 33.748372 -0.175233 2.090108 0.103580 -0.026759 -341595.000000 0 0 1
-30.098061 4.552406 -16.382341 34.568754 -0.150115 2.064518 0.133113 -0.037336 -283460.000000 0 0 1
-30.751631 4.088506 -17.530341 35.632731 -0.132177 2.085151 0.141749 -0.023073 -573661.000000 0 0 1
-32.209441 3.734106 -17.202141 36.705657 -0.115417 2.058559 0.143359 -0.025482 -234662.000000 0 0 1
-32.288561 2.679206 -16.243441 36.243326 -0.082787 2.035522 0.150855 -0.033262 68390.600000 0 0 1
-32.232941 1.368006 -16.831341 36.388569 -0.042416 2.051660 0.181995 -0.033340 -106738.000000 0 0 1
-32.580051 0.306206 -15.783141 36.203052 -0.009398 2.021903 0.165100 -0.024499 -209785.000000 0 0 1
-32.233871 -0.991594 -16.241241 36.107943 0.030753 2.037334 0.174439 -0.009520 313836.000000 0 0 1
-32.606851 -2.071394 -15.364241 36.104810 0.063441 2.010361 0.164425 -0.018187 -96043.200000 0 0 1
-32.391321 -3.378394 -16.121941 36.339072 0.103924 2.030467 0.163128 -0.012625 -225672.000000 0 0 1
-33.223291 -3.499394 -17.260141 37.602463 0.104943 2.047684 0.172238 -0.018861 351753.000000 0 0 1
-32.697361 -4.356494 -18.228041 37.687636 0.132457 2.075629 0.183282 -0.017014 255214.000000 0 0 1
-33.732391 -4.500594 -19.404041 39.174562 0.132637 2.089002 0.191264 -0.016448 302682.000000 0 0 1
-33.539511 -5.602594 -20.250841 39.577574 0.165516 2.107929 0.187908 -0.015926 -159136.000000 0 0 1
-34.481911 -5.536494 -21.264341 40.887983 0.159203 2.117721 0.183847 -0.023351 -517798.000000 0 0 1
-34.158403 -6.634694 -22.264041 41.309843 0.191844 2.139989 0.180045 -0.018501 -220277.000000 0 0 1
-33.033151 -6.443594 -23.075841 40.806903 0.192645 2.171822 0.170975 -0.021808 -340655.000000 0 0 1
-32.884381 -7.463194 -24.061241 41.424933 0.223172 2.190556 0.142655 -0.023575 -158372.000000 0 0 1
-31.461861 -7.635694 -24.627341 40.677493 0.238093 2.221101 0.129201 -0.012376 -340717.000000 0 0 1
-30.997431 -6.696994 -25.542311 40.719775 0.212780 2.248840 0.129428 -0.014631 -114073.000000 0 0 1
-31.098291 -7.068094 -26.935011 41.743939 0.223486 2.272138 0.102591 -0.026429 -982127.000000 0 0 1
-32.417051 -7.078394 -27.674191 43.206824 0.214980 2.265952 0.110380 -0.017972 -409505.000000 0 0 1
-33.283781 -8.080394 -27.121091 43.688172 0.238165 2.240544 0.111464 -0.025885 133559.000000 0 0 1
-34.614518 -8.069194 -27.617381 45.011070 0.229026 2.231368 0.114362 -0.032027 785335.000000 0 0 1
-35.588280 -8.968194 -26.807181 45.448642 0.246859 2.201650 0.098202 -0.027571 -327447.000000 0 0 1
-35.244408 -10.355194 -26.871281 45.513339 0.285769 2.202356 0.102885 -0.031944 240837.000000 0 0 1
-36.245031 -11.273594 -26.408101 46.240501 0.301553 2.178646 0.088391 -0.036059 81708.300000 0 0 1
-37.480691 -11.368094 -27.292191 47.737819 0.294486 2.179385 0.075787 -0.024776 -723426.000000 0 0 1
37.832339 -10.416594 -27.120461 47.700217 -0.268678 2.175551 0.071770 -0.039212 -170518.000000 0 0 1
37.183809 -10.177194 -28.332011 47.842594 -0.267157 2.204573 0.071382 -0.041236 548465.000000 0 0 1
35.903439 -9.261794 -28.308971 46.650140 -0.252460 2.222870 0.079773 -0.035051 87141.000000 0 0 1
34.780099 -9.790494 -27.688831 45.521208 -0.274396 2.224666 0.075126 -0.038358 -628252.000000 0 0 1
33.925359 -8.678994 -27.442641 44.489925 -0.250455 2.235503 0.063070 -0.018250 -479497.000000 0 0 1
32.686859 -9.040794 -26.648101 43.131056 -0.269842 2.236789 0.065936 -0.022628 -356499.000000 0 0 1
33.006129 -9.382094 -25.349821 42.661946 -0.276948 2.207070 0.041631 -0.006687 500598.000000 0 0 1
31.769029 -9.688994 -24.723641 41.405389 -0.296021 2.210692 0.025065 -0.012720 378446.000000 0 0 1
32.021559 -9.862094 -23.211441 40.760424 -0.298764 2.176645 0.016167 -0.010126 -106351.000000 0 0 1
32.689879 -11.060894 -22.987841 41.465798 -0.326266 2.158415 0.008580 -0.012043 -81795.300000 0 0 1
32.823699 -11.039794 -21.580041 40.804049 -0.324451 2.128065 0.020228 -0.015460 -346676.000000 0 0 1
33.708919 -12.071394 -20.901641 41.459479 -0.343879 2.099189 0.060076 -0.016911 94370.200000 0 0 1
35.103949 -11.944594 -21.165941 42.696108 -0.327975 2.089477 0.074610 -0.021607 436713.000000 0 0 1
35.838749 -12.555494 -20.122741 42.976518 -0.336971 2.058079 0.112439 -0.021957 -1304350.000000 0 0 1
37.319859 -12.685694 -20.352341 44.361205 -0.327665 2.047426 0.140124 -0.033818 -1095860.000000 0 0 1
38.107179 -11.506194 -20.498841 44.774458 -0.293238 2.046343 0.162259 -0.033212 422676.000000 0 0 1
37.925219 -10.747094 -21.671641 44.983133 -0.276136 2.073473 0.163972 -0.021828 -982657.000000 0 0 1
-37.654131 -11.278094 -22.914841 45.498559 0.291015 2.098602 0.127905 -0.020420 -167537.000000 0 0 1
-38.033351 -12.530794 -23.455641 46.408228 0.318268 2.100665 0.126388 -0.020789 806154.000000 0 0 1
37.002149 -12.477094 -24.078141 45.875852 -0.325226 2.123340 0.126618 -0.024788 237935.000000 0 0 1
36.695999 -13.690394 -24.927441 46.426292 -0.357083 2.137584 0.088656 -0.051293 -208606.000000 0 0 1
36.465539 -14.942294 -24.280041 46.287451 -0.388896 2.122982 0.086397 -0.064071 809277.000000 0 0 1
35.269209 -14.962694 -23.491641 44.940589 -0.401229 2.120842 0.066839 -0.048427 -31872.900000 0 0 1
-31.171191 8.016506 -18.394641 37.071152 -0.251722 2.090011 0.087996 -0.006300 -175487.000000 0 0 1
-29.930561 7.445206 -18.678741 36.057800 -0.243801 2.115333 0.085497 -0.009712 -474321.000000 0 0 1
-29.249001 8.052606 -19.736941 36.192476 -0.268656 2.147582 0.096979 -0.028924 969948.000000 0 0 1
-27.854311 7.366406 -20.047241 35.100120 -0.258543 2.178696 0.087554 -0.022596 758905.000000 0 0 1
-26.796521 7.652806 -19.162441 33.820380 -0.278184 2.173163 0.085447 -0.028901 546293.000000 0 0 1
-25.727291 6.722506 -19.348141 32.885196 -0.255584 2.199818 0.106383 -0.032891 1507130.000000 0 0 1
-24.264551 7.189506 -18.966241 31.625555 -0.288056 2.213938 0.082068 -0.031312 1587240.000000 0 0 1
-23.577451 8.074806 -19.900041 31.892167 -0.329960 2.244621 0.087033 -0.025778 -131085.000000 0 0 1
-22.363351 8.535506 -19.386741 30.802923 -0.364609 2.251551 0.093664 -0.025998 -81321.900000 0 0 1
-21.634451 9.510806 -20.381741 31.207695 -0.414183 2.282467 0.114866 -0.017487 256864.000000 0 0 1
-20.853651 8.922606 -21.411541 31.192014 -0.404297 2.327383 0.159773 -0.023123 162864.000000 0 0 1
-20.193151 9.823006 -22.248441 31.610883 -0.452751 2.351560 0.150977 -0.016666 299495.000000 0 0 1
-19.325851 9.178506 -23.424441 31.724405 -0.443395 2.401451 0.159375 -0.016658 372565.000000 0 0 1
-20.051051 8.459106 -24.402641 32.696942 -0.399224 2.413324 0.140533 -0.008942 -160258.000000 0 0 1
-19.240151 7.877106 -25.405471 32.827887 -0.388592 2.455771 0.115009 -0.004461 -212323.000000 0 0 1
-19.923951 6.776806 -26.223311 33.623666 -0.327858 2.465312 0.087921 -0.001835 -63194.600000 0 0 1
-20.178351 5.623506 -25.427921 32.944936 -0.271794 2.452512 0.117375 -0.000954 2700.860000 0 0 1
-20.795051 4.624006 -26.217851 33.781522 -0.218801 2.459254 0.098645 -0.006162 -579773.000000 0 0 1
-20.891651 3.286306 -25.459521 33.097554 -0.156024 2.448426 0.103769 -0.006979 155619.000000 0 0 1
-19.697651 2.590006 -25.177941 32.072329 -0.130738 2.473551 0.104055 -0.003159 145322.000000 0 0 1
-18.758951 3.132806 -24.282841 30.844271 -0.165476 2.477169 0.103362 -0.009261 -323864.000000 0 0 1
-18.024151 2.068306 -23.424041 29.628256 -0.114252 2.482581 0.105433 -0.020572 432206.000000 0 0 1
-18.792951 1.473806 -22.345641 29.234821 -0.078263 2.440829 0.123681 -0.017581 765206.000000 0 0 1
-19.862051 0.602606 -22.683041 30.156003 -0.030330 2.422175 0.116055 -0.016518 197984.000000 0 0 1
-20.323551 -0.246994 -21.505241 29.590253 0.012152 2.384401 0.136042 -0.019626 -126865.000000 0 0 1
-19.571751 -1.427494 -21.396841 29.033015 0.072808 2.399392 0.145191 -0.024424 311008.000000 0 0 1
-20.079051 -2.223694 -20.323641 28.655950 0.110297 2.359201 0.148274 -0.025547 -76439.200000 0 0 1
-19.239451 -3.511094 -20.107341 28.049766 0.180508 2.370063 0.131760 -0.043875 123741.000000 0 0 1
-19.323351 -4.225094 -21.333941 29.092616 0.215264 2.393976 0.131143 -0.047964 419955.000000 0 0 1
-19.507651 -5.613994 -20.974041 29.188624 0.280212 2.372539 0.141640 -0.039446 -135445.000000 0 0 1
-19.520151 -6.429394 -22.238141 30.280494 0.318181 2.395586 0.116001 -0.052142 -76034.600000 0 0 1
-18.219651 -6.506694 -22.773841 29.882111 0.343008 2.437382 0.118516 -0.044180 -71117.200000 0 0 1
-18.189951 -7.533094 -23.768841 30.863888 0.392632 2.449823 0.132542 -0.054003 339549.000000 0 0 1
-16.846351 -7.509494 -24.535541 30.695029 0.419326 2.496980 0.132754 -0.054948 -105420.000000 0 0 1
-16.766551 -8.519594 -25.538121 31.715868 0.470131 2.506836 0.135497 -0.074719 -49435.900000 0 0 1
-15.598451 -8.443194 -26.338711 31.754163 0.496127 2.548931 0.141755 -0.069856 232173.000000 0 0 1
-14.427451 -9.328994 -25.846911 31.036177 0.573991 2.554942 0.116653 -0.066669 -328079.000000 0 0 1
-13.765851 -8.876594 -24.706941 29.643304 0.572730 2.556163 0.117958 -0.056714 -166692.000000 0 0 1
-13.078851 -9.906394 -24.042641 29.107414 0.648243 2.542765 0.102806 -0.051992 -252105.000000 0 0 1
-12.156351 -9.514294 -22.889941 27.608840 0.664078 2.548257 0.126831 -0.048828 31999.300000 0 0 1
-12.803651 -8.965294 -21.731241 26.768578 0.610869 2.518057 0.125554 -0.051622 477015.000000 0 0 1
-11.851251 -8.310894 -20.879341 25.406101 0.611576 2.535401 0.118248 -0.042743 -474517.000000 0 0 1
-12.405451 -7.993894 -19.504641 24.458711 0.572418 2.493856 0.110090 -0.036408 26647.700000 0 1 0
-13.443351 -7.045094 -19.421541 24.648596 0.482708 2.478248 0.105767 -0.034772 30566.400000 0 1 0
-14.740851 -7.543594 -19.682541 25.721604 0.473001 2.442171 0.125867 -0.052420 -459002.000000 0 0 1
-15.781851 -6.405294 -19.668941 26.018490 0.385552 2.427916 0.145367 -0.035934 -282690.000000 0 0 1
-16.167351 -5.976294 -18.398141 25.210928 0.354074 2.388780 0.124255 -0.031353 309668.000000 0 0 1
-15.333951 -4.976294 -17.826241 24.034733 0.313805 2.406378 0.131451 -0.036984 -362272.000000 0 1 0
-15.537351 -4.843894 -16.290041 23.026897 0.302209 2.356659 0.151969 -0.028136 -157086.000000 0 1 0
-16.712251 -4.309594 -15.728041 23.350443 0.252372 2.309818 0.191191 -0.039494 -360999.000000 0 1 0
-16.554051 -2.896894 -15.540841 22.889874 0.173242 2.317114 0.124459 -0.047805 -222276.000000 0 1 0
-17.727851 -2.233694 -14.821541 23.215171 0.125339 2.263269 0.105960 -0.044083 -252156.000000 0 1 0
-17.738451 -2.653494 -13.477941 22.435431 0.148489 2.215227 0.140524 -0.044445 305940.000000 0 1 0
-18.451151 -1.866394 -12.548441 22.391779 0.100810 2.165670 0.132665 -0.050724 -515219.000000 0 1 0
-17.670951 -0.691794 -12.006341 21.375062 0.039129 2.167234 0.100295 -0.041439 -403549.000000 0 1 0
-17.470151 0.277506 -13.023141 21.791865 -0.015883 2.211319 0.124826 -0.040258 31412.200000 0 1 0
-16.730151 1.390906 -12.716941 21.060701 -0.082947 2.219085 0.106698 -0.022374 -1409120.000000 0 1 0
-16.289651 2.169106 -13.986541 21.579645 -0.132380 2.275930 0.110952 -0.004630 -20533.400000 0 1 0
-15.569851 1.396606 -14.927841 21.615069 -0.089460 2.333145 0.120972 -0.029097 -156935.000000 0 1 0
-14.265951 1.172406 -14.459541 20.346258 -0.081998 2.361251 0.113090 -0.023904 -1609170.000000 0 1 0
-13.510051 0.162206 -15.283541 20.399372 -0.012006 2.417674 0.099813 -0.028681 -500738.000000 0 1 0
-13.158251 0.657406 -16.508041 21.120775 -0.049920 2.468026 0.114362 -0.033487 51202.800000 0 1 0
-12.471551 -0.366994 -17.222041 21.266710 0.029418 2.514628 0.060374 -0.026128 -142282.000000 0 1 0
-11.911451 0.247306 -18.543041 22.040603 -0.020759 2.570504 0.083234 -0.035891 36659.200000 0 1 0
-10.787451 1.061906 -18.285441 21.256860 -0.098123 2.606485 0.039823 -0.019462 -428619.000000 0 1 0
-10.464751 1.889206 -19.332941 22.064512 -0.178607 2.638718 0.051590 -0.022273 650969.000000 0 1 0
-9.033251 2.525206 -19.219541 21.386141 -0.272587 2.687573 0.023048 -0.019208 -300356.000000 0 1 0
-8.039751 1.533806 -19.397841 21.053892 -0.188513 2.742316 0.026674 -0.013498 -237073.000000 0 1 0
-6.701051 1.960006 -19.274041 20.499618 -0.284555 2.794056 0.030734 -0.007484 251167.000000 0 1 0
-6.255451 3.011206 -20.311141 21.464866 -0.448635 2.812236 0.042370 -0.006536 -1493750.000000 0 1 0
-6.243951 2.509906 -21.600541 22.624542 -0.382207 2.839579 0.051794 -0.011898 96122.100000 0 1 0
-5.897251 3.562606 -22.489641 23.521345 -0.543438 2.844315 0.065323 -0.006691 -218564.000000 0 1 0
-5.333351 3.046206 -23.821241 24.600315 -0.518945 2.889252 0.101061 -0.027923 -704868.000000 0 1 0
-4.033151 2.594406 -23.633841 24.115465 -0.571630 2.941401 0.105235 -0.033241 -654728.000000 0 1 0
-3.393151 2.255606 -24.865141 25.196755 -0.586676 2.979174 0.137177 -0.038458 470083.000000 0 0 1
-1.966651 1.669806 -24.662941 24.797512 -0.703949 3.037365 0.107171 -0.035588 -405332.000000 0 1 0
-1.023551 2.678006 -24.286141 24.454775 -1.205723 3.024088 0.100492 -0.039362 919348.000000 0 1 0
0.338149 2.237006 -24.430441 24.534975 1.420771 3.049249 0.094229 -0.029858 888109.000000 0 1 0
0.841149 1.114106 -23.464541 23.506030 0.924103 3.082169 0.085020 -0.032264 -1209740.000000 0 1 0
0.367349 -0.190294 -23.654941 23.658558 -0.477958 3.124105 0.076683 -0.028232 -118891.000000 0 1 0
1.038449 -1.106294 -22.815941 22.866338 -0.817021 3.075188 0.072002 -0.023544 -161139.000000 0 1 0
0.274149 -2.446194 -22.785241 22.917814 -1.459190 3.033979 0.075128 -0.030948 580218.000000 0 1 0
-0.909651 -2.330694 -21.977541 22.119491 1.198687 3.028241 0.061151 -0.029754 252707.000000 0 1 0
-2.049651 -2.698294 -22.736541 22.987652 0.921173 2.993649 0.073554 -0.032234 199657.000000 0 1 0
-3.143351 -1.598294 -22.775241 23.046622 0.470399 2.987980 0.093960 -0.033600 78844.300000 0 1 0
-3.847151 -1.305594 -21.553841 21.933381 0.327170 2.955290 0.074599 -0.027047 1738040.000000 0 1 0
-5.008651 -0.406394 -21.573141 22.150669 0.080961 2.912740 0.059226 -0.028315 2446070.000000 0 1 0
-6.329151 -0.825494 -22.349241 23.242809 0.129695 2.863406 0.085531 -0.019750 330959.000000 0 1 0
-7.013051 -1.758194 -21.624241 22.800919 0.245640 2.818927 0.093788 -0.012261 -1705130.000000 0 1 0
-8.369951 -1.668694 -21.805541 23.416281 0.196787 2.768523 0.080044 -0.008714 -1144640.000000 0 1 0
-9.034251 -3.022894 -21.679941 23.680697 0.322893 2.727573 0.068669 -0.011977 -383716.000000 0 1 0
-8.908751 -3.909494 -22.804041 24.792625 0.413533 2.738345 0.101919 -0.008757 -2873.700000 0 1 0
-9.313951 -5.259394 -22.551241 24.959354 0.514043 2.698707 0.084772 -0.002835 -328380.000000 0 1 0
-10.440751 -5.755494 -23.464241 26.319300 0.503805 2.671491 0.095847 -0.020001 1000650.000000 0 0 1
-11.682351 -5.155994 -22.981541 26.290926 0.415637 2.634427 0.102804 -0.036780 1297700.000000 0 0 1
-12.817151 -5.578794 -23.764041 27.570490 0.410529 2.609875 0.106084 -0.053499 454325.000000 0 0 1
-14.173951 -5.375094 -23.087541 27.619324 0.362468 2.560603 0.116280 -0.056226 -353010.000000 0 0 1
-14.654651 -4.061394 -23.265941 27.794922 0.270355 2.562679 0.119153 -0.050517 -267317.000000 0 0 1
-16.062251 -4.135594 -23.147441 28.476359 0.251999 2.519851 0.122788 -0.050541 328256.000000 0 0 1
-16.817451 -2.826294 -23.519241 29.051149 0.166501 2.514233 0.109463 -0.045771 -49788.800000 0 0 1
-16.503351 -2.403594 -24.867741 29.942317 0.144626 2.550840 0.102343 -0.044312 -21409.800000 0 0 1
-17.060251 -1.191794 -25.316971 30.551948 0.069745 2.547494 0.093499 -0.033080 -3443.290000 0 0 1
-18.517651 -1.357594 -25.813851 31.797820 0.073183 2.518045 0.118147 -0.029803 -63846.800000 0 0 1
-18.735851 -2.036794 -27.073051 32.986826 0.108286 2.533472 0.125797 -0.044098 222.726000 0 0 1
-18.703851 -1.126094 -28.197721 33.855776 0.060134 2.555083 0.099001 -0.039445 -175095.000000 0 0 1
-18.774051 -1.715594 -29.656321 35.141224 0.091128 2.575342 0.097249 -0.036572 -320688.000000 0 0 1
-20.019951 -2.231594 -30.021021 36.153010 0.111010 2.550600 0.112637 -0.045523 -216140.000000 0 0 1
-19.934151 -2.745294 -31.300891 37.210923 0.136857 2.570248 0.120301 -0.053942 195357.000000 0 0 1
-21.270351 -3.414894 -31.868591 38.466822 0.159189 2.547166 0.089586 -0.044208 1307400.000000 0 0 1
-22.349851 -2.587694 -32.271731 39.340521 0.115268 2.532763 0.074814 -0.040233 622513.000000 0 0 1
-22.970251 -1.919394 -31.170001 38.767066 0.083366 2.504844 0.068523 -0.025039 -689984.000000 0 0 1
-24.110051 -0.972694 -31.631171 39.784063 0.040322 2.489922 0.066299 -0.019757 -37595.600000 0 0 1
-23.654751 0.268106 -32.132701 39.901498 -0.011334 2.506979 0.071586 -0.023921 108414.000000 0 0 1
-24.722451 1.121306 -32.439381 40.801597 -0.045325 2.489889 0.073580 -0.032586 -262848.000000 0 0 1
-24.322251 2.478906 -33.163631 41.201253 -0.101569 2.506334 0.083374 -0.032014 -297198.000000 0 0 1
-23.556751 3.407506 -32.382461 40.188996 -0.143655 2.507745 0.078016 -0.026623 767112.000000 0 0 1
-24.296751 4.263006 -31.480011 39.993704 -0.173688 2.476929 0.083793 -0.028181 -210491.000000 0 0 1
-25.396401 5.187806 -32.045881 41.216853 -0.201501 2.461468 0.067612 -0.029731 479235.000000 0 0 1
-26.584811 4.422606 -32.339231 42.096763 -0.164849 2.446840 0.091677 -0.041804 635029.000000 0 0 1
-27.522161 5.246506 -33.008141 43.295872 -0.188368 2.437788 0.111881 -0.045737 633552.000000 0 0 1
-28.923701 4.625506 -33.346701 44.384437 -0.158578 2.420849 0.126442 -0.043182 542800.000000 0 0 1
-28.884051 3.481106 33.094888 44.064477 -0.119942 0.721136 0.136233 -0.043390 886573.000000 0 0 1
-30.174451 3.121206 32.565128 44.505359 -0.103072 0.749965 0.139168 -0.045790 596919.000000 0 0 1
-30.319781 1.652006 32.108536 44.192491 -0.054432 0.757493 0.147976 -0.021420 -107803.000000 0 0 1
-30.226941 0.775406 33.269155 44.956711 -0.025647 0.737687 0.156873 -0.023762 349405.000000 0 0 1
-30.509171 -0.574494 32.889925 44.865206 0.018828 0.747952 0.143019 -0.017314 -685684.000000 0 0 1
-30.380041 -1.496894 -33.175501 45.008904 0.049232 2.399547 0.102238 -0.015249 777240.000000 0 0 1
-29.008171 -1.785094 -32.846971 43.858682 0.061460 2.417238 0.116307 -0.018112 1049520.000000 0 0 1
-28.167831 -0.798994 -32.341001 42.895284 0.028358 2.424854 0.114248 -0.018270 -968626.000000 0 0 1
-28.449591 -0.297394 -30.929631 42.025108 0.010453 2.397909 0.136336 -0.020539 -529859.000000 0 0 1
-27.925971 -1.138794 -29.886111 40.918655 0.040756 2.389672 0.111323 -0.023586 534513.000000 0 0 1
-28.039341 -0.534294 -28.634491 40.080221 0.019053 2.366605 0.125419 -0.025334 192413.000000 0 0 1
-26.958861 -0.990994 -27.588031 38.585770 0.036743 2.367391 0.119002 -0.024478 314512.000000 0 0 1
-27.117831 -2.365494 -27.318271 38.565013 0.087010 2.357982 0.115795 -0.013789 -171367.000000 0 0 1
-26.107081 -2.825194 -26.498561 37.305966 0.107796 2.360726 0.121408 -0.024433 -559365.000000 0 0 1
-26.456061 -4.196594 -25.901291 37.261393 0.157314 2.339389 0.116960 -0.026686 676844.000000 0 0 1
-27.689861 -4.142894 -25.182471 37.656989 0.148516 2.303300 0.122190 -0.019955 238159.000000 0 0 1
-27.841701 -5.351394 -24.467741 37.449540 0.189892 2.282800 0.103578 -0.017559 889314.000000 0 0 1
-28.831881 -5.144894 -23.228441 37.380580 0.176586 2.241330 0.130015 -0.014233 784809.000000 0 0 1
-29.143011 -6.288094 -22.477041 37.337281 0.212509 2.216800 0.122090 -0.018808 -401600.000000 0 0 1
-30.084781 -6.020194 -21.489041 37.458185 0.197499 2.181789 0.150334 -0.013337 -224020.000000 0 0 1
-30.475491 -7.258294 -20.620741 37.505377 0.233812 2.152930 0.155985 -0.025322 -201542.000000 0 0 1
-29.569871 -7.591894 -19.616141 36.287837 0.251316 2.141912 0.134970 -0.032788 205284.000000 0 0 1
-30.162191 -8.560094 -18.700741 36.506858 0.276531 2.108602 0.146977 -0.026678 186133.000000 0 0 1
-30.733161 -7.923994 -17.441541 36.214972 0.252336 2.073289 0.152864 -0.035335 -71942.100000 0 0 1
-29.818681 -7.519894 -16.445541 34.873462 0.247036 2.061875 0.137399 -0.033669 464981.000000 0 0 1
-30.456581 -6.484894 -15.668341 34.859060 0.209790 2.036976 0.149346 -0.032487 -379974.000000 0 0 1
-29.564561 -5.833694 -14.667041 33.514434 0.194818 2.023761 0.154391 -0.033976 406478.000000 0 0 1
-28.394141 -5.183594 -15.234141 32.637033 0.180570 2.056437 0.158857 -0.023236 1324570.000000 0 0 1
-27.556861 -4.549194 -14.271741 31.364922 0.163608 2.043194 0.164764 -0.040008 265795.000000 0 0 1
-14.321251 20.756006 -5.036841 25.715361 -0.966826 1.767940 0.117973 -0.040871 8882.550000 0 0 1
-14.579851 20.350906 -6.357741 25.829291 -0.949133 1.819497 0.147838 -0.037310 559390.000000 0 0 1
-15.421751 19.166706 -6.280241 25.389652 -0.893250 1.820745 0.129115 -0.057428 443412.000000 0 0 1
-15.539651 18.518106 -7.668541 25.361536 -0.872629 1.877973 0.150774 -0.066286 782630.000000 0 0 1
-14.282251 17.988206 -8.177241 24.380843 -0.899738 1.912822 0.119360 -0.054411 938912.000000 0 1 0
-14.472751 16.939306 -9.179241 24.096868 -0.863760 1.961599 0.109536 -0.058733 -255916.000000 0 1 0
-15.100951 15.629906 -8.674941 23.400583 -0.802609 1.950575 0.110397 -0.065293 196155.000000 0 1 0
-16.480051 15.770906 -8.376341 24.299725 -0.763413 1.922725 0.121737 -0.055559 -16511.000000 0 1 0
-16.903751 14.921506 -7.375141 23.723002 -0.723193 1.886921 0.120521 -0.039293 288165.000000 0 1 0
-18.362851 15.195306 -6.914541 24.817383 -0.691287 1.853150 0.150443 -0.033343 -245274.000000 0 1 0
-19.335951 14.739906 -7.762641 25.522586 -0.651330 1.879840 0.146524 -0.037771 -1069490.000000 0 0 1
-20.581251 15.245306 -7.367941 26.651337 -0.637547 1.850901 0.138956 -0.035326 -46645.300000 0 0 1
-21.788251 14.673606 -8.157641 27.506175 -0.592694 1.871900 0.125193 -0.017035 38896.600000 0 0 1
-21.958151 13.314806 -7.825841 26.845637 -0.545092 1.866604 0.163073 -0.031486 -66895.300000 0 0 1
-23.000351 12.668506 -8.529641 27.609092 -0.503454 1.884878 0.174403 -0.033708 43750.100000 0 0 1
-23.200651 11.293306 -7.873141 26.977682 -0.453005 1.866945 0.174985 -0.025948 -256237.000000 0 0 1
-22.215651 10.305806 -8.145541 25.808809 -0.434352 1.891897 0.171014 -0.024326 -31635.600000 0 0 1
-22.277451 9.241806 -7.187841 25.166661 -0.393242 1.860439 0.200575 -0.034247 -185799.000000 0 0 1
-20.935151 8.520606 -6.947941 23.646462 -0.386526 1.869023 0.151710 -0.021341 -510354.000000 0 1 0
-20.623851 7.587306 -7.953241 23.370162 -0.352523 1.918049 0.117583 -0.023286 631390.000000 0 1 0
-19.611151 6.679206 -7.499541 22.032978 -0.328260 1.918115 0.081402 -0.017071 -50264.200000 0 1 0
-19.354851 5.412706 -8.287941 21.739310 -0.272690 1.961936 0.072595 -0.029051 -308964.000000 0 1 0
-20.376251 4.426206 -8.282441 22.436170 -0.213901 1.948897 0.114603 -0.038385 329858.000000 0 1 0
-20.137051 3.443406 -9.267941 22.433292 -0.169360 1.996688 0.120736 -0.038403 -549218.000000 0 1 0
-21.186151 2.340406 -9.377041 23.286463 -0.110023 1.985241 0.135493 -0.044721 -323412.000000 0 1 0
-21.245151 1.412506 -8.297941 22.851858 -0.066388 1.942409 0.151492 -0.048304 374949.000000 0 1 0
-22.221151 0.435106 -8.592241 23.828459 -0.019578 1.939694 0.168707 -0.041946 10225.600000 0 1 0
-21.601151 -0.770094 -9.339941 23.546491 0.035636 1.978671 0.117945 -0.060106 303608.000000 0 1 0
-20.736751 -1.594894 -8.556741 22.489427 0.076760 1.961110 0.104421 -0.045796 557245.000000 0 1 0
-20.522751 -2.906094 -8.998141 22.596354 0.140668 1.980363 0.076733 -0.034836 -484389.000000 0 1 0
-21.472751 -3.944594 -8.387641 23.387846 0.181677 1.937599 0.079853 -0.035978 -257280.000000 0 1 0
-21.408651 -3.987394 -6.924441 22.851204 0.184142 1.878660 0.104884 -0.037384 343992.000000 0 1 0
-22.496251 -4.607894 -6.278641 23.806203 0.202035 1.837693 0.133827 -0.039158 -447932.000000 0 1 0
-22.535251 -6.159494 -6.471841 24.241733 0.266810 1.841045 0.126920 -0.038678 -80942.300000 0 1 0
-21.444451 -6.956994 -6.017041 23.333860 0.313707 1.831611 0.108174 -0.032902 682594.000000 0 1 0
-21.815351 -8.289194 -6.102941 24.121902 0.363121 1.826580 0.129969 -0.034569 275666.000000 0 1 0
-20.723751 -9.255894 -5.509041 23.355833 0.420050 1.808914 0.115250 -0.040267 298161.000000 0 1 0
-19.671351 -9.601594 -6.369341 22.797393 0.454083 1.853954 0.118773 -0.025489 717370.000000 0 1 0
-18.763151 -10.554394 -5.762441 22.285798 0.512394 1.832338 0.114244 -0.008406 376747.000000 0 1 0
-18.068651 -11.431494 -6.773741 22.428525 0.564096 1.877601 0.115756 -0.009490 107673.000000 0 1 0
-16.886751 -10.944994 -7.406841 21.443333 0.575067 1.923477 0.117225 -0.026945 694630.000000 0 1 0
-17.077151 -10.426494 -8.670841 21.806520 0.548142 1.979724 0.108647 -0.033081 -790711.000000 0 1 0
-15.942851 -10.657594 -9.645241 21.466007 0.589262 2.036807 0.094594 -0.025010 -404540.000000 0 1 0
-15.930551 -11.998994 -10.140241 22.373707 0.645550 2.041172 0.104687 -0.027601 -360592.000000 0 1 0
-15.009151 -12.144194 -11.155641 22.298080 0.680277 2.094737 0.103836 -0.009226 -277272.000000 0 1 0
-15.109351 -13.559394 -11.761141 23.462184 0.731386 2.095875 0.120648 -0.018152 -432308.000000 0 1 0
-16.180651 -13.625194 -12.702841 24.674309 0.699871 2.111595 0.134297 -0.024143 350719.000000 0 1 0
-16.245851 -14.877794 -13.312241 25.738923 0.741471 2.114376 0.120003 -0.017497 290878.000000 0 0 1
-17.045851 -14.688894 -14.654741 26.853046 0.711264 2.148066 0.146930 -0.020042 191715.000000 0 0 1
-17.235251 -15.962394 -15.245541 28.004971 0.747075 2.146454 0.129847 -0.013677 167754.000000 0 0 1
-17.668551 -15.729994 -16.576141 28.885616 0.727420 2.182001 0.126507 -0.013373 -69017.500000 0 0 1
-18.109151 -16.935394 -17.477841 30.335191 0.751917 2.184816 0.142866 -0.029963 -19395.900000 0 0 1
-19.262351 -17.577494 -16.992341 31.124686 0.739695 2.148312 0.124672 -0.024080 62306.300000 0 0 1
-20.258451 -17.774794 -18.011741 32.415597 0.720188 2.159941 0.118352 -0.019134 63233.700000 0 0 1
-21.659851 -17.665394 -17.422041 32.935433 0.684170 2.128189 0.106491 -0.025881 -609311.000000 0 0 1
-21.884651 -16.378294 -16.864441 32.118465 0.642471 2.123594 0.100359 -0.012194 174420.000000 0 0 1
-21.851251 -16.337094 -15.446341 31.352308 0.641996 2.085952 0.116137 -0.012607 -230047.000000 0 0 1
-21.885551 -14.891694 -14.947141 30.399949 0.597474 2.084818 0.119410 -0.021972 1010270.000000 0 0 1
-23.255151 -14.428294 -14.931841 31.175913 0.555309 2.070260 0.120775 -0.027151 1217270.000000 0 0 1
-23.360251 -13.132494 -14.453841 30.447943 0.512141 2.065427 0.120342 -0.027609 -561752.000000 0 0 1
-24.786851 -12.633294 -14.271741 31.267726 0.471359 2.044783 0.146290 -0.036602 -526045.000000 0 0 1
-25.557131 -13.268694 -13.258241 31.701831 0.478872 2.002278 0.154291 -0.039798 427467.000000 0 0 1
-26.708971 -12.473894 -13.016241 32.224054 0.436926 1.986604 0.146833 -0.040744 48702.000000 0 0 1
-27.609961 -13.003894 -11.851541 32.739429 0.440168 1.941204 0.160189 -0.041366 -355983.000000 0 0 1
-28.503461 -12.020094 -11.410541 32.971660 0.399078 1.924177 0.159369 -0.050025 90883.500000 0 0 1
-29.061971 -12.513994 -10.170541 33.236096 0.406602 1.881794 0.147285 -0.037965 311471.000000 0 0 1
-29.928731 -11.447294 -9.457541 33.409797 0.365317 1.857797 0.141938 -0.042166 71273.000000 0 0 1
-29.052921 -10.504394 -8.876941 32.143655 0.346937 1.850598 0.157721 -0.044050 -34032.500000 0 0 1
-29.749281 -9.558694 -8.167441 32.296988 0.310889 1.826458 0.191736 -0.051488 -632897.000000 0 0 1
-28.908141 -8.409694 -7.621641 31.056287 0.283097 1.818743 0.199679 -0.043836 501102.000000 0 0 1
-28.102471 -8.775894 -6.431841 30.135258 0.302686 1.785883 0.185394 -0.039669 1190940.000000 0 0 1
-27.257221 -7.779094 -5.815941 28.936060 0.278005 1.773168 0.179063 -0.039860 254276.000000 0 0 1
-27.913221 -6.475794 -5.271041 29.135334 0.227965 1.752714 0.200250 -0.046852 18332.300000 0 0 1
-28.854671 -6.671994 -4.192141 29.911228 0.227234 1.711412 0.213699 -0.045465 824312.000000 0 0 1
-28.255961 -6.924594 -2.895041 29.235776 0.240330 1.669983 0.212172 -0.031888 -41202.900000 0 0 1
-27.495671 -5.741694 -2.176741 28.172986 0.205863 1.648137 0.230421 -0.035684 48778.700000 0 0 1
-28.342601 -4.729494 -1.707541 28.785184 0.165345 1.630151 0.260712 -0.052433 201334.000000 0 0 1
-27.680291 -3.718894 -0.909241 27.943790 0.133552 1.603340 0.226674 -0.059406 472530.000000 0 0 1
-28.635001 -2.706994 -0.114041 28.762894 0.094254 1.574761 0.242700 -0.063305 1113480.000000 0 0 1
-29.568901 -3.265094 0.833559 29.760301 0.109978 1.542784 0.239477 -0.054925 924786.000000 0 0 1
-29.010971 -3.162894 2.157759 29.262540 0.108595 1.496991 0.238588 -0.052782 -419547.000000 0 0 1
-30.059961 -3.351494 3.205859 30.415642 0.111035 1.465199 0.230770 -0.050055 -436923.000000 0 0 1
-30.711601 -4.620794 3.056159 31.207279 0.149337 1.472708 0.251171 -0.054525 -338244.000000 0 0 1
-31.933531 -4.623494 3.721759 32.480434 0.143786 1.455959 0.277449 -0.059693 98909.800000 0 0 1
-32.803541 -5.929894 3.476859 33.516033 0.178839 1.466872 0.270511 -0.062186 151106.000000 0 0 1
-32.156201 -6.967994 4.106159 33.157725 0.213393 1.446640 0.281134 -0.055120 299297.000000 0 0 1
-32.990831 -8.111594 4.014659 34.209799 0.241092 1.453171 0.285242 -0.063514 53837.700000 0 0 1
-32.186711 -9.363994 4.224259 33.786286 0.283113 1.445439 0.258767 -0.053089 -208304.000000 0 0 1
-31.785551 -9.673894 5.494259 33.676287 0.295442 1.406915 0.239685 -0.051136 178509.000000 0 0 1
-31.116311 -10.942394 5.437959 33.429511 0.338154 1.407401 0.234764 -0.043335 -100905.000000 0 0 1
-30.814511 -11.448794 6.852259 33.579196 0.355733 1.365290 0.201501 -0.046804 144382.000000 0 0 1
-29.653201 -10.919094 7.481459 32.473237 0.352819 1.338319 0.180120 -0.040046 526788.000000 0 0 1
-29.753351 -10.977894 8.911159 32.942143 0.353468 1.296874 0.210470 -0.048444 180664.000000 0 0 1
-30.416841 -9.755994 9.641559 33.366499 0.310377 1.277657 0.210130 -0.058969 -55893.100000 0 0 1
-29.410201 -8.806994 9.750859 32.211835 0.290956 1.263261 0.191938 -0.045403 64321.700000 0 0 1
-29.753451 -7.847494 10.698159 32.577624 0.257878 1.236198 0.189536 -0.043117 26542.700000 0 0 1
-28.691311 -6.743094 10.937859 31.437198 0.230833 1.215437 0.209152 -0.037241 -104362.000000 0 0 1
-28.601551 -5.975194 9.802559 30.819504 0.205949 1.247110 0.227782 -0.039137 -89856.600000 0 0 1
-27.960931 -4.783994 10.132759 30.122634 0.169455 1.227722 0.213321 -0.045279 -470546.000000 0 0 1
-27.943941 -3.683794 9.004759 29.589185 0.131072 1.261566 0.239007 -0.055007 16856.000000 0 0 1
-27.109581 -4.011794 7.918859 28.525991 0.146918 1.289500 0.215676 -0.049009 278140.000000 0 0 1
-27.392321 -3.055694 6.891559 28.410739 0.111094 1.325783 0.232824 -0.064961 405391.000000 0 0 1
-26.486011 -3.325394 5.614559 27.278018 0.124899 1.363487 0.221894 -0.042611 -555213.000000 0 0 1
-25.130721 -3.256194 5.897459 26.017993 0.128852 1.342141 0.240180 -0.069616 -662880.000000 0 0 1
-24.483951 -3.600594 4.696059 25.188908 0.146013 1.383265 0.230106 -0.041006 327322.000000 0 0 1
-22.920351 -3.637994 4.621259 23.662914 0.157410 1.374238 0.204982 -0.042406 844076.000000 0 1 0
-22.458151 -2.282494 4.781959 23.074779 0.101285 1.362046 0.180115 -0.049343 -1207400.000000 0 1 0
-21.102151 -2.269994 4.579259 21.712283 0.107160 1.358294 0.146789 -0.039361 -1191330.000000 0 1 0
-20.509251 -0.784394 4.625859 21.039088 0.038227 1.349115 0.115489 -0.046221 -122860.000000 0 1 0
-20.923051 0.088706 3.530959 21.219086 -0.004240 1.403614 0.145629 -0.038264 921882.000000 0 1 0
-22.208051 0.687006 3.648059 22.516168 -0.030925 1.408059 0.156103 -0.061701 160756.000000 0 1 0
-22.468751 1.889506 2.662559 22.704718 -0.083897 1.453257 0.191715 -0.049780 -243232.000000 0 1 0
-21.750251 3.034606 3.053759 22.172228 -0.138626 1.432628 0.144879 -0.051650 360966.000000 0 1 0
-21.902651 4.033106 2.048959 22.364934 -0.182098 1.479053 0.176199 -0.039004 472763.000000 0 1 0
-20.639951 4.199506 1.140359 21.093692 -0.200725 1.516708 0.118433 -0.020234 -2198.910000 0 1 0
-20.840651 5.047706 0.026159 21.443245 -0.237629 1.569576 0.137088 -0.016311 767731.000000 0 1 0
-21.665151 4.660206 -1.100941 22.188023 -0.211873 1.620435 0.179709 -0.029461 241106.000000 0 1 0
-21.087551 3.530206 -1.997041 21.474062 -0.165869 1.663929 0.145779 -0.025813 -358414.000000 0 1 0
-21.149451 2.372706 -1.260941 21.319450 -0.111720 1.629976 0.122094 -0.024682 512895.000000 0 1 0
-20.815451 1.188606 -1.976541 20.942838 -0.057040 1.665315 0.119207 -0.022992 -273077.000000 0 1 0
-20.028751 0.226906 -1.058241 20.057971 -0.011329 1.623580 0.119619 -0.020130 -478444.000000 0 1 0
-20.791151 -0.713994 -0.347841 20.806315 0.034328 1.587515 0.144954 -0.028357 821756.000000 0 1 0
-20.046851 -1.350194 0.750759 20.106290 0.067250 1.533448 0.118679 -0.024463 352983.000000 0 1 0
-18.877551 -2.298594 0.379559 19.020765 0.121167 1.550840 0.054230 -0.020702 -272182.000000 0 1 0
-18.210551 -2.891594 1.434559 18.494416 0.157472 1.493151 0.051377 -0.016265 425133.000000 0 1 0
-17.394651 -4.037294 1.079759 17.889648 0.228062 1.510403 0.025396 -0.008752 216444.000000 0 1 0
-18.134251 -5.308994 0.537159 18.903042 0.284802 1.542376 0.015845 -0.011655 -364190.000000 0 1 0
-18.928551 -5.830694 1.546559 19.866526 0.298814 1.492870 0.041899 -0.014275 71670.400000 0 1 0
-19.826051 -6.845994 1.151559 21.006333 0.332484 1.515949 0.065987 -0.015752 -628647.000000 0 1 0
-20.651251 -7.248294 2.373059 22.014616 0.337553 1.462792 0.101014 -0.016573 -907498.000000 0 1 0
-20.061251 -7.824494 3.483859 21.813156 0.371882 1.410396 0.085647 -0.010635 527547.000000 0 1 0
-21.033251 -8.243894 4.431459 23.021669 0.373544 1.377097 0.105528 -0.020509 326130.000000 0 1 0
-20.326651 -9.104994 5.500059 22.941759 0.421134 1.328698 0.091534 -0.009954 73325.300000 0 1 0
-19.783151 -10.274394 4.965059 22.838302 0.479008 1.351646 0.093926 -0.008311 620438.000000 0 1 0
-18.800251 -10.863294 5.839259 22.484606 0.523956 1.308084 0.096966 -0.018905 504096.000000 0 1 0
-18.323251 -12.237594 5.315359 22.666126 0.588837 1.334085 0.091137 -0.011753 209358.000000 0 1 0
-19.312151 -13.243894 5.400559 24.031769 0.601119 1.344135 0.137806 -0.019603 448199.000000 0 1 0
-18.707151 -14.421194 4.851459 24.113585 0.656738 1.368222 0.125979 -0.019091 861.039000 0 1 0
-19.688251 -15.565294 4.779459 25.548949 0.668975 1.382617 0.147723 -0.023487 -578407.000000 0 0 1
-19.084251 -16.731094 4.400559 25.758553 0.719790 1.399115 0.144994 -0.038066 -530193.000000 0 0 1
-19.856251 -17.853394 4.705859 27.113824 0.732335 1.396354 0.135907 -0.032420 14858.200000 0 0 1
-19.115651 -19.257194 4.610859 27.522857 0.789087 1.402474 0.149851 -0.042102 -165915.000000 0 0 1
-18.786451 -19.646694 3.328759 27.386200 0.807777 1.448946 0.145212 -0.046149 537275.000000 0 0 1
-18.141251 -20.971194 3.259359 27.919874 0.857626 1.453790 0.133851 -0.041866 1687000.000000 0 0 1
-16.563751 -20.879094 3.391359 26.866256 0.900143 1.444227 0.139000 -0.041387 1384820.000000 0 0 1
-15.846551 -22.093794 3.719259 27.442336 0.948593 1.434848 0.119265 -0.044679 337944.000000 0 0 1
-14.447751 -21.869694 3.785859 26.483084 0.986985 1.427351 0.136503 -0.041226 400302.000000 0 0 1
-13.622551 -23.161794 4.133759 27.186955 1.039138 1.418155 0.158295 -0.045043 -330362.000000 0 0 1
-13.652251 -24.009594 3.011959 27.783384 1.053773 1.462174 0.165426 -0.053853 157179.000000 0 0 1
-12.971551 -25.260844 3.114659 28.566982 1.096404 1.461549 0.152771 -0.052437 145423.000000 0 0 1
20.264449 19.039706 -23.884441 36.655488 0.754248 2.280478 0.135590 -0.023701 26782.800000 0 0 1
19.330549 19.050706 -24.934241 36.855338 0.778107 2.313855 0.127243 -0.033145 314434.000000 0 0 1
20.064349 19.011306 -26.140441 38.043797 0.758456 2.328306 0.125808 -0.027053 146229.000000 0 0 1
19.035549 19.226206 -27.245211 38.396623 0.790381 2.359689 0.123438 -0.028230 96996.400000 0 0 1
18.754549 20.546406 -27.548391 39.151012 0.830960 2.351310 0.107336 -0.019238 -34690.100000 0 0 1
17.779449 20.642406 -28.548661 39.461928 0.859774 2.379580 0.129766 -0.026496 -110234.000000 0 0 1
17.377449 22.113306 -28.994861 40.394010 0.904751 2.371435 0.143501 -0.031672 -127282.000000 0 0 1
16.648349 22.793306 -28.019501 39.771783 0.939954 2.352525 0.151717 -0.031465 238418.000000 0 0 1
16.276349 24.168706 -28.315351 40.630100 0.978114 2.341870 0.141277 -0.027147 -131190.000000 0 0 1
15.428749 24.926306 -27.306111 40.062336 1.016542 2.320730 0.153887 -0.033462 256649.000000 0 0 1
14.085049 24.452606 -27.253191 39.230791 1.048200 2.338783 0.185787 -0.054788 147586.000000 0 0 1
13.326849 25.165506 -26.325151 38.780423 1.083775 2.316959 0.167230 -0.041771 -923066.000000 0 0 1
11.903649 24.633706 -26.119891 37.825455 1.120658 2.333028 0.192233 -0.045063 58562.300000 0 0 1
11.172249 25.450806 -25.194061 37.514043 1.157149 2.307149 0.156533 -0.040088 59418.500000 0 0 1
10.415549 26.461906 -25.849271 38.430469 1.195815 2.308546 0.157920 -0.054443 -257376.000000 0 0 1
9.878349 27.565206 -24.941041 38.463982 1.226691 2.276311 0.153692 -0.049544 431316.000000 0 0 1
10.920849 28.392706 -24.409141 39.002780 1.203605 2.246993 0.140772 -0.036348 404173.000000 0 0 1
10.370049 29.410306 -23.620341 39.120641 1.231808 2.219033 0.142220 -0.036481 -186397.000000 0 0 1
11.028649 29.558606 -22.238641 38.599216 1.213683 2.184797 0.121076 -0.021808 140364.000000 0 0 1
12.364949 30.009306 -22.298341 39.378502 1.179956 2.172753 0.108466 -0.039506 305770.000000 0 0 1
12.980249 30.333206 -21.065941 39.145423 1.166453 2.139032 0.085928 -0.034213 221130.000000 0 0 1
14.272349 31.175506 -21.181441 40.302178 1.141470 2.124176 0.081877 -0.028683 115956.000000 0 0 1
15.307449 30.570506 -21.929441 40.617413 1.106568 2.141118 0.087945 -0.023707 92892.300000 0 0 1
16.344349 31.556006 -22.069941 41.833020 1.092894 2.126537 0.079579 -0.026264 265974.000000 0 0 1
17.646349 30.949106 -22.650541 42.217151 1.052597 2.137110 0.046453 -0.018224 9959.600000 0 0 1
18.553649 30.509306 -21.654341 41.760821 1.024420 2.115930 0.053260 -0.015163 -250348.000000 0 0 1
19.536749 29.755506 -22.316941 42.013338 0.989812 2.130797 0.051549 -0.018376 -271548.000000 0 0 1
20.573049 29.092806 -21.394241 41.561464 0.955286 2.111526 0.048122 -0.017595 -7455.160000 0 0 1
21.476649 29.906606 -20.654041 42.216596 0.948010 2.082014 0.065427 -0.018150 -250664.000000 0 0 1
22.572049 29.119406 -20.358941 42.094224 0.911390 2.075618 0.076406 -0.007191 -525617.000000 0 0 1
23.428949 29.548106 -19.150641 42.293655 0.900394 2.040702 0.086573 -0.023535 157046.000000 0 0 1
24.386749 30.565706 -19.417641 43.657997 0.897370 2.031711 0.105622 -0.024659 147890.000000 0 0 1
25.040949 30.947606 -18.250741 43.793755 0.890507 2.000656 0.100769 -0.031286 140778.000000 0 0 1
26.234649 31.948706 -18.395041 45.247698 0.883292 1.989461 0.122787 -0.027837 692951.000000 0 0 1
27.459249 31.433206 -18.894841 45.815629 0.852774 1.995895 0.129131 -0.028081 289470.000000 0 0 1
28.504049 32.335006 -18.511341 46.911653 0.848284 1.976429 0.127875 -0.025709 12031.400000 0 0 1
29.862649 31.855306 -19.035741 47.632948 0.817673 1.981914 0.143198 -0.028686 -49869.500000 0 0 1
30.325149 30.621506 -18.374941 46.850078 0.790261 1.973826 0.110787 -0.019420 -109090.000000 0 0 1
31.718249 30.557006 -18.535541 47.784351 0.766753 1.969148 0.099316 -0.014166 -173908.000000 0 0 1
32.438549 29.252606 -18.107841 47.284970 0.733801 1.963785 0.117534 -0.019423 -29253.000000 0 0 1
32.616649 29.087306 -16.725141 46.793670 0.728262 1.936304 0.098718 -0.008058 -154636.000000 0 0 1
33.216749 27.849206 -16.395541 46.343764 0.697726 1.932407 0.117424 -0.013548 85221.100000 0 0 1
33.741849 27.783506 -14.893541 46.176327 0.688856 1.899204 0.114744 -0.007612 328221.000000 0 0 1
34.833949 28.632106 -14.580241 47.389714 0.687988 1.883536 0.121810 -0.012248 -115978.000000 0 0 1
34.568249 30.003506 -14.464841 48.004228 0.714823 1.876878 0.118330 -0.018744 -1168090.000000 0 0 1
35.759949 30.906406 -14.604141 49.469797 0.712723 1.870475 0.106234 -0.019698 -622122.000000 0 0 1
36.647149 30.680706 -13.535441 49.674213 0.697011 1.846770 0.101592 -0.029037 -159692.000000 0 0 1
37.920049 31.252906 -13.773041 51.033038 0.689311 1.844070 0.098573 -0.034146 388595.000000 0 0 1
-37.519881 31.352706 -12.526641 50.474254 -0.696092 1.821596 0.090867 -0.028140 205280.000000 0 0 1
-37.984181 32.488706 -11.730141 51.341116 -0.707576 1.801307 0.089370 -0.030867 918935.000000 0 0 1
-37.056781 32.764406 -10.675941 50.603231 -0.723999 1.783367 0.101789 -0.032388 146531.000000 0 0 1
-37.541981 -33.388137 -9.937341 51.214439 0.726902 1.766069 0.100584 -0.023981 1281.280000 0 0 1
-36.613981 -32.632337 -9.174341 49.896107 0.727962 1.755717 0.102555 -0.026505 -44120.200000 0 0 1
-36.299081 -33.199137 -7.913441 49.823975 0.740823 1.730300 0.086523 -0.030303 130365.000000 0 0 1
-36.150481 -32.101637 -6.875641 48.832845 0.726146 1.712065 0.096562 -0.028717 404275.000000 0 0 1
-37.380581 -31.462537 -6.544741 49.295362 0.699645 1.703955 0.081585 -0.020349 160628.000000 0 0 1
-37.176081 -30.329237 -5.690941 48.314702 0.684317 1.688859 0.123033 -0.023593 -1208440.000000 0 0 1
37.842549 -29.692537 -5.436041 48.407188 -0.665301 1.683332 0.101973 -0.017771 -1253750.000000 0 0 1
36.951449 -30.546837 -4.755341 48.178129 -0.690796 1.669661 0.052351 -0.011921 -377884.000000 0 0 1
35.658449 -30.034237 -4.584241 46.846512 -0.699992 1.668810 0.041600 0.000268 -355146.000000 0 0 1
35.379049 -29.109637 -3.398941 45.941277 -0.688485 1.644848 0.039069 0.002063 -493340.000000 0 0 1
36.111149 -27.916137 -3.549141 45.781243 -0.658098 1.648398 0.078146 -0.011154 117163.000000 0 0 1
35.576749 -27.009137 -2.624041 44.744655 -0.649350 1.629475 0.059077 -0.009652 156366.000000 0 0 1
36.138449 -25.516837 -2.649041 44.318325 -0.614799 1.630605 0.086295 -0.027121 23391.600000 0 0 1
35.776649 -24.851937 -3.829941 43.729348 -0.607120 1.658492 0.098200 -0.026306 279166.000000 0 0 1
35.691849 -23.483337 -3.709441 42.885139 -0.581941 1.657402 0.116830 -0.034688 -279548.000000 0 0 1
35.403849 -22.904637 -5.111241 42.475637 -0.574230 1.691422 0.123657 -0.037369 21494.700000 0 0 1
36.563349 -22.789737 -5.898641 43.486143 -0.557372 1.706860 0.140177 -0.037499 362605.000000 0 0 1
36.103249 -22.842537 -7.237941 43.331442 -0.564117 1.738620 0.121986 -0.030871 -195881.000000 0 0 1
37.161149 -22.422837 -8.244941 44.178204 -0.542912 1.758526 0.134144 -0.029183 -373930.000000 0 0 1
37.886849 -23.544437 -8.706941 45.448484 -0.556036 1.763566 0.117379 -0.016990 -226636.000000 0 0 1
-37.487981 -23.212737 -9.671541 45.141096 0.554421 1.786722 0.124801 -0.015108 138114.000000 0 0 1
-36.763081 -24.389237 -10.398441 45.326444 0.585749 1.802270 0.126309 -0.016061 -149520.000000 0 0 1
-35.930981 -25.197637 -9.619741 44.927672 0.611584 1.786583 0.158509 -0.015568 -84984.400000 0 0 1
-36.623581 -26.084737 -8.791541 45.814750 0.618893 1.763887 0.131825 -0.017248 -255116.000000 0 0 1
-35.709081 -27.210337 -8.309641 45.657322 0.651137 1.753817 0.119000 -0.014037 -185127.000000 0 0 1
-35.312981 -28.166737 -9.325941 46.123149 0.673295 1.774397 0.124848 -0.020985 177696.000000 0 0 1
-34.623481 -29.256237 -8.744441 46.164684 0.701574 1.761366 0.144303 -0.035916 -80691.800000 0 0 1
-33.927881 -30.213137 -9.727141 46.460220 0.727548 1.781722 0.134854 -0.028333 -4127.450000 0 0 1
-32.666481 -29.838237 -10.254741 45.415626 0.740181 1.798558 0.090339 -0.003148 317557.000000 0 0 1
-32.199681 -30.795737 -11.222641 45.947193 0.763115 1.817543 0.061488 0.004024 -141326.000000 0 0 1
-32.262381 -30.334937 -12.695741 46.067900 0.754617 1.849997 0.040250 0.013119 -633083.000000 0 0 1
-31.232081 -29.475037 -13.066441 44.888223 0.756463 1.866161 0.026599 0.011762 -462882.000000 0 0 1
-31.455281 -28.873137 -14.331241 45.038619 0.742623 1.894625 0.027345 0.026178 -356859.000000 0 0 1
-30.398781 -27.847237 -14.693141 43.765773 0.741620 1.913168 0.039170 0.000521 -75624.200000 0 0 1
-29.232381 -28.461937 -15.221641 43.546668 0.772045 1.927885 0.063324 0.000083 -387950.000000 0 0 1
-28.274681 -27.493637 -15.542341 42.390117 0.771394 1.946202 0.088047 0.010478 -283022.000000 0 0 1
-27.014081 -28.141837 -16.150741 42.220492 0.805842 1.963333 0.094137 0.001124 -367815.000000 0 0 1
-27.221681 -28.843137 -17.429041 43.321102 0.814311 1.984848 0.078574 0.000506 -177420.000000 0 0 1
-27.413681 -28.084237 -18.640941 43.447888 0.797480 2.014228 0.063393 0.009619 964565.000000 0 0 1
-26.097781 -27.410037 -19.233641 42.453942 0.809918 2.040977 0.076962 0.000602 1085340.000000 0 0 1
-25.705781 -26.263437 -18.528041 41.156331 0.796128 2.037771 0.095797 -0.000031 100798.000000 0 0 1
-24.318681 -25.973837 -18.618241 40.158154 0.818297 2.052876 0.101849 -0.017514 564589.000000 0 0 1
-23.988581 -24.737437 -17.675741 38.727569 0.800766 2.044755 0.116997 -0.017015 59433.000000 0 0 1
-24.228181 -25.073937 -16.326541 38.500169 0.802551 2.008725 0.140856 -0.022095 110831.000000 0 0 1
-23.830881 -24.023437 -15.484341 37.212917 0.789422 1.999950 0.161621 -0.021015 -81657.100000 0 0 1
-24.240281 -24.206237 -14.017241 37.013729 0.784695 1.959192 0.152835 -0.020886 -1168720.000000 0 0 1
-25.583181 -24.010437 -13.838641 37.716153 0.753696 1.946487 0.113954 -0.006706 -1185560.000000 0 0 1
-25.910981 -24.050537 -12.439341 37.477252 0.748178 1.909131 0.111414 -0.001261 1204180.000000 0 0 1
-27.471881 -23.876837 -12.252141 38.404720 0.715500 1.895499 0.084967 0.015216 1024550.000000 0 0 1
-28.270281 -25.043737 -12.441541 39.764173 0.724952 1.889023 0.093669 0.012617 1107620.000000 0 0 1
-29.598981 -25.064637 -11.891141 40.567659 0.702638 1.868284 0.072142 0.014325 431521.000000 0 0 1
-30.657581 -24.274437 -12.707541 41.117115 0.669716 1.884998 0.079833 0.008886 -816736.000000 0 0 1
-30.975381 -22.984637 -12.196241 40.453875 0.638380 1.877046 0.081913 0.011633 344123.000000 0 0 1
-31.674981 -22.938537 -10.951241 40.612936 0.626774 1.843825 0.101665 -0.002931 439944.000000 0 0 1
-33.215281 -23.265937 -10.993541 42.016861 0.611034 1.835523 0.088275 -0.004016 882070.000000 0 0 1
-33.996781 -22.168037 -11.562841 42.200738 0.577824 1.848342 0.115335 -0.019496 502877.000000 0 0 1
-34.191681 -22.278037 -12.992841 42.827513 0.577473 1.879030 0.109507 -0.014571 -359632.000000 0 0 1
-35.526081 -21.633237 -13.452441 43.715758 0.546967 1.883598 0.079451 -0.021687 772850.000000 0 0 1
-36.666281 -22.395437 -13.025841 44.895927 0.548316 1.865163 0.112541 -0.013180 -73852.000000 0 0 1
-37.877181 -21.953837 -13.517941 45.819063 0.525289 1.870282 0.120236 -0.031423 -573248.000000 0 0 1
37.189649 -22.684137 -13.063341 45.478467 -0.547710 1.862143 0.100578 -0.007033 -172140.000000 0 0 1
37.007749 -23.946737 -13.744641 46.172880 -0.574315 1.873056 0.083969 -0.003126 209863.000000 0 0 1
36.227449 -24.869037 -12.993641 45.822831 -0.601587 1.858303 0.082309 -0.015276 155911.000000 0 0 1
36.126949 -26.311637 -13.618641 46.721795 -0.629475 1.866574 0.066287 -0.013411 172381.000000 0 0 1
35.393149 -26.341337 -14.812941 46.539921 -0.639811 1.894716 0.060978 -0.017568 -280188.000000 0 0 1
35.237249 -27.684237 -15.256441 47.337509 -0.665931 1.898945 0.053618 0.004895 79714.300000 0 0 1
34.580449 -27.759637 -16.681541 47.378041 -0.676419 1.930604 0.052725 -0.011829 1692620.000000 0 0 1
33.125449 -27.801637 -16.610941 46.326556 -0.698239 1.937523 0.113954 -0.017949 1232620.000000 0 0 1
32.559849 -27.317437 -17.791241 46.075095 -0.698068 1.967235 0.105320 -0.031656 -456920.000000 0 0 1
31.053749 -27.420037 -17.985341 45.162665 -0.723335 1.980388 0.112368 -0.042706 -328663.000000 0 0 1
30.293849 -26.569237 -17.120741 43.780834 -0.719990 1.972575 0.108267 -0.041407 149680.000000 0 0 1
28.931949 -26.713937 -17.481041 43.084555 -0.745560 1.988582 0.134373 -0.041014 -179603.000000 0 0 1
27.949349 -26.091637 -16.497041 41.642430 -0.751036 1.978127 0.127554 -0.048017 -346221.000000 0 0 1
27.785149 -24.677237 -16.619841 40.708717 -0.726227 1.991346 0.140765 -0.056063 -50321.600000 0 0 1
27.194049 -24.106037 -15.485141 39.501986 -0.725276 1.973611 0.127318 -0.049376 -195534.000000 0 0 1
26.908749 -22.566837 -15.673941 38.457969 -0.697864 1.990577 0.116746 -0.048475 17075.400000 0 0 1
25.672649 -22.256637 -16.272341 37.672694 -0.714247 2.017439 0.125262 -0.057030 -187975.000000 0 0 1
25.382749 -20.886437 -16.211341 36.651532 -0.688525 2.028969 0.116509 -0.055070 -532192.000000 0 0 1
23.900349 -20.570137 -16.374841 35.531573 -0.710652 2.049753 0.077146 -0.054927 -672066.000000 0 0 1
23.122249 -20.859937 -15.218141 34.660744 -0.734006 2.025348 0.068526 -0.043544 352268.000000 0 0 1
21.961849 -20.014137 -15.270841 33.407890 -0.739031 2.045531 0.064875 -0.043695 248133.000000 0 0 1
21.914349 -18.668437 -14.426041 32.200309 -0.705586 2.035334 0.053595 -0.038399 -287313.000000 0 0 1
21.679249 -18.820437 -13.038741 31.531056 -0.714927 1.997114 0.058164 -0.039709 -92250.300000 0 0 1
21.340949 -17.580037 -12.426441 30.313533 -0.689068 1.993174 0.078287 -0.044254 -195471.000000 0 0 1
20.501349 -17.620437 -11.118641 29.230281 -0.709970 1.961004 0.093381 -0.035576 -85452.500000 0 0 1
21.122549 -18.072637 -9.949341 29.525780 -0.707741 1.914495 0.093901 -0.041495 -15428.800000 0 0 1
20.154049 -18.167337 -8.929341 28.565206 -0.733601 1.888720 0.082526 -0.039760 215596.000000 0 0 1
20.779949 -18.811837 -7.650641 29.055530 -0.735729 1.837249 0.073599 -0.032424 -223105.000000 0 0 1
21.637849 -17.914037 -7.004041 28.951094 -0.691525 1.815147 0.074214 -0.037133 -314155.000000 0 0 1
22.262549 -18.572437 -5.960541 29.598726 -0.695277 1.773561 0.077294 -0.027940 -532899.000000 0 0 1
23.566849 -17.890737 -5.498141 30.094923 -0.649330 1.754521 0.085017 -0.030868 -337111.000000 0 0 1
24.570449 -18.087337 -6.469841 31.188421 -0.634573 1.779757 0.081682 -0.047000 60717.300000 0 0 1
25.546149 -17.069837 -6.342441 31.372148 -0.589061 1.774367 0.109515 -0.047180 -65433.500000 0 0 1
26.659149 -17.039937 -7.424241 32.499062 -0.568730 1.801276 0.138490 -0.055210 372694.000000 0 0 1
27.655449 -18.058737 -7.349541 33.837222 -0.578474 1.789744 0.163196 -0.061749 538568.000000 0 0 1
27.330649 -19.194837 -8.158641 34.379785 -0.612281 1.810391 0.150867 -0.063818 -663124.000000 0 0 1
28.392749 -20.274737 -8.027441 35.800181 -0.620114 1.796948 0.158774 -0.059702 -250524.000000 0 0 1
29.527349 -19.801637 -8.712441 36.604314 -0.590735 1.811120 0.195353 -0.052367 167446.000000 0 0 1
30.664849 -20.672437 -8.670541 37.985009 -0.593159 1.801089 0.165413 -0.042757 609647.000000 0 0 1
-31.357631 29.151306 4.047059 43.005562 -0.748952 1.476551 0.130434 -0.035109 178909.000000 0 0 1
-30.879851 30.112906 3.144759 43.246292 -0.772824 1.498015 0.123323 -0.023794 -69230.800000 0 0 1
-29.866381 30.972806 3.640259 43.180631 -0.803582 1.486393 0.097793 -0.001002 350825.000000 0 0 1
-29.508411 32.111206 2.619159 43.689082 -0.827613 1.510810 0.089903 -0.002104 -572320.000000 0 0 1
-28.718371 31.699806 1.534859 42.801616 -0.834705 1.534929 0.107490 -0.001318 -34399.000000 0 0 1
-28.291791 32.737706 0.655959 43.273700 -0.858118 1.555637 0.127728 -0.029908 57875.100000 0 0 1
-27.323831 -33.635537 1.256659 43.353434 0.888570 1.541806 0.146057 -0.011263 -416824.000000 0 0 1
-26.043861 33.318806 1.617459 42.320701 -0.907341 1.532568 0.119925 -0.018386 184652.000000 0 0 1
-25.213631 -33.087837 2.177659 41.656624 0.919646 1.518496 0.126542 -0.015765 277436.000000 0 0 1
-23.713351 -33.404637 2.261059 41.028102 0.953469 1.515658 0.126820 -0.027062 286710.000000 0 0 1
-22.974151 -33.230337 1.036559 40.412144 0.965892 1.545144 0.177302 -0.042979 139297.000000 0 0 1
-21.604351 -33.486837 1.233259 39.870254 0.997831 1.539860 0.166781 -0.046566 -31500.700000 0 0 1
-20.576351 -33.282637 0.060359 39.129577 1.017080 1.569254 0.189919 -0.055257 332347.000000 0 0 1
-20.338451 -31.916537 -0.264841 37.846903 1.003445 1.577794 0.196278 -0.063768 304473.000000 0 0 1
-19.815551 -31.106037 0.770759 36.889506 1.003591 1.549901 0.206136 -0.055281 -644316.000000 0 0 1
-19.524751 -29.685537 0.452259 35.533809 0.989014 1.558068 0.227743 -0.073720 893.519000 0 0 1
-18.455451 -29.376837 -0.425041 34.695574 1.009877 1.583047 0.228412 -0.052167 145387.000000 0 0 1
-18.192351 -27.994037 -0.402341 33.388465 0.994516 1.582847 0.175524 -0.046929 270118.000000 0 0 1
-17.088651 -27.524737 -1.416541 32.428995 1.015189 1.614492 0.145196 -0.038263 14513.300000 0 0 1
-17.391251 -27.635637 -2.805141 32.772746 1.009107 1.656495 0.118149 -0.021055 -256789.000000 0 0 1
-16.324951 -27.215837 -3.614041 31.941620 1.030500 1.684184 0.101496 -0.008994 -181524.000000 0 0 1
-16.762251 -27.299337 -5.091441 32.436856 1.020134 1.728413 0.134550 -0.006893 -230701.000000 0 0 1
-17.586951 -26.230437 -5.375641 32.034890 0.980159 1.739400 0.121166 -0.010505 -573299.000000 0 0 1
-18.053251 -26.119537 -6.696341 32.449824 0.966016 1.778650 0.144254 -0.021413 143693.000000 0 0 1
-18.552251 -24.694437 -6.975641 31.664820 0.926481 1.792914 0.123712 -0.011114 788210.000000 0 0 1
-17.487451 -23.706837 -6.883241 30.252340 0.935243 1.800334 0.085809 -0.002654 708460.000000 0 0 1
-17.953351 -22.408737 -7.062541 29.569474 0.895339 1.811973 0.087540 -0.007208 458017.000000 0 0 1
-16.727151 -21.444637 -7.028541 28.090397 0.908360 1.823695 0.100000 0.001129 366416.000000 0 0 1
-15.857951 -21.664337 -8.108641 28.045823 0.938925 1.864105 0.119121 -0.010686 -496954.000000 0 0 1
-14.732951 -20.821737 -7.933841 26.712364 0.955004 1.872356 0.131808 -0.034836 410440.000000 0 0 1
-13.883651 -20.600237 -9.238641 26.504302 0.977764 1.926843 0.116109 -0.021997 899161.000000 0 0 1
-14.635951 -19.891037 -10.245041 26.736217 0.936441 1.964043 0.130800 -0.025278 521960.000000 0 0 1
-13.757751 -19.659437 -11.338441 26.539205 0.960202 2.012227 0.120324 -0.018210 482168.000000 0 0 1
-14.484551 -18.940137 -12.506141 26.924609 0.917919 2.053852 0.156834 -0.017691 183836.000000 0 0 1
-15.635751 -19.590137 -12.999141 28.235223 0.897188 2.049228 0.126549 0.016306 -531894.000000 0 0 1
-16.293451 -18.809037 -13.920641 28.513868 0.856940 2.080829 0.132775 -0.018558 -868260.000000 0 0 1
-17.468951 -19.551837 -14.511441 29.966990 0.841602 2.076299 0.145734 -0.025003 -870193.000000 0 0 1
-18.610851 -19.400537 -13.704041 30.175244 0.806170 2.042213 0.158239 -0.022988 166510.000000 0 0 1
-19.750251 -19.825537 -14.438841 31.489752 0.787301 2.047131 0.150157 -0.021326 819002.000000 0 0 1
-21.193651 -19.508337 -13.907541 31.986962 0.744016 2.020599 0.143240 -0.009615 1473790.000000 0 0 1
-22.195651 -20.138837 -14.724141 33.391915 0.736852 2.027452 0.155575 -0.016586 -115021.000000 0 0 1
-23.512151 -19.841937 -14.364841 33.953974 0.700943 2.007625 0.137556 -0.012843 50662.400000 0 0 1
-24.552051 -20.508537 -15.332641 35.475247 0.695903 2.017735 0.132746 -0.019666 67170.500000 0 0 1
-24.516651 -19.997137 -16.668541 35.760200 0.684214 2.055696 0.122657 -0.029478 895070.000000 0 0 1
-25.490701 -20.683137 -17.496641 37.198124 0.681653 2.060499 0.128081 -0.034014 441914.000000 0 0 1
-25.659131 -19.991037 -18.862441 37.600854 0.661867 2.096301 0.127190 -0.029835 936289.000000 0 0 1
-24.438451 -20.129837 -19.630641 37.253326 0.689023 2.125804 0.124171 -0.036016 1042990.000000 0 0 1
-24.594051 -19.383537 -20.866841 37.629960 0.667467 2.158591 0.121537 -0.035561 687032.000000 0 0 1
-23.267251 -18.671937 -21.367441 36.695691 0.676263 2.192336 0.095976 -0.028495 476595.000000 0 0 1
-22.334251 -19.546237 -21.904241 36.887259 0.718926 2.206590 0.081726 -0.028309 -380886.000000 0 0 1
-21.145851 -18.822337 -22.190441 35.970030 0.727329 2.235613 0.072950 -0.020553 608610.000000 0 0 1
-19.838551 -19.668637 -22.122741 35.634801 0.781097 2.240583 0.072653 -0.016708 246260.000000 0 0 1
-19.801951 -20.696337 -23.134041 36.819010 0.807479 2.250185 0.057349 -0.013654 -350560.000000 0 0 1
-18.591451 -21.388137 -23.105141 36.564217 0.855237 2.254806 0.060944 -0.010512 -460011.000000 0 0 1
-18.618251 -22.696637 -23.986441 37.909444 0.883794 2.255870 0.065982 -0.016399 -232633.000000 0 0 1
-18.477951 -22.567837 -25.368291 38.656075 0.884712 2.286643 0.055549 -0.017403 226263.000000 0 0 1
-18.647851 -23.837137 -26.030881 39.919396 0.906940 2.281129 0.070870 -0.027062 -90770.400000 0 0 1
-18.525651 -23.661737 -27.600451 40.802726 0.906547 2.313710 0.074582 -0.016270 136897.000000 0 0 1
-17.219751 -23.397837 -28.080621 40.404206 0.936345 2.339206 0.063383 -0.018041 -15799.300000 0 0 1
-17.163751 -23.045737 -29.452921 41.148206 0.930651 2.368532 0.092296 -0.027108 -148216.000000 0 0 1
-15.694751 -22.864337 -29.894341 40.777135 0.969236 2.393688 0.059940 -0.027679 -568759.000000 0 0 1
-14.948351 -23.968937 -29.569101 40.893702 1.013165 2.379036 0.074014 -0.027862 -717709.000000 0 0 1
-13.642051 -23.736837 -30.059171 40.658292 1.049172 2.402845 0.114035 -0.039787 54935.400000 0 0 1
-12.757951 -24.978637 -29.764781 40.897919 1.098582 2.385879 0.123641 -0.035792 -464441.000000 0 0 1
-13.036351 -26.140337 -30.627061 42.323522 1.108184 2.379860 0.100717 -0.023353 105346.000000 0 0 1
-12.392151 -27.337737 -30.288051 42.641333 1.145203 2.360718 0.113864 -0.031809 -1176530.000000 0 0 1
-10.969351 -27.484937 -30.731941 42.663809 1.191063 2.375072 0.151562 -0.046956 -1160760.000000 0 0 1
-10.085651 -26.575837 -30.122631 41.417006 1.208082 2.385178 0.211310 -0.062825 -252482.000000 0 0 1
-8.819551 -26.560537 -30.743711 41.574299 1.250197 2.403106 0.182024 -0.052969 370757.000000 0 0 1
-7.780251 -25.496437 -30.223951 40.299973 1.274621 2.418820 0.248591 -0.066769 424725.000000 0 0 1
-8.152951 -24.154937 -30.387571 39.665300 1.245276 2.443547 0.261279 -0.063591 -254341.000000 0 0 1
-8.965851 -23.640937 -29.380311 38.761876 1.208304 2.430991 0.232216 -0.051344 -198266.000000 0 0 1
-9.206851 -22.150337 -29.530011 38.045040 1.176869 2.459390 0.244720 -0.059581 34013.400000 0 0 1
-10.093251 -21.774437 -30.560951 38.858352 1.136742 2.475870 0.221523 -0.057621 19275.100000 0 0 1
-10.480651 -20.420137 -30.394101 38.087103 1.096604 2.494791 0.222628 -0.057452 124213.000000 0 0 1
-11.470251 -20.036037 -31.519391 39.070212 1.050857 2.509406 0.181738 -0.055251 110437.000000 0 0 1
-12.045951 -18.758437 -31.296511 38.424673 0.999951 2.522646 0.173129 -0.053896 -76458.000000 0 0 1
-13.030451 -18.426137 -32.241481 39.355155 0.955273 2.530888 0.150632 -0.047182 -255478.000000 0 0 1
-13.828251 -17.141837 -31.897631 38.762378 0.891986 2.537296 0.160054 -0.045632 -170399.000000 0 0 1
-13.309551 -15.838937 -32.136971 38.220426 0.871957 2.569615 0.162697 -0.043648 216016.000000 0 0 1
-12.265051 -15.459737 -31.223811 36.937262 0.900121 2.577960 0.143964 -0.041447 412247.000000 0 0 1
-12.025951 -13.908137 -31.297021 36.298254 0.857847 2.610429 0.121313 -0.035188 -373840.000000 0 0 1
-11.452751 -13.231337 -32.395421 36.819792 0.857328 2.646316 0.127410 -0.039115 244805.000000 0 0 1
-12.097651 -13.383237 33.608185 38.144125 0.835808 0.492647 0.139932 -0.039047 -169144.000000 0 0 1
-12.852351 -12.212937 33.014532 37.473965 0.759894 0.492826 0.126725 -0.026562 -365328.000000 0 0 1
-14.043151 -11.794037 33.614295 38.291386 0.698568 0.499431 0.103196 -0.023641 -691972.000000 0 0 1
-14.812151 -11.024037 32.761537 37.606482 0.639815 0.513222 0.081313 -0.025797 -237066.000000 0 0 1
-15.787451 -10.192337 33.567895 38.469870 0.573274 0.510345 0.091836 -0.023237 -390401.000000 0 0 1
-15.129451 -9.126937 -33.087691 37.509953 0.542810 2.651107 0.095578 -0.026716 177507.000000 0 0 1
-15.807551 -8.535237 -31.960331 36.663220 0.495092 2.629513 0.097092 -0.034551 156947.000000 0 0 1
-15.032051 -7.313337 -31.375041 35.550536 0.452803 2.652049 0.103670 -0.047702 -179840.000000 0 0 1
-15.084051 -6.066837 -32.058421 35.945479 0.382403 2.672242 0.099041 -0.051015 776912.000000 0 0 1
-16.256551 -5.234737 -31.915911 36.198111 0.311523 2.650252 0.112956 -0.040247 609238.000000 0 0 1
-16.482151 -4.613937 -30.494541 34.969511 0.272949 2.630135 0.115426 -0.048465 -287031.000000 0 0 1
-16.945851 -5.522437 -29.525791 34.488135 0.315034 2.598500 0.118448 -0.053306 -142910.000000 0 0 1
-17.131751 -4.919437 -28.234111 33.389561 0.279629 2.578479 0.121759 -0.060424 -302034.000000 0 0 1
-15.892051 -4.506337 -27.424551 32.015158 0.276306 2.599462 0.118492 -0.056970 -91392.100000 0 0 1
-15.318451 -3.355437 -28.001081 32.093214 0.215640 2.631076 0.112204 -0.048794 303015.000000 0 0 1
-14.097351 -2.909637 -27.393961 30.945603 0.203538 2.657783 0.106386 -0.044243 550425.000000 0 0 1
-13.540651 -1.707037 -28.204251 31.332778 0.125406 2.690914 0.073793 -0.024668 37755.400000 0 0 1
-13.295451 -2.042037 -29.613951 32.525759 0.152398 2.715232 0.068062 -0.030037 171407.000000 0 0 1
-13.219351 -0.842037 -30.389631 33.151017 0.063611 2.730545 0.048113 -0.031911 -100557.000000 0 0 1
-13.551851 -0.968037 -31.922771 34.693703 0.071311 2.739213 0.056359 -0.037519 804635.000000 0 0 1
-14.942851 -1.136037 -32.277431 35.586682 0.075880 2.706922 0.074505 -0.044654 1150100.000000 0 0 1
-15.232651 -1.485037 -33.574311 36.898148 0.097183 2.713884 0.067985 -0.037741 -458261.000000 0 0 1
-16.759351 -1.493037 33.543785 37.527197 0.088852 0.464931 0.069104 -0.045963 -194671.000000 0 0 1
-17.156651 -1.923037 32.264356 36.592860 0.111621 0.491318 0.086022 -0.042090 -81876.500000 0 0 1
-18.534551 -1.741037 32.063498 37.075985 0.093660 0.526034 0.083906 -0.041614 -488842.000000 0 0 1
-18.865751 -1.816037 30.541905 35.944714 0.095965 0.555397 0.102127 -0.028513 -432042.000000 0 0 1
-18.356351 -0.706037 29.903625 35.095311 0.038444 0.550871 0.106982 -0.006710 -197552.000000 0 0 1
-18.533351 -0.688037 28.498315 34.001653 0.037107 0.576923 0.120227 -0.020727 -157656.000000 0 0 1
-17.727051 0.450963 27.846435 33.013264 -0.025434 0.567044 0.087341 -0.018141 690.577000 0 0 1
-18.099751 1.827963 28.069835 33.449336 -0.100653 0.575032 0.086739 -0.019197 573758.000000 0 0 1
-19.295651 2.243963 27.367375 33.560851 -0.115774 0.617281 0.103842 -0.024230 645519.000000 0 0 1
-19.145251 3.048963 26.056345 32.477221 -0.157928 0.639665 0.116208 -0.024724 -356684.000000 0 0 1
-18.789651 4.437963 26.272905 32.603865 -0.231941 0.633734 0.117869 -0.022685 115229.000000 0 0 1
-19.099351 5.151963 25.121615 31.975357 -0.263475 0.667041 0.117107 -0.017372 -728482.000000 0 0 1
-18.707751 6.673963 25.223265 32.105059 -0.342674 0.667054 0.121896 -0.014952 508561.000000 0 0 1
-17.322551 6.995963 25.212995 31.380079 -0.383833 0.637693 0.117861 -0.016230 348496.000000 0 0 1
-16.697951 6.766963 23.949305 29.969694 -0.385030 0.644971 0.088610 -0.015551 -1132120.000000 0 0 1
-15.489951 7.609963 23.731505 29.343388 -0.456650 0.628770 0.090354 -0.015217 -1491900.000000 0 0 1
-14.383051 7.408963 24.527945 29.383413 -0.475668 0.583109 0.081814 -0.015633 -841470.000000 0 0 1
-13.352151 8.160963 23.947885 28.607384 -0.548621 0.578795 0.066828 -0.013902 203759.000000 0 0 1
-11.926651 8.044963 24.572655 28.474230 -0.593431 0.529660 0.044107 -0.007371 103590.000000 0 0 1
-10.891651 8.518963 23.744035 27.476899 -0.663765 0.527347 0.022843 -0.016345 -367223.000000 0 0 1
-9.715951 8.709963 24.485775 27.745564 -0.730856 0.489621 0.033348 -0.013129 -229935.000000 0 0 1
-9.539151 10.112963 25.200085 28.780405 -0.814588 0.504122 0.041108 -0.022227 -983859.000000 0 0 1
-10.460251 10.141963 26.249845 30.022169 -0.769950 0.506704 0.034867 -0.024392 -85498.500000 0 0 1
-10.410651 11.302963 27.047465 31.107941 -0.826470 0.516665 0.040488 -0.025428 -355256.000000 0 0 1
-11.157351 12.543963 26.443085 31.322104 -0.843835 0.565668 0.040110 -0.028471 -403553.000000 0 0 1
-12.518551 12.281963 26.255575 31.573976 -0.775859 0.588890 0.067787 -0.029699 -363534.000000 0 0 1
-12.862351 11.803963 24.936595 30.440226 -0.742516 0.610784 0.059763 -0.024273 -400849.000000 0 0 1
-14.354851 11.595963 24.598995 30.751238 -0.679484 0.643609 0.092594 -0.023865 114171.000000 0 0 1
-15.086951 12.830963 24.470995 31.481412 -0.704765 0.680409 0.089687 -0.028270 409842.000000 0 0 1
-16.477851 12.744963 24.220025 31.946256 -0.658347 0.710326 0.111297 -0.014552 193854.000000 0 0 1
-16.819751 12.530963 22.766495 30.955490 -0.640303 0.744452 0.100964 -0.000279 -531868.000000 0 0 1
-16.698151 11.184963 22.397305 30.092705 -0.590191 0.731345 0.105854 -0.004232 50429.200000 0 0 1
-16.560851 10.988963 21.017965 28.927045 -0.585842 0.757457 0.093586 0.005732 -77690.900000 0 0 1
-16.770651 9.525963 20.533565 28.171368 -0.516568 0.754111 0.086554 -0.005925 1069860.000000 0 0 1
-18.132651 9.077963 20.683265 28.965495 -0.464161 0.775508 0.097639 0.005969 716691.000000 0 0 1
-18.250451 7.669963 20.482565 28.485834 -0.397850 0.768371 0.092246 -0.001221 180470.000000 0 0 1
-19.746151 7.283963 20.572865 29.431435 -0.353395 0.796784 0.129845 -0.007862 84114.700000 0 0 1
-20.298651 7.457963 21.852365 30.743817 -0.352101 0.780177 0.119081 -0.006712 5762.110000 0 0 1
-21.705351 7.503963 21.671365 31.576570 -0.332856 0.814391 0.101351 -0.011968 144116.000000 0 0 1
-22.447751 8.227963 22.838735 33.063707 -0.351332 0.808271 0.102999 -0.004027 -311737.000000 0 0 1
-22.312051 9.628963 22.910255 33.397969 -0.407413 0.814850 0.098919 0.000034 2133890.000000 0 0 1
-20.947251 10.164963 23.160605 32.840941 -0.451790 0.788041 0.119299 -0.001087 2392840.000000 0 0 1
-20.283051 9.837963 24.582235 33.353769 -0.451603 0.742153 0.136377 -0.015591 5871.220000 0 0 1
-20.854151 10.489963 25.708795 34.725741 -0.466057 0.737223 0.132902 -0.014693 289154.000000 0 0 1
-20.381151 9.854963 26.914745 35.169804 -0.450388 0.699320 0.145746 -0.021655 249277.000000 0 0 1
-32.202621 -13.474094 19.923665 40.193437 0.396281 1.052162 0.096131 -0.004341 -197305.000000 0 0 1
-31.719511 -14.784794 20.017165 40.316304 0.436170 1.051231 0.103131 -0.009972 86525.700000 0 0 1
-32.200141 -15.727394 19.035365 40.577643 0.454346 1.082514 0.100415 0.000912 -63128.400000 0 0 1
-31.893901 -15.431194 17.548365 39.538434 0.450627 1.110928 0.115340 0.002841 -189514.000000 0 0 1
-32.607111 -14.329894 17.054565 39.489590 0.414064 1.124226 0.115327 -0.005241 -147720.000000 0 0 1
-32.175781 -13.852394 15.800465 38.429473 0.406539 1.147076 0.119305 -0.006377 216397.000000 0 0 1
-33.214651 -12.800994 15.194665 38.703440 0.367859 1.167348 0.118695 -0.015572 1290160.000000 0 0 1
-34.470480 -13.314894 14.701365 39.769718 0.368614 1.192151 0.116167 -0.014851 1989830.000000 0 0 1
-35.501839 -13.594494 15.720865 41.138017 0.365699 1.178675 0.109002 -0.014798 223661.000000 0 0 1
-36.385591 -12.402994 15.960565 41.623132 0.328524 1.177263 0.104900 -0.013170 -645492.000000 0 0 1
-37.277861 -12.564394 17.077865 42.885386 0.325089 1.161220 0.066894 -0.015532 413966.000000 0 0 1
-37.745941 -11.321494 17.557465 43.141591 0.291401 1.151659 0.070382 -0.009934 -257163.000000 0 0 1
37.722809 -11.510994 18.819065 43.699777 -0.296172 1.125590 0.072390 -0.001930 -271981.000000 0 0 1
-37.903321 -11.994194 19.935065 44.473916 0.306472 1.105999 0.066177 0.001916 -6202.360000 0 0 1
37.775179 -11.675794 21.163865 44.846377 -0.299772 1.079330 0.066542 -0.007698 -708849.000000 0 0 1
-37.854091 -12.354394 22.369675 45.672372 0.315469 1.058952 0.059678 -0.014892 1705280.000000 0 0 1
-36.546421 -11.759494 22.663455 44.582045 0.311307 1.037524 0.061019 -0.017730 1499320.000000 0 0 1
-35.496672 -12.239194 21.832865 43.433691 0.332033 1.044110 0.065781 -0.019727 -670265.000000 0 0 1
-34.238530 -11.361594 21.922465 42.213235 0.320403 1.024733 0.095024 -0.021311 -201612.000000 0 0 1
-34.454716 -10.117694 21.317765 41.760535 0.285623 1.035058 0.113699 -0.025077 -329100.000000 0 0 1
-33.227631 -9.477394 21.170765 40.522805 0.277848 1.021085 0.140178 -0.033694 -660725.000000 0 0 1
-33.271451 -8.219494 20.297965 39.831607 0.242194 1.036083 0.144744 -0.025033 -43194.200000 0 0 1
-33.560511 -8.406494 18.936665 39.440769 0.245438 1.069994 0.147698 -0.018916 417196.000000 0 0 1
-34.929264 -8.600594 18.611965 40.502209 0.241426 1.093331 0.137623 -0.027106 -67514.300000 0 0 1
-35.259036 -8.377394 17.088765 40.067521 0.233270 1.130178 0.135537 -0.025974 -1331220.000000 0 0 1
-36.589481 -8.409994 16.767065 41.117546 0.225923 1.150771 0.056882 -0.019351 -1103110.000000 0 0 1
-36.742921 -8.202894 15.385765 40.670031 0.219649 1.182829 0.083081 -0.020570 -4654.840000 0 0 1
38.074849 -8.211094 15.120765 41.782218 -0.212404 1.200497 0.093718 -0.035583 127103.000000 0 0 1
37.365259 -9.308194 15.669765 41.573388 -0.244144 1.184330 0.075267 -0.009564 1183240.000000 0 0 1
35.926809 -9.150394 15.544165 40.200577 -0.249393 1.173784 0.087903 -0.015319 1360870.000000 0 0 1
35.131559 -10.455594 15.778665 39.906292 -0.289265 1.164301 0.074143 -0.015587 -29738.900000 0 0 1
34.963369 -10.874194 17.124365 40.421890 -0.301533 1.133335 0.061070 -0.023582 214911.000000 0 0 1
34.093049 -12.006994 17.171265 40.016949 -0.338618 1.127300 0.097006 -0.022526 298355.000000 0 0 1
33.628809 -12.329794 18.585065 40.352513 -0.351425 1.092162 0.106148 -0.026951 656995.000000 0 0 1
34.527599 -13.298294 19.187965 41.679464 -0.367639 1.092385 0.090411 -0.011882 443991.000000 0 0 1
34.331059 -13.385194 20.584065 42.207686 -0.371757 1.061360 0.119915 -0.014479 -172930.000000 0 0 1
34.838459 -14.693994 21.200665 43.348586 -0.399136 1.059769 0.108789 -0.009529 -32955.700000 0 0 1
35.449469 -14.422294 22.403205 44.346037 -0.386390 1.041193 0.107093 -0.018082 -391675.000000 0 0 1
35.735379 -15.619594 23.099295 45.327326 -0.412067 1.036064 0.104072 -0.004851 261062.000000 0 0 1
36.323299 -15.469694 24.545895 46.488649 -0.402623 1.014555 0.119943 0.003024 547956.000000 0 0 1
37.560469 -14.778294 24.538195 47.236742 -0.374850 1.024563 0.116133 0.000543 154607.000000 0 0 1
-38.138301 -14.605994 25.775455 48.293262 0.365744 1.007794 0.122427 -0.005506 317860.000000 0 0 1
-36.931411 -13.625094 25.778525 47.054273 0.353438 0.991008 0.097023 -0.013653 24376.500000 0 0 1
-35.750579 -14.151094 25.228115 45.987119 0.376905 0.990118 0.046450 -0.007066 -95515.600000 0 0 1
-34.704364 -13.190994 25.373215 44.968825 0.363231 0.971284 0.073436 -0.012748 -143425.000000 0 0 1
-33.342681 -13.807994 25.059955 43.936276 0.392622 0.963840 0.047224 -0.009241 -727938.000000 0 0 1
-33.198051 -14.270594 23.721575 43.225843 0.405982 0.989890 0.063177 -0.005462 -679978.000000 0 0 1
-31.905641 -14.649694 23.392165 42.187401 0.430443 0.983056 0.069114 -0.017571 -693006.000000 0 0 1
-31.562351 -16.121194 23.726425 42.649949 0.472229 0.980862 0.077517 -0.020174 -507377.000000 0 0 1
-31.406381 -16.278694 25.124435 43.388868 0.478199 0.953230 0.070511 -0.018289 202501.000000 0 0 1
-31.295901 -17.654394 25.475195 44.046527 0.513613 0.954067 0.081095 -0.026296 -396731.000000 0 0 1
-31.238371 -17.775094 26.999845 44.953102 0.517325 0.926517 0.080360 -0.028798 -114484.000000 0 0 1
-30.051721 -17.164294 27.471485 44.185986 0.518942 0.899855 0.080620 -0.035750 94822.500000 0 0 1
-29.593171 -17.810794 28.632475 44.864226 0.541782 0.878635 0.083080 -0.039340 -1032130.000000 0 0 1
-28.324771 -17.228594 29.163345 44.154476 0.546465 0.849333 0.098167 -0.049869 -1034520.000000 0 0 1
-28.405671 -15.920694 29.646915 44.037373 0.510851 0.832239 0.096220 -0.047531 -89095.800000 0 0 1
-27.175931 -15.276394 29.347835 42.815825 0.512108 0.815584 0.096191 -0.046283 99175.300000 0 0 1
-27.029121 -13.907294 30.090875 42.772035 0.475204 0.790461 0.097823 -0.044980 -323663.000000 0 0 1
-26.302321 -13.807994 31.288717 43.144601 0.483425 0.759463 0.095095 -0.046064 128126.000000 0 0 1
-25.866601 -12.493694 31.569466 42.682603 0.449959 0.738271 0.089064 -0.033239 -7616.750000 0 0 1
-25.219901 -12.267794 32.959867 43.276957 0.452735 0.705013 0.102790 -0.028457 -298374.000000 0 0 1
-23.969451 -12.822294 33.233285 42.934800 0.491210 0.685598 0.082521 -0.024125 -431380.000000 0 0 1
-23.955251 -14.188394 33.585065 43.624777 0.534729 0.692171 0.086584 -0.030011 -260659.000000 0 0 1
-23.993151 -14.669494 -32.270701 42.804947 0.548762 2.424776 0.090348 -0.032044 547414.000000 0 0 1
-22.745351 -14.437894 -31.597191 41.523321 0.565589 2.435573 0.075918 -0.018318 712533.000000 0 0 1
-22.744451 -15.146194 -30.350201 40.839343 0.587492 2.408578 0.084153 -0.023120 -528801.000000 0 0 1
-21.409051 -15.183494 -29.622031 39.577148 0.616880 2.416538 0.086094 -0.017884 -326600.000000 0 0 1
-21.005851 -13.996494 -28.974361 38.427349 0.587758 2.424932 0.083513 -0.015273 194760.000000 0 0 1
-21.535651 -13.934394 -27.649411 37.715269 0.574290 2.393679 0.081515 -0.012148 10769.800000 0 0 1
-21.099151 -12.644794 -26.887151 36.441513 0.539907 2.400626 0.084925 -0.019675 708612.000000 0 0 1
-19.791851 -12.815094 -26.300291 35.322079 0.574611 2.410709 0.082515 -0.013006 754948.000000 0 0 1
-19.418551 -11.572894 -25.727691 34.248008 0.537452 2.420700 0.086473 -0.022147 -235524.000000 0 0 1
-18.049151 -11.544794 -25.047841 32.961317 0.569051 2.433981 0.095994 -0.021517 -736238.000000 0 0 1
-17.963751 -12.362894 -23.940041 32.383067 0.602772 2.402792 0.103708 -0.024268 -310745.000000 0 0 1
-16.785451 -12.214794 -23.212741 31.141353 0.629077 2.411930 0.096749 -0.032029 -163323.000000 0 0 1
-15.481251 -12.925994 -23.670341 31.097194 0.695689 2.435916 0.083055 -0.023092 -344248.000000 0 0 1
-14.979351 -12.456894 -24.845641 31.573106 0.693717 2.476605 0.096563 -0.048239 -399494.000000 0 0 1
-14.387651 -13.488294 -25.593121 32.310159 0.753147 2.485050 0.109834 -0.053009 -477462.000000 0 0 1
-13.402551 -12.892994 -26.671201 32.514775 0.766023 2.532696 0.126025 -0.052139 -130419.000000 0 0 1
-13.927751 -12.155594 -27.719091 33.317994 0.717560 2.553419 0.107543 -0.054506 -145299.000000 0 0 1
-12.956651 -11.636594 -28.635191 33.515060 0.731774 2.595187 0.118528 -0.060208 384890.000000 0 0 1
-13.585551 -10.455894 -29.395901 34.029574 0.655949 2.613627 0.091647 -0.049186 315938.000000 0 0 1
-12.599551 -9.663494 -30.042381 33.980530 0.654275 2.655373 0.084321 -0.040720 156845.000000 0 0 1
-12.175551 -10.159794 -31.278101 35.068291 0.695392 2.672369 0.104039 -0.035707 -291118.000000 0 0 1
-11.248151 -9.213694 -32.006051 35.153952 0.686297 2.715176 0.086426 -0.027513 938073.000000 0 0 1
-9.873851 -9.056694 -31.580501 34.305170 0.742259 2.740348 0.088623 -0.035178 1073390.000000 0 0 1
-9.393551 -7.748394 -31.849451 34.097858 0.689719 2.776415 0.070766 -0.028970 -377878.000000 0 0 1
-7.878951 -7.577094 -31.641301 33.476292 0.765871 2.808958 0.101593 -0.029116 -38780.400000 0 0 1
-7.364451 -7.584194 -30.295191 32.086659 0.800097 2.805856 0.083974 -0.025776 236815.000000 0 0 1
-7.863351 -6.499794 -29.470431 31.186309 0.690747 2.808329 0.086479 -0.017288 -320333.000000 0 0 1
-7.404351 -5.054494 -29.830231 31.148274 0.598979 2.849644 0.071258 -0.020569 -170130.000000 0 0 1
-6.031651 -4.839994 -29.590221 30.584106 0.676223 2.885959 0.079367 -0.024468 -34780.600000 0 0 1
-5.563651 -3.697294 -30.347311 31.073839 0.586532 2.924925 0.114576 -0.039181 -1250010.000000 0 0 1
-4.129951 -3.471194 -30.024511 30.505359 0.698949 2.963804 0.132116 -0.039082 -1032260.000000 0 0 1
-3.201651 -4.497494 -30.408331 30.905414 0.952145 2.961997 0.131372 -0.039318 1050670.000000 0 0 1
-1.814151 -4.353294 -30.112161 30.479248 1.175951 2.986234 0.150636 -0.043657 289732.000000 0 0 1
-1.005951 -3.551494 -31.111111 31.329319 1.294779 3.023499 0.142842 -0.031914 88079.900000 0 0 1
0.129149 -2.934194 -30.437411 30.578786 -1.526809 3.045396 0.110162 -0.037947 874816.000000 0 0 1
0.463249 -1.789994 -31.187751 31.242511 -1.317553 3.082377 0.100402 -0.028214 -369618.000000 0 0 1
1.270549 -0.787694 -30.424181 30.460885 -0.554969 3.092497 0.091631 -0.044808 -23651.400000 0 0 1
0.513149 -0.099594 -29.399621 29.404267 -0.191700 3.123815 0.109470 -0.036770 196702.000000 0 0 1
1.237649 1.005506 -28.912351 28.956292 0.682276 3.086495 0.134844 -0.050096 -119552.000000 0 0 1
0.404549 1.935506 -28.026901 28.096566 1.364748 3.071158 0.113711 -0.046638 1334280.000000 0 0 1
-0.721151 2.584506 -28.730641 28.855666 -1.298689 3.048470 0.081387 -0.055643 1242420.000000 0 0 1
-1.290351 3.689906 -27.982961 28.254672 -1.234391 3.002798 0.141207 -0.052661 -13352.900000 0 0 1
-2.679951 4.020906 -28.564501 28.970339 -0.982906 2.974012 0.171662 -0.057646 16621.100000 0 0 1
-2.595751 4.516006 -29.872191 30.322929 -1.049121 2.968957 0.165250 -0.064755 666548.000000 0 0 1
-3.930651 4.760606 -30.349161 30.970711 -0.880603 2.940912 0.189466 -0.049862 438972.000000 0 0 1
-4.094851 5.474706 -31.716051 32.444539 -0.928603 2.929282 0.188037 -0.047690 -35171.300000 0 0 1
-3.733751 4.769606 -32.918221 33.470872 -0.906618 2.959620 0.210257 -0.052736 693297.000000 0 0 1
-2.356151 4.396906 -32.980571 33.355693 -1.078870 2.991478 0.188663 -0.050515 59652.300000 0 0 1
-2.002551 3.894406 32.894444 33.184651 -1.095844 0.132348 0.158249 -0.047018 -127021.000000 0 0 1
-2.561851 2.585606 32.705709 32.907626 -0.790013 0.110835 0.152752 -0.050394 243468.000000 0 0 1
-2.266751 2.062506 31.440359 31.589369 -0.738255 0.097168 0.139540 -0.040817 -94267.100000 0 0 1
-2.532751 2.968006 30.171285 30.422530 -0.864360 0.128607 0.139347 -0.041930 -298090.000000 0 0 1
-3.821351 3.522106 30.066745 30.512573 -0.744671 0.171155 0.129321 -0.040501 -21622.200000 0 0 1
-3.925551 4.309406 28.911495 29.493312 -0.831977 0.198959 0.119971 -0.046172 307350.000000 0 0 1
-5.337051 4.939706 28.785815 29.690200 -0.746753 0.247454 0.127332 -0.039348 193644.000000 0 0 1
-5.230951 5.934606 27.776855 28.881414 -0.848335 0.277456 0.115424 -0.028550 -251053.000000 0 0 1
-6.440251 6.622506 27.613455 29.117646 -0.799350 0.322832 0.096088 -0.027003 -699947.000000 0 0 1
-6.442951 7.301806 26.177105 27.929712 -0.847803 0.356141 0.083368 -0.029627 72031.300000 0 0 1
-5.527451 8.391806 26.084565 27.953169 -0.988349 0.367712 0.101839 -0.026856 13147.300000 0 0 1
-5.519351 8.959706 24.818485 26.957314 -1.018681 0.401032 0.082199 -0.019944 12749.500000 0 0 1
-4.567851 10.163606 24.807455 27.195109 -1.148415 0.422168 0.072063 -0.019956 -296851.000000 0 0 1
-4.655951 10.971006 23.638765 26.473233 -1.169445 0.466983 0.072691 -0.025984 271991.000000 0 0 1
-4.153951 12.332706 23.816385 27.139844 -1.245908 0.500082 0.073334 -0.017646 150360.000000 0 0 1
-2.602351 12.571206 23.794085 27.036382 -1.366671 0.494773 0.072273 -0.016526 657840.000000 0 0 1
-1.850351 12.219606 24.955625 27.848264 -1.420513 0.459829 0.083102 -0.009742 312156.000000 0 0 1
-2.224051 13.031606 26.113795 29.269429 -1.401759 0.468633 0.088507 -0.011914 -650641.000000 0 0 1
-1.547951 12.538306 27.400845 30.173027 -1.447960 0.432015 0.109426 -0.022267 300570.000000 0 0 1
-0.159851 12.818006 27.370765 30.223924 -1.558326 0.438006 0.122587 -0.023336 -411011.000000 0 0 1
0.458749 12.222406 28.471885 30.987835 1.533280 0.405745 0.137093 -0.039415 324391.000000 0 0 1
2.009649 12.280806 28.320195 30.933644 1.408593 0.414012 0.127461 -0.029326 417268.000000 0 0 1
2.462349 13.633306 28.480235 31.671028 1.392110 0.452740 0.126016 -0.028040 107692.000000 0 0 1
3.835549 13.671406 28.133765 31.513926 1.297275 0.467405 0.149173 -0.036964 178005.000000 0 0 1
4.589149 14.977406 28.284815 32.332859 1.273474 0.505772 0.153844 -0.038253 -279542.000000 0 0 1
4.673749 15.502206 29.602695 33.741397 1.277974 0.500505 0.167008 -0.030082 258081.000000 0 0 1
3.773049 16.547506 29.961405 34.434600 1.346616 0.515399 0.142478 -0.024316 60675.400000 0 0 1
4.020349 17.930406 29.345205 34.623745 1.350225 0.559453 0.151692 -0.013576 515545.000000 0 0 1
4.961549 18.741706 30.102335 35.805294 1.312000 0.572179 0.172713 -0.012093 566001.000000 0 0 1
5.327949 19.888606 29.344745 35.847702 1.309053 0.611836 0.160056 -0.006234 253826.000000 0 0 1
6.731749 20.457206 29.667615 36.660348 1.252892 0.627911 0.167101 -0.011294 -40834.300000 0 0 1
6.679649 21.023606 30.950995 38.007549 1.263162 0.619209 0.179879 -0.024648 633564.000000 0 0 1
7.698049 21.988806 31.319374 39.034225 1.234042 0.639563 0.148166 -0.022115 395628.000000 0 0 1
7.729749 23.365706 30.615555 39.281261 1.251313 0.677099 0.141765 -0.013550 -107147.000000 0 0 1
8.062449 23.302606 29.268345 38.270753 1.237699 0.700111 0.101904 -0.009920 211101.000000 0 0 1
8.516849 24.587106 28.788575 38.805213 1.237337 0.734936 0.103959 -0.012253 198554.000000 0 0 1
8.991449 24.507806 27.323555 37.789620 1.219163 0.762598 0.122098 -0.017721 234406.000000 0 0 1
7.920249 24.219906 26.428345 36.712282 1.254744 0.767171 0.118440 -0.013511 606278.000000 0 0 1
8.306849 24.436006 25.093255 35.997133 1.243109 0.799465 0.133447 -0.027727 -244891.000000 0 0 1
31.324979 2.754706 7.839959 32.408451 0.087714 1.326462 0.224463 -0.021944 -469337.000000 0 0 1
30.272979 3.628306 7.608259 31.424568 0.119284 1.326254 0.218110 -0.046479 -137517.000000 0 0 1
29.270879 3.618406 8.620859 30.727780 0.122994 1.286423 0.213570 -0.044500 -282611.000000 0 0 1
29.542879 4.437806 9.906759 31.474112 0.149101 1.250594 0.177648 -0.052878 -575076.000000 0 0 1
29.561079 5.825506 9.816359 31.688402 0.194574 1.255837 0.189563 -0.047464 395574.000000 0 0 1
30.577779 6.381806 8.986659 32.503663 0.205754 1.290665 0.203044 -0.050215 -59864.500000 0 0 1
30.243479 7.811606 8.487659 32.368651 0.252766 1.305476 0.219170 -0.055264 -34755.200000 0 0 1
29.080879 7.819006 7.705059 31.083795 0.262659 1.320305 0.188623 -0.052343 -239996.000000 0 0 1
29.120479 8.854906 6.726359 31.171390 0.295194 1.353299 0.199620 -0.075567 -117049.000000 0 0 1
27.974979 8.921906 5.695259 29.910464 0.308727 1.379216 0.183873 -0.062722 -271010.000000 0 0 1
26.754179 9.344806 6.229159 29.015753 0.336037 1.354430 0.184765 -0.056391 107781.000000 0 0 1
25.716779 9.220806 5.226459 27.815317 0.344273 1.381774 0.206753 -0.058289 561752.000000 0 0 1
24.436079 10.017006 5.520859 26.980405 0.389035 1.364716 0.161832 -0.050499 5607.920000 0 0 1
24.559679 11.434306 5.388159 27.621612 0.435728 1.374467 0.154622 -0.043746 -266604.000000 0 0 1
23.391379 11.972906 5.933559 26.939084 0.473084 1.348717 0.164127 -0.037441 -228309.000000 0 0 1
23.175379 13.499506 6.019659 27.487655 0.527448 1.350012 0.147417 -0.028118 -103624.000000 0 0 1
22.946279 14.193106 4.834259 27.410692 0.553938 1.393505 0.136495 -0.041339 283317.000000 0 0 1
23.025579 15.565606 5.120359 28.260989 0.594446 1.388609 0.166768 -0.037448 -237316.000000 0 0 1
22.674179 16.609906 4.059259 28.398679 0.632237 1.427367 0.141009 -0.046160 -824611.000000 0 0 1
21.336279 16.483606 3.697559 27.214298 0.657785 1.434507 0.176388 -0.031241 -449022.000000 0 0 1
20.920279 17.417906 2.729059 27.358533 0.694296 1.470878 0.151920 -0.031982 -13441.400000 0 0 1
19.391979 17.251106 2.570859 26.081772 0.727039 1.472067 0.162475 -0.030136 362995.000000 0 0 1
18.601679 17.783506 3.684559 25.997145 0.762916 1.428588 0.172406 -0.040560 180903.000000 0 0 1
17.248779 17.586606 3.395859 24.866463 0.795096 1.433804 0.168707 -0.047232 -865641.000000 0 1 0
16.355979 18.505706 4.188659 25.050431 0.846985 1.402798 0.168843 -0.055626 -959458.000000 0 0 1
14.993079 18.465606 3.918659 24.106574 0.888813 1.407516 0.161710 -0.052303 -520987.000000 0 1 0
14.321779 19.601006 4.369159 24.665813 0.939785 1.392722 0.131189 -0.048852 -1210190.000000 0 1 0
12.930179 19.662206 3.826659 23.841879 0.989086 1.409598 0.101314 -0.030746 -1275350.000000 0 1 0
12.008279 18.840806 4.495359 22.789976 1.003362 1.372243 0.077645 -0.041327 1398980.000000 0 1 0
10.628479 19.302406 4.352559 22.460904 1.067470 1.375779 0.055654 -0.021960 1619720.000000 0 1 0
9.677979 18.746906 5.436559 21.786830 1.094238 1.318597 0.034269 -0.022112 -253254.000000 0 1 0
9.821779 19.320106 6.727559 22.693477 1.100474 1.269819 0.049945 -0.027979 -157507.000000 0 1 0
9.152779 18.537706 7.683959 22.055910 1.112170 1.214948 0.048099 -0.028477 -550433.000000 0 1 0
8.296179 19.416206 8.613659 22.803745 1.166995 1.183453 0.034321 -0.028785 426914.000000 0 1 0
7.065479 19.890406 8.078259 22.601051 1.229478 1.205283 0.045789 -0.028096 297646.000000 0 1 0
7.205279 21.156906 7.401459 23.543838 1.242552 1.251004 0.057544 -0.024109 -640770.000000 0 1 0
6.074979 21.379906 6.328559 23.109661 1.293949 1.293403 0.064623 -0.023146 989178.000000 0 1 0
4.782379 21.230306 6.931259 22.839427 1.349233 1.262456 0.090279 -0.034431 631283.000000 0 1 0
4.253479 22.152106 7.902759 23.901077 1.381093 1.233810 0.060012 -0.039002 -684922.000000 0 1 0
3.934679 23.572806 7.438059 25.029655 1.405405 1.269069 0.067910 -0.028012 -360353.000000 0 0 1
2.839179 23.716106 6.578159 24.774721 1.451648 1.302054 0.058276 -0.026536 -291277.000000 0 1 0
2.982279 24.901406 5.832959 25.748737 1.451601 1.342279 0.069897 -0.021680 -698328.000000 0 0 1
1.798279 25.200606 4.931159 25.741420 1.499559 1.378040 0.068196 -0.022814 -658920.000000 0 0 1
0.703179 25.635406 5.703159 26.271554 1.543373 1.351969 0.077761 -0.022121 -755671.000000 0 0 1
-0.304021 26.073106 4.866559 26.525133 -1.559137 1.386281 0.091235 -0.017774 -195310.000000 0 0 1
-1.643621 26.565506 5.479659 27.174515 -1.509005 1.367757 0.098786 -0.017478 404973.000000 0 0 1
-2.603221 26.737506 4.455859 27.230969 -1.473740 1.406425 0.121078 -0.022709 -846470.000000 0 0 1
-3.595921 27.557806 4.930159 28.225340 -1.441043 1.395224 0.122280 -0.029356 -717438.000000 0 0 1
-4.658921 28.027406 3.926459 28.682017 -1.406075 1.433469 0.119747 -0.036593 -191382.000000 0 0 1
-4.167121 28.905506 2.944359 29.352384 -1.427619 1.470317 0.124117 -0.035823 -394950.000000 0 0 1
-5.122121 29.381806 2.031959 29.894072 -1.398201 1.502772 0.145861 -0.041677 -607072.000000 0 0 1
-4.572821 30.184606 0.795959 30.539396 -1.420444 1.544730 0.137884 -0.042315 -193640.000000 0 0 1
-4.091021 31.481506 1.158259 31.767330 -1.441571 1.534328 0.136737 -0.041711 995935.000000 0 0 1
-2.831021 31.546706 1.868559 31.728550 -1.481295 1.511870 0.136351 -0.040659 631587.000000 0 0 1
-2.115621 32.929706 1.884359 33.051357 -1.506638 1.513752 0.133475 -0.044927 -848321.000000 0 0 1
-1.527121 33.371406 0.624359 33.412164 -1.525067 1.552109 0.095197 -0.036213 -274205.000000 0 0 1
-0.637421 -33.009737 0.798759 33.025552 1.551489 1.546608 0.101985 -0.033479 821103.000000 0 0 1
0.733379 -33.320437 1.556159 33.364817 -1.548790 1.524139 0.091769 -0.018709 324665.000000 0 0 1
0.573279 -33.555737 2.952559 33.690262 -1.553714 1.483045 0.087735 -0.028739 218219.000000 0 0 1
1.787379 33.317206 3.466759 33.544737 1.517200 1.467264 0.075277 -0.022133 437707.000000 0 0 1
1.865379 33.594206 5.008059 34.016628 1.515326 1.423035 0.083899 -0.031678 438588.000000 0 0 1
0.803279 33.007706 5.768659 33.517627 1.546465 1.397827 0.118788 -0.048363 205674.000000 0 0 1
0.713679 33.475006 7.105559 34.228268 1.549480 1.361682 0.144356 -0.047420 -45578.200000 0 0 1
1.904479 33.304206 8.082659 34.323848 1.513674 1.333082 0.111270 -0.045913 -7121.670000 0 0 1
2.192479 32.002206 8.515959 33.188397 1.502393 1.311299 0.124029 -0.054169 -430349.000000 0 0 1
3.066179 32.018606 9.577759 33.560782 1.475325 1.281388 0.146713 -0.056619 -707019.000000 0 0 1
3.758779 30.685806 9.894959 32.460088 1.448911 1.261032 0.137560 -0.054491 -929927.000000 0 0 1
2.945379 29.679906 10.345159 31.568884 1.471882 1.236927 0.168454 -0.058346 -493301.000000 0 0 1
3.451779 28.362106 10.259959 30.357711 1.449688 1.226038 0.120403 -0.057460 -709731.000000 0 0 1
2.643479 27.408606 11.136559 29.702569 1.474647 1.186469 0.120135 -0.058248 -660288.000000 0 0 1
2.676579 27.737906 12.499159 30.541521 1.474599 1.149163 0.142636 -0.050896 122965.000000 0 0 1
2.179179 26.676206 13.325259 29.898684 1.489287 1.108862 0.152187 -0.040101 -396904.000000 0 0 1
0.657879 26.419106 13.431959 29.644890 1.545900 1.100562 0.103317 -0.037017 -494612.000000 0 0 1
-0.063421 27.471806 14.012159 30.839014 -1.568488 1.099137 0.119038 -0.035937 -137555.000000 0 0 1
-0.390821 28.485206 13.134459 31.369949 -1.557077 1.138788 0.148925 -0.043412 -760385.000000 0 0 1
-1.029921 29.675506 13.896259 32.784179 -1.536104 1.133081 0.141646 -0.036092 702972.000000 0 0 1
-2.281521 29.388906 14.526159 32.862173 -1.493320 1.112933 0.126780 -0.029932 485336.000000 0 0 1
-2.895521 30.529806 15.056659 34.163666 -1.476237 1.114394 0.148443 -0.025934 -119336.000000 0 0 1
-4.074821 30.272006 16.025159 34.493539 -1.436994 1.087631 0.144795 -0.014711 171384.000000 0 0 1
-5.261621 30.032106 15.285259 34.106469 -1.397357 1.106087 0.130633 -0.022307 -511501.000000 0 0 1
-6.242121 29.575206 16.141759 34.266796 -1.362790 1.080303 0.111524 -0.018267 -899957.000000 0 0 1
-7.476521 29.021606 15.396759 33.692910 -1.318660 1.096207 0.105276 -0.025000 -372810.000000 0 0 1
-8.507321 28.742706 16.292759 34.117029 -1.283030 1.072927 0.113048 -0.026165 -551225.000000 0 0 1
-9.596221 28.102806 15.666959 33.575419 -1.241742 1.085331 0.100826 -0.018433 236181.000000 0 0 1
-10.726021 27.770306 16.697659 34.132818 -1.202207 1.059628 0.089642 -0.016692 113462.000000 0 0 1
-11.409921 28.936606 17.109159 35.499814 -1.195207 1.067917 0.071953 -0.024221 -55123.800000 0 0 1
-11.827121 28.879506 18.432159 36.244326 -1.182099 1.037293 0.090427 -0.027032 -350101.000000 0 0 1
-12.847021 29.956806 18.826959 37.641873 -1.165668 1.047013 0.085994 -0.021882 -506330.000000 0 0 1
-14.083621 29.798506 18.155959 37.628954 -1.129285 1.067290 0.104300 -0.023046 66813.000000 0 0 1
-15.053321 30.785006 18.358659 38.876207 -1.116002 1.078973 0.097245 -0.015785 134646.000000 0 0 1
-15.925221 30.645406 19.618759 39.719634 -1.091544 1.054191 0.097009 -0.029995 -467554.000000 0 0 1
-15.128921 30.723206 20.802559 40.069266 -1.113226 1.024923 0.088286 -0.037182 270770.000000 0 0 1
-15.887621 30.290406 21.933759 40.632684 -1.087734 1.000590 0.085910 -0.031805 329501.000000 0 0 1
-15.206521 30.322306 23.364459 41.189543 -1.105952 0.967643 0.070086 -0.029564 -865977.000000 0 0 1
-14.125521 29.511906 23.637659 40.363621 -1.124384 0.945154 0.081415 -0.035766 -153446.000000 0 0 1
-13.710021 29.218306 24.972559 40.808122 -1.132069 0.912272 0.076756 -0.029518 51817.500000 0 0 1
-13.224221 30.385006 25.892259 42.053986 -1.160300 0.907534 0.080850 -0.023855 -135560.000000 0 0 1
-14.271821 31.305406 26.179659 43.232949 -1.143055 0.920341 0.089341 -0.026449 464795.000000 0 0 1
-13.806721 32.423406 26.865059 44.312912 -1.168226 0.919450 0.098824 -0.022776 -1028120.000000 0 0 1
-14.920721 33.353506 27.269859 45.593086 -1.150148 0.929651 0.122901 -0.030192 -779290.000000 0 0 1
-15.769921 32.767706 28.232259 46.037739 -1.122249 0.910638 0.119549 -0.034496 -24426.900000 0 0 1
-15.326421 32.796306 29.562059 46.737696 -1.133632 0.886007 0.138369 -0.032469 -520987.000000 0 0 1
-16.152721 31.856006 30.505459 46.971252 -1.101521 0.863936 0.116895 -0.026739 -599875.000000 0 0 1
-17.355221 32.488206 30.772959 47.996482 -1.080164 0.874800 0.118136 -0.027330 -943065.000000 0 0 1
-18.001021 31.892206 31.891559 48.561519 -1.056940 0.854329 0.083613 -0.019631 605507.000000 0 0 1
-19.454021 32.426206 32.093759 49.597653 -1.030415 0.867045 0.097182 -0.022442 373738.000000 0 0 1
-19.644221 33.651206 32.703459 50.870574 -1.042404 0.872550 0.121510 -0.028337 516779.000000 0 0 1
-21.041221 -33.472637 32.595559 51.240813 1.009606 0.881331 0.109787 -0.030758 705220.000000 0 0 1
-21.321521 -31.950737 32.889059 50.568242 0.982338 0.862699 0.115973 -0.022122 -65710.600000 0 0 1
-21.038821 -31.466537 -33.069346 50.262875 0.981450 2.288860 0.115751 -0.023308 514542.000000 0 0 1
-21.946721 -31.895137 -32.043046 50.256494 0.968109 2.262162 0.105494 -0.022822 272610.000000 0 0 1
-21.674421 -31.082937 -30.775346 48.816508 0.961878 2.252902 0.109693 -0.024303 -116684.000000 0 0 1
-21.873021 -29.693737 -30.988946 48.171173 0.935913 2.269609 0.120432 -0.020912 -420804.000000 0 0 1
-20.969321 -28.927637 -30.290146 46.840299 0.943561 2.274005 0.116175 -0.018644 -457267.000000 0 0 1
-21.367321 -27.442637 -30.181846 46.050023 0.909230 2.285527 0.118424 -0.026747 19048.100000 0 0 1
-22.417221 -27.190937 -29.275846 45.814343 0.881331 2.264008 0.117677 -0.019677 -146936.000000 0 0 1
-22.559021 -25.812637 -29.054346 44.937253 0.852560 2.273854 0.107198 -0.017249 640356.000000 0 0 1
-23.812921 -25.293837 -28.231946 44.764676 0.815546 2.253219 0.110311 -0.013045 487975.000000 0 0 1
-23.808921 -25.660437 -26.856846 44.120437 0.822808 2.225238 0.103146 -0.026182 -268733.000000 0 0 1
-22.849121 -24.966837 -26.132646 42.759098 0.829658 2.228322 0.100345 -0.045899 -365556.000000 0 0 1
-22.881421 -25.236437 -24.642646 42.043991 0.834302 2.197053 0.100946 -0.030987 784777.000000 0 0 1
-24.154921 -24.830637 -24.096046 42.197633 0.799191 2.178554 0.097696 -0.033090 912093.000000 0 0 1
-24.310521 -25.138237 -22.719846 41.702803 0.802135 2.146951 0.094753 -0.026043 434628.000000 0 0 1
-25.831721 -25.113337 -22.329446 42.385867 0.771298 2.125644 0.095561 -0.026185 739248.000000 0 0 1
-26.834321 -25.882037 -22.916346 43.762079 0.767336 2.121935 0.083229 -0.018687 -237811.000000 0 0 1
-26.638421 -27.285937 -22.902946 44.482275 0.797405 2.111662 0.084538 -0.006726 -916940.000000 0 0 1
-27.968021 -28.088037 -23.019646 45.837235 0.787539 2.096942 0.051583 -0.004970 676927.000000 0 0 1
-28.735521 -27.979137 -21.821146 45.658786 0.772062 2.069079 0.051794 0.003194 568559.000000 0 0 1
-29.893821 -27.142137 -21.964946 45.965150 0.737191 2.069014 0.045826 0.002492 466387.000000 0 0 1
-30.394921 -26.353237 -20.685146 45.235159 0.714297 2.045731 0.046363 0.008351 478563.000000 0 0 1
-31.075321 -27.105337 -19.642546 45.674988 0.717268 2.015345 0.070727 0.018510 297276.000000 0 0 1
-31.748121 -26.207137 -18.802646 45.258112 0.690080 1.999238 0.073724 0.019938 -889401.000000 0 0 1
-32.681321 -26.973837 -17.862046 45.985969 0.690014 1.969717 0.063035 0.011837 -467968.000000 0 0 1
-33.842221 -27.596237 -18.345546 47.364621 0.684084 1.968526 0.065062 0.020147 497000.000000 0 0 1
-34.891121 -26.773937 -18.871846 47.857921 0.654517 1.976136 0.055478 0.021419 -54931.300000 0 0 1
-35.916421 -26.344437 -17.792446 47.964464 0.632853 1.950829 0.067079 0.013775 -511313.000000 0 0 1
-35.365721 -25.599937 -16.763146 46.766378 0.626563 1.937397 0.060535 0.020929 805632.000000 0 0 1
-36.436721 -25.256137 -15.857846 47.084800 0.606114 1.914306 0.060637 0.011472 664972.000000 0 0 1
-36.020721 -25.603337 -14.413946 46.484245 0.617934 1.886076 0.110303 0.013349 -46962.600000 0 0 1
-36.241921 -26.932137 -14.028846 47.282400 0.639084 1.872035 0.091251 0.016588 134410.000000 0 0 1
-35.572321 -27.464437 -12.873246 46.748324 0.657479 1.849774 0.098316 0.011200 -5747.260000 0 0 1
-36.047221 -28.848837 -12.318946 47.785081 0.674928 1.831540 0.113209 -0.001017 -203953.000000 0 0 1
-35.760521 -29.883037 -13.223146 48.442361 0.696100 1.847272 0.100853 -0.002490 226255.000000 0 0 1
-36.193021 -31.100537 -12.727146 49.387837 0.709866 1.831435 0.088608 -0.016542 -335711.000000 0 0 1
-35.724521 -32.240737 -13.665046 50.024394 0.734185 1.847481 0.084289 -0.013946 -1103320.000000 0 0 1
-34.363921 -32.437037 -13.582046 49.168205 0.756561 1.850672 0.058927 -0.009718 -1293350.000000 0 0 1
-34.007321 -33.359337 -14.497546 49.794800 0.775780 1.866221 0.078234 -0.023054 905895.000000 0 0 1
-32.457321 -33.528437 -14.766246 48.945641 0.801629 1.877258 0.092935 -0.020682 1112510.000000 0 0 1
-32.193221 33.148106 -15.909846 48.870478 -0.800011 1.902391 0.087160 -0.024122 -308005.000000 0 0 1
-30.851321 32.711006 -15.872046 47.683706 -0.814647 1.910132 0.079020 -0.023318 -297434.000000 0 0 1
10.256349 19.163206 -9.248541 23.621107 1.079379 1.973098 0.106298 -0.047795 -850664.000000 0 1 0
8.869049 19.300506 -9.023241 23.077878 1.140050 1.972504 0.091992 -0.045659 -124601.000000 0 1 0
8.241149 19.620106 -10.294341 23.639766 1.173138 2.021353 0.102493 -0.040924 345272.000000 0 1 0
8.075849 18.447506 -11.341241 23.111763 1.158155 2.083704 0.104402 -0.027861 -291286.000000 0 1 0
9.271949 18.040706 -12.010741 23.573163 1.096054 2.105410 0.142623 -0.045651 -15963.600000 0 1 0
9.210349 16.884906 -12.851641 23.132126 1.071431 2.159851 0.141082 -0.047563 -330067.000000 0 1 0
10.542049 16.349606 -13.412541 23.629233 0.998093 2.174414 0.171438 -0.055911 -48620.300000 0 1 0
10.520749 15.026806 -13.969441 23.057241 0.959982 2.221642 0.180373 -0.067065 -59016.700000 0 1 0
11.716149 14.700506 -14.651241 23.833420 0.897894 2.232846 0.203618 -0.076755 -358217.000000 0 1 0
11.830149 13.243006 -15.154241 23.344821 0.841688 2.277260 0.177141 -0.080980 -973817.000000 0 1 0
11.952349 12.196206 -14.176441 22.194089 0.795496 2.263667 0.198124 -0.079437 702715.000000 0 1 0
13.248049 12.068906 -13.602741 22.498975 0.738857 2.220052 0.236297 -0.081468 -330321.000000 0 1 0
14.332549 11.492706 -14.498341 23.403123 0.675874 2.238908 0.243047 -0.081590 -822549.000000 0 1 0
14.635149 12.282406 -15.674041 24.712763 0.698214 2.257833 0.189886 -0.073072 -175471.000000 0 1 0
15.602949 11.548106 -16.380241 25.399273 0.637150 2.271702 0.181321 -0.076651 -215704.000000 0 0 1
16.091349 12.215606 -17.700341 26.859907 0.649326 2.290268 0.122811 -0.057822 -456546.000000 0 0 1
17.045149 13.175406 -17.407641 27.697552 0.658041 2.250407 0.118330 -0.047049 -770584.000000 0 0 1
17.644449 13.725206 -18.516841 29.027250 0.661105 2.262581 0.077954 -0.029114 112623.000000 0 0 1
18.797749 14.674106 -18.017141 29.888160 0.662818 2.217825 0.080543 -0.019065 19306.800000 0 0 1
18.475849 15.912006 -17.360141 29.931980 0.710979 2.189508 0.104462 -0.029265 80242.100000 0 0 1
17.790649 16.802506 -18.225541 30.512321 0.756841 2.210948 0.091288 -0.020817 -117538.000000 0 0 1
17.763349 18.161706 -17.536641 30.869369 0.796486 2.174982 0.112133 -0.019995 -403235.000000 0 0 1
18.993749 18.838206 -17.427541 31.927413 0.781287 2.148198 0.120629 -0.023783 -191331.000000 0 0 1
18.904849 20.248306 -17.140941 32.576051 0.819698 2.124901 0.097210 -0.019742 -907443.000000 0 0 1
20.221249 21.019206 -17.324141 33.923912 0.804745 2.106768 0.114989 -0.024050 -33110.900000 0 0 1
21.316749 20.555506 -16.570441 33.933938 0.767220 2.080954 0.128640 -0.029163 -319698.000000 0 0 1
21.188549 20.785706 -15.183041 33.339540 0.775801 2.043625 0.122520 -0.026475 -762006.000000 0 0 1
22.107349 21.942806 -14.635941 34.415584 0.781663 2.010057 0.125720 -0.029197 309636.000000 0 0 1
23.462649 21.578106 -14.586241 35.055228 0.743582 1.999941 0.131638 -0.038612 -276230.000000 0 0 1
24.277449 22.537906 -13.905441 35.926495 0.748258 1.968229 0.107906 -0.042369 -96654.700000 0 0 1
25.749049 22.137406 -13.829341 36.665092 0.710120 1.957546 0.096084 -0.028129 -365263.000000 0 0 1
26.426949 22.256606 -15.060641 37.690358 0.699945 1.981864 0.105180 -0.020471 471605.000000 0 0 1
27.669049 22.958906 -14.846541 38.898682 0.692631 1.962401 0.094388 -0.011557 623156.000000 0 0 1
28.240449 23.487606 -16.189641 40.140940 0.693774 1.985938 0.103040 -0.012190 -191800.000000 0 0 1
28.657749 22.491206 -17.096341 40.241842 0.665417 2.009581 0.105425 -0.022895 73418.600000 0 0 1
28.772349 23.055906 -18.407541 41.209956 0.675546 2.033844 0.106911 -0.024819 -396227.000000 0 0 1
29.220849 22.137106 -19.527041 41.535705 0.648334 2.060231 0.097101 -0.025694 -860228.000000 0 0 1
30.568849 21.871406 -19.397641 42.297534 0.621040 2.047215 0.082337 -0.013430 -1397390.000000 0 0 1
31.053349 21.251106 -20.535241 42.867425 0.600140 2.070358 0.111442 -0.027149 182767.000000 0 0 1
32.586949 21.427806 -20.679041 44.143888 0.581670 2.058328 0.133534 -0.033882 172127.000000 0 0 1
32.830649 22.687206 -21.245541 45.209887 0.604685 2.060009 0.110122 -0.022389 1051180.000000 0 0 1
34.245149 22.996306 -21.120441 46.342565 0.591355 2.044007 0.123344 -0.022055 1475440.000000 0 0 1
34.703749 24.374506 -21.768841 47.669164 0.612308 2.045039 0.134966 -0.025314 -144814.000000 0 0 1
34.705349 24.475406 -23.186841 48.385291 0.614230 2.070554 0.120716 -0.024571 103682.000000 0 0 1
33.388949 24.574706 -23.693541 47.750623 0.634489 2.090005 0.112741 -0.027968 -174620.000000 0 0 1
33.400549 24.926206 -25.215881 48.710913 0.641117 2.114915 0.131658 -0.035005 -272915.000000 0 0 1
33.402149 26.322106 -25.437151 49.554066 0.667403 2.109847 0.146952 -0.038706 626517.000000 0 0 1
32.086449 26.891306 -25.579631 49.061187 0.697538 2.119266 0.133910 -0.034596 650029.000000 0 0 1
31.340949 26.669706 -26.892411 49.160249 0.705048 2.149615 0.154034 -0.036524 -299266.000000 0 0 1
30.839849 25.352106 -27.083631 48.242602 0.688046 2.166879 0.152168 -0.043458 -84485.900000 0 0 1
30.524349 25.182806 -28.465201 48.746049 0.689804 2.194381 0.139481 -0.045315 -278133.000000 0 0 1
29.859849 23.841606 -28.758431 47.823427 0.673795 2.215981 0.131858 -0.051160 -368932.000000 0 0 1
28.568849 23.858906 -28.209421 46.703297 0.695802 2.219324 0.102606 -0.036756 -802769.000000 0 0 1
27.891149 22.739906 -28.603561 45.969373 0.684006 2.242385 0.092014 -0.040204 -762525.000000 0 0 1
26.492249 22.729506 -27.977761 44.735051 0.709102 2.246454 0.066179 -0.024726 -623952.000000 0 0 1
26.457349 22.440106 -26.579411 43.703716 0.703426 2.224553 0.063905 -0.013427 571350.000000 0 0 1
25.205849 22.731706 -25.963231 42.733531 0.733832 2.223783 0.042280 -0.018480 -36590.500000 0 0 1
25.262149 22.667006 -24.416341 41.810609 0.731306 2.194413 0.058575 -0.014995 -243792.000000 0 0 1
25.608949 21.376606 -24.007841 41.099319 0.695563 2.194619 0.060278 -0.010305 289979.000000 0 0 1
26.004449 21.452506 -22.649941 40.613560 0.689773 2.162401 0.079450 -0.015566 -90490.000000 0 0 1
26.622149 20.119906 -22.154741 40.054737 0.647176 2.156891 0.095303 -0.008256 2693500.000000 0 0 1
28.008649 19.800306 -22.626541 41.091324 0.615365 2.153927 0.087043 -0.013288 2709150.000000 0 0 1
28.607449 18.653206 -22.019241 40.634655 0.577808 2.143473 0.129479 -0.027363 1105530.000000 0 0 1
29.780749 18.008306 -22.896441 41.658602 0.543865 2.152707 0.157995 -0.038080 1192500.000000 0 0 1
30.942149 17.797606 -22.100141 41.983182 0.521977 2.125163 0.180311 -0.047137 -669089.000000 0 0 1
31.953149 17.284906 -22.894041 42.940760 0.495865 2.133121 0.167878 -0.037524 -332236.000000 0 0 1
33.276749 17.180206 -22.102941 43.486107 0.476589 2.103978 0.150523 -0.035531 -151109.000000 0 0 1
33.869949 18.363706 -21.683441 44.210528 0.496822 2.083412 0.135608 -0.033757 -597660.000000 0 0 1
35.208249 18.086106 -21.352041 44.973745 0.474539 2.065495 0.128663 -0.028430 -114234.000000 0 0 1
35.841949 19.186206 -20.532941 45.545115 0.491487 2.038487 0.098140 -0.031025 -162375.000000 0 0 1
35.487449 19.072406 -19.190041 44.624807 0.493150 2.015323 0.123806 -0.030947 -226737.000000 0 0 1
35.901449 20.200606 -18.379941 45.108766 0.512517 1.990465 0.106929 -0.017024 -22321.500000 0 0 1
35.383349 20.238006 -16.945441 44.144153 0.519550 1.964776 0.102859 -0.027865 -283685.000000 0 0 1
35.674449 19.129606 -16.124541 43.573030 0.492208 1.949868 0.098407 -0.034494 116095.000000 0 0 1
35.162649 19.216806 -14.780141 42.710070 0.500161 1.924162 0.086220 -0.029677 -167634.000000 0 0 1
35.519249 17.956106 -13.967741 42.179813 0.468063 1.908316 0.069233 -0.021534 86943.300000 0 0 1
36.917149 17.847406 -13.704041 43.234321 0.450316 1.893331 0.063665 -0.022766 298979.000000 0 0 1
37.355249 16.712006 -13.002341 42.939104 0.420673 1.878435 0.055733 -0.012696 -175426.000000 0 0 1
37.440549 17.049506 -11.497241 42.716120 0.427315 1.843311 0.075023 -0.020166 -444939.000000 0 0 1
-37.975881 18.073206 -11.193041 43.521172 -0.444193 1.830906 0.066868 -0.017950 -103473.000000 0 0 1
37.916349 18.837806 -10.071841 43.519587 0.461105 1.804346 0.072361 -0.016998 -559827.000000 0 0 1
36.780749 19.848906 -10.223141 43.026913 0.494866 1.810689 0.078169 -0.016668 111947.000000 0 0 1
35.536749 19.170206 -10.270341 41.663380 0.494705 1.819871 0.097558 -0.035837 407224.000000 0 0 1
34.389449 20.031906 -10.193741 41.083133 0.527454 1.821540 0.070079 -0.016011 835768.000000 0 0 1
33.020349 19.374606 -10.464241 39.689031 0.530618 1.837606 0.064033 -0.019165 58235.000000 0 0 1
32.792549 19.144906 -11.852341 39.778847 0.528437 1.873347 0.086695 -0.024125 -476875.000000 0 0 1
31.644749 18.358106 -12.013741 38.506366 0.525682 1.888087 0.078937 -0.028225 -142000.000000 0 0 1
31.406049 17.780506 -13.432941 38.508833 0.515157 1.927116 0.109447 -0.036527 -458433.000000 0 0 1
32.468449 16.919806 -13.701241 39.092250 0.480397 1.928885 0.097555 -0.023198 -559442.000000 0 0 1
32.232049 15.880206 -14.568841 38.772891 0.457777 1.956000 0.070638 -0.021556 -467777.000000 0 0 1
33.505049 15.115606 -14.970241 39.688512 0.423805 1.957560 0.083968 -0.037525 -281103.000000 0 0 1
34.051649 14.390006 -13.913041 39.498858 0.399831 1.930759 0.066751 -0.034373 119585.000000 0 0 1
35.115849 13.613106 -14.447741 40.338279 0.369826 1.937098 0.075600 -0.036244 -202215.000000 0 0 1
35.861749 12.697506 -13.481141 40.361280 0.340294 1.911353 0.056675 -0.049985 -862589.000000 0 0 1
36.746949 13.424106 -12.679641 41.125639 0.350250 1.884217 0.064601 -0.026763 -103550.000000 0 0 1
37.453349 12.453306 -11.924141 41.231339 0.321002 1.864188 0.061354 -0.023147 150398.000000 0 0 1
-37.794581 13.049806 -10.990741 41.467145 -0.332466 1.839049 0.091057 -0.021000 818100.000000 0 0 1
-36.557581 13.458806 -11.572941 40.639010 -0.352755 1.859567 0.077932 -0.018930 94733.200000 0 0 1
-35.657681 14.007406 -10.668541 39.768019 -0.374310 1.842392 0.078829 -0.025076 618557.000000 0 0 1
-34.209681 14.308906 -11.257941 38.752913 -0.396157 1.865552 0.115262 -0.030791 1639710.000000 0 0 1
-33.390181 13.210106 -11.732041 37.776340 -0.376732 1.886585 0.134152 -0.042006 642384.000000 0 0 1
-33.034981 12.252406 -10.708841 36.825408 -0.355164 1.865860 0.178465 -0.034344 -441855.000000 0 0 1
-31.994181 11.162306 -11.154041 35.674042 -0.335682 1.888794 0.213294 -0.045441 116181.000000 0 0 1
-32.356481 10.289306 -12.259841 36.098689 -0.307886 1.917309 0.195737 -0.039271 76858.100000 0 0 1
-31.660381 9.058606 -12.296741 35.151783 -0.278673 1.928174 0.218488 -0.048764 -258961.000000 0 0 1
-31.760481 8.383406 -13.704141 35.592318 -0.258071 1.966038 0.214512 -0.055943 54446.100000 0 0 1
-33.047681 7.988206 -14.157041 36.829098 -0.237168 1.965352 0.165023 -0.047555 272289.000000 0 0 1
-32.983781 7.150006 -15.286741 37.050463 -0.213471 1.996095 0.175480 -0.057280 202800.000000 0 0 1
-34.375581 6.924406 -15.953141 38.524416 -0.198774 1.997755 0.176088 -0.057188 -277624.000000 0 0 1
-35.242381 6.285806 -15.123241 38.861924 -0.176503 1.970508 0.180118 -0.051813 -897181.000000 0 0 1
-36.304581 5.705206 -15.818241 40.009857 -0.155874 1.977255 0.126927 -0.047998 -80023.600000 0 0 1
-37.254181 4.935806 -14.829941 40.400041 -0.131723 1.946661 0.110460 -0.039937 662790.000000 0 0 1
38.053049 4.112006 -15.396141 41.255113 0.107642 1.953245 0.127465 -0.034593 639260.000000 0 0 1
37.118449 3.694106 -14.408541 39.987895 0.099195 1.939410 0.137172 -0.035770 335283.000000 0 0 1
36.108649 2.626506 -14.828141 39.122971 0.072611 1.959527 0.151294 -0.030685 -288984.000000 0 0 1
36.747149 1.394106 -15.014641 39.720724 0.037920 1.958437 0.152971 -0.034059 -283682.000000 0 0 1
35.973949 0.224106 -14.922141 38.946701 0.006230 1.963992 0.146724 -0.027873 -110859.000000 0 0 1
35.589949 -0.224694 -13.467141 38.053369 -0.006313 1.932536 0.157532 -0.033650 -121922.000000 0 0 1
36.738249 -0.489094 -12.713841 38.879042 -0.013312 1.903934 0.159404 -0.032730 -127156.000000 0 0 1
36.388949 -0.596894 -11.361741 38.126121 -0.016402 1.873397 0.157683 -0.027368 -218880.000000 0 0 1
36.499949 0.738606 -10.600841 38.015387 0.020233 1.853400 0.139931 -0.026788 -94478.200000 0 0 1
35.467749 1.601506 -11.044441 37.182062 0.045123 1.872384 0.143221 -0.025428 547262.000000 0 0 1
35.756149 2.909706 -10.593241 37.405686 0.081197 1.857924 0.146832 -0.028844 1219900.000000 0 0 1
34.506049 3.888806 -10.861841 36.383648 0.112226 1.873955 0.143711 -0.027454 1141420.000000 0 0 1
34.488249 4.421706 -12.130541 36.825818 0.127513 1.906468 0.134839 -0.025558 243129.000000 0 0 1
33.439649 5.335706 -12.374341 36.052798 0.158228 1.921148 0.131878 -0.031810 -79069.200000 0 0 1
33.541049 6.007206 -13.780941 36.755991 0.177221 1.955118 0.095843 -0.027352 -139594.000000 0 0 1
33.192049 5.077506 -14.829841 36.707184 0.151797 1.986686 0.107707 -0.023902 185734.000000 0 0 1
33.421149 5.672106 -16.081441 37.520111 0.168114 2.013748 0.092171 -0.021179 -190345.000000 0 0 1
32.378949 6.682306 -16.698741 37.039135 0.203521 2.038503 0.101385 -0.013039 567217.000000 0 0 1
31.187149 6.287906 -17.333941 36.230395 0.198951 2.069670 0.104961 -0.011166 250473.000000 0 0 1
30.162949 5.708406 -16.566241 34.883087 0.187040 2.065655 0.107197 -0.009895 -135232.000000 0 0 1
28.777849 5.828506 -17.273441 34.066227 0.199831 2.102561 0.080814 -0.007526 179437.000000 0 0 1
28.511949 4.842306 -18.286541 34.216615 0.168229 2.134635 0.092041 -0.006630 -297006.000000 0 0 1
27.346649 5.189606 -18.956241 33.676554 0.187541 2.168676 0.067638 -0.007800 -551449.000000 0 0 1
26.825349 3.986206 -19.784541 33.569588 0.147519 2.201062 0.077160 0.011592 61384.000000 0 0 1
26.130949 3.045106 -18.941741 32.417414 0.116009 2.194823 0.078067 -0.004673 249888.000000 0 0 1
25.562949 1.983106 -19.641441 32.298348 0.077422 2.224493 0.083582 -0.007350 70074.200000 0 0 1
24.429349 1.307606 -18.794941 30.850490 0.053475 2.225881 0.084317 -0.010886 -251988.000000 0 0 1
23.328949 2.145406 -18.646441 29.942151 0.091705 2.243047 0.087639 -0.025222 -337543.000000 0 0 1
22.311149 1.439606 -17.929241 28.658638 0.064435 2.246714 0.109754 -0.036670 587040.000000 0 0 1
20.927249 2.157906 -17.967641 27.666630 0.102752 2.277636 0.131229 -0.054802 -590772.000000 0 0 1
20.279249 2.065106 -19.221741 28.017636 0.101484 2.326854 0.126497 -0.042408 1065660.000000 0 0 1
19.036349 2.806406 -19.332341 27.276325 0.146369 2.358534 0.111802 -0.038730 1202850.000000 0 0 1
17.814349 2.256806 -18.562541 25.826578 0.126013 2.372782 0.151246 -0.050656 -955880.000000 0 0 1
17.941649 2.345106 -17.138041 24.922174 0.129971 2.329061 0.160833 -0.059056 282450.000000 0 1 0
16.785349 1.867506 -16.436041 23.566480 0.110802 2.342606 0.139990 -0.049406 568721.000000 0 1 0
15.737249 2.961406 -16.170141 22.757513 0.186003 2.361063 0.145606 -0.051861 -322779.000000 0 1 0
15.314349 3.624906 -17.341141 23.417609 0.232422 2.404636 0.141213 -0.033542 -417495.000000 0 1 0
14.270449 4.485006 -17.084941 22.708065 0.304511 2.422454 0.143741 -0.044459 -649732.000000 0 1 0
-21.212651 -21.596694 -17.265141 34.849373 0.794369 2.089117 0.149788 -0.028712 41000.300000 0 0 1
-20.690251 -22.201394 -18.435541 35.508556 0.820615 2.116694 0.144712 -0.030662 -21350.500000 0 0 1
-21.623651 -22.150094 -19.470141 36.569048 0.797424 2.132255 0.152226 -0.030760 -181828.000000 0 0 1
-21.198051 -22.988694 -20.737841 37.521933 0.825900 2.156380 0.120885 -0.028404 -89023.800000 0 0 1
-21.247051 -24.378194 -20.453141 38.263095 0.853918 2.134759 0.114538 -0.030794 195495.000000 0 0 1
-20.726951 -25.183624 -21.489141 39.058988 0.882168 2.153366 0.101386 -0.039879 -211175.000000 0 0 1
-20.816751 -26.752514 -21.350841 40.061110 0.909538 2.132888 0.093077 -0.013273 308870.000000 0 0 1
-22.132951 -27.254744 -21.579141 41.211017 0.888735 2.121897 0.100083 -0.000062 297553.000000 0 0 1
-22.179751 -28.654264 -21.457241 42.112010 0.912082 2.105432 0.135024 -0.018960 -893941.000000 0 0 1
-23.539851 -29.256364 -21.720141 43.379994 0.893253 2.095198 0.115270 -0.014809 -508040.000000 0 0 1
-24.150451 -29.067664 -23.031441 44.256306 0.877534 2.118128 0.079026 -0.018851 65358.000000 0 0 1
-23.423951 -29.514134 -24.147541 44.753428 0.899938 2.140721 0.077125 -0.020450 -432726.000000 0 0 1
-23.959151 -28.775664 -25.402221 45.247680 0.876480 2.166878 0.060788 -0.010978 -84458.100000 0 0 1
-25.220291 -29.241844 -25.809441 46.446482 0.859106 2.159979 0.064232 -0.007027 73866.300000 0 0 1
-25.792131 -28.547114 -26.930791 46.962104 0.836054 2.181517 0.068673 -0.004986 12370.000000 0 0 1
-25.234551 -28.857824 -28.331171 47.667723 0.852281 2.207250 0.079936 -0.026500 -402157.000000 0 0 1
-25.558871 -30.170784 -28.707561 48.863648 0.867965 2.198767 0.068876 -0.008414 44343.600000 0 0 1
-25.172281 -30.412464 -30.057551 49.618727 0.879394 2.221530 0.112132 -0.005147 -417219.000000 0 0 1
-25.662561 -31.675734 -30.748711 51.062730 0.889888 2.217019 0.090975 -0.019403 -382506.000000 0 0 1
-24.945761 -32.836124 -30.477771 51.277641 0.921113 2.207275 0.090762 -0.031387 -177581.000000 0 0 1
-25.699651 33.444530 -30.794381 52.223582 -0.915606 2.201439 0.084798 -0.029358 404790.000000 0 0 1
-24.785451 32.163549 -30.696511 50.902733 -0.914237 2.218106 0.099179 -0.030949 637625.000000 0 0 1
-23.705451 32.088747 -31.599421 50.893609 -0.934536 2.240676 0.111264 -0.048640 161049.000000 0 0 1
-23.087651 30.765270 -31.521371 49.730657 -0.927010 2.257307 0.113762 -0.044702 1108510.000000 0 0 1
-21.708051 30.566280 -32.252961 49.454933 -0.953260 2.281238 0.123475 -0.034416 816996.000000 0 0 1
-21.907051 30.606620 -33.642171 50.482469 -0.949570 2.300184 0.123248 -0.034851 210083.000000 0 0 1
-21.795651 29.327670 33.126628 49.320747 -0.931676 0.834353 0.103700 -0.025808 -114761.000000 0 0 1
-22.094551 29.260990 31.645769 48.433763 -0.924048 0.858752 0.088381 -0.024795 -169346.000000 0 0 1
-21.111851 29.914130 30.857765 47.882847 -0.956223 0.870502 0.086453 -0.018402 395887.000000 0 0 1
-21.468551 29.965760 29.503945 47.215762 -0.949124 0.895825 0.094941 -0.021433 5832.650000 0 0 1
-21.110251 31.382830 28.886215 47.591366 -0.978650 0.918562 0.082785 -0.035742 -69394.900000 0 0 1
-22.125151 32.272705 29.238915 48.846329 -0.969822 0.929057 0.073837 -0.027743 35046.800000 0 0 1
-21.841851 33.578910 28.703735 49.279955 -0.994095 0.949041 0.086453 -0.042566 95340.400000 0 0 1
-23.066051 -32.894714 28.772865 49.416421 0.959260 0.949299 0.111185 -0.049712 20856.200000 0 0 1
-23.364451 -32.451274 30.078735 50.037116 0.946783 0.925884 0.093307 -0.037889 -305427.000000 0 0 1
-24.373951 -31.468524 30.116775 49.913701 0.911767 0.923067 0.093440 -0.036373 -274275.000000 0 0 1
-24.074351 -30.069074 29.615785 48.588252 0.895668 0.915334 0.102463 -0.030787 -459843.000000 0 0 1
-24.152151 -30.009334 28.213185 47.747987 0.893122 0.938651 0.063465 -0.023940 -49122.000000 0 0 1
-24.240351 -28.709184 27.698735 46.680100 0.869597 0.935553 0.059254 -0.031028 -87035.900000 0 0 1
-25.574531 -28.402584 26.969065 46.777065 0.837744 0.956303 0.059152 -0.021477 -588695.000000 0 0 1
-26.710791 -28.257134 27.771995 47.783006 0.813522 0.950581 0.089425 -0.020771 97438.000000 0 0 1
-27.451151 -29.486824 27.912575 49.011736 0.821135 0.964889 0.078607 -0.033714 218578.000000 0 0 1
-28.503151 -29.748524 26.784575 49.140795 0.806774 0.994338 0.064294 -0.005283 -929205.000000 0 0 1
-27.839141 -29.977924 25.616475 48.269011 0.822374 1.011367 0.065755 -0.008303 -52502.300000 0 0 1
-28.719221 -30.029954 24.514565 48.244747 0.807705 1.037785 0.066117 -0.004156 -112982.000000 0 0 1
-27.962251 -29.899794 23.188895 47.049017 0.818871 1.055415 0.068248 -0.013318 -555100.000000 0 0 1
-27.420011 -28.615464 22.859725 45.752254 0.806729 1.047611 0.047222 -0.016824 895416.000000 0 0 1
-26.711221 -28.620274 21.564065 44.694723 0.819887 1.067319 0.081109 -0.021237 1147040.000000 0 0 1
-25.370231 -29.440384 21.446165 44.388318 0.859521 1.066549 0.076710 -0.026317 -30154.800000 0 0 1
-25.530381 -30.866264 21.473065 45.449082 0.879731 1.078712 0.093898 -0.036255 -35801.100000 0 0 1
-24.436451 -31.562244 20.957165 45.083457 0.911967 1.087328 0.086692 -0.020018 312619.000000 0 0 1
-23.351951 -32.177074 21.915865 45.398049 0.943008 1.067005 0.085196 -0.026602 456233.000000 0 0 1
-22.653751 -31.272954 22.722705 44.805261 0.943889 1.038929 0.087842 -0.033180 57992.900000 0 0 1
-21.655951 -31.945184 23.453815 45.161448 0.975050 1.024726 0.106399 -0.042861 -453211.000000 0 0 1
-21.126751 -31.165014 24.633305 44.993304 0.975057 0.991437 0.095737 -0.037491 -914368.000000 0 0 1
-20.070551 -30.295344 24.290335 43.711042 0.985687 0.981589 0.105966 -0.034739 88919.200000 0 0 1
-19.478051 -29.690624 25.442185 43.683319 0.990191 0.949090 0.119449 -0.032595 226120.000000 0 0 1
-18.542851 -30.597044 26.338785 44.426884 1.025952 0.936195 0.105302 -0.041810 -246590.000000 0 0 1
-19.205851 -31.609194 27.088665 45.845410 1.024805 0.938660 0.123953 -0.047700 382561.000000 0 0 1
-18.294751 -32.171744 28.021405 46.421096 1.053741 0.922744 0.143968 -0.040313 108854.000000 0 0 1
-18.659351 -31.776594 29.445935 47.169761 1.039839 0.896619 0.152511 -0.039679 -14549.500000 0 0 1
-18.394851 -30.383514 29.596985 46.233213 1.026400 0.876080 0.150666 -0.032671 302300.000000 0 0 1
-18.703151 -29.915134 30.908715 46.904922 1.012048 0.851354 0.158816 -0.033633 -167579.000000 0 0 1
-18.554151 -28.379914 31.039395 45.968686 0.991770 0.829521 0.156481 -0.032895 235691.000000 0 0 1
-19.439851 -27.509414 30.299405 45.307059 0.955613 0.838261 0.138064 -0.032273 382195.000000 0 0 1
-19.316851 -27.471754 28.862795 44.282038 0.957957 0.860848 0.132770 -0.028212 -874273.000000 0 0 1
-17.956151 -27.101674 28.310015 43.108944 0.985651 0.854350 0.124929 -0.025851 -721677.000000 0 0 1
-17.682451 -25.692174 28.217345 42.059189 0.968005 0.835380 0.103090 -0.016902 499314.000000 0 0 1
-16.670951 -25.480954 27.217955 40.841360 0.991438 0.841385 0.097505 -0.017308 224647.000000 0 0 1
-16.563851 -23.935894 26.863955 39.610103 0.965454 0.825473 0.065502 -0.020715 -2971.670000 0 0 1
-17.723151 -23.518394 26.164835 39.393191 0.925004 0.844377 0.077542 -0.018678 173492.000000 0 0 1
-17.457951 -22.524094 25.176905 38.026193 0.911437 0.847187 0.077728 -0.024953 -69517.400000 0 0 1
-17.906051 -21.139494 25.602595 37.722642 0.868022 0.824797 0.074780 -0.015093 -477017.000000 0 0 1
-17.605351 -20.254294 24.508465 36.343495 0.855252 0.830704 0.076328 -0.018296 72999.500000 0 0 1
-17.997451 -18.952194 24.922585 36.114113 0.811231 0.809160 0.083171 -0.014885 -812.633000 0 0 1
-17.576051 -17.877894 23.844465 34.599063 0.793912 0.810460 0.073668 -0.030690 450704.000000 0 0 1
-16.160851 -17.748894 23.901935 33.874752 0.832195 0.787531 0.067294 -0.036993 162113.000000 0 0 1
-15.752351 -16.554894 23.204335 32.567503 0.810234 0.777742 0.080638 -0.035341 -170278.000000 0 0 1
-14.271251 -16.208894 23.371195 31.821527 0.848883 0.745946 0.093948 -0.046761 -503539.000000 0 0 1
-13.384851 -17.072694 22.672865 31.379769 0.905893 0.763340 0.080288 -0.045401 329714.000000 0 0 1
-12.035251 -16.771794 23.027195 30.925589 0.948363 0.730861 0.099377 -0.049938 255032.000000 0 0 1
-11.334551 -15.824894 21.972465 29.354531 0.949249 0.724968 0.119895 -0.050708 -63527.900000 0 0 1
-10.857151 -16.421094 20.762265 28.611216 0.986608 0.758790 0.138106 -0.051586 -568985.000000 0 0 1
-9.681551 -17.133694 20.969865 28.758149 1.056465 0.753674 0.132832 -0.051989 -1150760.000000 0 0 1
-9.495251 -18.342394 20.006265 28.755066 1.093115 0.801336 0.125118 -0.045298 53684.400000 0 0 1
-9.284151 -17.836094 18.687165 27.450534 1.090863 0.822000 0.113119 -0.045434 -182636.000000 0 0 1
-9.098651 -18.900394 17.793065 27.506426 1.122139 0.867324 0.100410 -0.043016 56520.300000 0 0 1
-8.835951 -18.521594 16.325265 26.222848 1.125667 0.898788 0.098769 -0.044295 -569640.000000 0 0 1
-7.572951 -17.968494 16.159165 25.324592 1.171930 0.878792 0.113284 -0.044014 -855639.000000 0 0 1
-7.225651 -17.837394 14.834465 24.299053 1.185915 0.914110 0.124375 -0.045196 -29814.400000 0 1 0
-5.967851 -16.982994 14.691965 23.235558 1.232873 0.886271 0.096966 -0.040775 -206684.000000 0 1 0
-6.352851 -15.688694 15.093365 22.678260 1.186046 0.842575 0.096466 -0.047646 -277869.000000 0 1 0
-5.293351 -14.778194 15.272265 21.901065 1.226847 0.799131 0.073353 -0.034657 -648106.000000 0 1 0
-5.477051 -13.770294 16.415465 22.115302 1.192236 0.734349 0.050554 -0.023103 -269600.000000 0 1 0
-5.238051 -14.142394 17.758265 23.298078 1.216083 0.704060 0.075816 -0.024035 176121.000000 0 1 0
-6.099851 -15.123494 18.355665 24.553181 1.187417 0.726373 0.111793 -0.043504 1308320.000000 0 1 0
-7.505451 -14.646394 18.899065 25.060393 1.097243 0.716452 0.130134 -0.052816 806690.000000 0 0 1
-7.291451 -13.569794 19.775065 25.067065 1.077733 0.661802 0.123705 -0.058331 -1042890.000000 0 0 1
-8.441451 -12.977994 20.226465 25.471480 0.994109 0.653299 0.127586 -0.052095 -648042.000000 0 0 1
-8.105051 -12.099594 21.454765 25.930657 0.980585 0.596352 0.123804 -0.043198 -297592.000000 0 0 1
-7.586051 -10.842194 21.127165 24.929068 0.960286 0.559555 0.086821 -0.036759 13910.900000 0 1 0
-7.153451 -10.073094 22.291505 25.486276 0.953288 0.506088 0.080401 -0.033633 1459460.000000 0 0 1
-5.716351 -10.518994 22.834215 25.782305 1.073010 0.482895 0.086764 -0.024163 1028650.000000 0 0 1
-5.506551 -11.837894 23.391615 26.788533 1.135405 0.509076 0.114184 -0.025165 76904.800000 0 0 1
-4.168651 -11.994994 23.848065 27.018285 1.236321 0.489296 0.086676 -0.008997 78984.200000 0 0 1
-3.955151 -13.358494 24.527475 28.207971 1.282942 0.516561 0.105081 -0.024164 -195395.000000 0 0 1
-2.684151 -13.612694 25.086355 28.667670 1.376114 0.505206 0.074704 -0.016103 -111765.000000 0 0 1
-2.828351 -14.564794 26.123305 30.042634 1.378993 0.516524 0.096075 -0.021208 99876.000000 0 0 1
-2.482951 -16.010594 25.706455 30.386280 1.416940 0.562379 0.114526 -0.042697 -162684.000000 0 0 1
-1.148351 -16.222694 25.311715 30.086167 1.500128 0.571099 0.099013 -0.047679 -107488.000000 0 0 1
-1.025151 -17.520694 24.726895 30.322351 1.512352 0.617260 0.121527 -0.052631 -477030.000000 0 0 1
0.416749 -18.061894 24.713615 30.613207 -1.547727 0.631257 0.116890 -0.052146 -87914.200000 0 0 1
0.820649 -18.579094 25.921925 31.903015 -1.526654 0.622330 0.125845 -0.053746 84694.000000 0 0 1
1.287349 -17.664494 26.947175 32.246579 -1.498047 0.581463 0.122776 -0.057707 -308564.000000 0 0 1
1.861549 -18.476794 28.145285 33.719643 -1.470384 0.583236 0.107131 -0.053616 -672588.000000 0 0 1
3.054749 -19.157994 27.839135 33.931956 -1.412677 0.608616 0.111514 -0.053115 646222.000000 0 0 1
4.002449 -19.117994 28.962245 34.933207 -1.364422 0.593345 0.135839 -0.061550 975809.000000 0 0 1
4.845849 -17.825994 29.108115 34.475073 -1.305369 0.565495 0.137306 -0.055988 -429808.000000 0 0 1
4.073549 -16.650694 29.383055 34.017691 -1.330862 0.528116 0.152987 -0.064551 473141.000000 0 0 1
4.981749 -15.617294 29.743225 33.961406 -1.262010 0.503716 0.183322 -0.077349 347438.000000 0 0 1
4.245649 -14.446094 30.447345 33.966984 -1.284949 0.459260 0.208539 -0.067134 197894.000000 0 0 1
3.590349 -14.868694 31.657786 35.159409 -1.333862 0.450092 0.188886 -0.072339 -96638.800000 0 0 1
2.672649 -13.857094 31.969801 34.946105 -1.380264 0.415706 0.190655 -0.061275 -487648.000000 0 0 1
1.850649 -14.180994 33.219795 36.167392 -1.441028 0.406523 0.182470 -0.057307 63834.500000 0 0 1
2.564549 -14.313994 -32.850311 35.925064 -1.393513 2.724849 0.190687 -0.054693 68896.200000 0 0 1
1.645549 -14.672794 -31.854481 35.109922 -1.459113 2.707563 0.210836 -0.071185 -73935.100000 0 0 1
2.342149 -15.164294 -30.585011 34.218187 -1.417556 2.676596 0.188846 -0.047483 -297239.000000 0 0 1
1.675549 -16.002894 -29.683921 33.764408 -1.466474 2.644868 0.176832 -0.040147 -724951.000000 0 0 1
2.199049 -15.969594 -28.398971 32.655249 -1.433955 2.625310 0.153933 -0.036496 31855.500000 0 0 1
1.839349 -17.187094 -27.575061 32.544790 -1.464183 2.581669 0.138938 -0.035856 371285.000000 0 0 1
2.610449 -18.302294 -28.051541 33.595794 -1.429122 2.558878 0.112878 -0.029849 466814.000000 0 0 1
2.365349 -19.395794 -27.144711 33.445882 -1.449444 2.517684 0.108869 -0.042004 -441884.000000 0 0 1
3.174049 -20.683594 -27.495551 34.552727 -1.418527 2.491052 0.082037 -0.033302 -147750.000000 0 0 1
4.522449 -20.753094 -27.116311 34.444706 -1.356234 2.477119 0.083660 -0.030065 -126700.000000 0 0 1
4.777249 -20.808094 -25.664561 33.383657 -1.345121 2.447722 0.088564 -0.028423 -945109.000000 0 0 1
6.268949 -20.873194 -25.203441 33.319714 -1.279032 2.428607 0.068555 -0.028718 615078.000000 0 0 1
6.991349 -22.102694 -25.204811 34.244569 -1.264442 2.397974 0.060122 -0.019541 243031.000000 0 0 1
7.117349 -22.637594 -26.494841 35.568159 -1.266178 2.411186 0.065028 -0.022236 -1254860.000000 0 0 1
6.201349 -23.801494 -26.866661 36.425064 -1.315918 2.400286 0.049935 -0.024996 -206318.000000 0 0 1
6.601449 -24.933494 -26.145001 36.726276 -1.311973 2.362979 0.060784 -0.019351 24146.300000 0 0 1
6.050349 -26.104474 -26.705081 37.831358 -1.343043 2.354487 0.056326 -0.017209 41499.500000 0 0 1
6.243449 -27.265904 -25.673871 37.967852 -1.345693 2.313389 0.072779 -0.024358 593299.000000 0 0 1
7.615149 -27.645464 -25.543111 38.401988 -1.302005 2.298492 0.090091 -0.028393 411388.000000 0 0 1
7.804549 -28.878724 -24.858041 38.894908 -1.306849 2.264134 0.099256 -0.038093 386123.000000 0 0 1
9.302849 -29.311324 -24.832541 39.526596 -1.263471 2.250097 0.097770 -0.042960 424712.000000 0 0 1
9.900749 -29.493674 -26.084761 40.599463 -1.246926 2.268540 0.109637 -0.045447 -147834.000000 0 0 1
11.290849 -29.691224 -25.989551 41.042768 -1.207408 2.256517 0.133468 -0.029100 18199.800000 0 0 1
11.947549 -29.789054 -27.370181 42.181257 -1.189366 2.276896 0.123876 -0.048071 146478.000000 0 0 1
11.586249 -31.033294 -28.052591 43.407999 -1.213474 2.273462 0.140807 -0.047084 236340.000000 0 0 1
12.295649 -31.020174 -29.269231 44.386057 -1.193418 2.290849 0.140222 -0.016255 143026.000000 0 0 1
-36.236481 -5.044494 -5.511641 36.998752 0.138321 1.720321 0.245782 -0.051221 88240.800000 0 0 1
-35.665759 -4.451794 -4.336241 36.203146 0.124178 1.690860 0.245210 -0.055560 365121.000000 0 0 1
-34.850532 -3.304894 -4.548041 35.301084 0.094548 1.699991 0.253218 -0.063448 -210227.000000 0 0 1
-35.543819 -2.055894 -5.082941 35.964233 0.057777 1.712604 0.231772 -0.042168 -439443.000000 0 0 1
-36.497681 -1.592594 -4.148541 36.767206 0.043608 1.683870 0.172303 -0.039624 526200.000000 0 0 1
-37.393191 -0.618594 -4.711341 37.693900 0.016541 1.696114 0.154685 -0.036281 881632.000000 0 0 1
37.816559 -0.076594 -3.770641 38.004154 -0.002025 1.670176 0.153531 -0.027811 564532.000000 0 0 1
-38.003541 0.750406 -2.754141 38.110596 -0.019743 1.643126 0.163891 -0.022966 -81914.200000 0 0 1
37.272499 1.525606 -2.275341 37.373036 0.040908 1.631716 0.145131 -0.023816 -426646.000000 0 0 1
37.784959 2.732306 -1.465341 37.911949 0.072186 1.609457 0.136592 -0.022628 604673.000000 0 0 1
-37.848191 3.787106 -2.154541 38.098159 -0.099728 1.627379 0.162205 -0.038071 645837.000000 0 0 1
-36.556411 3.569806 -2.708341 36.830012 -0.097343 1.644399 0.140206 -0.010695 -212014.000000 0 0 1
-35.884298 4.917706 -2.967341 36.341048 -0.136195 1.652540 0.130135 -0.015631 102506.000000 0 0 1
-35.199027 5.385706 -1.763041 35.652288 -0.151830 1.620267 0.153910 -0.021500 449523.000000 0 0 1
-34.952734 6.777106 -1.823241 35.650344 -0.191517 1.621961 0.187151 -0.036799 -175096.000000 0 0 1
-34.439159 7.273906 -0.493841 35.202404 -0.208151 1.584825 0.223955 -0.040697 -478116.000000 0 0 1
-33.096241 6.906106 -0.213041 33.809774 -0.205716 1.577098 0.259223 -0.035763 356637.000000 0 0 1
-32.598571 7.354006 1.023559 33.433455 -0.221879 1.540177 0.309027 -0.058670 11425.400000 0 0 1
-32.513041 8.903406 1.195159 33.731245 -0.267288 1.535357 0.322889 -0.068311 -166708.000000 0 0 1
-33.781571 9.537206 1.102859 35.119355 -0.275159 1.539388 0.253890 -0.058196 484477.000000 0 0 1
-33.507391 10.895406 1.373359 35.261044 -0.314380 1.531838 0.285124 -0.042217 633720.000000 0 0 1
-34.836525 11.708006 1.355359 36.776323 -0.324224 1.533934 0.238672 -0.055652 -845099.000000 0 0 1
-35.350579 11.918406 0.047759 37.305685 -0.325181 1.569516 0.176671 -0.052611 615950.000000 0 0 1
-36.661041 12.470306 0.171559 38.724280 -0.327874 1.566366 0.165740 -0.037269 938680.000000 0 0 1
-37.836941 11.528806 0.598559 39.558889 -0.295760 1.555665 0.177746 -0.049343 -428999.000000 0 0 1
38.101949 10.560006 -0.379741 39.540062 0.270365 1.580400 0.176340 -0.036222 -178045.000000 0 0 1
36.956899 9.835006 -0.014341 38.243169 0.260093 1.571171 0.166487 -0.040090 168939.000000 0 0 1
36.519199 8.759406 -1.026841 37.569050 0.235410 1.598132 0.159572 -0.035474 177287.000000 0 0 1
36.129489 9.229006 -2.288841 37.359782 0.250094 1.632100 0.154749 -0.028960 117992.000000 0 0 1
35.626649 8.095506 -3.042341 36.661304 0.223438 1.653877 0.142338 -0.026965 -53391.600000 0 0 1
35.155929 8.628006 -4.410741 36.466923 0.240664 1.692045 0.122945 -0.020656 -1389780.000000 0 0 1
33.981119 9.291706 -4.330541 35.493744 0.266913 1.693110 0.166289 -0.030674 -1244400.000000 0 0 1
33.480779 9.601606 -5.654241 35.286313 0.279284 1.731729 0.143565 -0.019998 48042.100000 0 0 1
32.025309 10.108206 -5.706941 34.064137 0.305735 1.739125 0.190492 -0.030281 32979.000000 0 0 1
31.049279 9.136706 -5.411141 32.814899 0.286187 1.736452 0.205952 -0.025281 574670.000000 0 0 1
29.713879 9.622406 -5.469941 31.708446 0.313178 1.744171 0.238309 -0.026960 -260796.000000 0 0 1
28.669979 8.525306 -5.615641 30.433271 0.289033 1.756383 0.268962 -0.019221 -647165.000000 0 0 1
28.726579 7.854206 -6.871741 30.563471 0.266890 1.797570 0.259460 -0.024496 232085.000000 0 0 1
27.695279 6.929606 -7.114341 29.422131 0.245175 1.815019 0.306656 -0.028698 -256810.000000 0 0 1
28.002379 6.065106 -8.302141 29.830258 0.213298 1.852833 0.295745 -0.041715 -894075.000000 0 0 1
29.125179 5.294406 -8.077341 30.684691 0.179818 1.837172 0.258627 -0.035994 -227999.000000 0 0 1
29.259779 4.232106 -8.957941 30.891586 0.143643 1.865002 0.238013 -0.032348 151871.000000 0 0 1
30.267279 3.125506 -8.490941 31.590712 0.102899 1.842922 0.183122 -0.023983 380860.000000 0 0 1
31.636529 3.330706 -8.830041 33.014136 0.104894 1.841555 0.146543 -0.016491 1605150.000000 0 0 1
32.590109 2.593306 -7.984141 33.653929 0.079406 1.810323 0.130131 -0.015894 805204.000000 0 0 1
32.709559 1.070706 -8.056541 33.704147 0.032722 1.812170 0.099950 -0.010717 -1007790.000000 0 0 1
31.681739 0.471106 -7.341741 32.524694 0.014869 1.798487 0.167601 -0.021680 -73700.500000 0 0 1
32.042819 -0.788694 -6.826941 32.771503 -0.024609 1.780653 0.163087 -0.024227 -32359.200000 0 0 1
31.826329 -1.956594 -7.836541 32.835269 -0.061400 1.811784 0.155193 -0.025503 -268267.000000 0 0 1
32.868099 -2.114594 -8.755641 34.079975 -0.064247 1.830625 0.120194 -0.020254 -162052.000000 0 0 1
32.527429 -3.114094 -9.693441 34.083633 -0.095447 1.859179 0.119653 -0.039735 -105342.000000 0 0 1
33.442419 -3.290994 -10.951641 35.343521 -0.098092 1.885845 0.149304 -0.036754 79285.900000 0 0 1
34.718779 -3.834694 -10.676541 36.525156 -0.110004 1.867434 0.159203 -0.024526 62609.900000 0 0 1
35.441079 -4.050394 -11.872441 37.595620 -0.113792 1.892089 0.193406 -0.053033 70163.000000 0 0 1
36.898859 -4.478994 -11.529841 38.916891 -0.120795 1.871579 0.219789 -0.048263 61399.400000 0 0 1
36.960479 -5.664694 -10.789541 38.917605 -0.152080 1.851717 0.227505 -0.055391 180710.000000 0 0 1
-38.112031 -5.882094 -10.199441 39.889278 0.153129 1.829362 0.230925 -0.049781 -39339.100000 0 0 1
-38.119721 -6.985194 -9.145541 39.818927 0.181233 1.802543 0.244772 -0.063547 -68013.100000 0 0 1
37.790849 -6.568894 -7.839341 39.150401 -0.172103 1.772396 0.257156 -0.060439 353407.000000 0 0 1
37.516799 -7.688294 -7.083341 38.946037 -0.202131 1.753690 0.259448 -0.057507 -572419.000000 0 0 1
36.883659 -7.532194 -5.682541 38.071374 -0.201445 1.720616 0.242314 -0.050089 -1375970.000000 0 0 1
37.644759 -7.031494 -4.631341 38.574851 -0.184658 1.691148 0.273372 -0.052134 -186109.000000 0 0 1
-38.094191 -7.942694 -3.742941 39.093009 0.205557 1.666688 0.275296 -0.045914 -345177.000000 0 0 1
-37.078671 -8.967694 -4.292241 38.388419 0.237299 1.682841 0.264218 -0.046399 -809588.000000 0 0 1
-37.666061 -9.859094 -5.276741 39.290939 0.256007 1.705503 0.261863 -0.040021 -483741.000000 0 0 1
-36.803371 -10.768394 -5.805141 38.783322 0.284647 1.721042 0.205179 -0.034126 -888600.000000 0 0 1
-37.407661 -11.504194 -7.007441 39.759072 0.298356 1.747969 0.212641 -0.035526 -89866.000000 0 0 1
-37.370251 -10.651794 -8.157641 39.705711 0.277671 1.777722 0.197744 -0.045230 183572.000000 0 0 1
-37.622121 -11.456994 -9.243841 40.399694 0.295606 1.801651 0.216487 -0.031055 -86573.900000 0 0 1
-37.552811 -10.705594 -10.574541 40.455460 0.277714 1.835255 0.215783 -0.042410 -118062.000000 0 0 1
37.610659 -9.994294 -10.939541 40.424264 -0.259728 1.844831 0.214052 -0.051504 182370.000000 0 0 1
37.652689 -9.261694 -12.161341 40.637448 -0.241189 1.874718 0.207304 -0.052766 -326127.000000 0 0 1
36.376689 -8.445694 -12.474341 39.372610 -0.228131 1.893180 0.212345 -0.052226 -90213.200000 0 0 1
36.411989 -7.866394 -13.765541 39.714018 -0.212769 1.924758 0.220794 -0.048347 -31715.400000 0 0 1
35.246789 -7.152594 -14.011841 38.598283 -0.200210 1.942300 0.183757 -0.045121 -630702.000000 0 0 1
35.397429 -6.092594 -15.104041 38.964468 -0.170450 1.968862 0.176717 -0.040299 -296132.000000 0 0 1
36.286039 -5.047194 -14.809341 39.515407 -0.138208 1.954949 0.165541 -0.029101 181187.000000 0 0 1
36.388569 -4.126494 -15.867741 39.911666 -0.112918 1.979665 0.185372 -0.037582 -364145.000000 0 0 1
37.691639 -3.327694 -15.775641 40.995171 -0.088059 1.965806 0.168910 -0.034694 -785360.000000 0 0 1
-38.152771 -3.077094 -17.069641 41.910322 0.080478 1.990281 0.169579 -0.037087 928111.000000 0 0 1
-36.797841 -2.582294 -17.028041 40.628850 0.070060 2.003263 0.193113 -0.026833 834201.000000 0 0 1
-36.575881 -1.130394 -16.520441 40.149692 0.030896 1.994864 0.176481 -0.019658 -417808.000000 0 0 1
-37.125741 -0.153594 -17.428341 41.013306 0.004137 2.009696 0.152635 -0.020932 412600.000000 0 0 1
-36.800911 1.190106 -17.059341 40.580100 -0.032328 2.004668 0.148559 -0.026137 163249.000000 0 0 1
-37.133201 2.244206 -18.124541 41.381276 -0.060363 2.024157 0.128444 -0.026883 -420634.000000 0 0 1
-36.141151 2.242406 -19.085441 40.932447 -0.061966 2.055862 0.135480 -0.020902 -211561.000000 0 0 1
-36.089341 3.413806 -19.852941 41.330786 -0.094313 2.071842 0.126438 -0.023273 -316659.000000 0 0 1
-35.001876 3.442506 -20.930741 40.927718 -0.098037 2.107618 0.121188 -0.016105 -608432.000000 0 0 1
-33.688901 3.718706 -20.544241 39.633781 -0.109939 2.115719 0.137722 -0.026427 -492047.000000 0 0 1
-32.933271 4.042206 -21.664141 39.626692 -0.122128 2.149221 0.116441 -0.024817 -1141430.000000 0 0 1
-31.548821 4.576606 -21.393641 38.392203 -0.144059 2.161854 0.131931 -0.031602 -620981.000000 0 0 1
-30.670591 3.504506 -21.034641 37.355358 -0.113769 2.168923 0.143838 -0.018900 -259329.000000 0 0 1
-29.325601 3.876606 -21.035941 36.297792 -0.131430 2.188958 0.108480 -0.011063 -423055.000000 0 0 1
-28.400381 2.795806 -20.450741 35.108844 -0.098126 2.192592 0.124801 -0.010399 -119671.000000 0 0 1
-28.212301 2.901006 -19.087841 34.186187 -0.102468 2.163191 0.123889 -0.007466 -182575.000000 0 0 1
-27.291841 1.903606 -18.720241 33.149897 -0.069637 2.170884 0.110293 -0.009195 -645021.000000 0 0 1
-26.550121 2.294006 -17.441641 31.849367 -0.086189 2.150324 0.105639 -0.014742 -666839.000000 0 0 1
-25.513251 3.176106 -17.750641 31.242581 -0.123851 2.175059 0.092127 -0.021169 -192259.000000 0 0 1
-24.932891 3.686506 -16.550041 30.152002 -0.146794 2.151828 0.118392 -0.036525 53582.100000 0 0 1
-23.720451 4.643006 -16.632141 29.340167 -0.193295 2.173501 0.136881 -0.044252 134390.000000 0 0 1
-22.510251 4.029406 -16.989541 28.488454 -0.177127 2.209762 0.171819 -0.052094 -531594.000000 0 0 1
-21.412151 4.871006 -16.967141 27.750509 -0.223681 2.228647 0.171482 -0.051881 -1149960.000000 0 0 1
-20.215951 4.245006 -17.646041 27.167766 -0.206976 2.277751 0.243137 -0.057631 -818667.000000 0 0 1
-19.794651 3.049406 -17.012941 26.278646 -0.152850 2.274972 0.290695 -0.058906 -163365.000000 0 0 1
-18.713651 2.454806 -17.668841 25.853718 -0.130433 2.323228 0.228183 -0.057593 -874122.000000 0 0 1
-18.436951 1.033206 -17.148441 25.200351 -0.055981 2.319220 0.248827 -0.054759 471513.000000 0 0 1
-19.373951 0.019706 -17.563241 26.149910 -0.001017 2.307212 0.209657 -0.053107 1866.570000 0 0 1
-20.629051 0.184406 -16.992141 26.726851 -0.008939 2.259803 0.203665 -0.054751 -611254.000000 0 0 1
-21.705451 -0.924494 -17.311341 27.778837 0.042567 2.243604 0.169265 -0.045291 296891.000000 0 0 1
-21.629451 -2.058294 -16.494341 27.278801 0.094876 2.220133 0.172581 -0.042517 433931.000000 0 0 1
-22.611151 -3.025594 -16.826841 28.347150 0.133020 2.206320 0.142908 -0.025081 -39575.100000 0 0 1
-22.744951 -4.177994 -15.811541 28.014161 0.181664 2.170518 0.155211 -0.035119 -244486.000000 0 0 1
-23.281551 -3.610394 -14.670341 27.753999 0.153850 2.127729 0.146009 -0.034951 206022.000000 0 0 1
-23.305851 -4.479694 -13.629141 27.367569 0.189897 2.092091 0.146004 -0.046622 -104424.000000 0 0 1
-23.556451 -3.836994 -12.210741 26.809160 0.161467 2.043695 0.167488 -0.061422 -73500.100000 0 0 1
-24.790951 -3.154594 -12.177441 27.799870 0.126568 2.024213 0.155223 -0.046149 345868.000000 0 0 1
-24.991551 -2.579994 -10.947941 27.406046 0.102870 1.981737 0.187042 -0.061870 -109049.000000 0 0 1
-26.166951 -1.575894 -10.801141 28.352379 0.060152 1.961631 0.213107 -0.062253 -70207.700000 0 0 1
-26.306701 -1.241994 -9.465541 27.985380 0.047177 1.915833 0.215362 -0.076486 510050.000000 0 0 1
-27.147691 -0.137294 -9.219841 28.670916 0.005057 1.898188 0.228147 -0.076603 -292200.000000 0 0 1
-26.915231 0.232206 -7.754141 28.010895 -0.008627 1.851286 0.245773 -0.068387 962948.000000 0 0 1
-25.542281 0.570606 -7.445241 26.611375 -0.022336 1.854358 0.233655 -0.064447 1251300.000000 0 0 1
-25.456491 0.771606 -6.050141 26.176946 -0.030302 1.804030 0.231566 -0.066671 -967166.000000 0 0 1
-24.143351 1.251506 -5.498741 24.793221 -0.051790 1.794440 0.172893 -0.053906 -974634.000000 0 1 0
-23.945951 2.660206 -5.488941 24.710599 -0.110638 1.794794 0.221071 -0.053428 300707.000000 0 1 0
-22.579151 2.952006 -5.298041 23.379513 -0.130003 1.799392 0.212442 -0.040177 -157583.000000 0 1 0
-22.318851 4.424406 -5.483641 23.404632 -0.195699 1.807292 0.195757 -0.038728 -286982.000000 0 1 0
-22.761351 5.162306 -4.382041 23.747227 -0.223028 1.756388 0.205472 -0.037874 570732.000000 0 1 0
-22.636851 6.549806 -4.662841 24.022262 -0.281651 1.766141 0.199003 -0.039021 -664564.000000 0 1 0
-23.043351 7.591606 -3.580341 24.524423 -0.318250 1.717311 0.220193 -0.035683 -300095.000000 0 1 0
-22.342051 7.636106 -2.324741 23.725129 -0.329335 1.668940 0.195619 -0.040428 673194.000000 0 1 0
-20.983051 8.027606 -2.350841 22.588876 -0.365396 1.675056 0.198104 -0.040105 -207291.000000 0 1 0
-20.484151 9.444606 -2.627241 22.709104 -0.432021 1.686747 0.175440 -0.044611 -690393.000000 0 1 0
-20.592751 9.925306 -3.929041 23.195052 -0.449128 1.741008 0.160171 -0.032612 489122.000000 0 1 0
-19.927351 11.168306 -4.021441 23.194878 -0.510832 1.745053 0.140312 -0.031859 22116.900000 0 1 0
-19.868551 11.784306 -5.443141 23.733035 -0.535341 1.802205 0.124387 -0.032440 -356298.000000 0 1 0
-19.011151 11.007806 -6.209941 22.828907 -0.524849 1.846289 0.103321 -0.033841 -306547.000000 0 1 0
-18.950751 11.458606 -7.528741 23.390437 -0.543833 1.898503 0.099751 -0.027798 -746289.000000 0 1 0
-17.571751 11.394006 -8.161341 22.476594 -0.575269 1.942393 0.076036 -0.017322 -519274.000000 0 1 0
-16.888651 10.152506 -8.313541 21.387259 -0.541260 1.970032 0.032403 -0.011446 725255.000000 0 1 0
-17.504551 9.161106 -9.157941 21.776203 -0.482157 2.004846 0.046469 -0.017681 -483094.000000 0 1 0
-17.852151 9.549506 -10.618241 22.861308 -0.491193 2.053825 0.053788 -0.021158 -665375.000000 0 1 0
-16.793351 9.426106 -11.519341 22.440216 -0.511477 2.109862 0.061428 -0.022172 -160484.000000 0 1 0
-17.141151 10.032806 -12.767541 23.611149 -0.529544 2.142115 0.093584 -0.028964 483373.000000 0 1 0
-16.112351 9.647306 -13.888941 23.357676 -0.539502 2.207589 0.066769 -0.014938 185470.000000 0 1 0
-16.220451 8.375306 -14.494641 23.309727 -0.476636 2.241871 0.104380 -0.036308 137676.000000 0 1 0
-15.902951 7.232306 -13.709241 22.207057 -0.426820 2.236150 0.078838 -0.024753 -190420.000000 0 1 0
-15.884251 5.989306 -14.634141 22.412927 -0.360575 2.282247 0.099617 -0.025107 -622765.000000 0 1 0
-14.812551 5.892706 -15.515741 22.245760 -0.378624 2.342657 0.121537 -0.033945 -20322.000000 0 1 0
-14.778751 4.720006 -16.302541 22.504728 -0.309139 2.380967 0.124244 -0.033671 -19440.500000 0 1 0
33.829699 -15.418794 27.838635 46.445423 -0.427648 0.928065 0.095625 -0.006772 252170.000000 0 0 1
32.744199 -14.509894 27.994345 45.457705 -0.417125 0.907354 0.120885 -0.004780 441915.000000 0 0 1
31.852439 -14.798594 29.101595 45.612269 -0.434927 0.878871 0.110612 -0.006773 387592.000000 0 0 1
32.349289 -14.785094 30.555185 46.890242 -0.428697 0.861062 0.095213 -0.015865 -395419.000000 0 0 1
32.833329 -13.545294 30.959185 47.116596 -0.391276 0.853863 0.090851 -0.022710 -110094.000000 0 0 1
33.309789 -13.520494 32.271166 48.309150 -0.385584 0.839260 0.070155 -0.028278 -267232.000000 0 0 1
33.843769 -12.109494 32.643566 48.555566 -0.343612 0.833494 0.080923 -0.026918 -57886.800000 0 0 1
34.006679 -12.094094 -33.264621 49.084176 -0.341689 2.315434 0.057496 -0.040887 72049.100000 0 0 1
34.180399 -10.746694 -32.877231 48.628216 -0.304625 2.313244 0.085186 -0.030072 -386364.000000 0 0 1
33.534949 -10.412694 -31.545781 47.203319 -0.301064 2.302712 0.092317 -0.036539 -68960.400000 0 0 1
32.128339 -10.476694 -31.475561 46.181189 -0.315216 2.320698 0.160870 -0.041156 91352.900000 0 0 1
31.697129 -10.323694 -30.136531 44.938816 -0.314863 2.305830 0.147710 -0.042049 -965699.000000 0 0 1
30.215379 -10.461794 -29.866951 43.754463 -0.333322 2.322116 0.142501 -0.038258 -876418.000000 0 0 1
29.985079 -10.306994 -28.464221 42.609283 -0.331085 2.302353 0.137612 -0.041436 -243267.000000 0 0 1
28.891279 -11.076894 -28.072541 41.778836 -0.366114 2.307611 0.163363 -0.040019 -866007.000000 0 0 1
28.269279 -10.697494 -26.724741 40.346007 -0.361760 2.294799 0.148853 -0.039287 -417552.000000 0 0 1
27.535379 -9.437594 -26.672351 39.480116 -0.330196 2.312560 0.125015 -0.039616 1044220.000000 0 0 1
26.303379 -9.355494 -27.394481 39.113305 -0.341723 2.346737 0.109200 -0.041808 607029.000000 0 0 1
25.112679 -10.200894 -26.844801 38.149026 -0.385844 2.351363 0.111323 -0.026681 -315554.000000 0 0 1
25.293779 -11.553494 -27.212461 38.907281 -0.428471 2.345379 0.125977 -0.034448 179671.000000 0 0 1
24.055179 -12.236394 -27.287151 38.379286 -0.470568 2.361696 0.108796 -0.047837 -32990.000000 0 0 1
24.257179 -13.613894 -27.911131 39.405330 -0.511425 2.357895 0.132796 -0.030373 58010.800000 0 0 1
24.538679 -13.508494 -29.303271 40.537734 -0.503225 2.378735 0.134237 -0.030757 808179.000000 0 0 1
25.893179 -13.883194 -29.595301 41.702298 -0.492165 2.359841 0.117396 -0.022192 570022.000000 0 0 1
26.102979 -13.941094 -31.156741 42.970480 -0.490539 2.381937 0.119144 -0.028333 193496.000000 0 0 1
25.315479 -15.003894 -31.741261 43.283923 -0.535017 2.393999 0.121809 -0.019536 231699.000000 0 0 1
25.747279 -15.548694 -32.996931 44.648423 -0.543280 2.402439 0.116302 -0.013149 -140759.000000 0 0 1
25.772279 -14.479794 33.122440 44.395617 -0.511885 0.728649 0.075885 -0.011904 -195423.000000 0 0 1
24.603679 -13.726294 33.038698 43.420131 -0.508885 0.706086 0.085984 -0.010391 -459938.000000 0 0 1
24.646579 -12.874894 31.882560 42.305016 -0.481391 0.717221 0.064541 -0.008874 -342302.000000 0 0 1
23.627579 -11.698494 31.945477 41.420173 -0.459736 0.689987 0.067105 -0.012603 -918155.000000 0 0 1
22.305779 -12.042994 31.912113 40.754931 -0.495059 0.671283 0.072013 -0.007880 -1446770.000000 0 0 1
21.782979 -12.234094 30.629935 39.526752 -0.511732 0.684213 0.064753 -0.010290 -399072.000000 0 0 1
20.259179 -12.497394 30.894395 39.001062 -0.552736 0.656485 0.075225 -0.008994 337422.000000 0 0 1
19.616579 -11.275094 31.152485 38.502146 -0.521664 0.628160 0.075542 -0.002683 -463863.000000 0 0 1
18.531079 -11.454794 32.030935 38.737501 -0.553651 0.597274 0.081966 -0.009108 257461.000000 0 0 1
17.665979 -10.185094 32.334433 38.227458 -0.522989 0.562653 0.107716 -0.009565 78271.500000 0 0 1
16.832179 -9.800094 31.214235 36.792561 -0.527246 0.557870 0.155607 -0.010604 823623.000000 0 0 1
16.016979 -8.597194 31.393578 36.276881 -0.492617 0.524872 0.154050 -0.012207 797757.000000 0 0 1
14.891179 -8.718694 32.432724 36.737507 -0.529685 0.488957 0.158382 -0.015857 -328071.000000 0 0 1
13.874979 -9.693794 32.134181 36.319282 -0.609821 0.484798 0.156588 -0.015474 208559.000000 0 0 1
12.797879 -9.717594 33.018763 36.721330 -0.649435 0.452924 0.130985 -0.018333 193029.000000 0 0 1
11.488679 -9.077394 32.461174 35.610625 -0.668685 0.423737 0.140209 -0.016373 154583.000000 0 0 1
11.744479 -7.666094 32.320514 35.232335 -0.578299 0.409415 0.139051 -0.019929 887120.000000 0 0 1
10.565579 -6.988694 31.842651 34.269924 -0.584388 0.378630 0.142009 -0.015449 637113.000000 0 0 1
10.732079 -5.471594 31.554995 33.776228 -0.471485 0.364683 0.119243 -0.015045 -65296.000000 0 0 1
10.667979 -4.692294 32.718819 34.732471 -0.414380 0.342184 0.084148 -0.018925 329018.000000 0 0 1
11.494179 -3.545994 32.589822 34.738836 -0.299240 0.353583 0.074743 -0.013160 -120703.000000 0 0 1
11.295279 -2.586594 -33.493941 35.441753 -0.225116 2.808519 0.061831 -0.019790 -611814.000000 0 0 1
10.070179 -1.934894 -33.393281 34.932271 -0.189827 2.843654 0.059737 -0.013476 -549487.000000 0 0 1
10.056479 -1.062094 -32.324451 33.869321 -0.105223 2.838397 0.064862 -0.016848 -554905.000000 0 0 1
8.646579 -0.820894 -31.796621 32.961527 -0.094655 2.874941 0.089111 -0.017312 -243706.000000 0 0 1
7.840679 -0.015594 -32.666711 33.594501 -0.001989 2.906028 0.076729 -0.018214 11359.600000 0 0 1
6.489079 -0.077494 -32.283601 32.929395 -0.011942 2.943220 0.090234 -0.022890 -163221.000000 0 0 1
5.562179 0.911306 -33.028921 33.506386 0.162397 2.972572 0.123401 -0.026575 -127313.000000 0 0 1
5.956579 2.278706 -32.885541 33.498241 0.365376 2.950038 0.090894 -0.026765 136284.000000 0 0 1
5.330979 3.029906 33.390505 33.948866 0.516829 0.181617 0.098716 -0.025063 183950.000000 0 0 1
5.979079 4.466906 33.330955 34.156335 0.641636 0.220285 0.090798 -0.032257 334771.000000 0 0 1
5.468279 5.253206 32.277176 33.155910 0.765341 0.230742 0.100902 -0.044159 -410910.000000 0 0 1
6.302079 6.321206 32.162863 33.378490 0.786913 0.270713 0.098824 -0.043426 -659646.000000 0 0 1
5.845479 7.403006 31.244061 32.636873 0.902424 0.293200 0.125581 -0.047503 -276206.000000 0 0 1
4.809779 8.195906 31.828937 33.217286 1.040101 0.290139 0.141517 -0.053953 277704.000000 0 0 1
4.580779 9.432206 31.262434 32.974078 1.118692 0.323618 0.159409 -0.062674 -160963.000000 0 0 1
4.125379 9.451706 29.781425 31.516452 1.159251 0.333359 0.160403 -0.065183 -185961.000000 0 0 1
2.861779 8.836706 29.623635 31.045723 1.257604 0.303843 0.167481 -0.065272 -9385.910000 0 0 1
2.572779 8.624006 28.224055 29.624145 1.280875 0.308671 0.144527 -0.044812 -58569.500000 0 0 1
1.304079 7.788606 27.993175 29.085750 1.404901 0.274960 0.137941 -0.044099 557811.000000 0 0 1
0.104979 8.558406 28.182185 29.453232 1.558531 0.294852 0.145427 -0.044222 1543300.000000 0 0 1
-1.082021 7.819506 27.762935 28.863402 -1.433295 0.277025 0.137395 -0.040722 1266980.000000 0 0 1
-2.458621 8.031206 28.391565 29.607871 -1.273722 0.287628 0.119395 -0.041307 77086.400000 0 0 1
-2.893221 9.365806 28.334795 29.982489 -1.271183 0.333065 0.117716 -0.040314 -196266.000000 0 0 1
-4.196021 9.334206 28.905105 30.663318 -1.148332 0.340282 0.093399 -0.022363 -93827.200000 0 0 1
-4.622921 10.650806 29.532765 31.733189 -1.161290 0.374588 0.082519 -0.007532 -137017.000000 0 0 1
-4.824121 11.935206 28.817735 31.562369 -1.186681 0.420118 0.065327 -0.013490 443072.000000 0 0 1
-5.870921 11.853506 27.854045 30.835388 -1.110924 0.443363 0.049737 -0.014460 41673.400000 0 0 1
-6.377421 13.200006 27.312595 30.998218 -1.120729 0.492609 0.036450 -0.003860 255137.000000 0 0 1
-5.438021 13.881606 26.487195 30.394778 -1.197428 0.512668 0.037814 -0.008746 480057.000000 0 0 1
-5.973121 15.146406 26.108055 30.768853 -1.195162 0.557610 0.027039 -0.005534 806596.000000 0 0 1
-4.798521 15.977306 25.483475 30.458293 -1.279034 0.579625 0.074203 -0.010193 732723.000000 0 0 1
-4.464821 15.621906 24.110835 29.074232 -1.292413 0.592969 0.064181 -0.008631 -345445.000000 0 0 1
-3.621421 16.515906 23.490575 28.942995 -1.354944 0.623885 0.088769 -0.011882 -443523.000000 0 0 1
-3.413121 16.232606 21.983465 27.539420 -1.363552 0.646405 0.094016 -0.016688 189017.000000 0 0 1
-2.388021 15.239106 21.698865 26.622805 -1.415357 0.617984 0.067112 -0.019008 669784.000000 0 0 1
-2.278821 15.228706 20.274665 25.459155 -1.422259 0.649543 0.068945 -0.024071 -37420.300000 0 0 1
-1.370121 14.089506 19.803565 24.342814 -1.473857 0.620603 0.070236 -0.025078 -328003.000000 0 1 0
-1.847721 12.781606 20.017265 23.821722 -1.427230 0.572970 0.061572 -0.021346 -216089.000000 0 1 0
-1.183621 11.862306 19.189165 22.590691 -1.471346 0.555896 0.050408 -0.019065 -249957.000000 0 1 0
-1.914521 10.465506 19.000565 21.776448 -1.389861 0.510443 0.032148 -0.020618 -332368.000000 0 1 0
-2.018721 9.602706 20.124465 22.389312 -1.363589 0.453675 0.052135 -0.029226 53180.700000 0 1 0
-2.940921 10.050406 21.085065 23.542295 -1.286127 0.460962 0.065130 -0.022162 2376520.000000 0 1 0
-4.547121 10.101406 20.820565 23.584118 -1.147820 0.488961 0.051233 -0.020255 2080020.000000 0 1 0
-5.210021 8.873106 20.723865 23.137738 -1.039864 0.460852 0.044572 -0.022006 -113616.000000 0 1 0
-6.566521 9.106706 21.071565 23.875974 -0.946073 0.489554 0.038996 -0.009469 348435.000000 0 1 0
-7.443821 7.823106 20.941465 23.561757 -0.810237 0.476097 0.041091 -0.014636 113228.000000 0 1 0
-7.325321 6.990906 22.077865 24.289200 -0.762043 0.430018 0.039816 -0.022721 113043.000000 0 1 0
-8.060221 5.782706 21.951065 24.088506 -0.622333 0.424446 0.037332 -0.025030 136075.000000 0 1 0
-8.018521 4.998406 23.273435 25.118390 -0.557417 0.385662 0.045084 -0.031180 79394.300000 0 0 1
-8.827921 5.584406 24.280965 26.432613 -0.564035 0.406276 0.027043 -0.021337 93226.700000 0 0 1
-8.977021 4.746206 25.405285 27.359493 -0.486348 0.380247 0.026304 -0.012146 -359001.000000 0 0 1
-9.966721 5.379806 26.400645 28.727546 -0.494961 0.405257 0.041253 -0.008738 -440922.000000 0 0 1
-9.486121 6.501306 27.132165 29.468760 -0.600825 0.400902 0.031273 -0.016332 -608058.000000 0 0 1
-10.310921 6.757606 28.224375 30.799280 -0.580150 0.411812 0.041874 -0.016753 -190201.000000 0 0 1
-9.838121 7.966606 29.081875 31.717675 -0.680669 0.410558 0.057870 -0.017015 988236.000000 0 0 1
-8.715421 7.669806 29.963765 32.134276 -0.721670 0.369647 0.074990 -0.021208 828716.000000 0 0 1
-8.489321 8.774006 30.781285 33.114034 -0.801887 0.377595 0.085353 -0.025781 384481.000000 0 0 1
-7.442421 8.394406 31.880382 33.796663 -0.845438 0.338362 0.114867 -0.029629 1085120.000000 0 0 1
-6.123521 8.073206 31.412397 33.006255 -0.921878 0.312036 0.112056 -0.037600 591443.000000 0 0 1
-5.382021 7.319206 32.386018 33.636157 -0.936751 0.273492 0.147222 -0.036289 -591357.000000 0 0 1
-3.919621 7.185206 32.031521 33.060686 -1.071405 0.250170 0.111324 -0.035805 -904651.000000 0 0 1
-3.292121 8.437706 31.972572 33.230683 -1.198795 0.276048 0.097194 -0.044695 153211.000000 0 0 1
-1.870621 8.257006 32.036582 33.136384 -1.348008 0.258362 0.106200 -0.051012 743979.000000 0 0 1
-1.124521 9.558006 31.581161 33.014993 -1.453682 0.295796 0.109863 -0.045848 41839.500000 0 0 1
-1.262721 10.671706 32.438642 34.172288 -1.453020 0.319898 0.116689 -0.057998 -136622.000000 0 0 1
-1.619021 11.871406 31.758885 33.943752 -1.435253 0.360749 0.103678 -0.046003 -327145.000000 0 0 1
-1.823921 13.107406 32.731672 35.305710 -1.432532 0.384215 0.099729 -0.047918 -215174.000000 0 0 1
-0.664021 13.554706 33.388205 36.040855 -1.521847 0.386063 0.160349 -0.054452 -520335.000000 0 0 1
-0.969221 14.697606 -33.134681 36.261082 -1.504948 2.723293 0.153928 -0.055804 -109966.000000 0 0 1
0.221379 15.165406 -32.301921 35.685468 1.556200 2.702609 0.131302 -0.055092 -327384.000000 0 0 1
1.330779 15.500206 -33.094571 36.568812 1.485151 2.702163 0.161682 -0.056555 -204007.000000 0 0 1
2.482479 15.769906 -32.334911 36.061047 1.414659 2.682989 0.183182 -0.058737 -266768.000000 0 0 1
3.594979 16.419706 -33.141051 37.159923 1.355254 2.672213 0.192622 -0.045550 -349881.000000 0 0 1
3.421479 17.812606 -33.314121 37.931861 1.381026 2.643012 0.172085 -0.036421 -74106.000000 0 0 1
4.535279 18.465206 33.406195 38.438346 1.329952 0.517447 0.150414 -0.008745 148153.000000 0 0 1
4.438379 20.010206 33.214984 39.030023 1.352524 0.552889 0.148079 -0.026495 -25675.200000 0 0 1
4.258079 20.758006 -32.862281 39.101861 1.368473 2.568868 0.167381 -0.052987 233162.000000 0 0 1
4.127179 22.114306 -33.120731 40.038219 1.386290 2.544952 0.142913 -0.041444 9381.430000 0 0 1
4.178579 23.057806 -31.886471 39.571075 1.391520 2.507826 0.160818 -0.042794 -147234.000000 0 0 1
3.633879 24.335806 -32.083771 40.432720 1.422569 2.487352 0.156583 -0.040534 125188.000000 0 0 1
3.135679 24.797606 -30.879171 39.727534 1.445013 2.461117 0.149271 -0.040252 51148.600000 0 0 1
2.564279 26.232506 -30.715821 40.474456 1.473354 2.432409 0.158295 -0.050349 -273301.000000 0 0 1
3.563179 27.188506 -30.752121 41.201991 1.440484 2.413394 0.170402 -0.051202 -348929.000000 0 0 1
3.177079 28.374106 -30.069661 41.465265 1.459290 2.382088 0.156344 -0.046433 -350007.000000 0 0 1
4.310479 29.391706 -29.906831 42.152949 1.425178 2.359562 0.150799 -0.062082 -442219.000000 0 0 1
5.282279 29.095806 -28.966511 41.394772 1.391205 2.345861 0.161970 -0.073884 4594.750000 0 0 1
6.152779 30.233206 -28.751621 42.172967 1.370027 2.320955 0.158703 -0.081267 513495.000000 0 0 1
7.267579 30.036306 -27.698921 41.499730 1.333399 2.301573 0.181111 -0.067239 246017.000000 0 0 1
8.482779 29.400006 -28.078291 41.529608 1.289896 2.313257 0.195769 -0.065566 937827.000000 0 0 1
9.655479 30.225006 -27.952261 42.286028 1.261589 2.292985 0.189614 -0.059696 607813.000000 0 0 1
9.902579 31.560806 -28.729901 43.812701 1.266762 2.285964 0.184113 -0.061893 -1122080.000000 0 0 1
9.121979 32.646806 -28.339451 44.183129 1.298331 2.267130 0.169975 -0.064800 -116751.000000 0 0 1
9.116579 -33.571537 -29.165631 45.395971 -1.305634 2.268516 0.153121 -0.057794 -189029.000000 0 0 1
8.004979 -33.588837 -30.223031 45.888139 -1.336838 2.289785 0.118097 -0.052866 -159421.000000 0 0 1
8.245179 32.908806 -31.284451 46.148558 1.325304 2.315709 0.113322 -0.045049 841341.000000 0 0 1
6.962279 32.506806 -31.791141 45.998287 1.359805 2.333858 0.096549 -0.039556 551811.000000 0 0 1
7.026379 31.786006 -33.154071 46.464100 1.353242 2.365337 0.115360 -0.046445 7842.070000 0 0 1
7.321479 32.606506 33.076351 47.019499 1.349919 0.790542 0.127140 -0.044998 90568.500000 0 0 1
7.031579 31.814106 31.952874 45.635147 1.353273 0.795145 0.121016 -0.043602 -149503.000000 0 0 1
6.654479 32.662706 30.708515 45.322702 1.369814 0.826366 0.104543 -0.051405 943774.000000 0 0 1
7.662779 33.627906 30.253285 45.878268 1.346752 0.850742 0.096487 -0.043457 887370.000000 0 0 1
7.290879 -33.475737 28.947795 44.852611 -1.356349 0.869252 0.079122 -0.051152 47689.700000 0 0 1
18.860049 -21.849594 28.533755 40.586714 -0.858702 0.791144 0.144862 -0.017920 -434563.000000 0 0 1
18.169649 -20.710894 28.966965 39.977023 -0.850666 0.760357 0.156954 -0.019914 446861.000000 0 0 1
16.824249 -20.997994 29.359845 39.824259 -0.895305 0.741827 0.166044 -0.022000 621744.000000 0 0 1
16.559549 -21.535794 30.780065 41.053885 -0.915289 0.723115 0.148234 -0.030658 -348811.000000 0 0 1
17.359849 -22.649494 31.136395 42.235519 -0.916846 0.741866 0.157780 -0.029496 142419.000000 0 0 1
17.250149 -22.896394 32.483394 43.324166 -0.925123 0.723074 0.144980 -0.025722 -149655.000000 0 0 1
18.104349 -24.045694 33.030350 44.687435 -0.925433 0.739001 0.145448 -0.029568 -300259.000000 0 0 1
17.729349 -25.352714 32.663470 44.988801 -0.960535 0.758257 0.170865 -0.034987 386191.000000 0 0 1
18.603649 -26.258894 33.362015 46.353525 -0.954408 0.767383 0.173557 -0.038420 389246.000000 0 0 1
18.174349 -27.732574 33.185545 46.911438 -0.990674 0.784972 0.163203 -0.031546 -31242.900000 0 0 1
18.735349 -28.261694 32.051428 46.658661 -0.985389 0.813534 0.162533 -0.037224 -117123.000000 0 0 1
18.381849 -29.603144 31.924856 47.259231 -1.015120 0.829118 0.156472 -0.040300 -329288.000000 0 0 1
19.124849 -30.387104 30.873665 47.353132 -1.009058 0.860593 0.140730 -0.038524 55329.000000 0 0 1
20.441549 -30.767704 31.239084 48.377566 -0.984376 0.868811 0.150084 -0.046292 249868.000000 0 0 1
21.138049 -31.361444 30.189585 48.391821 -0.977724 0.897128 0.128293 -0.038385 -692400.000000 0 0 1
22.589949 -31.800454 30.424505 49.469437 -0.953147 0.908390 0.135848 -0.038069 -779146.000000 0 0 1
23.383549 -30.683814 30.541645 49.204460 -0.919608 0.901150 0.116511 -0.038171 -984182.000000 0 0 1
24.713049 -31.107764 30.523605 50.101080 -0.899459 0.915694 0.093571 -0.031482 -1534970.000000 0 0 1
25.690449 -29.977454 30.682705 50.000753 -0.862257 0.910128 0.075188 -0.029457 -354688.000000 0 0 1
26.873049 -30.284164 29.954165 50.364108 -0.845007 0.933839 0.071685 -0.032476 -136662.000000 0 0 1
27.554849 -29.124414 29.564965 49.815543 -0.813083 0.935410 0.051673 -0.029114 -606985.000000 0 0 1
28.785449 -29.381304 28.702965 50.156987 -0.795642 0.961534 0.046932 -0.025932 -545046.000000 0 0 1
29.862049 -29.777324 29.528965 51.481946 -0.783978 0.959928 0.037044 -0.022492 138171.000000 0 0 1
31.065749 -29.713194 28.764135 51.723594 -0.763148 0.981095 0.031174 -0.038442 462245.000000 0 0 1
32.112249 -30.839544 29.001005 53.135038 -0.765184 0.993455 0.014442 -0.029033 264205.000000 0 0 1
31.673949 -32.159594 28.577795 53.424422 -0.793006 1.006383 0.004307 -0.030726 464905.000000 0 0 1
32.698349 -33.139304 28.798545 54.742595 -0.792096 1.016821 0.020549 -0.028764 -728413.000000 0 0 1
32.160649 32.910143 29.114335 54.452083 0.796916 1.006670 0.012791 -0.021946 -558496.000000 0 0 1
31.710349 32.688868 30.496835 54.810266 0.800592 0.980741 0.033498 -0.024156 151394.000000 0 0 1
30.800549 33.558700 31.123795 55.168386 0.828227 0.971381 0.037960 -0.020318 1104420.000000 0 0 1
29.316149 33.563750 30.538775 54.023871 0.852847 0.970020 0.026952 -0.025415 1131920.000000 0 0 1
28.511649 32.412487 30.751995 53.001591 0.849339 0.951811 0.021645 -0.014996 1037040.000000 0 0 1
27.131949 32.677143 30.396925 52.229411 0.877849 0.949624 0.053656 -0.020274 1177260.000000 0 0 1
26.289049 31.409460 30.417525 51.018566 0.873911 0.932031 0.073660 -0.028932 -183621.000000 0 0 1
26.353849 30.648070 29.247025 49.892064 0.860591 0.944429 0.060189 -0.021911 -19542.700000 0 0 1
25.582849 29.464380 29.346065 48.824414 0.855794 0.925978 0.086569 -0.037411 86079.800000 0 0 1
25.125449 28.885980 27.935225 47.392666 0.854911 0.940428 0.093593 -0.045936 412326.000000 0 0 1
23.950149 29.474550 27.363235 46.809244 0.888437 0.946448 0.121068 -0.048025 400327.000000 0 0 1
23.620349 28.930240 26.105225 45.567120 0.886100 0.960761 0.113163 -0.045917 228016.000000 0 0 1
22.169249 29.200500 25.636675 44.736829 0.921428 0.960567 0.143087 -0.041901 119821.000000 0 0 1
21.940949 30.538220 25.331635 45.339606 0.947778 0.977968 0.131340 -0.046086 -706285.000000 0 0 1
20.645249 30.840120 24.928195 44.707429 0.980884 0.979323 0.123355 -0.040731 -1035180.000000 0 0 1
20.447849 32.313033 24.560175 45.447209 1.006604 0.999871 0.136015 -0.038738 -529535.000000 0 0 1
20.990549 32.741391 23.362155 45.369506 1.000702 1.029869 0.139522 -0.035619 896488.000000 0 0 1
22.398249 33.061177 23.419655 46.294743 0.975346 1.040393 0.135621 -0.034890 1030450.000000 0 0 1
23.063549 33.242397 22.009565 46.058715 0.964244 1.072581 0.148946 -0.038342 20682.000000 0 0 1
22.631649 -33.045104 21.299765 45.363536 -0.970296 1.082032 0.140061 -0.024621 273955.000000 0 0 1
23.140249 -33.064874 19.963765 45.025647 -0.960175 1.111423 0.156439 -0.026169 82578.000000 0 0 1
22.972949 -31.737064 19.261165 43.657646 -0.944241 1.113876 0.141453 -0.027482 -131941.000000 0 0 1
23.655649 -30.675574 19.871765 43.536968 -0.913892 1.096813 0.130476 -0.017738 301195.000000 0 0 1
23.100149 -29.392294 19.518565 42.172245 -0.904697 1.089612 0.130982 -0.024628 254014.000000 0 0 1
23.693949 -28.771264 18.207865 41.481504 -0.881873 1.116378 0.110764 -0.022766 105528.000000 0 0 1
23.461149 -29.485724 17.014465 41.343989 -0.898696 1.146660 0.103556 -0.030281 436290.000000 0 0 1
24.217849 -28.942484 15.912865 40.955963 -0.874040 1.171754 0.083704 -0.028741 -125702.000000 0 0 1
23.857649 -29.485984 14.502065 40.606903 -0.890520 1.205600 0.062309 -0.029582 -346962.000000 0 0 1
24.365749 -30.726794 14.092765 41.670513 -0.900350 1.225798 0.115595 -0.032584 -115714.000000 0 0 1
24.257349 -30.990084 12.706365 41.355242 -0.906665 1.258495 0.089360 -0.032376 -422721.000000 0 0 1
22.943849 -31.113714 11.899265 40.448435 -0.935396 1.272195 0.085326 -0.030514 -114528.000000 0 0 1
22.025349 -32.044734 12.464265 40.833061 -0.968624 1.260596 0.081052 -0.032433 -36835.200000 0 0 1
20.911649 -32.238434 11.631665 40.148591 -0.995367 1.276867 0.060852 -0.026701 -8224.480000 0 0 1
19.801749 -33.062614 12.361265 40.472788 -1.031174 1.260415 0.065983 -0.018876 24407.900000 0 0 1
19.322449 -32.380944 13.533565 40.062950 -1.032790 1.226210 0.068798 -0.012600 718995.000000 0 0 1
20.007949 -32.802264 14.757765 41.159424 -1.023088 1.204081 0.071024 -0.016153 -554487.000000 0 0 1
19.822449 -31.723244 15.835065 40.620721 -1.012301 1.170352 0.085101 -0.014206 -125400.000000 0 0 1
18.482149 -31.560114 16.203165 40.002165 -1.041019 1.153755 0.100170 -0.028189 -13942.400000 0 0 1
17.622149 -32.569514 16.732565 40.636094 -1.074841 1.146405 0.096330 -0.022216 -373844.000000 0 0 1
17.984349 -33.255264 18.049865 41.894475 -1.075046 1.125372 0.075211 -0.022907 -443417.000000 0 0 1
18.902249 33.116132 17.898265 42.122691 1.052134 1.131936 0.074792 -0.015109 -91428.600000 0 0 1
19.269549 32.629993 19.193365 42.478432 1.037356 1.101972 0.080937 -0.013317 326351.000000 0 0 1
19.964149 31.213380 19.180865 41.722271 1.001765 1.093108 0.102627 -0.018113 -110684.000000 0 0 1
19.130649 30.134440 18.907165 40.392414 1.005150 1.083672 0.062097 -0.014027 -334928.000000 0 0 1
19.829649 28.969730 18.474765 39.670860 0.970552 1.086370 0.070426 -0.023891 366384.000000 0 0 1
18.901049 27.725620 18.231765 38.188439 0.972446 1.073085 0.073372 -0.021529 343653.000000 0 0 1
18.431749 27.092400 19.425565 38.093045 0.973395 1.035669 0.096453 -0.035149 118990.000000 0 0 1
18.155249 25.712840 19.211665 36.876161 0.956003 1.022800 0.098548 -0.038561 -660348.000000 0 0 1
17.999949 24.899370 20.548765 36.962529 0.944861 0.981309 0.121572 -0.041537 661553.000000 0 0 1
16.781349 25.030230 21.312665 36.910104 0.980184 0.955230 0.123823 -0.040175 759596.000000 0 0 1
15.861249 24.009250 20.962165 35.601063 0.986984 0.941214 0.113258 -0.041508 -117715.000000 0 0 1
14.469349 24.188680 21.612765 35.518529 1.031711 0.916637 0.132244 -0.056907 153688.000000 0 0 1
13.818049 25.385960 21.188465 35.837641 1.072326 0.938207 0.119370 -0.048822 -205264.000000 0 0 1
12.592649 25.677050 21.798465 35.959126 1.114839 0.919521 0.120838 -0.048278 -525956.000000 0 0 1
11.912649 26.779500 21.024165 36.070325 1.152240 0.948545 0.103446 -0.045371 -642820.000000 0 0 1
12.416449 28.099760 21.270465 37.365725 1.154724 0.965202 0.089347 -0.043571 -188004.000000 0 0 1
11.928349 29.041160 20.455265 37.471220 1.181066 0.993342 0.090347 -0.048305 -432245.000000 0 0 1
12.680749 30.388270 20.524565 38.800852 1.175473 1.013408 0.078390 -0.043651 -88549.100000 0 0 1
12.080049 31.375980 21.379065 39.842742 1.203279 1.004410 0.088778 -0.046552 -216011.000000 0 0 1
12.627849 31.371280 22.679725 40.718419 1.188112 0.980040 0.089010 -0.043571 -2773.730000 0 0 1
11.966449 32.357966 23.684895 41.847438 1.216579 0.969172 0.091716 -0.039742 374552.000000 0 0 1
10.663749 31.939411 24.071035 41.391499 1.248559 0.950169 0.082197 -0.044641 158003.000000 0 0 1
10.327849 32.401560 25.382205 42.435620 1.262232 0.929625 0.087251 -0.039563 925629.000000 0 0 1
8.965449 31.737773 25.913695 41.942640 1.295485 0.904808 0.178716 -0.054234 1634090.000000 0 0 1
7.757949 32.482903 25.628255 42.096700 1.336356 0.916256 0.156539 -0.049546 810191.000000 0 0 1
7.178849 32.289503 24.370035 41.085843 1.352027 0.935831 0.158954 -0.065842 -292535.000000 0 0 1
6.184849 31.134090 24.283745 39.966038 1.374697 0.917749 0.143965 -0.052094 -580650.000000 0 0 1
6.890749 29.969570 24.589625 39.373940 1.344799 0.896286 0.118837 -0.046460 -443412.000000 0 0 1
6.105449 28.820170 24.424155 38.267715 1.362036 0.878581 0.121803 -0.040563 -765551.000000 0 0 1
6.944549 27.499850 24.585255 37.535360 1.323437 0.856628 0.116373 -0.038648 -228208.000000 0 0 1
7.876049 27.172390 23.567025 36.820858 1.288673 0.876239 0.109983 -0.038660 292461.000000 0 0 1
8.967049 28.073470 23.507185 37.697684 1.261625 0.897494 0.145550 -0.048638 -1281790.000000 0 0 1
10.172349 27.703940 24.365205 38.270722 1.218899 0.880645 0.131197 -0.050388 -1424800.000000 0 0 1
10.039349 27.800510 25.757505 39.205943 1.224249 0.853991 0.140208 -0.044063 813748.000000 0 0 1
11.190249 27.516940 26.605805 39.878221 1.184555 0.840385 0.134918 -0.020844 1029690.000000 0 0 1
12.327249 28.567510 26.660335 40.973615 1.163422 0.862329 0.124493 -0.026087 -109744.000000 0 0 1
11.969449 29.722630 27.367475 42.138831 1.187960 0.863923 0.124173 -0.038890 262897.000000 0 0 1
13.075649 30.599510 27.540175 43.194488 1.166966 0.879436 0.108209 -0.030188 -108053.000000 0 0 1
12.947049 31.829773 28.448915 44.610551 1.184477 0.879265 0.097190 -0.036758 -281499.000000 0 0 1
12.611949 31.560272 29.811055 45.208528 1.190622 0.850760 0.098485 -0.051293 -32144.700000 0 0 1
11.298849 31.287570 30.230835 44.949743 1.224242 0.833151 0.129946 -0.044642 -389586.000000 0 0 1
11.120549 31.079290 31.750955 45.800786 1.227179 0.804821 0.144625 -0.040679 36822.000000 0 0 1
11.667749 29.837550 32.207147 45.428142 1.198036 0.782761 0.122879 -0.040039 343087.000000 0 0 1
11.635149 29.708950 33.575955 46.317849 1.197519 0.759903 0.154959 -0.042825 -138751.000000 0 0 1
11.997049 28.325280 -33.202691 45.262228 1.170158 2.394346 0.172263 -0.048208 390220.000000 0 0 1
13.297449 27.798520 -33.489611 45.509712 1.124617 2.397759 0.169769 -0.037696 517828.000000 0 0 1
13.400449 26.439460 -33.033581 44.382818 1.101696 2.410264 0.178122 -0.040886 264000.000000 0 0 1
14.759149 25.759810 -33.381891 44.673828 1.050502 2.414689 0.216763 -0.038139 221747.000000 0 0 1
14.717149 24.351930 -33.295011 43.796903 1.027183 2.434438 0.176530 -0.042033 44499.800000 0 0 1
14.741649 23.804050 -32.008781 42.526592 1.016312 2.422915 0.184088 -0.042298 -280867.000000 0 0 1
14.938749 22.270150 -31.979861 41.735324 0.979940 2.443787 0.163719 -0.061836 291262.000000 0 0 1
16.246749 21.847450 -32.345401 42.278752 0.931375 2.441917 0.169146 -0.043627 202333.000000 0 0 1
16.315649 20.437050 -32.436821 41.665582 0.897070 2.463075 0.168022 -0.043622 -98232.400000 0 0 1
17.701149 19.925250 -32.859531 42.309515 0.844440 2.460121 0.198552 -0.061205 414659.000000 0 0 1
18.674949 20.078650 -31.807631 41.995610 0.821603 2.430124 0.160221 -0.054728 467144.000000 0 0 1
19.998849 19.727350 -32.147691 42.691876 0.778564 2.423431 0.162265 -0.055332 122429.000000 0 0 1
21.077449 20.178850 -31.154731 42.685619 0.763621 2.388920 0.111802 -0.041639 -144520.000000 0 0 1
21.300349 21.565050 -31.311481 43.579411 0.791573 2.372429 0.071950 -0.043665 -693611.000000 0 0 1
22.417149 21.964150 -30.599061 43.832123 0.775192 2.343532 0.032163 -0.020764 -465416.000000 0 0 1
22.288449 22.345050 -29.120521 42.942764 0.786666 2.316003 0.042002 -0.026994 286416.000000 0 0 1
21.381349 23.447510 -28.980031 42.974294 0.831456 2.310890 0.029331 -0.013465 242764.000000 0 0 1
20.966249 23.825090 -27.675231 42.108632 0.849137 2.287939 0.042195 -0.000134 -524.194000 0 0 1
22.085849 24.405450 -26.779871 42.433150 0.835250 2.253776 0.028608 -0.008717 393023.000000 0 0 1
22.828349 25.512810 -27.330011 43.806010 0.840873 2.244503 0.031251 -0.001823 339586.000000 0 0 1
21.966349 26.639760 -27.498971 44.140579 0.881252 2.243351 0.048517 -0.002872 -296079.000000 0 0 1
22.567549 27.685950 -28.457771 45.668926 0.886900 2.243537 0.044594 -0.008378 -610955.000000 0 0 1
22.658849 27.389450 -29.862331 46.425900 0.879639 2.269500 0.053281 -0.011881 256662.000000 0 0 1
23.396449 26.190880 -30.192251 46.313368 0.841692 2.280900 0.041723 -0.007546 -479400.000000 0 0 1
24.822349 25.995780 -29.712491 46.634340 0.808485 2.261575 0.053205 -0.016395 -1472210.000000 0 0 1
25.753049 26.856400 -30.287271 47.977125 0.806368 2.254006 0.055423 -0.013638 -1205960.000000 0 0 1
27.022549 26.591240 -29.815121 48.231251 0.777354 2.237209 0.083897 -0.026624 -676522.000000 0 0 1
28.056449 27.692020 -30.222211 49.672873 0.778861 2.224871 0.106077 -0.024460 -51295.100000 0 0 1
28.024649 28.812660 -29.395391 49.795977 0.799262 2.202247 0.097473 -0.019262 764080.000000 0 0 1
29.241149 29.546540 -29.637901 51.053384 0.790593 2.190173 0.102554 -0.021340 855650.000000 0 0 1
29.575849 30.731210 -28.714091 51.416312 0.804554 2.163328 0.102685 -0.022590 -298294.000000 0 0 1
30.102349 30.448720 -27.445681 50.858051 0.791118 2.140821 0.123733 -0.023285 382913.000000 0 0 1
29.092049 30.445960 -26.420361 49.712566 0.808135 2.131122 0.117936 -0.026340 281696.000000 0 0 1
29.565049 30.624180 -24.933441 49.331623 0.802993 2.100671 0.147709 -0.025965 -419879.000000 0 0 1
30.069749 29.447170 -24.281341 48.589187 0.774938 2.094080 0.127127 -0.025570 256533.000000 0 0 1
29.127049 28.459960 -23.853141 47.194561 0.773815 2.100667 0.131060 -0.036457 246110.000000 0 0 1
28.105149 28.795980 -22.720541 46.209640 0.797538 2.084819 0.118624 -0.030153 -187775.000000 0 0 1
27.176449 29.775760 -22.992141 46.408984 0.831007 2.089120 0.160098 -0.037908 -353438.000000 0 0 1
26.605949 30.204200 -21.758641 45.755969 0.848652 2.066370 0.119112 -0.030978 -2725.390000 0 0 1
3.913749 -25.774684 -18.966541 32.239439 -1.420103 2.199754 0.100625 -0.009903 -187047.000000 0 0 1
3.869549 -26.985464 -18.227941 32.794001 -1.428373 2.160159 0.102165 -0.009526 206247.000000 0 0 1
3.513049 -26.768004 -16.851241 31.825019 -1.440302 2.128803 0.112240 -0.014070 -58011.200000 0 0 1
3.633849 -28.065984 -15.986941 32.503640 -1.442037 2.085010 0.102140 -0.010352 379361.000000 0 0 1
4.965449 -28.458004 -15.682641 32.870335 -1.398052 2.068155 0.092903 -0.012400 329769.000000 0 0 1
4.923249 -29.406884 -14.606841 33.201852 -1.404916 2.026329 0.095745 -0.014889 -432318.000000 0 0 1
6.311649 -29.892514 -14.233841 33.704622 -1.362708 2.006790 0.126059 -0.021214 -318048.000000 0 0 1
7.185649 -28.890254 -13.686941 32.766029 -1.327021 2.001728 0.108693 -0.018374 1159640.000000 0 0 1
8.576049 -29.286824 -13.720741 33.459310 -1.285931 1.993330 0.111001 -0.026618 1182080.000000 0 0 1
9.079049 -29.982274 -12.453341 33.711297 -1.276760 1.949172 0.097124 -0.028608 -974853.000000 0 0 1
9.387449 -29.124664 -11.346941 32.636227 -1.258991 1.925891 0.095851 -0.037076 64551.400000 0 0 1
9.681849 -29.830884 -10.152241 32.964948 -1.256964 1.883856 0.101613 -0.033350 855162.000000 0 0 1
10.893549 -30.857814 -10.167641 34.267404 -1.231430 1.872047 0.087997 -0.030508 631572.000000 0 0 1
12.165749 -30.320214 -9.858641 34.124971 -1.189220 1.863872 0.090567 -0.026341 539729.000000 0 0 1
13.154249 -31.343894 -9.683041 35.344522 -1.173445 1.848306 0.096838 -0.029341 319339.000000 0 0 1
14.371649 -30.878154 -8.869141 35.194692 -1.135184 1.825545 0.107813 -0.027246 104059.000000 0 0 1
15.200149 -29.840904 -9.447841 34.796347 -1.099679 1.845766 0.095756 -0.034863 -60411.000000 0 0 1
16.224949 -29.554264 -8.549241 34.782079 -1.068730 1.819135 0.093824 -0.029583 -51647.900000 0 0 1
17.441949 -28.877904 -9.268541 34.986580 -1.027449 1.838914 0.091410 -0.038029 299069.000000 0 0 1
17.249549 -27.527724 -9.591141 33.872002 -1.011030 1.857882 0.093840 -0.037072 3813.910000 0 0 1
16.521449 -27.251844 -10.767241 33.638590 -1.025793 1.896617 0.081654 -0.037584 -397874.000000 0 0 1
16.227249 -25.739404 -10.901541 32.321574 -1.008292 1.914826 0.089310 -0.034976 -759238.000000 0 0 1
15.274549 -25.233064 -9.974941 31.137097 -1.026461 1.896901 0.080826 -0.034815 311383.000000 0 0 1
14.720349 -23.935594 -10.078241 29.852509 -1.019422 1.915164 0.060816 -0.021872 337062.000000 0 0 1
14.122049 -23.633494 -11.499041 29.836257 -1.032185 1.966443 0.052471 -0.024086 431467.000000 0 0 1
15.182249 -23.339094 -12.422941 30.488415 -0.994065 1.990472 0.050690 -0.031226 443646.000000 0 0 1
14.510949 -23.267794 -13.640341 30.627060 -1.013169 2.032383 0.070425 -0.038780 288072.000000 0 0 1
15.284049 -22.632394 -14.827241 31.075303 -0.976829 2.068193 0.056611 -0.046863 59511.600000 0 0 1
16.258549 -23.509194 -15.353341 32.446074 -0.965742 2.063711 0.055143 -0.043224 24826.000000 0 0 1
16.801649 -22.931094 -16.549841 32.894190 -0.938458 2.098006 0.052266 -0.047179 -209114.000000 0 0 1
17.711149 -23.886494 -17.399941 34.452973 -0.932776 2.100218 0.054906 -0.043358 474675.000000 0 0 1
19.047449 -24.139994 -17.066341 35.168233 -0.902773 2.077476 0.087278 -0.050782 -514944.000000 0 0 1
19.967749 -23.115594 -17.290241 35.099774 -0.858333 2.085874 0.089162 -0.058715 224471.000000 0 0 1
21.417849 -23.499394 -16.827641 35.973814 -0.831707 2.057568 0.083565 -0.055997 582504.000000 0 0 1
22.082249 -24.372694 -17.701841 37.349821 -0.834663 2.064564 0.114141 -0.055869 -190109.000000 0 0 1
23.424649 -24.495694 -17.258741 38.034423 -0.807745 2.041784 0.137295 -0.039963 157645.000000 0 0 1
24.200949 -25.421154 -18.219941 39.546014 -0.809983 2.049611 0.158596 -0.039796 -322541.000000 0 0 1
24.400849 -24.789394 -19.483241 39.868687 -0.793297 2.081379 0.174002 -0.037457 -204128.000000 0 0 1
25.268549 -25.407924 -20.361141 41.214539 -0.788148 2.087513 0.157744 -0.032710 898576.000000 0 0 1
26.787349 -24.932994 -20.368441 41.881853 -0.749560 2.078682 0.144179 -0.060551 1188670.000000 0 0 1
27.091949 -23.667494 -20.995441 41.652521 -0.718036 2.099092 0.144009 -0.050290 226149.000000 0 0 1
26.680549 -22.522794 -20.210641 40.343500 -0.701097 2.095509 0.150293 -0.042167 633405.000000 0 0 1
25.273249 -21.885294 -20.578041 39.257598 -0.713680 2.122548 0.186569 -0.056226 600225.000000 0 0 1
25.059149 -21.333694 -21.872741 39.515873 -0.705268 2.157379 0.163276 -0.046711 95047.500000 0 0 1
24.663949 -22.360494 -22.789741 40.344447 -0.736453 2.171083 0.116189 -0.043936 -591133.000000 0 0 1
24.195749 -21.916194 -24.155341 40.610766 -0.736003 2.207815 0.095060 -0.042448 97494.400000 0 0 1
25.132049 -21.232894 -24.994341 41.317947 -0.701499 2.220470 0.095856 -0.029535 287016.000000 0 0 1
24.433049 -20.433694 -25.906071 41.056476 -0.696495 2.253620 0.079167 -0.016946 -482923.000000 0 0 1
25.369349 -19.836394 -26.913551 41.969341 -0.663609 2.266945 0.091410 -0.013784 -650519.000000 0 0 1
24.820649 -18.695394 -27.547331 41.526351 -0.645558 2.296110 0.077921 -0.005428 -124224.000000 0 0 1
25.363749 -18.340094 -28.776561 42.517870 -0.626050 2.314218 0.095512 -0.009941 -755434.000000 0 0 1
24.640249 -17.193194 -29.445911 42.069103 -0.609227 2.346112 0.136777 -0.013668 601435.000000 0 0 1
23.312749 -17.648794 -29.822031 41.765030 -0.647995 2.366053 0.129153 -0.008321 953135.000000 0 0 1
22.727649 -16.663794 -30.595311 41.596888 -0.632659 2.397229 0.146960 -0.013590 -413242.000000 0 0 1
21.396549 -17.079594 -31.248721 41.545245 -0.673667 2.422132 0.110862 -0.014203 -59362.900000 0 0 1
21.539249 -18.014794 -32.329941 42.821690 -0.696528 2.426435 0.111185 -0.011879 1252110.000000 0 0 1
20.251749 -18.610494 -32.641071 42.683994 -0.743191 2.441395 0.131895 -0.023031 951061.000000 0 0 1
20.328149 -19.605294 33.499645 43.815835 -0.767299 0.700445 0.150239 -0.019921 -643399.000000 0 0 1
21.070349 -20.686094 -33.508391 44.661912 -0.776196 2.419263 0.150423 -0.017492 -367872.000000 0 0 1
21.228149 -21.487494 32.650006 44.478867 -0.791470 0.746520 0.144071 -0.023129 -176663.000000 0 0 1
21.992949 -22.809494 32.830762 45.626985 -0.803622 0.767646 0.129937 -0.016801 -148302.000000 0 0 1
21.441249 -23.824194 -33.621281 46.451156 -0.837993 2.380088 0.147021 -0.016705 -5251.890000 0 0 1
21.482149 -23.539794 -32.235001 45.328798 -0.831070 2.361911 0.157179 -0.020165 -260396.000000 0 0 1
20.570749 -24.479994 -31.436881 44.840866 -0.871956 2.347702 0.162367 -0.026235 -353664.000000 0 0 1
20.898449 -25.866634 -31.485381 45.794728 -0.891238 2.328882 0.151016 -0.036734 629423.000000 0 0 1
21.937049 -26.264844 -30.563141 45.882259 -0.874943 2.299792 0.129256 -0.042180 493071.000000 0 0 1
22.039949 -27.810484 -30.449431 46.758424 -0.900642 2.279971 0.130621 -0.052391 667361.000000 0 0 1
20.891049 -28.511884 -29.916221 46.307059 -0.938451 2.273182 0.126489 -0.052835 608104.000000 0 0 1
21.030649 -29.894134 -29.982371 47.274623 -0.957722 2.257792 0.120822 -0.046224 595040.000000 0 0 1
19.689949 -30.631054 -29.622941 46.941178 -0.999492 2.253722 0.138871 -0.052245 1877940.000000 0 0 1
18.482849 -30.412354 -30.405921 46.808621 -1.024704 2.277828 0.160751 -0.055459 1087720.000000 0 0 1
18.440649 -31.034474 -31.647331 48.007808 -1.034653 2.290567 0.166190 -0.051628 -750691.000000 0 0 1
17.027349 -31.389064 -32.101791 48.018006 -1.073759 2.303035 0.169402 -0.054613 -555217.000000 0 0 1
16.211249 -30.356084 -32.570621 47.382927 -1.080292 2.328688 0.169435 -0.049536 -832391.000000 0 0 1
15.060349 -30.959734 -33.045591 47.721382 -1.118048 2.335702 0.142654 -0.045907 -580503.000000 0 0 1
13.976449 -30.085144 33.601775 47.217966 -1.135898 0.778979 0.132850 -0.025124 288255.000000 0 0 1
13.078249 -29.479304 -32.802651 46.000911 -1.153243 2.364688 0.143900 -0.029474 -350722.000000 0 0 1
12.201549 -28.618614 -33.427441 45.665049 -1.167783 2.392069 0.131635 -0.028932 213524.000000 0 0 1
11.170149 -27.782264 -32.561441 44.236567 -1.188515 2.398050 0.142157 -0.034800 977563.000000 0 0 1
10.116449 -28.597824 -32.047481 44.127306 -1.230786 2.383648 0.126602 -0.024352 250804.000000 0 0 1
9.223749 -27.849554 -31.254701 42.866438 -1.250968 2.387829 0.073832 -0.025527 -146595.000000 0 0 1
8.267849 -28.699634 -30.430661 42.638614 -1.290309 2.365545 0.053245 -0.023309 -706725.000000 0 0 1
7.163449 -29.324314 -31.014421 43.279610 -1.331205 2.369720 0.051353 -0.023424 -489717.000000 0 0 1
7.303849 -30.350854 -32.001051 44.705568 -1.334639 2.368591 0.059090 -0.021009 108869.000000 0 0 1
5.955449 -31.067764 -32.364321 45.256188 -1.381402 2.367615 0.092421 -0.035381 569103.000000 0 0 1
5.477249 -31.711984 -31.218571 44.835804 -1.399765 2.341007 0.103319 -0.057251 51760.500000 0 0 1
4.332349 -32.519404 -31.485651 45.471168 -1.438353 2.335650 0.135634 -0.082329 -557596.000000 0 0 1
3.552949 -32.785214 -30.155351 44.686003 -1.462847 2.311527 0.110994 -0.088113 526913.000000 0 0 1
2.423349 -31.970494 -29.856301 43.810773 -1.495141 2.320584 0.116888 -0.083059 446303.000000 0 0 1
1.257449 -32.137564 -30.637111 44.418878 -1.531689 2.331915 0.114052 -0.051918 -140475.000000 0 0 1
0.261049 -30.966774 -30.443411 43.425920 -1.562367 2.347655 0.106082 -0.044144 5982.830000 0 0 1
-0.526051 -30.968724 -29.288991 42.628436 1.553811 2.328254 0.090061 -0.050330 -124358.000000 0 0 1
-1.113051 -29.708294 -29.042391 41.560583 1.533348 2.344510 0.164900 -0.051574 -24538.300000 0 0 1
-1.844651 -29.715274 -27.731411 40.686993 1.508798 2.320715 0.184488 -0.060408 125448.000000 0 0 1
-0.875351 -29.658224 -26.691301 39.909924 1.541290 2.303374 0.141163 -0.056441 593245.000000 0 0 1
-1.534651 -29.461744 -25.421891 38.943832 1.518754 2.282049 0.170217 -0.068736 541526.000000 0 0 1
-0.613651 -29.908094 -24.245641 38.506126 1.550281 2.251908 0.119944 -0.063851 369448.000000 0 0 1
-1.308551 -29.785694 -23.017541 37.665728 1.526892 2.228246 0.187343 -0.067744 37207.200000 0 0 1
-0.602151 -30.448164 -21.994841 37.566292 1.551023 2.196286 0.144313 -0.058905 -114749.000000 0 0 1
-1.306551 -30.330884 -20.644641 36.713360 1.527746 2.167985 0.116196 -0.034405 -265882.000000 0 0 1
-1.104551 -29.084724 -20.038041 35.336444 1.532838 2.173734 0.079448 -0.026285 302915.000000 0 0 1
0.216449 -28.750494 -19.629041 34.812885 -1.563268 2.169829 0.083525 -0.029728 255106.000000 0 0 1
0.244049 -27.350594 -18.946841 33.273072 -1.561874 2.176614 0.083556 -0.029443 136049.000000 0 0 1
-0.575551 -27.248664 -17.785341 32.544420 1.549677 2.148969 0.077350 -0.026946 214563.000000 0 0 1
-0.380651 -25.970104 -17.183941 31.142881 1.556140 2.155290 0.079833 -0.025611 -22030.500000 0 0 1
-1.087851 -25.800784 -15.817341 30.282869 1.528658 2.120365 0.057376 -0.023279 -59208.500000 0 0 1
-1.113851 -24.467794 -15.285841 28.871621 1.525305 2.128739 0.037469 -0.020849 219301.000000 0 0 1
-2.153451 -24.457294 -14.315441 28.420563 1.482973 2.098673 0.051420 -0.018525 -29136.300000 0 0 1
-2.253751 -23.249594 -13.324241 26.891605 1.474161 2.089183 0.051227 -0.013929 -173207.000000 0 0 1
-1.086451 -23.220194 -12.538741 26.411698 1.524041 2.065467 0.056990 -0.022021 -407067.000000 0 0 1
-1.300651 -22.841494 -11.167541 25.458584 1.513915 2.024898 0.074779 -0.017852 -1054120.000000 0 0 1
-0.021351 -22.706294 -10.408341 24.978186 1.569856 2.000605 0.073219 -0.027289 -779591.000000 0 1 0
0.649549 -21.507994 -10.750541 24.053894 -1.540605 2.034133 0.071238 -0.010530 -882033.000000 0 1 0
2.024249 -21.555694 -10.556841 24.087183 -1.477163 2.024476 0.058486 -0.002676 -704112.000000 0 1 0
2.501249 -20.252794 -9.957741 22.706574 -1.447917 2.024770 0.069073 -0.011711 -1352160.000000 0 1 0
2.586849 -19.201694 -10.951541 22.256080 -1.436883 2.085262 0.066713 -0.012825 -122522.000000 0 1 0
3.158549 -18.034694 -10.394741 21.054150 -1.397417 2.087152 0.037941 -0.014305 540755.000000 0 1 0
4.641549 -18.108694 -9.906241 21.156615 -1.319882 2.058087 0.067024 -0.038485 -13956.500000 0 1 0
4.773049 -18.877194 -8.718441 21.334049 -1.323140 1.991785 0.066091 -0.023766 -143962.000000 0 1 0
6.080649 -19.425094 -8.611841 22.101411 -1.267428 1.971049 0.085897 -0.022513 237216.000000 0 1 0
6.115949 -20.527094 -7.534641 22.705445 -1.281226 1.909053 0.082644 -0.031339 -151993.000000 0 1 0
5.338949 -21.635894 -7.934241 23.655199 -1.328866 1.912839 0.099587 -0.037626 133604.000000 0 1 0
5.170449 -22.599394 -6.875541 24.181381 -1.345880 1.859106 0.108736 -0.036826 279212.000000 0 1 0
4.110049 -23.635994 -7.338741 25.088041 -1.398628 1.867657 0.097932 -0.031749 444130.000000 0 0 1
4.689549 -24.545194 -8.253241 26.316808 -1.382014 1.889790 0.115393 -0.034850 816912.000000 0 0 1
3.669149 -25.385094 -8.837341 27.128661 -1.427251 1.902608 0.098634 -0.032973 622402.000000 0 0 1
4.270049 -26.290134 -9.869041 28.404268 -1.409782 1.925646 0.085938 -0.033503 -679887.000000 0 0 1
5.339849 -27.022734 -9.401341 29.105452 -1.375704 1.899704 0.109536 -0.046026 -646512.000000 0 0 1
6.003249 -27.720284 -10.422541 30.217255 -1.357525 1.922950 0.138067 -0.038817 44292.300000 0 0 1
5.625849 -29.210634 -10.372441 31.503950 -1.380530 1.906298 0.123154 -0.039916 -1458060.000000 0 0 1
4.379549 -29.520774 -10.820341 31.744863 -1.423516 1.918621 0.115772 -0.033797 -1393010.000000 0 0 1
4.215849 -30.920614 -10.834241 33.033900 -1.435288 1.904954 0.123004 -0.035628 -376545.000000 0 0 1
2.874049 -31.467284 -11.322541 33.565608 -1.479715 1.914871 0.105363 -0.036712 -441060.000000 0 0 1
2.629049 -31.358014 -12.713141 33.939076 -1.487152 1.954748 0.109668 -0.039517 -172938.000000 0 0 1
1.901549 -32.406074 -13.198741 35.042492 -1.512185 1.956973 0.103118 -0.027446 -570819.000000 0 0 1
1.446349 -32.361004 -14.662641 35.557271 -1.526132 1.995847 0.108716 -0.018882 145608.000000 0 0 1
0.398749 -31.448144 -14.943241 34.820184 -1.558117 2.014353 0.093009 -0.018757 192250.000000 0 0 1
-0.060651 -31.486234 -16.271841 35.442339 1.568870 2.047787 0.087151 -0.019970 1070290.000000 0 0 1
-1.265851 -30.478114 -16.582041 34.720050 1.529287 2.068709 0.091616 -0.013403 934090.000000 0 0 1
-2.445951 -30.681454 -15.834841 34.613241 1.491244 2.045955 0.115226 -0.023459 -620769.000000 0 0 1
-3.508851 -30.651174 -16.750041 35.105133 1.456816 2.068193 0.113846 -0.017301 -377155.000000 0 0 1
-4.832351 -30.369764 -16.016841 34.672948 1.413002 2.050978 0.119836 -0.022231 -771887.000000 0 0 1
-5.141051 -29.026414 -15.658141 33.378743 1.395498 2.059074 0.099950 -0.008935 160052.000000 0 0 1
-6.509251 -28.808334 -15.365041 33.292265 1.348578 2.050504 0.101511 -0.025726 208447.000000 0 0 1
-7.175251 -29.477344 -14.138241 33.470702 1.332024 2.006895 0.097369 -0.023566 -490531.000000 0 0 1
-7.457251 -30.826554 -14.365241 34.817340 1.333446 1.996090 0.117184 -0.024881 -218358.000000 0 0 1
-8.406151 -31.308664 -13.451041 35.097383 1.308490 1.964108 0.109940 -0.025256 104751.000000 0 0 1
-8.845951 -32.767994 -13.709041 36.605055 1.307125 1.954667 0.141752 -0.041330 -307313.000000 0 0 1
-7.793351 -33.654364 -13.582841 37.119349 1.343237 1.945421 0.162305 -0.040982 -379197.000000 0 0 1
-8.360751 32.500171 -13.713941 36.252386 -1.319004 1.958745 0.178512 -0.047897 184341.000000 0 0 1
-8.536651 -22.093894 -3.139841 23.892952 1.202086 1.702590 0.143225 -0.037501 172513.000000 0 1 0
-8.039951 -21.046694 -3.960941 22.875602 1.205898 1.744825 0.100228 -0.029044 721016.000000 0 1 0
-6.759451 -21.365994 -4.557441 22.868453 1.264394 1.771429 0.094618 -0.018529 1190170.000000 0 1 0
-6.290751 -20.252594 -5.541041 21.919038 1.269630 1.826365 0.080471 -0.022573 526080.000000 0 1 0
-7.194951 -20.174994 -6.668341 22.433557 1.228230 1.872606 0.085327 -0.028184 282705.000000 0 1 0
-6.932651 -19.156794 -7.640441 21.758234 1.223569 1.929597 0.051492 -0.024474 -462139.000000 0 1 0
-7.924851 -19.103994 -8.804041 22.478367 1.177574 1.973239 0.059051 -0.038733 -65366.400000 0 1 0
-7.646851 -20.188594 -9.673841 23.656645 1.208724 1.992074 0.092844 -0.016721 -141976.000000 0 1 0
-8.509651 -20.344894 -10.783341 24.548102 1.174640 2.025587 0.097507 -0.019894 41839.500000 0 1 0
-7.893851 -21.247494 -11.870441 25.586642 1.215081 2.053224 0.090526 -0.014947 130203.000000 0 0 1
-6.777051 -20.691194 -12.548541 25.130058 1.254275 2.093638 0.089900 0.001740 -9207.800000 0 0 1
-6.483651 -21.495994 -13.654641 26.278598 1.277853 2.117192 0.066068 -0.005409 209556.000000 0 0 1
-5.540751 -20.861394 -14.735441 26.134860 1.311192 2.169804 0.040811 0.007922 -93100.700000 0 0 1
-4.176351 -20.870294 -14.411241 25.703987 1.373295 2.165981 0.034317 0.000516 32247.800000 0 0 1
-3.255351 -20.168494 -15.270841 25.506157 1.410769 2.212688 0.062376 0.001770 450323.000000 0 0 1
-3.393651 -18.600894 -15.367541 24.365373 1.390336 2.253267 0.083476 0.003919 -1137830.000000 0 1 0
-4.577451 -18.131994 -15.935141 24.569309 1.323512 2.276512 0.073477 0.011113 -589933.000000 0 1 0
-4.778451 -18.360594 -17.328941 25.695081 1.316189 2.310958 0.083516 -0.000978 -18378.700000 0 0 1
-6.220551 -18.163794 -17.889541 26.242224 1.240846 2.320891 0.068173 0.008306 1087260.000000 0 0 1
-7.177351 -19.064994 -17.266441 26.704275 1.210740 2.273889 0.060222 0.002386 516734.000000 0 0 1
-8.389651 -19.072394 -17.992141 27.529249 1.156386 2.283081 0.036147 0.008893 282430.000000 0 0 1
-9.311251 -20.294294 -17.761841 28.531399 1.140639 2.242776 0.077343 -0.007809 4419.920000 0 0 1
-8.813251 -21.411394 -18.391841 29.569934 1.180317 2.242062 0.098905 -0.006777 359063.000000 0 0 1
-9.479151 -22.571494 -17.923641 30.341119 1.173201 2.202769 0.135405 -0.008335 299885.000000 0 0 1
-8.908251 -23.854194 -18.645141 31.559797 1.213389 2.202831 0.158099 -0.026750 -645164.000000 0 0 1
-9.071551 -23.743594 -20.027141 32.359506 1.205848 2.238132 0.144895 -0.029104 458532.000000 0 0 1
-8.374251 -24.761894 -20.796241 33.403040 1.244680 2.242838 0.174177 -0.056571 1016000.000000 0 0 1
-6.804751 -24.863394 -20.660841 33.035789 1.303653 2.246450 0.143280 -0.038734 419451.000000 0 0 1
-6.058251 -23.816294 -21.283841 32.510308 1.321705 2.284555 0.158713 -0.050533 216944.000000 0 0 1
-6.107351 -22.570994 -20.590541 31.156378 1.306540 2.292783 0.123989 -0.043001 -746120.000000 0 0 1
-5.248851 -22.504194 -19.285841 30.098718 1.341654 2.266275 0.112562 -0.012992 2263290.000000 0 0 1
-3.789051 -22.630694 -19.496841 30.110331 1.404905 2.275113 0.113673 -0.030734 1979780.000000 0 0 1
-3.078051 -22.325194 -18.339741 29.055718 1.433787 2.253886 0.066429 -0.030630 174854.000000 0 0 1
-1.581251 -22.712994 -18.460441 29.311573 1.501290 2.252093 0.117226 -0.034800 43322.400000 0 0 1
-0.739251 -21.797494 -19.134741 29.014057 1.536895 2.290948 0.155120 -0.037657 6369.620000 0 0 1
0.540349 -22.415294 -19.178041 29.504824 -1.546695 2.278377 0.107616 -0.037462 507143.000000 0 0 1
1.601549 -21.640094 -20.011541 29.518137 -1.496923 2.315754 0.121026 -0.033747 464135.000000 0 0 1
1.194549 -21.599494 -21.394841 30.425389 -1.515548 2.350671 0.112802 -0.038168 -132256.000000 0 0 1
2.178549 -21.009794 -22.193941 30.638677 -1.467473 2.380926 0.118281 -0.033782 -348659.000000 0 0 1
1.870049 -21.245194 -23.700741 31.883859 -1.483000 2.408855 0.140985 -0.043674 137763.000000 0 0 1
1.177649 -20.266294 -24.464341 31.790148 -1.512753 2.448944 0.139721 -0.048342 -560132.000000 0 0 1
-0.161551 -20.067694 -24.127741 31.382898 1.562746 2.447787 0.133379 -0.039403 -776899.000000 0 0 1
-0.833751 -18.901394 -24.844241 31.228098 1.526714 2.490750 0.142899 -0.039185 -130364.000000 0 0 1
-0.313251 -17.681894 -24.480141 30.199748 1.553082 2.515985 0.097315 -0.034216 -324169.000000 0 0 1
-1.101651 -16.657394 -25.052441 30.104936 1.504757 2.553807 0.152881 -0.044537 183023.000000 0 0 1
-0.575151 -15.268194 -24.690341 29.035521 1.533144 2.587445 0.129019 -0.034277 -284458.000000 0 0 1
0.694449 -14.906094 -25.133521 29.229570 -1.524242 2.605804 0.123439 -0.037508 -714639.000000 0 0 1
1.231249 -13.715194 -24.588641 28.181976 -1.481264 2.631082 0.118917 -0.036072 303100.000000 0 0 1
0.799749 -12.386694 -25.318461 28.197415 -1.506321 2.685772 0.116942 -0.029890 -76461.400000 0 0 1
1.454049 -11.254094 -24.822241 27.293086 -1.442306 2.712804 0.105932 -0.023809 -69240.100000 0 0 1
1.252449 -10.215194 -25.760881 27.740616 -1.448799 2.761510 0.100933 -0.025867 -560281.000000 0 0 1
2.124249 -8.939094 -25.567031 27.167865 -1.337488 2.796595 0.111829 -0.028096 2390290.000000 0 0 1
3.576649 -9.022794 -25.799971 27.565227 -1.193396 2.781774 0.087991 -0.027146 1797520.000000 0 0 1
3.906649 -9.270094 -27.144021 28.948133 -1.171958 2.786683 0.104654 -0.030423 -189431.000000 0 0 1
5.363649 -8.871294 -27.540631 29.427112 -1.026996 2.781582 0.102239 -0.032507 177716.000000 0 0 1
5.536649 -7.493994 -27.772511 29.293801 -0.934494 2.817901 0.105095 -0.038059 110892.000000 0 0 1
6.701949 -6.990194 -28.385771 29.992181 -0.806447 2.812819 0.085567 -0.024291 -178551.000000 0 0 1
7.972449 -6.750294 -27.499831 29.417123 -0.702577 2.778559 0.100252 -0.022135 522363.000000 0 0 1
8.529649 -7.983894 -27.035211 29.451657 -0.752361 2.733683 0.081616 -0.023574 315713.000000 0 0 1
9.324849 -8.735894 -27.927031 30.711361 -0.752800 2.712488 0.078709 -0.036162 -607425.000000 0 0 1
9.855449 -10.063894 -27.349901 30.764085 -0.795862 2.665998 0.075818 -0.027891 -501220.000000 0 0 1
8.908349 -11.088394 -27.263881 30.751103 -0.893989 2.660735 0.086380 -0.038090 -243282.000000 0 0 1
9.191649 -12.242094 -26.456201 30.566090 -0.926769 2.617026 0.087081 -0.038440 -555729.000000 0 0 1
10.255049 -13.219994 -26.965011 31.733989 -0.911035 2.586251 0.085734 -0.046624 -233884.000000 0 0 1
9.894949 -13.867694 -28.182641 32.931508 -0.951051 2.597883 0.102326 -0.056176 -54136.600000 0 0 1
10.713949 -14.964494 -28.416981 33.856308 -0.949440 2.566866 0.079803 -0.054489 -287278.000000 0 0 1
9.991149 -15.869794 -29.433041 34.899532 -1.008917 2.574311 0.097111 -0.052667 123397.000000 0 0 1
9.831049 -15.109594 -30.677161 35.581421 -0.993965 2.610330 0.100688 -0.051705 -184057.000000 0 0 1
9.118949 -15.684594 -31.684831 36.511508 -1.044169 2.621562 0.125412 -0.050724 -878666.000000 0 0 1
7.755349 -15.059994 -31.972991 36.183159 -1.095250 2.654384 0.143934 -0.049744 -366498.000000 0 0 1
7.776849 -13.786194 -32.617291 36.255016 -1.057189 2.689793 0.146412 -0.047155 -171460.000000 0 0 1
6.504249 -13.433994 -33.097321 36.307163 -1.119898 2.717937 0.161119 -0.066795 86577.800000 0 0 1
6.625949 -12.127094 33.434845 36.178149 -1.070740 0.391933 0.175362 -0.050545 85073.400000 0 0 1
6.898549 -12.308294 32.038257 35.007628 -1.059943 0.414844 0.174246 -0.035812 239958.000000 0 0 1
6.754649 -11.088294 31.366365 33.947377 -1.023662 0.392462 0.185914 -0.044658 -390751.000000 0 0 1
7.321749 -11.270994 29.959415 32.836106 -0.994695 0.421705 0.190874 -0.042809 12541.800000 0 0 1
6.428349 -11.917594 29.051985 32.052622 -1.076128 0.436152 0.168397 -0.028631 488601.000000 0 0 1
6.919249 -11.914494 27.713665 30.949611 -1.044657 0.461367 0.146080 -0.034383 305165.000000 0 0 1
5.905349 -12.588794 26.736335 30.136066 -1.132176 0.479583 0.116182 -0.039283 281431.000000 0 0 1
6.051749 -14.015994 26.805825 30.848404 -1.163202 0.517713 0.111082 -0.035485 18299.900000 0 0 1
5.532349 -14.571994 25.611755 29.981859 -1.207950 0.546706 0.053249 -0.026957 -210506.000000 0 0 1
4.108449 -15.163494 25.659465 30.086858 -1.306205 0.549384 0.061344 -0.036470 476405.000000 0 0 1
3.144149 -14.138494 25.321705 29.171415 -1.351975 0.519573 0.061919 -0.040691 291716.000000 0 0 1
2.101249 -14.562994 24.468805 28.552031 -1.427498 0.541396 0.052618 -0.034629 132067.000000 0 0 1
1.041449 -13.479894 24.186045 27.708427 -1.493690 0.509729 0.066326 -0.032131 -616447.000000 0 0 1
1.468549 -12.354294 23.424655 26.523568 -1.452482 0.488231 0.027372 -0.024370 -30311.800000 0 0 1
0.512549 -11.323694 23.172965 25.796803 -1.525564 0.454938 0.031844 -0.022312 819067.000000 0 0 1
-0.830251 -11.664194 22.454585 25.317012 1.499737 0.480126 0.047815 -0.028658 5367.830000 0 0 1
-0.616451 -11.976894 21.097665 24.268034 1.519372 0.516890 0.057619 -0.031633 -326907.000000 0 1 0
-1.714051 -12.680394 20.559265 24.215981 1.436437 0.556714 0.079464 -0.046656 -154206.000000 0 1 0
-1.590751 -13.379494 19.210865 23.464839 1.452457 0.611638 0.106687 -0.047286 -491906.000000 0 1 0
-0.739351 -14.486494 19.215265 24.075538 1.519803 0.646621 0.130569 -0.050788 -515004.000000 0 1 0
-0.921651 -15.323694 18.073865 23.713490 1.510723 0.704128 0.138823 -0.049094 712609.000000 0 1 0
-2.275951 -16.124694 18.031365 24.296416 1.430576 0.734537 0.136542 -0.057945 772327.000000 0 1 0
-2.297651 -17.050994 16.967865 24.164520 1.436851 0.792340 0.112103 -0.052081 -29871.900000 0 1 0
-3.335451 -17.984494 17.255265 25.145803 1.387417 0.814532 0.121631 -0.042396 251706.000000 0 0 1
-3.203451 -19.298994 16.481465 25.580304 1.406306 0.870685 0.118168 -0.050764 -207435.000000 0 0 1
-2.120051 -19.993594 17.025665 26.345999 1.465155 0.868158 0.128001 -0.052652 -449228.000000 0 0 1
-2.090551 -21.312694 16.525465 27.049812 1.473020 0.913565 0.115236 -0.069944 -321986.000000 0 0 1
-1.109851 -22.155194 17.295065 28.128343 1.520744 0.908585 0.136847 -0.058378 -56467.700000 0 0 1
0.226749 -22.109494 16.868065 27.810299 -1.560541 0.919095 0.125229 -0.059540 -441057.000000 0 0 1
1.153549 -22.935494 17.522065 28.885815 -1.520543 0.919023 0.163364 -0.041942 -456267.000000 0 0 1
2.520549 -22.945294 16.883665 28.598913 -1.461385 0.939291 0.176811 -0.056102 -614350.000000 0 0 1
3.235749 -21.737394 17.132265 27.865729 -1.423025 0.908645 0.171066 -0.054663 -128529.000000 0 0 1
4.332849 -21.580694 16.260865 27.366323 -1.372656 0.934535 0.174089 -0.056986 -81293.900000 0 0 1
5.217049 -20.376994 16.617465 26.806335 -1.320154 0.902171 0.145147 -0.042284 -531091.000000 0 0 1
6.110449 -20.559794 17.741965 27.835589 -1.281907 0.879698 0.131136 -0.028893 395289.000000 0 0 1
6.756349 -19.389694 18.171365 27.419099 -1.235503 0.846342 0.122790 -0.018700 531675.000000 0 0 1
7.833249 -18.764494 17.228365 26.651127 -1.175337 0.867887 0.119583 -0.026096 91378.700000 0 0 1
7.104549 -18.057694 16.226865 25.295574 -1.195961 0.874357 0.118103 -0.034610 646367.000000 0 0 1
7.951749 -17.694294 15.107265 24.587554 -1.148445 0.909136 0.142587 -0.037849 425011.000000 0 1 0
7.237349 -16.806194 14.070765 23.082760 -1.164162 0.915267 0.092831 -0.033732 296888.000000 0 1 0
6.098549 -17.374194 13.416465 22.782810 -1.233220 0.941117 0.099116 -0.033780 448565.000000 0 1 0
5.527849 -16.581194 12.392265 21.425717 -1.249003 0.954052 0.064503 -0.021524 -1521.290000 0 1 0
6.212249 -16.676494 11.006865 20.924831 -1.214206 1.016883 0.068417 -0.021479 -314096.000000 0 1 0
7.542249 -16.252894 10.972365 21.010352 -1.136315 1.021325 0.088939 -0.019611 -293981.000000 0 1 0
8.255749 -16.683994 9.812665 21.042848 -1.111293 1.085672 0.106087 -0.020043 -50534.000000 0 1 0
9.583049 -15.939394 9.697765 20.974884 -1.029482 1.090151 0.088247 -0.016168 -758347.000000 0 1 0
10.489149 -16.591294 8.914465 21.558316 -1.007030 1.144496 0.091230 -0.006061 -1086370.000000 0 1 0
11.715049 -15.908194 8.901565 21.669123 -0.936046 1.147471 0.080569 -0.007403 -109204.000000 0 1 0
12.887449 -16.517094 8.138165 22.475108 -0.908215 1.200280 0.092335 -0.014227 -8358.580000 0 1 0
13.378349 -17.758494 8.651165 23.857640 -0.925155 1.199723 0.108657 -0.024725 -90946.900000 0 1 0
14.447949 -18.192894 7.853665 24.523554 -0.899631 1.244803 0.101670 -0.024161 -260277.000000 0 1 0
15.084849 -19.460094 8.390165 26.012359 -0.911381 1.242379 0.089368 -0.026531 451183.000000 0 0 1
14.243149 -20.625194 8.247365 26.387212 -0.966427 1.252918 0.089651 -0.029476 562852.000000 0 0 1
15.018349 -21.676894 8.750265 27.784990 -0.964900 1.250416 0.073220 -0.016641 89636.600000 0 0 1
14.263249 -22.597794 9.714965 28.433802 -1.007766 1.222104 0.107452 -0.023275 -92961.600000 0 0 1
13.930349 -21.937394 10.906665 28.182605 -1.005035 1.173421 0.117268 -0.032326 -666258.000000 0 0 1
12.924949 -22.503194 11.675065 28.456198 -1.049443 1.148033 0.145014 -0.044807 -879138.000000 0 0 1
13.114549 -23.973094 12.187365 29.920436 -1.070219 1.151272 0.091652 -0.032468 -132884.000000 0 0 1
14.071049 -24.132094 13.217665 30.904030 -1.042908 1.128849 0.066666 -0.031528 60288.100000 0 0 1
13.907649 -25.389224 13.821965 32.079310 -1.069661 1.125341 0.081584 -0.039928 515928.000000 0 0 1
15.083149 -25.668044 14.829465 33.260531 -1.039527 1.108664 0.049390 -0.035041 434597.000000 0 0 1
15.182749 -24.810894 15.955365 33.176347 -1.021644 1.069086 0.053507 -0.032544 1210740.000000 0 0 1
16.352849 -25.220444 16.711665 34.391368 -0.995549 1.063374 0.065407 -0.027060 274318.000000 0 0 1
16.243749 -24.882394 18.198065 34.844834 -0.992441 1.021297 0.084709 -0.019368 -130491.000000 0 0 1
16.761549 -23.619794 18.498865 34.366440 -0.953630 1.002398 0.068818 -0.024813 458235.000000 0 0 1
18.171649 -23.592794 18.693865 35.160907 -0.914479 1.010230 0.075744 -0.025304 54622.600000 0 0 1
18.841049 -22.277994 19.189565 34.921821 -0.868790 0.989030 0.083030 -0.036429 -213757.000000 0 0 1
18.879749 -21.250294 18.254465 33.782324 -0.844401 0.999937 0.087948 -0.036176 988097.000000 0 0 1
17.607449 -20.598294 18.044465 32.556331 -0.863521 0.983330 0.094525 -0.034767 470750.000000 0 0 1
17.724949 -19.697194 16.762365 31.354906 -0.838052 1.006761 0.080661 -0.026404 448991.000000 0 0 1
18.603149 -18.566694 16.897765 31.246340 -0.784417 0.999418 0.078598 -0.029550 178584.000000 0 0 1
19.969749 -18.800694 16.669865 32.095816 -0.755254 1.024673 0.082341 -0.023644 -667865.000000 0 0 1
20.873949 -17.605294 16.826965 32.075144 -0.700656 1.018539 0.093359 -0.029898 -747483.000000 0 0 1
21.026649 -17.346294 18.217865 32.785736 -0.689780 0.981635 0.091684 -0.026590 165677.000000 0 0 1
21.435049 -16.010994 18.505465 32.530993 -0.641549 0.965682 0.081207 -0.029084 -280963.000000 0 0 1
21.595149 -15.835594 20.064365 33.461848 -0.632723 0.927771 0.064893 -0.024800 387251.000000 0 0 1
22.769449 -16.513794 20.528265 34.821873 -0.627479 0.940329 0.059613 -0.018550 453074.000000 0 0 1
23.037949 -16.178794 21.844165 35.632401 -0.612246 0.910891 0.056488 -0.017342 -17577.400000 0 0 1
35.946689 -2.128794 -7.723641 36.828669 -0.059152 1.782083 0.123961 -0.017628 -72269.700000 0 0 1
37.261119 -1.712994 -8.016041 38.152094 -0.045940 1.782481 0.160192 -0.017244 100480.000000 0 0 1
-38.128841 -2.761794 -7.892141 39.034880 0.072307 1.774382 0.198785 -0.038148 113758.000000 0 0 1
-36.786251 -2.376194 -8.549541 37.841369 0.064505 1.798695 0.184745 -0.030844 -169177.000000 0 0 1
-35.784637 -3.353294 -8.461041 36.923895 0.093435 1.801999 0.228074 -0.039276 -52146.400000 0 0 1
-34.563589 -2.855494 -8.988641 35.827241 0.082428 1.824394 0.275368 -0.047132 379544.000000 0 0 1
-33.373701 -3.789994 -8.613441 34.675053 0.113078 1.821829 0.276483 -0.053811 18484.900000 0 0 1
-32.869191 -3.678594 -7.323541 33.875507 0.111452 1.788707 0.277854 -0.055152 398765.000000 0 0 1
-31.673311 -4.436994 -7.175841 32.777709 0.139180 1.791508 0.268632 -0.064999 260377.000000 0 0 1
-31.117281 -4.354194 -5.733641 31.939299 0.139026 1.751292 0.267088 -0.079495 -167550.000000 0 0 1
-30.502161 -3.113894 -5.408241 31.134020 0.101735 1.745390 0.260289 -0.072852 468570.000000 0 0 1
-30.321551 -3.051794 -3.998441 30.735930 0.100310 1.701256 0.258534 -0.071912 -269340.000000 0 0 1
-30.198011 -1.637994 -3.387041 30.431479 0.054189 1.682328 0.275495 -0.073207 584431.000000 0 0 1
-28.918721 -0.966394 -3.384041 29.132079 0.033405 1.687221 0.235191 -0.063478 920626.000000 0 0 1
-28.970481 0.408306 -3.031041 29.131472 -0.014093 1.675032 0.287096 -0.074178 171335.000000 0 0 1
-27.660941 1.065206 -2.493241 27.793498 -0.038490 1.660623 0.308278 -0.051292 295740.000000 0 0 1
-27.201941 0.421506 -1.336541 27.238017 -0.015494 1.619885 0.289062 -0.057559 87332.200000 0 0 1
-25.852221 0.777706 -1.100841 25.887333 -0.030074 1.613333 0.263320 -0.050710 28215.900000 0 0 1
-25.273921 0.025606 0.123559 25.274236 -0.001013 1.565908 0.257696 -0.055895 -117722.000000 0 0 1
-25.035781 -1.334094 -0.118141 25.071579 0.053237 1.575508 0.235012 -0.054067 85546.500000 0 0 1
-24.051151 -1.871694 0.718259 24.134560 0.077665 1.541031 0.206825 -0.044712 -185549.000000 0 1 0
-23.915451 -3.361294 0.711959 24.161001 0.139634 1.541325 0.185163 -0.028244 191221.000000 0 1 0
-24.996921 -3.937694 1.445759 25.346434 0.156243 1.513725 0.200883 -0.047236 445726.000000 0 0 1
-24.904151 -5.333594 1.452359 25.510259 0.210978 1.513833 0.165874 -0.018155 -828974.000000 0 0 1
-26.064401 -6.169594 1.916559 26.853120 0.232428 1.499364 0.204792 -0.028088 -781113.000000 0 0 1
-26.366221 -6.016394 3.253559 27.238947 0.224345 1.451065 0.209099 -0.039312 175694.000000 0 0 1
-27.470801 -6.823794 3.616159 28.535691 0.243474 1.443731 0.241115 -0.030003 140707.000000 0 0 1
-27.562511 -7.043294 5.124459 28.906056 0.250185 1.392575 0.217578 -0.031233 -9675.240000 0 0 1
-26.657481 -8.012594 5.627959 28.398888 0.291985 1.371300 0.230770 -0.009330 74700.800000 0 0 1
-26.800201 -8.334394 7.034659 28.934397 0.301502 1.325211 0.214106 -0.036889 -294202.000000 0 0 1
-26.230661 -7.327294 8.053359 28.400588 0.272397 1.283289 0.183038 -0.028166 933803.000000 0 0 1
-24.785051 -7.266794 7.954159 27.025427 0.285200 1.272051 0.194459 -0.028864 943212.000000 0 0 1
-24.394351 -5.963294 7.690959 26.263969 0.239752 1.273608 0.199173 -0.045799 564747.000000 0 0 1
-22.874851 -5.849294 7.302559 24.714376 0.250344 1.270840 0.168106 -0.043234 796248.000000 0 1 0
-21.970551 -5.884594 8.391959 24.243732 0.261698 1.217332 0.161198 -0.056614 -22468.000000 0 1 0
-20.704751 -5.560294 7.858559 22.833320 0.262361 1.219441 0.138268 -0.040784 434724.000000 0 1 0
-19.468551 -5.877294 8.778759 22.150252 0.293187 1.163283 0.135149 -0.045447 456298.000000 0 1 0
-19.291551 -5.046094 9.873659 22.251205 0.255838 1.111033 0.118381 -0.037254 -161584.000000 0 1 0
-18.216051 -5.445494 10.659359 21.796785 0.290483 1.059815 0.108590 -0.043316 -621250.000000 0 1 0
-17.871751 -4.457794 11.777059 21.862537 0.244444 1.001919 0.089556 -0.032012 -280103.000000 0 1 0
-18.806751 -4.507894 12.816559 23.200844 0.235257 0.985534 0.106785 -0.036676 -42043.600000 0 1 0
-19.364351 -3.192494 13.009759 23.546208 0.163395 0.985411 0.138188 -0.033504 647012.000000 0 1 0
-20.706951 -3.346694 13.813359 25.115475 0.160236 0.988439 0.149803 -0.041498 196192.000000 0 0 1
-20.611451 -3.684794 15.164559 25.852920 0.176905 0.943979 0.151918 -0.037046 127618.000000 0 0 1
-21.839851 -4.002394 15.799359 27.251018 0.181250 0.952348 0.156110 -0.033808 -44450.300000 0 0 1
-21.715951 -4.618194 17.218859 28.096251 0.209542 0.911131 0.140004 -0.018732 -118074.000000 0 0 1
-22.893851 -4.532494 17.977759 29.459663 0.195451 0.914420 0.136848 -0.016605 300251.000000 0 0 1
-22.563751 -5.012594 19.275859 30.096639 0.218603 0.875692 0.133998 0.000617 -411352.000000 0 0 1
-23.553851 -4.699794 20.372559 31.494652 0.196947 0.867340 0.146148 -0.017977 -910431.000000 0 0 1
-23.672051 -3.270194 20.433559 31.441859 0.137277 0.863365 0.171131 -0.032087 88386.100000 0 0 1
-24.198151 -2.928994 21.696659 32.632415 0.120456 0.843462 0.163108 -0.031111 -164635.000000 0 0 1
-24.217451 -1.348494 21.884459 32.668531 0.055625 0.836730 0.135871 -0.025312 70826.600000 0 0 1
-25.198691 -0.782194 21.035859 32.834330 0.031031 0.875430 0.150432 -0.031968 24196.400000 0 0 1
-25.166291 0.662106 21.164559 32.889499 -0.026303 0.871728 0.140359 -0.022511 -189049.000000 0 0 1
-26.510301 1.329206 20.776059 33.707677 -0.050097 0.906685 0.157935 -0.032015 -27983.500000 0 0 1
-27.433931 1.017706 21.793459 35.051550 -0.037080 0.899815 0.149351 -0.028996 -157735.000000 0 0 1
-28.695061 1.615306 21.518559 35.903539 -0.056233 0.928115 0.125419 -0.026808 372228.000000 0 0 1
-29.699591 1.418406 22.692559 37.403607 -0.047722 0.918901 0.108686 -0.022318 -180435.000000 0 0 1
-29.235271 2.047406 23.844459 37.781625 -0.069918 0.887810 0.099617 -0.018711 168058.000000 0 0 1
-30.111831 1.820606 24.924059 39.131134 -0.060388 0.880278 0.092874 -0.016724 -244324.000000 0 0 1
-29.895341 2.741806 26.102259 39.781614 -0.091458 0.855106 0.108054 -0.020278 11012.300000 0 0 1
-28.587901 2.561206 26.600359 39.133195 -0.089352 0.823390 0.093486 -0.023368 207953.000000 0 0 1
-28.474191 3.306406 27.800259 39.932021 -0.115602 0.800721 0.077908 -0.022948 -119357.000000 0 0 1
-27.163211 2.964806 28.538559 39.510498 -0.108717 0.763669 0.102590 -0.028870 -92132.200000 0 0 1
-27.266091 1.818606 29.263259 40.038549 -0.066600 0.751190 0.100252 -0.029784 194984.000000 0 0 1
-26.196461 1.710406 30.166359 39.989865 -0.065199 0.716133 0.085930 -0.037456 2717.290000 0 0 1
-26.403191 0.502706 31.105759 40.803792 -0.019037 0.703898 0.079223 -0.035721 84094.900000 0 0 1
-26.477181 -0.711594 30.436059 40.347257 0.026869 0.716129 0.061068 -0.032278 -212273.000000 0 0 1
-26.973441 -1.746694 31.219959 41.295318 0.064666 0.713590 0.079152 -0.027391 -421345.000000 0 0 1
-27.879751 -2.630294 30.337959 41.286689 0.094066 0.745407 0.075654 -0.019552 851143.000000 0 0 1
-29.223901 -2.215994 30.026059 41.958447 0.075683 0.773293 0.097521 -0.025298 866009.000000 0 0 1
-29.212291 -1.214494 28.991959 41.174830 0.041551 0.789615 0.089718 -0.019313 -585120.000000 0 0 1
-30.603781 -0.797194 28.470659 41.806762 0.026043 0.821661 0.113539 -0.027887 144965.000000 0 0 1
-31.429341 -0.423494 29.552859 43.143415 0.013474 0.816205 0.144177 -0.032578 102594.000000 0 0 1
-32.778001 -0.287094 29.100459 43.832824 0.008759 0.844779 0.140515 -0.041523 1229760.000000 0 0 1
-33.907611 -0.049194 30.175959 45.390715 0.001451 0.843564 0.161246 -0.035084 647665.000000 0 0 1
-34.108359 -1.231194 30.901659 46.041378 0.036081 0.835008 0.172923 -0.040600 -47671.200000 0 0 1
-34.787490 -0.995894 32.115459 47.355717 0.028620 0.825520 0.197145 -0.037193 181141.000000 0 0 1
-35.251116 -2.318494 32.855059 48.243875 0.065676 0.821641 0.185586 -0.030604 752059.000000 0 0 1
-36.456981 -2.956194 32.405059 48.866536 0.080910 0.845798 0.152750 -0.029520 587829.000000 0 0 1
-36.567561 -4.198994 32.992759 49.430155 0.114328 0.840001 0.140959 -0.031959 -134708.000000 0 0 1
-37.899381 -4.938194 32.763759 50.340965 0.129568 0.862110 0.129034 -0.036565 -26768.600000 0 0 1
37.352759 -4.446394 33.551959 50.405684 -0.118480 0.842447 0.125308 -0.037537 1705.270000 0 0 1
36.209699 -5.133094 33.066959 49.304308 -0.140822 0.835684 0.129324 -0.037733 -1198560.000000 0 0 1
34.920919 -4.669994 -33.613746 48.694593 -0.132942 2.332696 0.115482 -0.027108 -1196730.000000 0 0 1
34.576539 -5.166294 -32.316946 47.608956 -0.148319 2.316923 0.103823 -0.030749 197521.000000 0 0 1
34.131259 -6.507894 -32.206546 47.376758 -0.188411 2.318281 0.117397 -0.026552 -246142.000000 0 0 1
32.810859 -6.928794 -32.896946 46.976268 -0.208116 2.346598 0.102541 -0.019762 -490149.000000 0 0 1
31.672279 -6.501094 -32.239246 45.659243 -0.202449 2.354749 0.103233 -0.023041 -683380.000000 0 0 1
30.453479 -6.985794 -32.741846 45.257532 -0.225491 2.379592 0.105690 -0.016758 -41655.100000 0 0 1
29.265779 -6.508094 -31.871446 43.756488 -0.218818 2.386754 0.110307 -0.032059 -144507.000000 0 0 1
28.034579 -6.958694 -32.389946 43.398959 -0.243301 2.413327 0.098397 -0.020432 115802.000000 0 0 1
26.928879 -6.347794 -31.732446 42.099966 -0.231498 2.424532 0.101338 -0.021780 19549.800000 0 0 1
25.575779 -6.877894 -32.261246 41.739836 -0.262707 2.454215 0.088734 -0.026363 -115311.000000 0 0 1
25.415879 -8.260594 -32.068446 41.744336 -0.314247 2.446838 0.095909 -0.038929 160912.000000 0 0 1
24.890079 -8.584494 -30.771946 40.498423 -0.332121 2.433849 0.111369 -0.040891 -402322.000000 0 0 1
24.382279 -10.048994 -30.728346 40.493322 -0.390931 2.432341 0.105174 -0.035050 -109646.000000 0 0 1
23.071679 -10.259694 -31.193946 40.132605 -0.418428 2.461114 0.110255 -0.035930 117799.000000 0 0 1
22.849079 -11.687294 -31.186946 40.389341 -0.472805 2.453026 0.099433 -0.020133 -562593.000000 0 0 1
21.711479 -12.308894 -32.055146 40.625480 -0.515748 2.480042 0.088446 -0.016721 1530720.000000 0 0 1
20.349579 -12.258294 -31.584546 39.521573 -0.542172 2.496713 0.088237 -0.019555 699924.000000 0 0 1
19.798879 -11.001394 -31.588246 38.869572 -0.507176 2.519521 0.093183 -0.028307 -1650560.000000 0 0 1
18.385679 -10.952994 -31.045146 37.706795 -0.537278 2.538050 0.107657 -0.028634 -796951.000000 0 0 1
17.412079 -11.305794 -31.994846 38.140158 -0.575888 2.566010 0.093632 -0.013849 -268368.000000 0 0 1
16.134979 -11.165794 -31.383746 37.012863 -0.605353 2.582835 0.086579 -0.023058 692271.000000 0 0 1
14.952279 -11.567294 -32.331046 37.452230 -0.658444 2.612491 0.095975 -0.022261 -634127.000000 0 0 1
14.802979 -12.989794 -32.408846 37.923558 -0.720251 2.595545 0.118120 -0.029296 -361896.000000 0 0 1
13.655379 -13.324994 -33.138846 38.238828 -0.773153 2.619201 0.103155 -0.032941 659075.000000 0 0 1
12.394479 -13.362194 -32.178946 36.981832 -0.822952 2.626259 0.084041 -0.033977 -82808.500000 0 0 1
11.838779 -12.135194 -31.849546 36.080649 -0.797762 2.652442 0.148484 -0.034540 -768359.000000 0 0 1
10.937379 -12.234794 -30.802746 34.901657 -0.841330 2.652072 0.133182 -0.039561 -278443.000000 0 0 1
9.662179 -11.391094 -30.985046 34.397497 -0.867335 2.692390 0.114177 -0.029280 -256224.000000 0 0 1
9.957279 -9.984494 -31.020446 34.075000 -0.786763 2.714945 0.114236 -0.029515 987034.000000 0 0 1
8.911279 -9.149694 -31.603146 34.086459 -0.798598 2.757521 0.102761 -0.025112 362810.000000 0 0 1
9.426679 -7.781694 -31.997546 34.252883 -0.690096 2.776684 0.105105 -0.024829 -274707.000000 0 0 1
9.603479 -6.955494 -30.895246 33.092627 -0.626828 2.775126 0.116766 -0.030936 385976.000000 0 0 1
9.811679 -5.603994 -31.311946 33.288313 -0.518940 2.795274 0.095424 -0.017048 -198531.000000 0 0 1
9.859279 -4.605294 -30.128946 32.033850 -0.436985 2.794997 0.091853 -0.023067 -713963.000000 0 0 1
8.585279 -4.321194 -29.677446 31.195041 -0.466305 2.828389 0.093478 -0.026616 -534467.000000 0 0 1
8.691979 -3.181294 -28.813746 30.263891 -0.350860 2.830773 0.104006 -0.027227 -438769.000000 0 0 1
7.315479 -2.692794 -28.406246 29.456446 -0.352704 2.873762 0.118493 -0.032618 -1207510.000000 0 0 1
6.603779 -2.151694 -29.542046 30.347524 -0.314980 2.910681 0.098219 -0.032995 586378.000000 0 0 1
5.336879 -1.570894 -29.274146 29.798081 -0.286262 2.953792 0.111980 -0.036719 29095.500000 0 0 1
4.219079 -2.590294 -28.999746 29.419306 -0.550612 2.972505 0.110905 -0.042453 -1243070.000000 0 0 1
4.319379 -3.525294 -28.002946 28.552579 -0.684516 2.945063 0.110144 -0.039303 -1006440.000000 0 0 1
3.178479 -4.286694 -27.910046 28.415650 -0.932773 2.952669 0.119722 -0.040251 -645417.000000 0 0 1
3.268779 -5.275494 -26.723246 27.434425 -1.016078 2.913401 0.102852 -0.039683 -130043.000000 0 0 1
3.134679 -4.648794 -25.493046 26.102355 -0.977528 2.925101 0.087177 -0.038372 33724.500000 0 0 1
3.420779 -5.614294 -24.502446 25.369113 -1.023568 2.879453 0.081068 -0.039722 -11322.700000 0 0 1
3.203979 -5.132994 -23.066746 23.847178 -1.012777 2.885052 0.101069 -0.042929 238034.000000 0 1 0
4.195679 -4.154494 -22.774846 23.527796 -0.780466 2.887921 0.111145 -0.045294 209144.000000 0 1 0
4.051179 -3.586494 -21.483546 22.154407 -0.724632 2.894873 0.090690 -0.042235 30478.300000 0 1 0
5.048979 -2.424794 -21.175846 21.904070 -0.447727 2.883012 0.090485 -0.039339 151.381000 0 1 0
6.300979 -2.962994 -20.831046 21.963929 -0.439560 2.819013 0.090997 -0.043275 -725250.000000 0 1 0
7.183979 -1.955294 -20.507446 21.817151 -0.265737 2.793336 0.104597 -0.032268 206009.000000 0 1 0
8.643479 -2.342094 -20.102146 22.006622 -0.264613 2.722501 0.134769 -0.041590 240597.000000 0 1 0
9.444779 -2.685694 -21.239746 23.399650 -0.277045 2.708554 0.140993 -0.051868 792671.000000 0 1 0
10.755779 -3.185294 -20.987246 23.797004 -0.287918 2.650733 0.129290 -0.051345 1341940.000000 0 1 0
11.843079 -2.374094 -20.199946 23.535775 -0.197840 2.602677 0.115956 -0.043396 -167155.000000 0 1 0
11.566679 -2.280494 -18.795346 22.186793 -0.194664 2.581378 0.101097 -0.040086 301928.000000 0 1 0
12.705179 -1.859394 -18.060646 22.160006 -0.145318 2.523544 0.100568 -0.044599 34838.000000 0 1 0
12.972779 -0.318694 -18.090646 22.263559 -0.024561 2.519340 0.083945 -0.044837 49184.900000 0 1 0
13.511979 0.217306 -19.292946 23.555012 0.016081 2.530565 0.108322 -0.049868 259469.000000 0 1 0
13.362079 1.570606 -19.268146 23.500499 0.117005 2.532039 0.110734 -0.057066 24010.200000 0 1 0
13.723479 2.276706 -20.603746 24.860242 0.164401 2.547726 0.105927 -0.046982 -42641.800000 0 1 0
15.087179 2.599806 -20.809246 25.834216 0.170643 2.507301 0.121848 -0.048436 300790.000000 0 0 1
15.285879 3.677006 -21.656846 26.761866 0.236064 2.513658 0.117848 -0.048789 -788964.000000 0 0 1
16.761779 3.713906 -22.032546 27.931764 0.218047 2.479649 0.109619 -0.036790 -516910.000000 0 0 1
17.082979 2.703406 -22.948146 28.735936 0.156950 2.495740 0.076872 -0.032483 -279655.000000 0 0 1
18.439179 2.341306 -23.010546 29.579897 0.126299 2.462132 0.078031 -0.031679 -109004.000000 0 0 1
10.413849 26.605306 3.052959 28.733450 1.197708 1.464344 0.030723 -0.015399 11765.700000 0 0 1
10.223649 26.904006 4.409159 29.116821 1.207645 1.418782 0.044799 -0.014812 -86184.700000 0 0 1
11.436049 27.203006 5.055059 29.938944 1.172831 1.401138 0.049836 -0.017700 -616944.000000 0 0 1
11.383849 27.728506 6.503359 30.671742 1.181231 1.357144 0.060854 -0.024373 -253877.000000 0 0 1
11.078049 26.820906 7.513659 29.975644 1.179101 1.317436 0.047202 -0.030677 218640.000000 0 0 1
10.813849 27.498106 8.751359 30.816740 1.196116 1.282853 0.062063 -0.028458 -628134.000000 0 0 1
11.012649 26.541806 10.029959 30.435933 1.177497 1.234976 0.079120 -0.026623 1731820.000000 0 0 1
12.397849 26.182306 10.360459 30.766198 1.128556 1.227335 0.068827 -0.018028 2037420.000000 0 0 1
13.086949 25.375306 9.412959 30.062904 1.094640 1.252332 0.065181 -0.021074 -705382.000000 0 0 1
14.286849 24.609006 9.956459 30.147111 1.044798 1.234215 0.080091 -0.021764 194610.000000 0 0 1
15.428549 25.456906 10.191159 31.463533 1.025929 1.240943 0.088131 -0.024320 178276.000000 0 0 1
16.539049 24.653506 10.470859 31.479746 0.979896 1.231714 0.091344 -0.023350 650329.000000 0 0 1
17.849949 25.540706 10.642859 32.927478 0.960821 1.241665 0.085043 -0.020917 -163154.000000 0 0 1
18.470949 26.151706 9.522259 33.403011 0.955855 1.281715 0.067623 -0.022651 392347.000000 0 0 1
19.873749 25.971906 9.529359 34.063390 0.917637 1.287259 0.050563 -0.023534 353754.000000 0 0 1
20.706649 26.661106 10.639959 35.394754 0.910449 1.265466 0.052317 -0.027494 -1227870.000000 0 0 1
20.831149 28.039506 10.632859 36.513126 0.931841 1.275309 0.055873 -0.030386 -372802.000000 0 0 1
19.656449 28.756306 10.910759 36.501312 0.971194 1.267242 0.043883 -0.013688 -273096.000000 0 0 1
19.846649 30.320806 11.078759 37.894323 0.991225 1.274103 0.044942 -0.012169 -685238.000000 0 0 1
20.261749 31.065806 9.955259 38.402213 0.992862 1.308565 0.057883 -0.037755 458553.000000 0 0 1
19.359249 31.254106 8.834259 37.810631 1.016224 1.334972 0.066820 -0.039587 176580.000000 0 0 1
18.073649 32.045906 9.039659 37.885516 1.057274 1.329868 0.071274 -0.036343 -223115.000000 0 0 1
18.314949 33.428806 9.303059 39.236072 1.069583 1.331412 0.050231 -0.035494 557614.000000 0 0 1
17.057049 -33.416037 9.632859 38.734564 -1.098828 1.319470 0.078904 -0.032465 457746.000000 0 0 1
17.126849 -31.891237 9.926959 37.535643 -1.077958 1.303145 0.096150 -0.036473 -153576.000000 0 0 1
17.699149 -31.264637 8.821559 36.994018 -1.055671 1.330017 0.090668 -0.040403 81992.800000 0 0 1
17.666749 -29.853637 8.779659 35.783182 -1.036444 1.322908 0.063907 -0.042674 -307899.000000 0 0 1
18.122549 -29.239437 7.470459 35.201978 -1.015946 1.356953 0.067377 -0.039147 -181145.000000 0 0 1
17.370149 -29.541837 6.309459 34.846112 -1.039258 1.388726 0.076429 -0.027586 -188545.000000 0 0 1
17.962449 -29.033037 5.169459 34.529555 -1.016747 1.420520 0.072287 -0.022255 -99517.900000 0 0 1
17.335349 -29.605737 3.837059 34.521545 -1.041077 1.459416 0.083946 -0.028574 222956.000000 0 0 1
17.777449 -30.900037 3.622559 35.832568 -1.048721 1.469526 0.083229 -0.029594 -33483.100000 0 0 1
17.602549 -31.243537 2.286859 35.933801 -1.057725 1.507112 0.083386 -0.026702 57151.600000 0 0 1
18.114249 -32.743237 1.995059 37.473002 -1.065483 1.517531 0.092027 -0.024299 339710.000000 0 0 1
19.521549 -32.914937 1.929159 38.317172 -1.035473 1.520428 0.076362 -0.008865 212771.000000 0 0 1
19.769149 33.226906 1.397059 38.688478 1.034081 1.534678 0.106064 -0.018563 -872242.000000 0 0 1
21.190849 32.778106 1.609459 39.064648 0.996890 1.529585 0.114274 -0.021377 -839367.000000 0 0 1
21.398949 32.381506 2.917859 38.922884 0.986839 1.495761 0.091335 -0.034337 699665.000000 0 0 1
22.763549 32.032206 3.196959 39.426666 0.952961 1.489621 0.063443 -0.018739 679822.000000 0 0 1
23.052849 32.132306 4.721459 39.827266 0.948464 1.451968 0.059441 -0.009343 -67569.800000 0 0 1
22.497249 31.093506 5.534559 38.775813 0.944449 1.427575 0.080823 -0.027129 12515.700000 0 0 1
23.124549 29.825706 5.386159 38.122542 0.911285 1.429037 0.048949 -0.032094 -632051.000000 0 0 1
22.428449 28.670506 6.046059 36.899703 0.906952 1.406203 0.061515 -0.038765 -307417.000000 0 0 1
21.145149 28.559506 5.475759 35.954786 0.933475 1.417906 0.075725 -0.030247 -849250.000000 0 0 1
20.233949 28.115506 6.403259 35.226355 0.946989 1.388005 0.070095 -0.032571 1324740.000000 0 0 1
18.684949 28.389306 6.045159 34.519907 0.988700 1.394768 0.095426 -0.033080 1758960.000000 0 0 1
18.302849 29.796606 5.986159 35.477685 1.019958 1.401255 0.091841 -0.040335 -19144.500000 0 0 1
18.910349 30.619406 5.018859 36.336460 1.017541 1.432231 0.100495 -0.037191 -392927.000000 0 0 1
18.779049 32.090406 5.420959 37.574375 1.041336 1.426018 0.100107 -0.037619 250576.000000 0 0 1
17.446849 32.563206 5.479359 37.346731 1.078933 1.423549 0.099243 -0.041440 -44049.700000 0 0 1
17.369849 -33.436437 5.770959 38.118381 -1.091680 1.418816 0.090941 -0.035202 1048290.000000 0 0 1
15.858349 -32.992937 5.943659 37.085688 -1.122741 1.409834 0.095988 -0.040961 1877490.000000 0 0 1
15.025249 -33.185937 4.761459 36.738754 -1.145650 1.440828 0.099801 -0.035955 106159.000000 0 0 1
13.798649 -32.522737 4.780959 35.650929 -1.169538 1.436286 0.087954 -0.035330 -210643.000000 0 0 1
13.067649 -32.353737 3.463459 35.064559 -1.186933 1.471861 0.083034 -0.029539 324017.000000 0 0 1
11.821549 -31.666537 3.462359 33.978030 -1.213505 1.468719 0.070918 -0.029336 382075.000000 0 0 1
11.461349 -31.336737 2.128959 33.434804 -1.220162 1.507078 0.071474 -0.020006 57280.900000 0 0 1
10.406549 -30.179137 2.111059 31.992705 -1.238738 1.504763 0.056353 -0.017330 280507.000000 0 0 1
9.726049 -29.764237 0.957659 31.327671 -1.254965 1.540222 0.066696 -0.012308 530662.000000 0 0 1
8.632949 -30.559637 0.472859 31.759138 -1.295475 1.555907 0.051401 -0.012833 158829.000000 0 0 1
8.942549 -31.198737 -0.855541 32.466326 -1.291649 1.597151 0.083673 -0.018396 2302.530000 0 0 1
10.097849 -32.020137 -0.860441 33.585653 -1.265309 1.596418 0.076043 -0.024809 22736.000000 0 0 1
10.265349 -32.822137 -2.072941 34.452390 -1.267677 1.631001 0.086881 -0.017122 -659076.000000 0 0 1
11.671449 -33.390437 -2.091741 35.433309 -1.234527 1.629864 0.088956 -0.013418 -676995.000000 0 0 1
11.811349 33.100906 -1.048841 35.160746 1.228051 1.600631 0.081138 -0.014130 1033740.000000 0 0 1
13.137149 32.512806 -0.993141 35.080673 1.186794 1.599110 0.096385 -0.017370 720746.000000 0 0 1
13.321049 31.390206 0.024459 34.099795 1.169460 1.570079 0.089462 -0.026767 -333469.000000 0 0 1
13.597649 31.855306 1.363059 34.662870 1.167354 1.531463 0.080590 -0.028959 989344.000000 0 0 1
14.920449 32.361506 1.639259 35.673156 1.138787 1.524828 0.101303 -0.032172 943688.000000 0 0 1
16.102449 31.354506 1.756159 35.291331 1.096359 1.521014 0.106776 -0.041045 -222466.000000 0 0 1
16.534649 30.967406 0.474859 35.108409 1.080369 1.557270 0.108214 -0.030530 -492106.000000 0 0 1
17.421249 29.916806 0.514959 34.623408 1.043476 1.555923 0.119028 -0.026038 -419070.000000 0 0 1
18.145849 29.498006 -0.760541 34.640766 1.019308 1.592753 0.109057 -0.020112 -314178.000000 0 0 1
19.116649 30.335506 -1.298441 35.880011 1.008485 1.606993 0.083436 -0.010858 -400419.000000 0 0 1
18.681349 31.488906 -2.041841 36.670330 1.035342 1.626506 0.097518 -0.014539 -87611.500000 0 0 1
19.787649 32.302806 -2.775141 37.983204 1.021187 1.643924 0.076682 -0.006706 -10034.400000 0 0 1
20.581349 33.064806 -1.913241 38.994023 1.014029 1.619881 0.058436 -0.004658 -427261.000000 0 0 1
21.618149 33.638706 -2.665641 40.075087 0.999600 1.637362 0.057673 0.001604 -1240550.000000 0 0 1
22.651649 -33.087937 -1.782541 40.138339 -0.970488 1.615221 0.059889 0.001946 -146928.000000 0 0 1
23.566949 33.498906 -0.995541 40.970342 0.957716 1.595098 0.049085 -0.001318 1361430.000000 0 0 1
24.411849 32.558306 -1.695241 40.729050 0.927430 1.612431 0.048840 0.003531 421236.000000 0 0 1
25.497149 33.169306 -2.657241 41.920978 0.915436 1.634226 0.052519 -0.003281 -333130.000000 0 0 1
24.963949 33.632006 -3.879541 42.063778 0.932262 1.663158 0.050570 -0.019192 -165259.000000 0 0 1
25.856449 -32.977137 -4.568641 42.153529 -0.905843 1.679391 0.053573 -0.019681 -693200.000000 0 0 1
25.258349 -32.611237 -5.845041 41.661031 -0.911781 1.711561 0.053406 -0.027012 -415245.000000 0 0 1
24.125649 -31.793637 -5.713341 40.317795 -0.921674 1.712983 0.059859 -0.024240 -144393.000000 0 0 1
23.655949 -31.417637 -6.996241 39.945203 -0.925409 1.746850 0.067989 -0.031103 -519246.000000 0 0 1
22.684149 -30.257337 -6.879841 38.437082 -0.927483 1.750756 0.071212 -0.032169 46345.600000 0 0 1
21.424649 -30.565037 -6.303041 37.854530 -0.959431 1.738082 0.086017 -0.025964 119389.000000 0 0 1
20.676549 -29.351037 -6.144941 36.424763 -0.957085 1.740309 0.099801 -0.032223 818542.000000 0 0 1
19.487949 -29.437637 -5.132941 35.674946 -0.986026 1.715178 0.088698 -0.020441 875667.000000 0 0 1
18.259249 -29.992337 -5.577141 35.553410 -1.023933 1.728313 0.095331 -0.023365 220984.000000 0 0 1
17.255249 -29.784137 -4.586441 34.725695 -1.045704 1.703260 0.072659 -0.016041 1341450.000000 0 0 1
15.861849 -30.463137 -4.914141 34.695097 -1.090734 1.712912 0.075473 -0.014000 1121140.000000 0 0 1
15.930249 -31.902537 -4.839141 35.985581 -1.107676 1.705679 0.082248 -0.005001 -412164.000000 0 0 1
14.648649 -32.463037 -4.881441 35.948021 -1.146911 1.707009 0.093827 -0.005374 -89579.900000 0 0 1
14.741849 33.428206 -5.040541 36.880539 1.155452 1.707898 0.091488 -0.013388 91457.300000 0 0 1
14.901949 32.686606 -3.858641 36.129924 1.143044 1.677799 0.099115 -0.016873 -152749.000000 0 0 1
15.145849 31.242306 -4.000041 34.949661 1.119393 1.685499 0.097988 -0.017552 299377.000000 0 0 1
14.031349 30.324106 -4.664941 33.737099 1.137421 1.709514 0.100312 -0.022326 1374480.000000 0 0 1
12.924549 29.947006 -3.801441 32.837754 1.163365 1.686821 0.090891 -0.022200 621844.000000 0 0 1
13.325649 29.021106 -2.789541 32.055874 1.140342 1.657928 0.096677 -0.027820 -762233.000000 0 0 1
12.189649 28.236306 -2.151441 30.830265 1.163263 1.640636 0.073440 -0.024412 -471627.000000 0 0 1
11.374149 29.072806 -1.410441 31.250419 1.197873 1.615945 0.045994 -0.028328 -347564.000000 0 0 1
10.392249 28.347006 -0.687941 30.199749 1.219403 1.593578 0.031283 -0.026725 -2304.360000 0 0 1
9.523949 29.176906 0.265359 30.693124 1.255280 1.562151 0.031790 -0.007743 -49987.100000 0 0 1
8.624149 28.282006 0.864059 29.580305 1.274819 1.541582 0.031306 -0.014492 786789.000000 0 0 1
7.363449 28.926006 1.199559 29.872616 1.321529 1.530630 0.053485 -0.011360 1193720.000000 0 0 1
6.335049 28.060806 1.957559 28.833552 1.348757 1.502852 0.045620 -0.014906 104213.000000 0 0 1
5.877649 26.976506 1.206059 27.635724 1.356269 1.527141 0.049755 -0.020001 239323.000000 0 0 1
4.626649 26.553906 1.757359 27.011185 1.398292 1.505690 0.047143 -0.023697 603518.000000 0 0 1
3.885549 25.522406 0.847759 25.830397 1.419716 1.537970 0.049252 -0.022640 442664.000000 0 0 1
2.667549 25.092306 1.462859 25.276068 1.464885 1.512889 0.064485 -0.019643 348836.000000 0 0 1
2.217349 23.882006 0.949959 24.003526 1.478216 1.531210 0.055084 -0.026636 -36175.900000 0 1 0
0.686849 23.648006 0.897859 23.675010 1.541760 1.532863 0.061522 -0.018912 -528277.000000 0 1 0
0.059449 24.496306 0.031259 24.496398 1.568369 1.569520 0.064909 -0.025596 1311500.000000 0 1 0
-1.384851 24.333206 -0.159041 24.373100 -1.513946 1.577322 0.051531 -0.014285 2017640.000000 0 1 0
-2.297251 24.828006 1.012959 24.954626 -1.478532 1.530193 0.087300 -0.031932 146697.000000 0 1 0
-3.684651 24.595506 0.747159 24.881194 -1.422092 1.540763 0.106496 -0.014184 498696.000000 0 1 0
-4.442651 25.229106 1.765859 25.678068 -1.396491 1.501973 0.114690 -0.022304 124412.000000 0 0 1
-5.920251 25.458606 1.390359 26.174856 -1.342313 1.517653 0.137062 -0.029992 96278.800000 0 0 1
-6.032751 26.521506 0.420659 27.202230 -1.347136 1.555332 0.145620 -0.033336 661353.000000 0 0 1
-7.341251 26.540506 -0.184241 27.537726 -1.300938 1.577487 0.160788 -0.031179 901066.000000 0 0 1
-7.494651 27.714906 -1.191941 28.735110 -1.306694 1.612289 0.160194 -0.033502 86653.900000 0 0 1
-7.682451 29.005906 -0.659041 30.013280 -1.311883 1.592756 0.183088 -0.054753 7583.480000 0 0 1
-7.322851 29.951406 -1.675841 30.879108 -1.331009 1.625094 0.171849 -0.052797 -116291.000000 0 0 1
-7.345251 31.412006 -1.151541 32.279915 -1.341088 1.606477 0.162184 -0.052540 -799580.000000 0 0 1
-7.438351 32.463506 -2.135741 33.373188 -1.345555 1.634836 0.149686 -0.042673 608848.000000 0 0 1
-6.315751 32.590106 -3.053241 33.336557 -1.379376 1.662513 0.134377 -0.038444 950524.000000 0 0 1
-5.007551 33.068006 -2.365741 33.528575 -1.420506 1.641414 0.143489 -0.047642 -694051.000000 0 0 1
-4.815351 -32.959137 -2.218441 33.382837 1.425722 1.637300 0.146080 -0.047655 -115921.000000 0 0 1
-3.786051 -32.755137 -1.264241 32.997447 1.455721 1.609119 0.127161 -0.042597 -57381.000000 0 0 1
-3.596051 -31.254337 -1.114541 31.480270 1.456242 1.606208 0.127470 -0.049568 -3357.830000 0 0 1
-4.784351 -30.655737 -0.666541 31.033990 1.415978 1.592276 0.157027 -0.050078 -41265.900000 0 0 1
-5.436651 -29.833237 -1.663841 30.370176 1.390540 1.625609 0.175354 -0.044999 -107492.000000 0 0 1
-6.954751 -29.680537 -1.511641 30.521925 1.340629 1.620343 0.197778 -0.051873 -281491.000000 0 0 1
-7.236651 -28.969837 -0.373641 29.862354 1.326006 1.583309 0.199579 -0.044944 -531938.000000 0 0 1
-8.550051 -28.489737 -0.245041 29.746068 1.279239 1.579034 0.159689 -0.042274 43023.800000 0 0 1
-8.813451 -27.832737 1.100059 29.215549 1.264128 1.533134 0.179334 -0.042265 -310140.000000 0 0 1
-8.002051 -26.740337 1.263059 27.940540 1.280028 1.525576 0.183582 -0.047905 -621570.000000 0 0 1
-7.871551 -26.243337 2.602259 27.521733 1.279390 1.476102 0.193314 -0.039591 58752.300000 0 0 1
-8.924751 -25.191637 3.075259 26.902174 1.230319 1.456233 0.172234 -0.038384 10367.700000 0 0 1
-8.651251 -23.882037 2.728159 25.546794 1.223251 1.463802 0.172180 -0.041364 -667581.000000 0 0 1
-9.502151 -22.977437 3.337059 25.087635 1.178670 1.437385 0.160560 -0.045235 -240969.000000 0 0 1
-8.775151 -21.637137 3.676259 23.636494 1.185506 1.414629 0.118290 -0.028144 243029.000000 0 1 0
-7.804851 -21.828637 4.671359 23.647974 1.227410 1.371951 0.112625 -0.025782 -8477.420000 0 1 0
-7.035551 -20.667537 5.148459 22.431066 1.242685 1.339208 0.078540 -0.022162 736549.000000 0 1 0
-7.821151 -19.505937 5.829559 21.809075 1.189460 1.300207 0.077026 -0.026102 -131232.000000 0 1 0
-8.426851 -20.001137 7.007159 22.806964 1.172048 1.258507 0.086452 -0.025708 -271043.000000 0 1 0
-9.135751 -18.977037 7.620659 22.397864 1.122130 1.223624 0.061809 -0.023859 -411985.000000 0 1 0
-28.794121 28.636306 -5.350141 40.960511 -0.782650 1.701788 0.191056 -0.012887 201910.000000 0 0 1
-27.749221 29.345506 -4.686741 40.658868 -0.813349 1.686323 0.192815 -0.026855 173528.000000 0 0 1
-26.962301 28.487006 -3.863241 39.413193 -0.812889 1.668973 0.163411 -0.014772 390749.000000 0 0 1
-25.786981 29.320206 -3.296241 39.185559 -0.849426 1.655015 0.133558 -0.013808 -166369.000000 0 0 1
-26.295301 30.266906 -2.341741 40.162323 -0.855500 1.629136 0.116624 -0.019452 359423.000000 0 0 1
-25.487581 31.413006 -2.110641 40.507389 -0.889161 1.622925 0.115275 -0.018673 -158947.000000 0 0 1
-24.182451 31.330406 -1.321541 39.599643 -0.913456 1.604175 0.096089 0.002295 58358.900000 0 0 1
-23.190051 30.550506 -1.969941 38.405632 -0.921514 1.622112 0.127442 -0.014006 -12760.400000 0 0 1
-21.944851 30.558206 -1.293241 37.643763 -0.948004 1.605158 0.105690 -0.000417 -222883.000000 0 0 1
-20.963351 29.637106 -2.014141 36.357625 -0.955165 1.626223 0.119075 -0.011736 -799312.000000 0 0 1
-19.790651 29.451006 -1.279041 35.505881 -0.979120 1.606827 0.121249 -0.010651 -1143660.000000 0 0 1
-18.937351 28.668606 -2.000741 34.416786 -0.987033 1.628962 0.122549 -0.014150 -502061.000000 0 0 1
-17.444351 28.883206 -1.692441 33.784750 -1.027469 1.620912 0.141850 -0.027754 -63614.000000 0 0 1
-16.916451 28.414206 -0.467441 33.071920 -1.033802 1.584931 0.133590 -0.030528 116445.000000 0 0 1
-15.613151 28.890706 -0.194541 32.840238 -1.075337 1.576720 0.164242 -0.044772 225435.000000 0 0 1
-15.042751 28.316706 1.155459 32.085126 -1.082476 1.534776 0.167610 -0.047255 114349.000000 0 0 1
-15.797351 28.695906 2.305359 32.837874 -1.067563 1.500534 0.145858 -0.048010 -51878.500000 0 0 1
-15.407051 27.975106 3.461559 32.124230 -1.067384 1.462831 0.157800 -0.058983 702051.000000 0 0 1
-14.101051 28.549506 4.119059 32.107329 -1.112028 1.442151 0.171818 -0.049990 741774.000000 0 0 1
-14.345651 29.658906 4.956559 33.316901 -1.120283 1.421472 0.142618 -0.034430 -233900.000000 0 0 1
-14.479451 30.839906 4.210159 34.328993 -1.131842 1.447845 0.170265 -0.048132 -115095.000000 0 0 1
-14.325551 32.172606 4.985859 35.569042 -1.151881 1.430159 0.170878 -0.047430 141943.000000 0 0 1
-15.386751 32.524206 5.854559 36.453422 -1.128911 1.409494 0.162929 -0.051315 408820.000000 0 0 1
-14.903851 33.686406 6.556359 37.415031 -1.154256 1.394654 0.161247 -0.060162 949210.000000 0 0 1
-15.994251 -33.129037 7.532359 37.551107 1.121014 1.368837 0.118943 -0.049121 777234.000000 0 0 1
-16.263851 33.464506 8.692859 38.209316 -1.118409 1.341280 0.094155 -0.048430 731114.000000 0 0 1
-17.553351 -33.685637 9.264259 39.098194 1.090417 1.331573 0.085864 -0.042014 288894.000000 0 0 1
-17.636751 32.954906 10.607859 38.853668 -1.079404 1.294265 0.068017 -0.023640 425996.000000 0 0 1
-16.882751 33.470706 11.711559 39.274369 -1.103632 1.267992 0.067176 -0.021154 579266.000000 0 0 1
-15.490151 33.170706 11.760859 38.452026 -1.133910 1.259957 0.088853 -0.017483 239100.000000 0 0 1
-14.863251 33.172306 13.150059 38.655429 -1.149555 1.223681 0.070272 -0.011946 -315768.000000 0 0 1
-15.322651 32.165006 14.079359 38.309263 -1.126226 1.194457 0.058307 -0.008164 -61982.500000 0 0 1
-14.852351 30.847706 13.927659 36.961507 -1.122080 1.184441 0.058802 -0.013119 -607070.000000 0 0 1
-15.803451 29.916006 13.210959 36.321425 -1.084797 1.198534 0.071296 -0.017215 -415424.000000 0 0 1
-15.613051 29.914806 11.795359 35.746237 -1.089769 1.234519 0.085165 -0.009102 -36413.200000 0 0 1
-16.727951 29.498906 11.059659 35.669677 -1.054942 1.255543 0.058287 -0.003500 -206010.000000 0 0 1
-16.447451 29.521906 9.524059 35.110814 -1.062498 1.296097 0.069419 -0.008838 16741.000000 0 0 1
-15.790751 28.336006 9.134459 33.700377 -1.062390 1.296313 0.074587 -0.002329 -57314.300000 0 0 1
-15.388451 28.373006 7.788759 33.203865 -1.073836 1.334016 0.073385 -0.018983 -79191.800000 0 0 1
-14.514451 27.112206 7.458659 31.644472 -1.079272 1.332856 0.081868 -0.021301 491737.000000 0 0 1
-13.261951 27.016306 8.123259 31.172864 -1.114466 1.307166 0.113241 -0.018067 250079.000000 0 0 1
-12.573251 25.806606 7.974059 29.793509 -1.117433 1.299849 0.116152 -0.021367 344758.000000 0 0 1
-11.264551 25.905406 7.142959 29.137640 -1.160626 1.323127 0.169259 -0.034745 150085.000000 0 0 1
-11.523451 26.181706 5.780259 29.183609 -1.156177 1.371413 0.181393 -0.039681 204352.000000 0 0 1
-10.419751 25.712606 5.043859 28.198401 -1.185782 1.390958 0.204023 -0.034960 -50467.900000 0 0 1
-10.485251 26.024606 3.534759 28.279235 -1.187795 1.445474 0.206468 -0.044487 21437.900000 0 0 1
-10.261151 27.411006 3.300859 29.454204 -1.212601 1.458493 0.214003 -0.041325 57623.100000 0 0 1
-10.502751 27.750606 1.953059 29.735809 -1.208988 1.505069 0.212389 -0.048648 -35114.200000 0 0 1
-10.171451 29.186606 1.537559 30.946413 -1.235461 1.521091 0.238312 -0.054444 -210498.000000 0 0 1
-11.020651 30.181006 2.041759 32.194979 -1.220687 1.507335 0.216994 -0.060744 -194233.000000 0 0 1
-10.588251 31.538806 1.792059 33.316945 -1.246898 1.516982 0.213562 -0.057882 130022.000000 0 0 1
-11.379251 32.550706 2.672459 34.585804 -1.234491 1.493449 0.200067 -0.060311 -366563.000000 0 0 1
-12.676551 32.850606 2.280159 35.285357 -1.202517 1.506131 0.224095 -0.060674 -1035580.000000 0 0 1
-12.923551 -33.649537 1.233059 36.067020 1.204104 1.536602 0.213158 -0.054940 -569690.000000 0 0 1
-14.403451 -33.423437 0.894759 36.405853 1.163906 1.546217 0.213546 -0.050792 306651.000000 0 0 1
-15.085651 32.775106 0.464859 36.083244 -1.139428 1.557913 0.183856 -0.047736 226325.000000 0 0 1
-15.897251 32.824806 -0.693941 36.478378 -1.119783 1.589821 0.177382 -0.048532 -552433.000000 0 0 1
-15.204751 32.722706 -2.049041 36.140815 -1.135823 1.627523 0.196527 -0.039517 -341870.000000 0 0 1
-14.511851 31.524906 -2.287241 34.779951 -1.139385 1.636607 0.181513 -0.042702 612856.000000 0 0 1
-13.127451 31.647206 -1.922541 34.315766 -1.177592 1.626851 0.192349 -0.036444 16613.600000 0 0 1
-12.344751 30.399506 -2.267841 32.888690 -1.185056 1.639806 0.146582 -0.048010 -175630.000000 0 0 1
-12.203851 30.036906 -3.623341 32.623279 -1.184875 1.682092 0.126704 -0.040293 -584346.000000 0 0 1
-10.915251 29.591406 -3.921441 31.783199 -1.217415 1.694492 0.110702 -0.035821 -162349.000000 0 0 1
-10.689351 29.028806 -5.383441 31.399287 -1.217972 1.743099 0.101929 -0.036509 35621.700000 0 0 1
-11.139051 27.668706 -5.518541 30.332986 -1.188062 1.753747 0.100425 -0.029571 60213.100000 0 0 1
-10.930551 27.237606 -6.837541 30.134965 -1.189167 1.799687 0.082639 -0.025122 431071.000000 0 0 1
-11.618751 25.823906 -7.248941 29.230406 -1.148007 1.821404 0.089699 -0.021705 635450.000000 0 0 1
-11.140651 24.740006 -6.410341 27.879643 -1.147685 1.802801 0.072475 -0.012650 260425.000000 0 0 1
-11.487351 23.531006 -7.078141 27.125036 -1.116650 1.834797 0.110623 -0.029250 85136.500000 0 0 1
-10.991151 22.295106 -6.227441 25.625342 -1.112777 1.816273 0.100984 -0.023421 697938.000000 0 0 1
-9.578251 22.283706 -5.994141 24.984719 -1.164840 1.813072 0.107924 -0.019663 677413.000000 0 1 0
-9.012551 21.035906 -5.566241 23.552462 -1.166019 1.809387 0.094832 -0.012217 180473.000000 0 1 0
-8.906251 20.832606 -4.042841 23.014416 -1.166797 1.747378 0.101555 -0.023483 501126.000000 0 1 0
-10.155651 20.542406 -3.407741 23.167658 -1.111659 1.718422 0.119347 -0.032848 355362.000000 0 1 0
-10.452351 19.177006 -3.279741 22.085423 -1.071765 1.719850 0.096319 -0.027504 930961.000000 0 1 0
-11.776551 18.894406 -2.447141 22.398085 -1.013433 1.680272 0.091955 -0.037084 771551.000000 0 1 0
-11.739151 19.088506 -1.030241 22.433014 -1.019431 1.616738 0.093928 -0.030180 13690.500000 0 1 0
-11.193651 17.987106 -0.373541 21.188991 -1.014130 1.588426 0.071524 -0.025255 -402795.000000 0 1 0
-11.021951 18.140006 1.154659 21.257386 -1.024804 1.516452 0.081044 -0.024084 70089.200000 0 1 0
-12.249751 18.163406 1.860859 21.987008 -0.977446 1.486060 0.105064 -0.031414 202078.000000 0 1 0
-12.130451 18.441806 3.287159 22.317111 -0.988979 1.422965 0.102666 -0.022603 -210651.000000 0 1 0
-13.472051 18.336206 4.020859 23.105842 -0.937144 1.395887 0.103732 -0.032419 -177179.000000 0 1 0
-13.987651 17.054306 4.199659 22.453081 -0.883869 1.382647 0.072021 -0.027947 106344.000000 0 1 0
-15.276051 17.107006 4.776059 23.426868 -0.841879 1.365486 0.085666 -0.035553 94398.900000 0 1 0
-15.660551 15.715306 5.408659 22.835877 -0.787143 1.331675 0.055853 -0.027960 -355774.000000 0 1 0
-15.037851 15.324506 6.619459 22.467636 -0.794839 1.271736 0.061314 -0.015466 -147581.000000 0 1 0
-15.284251 16.111606 7.762859 23.525606 -0.811744 1.234519 0.043275 -0.009781 -887034.000000 0 1 0
-14.233351 15.919306 8.908659 23.138211 -0.841254 1.175568 0.041311 -0.002821 906834.000000 0 1 0
-13.005151 16.628206 8.768959 22.858824 -0.907057 1.177090 0.048138 -0.021507 238056.000000 0 1 0
-12.185851 16.128706 7.728359 21.641572 -0.923760 1.205627 0.053885 -0.026106 -312266.000000 0 1 0
-10.917851 17.034606 7.480959 21.571788 -1.000829 1.216646 0.075740 -0.037271 581533.000000 0 1 0
-9.972051 17.087506 8.496959 21.531906 -1.042532 1.165140 0.067720 -0.031160 -203927.000000 0 1 0
-9.255351 18.302706 8.580059 22.232139 -1.102613 1.174580 0.071748 -0.029840 -726311.000000 0 1 0
-7.961151 18.313606 9.339359 22.045220 -1.160728 1.133330 0.065427 -0.029691 -746496.000000 0 1 0
-6.945151 17.510306 8.723159 20.759081 -1.193197 1.137120 0.048975 -0.027573 1117730.000000 0 1 0
-5.645151 17.639206 9.347759 20.745841 -1.261062 1.103376 0.042194 -0.029516 1535440.000000 0 1 0
-4.788051 18.892806 8.908359 21.429475 -1.322590 1.142078 0.038172 -0.026529 -989404.000000 0 1 0
-5.214451 20.084106 9.456259 22.803128 -1.316774 1.143193 0.057123 -0.031995 -257481.000000 0 1 0
-4.756251 21.219806 8.779859 23.451823 -1.350299 1.187070 0.069324 -0.031381 543749.000000 0 1 0
-3.294051 21.742906 8.991359 23.758141 -1.420440 1.182671 0.073214 -0.031866 1009990.000000 0 1 0
-2.273751 20.814606 8.563359 22.621868 -1.461990 1.182574 0.058551 -0.014267 1028260.000000 0 1 0
-1.052751 21.573606 8.398459 23.174617 -1.522037 1.199956 0.062651 -0.015996 1817050.000000 0 1 0
0.276549 20.756806 8.105059 22.284826 1.557474 1.198556 0.050909 -0.011738 1229530.000000 0 1 0
0.671849 19.944406 9.172959 21.963012 1.537123 1.139934 0.055049 -0.025922 155014.000000 0 1 0
2.006949 19.455606 8.996459 21.528696 1.468005 1.139683 0.042632 -0.029350 809849.000000 0 1 0
2.649749 18.937506 10.336459 21.736897 1.431778 1.075234 0.042088 -0.043069 783472.000000 0 1 0
4.064749 18.708906 10.386759 21.781417 1.356858 1.073714 0.059238 -0.024617 677247.000000 0 1 0
4.587949 18.459706 11.633559 22.296855 1.327194 1.021886 0.055138 -0.025477 410149.000000 0 1 0
6.142849 18.550306 11.691359 22.771393 1.251016 1.031627 0.052197 -0.024988 338842.000000 0 1 0
6.832049 17.517506 11.061459 21.815036 1.198929 1.039030 0.032279 -0.021548 -266.260000 0 1 0
7.720349 16.896806 11.974459 22.101890 1.142209 0.998238 0.034158 -0.013995 220839.000000 0 1 0
9.007849 16.219406 11.426459 21.789320 1.063836 1.018778 0.034139 -0.014354 587980.000000 0 1 0
9.915849 17.102906 10.791259 22.522983 1.045380 1.071142 0.045706 -0.027333 -254120.000000 0 1 0
11.055249 16.425206 10.343359 22.338107 0.978376 1.089378 0.042067 -0.027525 52408.200000 0 1 0
12.095749 17.386006 9.682159 23.287863 0.962950 1.142018 0.051919 -0.025784 313016.000000 0 1 0
13.204349 16.768506 9.065059 23.188638 0.903755 1.169158 0.073708 -0.026350 563927.000000 0 1 0
14.190549 17.758006 8.679659 24.332179 0.896600 1.206047 0.101330 -0.029219 1059530.000000 0 1 0
15.133449 17.270906 7.480859 24.150957 0.851265 1.255862 0.129694 -0.036530 -364248.000000 0 1 0
16.093149 16.400506 7.864359 24.286091 0.794857 1.241030 0.141059 -0.041362 -1195430.000000 0 1 0
17.088949 16.253806 6.903959 24.574032 0.760356 1.286017 0.148181 -0.035888 755653.000000 0 1 0
18.562749 16.446306 7.478459 25.903359 0.725017 1.277921 0.147743 -0.034880 958542.000000 0 0 1
18.881549 15.326206 8.248359 25.679582 0.681836 1.243797 0.166854 -0.038640 -196321.000000 0 0 1
20.032749 15.566306 9.007559 26.921312 0.660585 1.229628 0.169605 -0.043015 -542362.000000 0 0 1
20.358649 14.548406 10.040359 26.961816 0.620461 1.189211 0.166534 -0.037877 -249972.000000 0 0 1
20.866449 13.385106 9.483459 26.542528 0.570352 1.205428 0.190313 -0.048410 117942.000000 0 0 1
21.033449 12.333806 10.394759 26.506222 0.530352 1.167815 0.186618 -0.060965 53233.700000 0 0 1
22.144849 11.416006 9.829459 26.783163 0.475983 1.195013 0.180243 -0.055211 -215670.000000 0 0 1
23.509449 11.714006 10.123859 28.149683 0.462261 1.202910 0.165266 -0.065026 1181860.000000 0 0 1
24.378549 10.961506 9.272259 28.292103 0.422552 1.236893 0.182998 -0.047956 -715.817000 0 0 1
24.579549 9.486406 9.518959 28.013510 0.368333 1.224093 0.188456 -0.054664 -565972.000000 0 0 1
23.461549 8.691006 9.115959 26.628530 0.354764 1.221392 0.208062 -0.061575 743306.000000 0 0 1
23.641349 7.314206 9.345659 26.452833 0.300042 1.209705 0.208684 -0.062220 482072.000000 0 0 1
24.883149 6.585806 8.663459 27.158783 0.258737 1.246130 0.222412 -0.064349 798112.000000 0 0 1
24.769849 6.374706 7.274459 26.591353 0.251891 1.293699 0.229324 -0.049473 -257590.000000 0 0 1
25.763049 5.533806 6.801359 27.214265 0.211581 1.318200 0.235610 -0.048532 -540858.000000 0 0 1
25.565049 5.051606 5.315859 26.596030 0.195085 1.369567 0.262331 -0.056266 51448.400000 0 0 1
24.450849 4.193506 5.129659 25.332646 0.169855 1.366894 0.249071 -0.052062 245946.000000 0 0 1
24.040649 4.063706 3.847659 24.683416 0.167452 1.414278 0.254312 -0.048382 -351301.000000 0 1 0
22.842249 3.104206 3.765959 23.357802 0.135070 1.408860 0.232112 -0.039745 -86821.500000 0 1 0
23.144549 1.733906 4.090859 23.567175 0.074777 1.396330 0.241532 -0.049358 182328.000000 0 1 0
21.972049 0.993006 3.965559 22.349109 0.045163 1.392415 0.201489 -0.037660 -490097.000000 0 1 0
22.401549 -0.484094 3.839359 22.733333 -0.021606 1.401096 0.229631 -0.050571 69093.500000 0 1 0
22.889549 -1.096894 5.050359 23.465736 -0.047885 1.353876 0.228695 -0.052771 693843.000000 0 1 0
22.887849 -2.516894 5.100659 23.584002 -0.109526 1.352798 0.218501 -0.058390 -436650.000000 0 1 0
23.061949 -3.112894 6.518359 24.166767 -0.134169 1.297690 0.252046 -0.052932 -56616.500000 0 1 0
23.049649 -4.540094 6.545759 24.387410 -0.194481 1.299057 0.223729 -0.052111 634826.000000 0 1 0
23.181749 -5.008194 7.890359 24.994665 -0.212770 1.249621 0.270309 -0.054801 -149245.000000 0 1 0
22.997149 -6.467994 8.143859 25.239379 -0.274169 1.242253 0.267555 -0.052581 161598.000000 0 0 1
21.643549 -6.882994 8.159259 24.132806 -0.307902 1.225901 0.270981 -0.053951 612491.000000 0 1 0
21.326949 -7.847594 9.196759 24.515380 -0.352590 1.186246 0.239197 -0.041190 91802.200000 0 1 0
-28.360961 -32.726837 5.432259 43.645153 0.856746 1.446009 0.079597 -0.016128 -352567.000000 0 0 1
-29.266261 -33.694737 5.809359 45.006644 0.855619 1.441357 0.087410 -0.026819 -359276.000000 0 0 1
-29.180491 33.414206 7.153059 44.935247 -0.852932 1.410930 0.071667 -0.004946 45784.100000 0 0 1
-30.092261 32.197706 7.451659 44.696350 -0.819186 1.403297 0.083839 -0.017923 -484283.000000 0 0 1
-31.441781 32.502406 7.328459 45.811552 -0.801983 1.410136 0.084980 -0.014145 -1119200.000000 0 0 1
-32.193541 31.320006 7.355059 45.513336 -0.771646 1.408482 0.119909 -0.037535 75329.800000 0 0 1
-33.718571 31.581006 7.339059 46.777813 -0.752675 1.413254 0.131218 -0.032037 -138519.000000 0 0 1
-34.217767 31.973106 6.088159 47.225001 -0.751499 1.441518 0.116996 -0.034109 -1093220.000000 0 0 1
-35.590750 32.031006 6.265759 48.290233 -0.732805 1.440677 0.097109 -0.026895 -893263.000000 0 0 1
-36.365621 31.897306 4.905259 48.620552 -0.720034 1.469736 0.088095 -0.025731 -200214.000000 0 0 1
-36.153871 30.638406 4.403559 47.594176 -0.703009 1.478141 0.097403 -0.032990 197991.000000 0 0 1
-36.887501 30.500606 3.216859 47.972105 -0.690903 1.503689 0.091815 -0.013171 -161402.000000 0 0 1
-36.643451 29.114906 2.535959 46.870581 -0.671406 1.516664 0.091428 -0.024102 -195438.000000 0 0 1
-37.143801 28.001806 3.232459 46.628445 -0.645977 1.501417 0.127332 -0.033803 601376.000000 0 0 1
-36.401751 26.828306 2.842459 45.309216 -0.635133 1.508020 0.109857 -0.034190 222119.000000 0 0 1
-36.790131 25.579006 3.724459 44.962994 -0.607543 1.487867 0.144606 -0.036636 -107357.000000 0 0 1
-38.056551 25.023406 3.479659 45.679097 -0.581652 1.494546 0.127649 -0.022264 -457745.000000 0 0 1
37.955189 23.987606 4.415959 45.116542 0.563616 1.472760 0.130466 -0.026476 494834.000000 0 0 1
36.473269 23.554606 4.166159 43.617379 0.573420 1.475134 0.139786 -0.018366 444870.000000 0 0 1
36.122289 22.706906 3.042759 42.774779 0.561193 1.499602 0.124835 -0.027326 333.298000 0 0 1
36.462609 21.361506 3.145959 42.376089 0.529948 1.496489 0.115368 -0.019741 -156461.000000 0 0 1
35.443159 20.449806 2.345259 40.986734 0.523317 1.513545 0.117903 -0.008445 1147910.000000 0 0 1
34.124479 20.445806 2.922059 39.887962 0.539797 1.497474 0.119555 -0.029727 809287.000000 0 0 1
33.861539 19.547206 3.961159 39.298701 0.523538 1.469829 0.107192 -0.018074 -387219.000000 0 0 1
33.860929 18.022406 3.525759 38.520133 0.489112 1.479138 0.134272 -0.024745 -518242.000000 0 0 1
32.776999 17.622406 2.725659 37.313672 0.493309 1.497684 0.106701 -0.035993 179420.000000 0 0 1
32.939799 16.232906 2.344159 36.797183 0.457875 1.507048 0.122407 -0.032601 -73591.900000 0 0 1
32.239469 15.193106 3.285359 35.791164 0.440391 1.478874 0.151726 -0.036108 846928.000000 0 0 1
30.813179 15.229606 3.095459 34.510503 0.459042 1.480979 0.108670 -0.036507 935366.000000 0 0 1
30.176479 14.327506 4.026759 33.646874 0.443277 1.450832 0.106916 -0.047056 -223271.000000 0 0 1
28.656379 14.453806 4.024259 32.346487 0.467148 1.446062 0.104122 -0.039295 69259.400000 0 0 1
27.941279 13.886206 2.886959 31.334906 0.461227 1.478533 0.107734 -0.053810 716679.000000 0 0 1
26.583379 14.295406 2.753359 30.308673 0.493395 1.479827 0.093338 -0.041596 705629.000000 0 0 1
25.893879 13.640906 1.494559 29.305307 0.484857 1.519775 0.096092 -0.036842 -4007.050000 0 0 1
26.265579 14.190906 0.237459 29.854964 0.495354 1.562842 0.090134 -0.035655 494489.000000 0 0 1
27.524179 13.760806 -0.275941 30.773631 0.463610 1.579763 0.094007 -0.038948 -210624.000000 0 0 1
28.105979 14.697106 -1.396641 31.747466 0.481813 1.614803 0.112778 -0.036568 11166.300000 0 0 1
28.488279 15.997606 -0.994741 32.687841 0.511668 1.601233 0.059107 -0.022996 191794.000000 0 0 1
29.660779 16.028706 -0.206241 33.715335 0.495443 1.576913 0.082209 -0.027124 -619590.000000 0 0 1
30.249379 17.428206 -0.177941 34.911302 0.522699 1.575893 0.088773 -0.015732 -484244.000000 0 0 1
30.845879 17.889606 -1.361041 35.684152 0.525559 1.608947 0.113152 -0.011347 -118190.000000 0 0 1
31.227879 19.196706 -1.129641 36.673833 0.551180 1.601604 0.104818 0.001880 -523363.000000 0 0 1
32.447369 19.499206 -1.986241 37.907730 0.541117 1.623217 0.090754 0.005226 -232408.000000 0 0 1
33.094199 20.782506 -1.835541 39.121705 0.560740 1.617732 0.085896 0.008605 723353.000000 0 0 1
32.394329 21.828206 -2.511141 39.142930 0.592944 1.634994 0.097650 0.009233 186058.000000 0 0 1
33.223479 23.137706 -2.436341 40.559694 0.608324 1.630901 0.119688 -0.003579 228169.000000 0 0 1
33.519719 23.735606 -1.172041 41.089223 0.616147 1.599324 0.108355 0.003329 361159.000000 0 0 1
34.877659 23.728106 -0.751641 42.190510 0.597398 1.588613 0.128463 0.011866 306607.000000 0 0 1
35.205089 24.532306 0.518659 42.912718 0.608602 1.558710 0.123423 -0.004470 7488.510000 0 0 1
35.373559 25.959206 0.232759 43.877366 0.633091 1.565492 0.127140 0.000631 -192180.000000 0 0 1
36.394839 26.492206 1.038859 45.027775 0.629214 1.547723 0.130683 -0.011705 104641.000000 0 0 1
36.987699 27.805506 0.445959 46.275641 0.644620 1.561159 0.110847 -0.022968 204051.000000 0 0 1
37.643709 27.648606 -0.855741 46.714308 0.633495 1.589116 0.099714 -0.012059 621204.000000 0 0 1
36.716459 27.595306 -1.927441 45.970799 0.644511 1.612736 0.086463 -0.009801 -36799.600000 0 0 1
37.299889 26.968906 -3.195041 46.139050 0.626015 1.640100 0.089747 -0.013523 373816.000000 0 0 1
-37.955091 27.709706 -3.776741 47.145313 -0.630621 1.650991 0.084560 -0.024773 596141.000000 0 0 1
-37.506821 27.308606 -5.084741 46.673077 -0.629335 1.679957 0.091896 -0.025087 57600.300000 0 0 1
37.818269 27.568006 -6.243341 47.214360 0.629899 1.703419 0.075784 -0.024604 11069.600000 0 0 1
36.639229 26.818406 -6.084741 45.811397 0.631854 1.704012 0.083964 -0.018189 -561466.000000 0 0 1
35.884969 26.819106 -7.242141 45.381098 0.641811 1.731067 0.073129 -0.014409 -552913.000000 0 0 1
34.690549 25.859006 -7.240741 43.869702 0.640563 1.736606 0.094280 -0.009068 -512320.000000 0 0 1
34.904429 24.470006 -7.514741 43.284775 0.611435 1.745292 0.079955 -0.010977 -264441.000000 0 0 1
35.677069 23.791106 -6.538841 43.377718 0.588127 1.722115 0.095481 -0.019489 146494.000000 0 0 1
35.890999 22.288706 -6.809141 42.793862 0.555726 1.730590 0.096217 -0.008970 263111.000000 0 0 1
34.719019 21.612106 -6.401441 41.394104 0.556790 1.726066 0.087789 0.005001 215922.000000 0 0 1
34.893009 20.213706 -6.474941 40.841656 0.525064 1.730006 0.096096 -0.002470 -351759.000000 0 0 1
33.889969 19.377006 -5.666241 39.447493 0.519398 1.714935 0.108491 -0.001013 329354.000000 0 0 1
32.589619 19.488606 -6.254741 38.483904 0.538948 1.734049 0.080127 -0.005479 52469.000000 0 0 1
31.693389 18.685106 -5.552441 37.207979 0.532707 1.720583 0.107107 -0.015153 -436075.000000 0 0 1
30.432679 18.315706 -6.340741 36.080716 0.541774 1.747451 0.063794 -0.015214 -102824.000000 0 0 1
30.700179 17.451206 -7.444241 36.089643 0.516890 1.778559 0.045366 -0.006562 -269663.000000 0 0 1
29.638079 17.482006 -8.350141 35.408490 0.532922 1.808862 0.068737 -0.025044 -309749.000000 0 0 1
29.841079 16.398806 -9.323841 35.303610 0.502488 1.838072 0.080365 -0.016752 279361.000000 0 0 1
28.859279 16.409406 -10.364241 34.778500 0.517012 1.873401 0.097853 -0.020567 461566.000000 0 0 1
29.091579 15.326606 -11.234841 34.748331 0.484888 1.900032 0.092025 -0.023194 121334.000000 0 0 1
28.129079 15.270606 -12.453041 34.344064 0.497357 1.941849 0.113690 -0.020924 596472.000000 0 0 1
26.734979 15.136906 -12.152741 33.038979 0.515183 1.947471 0.105868 -0.028861 652362.000000 0 0 1
25.847979 15.174606 -13.235841 32.765442 0.530859 1.986635 0.123686 -0.038128 -298395.000000 0 0 1
25.701879 13.804106 -13.980941 32.351301 0.492874 2.017683 0.130474 -0.037165 -827420.000000 0 0 1
26.859479 13.146306 -14.457541 33.215621 0.455170 2.021127 0.135615 -0.036806 -1831.220000 0 0 1
27.227779 13.543506 -15.753441 34.248349 0.461577 2.048765 0.144348 -0.042498 69486.400000 0 0 1
28.696379 13.198206 -16.130941 35.466633 0.431078 2.042967 0.160128 -0.039938 225742.000000 0 0 1
28.994079 11.869306 -16.338841 35.334046 0.388558 2.051508 0.165057 -0.036523 1166590.000000 0 0 1
30.339479 11.732406 -16.876741 36.646388 0.368992 2.049388 0.148144 -0.015636 1278510.000000 0 0 1
30.475379 10.346006 -17.546841 36.656244 0.327279 2.069954 0.102347 -0.011944 -266544.000000 0 0 1
29.672479 10.221606 -18.731841 36.548859 0.331750 2.108908 0.127603 -0.018415 261554.000000 0 0 1
29.646979 9.052006 -19.459141 36.599732 0.296336 2.131373 0.103556 -0.005905 -180841.000000 0 0 1
31.002379 8.655606 -20.100841 37.948792 0.272259 2.129023 0.115936 -0.009273 -351725.000000 0 0 1
31.322679 9.490806 -21.229541 39.011268 0.294208 2.146220 0.122091 -0.016587 243144.000000 0 0 1
31.900989 8.733406 -22.277941 39.877966 0.267219 2.163557 0.109359 -0.011606 -721481.000000 0 0 1
33.371639 8.371606 -22.226141 40.960364 0.245788 2.144356 0.104666 -0.010541 -851662.000000 0 0 1
34.360439 9.382006 -22.423641 42.088971 0.266549 2.132664 0.114179 -0.010848 -761727.000000 0 0 1
35.562149 8.703206 -22.472241 42.958280 0.240015 2.121301 0.079933 -0.001101 -506301.000000 0 0 1
36.748719 9.669806 -22.113241 43.965543 0.257301 2.097825 0.104695 -0.013949 204805.000000 0 0 1
36.613479 10.329506 -20.870441 43.391484 0.274976 2.072569 0.081464 -0.018162 -204478.000000 0 0 1
37.489809 11.405106 -20.727041 44.330266 0.295323 2.057324 0.062752 -0.003291 -351517.000000 0 0 1
37.414829 12.187706 -19.381141 43.863860 0.314906 2.028453 0.034393 -0.012360 -167877.000000 0 0 1
37.807859 11.388206 -18.283841 43.513496 0.292569 2.004449 0.045313 -0.012085 38033.700000 0 0 1
37.851229 12.153706 -17.113941 43.281810 0.310693 1.977307 0.048293 -0.011976 -164955.000000 0 0 1
-38.055801 11.370006 -15.848741 42.763344 -0.290330 1.950468 0.042264 -0.018697 333771.000000 0 0 1
37.411519 10.264506 -15.460041 41.761163 0.267778 1.950022 0.029986 -0.022142 497888.000000 0 0 1
-38.154951 9.363806 -14.756441 41.967055 -0.240659 1.930097 0.030982 -0.031772 -499483.000000 0 0 1
37.411629 8.127306 -14.511741 40.942322 0.213916 1.933115 0.078302 -0.027239 -819987.000000 0 0 1
36.277399 8.171306 -13.715841 39.635139 0.221548 1.924157 0.098242 -0.027143 -109380.000000 0 0 1
36.587419 8.141806 -12.309141 39.451783 0.218962 1.888099 0.108786 -0.034780 -874507.000000 0 0 1
35.494299 8.579906 -11.347841 38.239163 0.237177 1.872094 0.126046 -0.032519 -511184.000000 0 0 1
35.163759 9.965006 -11.392241 38.282822 0.276148 1.872954 0.120078 -0.039721 12862.600000 0 0 1
34.437089 10.339706 -10.228541 37.382425 0.291685 1.847950 0.107422 -0.024385 -406770.000000 0 0 1
35.151909 10.309606 -8.827141 37.681071 0.285287 1.807253 0.135111 -0.023255 323776.000000 0 0 1
36.218979 11.251306 -8.682441 38.907469 0.301196 1.795847 0.145306 -0.021679 466048.000000 0 0 1
35.842329 12.551706 -8.199341 38.851603 0.336846 1.783438 0.135043 -0.015575 -146565.000000 0 0 1
35.326089 12.692506 -6.714541 38.132891 0.344932 1.747802 0.120599 -0.012771 116338.000000 0 0 1
36.370629 12.347206 -5.820841 38.847887 0.327275 1.721199 0.157540 -0.014111 333950.000000 0 0 1
36.104009 12.638806 -4.441441 38.509288 0.336734 1.686388 0.148140 -0.006661 -171677.000000 0 0 1
37.369979 12.556306 -3.571441 39.584484 0.324148 1.661142 0.172643 -0.013475 -32208.300000 0 0 1
-38.162991 13.707106 -3.702841 40.718665 -0.344823 1.661859 0.180137 -0.003736 -602226.000000 0 0 1
-36.989611 13.578106 -2.973141 39.515008 -0.351808 1.646108 0.167385 -0.014863 -832058.000000 0 0 1
-36.014741 14.721206 -3.077141 39.028762 -0.388031 1.649721 0.158039 -0.018765 -464281.000000 0 0 1
-36.461661 15.910606 -2.497741 39.860241 -0.411458 1.633500 0.180874 -0.012852 330385.000000 0 0 1
-35.469479 16.937806 -2.552941 39.388967 -0.445512 1.635655 0.160533 -0.019464 305700.000000 0 0 1
-35.801085 18.122706 -1.593041 40.158286 -0.468600 1.610476 0.165508 -0.012494 12585.800000 0 0 1
-36.878751 18.844706 -2.133441 41.469468 -0.472402 1.622265 0.149145 -0.008377 -108110.000000 0 0 1
-37.708411 19.440006 -1.197441 42.441394 -0.475998 1.599014 0.137318 -0.007090 490765.000000 0 0 1
37.613089 20.465506 -1.866441 42.860997 0.498307 1.614356 0.120362 0.000206 596457.000000 0 0 1
-38.059691 21.655506 -2.202941 43.844657 -0.517304 1.621062 0.119175 -0.004230 113143.000000 0 0 1
37.755339 22.231906 -3.389041 43.945522 0.532174 1.647992 0.099257 -0.002618 -302683.000000 0 0 1
-37.800251 23.459706 -3.892841 44.658381 -0.555446 1.658076 0.114728 -0.012002 -486683.000000 0 0 1
-36.532321 23.017906 -4.297041 43.392384 -0.562237 1.669986 0.123347 -0.018033 -176436.000000 0 0 1
-35.745283 24.105406 -4.813041 43.381577 -0.593314 1.681972 0.134879 -0.025436 179606.000000 0 0 1
-34.236510 23.847506 -4.944641 42.015374 -0.608408 1.688756 0.130034 -0.035408 -151156.000000 0 0 1
-33.828691 22.799906 -5.833341 41.209755 -0.593050 1.712826 0.113298 -0.027319 925565.000000 0 0 1
-32.573601 23.184606 -6.462641 40.501002 -0.618575 1.731049 0.118615 -0.016923 1012970.000000 0 0 1
-32.119551 22.350506 -7.711341 39.883273 -0.607938 1.765369 0.117588 -0.021483 -130123.000000 0 0 1
-32.858511 22.716806 -8.824141 40.909662 -0.604899 1.788203 0.103144 -0.024971 -57187.000000 0 0 1
-32.423291 22.027806 -9.964241 40.444779 -0.596754 1.819726 0.052515 -0.017404 -297503.000000 0 0 1
-33.389671 22.133006 -11.152941 41.582787 -0.585369 1.842331 0.054789 -0.011251 -262130.000000 0 0 1
-33.491441 23.475906 -11.563741 42.503116 -0.611365 1.846338 0.065467 -0.018225 -79522.000000 0 0 1
-34.075744 23.621106 -12.840241 43.404893 -0.606144 1.871115 0.040957 -0.011349 -600043.000000 0 0 1
-34.198731 25.085906 -13.235541 44.430118 -0.632879 1.873284 0.088272 -0.024622 275729.000000 0 0 1
-32.985621 25.846906 -13.160941 43.924072 -0.664649 1.875100 0.079292 -0.018586 -169332.000000 0 0 1
-32.076061 25.605806 -14.182741 43.424430 -0.673694 1.903508 0.067097 -0.018515 -867321.000000 0 0 1
-30.646611 25.981306 -13.737941 42.461442 -0.703199 1.900264 0.048539 -0.016196 -222637.000000 0 0 1
-29.987881 25.118306 -12.781341 41.152946 -0.697260 1.886601 0.024893 -0.024125 -43279.800000 0 0 1
-30.589491 24.986706 -11.520941 41.143462 -0.684925 1.854610 0.058858 -0.019951 -832774.000000 0 0 1
-30.792021 26.241706 -10.595041 41.821413 -0.705784 1.826928 0.087762 -0.022508 -128894.000000 0 0 1
-29.606591 26.888206 -10.208341 41.276338 -0.737318 1.820707 0.112181 -0.019701 -527921.000000 0 0 1
-29.776481 28.268306 -9.909541 42.236654 -0.759421 1.807623 0.124941 -0.027958 161493.000000 0 0 1
-28.546551 29.036906 -9.370741 41.783469 -0.793914 1.796989 0.144199 -0.033365 180179.000000 0 0 1
-28.956061 30.348006 -9.095141 42.920584 -0.808865 1.784321 0.138174 -0.037619 -379682.000000 0 0 1
-27.931041 31.111306 -8.538041 42.672644 -0.839210 1.772238 0.157460 -0.024524 -206985.000000 0 0 1
37.041449 -24.603694 32.746556 55.224520 -0.586307 0.936052 0.059609 -0.019510 -327396.000000 0 0 1
36.793289 -23.355294 33.458465 54.942559 -0.565594 0.916033 0.052893 -0.030407 47867.900000 0 0 1
35.733699 -23.549294 -32.944311 54.007352 -0.582691 2.226853 0.052313 -0.026543 -148449.000000 0 0 1
35.088169 -22.238394 -32.447691 52.712223 -0.564892 2.233896 0.038390 -0.026851 39807.000000 0 0 1
34.278669 -21.587094 -33.407301 52.507881 -0.562010 2.260403 0.028828 -0.024862 139610.000000 0 0 1
33.961359 -20.292094 -32.966191 51.496725 -0.538583 2.265504 0.018376 -0.009783 54341.800000 0 0 1
33.486589 -19.419894 33.188819 50.990015 -0.525532 0.862042 0.026902 -0.007358 -192336.000000 0 0 1
34.528879 -18.948794 32.396554 50.998402 -0.501907 0.882469 0.043466 -0.014824 -124035.000000 0 0 1
33.994199 -18.231094 31.332884 49.696358 -0.492264 0.888616 0.062620 -0.003882 -124996.000000 0 0 1
34.987959 -18.200794 30.144005 49.639573 -0.479678 0.918192 0.069645 -0.004962 643784.000000 0 0 1
36.113469 -17.349794 30.366715 50.272611 -0.447865 0.922234 0.073356 -0.015792 994787.000000 0 0 1
37.080769 -17.248394 29.297815 50.307579 -0.435387 0.949151 0.092332 -0.012788 501448.000000 0 0 1
38.121449 -16.183094 29.683945 50.953646 -0.401459 0.948912 0.088866 -0.018182 -526551.000000 0 0 1
-37.170781 -16.055994 28.774485 49.673261 0.407744 0.952957 0.094632 -0.020771 184248.000000 0 0 1
-36.075461 -15.335894 29.333665 48.960110 0.401960 0.928377 0.079188 -0.022484 211001.000000 0 0 1
-34.731042 -15.331194 28.553785 47.503783 0.415701 0.925939 0.108217 -0.027634 339122.000000 0 0 1
-33.678551 -14.695194 29.271215 46.978692 0.411434 0.898129 0.089219 -0.020399 319346.000000 0 0 1
-32.833361 -15.726394 29.783665 47.036324 0.446687 0.885108 0.084174 -0.030248 -1187320.000000 0 0 1
-31.491501 -15.266694 30.289775 46.284522 0.451404 0.857374 0.090479 -0.043504 -1230530.000000 0 0 1
-31.587201 -14.266894 31.250242 46.667688 0.424239 0.837081 0.103871 -0.048360 -150154.000000 0 0 1
-30.384111 -13.722394 31.732108 46.026351 0.424209 0.810090 0.089879 -0.059748 -464618.000000 0 0 1
-30.647741 -12.745794 32.878805 46.719964 0.394121 0.790145 0.078415 -0.022350 -108325.000000 0 0 1
-30.968291 -13.391594 -33.215971 47.346283 0.408146 2.348372 0.102383 -0.032244 364748.000000 0 0 1
-31.324021 -12.501294 -32.186241 46.620068 0.379727 2.332831 0.105023 -0.017741 -334461.000000 0 0 1
-31.460451 -13.208494 -30.818341 45.978195 0.397496 2.305385 0.097616 -0.038527 497277.000000 0 0 1
-32.688191 -13.915894 -30.539731 46.849174 0.402477 2.280849 0.095999 -0.035247 801147.000000 0 0 1
-32.740101 -14.440894 -29.209681 46.191547 0.415409 2.255392 0.106020 -0.019167 -152320.000000 0 0 1
-33.836361 -15.471094 -28.986211 47.164123 0.428852 2.232652 0.090687 -0.033684 -365788.000000 0 0 1
-33.601291 -16.695394 -29.651241 47.822369 0.461139 2.239576 0.080444 -0.028081 413632.000000 0 0 1
-34.703436 -17.587494 -29.521771 48.838339 0.469068 2.219909 0.068821 -0.029958 -28842.600000 0 0 1
-34.361461 -18.997294 -29.817231 49.301870 0.505041 2.220297 0.057570 -0.019468 289978.000000 0 0 1
-35.522220 -19.833094 -29.995231 50.545955 0.509216 2.206104 0.048467 -0.023993 588915.000000 0 0 1
-35.195421 -21.165694 -30.363301 51.074791 0.541431 2.207424 0.045197 -0.024146 -44707.900000 0 0 1
-36.408721 -22.008894 -30.818381 52.533408 0.543718 2.197704 0.043901 -0.020031 531862.000000 0 0 1
-37.321661 -22.417894 -29.785021 52.750505 0.540910 2.170793 0.054649 -0.027631 394837.000000 0 0 1
38.051199 -23.420994 -30.049821 53.846341 -0.551748 2.162850 0.074683 -0.032300 -25269.900000 0 0 1
-37.767111 -24.870594 -30.238211 54.398993 0.582345 2.160193 0.067208 -0.030560 38582.800000 0 0 1
-37.245451 -25.037964 -31.570291 54.870816 0.591853 2.183836 0.070776 -0.027553 -244761.000000 0 0 1
-36.549781 -26.235594 -31.700751 55.037537 0.622576 2.184604 0.063522 -0.024637 -275997.000000 0 0 1
-36.834441 -27.038754 -32.960951 56.340878 0.633222 2.195710 0.076906 -0.030150 56626.700000 0 0 1
-38.121161 -27.617454 -33.061471 57.523973 0.626958 2.183086 0.083818 -0.026788 -220863.000000 0 0 1
38.117939 -28.972284 -33.515401 58.443585 -0.649915 2.181527 0.072553 -0.020704 -32845.900000 0 0 1
-37.667061 -30.117964 -32.602411 58.213541 0.674487 2.165241 0.074983 -0.027694 211658.000000 0 0 1
37.908859 -30.438394 -31.452751 57.903825 -0.676529 2.145028 0.076502 -0.030253 11034.800000 0 0 1
-37.716741 -31.386164 -30.696461 57.878463 0.694042 2.129822 0.072125 -0.031986 349668.000000 0 0 1
37.894129 -31.672034 -29.313271 57.431268 -0.696194 2.106453 0.052233 -0.029001 365185.000000 0 0 1
37.047189 -32.806514 -29.406051 57.562813 -0.724765 2.106971 0.081918 -0.024698 -45263.400000 0 0 1
36.653339 -33.152514 -28.089831 56.847120 -0.735289 2.087629 0.082373 -0.025575 -71559.900000 0 0 1
35.538289 33.210632 -28.223901 56.236151 0.751554 2.096569 0.090299 -0.033925 1211550.000000 0 0 1
34.240019 33.678010 -28.681931 55.939614 0.777124 2.109158 0.101016 -0.030256 886827.000000 0 0 1
33.249379 32.669748 -28.626281 54.701897 0.776605 2.121532 0.102034 -0.041692 703036.000000 0 0 1
31.984029 33.213557 -29.394881 54.682515 0.804254 2.138332 0.079519 -0.034983 257780.000000 0 0 1
31.973779 33.003298 -30.762901 55.298248 0.801241 2.160733 0.069402 -0.025336 -312204.000000 0 0 1
30.890979 33.673090 -31.375351 55.430517 0.828462 2.172479 0.069510 -0.007596 1786.020000 0 0 1
30.584379 33.021336 -32.745441 55.660370 0.823693 2.199761 0.065643 -0.020278 71567.000000 0 0 1
30.246779 31.628847 -32.575061 54.556266 0.807731 2.210666 0.070448 -0.018973 18385.500000 0 0 1
29.962479 30.908980 33.542025 54.572728 0.800946 0.908880 0.068217 -0.019634 174979.000000 0 0 1
29.829279 29.416070 -33.386261 53.569893 0.778424 2.243660 0.066904 -0.035535 -60075.900000 0 0 1
31.117979 28.855690 -33.246231 53.910030 0.747695 2.235338 0.074660 -0.033382 -252152.000000 0 0 1
31.013079 27.594310 -32.699661 52.844345 0.727131 2.238000 0.064168 -0.033303 664867.000000 0 0 1
32.387899 26.866580 -32.605631 53.234540 0.692487 2.230003 0.095645 -0.035018 214826.000000 0 0 1
33.299079 27.326930 -31.687281 53.475915 0.687207 2.205020 0.123917 -0.040057 -195525.000000 0 0 1
34.571399 26.711980 -31.873861 54.080075 0.657847 2.201091 0.143222 -0.037735 1135190.000000 0 0 1
35.596399 26.697010 -30.658781 54.035126 0.643496 2.174124 0.144600 -0.036342 589876.000000 0 0 1
36.376039 27.896760 -30.431871 55.023124 0.654229 2.156846 0.129028 -0.028438 412042.000000 0 0 1
35.729219 29.201900 -30.346431 55.228923 0.685208 2.152522 0.114250 -0.020723 -548592.000000 0 0 1
34.725039 29.313440 -29.226471 54.030479 0.701093 2.142334 0.107990 -0.026202 -494036.000000 0 0 1
35.302689 29.396560 -27.974071 53.786487 0.694365 2.117758 0.132419 -0.031424 -316876.000000 0 0 1
34.315459 29.638210 -26.983091 52.764206 0.712393 2.107598 0.124125 -0.030369 -184524.000000 0 0 1
34.789689 29.919610 -25.583771 52.536034 0.710279 2.079420 0.127519 -0.035757 -213417.000000 0 0 1
35.308089 31.248570 -25.472861 53.591052 0.724480 2.066123 0.105387 -0.032029 130311.000000 0 0 1
35.596229 31.755902 -24.200041 53.489913 0.728441 2.040276 0.092167 -0.041183 -189670.000000 0 0 1
35.907379 33.254844 -24.188541 54.592216 0.747065 2.029824 0.089515 -0.035721 -295407.000000 0 0 1
34.782349 -33.345254 -24.292941 53.961697 -0.764307 2.037773 0.108466 -0.031559 -124860.000000 0 0 1
35.107939 -32.005304 -23.953641 53.204171 -0.739201 2.037809 0.101734 -0.033935 -875811.000000 0 0 1
35.447119 -31.062434 -25.172321 53.432376 -0.719568 2.061341 0.092608 -0.033952 1013690.000000 0 0 1
36.754489 -31.300084 -25.748411 54.713512 -0.705422 2.060772 0.095712 -0.036998 937997.000000 0 0 1
37.806129 -30.739264 -24.954441 54.744222 -0.682664 2.044109 0.097176 -0.039419 -1652890.000000 0 0 1
-37.171181 -31.058964 -25.504321 54.743276 0.696054 2.055436 0.067956 -0.032322 -1334330.000000 0 0 1
-36.766831 -32.364574 -25.183391 55.076934 0.721804 2.045686 0.061150 -0.029839 -65047.000000 0 0 1
-36.408931 -32.652924 -23.787741 54.384559 0.731066 2.023500 0.065642 -0.028261 -795456.000000 0 0 1
-35.089757 -32.131494 -23.228941 52.946271 0.741419 2.024978 0.067144 -0.019584 -519770.000000 0 0 1
-34.989774 -30.694094 -23.257341 52.031871 0.720092 2.034186 0.055243 -0.019122 -332803.000000 0 0 1
-34.553514 -30.133674 -22.088641 50.890978 0.717178 2.019767 0.074850 -0.026864 -546096.000000 0 0 1
-34.354869 -28.619624 -22.050941 49.855630 0.694576 2.028953 0.077479 -0.002794 806340.000000 0 0 1
-35.567086 -27.856634 -22.272641 50.369437 0.664421 2.028830 0.054921 0.003721 789689.000000 0 0 1
-35.842694 -27.681174 -23.690141 51.109381 0.657619 2.052758 0.058718 -0.002907 87145.200000 0 0 1
-37.093781 -26.807544 -23.977841 51.667493 0.625797 2.053392 0.074147 -0.005937 242982.000000 0 0 1
-36.955491 -25.448944 -23.504941 50.654114 0.603059 2.053334 0.067643 0.006456 -567362.000000 0 0 1
-37.936371 -24.600394 -23.968241 51.174448 0.575295 2.058234 0.083050 -0.002899 -526863.000000 0 0 1
-37.657611 -24.134594 -25.393151 51.433320 0.569948 2.087147 0.090362 -0.004446 -729512.000000 0 0 1
-36.612791 -23.240494 -25.342511 50.228078 0.565590 2.099655 0.076355 -0.005987 -683113.000000 0 0 1
-36.366921 -22.760894 -26.650961 50.506286 0.559223 2.126659 0.072857 -0.021483 334980.000000 0 0 1
-35.208464 -21.691494 -26.727851 49.239566 0.552165 2.144579 0.077553 -0.028507 207632.000000 0 0 1
-35.317582 -20.375794 -26.202221 48.467112 0.523284 2.141969 0.084327 -0.021223 52460.900000 0 0 1
-36.318761 -19.481694 -26.705031 49.109545 0.492348 2.145737 0.098910 -0.023670 303656.000000 0 0 1
-37.486491 -19.331094 -25.674691 49.377302 0.476114 2.117612 0.105324 -0.037666 85384.400000 0 0 1
-37.122861 -18.694094 -24.442141 48.218193 0.466502 2.102389 0.097470 -0.048196 -159460.000000 0 0 1
-36.447001 -19.449994 -23.453241 47.505164 0.490205 2.087134 0.070991 -0.032611 -277594.000000 0 0 1
-37.124531 -20.725094 -22.974741 48.328035 0.509162 2.066205 0.077111 -0.015022 190665.000000 0 0 1
-38.148061 -20.487394 -22.005541 48.572128 0.492846 2.040979 0.079077 -0.019381 240810.000000 0 0 1
37.685979 -21.738094 -21.507041 48.531748 -0.523202 2.029910 0.076255 -0.002713 419027.000000 0 0 1
36.533849 -21.621094 -20.447841 47.120145 -0.534376 2.019670 0.061283 -0.010494 305126.000000 0 0 1
35.339879 -21.144994 -21.009941 46.232407 -0.539192 2.042542 0.093899 -0.011534 -676860.000000 0 0 1
34.320419 -21.082794 -20.055141 44.995378 -0.550863 2.032770 0.102472 -0.019537 80863.300000 0 0 1
33.001349 -20.484494 -20.630841 43.981077 -0.555513 2.059050 0.110419 -0.023840 -988554.000000 0 0 1
32.339049 -21.446194 -21.328541 44.279340 -0.585576 2.073369 0.106126 -0.020138 -48665.700000 0 0 1
31.032579 -21.034894 -21.719541 43.326968 -0.595693 2.095890 0.138062 -0.030983 193020.000000 0 0 1
30.763279 -19.845994 -22.658741 43.054168 -0.572937 2.125021 0.123562 -0.031460 -926544.000000 0 0 1
31.251379 -18.608794 -22.251241 42.638640 -0.537071 2.119822 0.118725 -0.025985 30966.800000 0 0 1
31.285279 -17.597994 -23.257341 42.771041 -0.512390 2.145712 0.110964 -0.030161 50561.400000 0 0 1
31.869139 -16.290194 -22.639241 42.350297 -0.472535 2.134796 0.099104 -0.027841 -433505.000000 0 0 1
30.976579 -15.769094 -21.689041 40.971054 -0.470873 2.128660 0.080375 -0.035631 485127.000000 0 0 1
31.615959 -15.053594 -20.583141 40.618287 -0.444377 2.102202 0.063220 -0.026777 200863.000000 0 0 1
32.462669 -15.901294 -19.597841 41.118748 -0.455481 2.067597 0.078030 -0.034726 685983.000000 0 0 1
33.625519 -16.443794 -20.224041 42.545102 -0.454831 2.066164 0.072261 -0.035079 109182.000000 0 0 1
34.486889 -17.141494 -19.346641 43.098362 -0.461280 2.036325 0.057658 -0.027846 1490080.000000 0 0 1
35.807349 -17.678294 -20.126241 44.718608 -0.458600 2.037633 0.069929 -0.040853 1153290.000000 0 0 1
36.761459 -16.663094 -20.291741 45.175417 -0.425575 2.036640 0.082465 -0.047282 -181030.000000 0 0 1
37.803799 -17.272194 -21.041641 46.585476 -0.428569 2.039442 0.103538 -0.055565 67798.300000 0 0 1
-37.551051 -16.261794 -21.722341 46.329121 0.408676 2.058807 0.134085 -0.056906 105003.000000 0 0 1
-36.682581 -15.620494 -20.809041 44.973634 0.402572 2.051828 0.163377 -0.066706 -113216.000000 0 0 1
-36.018051 -14.621594 -21.523641 44.433749 0.385627 2.076472 0.174541 -0.057249 -583674.000000 0 0 1
-34.739581 -13.947994 -20.934341 42.890927 0.381800 2.080689 0.161483 -0.047036 968648.000000 0 0 1
-33.541511 -14.714594 -21.089041 42.264641 0.413416 2.093213 0.173215 -0.061208 421303.000000 0 0 1
-33.471601 -15.820594 -20.187541 42.168425 0.441535 2.070011 0.164820 -0.058768 -829684.000000 0 0 1
-32.272471 -16.712794 -20.525941 41.739000 0.477838 2.084916 0.121495 -0.061866 -78481.100000 0 0 1
-32.294481 -18.009094 -19.842341 41.964025 0.508699 2.063309 0.139167 -0.068473 -546922.000000 0 0 1
-31.260921 -18.804194 -20.306741 41.751726 0.541539 2.078725 0.129745 -0.068178 -552798.000000 0 0 1
-31.273321 -20.219094 -19.696241 42.128070 0.573931 2.057294 0.119738 -0.025655 -492052.000000 0 0 1
-32.351361 -20.972994 -20.161141 43.508029 0.575171 2.052612 0.105878 -0.025708 -84108.800000 0 0 1
-32.308711 -22.266794 -19.621441 43.870991 0.603433 2.034488 0.093553 0.001866 -98133.200000 0 0 1
-33.343901 -23.128794 -20.352841 45.398182 0.606447 2.035680 0.067118 0.000253 -160269.000000 0 0 1
-33.036511 -23.381294 -21.766241 45.955034 0.615902 2.064218 0.065723 -0.000610 379388.000000 0 0 1
-33.893891 -24.361094 -22.349841 47.347377 0.623197 2.062399 0.065986 0.006245 222730.000000 0 0 1
-33.477721 -24.630094 -23.834741 47.911316 0.634296 2.091483 0.067131 0.005873 1057490.000000 0 0 1
-32.147261 -25.137374 -24.063441 47.374921 0.663634 2.103584 0.056322 -0.006008 751733.000000 0 0 1
-32.003361 -25.485174 -25.436571 48.173938 0.672498 2.127058 0.059402 -0.007178 -584277.000000 0 0 1
-30.579911 -25.958834 -25.658041 47.616458 0.703847 2.139866 0.064598 -0.013298 -555320.000000 0 0 1
-29.619471 -24.924994 -25.648821 46.437381 0.699543 2.155955 0.083245 -0.018357 -110389.000000 0 0 1
-28.303781 -25.441754 -25.750961 45.951048 0.732197 2.165665 0.073790 -0.012927 440595.000000 0 0 1
-27.239691 -24.352694 -26.050331 44.873981 0.729499 2.190166 0.085822 -0.023267 46562.100000 0 0 1
-27.336401 -23.769194 -27.349901 45.390202 0.715710 2.217490 0.091131 -0.026501 190007.000000 0 0 1
-26.288461 -22.832394 -27.550271 44.400662 0.715155 2.240167 0.118105 -0.025565 -47024.700000 0 0 1
-26.169741 -22.166994 -28.906761 44.853448 0.702777 2.271128 0.094119 -0.019062 -184593.000000 0 0 1
-25.573291 -22.986494 -29.896011 45.564718 0.732178 2.286465 0.093739 -0.018791 278041.000000 0 0 1
-25.454351 -22.423094 -31.192041 46.083213 0.722170 2.314290 0.090693 -0.011667 -171809.000000 0 0 1
-25.057181 -23.528494 -32.180141 47.085176 0.753945 2.323268 0.080104 -0.017687 -406698.000000 0 0 1
-26.086591 -24.371794 -32.600361 48.345404 0.751427 2.310842 0.065217 -0.015643 -583332.000000 0 0 1
-25.830271 -25.159514 33.589965 49.279709 0.772244 0.820824 0.078799 -0.012871 -66811.500000 0 0 1
-19.983651 -13.586894 -11.980441 26.971855 0.597109 2.031059 0.128923 -0.002167 150297.000000 0 0 1
-20.470951 -13.520394 -10.639841 26.740738 0.583698 1.980011 0.134098 -0.005248 357451.000000 0 0 1
-19.784951 -14.535494 -9.873641 26.461550 0.633620 1.953178 0.121024 -0.014786 359128.000000 0 0 1
-19.954451 -14.415794 -8.361641 25.998312 0.625625 1.898239 0.160758 -0.034938 1449150.000000 0 0 1
-21.309851 -14.773194 -7.948041 27.120626 0.606186 1.868225 0.191448 -0.040711 1486810.000000 0 0 1
-21.707951 -14.235594 -6.733641 26.818448 0.580426 1.824595 0.161052 -0.039913 523090.000000 0 0 1
-23.103751 -14.752594 -6.232141 28.111597 0.568274 1.794347 0.165427 -0.042086 384026.000000 0 0 1
-23.129551 -15.933794 -5.445041 28.609620 0.603233 1.762286 0.142679 -0.040992 258727.000000 0 0 1
-22.891251 -15.645194 -4.083141 28.025943 0.599537 1.717008 0.157559 -0.046250 -320207.000000 0 0 1
-22.653651 -17.000694 -3.356541 28.521533 0.643796 1.688754 0.131677 -0.038558 499555.000000 0 0 1
-23.874151 -17.731294 -3.255741 29.916111 0.638812 1.679841 0.134251 -0.033478 719407.000000 0 0 1
-23.681451 -18.815694 -2.275141 30.331794 0.671398 1.645875 0.124563 -0.036150 627926.000000 0 0 1
-24.879851 -19.822894 -2.367841 31.899228 0.672753 1.645093 0.137050 -0.048102 425594.000000 0 0 1
-24.783151 -20.673894 -3.513341 32.464719 0.695245 1.679229 0.135717 -0.046585 -5443.550000 0 0 1
-25.757871 -21.692294 -3.485141 33.855128 0.699926 1.673922 0.140728 -0.039469 -1666.120000 0 0 1
-25.410961 -22.775294 -4.497041 34.418807 0.730755 1.701827 0.131898 -0.041024 533792.000000 0 0 1
-24.229251 -23.480694 -4.056341 33.983135 0.769710 1.690445 0.160825 -0.041157 582428.000000 0 0 1
-23.629251 -24.340594 -5.063241 34.299306 0.800226 1.718957 0.162786 -0.046150 1011150.000000 0 0 1
-22.159051 -23.932694 -5.426241 33.064202 0.823860 1.735654 0.141887 -0.035358 402301.000000 0 0 1
-22.071051 -22.692994 -6.172341 32.252148 0.799291 1.763362 0.117823 -0.024387 71784.800000 0 0 1
-22.079351 -21.537894 -5.320641 31.299965 0.772985 1.741615 0.125385 -0.024824 -520882.000000 0 0 1
-21.998951 -20.221094 -6.095441 30.495916 0.743314 1.772029 0.123426 -0.013283 482416.000000 0 0 1
-20.704051 -19.951094 -6.614841 29.503559 0.766880 1.796923 0.111268 -0.002977 315103.000000 0 0 1
-20.826451 -18.770294 -7.351741 28.984704 0.733517 1.827240 0.101640 -0.004660 77879.900000 0 0 1
-19.573651 -18.474994 -8.190241 28.134201 0.756531 1.866187 0.128838 -0.008632 -324251.000000 0 0 1
-19.290251 -19.410794 -9.245241 28.885414 0.788513 1.896596 0.135949 -0.010603 491231.000000 0 0 1
-18.070151 -19.228994 -9.975141 28.209714 0.816457 1.932220 0.126161 -0.006462 172463.000000 0 0 1
-17.657951 -17.921094 -10.658941 27.323650 0.792794 1.971536 0.117157 -0.005216 -489505.000000 0 0 1
-17.239351 -16.803494 -9.848841 26.010619 0.772596 1.959130 0.140227 -0.017674 389877.000000 0 0 1
-16.047451 -17.018494 -9.113341 25.103840 0.814757 1.942309 0.145797 -0.018625 -353192.000000 0 0 1
-15.766251 -15.829394 -8.170041 23.788525 0.787397 1.921378 0.127027 -0.023106 184921.000000 0 1 0
-16.466451 -15.966494 -6.914741 23.955930 0.769984 1.863607 0.119281 -0.027789 502525.000000 0 1 0
-16.689551 -14.742194 -6.188641 23.112175 0.723522 1.841869 0.134641 -0.032600 128234.000000 0 1 0
-17.509651 -15.046294 -4.898541 23.600308 0.709877 1.779879 0.151975 -0.031756 173130.000000 0 1 0
-18.143551 -13.981294 -4.253541 23.297159 0.656551 1.754404 0.130342 -0.030672 284317.000000 0 1 0
-18.982651 -14.448294 -3.200641 24.069448 0.650587 1.704167 0.136795 -0.017620 -170921.000000 0 1 0
-19.907351 -13.374294 -2.674641 24.131474 0.591567 1.681861 0.154588 -0.014611 -662038.000000 0 1 0
-21.052551 -13.118494 -3.452641 25.044470 0.557254 1.709097 0.176684 -0.038047 34844.200000 0 0 1
-21.719851 -12.004094 -2.890541 24.984103 0.504897 1.686751 0.177487 -0.017228 8014.070000 0 1 0
-23.162351 -11.785194 -3.406441 26.210477 0.470669 1.701130 0.154161 -0.003689 45087.100000 0 0 1
-23.233851 -11.202794 -4.682141 26.215203 0.449287 1.750364 0.161468 -0.040108 663413.000000 0 0 1
-24.589951 -10.902194 -5.042941 27.367038 0.417318 1.756126 0.159661 -0.018522 654857.000000 0 0 1
-24.850851 -10.721894 -6.545741 27.845476 0.407321 1.808091 0.158075 -0.037392 -137536.000000 0 0 1
-25.160181 -11.916594 -7.216241 28.759590 0.442329 1.824423 0.157738 -0.038577 56782.000000 0 0 1
-25.389191 -11.884794 -8.613241 29.326562 0.437807 1.868893 0.163659 -0.039993 228699.000000 0 0 1
-24.097151 -11.853094 -9.474041 28.476762 0.457137 1.909955 0.166319 -0.053828 -70869.900000 0 0 1
-23.315951 -10.696494 -9.396941 27.319426 0.430117 1.921933 0.174051 -0.043120 -46079.000000 0 0 1
-22.220351 -10.939994 -10.259441 26.808274 0.457502 1.963510 0.152328 -0.039587 -517358.000000 0 0 1
-20.921951 -10.193294 -9.975641 25.320835 0.453360 1.975743 0.149703 -0.044512 -478586.000000 0 0 1
-20.935151 -8.907894 -10.522941 25.067178 0.402294 2.004010 0.147516 -0.052252 1505730.000000 0 0 1
-19.853151 -8.139694 -9.896341 23.629214 0.389093 2.002940 0.140747 -0.040285 833975.000000 0 1 0
-19.830851 -6.751894 -10.588641 23.472751 0.328164 2.038798 0.119851 -0.052853 -56968.600000 0 1 0
-19.248851 -6.976294 -11.879541 23.670877 0.347702 2.096548 0.117756 -0.043367 657927.000000 0 1 0
-19.110251 -5.745594 -12.555941 23.576793 0.292058 2.132413 0.137423 -0.053865 -440855.000000 0 1 0
-18.602051 -5.855494 -13.996241 24.004538 0.304958 2.193294 0.159077 -0.046947 50231.800000 0 1 0
-19.580951 -6.398594 -14.903441 25.425738 0.315838 2.197102 0.175951 -0.054014 865490.000000 0 0 1
-19.306551 -5.969894 -16.230941 25.919606 0.299890 2.247470 0.192032 -0.065636 -476142.000000 0 0 1
-19.864451 -6.908794 -17.279741 27.219796 0.334711 2.258575 0.168897 -0.050115 -685296.000000 0 0 1
-21.215351 -6.750194 -17.587541 28.372131 0.308047 2.239396 0.163087 -0.056451 -48332.500000 0 0 1
-21.580851 -7.667194 -18.680041 29.554406 0.341369 2.255000 0.164121 -0.049671 -609513.000000 0 0 1
-23.071951 -7.674094 -18.988341 30.850668 0.321105 2.233806 0.146151 -0.042580 -1331210.000000 0 0 1
-23.408851 -6.703194 -20.016641 31.520993 0.278890 2.258838 0.143074 -0.038798 1890810.000000 0 0 1
-24.836851 -6.630294 -20.308041 32.760441 0.260871 2.239406 0.118919 -0.038506 2041340.000000 0 0 1
-25.852141 -6.273794 -19.177141 32.794152 0.238077 2.195397 0.139887 -0.029888 -409276.000000 0 0 1
-25.810171 -4.883594 -18.976641 32.405668 0.187001 2.196412 0.148893 -0.020302 883223.000000 0 0 1
-26.900231 -4.501394 -18.104441 32.736153 0.165800 2.156806 0.159994 -0.011115 591980.000000 0 0 1
-27.067421 -2.920394 -18.137341 32.712950 0.107478 2.158485 0.140909 -0.017037 15695.200000 0 0 1
-27.485471 -2.127894 -19.266141 33.632770 0.077265 2.180761 0.143819 -0.014318 1154060.000000 0 0 1
-28.866831 -2.251194 -19.657441 34.996811 0.077828 2.167226 0.166775 -0.008049 816574.000000 0 0 1
-29.349291 -0.979594 -20.447141 35.783041 0.033365 2.179031 0.168392 -0.014895 -209959.000000 0 0 1
-28.769951 -0.629694 -21.702341 36.043004 0.021884 2.216954 0.152087 -0.011451 -193884.000000 0 0 1
-29.259371 -1.356394 -22.769241 37.099716 0.046324 2.231574 0.170702 -0.006395 -524887.000000 0 0 1
-28.623671 -1.183994 -24.149541 37.468876 0.041341 2.271195 0.160060 -0.010567 -991743.000000 0 0 1
-28.697541 0.103406 -24.747041 37.894268 -0.003603 2.282408 0.164620 -0.004786 551648.000000 0 0 1
-27.961591 1.192406 -24.123641 36.948916 -0.042619 2.282192 0.138653 -0.007276 578626.000000 0 0 1
-26.448721 0.961106 -23.793441 35.589133 -0.036322 2.303066 0.126729 -0.005797 370574.000000 0 0 1
-25.648301 0.822906 -25.010141 35.833220 -0.032073 2.343341 0.119681 -0.015999 513737.000000 0 0 1
-24.283051 0.810806 -24.599341 34.575302 -0.033377 2.362386 0.107316 -0.015715 313940.000000 0 0 1
-23.381051 0.134906 -25.667731 34.720659 -0.005770 2.402773 0.108232 -0.017482 -114761.000000 0 0 1
-23.219651 0.901306 -26.841251 35.502356 -0.038797 2.428040 0.071783 -0.005283 -73625.800000 0 0 1
-22.546551 0.174406 -27.815621 35.806230 -0.007735 2.460424 0.074905 -0.008497 -230587.000000 0 0 1
-22.253951 1.061306 -29.013651 36.580823 -0.047655 2.486741 0.070555 0.001800 94854.600000 0 0 1
-21.223851 2.055406 -28.879031 35.898119 -0.096543 2.505582 0.086151 -0.005743 507193.000000 0 0 1
-21.125351 2.833306 -30.068921 36.857130 -0.133323 2.524948 0.066881 -0.004961 145803.000000 0 0 1
-20.289651 2.204706 -31.251811 37.325679 -0.108237 2.563074 0.056321 -0.012294 292287.000000 0 0 1
-18.902351 2.211706 -30.975621 36.354911 -0.116477 2.590655 0.047601 -0.008298 112263.000000 0 0 1
-18.125351 1.727706 -32.043111 36.854772 -0.095033 2.624869 0.042988 -0.012612 577015.000000 0 0 1
-16.580151 1.847306 -31.891531 35.991439 -0.110959 2.659629 0.060684 -0.027549 499537.000000 0 0 1
-16.062951 3.191706 -32.051981 35.993539 -0.196145 2.669223 0.068387 -0.014791 109757.000000 0 0 1
-14.662751 2.995706 -32.178711 35.488589 -0.201534 2.706270 0.066056 -0.012892 200991.000000 0 0 1
-13.843951 4.298006 -32.365531 35.463438 -0.301026 2.720505 0.065690 -0.010444 -154373.000000 0 0 1
-13.827751 5.076806 -31.196101 34.498947 -0.351867 2.700445 0.074315 -0.024542 144887.000000 0 0 1
-13.352251 6.374106 -31.482681 34.786075 -0.445389 2.702263 0.094819 -0.005975 -343929.000000 0 0 1
-13.102351 7.298706 -30.320431 33.827078 -0.508242 2.682232 0.101276 -0.017539 832692.000000 0 0 1
-11.865351 7.090706 -29.603981 32.672012 -0.538651 2.704760 0.134656 -0.032300 937661.000000 0 0 1
-12.028951 6.011106 -28.701781 31.695761 -0.463424 2.703447 0.135453 -0.029789 338347.000000 0 0 1
-10.649951 5.327106 -28.419831 30.813735 -0.463808 2.744813 0.172502 -0.045202 589727.000000 0 0 1
-9.976951 4.610306 -29.473301 31.455841 -0.432867 2.784663 0.149105 -0.052007 348594.000000 0 0 1
-10.725651 3.518306 -30.021901 32.073861 -0.316968 2.781954 0.138138 -0.047281 -130977.000000 0 0 1
-10.193351 2.825906 -31.301161 33.040170 -0.270439 2.815705 0.123520 -0.040389 253878.000000 0 0 1
-11.109151 1.790706 -31.624021 33.566331 -0.159817 2.799740 0.115391 -0.032383 640713.000000 0 0 1
-10.579351 1.144206 -32.761271 34.446084 -0.107736 2.827537 0.092239 -0.019469 -127610.000000 0 0 1
-11.135551 1.628106 33.202590 35.057998 -0.145179 0.326795 0.104783 -0.020989 -158399.000000 0 0 1
-12.524351 1.432706 33.079898 35.400447 -0.113899 0.364089 0.074253 -0.014968 -156298.000000 0 0 1
-12.892951 1.468206 31.682990 34.237343 -0.113388 0.388726 0.070922 -0.012492 924746.000000 0 0 1
-14.417051 1.171906 31.410819 34.581270 -0.081108 0.431549 0.075703 -0.009387 1210990.000000 0 0 1
-15.319851 2.204906 31.790772 35.358346 -0.142943 0.453082 0.082189 -0.005424 -324424.000000 0 0 1
-16.628151 1.848206 31.493596 35.661714 -0.110695 0.488323 0.082848 -0.005333 -839191.000000 0 0 1
-17.586951 2.888606 30.971085 35.733080 -0.162794 0.522179 0.090202 -0.001627 -280639.000000 0 0 1
-18.071951 3.817106 31.967955 36.920399 -0.208158 0.523926 0.084855 -0.018684 377865.000000 0 0 1
-17.160951 4.866106 32.193111 36.804532 -0.276304 0.505969 0.077363 -0.008834 -577612.000000 0 0 1
-17.542351 5.648606 33.427235 38.170943 -0.311515 0.503862 0.057231 -0.008141 -372766.000000 0 0 1
-18.848051 6.150606 33.367975 38.813667 -0.315431 0.536121 0.064797 -0.008026 -799750.000000 0 0 1
-19.711751 5.344506 -33.183621 38.964978 -0.264768 2.589878 0.053356 -0.009017 -399406.000000 0 0 1
-21.167351 5.884306 -33.202861 39.813462 -0.271144 2.557043 0.047985 -0.009435 -86797.900000 0 0 1
-21.314251 7.200206 -32.678951 39.674350 -0.325776 2.538666 0.055359 -0.022381 131136.000000 0 0 1
-21.134651 8.200806 -33.637191 40.563374 -0.370142 2.548561 0.040283 -0.015237 -480389.000000 0 0 1
-20.972151 9.605506 -33.032711 40.289662 -0.429497 2.531999 0.056181 -0.008743 292534.000000 0 0 1
-19.722451 9.923306 -32.395541 39.203547 -0.466163 2.543377 0.058801 -0.011768 591239.000000 0 0 1
-19.759351 11.227606 -31.965461 39.220935 -0.516722 2.523543 0.074433 -0.011679 -343448.000000 0 0 1
-19.338151 12.323206 -32.951891 40.145393 -0.567359 2.533631 0.058681 -0.028524 -732898.000000 0 0 1
-20.134651 12.452906 33.240495 40.809429 -0.553898 0.618878 0.082048 -0.033881 -189727.000000 0 0 1
-19.390951 12.597806 32.045606 39.517522 -0.576146 0.625071 0.092065 -0.033296 75146.400000 0 0 1
-20.129651 11.883106 30.874495 38.725256 -0.533278 0.648037 0.109329 -0.034039 70365.000000 0 0 1
-20.249051 10.446106 31.000715 38.473231 -0.476272 0.633816 0.087527 -0.023030 -41051.100000 0 0 1
-19.027751 9.783506 30.788725 37.492904 -0.474920 0.607307 0.105722 -0.022027 -168821.000000 0 0 1
-19.048751 8.273606 30.684975 37.052330 -0.409754 0.594993 0.125124 -0.021452 -181868.000000 0 0 1
-19.909251 7.813606 29.658075 36.565450 -0.373990 0.624774 0.115773 -0.012896 213976.000000 0 0 1
-20.010651 6.394806 29.727395 36.401067 -0.309313 0.615192 0.113026 -0.012857 -45750.600000 0 0 1
-20.539751 5.706206 28.436155 35.539514 -0.270979 0.643288 0.104087 -0.014887 -978483.000000 0 0 1
-21.861551 5.894906 28.104465 36.090695 -0.263383 0.678177 0.123411 -0.024182 -1109480.000000 0 0 1
-22.358151 4.843806 27.340925 35.649341 -0.213349 0.696736 0.104298 -0.020923 827836.000000 0 0 1
-23.917351 4.894406 27.107625 36.480381 -0.201851 0.733144 0.095893 -0.012760 839068.000000 0 0 1
-24.342751 5.843706 26.190485 36.230649 -0.235601 0.762832 0.092957 -0.018373 -175109.000000 0 0 1
-25.735651 5.844206 26.025995 37.065225 -0.223299 0.792359 0.091297 -0.014418 -339844.000000 0 0 1
-26.332861 6.758706 24.930155 36.886478 -0.251241 0.828663 0.086036 -0.014719 -109062.000000 0 0 1
-26.106411 6.339906 23.540735 35.719816 -0.238237 0.851257 0.097784 -0.014137 406627.000000 0 0 1
-26.754051 5.129806 23.155835 35.753137 -0.189440 0.866289 0.102002 -0.017430 -141381.000000 0 0 1
-26.756421 4.890506 21.591065 34.727470 -0.180783 0.899848 0.125367 -0.010049 310321.000000 0 0 1
-27.732211 5.592906 20.793265 35.110055 -0.199006 0.936971 0.123504 -0.013118 403727.000000 0 0 1
-27.832261 5.236306 19.412165 34.334906 -0.185964 0.969906 0.132598 -0.026814 -165680.000000 0 0 1
-28.960751 5.863906 18.529665 34.877772 -0.199777 1.010692 0.148614 -0.035316 511129.000000 0 0 1
-30.243831 5.356106 18.866065 36.045881 -0.175280 1.019971 0.143629 -0.028449 1010230.000000 0 0 1
-31.241211 5.762606 17.876565 36.452605 -0.182405 1.058241 0.142671 -0.031758 1932410.000000 0 0 1
-32.767201 5.650206 18.275865 37.942345 -0.170756 1.068232 0.133615 -0.025215 1241000.000000 0 0 1
-33.203071 6.603406 19.227965 38.932808 -0.196318 1.054255 0.132383 -0.025484 -150598.000000 0 0 1
-34.579862 6.449106 19.479365 40.209495 -0.184381 1.065066 0.133474 -0.017523 55882.600000 0 0 1
-35.187754 7.542906 20.428365 41.381053 -0.211166 1.054498 0.119350 -0.017240 162983.000000 0 0 1
-34.681096 7.430706 21.752165 41.607096 -0.211067 1.020665 0.110113 -0.019691 242581.000000 0 0 1
-35.197851 8.432806 22.650995 42.697406 -0.235151 1.011605 0.111995 -0.017003 131269.000000 0 0 1
-0.421751 32.558006 11.674859 34.590519 -1.557843 1.226519 0.206577 -0.047989 133377.000000 0 0 1
-0.801351 32.709206 12.994159 35.204865 -1.546302 1.192755 0.191124 -0.043064 -121452.000000 0 0 1
-0.374251 -33.497637 13.542259 36.133427 1.559624 1.186632 0.181308 -0.058324 -93686.500000 0 0 1
-0.400451 -33.502237 15.075659 36.740111 1.558844 1.147978 0.189821 -0.054800 -434830.000000 0 0 1
-1.668351 -33.525937 15.653659 37.037939 1.521074 1.134442 0.162027 -0.042828 -536591.000000 0 0 1
-1.635351 -33.470737 17.045359 37.596661 1.521976 1.100249 0.157742 -0.050401 542354.000000 0 0 1
-2.977951 -33.055037 17.741059 37.633082 1.480948 1.079894 0.156795 -0.043694 776914.000000 0 0 1
-4.059351 33.454906 17.770359 38.098487 -1.450049 1.085543 0.161148 -0.035618 245557.000000 0 0 1
-4.928551 -33.629737 18.846559 38.864413 1.425279 1.064512 0.134145 -0.026874 -199115.000000 0 0 1
-5.919651 32.695006 19.202159 38.376146 -1.391680 1.046774 0.120529 -0.029853 -254937.000000 0 0 1
-6.985851 32.600106 18.290359 38.027704 -1.359700 1.069030 0.107372 -0.030014 -71906.400000 0 0 1
-7.996551 31.734806 18.764359 37.724580 -1.323955 1.050192 0.101472 -0.036055 -206697.000000 0 0 1
-9.129851 31.506506 17.777659 37.310311 -1.288745 1.074148 0.083909 -0.036929 -390720.000000 0 0 1
-9.939351 32.628006 17.487759 38.330134 -1.275101 1.097031 0.083076 -0.030491 -492969.000000 0 0 1
-10.904251 32.277006 16.541959 37.872737 -1.245001 1.118783 0.075509 -0.023079 -501870.000000 0 0 1
-11.785751 33.464306 16.210459 39.006957 -1.232173 1.142217 0.081162 -0.032687 -603112.000000 0 0 1
-12.634351 -33.578437 17.258059 39.811793 1.210918 1.122433 0.070443 -0.024612 2102.960000 0 0 1
-13.547651 -32.571537 16.848259 39.093576 1.176629 1.125226 0.037794 -0.019355 537967.000000 0 0 1
-15.015651 -32.776337 17.342259 40.006400 1.141206 1.122438 0.068942 -0.024702 577989.000000 0 0 1
-15.087951 -32.651237 18.758759 40.566496 1.137930 1.090074 0.070385 -0.019458 675976.000000 0 0 1
-16.356951 -33.058137 19.310559 41.632775 1.111323 1.088482 0.071444 -0.026652 911742.000000 0 0 1
-16.454251 -32.640437 20.796559 42.055171 1.103869 1.053529 0.076491 -0.038292 -99228.600000 0 0 1
-16.512951 -31.235137 20.971059 41.086454 1.084480 1.035131 0.074401 -0.031171 -67504.400000 0 0 1
-16.754551 -30.802437 22.266459 41.536735 1.072621 1.005026 0.084256 -0.028736 -176452.000000 0 0 1
-16.485351 -29.287637 22.445759 40.414658 1.058120 0.981969 0.087073 -0.039741 -82186.900000 0 0 1
-16.419151 -28.879837 23.816159 40.875946 1.053835 0.948817 0.113678 -0.045264 -250750.000000 0 0 1
-16.289251 -27.469137 24.024159 39.963151 1.035538 0.925847 0.083115 -0.030679 -109525.000000 0 0 1
-17.501951 -26.552737 23.763459 39.699725 0.988023 0.929069 0.101147 -0.026548 416730.000000 0 0 1
-18.596951 -26.726637 24.681559 40.857546 0.962881 0.922175 0.103966 -0.020287 541971.000000 0 0 1
-19.700551 -25.949337 24.253659 40.616743 0.921438 0.930872 0.096281 -0.014736 13577.100000 0 0 1
-20.865651 -25.894237 25.329759 41.802914 0.892527 0.919858 0.102008 -0.008898 791860.000000 0 0 1
-21.602651 -27.126937 25.513059 43.051846 0.898282 0.936498 0.100835 -0.010324 369420.000000 0 0 1
-22.299951 -27.652137 24.422059 43.108763 0.892137 0.968517 0.088528 -0.015766 -482277.000000 0 0 1
-23.723251 -27.065737 24.143959 43.339099 0.851115 0.979914 0.069121 0.000518 63530.300000 0 0 1
-23.830451 -25.724437 23.767159 42.361715 0.823600 0.975139 0.086214 -0.006010 -316699.000000 0 0 1
-25.005121 -25.530937 23.035959 42.517529 0.795803 0.998220 0.089268 -0.011128 -451977.000000 0 0 1
-25.242341 -24.071337 22.714759 41.624096 0.761657 0.993558 0.086769 0.000014 23911.800000 0 0 1
-25.981811 -23.476837 23.780059 42.328567 0.734794 0.974240 0.074378 -0.003675 213495.000000 0 0 1
-26.204461 -22.090937 23.520859 41.568186 0.700429 0.969347 0.074370 -0.003117 218978.000000 0 0 1
-26.841751 -21.356137 24.759559 42.303664 0.672071 0.945569 0.073954 -0.001705 398078.000000 0 0 1
-28.144271 -21.772437 25.136159 43.565646 0.658435 0.955780 0.058409 0.005184 189390.000000 0 0 1
-28.488531 -20.936837 26.224859 44.019209 0.633781 0.932585 0.050114 -0.001872 68942.100000 0 0 1
-29.770941 -21.390537 27.018959 45.539962 0.623037 0.935641 0.045000 -0.004163 648881.000000 0 0 1
-31.034131 -21.294237 26.406259 45.976650 0.601374 0.958998 0.048244 -0.004038 271341.000000 0 0 1
-31.286991 -22.231237 25.372159 46.009240 0.617777 0.986685 0.038680 -0.000607 -674666.000000 0 0 1
-32.814521 -22.355637 25.144259 46.997884 0.598046 1.006279 0.062675 -0.007893 131023.000000 0 0 1
-33.280901 -23.097237 24.004359 47.088321 0.606694 1.035875 0.049691 -0.015031 139894.000000 0 0 1
-32.949761 -24.526937 23.972059 47.559615 0.639891 1.042524 0.041056 -0.008883 -662948.000000 0 0 1
-33.447181 -25.281437 22.773559 47.712681 0.647242 1.073210 0.064580 -0.007674 507557.000000 0 0 1
-34.864069 -25.454337 22.749059 48.794941 0.630644 1.085786 0.082546 -0.020484 345630.000000 0 0 1
-35.285915 -26.036337 21.540659 48.856797 0.635691 1.114202 0.078165 -0.012392 953116.000000 0 0 1
-36.731691 -26.679137 21.617559 50.282326 0.628176 1.126388 0.080015 -0.011478 968832.000000 0 0 1
-36.965351 -27.806237 22.499959 51.438042 0.644923 1.118070 0.075729 -0.015139 1169080.000000 0 0 1
-36.036981 -28.918237 22.160859 51.244825 0.676239 1.123587 0.055597 -0.004091 366772.000000 0 0 1
-36.487631 -29.833437 21.014559 51.604194 0.685400 1.151382 0.065661 -0.007685 -366296.000000 0 0 1
-36.548711 -29.200437 19.718859 50.767186 0.674098 1.171883 0.064626 -0.018444 480352.000000 0 0 1
-37.007381 -30.136637 18.751959 51.277667 0.683425 1.196417 0.061044 -0.020013 -324189.000000 0 0 1
-37.225221 -29.495437 17.371659 50.571459 0.670059 1.220148 0.084596 -0.023952 -825217.000000 0 0 1
-36.075851 -29.188637 16.648959 49.301434 0.680260 1.226327 0.101311 -0.037096 -108896.000000 0 0 1
-36.381781 -28.708737 15.317759 48.810443 0.668057 1.251581 0.117608 -0.041791 -20129.600000 0 0 1
-37.031501 -29.685937 14.268159 49.559734 0.675740 1.278765 0.113141 -0.035980 -98732.500000 0 0 1
-36.121621 -30.587937 13.702259 49.276214 0.702636 1.289012 0.093037 -0.039131 111140.000000 0 0 1
-36.648331 -31.466737 12.625859 49.926626 0.709473 1.315132 0.092384 -0.030086 205617.000000 0 0 1
-36.928761 -30.749737 11.274559 49.359856 0.694351 1.340346 0.100529 -0.035443 -224151.000000 0 0 1
-37.885721 -29.743937 11.231459 49.458824 0.665587 1.341711 0.097669 -0.041774 -324932.000000 0 0 1
-38.021791 -29.161437 9.973559 48.944028 0.654271 1.365584 0.082031 -0.030974 25977.500000 0 0 1
37.126669 -28.173237 9.893559 47.644552 -0.649135 1.361621 0.114375 -0.020372 204690.000000 0 0 1
37.396969 -27.048737 9.085559 47.039503 -0.626184 1.376427 0.132251 -0.061639 587623.000000 0 0 1
36.137659 -26.406037 8.893059 45.632179 -0.631039 1.374655 0.114286 -0.048709 575085.000000 0 0 1
36.280019 -25.160937 8.016459 44.872889 -0.606364 1.391184 0.090391 -0.033711 49845.500000 0 0 1
36.643279 -23.980537 8.683459 44.645252 -0.579485 1.375050 0.112803 -0.040329 113045.000000 0 0 1
36.711359 -22.959237 7.723559 43.982995 -0.558886 1.394278 0.104266 -0.030903 -191367.000000 0 0 1
37.124539 -21.588937 8.275059 43.735457 -0.526726 1.380442 0.112244 -0.020659 -900473.000000 0 0 1
36.140209 -20.914537 8.925759 42.698967 -0.524615 1.360204 0.107532 -0.036127 -904192.000000 0 0 1
36.060859 -19.566937 8.554959 41.909879 -0.497151 1.365224 0.121959 -0.024695 269432.000000 0 0 1
35.366239 -18.719637 9.678459 41.168778 -0.486818 1.333483 0.127365 -0.012923 142158.000000 0 0 1
36.136829 -18.670137 10.840659 42.094707 -0.476880 1.310331 0.099689 -0.020872 243463.000000 0 0 1
35.441359 -17.988837 11.908359 41.490929 -0.469682 1.279691 0.097361 -0.017645 60819.000000 0 0 1
36.142369 -18.086837 13.260459 42.535213 -0.463994 1.253759 0.086336 -0.029641 -296867.000000 0 0 1
37.322249 -17.334437 13.363759 43.266882 -0.434808 1.256794 0.061696 -0.018437 213369.000000 0 0 1
38.079409 -17.727237 14.499759 44.435789 -0.435696 1.238401 0.067374 -0.005412 -216280.000000 0 0 1
-36.916091 -17.041737 14.777159 43.261796 0.432487 1.222204 0.087506 -0.019720 59409.300000 0 0 1
-35.856888 -17.482137 13.919059 42.250228 0.453641 1.235082 0.086007 -0.017925 331590.000000 0 0 1
-34.642967 -16.892237 14.328159 41.119083 0.453686 1.214874 0.083056 -0.016487 12629.700000 0 0 1
-33.495691 -17.046437 13.306059 39.869707 0.470754 1.230530 0.105159 -0.020475 -348237.000000 0 0 1
-32.803811 -18.225937 13.256759 39.799704 0.507136 1.231221 0.117561 -0.028362 -796122.000000 0 0 1
-31.653961 -18.070637 12.516759 38.538168 0.518733 1.240008 0.115291 -0.037890 -807028.000000 0 0 1
-30.843871 -19.330537 12.164459 38.379527 0.559837 1.248283 0.084904 -0.038755 7116.920000 0 0 1
-31.545871 -20.313837 11.410959 39.217393 0.572108 1.275559 0.112252 -0.040434 -644146.000000 0 0 1
-30.641511 -21.140937 10.809959 38.764631 0.603945 1.288188 0.096047 -0.044156 -650009.000000 0 0 1
-31.306931 -22.124137 9.789259 39.565527 0.615198 1.320781 0.110205 -0.042059 498632.000000 0 0 1
-32.205481 -23.109437 10.259859 40.945131 0.622416 1.317521 0.108329 -0.039271 -902102.000000 0 0 1
-33.522891 -22.732037 10.337159 41.801753 0.595880 1.320914 0.118044 -0.045117 -678487.000000 0 0 1
-34.589175 -23.890737 10.448559 43.316864 0.604457 1.327182 0.153275 -0.051036 464605.000000 0 0 1
-34.678405 -24.727237 9.295259 43.593920 0.619427 1.355923 0.131620 -0.035865 -343017.000000 0 0 1
-35.474854 -25.830337 9.547659 44.909123 0.629357 1.356562 0.137255 -0.027607 -197181.000000 0 0 1
-35.762678 -26.599137 8.204459 45.318830 0.639501 1.388754 0.123265 -0.022494 883282.000000 0 0 1
-34.562629 -27.212237 7.664459 44.652269 0.666968 1.398294 0.103499 -0.019677 988156.000000 0 0 1
-34.758231 -27.819437 6.370359 44.973739 0.674966 1.428672 0.083537 -0.019093 429836.000000 0 0 1
-33.367031 -28.048537 5.698759 43.960835 0.699015 1.440798 0.080264 -0.011172 633619.000000 0 0 1
-32.889531 -26.934537 4.984359 42.802271 0.686183 1.454081 0.082581 0.000841 -136247.000000 0 0 1
-31.568201 -27.156037 4.539759 41.888078 0.710405 1.462205 0.095262 -0.018732 264547.000000 0 0 1
-30.986931 -25.878337 3.808759 40.551016 0.695802 1.476733 0.078577 -0.011658 2472.220000 0 0 1
-31.411691 -25.695837 2.461459 40.657461 0.685641 1.510218 0.093275 -0.014234 -54952.600000 0 0 1
-30.883941 -24.520537 1.875859 39.479025 0.671046 1.523263 0.109921 -0.039165 -158301.000000 0 0 1
-31.470291 -24.155837 0.514859 39.675543 0.654655 1.557819 0.134485 -0.035327 -284463.000000 0 0 1
-31.087301 -25.048037 -0.512341 39.926018 0.678226 1.583629 0.128099 -0.044948 -246304.000000 0 0 1
-31.224671 -24.523637 -1.847341 39.746717 0.665771 1.617291 0.134922 -0.043038 -210605.000000 0 0 1
-32.593781 -24.090137 -2.404841 40.601386 0.636490 1.630062 0.141396 -0.028848 24094.400000 0 0 1
-33.087971 -22.847237 -1.876441 40.253336 0.604321 1.617429 0.125060 -0.017834 -106936.000000 0 0 1
-34.384848 -22.642537 -2.408141 41.240773 0.582330 1.629222 0.139357 -0.025530 165120.000000 0 0 1
-34.967986 -21.217137 -2.020941 40.951326 0.545374 1.620166 0.132297 -0.021890 -202748.000000 0 0 1
-35.310682 -21.145337 -0.705641 41.163910 0.539564 1.587939 0.132075 -0.034072 141368.000000 0 0 1
-35.897724 -19.875337 -0.500741 41.035672 0.505653 1.582999 0.133731 -0.035078 -265991.000000 0 0 1
-36.101851 -19.567537 0.983259 41.075527 0.496688 1.546856 0.120568 -0.034366 542536.000000 0 0 1
-37.049751 -20.471137 1.645959 42.361075 0.504784 1.531931 0.107544 -0.033801 977212.000000 0 0 1
-37.352421 -20.085337 3.009259 42.516817 0.493370 1.499959 0.109539 -0.034270 -916960.000000 0 0 1
37.835829 -20.937937 3.581059 43.390911 -0.505442 1.488172 0.126536 -0.015538 1584080.000000 0 0 1
36.502079 -20.820537 3.009859 42.130224 -0.518365 1.499294 0.111082 -0.017822 1210960.000000 0 0 1
35.906249 -19.531437 3.084259 40.990833 -0.498191 1.495482 0.112991 -0.026840 -692127.000000 0 0 1
34.545209 -19.590737 2.360759 39.783686 -0.515880 1.511422 0.117781 -0.005166 -75654.400000 0 0 1
33.556569 -20.408537 2.896859 39.382020 -0.546415 1.497172 0.099134 -0.005245 -909289.000000 0 0 1
32.292599 -20.115537 2.401159 38.121023 -0.557098 1.507767 0.128247 -0.007634 -377450.000000 0 0 1
31.163879 -20.958637 3.007059 37.676176 -0.592051 1.490898 0.112133 0.002150 -98656.100000 0 0 1
31.030079 -22.124337 2.213059 38.173941 -0.619395 1.512791 0.087287 -0.005169 -41408.500000 0 0 1
29.840279 -22.808737 2.535459 37.644512 -0.652629 1.503393 0.085140 -0.005638 -70979.400000 0 0 1
29.498979 -23.929137 1.513659 38.014268 -0.681524 1.530968 0.072446 -0.002451 205789.000000 0 0 1
28.906879 -23.471637 0.254859 37.236949 -0.682000 1.563952 0.069341 -0.003456 344915.000000 0 0 1
28.538179 -24.613237 -0.511741 37.689534 -0.711687 1.584375 0.056444 -0.008604 -27713.200000 0 0 1
27.553979 -24.418737 -1.715141 36.856997 -0.725146 1.617348 0.070586 -0.012487 395604.000000 0 0 1
28.133279 -23.693337 -2.797241 36.887399 -0.699938 1.646701 0.057295 -0.021293 399178.000000 0 0 1
28.717579 -24.465937 -3.886441 37.926058 -0.705625 1.673451 0.054129 -0.021244 -383617.000000 0 0 1
27.715279 -25.087237 -4.865641 37.698550 -0.735668 1.700224 0.048453 -0.021192 263562.000000 0 0 1
27.000679 -24.256937 -5.818541 36.759912 -0.731921 1.729750 0.052360 -0.030705 606887.000000 0 0 1
25.864879 -23.603737 -5.282241 35.412292 -0.739721 1.720519 0.067996 -0.030186 -397630.000000 0 0 1
25.345679 -22.466337 -6.141641 34.421788 -0.725249 1.750180 0.077325 -0.034668 283780.000000 0 0 1
24.461979 -22.969537 -7.177541 34.314795 -0.753943 1.781520 0.067814 -0.031678 1117630.000000 0 0 1
23.423079 -22.059237 -7.595241 33.059617 -0.755421 1.802611 0.064811 -0.029622 479175.000000 0 0 1
23.755979 -20.812537 -8.503741 32.708131 -0.719451 1.833807 0.069426 -0.032799 -634862.000000 0 0 1
24.178079 -21.123237 -9.784441 33.563462 -0.718066 1.866612 0.067368 -0.032937 87489.700000 0 0 1
23.879079 -20.035937 -10.615341 32.929237 -0.698107 1.899027 0.062871 -0.036177 -426724.000000 0 0 1
24.544779 -20.192437 -11.968041 33.961960 -0.688417 1.930926 0.072106 -0.038797 -1644990.000000 0 0 1
25.859179 -19.859037 -11.843141 34.689170 -0.654902 1.919210 0.120690 -0.043532 -1681820.000000 0 0 1
26.461879 -19.485937 -13.058941 35.361967 -0.634726 1.949045 0.114437 -0.043819 -654620.000000 0 0 1
27.953579 -19.771137 -12.982641 36.617611 -0.615598 1.933225 0.134541 -0.042378 -792677.000000 0 0 1
28.187379 -21.164037 -12.933941 37.546393 -0.644035 1.922480 0.099168 -0.038793 -842279.000000 0 0 1
29.343879 -21.512637 -12.284141 38.402564 -0.632611 1.896397 0.131092 -0.045879 -1097980.000000 0 0 1
29.718579 -22.910637 -12.632441 39.593810 -0.656756 1.895524 0.101949 -0.028866 -286092.000000 0 0 1
30.326579 -23.003237 -13.903841 40.523661 -0.648930 1.921016 0.103253 -0.039701 359071.000000 0 0 1
30.906379 -24.317637 -14.055041 41.762375 -0.666650 1.914045 0.069259 -0.021973 88199.400000 0 0 1
-2.802351 -9.265794 -27.652791 29.298207 1.277102 2.804859 0.079968 -0.025743 -193570.000000 0 0 1
-3.024351 -7.942594 -27.192821 28.490016 1.206971 2.838669 0.084823 -0.024519 444392.000000 0 0 1
-4.160351 -7.321794 -27.826171 29.072547 1.054076 2.847718 0.096050 -0.026145 654008.000000 0 0 1
-4.377751 -5.890594 -27.250311 28.221326 0.931677 2.878510 0.084571 -0.030466 -291059.000000 0 0 1
-4.914851 -5.933494 -25.981621 27.099940 0.879022 2.853310 0.077586 -0.031344 -7510.910000 0 0 1
-4.766051 -4.634194 -25.477641 26.330613 0.771372 2.886363 0.081071 -0.020284 237265.000000 0 0 1
-5.357751 -4.559794 -24.016041 25.025336 0.705112 2.856619 0.075055 -0.013666 86089.300000 0 0 1
-4.730751 -5.429294 -23.120641 24.216136 0.854044 2.839654 0.062886 -0.021138 136153.000000 0 1 0
-5.254151 -5.265694 -21.812141 23.045675 0.786495 2.812929 0.052593 -0.016796 -43769.400000 0 1 0
-4.629051 -6.175194 -20.773141 22.160427 0.927538 2.785879 0.042859 -0.020642 -489783.000000 0 1 0
-4.984851 -7.503994 -21.013741 22.863420 0.984439 2.736583 0.038926 -0.016360 -136200.000000 0 1 0
-4.265351 -8.455594 -20.298741 22.399312 1.103602 2.705057 0.043998 -0.023117 -1078550.000000 0 1 0
-4.995751 -9.843794 -20.055941 22.893199 1.101165 2.638437 0.050314 -0.026738 550970.000000 0 1 0
-6.148751 -9.841694 -19.210241 22.443249 1.012366 2.598177 0.041891 -0.027313 336998.000000 0 1 0
-7.298551 -9.283994 -19.814641 23.066889 0.904562 2.604125 0.034814 -0.020394 -927068.000000 0 1 0
-8.504951 -9.197594 -18.889941 22.666270 0.824505 2.556017 0.034214 -0.010150 -491652.000000 0 1 0
-9.206651 -10.402594 -18.701841 23.296678 0.846311 2.502720 0.049005 -0.014660 157244.000000 0 1 0
-9.973951 -10.311294 -17.493941 22.623891 0.802027 2.454748 0.060009 -0.010413 -114216.000000 0 1 0
-10.721351 -11.635894 -17.237741 23.398314 0.826281 2.398986 0.058568 -0.002361 473117.000000 0 1 0
-11.911451 -11.820394 -18.019141 24.623034 0.781561 2.391756 0.088042 -0.027022 524131.000000 0 1 0
-11.602351 -12.361094 -19.307841 25.694433 0.817050 2.421039 0.107084 -0.032337 -994885.000000 0 0 1
-12.758751 -12.195594 -20.338241 26.928837 0.762835 2.426845 0.119459 -0.041410 104244.000000 0 0 1
-13.868551 -13.034494 -20.345841 27.860150 0.754406 2.389535 0.107863 -0.031075 -43619.900000 0 0 1
-14.644551 -12.898094 -19.103341 27.308631 0.722074 2.345543 0.100946 -0.022588 -978001.000000 0 0 1
-15.925351 -13.728094 -19.231741 28.494512 0.711435 2.311663 0.114652 -0.014230 -307799.000000 0 0 1
-15.689251 -15.098694 -19.462341 29.204552 0.766219 2.300186 0.112803 -0.014100 -272707.000000 0 0 1
-16.457451 -15.573494 -20.531441 30.576485 0.757808 2.306998 0.134263 -0.015073 -69637.400000 0 0 1
-16.117851 -16.952094 -20.955841 31.405507 0.810619 2.301329 0.079416 -0.009180 -199200.000000 0 0 1
-16.331551 -17.907894 -19.944841 31.388037 0.831404 2.259359 0.098952 -0.007064 186669.000000 0 0 1
-16.008151 -19.196394 -20.416941 32.274044 0.875715 2.255717 0.072607 -0.007641 -355707.000000 0 0 1
-16.874451 -20.203294 -19.687941 32.871495 0.874938 2.212969 0.096248 -0.024760 -401039.000000 0 0 1
-16.658051 -21.493294 -20.212141 33.881897 0.911465 2.209988 0.084900 -0.021255 259605.000000 0 0 1
-17.539851 -22.491694 -19.731041 34.681935 0.908472 2.175981 0.106113 -0.018128 -126977.000000 0 0 1
-17.073851 -23.937194 -20.062941 35.595326 0.951215 2.169582 0.101982 -0.008682 1202.410000 0 0 1
-17.252251 -24.417294 -21.370641 36.749812 0.955682 2.191388 0.069087 -0.014345 132608.000000 0 0 1
-16.562051 -25.633004 -21.555941 37.363230 0.997152 2.185760 0.073227 -0.009538 -100334.000000 0 0 1
-16.753751 -26.224464 -22.984541 38.687204 1.002293 2.206958 0.067844 -0.013728 82328.300000 0 0 1
-17.992251 -26.878704 -23.218941 39.815889 0.980913 2.193407 0.094666 -0.014723 111974.000000 0 0 1
-17.951251 -28.353834 -23.126241 40.755494 1.006382 2.174188 0.097871 -0.005894 -259843.000000 0 0 1
-18.974051 -29.047304 -24.052641 42.217176 0.992166 2.176981 0.111472 -0.015449 -94595.000000 0 0 1
-18.714251 -29.159664 -25.463941 42.999087 1.000217 2.204579 0.108506 -0.013209 158272.000000 0 0 1
-19.149451 -28.006074 -26.271151 42.909381 0.971053 2.229696 0.122224 -0.025047 453535.000000 0 0 1
-18.003251 -27.552744 -27.246201 42.727347 0.992027 2.262274 0.120524 -0.030469 238709.000000 0 0 1
-17.973851 -27.939474 -28.605931 43.840310 0.999136 2.281679 0.126165 -0.026000 172398.000000 0 0 1
-16.907651 -27.312464 -29.308781 43.483836 1.016491 2.310428 0.090409 -0.021203 110950.000000 0 0 1
-16.972351 -27.410614 -30.875831 44.639885 1.016387 2.334588 0.118917 -0.024684 -44973.900000 0 0 1
-16.750351 -28.714744 -31.327871 45.678729 1.042720 2.326541 0.109104 -0.027614 454929.000000 0 0 1
-17.365951 -28.900674 -32.603231 46.901981 1.029727 2.339405 0.124395 -0.026906 107824.000000 0 0 1
-17.229251 -30.340054 -33.100531 48.093774 1.054336 2.329870 0.125831 -0.030976 -121378.000000 0 0 1
-15.988051 -30.646544 33.629055 48.225945 1.089946 0.799141 0.134853 -0.035575 -146440.000000 0 0 1
-16.027751 -31.938464 33.036128 48.665594 1.105684 0.824615 0.136951 -0.035844 -717707.000000 0 0 1
-14.774151 -32.330484 32.270720 48.009740 1.142159 0.833660 0.134626 -0.039128 -439637.000000 0 0 1
-13.827151 -32.926854 33.133775 48.715653 1.173223 0.822834 0.132814 -0.033700 -131744.000000 0 0 1
-12.690351 -33.333964 32.403753 48.189224 1.207035 0.833313 0.132017 -0.031082 -8825.390000 0 0 1
-11.781751 33.118828 33.228175 48.371252 -1.229016 0.813526 0.118525 -0.027228 191158.000000 0 0 1
-11.159551 -33.595774 -33.001171 48.397199 1.250092 2.321129 0.125373 -0.025228 -145410.000000 0 0 1
-10.332451 33.010110 -32.224071 47.273858 -1.267448 2.320807 0.115218 -0.031182 -35119.900000 0 0 1
-9.556651 -33.547854 -31.202461 46.801513 1.293281 2.300566 0.097610 -0.033690 -96174.800000 0 0 1
-10.401051 -33.095024 -30.169831 45.974788 1.266292 2.286602 0.106406 -0.042896 -312752.000000 0 0 1
-9.935351 -31.943634 -29.542861 44.630568 1.269253 2.294203 0.127752 -0.052100 -427586.000000 0 0 1
-10.970851 -31.080514 -28.769601 43.749832 1.231468 2.288416 0.119872 -0.043298 138931.000000 0 0 1
-11.206551 -31.355834 -27.394801 43.119024 1.227545 2.259232 0.157601 -0.049737 95997.300000 0 0 1
-11.754351 -32.650244 -27.116961 44.040127 1.225234 2.234112 0.123262 -0.039349 -86012.000000 0 0 1
-12.181851 -32.753384 -25.630491 43.337094 1.214723 2.203617 0.148219 -0.048125 -9202.660000 0 0 1
-11.051051 -32.708084 -24.802741 42.510239 1.244969 2.193771 0.168360 -0.074583 -289390.000000 0 0 1
-11.394751 -32.721234 -23.480341 41.855058 1.235693 2.166380 0.162594 -0.079794 -24272.400000 0 0 1
-10.197351 -32.388474 -22.568841 40.771948 1.265776 2.157403 0.208608 -0.099974 247359.000000 0 0 1
-9.252551 -33.447814 -22.553641 41.388799 1.300919 2.147092 0.181440 -0.082219 -66814.300000 0 0 1
-8.091751 -33.019384 -21.850741 40.413005 1.330472 2.142049 0.220217 -0.093162 594871.000000 0 0 1
-7.143851 33.209338 -21.437941 40.168147 -1.358910 2.133772 0.216517 -0.073196 53615.000000 0 0 1
-6.601451 32.517934 -22.560541 40.124471 -1.370509 2.167917 0.194862 -0.088966 -64283.200000 0 0 1
-5.775351 31.423560 -22.236241 38.926150 -1.389034 2.178814 0.159563 -0.072216 540639.000000 0 0 1
-4.266151 31.816121 -22.049541 38.944163 -1.437504 2.172665 0.152532 -0.077883 604662.000000 0 0 1
-3.509051 32.031390 -23.250741 39.735630 -1.461681 2.195844 0.167517 -0.076601 127326.000000 0 0 1
-2.862651 30.896010 -23.782341 39.094218 -1.478406 2.224756 0.187816 -0.091004 -98263.200000 0 0 1
-2.409051 31.096420 -25.255891 40.132915 -1.493480 2.251456 0.173520 -0.061350 -74791.500000 0 0 1
-1.402951 32.050377 -25.592321 41.038540 -1.527051 2.244157 0.173304 -0.084485 120579.000000 0 0 1
-1.648851 33.441240 -25.400831 42.026627 -1.521530 2.219807 0.185174 -0.087301 -425092.000000 0 0 1
-0.715251 -33.051434 -26.206941 42.186640 1.549159 2.241088 0.090407 -0.060128 685172.000000 0 0 1
0.638949 -32.959174 -25.744531 41.826980 -1.551413 2.233817 0.110055 -0.062356 465504.000000 0 0 1
1.297449 -31.949074 -26.511041 41.536273 -1.530209 2.263035 0.073144 -0.045571 789824.000000 0 0 1
2.708449 -31.480324 -25.980831 40.906602 -1.484971 2.258967 0.058039 -0.028532 392413.000000 0 0 1
2.698149 -30.777794 -24.736741 39.578516 -1.483354 2.245933 0.059174 -0.025472 419282.000000 0 0 1
3.928049 -30.164044 -24.359041 38.970014 -1.441302 2.246019 0.037007 -0.016140 -8532.260000 0 0 1
3.828549 -29.370464 -23.100341 37.562051 -1.441173 2.233171 0.047882 -0.013644 -205297.000000 0 0 1
3.880449 -30.225844 -21.939941 37.550240 -1.443113 2.194792 0.053771 -0.017082 484981.000000 0 0 1
3.989949 -29.445794 -20.738641 36.236248 -1.436115 2.180126 0.059769 -0.007083 -475021.000000 0 0 1
4.139749 -30.304124 -19.454941 36.248754 -1.435030 2.137325 0.064267 -0.004690 -447883.000000 0 0 1
3.013749 -30.994814 -18.935441 36.446016 -1.473867 2.117118 0.074360 -0.012901 326166.000000 0 0 1
2.765949 -32.284394 -19.566741 37.852211 -1.485331 2.114051 0.067529 -0.014876 -331752.000000 0 0 1
3.399149 -33.498104 -18.821041 38.573420 -1.469670 2.080510 0.063611 -0.015341 484153.000000 0 0 1
4.773949 33.696710 -19.116041 39.034367 1.430059 2.082569 0.051269 -0.008990 237516.000000 0 0 1
5.290449 32.751441 -18.203541 37.841969 1.410646 2.072638 0.058540 -0.031229 661171.000000 0 0 1
6.558849 31.988619 -18.731741 37.645296 1.368562 2.091609 0.060673 -0.017942 926375.000000 0 0 1
7.764749 32.735429 -18.648241 38.466303 1.337903 2.076924 0.098703 -0.018208 -436678.000000 0 0 1
8.776149 32.070279 -19.326241 38.458122 1.303682 2.097315 0.077728 -0.021341 -397678.000000 0 0 1
10.115949 32.828040 -19.396341 39.449089 1.271880 2.084815 0.070701 -0.035830 -299305.000000 0 0 1
10.776549 32.925231 -18.165441 39.117618 1.254482 2.053731 0.070832 -0.029359 991405.000000 0 0 1
12.127949 33.415895 -18.385741 40.021802 1.222641 2.048108 0.079048 -0.026797 1157700.000000 0 0 1
12.895949 33.563750 -17.065441 39.800252 1.203965 2.013935 0.055756 -0.025555 -308956.000000 0 0 1
13.559649 32.358099 -16.598141 38.812485 1.173976 2.012687 0.060171 -0.030645 13094.100000 0 0 1
14.170649 32.652996 -15.380141 38.775948 1.161347 1.978651 0.061078 -0.039909 421081.000000 0 0 1
15.460049 31.780712 -15.130741 38.444324 1.118039 1.975314 0.072474 -0.036775 826622.000000 0 0 1
15.174049 30.452690 -14.828141 37.114577 1.108523 1.981793 0.092544 -0.037594 852222.000000 0 0 1
16.446449 29.750660 -14.844441 37.093731 1.065799 1.982518 0.089626 -0.031866 1037300.000000 0 0 1
16.381649 28.356970 -14.177541 35.685835 1.046940 1.979356 0.118893 -0.031998 -144551.000000 0 0 1
16.141549 28.145180 -12.820441 34.886451 1.050082 1.947106 0.112127 -0.037325 -220712.000000 0 0 1
14.848049 28.376520 -12.300341 34.307285 1.088721 1.937494 0.118173 -0.039308 -413933.000000 0 0 1
14.183049 27.147570 -11.756341 32.807941 1.089356 1.937284 0.116660 -0.037406 -814901.000000 0 0 1
13.402249 26.566180 -12.818041 32.398833 1.103567 1.977553 0.104816 -0.039175 468469.000000 0 0 1
12.722749 25.326500 -12.465241 30.962593 1.105271 1.985141 0.127616 -0.032103 522364.000000 0 0 1
11.701549 25.377170 -11.320941 30.151131 1.138746 1.955704 0.113441 -0.032975 -1040370.000000 0 0 1
10.543049 26.140680 -11.477641 30.433982 1.187431 1.957494 0.104839 -0.038654 -263766.000000 0 0 1
9.843149 26.219230 -10.240841 29.819631 1.211660 1.921359 0.082851 -0.027829 591975.000000 0 0 1
8.610549 27.157840 -10.463341 30.350804 1.263766 1.922765 0.090754 -0.035285 527161.000000 0 0 1
9.107749 28.493860 -10.545741 31.718508 1.261421 1.909727 0.085329 -0.042876 490165.000000 0 0 1
8.048549 29.442220 -10.629441 32.320403 1.303948 1.905911 0.070441 -0.037284 432636.000000 0 0 1
8.603349 30.834130 -11.069641 33.871789 1.298696 1.903723 0.098859 -0.038712 369248.000000 0 0 1
9.558949 31.369150 -10.135041 34.323696 1.275011 1.870543 0.100861 -0.035709 228263.000000 0 0 1
9.986749 32.674554 -10.502941 35.744557 1.274171 1.869031 0.098749 -0.037303 -457993.000000 0 0 1
11.085549 32.789691 -11.568841 36.495086 1.244780 1.893358 0.090343 -0.039422 -896422.000000 0 0 1
12.302449 32.457909 -10.949041 36.397083 1.208499 1.876351 0.094042 -0.033324 -276973.000000 0 0 1
13.350349 32.539696 -11.918141 37.136312 1.181460 1.897507 0.078585 -0.039785 -268903.000000 0 0 1
14.747949 32.189776 -11.433941 37.207777 1.141180 1.883151 0.081331 -0.036681 -372918.000000 0 0 1
15.263149 33.147322 -10.528341 37.980977 1.139275 1.851675 0.071275 -0.029184 252812.000000 0 0 1
16.577249 33.558040 -10.898941 38.983767 1.111970 1.854149 0.090102 -0.035632 745381.000000 0 0 1
17.327849 -32.938994 -9.845541 38.498914 -1.086520 1.829405 0.089306 -0.031230 360719.000000 0 0 1
17.607149 -33.506954 -8.560641 38.807373 -1.086975 1.793219 0.095068 -0.021917 246063.000000 0 0 1
18.336949 -32.593074 -7.730441 38.187850 -1.058329 1.774637 0.089498 -0.023405 -504730.000000 0 0 1
18.651249 -33.228474 -6.323441 38.626241 -1.059316 1.735245 0.082968 -0.017758 947432.000000 0 0 1
19.713949 33.219795 -6.397741 39.155148 1.035214 1.734927 0.068351 -0.018011 377.116000 0 0 1
21.021349 33.669940 -6.594641 40.237436 1.012675 1.735432 0.068418 -0.021061 -982829.000000 0 0 1
21.847549 32.581860 -7.368941 39.914838 0.980115 1.756478 0.056794 -0.016905 220345.000000 0 0 1
22.029149 31.325590 -6.725841 38.882038 0.957905 1.744651 0.058840 -0.010233 -21528.700000 0 0 1
22.922449 31.397160 -5.626641 39.279504 0.940166 1.714537 0.053821 -0.013061 -458781.000000 0 0 1
23.294649 29.991320 -5.048541 38.309368 0.910417 1.702964 0.043474 -0.017241 -453890.000000 0 0 1
24.038949 29.265760 -5.970541 38.340620 0.883141 1.727156 0.047610 -0.019187 -203290.000000 0 0 1
24.280949 27.937070 -5.486241 37.418487 0.855301 1.717945 0.058897 -0.014924 -323591.000000 0 0 1
25.289449 27.091110 -6.275441 37.588105 0.819780 1.738535 0.045475 -0.005252 94587.600000 0 0 1
26.558449 27.750180 -6.352741 38.933032 0.807338 1.734700 0.063792 -0.008600 573584.000000 0 0 1
27.613449 27.021720 -6.956141 39.256386 0.774568 1.748935 0.041855 -0.004301 301997.000000 0 0 1
28.327749 26.038830 -6.013141 38.944061 0.743321 1.725821 0.046202 0.002341 -461260.000000 0 0 1
29.247449 26.690450 -5.142641 39.927937 0.739719 1.699953 0.070285 -0.001008 299465.000000 0 0 1
29.979449 25.813280 -4.319741 39.796394 0.710864 1.679557 0.075874 0.002898 179951.000000 0 0 1
31.317549 26.322270 -3.728041 41.079789 0.698950 1.661673 0.084789 -0.000254 66864.400000 0 0 1
31.245149 27.271500 -2.706841 41.561052 0.717596 1.635972 0.096472 -0.000166 -195541.000000 0 0 1
32.474949 27.440450 -2.040541 42.564826 0.701568 1.618754 0.098470 -0.012319 -28843.700000 0 0 1
32.465549 28.511840 -0.876341 43.216951 0.720650 1.591075 0.096867 -0.010317 44953.300000 0 0 1
32.696649 29.869810 -1.236141 44.303549 0.740247 1.598702 0.080424 0.004819 -764133.000000 0 0 1
31.555149 30.550200 -1.602341 43.950081 0.769218 1.607263 0.089307 -0.008574 -783160.000000 0 0 1
34.896319 22.320506 19.096265 45.613873 0.569046 1.138838 0.157244 -0.027324 40805.300000 0 0 1
35.117689 22.526706 20.480865 46.477634 0.570351 1.114462 0.142475 -0.025138 -223516.000000 0 0 1
35.982409 23.574306 20.727165 47.750362 0.579995 1.121787 0.146090 -0.022258 -511584.000000 0 0 1
36.142579 23.747606 22.253695 48.636013 0.581318 1.095552 0.119719 -0.011238 -292409.000000 0 0 1
35.007409 24.296606 22.849615 48.352339 0.606716 1.078598 0.105115 -0.010138 -333367.000000 0 0 1
35.232689 24.529406 24.209275 49.286135 0.608179 1.057331 0.098599 -0.018857 502567.000000 0 0 1
33.937639 24.995006 24.959185 48.984432 0.634804 1.036154 0.091359 -0.022125 599746.000000 0 0 1
33.532959 26.335806 24.562085 49.207012 0.665757 1.048169 0.059073 -0.021868 142190.000000 0 0 1
32.506499 26.807506 25.403515 49.200137 0.689610 1.028236 0.041920 -0.020468 -108722.000000 0 0 1
32.186619 28.324506 25.241825 49.753450 0.721660 1.038703 0.024781 -0.021604 -114064.000000 0 0 1
31.638959 28.661806 23.954075 48.952228 0.736066 1.059468 0.037530 -0.033295 368585.000000 0 0 1
31.334579 30.046506 24.025375 49.617205 0.764416 1.065331 0.028870 -0.027524 -513302.000000 0 0 1
31.809649 30.881406 22.846605 49.874667 0.770593 1.094962 0.046238 -0.030897 -343647.000000 0 0 1
33.145169 31.305106 22.958845 51.046258 0.756856 1.104294 0.025549 -0.037119 -471905.000000 0 0 1
33.639109 31.658606 21.704765 51.038748 0.755077 1.131547 0.023483 -0.023649 -606471.000000 0 0 1
35.105369 32.025306 21.629765 52.209711 0.739549 1.143638 0.009569 -0.038299 -714157.000000 0 0 1
35.531799 33.172306 22.331465 53.493971 0.751069 1.140151 0.020769 -0.017549 -1018980.000000 0 0 1
36.894969 33.330306 22.154665 54.433237 0.734681 1.151622 0.033214 -0.015193 -680769.000000 0 0 1
37.424449 -32.847137 22.899455 54.807927 -0.720353 1.139760 0.029097 -0.006145 -146625.000000 0 0 1
36.766269 -31.696637 22.441515 53.479500 -0.711484 1.137760 0.028118 -0.001027 4245.940000 0 0 1
37.029539 -30.562937 23.255065 53.348645 -0.690018 1.119750 0.036696 -0.001093 -582231.000000 0 0 1
36.134249 -29.290037 22.943045 51.864955 -0.681165 1.112567 0.044433 -0.006822 589928.000000 0 0 1
34.755239 -29.511637 23.156115 51.137746 -0.703987 1.100872 0.036851 -0.001311 200934.000000 0 0 1
34.046729 -30.109237 22.078665 50.529332 -0.724101 1.118594 0.040072 0.004580 -576550.000000 0 0 1
33.344719 -31.441537 22.422215 51.021528 -0.756030 1.115792 0.020655 0.002652 -321665.000000 0 0 1
32.297549 -31.339137 23.338845 50.694920 -0.770339 1.092375 0.030458 0.001387 -136722.000000 0 0 1
31.668449 -32.591437 23.522335 51.170233 -0.799761 1.093153 0.018638 -0.004932 56778.700000 0 0 1
30.899579 -32.773337 24.839305 51.437989 -0.814818 1.066835 0.022179 -0.015363 -81659.600000 0 0 1
30.610479 33.276406 25.130435 51.728710 0.827103 1.063504 0.025911 -0.023552 138017.000000 0 0 1
29.879679 33.115206 26.330995 51.795110 0.836715 1.037507 0.032860 -0.020315 -610035.000000 0 0 1
29.489479 31.606006 26.554865 50.731941 0.820027 1.019919 0.044833 -0.019077 554813.000000 0 0 1
28.616679 31.111106 25.535125 49.384794 0.827137 1.027378 0.048094 -0.022334 930221.000000 0 0 1
27.233679 31.496906 25.549435 48.851837 0.857861 1.020431 0.049251 -0.021454 332163.000000 0 0 1
26.500779 31.258806 24.240555 47.613115 0.867589 1.036640 0.095918 -0.029438 -165605.000000 0 0 1
26.830379 32.093406 23.128665 47.799489 0.874481 1.065727 0.113511 -0.036128 -469123.000000 0 0 1
28.048179 31.773206 22.537825 48.001985 0.847587 1.082051 0.074793 -0.030988 -710654.000000 0 0 1
28.312979 32.503106 21.215365 48.043401 0.854188 1.113429 0.091302 -0.029815 842430.000000 0 0 1
29.674779 32.589406 20.754265 48.717568 0.832175 1.130716 0.088372 -0.032169 780525.000000 0 0 1
29.733879 33.243206 19.501865 48.677891 0.841064 1.158591 0.083851 -0.034417 -377526.000000 0 0 1
31.071779 33.662706 18.881965 49.549590 0.825401 1.179841 0.090722 -0.036943 -73249.500000 0 0 1
31.837289 32.541106 18.450565 49.121888 0.796330 1.185744 0.104287 -0.047019 287952.000000 0 0 1
33.066859 32.969306 17.867865 49.996529 0.783921 1.205333 0.093306 -0.040354 245678.000000 0 0 1
34.010159 31.835506 17.404065 49.730191 0.752384 1.213257 0.089047 -0.047738 -87499.300000 0 0 1
34.804199 31.390806 18.489465 50.384276 0.733878 1.195048 0.062318 -0.049034 -394182.000000 0 0 1
35.740459 30.507906 17.951665 50.302833 0.706578 1.205879 0.082140 -0.053296 -286810.000000 0 0 1
36.719759 29.913106 18.977365 51.022299 0.683600 1.189695 0.084764 -0.060966 -195000.000000 0 0 1
37.600819 30.840806 19.542065 52.410583 0.686947 1.188702 0.094750 -0.055498 -332929.000000 0 0 1
-37.660681 30.205206 20.173365 52.322519 -0.675981 1.174984 0.121379 -0.049678 -31044.600000 0 0 1
-36.564891 31.140706 20.744265 52.316913 -0.705455 1.163082 0.116725 -0.046369 218865.000000 0 0 1
-35.863294 31.837306 19.714965 51.850456 -0.726001 1.180754 0.112920 -0.041987 136543.000000 0 0 1
-34.687288 32.553706 20.029665 51.615300 -0.753678 1.172274 0.099846 -0.024435 150973.000000 0 0 1
-34.782687 -33.504737 20.726465 52.554629 0.766686 1.165404 0.077267 -0.019563 -436259.000000 0 0 1
-35.176981 -33.683337 22.079965 53.474405 0.763711 1.145153 0.088734 -0.017974 129588.000000 0 0 1
-34.983575 -32.513337 22.855795 52.946719 0.748817 1.124447 0.082233 -0.014174 -100208.000000 0 0 1
-34.880781 -32.901537 24.358995 53.782345 0.756206 1.100761 0.087901 -0.025704 373180.000000 0 0 1
-36.138821 -33.444337 24.777305 55.122163 0.746694 1.104593 0.067133 -0.015876 414971.000000 0 0 1
-36.257611 33.641306 26.174105 55.959231 -0.747986 1.084070 0.083978 -0.019608 -42176.400000 0 0 1
-37.673391 33.676006 26.769385 57.183544 -0.729431 1.083622 0.050344 -0.027472 -2961.570000 0 0 1
-37.659871 33.080806 28.099765 57.464793 -0.720758 1.059864 0.082378 -0.028355 1123300.000000 0 0 1
37.280159 32.800106 28.417395 57.211936 0.721558 1.050999 0.077461 -0.036439 1285980.000000 0 0 1
37.120899 31.807406 29.596695 57.145749 0.708463 1.026383 0.084729 -0.029874 -259112.000000 0 0 1
37.260569 30.435306 29.206265 56.282002 0.684915 1.025201 0.086057 -0.036675 520699.000000 0 0 1
-37.862181 29.899506 28.645925 56.108058 -0.668425 1.034973 0.093973 -0.034957 317454.000000 0 0 1
-37.886101 28.397406 28.293705 55.157076 -0.643211 1.032160 0.110802 -0.034026 309140.000000 0 0 1
37.419629 28.192106 27.282045 54.215620 0.645676 1.043483 0.093901 -0.033854 910753.000000 0 0 1
37.279319 26.784006 26.976445 53.243396 0.623014 1.039487 0.109464 -0.029283 362737.000000 0 0 1
36.594699 25.853606 28.066855 52.870874 0.615065 1.011185 0.106747 -0.032376 426812.000000 0 0 1
37.521179 25.506206 29.133265 53.918017 0.597027 0.999973 0.098651 -0.031279 503661.000000 0 0 1
37.376679 24.128906 29.505045 53.383218 0.573248 0.985193 0.096160 -0.017351 115459.000000 0 0 1
37.991509 23.053006 28.526375 52.806722 0.545400 1.000117 0.106236 -0.011114 -207691.000000 0 0 1
37.336649 22.907006 27.298835 51.613784 0.550306 1.013485 0.106401 -0.013200 -328119.000000 0 0 1
38.005729 22.056106 26.416305 51.271127 0.525835 1.029523 0.111461 -0.021145 -668444.000000 0 0 1
37.570839 20.562406 26.441685 50.334314 0.500766 1.017704 0.110573 -0.020412 -1239860.000000 0 0 1
36.268699 20.412706 25.951255 49.046557 0.512632 1.013239 0.127021 0.000305 -217616.000000 0 0 1
35.721439 19.087806 26.170535 48.220975 0.490750 0.997123 0.133034 -0.002209 -214074.000000 0 0 1
35.316949 18.831706 27.616805 48.627235 0.489869 0.966809 0.105562 -0.000584 -530843.000000 0 0 1
34.160029 19.514706 28.071175 48.329310 0.519029 0.951047 0.101904 -0.007762 215672.000000 0 0 1
34.211019 20.960206 28.051805 48.955366 0.549687 0.960625 0.088643 -0.015692 -1381790.000000 0 0 1
33.182949 21.546506 28.995075 49.051752 0.575900 0.938360 0.077517 -0.016142 -9482.980000 0 0 1
31.801599 21.424706 28.680125 47.884333 0.592855 0.928612 0.075015 -0.018191 599697.000000 0 0 1
31.223079 22.186806 27.621715 47.223873 0.617798 0.946027 0.070454 -0.008311 -202705.000000 0 0 1
30.984979 23.636506 27.984225 47.977810 0.651667 0.948042 0.058615 -0.007035 -787949.000000 0 0 1
32.187319 24.346306 28.072225 49.161122 0.647581 0.963043 0.066371 -0.016048 -285505.000000 0 0 1
32.050849 25.575006 28.772255 50.091721 0.673490 0.958936 0.051191 -0.015394 52938.900000 0 0 1
32.455159 25.370006 30.315305 51.146772 0.663479 0.936374 0.058284 -0.020729 878453.000000 0 0 1
33.828679 24.974606 30.478225 51.932963 0.635950 0.943601 0.076112 -0.017326 881663.000000 0 0 1
34.420749 24.834206 31.785592 53.026876 0.625003 0.928015 0.088320 -0.025272 235541.000000 0 0 1
33.776989 23.733206 32.683693 52.653337 0.612498 0.901118 0.092401 -0.024170 -363739.000000 0 0 1
34.245329 23.530106 -33.312961 53.255627 0.602018 2.246606 0.105603 -0.033371 -316059.000000 0 0 1
33.659339 22.529406 -32.476121 51.915544 0.589848 2.246641 0.098222 -0.030676 -582535.000000 0 0 1
34.275059 22.341206 -31.110641 51.398260 0.577654 2.220921 0.107668 -0.047623 -435419.000000 0 0 1
34.003789 23.340406 -30.181811 51.107474 0.601544 2.202544 0.101242 -0.055131 241436.000000 0 0 1
34.445879 22.917406 -28.849801 50.438449 0.587067 2.179714 0.133952 -0.066805 677191.000000 0 0 1
35.830339 23.528406 -28.426351 51.434002 0.581044 2.156368 0.128144 -0.033858 471904.000000 0 0 1
36.399709 22.735206 -27.456011 50.947630 0.558311 2.139935 0.127206 -0.037018 -781914.000000 0 0 1
37.324379 23.466706 -26.707161 51.546756 0.561272 2.115442 0.129783 -0.028413 -402166.000000 0 0 1
-38.079801 22.629306 -25.787281 51.255639 -0.536188 2.097991 0.110155 -0.029206 -334408.000000 0 0 1
-37.329661 21.772606 -26.576461 50.733206 -0.528014 2.122158 0.098511 -0.021053 -474565.000000 0 0 1
-37.322841 20.565106 -25.869441 49.851239 -0.503615 2.116398 0.069365 -0.011071 -210328.000000 0 0 1
-36.132791 19.655506 -26.189381 48.762702 -0.498209 2.137766 0.062672 -0.004395 1088170.000000 0 0 1
-34.849036 19.995706 -25.600381 47.640981 -0.520918 2.138101 0.067706 -0.006576 967993.000000 0 0 1
-33.908291 18.957806 -25.752641 46.608680 -0.509796 2.156192 0.023149 -0.005552 802304.000000 0 0 1
-32.508121 19.193306 -25.105241 45.336895 -0.533342 2.157656 0.021320 -0.003142 525031.000000 0 0 1
-32.703171 19.055506 -23.743841 44.680865 -0.527587 2.131060 0.023875 -0.005352 68001.000000 0 0 1
-31.622901 19.604706 -23.034041 43.759792 -0.554962 2.125127 0.046540 -0.001760 -242899.000000 0 0 1
-32.073351 19.904106 -21.573641 43.477526 -0.555415 2.090015 0.043557 -0.000633 145959.000000 0 0 1
-32.200931 18.780406 -20.742241 42.659631 -0.527994 2.078562 0.020967 0.005754 -68581.100000 0 0 1
-32.666091 19.148106 -19.482941 42.582959 -0.530193 2.046011 0.028380 0.010462 -176563.000000 0 0 1
-33.563391 18.034306 -18.793941 42.484698 -0.493057 2.029036 0.037746 0.010553 1089650.000000 0 0 1
-34.382080 18.583906 -17.715841 42.910838 -0.495529 1.996380 0.038017 -0.000179 2139570.000000 0 0 1
-35.564023 19.380606 -18.125041 44.372567 -0.498958 1.991578 0.035235 -0.001463 1054620.000000 0 0 1
-36.730871 19.514406 -17.133141 44.983479 -0.488358 1.961540 0.047849 -0.008584 -59388.700000 0 0 1
-36.464121 20.245006 -15.972341 44.661035 -0.506829 1.936530 0.055074 -0.017956 305067.000000 0 0 1
-37.583501 20.100806 -15.101241 45.217357 -0.491122 1.911309 0.069705 -0.014445 -147257.000000 0 0 1
-37.398991 20.822806 -13.769941 44.965376 -0.508030 1.882031 0.073625 -0.013833 -51426.600000 0 0 1
-37.426471 22.257406 -13.791041 45.676314 -0.536511 1.877513 0.098519 -0.028684 -64800.900000 0 0 1
37.658149 22.826506 -14.106141 46.240337 0.544930 1.880799 0.104137 -0.028082 -149560.000000 0 0 1
37.691829 24.357206 -14.334841 47.110881 0.573713 1.879978 0.101035 -0.029526 -348126.000000 0 0 1
37.897899 25.065506 -13.146941 47.300871 0.584345 1.852448 0.110019 -0.033389 -41451.800000 0 0 1
37.987219 26.441706 -13.448541 48.198090 0.608082 1.853576 0.137655 -0.020209 373945.000000 0 0 1
-37.102981 27.064706 -14.174041 48.062802 -0.630218 1.870154 0.108389 -0.017942 116601.000000 0 0 1
-36.970261 26.653506 -15.502441 48.140786 -0.624645 1.898662 0.103692 -0.015132 829758.000000 0 0 1
-35.622733 27.001806 -15.874041 47.434816 -0.648597 1.912030 0.092365 -0.022630 643645.000000 0 0 1
-35.367538 26.865406 -17.437641 47.714611 -0.649621 1.944920 0.095538 -0.025129 -7493.170000 0 0 1
-35.008711 25.675406 -18.106141 47.039012 -0.632793 1.965915 0.109455 -0.025347 932132.000000 0 0 1
-33.643791 25.267306 -17.909741 45.728549 -0.644156 1.973224 0.080977 -0.021667 694074.000000 0 0 1
-33.221451 24.127906 -18.800841 45.158524 -0.628143 2.000201 0.068963 -0.009203 -413415.000000 0 0 1
-33.217571 24.407306 -20.176141 45.893357 -0.633683 2.025984 0.079448 -0.012878 157762.000000 0 0 1
-32.475481 23.493306 -20.925041 45.215590 -0.626270 2.051929 0.063229 -0.008690 -44759.300000 0 0 1
-32.851811 23.691006 -22.430241 46.299254 -0.624778 2.076545 0.066076 -0.016384 599661.000000 0 0 1
-34.179875 23.261706 -22.783941 47.206766 -0.597565 2.074464 0.086943 -0.022584 675196.000000 0 0 1
-34.453745 23.326506 -24.211641 48.139277 -0.595149 2.097805 0.071138 -0.017521 254345.000000 0 0 1
-35.187819 24.630106 -24.717141 49.555643 -0.610700 2.092982 0.077250 -0.019695 -47682.400000 0 0 1
-34.323866 25.742706 -24.641241 49.477322 -0.643498 2.092123 0.063578 -0.014085 -113186.000000 0 0 1
-34.874554 26.934006 -25.209231 50.765939 -0.657628 2.090448 0.068842 -0.017628 61348.000000 0 0 1
-33.849981 28.086006 -25.308681 50.746175 -0.692602 2.092930 0.041275 -0.020597 454446.000000 0 0 1
-32.809121 27.756806 -26.234481 50.350041 -0.702172 2.118868 0.054659 -0.026889 -445994.000000 0 0 1
-32.187061 28.888506 -26.739451 50.848313 -0.731443 2.124530 0.057452 -0.026633 -473471.000000 0 0 1
-30.965711 28.592706 -27.588381 50.373970 -0.745576 2.150375 0.072814 -0.035072 -909584.000000 0 0 1
-29.995841 27.852906 -26.873161 48.966331 -0.748371 2.151735 0.082425 -0.028908 101559.000000 0 0 1
-28.714101 27.869906 -27.482891 48.544212 -0.770480 2.172614 0.090182 -0.029513 914511.000000 0 0 1
-27.818291 29.163006 -27.268741 48.661303 -0.808993 2.165639 0.077804 -0.039845 -387139.000000 0 0 1
-27.327531 29.364606 -25.968151 47.785132 -0.821315 2.145321 0.050250 -0.023959 572086.000000 0 0 1
-28.312801 29.787906 -24.963941 48.084638 -0.810781 2.116672 0.059089 -0.015691 775354.000000 0 0 1
-27.681781 30.256306 -23.597441 47.313468 -0.829805 2.092949 0.014340 -0.012101 197711.000000 0 0 1
-27.368331 31.629906 -23.637241 48.043685 -0.857505 2.085176 0.014219 0.000165 355412.000000 0 0 1
-26.492051 32.058506 -22.597041 47.330781 -0.880184 2.068522 0.029159 0.010330 -65713.900000 0 0 1
-26.198151 33.546206 -22.703641 48.240505 -0.907775 2.060806 0.023284 0.023174 -421991.000000 0 0 1
-27.247821 -33.085337 -22.205541 48.271827 0.881853 2.048803 0.009294 0.011938 -45883.600000 0 0 1
-26.876571 -31.734437 -22.260841 47.169583 0.868092 2.062277 0.023052 0.009074 -20985.200000 0 0 1
17.544749 8.536706 -24.962641 31.683229 0.452844 2.478158 0.084596 -0.019890 188384.000000 0 0 1
16.188449 8.121706 -24.981241 30.855962 0.465005 2.514281 0.080432 -0.023982 37529.900000 0 0 1
16.242549 6.693506 -25.159361 30.685776 0.390891 2.532038 0.079471 -0.026165 375363.000000 0 0 1
14.817449 6.068906 -25.180601 29.840427 0.388736 2.575199 0.080879 -0.036493 485061.000000 0 0 1
14.169849 6.000506 -23.922941 28.444644 0.400574 2.569990 0.093888 -0.039702 51923.800000 0 0 1
12.858149 5.503506 -23.988241 27.767900 0.404423 2.613727 0.088528 -0.038693 -204583.000000 0 0 1
11.946149 5.852906 -22.789141 26.387723 0.455568 2.613216 0.112320 -0.046616 -230649.000000 0 0 1
12.423249 5.220206 -21.593841 25.453519 0.397795 2.583683 0.103116 -0.031467 268965.000000 0 0 1
11.759549 5.364906 -20.306041 24.070823 0.428012 2.574741 0.123566 -0.035836 -13058.200000 0 1 0
11.861249 6.763006 -19.643241 23.922466 0.518202 2.534169 0.125828 -0.049922 11061.400000 0 1 0
11.516849 6.560506 -18.286541 22.584854 0.517800 2.514406 0.128728 -0.049610 -294078.000000 0 1 0
11.521149 7.750706 -17.523741 22.358261 0.592194 2.471510 0.129090 -0.063312 -432653.000000 0 1 0
12.880649 8.278306 -17.095241 22.949700 0.571221 2.411182 0.118544 -0.055409 -410053.000000 0 1 0
13.612849 7.548306 -16.132441 22.417454 0.506290 2.374076 0.148616 -0.065275 104133.000000 0 1 0
14.875949 8.127106 -15.915841 23.252047 0.500017 2.324703 0.139335 -0.058184 -322356.000000 0 1 0
15.468449 7.775706 -14.521641 22.596738 0.465791 2.268740 0.152431 -0.063761 -566405.000000 0 1 0
16.800949 8.198106 -14.607641 23.724755 0.453965 2.234087 0.137683 -0.066523 16872.300000 0 1 0
17.411649 8.099606 -13.320941 23.371278 0.435408 2.177266 0.133700 -0.059846 301233.000000 0 1 0
18.390349 9.260206 -12.984341 24.342339 0.466473 2.133418 0.193482 -0.067114 67020.900000 0 1 0
17.686449 10.412306 -12.604641 24.085339 0.532082 2.121553 0.235397 -0.064661 593905.000000 0 1 0
18.526249 11.353606 -11.935241 24.790649 0.549806 2.073095 0.300639 -0.096091 87238.000000 0 1 0
17.714149 12.574106 -11.391241 24.528750 0.617296 2.053757 0.310792 -0.092944 -819301.000000 0 1 0
16.927649 12.309006 -10.281641 23.318857 0.628719 2.027415 0.344555 -0.073530 -25767.400000 0 1 0
16.017949 13.302006 -9.898341 23.054180 0.693031 2.014571 0.226231 -0.067007 278168.000000 0 1 0
14.832049 13.621906 -10.882641 22.890563 0.742894 2.066238 0.202894 -0.074585 -630646.000000 0 1 0
13.859149 14.548006 -10.473141 22.658490 0.809643 2.051290 0.224566 -0.073383 186877.000000 0 1 0
14.225549 15.903706 -10.635941 23.841505 0.841039 2.033211 0.245680 -0.074280 -273069.000000 0 1 0
13.408149 16.888306 -9.809341 23.690009 0.899767 1.997718 0.228922 -0.060387 -69693.300000 0 1 0
13.815549 16.924506 -8.433541 23.418645 0.886192 1.939194 0.234304 -0.046223 240211.000000 0 1 0
12.747649 17.256006 -7.580741 22.753899 0.934543 1.910452 0.202956 -0.037306 -214788.000000 0 1 0
13.128649 17.239506 -6.091841 22.509388 0.919948 1.844849 0.181981 -0.029353 410726.000000 0 1 0
14.223149 18.094306 -5.770541 23.727643 0.904615 1.816459 0.223160 -0.032737 461566.000000 0 1 0
14.670049 17.859106 -4.440741 23.534617 0.883123 1.760624 0.226715 -0.029669 195214.000000 0 1 0
15.905449 18.701306 -4.007941 24.875405 0.866012 1.732622 0.220143 -0.034343 841976.000000 0 1 0
17.103049 18.411006 -4.742841 25.572915 0.822211 1.757340 0.245511 -0.054791 1126040.000000 0 0 1
18.017449 19.536006 -4.742741 26.995881 0.825813 1.747397 0.169227 -0.042618 273591.000000 0 0 1
19.308049 19.334406 -5.549141 27.882127 0.786080 1.771156 0.164116 -0.032979 -137782.000000 0 0 1
20.221049 18.479406 -4.896941 27.827312 0.740425 1.747694 0.145181 -0.043621 43772.100000 0 0 1
20.694949 17.485206 -5.794841 27.705479 0.701527 1.781511 0.192620 -0.055682 -184724.000000 0 0 1
21.649349 16.437806 -5.191941 27.674032 0.649411 1.759525 0.159504 -0.055937 -1339710.000000 0 0 1
22.961349 16.814206 -5.222941 28.934758 0.632065 1.752299 0.104917 -0.047422 -1111390.000000 0 0 1
23.763649 15.854406 -4.499341 28.919151 0.588351 1.727014 0.090199 -0.052619 -687738.000000 0 0 1
25.232849 16.147506 -4.693041 30.322653 0.569271 1.726191 0.073502 -0.040662 -1010360.000000 0 0 1
25.678549 17.309306 -4.065241 31.233414 0.593115 1.701323 0.076524 -0.036808 1407810.000000 0 0 1
27.130449 17.326306 -3.959541 32.433627 0.568340 1.693183 0.064036 -0.018941 1493580.000000 0 0 1
27.645449 18.592006 -3.178041 33.466902 0.592041 1.665900 0.078228 -0.020854 -50169.800000 0 0 1
27.478549 19.783906 -3.896841 34.083119 0.624007 1.685380 0.080787 -0.024945 251437.000000 0 0 1
27.791749 20.893006 -3.064541 34.904018 0.644633 1.658709 0.100939 -0.007240 -280698.000000 0 0 1
27.706749 22.249506 -3.856241 35.743182 0.676589 1.678894 0.086076 -0.011486 102904.000000 0 0 1
28.853049 22.766506 -4.535941 37.032243 0.668029 1.693591 0.079837 -0.002991 426272.000000 0 0 1
29.230349 21.970806 -5.639441 36.999094 0.644552 1.723814 0.068483 -0.004830 -328834.000000 0 0 1
30.457149 22.459206 -6.413541 38.382123 0.635390 1.738681 0.072243 -0.007775 -641796.000000 0 0 1
30.219449 23.483706 -7.378241 38.976121 0.660624 1.761247 0.063279 -0.000491 982026.000000 0 0 1
31.398849 24.056706 -8.022041 40.360451 0.653767 1.770889 0.078655 -0.006580 1017390.000000 0 0 1
32.388249 23.152306 -8.783141 40.769738 0.620614 1.787931 0.085193 -0.009450 -453445.000000 0 0 1
31.888649 22.544106 -9.999641 40.312721 0.615384 1.821465 0.072614 -0.011316 71288.400000 0 0 1
32.160949 23.228406 -11.186341 41.219167 0.625507 1.845630 0.056506 -0.013704 -125288.000000 0 0 1
31.680049 22.481406 -12.457541 40.794969 0.617166 1.881123 0.082274 -0.014617 52316.100000 0 0 1
31.748549 23.178906 -13.693141 41.626124 0.630628 1.905994 0.082430 -0.016716 49516.100000 0 0 1
31.729849 22.198806 -14.690341 41.417103 0.610470 1.933382 0.098395 -0.017585 -28154.300000 0 0 1
31.940649 22.674506 -16.129341 42.361468 0.617336 1.961409 0.104517 -0.021238 -13388.400000 0 0 1
33.268649 23.119406 -16.339341 43.683910 0.607316 1.954153 0.113913 -0.015907 68849.600000 0 0 1
33.354349 23.914206 -17.573341 44.645539 0.622027 1.975362 0.126839 -0.025033 326045.000000 0 0 1
34.733849 24.611106 -17.744241 46.119464 0.616450 1.965728 0.121913 -0.029685 -342629.000000 0 0 1
35.755149 23.701606 -17.920341 46.490165 0.585381 1.966508 0.118148 -0.016694 -107079.000000 0 0 1
36.987449 24.439406 -18.112841 47.889780 0.583894 1.958668 0.125712 -0.022950 741627.000000 0 0 1
-38.083681 23.564706 -18.091841 48.300899 -0.554100 1.954724 0.103081 -0.030929 -98673.900000 0 0 1
-37.908181 22.843206 -19.285041 48.277894 -0.542324 1.981723 0.094047 -0.019701 -305232.000000 0 0 1
-36.592381 22.944306 -19.755341 47.494389 -0.560054 1.999785 0.104542 -0.012762 -458747.000000 0 0 1
-36.351381 22.167206 -21.068241 47.504512 -0.547597 2.030296 0.112488 -0.023858 -381557.000000 0 0 1
-36.227381 20.783006 -20.886741 46.697028 -0.520843 2.034520 0.095398 -0.019056 115692.000000 0 0 1
-36.151981 20.175606 -22.162041 46.959310 -0.509024 2.062288 0.063016 -0.012736 14636.200000 0 0 1
-35.792281 18.730406 -22.244541 46.116538 -0.482120 2.074137 0.050593 -0.007635 -219417.000000 0 0 1
-36.864481 17.895306 -21.921541 46.473496 -0.451928 2.062014 0.068187 -0.014953 -171171.000000 0 0 1
-36.592681 16.602406 -22.393741 46.001563 -0.425934 2.079223 0.052089 -0.016282 -155723.000000 0 0 1
-37.684081 15.570806 -22.061241 46.359878 -0.391828 2.066748 0.051484 -0.014716 -40061.400000 0 0 1
37.437349 15.842206 -22.765341 46.591752 0.400316 2.081296 0.132652 -0.023673 353988.000000 0 0 1
36.487349 14.807106 -22.480841 45.342753 0.385509 2.089550 0.172723 -0.021266 61198.100000 0 0 1
36.534349 13.483106 -23.257941 45.359504 0.353547 2.109177 0.114951 -0.021590 -461901.000000 0 0 1
36.231949 13.604806 -24.658041 45.889692 0.359202 2.138068 0.126399 -0.008889 345895.000000 0 0 1
36.760449 12.499306 -25.419631 46.408199 0.327757 2.150457 0.101150 -0.001472 169260.000000 0 0 1
36.499749 12.586906 -26.965041 47.093262 0.332079 2.180456 0.119117 -0.000542 593497.000000 0 0 1
35.124749 12.355606 -27.314311 46.178789 0.338245 2.203702 0.116047 -0.002190 1147190.000000 0 0 1
34.525349 13.422206 -28.109691 46.500646 0.370783 2.219936 0.127562 -0.006455 366432.000000 0 0 1
34.986849 13.424306 -29.620551 47.766815 0.366372 2.239676 0.126506 -0.016971 523042.000000 0 0 1
36.357249 13.682506 -29.962841 49.059478 0.359941 2.227798 0.121803 -0.011452 640585.000000 0 0 1
36.690749 13.597506 -31.342501 50.134376 0.354906 2.246145 0.134185 -0.019955 978543.000000 0 0 1
-38.107981 13.874506 -31.708411 51.479544 -0.349166 2.234377 0.128541 -0.019705 1953970.000000 0 0 1
-37.142981 12.906806 -31.311321 50.265152 -0.334437 2.243270 0.116435 -0.015342 144606.000000 0 0 1
-37.016881 12.743106 -29.897961 49.259763 -0.331544 2.223007 0.083140 -0.013586 -1232900.000000 0 0 1
-35.894581 11.808906 -29.444541 47.904615 -0.317835 2.232738 0.090081 -0.014755 -208965.000000 0 0 1
-36.065681 10.455006 -29.899761 48.000377 -0.282154 2.243249 0.102869 -0.013641 446492.000000 0 0 1
-35.010881 9.635106 -29.401471 46.723051 -0.268555 2.251411 0.104090 -0.018501 269056.000000 0 0 1
-35.113281 8.143506 -29.757161 46.741286 -0.227892 2.260924 0.119080 -0.021356 -660152.000000 0 0 1
-34.971881 8.009606 -31.164391 47.522684 -0.225147 2.286011 0.133166 -0.032104 134953.000000 0 0 1
-35.425081 6.758706 -31.776411 48.066170 -0.188523 2.293077 0.133901 -0.036114 382531.000000 0 0 1
-36.907381 6.319906 -31.514421 48.941339 -0.169592 2.270410 0.162772 -0.024032 295526.000000 0 0 1
-37.085581 5.797806 -30.218081 48.188040 -0.155081 2.248604 0.171921 -0.028992 321288.000000 0 0 1
37.990749 5.141006 -30.169291 48.784353 0.134506 2.237529 0.139400 -0.008541 113873.000000 0 0 1
37.785949 4.513306 -28.793591 47.720213 0.118881 2.218534 0.145623 -0.028796 -180642.000000 0 0 1
-37.767181 3.373906 -28.596971 47.492419 -0.089098 2.216972 0.183340 -0.020607 86495.300000 0 0 1
-38.126581 2.758806 -27.413771 47.040004 -0.072233 2.192937 0.180842 -0.031612 -260486.000000 0 0 1
-37.453181 1.423606 -27.244021 46.335775 -0.037992 2.199343 0.213518 -0.035256 -999753.000000 0 0 1
-36.117681 1.512606 -26.888191 45.052743 -0.041855 2.210323 0.204685 -0.036724 -620965.000000 0 0 1
-35.534081 0.231006 -26.713461 44.455970 -0.006501 2.215419 0.217596 -0.034917 265794.000000 0 0 1
-34.253581 0.256806 -25.823551 42.897896 -0.007497 2.216771 0.204402 -0.033644 295231.000000 0 0 1
-34.485581 0.617506 -24.444941 42.275190 -0.017904 2.187358 0.184058 -0.025666 -612575.000000 0 0 1
-33.320581 0.371106 -23.764641 40.928681 -0.011137 2.190305 0.203847 -0.021283 -725095.000000 0 0 1
-33.533581 0.223506 -22.274841 40.258161 -0.006665 2.157117 0.192740 -0.010705 -213035.000000 0 0 1
-33.959881 -1.075494 -21.800241 40.369304 0.031659 2.141257 0.200744 -0.016552 132983.000000 0 0 1
-34.429881 -1.141694 -20.509741 40.092014 0.033148 2.107804 0.172547 -0.012560 132526.000000 0 0 1
-35.955281 -0.896494 -20.363941 41.331295 0.024928 2.085986 0.168881 -0.010307 32665.800000 0 0 1
-36.751381 -1.940994 -20.865341 42.305956 0.052765 2.086562 0.163617 -0.018632 244489.000000 0 0 1
-38.119581 -1.875594 -20.513341 43.329175 0.049163 2.063977 0.157174 -0.017902 543066.000000 0 0 1
37.413549 -3.208694 -20.355441 42.713152 -0.085554 2.067536 0.146789 -0.016057 -59717.900000 0 0 1
37.146449 -4.015494 -21.515841 43.115128 -0.107681 2.093278 0.141998 -0.009597 -130077.000000 0 0 1
-38.097981 -4.734394 -21.996541 44.246112 0.123635 2.091097 0.128044 -0.017452 -567029.000000 0 0 1
37.839749 -5.675394 -23.157641 44.725083 -0.148875 2.115047 0.125454 -0.022833 -212585.000000 0 0 1
37.083249 -6.801094 -22.709841 44.013170 -0.181385 2.112946 0.137906 -0.017750 312227.000000 0 0 1
36.569049 -7.566294 -23.777741 44.271042 -0.204025 2.137785 0.140175 -0.016425 800750.000000 0 0 1
35.064849 -7.212394 -24.065941 43.136200 -0.202858 2.162657 0.105338 -0.013210 312429.000000 0 0 1
34.932249 -5.976394 -24.783141 43.245617 -0.169445 2.181054 0.114968 -0.019778 532908.000000 0 0 1
33.552749 -5.766494 -25.072041 42.280571 -0.170201 2.205566 0.081611 -0.009847 393977.000000 0 0 1
33.308449 -4.514794 -25.942431 42.459933 -0.134724 2.228102 0.108896 -0.036063 -24230.300000 0 0 1
33.466549 -4.814094 -27.303371 43.458710 -0.142868 2.250111 0.100045 -0.041014 270667.000000 0 0 1
33.106049 -3.754594 -28.167631 43.629381 -0.112929 2.272620 0.107240 -0.046056 50688.500000 0 0 1
32.704149 -4.142894 -29.596841 44.302347 -0.126007 2.302401 0.111687 -0.031157 32446.300000 0 0 1
32.445749 -2.951094 -30.342281 44.520665 -0.090705 2.320651 0.099556 -0.037534 99258.000000 0 0 1
31.799249 -3.317194 -31.572421 44.933437 -0.103941 2.349910 0.098014 -0.038533 -360688.000000 0 0 1
31.338149 -2.055594 -32.361811 45.095364 -0.065500 2.371190 0.092151 -0.027421 518830.000000 0 0 1
30.304749 -1.235594 -31.734841 43.897661 -0.040750 2.378827 0.061266 -0.020807 2020590.000000 0 0 1
28.949749 -1.740194 -31.663571 42.938304 -0.060039 2.400039 0.052542 -0.023138 1082030.000000 0 0 1
28.153249 -2.066594 -32.939541 43.380752 -0.073274 2.433052 0.077017 -0.029244 -800726.000000 0 0 1
28.370249 -3.386694 -33.401881 43.954822 -0.118813 2.433977 0.093132 -0.032495 343561.000000 0 0 1
27.867649 -3.543494 32.556148 43.000756 -0.126476 0.711924 0.086134 -0.027788 -235678.000000 0 0 1
28.462249 -4.747594 31.794266 42.936169 -0.165282 0.736981 0.063313 -0.022835 303294.000000 0 0 1
29.822749 -4.682794 31.360583 43.529428 -0.155749 0.766352 0.075139 -0.015113 578473.000000 0 0 1
30.029549 -3.951794 30.122375 42.717069 -0.130845 0.788147 0.087277 -0.016248 -390943.000000 0 0 1
30.685849 -2.580694 30.384335 43.260711 -0.083903 0.792097 0.073736 -0.013090 -1265870.000000 0 0 1
31.968349 -2.631294 30.871385 44.519001 -0.082124 0.804540 0.082322 -0.016657 -1150090.000000 0 0 1
32.449749 -1.361794 31.165435 45.012499 -0.041942 0.806024 0.076372 -0.009388 -126509.000000 0 0 1
33.893749 -1.449794 31.687867 46.422075 -0.042749 0.819477 0.088067 -0.017485 29567.500000 0 0 1
34.875149 -1.942994 30.810455 46.576125 -0.055655 0.847969 0.117325 -0.021572 212981.000000 0 0 1
36.184449 -1.903594 31.362835 47.922494 -0.052560 0.857342 0.132581 -0.021601 816063.000000 0 0 1
37.302249 -2.409194 30.391315 48.175658 -0.064496 0.888156 0.159327 -0.023200 211930.000000 0 0 1
37.567949 -1.735594 29.180385 47.601029 -0.046166 0.910919 0.164410 -0.017074 -443037.000000 0 0 1
-37.592381 -2.284694 28.676395 47.336482 0.060701 0.920027 0.166919 -0.029329 -121195.000000 0 0 1
-37.023581 -1.514094 27.442235 46.109807 0.040873 0.933344 0.164036 -0.033773 221602.000000 0 0 1
-37.952281 -1.527094 26.393725 46.252960 0.040216 0.963513 0.177792 -0.046949 -178759.000000 0 0 1
-37.336581 -1.045594 25.238315 45.078665 0.027997 0.976564 0.163449 -0.046852 112933.000000 0 0 1
-28.303171 14.754306 11.454559 33.911148 -0.480538 1.226237 0.193920 -0.033092 252162.000000 0 0 1
-29.473821 14.037406 11.837559 34.725822 -0.444482 1.222937 0.117696 -0.015379 426372.000000 0 0 1
-30.273531 14.883706 12.632059 36.021942 -0.456938 1.212503 0.140428 -0.017999 7129.340000 0 0 1
-31.565931 14.255306 13.189959 37.062066 -0.424187 1.206932 0.141070 -0.015751 337144.000000 0 0 1
-32.406371 15.053206 14.019259 38.383740 -0.434858 1.196906 0.127008 -0.020323 -765232.000000 0 0 1
-33.469081 14.321906 14.473959 39.176420 -0.404337 1.192373 0.143174 -0.024855 -851996.000000 0 0 1
-34.301605 15.040606 15.544459 40.551820 -0.413234 1.177405 0.124778 -0.025999 -305181.000000 0 0 1
-33.551861 15.421306 16.673659 40.516107 -0.430830 1.146662 0.095741 -0.011500 19492.700000 0 0 1
-34.331505 15.990206 17.751859 41.826635 -0.435882 1.132480 0.104430 -0.026029 11780.700000 0 0 1
-33.588901 16.418006 19.028759 41.950672 -0.454642 1.099997 0.135886 -0.016721 -231649.000000 0 0 1
-32.899891 15.352406 19.641959 41.278393 -0.436605 1.074876 0.132844 -0.018165 778820.000000 0 0 1
-31.838351 15.751506 20.567059 41.046248 -0.459426 1.045961 0.094895 -0.018336 914912.000000 0 0 1
-32.248611 16.363906 21.913759 42.284313 -0.469574 1.025995 0.113058 -0.027309 -119245.000000 0 0 1
-32.979811 17.616706 21.754859 43.258411 -0.490606 1.043840 0.110582 -0.029369 645786.000000 0 0 1
-33.482051 18.214206 22.936159 44.484519 -0.498224 1.029090 0.112616 -0.030000 -175226.000000 0 0 1
-34.371121 17.403806 23.983059 45.381202 -0.468714 1.013987 0.108972 -0.032884 334790.000000 0 0 1
-35.644894 16.977406 23.541359 45.967231 -0.444503 1.033129 0.161415 -0.028397 434705.000000 0 0 1
-36.643071 18.003206 23.508059 47.111134 -0.456674 1.048362 0.162591 -0.033041 -659614.000000 0 0 1
-38.034211 17.457806 23.241259 47.869952 -0.430315 1.063852 0.131031 -0.037967 -389483.000000 0 0 1
37.727099 16.653206 24.269159 47.850344 0.415689 1.038877 0.146153 -0.028968 122583.000000 0 0 1
36.574249 15.931006 23.867059 46.487732 0.410798 1.031648 0.182997 -0.035888 380589.000000 0 0 1
36.054209 14.928506 24.967359 46.326400 0.392566 1.001613 0.167803 -0.034817 -334690.000000 0 0 1
35.384489 15.680606 25.932659 46.588049 0.417142 0.980463 0.151903 -0.035446 15694.100000 0 0 1
34.950589 15.015306 27.128559 46.722177 0.405773 0.951287 0.152172 -0.028792 33571.700000 0 0 1
34.028339 13.824106 27.129159 45.662075 0.385885 0.934614 0.161258 -0.034490 -375107.000000 0 0 1
34.743469 12.644606 26.756859 45.639065 0.349041 0.944348 0.150597 -0.037365 497842.000000 0 0 1
33.888589 11.490806 26.707659 44.651698 0.326910 0.929627 0.146511 -0.037716 260709.000000 0 0 1
34.654949 10.230906 26.326659 44.707158 0.287068 0.941138 0.141438 -0.046628 293055.000000 0 0 1
35.704999 9.830606 27.224859 45.963907 0.268672 0.936874 0.130221 -0.038300 643016.000000 0 0 1
36.361089 8.674806 26.709759 45.943360 0.234196 0.950394 0.138146 -0.034215 -226726.000000 0 0 1
37.368379 7.994206 27.608959 47.144011 0.210753 0.945139 0.116103 -0.028583 5983.280000 0 0 1
-37.735601 8.633106 27.855859 47.691246 -0.224908 0.947041 0.100545 -0.029033 411517.000000 0 0 1
-36.763781 7.761206 28.443659 47.125934 -0.208055 0.922829 0.124187 -0.029948 254952.000000 0 0 1
-35.326117 8.267506 28.571859 46.180486 -0.229896 0.903710 0.128912 -0.031358 -255583.000000 0 0 1
-34.583476 8.406606 27.410559 44.922451 -0.238457 0.914515 0.107177 -0.020296 -18179.700000 0 0 1
-33.410671 9.161906 27.658359 44.330557 -0.267642 0.897058 0.080665 -0.011211 -296653.000000 0 0 1
-32.780761 9.843506 26.437359 43.248201 -0.291716 0.913102 0.068601 -0.009385 -218790.000000 0 0 1
-32.096841 8.996606 25.554159 42.001919 -0.273283 0.916748 0.065732 -0.007080 51026.400000 0 0 1
-31.472331 9.684606 24.491159 41.037983 -0.298523 0.931299 0.059315 -0.002398 -498399.000000 0 0 1
-30.588341 8.762306 23.717959 39.685844 -0.278988 0.930238 0.065714 -0.000114 -548386.000000 0 0 1
-29.624621 9.350606 22.893259 38.589549 -0.305740 0.935706 0.077534 -0.007181 -133792.000000 0 0 1
-29.044021 8.312106 22.070459 37.413252 -0.278739 0.939849 0.090244 -0.007855 213882.000000 0 0 1
-27.964481 8.938006 21.154259 36.185671 -0.309358 0.946405 0.093805 -0.004651 -625201.000000 0 0 1
-26.823201 9.430906 21.810959 35.834955 -0.338095 0.916438 0.087855 -0.008477 1136810.000000 0 0 1
-25.726101 10.001806 21.030359 34.700784 -0.370797 0.919713 0.081019 0.002030 1521820.000000 0 0 1
-25.050841 9.061406 19.954059 33.283903 -0.347078 0.927907 0.076150 -0.002383 -740755.000000 0 0 1
-25.801181 8.833206 18.751159 33.095807 -0.329849 0.968457 0.082420 -0.011965 228548.000000 0 0 1
-25.180421 8.127906 17.699959 31.834023 -0.312229 0.981222 0.098051 -0.031228 -391021.000000 0 0 1
-24.880851 6.602706 17.986059 31.403038 -0.259394 0.960941 0.116690 -0.037469 -1383190.000000 0 0 1
-23.728351 6.360206 18.706159 30.877293 -0.261886 0.919997 0.118600 -0.027364 -255407.000000 0 0 1
-23.516151 5.078306 19.244859 30.808491 -0.212684 0.896099 0.128592 -0.037190 -229623.000000 0 0 1
-23.457151 3.888306 18.287559 29.996528 -0.164268 0.915170 0.159566 -0.041936 -59638.300000 0 0 1
-24.755551 3.672006 17.732659 30.671944 -0.147257 0.954350 0.189774 -0.051033 838944.000000 0 0 1
-24.766251 2.628606 16.748159 30.012957 -0.105741 0.978785 0.183538 -0.048998 -52960.700000 0 0 1
-24.772751 1.160206 17.212459 30.187812 -0.046800 0.964072 0.174804 -0.045375 906052.000000 0 0 1
-23.446451 0.760306 17.641559 29.351980 -0.032416 0.926001 0.156855 -0.041497 1315170.000000 0 0 1
-23.454151 -0.474194 18.329559 29.770703 0.020215 0.907534 0.179415 -0.044514 110392.000000 0 0 1
-22.065151 -1.178994 18.471359 28.800209 0.053382 0.874524 0.180911 -0.031174 431087.000000 0 0 1
-21.214751 -0.645094 19.440859 28.782439 0.030398 0.829233 0.137711 -0.025282 -520942.000000 0 0 1
-20.057551 -1.402394 19.647559 28.112251 0.069805 0.796943 0.105882 -0.025023 135644.000000 0 0 1
-19.174651 -0.863594 20.813959 28.313140 0.045008 0.744932 0.114546 -0.019460 152648.000000 0 0 1
-19.665751 -1.051794 22.091559 29.595355 0.053433 0.728080 0.121017 -0.021780 205153.000000 0 0 1
-18.681251 -0.644694 23.074359 29.695636 0.034497 0.680865 0.113894 -0.021569 301197.000000 0 0 1
-19.294351 -0.848394 24.513559 31.207472 0.043943 0.667288 0.113979 -0.014382 198202.000000 0 0 1
-20.278051 0.018206 24.936459 32.140732 -0.000898 0.682732 0.124500 -0.025276 10439.500000 0 0 1
-21.567851 -0.147194 24.325059 32.510035 0.006825 0.725403 0.134391 -0.029765 94274.700000 0 0 1
-22.535351 0.972306 24.696659 33.447158 -0.043119 0.740134 0.113555 -0.035640 -267947.000000 0 0 1
-22.093751 2.139106 24.070359 32.742813 -0.096519 0.744932 0.105620 -0.029726 85114.900000 0 0 1
-23.168251 2.960906 23.746259 33.307951 -0.127111 0.777128 0.095728 -0.031819 -830529.000000 0 0 1
-22.570151 4.236706 23.139359 32.600480 -0.185554 0.781602 0.112325 -0.026899 274643.000000 0 0 1
-21.934151 4.141606 21.883659 31.259469 -0.186623 0.795308 0.142314 -0.032263 252471.000000 0 0 1
-20.717851 3.434706 21.863459 30.315630 -0.164291 0.765272 0.119495 -0.026635 -941849.000000 0 0 1
-20.401351 2.699106 20.511159 29.055257 -0.131536 0.787052 0.105973 -0.022657 -228451.000000 0 0 1
-19.744551 3.475006 19.552359 28.003887 -0.174214 0.797914 0.101439 -0.019908 166823.000000 0 0 1
-19.286551 2.559106 18.542959 26.876782 -0.131918 0.809411 0.116081 -0.030192 85284.500000 0 0 1
-18.781751 3.288506 17.294059 25.742046 -0.173333 0.834131 0.086685 -0.021320 1012190.000000 0 0 1
-17.390051 3.681906 17.340359 24.832607 -0.208644 0.797791 0.091279 -0.030277 1117590.000000 0 1 0
-16.999951 4.524606 16.258659 23.954423 -0.260124 0.824760 0.088331 -0.029920 566782.000000 0 1 0
-15.495051 4.946906 16.166059 22.932727 -0.309029 0.788466 0.078179 -0.025470 487090.000000 0 1 0
-15.115151 5.780806 17.265259 23.663784 -0.365287 0.753049 0.082362 -0.024538 -23129.000000 0 1 0
-15.615951 7.122406 17.373959 24.422143 -0.427914 0.779305 0.083126 -0.029716 -530384.000000 0 1 0
-15.156451 8.158606 16.335059 23.730045 -0.493810 0.811556 0.046337 -0.011206 -61154.800000 0 1 0
-15.645751 8.106506 15.001359 23.141861 -0.478045 0.865532 0.062182 -0.018524 -874265.000000 0 1 0
-16.999151 8.316606 14.835059 24.046123 -0.455000 0.905945 0.066526 -0.014015 -757944.000000 0 1 0
-17.546151 7.652206 13.510559 23.429871 -0.411251 0.956188 0.069343 -0.026811 209013.000000 0 1 0
-17.131751 6.262706 13.396759 22.631649 -0.350470 0.937323 0.048583 -0.028974 107798.000000 0 1 0
-17.735051 5.620506 12.325759 22.316954 -0.306902 0.985670 0.043112 -0.031802 -111474.000000 0 1 0
-17.273251 4.150806 12.158259 21.527137 -0.235831 0.970621 0.050923 -0.036901 -33106.000000 0 1 0
-17.786951 3.359206 13.211559 22.409935 -0.186659 0.940307 0.073358 -0.035681 418909.000000 0 1 0
-17.393951 1.984206 13.083659 21.855634 -0.113584 0.928994 0.058874 -0.039959 -576049.000000 0 1 0
-18.089451 1.164406 14.172759 23.009806 -0.064281 0.907212 0.065280 -0.038708 283889.000000 0 1 0
-19.491251 1.044106 14.034759 24.041079 -0.053517 0.947417 0.103508 -0.037460 425964.000000 0 1 0
-20.186451 0.277306 15.045059 25.177837 -0.013736 0.930352 0.139591 -0.049670 -32694.700000 0 0 1
-21.698651 0.299006 14.823659 26.280444 -0.013779 0.971506 0.154596 -0.058238 -616189.000000 0 0 1
-22.119951 -0.338894 13.610859 25.974267 0.015320 1.019240 0.173011 -0.050853 419034.000000 0 0 1
-23.522651 -0.533894 13.719959 27.236693 0.022693 1.042884 0.216518 -0.061941 62466.100000 0 0 1
-24.056651 -1.326794 12.510059 27.147457 0.055097 1.091879 0.228304 -0.069455 -281391.000000 0 0 1
-23.812651 -2.735794 12.515159 27.039899 0.114387 1.089599 0.190368 -0.055637 171400.000000 0 0 1
-24.210651 -3.346294 11.372959 26.957327 0.137346 1.135270 0.193506 -0.048901 -420887.000000 0 0 1
-24.054951 -4.832994 11.354059 27.035405 0.198275 1.137384 0.147861 -0.048035 426872.000000 0 0 1
-24.956531 -5.499294 12.275259 28.350532 0.216889 1.122998 0.142016 -0.044354 813579.000000 0 0 1
-24.801551 -6.902394 12.282959 28.524219 0.271436 1.125622 0.123824 -0.033308 107270.000000 0 0 1
-25.583591 -7.481794 13.517859 29.886951 0.284511 1.101454 0.126128 -0.029501 473846.000000 0 0 1
-26.976541 -7.235294 13.544759 31.041001 0.262040 1.119258 0.175612 -0.041830 461962.000000 0 0 1
-27.567451 -7.747894 14.777359 32.223664 0.273984 1.094392 0.172635 -0.026500 -822488.000000 0 0 1
-28.816391 -6.949894 15.156959 33.292924 0.236659 1.098131 0.189023 -0.040728 76730.300000 0 0 1
-29.963061 -7.187494 14.308759 33.973308 0.235430 1.136054 0.163006 -0.032540 1488670.000000 0 0 1
-30.647011 -8.492194 14.358559 34.893049 0.270315 1.146695 0.169693 -0.048129 54226.100000 0 0 1
-31.156351 -9.064694 15.688159 36.041715 0.283126 1.120449 0.154987 -0.041368 171754.000000 0 0 1
-30.025801 -9.539994 16.429759 35.531636 0.307639 1.090098 0.172968 -0.017137 786048.000000 0 0 1
-30.472161 -10.134394 17.608759 36.624130 0.321071 1.069233 0.152347 -0.008735 -183099.000000 0 0 1
-29.325521 -10.424394 18.572959 36.243744 0.341541 1.032766 0.169795 -0.010930 -212162.000000 0 0 1
-28.501141 -11.487794 18.160759 35.694504 0.383145 1.037026 0.157795 -0.006788 -52183.800000 0 0 1
-27.262401 -11.361994 18.838659 35.031821 0.394874 1.003020 0.141859 -0.013416 -133217.000000 0 0 1
-26.121301 -12.268794 18.399959 34.225782 0.439103 1.003202 0.112399 -0.002383 -159285.000000 0 0 1
-25.458581 -11.877494 17.175759 32.927510 0.436525 1.022044 0.107038 -0.002715 120925.000000 0 0 1
-24.597951 -12.800394 16.626659 32.331951 0.479822 1.030665 0.101051 -0.016292 -454900.000000 0 0 1
-24.208451 -12.520894 15.206559 31.209955 0.477322 1.061876 0.096006 -0.009114 -14063.400000 0 0 1
-23.219651 -11.520994 15.079859 29.988125 0.460582 1.043891 0.092265 -0.015571 -53118.500000 0 0 1
-22.806451 -11.339094 13.757359 28.947784 0.461395 1.075551 0.106933 -0.011464 -86373.600000 0 0 1
-21.555051 -10.487094 13.495659 27.508765 0.452810 1.058024 0.106004 -0.026386 -584028.000000 0 0 1
-21.694151 -9.082994 13.466059 27.101138 0.396509 1.050795 0.101450 -0.033076 220033.000000 0 0 1
-20.515251 -8.337994 13.211459 25.786436 0.386036 1.032887 0.110456 -0.042129 -71799.100000 0 0 1
-19.870951 -8.328194 11.816759 24.573345 0.396875 1.069142 0.126965 -0.043112 -371616.000000 0 1 0
-19.320951 -9.550094 11.379959 24.372257 0.459067 1.084989 0.121827 -0.047979 304264.000000 0 1 0
-18.843451 -9.432994 10.046559 23.345029 0.464126 1.125915 0.126794 -0.045973 -281072.000000 0 1 0
-18.191651 -10.771494 9.557059 23.201263 0.534599 1.146236 0.089792 -0.037613 58068.000000 0 1 0
-16.833451 -11.039094 9.764159 22.373320 0.580430 1.119181 0.109058 -0.042899 -79741.700000 0 1 0
-16.419351 -11.173694 11.155459 22.779174 0.597532 1.059026 0.116613 -0.037497 -193132.000000 0 1 0
-14.928751 -11.561394 11.250459 21.979678 0.658959 1.033451 0.120040 -0.038347 -42095.400000 0 1 0
-14.660851 -12.874394 10.837359 22.319026 0.720610 1.063786 0.116001 -0.044372 386826.000000 0 1 0
-13.265551 -13.098294 10.710259 21.499995 0.779054 1.049330 0.121802 -0.049777 472855.000000 0 1 0
-12.682351 -14.578194 10.743859 22.108737 0.854832 1.063340 0.120781 -0.048517 134328.000000 0 1 0
-12.903451 -15.257694 9.517659 22.133280 0.868803 1.126286 0.106782 -0.050211 294659.000000 0 1 0
-12.595151 -16.606394 9.744759 23.008052 0.921908 1.133450 0.101183 -0.043566 91187.500000 0 1 0
-13.078951 -17.561794 8.569859 23.514209 0.930671 1.197749 0.100459 -0.030907 -322317.000000 0 1 0
-12.358151 -17.448094 7.384859 22.620699 0.954534 1.238235 0.098123 -0.035473 -446763.000000 0 1 0
-12.852551 -18.220994 6.334659 23.180177 0.956475 1.293996 0.084362 -0.038385 387248.000000 0 1 0
-11.886151 -18.240994 5.052359 22.350409 0.993285 1.342773 0.081676 -0.031221 745690.000000 0 1 0
-12.437151 -19.064194 4.038359 23.117840 0.992748 1.395210 0.107998 -0.037810 39291.300000 0 1 0
-11.674951 -18.957794 2.866759 22.448179 1.018812 1.442741 0.126354 -0.044975 141720.000000 0 1 0
-12.166651 -19.845294 1.648359 23.336241 1.020818 1.500102 0.139940 -0.042039 -46782.600000 0 1 0
-11.776351 -21.180194 1.934659 24.311025 1.063352 1.491133 0.145836 -0.052718 -9008.840000 0 1 0
-12.199551 -22.079994 0.852559 25.240484 1.066023 1.537012 0.152207 -0.050098 -20363.900000 0 0 1
-11.335751 -22.135494 -0.454841 24.873404 1.097510 1.589084 0.165051 -0.047392 -30889.900000 0 1 0
-11.260651 -20.993394 -1.284341 23.857376 1.078462 1.624656 0.145321 -0.055959 693463.000000 0 1 0
-12.288251 -21.045794 -2.316341 24.480441 1.042313 1.665558 0.147940 -0.046695 1157920.000000 0 1 0
-13.529351 -20.172994 -1.943541 24.367404 0.980030 1.650641 0.161784 -0.046639 140601.000000 0 1 0
-14.229251 -20.444494 -0.753941 24.920219 0.962764 1.601055 0.150314 -0.046049 -383773.000000 0 1 0
-15.363751 -19.640594 -0.638141 24.944037 0.906976 1.596382 0.168725 -0.033193 -235223.000000 0 1 0
27.089349 -19.579194 -3.933741 33.654896 -0.625841 1.687949 0.129255 -0.041407 416790.000000 0 0 1
25.862849 -19.689494 -3.218741 32.663794 -0.650697 1.669498 0.099124 -0.038992 287674.000000 0 0 1
25.839649 -20.819894 -2.387941 33.269471 -0.678228 1.642634 0.086207 -0.030024 652933.000000 0 0 1
24.382349 -21.143194 -1.900641 32.328719 -0.714368 1.629621 0.081354 -0.023705 812013.000000 0 0 1
23.561149 -21.733094 -2.878241 32.182905 -0.745061 1.660350 0.095015 -0.031234 -596976.000000 0 0 1
22.303949 -22.072394 -2.388241 31.469992 -0.780180 1.646759 0.077787 -0.023036 -707974.000000 0 0 1
21.355049 -22.599894 -3.435941 31.282567 -0.813712 1.680854 0.086631 -0.025546 -526950.000000 0 0 1
20.887749 -21.644494 -4.302541 30.385754 -0.803189 1.712871 0.079675 -0.029740 -538327.000000 0 0 1
19.973049 -22.259694 -5.186841 30.353253 -0.839489 1.742522 0.075814 -0.025786 -296135.000000 0 0 1
18.872649 -21.278294 -5.619041 28.991659 -0.845242 1.765847 0.065811 -0.017136 503646.000000 0 0 1
17.758249 -21.085294 -4.713041 27.967084 -0.870842 1.740125 0.073239 -0.012383 863228.000000 0 0 1
18.111949 -20.347194 -3.549141 27.470846 -0.843453 1.700355 0.066305 -0.022537 -256755.000000 0 0 1
16.888849 -19.910794 -2.685841 26.246651 -0.867333 1.673307 0.070061 -0.005792 139232.000000 0 0 1
16.298649 -20.952494 -1.956541 26.617307 -0.909686 1.644369 0.066745 -0.017656 -125403.000000 0 0 1
15.336749 -20.298394 -1.145141 25.466685 -0.923743 1.615778 0.063115 -0.004750 -382010.000000 0 0 1
15.098649 -20.827294 0.274159 25.725873 -0.943524 1.560139 0.068134 -0.010812 -190067.000000 0 0 1
14.403749 -22.033594 0.341159 26.326102 -0.991812 1.557837 0.058540 -0.012974 -345137.000000 0 0 1
13.647049 -22.046294 1.532559 25.973636 -1.016510 1.511758 0.037994 -0.020063 -742786.000000 0 0 1
12.664249 -23.203394 1.565059 26.480750 -1.071189 1.511660 0.046760 -0.027992 -361471.000000 0 0 1
13.226249 -24.512494 1.763759 27.908903 -1.075995 1.507557 0.062215 -0.022308 98936.300000 0 0 1
12.489149 -25.553514 1.167959 28.466209 -1.116193 1.529755 0.054208 -0.016235 94586.200000 0 0 1
12.956549 -26.856104 1.842059 29.875001 -1.121292 1.509098 0.060834 -0.018201 329377.000000 0 0 1
12.447949 -26.938004 3.163059 29.843130 -1.137929 1.464607 0.073664 -0.028974 197949.000000 0 0 1
13.118749 -27.976104 3.816359 31.134042 -1.132315 1.447909 0.069178 -0.033515 141567.000000 0 0 1
12.472049 -28.343564 5.156159 31.392604 -1.156263 1.405801 0.075094 -0.033920 39748.700000 0 0 1
13.329449 -29.315414 5.735759 32.710345 -1.144048 1.394535 0.079228 -0.038590 -31246.000000 0 0 1
12.990249 -29.697694 7.050359 33.172386 -1.158456 1.356626 0.085702 -0.036017 -595503.000000 0 0 1
14.031249 -30.502534 7.822959 34.474327 -1.139655 1.341881 0.093283 -0.031790 -352424.000000 0 0 1
13.645549 -30.841464 9.151259 34.944849 -1.154246 1.305830 0.087263 -0.025373 533303.000000 0 0 1
12.661449 -31.896074 9.295659 35.553918 -1.192914 1.306270 0.077837 -0.028943 673717.000000 0 0 1
12.403949 -32.166544 10.744759 36.110862 -1.202751 1.268672 0.082469 -0.021010 -410500.000000 0 0 1
13.491249 -32.802204 11.354559 37.241434 -1.180594 1.260973 0.084342 -0.024977 -79592.300000 0 0 1
13.411949 -32.963484 12.731959 37.796487 -1.184379 1.227221 0.099112 -0.011294 -238545.000000 0 0 1
12.369449 33.456960 13.278759 38.061751 1.216669 1.214427 0.100162 -0.024153 -69256.500000 0 0 1
12.482549 32.147255 12.767459 36.773197 1.200423 1.216218 0.107205 -0.032895 1050170.000000 0 0 1
11.283449 31.419163 13.152059 35.881146 1.226014 1.195503 0.100850 -0.027912 972910.000000 0 0 1
11.001249 30.162130 12.275159 34.372388 1.221053 1.205611 0.118137 -0.029696 -106190.000000 0 0 1
10.817249 30.328970 10.858559 33.981871 1.228197 1.245553 0.105465 -0.034661 137933.000000 0 0 1
11.884549 30.931160 10.155459 34.657070 1.203962 1.273405 0.075758 -0.026543 -61505.800000 0 0 1
11.419749 31.415300 8.760859 34.555526 1.222138 1.314469 0.066021 -0.022965 321427.000000 0 0 1
10.277549 32.244365 8.847759 34.980136 1.262237 1.315082 0.072454 -0.024061 679994.000000 0 0 1
9.470949 32.333947 7.615659 34.542456 1.285856 1.348498 0.068524 -0.028486 217217.000000 0 0 1
9.820149 33.482310 6.591259 35.509789 1.285503 1.384095 0.073380 -0.017646 -181412.000000 0 0 1
9.553649 -32.604604 7.102059 34.709821 -1.285760 1.364729 0.066605 -0.017250 192308.000000 0 0 1
9.849949 -31.558274 6.170359 33.630633 -1.268258 1.386277 0.084654 -0.032737 -169101.000000 0 0 1
9.175149 -30.264344 6.629059 32.311891 -1.276437 1.364171 0.063069 -0.025772 -12164.800000 0 0 1
9.700249 -29.792694 7.872159 32.305887 -1.256029 1.324642 0.076729 -0.030637 341977.000000 0 0 1
8.878849 -28.774174 8.411259 31.265577 -1.271496 1.298415 0.087662 -0.027422 208045.000000 0 0 1
9.360949 -27.318244 7.968359 29.956778 -1.240673 1.301560 0.102314 -0.032955 296496.000000 0 0 1
10.412949 -26.746814 8.754259 30.007643 -1.199535 1.274757 0.097778 -0.025657 519861.000000 0 0 1
11.226749 -25.723404 8.195659 29.238711 -1.159275 1.286688 0.081890 -0.036670 58363.100000 0 0 1
10.589349 -24.627794 7.312559 27.787337 -1.164719 1.304498 0.092425 -0.035611 -625787.000000 0 0 1
10.248949 -25.112714 6.063859 27.793160 -1.183311 1.350849 0.092842 -0.035014 -175474.000000 0 0 1
9.525949 -24.227194 5.228559 26.552560 -1.196172 1.372587 0.095693 -0.029403 280042.000000 0 0 1
9.204749 -24.809994 3.824159 26.737378 -1.215529 1.427277 0.067373 -0.022668 808296.000000 0 0 1
8.251549 -25.905994 3.784059 27.450459 -1.262437 1.432505 0.051872 -0.023421 188512.000000 0 0 1
8.828549 -27.161524 4.047159 28.845644 -1.256529 1.430028 0.046355 -0.019321 -148489.000000 0 0 1
7.905349 -28.352944 3.755859 29.673059 -1.298883 1.443881 0.047683 -0.020460 -275534.000000 0 0 1
6.720449 -28.298544 4.519659 29.434662 -1.337632 1.416638 0.052656 -0.019023 328316.000000 0 0 1
5.674849 -29.232974 4.150759 30.066584 -1.379056 1.432302 0.048433 -0.018142 839445.000000 0 0 1
5.828849 -30.747914 4.411459 31.604915 -1.383450 1.430758 0.042815 -0.015265 -929923.000000 0 0 1
6.761049 -31.278194 3.557559 32.197724 -1.357913 1.460079 0.041014 -0.009660 -644954.000000 0 0 1
7.027249 -32.628934 3.908459 33.605143 -1.358668 1.454227 0.053647 -0.013581 -332252.000000 0 0 1
8.060949 -33.312264 3.026659 34.407070 -1.333379 1.482716 0.066489 -0.014282 -204741.000000 0 0 1
7.608749 -33.594504 1.719359 34.488258 -1.348066 1.520922 0.068669 -0.012017 -349103.000000 0 0 1
8.492449 32.909499 1.173559 34.007853 1.318251 1.536281 0.062416 -0.012362 -585639.000000 0 0 1
8.007049 32.375232 -0.228741 33.351474 1.328341 1.577655 0.084915 -0.012912 105218.000000 0 0 1
6.836449 31.605141 -0.263441 32.337151 1.357770 1.578943 0.072383 -0.009729 -946646.000000 0 0 1
5.660249 32.368536 -0.409341 32.862260 1.397678 1.583253 0.075531 -0.013430 -689549.000000 0 0 1
4.528349 31.420747 -0.028341 31.745394 1.427662 1.571689 0.075196 -0.013817 -556794.000000 0 0 1
4.539849 30.377820 -0.986841 30.731027 1.422448 1.602914 0.087185 -0.017732 -25994.800000 0 0 1
3.450049 29.491920 -0.810141 29.704082 1.454343 1.598073 0.087612 -0.025955 62159.000000 0 0 1
3.185949 28.527490 -1.961241 28.771764 1.459577 1.639015 0.091030 -0.016807 -320798.000000 0 0 1
2.674149 29.199120 -3.097041 29.484425 1.479468 1.676030 0.093323 -0.032304 58599.800000 0 0 1
2.507349 28.190510 -4.163941 28.606468 1.482087 1.716875 0.093214 -0.037561 -248629.000000 0 0 1
2.121849 28.817900 -5.528041 29.419939 1.497299 1.759821 0.102549 -0.042512 -594706.000000 0 0 1
0.922649 29.520610 -5.479641 30.039043 1.539552 1.754241 0.112035 -0.045154 -482294.000000 0 0 1
0.686849 30.364220 -6.591741 31.079071 1.548180 1.784515 0.110714 -0.041509 -233701.000000 0 0 1
0.692149 29.761150 -8.033241 30.834040 1.547544 1.834369 0.124649 -0.040506 -944728.000000 0 0 1
-0.335951 28.954000 -8.534841 30.187588 -1.559194 1.857432 0.140015 -0.037558 -213464.000000 0 0 1
-0.455051 28.793250 -9.930841 30.461121 -1.554994 1.902884 0.137981 -0.038700 49284.300000 0 0 1
-0.660251 29.985760 -10.951441 31.929857 -1.548781 1.920888 0.131816 -0.037846 340030.000000 0 0 1
0.586049 30.651120 -11.124941 32.612864 1.551679 1.918906 0.117297 -0.029732 262317.000000 0 0 1
0.449749 32.016730 -11.474941 34.013931 1.556750 1.914907 0.111873 -0.029289 79113.100000 0 0 1
-0.013751 32.927349 -10.317541 34.505972 -1.570379 1.874449 0.112494 -0.041189 707572.000000 0 0 1
1.035549 33.096340 -9.331241 34.402211 1.539518 1.845477 0.103175 -0.046018 579470.000000 0 0 1
0.598149 -33.611174 -8.204741 34.603274 -1.553002 1.810185 0.106501 -0.041086 530515.000000 0 0 1
1.796149 -33.393224 -7.190241 34.205747 -1.517060 1.782582 0.101510 -0.040699 996499.000000 0 0 1
2.847849 -32.660174 -7.801141 33.699481 -1.483820 1.804407 0.096449 -0.041774 -299983.000000 0 0 1
3.752549 -32.203744 -6.834941 33.134260 -1.454794 1.778568 0.092766 -0.045080 -731244.000000 0 0 1
5.008049 -31.510634 -7.401041 32.753259 -1.413183 1.798728 0.076284 -0.038543 658404.000000 0 0 1
5.888549 -32.284894 -8.270841 33.843702 -1.390386 1.817680 0.079075 -0.036874 658807.000000 0 0 1
6.648349 -33.231984 -7.564041 34.724343 -1.373344 1.790388 0.089931 -0.026208 -1098250.000000 0 0 1
6.885649 32.877191 -8.281041 34.596206 1.364345 1.812506 0.083994 -0.028883 421352.000000 0 0 1
5.826449 31.919200 -8.335141 33.500110 1.390247 1.822247 0.072955 -0.030772 -159763.000000 0 0 1
4.768149 32.193573 -9.207441 33.822157 1.423757 1.846507 0.079224 -0.039119 36337.100000 0 0 1
3.947449 30.919300 -9.621541 32.621457 1.443814 1.870194 0.082191 -0.040369 140958.000000 0 0 1
4.550749 30.065580 -10.573541 32.193915 1.420576 1.905440 0.073492 -0.037983 252395.000000 0 0 1
3.833549 28.811630 -10.561941 30.925082 1.438518 1.919344 0.079733 -0.041605 337697.000000 0 0 1
4.570949 27.741240 -11.394141 30.336387 1.407493 1.955833 0.074855 -0.044557 -95076.600000 0 0 1
4.485649 27.987810 -12.755641 31.082872 1.411876 1.993662 0.083244 -0.041185 -156101.000000 0 0 1
5.782249 28.158510 -13.266341 31.659625 1.368265 2.003173 0.067265 -0.042234 -258544.000000 0 0 1
5.693249 28.853080 -14.624241 32.844812 1.375980 2.032253 0.064096 -0.033274 -329096.000000 0 0 1
4.924949 28.050750 -15.478041 32.414031 1.396995 2.068615 0.081507 -0.034152 -10902.700000 0 0 1
4.933049 28.675420 -16.742341 33.569639 1.400433 2.092935 0.092179 -0.023752 212822.000000 0 0 1
3.828849 28.146200 -17.684041 33.460334 1.435592 2.127638 0.088470 -0.033253 335143.000000 0 0 1
4.246849 26.900190 -18.179041 32.743449 1.414214 2.159395 0.096034 -0.023652 47049.600000 0 0 1
3.325449 26.530630 -19.166241 32.897989 1.446103 2.192716 0.097120 -0.038005 256692.000000 0 0 1
3.914249 25.318250 -19.901441 32.440753 1.417409 2.231244 0.109633 -0.037541 387142.000000 0 0 1
3.795249 24.143480 -19.093841 31.014292 1.414877 2.234002 0.109568 -0.047792 33083.300000 0 0 1
4.754949 23.171740 -19.492241 30.651044 1.368401 2.260023 0.107045 -0.044295 415874.000000 0 0 1
4.982449 21.969450 -18.614241 29.222790 1.347779 2.261367 0.131413 -0.042606 385444.000000 0 0 1
3.968649 20.988850 -18.813441 28.464496 1.383919 2.292872 0.135311 -0.040068 -72963.100000 0 0 1
4.308449 19.779050 -18.181941 27.209493 1.356318 2.302611 0.134921 -0.036462 -102305.000000 0 0 1
3.203749 18.722850 -18.136441 26.262894 1.401323 2.333077 0.114956 -0.040733 -370006.000000 0 0 1
2.139949 18.903450 -17.252241 25.681892 1.458072 2.307388 0.112012 -0.024339 -819910.000000 0 0 1
1.479249 17.737650 -16.960041 24.585674 1.487593 2.332056 0.070457 -0.016351 -718935.000000 0 1 0
2.008149 16.884450 -15.765441 23.187635 1.452418 2.318432 0.076751 -0.015437 285335.000000 0 1 0
3.174949 16.124850 -16.098041 23.005173 1.376385 2.345854 0.084539 -0.027044 -81635.100000 0 1 0
3.043249 14.955250 -16.956341 22.813118 1.370047 2.408744 0.093074 -0.031456 -389608.000000 0 1 0
3.162949 15.209950 -18.492141 24.151730 1.365766 2.442871 0.093874 -0.028507 346487.000000 0 1 0
4.391849 15.809450 -18.944341 25.062224 1.299830 2.427812 0.127140 -0.037061 352940.000000 0 0 1
4.378849 16.123650 -20.336841 26.319831 1.305613 2.453851 0.119879 -0.043545 -332311.000000 0 0 1
4.667149 14.915750 -21.317341 26.432762 1.267546 2.508961 0.129019 -0.053957 696740.000000 0 0 1
3.573649 13.999850 -21.443041 25.856735 1.320870 2.548654 0.112974 -0.044451 606516.000000 0 0 1
2.411049 14.432050 -22.131341 26.530990 1.405263 2.557421 0.110358 -0.047043 479110.000000 0 0 1
1.434849 13.309050 -22.563741 26.235701 1.463401 2.606144 0.095813 -0.039035 283838.000000 0 0 1
0.747849 12.487750 -21.647341 25.002210 1.510981 2.617577 0.089273 -0.027845 -101040.000000 0 0 1
0.138149 11.440950 -22.303341 25.066979 1.558722 2.667593 0.049061 -0.018007 -203365.000000 0 0 1
-0.552851 10.396550 -21.387241 23.786718 -1.517670 2.688563 0.025415 -0.013779 -563198.000000 0 1 0
-1.536851 10.961250 -20.579141 23.366898 -1.431497 2.648126 0.026532 -0.013732 -288291.000000 0 1 0
-2.009351 10.097250 -19.529741 22.077199 -1.374363 2.656456 0.020139 -0.011246 438158.000000 0 1 0
-3.203151 9.189950 -19.908241 22.159725 -1.235414 2.686903 0.023806 -0.008022 -206819.000000 0 1 0
-2.746851 8.191950 -20.786541 22.510742 -1.247267 2.747656 0.019269 -0.005326 -24313.800000 0 1 0
-3.706051 7.168150 -21.026741 22.522012 -1.093628 2.775152 0.031817 -0.007944 -7180.550000 0 1 0
-3.074451 5.917250 -21.695641 22.697289 -1.091612 2.843401 0.040359 -0.019790 201065.000000 0 1 0
-2.295251 5.103050 -20.807641 21.546861 -1.148125 2.878893 0.035822 -0.015851 289797.000000 0 1 0
-1.605551 4.127650 -21.526941 21.977817 -1.199831 2.938686 0.066524 -0.018979 -265674.000000 0 1 0
-0.824451 2.939050 -20.950641 21.171846 -1.297309 2.996911 0.061928 -0.016426 -1748850.000000 0 1 0
0.436149 3.265650 -20.600941 20.862729 1.438025 2.983009 0.059605 -0.026038 -1673770.000000 0 1 0
1.027249 2.212650 -19.814141 19.963748 1.136146 3.019091 0.057614 -0.023215 404622.000000 0 1 0
2.577149 2.268150 -19.869041 20.163457 0.721711 2.970495 0.053274 -0.025800 159472.000000 0 1 0
3.237149 1.761950 -21.011441 21.332235 0.498449 2.967950 0.072053 -0.029147 -1547260.000000 0 1 0
4.579949 1.968050 -20.853041 21.440580 0.405853 2.906947 0.093132 -0.031991 -1519410.000000 0 1 0
5.328349 1.288650 -21.978141 22.651503 0.237291 2.897152 0.083676 -0.026212 355744.000000 0 1 0
6.750749 1.220550 -21.805341 22.859030 0.178870 2.836786 0.095999 -0.036199 606812.000000 0 1 0
7.278549 0.710450 -22.986741 24.122029 0.097300 2.833572 0.101428 -0.032124 -122475.000000 0 1 0
8.803249 0.527350 -22.954941 24.590742 0.059832 2.774791 0.090425 -0.036267 246948.000000 0 1 0
9.636849 1.681550 -23.111341 25.096425 0.172752 2.741184 0.079744 -0.038377 2367930.000000 0 0 1
11.066149 1.313750 -23.005041 25.562032 0.118165 2.690495 0.088168 -0.036106 2058070.000000 0 0 1
13.213449 -19.829194 22.899245 33.047959 -0.983004 0.805280 0.120144 -0.020677 -290732.000000 0 0 1
13.138649 -21.147594 22.373915 33.472928 -1.014874 0.838716 0.124737 -0.016635 59382.100000 0 0 1
12.043749 -21.240994 21.478065 32.519825 -1.054991 0.849364 0.115493 -0.005859 67662.900000 0 0 1
12.332649 -20.770894 20.000665 31.361615 -1.034988 0.879231 0.139529 -0.028529 -50920.000000 0 0 1
12.176049 -19.372094 19.816065 30.268971 -1.009659 0.857056 0.176026 -0.034172 17897.600000 0 0 1
12.178649 -19.156094 18.423765 29.235433 -1.004498 0.889003 0.177159 -0.034506 2031.320000 0 0 1
12.088049 -17.701994 18.100665 28.055580 -0.971664 0.869548 0.205387 -0.048768 736154.000000 0 0 1
10.849149 -17.050094 18.427265 27.349110 -1.004105 0.831485 0.227454 -0.047511 188498.000000 0 0 1
10.771249 -15.763794 17.994465 26.235811 -0.971373 0.814992 0.245003 -0.046283 -67435.500000 0 0 1
9.542849 -15.078294 18.587765 25.766760 -1.006546 0.764996 0.207434 -0.046843 -1100350.000000 0 0 1
8.354849 -15.458294 18.029165 25.175646 -1.075294 0.772547 0.147983 -0.033887 -1770160.000000 0 0 1
7.298649 -14.781294 18.652665 24.893349 -1.112140 0.723787 0.111137 -0.025940 228382.000000 0 1 0
5.940849 -15.341294 18.119965 24.474111 -1.201333 0.737172 0.043131 -0.007845 -159428.000000 0 1 0
5.782049 -15.030194 16.772265 23.251832 -1.203553 0.765074 0.032591 -0.021273 514674.000000 0 1 0
4.466349 -15.256994 16.242365 22.727485 -1.286012 0.774662 0.010920 -0.021612 682947.000000 0 1 0
4.020449 -16.726394 16.202765 23.631882 -1.334906 0.815325 -0.001577 -0.008741 -748613.000000 0 1 0
2.627149 -16.873794 16.111165 23.477574 -1.416342 0.814494 0.009430 -0.002676 -495977.000000 0 1 0
2.219049 -18.200594 15.908865 24.275044 -1.449473 0.856139 0.027400 -0.012247 -18870.800000 0 1 0
0.750549 -18.224494 15.460365 23.910633 -1.529636 0.867691 0.037899 -0.005814 -256922.000000 0 1 0
0.464949 -17.691294 14.180265 22.677698 -1.544521 0.895286 0.044650 -0.019601 366659.000000 0 1 0
-0.920351 -17.690494 13.828665 22.472930 1.518818 0.907969 0.059610 -0.019791 624744.000000 0 1 0
-1.491351 -19.021094 13.242665 23.224864 1.492551 0.964055 0.056915 -0.005994 -922705.000000 0 1 0
-2.866051 -18.968094 13.035365 23.193179 1.420832 0.973953 0.059523 -0.017532 -607281.000000 0 1 0
-3.279551 -20.119694 12.309365 23.813400 1.409215 1.027560 0.085928 -0.030865 -489834.000000 0 1 0
-4.794451 -20.238394 12.219765 24.122645 1.338186 1.039596 0.070690 -0.035680 -527558.000000 0 1 0
-5.325851 -20.795594 13.379465 25.294891 1.320080 1.013446 0.073543 -0.035654 -833532.000000 0 0 1
-6.707451 -20.923294 13.310765 25.689503 1.260573 1.026121 0.077833 -0.039502 -570173.000000 0 0 1
-7.305451 -21.955994 14.338365 27.221756 1.249588 1.016054 0.071812 -0.032445 601665.000000 0 0 1
-8.726751 -21.881694 14.429965 27.625868 1.191312 1.021209 0.082407 -0.033655 204548.000000 0 0 1
-9.229551 -22.604494 15.508865 28.925294 1.183150 1.004904 0.076255 -0.023201 -860388.000000 0 0 1
-10.698451 -22.300094 15.667065 29.278114 1.123480 1.006156 0.106079 -0.034463 -796764.000000 0 0 1
-10.984251 -20.938794 16.055265 28.580734 1.087672 0.974295 0.093708 -0.034476 -908008.000000 0 0 1
-12.245051 -20.577394 15.594665 28.575584 1.034008 0.993532 0.092085 -0.024545 -568255.000000 0 0 1
-12.679751 -19.181294 16.104265 28.072147 0.986694 0.959812 0.096779 -0.030470 -132848.000000 0 0 1
-12.782351 -19.201094 17.511265 28.960575 0.983457 0.921459 0.097663 -0.040090 -181320.000000 0 0 1
-13.192651 -18.018194 18.105165 28.748884 0.938795 0.889540 0.098423 -0.045506 -3537.400000 0 0 1
-13.717651 -18.307994 19.581065 30.112700 0.927762 0.862871 0.093865 -0.041534 -42209.700000 0 0 1
-14.977751 -18.918994 19.644465 31.115372 0.901150 0.887513 0.092699 -0.037308 -301158.000000 0 0 1
-15.148751 -19.532894 20.875365 32.354280 0.911142 0.869496 0.082610 -0.035171 -616484.000000 0 0 1
-16.532551 -20.152494 20.869265 33.391233 0.883756 0.895675 0.092698 -0.037733 -1195800.000000 0 0 1
-16.634851 -21.214094 19.964065 33.545788 0.905800 0.933370 0.094989 -0.040529 -52302.600000 0 0 1
-17.892651 -21.219294 19.338965 33.828996 0.870248 0.962259 0.098573 -0.035131 382736.000000 0 0 1
-19.077651 -21.864794 20.133365 35.318244 0.853368 0.964223 0.098178 -0.031664 -55961.900000 0 0 1
-19.661951 -21.054794 21.163165 35.745996 0.819593 0.937205 0.094090 -0.035076 -89465.000000 0 0 1
-20.512251 -21.847694 21.954965 37.149625 0.816914 0.938514 0.093082 -0.027133 -277710.000000 0 0 1
-20.873151 -21.082594 23.197295 37.660041 0.790390 0.907185 0.076043 -0.018058 187514.000000 0 0 1
-21.948051 -20.236694 22.769395 37.545786 0.744852 0.919216 0.100283 -0.014426 204012.000000 0 0 1
-22.164751 -19.140094 23.638145 37.634841 0.712301 0.891697 0.093072 -0.015131 -32330.200000 0 0 1
-23.338351 -18.270894 23.185885 37.630964 0.664208 0.906966 0.113407 -0.024655 -4735.590000 0 0 1
-23.018751 -17.722694 21.902665 36.382461 0.656131 0.924778 0.103861 -0.017727 257473.000000 0 0 1
-23.967351 -16.705494 21.564065 36.311380 0.608717 0.934942 0.109632 -0.022628 252163.000000 0 0 1
-23.674251 -16.206694 20.142065 35.054669 0.600295 0.958693 0.110720 -0.020675 -283749.000000 0 0 1
-22.462051 -15.519894 20.051765 33.874535 0.604618 0.937330 0.107080 -0.019135 -701506.000000 0 0 1
-22.238451 -15.071694 18.722465 32.745005 0.595624 0.962140 0.095257 -0.015311 -256251.000000 0 0 1
-21.166951 -14.022894 18.495365 31.412734 0.585106 0.941241 0.081381 -0.030249 -258311.000000 0 0 1
-20.811951 -14.008494 17.156365 30.392697 0.592442 0.970981 0.076081 -0.025387 -199002.000000 0 0 1
-19.887851 -12.958294 16.953765 29.169747 0.577477 0.950581 0.082344 -0.034839 -450632.000000 0 0 1
-19.635351 -12.812394 15.438065 28.072020 0.578142 0.988498 0.084445 -0.039278 191698.000000 0 0 1
-18.948951 -11.618794 15.046465 26.841297 0.550042 0.975721 0.082360 -0.034782 -212903.000000 0 0 1
-17.587951 -11.465694 15.334965 25.999217 0.577714 0.939955 0.113516 -0.057296 -738065.000000 0 0 1
-17.066651 -10.268394 14.554565 24.668722 0.541642 0.939737 0.105215 -0.052491 -330048.000000 0 1 0
-17.461951 -9.014894 14.996465 24.720073 0.476570 0.918955 0.122764 -0.045555 114691.000000 0 1 0
-16.922751 -7.917694 14.265965 23.507172 0.437617 0.918671 0.112053 -0.042281 -559959.000000 0 1 0
-17.198551 -6.624594 15.173665 23.872903 0.367668 0.882008 0.119160 -0.028318 743979.000000 0 1 0
-16.362351 -6.542894 16.350665 24.039139 0.380399 0.822804 0.106906 -0.027793 -921668.000000 0 1 0
-15.053451 -6.242394 16.114565 22.918400 0.393099 0.791010 0.096005 -0.033225 -1737160.000000 0 1 0
-14.163351 -6.047194 17.349265 23.198406 0.403530 0.725957 0.077110 -0.037371 -60898.800000 0 1 0
-14.108251 -7.132394 18.242365 24.139131 0.468076 0.714047 0.070634 -0.037975 41008.800000 0 1 0
-13.600151 -8.361294 17.771165 23.889111 0.551227 0.731906 0.070725 -0.038531 -661119.000000 0 1 0
-13.537851 -9.434694 18.889765 25.082067 0.608651 0.718007 0.077189 -0.047464 732260.000000 0 0 1
-14.783351 -10.068394 19.230465 26.262726 0.597903 0.749200 0.081325 -0.050168 516554.000000 0 0 1
-15.663251 -9.257994 19.989765 27.030327 0.533823 0.738423 0.075158 -0.042707 192328.000000 0 0 1
-17.070151 -9.991394 20.241465 28.300793 0.529551 0.773849 0.078134 -0.028304 1916020.000000 0 0 1
-17.972451 -10.049194 19.088765 28.078038 0.509837 0.823243 0.093189 -0.030039 827669.000000 0 0 1
-18.388151 -8.724894 18.629365 27.591685 0.443028 0.829587 0.094278 -0.027126 -368750.000000 0 0 1
-19.549151 -8.599594 17.585565 27.665401 0.414420 0.881944 0.111498 -0.027143 452194.000000 0 0 1
-20.820551 -8.804894 18.165565 29.000159 0.400086 0.893876 0.119910 -0.020184 -358131.000000 0 0 1
-21.802251 -8.646894 17.195265 29.082367 0.377577 0.938175 0.135708 -0.014934 -468660.000000 0 0 1
-23.271751 -8.940594 17.515365 30.467960 0.366796 0.958341 0.108481 -0.004651 82148.000000 0 0 1
-23.898751 -7.815694 18.187065 31.032317 0.316070 0.944598 0.130698 -0.005965 761959.000000 0 0 1
-25.314201 -7.957794 18.095665 32.118349 0.304579 0.972294 0.129672 -0.001335 455957.000000 0 0 1
-26.088021 -6.803494 18.812965 32.875523 0.255108 0.961551 0.151044 -0.015675 -230726.000000 0 0 1
-26.116881 -6.949794 20.204165 33.743138 0.260077 0.928840 0.159294 -0.023275 498625.000000 0 0 1
-27.018221 -6.088794 20.919065 34.708283 0.221656 0.923902 0.148667 -0.026013 -457425.000000 0 0 1
-27.149491 -6.327294 22.416255 35.771748 0.228967 0.893553 0.149593 -0.025055 250851.000000 0 0 1
-26.015471 -6.029394 23.216865 35.386171 0.227741 0.855157 0.156958 -0.035583 -1441.070000 0 0 1
-24.907351 -6.882394 23.071025 34.641242 0.269593 0.841964 0.162494 -0.032135 -433254.000000 0 0 1
-23.954751 -6.739494 24.309625 34.788054 0.274253 0.797089 0.161550 -0.024773 12550.500000 0 0 1
-23.460451 -5.418894 24.258115 34.179135 0.226999 0.781675 0.132987 -0.022334 37155.300000 0 0 1
-22.549051 -5.150394 25.320275 34.294352 0.224556 0.740217 0.119646 -0.026051 83642.900000 0 0 1
-21.949151 -3.739094 25.137535 33.580377 0.168733 0.724881 0.113809 -0.022017 139657.000000 0 0 1
-20.943851 -3.371994 26.083215 33.620668 0.159632 0.682800 0.091428 -0.026106 20994.900000 0 0 1
-21.320551 -3.252094 27.453285 34.911672 0.151367 0.665895 0.105296 -0.036239 -570624.000000 0 0 1
-22.206751 -2.103194 27.865425 35.693768 0.094428 0.675043 0.109171 -0.044629 -975830.000000 0 0 1
-23.461151 -2.202794 27.303005 36.065662 0.093617 0.712032 0.116293 -0.047612 -1320880.000000 0 0 1
-24.291851 -1.152694 27.777255 36.918811 0.047416 0.719117 0.089916 -0.034756 -114634.000000 0 0 1
-25.565731 -1.018094 26.974565 37.178895 0.039802 0.758986 0.086263 -0.032467 -1005320.000000 0 0 1
-25.262051 -0.362394 25.750625 36.074883 0.014344 0.775872 0.077047 -0.030493 688628.000000 0 0 1
-26.398641 0.068106 24.961775 36.331571 -0.002580 0.813369 0.108142 -0.030163 760108.000000 0 0 1
-27.331611 -1.061394 24.427425 36.672095 0.038814 0.841823 0.103348 -0.029202 -315382.000000 0 0 1
-28.259441 -1.599194 25.334025 37.986395 0.056529 0.840724 0.081093 -0.020477 -28845.200000 0 0 1
-28.739821 -2.913394 25.043225 38.231247 0.101026 0.856553 0.070678 -0.024724 226784.000000 0 0 1
-27.775381 -4.123094 25.248345 37.761761 0.147368 0.838442 0.092722 -0.029837 175909.000000 0 0 1
-27.342301 -4.350994 26.579435 38.379668 0.157807 0.805793 0.071304 -0.029320 277737.000000 0 0 1
-26.491491 -5.515094 26.600265 37.944557 0.205252 0.793956 0.101283 -0.037161 265088.000000 0 0 1
-26.063411 -5.985794 27.991455 38.712435 0.225748 0.762573 0.070005 -0.030253 475338.000000 0 0 1
-27.220951 -6.455594 28.675225 40.061495 0.232854 0.773056 0.082197 -0.028412 521683.000000 0 0 1
-26.848261 -7.094094 29.881225 40.792682 0.258325 0.748788 0.075970 -0.024324 -1180650.000000 0 0 1
-28.036881 -7.418194 30.768115 42.282067 0.258660 0.755852 0.067735 -0.019346 -560359.000000 0 0 1
-28.983771 -8.221794 30.072855 42.567986 0.276408 0.786303 0.058526 -0.021442 -183552.000000 0 0 1
-30.154671 -8.291794 30.850045 43.929299 0.268343 0.792221 0.078101 -0.023817 252720.000000 0 0 1
-31.322521 -8.962994 30.043825 44.317795 0.278704 0.825870 0.063262 -0.029931 77891.700000 0 0 1
-30.961931 -10.311394 29.824635 44.209443 0.321482 0.830345 0.069457 -0.028866 616119.000000 0 0 1
-31.882351 -11.033694 28.994265 44.484762 0.333174 0.860868 0.051053 -0.030406 202396.000000 0 0 1
-31.173251 -12.221194 28.307295 43.845548 0.373626 0.868969 0.057131 -0.033469 -616876.000000 0 0 1
-30.327751 -11.870194 27.305375 42.500088 0.373068 0.873069 0.072556 -0.033309 -540472.000000 0 0 1
-29.578341 -13.011794 26.921975 42.059217 0.414431 0.876172 0.079142 -0.028718 -939279.000000 0 0 1
-28.271651 -12.736794 26.212575 40.603094 0.423282 0.869013 0.111602 -0.043383 256277.000000 0 0 1
-27.167171 -12.154394 26.989355 40.177229 0.420684 0.834218 0.101099 -0.043402 1113820.000000 0 0 1
-27.313201 -10.907594 27.670045 40.380910 0.379948 0.815883 0.103079 -0.046190 -934982.000000 0 0 1
-27.470311 -9.604594 26.777545 39.546215 0.336350 0.826954 0.101022 -0.032300 1074800.000000 0 0 1
-26.289931 -9.220894 26.005635 38.111394 0.337333 0.819812 0.100784 -0.033836 1082730.000000 0 0 1
-25.826981 -10.049894 24.955695 37.293699 0.371095 0.837710 0.100335 -0.034276 -156582.000000 0 0 1
-26.672711 -10.015494 23.645395 37.024969 0.359205 0.878075 0.110986 -0.025363 -352471.000000 0 0 1
-27.892761 -10.691594 23.769495 38.174667 0.366037 0.898670 0.100941 -0.030632 -576345.000000 0 0 1
-28.510651 -10.758494 22.519665 37.891130 0.360829 0.934370 0.130117 -0.029250 -47711.000000 0 0 1
-29.859351 -11.559494 22.565085 39.171237 0.369364 0.956893 0.126220 -0.034399 704479.000000 0 0 1
-31.009351 -10.896694 23.062915 40.152407 0.337922 0.958944 0.117173 -0.031074 134078.000000 0 0 1
-30.962071 -10.480794 24.461475 40.827204 0.326397 0.928362 0.120497 -0.033303 -273200.000000 0 0 1
-32.408101 -10.221994 24.998825 42.186673 0.305538 0.936543 0.073961 -0.034001 131981.000000 0 0 1
-32.931531 -8.973794 24.555565 42.047479 0.266039 0.947153 0.084300 -0.038155 -497876.000000 0 0 1
-34.270000 -8.719994 24.874125 43.234168 0.249162 0.957783 0.077573 -0.029261 -178118.000000 0 0 1
-34.744234 -8.666194 26.376395 44.474475 0.244440 0.935932 0.072514 -0.031288 -362095.000000 0 0 1
-34.905676 -9.911694 26.980295 45.217078 0.276674 0.931434 0.060245 -0.041192 204964.000000 0 0 1
-35.532895 -9.836494 28.279545 46.465857 0.270065 0.916490 0.103301 -0.041433 -215750.000000 0 0 1
-36.092361 -11.215494 28.813145 47.525184 0.301285 0.919433 0.107222 -0.026178 180190.000000 0 0 1
-37.337951 -11.708994 28.389865 48.344674 0.303882 0.943153 0.089117 -0.024144 -495077.000000 0 0 1
37.886029 -11.107194 28.965445 48.966498 -0.285183 0.937834 0.124188 -0.025116 66856.900000 0 0 1
36.538149 -11.565894 28.275965 47.627056 -0.306564 0.935153 0.134498 -0.024996 832134.000000 0 0 1
36.342239 -11.033994 27.029265 46.616398 -0.294769 0.952285 0.140309 -0.021372 644127.000000 0 0 1
35.270929 -11.714594 26.294935 45.526847 -0.320669 0.955048 0.148778 -0.022537 1039530.000000 0 0 1
35.000919 -11.272894 24.838225 44.374316 -0.311583 0.976720 0.152065 -0.037144 203757.000000 0 0 1
34.450009 -9.959294 24.695585 43.541504 -0.281422 0.967727 0.161502 -0.050060 71838.600000 0 0 1
34.520379 -9.575694 23.328685 42.750182 -0.270589 0.993575 0.147234 -0.037666 -132309.000000 0 0 1
34.048949 -8.140994 23.011595 41.894394 -0.234691 0.989298 0.149251 -0.034160 -460778.000000 0 0 1
32.668219 -8.011994 23.135365 40.824621 -0.240506 0.968300 0.164615 -0.033873 -901068.000000 0 0 1
32.250959 -6.719194 22.737055 40.028060 -0.205403 0.966689 0.154007 -0.024352 -650660.000000 0 0 1
30.755379 -6.627694 22.494945 38.676120 -0.212251 0.950073 0.162662 -0.017263 -619946.000000 0 0 1
30.347079 -7.526494 21.436865 37.909531 -0.243108 0.969788 0.160386 -0.016642 -665760.000000 0 0 1
29.006679 -7.487494 21.095765 36.639887 -0.252616 0.957263 0.160546 -0.041256 -959387.000000 0 0 1
15.859549 -16.850294 25.715405 34.593927 -0.815678 0.732731 0.144926 -0.027464 58857.200000 0 0 1
15.364649 -18.158194 25.371935 34.778262 -0.868539 0.753156 0.146539 -0.012069 -356741.000000 0 0 1
16.286449 -19.185494 25.493235 35.822292 -0.866945 0.778940 0.131138 -0.018337 -1488390.000000 0 0 1
15.762649 -20.645394 25.300065 36.259987 -0.918714 0.798558 0.128437 -0.026650 728938.000000 0 0 1
14.875749 -21.073094 26.408805 36.915961 -0.956114 0.773634 0.118152 -0.029009 807052.000000 0 0 1
13.640649 -20.418994 26.531695 36.151535 -0.981845 0.746747 0.121257 -0.028990 -1230450.000000 0 0 1
12.797949 -21.005794 27.651285 37.008437 -1.023597 0.727015 0.112431 -0.022602 -455241.000000 0 0 1
13.074849 -20.586194 28.970945 37.868968 -1.004948 0.699706 0.117874 -0.029988 956174.000000 0 0 1
12.105649 -19.679394 29.675945 37.609666 -1.019316 0.661534 0.103329 -0.034741 1041760.000000 0 0 1
12.054949 -18.254694 29.186355 36.474635 -0.987162 0.643197 0.130627 -0.028179 1469150.000000 0 0 1
13.324249 -17.556194 29.375915 36.724650 -0.921593 0.643674 0.141218 -0.016175 1013570.000000 0 0 1
13.161749 -16.209494 28.908055 35.660272 -0.888794 0.625532 0.149824 -0.019122 210598.000000 0 0 1
14.253049 -15.175894 29.279955 35.927328 -0.816746 0.618106 0.143605 -0.015796 159348.000000 0 0 1
13.805749 -13.833094 29.218545 35.152192 -0.786388 0.589532 0.190686 -0.018680 618908.000000 0 0 1
14.766149 -12.928294 29.811005 35.691399 -0.719133 0.582221 0.176262 -0.016335 663317.000000 0 0 1
14.270049 -11.500794 29.539305 34.763100 -0.678352 0.555320 0.167856 -0.020491 157028.000000 0 0 1
14.343449 -11.011494 28.192845 33.493642 -0.654734 0.570303 0.206318 -0.022151 -160288.000000 0 0 1
15.636349 -10.686794 27.741185 33.589825 -0.599538 0.599034 0.177211 -0.016213 -283161.000000 0 0 1
15.789649 -9.513794 26.748945 32.485864 -0.542280 0.603415 0.161143 -0.019194 -119421.000000 0 0 1
15.982049 -8.263694 27.349695 32.737140 -0.477203 0.581876 0.162767 -0.022821 234539.000000 0 0 1
17.315349 -7.889194 27.657055 33.570424 -0.427516 0.602623 0.146697 -0.020135 -83498.700000 0 0 1
17.739449 -6.448594 27.350835 33.231620 -0.348666 0.604060 0.132115 -0.021913 139885.000000 0 0 1
19.144349 -6.295194 27.231375 33.877476 -0.317690 0.637108 0.109214 -0.026210 157472.000000 0 0 1
19.438449 -4.935494 27.010035 33.641558 -0.248649 0.638691 0.111331 -0.023407 -152901.000000 0 0 1
20.938649 -4.721594 26.734335 34.284766 -0.221787 0.676493 0.107910 -0.026081 -452523.000000 0 0 1
21.189449 -5.274094 25.393085 33.490560 -0.243945 0.710223 0.092774 -0.024224 740826.000000 0 0 1
22.483749 -5.088094 24.818225 33.872584 -0.222552 0.748525 0.087120 -0.024075 1633780.000000 0 0 1
23.817949 -5.646894 25.491165 35.340934 -0.232788 0.765129 0.084206 -0.026849 876300.000000 0 0 1
24.293949 -4.732294 26.471725 36.240072 -0.192384 0.751809 0.083966 -0.023277 -496783.000000 0 0 1
25.337649 -5.150194 27.270395 37.579189 -0.200531 0.758777 0.091882 -0.028781 -770957.000000 0 0 1
25.984049 -4.062594 28.103535 38.490053 -0.155094 0.752254 0.088709 -0.025109 -313218.000000 0 0 1
26.763249 -3.174494 27.310975 38.369757 -0.118062 0.778762 0.088054 -0.008438 279581.000000 0 0 1
27.177049 -2.099894 28.178725 39.205129 -0.077114 0.768792 0.083088 -0.013123 -312342.000000 0 0 1
27.923649 -0.969494 27.428105 39.153174 -0.034706 0.794652 0.098394 -0.013858 243450.000000 0 0 1
29.305049 -1.256194 27.352455 40.106368 -0.042840 0.820306 0.095481 -0.011070 -38823.400000 0 0 1
30.054649 -0.579594 26.354485 39.977203 -0.019282 0.850992 0.097537 -0.003922 23186.700000 0 0 1
31.558949 -0.656894 26.625315 41.295353 -0.020812 0.870096 0.115635 -0.016681 -283647.000000 0 0 1
32.088149 0.139206 27.657745 42.362950 0.004338 0.859421 0.104413 -0.009528 -113216.000000 0 0 1
33.494549 0.034106 27.670765 43.446027 0.001018 0.880326 0.133675 -0.018961 -187526.000000 0 0 1
34.171449 0.995706 28.657795 44.608840 0.029130 0.873139 0.145937 -0.018009 -115990.000000 0 0 1
34.166749 2.326606 28.130165 44.318010 0.067991 0.883132 0.140494 -0.018013 104720.000000 0 0 1
34.497449 3.294606 29.149445 45.283756 0.095214 0.871465 0.124256 -0.006505 -143.701000 0 0 1
34.639149 4.698306 28.540375 45.127572 0.134813 0.886100 0.123858 -0.021352 -104183.000000 0 0 1
34.784249 5.802506 29.416355 45.923143 0.165292 0.875574 0.138063 -0.026458 860347.000000 0 0 1
33.519649 6.340006 29.818955 45.309300 0.186935 0.852477 0.127348 -0.027127 600313.000000 0 0 1
33.735849 7.193106 31.114535 46.453876 0.210073 0.836865 0.098884 -0.025675 171920.000000 0 0 1
34.201749 6.489806 32.244909 47.451147 0.187521 0.823662 0.101781 -0.018446 204560.000000 0 0 1
34.367049 7.359706 33.333735 48.439625 0.210964 0.811860 0.120014 -0.032748 -44670.300000 0 0 1
34.445149 6.571306 -32.655601 47.916997 0.188511 2.320611 0.126859 -0.020091 781082.000000 0 0 1
33.155649 6.085106 -32.225031 46.634517 0.181511 2.333685 0.094719 -0.010672 756257.000000 0 0 1
32.984049 4.697906 -32.445951 46.505457 0.141478 2.342951 0.094771 -0.009009 -150422.000000 0 0 1
33.451749 3.829506 -31.261861 45.945496 0.113982 2.319121 0.105183 -0.017293 -130567.000000 0 0 1
33.497449 2.477506 -31.532071 46.070475 0.073827 2.324620 0.096625 -0.011808 254816.000000 0 0 1
33.886649 1.779606 -30.352931 45.527710 0.052468 2.300557 0.081920 -0.005648 -16319.600000 0 0 1
33.949149 0.248106 -30.692581 45.767246 0.007308 2.305845 0.092270 -0.012136 -502707.000000 0 0 1
34.951749 -0.085094 -31.631861 47.140287 -0.002435 2.306374 0.098809 -0.016696 -40941.300000 0 0 1
35.427649 -1.396494 -31.473261 47.409226 -0.039398 2.296770 0.090094 -0.020125 779915.000000 0 0 1
36.459949 -1.640594 -30.284241 47.425254 -0.044967 2.263432 0.099458 -0.025834 -40393.000000 0 0 1
35.845249 -1.706994 -29.037821 46.162655 -0.047585 2.251105 0.103056 -0.025797 -703566.000000 0 0 1
36.642349 -1.386794 -27.960441 46.112593 -0.037829 2.222261 0.127436 -0.036982 -488513.000000 0 0 1
35.872549 -0.791294 -26.732611 44.744814 -0.022055 2.211109 0.125127 -0.042670 -253553.000000 0 0 1
35.248349 0.472406 -26.938151 44.365902 0.013401 2.223305 0.121465 -0.042541 -184050.000000 0 0 1
34.462449 0.590606 -25.817741 43.064660 0.017136 2.213686 0.102056 -0.034560 -593171.000000 0 0 1
33.677349 1.930806 -25.772141 42.451091 0.057270 2.223205 0.085525 -0.027426 -416129.000000 0 0 1
32.736849 1.884206 -26.798231 42.348515 0.057493 2.255963 0.093281 -0.034154 -222263.000000 0 0 1
31.959749 3.053506 -26.608181 41.698258 0.095253 2.262841 0.084433 -0.020666 44110.300000 0 0 1
31.152749 3.574706 -27.828571 41.924953 0.114248 2.296646 0.099179 -0.015118 -569847.000000 0 0 1
30.037149 4.328706 -27.536801 40.978573 0.143126 2.307676 0.097246 -0.020362 -567366.000000 0 0 1
29.555749 4.894606 -28.707461 41.492382 0.164116 2.334876 0.061977 -0.023663 -854953.000000 0 0 1
28.247749 5.629906 -28.457521 40.490266 0.196727 2.350156 0.057127 -0.017998 -843590.000000 0 0 1
27.204249 4.761606 -28.065991 39.375677 0.173276 2.364243 0.081078 -0.015552 424517.000000 0 0 1
26.206149 5.552806 -27.408451 38.325176 0.208801 2.367643 0.087307 -0.021030 -161572.000000 0 0 1
24.862649 4.851806 -27.152441 37.134167 0.192722 2.390873 0.120473 -0.011070 -334173.000000 0 0 1
24.231049 4.687106 -28.431201 37.648983 0.191074 2.426702 0.122169 -0.017211 121556.000000 0 0 1
22.870549 4.357006 -28.270971 36.623672 0.188252 2.452670 0.118997 -0.019846 82444.800000 0 0 1
22.034149 4.198106 -29.550671 37.099461 0.188271 2.492323 0.113018 -0.021070 72683.600000 0 0 1
22.432849 2.970006 -30.100951 37.657946 0.131630 2.496968 0.103882 -0.030604 551966.000000 0 0 1
21.753449 2.637206 -31.356041 38.254002 0.120643 2.531648 0.089301 -0.033792 287059.000000 0 0 1
22.152749 3.548906 -32.604991 39.578081 0.158852 2.538904 0.102591 -0.035933 773354.000000 0 0 1
23.488449 3.236306 -33.035741 40.663757 0.136921 2.519074 0.096369 -0.031267 504548.000000 0 0 1
23.744949 3.993206 33.115125 40.943618 0.166612 0.628691 0.102550 -0.042401 -461945.000000 0 0 1
25.191949 3.700606 32.721467 41.461105 0.145853 0.661277 0.113084 -0.031336 -369319.000000 0 0 1
25.435849 2.359606 32.402120 41.260726 0.092502 0.667613 0.117963 -0.032456 351962.000000 0 0 1
26.808649 2.033706 32.201588 41.949755 0.075715 0.695673 0.106172 -0.026464 16960.700000 0 0 1
26.971349 0.498306 31.978906 41.837213 0.018473 0.700740 0.079303 -0.011985 -519950.000000 0 0 1
26.567549 -0.056394 30.706975 40.604879 -0.002123 0.713251 0.082464 -0.017707 1032730.000000 0 0 1
25.179549 -0.021894 30.338385 39.426232 -0.000870 0.692742 0.114217 -0.039843 104195.000000 0 0 1
24.335249 -1.052094 31.026795 39.445827 -0.043206 0.665566 0.106806 -0.048451 -906335.000000 0 0 1
24.578249 -2.336794 30.546895 39.276758 -0.094791 0.679742 0.093968 -0.049950 390751.000000 0 0 1
23.816749 -3.179994 31.395817 39.535392 -0.132734 0.653239 0.110758 -0.050526 13743.400000 0 0 1
23.828849 -4.668094 30.972815 39.356326 -0.193451 0.664890 0.111746 -0.046045 -379432.000000 0 0 1
25.126549 -5.200794 31.007095 40.247133 -0.204102 0.691301 0.089653 -0.023820 -141092.000000 0 0 1
25.044949 -6.599594 31.095455 40.468895 -0.257653 0.694492 0.113512 -0.023877 239707.000000 0 0 1
26.399149 -7.375594 30.959945 41.350123 -0.272441 0.724657 0.086417 -0.022585 171289.000000 0 0 1
26.739049 -7.420594 29.608405 40.579547 -0.270707 0.753003 0.099218 -0.023986 586538.000000 0 0 1
27.987849 -8.132894 29.436585 41.424343 -0.282798 0.780430 0.088680 -0.009911 871948.000000 0 0 1
28.463849 -8.092194 27.941315 40.698789 -0.276989 0.814078 0.108886 -0.021871 163492.000000 0 0 1
27.525349 -8.597094 26.950105 39.469774 -0.302733 0.819203 0.096789 -0.024738 505803.000000 0 0 1
27.826749 -8.009294 25.690845 38.710416 -0.280252 0.845085 0.126584 -0.031141 616598.000000 0 0 1
26.875749 -8.741194 24.644925 37.497823 -0.314453 0.853651 0.107196 -0.034133 722456.000000 0 0 1
25.511749 -8.359994 24.751005 36.515080 -0.316665 0.825990 0.097791 -0.036893 -245809.000000 0 0 1
24.837449 -9.228194 23.853415 35.651702 -0.355737 0.837842 0.102304 -0.040487 665250.000000 0 0 1
23.408949 -8.681194 23.483105 34.275330 -0.355127 0.816012 0.070155 -0.038094 956143.000000 0 0 1
22.379449 -9.029494 24.398865 34.317286 -0.383496 0.779907 0.056532 -0.024756 -203630.000000 0 0 1
21.115949 -8.580794 23.990275 33.091489 -0.385982 0.759808 0.071339 -0.023525 33898.500000 0 0 1
20.089149 -8.486894 25.143725 33.283753 -0.399719 0.714478 0.062872 -0.015584 -201306.000000 0 0 1
19.651149 -9.711894 25.697835 33.776727 -0.459009 0.706229 0.088278 -0.019971 141007.000000 0 0 1
20.586149 -10.364594 26.531955 35.144829 -0.466423 0.715246 0.062743 -0.017906 -176722.000000 0 0 1
19.917949 -11.515494 27.300975 35.702584 -0.524196 0.700255 0.068633 -0.011407 105455.000000 0 0 1
19.442149 -12.576194 26.478535 35.174858 -0.574159 0.718538 0.111259 -0.020367 75181.200000 0 0 1
18.641749 -13.412294 27.266555 35.649256 -0.623678 0.699978 0.099307 -0.017283 -668286.000000 0 0 1
19.325549 -14.613594 27.802405 36.878282 -0.647445 0.716824 0.108203 -0.007028 -671882.000000 0 0 1
18.462449 -15.441294 28.597985 37.378340 -0.696523 0.699607 0.102034 -0.005355 603635.000000 0 0 1
19.027049 -16.700594 29.076605 38.553695 -0.720374 0.716385 0.108279 -0.007323 -376779.000000 0 0 1
19.378349 -17.796894 27.966115 38.397310 -0.742883 0.754907 0.120035 -0.016767 159747.000000 0 0 1
20.450649 -17.361194 27.142485 38.162214 -0.703873 0.779536 0.101804 -0.010439 418897.000000 0 0 1
20.887049 -18.369394 26.213025 38.220755 -0.721352 0.815050 0.094436 -0.002322 759409.000000 0 0 1
22.140049 -17.970494 25.331015 38.141588 -0.681819 0.844465 0.085908 -0.013845 989007.000000 0 0 1
23.336249 -17.822994 26.072815 39.268707 -0.652241 0.844695 0.070143 -0.011657 461724.000000 0 0 1
24.392549 -17.218694 25.327125 39.152818 -0.614675 0.867312 0.045967 -0.012664 8284.750000 0 0 1
25.652749 -16.914594 26.188115 40.373065 -0.582932 0.864983 0.066721 -0.012286 235601.000000 0 0 1
26.335949 -18.083094 26.652995 41.604839 -0.601697 0.875488 0.077139 -0.010826 455615.000000 0 0 1
27.310149 -18.516494 25.692745 41.818918 -0.595813 0.909195 0.061778 -0.010215 -393875.000000 0 0 1
27.932749 -19.894994 26.058105 43.070571 -0.618898 0.921019 0.050092 -0.012435 254022.000000 0 0 1
28.936249 -19.908094 27.073495 44.346509 -0.602626 0.914106 0.043626 -0.002430 424850.000000 0 0 1
29.484049 -21.217494 27.344535 45.466634 -0.623777 0.925519 0.042564 -0.011663 149385.000000 0 0 1
28.551149 -22.240694 28.045875 45.786326 -0.661790 0.911529 0.058914 -0.009165 41284.100000 0 0 1
28.308349 -21.907794 29.427685 46.338998 -0.658622 0.882720 0.075826 -0.005575 -10892.800000 0 0 1
27.522849 -22.889094 30.085285 46.760477 -0.693738 0.871876 0.099702 -0.015844 -321648.000000 0 0 1
27.420349 -22.859894 31.630865 47.696561 -0.694945 0.845752 0.096566 -0.012174 -113733.000000 0 0 1
26.793449 -23.993494 32.146595 48.238783 -0.730323 0.841419 0.097879 -0.010468 106847.000000 0 0 1
26.860949 -23.948194 33.534285 49.189174 -0.728133 0.820656 0.105143 -0.007079 -341028.000000 0 0 1
26.685349 -25.305954 -33.029831 49.431456 -0.758873 2.302576 0.098783 -0.020963 -23900.900000 0 0 1
25.423249 -25.943184 -33.005751 49.079221 -0.795520 2.308377 0.134390 -0.029350 -109922.000000 0 0 1
25.048249 -26.538564 33.054293 49.237145 -0.814280 0.834797 0.107979 -0.019755 -731803.000000 0 0 1
23.721749 -27.253154 33.167158 49.046062 -0.854565 0.828143 0.138795 -0.024260 -444648.000000 0 0 1
23.843749 -28.572654 33.485855 50.062195 -0.875373 0.838088 0.136783 -0.031882 442074.000000 0 0 1
22.514949 -29.072394 33.554005 49.779497 -0.911834 0.831115 0.163946 -0.037311 260391.000000 0 0 1
22.476149 -30.611224 -33.571351 50.687867 -0.937455 2.294701 0.138039 -0.037659 -62041.800000 0 0 1
22.943949 -31.200144 -32.334791 50.452081 -0.936718 2.266468 0.134436 -0.047844 543311.000000 0 0 1
24.310049 -31.595634 -32.407091 51.375890 -0.914987 2.253360 0.107611 -0.029998 108767.000000 0 0 1
24.810949 -32.253064 -31.069981 51.197530 -0.915083 2.222906 0.092549 -0.034448 -425778.000000 0 0 1
26.057549 -32.885954 -31.280971 52.335275 -0.900731 2.211430 0.087584 -0.027593 339771.000000 0 0 1
26.631749 -33.398074 -30.052231 52.228517 -0.897640 2.183888 0.079103 -0.026485 427971.000000 0 0 1
27.464049 -32.371684 -29.223291 51.538341 -0.867233 2.173680 0.072363 -0.029406 -300245.000000 0 0 1
27.844849 -32.931504 -27.956471 51.394395 -0.868898 2.145945 0.087214 -0.031108 -138142.000000 0 0 1
28.769749 -32.118664 -27.296761 51.033520 -0.840344 2.135161 0.084562 -0.024780 -515432.000000 0 0 1
29.055049 -32.594074 -25.838681 50.736643 -0.842741 2.105133 0.096111 -0.030376 278416.000000 0 0 1
29.823249 33.640370 -25.613981 51.741441 0.845472 2.088675 0.102154 -0.011998 601310.000000 0 0 1
31.219049 -33.463764 -25.696301 52.485735 -0.820088 2.082412 0.116113 -0.025390 445324.000000 0 0 1
-28.107941 -30.308337 8.916959 42.286686 0.823048 1.358332 0.075282 -0.013925 -24939.000000 0 0 1
-27.859251 -31.557337 9.500059 43.153847 0.847558 1.348834 0.077962 -0.011236 443980.000000 0 0 1
-26.606011 -31.581237 10.192159 42.533921 0.870694 1.328818 0.064400 -0.005415 563737.000000 0 0 1
-26.637361 -32.481637 11.499459 43.552765 0.883934 1.303593 0.066401 -0.005254 -13919.700000 0 0 1
-26.749471 33.534306 11.324959 44.365962 -0.897475 1.312677 0.075617 0.006322 493721.000000 0 0 1
-28.068631 33.036506 11.026259 44.730718 -0.866520 1.321726 0.063758 -0.015552 809977.000000 0 0 1
-28.003171 31.519206 10.794559 43.521953 -0.844400 1.320155 0.068689 -0.018148 198868.000000 0 0 1
-27.672101 31.079806 9.486459 42.681289 -0.843335 1.346662 0.108637 -0.030882 -196363.000000 0 0 1
-27.700071 29.682706 9.305359 41.652691 -0.819935 1.345491 0.129206 -0.035480 -57568.600000 0 0 1
-27.126461 29.257806 7.941959 40.680939 -0.823181 1.374309 0.107141 -0.026659 192638.000000 0 0 1
-25.720681 29.425206 7.843059 39.861131 -0.852474 1.372745 0.082235 -0.018469 298641.000000 0 0 1
-25.186171 29.417106 6.544159 39.275124 -0.862729 1.403392 0.064142 -0.002714 677261.000000 0 0 1
-23.754851 28.785306 6.374259 37.861827 -0.880852 1.401635 0.078296 -0.004693 779159.000000 0 0 1
-23.742951 27.379306 6.615159 36.839034 -0.856409 1.390248 0.068520 -0.006638 137967.000000 0 0 1
-24.244351 26.544706 5.562059 36.377829 -0.830660 1.417297 0.063693 -0.015518 -433639.000000 0 0 1
-24.329551 25.110306 6.153359 35.500963 -0.801189 1.396587 0.085828 -0.014348 -40224.100000 0 0 1
-25.338831 24.986806 7.186959 36.304947 -0.778403 1.371519 0.123022 -0.023764 792484.000000 0 0 1
-25.524661 23.648406 7.617159 35.619890 -0.747261 1.355286 0.155175 -0.018262 -114628.000000 0 0 1
-25.998031 22.619306 6.532059 35.074184 -0.716013 1.383467 0.168307 -0.025618 -1011100.000000 0 0 1
-27.247271 22.838006 5.960559 36.048808 -0.697589 1.404687 0.173537 -0.037531 -462534.000000 0 0 1
-27.458431 22.103006 4.756659 35.568724 -0.677760 1.436663 0.156227 -0.030328 -19719.200000 0 0 1
-27.199041 23.001506 3.503559 35.792905 -0.701977 1.472755 0.148039 -0.040020 725830.000000 0 0 1
-25.837001 23.455806 3.484659 35.069478 -0.737129 1.471268 0.135980 -0.040241 688993.000000 0 0 1
-25.640621 24.151506 2.252059 35.296012 -0.755500 1.506948 0.120334 -0.033208 -438846.000000 0 0 1
-24.437251 25.046406 2.084059 35.054885 -0.797708 1.511310 0.071265 -0.023029 -494921.000000 0 0 1
-24.304151 25.455406 0.756459 35.202865 -0.808530 1.549306 0.068710 -0.016838 -298816.000000 0 0 1
-23.181151 26.286606 0.619959 35.053327 -0.848093 1.553109 0.066895 -0.007352 -552263.000000 0 0 1
-22.667751 26.486506 -0.821241 34.871713 -0.862932 1.594349 0.103189 -0.007634 51700.500000 0 0 1
-22.356851 25.370406 -1.626641 33.854575 -0.848456 1.618863 0.103158 -0.016658 -273136.000000 0 0 1
-21.302551 24.620706 -1.122541 32.576647 -0.857527 1.605262 0.100016 -0.037881 -853066.000000 0 0 1
-21.060951 23.395106 -2.034641 31.544166 -0.837855 1.635342 0.121499 -0.056393 -49133.600000 0 0 1
-22.126351 22.479506 -2.048441 31.608538 -0.793315 1.635648 0.112538 -0.041830 8830.100000 0 0 1
-21.802651 21.334406 -2.858941 30.637983 -0.774544 1.664246 0.121244 -0.041061 77891.300000 0 0 1
-23.015751 20.973606 -3.733241 31.361665 -0.739008 1.690118 0.133441 -0.033458 -3904.720000 0 0 1
-23.315051 21.899306 -4.723641 32.333945 -0.754097 1.717410 0.131651 -0.031426 -185609.000000 0 0 1
-24.513451 21.689706 -5.421041 33.177406 -0.724358 1.734928 0.139505 -0.025162 -187254.000000 0 0 1
-24.423151 22.377006 -6.807141 33.816532 -0.741705 1.773477 0.122660 -0.018682 556703.000000 0 0 1
-23.574751 21.639106 -7.728341 32.920313 -0.742613 1.807767 0.120384 -0.024395 669591.000000 0 0 1
-23.224251 22.514306 -8.786041 33.517970 -0.769878 1.836024 0.110172 -0.032296 161078.000000 0 0 1
-22.746651 21.837406 -10.102241 33.110990 -0.765007 1.880842 0.103813 -0.031668 1142410.000000 0 0 1
-23.903951 21.440506 -10.877941 33.903153 -0.731124 1.897427 0.075806 -0.017927 973905.000000 0 0 1
-23.468751 20.955306 -12.126941 33.718983 -0.728880 1.938686 0.073372 -0.009962 -365627.000000 0 0 1
-24.613251 20.606306 -13.047641 34.650727 -0.697018 1.956863 0.049881 -0.016380 -396141.000000 0 0 1
-25.190981 19.389306 -12.820141 34.276620 -0.655986 1.954136 0.064803 -0.012356 -628739.000000 0 0 1
-26.444031 19.178206 -13.386441 35.302792 -0.627464 1.959716 0.076825 -0.022038 -360705.000000 0 0 1
-26.992051 17.776806 -13.481641 35.019142 -0.582393 1.965982 0.143584 -0.025315 -285531.000000 0 0 1
-26.362851 17.066906 -14.511741 34.595806 -0.574534 2.003653 0.128809 -0.026491 339807.000000 0 0 1
-27.066451 15.824606 -14.767941 34.656933 -0.529062 2.010994 0.149821 -0.036351 369359.000000 0 0 1
-26.526951 15.140506 -16.065241 34.510955 -0.518642 2.055009 0.152430 -0.025349 284609.000000 0 0 1
-25.301701 14.467806 -15.866941 33.185136 -0.519435 2.069325 0.155010 -0.026029 3097.810000 0 0 1
-24.848451 13.932706 -17.093941 33.223013 -0.511027 2.111245 0.151694 -0.030310 -281732.000000 0 0 1
-23.952251 12.727906 -16.999341 32.010740 -0.488441 2.130637 0.137443 -0.021023 -26864.700000 0 0 1
-22.655251 12.954206 -16.483241 30.866957 -0.519424 2.134132 0.136221 -0.029706 129895.000000 0 0 1
-21.936651 11.749406 -16.275441 29.734747 -0.491725 2.149996 0.123669 -0.026299 -333963.000000 0 0 1
-20.729451 11.975706 -15.383641 28.456705 -0.523872 2.141944 0.127278 -0.031719 233309.000000 0 0 1
-19.662151 12.757406 -15.957741 28.354913 -0.575553 2.168548 0.116692 -0.024736 314165.000000 0 0 1
-18.510151 12.723606 -15.176541 27.107992 -0.602209 2.165007 0.102655 -0.018829 -433919.000000 0 0 1
-17.501751 13.831706 -15.497741 27.162609 -0.668801 2.177977 0.091355 -0.019704 -164937.000000 0 0 1
-16.752151 13.681106 -16.679441 27.313201 -0.684828 2.227707 0.126335 -0.032388 157953.000000 0 0 1
-16.166251 14.890206 -17.118741 27.858880 -0.744333 2.232524 0.121807 -0.019797 -37368.400000 0 0 1
-15.306851 14.875706 -18.407241 28.185330 -0.771115 2.282439 0.159617 -0.028220 -55354.500000 0 0 1
-14.049851 14.320706 -18.141041 27.047704 -0.794945 2.305956 0.166005 -0.026163 -183596.000000 0 0 1
-13.127551 14.534506 -19.211241 27.434581 -0.836217 2.346553 0.192602 -0.033750 402318.000000 0 0 1
-11.920551 13.580206 -19.276941 26.421998 -0.850389 2.388503 0.174556 -0.036174 -181379.000000 0 0 1
-12.260351 12.304606 -19.736441 26.291569 -0.787200 2.419880 0.193308 -0.042153 -431797.000000 0 0 1
-11.373151 11.269706 -19.425341 25.173373 -0.780830 2.452247 0.156185 -0.042001 -368379.000000 0 0 1
-11.583551 9.949406 -20.158941 25.289370 -0.709653 2.493325 0.171101 -0.052682 -59247.400000 0 0 1
-11.314651 10.024606 -21.536141 26.311963 -0.725018 2.529578 0.192969 -0.052858 -188330.000000 0 0 1
-11.735351 8.863906 -22.190241 26.621309 -0.646895 2.556303 0.184615 -0.032767 26039.300000 0 0 1
-11.746551 8.983906 -23.709441 27.943328 -0.652914 2.583909 0.165951 -0.035063 -202696.000000 0 0 1
-10.458851 9.151706 -24.297241 27.991020 -0.718841 2.622031 0.160126 -0.034339 110423.000000 0 0 1
-10.492951 8.691706 -25.626551 29.023574 -0.691783 2.652919 0.134158 -0.039295 38167.900000 0 0 1
-9.989751 9.657506 -26.727081 30.123071 -0.768489 2.662173 0.163477 -0.043901 1068930.000000 0 0 1
-8.601251 10.041806 -26.794921 29.879544 -0.862515 2.683200 0.115733 -0.042672 852866.000000 0 0 1
-8.241851 11.107306 -25.965251 29.419290 -0.932422 2.652145 0.091492 -0.037653 1181020.000000 0 0 1
-6.710251 11.462306 -26.240001 29.410025 -1.041167 2.673018 0.072865 -0.036913 1250770.000000 0 0 1
-6.527651 12.032006 -27.499981 30.718534 -1.073711 2.679731 0.073010 -0.046234 632130.000000 0 0 1
-5.138151 12.373706 -27.534461 30.621165 -1.177215 2.688727 0.083274 -0.033607 197171.000000 0 0 1
-4.535651 12.668906 -28.990421 31.961192 -1.227000 2.707021 0.095993 -0.036333 527036.000000 0 0 1
-3.122051 12.745006 -28.836321 31.681474 -1.330564 2.714551 0.121554 -0.051169 287569.000000 0 0 1
-2.469451 12.829506 -30.076071 32.791225 -1.380640 2.731788 0.129497 -0.052770 -145835.000000 0 0 1
-0.975451 12.484706 -30.072171 32.575372 -1.492823 2.747009 0.157122 -0.071592 -557097.000000 0 0 1
-0.815251 11.121006 -29.633251 31.661822 -1.497620 2.781687 0.126399 -0.050418 574866.000000 0 0 1
0.498749 10.562806 -29.730041 31.554666 1.523614 2.799861 0.138052 -0.062073 643313.000000 0 0 1
1.118549 10.321006 -31.114141 32.800367 1.462842 2.819551 0.153787 -0.061078 -325136.000000 0 0 1
1.482449 11.431206 -31.880811 33.900682 1.441832 2.794654 0.169905 -0.064423 45493.000000 0 0 1
1.476349 11.010706 -33.200401 35.009740 1.437508 2.818692 0.178453 -0.061358 -126293.000000 0 0 1
2.004349 12.042106 33.074783 35.255794 1.405863 0.353585 0.166929 -0.064141 -596765.000000 0 0 1
3.386949 12.264506 33.061901 35.425680 1.301353 0.367371 0.180059 -0.072885 -415569.000000 0 0 1
3.694249 13.125706 31.971525 34.757877 1.296442 0.403136 0.184803 -0.064052 511953.000000 0 0 1
5.212549 13.277706 31.661612 34.726443 1.196704 0.423287 0.186918 -0.061598 194991.000000 0 0 1
5.872049 12.140706 31.226900 34.014658 1.120301 0.407682 0.180057 -0.064002 -85238.500000 0 0 1
7.209849 12.454406 30.886585 34.074555 1.046036 0.436016 0.168340 -0.049313 -23199.900000 0 0 1
8.151049 11.336106 30.508495 33.551679 0.947410 0.429201 0.134428 -0.040355 -309335.000000 0 0 1
7.995549 10.971206 29.128545 32.136713 0.941018 0.436127 0.126929 -0.042661 226715.000000 0 0 1
8.995649 10.043306 28.738535 31.744182 0.840370 0.438672 0.113394 -0.041272 -23632.700000 0 0 1
8.515849 9.089006 27.679125 30.352326 0.817943 0.422839 0.110887 -0.035760 73430.200000 0 0 1
7.501349 8.236906 28.179785 30.302098 0.832101 0.376488 0.111889 -0.042507 51266.300000 0 0 1
7.029749 7.395306 27.149725 29.003715 0.810735 0.359487 0.121112 -0.048651 -584158.000000 0 0 1
6.086049 6.280306 27.667045 29.016334 0.801105 0.306157 0.145048 -0.044665 240735.000000 0 0 1
6.716449 5.193606 28.325515 29.570577 0.658226 0.291217 0.101039 -0.033840 520248.000000 0 0 1
5.679949 4.468606 28.993325 29.880481 0.666599 0.244288 0.113433 -0.035994 184020.000000 0 0 1
6.160149 3.277806 29.874465 30.678577 0.488995 0.229461 0.117474 -0.035451 61797.100000 0 0 1
6.421149 2.033606 29.228345 29.994380 0.306711 0.226490 0.123354 -0.024481 -163212.000000 0 0 1
7.649649 2.003406 28.549525 29.624418 0.256142 0.270206 0.131304 -0.020883 -425371.000000 0 0 1
7.926849 0.698306 27.764085 28.881949 0.087867 0.279130 0.131446 -0.029588 -24253.000000 0 0 1
8.355449 -0.445394 28.547085 29.748075 -0.053255 0.285120 0.094321 -0.023037 135394.000000 0 0 1
8.341749 -1.672494 27.793005 29.066014 -0.197873 0.297054 0.122882 -0.018575 -99146.900000 0 0 1
9.079949 -2.853694 28.462145 30.011377 -0.304510 0.322713 0.100787 -0.010454 402507.000000 0 0 1
10.498349 -2.751294 28.540755 30.534565 -0.256305 0.363373 0.095881 -0.015580 304132.000000 0 0 1
11.135149 -3.974194 28.260295 30.633805 -0.342813 0.396237 0.122668 -0.019668 -312485.000000 0 0 1
12.672049 -3.848894 28.347705 31.288771 -0.294876 0.437054 0.110506 -0.009494 213046.000000 0 0 1
13.401549 -5.062094 28.057195 31.502897 -0.361157 0.472084 0.132898 -0.012287 288735.000000 0 0 1
13.322649 -6.184794 28.962925 32.474539 -0.434626 0.469343 0.136669 -0.009557 -577327.000000 0 0 1
12.586949 -7.380794 28.325725 31.863052 -0.530348 0.475676 0.169147 -0.019136 710902.000000 0 0 1
11.185449 -7.167694 28.117635 31.098095 -0.569884 0.441388 0.155068 -0.011772 571554.000000 0 0 1
10.496449 -8.444894 28.040555 31.108912 -0.677508 0.447880 0.163631 -0.023548 542270.000000 0 0 1
8.978349 -8.196194 27.865735 30.402098 -0.739888 0.411373 0.176000 -0.022756 235639.000000 0 0 1
8.365749 -7.665694 29.035955 31.174273 -0.741758 0.372535 0.183692 -0.025766 -302012.000000 0 0 1
6.996249 -7.423394 28.848745 30.599091 -0.815012 0.339872 0.160175 -0.029707 -368337.000000 0 0 1
6.362349 -6.742494 30.058335 31.455432 -0.814398 0.299158 0.132467 -0.028685 -162884.000000 0 0 1
6.332549 -7.630494 31.207715 32.745184 -0.878088 0.307651 0.143698 -0.033865 276377.000000 0 0 1
5.607149 -7.167694 32.334836 33.591034 -0.906954 0.274344 0.153794 -0.030429 -130657.000000 0 0 1
6.410449 -6.194394 33.188119 34.364453 -0.768259 0.262405 0.145790 -0.022008 -294612.000000 0 0 1
6.400149 -4.950694 32.592934 33.582296 -0.658390 0.243338 0.144618 -0.017317 -9135.490000 0 0 1
7.028449 -3.928794 33.337525 34.296138 -0.509715 0.236990 0.115553 -0.009192 4162.800000 0 0 1
7.456249 -2.755994 32.422460 33.382736 -0.354047 0.240436 0.101309 -0.022625 -825726.000000 0 0 1
6.297249 -2.080494 32.086639 32.764862 -0.319091 0.203821 0.141037 -0.029706 -458572.000000 0 0 1
6.405049 -1.041894 31.183095 31.851148 -0.161255 0.205173 0.111014 -0.020233 -236435.000000 0 0 1
5.009149 -0.679094 30.601885 31.016578 -0.134749 0.163707 0.146031 -0.028716 887581.000000 0 0 1
4.109749 -0.145894 31.620370 31.886661 -0.035485 0.129328 0.141765 -0.024332 25822.300000 0 0 1
2.925549 0.293306 31.004305 31.143407 0.099923 0.094550 0.147118 -0.025527 249009.000000 0 0 1
1.856349 0.755506 32.088171 32.150700 0.386513 0.062378 0.133978 -0.030757 235105.000000 0 0 1
2.101949 1.839606 32.914389 33.032701 0.718938 0.084662 0.120904 -0.028902 -44594.400000 0 0 1
1.276649 1.841206 -33.222841 33.298304 0.964529 3.074256 0.101696 -0.033186 219305.000000 0 0 1
1.657649 2.985806 -32.225301 32.405753 1.063988 3.036011 0.093766 -0.033992 885440.000000 0 0 1
2.860649 2.688706 -31.477841 31.721710 0.754424 3.017515 0.065968 -0.018290 605394.000000 0 0 1
3.293049 3.856806 -30.826311 31.240688 0.864084 2.978538 0.057252 -0.015701 -404754.000000 0 0 1
4.338049 3.525206 -29.752761 30.273297 0.682392 2.955883 0.068484 -0.008376 -342585.000000 0 0 1
3.856149 2.821906 -28.613521 29.009768 0.631747 2.976122 0.069043 -0.013955 280393.000000 0 0 1
4.875049 2.721006 -27.622421 28.180988 0.509078 2.942161 0.079203 -0.014615 -37297.800000 0 0 1
4.465849 1.978706 -26.370251 26.818822 0.417080 2.958438 0.069738 -0.018647 -134704.000000 0 0 1
4.231549 0.631706 -26.600091 26.941973 0.148190 2.982115 0.087521 -0.022715 6513.170000 0 0 1
3.632949 -0.024394 -25.544761 25.801816 -0.006715 3.000318 0.086647 -0.021920 -422506.000000 0 0 1
4.069449 -1.482494 -25.387691 25.754476 -0.349356 2.972622 0.102514 -0.030618 -226667.000000 0 0 1
5.343849 -1.637594 -24.830241 25.451509 -0.297359 2.920189 0.104826 -0.038048 -103395.000000 0 0 1
5.919049 -2.926494 -25.090631 25.944927 -0.459173 2.884262 0.116943 -0.034923 -120846.000000 0 0 1
7.343549 -3.241494 -24.612241 25.888171 -0.415685 2.826326 0.129754 -0.039533 68182.000000 0 0 1
8.399249 -2.637994 -25.324191 26.810838 -0.304319 2.807019 0.132268 -0.034785 91716.100000 0 0 1
9.609949 -3.226494 -24.812641 26.803517 -0.323920 2.753740 0.110697 -0.030601 531885.000000 0 0 1
-31.161991 -3.877394 17.144365 35.777550 0.123791 1.071061 0.192110 -0.040069 -667026.000000 0 0 1
-32.524641 -3.872694 17.392765 37.085823 0.118512 1.082653 0.177233 -0.032216 -821815.000000 0 0 1
-33.077871 -5.121194 17.829965 37.924660 0.153603 1.081345 0.151918 -0.039480 292963.000000 0 0 1
-34.515416 -4.971294 18.390965 39.424044 0.143047 1.085477 0.137003 -0.032765 511577.000000 0 0 1
-35.469387 -4.775994 17.328165 39.763712 0.133846 1.119893 0.133666 -0.030689 -564991.000000 0 0 1
-36.734511 -4.607294 17.833765 41.093729 0.124770 1.121893 0.119241 -0.021872 -1548990.000000 0 0 1
-37.822261 -4.545594 16.808065 41.637686 0.119609 1.155267 0.103662 -0.022505 -144923.000000 0 0 1
37.200839 -4.280794 17.301165 41.249945 -0.114569 1.137987 0.100354 -0.010907 205654.000000 0 0 1
36.291959 -4.351194 16.231765 39.993867 -0.119325 1.152881 0.106533 -0.019058 804824.000000 0 0 1
34.816349 -4.742694 16.614265 38.867790 -0.135387 1.129120 0.101363 -0.014694 742192.000000 0 0 1
34.208789 -3.851594 17.529165 38.630916 -0.112119 1.099816 0.113232 -0.020403 614918.000000 0 0 1
32.872909 -4.238394 17.839665 37.641012 -0.128225 1.077034 0.151851 -0.023135 687588.000000 0 0 1
32.221389 -3.672894 19.173265 37.673892 -0.113499 1.036858 0.155557 -0.019938 396243.000000 0 0 1
31.421389 -2.486894 19.023565 36.815545 -0.078982 1.027773 0.151484 -0.016520 337208.000000 0 0 1
32.109059 -1.307194 18.642965 37.151858 -0.040689 1.045113 0.143048 -0.013340 -351760.000000 0 0 1
31.217579 -0.085594 18.779365 36.430882 -0.002742 1.029229 0.152570 -0.004941 84296.500000 0 0 1
31.840579 1.114706 18.308365 36.745902 0.034995 1.049226 0.147733 -0.011694 525519.000000 0 0 1
31.133379 2.285306 18.765765 36.423397 0.073272 1.029542 0.134920 -0.011711 79059.200000 0 0 1
31.646909 3.489906 17.977665 36.563681 0.109833 1.056777 0.123689 -0.016741 188987.000000 0 0 1
31.203579 3.599706 16.608165 35.531006 0.114854 1.084418 0.147396 -0.007760 100082.000000 0 0 1
29.820679 3.876106 16.542165 34.321135 0.129256 1.067881 0.153588 -0.027408 -113840.000000 0 0 1
29.181479 4.117506 15.154965 33.138883 0.140175 1.095821 0.163198 -0.025802 -411485.000000 0 0 1
29.377579 5.359706 14.495365 33.194641 0.180457 1.118894 0.171775 -0.037301 -46600.200000 0 0 1
28.770679 5.218206 13.230565 32.094073 0.179422 1.145881 0.148060 -0.043470 -455017.000000 0 0 1
28.409779 6.606306 12.724765 31.822610 0.228476 1.159426 0.166550 -0.034289 -558294.000000 0 0 1
27.323279 7.235906 13.343765 31.256615 0.258883 1.129723 0.128381 -0.024903 -69554.600000 0 0 1
26.878179 8.406606 12.643265 30.870045 0.303128 1.148820 0.169650 -0.047616 -391048.000000 0 0 1
25.540279 8.983506 13.170965 30.107865 0.338223 1.118025 0.171646 -0.051775 1219440.000000 0 0 1
24.320779 8.224306 12.935865 28.748498 0.326088 1.104068 0.171973 -0.039714 1580340.000000 0 0 1
24.236279 7.038006 13.652365 28.693515 0.282618 1.074923 0.197862 -0.043537 -663197.000000 0 0 1
22.839479 6.334806 13.528165 27.290710 0.270561 1.052149 0.223256 -0.032441 103434.000000 0 0 1
22.587479 5.917306 12.196265 26.343075 0.256215 1.089444 0.263096 -0.041399 528030.000000 0 0 1
21.463679 5.063506 12.178465 25.192134 0.231675 1.066235 0.259813 -0.032200 -485709.000000 0 0 1
20.993479 4.839506 10.765765 24.084200 0.226566 1.107382 0.263430 -0.041899 -625577.000000 0 1 0
21.939979 4.201006 9.960165 24.458455 0.189187 1.151380 0.275600 -0.051778 192991.000000 0 1 0
21.388279 3.761606 8.743165 23.410491 0.174092 1.188047 0.281950 -0.049543 100.797000 0 1 0
22.371079 3.087906 7.731165 23.869882 0.137164 1.240960 0.267228 -0.047677 -309552.000000 0 1 0
22.672379 1.745706 8.032965 24.116650 0.076845 1.231220 0.264722 -0.050157 797968.000000 0 1 0
23.443279 1.083806 7.027965 24.498046 0.046198 1.279829 0.244666 -0.046159 1242110.000000 0 1 0
25.030979 1.286106 6.913465 26.000000 0.051335 1.301656 0.246781 -0.051024 1366090.000000 0 0 1
25.824079 0.704306 7.904065 27.015798 0.027266 1.273881 0.204961 -0.033881 209671.000000 0 0 1
25.843879 1.421706 9.076765 27.428361 0.054956 1.233511 0.206715 -0.040819 -944733.000000 0 0 1
26.806679 0.932906 10.137565 28.674703 0.034787 1.209447 0.135966 -0.028368 599729.000000 0 0 1
28.224879 1.173906 9.952665 29.951250 0.041567 1.232060 0.150881 -0.042798 1189300.000000 0 0 1
28.744979 0.446706 11.066465 30.804870 0.015539 1.203339 0.158079 -0.038309 -711534.000000 0 0 1
30.274479 0.441906 11.144065 32.263440 0.014596 1.218122 0.228565 -0.041022 -315137.000000 0 0 1
30.721579 1.725106 11.580965 32.877198 0.056094 1.210823 0.214490 -0.038599 -4017.150000 0 0 1
32.129599 1.761006 11.513265 34.175540 0.054755 1.227189 0.221853 -0.044394 -300230.000000 0 0 1
32.718409 3.058006 12.125565 35.026776 0.093194 1.217300 0.194399 -0.045194 124249.000000 0 0 1
34.098649 3.211306 11.844565 36.239814 0.093900 1.237840 0.187167 -0.060318 424682.000000 0 0 1
34.678589 4.346006 12.472765 37.108789 0.124672 1.228009 0.167209 -0.059421 303934.000000 0 0 1
36.111659 4.650406 11.959365 38.323682 0.128074 1.253434 0.187510 -0.051299 -109157.000000 0 0 1
37.084639 3.811806 12.503665 39.321012 0.102427 1.247188 0.193744 -0.054005 -525024.000000 0 0 1
-37.973211 4.213606 12.084665 40.071914 -0.110511 1.264453 0.191156 -0.042421 419199.000000 0 0 1
-36.799691 3.311806 12.653465 39.055031 -0.089754 1.240852 0.176978 -0.036817 -137884.000000 0 0 1
-36.656851 1.982106 12.176865 38.677248 -0.054019 1.250516 0.161683 -0.039648 80780.100000 0 0 1
-37.731751 1.067506 12.304765 39.701786 -0.028284 1.255677 0.191655 -0.034998 -66187.700000 0 0 1
38.051649 0.693006 13.716465 40.454291 0.018210 1.224878 0.196507 -0.034191 199998.000000 0 0 1
-37.311131 -0.070494 14.418465 40.000220 0.001889 1.202036 0.152612 -0.033657 478934.000000 0 0 1
-37.703291 -0.224694 15.770665 40.869334 0.005959 1.174635 0.151981 -0.039513 -472489.000000 0 0 1
-36.683671 -0.991894 16.578365 40.268073 0.027033 1.146478 0.127690 -0.029675 -923283.000000 0 0 1
-35.549369 -0.237694 16.857565 39.344524 0.006686 1.128008 0.137759 -0.032627 -562093.000000 0 0 1
-34.544525 -0.910094 17.589265 38.775439 0.026339 1.099975 0.134286 -0.020598 210695.000000 0 0 1
-34.720201 -0.884194 19.134065 39.653330 0.025461 1.067251 0.103325 -0.023919 -781489.000000 0 0 1
-35.682665 -1.769694 19.619765 40.759288 0.049555 1.068594 0.104268 -0.028959 -251926.000000 0 0 1
-35.841465 -1.554594 21.021565 41.580447 0.043347 1.040761 0.097309 -0.030695 140410.000000 0 0 1
-36.571241 -2.694794 21.762865 42.641996 0.073553 1.035190 0.102102 -0.027914 39521.700000 0 0 1
-35.799996 -3.876694 21.897965 42.144861 0.107867 1.024428 0.114898 -0.031990 201992.000000 0 0 1
-36.470001 -5.009094 22.504245 43.146182 0.136494 1.022093 0.114119 -0.035729 218026.000000 0 0 1
-36.546341 -4.912094 24.072505 44.036907 0.133607 0.992445 0.134359 -0.039987 224459.000000 0 0 1
-35.234249 -4.839494 24.587625 43.236839 0.136498 0.965905 0.134811 -0.041096 -276910.000000 0 0 1
-35.182734 -4.605994 25.950325 43.959746 0.130176 0.939341 0.149987 -0.050061 725443.000000 0 0 1
-33.767271 -4.176794 26.515805 43.136552 0.123068 0.908798 0.134493 -0.046156 632844.000000 0 0 1
-33.481161 -2.762594 26.411375 42.733836 0.082325 0.904545 0.122327 -0.034684 132824.000000 0 0 1
-33.071171 -2.379794 25.091275 41.580498 0.071836 0.922990 0.121481 -0.029057 -234496.000000 0 0 1
-32.846921 -0.860394 24.875315 41.212156 0.026188 0.922798 0.113272 -0.026662 -837196.000000 0 0 1
-33.991404 -0.105994 24.875315 42.121349 0.003118 0.939040 0.142228 -0.043048 -920424.000000 0 0 1
-33.823071 1.129106 24.213985 41.612403 -0.033370 0.949741 0.117592 -0.026850 527449.000000 0 0 1
-35.155749 1.916206 23.884255 42.544755 -0.054452 0.974730 0.121405 -0.031528 557093.000000 0 0 1
-35.939361 1.262806 22.901555 42.634652 -0.035123 1.003732 0.120112 -0.024525 -36506.200000 0 0 1
-37.083691 1.962106 22.452655 43.395526 -0.052861 1.026992 0.130322 -0.022216 409392.000000 0 0 1
-36.785251 3.401006 21.792465 42.890944 -0.092194 1.037830 0.103239 -0.008411 70241.300000 0 0 1
-36.077361 3.488406 20.515065 41.648683 -0.096393 1.055751 0.094533 -0.013852 -368452.000000 0 0 1
-36.897011 3.143106 19.449665 41.827718 -0.084981 1.087168 0.127995 -0.027385 -370369.000000 0 0 1
-36.191891 2.604506 18.202865 40.595328 -0.071840 1.105824 0.128451 -0.021505 -531870.000000 0 0 1
-35.471331 3.526206 17.455365 39.690543 -0.099084 1.115435 0.117799 -0.028868 -328267.000000 0 0 1
-35.020748 2.939206 16.276865 38.730195 -0.083731 1.137061 0.135412 -0.025223 -527812.000000 0 0 1
-34.163653 3.835306 15.413165 37.675329 -0.111795 1.149323 0.130704 -0.026388 -269352.000000 0 0 1
-34.901113 4.804106 14.710765 38.178184 -0.136789 1.175243 0.148592 -0.034806 104492.000000 0 0 1
-34.003096 5.584806 13.914065 37.161832 -0.162791 1.187027 0.169547 -0.035180 -177494.000000 0 0 1
-34.487632 6.825406 13.104065 37.519321 -0.195384 1.214013 0.191692 -0.042706 -655043.000000 0 0 1
-33.526661 7.490406 12.319465 36.495375 -0.219807 1.226470 0.226981 -0.042607 -63846.800000 0 0 1
-33.991619 8.680206 11.679765 36.975573 -0.250020 1.249415 0.208073 -0.042590 -673919.000000 0 0 1
-32.918241 9.505206 10.986765 35.981502 -0.281106 1.260496 0.246505 -0.045071 -623448.000000 0 0 1
-33.325621 10.756706 10.570365 36.579179 -0.312219 1.277643 0.206694 -0.025537 -341060.000000 0 0 1
-32.380261 11.540806 9.876765 35.766213 -0.342378 1.291012 0.225174 -0.050780 -326740.000000 0 0 1
-32.904291 12.875906 9.384865 36.558952 -0.372996 1.311185 0.176427 -0.029252 -9566.880000 0 0 1
-32.010041 13.509506 8.478765 35.763654 -0.399361 1.331440 0.205975 -0.030912 147723.000000 0 0 1
-31.854731 14.892806 8.688465 36.221664 -0.437330 1.328565 0.172889 -0.022389 -329968.000000 0 0 1
-30.789561 15.424206 7.740265 35.296103 -0.464412 1.349704 0.180580 -0.023461 437796.000000 0 0 1
-29.464721 14.993306 8.085065 34.034354 -0.470707 1.330947 0.227877 -0.028472 364813.000000 0 0 1
-28.525271 15.456006 7.155965 33.223290 -0.496553 1.353705 0.204971 -0.030485 969073.000000 0 0 1
-27.039781 15.417106 7.742465 32.074642 -0.518192 1.326999 0.214381 -0.020179 997470.000000 0 0 1
-26.820241 16.247506 8.906065 32.597926 -0.544668 1.294068 0.205191 -0.027922 196479.000000 0 0 1
-26.945691 17.662706 8.832165 33.407313 -0.580227 1.303237 0.197212 -0.044622 -268642.000000 0 0 1
-27.307501 18.158406 10.251965 34.358843 -0.586820 1.267802 0.200953 -0.019750 762181.000000 0 0 1
-26.164381 18.334506 11.134265 33.833427 -0.611224 1.235456 0.172722 -0.019235 1015920.000000 0 0 1
-26.466751 18.857006 12.427365 34.792456 -0.619052 1.205543 0.178175 -0.028961 -227671.000000 0 0 1
-26.867891 17.825106 13.527065 34.965690 -0.585762 1.173565 0.134619 -0.019089 355624.000000 0 0 1
-25.797201 16.957106 13.871665 33.844676 -0.581506 1.148493 0.147701 -0.030890 432523.000000 0 0 1
-26.163981 16.339306 15.087465 34.338876 -0.558237 1.115899 0.135200 -0.029673 22458.000000 0 0 1
-25.125921 15.297306 15.606565 33.299915 -0.546884 1.083015 0.135300 -0.017840 356822.000000 0 0 1
-23.983851 16.052206 16.072765 33.033804 -0.589818 1.062654 0.124694 -0.017253 708139.000000 0 0 1
-22.886451 15.319106 16.608565 32.160676 -0.589860 1.028126 0.123092 -0.034639 366670.000000 0 0 1
-23.225151 14.337806 17.739165 32.552393 -0.553072 0.994476 0.123328 -0.018381 -709560.000000 0 0 1
-23.368151 14.894106 19.043265 33.623664 -0.567444 0.968708 0.108722 -0.013815 -50670.700000 0 0 1
-23.580151 13.869306 19.987565 33.880436 -0.531681 0.939807 0.106698 -0.003557 -595589.000000 0 0 1
-23.139151 14.214106 21.458965 34.611390 -0.550859 0.902057 0.096266 -0.009060 1453740.000000 0 0 1
-21.692451 14.265206 21.558665 33.746623 -0.581707 0.877808 0.118991 -0.024985 1133370.000000 0 0 1
-21.137951 15.495006 21.116065 33.657040 -0.632559 0.892600 0.125101 -0.010301 503264.000000 0 0 1
-19.751451 15.822206 21.869165 33.447308 -0.675390 0.858149 0.149098 -0.025082 1326860.000000 0 0 1
-18.664451 15.069706 21.388165 32.138938 -0.679238 0.842645 0.127670 -0.016348 -26860.700000 0 0 1
-17.889751 15.777806 20.431165 31.407242 -0.722751 0.862522 0.115118 -0.029855 -33976.900000 0 0 1
-16.615451 14.982906 19.987865 30.001257 -0.733779 0.841649 0.109080 -0.011872 1086600.000000 0 0 1
-15.583851 14.598206 20.890365 29.872586 -0.752753 0.796357 0.107045 -0.013754 514694.000000 0 0 1
-14.763551 15.627506 21.461365 30.377155 -0.813818 0.786260 0.096882 -0.015579 -529324.000000 0 0 1
-13.598351 15.080206 22.267365 30.135748 -0.837023 0.739357 0.070190 -0.027296 -390566.000000 0 0 1
-12.522351 14.559606 21.514965 28.838951 -0.860482 0.728703 0.040474 -0.002809 268412.000000 0 0 1
-11.464651 14.163606 22.410595 28.883918 -0.890323 0.682680 0.012524 -0.011015 1314270.000000 0 0 1
-10.249151 13.466306 21.658965 27.486310 -0.920232 0.663257 0.027648 -0.013141 -537200.000000 0 0 1
-9.633051 12.501706 22.496895 27.480877 -0.914279 0.611761 0.020492 -0.018673 -121438.000000 0 0 1
-8.331951 12.130606 22.152865 26.595534 -0.968948 0.586371 0.030794 -0.011547 41162.400000 0 0 1
-7.212751 13.195806 22.214865 26.826355 -1.070572 0.595089 0.041509 -0.007134 -1176170.000000 0 0 1
-7.224851 14.065306 21.112565 26.377485 -1.096277 0.642832 0.030856 -0.005458 -111028.000000 0 0 1
-6.702951 15.401706 21.417765 27.218794 -1.160311 0.665069 0.029893 -0.000857 -719419.000000 0 0 1
-7.714251 16.359306 22.122665 28.575319 -1.130166 0.685365 0.037682 -0.000011 571422.000000 0 0 1
-8.870351 16.782606 21.425565 28.625056 -1.084575 0.725014 -0.001910 -0.002666 -286950.000000 0 0 1
-8.558751 17.553606 20.284465 28.157429 -1.117136 0.766425 0.017215 -0.004622 -843059.000000 0 0 1
-9.772051 17.686706 19.327465 27.961821 -1.066029 0.807635 0.029211 -0.008587 1079000.000000 0 0 1
-10.904851 18.462606 19.733165 29.140717 -1.037284 0.826889 0.008545 -0.004011 400930.000000 0 0 1
-11.652651 17.932006 20.819065 29.845847 -0.994545 0.798819 0.021329 -0.001987 -1459960.000000 0 0 1
-12.965851 18.693806 20.969965 30.940444 -0.964385 0.826095 0.026331 -0.008812 -225964.000000 0 0 1
-13.804151 18.472706 19.832165 30.415625 -0.929043 0.860526 0.030903 -0.004883 -381477.000000 0 0 1
-14.948951 19.249406 19.795265 31.398460 -0.910492 0.888659 0.012753 -0.013200 -611111.000000 0 0 1
-15.694951 19.214906 18.483565 30.938427 -0.885888 0.930503 0.039446 -0.006682 -609481.000000 0 0 1
-16.421051 18.081306 18.215565 30.469515 -0.833481 0.930006 0.065529 -0.004760 142388.000000 0 0 1
-17.223951 18.253706 17.013565 30.320351 -0.814415 0.975050 0.084000 -0.023365 -244063.000000 0 0 1
-18.155951 17.061406 16.799465 30.049162 -0.754328 0.977537 0.090363 -0.029437 434708.000000 0 0 1
-19.174851 16.733906 17.731665 31.017905 -0.717526 0.962270 0.098890 -0.022566 1310440.000000 0 0 1
-20.222751 17.724306 17.990465 32.353787 -0.719653 0.981165 0.122391 -0.028749 367988.000000 0 0 1
36.285979 -9.277894 11.478559 39.172809 -0.250325 1.273409 0.095623 -0.053539 1196730.000000 0 0 1
34.942019 -9.847694 11.298759 38.020833 -0.274704 1.269066 0.093335 -0.041212 1826270.000000 0 0 1
34.834609 -10.934994 12.160859 38.482601 -0.304171 1.249276 0.078010 -0.038425 57055.100000 0 0 1
33.347639 -11.346594 12.367559 37.333186 -0.327964 1.233142 0.125241 -0.027669 201499.000000 0 0 1
32.596939 -10.233794 12.871059 36.509658 -0.304205 1.210514 0.140288 -0.023848 158330.000000 0 0 1
31.189479 -10.283694 12.829759 35.258200 -0.318492 1.198366 0.146616 -0.029221 464911.000000 0 0 1
30.503279 -11.210694 13.902159 35.346849 -0.352201 1.166571 0.142264 -0.012357 -924783.000000 0 0 1
30.578379 -10.539794 15.158259 35.719705 -0.331929 1.132534 0.164198 -0.015581 -66878.400000 0 0 1
29.880479 -11.169094 16.181359 35.769094 -0.357711 1.101360 0.176046 -0.029802 -275391.000000 0 0 1
28.347179 -11.203594 16.099559 34.471421 -0.376386 1.084855 0.182802 -0.044814 -479981.000000 0 0 1
27.755179 -9.945694 16.385559 33.730600 -0.344082 1.063544 0.175532 -0.048835 -585960.000000 0 0 1
26.868879 -9.537494 15.403059 32.406090 -0.341091 1.075476 0.186507 -0.043918 -340506.000000 0 0 1
26.473279 -8.058294 15.632659 31.782867 -0.295483 1.056574 0.195093 -0.033536 -166917.000000 0 0 1
27.480679 -7.085394 15.514959 32.343539 -0.252336 1.070492 0.185987 -0.028664 -494922.000000 0 0 1
27.005379 -5.803494 15.580859 31.713313 -0.211682 1.057211 0.165376 -0.029008 -434554.000000 0 0 1
28.144879 -4.796394 15.465659 32.470390 -0.168796 1.074354 0.174514 -0.028734 128891.000000 0 0 1
28.741079 -4.723894 14.141659 32.378254 -0.162904 1.118798 0.173903 -0.029920 201021.000000 0 0 1
29.805579 -3.800794 14.173059 33.221893 -0.126835 1.130046 0.180560 -0.021818 -74002.800000 0 0 1
30.207079 -3.376794 12.741559 32.957817 -0.111326 1.173852 0.183852 -0.034984 -107391.000000 0 0 1
31.000779 -4.314594 12.078959 33.549445 -0.138289 1.202491 0.168479 -0.042025 103692.000000 0 0 1
31.054079 -4.007594 10.659559 33.076319 -0.128343 1.242668 0.195393 -0.053865 117795.000000 0 0 1
31.660969 -5.176694 9.830159 33.553646 -0.162070 1.273466 0.183217 -0.048835 381850.000000 0 0 1
33.063659 -5.349994 9.964559 34.944534 -0.160418 1.281630 0.199093 -0.052155 311944.000000 0 0 1
33.473709 -6.280194 9.023659 35.232889 -0.185460 1.311796 0.177228 -0.050789 905057.000000 0 0 1
34.982879 -6.755294 9.094259 36.771475 -0.190755 1.320885 0.156198 -0.046171 1106150.000000 0 0 1
35.960919 -5.814594 8.720359 37.457201 -0.160305 1.335832 0.154277 -0.047471 -729555.000000 0 0 1
37.217089 -6.412594 8.750159 38.765944 -0.170627 1.343117 0.159050 -0.065466 141366.000000 0 0 1
-37.915171 -5.454294 8.431659 39.222473 0.142875 1.354135 0.167834 -0.053900 537148.000000 0 0 1
-37.931481 -4.894394 7.129959 38.904866 0.128323 1.386488 0.155770 -0.049097 -182886.000000 0 0 1
-36.868601 -4.010994 6.861259 37.715496 0.108365 1.387856 0.174532 -0.037230 -56836.100000 0 0 1
-36.759991 -3.480594 5.405859 37.318022 0.094403 1.425426 0.159564 -0.044988 -81164.500000 0 0 1
-36.269721 -4.358894 4.426859 36.797957 0.119606 1.450202 0.191566 -0.062927 52024.200000 0 0 1
-36.307291 -3.647894 3.198859 36.630031 0.100137 1.483356 0.196131 -0.061617 69678.800000 0 0 1
-35.542657 -4.368794 2.041559 35.868298 0.122303 1.513847 0.280830 -0.070311 -236769.000000 0 0 1
-36.052261 -5.619794 1.573659 36.521555 0.154635 1.527694 0.254094 -0.058595 23514.000000 0 0 1
-36.880431 -5.520294 0.404159 37.293473 0.148578 1.559959 0.217230 -0.052579 -9725.410000 0 0 1
-36.166411 -5.479194 -0.952241 36.591496 0.150356 1.596823 0.270551 -0.057703 -1134410.000000 0 0 1
-35.572983 -6.748294 -1.229141 36.228267 0.187475 1.604731 0.258619 -0.069218 399154.000000 0 0 1
-34.616740 -6.785294 -2.283641 35.349312 0.193558 1.635443 0.249065 -0.063698 642443.000000 0 0 1
-33.318341 -5.951494 -1.975341 33.903305 0.176761 1.629093 0.256404 -0.068601 -185723.000000 0 0 1
-32.475391 -6.550494 -0.976141 33.143820 0.199036 1.600252 0.272847 -0.066268 -188780.000000 0 0 1
-31.419341 -5.721294 -0.572741 31.941137 0.180121 1.588728 0.264659 -0.071312 -397985.000000 0 0 1
-30.553631 -6.509694 0.408559 31.242077 0.209919 1.557719 0.240300 -0.062439 -540112.000000 0 0 1
-30.041881 -7.669494 -0.173541 31.005900 0.249954 1.576393 0.221418 -0.034842 229284.000000 0 0 1
-29.543261 -8.616794 0.769159 30.783843 0.283794 1.545808 0.258451 -0.035324 -8806.990000 0 0 1
-29.188761 -9.965094 0.085659 30.843057 0.328994 1.568019 0.206377 -0.024293 -460810.000000 0 0 1
-28.018591 -9.985694 -0.681541 29.752647 0.342361 1.593705 0.206854 -0.029427 -356956.000000 0 0 1
-27.618301 -11.229194 -1.252341 29.840135 0.386170 1.612777 0.160652 -0.007311 -41510.400000 0 0 1
-28.548261 -12.197294 -2.059441 31.112995 0.403776 1.637037 0.146642 -0.008454 142808.000000 0 0 1
-29.473091 -12.992794 -1.307141 32.236383 0.415207 1.611356 0.178824 -0.021240 701520.000000 0 0 1
-30.068891 -14.053194 -2.022441 33.252379 0.437202 1.631655 0.137130 -0.007258 -388153.000000 0 0 1
-31.221031 -14.779394 -1.317041 34.567584 0.442125 1.608906 0.169816 -0.011684 -429332.000000 0 0 1
-30.903141 -15.538194 -0.201141 34.590172 0.465888 1.576611 0.132054 -0.008077 499562.000000 0 0 1
-32.003261 -16.303894 0.322159 35.918372 0.471175 1.561827 0.158731 -0.012247 327687.000000 0 0 1
-32.254271 -17.744994 -0.232841 36.814087 0.502966 1.577121 0.160982 -0.013397 428039.000000 0 0 1
-31.183511 -18.656594 0.092259 36.338524 0.539157 1.568257 0.195236 -0.028172 811184.000000 0 0 1
-31.533671 -20.033894 -0.025041 37.359469 0.565984 1.571467 0.160591 -0.028990 265101.000000 0 0 1
-32.539671 -20.608494 1.032959 38.530601 0.564570 1.543984 0.129461 -0.025039 -155762.000000 0 0 1
-31.996331 -20.893394 2.298059 38.282896 0.578477 1.510732 0.135304 -0.026930 260980.000000 0 0 1
-32.967251 -21.249994 3.274059 39.358879 0.572555 1.487515 0.109441 -0.022493 210175.000000 0 0 1
-32.190561 -21.534494 4.542659 38.994902 0.589595 1.454038 0.112005 -0.024432 104155.000000 0 0 1
-31.683351 -20.374994 5.178859 38.023620 0.571497 1.434171 0.101731 -0.021101 -140263.000000 0 0 1
-30.864131 -20.672594 6.307559 37.679384 0.590164 1.402604 0.105249 -0.028869 486651.000000 0 0 1
-30.118511 -19.405194 6.874959 36.482205 0.572354 1.381216 0.127494 -0.025422 218945.000000 0 0 1
-29.350411 -19.699394 8.024759 36.247889 0.591120 1.347561 0.120843 -0.038952 -330837.000000 0 0 1
-28.749191 -18.519194 8.471759 35.231338 0.572262 1.327956 0.146527 -0.047090 376917.000000 0 0 1
-27.518961 -18.690794 9.412659 34.572202 0.596627 1.295054 0.158935 -0.050298 72239.200000 0 0 1
-27.928241 -19.178994 10.661559 35.517450 0.601760 1.265917 0.141798 -0.050756 -41755.800000 0 0 1
-26.959321 -19.297994 11.704859 35.159938 0.621264 1.231416 0.117328 -0.042257 -323112.000000 0 0 1
-26.381641 -18.004794 12.332159 34.238074 0.598867 1.202326 0.117368 -0.039311 -1355040.000000 0 0 1
-25.508461 -17.312994 11.445659 32.885018 0.596298 1.215305 0.134686 -0.033905 184299.000000 0 0 1
-24.958041 -16.121194 11.973959 32.033926 0.573510 1.187705 0.131044 -0.027549 122527.000000 0 0 1
-24.096951 -16.337994 13.243259 31.984011 0.595815 1.143888 0.115850 -0.026412 -1084210.000000 0 0 1
-24.798051 -16.678594 14.436859 33.189482 0.592083 1.120777 0.106125 -0.040413 -444460.000000 0 0 1
-23.927951 -16.980394 15.457259 33.163345 0.617171 1.085925 0.112849 -0.038720 -310650.000000 0 0 1
-24.685751 -17.661194 16.640759 34.615299 0.621014 1.069304 0.100532 -0.018947 191429.000000 0 0 1
-25.541161 -16.798394 17.326759 35.139060 0.581768 1.055157 0.104804 -0.017646 -590322.000000 0 0 1
-26.533071 -17.482394 18.004859 36.521403 0.582600 1.055268 0.095815 -0.008285 -117118.000000 0 0 1
-27.498231 -16.511294 18.785159 37.170657 0.540750 1.040979 0.110797 -0.007328 155950.000000 0 0 1
-26.999951 -16.094594 20.029659 37.272249 0.537545 1.003460 0.112576 -0.011923 2642.040000 0 0 1
-27.820031 -15.156894 20.705359 37.847027 0.498857 0.991924 0.112474 -0.013865 247395.000000 0 0 1
-27.052101 -14.536494 21.937159 37.740757 0.493081 0.950521 0.108718 -0.015723 1045160.000000 0 0 1
-25.836511 -13.887294 21.504559 36.370706 0.493201 0.938176 0.113905 -0.015996 858902.000000 0 0 1
-25.054101 -13.290894 22.532959 36.222784 0.487739 0.899418 0.116814 -0.020639 228896.000000 0 0 1
-23.893051 -12.488194 21.904859 34.736950 0.481619 0.888480 0.109699 -0.017759 -92981.600000 0 0 1
-24.342751 -11.390694 21.099159 34.168581 0.437664 0.905234 0.119998 -0.010671 150481.000000 0 0 1
-23.266651 -10.722094 20.518359 32.822300 0.431828 0.895492 0.127717 -0.012724 -899703.000000 0 0 1
-22.825051 -9.378994 21.207059 32.537483 0.389874 0.860876 0.139476 -0.013532 525387.000000 0 0 1
-22.154751 -9.540694 22.517759 32.998595 0.406637 0.819775 0.141015 -0.027121 929924.000000 0 0 1
-20.836551 -10.060894 22.404959 32.208161 0.449832 0.801500 0.096162 -0.024964 -154385.000000 0 0 1
-20.176751 -10.276794 23.797759 32.848852 0.471090 0.760542 0.089030 -0.018413 50735.000000 0 0 1
-20.654051 -11.435294 24.505259 34.027393 0.505648 0.766760 0.098832 -0.027354 -21811.800000 0 0 1
-19.983251 -11.554694 25.716059 34.556576 0.524250 0.731501 0.091753 -0.017276 -1560870.000000 0 0 1
-20.281151 -12.814794 26.543059 35.778178 0.563515 0.734929 0.090314 -0.046990 92484.700000 0 0 1
-21.504651 -12.812994 27.228759 36.986864 0.537343 0.743397 0.079626 -0.037919 -747365.000000 0 0 1
-22.707851 -12.679194 26.530859 37.152321 0.509240 0.775444 0.079173 -0.030726 -975440.000000 0 0 1
-23.900051 -12.949894 27.476759 38.650802 0.496553 0.780023 0.073709 -0.028424 -118677.000000 0 0 1
-23.997651 -14.238594 28.078859 39.585946 0.535503 0.782272 0.081572 -0.029454 416653.000000 0 0 1
-23.015051 -14.436194 29.110659 39.818673 0.560216 0.750892 0.070093 -0.030257 323052.000000 0 0 1
-23.581851 -15.370494 30.190059 41.277057 0.577635 0.750423 0.061757 -0.032866 -519357.000000 0 0 1
-23.459451 -16.822194 29.879259 41.546386 0.622094 0.768177 0.064875 -0.031327 -47896.100000 0 0 1
-23.681151 -17.673194 30.955959 42.794977 0.641128 0.762147 0.069123 -0.027444 -139552.000000 0 0 1
-25.105351 -17.864594 31.508559 44.070530 0.618459 0.774233 0.085029 -0.030030 -172435.000000 0 0 1
-25.532681 -16.825794 32.361959 44.523270 0.582669 0.757065 0.100099 -0.033422 -299751.000000 0 0 1
-26.886911 -17.022694 32.705459 45.632501 0.564419 0.771717 0.104975 -0.042811 138228.000000 0 0 1
-27.580481 -15.838294 33.488559 46.184609 0.521276 0.759614 0.099012 -0.034621 83006.900000 0 0 1
-27.436371 -15.809494 -32.433746 45.328164 0.522754 2.368182 0.125790 -0.039562 -184767.000000 0 0 1
-27.951381 -14.642794 -31.930146 44.891261 0.482558 2.362110 0.103382 -0.035162 -359228.000000 0 0 1
-27.641351 -14.424494 -30.436446 43.571637 0.480970 2.344149 0.083213 -0.023350 -197719.000000 0 0 1
-28.329911 -15.201394 -29.542246 43.662461 0.492485 2.313939 0.084198 -0.010102 -214697.000000 0 0 1
-27.447731 -15.494994 -28.497846 42.492352 0.513928 2.305892 0.081567 -0.001350 340218.000000 0 0 1
-28.193871 -15.703894 -27.135546 42.164493 0.508199 2.269942 0.091447 0.003982 39493.200000 0 0 1
-28.880861 -14.540694 -26.649146 41.901228 0.466421 2.260099 0.114359 -0.003793 51159.600000 0 0 1
-28.209201 -13.360994 -26.232346 40.772677 0.442338 2.269702 0.111716 -0.015543 -451200.000000 0 0 1
-27.442721 -13.379894 -24.873746 39.380550 0.453644 2.254444 0.107590 -0.008072 528968.000000 0 0 1
-26.337611 -14.271094 -24.942046 38.979989 0.496566 2.265123 0.084792 -0.020641 350956.000000 0 0 1
-25.459761 -14.240094 -23.825246 37.664599 0.509969 2.255655 0.073702 -0.010858 250024.000000 0 0 1
-24.533651 -15.474794 -23.819146 37.532932 0.562729 2.258313 0.064259 0.000331 -223653.000000 0 0 1
-23.669551 -15.655394 -24.908546 37.759432 0.584358 2.291168 0.075966 0.007348 -5072.940000 0 0 1
-23.244351 -16.998794 -25.027046 38.152482 0.631431 2.286269 0.089985 0.001915 -134410.000000 0 0 1
-22.514351 -17.322394 -26.343546 38.742015 0.655798 2.318523 0.077755 -0.000017 300815.000000 0 0 1
-23.333151 -17.345994 -27.523546 40.035797 0.639267 2.328800 0.088413 -0.006565 228944.000000 0 0 1
-24.120151 -18.494794 -27.679446 41.109498 0.654153 2.309473 0.100996 -0.012996 -635940.000000 0 0 1
-24.853751 -18.522394 -28.974046 42.429746 0.640458 2.322482 0.097747 -0.010168 -428989.000000 0 0 1
-24.010251 -18.659194 -30.103846 42.789008 0.660642 2.351165 0.093887 -0.018755 352183.000000 0 0 1
-24.712751 -18.401894 -31.319246 43.934553 0.640056 2.364366 0.083398 -0.021569 117851.000000 0 0 1
-23.819951 -18.650894 -32.598446 44.473639 0.664285 2.393494 0.083125 -0.028410 -523838.000000 0 0 1
-22.663751 -17.827094 -32.671246 43.575925 0.666511 2.418487 0.080511 -0.023067 1322170.000000 0 0 1
-21.444151 -18.444494 -32.149646 42.821148 0.710339 2.420052 0.082552 -0.031696 923185.000000 0 0 1
-20.970551 -19.710894 -32.887446 43.702030 0.754444 2.422704 0.078208 -0.032058 -1569610.000000 0 0 1
-20.315051 -19.385794 33.219359 43.497541 0.761996 0.701761 0.081511 -0.034492 -152543.000000 0 0 1
-20.173551 -20.473994 32.304459 43.240429 0.792789 0.727124 0.079528 -0.034606 -699890.000000 0 0 1
-21.363451 -20.906094 31.420259 43.366974 0.774579 0.760458 0.073606 -0.030415 -272150.000000 0 0 1
-22.405751 -21.418094 32.226659 44.713644 0.762865 0.765935 0.064524 -0.019523 -470038.000000 0 0 1
-23.548351 -21.874494 31.563159 45.047212 0.748564 0.794462 0.067010 -0.007300 -275046.000000 0 0 1
-23.424351 -23.122094 30.634159 44.964243 0.778905 0.821259 0.072860 -0.006324 -651435.000000 0 0 1
-23.134751 -24.323294 31.358359 45.936761 0.810437 0.819424 0.074665 -0.002191 136044.000000 0 0 1
-23.161251 -25.461004 30.557159 46.026582 0.832661 0.844771 0.083852 0.004786 290080.000000 0 0 1
-22.587551 -26.811604 31.184659 46.920598 0.870699 0.843803 0.096959 -0.014151 275897.000000 0 0 1
-23.505451 -27.227964 32.178359 48.262978 0.858641 0.840984 0.097676 -0.007843 270128.000000 0 0 1
-23.007051 -28.298274 32.950959 49.151627 0.888167 0.836057 0.108404 -0.025307 -1018840.000000 0 0 1
-24.101951 -29.049164 33.638259 50.559771 0.878209 0.842878 0.098792 -0.016288 -46747.100000 0 0 1
-25.153771 -29.730994 32.891459 50.975408 0.868603 0.869457 0.076451 -0.019349 1519310.000000 0 0 1
-26.208501 -28.914444 32.360259 50.696321 0.834448 0.878488 0.062417 -0.012083 -706101.000000 0 0 1
-27.293861 -28.547354 33.309259 51.666362 0.807842 0.870167 0.050420 -0.009142 -1633080.000000 0 0 1
-28.380881 -27.851494 32.769159 51.526672 0.775984 0.881538 0.041360 -0.002437 -125580.000000 0 0 1
-29.280181 -27.597734 -33.471746 52.338530 0.755827 2.264675 0.046737 0.000763 139110.000000 0 0 1
-30.503761 -26.732434 33.415259 52.551708 0.719603 0.881681 0.036195 -0.002609 608122.000000 0 0 1
-31.567921 -27.445794 32.773959 53.140734 0.715661 0.906203 0.024839 -0.008878 557642.000000 0 0 1
-32.759291 -26.683994 32.674959 53.412167 0.683549 0.912524 0.035622 -0.018118 161396.000000 0 0 1
