# x y z rho theta phi s1 s2 stress_xx np intf bulk
-0.843970 -10.791462 -14.485753 18.083279 1.492748 2.499857 -0.003237 0.008203 564285.000000 1 0 0
1.952830 -13.380562 -13.148853 18.861212 -1.425874 2.342193 -0.007189 0.013010 117843.000000 1 0 0
2.131530 -11.141462 -14.773153 18.625832 -1.381765 2.486767 -0.002283 0.009540 883668.000000 1 0 0
-5.608470 -6.212362 -16.489653 18.492080 0.836441 2.671915 0.006403 0.002421 -828743.000000 1 0 0
4.351430 -14.100962 -11.602053 18.771779 -1.271477 2.237067 -0.007758 0.008455 730112.000000 1 0 0
13.929030 -10.696062 -8.059253 19.322918 -0.654857 2.001029 0.016539 -0.000834 667699.000000 1 0 0
7.027830 10.847838 -10.783853 16.833225 0.995930 2.266114 0.016347 -0.011650 915089.000000 1 0 0
5.613730 -4.195262 -12.643153 14.455570 -0.641785 2.635451 -0.001306 -0.000162 4254120.000000 1 0 0
13.521330 0.468438 -10.191253 16.938342 0.034631 2.216384 -0.004593 0.005979 976268.000000 1 0 0
13.927730 5.029838 -10.605653 18.214302 0.346563 2.192315 -0.001512 -0.005474 -1114870.000000 1 0 0
3.969730 4.403638 -13.506753 14.750700 0.837172 2.727965 -0.006069 0.004282 2465760.000000 1 0 0
10.153930 -5.110462 -13.796253 17.876121 -0.466283 2.452416 0.006802 -0.004540 -1174190.000000 1 0 0
2.478930 -7.511462 -12.117553 14.470737 -1.252031 2.563275 0.000273 0.004661 1969390.000000 1 0 0
-5.616570 -1.905662 -15.145853 16.265739 0.327105 2.768352 0.001384 0.000089 180492.000000 1 0 0
10.610430 0.059638 -9.732053 14.397834 0.005621 2.313034 0.003261 0.002332 1225470.000000 1 0 0
-1.792070 -9.541462 -16.961853 19.543681 1.385140 2.621744 0.008193 0.004627 1650640.000000 1 0 0
8.422430 1.584438 -18.060053 19.990329 0.185948 2.698522 -0.003624 0.009145 -74250.800000 1 0 0
16.267530 -6.023362 -8.997853 19.541617 -0.354617 2.049294 0.011567 0.005421 -1126100.000000 1 0 0
10.001930 7.579238 -9.913953 15.992808 0.648460 2.239412 0.007852 -0.003416 776236.000000 1 0 0
13.700530 -2.302762 -10.737253 17.558355 -0.166522 2.228774 0.005505 0.002739 -2190170.000000 1 0 0
7.157430 -1.885862 -13.761353 15.625623 -0.257628 2.648116 0.004747 -0.001842 1900320.000000 1 0 0
-2.863270 6.759938 -13.773853 15.608142 -1.170142 2.651903 -0.004412 0.003053 1925430.000000 1 0 0
10.997630 1.724638 -14.062553 17.935374 0.155552 2.471989 -0.005268 0.002101 121494.000000 1 0 0
-2.325070 10.793538 -12.872353 16.958888 -1.358625 2.432623 -0.000800 0.003745 -2404170.000000 1 0 0
2.664630 -0.996762 -15.279253 15.541858 -0.357956 2.957503 0.001710 -0.002720 -1834440.000000 1 0 0
-9.073770 0.358338 -15.325553 17.813879 -0.039471 2.606684 -0.001886 0.014857 -2076880.000000 1 0 0
2.163430 -1.807362 -17.987553 18.207115 -0.695966 2.986135 0.004469 -0.011442 -2434.940000 1 0 0
1.014830 7.946438 -13.231953 15.468042 1.443775 2.597192 0.000284 0.001424 -1146920.000000 1 0 0
9.263830 -9.188662 -9.959653 16.414772 -0.781325 2.222761 0.008026 -0.000655 -518840.000000 1 0 0
3.893630 7.340638 -13.507953 15.859070 1.083109 2.590111 -0.008015 0.002512 968559.000000 1 0 0
-2.701170 9.298938 -15.460653 18.242761 -1.288095 2.582045 -0.008871 0.005102 1180890.000000 1 0 0
5.463230 -7.552062 -15.361453 17.968159 -0.944532 2.596205 0.002330 -0.001301 -653590.000000 1 0 0
4.248130 7.254438 -16.406553 18.434979 1.041039 2.668073 -0.006592 0.002849 -623816.000000 1 0 0
-0.300570 5.162838 -13.453753 14.413490 -1.512644 2.774609 -0.001789 -0.001399 1159700.000000 1 0 0
8.487930 4.208838 -16.816853 19.301964 0.460331 2.628541 -0.010025 0.007380 -293421.000000 1 0 0
5.161730 0.285038 -14.346453 15.249440 0.055165 2.795737 -0.002619 -0.000193 -302715.000000 1 0 0
6.224430 7.960738 -11.590553 15.377184 0.907195 2.424546 0.001946 -0.001467 15526.500000 1 0 0
2.739530 -8.312962 -15.138153 17.486395 -1.252455 2.617364 0.002447 0.001760 1665740.000000 1 0 0
3.917430 11.611738 -13.731153 18.404436 1.245419 2.412949 0.002073 -0.009382 -2428810.000000 1 0 0
0.454630 -4.516662 -13.754553 14.484289 -1.470478 2.822813 0.003302 0.000799 1018330.000000 1 0 0
8.333130 -0.016662 -11.726153 14.385548 -0.001999 2.523757 -0.002937 0.002549 120848.000000 1 0 0
-1.131070 -5.135762 -16.272653 17.101304 1.354023 2.829017 -0.003526 -0.001385 737610.000000 1 0 0
4.289130 0.919938 -11.716053 12.510348 0.211280 2.783334 -0.000180 -0.000875 -316773.000000 1 0 0
-3.054470 -7.273962 -15.566453 17.451497 1.173238 2.672511 -0.000570 0.006456 1370760.000000 1 0 0
11.238330 -3.734462 -11.508253 16.513211 -0.320817 2.341879 0.004985 -0.001504 1615350.000000 1 0 0
6.424330 -7.086162 -12.591553 15.812429 -0.834346 2.491962 -0.002308 0.002560 -2259250.000000 1 0 0
3.241330 -3.957162 -14.683053 15.548549 -0.884514 2.806366 0.006176 -0.003351 2890380.000000 1 0 0
-0.733570 -1.630062 -18.316853 18.403867 1.147921 3.044312 0.001356 -0.005108 176543.000000 1 0 0
14.713530 2.944738 -8.658553 17.324260 0.197528 2.094157 -0.014797 0.006101 -1290350.000000 1 0 0
6.736430 4.293538 -14.418753 16.483761 0.567439 2.635664 -0.005872 0.005043 429714.000000 1 0 0
10.031630 -9.724762 -14.169953 19.899552 -0.769867 2.363244 0.015839 -0.007611 -1385870.000000 1 0 0
8.864630 -3.314262 -15.735953 18.362631 -0.357784 2.600129 0.009385 -0.007378 -529274.000000 1 0 0
-5.320670 -2.062662 -18.104353 18.982405 0.369832 2.836250 -0.007880 0.010984 -2043050.000000 1 0 0
4.904730 -9.106362 -11.208753 15.251831 -1.076744 2.396333 -0.004405 0.005374 1117200.000000 1 0 0
-2.537870 4.071538 -17.197453 17.854147 -1.013406 2.869531 -0.006620 0.006980 325643.000000 1 0 0
9.451630 9.260838 -14.457153 19.598615 0.775203 2.400397 0.024297 -0.017265 -1156500.000000 1 0 0
9.806730 10.058738 -11.658653 18.255803 0.798083 2.263509 0.018503 -0.009565 660337.000000 1 0 0
11.915930 -5.919862 -9.871353 16.567370 -0.461086 2.209096 0.014475 -0.003751 97551.900000 1 0 0
8.059330 6.857138 -13.706853 17.316205 0.704977 2.484157 0.001744 0.000288 -1023770.000000 1 0 0
3.803130 -4.179562 -17.588053 18.473552 -0.832519 2.830719 0.010566 -0.009829 -232486.000000 1 0 0
9.176830 -7.565762 -12.460153 17.225283 -0.689468 2.379459 0.010071 -0.004837 -241320.000000 1 0 0
11.940530 -8.648462 -8.980653 17.263380 -0.626846 2.117898 0.021445 -0.004722 -11336.300000 1 0 0
-2.984370 -2.410562 -13.841353 14.363158 0.679436 2.871217 -0.002298 -0.001599 -1890150.000000 1 0 0
-0.407870 6.176538 -17.622553 18.678071 -1.504857 2.803801 -0.001363 0.006611 2302450.000000 1 0 0
0.974430 -8.532862 -17.648153 19.626934 -1.457092 2.688689 0.002487 0.004191 550788.000000 1 0 0
0.049730 8.606138 -16.025853 18.190548 1.565018 2.648766 -0.005517 0.006313 -575345.000000 1 0 0
1.617230 3.436238 -14.963153 15.437587 1.130912 2.893032 -0.001153 0.002605 1396910.000000 1 0 0
-2.046070 -0.411462 -15.932353 16.068465 0.198452 3.011341 -0.001641 -0.001654 659191.000000 1 0 0
14.012230 -4.296762 -8.620953 17.003693 -0.297541 2.102503 0.011019 0.002859 32376.300000 1 0 0
0.428830 0.674938 -14.630453 14.652289 1.004780 3.086991 -0.001356 -0.003428 1005180.000000 1 0 0
8.638230 2.788638 -12.609553 15.536935 0.312264 2.517657 -0.004683 0.001653 1445180.000000 1 0 0
5.733030 0.925338 -17.134053 18.091425 0.160025 2.814814 0.001654 0.004006 -959358.000000 1 0 0
15.043030 1.567838 -12.592653 19.680594 0.103849 2.265101 -0.007013 -0.000469 188770.000000 1 0 0
8.753530 -11.320362 -12.048253 18.706557 -0.912577 2.270598 0.013507 0.001121 1500920.000000 1 0 0
-4.623370 0.874938 -15.142553 15.856796 -0.187031 2.840310 -0.003004 0.001373 973389.000000 1 0 0
2.298930 5.169238 -17.214553 18.120346 1.152331 2.824072 -0.003657 0.005442 682705.000000 1 0 0
5.844430 -11.722862 -12.504453 18.109229 -1.108310 2.332979 0.000515 0.007920 1362380.000000 1 0 0
12.759230 7.192038 -8.848353 17.111888 0.513280 2.114242 0.003567 -0.001982 -308490.000000 1 0 0
-5.086670 3.759938 -15.744353 16.967498 -0.636537 2.759570 -0.005976 0.004369 1256200.000000 1 0 0
-0.739170 -4.543262 -19.075353 19.622861 1.409514 2.904813 0.002657 -0.004620 -182298.000000 1 0 0
9.658230 4.431638 -10.314053 14.808798 0.430186 2.341279 -0.002090 0.004029 -493568.000000 1 0 0
13.099230 3.582638 -12.990253 18.792865 0.266971 2.333991 -0.005244 -0.006403 267237.000000 1 0 0
-6.136270 6.017038 -17.115953 19.152399 -0.775588 2.676258 -0.013419 0.009554 -1339160.000000 1 0 0
-10.066770 3.153838 -15.449553 18.707625 -0.303606 2.542491 -0.007229 0.015033 -1558300.000000 1 0 0
10.828030 13.497338 -8.333153 19.205879 0.894694 2.019597 0.020986 -0.003550 588089.000000 1 0 0
7.291930 13.419038 -12.342253 19.636039 1.073033 2.250485 0.031831 -0.019228 459966.000000 1 0 0
5.150930 15.190738 -11.218253 19.573957 1.243879 2.181106 0.017361 -0.017592 222249.000000 1 0 0
14.157330 9.549338 -10.119853 19.850221 0.593417 2.105761 0.022738 -0.007938 -1336090.000000 1 0 0
8.200030 -17.301362 -2.184953 19.270486 -1.128203 1.684424 0.020215 0.007142 -492559.000000 1 0 0
0.709130 -16.075462 -0.021653 16.091110 -1.526712 1.572142 0.008811 -0.003196 1237510.000000 1 0 0
-9.055670 -11.710562 7.562847 16.623450 0.912555 1.098480 0.018861 -0.011992 1138850.000000 1 0 0
1.947630 -15.974362 -2.652953 16.309864 -1.449473 1.734182 0.009267 -0.006509 1346410.000000 1 0 0
-1.452870 -11.089862 -9.468553 14.654329 1.440529 2.273295 0.004605 0.002914 422411.000000 1 0 0
-4.979470 -12.731562 -12.909253 18.802569 1.197975 2.327555 0.010844 0.002395 -254350.000000 1 0 0
-8.144770 -17.839862 -1.742553 19.688434 1.142510 1.659419 -0.007437 -0.004737 -347195.000000 1 0 0
-11.390370 -7.084062 -8.760453 16.020924 0.556392 2.149350 0.005954 -0.000073 2787770.000000 1 0 0
-13.652170 -11.403362 -4.530653 18.356068 0.695885 1.820194 -0.003560 0.002899 -171871.000000 1 0 0
-5.529170 -13.532662 9.759647 17.577127 1.182916 0.982136 0.010139 -0.009024 551037.000000 1 0 0
0.065530 -14.089962 -3.761753 14.583625 -1.566146 1.831689 0.008785 -0.004104 320253.000000 1 0 0
-14.766070 -11.692662 2.086947 18.950211 0.669758 1.460445 -0.008805 0.005231 44675.300000 1 0 0
-4.103470 -16.588362 -7.428853 18.633305 1.328294 1.980881 -0.007277 -0.003664 -206715.000000 1 0 0
0.355630 -15.272262 -9.385853 17.929381 -1.547515 2.121738 -0.002854 0.004208 661694.000000 1 0 0
4.450130 -14.261462 -2.673353 15.176949 -1.268332 1.747866 0.004629 0.004402 1055190.000000 1 0 0
-3.624970 -18.002562 -2.353053 18.514035 1.372095 1.698237 -0.004301 -0.013487 1066180.000000 1 0 0
-0.904570 -13.533462 0.700247 13.581723 1.504056 1.519215 0.000246 -0.000302 2147650.000000 1 0 0
-8.611470 -11.464162 -10.437053 17.734613 0.926550 2.200015 0.011723 0.000283 1986790.000000 1 0 0
-3.669270 -14.166162 -0.411253 14.639427 1.317350 1.598892 -0.005887 0.000210 5056560.000000 1 0 0
-1.755670 -14.981362 -7.354853 16.781461 1.454138 2.024472 -0.004698 -0.002442 201415.000000 1 0 0
-14.222370 -7.859362 -1.726553 16.340941 0.504842 1.676652 -0.006598 0.004433 2379760.000000 1 0 0
-10.717570 -7.299162 -11.581953 17.386365 0.597892 2.299833 0.004761 -0.001341 -2639.810000 1 0 0
-9.471870 -14.695562 6.757047 18.743894 0.998269 1.202000 0.012926 -0.009915 -680645.000000 1 0 0
-2.583270 -14.312862 -12.255253 19.019004 1.392233 2.270994 0.014213 0.003647 -269576.000000 1 0 0
2.228730 -17.845262 -4.895553 18.638322 -1.446548 1.836575 0.011367 -0.004151 -1681230.000000 1 0 0
-6.734170 -9.653862 -9.192753 14.934952 0.961708 2.233841 0.006578 -0.002734 165517.000000 1 0 0
-10.966470 -15.464862 0.424147 18.963262 0.953975 1.548428 -0.002535 0.001049 2325670.000000 1 0 0
-12.621070 -11.090862 4.186047 17.315358 0.720954 1.326624 0.014189 -0.002990 2896100.000000 1 0 0
-17.079170 -8.887362 -1.438153 19.306774 0.479805 1.645355 -0.011176 0.006320 999051.000000 1 0 0
-1.574370 -19.176062 -4.051353 19.662488 1.488879 1.778328 -0.009863 -0.007646 -11038.200000 1 0 0
3.119930 -14.288762 -8.831753 17.085156 -1.355822 2.114052 -0.002249 0.004181 -479710.000000 1 0 0
-4.444370 -8.047762 -13.035453 15.951236 1.066228 2.527344 0.004375 0.005981 1361320.000000 1 0 0
5.516930 -16.595662 1.231147 17.531921 -1.249857 1.500515 0.006372 0.005243 3618770.000000 1 0 0
-2.833470 -13.800962 -3.234353 14.455315 1.368301 1.796455 -0.002750 -0.004291 -740478.000000 1 0 0
-0.311670 -14.080562 3.694847 14.560607 1.548665 1.314235 -0.001027 0.005179 -4494120.000000 1 0 0
1.261130 -16.261662 7.015347 17.755202 -1.493399 1.164603 0.003270 -0.001146 1235070.000000 1 0 0
-5.662270 -10.397362 -14.514853 18.730921 1.072118 2.457375 0.013270 0.003396 128224.000000 1 0 0
-0.463070 -17.355162 -5.997653 18.368122 1.544121 1.903421 -0.002699 -0.005020 -434489.000000 1 0 0
-6.477970 -13.400062 -1.228853 14.934384 1.120494 1.653173 0.001862 -0.004579 2508910.000000 1 0 0
-1.728870 -17.781962 -0.172753 17.866645 1.473875 1.580465 -0.002427 -0.002786 1477720.000000 1 0 0
-9.592470 -9.792262 -4.784253 14.518710 0.795704 1.906595 0.012516 -0.002151 1214510.000000 1 0 0
-0.802870 -16.779262 4.872347 17.490798 1.522984 1.288495 0.007321 -0.004842 1899510.000000 1 0 0
-6.953270 -9.873862 -6.303453 13.622578 0.957251 2.051858 0.009566 -0.001470 2696350.000000 1 0 0
-6.176670 -14.660962 -8.565853 18.068450 1.172063 2.064713 0.007314 -0.002354 120493.000000 1 0 0
-5.881170 -12.265262 -10.211253 17.008659 1.123684 2.214743 0.009225 -0.004179 -425456.000000 1 0 0
-10.856870 -12.043962 -8.621353 18.364541 0.837188 2.059471 0.004820 -0.014291 -566813.000000 1 0 0
4.059430 -17.004262 6.571347 18.676362 -1.336452 1.211246 0.009061 -0.005960 -626659.000000 1 0 0
-6.789470 -14.412762 -4.110053 16.453484 1.130557 1.823268 0.004032 -0.006511 -175612.000000 1 0 0
-3.039870 -12.280962 -7.206553 14.560125 1.328147 2.088575 0.006401 -0.001834 2128350.000000 1 0 0
-7.005370 -12.835162 4.348547 15.255375 1.071187 1.281738 0.005155 -0.004997 2988090.000000 1 0 0
2.592630 -16.490562 2.343147 16.856770 -1.414854 1.431341 0.003495 0.000424 2002990.000000 1 0 0
-6.095370 -12.136962 7.217047 15.380025 1.105378 1.082357 0.007242 -0.003212 2047600.000000 1 0 0
-11.162670 -12.896162 -0.841153 17.076994 0.857326 1.620073 0.000250 0.005857 1173430.000000 1 0 0
-14.119470 -8.721762 4.646347 17.234184 0.553341 1.297818 0.004040 -0.004143 -749491.000000 1 0 0
-7.870370 -15.591262 4.386147 18.007456 1.103321 1.324747 0.007268 -0.001797 1473570.000000 1 0 0
-16.440770 -9.252962 1.384147 18.916450 0.512622 1.497559 -0.011331 0.005867 -407214.000000 1 0 0
-6.614170 -17.131162 2.268447 18.503238 1.202339 1.447890 -0.004089 0.001738 704161.000000 1 0 0
-11.693870 -14.969662 -4.499653 19.521379 0.907642 1.803386 0.005787 0.004530 322360.000000 1 0 0
-10.143270 -10.007262 -12.489053 18.947497 0.778649 2.290471 0.005672 0.002312 -1090870.000000 1 0 0
-4.414370 -16.006962 -4.522553 17.209386 1.301707 1.836715 -0.008208 -0.004985 82048.200000 1 0 0
-11.807970 -8.341462 0.101447 14.457470 0.615026 1.563779 0.000592 0.003174 1859690.000000 1 0 0
-9.584470 -11.179862 3.553047 15.148450 0.862081 1.334042 0.007745 -0.004114 1194740.000000 1 0 0
-14.168270 -13.010562 -0.447853 19.240976 0.742828 1.594074 -0.011104 0.015116 638897.000000 1 0 0
5.478230 -14.826262 -7.224553 17.378815 -1.216861 1.999520 0.005474 -0.004846 -614344.000000 1 0 0
-7.431170 -10.545462 -1.190853 12.955585 0.956937 1.662844 0.007592 -0.002407 1533040.000000 1 0 0
-11.727270 -8.152962 -5.923053 15.462283 0.607507 1.963908 0.001351 -0.000196 56970.600000 1 0 0
-14.326870 -6.512462 -9.222953 18.241004 0.426642 2.100893 -0.017409 -0.001329 932734.000000 1 0 0
-3.890270 -16.510562 1.385247 17.019159 1.339394 1.489313 -0.001720 -0.003867 680053.000000 1 0 0
-7.913170 -15.581262 0.140647 17.476091 1.100877 1.562748 0.001063 -0.000163 597216.000000 1 0 0
1.032330 -18.705462 3.770647 19.109626 -1.515664 1.372176 0.007089 -0.003757 2628230.000000 1 0 0
-14.152670 -8.641962 -4.481553 17.177482 0.548195 1.834748 -0.009691 0.000251 617111.000000 1 0 0
-3.128970 -14.610662 11.154447 18.646276 1.359826 0.929527 -0.001432 -0.006541 -224446.000000 1 0 0
-10.941170 -12.126062 -3.696953 16.745687 0.836720 1.793401 0.006313 -0.002223 1667020.000000 1 0 0
-9.976570 -10.706062 0.620147 14.647058 0.820654 1.528444 0.005107 0.000889 2623690.000000 1 0 0
-0.180970 -13.160162 -11.152153 17.250888 1.557046 2.273743 0.003543 0.002034 665469.000000 1 0 0
-6.076970 -12.685562 -6.362353 15.438024 1.124052 1.995578 0.001181 -0.006609 2373840.000000 1 0 0
1.885730 -15.940762 9.936047 18.878266 -1.453047 1.016527 0.000785 -0.002526 -142246.000000 1 0 0
-9.112370 -15.754162 -5.391853 18.981596 1.046403 1.858819 0.007563 0.000657 153652.000000 1 0 0
-3.241070 -15.470462 5.973847 16.897532 1.364283 1.209450 -0.001659 0.001041 -1217190.000000 1 0 0
-17.389370 -5.394362 -6.468453 19.321755 0.300798 1.912163 -0.012953 0.001498 939532.000000 1 0 0
18.850430 5.594638 -2.970553 19.886248 0.288510 1.720735 -0.007520 0.011755 -134580.000000 1 0 0
12.631730 -12.510062 -6.079353 18.788847 -0.780559 1.900288 0.018677 0.003719 -183700.000000 1 0 0
10.842630 -13.521762 -1.783353 17.423577 -0.894919 1.673329 0.014207 0.005804 1831200.000000 1 0 0
18.648130 -3.026062 4.377947 19.392685 -0.160869 1.343081 -0.001117 -0.003138 -1273720.000000 1 0 0
8.747030 -16.786262 4.946447 19.564163 -1.090425 1.315190 0.009671 -0.006621 -194764.000000 1 0 0
18.075330 -1.137562 6.553347 19.260269 -0.062852 1.223611 0.009949 0.001636 -544044.000000 1 0 0
17.927630 -4.161062 -5.167853 19.115990 -0.228065 1.844544 0.020286 0.007895 -639400.000000 1 0 0
5.554530 -11.670862 14.622147 19.515866 -1.126588 0.723876 -0.009537 0.002430 759714.000000 1 0 0
15.898430 -8.961262 -0.990153 18.276890 -0.513268 1.624998 0.008682 0.001293 -135283.000000 1 0 0
13.666030 -12.632062 -1.551353 18.674476 -0.746101 1.653966 0.018050 0.007240 -691345.000000 1 0 0
11.086630 -1.868262 13.677247 17.705109 -0.166946 0.688023 -0.007567 -0.005249 67521.300000 1 0 0
16.943730 -6.200262 -1.528353 18.107156 -0.350798 1.655303 0.011777 0.000524 -876135.000000 1 0 0
17.826730 3.546138 -1.074053 18.207718 0.196359 1.629819 -0.004789 0.006863 1527030.000000 1 0 0
9.716530 -11.096362 9.466647 17.525913 -0.851598 1.000179 -0.001681 0.000141 210654.000000 1 0 0
8.995730 -11.040762 4.211747 14.851276 -0.887111 1.283255 -0.001242 0.000437 -300317.000000 1 0 0
13.940330 -10.173262 6.734847 18.525286 -0.630429 1.198722 0.000655 -0.004944 85593.800000 1 0 0
16.254730 -0.467062 -4.829753 16.963517 -0.028726 1.859505 0.003712 0.008901 -214461.000000 1 0 0
15.765530 -0.520662 -1.841353 15.881234 -0.033013 1.687003 0.004567 0.002696 652069.000000 1 0 0
12.825130 -5.250862 -0.434053 13.865205 -0.388600 1.602107 0.011130 -0.004736 1076050.000000 1 0 0
14.190930 -7.611862 0.935547 16.130660 -0.492333 1.512766 0.009631 -0.001609 1512460.000000 1 0 0
15.579430 2.403838 3.495247 16.146635 0.153088 1.352600 0.005760 -0.002112 886267.000000 1 0 0
15.802730 -7.184762 4.846047 18.023076 -0.426717 1.298566 0.009394 -0.010014 -1176450.000000 1 0 0
13.538330 -12.098962 3.182647 18.433679 -0.729314 1.397273 0.004351 0.000205 355073.000000 1 0 0
14.096630 -1.067162 9.097747 16.811390 -0.075559 0.998974 0.008384 -0.003145 332106.000000 1 0 0
14.101830 -2.880462 -1.728853 14.496469 -0.201490 1.690341 0.006791 0.002096 729681.000000 1 0 0
15.117930 1.750438 9.069347 17.716346 0.115272 1.033378 0.012187 0.001404 -2057530.000000 1 0 0
14.237430 -10.214562 -3.136753 17.801149 -0.622338 1.747932 0.007005 0.002247 1439570.000000 1 0 0
7.236430 -12.531962 6.049347 15.684725 -1.047132 1.174847 -0.007168 -0.002408 -620558.000000 1 0 0
12.418530 -4.661362 6.801147 14.906502 -0.359082 1.097016 0.006122 -0.006882 2723210.000000 1 0 0
14.797530 -9.019862 -5.786353 18.270377 -0.547413 1.893052 0.013173 0.000010 136361.000000 1 0 0
14.279130 -4.548462 4.407447 15.620744 -0.308377 1.284758 0.010279 -0.007826 29712.900000 1 0 0
17.093730 -4.311462 0.830547 17.648630 -0.247071 1.523719 0.002111 -0.003809 -1379210.000000 1 0 0
10.087230 -14.500462 0.967347 17.690432 -0.962997 1.516087 0.013423 0.006545 -463036.000000 1 0 0
16.496030 -2.632162 8.544547 18.763171 -0.158229 1.097987 0.017273 0.001038 546251.000000 1 0 0
16.049130 -2.665962 2.996147 16.542637 -0.164609 1.388675 0.007119 -0.004662 1447870.000000 1 0 0
7.743730 -15.212062 2.642847 17.273009 -1.099933 1.417189 0.000909 0.003836 1478780.000000 1 0 0
16.472830 -7.055862 7.737647 19.519491 -0.404691 1.163197 0.001581 -0.005513 -1768750.000000 1 0 0
10.246830 -8.536762 5.016447 14.249161 -0.694608 1.211034 0.002141 -0.004205 420674.000000 1 0 0
10.869330 -11.852962 2.072547 16.215132 -0.828660 1.442630 0.005756 0.003694 868332.000000 1 0 0
12.351730 -7.329462 11.908647 18.657495 -0.535549 0.878539 -0.008646 -0.002964 -15495.800000 1 0 0
15.049130 -9.896762 4.117747 18.476419 -0.581720 1.346044 0.004299 -0.003243 -1375990.000000 1 0 0
7.337530 -10.236862 7.736147 14.781092 -0.948900 1.019982 -0.005254 0.001001 959536.000000 1 0 0
15.123030 -3.306662 -4.563253 16.138876 -0.215263 1.857455 0.006873 0.003434 1791620.000000 1 0 0
11.836330 -9.009062 9.661747 17.737285 -0.650590 0.994748 -0.012689 -0.005401 -1616720.000000 1 0 0
16.853230 -6.816462 2.277047 18.321585 -0.384346 1.446192 0.007726 -0.004742 1827300.000000 1 0 0
17.674030 3.957838 1.908247 18.212008 0.220301 1.465824 0.005997 0.001165 1548760.000000 1 0 0
14.716030 -4.938762 8.688147 17.788671 -0.323793 1.060531 0.006651 -0.005175 304125.000000 1 0 0
12.660630 -12.625362 6.028147 18.868754 -0.784003 1.245618 -0.006061 0.002896 -942612.000000 1 0 0
18.131830 0.646638 -0.872653 18.164331 0.035648 1.618857 0.000249 0.003317 -642757.000000 1 0 0
11.783930 -2.130162 10.824647 16.142230 -0.178837 0.835807 0.002520 -0.003033 623122.000000 1 0 0
5.878330 -12.507362 10.574547 17.401435 -1.131444 0.917657 -0.007872 0.003680 -1721570.000000 1 0 0
10.826230 -5.023662 10.974347 16.213597 -0.434457 0.827307 -0.004895 -0.001116 575128.000000 1 0 0
17.875030 1.298938 5.013547 18.610202 0.072540 1.298029 0.007071 -0.000673 -1026890.000000 1 0 0
12.251530 -7.752762 7.031547 16.113596 -0.564188 1.119232 0.000295 -0.007176 -1026310.000000 1 0 0
10.742630 -7.820662 14.228647 19.468468 -0.629273 0.751221 -0.007741 -0.004697 -648008.000000 1 0 0
14.219330 -0.305562 3.627247 14.677862 -0.021486 1.321086 0.008000 -0.003616 935022.000000 1 0 0
11.633830 -7.681462 2.463847 14.157027 -0.583561 1.395868 0.007183 -0.004209 462018.000000 1 0 0
9.305630 5.979738 3.417547 11.577204 0.571151 1.271135 0.006825 -0.004280 1534070.000000 1 0 0
-4.033570 14.879538 -9.789153 18.261923 -1.306077 2.136538 0.006125 -0.006126 -460355.000000 1 0 0
8.901230 -6.417562 9.143647 14.283672 -0.624665 0.876107 -0.000221 -0.005647 -1109120.000000 1 0 0
5.699530 -10.461462 -8.535853 14.655634 -1.071945 2.192509 -0.004289 0.000774 756867.000000 1 0 0
5.335230 1.062938 0.483447 5.461524 0.196655 1.482162 0.001046 -0.002225 2469220.000000 1 0 0
-0.403070 9.872838 10.990447 14.779219 -1.529993 0.732295 -0.002678 0.006187 359229.000000 1 0 0
-6.331970 -5.218062 1.109547 8.279681 0.689254 1.436383 0.002393 -0.000521 2422500.000000 1 0 0
-1.106670 3.976038 -10.867753 11.625044 -1.299332 2.778652 0.001336 -0.001631 1798190.000000 1 0 0
10.920130 5.703238 1.186247 12.376726 0.481303 1.474804 0.007025 -0.003470 770820.000000 1 0 0
-10.198370 -1.828562 -13.661753 17.146249 0.177414 2.492740 0.000970 0.004689 1064230.000000 1 0 0
7.328330 10.923838 -5.998253 14.457306 0.979899 1.998623 0.008387 -0.002918 447490.000000 1 0 0
-12.393470 -2.903762 -9.526353 15.899098 0.230146 2.213267 0.000165 0.001122 9376.760000 1 0 0
-3.854670 -8.634662 2.479247 9.775609 1.150925 1.314380 0.004064 0.001034 -547921.000000 1 0 0
7.945730 -6.562962 -6.059053 11.954883 -0.690379 2.102296 -0.004172 -0.002883 2518700.000000 1 0 0
14.263730 3.128138 -4.256853 15.210524 0.215889 1.854447 0.002381 0.005155 244841.000000 1 0 0
-2.458970 -4.998062 9.825047 11.294189 1.113582 0.515755 -0.004589 0.000342 1669250.000000 1 0 0
3.426530 -1.866062 -4.579853 6.016506 -0.498682 2.435980 -0.004744 -0.000499 -1850090.000000 1 0 0
-4.002870 8.430038 -3.421953 9.939732 -1.127483 1.922258 -0.003379 0.001210 707444.000000 1 0 0
5.841130 0.084638 11.707647 13.084150 0.014489 0.462822 0.010720 -0.005687 3091740.000000 1 0 0
7.381130 4.684138 12.447947 15.210971 0.565480 0.612256 0.014133 -0.003107 440443.000000 1 0 0
1.287030 -14.560462 12.394247 19.164573 -1.482633 0.867511 -0.004868 -0.001433 -150067.000000 1 0 0
2.954730 8.725538 -9.022653 12.894716 1.244286 2.345798 -0.000713 0.000206 2029020.000000 1 0 0
-4.534370 -8.933762 -4.565053 11.009647 1.101124 1.998345 0.008268 -0.000196 1150520.000000 1 0 0
5.714930 -6.522762 -4.073353 9.581182 -0.851314 2.009914 -0.002355 -0.001339 1100830.000000 1 0 0
-3.087370 3.457338 8.716247 9.872082 -0.841867 0.488753 -0.004193 0.003411 257673.000000 1 0 0
-3.909670 3.276838 -11.126453 12.240144 -0.697566 2.711706 -0.003806 -0.000222 -932034.000000 1 0 0
3.104230 -6.086462 8.514147 10.916592 -1.099163 0.676247 -0.004057 0.000701 -1113880.000000 1 0 0
-5.032770 -8.783462 10.534047 14.609727 1.050480 0.765509 0.007216 -0.004406 973169.000000 1 0 0
-13.175070 -2.524262 6.625247 14.961560 0.189300 1.112057 0.005842 -0.002419 36599.000000 1 0 0
3.880330 -5.957262 -8.396953 11.002488 -0.993465 2.439027 -0.002277 0.002297 2469960.000000 1 0 0
2.920730 -0.512862 12.464147 12.812051 -0.173822 0.233573 0.005060 -0.003873 1396480.000000 1 0 0
1.428130 -1.439962 -7.551553 7.819143 -0.789523 2.879221 -0.003175 -0.001016 -61422.000000 1 0 0
3.580430 -3.476362 3.376147 6.025192 -0.770652 0.976002 -0.003343 -0.002527 1893330.000000 1 0 0
1.367330 0.493338 -11.865753 11.954458 0.346267 3.019696 0.000038 -0.003331 619036.000000 1 0 0
3.936330 3.613138 -10.670953 11.933930 0.742614 2.677368 -0.003728 0.000017 2469720.000000 1 0 0
2.788030 3.280938 3.435347 5.508110 0.866438 0.897343 -0.005750 0.001731 -2663410.000000 1 0 0
-5.322470 0.863238 2.675047 6.019115 -0.160787 1.110264 -0.001979 -0.000131 1556940.000000 1 0 0
-9.446370 -9.298462 5.761147 14.452893 0.777508 1.160790 0.010336 -0.004609 -2579520.000000 1 0 0
-3.002970 3.895838 -0.453353 4.939728 -0.914106 1.662702 -0.007401 0.001181 -124037.000000 1 0 0
-15.791870 -6.498862 5.057947 17.810143 0.390408 1.282841 0.010850 -0.007885 468633.000000 1 0 0
0.930930 6.734138 -8.045453 10.533022 1.433427 2.440025 0.000034 -0.000054 -531158.000000 1 0 0
-1.652270 6.623338 -9.478653 11.680901 -1.326324 2.517452 -0.001118 0.000514 888530.000000 1 0 0
2.088830 -0.364962 5.230347 5.643841 -0.172975 0.385168 -0.003315 -0.000529 1354720.000000 1 0 0
-3.425670 -0.510262 -6.329453 7.215092 0.147865 2.640903 0.001091 -0.001481 198098.000000 1 0 0
1.834930 -1.206862 -2.399753 3.253044 -0.581780 2.400445 -0.001196 -0.000512 770384.000000 1 0 0
2.343430 -8.628662 -7.595853 11.732112 -1.305606 2.275018 -0.002682 0.004102 1470360.000000 1 0 0
-2.440070 14.164538 -5.529553 15.400131 -1.400205 1.938056 0.008901 -0.001482 1795850.000000 1 0 0
6.788730 -5.065762 -8.304453 11.862240 -0.641066 2.346298 -0.003340 -0.002232 2655090.000000 1 0 0
-14.220470 -4.927862 -2.084853 15.193821 0.333583 1.708448 -0.001840 0.000560 -115735.000000 1 0 0
-2.808470 7.032138 -6.835453 10.201072 -1.190828 2.305102 0.000287 -0.000107 -2718770.000000 1 0 0
-5.685070 -1.043562 -8.085253 9.938830 0.181541 2.520944 0.002606 -0.002947 -247259.000000 1 0 0
-5.664670 -10.582562 3.520947 12.509044 1.079322 1.285468 0.004487 -0.001390 -3839630.000000 1 0 0
8.119730 -7.559762 6.553747 12.885326 -0.749700 1.037214 -0.001838 -0.002329 -88335.000000 1 0 0
8.865130 -5.886862 13.057347 16.844584 -0.586187 0.683819 -0.005315 0.000193 1312770.000000 1 0 0
-4.717670 9.549438 -0.746453 10.677330 -1.111939 1.640763 -0.002621 0.004332 429967.000000 1 0 0
2.905330 6.602838 12.135347 14.117545 1.156279 0.536323 0.007335 -0.001105 1399400.000000 1 0 0
5.961930 -2.814662 10.893747 12.733447 -0.441084 0.544238 0.001971 -0.004132 -593364.000000 1 0 0
-9.720070 -6.523262 -1.047953 11.752911 0.591074 1.660080 0.004241 -0.001511 293133.000000 1 0 0
0.894530 -13.446862 6.313047 14.881964 -1.504371 1.132709 -0.005617 0.003626 -589213.000000 1 0 0
-0.469770 -3.174462 8.792347 9.359662 1.423879 0.349957 -0.004789 -0.000283 852072.000000 1 0 0
4.195230 0.768938 3.326047 5.408679 0.181277 0.908478 -0.002704 -0.001100 1478200.000000 1 0 0
-10.122670 5.581438 8.441447 14.313592 -0.503902 0.940047 -0.002171 -0.001004 946652.000000 1 0 0
9.409230 7.900338 -0.042953 12.286204 0.698447 1.574292 0.005028 -0.002374 410753.000000 1 0 0
4.325730 2.878038 8.254047 9.753171 0.587077 0.561807 -0.000122 0.000088 4000470.000000 1 0 0
1.242430 2.606538 -9.676453 10.098089 1.125995 2.851600 0.000298 -0.000971 2161270.000000 1 0 0
-1.359870 -10.184862 2.999247 10.704025 1.438063 1.286796 -0.001792 0.000525 -1116910.000000 1 0 0
-9.746270 9.593938 9.205047 16.485336 -0.777522 0.978367 -0.000435 -0.002629 172985.000000 1 0 0
9.699330 -2.047862 -7.828453 12.631525 -0.208078 2.239227 0.002757 0.000867 1908860.000000 1 0 0
-5.124270 -1.853062 6.772947 8.692801 0.346993 0.677497 -0.003124 0.001407 633666.000000 1 0 0
3.079130 -7.777762 -4.927953 9.708725 -1.193839 2.103170 -0.004872 0.001425 1294700.000000 1 0 0
-5.199770 5.049338 -13.136253 15.003151 -0.770722 2.637403 -0.006069 0.000815 2285880.000000 1 0 0
-5.598970 9.618938 5.578047 12.449379 -1.043659 1.106204 -0.008060 0.004003 2222400.000000 1 0 0
-0.548170 -1.828462 -9.313253 9.506863 1.279525 2.939430 -0.000720 -0.000840 -44653.800000 1 0 0
-16.721170 0.056938 6.545647 17.956789 -0.003405 1.197677 0.008654 -0.003453 -909612.000000 1 0 0
-5.960770 -2.877762 4.151047 7.813033 0.449780 1.010665 -0.004119 0.001113 1305630.000000 1 0 0
0.988330 -5.610262 -5.117653 7.657820 -1.396421 2.302705 -0.002063 0.001761 -17386.200000 1 0 0
-7.069770 1.429738 -8.466753 11.122576 -0.199541 2.435992 -0.004438 0.001364 -110622.000000 1 0 0
7.953930 1.899338 4.708447 9.436205 0.234403 1.048379 0.006286 -0.003561 246202.000000 1 0 0
0.462730 -8.152662 -0.500753 8.181123 -1.514099 1.632043 -0.004782 0.001804 1354680.000000 1 0 0
5.280230 5.492738 -3.377353 8.334117 0.805122 1.988042 0.003553 -0.001635 1907870.000000 1 0 0
-0.806170 -0.364962 -1.205353 1.495320 0.425106 2.508300 -0.002831 -0.000205 164661.000000 1 0 0
9.019830 6.433238 -6.397253 12.793308 0.619552 2.094449 0.003308 -0.001014 2000220.000000 1 0 0
-14.928570 -7.085062 2.508347 16.713830 0.443120 1.420151 -0.005339 -0.003263 -305912.000000 1 0 0
-6.320170 6.773438 9.033747 12.939575 -0.820002 0.797988 -0.000065 0.003890 -434042.000000 1 0 0
-9.489170 -3.151962 -9.671253 13.910871 0.320698 2.339536 0.003736 0.002238 -342847.000000 1 0 0
14.901530 3.419438 -1.368053 15.349910 0.225564 1.660039 0.001315 0.000873 2391730.000000 1 0 0
12.009830 1.611438 -5.804053 13.435765 0.133380 2.017489 0.004324 0.005017 440193.000000 1 0 0
1.866530 -9.438162 12.678247 15.915426 -1.375552 0.649145 -0.005558 -0.002917 -352043.000000 1 0 0
-3.542070 6.380638 7.905247 10.758798 -1.064025 0.745468 -0.004135 0.007097 1154750.000000 1 0 0
-4.000670 13.197538 -12.234753 18.435551 -1.276464 2.296484 0.001652 -0.002049 41519.200000 1 0 0
-10.179870 7.843038 6.674547 14.480766 -0.656459 1.091759 -0.006390 0.001173 32544.600000 1 0 0
8.019330 -9.255962 -7.195653 14.204221 -0.856860 2.102016 0.002042 -0.000916 745527.000000 1 0 0
5.774530 -3.852562 -0.391753 6.952762 -0.588347 1.627171 0.001174 -0.001956 -1502110.000000 1 0 0
-1.599470 -4.477662 4.140847 6.305107 1.227712 0.854302 -0.002640 0.000034 375324.000000 1 0 0
9.849830 -2.064962 -2.586253 10.390954 -0.206652 1.822335 0.008144 -0.002051 -2471870.000000 1 0 0
13.494630 7.036638 1.303547 15.274768 0.480652 1.485352 0.000163 -0.000901 -1090710.000000 1 0 0
5.390730 -3.657462 -3.297753 7.301518 -0.596131 2.039414 -0.000264 -0.002289 -1780590.000000 1 0 0
-12.236670 -5.975062 1.970847 13.759422 0.454237 1.427066 -0.004024 0.000288 376368.000000 1 0 0
3.690430 -5.758162 -0.232453 6.843226 -1.000842 1.604771 -0.001629 -0.002019 86957.000000 1 0 0
-5.288170 3.778438 -8.743353 10.894381 -0.620396 2.502364 -0.002058 0.000076 333006.000000 1 0 0
-1.654970 -9.279562 7.242047 11.886818 1.394306 0.915682 -0.002515 0.000122 2498180.000000 1 0 0
-7.416570 -7.455562 2.726147 10.863830 0.788020 1.317147 0.006274 -0.002325 -3879510.000000 1 0 0
-5.782770 13.152338 -8.417953 16.651917 -1.156561 2.100786 0.011570 -0.010207 1347200.000000 1 0 0
9.116230 -13.956262 -4.369053 17.232862 -0.992175 1.827124 0.014336 0.008317 1087120.000000 1 0 0
-6.544470 -5.145562 -6.700953 10.686892 0.666298 2.248525 0.005177 0.000074 1898430.000000 1 0 0
3.368030 0.372938 -6.280453 7.136301 0.110280 2.646808 -0.002649 -0.002116 699278.000000 1 0 0
-3.553370 5.806038 5.053947 8.478142 -1.021591 0.932143 -0.005706 0.004811 1496660.000000 1 0 0
-2.758270 -10.815662 -2.823253 11.513355 1.321093 1.818538 0.004278 0.002080 894049.000000 1 0 0
-12.523670 -0.395362 1.844947 12.665009 0.031559 1.424603 -0.002749 -0.000276 325341.000000 1 0 0
8.213830 -12.001262 -6.109853 15.774270 -0.970608 1.968530 0.007345 -0.000535 -133500.000000 1 0 0
6.060130 3.879438 0.956747 7.258828 0.569425 1.438607 0.001426 -0.001636 -917783.000000 1 0 0
3.381030 -4.799262 -11.026953 12.492316 -0.957064 2.652371 -0.001228 -0.000521 364356.000000 1 0 0
-7.514270 4.210038 8.815847 12.325090 -0.510696 0.773777 -0.000925 0.002465 1670570.000000 1 0 0
8.204530 8.696438 4.077847 12.632149 0.814495 1.242094 0.004965 0.000731 1230720.000000 1 0 0
0.225830 10.590738 -6.273853 12.311619 1.549476 2.105502 0.000107 0.003338 1496120.000000 1 0 0
5.447730 8.058738 3.236247 10.251552 0.976358 1.249619 -0.001618 0.003032 1540620.000000 1 0 0
7.934230 6.640538 -3.790453 11.018906 0.696868 1.921965 0.001711 -0.000834 437263.000000 1 0 0
10.404630 2.560838 -8.310153 13.559973 0.241328 2.230451 -0.000980 0.003909 177169.000000 1 0 0
3.222530 -12.494362 -0.399553 12.909432 -1.318379 1.601752 -0.003306 0.003583 -2587630.000000 1 0 0
0.614330 2.067038 5.301347 5.723140 1.281907 0.386324 -0.004573 0.001815 1055860.000000 1 0 0
-4.870870 13.493838 1.523947 14.426762 -1.224382 1.464966 -0.006452 0.006353 1707330.000000 1 0 0
8.124430 4.116338 -8.093053 12.183928 0.468963 2.297273 -0.003972 0.003520 233536.000000 1 0 0
-13.849970 -0.522162 -3.527853 14.301750 0.037683 1.820042 -0.004633 -0.002417 -529246.000000 1 0 0
-8.545570 -0.040762 -0.435353 8.556749 0.004770 1.621697 -0.003571 -0.000520 170715.000000 1 0 0
1.767230 -3.821362 -1.032853 4.335054 -1.137628 1.811366 -0.002199 -0.002329 -2026830.000000 1 0 0
7.980830 -5.678262 -0.395253 9.802680 -0.618394 1.611128 0.001309 -0.002028 2100810.000000 1 0 0
-2.267770 -1.165162 7.424047 7.849641 0.474620 0.330803 -0.002477 0.000793 2705010.000000 1 0 0
-5.842870 8.955938 -11.626253 15.796129 -0.992735 2.397967 -0.000561 0.003408 -748192.000000 1 0 0
-6.221870 9.208438 -8.775353 14.160290 -0.976586 2.239177 0.001760 -0.001854 -828994.000000 1 0 0
-1.576570 14.116938 -8.347853 16.476048 -1.459578 2.102110 0.014481 -0.004600 1066300.000000 1 0 0
-1.406270 7.206138 9.799047 12.244482 -1.378070 0.643030 -0.008089 0.005109 1039410.000000 1 0 0
10.048830 2.299238 -4.068053 11.082172 0.224935 1.946665 0.004310 0.000208 -1579520.000000 1 0 0
-3.066670 -7.509062 -6.890153 10.642588 1.183073 2.274982 0.005539 0.001636 1063570.000000 1 0 0
-5.472070 -5.019962 -1.573053 7.590656 0.742334 1.779544 0.005885 -0.000228 1252090.000000 1 0 0
5.618530 7.416838 -8.811753 12.815005 0.922489 2.328991 0.001266 0.001139 -1920470.000000 1 0 0
-9.619570 5.330138 -7.411453 13.261830 -0.505980 2.163802 -0.005095 0.002587 -270873.000000 1 0 0
-0.508170 6.140538 -5.326953 8.144990 -1.488228 2.283677 -0.003073 0.001834 -566431.000000 1 0 0
-8.229770 2.903738 -6.286453 10.755477 -0.339197 2.195046 -0.002872 0.000840 1343500.000000 1 0 0
3.553830 1.398238 -2.062153 4.340190 0.374843 2.065908 -0.001601 -0.000747 2875840.000000 1 0 0
-6.749870 12.503738 -3.418253 14.614673 -1.075796 1.806875 0.001103 0.001111 1513910.000000 1 0 0
-6.502770 3.220138 -2.272053 7.603784 -0.459796 1.874237 -0.003545 0.000835 -1887650.000000 1 0 0
12.102330 4.026338 -0.893953 12.785810 0.321172 1.640771 0.005536 -0.003617 755855.000000 1 0 0
2.249230 12.384538 -5.406553 13.699147 1.391139 1.976498 0.003865 -0.001902 1229510.000000 1 0 0
-9.179970 -1.332062 -4.191753 10.179245 0.144100 1.995218 -0.002783 0.000395 -936410.000000 1 0 0
-1.081070 5.754838 3.525447 6.834885 -1.385106 1.028853 -0.006758 0.003554 334541.000000 1 0 0
11.759830 2.589638 11.920847 16.944215 0.216751 0.790437 0.009806 -0.003510 283728.000000 1 0 0
-7.017970 -2.272962 -5.718453 9.333754 0.313216 2.230223 0.003163 0.000203 2889550.000000 1 0 0
7.637230 -7.387262 10.764147 15.125006 -0.768762 0.778911 -0.002042 -0.002063 -455760.000000 1 0 0
-5.550870 -1.874862 -10.954553 12.422942 0.325729 2.650462 0.001256 0.000410 -1584710.000000 1 0 0
0.795230 -6.223862 4.480947 7.710236 -1.443714 0.950632 -0.007169 0.000701 481435.000000 1 0 0
-4.766570 -9.489462 7.446847 12.970182 1.105309 0.959229 0.003449 -0.002680 1669370.000000 1 0 0
-8.639570 9.309438 1.699247 12.813869 -0.822701 1.437795 -0.004908 0.003770 582924.000000 1 0 0
-8.185270 7.322938 -9.042253 14.226257 -0.729850 2.259586 0.000269 0.003239 -627131.000000 1 0 0
-1.372270 -10.692362 -0.081453 10.780369 1.443153 1.578352 0.000619 0.001636 -864970.000000 1 0 0
-3.966970 10.426038 7.892847 13.665144 -1.207224 0.955023 -0.000920 0.006967 1870080.000000 1 0 0
-7.426170 12.065238 2.097247 14.321886 -1.019057 1.423831 -0.007319 0.003033 694798.000000 1 0 0
-8.227870 -8.278162 -2.838353 12.011747 0.788445 1.809351 0.011667 -0.003167 682498.000000 1 0 0
5.323830 4.555538 -8.079153 10.694335 0.707787 2.427154 -0.001356 0.002296 -2008.450000 1 0 0
-8.946670 -0.134562 -10.325353 13.662866 0.015039 2.427555 -0.002428 0.003693 -2050680.000000 1 0 0
-15.180170 -2.192562 -1.472253 15.408193 0.143444 1.666492 -0.005907 -0.001585 -835763.000000 1 0 0
-7.072770 -5.786962 8.774947 12.669361 0.685742 0.805693 0.006855 0.001428 -1686200.000000 1 0 0
8.109530 3.358638 -0.998953 8.834186 0.392653 1.684117 0.005183 -0.000537 2254090.000000 1 0 0
11.895530 7.168738 -5.951353 15.110031 0.542359 1.975632 0.003395 0.001034 1336970.000000 1 0 0
3.772130 13.353738 -9.428853 16.776607 1.295492 2.167627 0.002238 -0.007260 382940.000000 1 0 0
-9.696870 5.443838 -0.496453 11.131537 -0.511555 1.615410 -0.004272 0.000880 2241650.000000 1 0 0
11.163830 -1.408862 -5.266753 12.423956 -0.125535 2.008564 0.007640 0.001304 -1498260.000000 1 0 0
10.659630 1.721738 -1.280253 10.873415 0.160136 1.688812 0.008808 -0.002309 631156.000000 1 0 0
14.647430 5.006138 4.647547 16.161941 0.329329 1.279117 0.004245 -0.005489 3290920.000000 1 0 0
0.876730 -0.782862 10.355347 10.421840 -0.728897 0.113021 -0.000365 -0.001198 2060380.000000 1 0 0
-7.999670 1.341338 -12.702653 15.071539 -0.166129 2.573305 -0.004809 0.004646 -131923.000000 1 0 0
3.063930 -11.529862 -7.884753 14.300165 -1.311061 2.154808 -0.003320 0.002555 -623073.000000 1 0 0
2.780430 5.045438 -6.770153 8.889443 1.067126 2.436567 -0.002423 0.002647 -2302330.000000 1 0 0
6.480030 7.975538 0.511547 10.288910 0.888487 1.521057 0.003727 -0.002117 42757.700000 1 0 0
-9.022770 -5.403862 6.835547 12.543397 0.539620 0.994465 0.001628 0.002539 -951023.000000 1 0 0
-0.395770 -6.856262 -11.891953 13.732571 1.513136 2.617877 0.003996 0.004692 2233890.000000 1 0 0
6.344830 -13.432162 -4.659753 15.568980 -1.129503 1.874752 0.004352 0.001254 1856350.000000 1 0 0
-3.251570 -0.327762 10.085247 10.601526 0.100462 0.313366 -0.004706 0.001689 -526130.000000 1 0 0
8.670230 8.424638 6.963747 13.951387 0.771033 1.048186 -0.002503 0.004425 222937.000000 1 0 0
-7.900070 5.738638 -2.705253 10.132199 -0.628227 1.841070 -0.003125 -0.000262 -388097.000000 1 0 0
-5.368870 5.842538 -6.430753 10.213452 -0.827622 2.251880 -0.000752 0.000939 -591530.000000 1 0 0
3.237030 -13.627162 2.480647 14.224328 -1.337576 1.395505 -0.002889 -0.002244 -1318790.000000 1 0 0
-11.227770 -7.084762 6.574447 14.814858 0.562905 1.110991 0.012011 -0.002274 -1183000.000000 1 0 0
-12.860070 -3.643562 -6.685253 14.944884 0.276088 2.034571 0.001448 -0.000921 -1040820.000000 1 0 0
6.023430 0.369638 -7.312053 9.480741 0.061290 2.451604 -0.000354 0.000583 -1003600.000000 1 0 0
-1.450170 2.208238 -2.463353 3.612120 -0.989719 2.321247 -0.005256 -0.000545 2723440.000000 1 0 0
7.582030 1.001738 -5.001853 9.138336 0.131359 2.149989 0.002076 0.001662 -413774.000000 1 0 0
3.620830 -4.410362 10.874347 12.280600 -0.883391 0.483249 0.002096 -0.003511 109776.000000 1 0 0
5.993830 -2.609062 2.057647 6.853256 -0.410555 1.265848 0.002302 -0.003913 -1528340.000000 1 0 0
-6.213870 7.769838 1.184547 10.019267 -0.896212 1.452292 -0.007348 0.003410 -702300.000000 1 0 0
6.027730 -3.436262 7.889347 10.506342 -0.518126 0.721353 0.005187 -0.007103 1544800.000000 1 0 0
6.659930 -2.218562 -7.950153 10.605735 -0.321559 2.418267 -0.002813 -0.000716 912681.000000 1 0 0
11.931330 -8.176662 -5.995953 15.657774 -0.600799 1.963771 0.012720 -0.003866 377526.000000 1 0 0
5.646430 -9.643262 9.963247 14.971338 -1.041084 0.842649 -0.009060 0.002550 1580520.000000 1 0 0
-6.677070 7.633238 -4.494553 11.092817 -0.852116 1.987969 0.001180 0.000504 273170.000000 1 0 0
-1.231770 -7.628862 9.771047 12.457534 1.410716 0.669151 -0.003141 -0.001085 -1905150.000000 1 0 0
10.010130 -9.304162 0.664347 13.682525 -0.748863 1.522223 0.003397 -0.003745 270586.000000 1 0 0
11.207230 5.993038 9.734747 16.008867 0.491058 0.917151 0.001005 -0.001198 3050890.000000 1 0 0
-15.247270 -4.129062 -4.910853 16.542215 0.264464 1.872207 -0.011178 0.001526 -3902.560000 1 0 0
-4.621370 -4.633162 7.854747 10.223517 0.786672 0.694612 0.001825 -0.000350 -993910.000000 1 0 0
2.918630 10.910338 -11.028953 15.785806 1.309406 2.344323 0.000271 -0.002577 -653746.000000 1 0 0
9.892630 -1.348062 1.558947 10.105034 -0.135435 1.415903 0.007361 -0.005285 -328265.000000 1 0 0
-1.661770 -2.612262 0.739247 3.183061 1.004225 1.336412 -0.002369 -0.001798 -272057.000000 1 0 0
1.562730 3.011538 0.901947 3.510697 1.092132 1.310969 -0.008340 0.000722 -1650510.000000 1 0 0
-8.941370 -2.359262 4.393947 10.238212 0.257979 1.127221 -0.001403 0.001665 3044290.000000 1 0 0
9.877630 4.877838 -2.699353 11.342283 0.458697 1.811092 0.002402 0.000632 2853830.000000 1 0 0
2.622830 8.471438 2.514047 9.217643 1.270548 1.294553 -0.005980 0.001982 722879.000000 1 0 0
-8.112770 -0.129162 2.495247 8.488815 0.015919 1.272444 -0.004376 -0.000375 987043.000000 1 0 0
6.972230 1.968438 13.719047 15.514477 0.275164 0.485860 0.009998 -0.005091 817258.000000 1 0 0
6.820730 4.351438 3.696647 8.895087 0.567873 1.142213 0.000937 -0.002107 -165761.000000 1 0 0
-0.318970 3.329538 7.794947 8.482262 -1.475288 0.405335 -0.005887 0.002759 1027730.000000 1 0 0
2.773830 -10.257462 9.126247 14.007072 -1.306692 0.861176 -0.011320 -0.001049 1817630.000000 1 0 0
1.365930 -4.563162 6.867947 8.358045 -1.279947 0.606379 -0.006825 -0.000132 -356315.000000 1 0 0
-0.203870 10.800938 -1.901553 10.968944 -1.551923 1.745034 -0.000758 0.000067 3133790.000000 1 0 0
8.883430 5.430238 7.959247 13.105435 0.548670 0.918108 0.002701 0.000162 -930656.000000 1 0 0
2.647430 11.418138 -2.833153 12.058587 1.342960 1.807962 0.002322 -0.005409 484880.000000 1 0 0
1.406930 2.431038 -6.645053 7.214300 1.046159 2.741679 -0.003545 -0.000654 503540.000000 1 0 0
-13.529370 -2.167462 3.645647 14.178593 0.158854 1.310752 -0.000286 -0.003088 431256.000000 1 0 0
-1.140570 -10.698362 -5.338953 12.010839 1.464586 2.031425 0.001536 0.002115 125894.000000 1 0 0
-5.616870 2.888338 0.555247 6.340349 -0.474963 1.483110 -0.002619 0.000651 -502969.000000 1 0 0
3.655630 7.315038 -4.995353 9.582638 1.107355 2.119161 0.001740 -0.001640 -3098090.000000 1 0 0
2.980230 9.819438 -6.439353 12.114801 1.276129 2.131199 0.003120 0.000049 337749.000000 1 0 0
-12.158070 1.693938 -2.473253 12.522183 -0.138435 1.769613 -0.000621 -0.002770 -220273.000000 1 0 0
-2.543770 9.679038 -5.669253 11.501955 -1.313796 2.086210 -0.001018 0.000599 2359000.000000 1 0 0
-1.289770 3.381938 1.821047 4.051817 -1.206453 1.104658 -0.008631 0.000226 -152364.000000 1 0 0
12.983030 3.658638 9.451847 16.470644 0.274678 0.959585 0.007464 -0.002112 -1436120.000000 1 0 0
-2.410670 -9.572462 11.650247 15.269958 1.324092 0.702929 -0.001790 -0.005889 1376690.000000 1 0 0
-0.543570 -8.967862 -7.516853 11.714141 1.510257 2.267497 0.005264 0.002373 2753240.000000 1 0 0
2.298630 7.645538 -0.420153 7.994653 1.278743 1.623375 -0.003713 -0.000413 1123800.000000 1 0 0
-11.776670 -1.290562 -5.448553 13.040024 0.109151 2.001855 0.000301 -0.000559 -2078710.000000 1 0 0
-6.282170 -7.188462 -10.912553 14.499084 0.852576 2.422855 0.005122 0.001562 1076710.000000 1 0 0
-4.711070 -2.331762 -1.407653 5.441763 0.459603 1.832447 -0.001227 -0.000073 -2850920.000000 1 0 0
-10.353870 3.716338 4.645647 11.941350 -0.344610 1.171208 -0.003833 0.002475 3514570.000000 1 0 0
6.715830 9.322538 -3.601253 12.040810 0.946519 1.874532 0.006868 -0.002110 -53752.500000 1 0 0
1.170530 -2.637962 -11.537453 11.892931 -1.153173 2.896481 0.000585 -0.000925 -967349.000000 1 0 0
1.235430 8.822238 7.597247 11.707960 1.431665 0.864664 -0.007092 0.008992 1019600.000000 1 0 0
10.453830 0.450938 10.328247 14.702333 0.043109 0.791906 0.003903 -0.003666 383847.000000 1 0 0
-5.234070 -0.756462 -3.867553 6.551770 0.143533 2.202235 0.000166 -0.000010 -745533.000000 1 0 0
11.730630 5.575138 5.332747 14.040229 0.443663 1.181196 0.002489 -0.001808 3926590.000000 1 0 0
9.902130 -3.512662 3.586147 11.101866 -0.340890 1.241875 0.011179 -0.009175 -1663570.000000 1 0 0
7.230830 -1.577562 -3.433253 8.158482 -0.214806 2.005145 0.001663 -0.000627 -2783250.000000 1 0 0
2.458730 9.242838 10.498147 14.201637 1.310803 0.738884 -0.002174 0.007116 1816920.000000 1 0 0
2.372430 -10.896262 6.358547 12.836981 -1.356413 1.052581 -0.010462 0.001777 783016.000000 1 0 0
5.801830 -7.523562 -1.321653 9.592288 -0.913893 1.709019 -0.001281 -0.002514 484679.000000 1 0 0
-0.242170 -5.620062 -2.306253 6.079683 1.527733 1.959877 -0.001578 0.001379 1501210.000000 1 0 0
7.726630 -5.047962 2.582547 9.583960 -0.578706 1.297958 0.004631 -0.006248 1301730.000000 1 0 0
-2.588670 -12.529762 4.620747 13.603215 1.367061 1.224219 -0.001150 0.002422 155941.000000 1 0 0
4.794830 -10.333362 -1.189953 11.453591 -1.136349 1.674878 -0.003291 -0.000230 756543.000000 1 0 0
0.932730 0.241538 1.090247 1.454980 0.253392 0.723760 -0.007950 0.000690 -2423240.000000 1 0 0
-1.537470 8.545838 2.491047 9.033298 -1.392792 1.291413 -0.007079 0.003739 385403.000000 1 0 0
-7.493870 0.656838 -2.982153 8.092142 -0.087427 1.948218 -0.002896 0.000828 -868633.000000 1 0 0
4.494230 -6.249762 12.819047 14.952779 -0.947363 0.540790 0.000610 0.000531 -889643.000000 1 0 0
-5.000670 13.195538 8.535647 16.492004 -1.208553 1.026796 0.004636 0.000181 1716520.000000 1 0 0
0.722430 6.082938 8.330147 10.339990 1.452587 0.634068 -0.004870 0.006324 856494.000000 1 0 0
7.910830 -0.511162 -0.748853 7.962619 -0.064526 1.664982 0.005298 -0.003324 4026920.000000 1 0 0
2.311830 -9.243362 -2.429953 9.833055 -1.325717 1.820504 -0.004184 0.001340 857338.000000 1 0 0
-7.036170 12.080338 4.963447 14.835028 -1.043383 1.229641 -0.008952 0.001419 -776539.000000 1 0 0
-14.891070 0.284938 0.264747 14.896149 -0.019132 1.553023 -0.000516 -0.003289 1308680.000000 1 0 0
6.796730 -0.580862 3.875647 7.845609 -0.085255 1.054124 0.006772 -0.005391 1634910.000000 1 0 0
-4.126470 -5.012362 5.127847 8.273231 0.882033 0.902293 0.001126 0.000391 955497.000000 1 0 0
2.921130 5.094738 6.876847 9.043251 1.050194 0.706806 -0.006372 0.003667 -784969.000000 1 0 0
2.029230 -7.261662 1.804447 7.752776 -1.298303 1.335893 -0.007206 -0.000595 1398310.000000 1 0 0
-2.458570 6.465438 -1.751853 7.135506 -1.207419 1.818844 -0.005537 0.003169 293412.000000 1 0 0
2.698230 -3.756062 -6.608253 8.065820 -0.947850 2.530969 -0.003851 0.000076 -852707.000000 1 0 0
-5.158070 0.949538 -12.235953 13.312620 -0.182050 2.736648 -0.002691 0.001682 323628.000000 1 0 0
-7.516570 6.551638 -11.825253 15.468012 -0.716916 2.441057 -0.002818 0.000487 1343010.000000 1 0 0
-1.091070 11.308338 -8.981753 14.482431 -1.474610 2.239772 0.002024 0.002612 1365670.000000 1 0 0
4.577430 5.888338 -0.607753 7.482964 0.910006 1.652104 0.000510 -0.000504 -29194.900000 1 0 0
-2.589870 13.402638 3.599347 14.117133 -1.379913 1.312987 -0.008729 0.006354 268634.000000 1 0 0
1.551730 -7.909362 10.113947 12.932819 -1.377068 0.672868 -0.006719 -0.000547 -1419880.000000 1 0 0
12.919930 -0.324362 -1.111353 12.971697 -0.025100 1.656577 0.009943 0.000672 616549.000000 1 0 0
-1.151570 3.130038 -5.408253 6.353932 -1.218257 2.589000 -0.002394 -0.002021 1761490.000000 1 0 0
6.608730 1.108138 7.285447 9.898537 0.166132 0.743635 0.007858 -0.004361 1825180.000000 1 0 0
5.516530 -6.096862 6.765847 10.648029 -0.835328 0.882259 -0.002316 -0.002068 1925860.000000 1 0 0
12.193730 -4.893462 2.446547 13.364828 -0.381635 1.386700 0.007184 -0.006312 -981816.000000 1 0 0
4.561930 -9.074562 13.787447 17.124619 -1.104978 0.634911 -0.009738 0.001638 468096.000000 1 0 0
-2.663970 -4.295162 -1.375553 5.238062 1.015638 1.836520 0.001162 -0.001447 2925460.000000 1 0 0
-9.343870 -5.044962 -7.546153 13.027047 0.495073 2.188627 0.007414 -0.001248 242342.000000 1 0 0
-10.520570 -3.163062 7.952747 13.562210 0.292058 0.944201 0.002224 -0.000098 211486.000000 1 0 0
12.044330 -0.554362 1.615547 12.164835 -0.045994 1.437598 0.009477 -0.006555 681621.000000 1 0 0
-7.537670 4.762238 4.472247 9.974787 -0.563468 1.105872 -0.004040 0.001305 1492670.000000 1 0 0
-1.077570 10.642238 7.035847 12.803185 -1.469886 0.988984 -0.002640 0.007515 1744620.000000 1 0 0
7.313730 -9.989062 1.759847 12.504762 -0.938802 1.429593 -0.002069 -0.003765 3408920.000000 1 0 0
-4.363870 -1.723162 1.690847 4.987145 0.376076 1.224899 -0.004324 0.001492 1169360.000000 1 0 0
6.630530 -15.008862 -0.965453 16.436605 -1.154804 1.629568 0.009340 0.004844 -812778.000000 1 0 0
-10.371670 1.693438 2.450347 10.790898 -0.161847 1.341723 -0.006442 0.003505 1763210.000000 1 0 0
-2.997870 8.417838 -11.348153 14.443953 -1.228668 2.474572 -0.002956 0.002201 595462.000000 1 0 0
-1.305070 -5.165562 -6.901553 8.718811 1.323327 2.484171 -0.000253 0.001105 -1287230.000000 1 0 0
12.988830 -0.543162 6.337247 14.462553 -0.041793 1.117220 0.010176 -0.006096 2998770.000000 1 0 0
5.891030 -13.243362 3.603447 14.935719 -1.152251 1.327128 -0.004329 0.000679 794915.000000 1 0 0
-5.492570 3.552638 -4.943453 8.199225 -0.574128 2.217949 -0.002116 0.000833 1852220.000000 1 0 0
-4.321770 8.064138 3.393647 9.758323 -1.078824 1.215605 -0.007434 0.004535 332498.000000 1 0 0
14.012430 6.180938 -4.031353 15.836792 0.415431 1.828185 0.003017 0.003630 -708297.000000 1 0 0
-6.700170 -8.573562 5.392647 12.144089 0.907443 1.110677 0.009585 -0.002658 1211750.000000 1 0 0
1.788030 11.407538 2.745747 11.868787 1.415320 1.337340 -0.002935 -0.000030 542229.000000 1 0 0
-7.342470 7.276538 6.105647 12.005782 -0.780888 1.037286 -0.007497 0.001199 -793240.000000 1 0 0
-17.367870 -4.050362 5.360647 18.622161 0.229115 1.278801 0.020233 -0.015669 -918696.000000 1 0 0
7.336630 -12.940062 -8.679353 17.222152 -1.055018 2.098979 0.010560 -0.000612 -1142160.000000 1 0 0
-2.329870 12.895538 -2.748453 13.389443 -1.392052 1.777536 0.000884 0.002239 1421560.000000 1 0 0
-5.500170 14.055338 -5.698453 16.133095 -1.197793 1.931802 0.009252 -0.002781 3886550.000000 1 0 0
-5.589070 2.367038 7.523047 9.666272 -0.400610 0.678877 -0.001898 0.002291 1921830.000000 1 0 0
-7.389770 5.087638 1.449747 9.088153 -0.602946 1.410591 -0.003347 0.001816 2083040.000000 1 0 0
10.664730 -5.651062 -5.200453 13.142134 -0.487267 1.977635 0.007483 -0.002918 1756840.000000 1 0 0
-9.534270 -0.714562 6.936547 11.812222 0.074807 0.943158 -0.002798 0.001600 830298.000000 1 0 0
-11.267470 -4.580862 -2.527453 12.422890 0.386146 1.775678 -0.001117 -0.000515 1272640.000000 1 0 0
6.550230 -4.213362 13.464847 15.555065 -0.571607 0.524400 -0.000862 -0.002913 -459476.000000 1 0 0
0.187330 10.374138 -11.592853 15.558022 1.552741 2.411536 -0.001875 0.003139 -1664170.000000 1 0 0
-11.744870 -3.205862 1.468047 12.262736 0.266467 1.450792 -0.005642 -0.000443 4895100.000000 1 0 0
5.239830 5.916038 5.453447 9.601844 0.845939 0.966773 -0.002001 0.002497 -4956030.000000 1 0 0
-7.142270 -0.001762 8.210847 10.882557 0.000247 0.715910 -0.002167 0.000813 404382.000000 1 0 0
1.766430 2.074838 9.679147 10.055403 0.865514 0.274423 -0.000814 0.000111 1431380.000000 1 0 0
10.378830 -4.912862 -2.178753 11.687741 -0.442105 1.758307 0.005626 -0.000428 2099010.000000 1 0 0
-9.635970 -2.359362 -1.641053 10.055424 0.240125 1.734730 -0.001474 -0.000017 -1271990.000000 1 0 0
-2.095970 -5.237462 -9.886953 11.383142 1.190128 2.623087 0.003612 0.001898 1489870.000000 1 0 0
7.667630 -1.582162 6.517447 10.186899 -0.203487 0.876575 0.008720 -0.006439 1515330.000000 1 0 0
1.416030 -11.898662 -2.672253 12.276980 -1.452346 1.790216 -0.000097 0.002764 -2929050.000000 1 0 0
-0.785670 -1.502562 4.887447 5.173211 1.089007 0.333932 -0.003827 0.000724 3467410.000000 1 0 0
7.740030 1.472838 9.859247 12.620700 0.188040 0.674216 0.011335 -0.005521 1108190.000000 1 0 0
-3.925470 10.791838 -7.924553 13.952477 -1.221930 2.174831 0.005225 0.001653 2191930.000000 1 0 0
-9.415970 12.690538 6.498547 17.086292 -0.932456 1.180636 -0.006969 0.001278 316659.000000 1 0 0
-2.603270 -2.447162 -11.044553 11.608090 0.754498 2.828719 0.001691 -0.002100 -1106650.000000 1 0 0
1.262130 -11.921662 11.055047 16.307454 -1.465321 0.825875 -0.008114 0.000621 846340.000000 1 0 0
1.357330 3.511738 -1.871953 4.204623 1.201971 2.032208 -0.006057 0.000368 2756870.000000 1 0 0
-1.987070 -9.444062 -12.130953 15.501573 1.363417 2.469568 0.003280 0.005303 182271.000000 1 0 0
1.231430 -2.590862 1.608347 3.288733 -1.127105 1.059799 -0.002493 -0.000874 1921310.000000 1 0 0
-1.123570 -2.257162 -6.613353 7.077685 1.108926 2.777353 -0.000770 -0.002452 -228834.000000 1 0 0
1.819430 5.902138 4.148447 7.440106 1.271773 0.979330 -0.008128 0.003876 -2888450.000000 1 0 0
-10.853270 8.626138 3.763447 14.365488 -0.671560 1.305725 -0.011215 0.002342 1914370.000000 1 0 0
-16.298670 -1.589062 4.081847 16.877003 0.097189 1.326516 0.005512 -0.006580 -378973.000000 1 0 0
-12.202570 0.285738 6.924447 14.033258 -0.023412 1.054766 0.000430 0.001082 -829884.000000 1 0 0
-5.085270 3.046238 4.762647 7.604101 -0.539707 0.893965 -0.004216 0.003500 1272100.000000 1 0 0
5.166030 -5.968062 3.864447 8.788605 -0.857308 1.115519 -0.003107 -0.003639 867018.000000 1 0 0
9.973830 3.324338 6.160347 12.185171 0.321726 1.040764 0.004502 -0.001832 463978.000000 1 0 0
-12.017170 5.878638 3.244747 13.765869 -0.454959 1.332848 -0.004745 0.001502 1048620.000000 1 0 0
-4.868470 12.379638 -1.226253 13.358934 -1.196110 1.662718 -0.004210 0.006213 1999610.000000 1 0 0
-1.588270 -12.231962 10.268847 16.049695 1.441673 0.876538 -0.001410 -0.003189 147427.000000 1 0 0
5.329930 6.278438 13.953847 16.202987 0.866926 0.533190 0.014321 -0.005005 2147010.000000 1 0 0
12.848730 -3.719362 -6.148353 14.721609 -0.281771 2.001644 0.006322 0.001314 2590420.000000 1 0 0
3.534230 -2.523362 6.345447 7.689138 -0.620046 0.600155 -0.004303 -0.000447 248699.000000 1 0 0
7.153730 -11.896862 -0.669053 13.898159 -1.029412 1.618955 0.001333 0.004788 -477125.000000 1 0 0
-6.168270 -6.546762 -4.076453 9.875480 0.815157 1.996306 0.006756 -0.000096 -815979.000000 1 0 0
0.329630 -8.943362 5.064747 10.283192 -1.533955 1.055806 -0.008232 0.002120 2151960.000000 1 0 0
-10.167570 2.475738 -0.350253 10.470503 -0.238846 1.604254 -0.005090 0.000846 -1398400.000000 1 0 0
-1.871270 8.975238 -0.341453 9.174592 -1.365248 1.608022 -0.003924 0.002241 -202692.000000 1 0 0
-3.530070 2.334138 -6.703553 7.927623 -0.584219 2.578474 0.002834 -0.001949 512761.000000 1 0 0
-12.617770 3.035238 6.530347 14.528118 -0.236067 1.104594 -0.002196 0.000332 118531.000000 1 0 0
11.436930 1.555638 7.818747 13.941169 0.135189 0.975398 0.008750 -0.003980 -1316510.000000 1 0 0
5.932430 2.618838 -3.248653 7.252984 0.415716 2.035218 0.000160 0.000369 1352130.000000 1 0 0
10.550530 -2.364262 6.314547 12.521059 -0.220448 1.042209 0.011591 -0.008744 4094630.000000 1 0 0
-0.848770 10.988238 4.150847 11.776728 -1.493706 1.210596 -0.002428 0.004536 2606380.000000 1 0 0
-1.572770 -12.193862 7.393547 14.346722 1.442524 1.029383 -0.003561 0.002466 72136.900000 1 0 0
8.017230 8.704938 -7.786553 14.166239 0.826501 2.152748 0.008022 -0.002694 1984760.000000 1 0 0
-4.740670 -5.987962 -8.684453 11.565006 0.901137 2.420258 0.005592 0.001383 308054.000000 1 0 0
-8.576370 -5.229662 -11.631653 15.368761 0.547577 2.429257 0.008573 0.000008 2717350.000000 1 0 0
5.886630 -0.601462 -10.002753 11.621929 -0.101821 2.607399 -0.000844 0.001851 571380.000000 1 0 0
-11.175870 -5.428162 -5.303853 13.509103 0.452145 1.974268 -0.000816 -0.003416 -417980.000000 1 0 0
3.797430 8.899638 -2.698353 10.045155 1.167491 1.842759 0.002687 -0.002073 1879760.000000 1 0 0
11.560030 -10.457362 -4.135753 16.127466 -0.735358 1.830135 0.014517 0.000438 600896.000000 1 0 0
3.937830 -11.299462 3.900747 12.585713 -1.235461 1.255672 -0.006314 0.001568 -947714.000000 1 0 0
-1.004670 0.837438 3.189747 3.447485 -0.694863 0.389131 -0.006025 0.001015 -530080.000000 1 0 0
-10.594970 -5.099662 4.588547 12.621993 0.448599 1.198736 0.003432 -0.001099 4558360.000000 1 0 0
4.596230 -8.604962 2.801447 10.149818 -1.080213 1.291156 -0.005495 -0.001202 4020640.000000 1 0 0
-3.653370 -5.771662 2.601647 7.309430 1.006476 1.206887 0.000972 0.001015 1441150.000000 1 0 0
10.248930 5.051338 12.323447 16.805474 0.457923 0.747634 0.008476 -0.001663 483682.000000 1 0 0
1.481230 -12.346662 -5.388553 13.552513 -1.451397 1.979702 -0.000261 0.001502 1943440.000000 1 0 0
9.753930 -10.752762 -1.817853 14.630982 -0.834067 1.695365 0.004575 0.000938 281613.000000 1 0 0
9.464730 -4.549762 -9.395053 14.090723 -0.448094 2.300642 0.003786 -0.001539 1855030.000000 1 0 0
-7.456570 -3.019962 -13.126853 15.395937 0.384815 2.591772 -0.000318 0.002678 2579260.000000 1 0 0
0.400130 6.253938 -2.472153 6.736719 1.506903 1.946543 -0.005765 0.000387 1258930.000000 1 0 0
-5.944270 -9.513262 1.043447 11.266112 1.012312 1.478045 0.005747 -0.000457 -587428.000000 1 0 0
-8.950770 -4.093862 0.658347 9.864553 0.428970 1.504008 -0.000595 -0.000342 1285340.000000 1 0 0
1.926730 3.829538 12.124647 12.860199 1.104653 0.339852 0.001466 -0.001831 247971.000000 1 0 0
6.778030 4.253638 9.645547 12.532825 0.560440 0.692546 0.008606 0.001155 2685620.000000 1 0 0
-8.366870 9.901838 -3.612953 13.457501 -0.869223 1.842602 -0.000534 0.001187 3386240.000000 1 0 0
16.285730 2.247138 -6.247553 17.587113 0.137116 1.933961 -0.008876 0.010926 -917470.000000 1 0 0
-10.891970 2.700338 -4.993653 12.282646 -0.243020 1.989484 -0.003145 0.000344 1151980.000000 1 0 0
-13.692670 4.100038 1.524247 14.374382 -0.290937 1.464557 -0.002367 0.002918 54165.000000 1 0 0
-17.207170 10.571738 3.307247 20.464267 -0.550926 1.408474 0.002453 0.003426 -533077.000000 1 0 0
-14.280270 2.871838 -1.105553 14.608073 -0.198458 1.646550 -0.000093 -0.000533 570828.000000 1 0 0
-14.197470 5.156438 5.167147 15.964223 -0.348380 1.241190 -0.005603 0.004757 -260791.000000 1 0 0
-17.235370 7.553938 3.199147 19.088072 -0.413066 1.402402 -0.006251 0.009258 -1754230.000000 1 0 0
-15.047170 12.689438 -3.439553 19.981734 -0.700598 1.743793 0.029964 -0.009609 602154.000000 1 0 0
-8.536870 12.659738 -9.440953 17.952122 -0.977506 2.124565 0.001526 -0.013019 103137.000000 1 0 0
-12.541370 8.876538 -9.795153 18.221523 -0.615929 2.138337 -0.002765 0.002856 -922295.000000 1 0 0
-13.878670 -3.404662 -12.153753 18.759608 0.240566 2.275579 -0.007472 0.004573 -381949.000000 1 0 0
-14.776170 5.649238 -7.534353 17.521859 -0.365173 2.015286 0.003689 0.007828 592165.000000 1 0 0
-10.965070 13.694138 -8.311053 19.412258 -0.895621 2.013224 0.004347 -0.012762 1647990.000000 1 0 0
-10.653570 13.582538 3.974747 17.713907 -0.905666 1.344484 -0.001532 0.002847 -52684.400000 1 0 0
-15.067370 3.299238 3.158847 15.744489 -0.215564 1.368793 -0.002394 0.004057 -23506.200000 1 0 0
-11.242570 9.593038 -12.405953 19.295839 -0.706394 2.269119 -0.002936 -0.000616 870649.000000 1 0 0
-13.141670 11.732738 -9.213953 19.881085 -0.728817 2.052685 0.006169 -0.010243 -675626.000000 1 0 0
-8.891570 14.614938 -3.479553 17.457483 -1.024231 1.771456 0.003721 -0.008005 2360990.000000 1 0 0
-16.818870 8.165138 -4.097253 19.139784 -0.451960 1.786536 0.014385 0.003091 -1607060.000000 1 0 0
-16.844070 6.786238 0.417947 18.164537 -0.382992 1.547785 0.004256 0.004472 -236348.000000 1 0 0
-10.553270 2.773638 -12.578853 16.652090 -0.257010 2.427048 -0.000964 0.005839 83655.700000 1 0 0
-16.790270 0.930538 2.500147 17.000876 -0.055365 1.423201 0.001253 -0.004986 298664.000000 1 0 0
-12.587770 1.282838 -6.864253 14.394985 -0.101561 2.067864 -0.001073 -0.002144 115892.000000 1 0 0
-12.340270 8.981138 -5.486453 16.218639 -0.629135 1.915886 0.003587 -0.000158 -801581.000000 1 0 0
-9.509470 13.986938 1.307347 16.963891 -0.973700 1.493653 0.004843 -0.001638 38830.600000 1 0 0
-11.986970 11.151238 2.890147 16.624996 -0.749295 1.396065 -0.005347 0.003767 1092700.000000 1 0 0
-12.598570 6.837938 -3.632653 14.787749 -0.497264 1.818989 0.003044 0.003564 963973.000000 1 0 0
-15.756770 3.616538 -9.321953 18.661563 -0.225615 2.093849 0.000905 0.000346 -1778680.000000 1 0 0
-15.165370 5.835038 -4.608353 16.890027 -0.367300 1.847145 0.001406 0.005452 1933410.000000 1 0 0
-17.772370 5.227338 7.520347 19.993444 -0.286060 1.185169 0.001669 0.005257 -1006920.000000 1 0 0
-15.674670 10.097938 -2.279753 18.784592 -0.572301 1.692459 0.008227 -0.001072 -854243.000000 1 0 0
-8.772370 10.068238 -8.334253 15.741145 -0.854071 2.128756 0.001111 -0.001664 -767531.000000 1 0 0
-16.892670 4.260438 -1.122653 17.457777 -0.247054 1.635147 -0.004532 0.000788 270240.000000 1 0 0
-10.260470 5.467438 -4.511753 12.471008 -0.489592 1.940972 -0.000990 -0.001245 -119521.000000 1 0 0
-18.171670 2.601938 6.195347 19.374261 -0.142220 1.245307 0.010621 -0.003713 -483881.000000 1 0 0
-10.402970 10.126538 -5.773253 15.623668 -0.771934 1.949288 0.002664 -0.001180 2375820.000000 1 0 0
-15.284570 0.573938 -5.807653 16.360816 -0.037533 1.933682 -0.003949 -0.002275 298265.000000 1 0 0
-16.338370 -4.051262 -8.877853 19.030799 0.243058 2.056125 -0.014566 -0.003108 -1497870.000000 1 0 0
-9.903870 9.595138 -1.027553 13.827841 -0.769566 1.645175 -0.003022 0.002836 1683270.000000 1 0 0
-17.296070 -2.949462 -3.141953 17.824849 0.168903 1.747990 -0.009228 0.000623 -478217.000000 1 0 0
-11.885070 5.162938 -11.519753 17.338267 -0.409810 2.297503 -0.004047 0.004330 -383755.000000 1 0 0
-16.167070 7.029538 5.900347 18.590391 -0.410147 1.247824 -0.000877 0.006024 -1077880.000000 1 0 0
-12.191770 6.045538 -8.740353 16.173483 -0.460338 2.141724 -0.000007 0.002776 1317260.000000 1 0 0
-14.487970 8.467238 -0.210053 16.782119 -0.528894 1.583313 0.005313 -0.001439 1583420.000000 1 0 0
-14.686170 11.936838 4.029647 19.349670 -0.682494 1.361007 -0.006014 0.001353 1814770.000000 1 0 0
-17.380470 4.101138 -3.928253 18.284727 -0.231724 1.787322 0.013102 -0.001647 952867.000000 1 0 0
-13.863970 13.279138 -0.723653 19.211164 -0.763855 1.608474 0.015932 -0.014801 -920158.000000 1 0 0
-10.091170 7.010638 -13.024453 17.905785 -0.607180 2.385304 -0.011060 0.000951 1257060.000000 1 0 0
-15.668670 -1.107762 -8.228253 17.732414 0.070582 2.053328 -0.013361 -0.007755 -1000680.000000 1 0 0
-11.372470 11.926438 0.084147 16.479687 -0.809170 1.565690 0.005751 -0.002709 1212800.000000 1 0 0
-11.952970 7.380138 -0.875453 14.075025 -0.553138 1.633036 -0.002744 0.004688 869649.000000 1 0 0
-11.492470 0.142438 -11.732953 16.424352 -0.012393 2.366510 -0.006083 0.002582 -978611.000000 1 0 0
-18.991770 -1.211862 -4.711853 19.605037 0.063723 1.813511 -0.008167 0.000624 -2074160.000000 1 0 0
-17.890870 1.582938 -5.162853 18.688070 -0.088248 1.850702 -0.006760 0.000888 44341.200000 1 0 0
-13.192070 -0.052262 -9.427853 16.214742 0.003962 2.191290 -0.004856 -0.004276 -1498760.000000 1 0 0
-6.113170 11.397938 -13.130653 18.430895 -1.078501 2.363746 -0.010105 0.002722 -2333740.000000 1 0 0
16.449330 5.768938 6.855047 18.731065 0.337307 1.196119 0.014488 -0.006739 -137716.000000 1 0 0
14.702430 10.068738 -5.614853 18.683348 0.600475 1.876042 0.005582 0.000772 411399.000000 1 0 0
2.490030 16.949638 4.319747 17.667787 1.424932 1.323794 0.004623 -0.006637 827637.000000 1 0 0
-3.798670 18.276338 -5.960053 19.595322 -1.365868 1.879850 0.001323 -0.012553 2512730.000000 1 0 0
5.599530 14.575338 5.636747 16.600245 1.204003 1.224349 0.000700 0.001945 503433.000000 1 0 0
10.228730 5.989838 15.109247 19.204021 0.529756 0.665229 0.016679 0.000443 -771990.000000 1 0 0
4.687630 12.770338 -1.127853 13.650182 1.218995 1.653516 0.000886 -0.007114 1255430.000000 1 0 0
3.664930 13.651538 13.031247 19.225234 1.308518 0.826003 -0.008445 0.002789 -1016980.000000 1 0 0
-0.542470 12.385538 9.307847 15.502640 -1.527026 0.926790 -0.000922 0.005385 1531120.000000 1 0 0
-7.654770 14.050338 8.371447 18.057924 -1.071946 1.088755 0.007664 -0.008494 226768.000000 1 0 0
11.481030 12.766138 -4.196353 17.674776 0.838349 1.810506 0.015310 0.002883 812090.000000 1 0 0
-5.737670 16.202638 0.763547 17.205503 -1.230456 1.526404 -0.010422 0.004637 1017680.000000 1 0 0
3.199830 10.623738 6.763147 12.993956 1.278242 1.023379 -0.005812 0.012879 2872380.000000 1 0 0
-1.162570 15.580638 2.429747 15.811753 -1.496318 1.416518 -0.002937 -0.002519 -1727120.000000 1 0 0
9.888430 8.649438 9.483647 16.202882 0.718662 0.945539 -0.005630 0.002028 1462750.000000 1 0 0
7.318230 12.197838 6.251347 15.537795 1.030405 1.156734 -0.002717 0.004029 1763610.000000 1 0 0
11.841130 13.953838 -1.514153 18.363404 0.867120 1.653345 0.002510 0.007631 -865745.000000 1 0 0
9.661630 15.882738 -1.221853 18.630657 1.024289 1.636426 0.004384 0.002839 852353.000000 1 0 0
10.159530 13.622838 2.985647 17.254329 0.930007 1.396883 0.002211 0.003878 1897220.000000 1 0 0
-5.910370 14.536438 6.240447 16.887382 -1.184622 1.192290 -0.005456 -0.001875 -89316.500000 1 0 0
-0.799770 18.289438 -6.198553 19.327836 -1.527096 1.897271 0.026020 -0.008326 1167140.000000 1 0 0
-3.391570 15.711538 5.447347 16.971410 -1.358194 1.244041 -0.009693 0.001048 2300150.000000 1 0 0
7.215530 12.144738 10.642747 17.686905 1.034706 0.925131 -0.009812 0.007948 3486700.000000 1 0 0
1.559930 14.727038 6.210447 16.058913 1.465267 1.173714 -0.000233 0.002329 129217.000000 1 0 0
17.398630 7.742038 -1.658553 19.115498 0.418671 1.657670 -0.003347 0.010380 -36047.600000 1 0 0
2.144730 16.309538 -3.336453 16.784898 1.440045 1.770906 -0.004291 -0.005995 622517.000000 1 0 0
6.738230 11.172438 0.612247 13.061469 1.028092 1.523905 0.005327 -0.004141 1719940.000000 1 0 0
12.664530 9.216238 3.177247 15.981998 0.629089 1.370661 0.002236 0.000310 -1488750.000000 1 0 0
6.057430 14.305238 -3.415353 15.905877 1.170247 1.787204 -0.003657 -0.003988 1426390.000000 1 0 0
3.117130 16.441438 1.549347 16.805888 1.383430 1.478474 0.006104 -0.015444 -755282.000000 1 0 0
2.872430 18.995238 -2.611553 19.387886 1.420715 1.705907 0.004994 -0.008356 -797549.000000 1 0 0
4.061230 11.932238 10.740147 16.559670 1.242737 0.865089 -0.008733 0.006463 2388690.000000 1 0 0
8.098230 11.449738 3.404847 14.431591 0.955198 1.332621 0.000251 0.000520 1101120.000000 1 0 0
0.795130 12.541938 0.217847 12.569005 1.507483 1.553463 0.002123 -0.004503 -2030040.000000 1 0 0
11.914330 9.758838 -4.640153 16.084688 0.686270 1.863438 0.006677 0.001388 802623.000000 1 0 0
-1.021170 16.443538 9.979247 19.261830 -1.508774 1.026187 0.002919 0.003396 -646958.000000 1 0 0
8.237130 14.696638 -7.973153 18.639009 1.059945 2.012817 0.018289 -0.009318 830357.000000 1 0 0
14.431030 7.711938 -1.420453 16.423955 0.490787 1.657391 0.003544 0.001799 1291610.000000 1 0 0
12.499630 8.212938 5.990747 16.111554 0.581318 1.189818 -0.001117 0.001573 192213.000000 1 0 0
-2.841470 14.237838 10.293347 17.797275 -1.373813 0.954071 0.002413 -0.000827 3455550.000000 1 0 0
-4.574070 17.221938 -3.219953 18.107605 -1.311194 1.749570 0.004339 -0.010859 38095.800000 1 0 0
-7.044570 16.511038 -1.897953 18.051110 -1.167522 1.676134 0.002307 -0.003156 414476.000000 1 0 0
8.324930 11.221938 -1.890653 14.100033 0.932535 1.705290 0.005905 -0.005343 -1618590.000000 1 0 0
8.592130 12.969638 -4.188053 16.111362 0.985698 1.833761 0.010709 -0.002257 2018040.000000 1 0 0
2.520630 14.804638 -7.230253 16.667556 1.402154 2.019493 -0.000605 -0.005997 -1115260.000000 1 0 0
11.353930 11.117638 9.768147 18.652890 0.774883 1.019631 -0.005000 0.000909 1071040.000000 1 0 0
8.559830 15.592938 1.378847 17.841290 1.068755 1.493435 0.009197 -0.003121 942316.000000 1 0 0
6.067130 9.873838 7.796647 13.967478 1.019808 0.978581 -0.005487 0.012903 3736740.000000 1 0 0
14.402030 11.322838 2.491047 18.488657 0.666268 1.435651 0.002751 0.006590 1891080.000000 1 0 0
12.109730 12.504538 1.048247 17.438688 0.801437 1.510650 0.005046 0.003862 243667.000000 1 0 0
5.260630 16.010538 8.156247 18.722605 1.253336 1.120051 -0.005469 0.009282 -1370550.000000 1 0 0
11.644130 14.936738 5.032347 19.596337 0.908642 1.311086 0.004218 0.002289 -372089.000000 1 0 0
6.001230 16.738938 1.701847 17.863457 1.226552 1.475382 0.008822 -0.015611 -477102.000000 1 0 0
-0.641070 16.267938 -4.160653 16.803803 -1.531410 1.821001 0.011486 -0.006926 1979010.000000 1 0 0
16.025530 6.377138 2.357747 17.408173 0.378726 1.434940 -0.000324 -0.002774 -1254330.000000 1 0 0
7.737730 16.748538 -3.273453 18.737702 1.138013 1.746396 0.004594 -0.001461 -836641.000000 1 0 0
14.911130 8.093938 7.405847 18.512164 0.497308 1.159222 0.011905 -0.004476 -1397510.000000 1 0 0
2.291830 12.975638 8.613647 15.742128 1.395974 0.991815 -0.003100 0.008839 570738.000000 1 0 0
15.888330 7.440638 -6.029653 18.551518 0.437974 1.901831 -0.002064 0.007925 -735465.000000 1 0 0
-2.904770 17.115238 0.653847 17.372293 -1.402680 1.533150 -0.006099 -0.000078 1805560.000000 1 0 0
-2.818570 18.558438 4.533747 19.311003 -1.420073 1.333809 -0.006684 -0.003100 1283730.000000 1 0 0
-0.824270 19.090938 0.839347 19.127149 -1.527647 1.526900 -0.006721 -0.006827 -1633240.000000 1 0 0
7.053830 16.712438 -6.151053 19.154570 1.171409 1.897716 0.004463 -0.005846 1311580.000000 1 0 0
11.001230 9.955638 0.742047 14.855720 0.735547 1.520825 0.005610 -0.001403 -1196860.000000 1 0 0
9.305730 8.608238 14.349847 19.147232 0.746482 0.723569 0.010029 -0.008904 271205.000000 1 0 0
6.405130 12.430438 -8.306253 16.264542 1.095001 2.106792 0.014384 -0.008005 1095700.000000 1 0 0
6.465830 9.017838 13.436147 17.425797 0.948749 0.690309 0.004614 -0.004876 1462220.000000 1 0 0
16.611130 9.273938 2.835947 19.234817 0.509191 1.422819 0.002913 -0.002106 -1427010.000000 1 0 0
2.622030 14.764938 -0.781953 15.016321 1.395044 1.622893 0.000750 -0.008700 892074.000000 1 0 0
9.203630 12.810938 8.349147 17.847554 0.947815 1.083992 -0.003647 0.003849 1567320.000000 1 0 0
7.249330 9.217838 10.542347 15.769033 0.904375 0.838542 -0.004190 0.003720 2266920.000000 1 0 0
4.392830 15.841138 -5.305353 17.273835 1.300288 1.882975 -0.006520 -0.006642 1605400.000000 1 0 0
0.271230 16.392738 -8.194353 18.328743 1.554252 2.034291 0.009462 -0.004078 287483.000000 1 0 0
-2.408970 15.732438 -1.971053 16.037387 -1.418855 1.694011 -0.000297 -0.002409 210956.000000 1 0 0
13.327830 10.393538 7.629047 18.543437 0.662325 1.146790 0.001648 -0.003403 1189420.000000 1 0 0
-0.889470 15.973038 7.064747 17.488275 -1.515168 1.154943 -0.000717 0.000909 2772280.000000 1 0 0
13.419730 13.241238 6.704547 20.009260 0.778703 1.229114 0.005168 -0.002191 -89049.800000 1 0 0
5.494430 17.343838 4.474747 18.735550 1.264004 1.329628 0.009216 -0.013250 650778.000000 1 0 0
10.735130 9.441838 -1.939553 14.427515 0.721388 1.705639 0.007451 -0.000111 942745.000000 1 0 0
3.281030 12.783538 4.712847 14.014098 1.319559 1.227818 -0.005010 0.004383 2444850.000000 1 0 0
-0.132270 18.067038 3.536147 18.410315 -1.563475 1.377521 -0.004855 -0.004830 1743110.000000 1 0 0
-7.822370 15.996038 -5.877553 18.751222 -1.115972 1.889619 0.010582 -0.014289 915981.000000 1 0 0
-12.330670 -9.148162 8.307047 17.456842 0.638299 1.074852 0.020680 -0.010911 -495279.000000 1 0 0
-13.307570 -11.734362 6.955747 19.056996 0.722658 1.197167 0.024802 -0.005411 -1826470.000000 1 0 0
-6.449870 -12.374562 12.304147 18.604372 1.090317 0.848169 0.023170 -0.009787 136347.000000 1 0 0
-1.601470 -10.689962 14.408547 18.012391 1.422092 0.643627 -0.000810 -0.006680 919370.000000 1 0 0
-8.732270 2.842938 11.215847 14.495864 -0.314745 0.686092 0.004383 -0.001994 2215660.000000 1 0 0
0.592730 10.020738 15.266347 18.270957 1.511715 0.581658 0.003399 -0.006713 -241978.000000 1 0 0
1.059230 -6.770662 16.595147 17.954463 -1.415610 0.391623 -0.007909 -0.005212 1229030.000000 1 0 0
6.148330 2.298038 17.758147 18.932373 0.357689 0.354045 0.023497 -0.008790 617167.000000 1 0 0
-5.020470 -2.930862 17.722547 18.651642 0.528409 0.316961 0.010218 -0.009152 -991926.000000 1 0 0
-4.224070 8.168538 13.171047 16.063756 -1.093551 0.609519 -0.002181 0.002781 1099070.000000 1 0 0
0.169430 -4.890062 18.562047 19.196120 -1.536162 0.257739 0.000256 -0.012162 -620239.000000 1 0 0
-11.611970 2.071538 11.239947 16.293113 -0.176540 0.809502 0.011430 -0.002003 1045280.000000 1 0 0
-3.356170 -6.165662 14.369347 15.992417 1.072315 0.454433 0.005277 -0.008347 1194610.000000 1 0 0
-7.318770 -2.249662 14.693847 16.569083 0.298216 0.480372 0.009790 -0.006246 2205480.000000 1 0 0
-6.101270 -1.136262 10.749147 12.412121 0.184124 0.523609 -0.001224 -0.001085 2163500.000000 1 0 0
-3.891670 2.451238 11.226047 12.131686 -0.562092 0.388840 -0.003801 0.004255 -313646.000000 1 0 0
-6.322470 6.268638 13.782647 16.408255 -0.781123 0.573545 0.000834 0.001312 1559490.000000 1 0 0
-8.895070 5.453738 12.660447 16.405866 -0.550010 0.689283 0.008290 -0.005065 -1084630.000000 1 0 0
-12.096570 -2.241962 15.997047 20.180657 0.183259 0.655584 0.009550 -0.002797 1648890.000000 1 0 0
-3.323470 -7.673662 16.930447 18.883077 1.162084 0.458779 0.012200 -0.015579 -1109180.000000 1 0 0
-0.534570 -5.446162 14.393047 15.398255 1.472954 0.363328 0.001209 -0.003668 1680360.000000 1 0 0
-14.126070 -2.299862 13.851247 19.917135 0.161394 0.801759 0.005203 -0.001230 -367856.000000 1 0 0
-6.367270 1.406738 12.400747 14.010695 -0.217440 0.484106 0.003828 -0.002150 2484000.000000 1 0 0
2.217430 -2.250262 14.625147 14.962473 -0.792747 0.212744 0.003340 -0.001824 527635.000000 1 0 0
-12.573070 4.062738 9.251247 16.129895 -0.312540 0.959967 -0.000733 0.000479 -218936.000000 1 0 0
-8.936370 -3.115962 12.701347 15.839575 0.335501 0.640371 0.005427 0.002223 326775.000000 1 0 0
-6.933770 -7.241762 15.317147 18.306701 0.807122 0.579574 0.019342 -0.008674 -1314180.000000 1 0 0
-3.116670 5.864038 19.663147 20.754275 -1.082276 0.325702 0.021304 -0.007437 -231763.000000 1 0 0
0.659130 5.390338 16.221247 17.106112 1.449120 0.323049 0.008469 -0.004131 2833340.000000 1 0 0
3.516830 1.469238 16.799047 17.225990 0.395734 0.223105 0.018491 -0.006350 593894.000000 1 0 0
-11.556170 11.417038 8.005347 18.110202 -0.779342 1.112930 -0.001752 -0.005255 -97636.300000 1 0 0
0.772830 -9.515162 15.380147 18.102058 -1.489753 0.555503 -0.012938 -0.002824 -646981.000000 1 0 0
-2.482970 -3.694662 18.946947 19.462849 0.979081 0.230759 0.010551 -0.015161 1613920.000000 1 0 0
-12.995570 2.328638 13.753747 19.064967 -0.177305 0.764953 0.016767 -0.009018 -500257.000000 1 0 0
-5.229970 -0.579962 15.860747 16.710842 0.110441 0.320338 0.004911 -0.002649 567449.000000 1 0 0
-4.478470 -6.031762 11.670547 13.879500 0.932125 0.571949 0.002927 -0.001694 611254.000000 1 0 0
2.512930 1.797838 14.011747 14.348383 0.621010 0.217043 0.010350 -0.004756 -619784.000000 1 0 0
0.156930 3.272038 14.362147 14.730992 1.522872 0.224249 0.004417 -0.001865 902892.000000 1 0 0
-12.887970 7.187638 12.354547 19.245694 -0.508737 0.873773 0.000766 0.000227 89446.100000 1 0 0
0.909730 1.447738 18.300847 18.380549 1.009770 0.093159 0.012538 -0.003129 2153990.000000 1 0 0
-1.902570 6.479138 12.529047 14.232921 -1.285179 0.494331 -0.006946 0.004827 1523760.000000 1 0 0
-13.406970 -2.717662 11.010747 17.560441 0.199995 0.893074 0.011810 -0.004490 -1622580.000000 1 0 0
-2.468070 3.622638 13.600547 14.289498 -0.972738 0.311789 -0.003181 0.001834 -668778.000000 1 0 0
3.626830 6.059938 16.351647 17.811601 1.031486 0.407704 0.018466 -0.008339 1110790.000000 1 0 0
-3.613370 12.327638 12.419547 17.868191 -1.285671 0.802287 0.011316 -0.004121 332152.000000 1 0 0
3.774730 -1.427362 17.035447 17.506925 -0.361517 0.232606 0.011379 -0.004094 -1173820.000000 1 0 0
-15.790970 0.196738 9.277347 18.315638 -0.012458 1.039645 0.003078 -0.000621 -100333.000000 1 0 0
-4.569470 4.575038 15.368247 16.673154 -0.786007 0.398263 0.007894 -0.002076 637044.000000 1 0 0
-7.904070 -8.244462 10.546547 15.545904 0.806474 0.825196 0.015891 -0.005969 3026400.000000 1 0 0
-2.609770 -0.518462 14.768947 15.006715 0.196109 0.178248 0.002042 -0.001246 616993.000000 1 0 0
-1.820970 0.888938 17.303347 17.421595 -0.454137 0.116577 0.001249 -0.003398 3155590.000000 1 0 0
-0.755670 -2.573362 14.381047 14.629004 1.285175 0.184379 0.001090 -0.002802 849297.000000 1 0 0
5.213030 -8.208862 16.438347 19.099224 -1.005003 0.534190 -0.006282 0.000751 -112588.000000 1 0 0
-4.392170 10.021538 10.753847 15.341695 -1.157737 0.794060 0.001521 0.000251 -437193.000000 1 0 0
-6.095370 2.053338 15.369147 16.660745 -0.324929 0.396349 0.009815 -0.000790 -156952.000000 1 0 0
-4.699570 6.792938 17.484147 19.337150 -0.965574 0.441354 0.004890 0.004430 -2908420.000000 1 0 0
-3.814770 9.068438 15.973647 18.760236 -1.172604 0.552027 0.006452 -0.001374 -2349980.000000 1 0 0
-4.301270 -9.971662 18.414147 21.377928 1.163560 0.532850 0.019199 -0.008854 -1786330.000000 1 0 0
-6.799870 -4.134562 11.164447 13.710497 0.546307 0.619275 0.003255 0.001428 632633.000000 1 0 0
-2.291970 -0.841462 19.747647 19.898009 0.351857 0.123013 0.009172 -0.003254 -693156.000000 1 0 0
-5.567670 -4.490562 15.351047 16.935724 0.678718 0.436043 0.011486 -0.007778 1366240.000000 1 0 0
-12.880370 -0.043962 9.845247 16.212179 0.003413 0.918170 0.003974 0.001468 1985300.000000 1 0 0
-14.410970 8.912438 10.683947 20.031334 -0.553874 1.008226 -0.005217 0.005970 -2200070.000000 1 0 0
-8.224070 10.460338 13.012447 18.611227 -0.904518 0.796558 0.010479 -0.011182 -2164070.000000 1 0 0
-10.315270 7.248738 10.933347 16.687932 -0.612549 0.856395 0.003622 -0.001207 -671016.000000 1 0 0
-9.726170 -6.600862 14.898747 18.977419 0.596267 0.667975 0.019678 -0.002335 509324.000000 1 0 0
-0.608870 -13.473162 14.372647 19.709638 1.525636 0.753616 -0.005726 -0.006482 551944.000000 1 0 0
3.878730 -5.589562 16.890747 18.209478 -0.964160 0.382914 0.003208 -0.004977 1884570.000000 1 0 0
-7.180470 9.318738 10.527947 15.787201 -0.914278 0.840801 0.005295 -0.004239 -690423.000000 1 0 0
-10.257470 -6.740362 11.947647 17.128761 0.581362 0.798866 0.014176 -0.005111 3685870.000000 1 0 0
-10.826070 -3.949762 10.856947 15.832805 0.349832 0.815197 0.012056 0.002209 -390430.000000 1 0 0
-10.042770 -10.296962 9.824647 17.418621 0.797895 0.971537 0.026059 -0.012399 1061120.000000 1 0 0
-9.698670 -3.742962 15.426747 18.602648 0.368314 0.592984 0.021159 -0.008100 1764680.000000 1 0 0
5.674230 -3.267562 16.003247 17.290974 -0.522480 0.388374 0.000155 -0.000826 226613.000000 1 0 0
-11.290170 0.504438 15.313947 19.032587 -0.044650 0.635766 0.019633 -0.013215 1441940.000000 1 0 0
-3.123270 3.085838 18.879047 19.382870 -0.779370 0.228502 0.013071 -0.005307 -709277.000000 1 0 0
0.678230 7.352238 13.947047 15.780860 1.478809 0.486884 0.002642 -0.004317 1276760.000000 1 0 0
-13.061270 -7.478662 12.323647 19.452492 0.520016 0.884695 0.011635 -0.000493 -778212.000000 1 0 0
-1.549970 -1.197562 12.168347 12.324984 0.657831 0.159599 -0.001793 -0.000801 202859.000000 1 0 0
2.024330 -4.867662 13.151847 14.169091 -1.176681 0.381232 0.000242 -0.003560 9761.240000 1 0 0
-14.570170 -4.117662 8.681347 17.453102 0.275426 1.050186 0.009799 -0.010445 -148151.000000 1 0 0
8.185230 0.923538 16.095347 18.080684 0.112355 0.473022 0.007028 -0.005112 1498290.000000 1 0 0
-1.191370 11.271538 13.462247 17.598268 -1.465490 0.699793 0.003183 -0.003279 -269633.000000 1 0 0
2.713330 -12.301762 -13.947053 18.794036 -1.353708 2.406994 -0.005739 0.015758 -1493810.000000 1 0 0
0.728430 -10.675662 -14.138853 17.731540 -1.502669 2.493745 -0.003532 0.010819 -162964.000000 1 0 0
3.008430 -14.295462 -12.452153 19.195494 -1.363377 2.276674 -0.009553 0.009677 -855791.000000 1 0 0
-5.256970 -10.294662 -16.064853 19.791293 1.098665 2.517876 0.009074 0.003867 -200135.000000 1 0 0
-1.130270 -12.282662 -15.034853 19.447059 1.479033 2.454537 -0.000123 0.005727 -101185.000000 1 0 0
5.469430 -15.018362 -12.256653 20.141782 -1.221543 2.224989 -0.006054 0.016217 -370878.000000 1 0 0
2.019930 -11.796562 -16.248953 20.180869 -1.401211 2.506752 0.003437 0.010313 -419275.000000 1 0 0
1.086030 -14.232462 -14.219853 20.148118 -1.494637 2.354300 -0.004506 0.018758 -475681.000000 1 0 0
-1.193670 -10.697262 -16.059353 19.332849 1.459670 2.551119 -0.000011 0.004318 -223551.000000 1 0 0
-5.808870 -5.309662 -15.166753 17.087009 0.740530 2.662946 0.007210 0.003295 17979.500000 1 0 0
-6.585370 -7.413462 -16.170453 18.968660 0.844484 2.591512 0.011275 -0.004944 31494.600000 1 0 0
4.887730 -12.586262 -11.544853 17.764783 -1.200383 2.278214 -0.005660 0.010189 208871.000000 1 0 0
-1.855070 -15.558662 -12.952753 20.329463 1.452126 2.261581 0.008937 0.001765 109680.000000 1 0 0
15.819730 -7.505562 -8.639353 19.525259 -0.442994 2.029148 0.007674 0.005664 689824.000000 1 0 0
19.240430 -3.606462 -4.478553 20.081289 -0.185292 1.795709 0.007700 0.010742 -22732.100000 1 0 0
14.885830 -11.718962 -8.881353 20.923681 -0.666922 2.009166 0.025438 -0.001951 726536.000000 1 0 0
17.790430 -3.426562 -6.552653 19.265980 -0.190277 1.917836 0.028741 0.007800 519493.000000 1 0 0
9.252630 -9.099262 -15.422653 20.156040 -0.777041 2.442091 0.009648 -0.015162 -230595.000000 1 0 0
1.093330 1.963338 -15.190453 15.355778 1.062692 2.994721 0.000902 -0.002509 -534112.000000 1 0 0
4.683230 -4.313462 -14.017853 15.396064 -0.744321 2.715247 -0.000006 -0.000713 1536520.000000 1 0 0
12.968830 -5.443862 -8.865053 16.625743 -0.397428 2.133190 0.010379 0.000631 -2041560.000000 1 0 0
2.816430 1.016338 -12.282153 12.641855 0.346317 2.902472 -0.000198 -0.004346 -2498840.000000 1 0 0
0.556730 6.427138 -13.017653 14.528501 1.484390 2.681492 0.004144 -0.000087 -119396.000000 1 0 0
2.970330 -1.140762 -16.822253 17.120525 -0.366683 2.954655 0.006015 -0.004468 -433145.000000 1 0 0
12.982930 4.154038 -11.512253 17.842210 0.309668 2.272115 -0.004857 -0.006908 260082.000000 1 0 0
-3.960970 9.644938 -16.398153 19.432280 -1.181118 2.575236 -0.007470 0.006323 43092.800000 1 0 0
-0.366270 -5.210162 -17.651153 18.407692 1.500613 2.853899 0.005514 -0.004937 399925.000000 1 0 0
-0.596370 -8.729262 -17.627253 19.679322 1.502584 2.680855 0.004594 0.004634 -1465200.000000 1 0 0
5.509330 -10.167562 -12.256553 16.850968 -1.074229 2.385249 -0.000377 0.002346 489797.000000 1 0 0
1.563430 -9.883262 -18.266853 20.827892 -1.413907 2.640458 0.002135 0.006387 -430251.000000 1 0 0
10.958530 8.750038 -14.404853 20.103540 0.673806 2.369616 0.029628 -0.018704 -650790.000000 1 0 0
10.744430 -3.868862 -13.015353 17.315030 -0.345627 2.421401 0.004463 -0.003259 215415.000000 1 0 0
4.815030 7.572838 -12.243253 15.179909 1.004448 2.509078 -0.006193 0.000411 -128952.000000 1 0 0
9.489230 -6.045562 -12.697453 16.965247 -0.567251 2.416502 0.009635 -0.006057 -1373240.000000 1 0 0
-3.350370 0.497538 -16.086453 16.439175 -0.147425 2.934067 -0.002141 0.002924 -941594.000000 1 0 0
-0.777070 10.875238 -12.734353 16.764199 -1.499464 2.433519 -0.003748 0.003035 -2913560.000000 1 0 0
6.622430 -5.480462 -12.476053 15.150707 -0.691322 2.538285 0.000873 0.000508 976464.000000 1 0 0
17.821330 -5.910562 -8.620153 20.660145 -0.320241 2.001198 0.012959 0.008815 228663.000000 1 0 0
12.822430 4.734038 -14.092053 19.631907 0.353676 2.371453 -0.008661 -0.007259 504255.000000 1 0 0
13.979230 0.870838 -11.661153 18.225249 0.062215 2.265080 -0.003339 0.002406 -885576.000000 1 0 0
14.773930 6.052938 -11.472053 19.659986 0.388844 2.193856 -0.005009 -0.004833 -319076.000000 1 0 0
8.112630 1.550438 -11.727353 14.343968 0.188837 2.527993 -0.006232 0.003441 723154.000000 1 0 0
9.876930 1.205138 -8.954553 13.386191 0.121415 2.303578 -0.002534 0.002566 142857.000000 1 0 0
-0.268670 -5.794062 -13.099953 14.326622 1.524460 2.724766 0.001456 0.001374 362029.000000 1 0 0
10.418130 -5.801862 -9.272353 15.105481 -0.508126 2.231712 0.008135 -0.002540 -319224.000000 1 0 0
10.101930 8.526838 -11.172453 17.308370 0.701047 2.272467 0.012048 -0.010101 849170.000000 1 0 0
8.376030 8.103738 -14.643753 18.715447 0.768877 2.469374 0.010565 -0.005720 515814.000000 1 0 0
8.630230 10.623338 -10.720353 17.385688 0.888550 2.235238 0.024142 -0.011720 642362.000000 1 0 0
6.840330 1.699938 -17.937453 19.272574 0.243582 2.767185 -0.002257 0.006045 -1732200.000000 1 0 0
11.927630 2.473238 -13.036553 17.842000 0.204456 2.390094 -0.008164 0.000194 -964992.000000 1 0 0
2.508430 -0.936762 -19.291253 19.476195 -0.357407 3.003673 0.008265 -0.009832 -649178.000000 1 0 0
10.225930 -2.499262 -15.668253 18.876178 -0.239705 2.550001 0.015763 -0.000127 -359207.000000 1 0 0
8.181830 -0.772462 -13.145953 15.503390 -0.094133 2.582884 0.002928 0.000711 655641.000000 1 0 0
0.464730 4.525338 -14.680753 15.369423 1.468460 2.841105 -0.000045 0.001179 -73878.200000 1 0 0
3.975430 -7.543962 -15.866453 18.012766 -1.085807 2.648440 0.004524 -0.002304 -1091940.000000 1 0 0
11.249030 -5.854062 -14.646453 19.373417 -0.479839 2.427989 0.012369 -0.006003 -1323300.000000 1 0 0
-5.956170 4.451938 -16.856953 18.424238 -0.641867 2.726139 -0.006225 0.005854 -166676.000000 1 0 0
11.361730 7.877838 -9.134653 16.570791 0.606260 2.154658 0.009966 -0.004358 -1249900.000000 1 0 0
9.397130 6.091538 -13.401353 17.464511 0.575133 2.445491 0.003682 -0.002333 -1491770.000000 1 0 0
11.944230 0.678338 -10.303853 15.789052 0.056731 2.281800 0.002354 0.004370 -2093670.000000 1 0 0
5.497330 -7.198562 -13.845553 16.545068 -0.918603 2.562279 -0.001624 0.001388 -999528.000000 1 0 0
8.587230 -10.318562 -10.800253 17.229588 -0.876720 2.248291 0.010383 0.000973 -310933.000000 1 0 0
9.701330 4.985238 -16.107153 19.452732 0.474683 2.546354 -0.003199 0.007475 -156219.000000 1 0 0
9.719730 -0.366762 -11.037053 14.711363 -0.037716 2.419221 -0.002946 0.003498 -391528.000000 1 0 0
-1.758070 5.586938 -13.988253 15.164956 -1.265931 2.745062 -0.004804 0.001229 772619.000000 1 0 0
1.195230 -0.673062 -14.958053 15.020816 -0.512863 3.050145 -0.001072 -0.003901 -2862440.000000 1 0 0
11.364830 -10.475962 -14.654953 21.299596 -0.744723 2.329580 0.016637 -0.001085 -68062.600000 1 0 0
9.188630 -7.854962 -10.872253 16.258451 -0.707307 2.303274 0.010488 -0.002275 -22105.800000 1 0 0
13.840530 -1.055962 -9.744553 16.959706 -0.076147 2.182876 -0.004714 0.006184 448757.000000 1 0 0
3.968930 11.091438 -12.187853 16.950403 1.227157 2.373202 0.004668 -0.011137 -1075460.000000 1 0 0
-1.368870 3.054438 -16.876553 17.205273 -1.149476 2.945802 -0.004758 0.000548 -498579.000000 1 0 0
5.819530 -0.619062 -17.590853 18.538831 -0.105978 2.820418 -0.003164 0.000715 -113420.000000 1 0 0
6.288630 -6.432462 -16.164553 18.499086 -0.796704 2.633765 0.007459 -0.004138 27167.400000 1 0 0
-1.883570 -5.469462 -19.788953 20.617117 1.239138 2.857196 0.002689 -0.005841 126727.000000 1 0 0
-0.175470 -4.372862 -15.274553 15.889137 1.530691 2.862553 0.002744 -0.002770 32227.600000 1 0 0
0.333330 0.849038 -13.015753 13.047674 1.196688 3.071628 -0.000389 -0.005186 381422.000000 1 0 0
15.388230 0.458338 -13.745953 20.638772 0.029776 2.299664 0.000612 -0.002595 603652.000000 1 0 0
-0.169670 7.083038 -16.329953 17.800718 -1.546847 2.732233 -0.003233 0.006099 -171400.000000 1 0 0
-4.967070 -0.493662 -18.376953 19.042791 0.099062 2.876372 -0.009208 0.006857 -326518.000000 1 0 0
10.300430 -8.543162 -13.116553 18.738421 -0.692412 2.346168 0.011883 -0.014097 894210.000000 1 0 0
4.081830 8.549538 -17.306353 19.729819 1.125365 2.640727 -0.005231 -0.003857 -153597.000000 1 0 0
8.923830 0.325138 -17.158353 19.342945 0.036419 2.661734 0.002500 0.006361 -352026.000000 1 0 0
3.277230 4.816938 -18.462853 19.360270 0.973377 2.835926 -0.002198 0.007139 92107.400000 1 0 0
1.511430 -8.247562 -16.175153 18.219283 -1.389550 2.663348 0.004254 0.005371 363964.000000 1 0 0
4.621130 7.683138 -14.898353 17.388110 1.029301 2.599852 -0.006490 0.000842 752756.000000 1 0 0
-5.674270 -0.313862 -15.312553 16.333099 0.055257 2.786219 -0.004575 0.002322 -790139.000000 1 0 0
2.734430 3.375738 -13.818453 14.485246 0.889973 2.836994 -0.002237 0.000514 613269.000000 1 0 0
-2.606170 -10.330062 -18.151353 21.046945 1.323664 2.610832 0.017229 0.003860 328073.000000 1 0 0
6.191030 -8.937362 -15.628653 19.038384 -0.964977 2.533785 0.001657 -0.001388 -396941.000000 1 0 0
-1.896570 5.521838 -17.405453 18.358580 -1.239953 2.817948 -0.003905 0.006192 2026190.000000 1 0 0
9.947730 -12.367862 -11.751153 19.748694 -0.893426 2.208105 0.019395 0.001726 284185.000000 1 0 0
10.788630 3.661338 -9.452853 14.803930 0.327174 2.263392 -0.001589 0.001267 -1211750.000000 1 0 0
4.613430 -0.406962 -10.954653 11.893434 -0.087985 2.741609 0.000865 0.000424 398869.000000 1 0 0
6.349830 9.551138 -11.445453 16.203178 0.984070 2.355154 0.007991 -0.007604 7143.410000 1 0 0
10.800730 -9.527662 -9.660853 17.342554 -0.722855 2.161638 0.019494 -0.004543 -1045940.000000 1 0 0
3.086330 -2.381662 -14.539753 15.053310 -0.657233 2.879632 0.005901 -0.003796 214305.000000 1 0 0
9.033230 -4.605562 -14.816053 17.953436 -0.471494 2.541439 0.010400 -0.006159 133119.000000 1 0 0
-4.106770 -6.709962 -16.610653 18.379416 1.021570 2.699279 -0.003068 0.007198 -1024700.000000 1 0 0
5.757430 -7.748462 -11.229653 14.808503 -0.931763 2.431536 -0.003682 0.003833 303277.000000 1 0 0
5.440330 6.381638 -16.975553 18.933882 0.864854 2.682760 -0.004393 -0.001467 -1222890.000000 1 0 0
8.820130 1.227238 -19.599753 21.527915 0.138253 2.715129 0.005499 0.000904 668315.000000 1 0 0
12.953330 5.776338 -9.590653 17.121199 0.419468 2.165378 -0.007437 -0.004124 286313.000000 1 0 0
-1.719070 -0.780262 -17.428653 17.530600 0.426081 3.033694 -0.001598 -0.000151 -232501.000000 1 0 0
-0.420070 -0.638162 -19.534353 19.549287 0.988644 3.102502 0.001728 -0.004207 -725335.000000 1 0 0
2.852730 6.480938 -16.477253 17.934338 1.156145 2.735710 -0.003151 0.005550 -487847.000000 1 0 0
7.408530 3.705238 -15.722453 17.771061 0.463753 2.656694 -0.003090 0.003857 213460.000000 1 0 0
3.070630 -9.829362 -14.919253 18.128134 -1.268008 2.537449 -0.002063 0.003136 241370.000000 1 0 0
9.071030 -10.697962 -13.460053 19.439727 -0.867510 2.335605 0.018663 -0.002865 -708240.000000 1 0 0
3.652330 0.082738 -14.755153 15.200687 0.022650 2.898881 -0.001948 -0.002152 -2687790.000000 1 0 0
-1.298270 -3.019462 -18.869253 19.153364 1.164726 2.969138 0.002041 0.000129 189338.000000 1 0 0
9.136230 10.028438 -13.111753 18.866858 0.831919 2.339164 0.023474 -0.016129 461854.000000 1 0 0
4.445530 2.151438 -10.706053 11.790292 0.450730 2.709376 -0.004053 0.002278 -173646.000000 1 0 0
-0.415970 7.069438 -18.970453 20.249149 -1.512024 2.784313 0.000288 0.006475 320423.000000 1 0 0
0.643130 -1.879062 -17.573453 17.685325 -1.241032 3.029055 0.004562 -0.009928 -2599480.000000 1 0 0
-4.515170 -2.153762 -14.026153 14.891555 0.445084 2.798998 0.000640 -0.003787 -3491960.000000 1 0 0
9.840230 6.057638 -10.452753 15.581564 0.551811 2.306139 0.001525 0.000396 62038.100000 1 0 0
7.838430 5.155438 -17.944253 20.248845 0.581778 2.659845 -0.003467 0.002222 -469076.000000 1 0 0
11.089730 0.121438 -13.790553 17.696785 0.010950 2.464295 -0.003223 0.008533 205806.000000 1 0 0
6.717430 11.984338 -11.902653 18.177496 1.059914 2.284716 0.024687 -0.015784 -286567.000000 1 0 0
-1.039370 0.608538 -15.253753 15.301228 -0.529680 3.062798 -0.002497 -0.002920 -712889.000000 1 0 0
-4.355970 -2.962362 -18.962153 19.680277 0.597224 2.870618 -0.010550 0.006359 -688644.000000 1 0 0
5.574130 -12.086462 -14.062653 19.362636 -1.138678 2.383688 -0.004237 0.006846 -404298.000000 1 0 0
2.019730 -4.710062 -14.011353 14.919182 -1.165701 2.790944 0.001302 -0.000264 -1307400.000000 1 0 0
11.445930 2.125238 -15.551853 19.426427 0.183586 2.499011 -0.001398 0.002549 417020.000000 1 0 0
9.500830 2.263638 -13.873653 16.966675 0.233896 2.528201 -0.002430 0.001204 -4794.520000 1 0 0
-2.417370 -4.144262 -16.401553 17.088871 1.042743 2.857013 -0.005914 -0.001346 -187721.000000 1 0 0
-2.837470 10.269638 -14.251053 17.793516 -1.301225 2.499614 -0.003992 0.002951 -14846.300000 1 0 0
3.410930 5.859038 -13.665753 15.255018 1.043594 2.681070 -0.006037 0.002651 -526802.000000 1 0 0
-5.099870 -2.474962 -16.557753 17.501237 0.451818 2.811741 -0.001454 0.001719 384273.000000 1 0 0
-4.407970 6.357038 -13.609453 15.654371 -0.964514 2.624724 -0.007825 0.003700 -31185.500000 1 0 0
5.787530 -1.117162 -14.085653 15.269223 -0.190684 2.745269 0.000595 -0.000602 -875967.000000 1 0 0
6.779030 -3.044062 -12.756953 14.763516 -0.422056 2.614129 0.001028 -0.002043 2054970.000000 1 0 0
2.640630 -3.288662 -18.219953 18.701735 -0.894259 2.914116 0.009370 -0.014542 -104773.000000 1 0 0
7.364130 -12.092762 -12.165653 18.667309 -1.023807 2.280632 0.007210 0.004896 -891564.000000 1 0 0
-6.268470 -5.383862 -17.705653 19.538931 0.709627 2.704942 0.024571 0.004651 404549.000000 1 0 0
0.537030 8.827538 -12.011453 14.916059 1.510035 2.506927 -0.000658 0.005732 271307.000000 1 0 0
0.321030 8.632638 -14.472153 16.854338 1.533626 2.603447 -0.004300 0.001929 -298242.000000 1 0 0
7.640330 -2.458762 -15.198453 17.187586 -0.311347 2.655723 0.008700 -0.005853 82718.300000 1 0 0
14.047630 1.505838 -9.065153 16.786317 0.106787 2.141272 -0.013521 0.004783 689326.000000 1 0 0
2.744330 10.855038 -14.522353 18.337446 1.323169 2.484793 0.003019 -0.001520 -69122.800000 1 0 0
5.922930 1.057838 -15.526253 16.651265 0.176737 2.771895 -0.000639 0.002910 616093.000000 1 0 0
16.143730 -5.764062 -10.583253 20.145711 -0.342938 2.123905 0.016199 0.000131 332641.000000 1 0 0
4.811230 -4.096962 -11.227153 12.883400 -0.705388 2.628934 -0.002160 -0.000551 -481975.000000 1 0 0
8.637430 -3.681962 -17.292353 19.677081 -0.402954 2.644152 0.003475 -0.007826 257338.000000 1 0 0
13.182230 -9.642062 -9.028553 18.661600 -0.631519 2.075792 0.020370 -0.001831 -83227.000000 1 0 0
2.189730 -7.745762 -13.712953 15.900843 -1.295285 2.610796 0.001360 0.003153 667131.000000 1 0 0
-6.827870 -2.269862 -18.537953 19.885366 0.320947 2.771354 -0.005583 0.008181 -1275780.000000 1 0 0
-1.642870 -6.546162 -15.742953 17.128684 1.324908 2.736583 0.000456 0.002357 176109.000000 1 0 0
1.419230 -7.348262 -18.584753 20.035074 -1.380007 2.758762 0.010347 -0.002534 -29318.200000 1 0 0
5.248730 11.106538 -14.433253 18.953183 1.129324 2.436453 0.006317 -0.015358 -1060340.000000 1 0 0
5.210130 -3.413962 -17.574053 18.645319 -0.580060 2.800965 0.006677 -0.005823 -446320.000000 1 0 0
3.843430 13.196338 -13.896253 19.545361 1.287386 2.361679 0.004046 -0.012383 -72272.700000 1 0 0
9.429330 10.407738 -15.603353 20.992806 0.834680 2.408744 0.037908 -0.024461 350948.000000 1 0 0
2.395230 3.865438 -16.286553 16.909481 1.016051 2.869316 -0.002742 0.004299 406339.000000 1 0 0
16.368530 1.881838 -11.647853 20.177774 0.114464 2.186167 -0.005997 -0.000982 1243870.000000 1 0 0
9.855330 -3.719662 -10.682453 15.002607 -0.360896 2.363195 0.005470 0.000332 408482.000000 1 0 0
14.562530 -2.074362 -12.068353 19.026702 -0.141493 2.257880 0.014934 0.001883 -121649.000000 1 0 0
-2.819570 -8.761562 -16.000853 18.459204 1.259451 2.619590 0.000803 0.008571 797.273000 1 0 0
13.900730 8.201438 -9.254553 18.604855 0.533034 2.091426 0.015814 -0.001808 -121927.000000 1 0 0
-8.374770 -0.195162 -16.631653 18.622211 0.023299 2.675005 -0.004291 0.010637 -641411.000000 1 0 0
-3.536170 4.156438 -15.936253 16.844721 -0.865856 2.811672 -0.006344 0.004363 -435857.000000 1 0 0
14.910330 4.037138 -9.802353 18.294878 0.264421 2.136248 -0.005362 0.000851 363215.000000 1 0 0
5.207130 1.064938 -12.986553 14.032065 0.201733 2.753127 -0.005073 0.001891 -174915.000000 1 0 0
7.743630 -7.798962 -13.018653 17.037398 -0.788958 2.440476 0.006367 -0.001647 -4559690.000000 1 0 0
3.255530 -6.074362 -11.996953 13.835578 -1.078807 2.620165 0.001154 0.000439 -1124770.000000 1 0 0
-3.199570 3.605538 -18.558153 19.173997 -0.844984 2.887458 -0.007171 0.006184 -479557.000000 1 0 0
0.801230 5.167938 -17.703553 18.459830 1.416982 2.854359 -0.003021 -0.000513 -1681360.000000 1 0 0
6.246530 7.173438 -10.222953 13.963743 0.854358 2.392206 0.001318 0.002533 182813.000000 1 0 0
9.533430 3.766938 -11.758553 15.599348 0.376300 2.424599 -0.003950 0.002951 -26738.500000 1 0 0
4.312830 1.532538 -17.587453 18.173268 0.341428 2.886996 -0.000444 0.002776 -98793.400000 1 0 0
2.565930 8.197638 -13.395653 15.913164 1.267448 2.571400 -0.002048 0.001289 -1561980.000000 1 0 0
14.308230 -3.582862 -10.036553 17.840817 -0.245360 2.168277 0.012706 0.004687 90211.000000 1 0 0
-1.306170 9.449738 -16.267353 18.858165 -1.433444 2.611215 -0.003558 0.008985 101118.000000 1 0 0
-5.253170 2.186638 -15.752553 16.748734 -0.394437 2.794960 -0.005012 0.002076 242973.000000 1 0 0
4.350730 4.364838 -12.023553 13.510976 0.787017 2.667944 -0.006827 0.001973 219159.000000 1 0 0
9.119130 2.914038 -17.561253 20.001194 0.309297 2.642485 -0.000671 0.002111 730869.000000 1 0 0
-4.146070 14.477938 -13.214253 20.035395 -1.291889 2.291010 -0.002105 -0.003347 -174106.000000 1 0 0
15.392230 -4.976262 -8.148753 18.113147 -0.312691 2.037428 0.010320 0.004307 629704.000000 1 0 0
1.182930 9.334438 -16.837853 19.288451 1.444741 2.632014 -0.004133 0.008702 -850429.000000 1 0 0
0.350930 -3.181662 -12.821653 13.215177 -1.460943 2.896941 -0.002242 0.000548 178986.000000 1 0 0
7.325330 3.589138 -13.117053 15.446664 0.455586 2.585234 -0.006282 0.005360 576305.000000 1 0 0
-2.854670 7.748538 -15.005053 17.127188 -1.217812 2.638500 -0.010059 0.004912 -70468.500000 1 0 0
12.050230 -5.080662 -11.207153 17.222701 -0.399007 2.279328 0.013036 -0.002765 -941631.000000 1 0 0
0.506830 -4.517362 -20.095953 20.603659 -1.459068 2.919136 0.010087 -0.005634 -532962.000000 1 0 0
3.311830 -4.558462 -16.138653 17.093973 -0.942490 2.805691 0.006113 -0.007533 499727.000000 1 0 0
-5.746370 4.262438 -14.385453 16.066437 -0.638208 2.680064 -0.008878 0.005181 561490.000000 1 0 0
12.208530 -7.462562 -10.023453 17.470193 -0.548656 2.181869 0.016739 -0.003181 536111.000000 1 0 0
-2.163570 -1.730762 -15.057153 15.309945 0.674714 2.959619 -0.001001 -0.001400 451517.000000 1 0 0
7.031730 5.846138 -14.395853 17.054710 0.693593 2.575678 -0.002851 0.003982 -16516.700000 1 0 0
3.962830 -5.522062 -18.454753 19.666598 -0.948332 2.788710 0.013494 -0.015313 233287.000000 1 0 0
7.445930 7.280138 -12.327053 16.136868 0.774140 2.440141 -0.001188 -0.001810 -530500.000000 1 0 0
12.198230 -2.519862 -11.133653 16.706428 -0.203711 2.300206 0.008641 0.001028 -1560040.000000 1 0 0
7.292430 -0.688762 -10.735453 12.996302 -0.094170 2.542840 -0.002552 0.001568 -937998.000000 1 0 0
5.183930 4.141538 -14.532253 15.975351 0.674081 2.713278 -0.006534 0.003083 -1683810.000000 1 0 0
14.521830 2.919238 -13.224253 19.856645 0.198380 2.299611 -0.009571 -0.004783 -409876.000000 1 0 0
-6.325570 6.944138 -15.807553 18.387838 -0.831979 2.605428 -0.011995 0.014089 606888.000000 1 0 0
-11.070870 3.770738 -16.517353 20.238714 -0.328276 2.525472 -0.000591 0.003331 -122726.000000 1 0 0
-4.990470 6.686038 -18.081253 19.913302 -0.929602 2.709279 -0.009520 0.022290 424630.000000 1 0 0
-9.917870 1.623638 -15.815553 18.738518 -0.162269 2.575519 -0.004355 0.015731 -131906.000000 1 0 0
-7.515170 6.175038 -17.867753 20.343683 -0.687819 2.643080 -0.016910 0.007924 -998640.000000 1 0 0
-8.683670 3.883738 -15.694253 18.352087 -0.420561 2.596685 -0.009617 0.015503 -1439280.000000 1 0 0
8.844130 13.535938 -11.875853 20.061808 0.992048 2.204289 0.044582 -0.027107 34847.500000 1 0 0
13.721130 9.265338 -11.681353 20.262524 0.593929 2.185235 0.013700 -0.004643 412238.000000 1 0 0
8.374730 15.834638 -9.078953 20.082312 1.084307 2.039900 0.028202 -0.016967 6130.530000 1 0 0
7.133530 13.709538 -13.911153 20.793240 1.091015 2.303690 0.030488 -0.013633 -59598.000000 1 0 0
4.700230 16.072938 -12.465353 20.876219 1.286298 2.210687 0.024739 -0.023086 13408.100000 1 0 0
11.130630 10.970438 -11.565653 19.442370 0.778150 2.207898 0.024833 -0.013280 288995.000000 1 0 0
15.748430 9.764438 -10.136553 21.121245 0.555015 2.071362 0.019534 0.000605 69636.400000 1 0 0
13.470530 10.851538 -9.534253 19.751279 0.678132 2.074549 0.044674 -0.005167 187576.000000 1 0 0
10.402230 11.971538 -8.315853 17.907471 0.855424 2.053730 0.014517 0.003119 194820.000000 1 0 0
5.362830 16.215638 -10.018653 19.801017 1.251400 2.101299 0.008603 -0.019211 -137605.000000 1 0 0
6.562730 14.530838 -11.521553 19.671321 1.146578 2.196544 0.021721 -0.013062 -1025960.000000 1 0 0
10.969230 13.955438 -9.857953 20.304125 0.904639 2.077748 0.039152 -0.005589 -174723.000000 1 0 0
8.165030 -18.758462 -1.470953 20.511249 -1.160258 1.642572 0.030420 0.011389 -252622.000000 1 0 0
7.247130 -17.425962 -3.457653 19.186985 -1.176675 1.751994 0.019116 0.006052 -637274.000000 1 0 0
4.652730 -18.074662 5.551747 19.472114 -1.318849 1.281672 0.004747 -0.001169 -115848.000000 1 0 0
9.657730 -17.123062 -2.851453 19.864586 -1.057254 1.714838 0.026303 0.009673 -507731.000000 1 0 0
-9.831770 -12.289162 -9.799353 18.539539 0.896034 2.127706 0.011041 -0.006160 111835.000000 1 0 0
-5.110870 -7.091162 -11.970753 14.822432 0.946287 2.510885 0.001178 0.002063 -725411.000000 1 0 0
-10.955270 -9.449562 -5.471553 15.467710 0.711740 1.932363 0.004640 0.000113 -1824860.000000 1 0 0
-4.700070 -11.506862 -13.925253 18.665776 1.183020 2.412878 0.015236 0.000925 242601.000000 1 0 0
-2.886770 -15.462762 7.554847 17.450105 1.386229 1.123045 -0.001220 0.000049 159288.000000 1 0 0
-4.926570 -12.078562 -11.446053 17.354391 1.183518 2.291014 0.009007 0.002345 285303.000000 1 0 0
-14.481070 -12.711962 -4.146753 19.710173 0.720432 1.782767 -0.006597 0.005518 -332827.000000 1 0 0
-3.284570 -12.242362 -3.272653 13.090992 1.308674 1.823469 0.003032 -0.000336 549257.000000 1 0 0
-2.448270 -17.368362 -1.516853 17.605535 1.430758 1.657061 -0.009054 -0.006517 -1275920.000000 1 0 0
-5.732070 -12.166962 3.637847 13.932894 1.130520 1.306637 0.002349 -0.002858 812036.000000 1 0 0
-8.981270 -10.850962 -11.832453 18.396019 0.879396 2.269476 0.012283 0.001904 -252037.000000 1 0 0
-10.022370 -11.933362 -7.268953 17.195659 0.872218 2.007241 0.003372 -0.008086 12488.700000 1 0 0
-10.882470 -15.011462 6.135347 19.529840 0.943525 1.251233 0.018636 -0.015410 -1444760.000000 1 0 0
-9.404970 -15.876662 0.615247 18.463488 1.036001 1.537468 0.004484 0.005365 -154410.000000 1 0 0
-14.821170 -7.510462 -8.104853 18.486826 0.469024 2.024628 -0.021282 -0.001553 -93681.800000 1 0 0
-2.341370 -16.575062 5.210347 17.531754 1.430466 1.269043 0.001827 -0.002685 -632710.000000 1 0 0
4.493330 -15.528162 6.194247 17.311341 -1.289123 1.204870 0.004369 -0.004022 -550624.000000 1 0 0
3.979030 -14.660062 -10.121653 18.253711 -1.305762 2.158556 -0.004975 0.004732 299780.000000 1 0 0
-7.554870 -14.110162 -0.267353 16.007630 1.079215 1.587499 0.006283 -0.002975 876354.000000 1 0 0
3.076030 -14.920962 9.600147 18.007218 -1.367490 1.008503 0.000136 -0.003783 -458525.000000 1 0 0
2.431630 -17.359962 10.400947 20.382856 -1.431631 1.035287 0.013200 -0.005874 -567592.000000 1 0 0
-8.445770 -17.165862 -5.687853 19.958695 1.113561 1.859783 0.005337 0.001074 -519866.000000 1 0 0
-6.660270 -9.112462 -7.704353 13.665768 0.939634 2.169740 0.010073 -0.002241 308010.000000 1 0 0
-6.238070 -13.080762 -4.805453 15.268013 1.125808 1.890979 0.002709 -0.007317 564303.000000 1 0 0
2.091630 -19.429662 -5.004453 20.172537 -1.463558 1.821497 0.008453 -0.006126 128465.000000 1 0 0
-5.253570 -12.946562 8.321347 16.262174 1.185310 1.033635 0.006676 -0.004289 1061220.000000 1 0 0
2.210930 -17.582062 3.437847 18.050926 -1.445704 1.379173 0.006821 -0.005704 1741990.000000 1 0 0
-17.766470 -10.123062 -2.266953 20.573354 0.517906 1.681209 -0.002627 0.001566 816250.000000 1 0 0
-3.523670 -15.561962 2.612347 16.168342 1.348123 1.408513 -0.006698 0.002849 286890.000000 1 0 0
-10.215570 -10.349462 -14.090753 20.248915 0.791909 2.340437 0.009381 0.003224 -141191.000000 1 0 0
5.880930 -14.544962 -5.741053 16.706315 -1.186565 1.921593 0.000203 -0.001638 505730.000000 1 0 0
-7.400570 -12.496662 -10.581353 17.969419 1.036129 2.200436 0.009790 -0.004320 -1883200.000000 1 0 0
-7.093070 -14.285362 3.836247 16.404268 1.109931 1.334754 0.003745 -0.003308 1140500.000000 1 0 0
3.201030 -15.124462 -3.160853 15.779320 -1.362228 1.772477 0.005679 -0.002008 -217203.000000 1 0 0
-7.469770 -11.512262 7.798147 15.784193 0.995228 1.054057 0.012562 -0.008547 211914.000000 1 0 0
-12.695270 -12.425462 -0.782453 17.781288 0.774658 1.614815 -0.007903 0.010185 115630.000000 1 0 0
-1.786370 -13.766562 4.053247 14.461610 1.441756 1.286714 -0.006081 0.004989 -3434080.000000 1 0 0
-3.115770 -13.944962 5.278147 15.232493 1.350974 1.216953 -0.004381 0.004701 475448.000000 1 0 0
-14.594870 -10.137562 -4.256353 18.272847 0.607091 1.805889 -0.007989 0.000717 1012470.000000 1 0 0
-6.466970 -8.662062 -10.424553 15.017467 0.929484 2.338051 0.009803 -0.000914 134976.000000 1 0 0
0.790030 -19.701162 2.521747 19.877604 -1.530717 1.443590 0.009892 -0.000308 344369.000000 1 0 0
6.082930 -13.743362 -8.210153 17.125672 -1.154106 2.070774 0.005468 -0.004472 -2984110.000000 1 0 0
-4.011170 -16.778062 -5.828653 18.208955 1.336129 1.896629 -0.010025 -0.005040 -522014.000000 1 0 0
-3.802870 -13.742162 -13.101453 19.363804 1.300822 2.313925 0.016709 0.002742 -1092470.000000 1 0 0
-8.314470 -14.772162 -4.385253 17.509358 1.058143 1.823943 0.005658 -0.003158 -983202.000000 1 0 0
-4.343770 -14.529962 10.155947 18.251888 1.280301 0.980710 0.006146 -0.001891 -968079.000000 1 0 0
-0.413370 -12.211362 -9.956053 15.761067 1.536958 2.254523 0.005079 0.002031 679380.000000 1 0 0
2.497030 -17.188862 6.593247 18.578564 -1.426535 1.208006 0.008122 -0.009790 -1798760.000000 1 0 0
-2.982770 -19.102562 -3.300853 19.613781 1.415902 1.739894 -0.010333 -0.012333 -308150.000000 1 0 0
0.544230 -15.441162 -3.126153 15.763835 -1.535565 1.770431 0.010012 -0.003665 -741534.000000 1 0 0
6.073030 -17.937462 0.536847 18.945249 -1.244343 1.542456 0.012385 0.004470 -468193.000000 1 0 0
-6.920870 -16.801762 3.834447 18.571501 1.180062 1.362831 -0.001003 0.003092 1010820.000000 1 0 0
-5.391670 -13.597662 -9.465853 17.423228 1.193298 2.145146 0.006852 -0.003498 -250223.000000 1 0 0
5.671230 -15.158062 -2.225253 16.336507 -1.212780 1.707435 0.005663 0.004293 -1378200.000000 1 0 0
-8.841870 -10.227062 -0.433953 13.526262 0.857912 1.602884 0.004183 -0.000222 1044720.000000 1 0 0
-7.348270 -18.137462 -3.112253 19.815416 1.185864 1.728512 -0.004831 -0.011426 -120920.000000 1 0 0
7.802530 -16.086962 -1.224853 17.921219 -1.119203 1.639196 0.011467 0.009592 -254576.000000 1 0 0
-8.188770 -10.217762 -9.506453 16.181201 0.895187 2.198762 0.010554 -0.001756 -1417910.000000 1 0 0
-9.312370 -15.057362 -6.832453 18.977007 1.016914 1.939105 0.008004 -0.005219 -131029.000000 1 0 0
-11.530270 -10.544762 -11.897253 19.638833 0.740784 2.221570 0.004121 0.007747 -565285.000000 1 0 0
6.552130 -16.244462 2.412247 17.681400 -1.187409 1.433941 0.005229 0.004693 -182425.000000 1 0 0
-2.406970 -11.244062 -6.156553 13.043220 1.359913 2.062368 0.006680 -0.000894 -174841.000000 1 0 0
-12.496070 -15.319262 -3.096453 20.010487 0.886549 1.726162 -0.003999 0.001920 180190.000000 1 0 0
-0.383870 -19.541262 -3.043653 19.780599 1.551155 1.725281 0.003112 -0.012136 -43189.900000 1 0 0
-5.947170 -15.590962 -4.767353 17.354382 1.206383 1.849080 -0.003583 -0.006622 -1417340.000000 1 0 0
1.885730 -16.022862 -1.074853 16.169211 -1.453645 1.637321 0.011455 -0.004106 36136.100000 1 0 0
-13.221070 -12.011862 5.358147 18.649162 0.737513 1.279376 0.021854 -0.006755 550696.000000 1 0 0
1.847630 -15.204562 -8.840153 17.684477 -1.449871 2.094259 -0.000729 0.002618 -2035920.000000 1 0 0
-11.877570 -16.752062 0.073947 20.535669 0.954041 1.567195 0.007003 -0.004871 424383.000000 1 0 0
-7.441370 -16.656262 -0.951953 18.267766 1.150639 1.622931 -0.005309 0.000990 556242.000000 1 0 0
-2.885270 -14.490362 -1.790053 14.882865 1.374250 1.691364 -0.006380 -0.003005 526540.000000 1 0 0
-1.874270 -10.516362 -13.331753 17.083395 1.394424 2.466090 0.002129 0.009000 -395901.000000 1 0 0
1.597630 -19.643962 4.951047 20.321184 -1.489646 1.324679 0.012787 -0.005754 289637.000000 1 0 0
-17.400370 -9.306262 2.675347 19.913233 0.491123 1.436039 -0.002393 0.001048 -119531.000000 1 0 0
-2.846170 -15.851662 -8.053153 18.006364 1.393139 2.034473 -0.004841 0.000169 -1418700.000000 1 0 0
-10.311770 -12.246662 0.327947 16.013147 0.870961 1.550315 0.003697 0.004466 378781.000000 1 0 0
-7.036270 -11.438462 -6.568553 14.949695 1.019318 2.025701 0.004821 -0.005592 15698.100000 1 0 0
-2.520270 -13.714962 -6.775353 15.503462 1.389063 2.023081 -0.000953 -0.003342 550990.000000 1 0 0
-14.204370 -14.567062 -0.855753 20.364079 0.798003 1.612831 -0.001276 0.014216 -64564.700000 1 0 0
-9.724270 -11.269762 -4.293653 15.492076 0.858881 1.851625 0.012782 -0.004905 803941.000000 1 0 0
9.442130 -15.177262 -5.345953 18.656964 -1.014268 1.861409 0.014381 0.009210 120515.000000 1 0 0
-5.752770 -10.907462 -9.316253 15.455085 1.085457 2.217796 0.008364 -0.001441 -953954.000000 1 0 0
-10.538970 -16.013562 -4.733253 19.746082 0.988729 1.812859 0.005258 0.001607 -1522900.000000 1 0 0
2.112230 -17.405762 -3.344753 17.849634 -1.450034 1.759296 0.008551 -0.005003 470625.000000 1 0 0
-0.559270 -14.599762 -8.303253 16.805054 1.532508 2.087587 0.000312 -0.000036 -785013.000000 1 0 0
-0.748370 -18.373762 -7.202753 19.749300 1.530088 1.944117 -0.006917 -0.001304 20162.800000 1 0 0
-1.792670 -10.057162 -10.654453 14.760675 1.394401 2.377215 0.004329 0.003369 176620.000000 1 0 0
-5.092470 -17.406362 1.904447 18.235723 1.286176 1.466171 -0.002444 -0.005010 -1537850.000000 1 0 0
0.169930 -12.890962 -2.707253 13.173268 -1.557615 1.777782 -0.000937 -0.000863 -1555960.000000 1 0 0
2.645930 -15.021862 3.012447 15.547737 -1.396446 1.375808 0.004273 -0.000814 -1042170.000000 1 0 0
-9.359670 -13.085362 6.818947 17.473642 0.949890 1.169902 0.015302 -0.011622 -174438.000000 1 0 0
-1.195770 -17.744362 -4.636053 18.378935 1.503509 1.825799 -0.003443 -0.012243 141656.000000 1 0 0
-9.645770 -17.484262 -2.231053 20.092732 1.066662 1.682064 0.003116 -0.007730 -97484.500000 1 0 0
1.297530 -16.376362 1.432747 16.490045 -1.491730 1.483801 0.003159 -0.002766 64308.000000 1 0 0
-0.465070 -18.170962 4.134847 18.641274 1.545208 1.347125 0.012723 -0.008058 1514840.000000 1 0 0
-17.389570 -9.173162 0.117147 19.661072 0.485412 1.564838 -0.013819 0.004523 656105.000000 1 0 0
-14.722070 -7.214962 -10.590353 19.517955 0.455679 2.144320 -0.009725 -0.004645 505214.000000 1 0 0
2.869230 -12.721262 -8.941753 15.811955 -1.348962 2.171843 -0.001226 0.002964 450413.000000 1 0 0
-11.609970 -14.753662 1.735447 18.854011 0.904081 1.478619 -0.002189 0.002573 379208.000000 1 0 0
-2.167770 -15.813662 10.718947 19.226725 1.434563 0.979422 0.000130 0.003297 -266573.000000 1 0 0
-7.074870 -15.878162 1.385847 17.438188 1.151631 1.491240 -0.000254 -0.003274 -1576280.000000 1 0 0
-12.674070 -15.131162 -5.809753 20.575163 0.873537 1.857057 0.003025 0.003555 460326.000000 1 0 0
0.930630 -13.820962 -5.109453 14.764538 -1.503563 1.924167 0.005350 -0.003845 796443.000000 1 0 0
6.072130 -16.253762 -7.698453 18.982142 -1.213268 1.988391 0.013184 -0.010561 281868.000000 1 0 0
-6.463470 -12.893262 5.898947 15.582369 1.106104 1.182550 0.008329 -0.005515 470136.000000 1 0 0
-2.516970 -13.725962 0.645947 13.969768 1.389438 1.524541 -0.000830 -0.000528 1393030.000000 1 0 0
-4.249170 -15.547962 0.162047 16.118959 1.304017 1.560743 -0.003778 -0.002359 89421.700000 1 0 0
-17.722770 -7.523662 -1.963953 19.353531 0.401464 1.672449 -0.016416 0.004716 556377.000000 1 0 0
1.038430 -12.616162 -12.027453 17.461543 -1.488672 2.330624 -0.000817 0.007488 387697.000000 1 0 0
1.101230 -17.254162 -5.810953 18.239682 -1.507059 1.895036 0.006565 -0.001993 -2268920.000000 1 0 0
-12.753170 -6.330662 -9.149053 16.924118 0.460763 2.141938 -0.007980 0.002638 -664505.000000 1 0 0
-11.924770 -13.213262 -8.472953 19.712467 0.836610 2.015098 0.016548 -0.013294 190391.000000 1 0 0
-4.261770 -9.817162 3.515947 11.265045 1.161231 1.253382 0.003379 0.000844 -3642540.000000 1 0 0
-6.865870 -14.408562 9.548447 18.598916 1.126114 1.031669 0.011025 -0.009764 -294228.000000 1 0 0
-5.475570 -16.032062 -8.049753 18.756529 1.241679 2.014371 -0.000959 -0.003250 -41025.600000 1 0 0
-0.187570 -13.557862 2.149747 13.728518 1.556962 1.413559 -0.000522 -0.000214 630678.000000 1 0 0
-11.134670 -13.452362 -4.534853 18.041946 0.879385 1.824872 0.006169 0.000575 -480640.000000 1 0 0
-9.758570 -10.543262 6.688047 15.846767 0.824030 1.135097 0.016619 -0.007994 -106690.000000 1 0 0
-15.624970 -8.021662 -4.748053 18.194250 0.474300 1.834817 -0.002426 0.002828 596480.000000 1 0 0
-14.471970 -7.361862 5.459647 17.130169 0.470582 1.246422 0.012660 -0.006165 99931.100000 1 0 0
-1.606970 -19.392962 -0.117953 19.459785 1.488122 1.576858 0.002366 -0.004402 -323722.000000 1 0 0
-15.237870 -12.213562 -1.312653 19.572604 0.675671 1.637913 -0.020876 0.015529 49251.400000 1 0 0
-4.577170 -12.215162 -6.777653 14.700246 1.212278 2.049982 0.006491 -0.003667 -126192.000000 1 0 0
-7.436470 -18.458662 1.917347 19.992486 1.187817 1.474745 -0.002930 0.001066 -98251.900000 1 0 0
-2.662870 -11.760662 -8.677553 14.856109 1.348129 2.194575 0.004445 0.001048 -173763.000000 1 0 0
-1.736670 -20.254462 -5.192453 20.981440 1.485263 1.820873 -0.007129 -0.005333 46813.800000 1 0 0
-5.518770 -8.939362 -13.813553 17.354632 1.017713 2.491384 0.008372 0.004654 150826.000000 1 0 0
-8.074670 -19.231962 -0.911053 20.878187 1.173290 1.614447 -0.005926 0.008154 -77022.900000 1 0 0
-17.060570 -7.320062 5.641647 19.402952 0.405307 1.275773 0.011286 -0.009644 78334.300000 1 0 0
-3.682170 -14.675262 -4.243153 15.713880 1.324961 1.844216 -0.005932 -0.004971 -2857270.000000 1 0 0
-3.167370 -14.821662 -10.864153 18.647888 1.360264 2.192713 0.004945 -0.000729 -155298.000000 1 0 0
-0.049670 -16.773862 6.304047 17.919429 1.567835 1.211303 0.007015 -0.005632 -955231.000000 1 0 0
-11.084870 -11.576162 3.893147 16.493589 0.807075 1.332508 0.009274 -0.005744 503037.000000 1 0 0
-0.239170 -14.787262 -0.066553 14.789346 1.554624 1.575296 0.001493 -0.000064 906804.000000 1 0 0
-7.357770 -9.559662 -2.466853 12.312972 0.914826 1.772507 0.007492 -0.002548 -440314.000000 1 0 0
-11.101170 -14.449662 -0.792553 18.238883 0.915708 1.614264 -0.003381 -0.000035 47299.800000 1 0 0
0.219530 -14.661862 -10.806253 18.215199 -1.555825 2.205892 -0.003840 0.006809 -657123.000000 1 0 0
-1.472570 -13.967362 -4.011953 14.606554 1.465755 1.849041 -0.004458 -0.004588 -3233810.000000 1 0 0
-11.455370 -7.986262 -7.469753 15.836764 0.608820 2.061982 0.003358 -0.002686 428827.000000 1 0 0
-0.268570 -17.211962 -0.414753 17.219053 1.555194 1.594885 0.005807 -0.009190 -1272850.000000 1 0 0
-12.779370 -9.591062 4.654847 16.642367 0.643828 1.287316 0.011997 -0.002012 -447180.000000 1 0 0
3.975630 -16.933962 1.627747 17.470383 -1.340200 1.477489 0.006149 -0.000181 1769640.000000 1 0 0
-4.062970 -18.029962 -8.132553 20.192218 1.349153 1.985323 -0.003591 -0.002376 -168888.000000 1 0 0
-13.378870 -11.324262 2.777447 17.746754 0.702417 1.413646 -0.000847 0.001143 -173671.000000 1 0 0
-8.506870 -12.237562 4.062547 15.447623 0.963337 1.304678 0.009189 -0.007403 1062490.000000 1 0 0
-8.395270 -9.405762 -5.791153 13.873946 0.842103 2.001392 0.008886 -0.003080 -78260.900000 1 0 0
3.572430 -17.362662 -5.543853 18.573061 -1.367875 1.873905 -0.000214 0.001462 -1358530.000000 1 0 0
-2.413670 -13.179262 11.220347 17.476125 1.389662 0.873642 -0.002763 -0.006166 30664.100000 1 0 0
0.008830 -16.821562 -9.606753 19.371493 -1.570271 2.089693 -0.002311 0.003523 -42642.500000 1 0 0
-7.230270 -10.821262 -14.496253 19.481218 0.981765 2.410004 0.017832 0.010746 -243014.000000 1 0 0
-4.638970 -18.771762 -1.342553 19.383022 1.328525 1.640116 0.001362 -0.012025 -579086.000000 1 0 0
-2.499170 -17.245862 1.128747 17.462522 1.426884 1.506113 0.001040 -0.005887 234831.000000 1 0 0
3.929330 -14.681662 -7.493653 16.945373 -1.309290 2.028873 0.003428 0.000663 -1086180.000000 1 0 0
-1.098370 -15.917662 -6.234253 17.130216 1.501902 1.943283 -0.002949 -0.005125 12521.000000 1 0 0
-9.513870 -15.189762 8.282347 19.744363 1.011238 1.137925 0.015333 -0.010426 -241089.000000 1 0 0
-7.229870 -12.066362 -1.715253 14.170752 1.030983 1.692136 0.003744 -0.003411 930361.000000 1 0 0
-7.498170 -15.135362 -9.383753 19.322436 1.110830 2.077892 0.009216 -0.001591 488524.000000 1 0 0
-4.997670 -13.198762 -0.581653 14.125238 1.208832 1.611986 0.000918 -0.001739 2997490.000000 1 0 0
-6.639370 -13.833762 -7.268253 16.978860 1.123325 2.013160 0.006866 -0.006194 257830.000000 1 0 0
5.643930 -15.371062 0.255247 16.376466 -1.218900 1.555209 0.004153 0.006577 219520.000000 1 0 0
-14.426670 -12.851762 1.103547 19.352375 0.727728 1.513742 -0.006685 0.000502 898613.000000 1 0 0
0.927330 -15.366062 11.107947 18.983211 -1.510520 0.945736 0.001920 -0.004942 417770.000000 1 0 0
-9.380970 -10.608262 2.078947 14.312926 0.846719 1.425031 0.006615 -0.000174 280660.000000 1 0 0
-9.581770 -8.900662 -3.440553 13.522925 0.748563 1.828048 0.005992 -0.001884 75838.700000 1 0 0
-12.170970 -7.302862 -12.267053 18.760194 0.540436 2.283507 -0.002557 0.001422 -564531.000000 1 0 0
-13.270970 -8.380462 -0.537553 15.704768 0.563251 1.605032 -0.007443 0.004260 -478125.000000 1 0 0
-11.334170 -9.812562 0.540447 15.001395 0.713567 1.534762 0.006944 0.001246 1138820.000000 1 0 0
-15.809370 -12.220462 3.180047 20.233353 0.658052 1.412973 -0.003324 0.007118 -566157.000000 1 0 0
-10.463270 -12.494262 -2.213753 16.446498 0.873636 1.705809 0.007210 -0.001392 800151.000000 1 0 0
-3.451070 -8.899662 -12.128053 15.433844 1.200873 2.474799 0.002696 0.004633 -1978070.000000 1 0 0
-0.234170 -15.656862 3.896947 16.136244 1.555841 1.326882 0.006096 -0.000689 -639834.000000 1 0 0
-15.704470 -7.810062 1.339447 17.590383 0.461497 1.494576 -0.010579 -0.000540 -10781.100000 1 0 0
-6.380970 -13.429862 -13.205753 19.886424 1.127240 2.297030 0.016483 0.001048 -453797.000000 1 0 0
-15.344470 -10.441862 1.279647 18.604374 0.597516 1.501960 -0.005941 0.002956 617879.000000 1 0 0
-9.874670 -8.452462 -12.378453 17.949354 0.707952 2.331777 0.004104 -0.001276 662232.000000 1 0 0
-13.378170 -11.562662 -6.125653 18.713476 0.712734 1.904282 -0.000952 -0.002538 -256528.000000 1 0 0
-12.318270 -11.298762 -3.674553 17.114442 0.742257 1.787186 -0.001585 0.002623 -1229770.000000 1 0 0
-11.742970 -10.709262 -8.802853 18.167990 0.739390 2.076617 -0.010098 -0.014351 436626.000000 1 0 0
-13.264370 -8.469462 -5.776453 16.764328 0.568257 1.922575 -0.003725 0.002256 -1874300.000000 1 0 0
-13.525270 -7.971062 -3.163753 16.014996 0.532549 1.769654 -0.001704 0.000029 57288.500000 1 0 0
-4.428570 -17.004862 -3.277453 17.875102 1.316026 1.755192 -0.007035 -0.008206 -243446.000000 1 0 0
-15.481570 -8.874562 -1.641553 17.920144 0.520506 1.662529 -0.014779 0.006551 -176618.000000 1 0 0
-9.272370 -15.620062 3.587447 18.515749 1.035082 1.375812 0.005649 -0.005666 -602364.000000 1 0 0
4.659030 -17.314362 8.033247 19.647564 -1.307938 1.149584 0.011174 -0.016030 149388.000000 1 0 0
-8.295670 -15.495962 5.941047 18.553679 1.079275 1.244847 0.011336 -0.001391 872459.000000 1 0 0
1.052030 -16.268362 8.602047 18.432623 -1.506219 1.085269 -0.002761 0.001679 369460.000000 1 0 0
-10.812670 -7.836262 -10.095453 16.740340 0.627131 2.218130 0.006611 -0.000167 1116650.000000 1 0 0
-4.749870 -15.971962 5.840547 17.657203 1.281738 1.233672 0.001177 -0.001052 -739310.000000 1 0 0
-1.469770 -13.231562 -12.054653 17.959652 1.460169 2.306633 0.004621 0.002577 -1535920.000000 1 0 0
-6.364370 -14.313162 -2.525553 15.866639 1.152399 1.730650 -0.001416 -0.003287 490636.000000 1 0 0
-17.660770 -6.886962 -7.089053 20.238273 0.371820 1.928666 -0.012233 -0.000741 115759.000000 1 0 0
-17.303170 -3.953962 -10.151353 20.447089 0.224654 2.090323 -0.009213 -0.004674 734462.000000 1 0 0
-15.211770 -5.145462 -9.043953 18.430052 0.326174 2.083710 -0.019474 -0.003789 204942.000000 1 0 0
-15.953870 -5.274862 -5.715653 17.748769 0.319318 1.898670 -0.014790 0.000609 256032.000000 1 0 0
-15.266470 -4.246562 -12.294953 20.056526 0.271304 2.230667 -0.005255 0.001785 266323.000000 1 0 0
-18.505770 -5.100562 -5.334253 19.923190 0.268943 1.841844 -0.024540 0.003443 -453984.000000 1 0 0
-17.406570 -4.374062 -7.711453 19.534267 0.246191 1.976609 -0.016323 -0.001500 1387670.000000 1 0 0
12.168430 -7.844562 8.627347 16.853456 -0.572616 1.033397 -0.002639 -0.005679 200197.000000 1 0 0
16.009230 -3.448262 1.574247 16.451876 -0.212151 1.474962 0.006167 -0.002274 -595219.000000 1 0 0
12.046430 -2.128962 12.400147 17.418743 -0.174923 0.778617 -0.003542 -0.002698 660171.000000 1 0 0
9.650430 -10.000062 5.180747 14.831459 -0.803189 1.213964 -0.000441 -0.001438 -280384.000000 1 0 0
16.949430 -2.086362 7.138747 18.509398 -0.122477 1.174849 0.009707 -0.002658 -351506.000000 1 0 0
5.256530 -12.880262 9.177447 16.666067 -1.183320 0.987634 -0.006706 0.004195 -370201.000000 1 0 0
14.980830 -9.106362 -2.259953 17.676495 -0.546184 1.698998 0.001987 0.000713 107578.000000 1 0 0
11.158830 -8.614762 6.291247 15.437403 -0.657441 1.151046 0.004558 -0.005579 -2576450.000000 1 0 0
19.948830 -3.278462 3.517047 20.520082 -0.162888 1.398550 0.005826 -0.006780 -309434.000000 1 0 0
13.587530 -8.618562 6.816747 17.474800 -0.565259 1.170067 0.003995 -0.005918 -1348750.000000 1 0 0
8.288030 -11.011762 8.757547 16.329268 -0.925600 1.004737 -0.005086 0.000176 -1176890.000000 1 0 0
16.740930 -0.070262 -0.677553 16.754783 -0.004197 1.611247 0.003297 0.002838 -1626700.000000 1 0 0
12.376030 -12.392962 2.168947 17.648115 -0.786082 1.447585 0.009424 0.004077 -1216320.000000 1 0 0
10.231530 -11.704062 3.477347 15.929885 -0.852427 1.350734 -0.000199 0.004198 -533775.000000 1 0 0
16.374530 2.976938 2.218247 16.790117 0.179839 1.438293 0.003930 -0.002497 1335870.000000 1 0 0
18.339430 -3.318662 0.495647 18.643870 -0.179020 1.544208 0.002013 -0.004672 620888.000000 1 0 0
13.412330 -11.584462 -0.352353 17.726097 -0.712404 1.590675 0.018360 0.003795 -497639.000000 1 0 0
16.874330 -7.678562 -0.999153 18.566142 -0.427041 1.624638 0.015116 -0.001642 281577.000000 1 0 0
10.149930 -5.657462 9.661147 15.111774 -0.508499 0.877192 -0.000766 -0.005989 -1300150.000000 1 0 0
11.233530 -13.285162 6.139247 18.449338 -0.868880 1.231565 -0.004250 0.007236 -1339360.000000 1 0 0
13.213930 -1.784962 10.251847 16.819465 -0.134269 0.915338 0.007749 -0.001757 -366580.000000 1 0 0
15.472430 -2.074962 -1.590253 15.691732 -0.133312 1.672314 0.002039 0.000899 -453735.000000 1 0 0
10.428630 -12.502462 9.153047 18.677424 -0.875590 1.058638 -0.005359 0.000181 350254.000000 1 0 0
14.577330 1.215038 3.202447 14.974329 0.083159 1.355269 0.009210 -0.004057 649578.000000 1 0 0
14.912630 -5.901662 5.021747 16.805776 -0.376837 1.267350 0.010689 -0.009931 -521464.000000 1 0 0
14.237430 -3.347662 -3.251553 14.982785 -0.230936 1.789556 0.005612 0.003598 587665.000000 1 0 0
14.137830 0.526638 9.508747 17.046169 0.037233 0.979036 0.010811 -0.001868 464070.000000 1 0 0
15.425930 -3.511862 4.172947 16.361723 -0.223845 1.312904 0.009487 -0.007290 -1770160.000000 1 0 0
18.680730 4.917938 -4.386953 19.809118 0.257422 1.794109 -0.003224 0.008500 441424.000000 1 0 0
18.067730 -5.733962 -5.223553 19.662317 -0.307306 1.839688 0.029821 0.003745 641652.000000 1 0 0
17.332630 -0.040062 5.692247 18.243447 -0.002311 1.253482 0.009900 -0.002568 791858.000000 1 0 0
17.002430 -6.888762 3.834047 18.741334 -0.384950 1.364765 0.010780 -0.004741 486611.000000 1 0 0
9.851130 -6.497962 14.185847 18.452819 -0.583105 0.693891 -0.004974 -0.001637 -168810.000000 1 0 0
8.464430 -12.216362 5.140047 15.725971 -0.964867 1.237827 -0.005826 -0.000983 -2665700.000000 1 0 0
16.728130 -10.317362 -0.726153 19.667374 -0.552657 1.607726 0.008375 0.006584 -154845.000000 1 0 0
14.890930 -8.863162 0.219447 17.330424 -0.536887 1.558133 0.019191 -0.003885 -87049.300000 1 0 0
9.949230 -12.971062 1.401947 16.407349 -0.916483 1.485246 0.005956 0.004383 194436.000000 1 0 0
16.740730 -8.320462 8.686047 20.613819 -0.461260 1.135841 0.000366 -0.003812 647715.000000 1 0 0
19.070630 -0.400762 -1.668153 19.147644 -0.021012 1.658027 0.004343 0.004990 -430587.000000 1 0 0
13.506530 -1.279362 7.612747 15.556897 -0.094440 1.059454 0.010406 -0.004628 -390096.000000 1 0 0
12.662030 -9.843562 -3.160453 16.346595 -0.660813 1.765362 0.009346 -0.000050 -755320.000000 1 0 0
8.751030 -15.241562 1.391547 17.630149 -1.049597 1.491784 0.010505 0.012399 -948618.000000 1 0 0
11.396830 -8.322962 11.048247 17.922701 -0.630765 0.906584 -0.010361 -0.002663 232317.000000 1 0 0
13.881730 -4.081262 -0.673653 14.484921 -0.285945 1.617320 0.010531 -0.005117 -636781.000000 1 0 0
7.257330 -13.281362 10.768447 18.574791 -1.070698 0.952394 0.001329 0.006575 -367491.000000 1 0 0
15.300930 -6.809862 1.773447 16.841550 -0.418740 1.465299 0.002652 -0.005400 506473.000000 1 0 0
15.972630 -6.181962 -2.801553 17.354834 -0.369280 1.732934 0.013630 0.001775 124690.000000 1 0 0
11.218930 -8.542362 3.731147 14.586220 -0.650772 1.312122 0.009343 -0.006949 847098.000000 1 0 0
10.350830 -14.563562 -0.612153 17.877689 -0.952902 1.605044 0.020291 0.007923 563603.000000 1 0 0
13.222330 -12.841462 4.553547 18.985994 -0.770786 1.328598 -0.002646 0.002064 427457.000000 1 0 0
12.678730 -11.082062 6.469847 18.039435 -0.718301 1.203975 -0.007725 -0.004823 -707184.000000 1 0 0
10.800130 -10.466862 1.333847 15.098913 -0.769729 1.482340 0.005365 -0.001536 44954.900000 1 0 0
13.916430 -7.618562 11.689047 19.706429 -0.500884 0.935819 -0.004931 -0.005814 -496549.000000 1 0 0
15.280430 -1.782062 -5.038353 16.188029 -0.116099 1.887293 0.010027 0.005182 753665.000000 1 0 0
12.765530 -11.365962 -7.186553 18.541585 -0.727465 1.968813 0.022797 -0.003057 428687.000000 1 0 0
17.611130 -5.506762 1.778847 18.537547 -0.303055 1.474689 0.006711 -0.003701 897358.000000 1 0 0
10.713430 -9.994962 9.021347 17.206440 -0.750718 1.018903 -0.006675 -0.001012 -728418.000000 1 0 0
16.438130 1.720838 9.942247 19.287864 0.104306 1.029244 0.011605 0.004189 -9625.840000 1 0 0
18.301630 3.637138 0.485047 18.665843 0.196177 1.544808 -0.000549 0.003614 575905.000000 1 0 0
13.328330 -4.077562 5.584347 15.015187 -0.296890 1.189727 0.012833 -0.010718 -1044720.000000 1 0 0
12.213230 -6.225262 6.518247 15.179079 -0.471389 1.126942 0.010143 -0.008677 -368897.000000 1 0 0
16.413830 -10.210862 3.326847 19.614878 -0.556503 1.400364 -0.003085 -0.007774 -263912.000000 1 0 0
16.157530 -8.199262 -5.643853 18.977533 -0.469596 1.872761 0.014594 0.003979 246568.000000 1 0 0
14.135430 -0.357762 5.239147 15.079358 -0.025304 1.215958 0.007463 -0.002983 121917.000000 1 0 0
18.158130 -4.438462 4.986447 19.346377 -0.239733 1.310108 0.003274 -0.003115 -77685.400000 1 0 0
13.617330 -13.482462 7.022647 20.408970 -0.780421 1.219520 -0.002774 0.006152 238783.000000 1 0 0
14.719730 -13.621662 -0.889753 20.075154 -0.746673 1.615132 0.011865 0.009715 -114573.000000 1 0 0
17.707730 -6.073162 7.970647 20.346455 -0.330395 1.168268 0.009614 0.002043 -797441.000000 1 0 0
14.387830 3.155438 9.060847 17.293507 0.215895 1.019320 0.001807 -0.005253 -2028370.000000 1 0 0
18.805430 3.977438 3.027647 19.458439 0.208433 1.414566 0.009598 0.000171 -185683.000000 1 0 0
14.794430 -10.727662 7.991547 19.945494 -0.627384 1.158549 0.001384 0.000322 -161032.000000 1 0 0
14.838230 -4.953962 10.282447 18.720137 -0.322229 0.989304 0.002090 -0.004844 104338.000000 1 0 0
17.806330 -7.975762 1.720747 19.586708 -0.421121 1.482830 0.018626 -0.007471 289390.000000 1 0 0
18.473030 -5.914462 -1.968453 19.496372 -0.309855 1.671934 0.018122 0.001881 270929.000000 1 0 0
14.100030 -13.110962 -5.755753 20.095693 -0.749066 1.861282 0.020332 0.002764 -160095.000000 1 0 0
15.570530 -1.556262 9.299747 18.202985 -0.099618 1.034575 0.009860 0.000602 -1313780.000000 1 0 0
13.032430 -9.989962 10.034947 19.244317 -0.654007 1.022247 -0.013644 -0.008079 -1672810.000000 1 0 0
16.530930 2.087538 4.716547 17.316908 0.125616 1.294945 0.007482 -0.002316 -1055770.000000 1 0 0
15.043430 2.346938 -0.126253 15.225927 0.154763 1.579088 0.002755 0.000356 -1075800.000000 1 0 0
14.869830 -9.782162 -7.144253 19.179231 -0.581876 1.952497 0.010352 -0.001038 874111.000000 1 0 0
16.239830 -0.027362 -3.304353 16.572615 -0.001685 1.771528 0.002837 0.008507 101648.000000 1 0 0
12.374030 2.614138 13.420747 18.440900 0.208199 0.755731 0.025038 -0.009131 -223535.000000 1 0 0
17.638930 -3.100162 9.574647 20.308046 -0.173980 1.079839 0.010754 0.004648 132794.000000 1 0 0
7.875130 -18.077162 4.536147 20.233094 -1.159948 1.344680 0.014154 -0.002367 -319947.000000 1 0 0
6.794630 -11.089162 6.559847 14.565992 -1.021071 1.103635 -0.004428 -0.000281 -124959.000000 1 0 0
18.027230 2.036638 -1.599053 18.212246 0.112499 1.658710 0.000643 0.009137 245446.000000 1 0 0
17.535330 -2.310962 3.482347 18.026511 -0.131034 1.376395 0.001321 -0.002527 -901885.000000 1 0 0
12.427830 -13.524262 -2.012353 18.477180 -0.827621 1.679923 0.018914 0.011093 -792476.000000 1 0 0
14.855330 -8.324562 4.227547 17.545692 -0.510774 1.327457 0.009008 -0.004954 -124895.000000 1 0 0
11.147230 -3.082262 14.727947 18.726279 -0.269765 0.665699 -0.021904 -0.001668 246985.000000 1 0 0
11.755330 -13.711162 -6.691153 19.260199 -0.862048 1.925602 0.006169 0.005763 -349895.000000 1 0 0
10.515330 -12.047962 -1.381353 16.050972 -0.853220 1.656963 0.010660 0.001667 -1519610.000000 1 0 0
13.113230 -8.024462 2.001447 15.503373 -0.549150 1.441337 0.009551 -0.004446 -1870310.000000 1 0 0
8.870630 -7.864562 9.840247 15.406813 -0.725354 0.877996 0.001994 -0.005377 -1552070.000000 1 0 0
15.661030 -3.890762 8.041547 18.029764 -0.243506 1.108488 0.014084 -0.006649 -1353620.000000 1 0 0
10.318530 -17.082162 5.078747 20.592863 -1.027402 1.321599 0.015475 -0.007545 -177593.000000 1 0 0
15.102430 -6.361662 8.132947 18.294780 -0.398677 1.110124 0.006781 -0.003921 -826076.000000 1 0 0
16.610430 -4.950962 -0.562653 17.341713 -0.289679 1.603247 0.008706 -0.003649 -337035.000000 1 0 0
13.871430 -10.580262 3.360947 17.766668 -0.651603 1.380478 0.011782 -0.001973 -838879.000000 1 0 0
14.841630 -10.086762 -4.614653 18.528674 -0.596921 1.822500 0.012726 -0.003066 476904.000000 1 0 0
13.566730 -6.619762 -0.193853 15.096854 -0.453954 1.583637 0.009070 -0.004171 236035.000000 1 0 0
17.794730 -0.772762 -5.100653 18.527446 -0.043399 1.849701 0.006535 0.009467 -443596.000000 1 0 0
14.345130 0.114638 -1.674253 14.442958 0.007991 1.686979 0.007054 0.003179 -2156060.000000 1 0 0
4.889230 -12.902762 11.786047 18.146536 -1.208586 0.863879 -0.008419 0.003614 -165924.000000 1 0 0
12.060530 -7.464662 13.453547 19.549310 -0.554225 0.811811 -0.007416 -0.002180 -772706.000000 1 0 0
12.082530 -5.791162 11.527947 17.675369 -0.446951 0.860308 -0.005227 -0.000000 -89953.700000 1 0 0
13.245230 -4.609262 8.158047 16.224523 -0.334887 1.043936 0.008260 -0.011359 -984184.000000 1 0 0
15.410530 -1.200962 3.038347 15.753041 -0.077774 1.376706 0.006182 -0.003921 88535.100000 1 0 0
15.097430 -10.412362 5.619547 19.181475 -0.603765 1.273467 0.002044 -0.006044 959228.000000 1 0 0
13.501030 -8.049462 -5.779353 16.747315 -0.537629 1.923132 0.009047 -0.001528 -626719.000000 1 0 0
9.544930 -1.661962 13.255147 16.418488 -0.172392 0.631182 -0.003617 -0.010338 -75426.900000 1 0 0
9.965230 -9.080062 13.547547 19.112545 -0.738955 0.782958 -0.003603 0.001159 -248834.000000 1 0 0
20.312830 6.309938 -2.927553 21.470840 0.301188 1.707573 -0.000212 0.009671 823671.000000 1 0 0
11.330830 -3.583062 10.419947 15.805105 -0.306272 0.850939 0.005607 -0.003126 941928.000000 1 0 0
10.091230 -14.040562 -3.095953 17.565740 -0.947617 1.747971 0.013606 0.007436 421800.000000 1 0 0
14.823030 -12.788662 2.475547 19.733232 -0.711853 1.445014 0.009490 0.005273 211559.000000 1 0 0
11.590330 -0.566362 14.463047 18.542822 -0.048826 0.676161 0.013998 0.000947 -77605.900000 1 0 0
19.002530 -2.060462 5.616847 19.922114 -0.108009 1.284980 0.004704 -0.003101 471999.000000 1 0 0
18.913030 -0.554662 7.800047 20.465852 -0.029319 1.179784 0.010860 0.003483 24458.400000 1 0 0
18.795530 0.711838 0.597447 18.818491 0.037855 1.539043 -0.005813 -0.001846 11223.700000 1 0 0
18.565530 1.031838 3.596747 18.938854 0.055521 1.379722 0.004113 0.000810 -305747.000000 1 0 0
16.635830 -3.853462 -4.274553 17.603176 -0.227622 1.816077 0.005122 0.005473 1124600.000000 1 0 0
11.114730 -8.273062 15.725247 20.958630 -0.639864 0.722282 -0.003799 -0.002672 459143.000000 1 0 0
16.395230 -7.658162 6.255447 19.146322 -0.436980 1.237967 -0.003054 -0.005753 321389.000000 1 0 0
18.747530 2.222838 5.963647 19.798383 0.118016 1.264826 0.006300 0.000554 -37623.400000 1 0 0
15.563630 1.472338 7.588147 17.377409 0.094320 1.118905 0.016115 -0.002424 -7189.560000 1 0 0
8.622630 -15.617262 3.900347 18.260924 -1.066326 1.355548 0.002589 -0.002551 567913.000000 1 0 0
11.376730 -15.186062 1.644947 19.046058 -0.927836 1.484322 0.016928 0.007883 449726.000000 1 0 0
8.179730 -16.099862 6.291947 19.123340 -1.100720 1.235531 0.003732 -0.000691 294550.000000 1 0 0
14.362930 -11.721862 -2.687553 18.732825 -0.684493 1.714761 0.010080 0.005143 408298.000000 1 0 0
13.682930 -4.813162 2.953347 14.802411 -0.338245 1.369930 0.008412 -0.001479 -2413380.000000 1 0 0
-1.010270 10.125338 -5.455253 11.545687 -1.471349 2.062913 -0.000062 0.004231 -926659.000000 1 0 0
8.166430 -1.705862 -8.129953 11.648892 -0.205926 2.343280 -0.003762 0.000214 -2132190.000000 1 0 0
2.977830 -10.184162 7.622247 13.064581 -1.286328 0.947853 -0.010409 0.001472 578176.000000 1 0 0
-6.232470 1.255038 8.438447 10.565330 -0.198713 0.645677 -0.003417 0.001757 -369709.000000 1 0 0
7.140130 -6.264462 -7.370753 12.023017 -0.720165 2.230716 -0.005475 -0.000584 -273066.000000 1 0 0
-11.325970 -4.470662 -4.066553 12.837494 0.375952 1.893120 -0.001108 -0.001439 235309.000000 1 0 0
2.044630 -3.178962 2.902947 4.765859 -0.999234 0.915855 -0.004354 -0.001142 1823220.000000 1 0 0
-3.517070 -4.283362 8.906447 10.490080 0.883321 0.556640 -0.003442 0.000260 -2636260.000000 1 0 0
-4.793470 -1.100262 -2.386553 5.466586 0.225625 2.022580 -0.001831 0.000935 -381410.000000 1 0 0
5.060330 -5.165662 -3.613353 8.083769 -0.795698 2.034192 -0.001987 -0.002080 -23782.900000 1 0 0
2.628330 14.176138 -8.688153 16.833152 1.387473 2.113127 0.003581 -0.009975 -111997.000000 1 0 0
5.477430 -5.351262 13.619947 15.625019 -0.773747 0.512185 -0.003681 -0.000906 -2096110.000000 1 0 0
-4.708170 -0.902662 9.957347 11.051264 0.189424 0.448694 -0.001225 0.001165 -2340200.000000 1 0 0
-1.030670 11.926438 -2.681053 12.267447 -1.484592 1.791125 -0.003100 -0.000014 884235.000000 1 0 0
3.065330 9.440638 -10.447753 14.411018 1.256840 2.381807 0.000094 0.001378 -105347.000000 1 0 0
-10.609570 2.679738 1.186547 11.006901 -0.247403 1.462786 -0.007581 0.003034 245680.000000 1 0 0
5.548030 -8.998362 -0.827153 10.603553 -1.018289 1.648883 -0.002771 -0.001477 408880.000000 1 0 0
-6.788670 5.381738 9.603047 12.933200 -0.670306 0.733985 0.003216 0.002853 254059.000000 1 0 0
-5.380570 -1.854562 5.201947 7.710395 0.331925 0.830283 -0.000865 0.000178 748594.000000 1 0 0
6.641630 -3.727762 -7.465753 10.665126 -0.511456 2.346215 -0.003330 -0.001342 331810.000000 1 0 0
6.472030 4.728538 11.143347 13.726632 0.630976 0.623560 0.010849 0.001023 440343.000000 1 0 0
3.821530 -9.803162 3.393547 11.055417 -1.199091 1.258801 -0.009477 0.000735 899109.000000 1 0 0
-6.639870 6.604738 -5.780453 11.005638 -0.782746 2.123778 -0.001229 -0.000332 131479.000000 1 0 0
-10.907970 8.490138 5.400147 14.840076 -0.661395 1.198356 -0.008775 0.002990 158526.000000 1 0 0
-9.129470 -5.538762 5.208547 11.880828 0.545324 1.116979 0.000011 0.000700 253402.000000 1 0 0
3.262830 9.870938 -7.982753 13.107472 1.251554 2.225625 0.002199 -0.001279 734227.000000 1 0 0
-8.114470 -8.545862 6.141547 13.288905 0.811286 1.090371 0.008854 -0.001722 -1958580.000000 1 0 0
-7.840870 -5.577062 -7.597153 12.259673 0.618257 2.239139 0.008417 -0.002462 -414624.000000 1 0 0
9.248730 -1.492262 6.791947 11.571361 -0.159969 0.943495 0.010818 -0.011767 1645320.000000 1 0 0
-4.037370 -0.415462 -4.856753 6.329377 0.102543 2.445471 0.000953 -0.001992 -654971.000000 1 0 0
9.043630 1.163438 -4.473653 10.156496 0.127944 2.026921 0.001542 0.000757 -3572610.000000 1 0 0
-1.756870 -10.721662 10.721847 15.264293 1.408378 0.792013 -0.005588 -0.004591 205121.000000 1 0 0
-12.841370 0.319738 -2.654653 13.116790 -0.024894 1.774590 -0.004486 -0.003776 -1150400.000000 1 0 0
-9.784470 -5.073462 -6.000353 12.549107 0.478355 2.069343 0.004264 -0.002423 -673743.000000 1 0 0
-5.654570 8.393438 -0.149353 10.121574 -0.977948 1.585553 -0.005228 0.005887 495984.000000 1 0 0
6.336330 9.604138 0.448247 11.514750 0.987597 1.531858 0.004684 -0.003465 501361.000000 1 0 0
-0.622370 -12.123962 -0.066453 12.140108 1.519507 1.576270 0.001571 0.001691 -103532.000000 1 0 0
6.154230 4.691938 2.326747 8.081001 0.651385 1.278734 0.000798 -0.001252 270635.000000 1 0 0
3.410230 -7.529462 -8.222253 11.658812 -1.145518 2.353557 -0.003287 0.001344 1351190.000000 1 0 0
-6.511170 -9.903662 4.646447 12.730567 0.989201 1.197181 0.006528 -0.001454 -2427900.000000 1 0 0
-0.093970 6.632738 -9.226453 11.363515 -1.556630 2.518258 0.000084 0.000744 -2173430.000000 1 0 0
-17.268970 -2.801462 4.403847 18.040493 0.160824 1.324195 0.016353 -0.012382 362173.000000 1 0 0
-8.344070 0.932638 -9.310453 12.537059 -0.111311 2.407792 -0.004858 0.002674 812253.000000 1 0 0
-10.075870 -5.838762 -11.773853 16.560130 0.525194 2.361681 0.005879 0.005162 471464.000000 1 0 0
2.169330 9.457838 6.443847 11.648170 1.345328 0.984587 -0.006034 0.008136 -147736.000000 1 0 0
-11.269970 1.680738 -1.162153 11.453720 -0.148043 1.672436 -0.000792 -0.001837 -1714740.000000 1 0 0
-5.947770 -5.334962 -3.099353 8.569934 0.731138 1.940838 0.007795 -0.000575 633591.000000 1 0 0
-6.928670 -8.308262 1.478947 10.918836 0.875695 1.434930 0.006997 -0.000971 79572.200000 1 0 0
-0.080370 11.087938 -7.759653 13.533700 -1.563548 2.181395 0.002262 0.002740 830080.000000 1 0 0
-2.952170 9.291138 -4.190053 10.611178 -1.263144 1.976724 -0.001525 0.000937 -839354.000000 1 0 0
3.431830 -4.721762 9.304847 10.984201 -0.942302 0.560270 -0.000542 -0.003952 -1118260.000000 1 0 0
-8.901970 1.522238 -0.339553 9.037564 -0.169362 1.608376 -0.004947 0.000441 -1798530.000000 1 0 0
2.333930 3.617038 -10.353453 11.212679 0.997760 2.747564 -0.001580 -0.000617 1394600.000000 1 0 0
-13.593770 0.578738 1.143347 13.654038 -0.042548 1.486961 -0.002507 -0.001299 -238624.000000 1 0 0
9.313330 -12.567562 -5.134653 16.463487 -0.933041 1.887969 0.014047 0.003243 -2390440.000000 1 0 0
-4.746370 9.451938 -8.263553 13.422126 -1.105424 2.234028 0.001890 -0.001211 -1079520.000000 1 0 0
-2.239670 7.154338 8.427347 11.279222 -1.267410 0.727022 -0.004236 0.006281 -894995.000000 1 0 0
-10.719970 -1.148562 -4.322053 11.615381 0.106735 1.952064 -0.001687 -0.001269 -4069470.000000 1 0 0
2.761830 -7.120862 9.597447 12.265618 -1.200807 0.672178 -0.004629 0.000610 -1746690.000000 1 0 0
-15.964270 -6.460162 3.481947 17.570303 0.384520 1.371303 -0.001335 -0.005830 -957420.000000 1 0 0
-10.766670 0.070138 6.310047 12.479695 -0.006514 1.040690 -0.000845 0.000850 -2050630.000000 1 0 0
-8.250270 9.951838 9.512747 16.049872 -0.878609 0.936390 0.004454 -0.005225 -1480530.000000 1 0 0
0.251030 -5.989462 -3.759553 7.076080 -1.528909 2.130936 -0.003134 0.002560 295951.000000 1 0 0
4.860630 1.475138 -2.987553 5.892981 0.294653 2.102460 -0.001202 0.001243 554150.000000 1 0 0
0.405230 5.378138 3.836547 6.618737 1.495591 0.952498 -0.007652 0.004760 -4419870.000000 1 0 0
5.937230 -11.366462 -1.571253 12.919597 -1.089432 1.692716 -0.003225 -0.000244 -1733610.000000 1 0 0
6.136530 -13.315062 5.163247 15.543713 -1.138939 1.232187 -0.005611 -0.003929 -294915.000000 1 0 0
8.219630 -8.135262 -6.077153 13.064325 -0.780240 2.054625 -0.000766 -0.002443 576841.000000 1 0 0
-13.086270 -1.302962 -4.654553 13.950377 0.099240 1.910970 -0.003107 -0.001404 -4062720.000000 1 0 0
-6.758670 -1.347962 -7.008453 9.829294 0.196859 2.364588 0.002720 -0.000910 -923605.000000 1 0 0
-5.675970 13.063538 -4.482653 14.932074 -1.160916 1.875702 0.001512 -0.000726 507308.000000 1 0 0
-4.353170 6.980438 -6.777053 10.658567 -1.013187 2.259882 0.001431 0.000871 -3716120.000000 1 0 0
-9.400270 -3.570862 -8.151153 12.944397 0.363032 2.251970 0.003881 0.001422 454636.000000 1 0 0
-2.114870 -6.436362 9.217047 11.439117 1.253328 0.633859 -0.005077 -0.001255 -382913.000000 1 0 0
7.532230 -6.016062 9.928047 13.838122 -0.673953 0.770673 -0.001391 -0.001238 541767.000000 1 0 0
9.675330 -4.919062 12.099947 16.254781 -0.470355 0.731171 -0.000571 0.001080 -30098.800000 1 0 0
-6.529670 2.799638 -9.049753 11.505328 -0.405048 2.476032 -0.003937 0.000678 -277299.000000 1 0 0
7.534330 5.449438 8.836147 12.827315 0.626181 0.810889 0.003496 0.000350 435934.000000 1 0 0
12.879130 3.218338 10.967047 17.219344 0.244873 0.880322 0.011370 -0.003130 316225.000000 1 0 0
-7.536670 -7.220962 -3.822053 11.115384 0.764009 1.921813 0.010960 -0.003646 -1996520.000000 1 0 0
2.300530 1.432338 -5.800353 6.402197 0.556880 2.704519 -0.003191 -0.000668 -41223.000000 1 0 0
12.766330 6.877238 -7.247353 16.211098 0.494127 2.034274 0.001113 0.001613 -234225.000000 1 0 0
0.777930 -7.871062 1.039747 7.977460 -1.472282 1.440089 -0.005717 0.001246 365963.000000 1 0 0
-10.191170 -6.067162 -8.428853 14.550462 0.536982 2.188647 0.006886 0.001296 98948.700000 1 0 0
-6.689970 0.158738 3.217547 7.425194 -0.023723 1.122614 -0.001965 -0.001083 713911.000000 1 0 0
10.729230 -7.984462 1.209147 13.428703 -0.639765 1.480632 0.001161 -0.003634 -85638.200000 1 0 0
6.328730 1.068438 10.505947 12.311349 0.167246 0.548410 0.012048 -0.004268 7274.630000 1 0 0
-12.883170 5.415938 1.953647 14.111172 -0.397958 1.431903 -0.001905 0.002714 304084.000000 1 0 0
2.083630 7.451838 3.658847 8.559122 1.298147 1.129094 -0.008184 0.004460 123880.000000 1 0 0
10.258730 -9.531962 -0.891453 14.031911 -0.748692 1.634370 0.000263 -0.001349 887516.000000 1 0 0
6.656730 -11.597062 -9.161653 16.209250 -1.049713 2.171486 -0.001082 -0.002206 -240737.000000 1 0 0
10.442930 3.472638 11.966647 16.257757 0.321032 0.743568 0.004265 -0.002435 -937278.000000 1 0 0
-10.994070 -3.129962 -1.882353 11.584882 0.277357 1.734003 -0.004928 0.000088 -816985.000000 1 0 0
12.507030 0.918238 6.795847 14.263678 0.073286 1.074190 0.010139 -0.002769 -34520.700000 1 0 0
-9.424070 9.147338 3.145247 13.504794 -0.770498 1.335739 -0.008495 0.000981 1458040.000000 1 0 0
-6.676670 7.719638 -8.742253 13.438665 -0.857719 2.279078 0.002078 -0.000699 -1438210.000000 1 0 0
8.721430 5.459938 12.180647 15.944982 0.559345 0.701434 0.010052 0.000754 -2557610.000000 1 0 0
1.324430 4.908938 -2.603553 5.712291 1.307271 2.044046 -0.006164 -0.000258 940352.000000 1 0 0
1.211730 0.559138 9.540447 9.633331 0.432325 0.138978 0.001410 -0.000836 757166.000000 1 0 0
2.517930 12.641438 -3.858253 13.454815 1.374189 1.861636 0.004465 -0.006152 551146.000000 1 0 0
2.020930 0.657138 13.038247 13.210295 0.314382 0.161568 0.009779 -0.006220 229425.000000 1 0 0
-12.215470 -1.741462 0.908647 12.372390 0.141608 1.497289 -0.007940 0.000036 -173293.000000 1 0 0
3.191130 8.747238 -1.232853 9.392412 1.220984 1.702437 -0.001338 -0.000500 244340.000000 1 0 0
3.675230 -2.827262 -5.792653 7.419943 -0.655723 2.466561 -0.002720 -0.000756 -1088930.000000 1 0 0
-7.658770 -7.176962 9.297447 14.021700 0.752933 0.845876 0.008194 -0.001961 241093.000000 1 0 0
-7.079770 10.926038 -3.531953 13.489853 -0.995848 1.835707 0.000957 0.001933 1834180.000000 1 0 0
0.380230 0.489738 2.502747 2.578403 0.910615 0.242844 -0.007314 0.001248 -2386650.000000 1 0 0
-7.034870 4.646738 -1.974453 8.659101 -0.583742 1.800840 -0.002104 0.000415 -1210570.000000 1 0 0
-6.788770 -3.837262 -5.827253 9.734929 0.514466 2.212539 0.004163 -0.000242 291314.000000 1 0 0
3.059230 -6.052962 13.455047 15.067699 -1.102830 0.466889 -0.001912 -0.002200 -1379690.000000 1 0 0
-5.478070 -0.535162 -11.799853 13.020452 0.097383 2.705136 -0.000194 -0.000535 -1005210.000000 1 0 0
11.936730 2.466938 -0.627953 12.205148 0.203799 1.622269 0.006116 -0.002346 -491763.000000 1 0 0
6.136930 -10.927462 10.785347 16.534662 -1.059086 0.860198 -0.007514 0.001909 470821.000000 1 0 0
-8.172670 6.457738 -10.368353 14.696858 -0.668714 2.353898 -0.002717 0.001174 557398.000000 1 0 0
3.046330 7.845438 11.125947 13.950546 1.200423 0.647610 0.002459 0.004013 1031670.000000 1 0 0
-6.171370 -10.070762 -0.413053 11.818488 1.021018 1.605753 0.007194 0.000584 -757100.000000 1 0 0
11.330430 4.084438 5.801247 13.368461 0.345984 1.121924 0.002739 -0.002566 230708.000000 1 0 0
-7.719670 10.624838 1.549847 13.224315 -0.942461 1.453330 -0.008341 0.004157 748040.000000 1 0 0
4.219030 -2.666662 -3.537853 6.117818 -0.563657 2.187423 -0.003115 -0.001424 -5100390.000000 1 0 0
6.415230 6.376538 6.343047 11.047609 0.782373 0.959224 0.001385 0.002597 -4699040.000000 1 0 0
-0.411470 10.417238 -10.074253 14.497542 -1.531318 2.339069 -0.001446 0.001551 -18144.600000 1 0 0
14.038130 6.625938 -2.513853 15.725508 0.440994 1.731343 0.004982 0.000241 529840.000000 1 0 0
1.429130 9.526938 -6.206953 11.459983 1.421897 2.143159 -0.001547 0.000971 -708331.000000 1 0 0
0.700930 7.352038 7.307847 10.389822 1.475745 0.790675 -0.007264 0.007365 -18010.900000 1 0 0
12.197830 6.319938 1.827147 13.858829 0.478038 1.438571 0.002369 -0.002195 -2463860.000000 1 0 0
-6.880270 6.836238 -3.151553 10.198262 -0.782188 1.884968 -0.001718 -0.000256 -158180.000000 1 0 0
1.174430 9.740338 11.270247 14.942287 1.450802 0.716282 -0.003648 0.004580 -697876.000000 1 0 0
-3.655170 13.726638 -10.810953 17.850982 -1.310552 2.221344 0.001500 -0.002864 -437236.000000 1 0 0
-10.084570 -5.583562 -2.219653 11.738891 0.505659 1.761027 0.002118 0.000779 -498631.000000 1 0 0
-4.120770 4.010238 -12.522853 13.779862 -0.771805 2.711146 -0.003756 -0.001694 184575.000000 1 0 0
-3.128470 8.561238 2.482547 9.446966 -1.220449 1.304886 -0.005508 0.005491 -2260790.000000 1 0 0
7.097830 8.809838 7.141047 13.378602 0.892607 1.007748 -0.001487 0.009237 899825.000000 1 0 0
-1.445570 -2.319362 -8.118153 8.565834 1.013448 2.816861 -0.001359 -0.001733 -1048630.000000 1 0 0
0.854530 -1.290762 4.870647 5.110723 -0.986007 0.307725 -0.004568 -0.000469 709211.000000 1 0 0
2.707830 -8.821762 -6.047753 11.033184 -1.272977 2.150938 -0.002209 0.002608 585889.000000 1 0 0
5.363530 3.967638 8.901547 11.124170 0.636905 0.643170 0.004790 0.001039 1663430.000000 1 0 0
6.077430 -7.446062 -2.851053 10.025343 -0.886259 1.859161 -0.002341 -0.001846 464621.000000 1 0 0
1.720430 2.307038 -8.219253 8.708526 0.930033 2.804792 -0.003010 -0.000286 153305.000000 1 0 0
-5.338570 10.999438 -0.560453 12.239366 -1.118938 1.616603 -0.005993 0.006175 714072.000000 1 0 0
-5.400270 3.437438 -3.359953 7.229673 -0.566848 2.054143 -0.002942 0.001246 -360460.000000 1 0 0
1.940830 13.721938 -6.241053 15.198985 1.430288 1.993934 -0.000937 -0.003058 815410.000000 1 0 0
-5.265170 -2.605262 2.742247 6.483003 0.459488 1.134053 -0.005309 0.001140 567502.000000 1 0 0
10.367230 -3.350362 -1.857953 11.052437 -0.312574 1.739702 0.005151 -0.000582 -150893.000000 1 0 0
2.351130 -3.315362 7.024247 8.115386 -0.953948 0.524555 -0.004424 -0.001459 -1310480.000000 1 0 0
-2.888970 9.965638 -11.648353 15.599494 -1.288637 2.413904 -0.002337 0.004554 -2886830.000000 1 0 0
0.517130 -2.013662 9.341447 9.570000 -1.319418 0.218988 -0.002866 -0.001274 372743.000000 1 0 0
9.369230 2.584538 4.932347 10.899099 0.269160 1.101178 0.007249 -0.005315 -999430.000000 1 0 0
13.353330 2.041738 -5.012853 14.408637 0.151726 1.926133 0.002134 0.006879 -1349090.000000 1 0 0
-6.425570 3.688238 7.781747 10.744610 -0.521078 0.760855 -0.002765 0.003844 -152748.000000 1 0 0
10.586230 0.060138 1.938947 10.762500 0.005681 1.389650 0.007076 -0.003164 1434510.000000 1 0 0
15.351230 6.565338 -4.789253 17.369539 0.404134 1.850142 0.000656 0.005645 -300915.000000 1 0 0
7.931230 -5.025662 -9.402053 13.287599 -0.564799 2.356865 0.000941 0.001210 -127749.000000 1 0 0
4.302330 5.610438 -2.153653 7.390892 0.916602 1.866479 0.000525 -0.002170 -159674.000000 1 0 0
-1.685070 -10.541462 1.480947 10.777527 1.412286 1.432949 -0.001538 0.002090 -964189.000000 1 0 0
-2.801570 12.309338 -12.741453 17.936366 -1.347011 2.360820 -0.003248 0.000739 -518645.000000 1 0 0
8.238630 4.232038 -9.681453 13.398347 0.474533 2.378332 -0.005008 0.005451 -2023080.000000 1 0 0
4.093930 7.593038 -8.901953 12.395937 1.076307 2.371915 -0.001972 -0.000473 -2897050.000000 1 0 0
-1.749070 -5.059362 -2.456753 5.889993 1.237949 2.001055 0.000484 0.000027 316297.000000 1 0 0
-3.254270 -9.205062 7.061047 12.049142 1.230980 0.944657 0.000095 -0.000980 -399329.000000 1 0 0
1.042530 7.286938 -1.411553 7.495253 1.428692 1.760254 -0.006212 0.000478 610558.000000 1 0 0
0.267230 -1.000462 -2.163853 2.398874 -1.309783 2.695242 -0.000919 0.001947 -1282190.000000 1 0 0
4.166730 -6.664962 7.448347 10.828723 -1.012075 0.812298 -0.003965 0.000332 -104719.000000 1 0 0
-13.771570 3.982438 6.079447 15.571629 -0.281499 1.169711 -0.006094 0.005956 -1259070.000000 1 0 0
4.385030 6.252238 12.623247 14.753486 0.959162 0.544066 0.009666 -0.000019 -601792.000000 1 0 0
8.178730 10.128238 -7.153653 14.854211 0.891488 2.073265 0.011894 -0.004059 443100.000000 1 0 0
12.596230 5.202138 9.448247 16.583022 0.391656 0.964590 0.003699 -0.001124 548214.000000 1 0 0
7.479330 3.996638 0.322547 8.486314 0.490755 1.532779 0.005432 -0.000950 -1793740.000000 1 0 0
-10.861570 -7.615462 -0.962053 13.300169 0.611489 1.643193 0.003590 0.001646 -1443470.000000 1 0 0
10.390130 6.692338 0.058847 12.359031 0.572220 1.566035 0.006401 -0.004051 -1086820.000000 1 0 0
14.611730 3.603338 3.916847 15.550833 0.241782 1.316180 0.006238 -0.004635 762714.000000 1 0 0
2.260830 5.576638 8.298347 10.250503 1.185634 0.627402 -0.006222 0.005456 797257.000000 1 0 0
4.231930 0.166538 11.850047 12.584140 0.039332 0.343252 0.008989 -0.005241 -158627.000000 1 0 0
-1.638770 -1.465162 -0.405153 2.235266 0.729525 1.753058 0.000962 -0.002335 -1149370.000000 1 0 0
3.031730 -5.307462 -9.601453 11.381934 -1.051807 2.574692 -0.003815 0.000997 635640.000000 1 0 0
-3.917770 -5.332162 -1.235953 6.731155 0.937131 1.755461 0.001016 -0.001117 695045.000000 1 0 0
-1.243570 -8.746462 8.660847 12.371635 1.429563 0.795319 -0.003636 0.000488 -233857.000000 1 0 0
3.910830 8.619938 -5.969953 11.190990 1.144873 2.133483 0.002576 -0.000367 -181707.000000 1 0 0
-14.277070 -1.716462 -2.666753 14.625065 0.119651 1.754163 -0.006208 -0.000569 -1286280.000000 1 0 0
8.702330 -10.590462 -6.583453 15.206258 -0.882955 2.018552 -0.001598 -0.001463 620772.000000 1 0 0
14.736530 6.100138 1.486347 16.018309 0.392471 1.477872 0.001134 -0.001641 -1768470.000000 1 0 0
-5.828470 0.469438 -8.505153 10.321291 -0.080369 2.539301 0.000600 -0.001051 -750937.000000 1 0 0
-8.072570 -4.502762 -12.975753 15.931460 0.508801 2.522618 0.002272 0.001440 1028330.000000 1 0 0
1.039230 -10.666462 12.038347 16.117544 -1.473673 0.727394 -0.005411 -0.002088 -277518.000000 1 0 0
0.355530 11.777738 3.376747 12.257403 1.540619 1.291701 -0.001845 0.001670 -92549.900000 1 0 0
5.066430 -13.201262 -3.769553 14.633918 -1.204347 1.831324 0.001522 0.001035 288629.000000 1 0 0
-7.544870 1.671938 -6.990653 10.420636 -0.218075 2.306147 -0.006091 0.001663 641350.000000 1 0 0
1.485830 2.729338 4.129647 5.168265 1.072269 0.645100 -0.007021 0.001978 -1765950.000000 1 0 0
17.151030 5.458938 1.783747 18.087001 0.308148 1.472015 -0.004245 -0.004456 -492593.000000 1 0 0
2.420230 -8.159162 -3.574953 9.230911 -1.282437 1.968476 -0.004333 0.002392 330595.000000 1 0 0
-0.407570 -9.511462 -0.553853 9.536287 1.527972 1.628907 0.001334 0.003764 -682230.000000 1 0 0
0.744330 11.837538 -5.480653 13.065944 1.508000 2.003648 0.002895 0.000054 -191372.000000 1 0 0
6.015730 -4.964262 7.821147 11.045508 -0.689927 0.784015 0.001640 -0.004550 -1072130.000000 1 0 0
-6.082370 -1.814262 -9.439053 11.374642 0.289880 2.549605 0.000277 0.000091 -236592.000000 1 0 0
2.106930 -1.197162 11.300147 11.557062 -0.516710 0.211248 0.003769 -0.005335 -607925.000000 1 0 0
17.853930 2.406438 -6.003053 18.989218 0.133977 1.892443 -0.012151 0.015489 -865363.000000 1 0 0
-8.797870 4.740438 8.019447 12.813501 -0.494217 0.894564 -0.001211 -0.001267 331093.000000 1 0 0
11.182330 -7.145962 -4.988953 14.177409 -0.568632 1.930391 0.012556 -0.004258 396416.000000 1 0 0
10.914830 0.481938 8.829647 14.047365 0.044126 0.891093 0.005570 -0.003921 -259428.000000 1 0 0
-8.436370 -7.378762 -1.527053 11.311514 0.718624 1.706210 0.009020 -0.002575 -261253.000000 1 0 0
10.138230 -10.542362 -3.344453 15.003682 -0.804937 1.795594 0.010292 0.000048 1198170.000000 1 0 0
7.608630 -13.999462 -3.828253 16.386937 -1.072961 1.806591 0.009306 0.003483 -1379440.000000 1 0 0
1.635830 -1.116662 -11.749653 11.915419 -0.598971 2.974594 0.000291 -0.003950 333940.000000 1 0 0
-11.730870 -2.584662 -6.312453 13.569851 0.216865 2.054637 0.001506 -0.000383 -112884.000000 1 0 0
2.611230 -12.148062 -6.486753 14.016843 -1.359068 2.051928 -0.001196 0.003612 697589.000000 1 0 0
-5.573170 1.445738 1.227147 5.886958 -0.253816 1.360805 -0.002027 -0.001179 264055.000000 1 0 0
0.121330 6.815438 -4.003853 7.905425 1.552996 2.101881 -0.004027 0.000555 905070.000000 1 0 0
5.432330 -11.698462 3.535147 13.373911 -1.136063 1.303286 -0.008911 -0.004519 -2238550.000000 1 0 0
-4.404770 -9.238362 1.155047 10.299683 1.125888 1.458416 0.006077 0.000582 -1964310.000000 1 0 0
7.047830 -6.145762 -4.811853 10.516474 -0.717133 2.046038 -0.001176 -0.001533 -809722.000000 1 0 0
-7.083670 -6.033162 2.216647 9.565090 0.705480 1.336927 0.001701 0.000536 100358.000000 1 0 0
-6.299970 -0.843962 7.123347 9.546935 0.133170 0.728551 -0.003826 0.001190 -403461.000000 1 0 0
4.090930 -5.010862 3.160647 7.199593 -0.886128 1.116307 -0.004269 -0.002562 -868794.000000 1 0 0
-2.566770 10.743738 -8.719953 14.073158 -1.336284 2.239050 0.000284 0.003007 -961282.000000 1 0 0
-2.314670 -4.916762 2.732047 6.082461 1.130804 1.104962 -0.001935 0.002128 -173486.000000 1 0 0
15.187730 5.034438 6.151647 17.142213 0.320082 1.203751 0.007247 -0.006796 874759.000000 1 0 0
6.738930 0.302838 0.090147 6.746334 0.044908 1.557433 0.001635 -0.003202 3430180.000000 1 0 0
-9.600770 9.160438 0.487647 13.278788 -0.761932 1.534064 -0.006960 0.001174 -1897160.000000 1 0 0
7.163730 10.362438 -2.542953 12.851683 0.965922 1.769980 0.004559 -0.003843 -207096.000000 1 0 0
1.589730 -4.201662 -5.497953 7.099908 -1.209085 2.456514 -0.003121 0.001567 -432352.000000 1 0 0
0.831530 -8.206562 -7.828453 11.372061 -1.469816 2.330068 0.000873 0.003589 -443013.000000 1 0 0
-10.416270 0.281338 -10.628053 14.883996 -0.027003 2.366076 -0.006110 0.005180 -5211710.000000 1 0 0
5.854330 -2.587862 0.479147 6.418707 -0.416217 1.496078 0.003001 -0.001945 212650.000000 1 0 0
-3.346970 5.292138 -1.114653 6.360140 -1.006863 1.746962 -0.004604 0.000434 1137330.000000 1 0 0
-0.434170 4.541038 -5.155753 6.884135 -1.475476 2.417246 -0.004020 0.000529 -862161.000000 1 0 0
4.050730 -9.711462 9.941847 14.476230 -1.175629 0.813760 -0.010039 0.001768 -1452080.000000 1 0 0
7.306130 -13.531762 -0.781453 15.398013 -1.075722 1.621568 0.004757 0.004454 485051.000000 1 0 0
12.958130 -0.047662 0.457747 12.966300 -0.003678 1.535486 0.004799 -0.005626 25953.900000 1 0 0
9.372330 2.414038 -0.644253 9.699650 0.252091 1.637265 0.006179 -0.002425 220758.000000 1 0 0
-0.760270 -5.822162 4.489747 7.391442 1.440949 0.917981 -0.005302 0.001289 -31941.500000 1 0 0
11.402830 -3.840662 3.238447 12.460448 -0.324882 1.307880 0.009645 -0.007103 -2368410.000000 1 0 0
1.868230 -8.171962 11.665447 14.365024 -1.346044 0.623101 -0.008634 -0.001212 352006.000000 1 0 0
9.344030 -5.735062 -6.070153 12.531903 -0.550481 2.076446 0.001099 -0.006099 -305513.000000 1 0 0
3.167130 6.372838 -0.163053 7.118312 1.109573 1.593704 -0.004119 0.000829 -2043810.000000 1 0 0
6.339930 -1.395862 11.471947 13.181378 -0.216712 0.514955 0.006777 -0.003821 432699.000000 1 0 0
-4.959670 -7.579762 -3.885553 9.856401 0.991383 1.976011 0.007260 0.001620 -30416.700000 1 0 0
-3.464470 -8.494862 -5.638553 10.768403 1.183557 2.121891 0.008878 0.002661 -1075950.000000 1 0 0
9.744230 5.236638 2.128547 11.265128 0.493125 1.380703 0.007953 -0.005591 -477586.000000 1 0 0
8.802830 -1.314162 0.359447 8.907640 -0.148194 1.530433 0.007241 -0.005069 927018.000000 1 0 0
-3.889870 9.620838 9.289247 13.927732 -1.186574 0.840674 -0.001155 0.005150 263667.000000 1 0 0
-14.238470 -3.441362 -5.930853 15.803544 0.237147 1.955502 -0.010770 -0.000481 -1500120.000000 1 0 0
10.582630 6.196638 -6.056353 13.677346 0.529725 2.029517 0.001693 0.001037 1029900.000000 1 0 0
-1.739970 4.519938 2.744447 5.566806 -1.203327 1.055259 -0.007318 0.001618 236791.000000 1 0 0
6.937530 -3.689662 2.605047 8.278237 -0.488795 1.250670 0.002808 -0.005575 -2729830.000000 1 0 0
8.270230 -11.251262 -1.606453 14.055899 -0.936933 1.685337 0.002952 -0.000927 -2169100.000000 1 0 0
4.475830 0.474938 1.731347 4.822467 0.105716 1.203582 -0.000742 -0.001930 163879.000000 1 0 0
-10.700270 2.374738 3.827747 11.609772 -0.218393 1.234810 -0.006931 0.003477 322412.000000 1 0 0
-0.834770 -3.084662 4.471847 5.496308 1.306507 0.620463 -0.002963 -0.000265 205408.000000 1 0 0
8.694430 -8.786162 -8.556153 15.033213 -0.790646 2.176268 0.004195 0.000428 -1181540.000000 1 0 0
12.013430 -4.789562 0.871847 12.962350 -0.379371 1.503486 0.007004 -0.004225 505833.000000 1 0 0
2.910730 4.885238 3.605447 6.733287 1.033455 1.005737 -0.008024 0.002301 -1209970.000000 1 0 0
6.131230 7.466838 1.967047 9.859763 0.883305 1.369946 -0.000589 -0.000130 -418895.000000 1 0 0
-1.709070 -1.327662 -10.252353 10.478279 0.660454 2.933557 0.000971 -0.001563 1070360.000000 1 0 0
-0.888470 -8.594662 6.062947 10.555422 1.467788 0.958935 -0.006790 0.001818 -199649.000000 1 0 0
-4.267070 -0.247862 2.226747 4.819515 0.058022 1.090517 -0.004481 0.000480 393195.000000 1 0 0
-8.577270 6.369538 -7.852953 13.259315 -0.638753 2.204656 -0.002225 0.001460 -1002340.000000 1 0 0
6.367730 11.164138 -9.365653 15.902874 1.052446 2.200528 0.011362 -0.008348 -70275.400000 1 0 0
-11.184770 -5.755262 3.197247 12.978617 0.475230 1.321887 0.000800 -0.000720 1035680.000000 1 0 0
1.614030 -6.353362 3.107547 7.254457 -1.322016 1.128115 -0.011859 0.000335 157932.000000 1 0 0
10.169130 2.020438 7.006647 12.513452 0.196129 0.976496 0.007728 -0.003201 -1332200.000000 1 0 0
-4.152170 -2.519362 -10.750753 11.796880 0.545374 2.717279 0.003254 -0.003828 -3111270.000000 1 0 0
-8.155770 11.854638 6.102647 15.629822 -0.968182 1.169677 -0.004268 0.002573 -633089.000000 1 0 0
6.784530 5.950438 -2.931853 9.488589 0.719995 1.884924 0.004427 -0.001810 -919281.000000 1 0 0
3.759430 -9.924762 -2.354353 10.870933 -1.208704 1.789099 -0.003971 -0.001425 -922715.000000 1 0 0
8.306230 -12.848362 -7.421153 17.004334 -0.996898 2.022420 0.011088 -0.001733 282191.000000 1 0 0
-1.053770 9.444438 3.734447 10.210482 -1.459680 1.196362 -0.004654 0.003726 115989.000000 1 0 0
0.605930 -13.324262 4.753347 14.159711 -1.525352 1.228453 -0.003530 0.002041 -1053350.000000 1 0 0
-11.354770 -6.926562 -4.925253 14.183306 0.547750 1.925441 -0.000516 -0.001194 -171438.000000 1 0 0
3.581430 10.325338 -3.343453 11.428820 1.236923 1.867684 0.003848 -0.003132 -1051770.000000 1 0 0
11.508230 -8.085462 -7.531953 15.954447 -0.612456 2.062458 0.017454 -0.003818 35023.200000 1 0 0
11.673930 -4.811462 -6.084453 14.016111 -0.390940 2.019840 0.007798 0.000041 -419595.000000 1 0 0
1.214230 -10.342862 -2.696753 10.757399 -1.453933 1.824187 -0.004130 0.004035 -1254440.000000 1 0 0
2.266930 -12.047362 -4.038553 12.906890 -1.384803 1.889040 0.000711 0.004278 -955116.000000 1 0 0
-7.552470 -5.704062 7.300547 11.952996 0.646858 0.913762 0.001411 0.002438 -2020340.000000 1 0 0
-7.218070 -0.781762 9.627947 12.058568 0.107886 0.646110 -0.000210 0.000048 570209.000000 1 0 0
15.993630 2.661738 -7.763453 17.976436 0.164913 2.017359 -0.013062 0.011953 -737265.000000 1 0 0
-2.067670 6.444838 -5.571253 8.766416 -1.260345 2.259481 -0.001810 0.000431 -203660.000000 1 0 0
7.789530 1.151038 8.354547 11.480424 0.146706 0.755803 0.012793 -0.007074 -388316.000000 1 0 0
7.840330 8.229938 -3.795153 11.983565 0.809637 1.893041 0.006216 -0.000520 -257073.000000 1 0 0
8.005530 0.461238 4.001447 8.961743 0.057551 1.107943 0.005390 -0.004374 611712.000000 1 0 0
-6.914870 5.894038 5.440447 10.590259 -0.705869 1.031279 -0.004094 0.000657 199474.000000 1 0 0
-6.083070 -1.928962 -4.435753 7.771778 0.307073 2.178217 -0.000024 0.000651 -1215300.000000 1 0 0
-15.056370 -2.230062 3.287747 15.571664 0.147045 1.358059 0.003984 -0.005178 -1907570.000000 1 0 0
1.091230 1.200438 -10.498353 10.622958 0.833016 2.988277 -0.000320 -0.003434 258594.000000 1 0 0
1.559830 -9.235262 9.320847 13.213680 -1.403476 0.787818 -0.008857 0.000299 -574141.000000 1 0 0
-0.220270 -6.879562 -1.258853 6.997257 1.538789 1.751688 -0.002373 0.001426 682958.000000 1 0 0
-0.533270 -10.237962 -8.485753 13.308202 1.518756 2.262218 0.003080 0.001888 12422.300000 1 0 0
-4.280270 6.527038 3.829947 8.694333 -0.990372 1.114629 -0.005130 0.005174 -184424.000000 1 0 0
10.749930 -1.187162 -8.730953 13.899636 -0.109989 2.249960 0.004869 0.001436 788701.000000 1 0 0
3.064430 -1.006162 6.278647 7.058648 -0.317246 0.474553 -0.003062 -0.000303 -83578.300000 1 0 0
1.859530 -12.320962 6.841947 14.215351 -1.421003 1.068651 -0.006557 0.002533 -509008.000000 1 0 0
2.824030 -4.966462 -1.305553 5.860491 -1.053770 1.795453 -0.000072 -0.000121 -1596720.000000 1 0 0
-1.136070 9.547838 -1.638153 9.753738 -1.452366 1.739547 -0.003063 0.000187 -78227.100000 1 0 0
4.503730 -2.562562 2.566347 5.782426 -0.517303 1.110941 -0.000843 -0.002038 -2300830.000000 1 0 0
17.617730 6.538938 -2.706953 18.986040 0.355397 1.713860 -0.011766 0.006674 -192995.000000 1 0 0
-7.054770 3.549938 -5.378153 9.554913 -0.466202 2.168648 -0.001686 -0.000173 370358.000000 1 0 0
-13.800270 -5.992062 2.224147 15.208520 0.409636 1.424026 0.001499 -0.002821 -536341.000000 1 0 0
6.593330 -6.047162 3.110447 9.471803 -0.742217 1.236198 0.000451 -0.006179 488521.000000 1 0 0
-4.684670 2.005738 3.645747 6.265827 -0.404535 0.949800 -0.002930 0.000318 338206.000000 1 0 0
6.726730 -12.106462 -5.466853 14.889654 -1.063640 1.946748 0.001091 0.001244 261516.000000 1 0 0
2.893730 -12.249062 3.182647 12.982390 -1.338809 1.323121 -0.004150 -0.001155 -660885.000000 1 0 0
3.351030 11.351538 -6.010153 13.274364 1.283744 2.040659 0.003442 -0.000300 371322.000000 1 0 0
-5.631870 -8.432962 6.598547 12.098497 0.981982 0.993927 0.004691 -0.001186 70975.000000 1 0 0
-3.917070 6.577438 6.378047 9.964217 -1.033669 0.876174 -0.003293 0.004256 293172.000000 1 0 0
4.212730 4.406438 -6.976353 9.264626 0.807868 2.423420 -0.002726 0.002892 -1644580.000000 1 0 0
-0.355870 -2.558762 1.657747 3.069533 1.432604 1.000282 -0.003894 -0.001304 -1599230.000000 1 0 0
-13.150770 -0.927562 6.695947 14.786441 0.070416 1.100844 0.002823 -0.000260 -623687.000000 1 0 0
-0.668070 -9.310262 -5.951453 11.070099 1.499163 2.138402 0.003212 0.004006 -93128.600000 1 0 0
1.985530 -1.723762 -3.894853 4.699315 -0.714944 2.547779 -0.002414 0.000053 -489970.000000 1 0 0
11.343230 -1.925562 1.121047 11.559992 -0.168151 1.473667 0.007300 -0.004373 844025.000000 1 0 0
0.514530 -4.252562 -1.886553 4.680610 -1.450389 1.985651 -0.001439 -0.001181 -1861480.000000 1 0 0
1.037330 -7.351862 -11.421753 13.622862 -1.430624 2.565184 0.000416 0.004246 -450649.000000 1 0 0
-4.557470 4.216338 -10.076753 11.835919 -0.746537 2.589389 -0.002771 -0.000490 -311455.000000 1 0 0
-1.065270 5.850038 -2.061653 6.293501 -1.390674 1.904542 -0.006275 0.000869 -3171700.000000 1 0 0
-11.282670 1.706438 -3.815253 12.031904 -0.150107 1.893461 -0.000802 -0.001588 -103654.000000 1 0 0
-1.602370 -11.299462 4.117647 12.132619 1.429926 1.224532 0.002971 0.000343 419656.000000 1 0 0
-3.659370 -5.476962 -9.675753 11.705054 0.981775 2.543889 0.001433 0.003620 -1537170.000000 1 0 0
-12.817570 -3.732662 -8.268853 15.703400 0.283377 2.125351 -0.002604 0.002385 -420838.000000 1 0 0
11.409430 4.403938 0.466047 12.238749 0.368372 1.532707 0.008991 -0.003013 -23661.800000 1 0 0
-8.826970 -2.249362 -2.990653 9.587441 0.249518 1.888025 0.002180 -0.000517 -369459.000000 1 0 0
-2.503370 -6.105362 -6.400453 9.192829 1.181675 2.340948 0.001471 0.001444 -256039.000000 1 0 0
0.017430 2.590338 -1.959553 3.248076 1.564068 2.218424 -0.006608 0.000768 65081.000000 1 0 0
8.009930 6.055638 -5.251153 11.331564 0.647340 2.052635 0.005658 -0.001365 -82784.600000 1 0 0
-9.763670 -0.946462 -0.942453 9.854606 0.096635 1.666578 -0.003351 -0.000709 -362226.000000 1 0 0
6.090130 0.560538 -8.911653 10.808397 0.091782 2.540136 -0.002923 0.002521 555051.000000 1 0 0
-4.043470 2.500238 7.911247 9.229771 -0.553796 0.541096 -0.004317 0.003420 -766442.000000 1 0 0
-10.071270 -3.260162 1.479947 10.688750 0.313064 1.431892 -0.003370 -0.000904 3064140.000000 1 0 0
-1.926870 -8.165262 -7.786153 11.445895 1.339052 2.318910 0.005387 0.000419 298014.000000 1 0 0
-9.407670 -9.831662 4.298547 14.270366 0.807432 1.264822 0.008264 -0.004659 -393037.000000 1 0 0
-1.020970 -10.734762 7.266347 13.002973 1.475973 0.977832 -0.004072 0.000248 -288764.000000 1 0 0
9.489030 3.769938 -3.780453 10.887881 0.378172 1.925398 0.002772 0.000172 -525276.000000 1 0 0
12.910430 -0.866662 2.944347 13.270248 -0.067028 1.347058 0.008450 -0.004790 -900645.000000 1 0 0
6.397130 11.931938 -6.819253 15.159044 1.078660 2.037390 0.009135 -0.003346 178244.000000 1 0 0
-11.763170 0.009538 -6.386153 13.384887 -0.000811 2.068167 -0.001420 -0.001211 667969.000000 1 0 0
-7.578670 -6.489462 -11.552453 15.264616 0.708129 2.429219 0.009209 0.003135 -716377.000000 1 0 0
4.093030 6.031438 6.503447 9.768622 0.974567 0.842300 -0.004834 0.004621 -3835000.000000 1 0 0
-4.239270 -1.270162 -7.445253 8.661207 0.291106 2.605301 0.000244 -0.004200 -1225970.000000 1 0 0
9.615230 9.139238 0.896547 13.295944 0.760023 1.503315 0.007432 -0.002720 -743687.000000 1 0 0
-8.780270 3.890138 4.972847 10.814598 -0.417063 1.092996 -0.003374 0.001487 550169.000000 1 0 0
-7.013370 8.008438 -12.058553 16.085121 -0.851543 2.418361 -0.002800 -0.000235 -1240000.000000 1 0 0
11.118430 -3.699062 7.036147 13.667843 -0.321177 1.030027 0.007803 -0.007583 500252.000000 1 0 0
11.908830 6.742338 6.355647 15.088857 0.515168 1.136012 0.000091 -0.000048 95758.400000 1 0 0
-10.047070 -0.732662 -14.789153 17.894117 0.072794 2.543625 -0.000895 0.008880 -496203.000000 1 0 0
1.862630 -13.117362 11.955447 17.845652 -1.429742 0.836674 -0.009079 0.000707 135755.000000 1 0 0
2.989130 3.060938 13.080747 13.762638 0.797267 0.316105 0.011093 -0.004367 -675705.000000 1 0 0
-2.576870 -1.426062 10.982347 11.370394 0.505456 0.262007 -0.003103 0.001089 -761576.000000 1 0 0
2.418930 -10.125462 -8.235253 13.273869 -1.336296 2.240063 -0.005856 0.006469 -1375040.000000 1 0 0
13.699630 3.638138 -7.678053 16.120434 0.259573 2.067230 -0.005623 0.004685 -3053640.000000 1 0 0
7.314630 -1.613062 4.936847 8.970967 -0.217051 0.988056 0.007066 -0.006133 491297.000000 1 0 0
-1.129270 8.713138 10.163647 13.434796 -1.441909 0.712826 -0.004443 0.005809 140501.000000 1 0 0
-12.200070 -4.645262 0.940647 13.088353 0.363808 1.498865 -0.004788 -0.001457 -133948.000000 1 0 0
-4.796570 4.938638 -5.276753 8.674177 -0.799990 2.224750 -0.001341 -0.000346 -166473.000000 1 0 0
-11.188370 0.348938 2.162447 11.400770 -0.031177 1.379965 -0.008301 0.004390 -2997660.000000 1 0 0
-1.574170 2.410438 -4.055153 4.973176 -0.992270 2.524225 -0.004731 -0.001958 590499.000000 1 0 0
3.325030 -9.824162 13.102147 16.710364 -1.244444 0.669595 -0.006995 0.001588 -2623680.000000 1 0 0
8.879830 4.601538 -1.518253 10.115860 0.478102 1.721452 0.004691 -0.002633 -1085060.000000 1 0 0
3.977030 2.303338 3.724947 5.915857 0.524955 0.889688 -0.004235 -0.000177 -740097.000000 1 0 0
-5.340370 -3.230462 7.509947 9.764975 0.544025 0.693412 -0.000315 0.001314 -32420.300000 1 0 0
1.865930 -5.858962 7.637347 9.805009 -1.262478 0.677850 -0.006823 0.000335 -2007640.000000 1 0 0
-5.961170 -6.365362 -9.637853 12.997753 0.818177 2.406102 0.005653 -0.001400 -479263.000000 1 0 0
-11.673670 -5.801462 5.645847 14.205883 0.461221 1.162082 0.006101 -0.001651 -1073460.000000 1 0 0
10.521430 6.150738 4.443747 12.972238 0.529013 1.221158 0.003021 -0.001960 -395040.000000 1 0 0
1.374430 -3.680262 0.488447 3.958784 -1.213377 1.447098 0.000366 -0.001889 -520488.000000 1 0 0
8.861330 4.254638 6.864647 11.989516 0.447630 0.961179 0.005126 0.000146 474841.000000 1 0 0
-7.797470 12.096938 3.605347 14.836946 -0.998239 1.325341 -0.007209 0.002643 -1168120.000000 1 0 0
-6.185670 13.275438 -6.904853 16.191873 -1.134759 2.011349 0.011434 -0.008207 498247.000000 1 0 0
4.368530 -6.945962 -1.004453 8.266763 -1.009375 1.692602 0.000132 -0.001715 -1019020.000000 1 0 0
-1.787570 -8.184862 11.194647 13.982400 1.355773 0.642460 -0.006177 -0.005095 -272830.000000 1 0 0
11.560830 8.765738 -5.855353 15.645322 0.648746 1.954390 0.007519 0.000975 206625.000000 1 0 0
-3.329170 -2.914562 -1.902953 4.816562 0.719092 1.976957 0.001184 -0.000019 -2573530.000000 1 0 0
-1.935470 5.911838 4.863547 7.896199 -1.254405 0.907224 -0.007782 0.003907 1075060.000000 1 0 0
0.108730 -11.600462 -5.687253 12.920038 -1.561424 2.026605 -0.000829 -0.001979 -392436.000000 1 0 0
-8.834570 6.273438 -1.588153 10.951159 -0.617473 1.716331 -0.001006 0.001765 -795152.000000 1 0 0
2.861630 -0.001062 3.837147 4.786714 -0.000371 0.640789 -0.005180 0.000001 92315.600000 1 0 0
-9.987970 3.952438 -1.048753 10.792645 -0.376811 1.668123 0.000792 -0.000532 -21800.000000 1 0 0
6.638230 5.384738 13.637347 16.094681 0.681515 0.559878 0.018351 -0.001153 -106346.000000 1 0 0
-8.758970 -1.521362 5.748247 10.586616 0.171976 0.996823 -0.002541 0.002047 209226.000000 1 0 0
12.853730 -1.854762 -1.563353 13.080619 -0.143308 1.690599 0.008628 0.000391 -1132710.000000 1 0 0
5.316430 -5.423162 5.366847 9.299364 -0.795336 0.955599 -0.004548 -0.002749 -78252.100000 1 0 0
-9.057370 -1.194862 3.269647 9.703311 0.131164 1.227108 -0.005496 0.002343 452235.000000 1 0 0
1.917730 5.443138 5.682347 8.099044 1.232056 0.793146 -0.005337 0.004256 -1114820.000000 1 0 0
9.156730 3.040138 -7.473353 12.204063 0.320560 2.229846 -0.001131 0.002848 -1159360.000000 1 0 0
2.235030 -2.402662 -1.473253 3.597029 -0.821528 1.992784 -0.002228 -0.001176 -233495.000000 1 0 0
-6.188270 0.452538 -3.849853 7.302112 -0.072998 2.126127 -0.002774 0.002460 -2301680.000000 1 0 0
-3.996270 4.225438 5.139547 7.761407 -0.813264 0.847055 -0.004721 0.002774 1027720.000000 1 0 0
-6.499570 1.806338 -12.474353 14.181563 -0.271076 2.645854 -0.005127 0.002861 -1520470.000000 1 0 0
-0.106770 3.096138 6.257047 6.981985 -1.536325 0.459735 -0.005717 0.001687 1119220.000000 1 0 0
-8.720970 9.390838 -2.111053 12.988445 -0.822366 1.734054 -0.001760 0.001846 454497.000000 1 0 0
-1.342070 -3.740862 -6.181053 7.348511 1.226339 2.570165 -0.002058 0.001126 185418.000000 1 0 0
-3.316470 7.099238 -2.937953 8.368376 -1.133765 1.929518 -0.002455 0.002964 596720.000000 1 0 0
7.031230 -0.275062 -4.300353 8.246629 -0.039100 2.119367 0.001770 0.001327 -370667.000000 1 0 0
-5.090770 -10.956562 6.893347 13.909724 1.135841 1.052297 0.004518 -0.003425 148204.000000 1 0 0
9.715430 8.284738 -1.574953 12.864950 0.706083 1.693526 0.005855 -0.002518 -200078.000000 1 0 0
13.676830 4.623538 -4.240153 15.046982 0.325995 1.856460 0.001489 0.001177 417838.000000 1 0 0
4.638530 1.043638 -6.917153 8.393577 0.221308 2.539409 -0.004030 0.000699 -1133620.000000 1 0 0
8.880030 -4.729062 3.607147 10.687866 -0.489347 1.226537 0.004902 -0.007994 -699061.000000 1 0 0
-8.756870 -3.291462 -0.711653 9.382054 0.359535 1.646722 -0.001134 0.000410 173509.000000 1 0 0
-8.492970 -4.182462 -10.402953 14.065737 0.457599 2.403265 0.005561 -0.000607 -177901.000000 1 0 0
10.578930 -1.129062 10.427847 14.897266 -0.106325 0.795421 0.005599 -0.003451 1208170.000000 1 0 0
2.228930 -11.581662 9.828647 15.352698 -1.380668 0.876050 -0.013594 -0.001211 198235.000000 1 0 0
-6.374170 -10.553162 2.110747 12.508178 1.027437 1.401236 0.006553 -0.000265 -613106.000000 1 0 0
-3.674070 -1.260962 6.676247 7.724059 0.330609 0.526951 -0.001283 0.001832 -1687610.000000 1 0 0
4.715830 -7.464462 3.878447 9.643630 -1.007343 1.156903 -0.005789 -0.000545 39590.400000 1 0 0
11.396730 -9.546962 -5.385853 15.812569 -0.697306 1.918357 0.015851 -0.002741 380343.000000 1 0 0
11.432630 1.115938 11.385047 16.173115 0.097302 0.789854 0.000476 -0.002321 -147538.000000 1 0 0
-10.177570 -3.488362 4.479247 11.653980 0.330201 1.176289 0.001529 0.000815 1738550.000000 1 0 0
2.073030 8.838538 8.991947 12.777806 1.340416 0.790182 -0.001893 0.007004 -232105.000000 1 0 0
6.604330 8.771238 4.101647 11.720721 0.925408 1.213280 0.000851 0.002595 -66737.900000 1 0 0
-4.235970 3.621338 0.578447 5.602868 -0.707333 1.467371 -0.003943 0.000359 -990129.000000 1 0 0
4.932630 6.924438 4.209147 9.486601 0.951829 1.111080 -0.003206 0.003225 -1065430.000000 1 0 0
-8.205270 13.096338 1.184647 15.499804 -1.011096 1.494292 -0.008826 0.002729 -682480.000000 1 0 0
8.773230 8.250638 -9.131353 15.113709 0.754710 2.219529 0.006764 -0.005258 -898575.000000 1 0 0
6.973330 1.965338 6.000547 9.407255 0.274711 0.879075 0.004558 -0.003137 -58987.200000 1 0 0
11.548030 -6.200662 2.991647 13.444522 -0.492765 1.346400 0.005336 -0.003981 73082.300000 1 0 0
11.438830 4.778638 -2.192453 12.589244 0.395719 1.745842 0.003991 -0.001537 1484150.000000 1 0 0
-3.941270 14.495738 -5.936753 16.152556 -1.305322 1.947162 0.010085 -0.002167 325698.000000 1 0 0
7.256530 -3.001562 6.940247 10.480155 -0.392206 0.847009 0.006321 -0.008524 11984.200000 1 0 0
-7.961570 -0.539262 0.958247 8.037141 0.067630 1.451285 -0.002411 0.000641 270294.000000 1 0 0
-3.151770 1.068838 10.849047 11.348035 -0.326952 0.297649 -0.003994 0.002705 56412.600000 1 0 0
7.037430 -1.242462 -1.873253 7.387707 -0.174750 1.827159 0.002927 -0.001257 -1468010.000000 1 0 0
-7.836470 5.240238 2.973147 9.884835 -0.589408 1.265287 -0.005247 0.002284 859571.000000 1 0 0
9.437430 -2.181162 2.834747 10.092490 -0.227130 1.286089 0.005345 -0.007084 -1653580.000000 1 0 0
0.276530 3.507738 1.660447 3.890730 1.492125 1.129878 -0.008326 0.001129 -4121520.000000 1 0 0
-7.537770 -3.045962 4.099147 9.104882 0.384030 1.103791 -0.000921 0.001322 -963738.000000 1 0 0
-2.286970 8.510638 -6.750153 11.100709 -1.308279 2.224440 -0.003093 0.000743 -499653.000000 1 0 0
4.522230 9.797438 7.317947 13.038125 1.138360 0.974873 -0.006559 0.014103 2030540.000000 1 0 0
-11.818570 -3.223462 7.040447 14.129303 0.266269 1.049174 0.006706 -0.002730 -1585850.000000 1 0 0
-4.682270 2.389338 -5.596453 7.678077 -0.471849 2.387492 0.001573 -0.000188 -466792.000000 1 0 0
-2.709270 2.901338 -1.678253 4.309807 -0.819618 1.970780 -0.005428 0.000365 1682680.000000 1 0 0
2.404830 5.202238 11.484247 12.834891 1.137787 0.462885 0.004153 -0.001197 179749.000000 1 0 0
-0.690670 1.564138 4.564147 4.873910 -1.154978 0.358441 -0.005517 -0.000192 -120497.000000 1 0 0
5.167130 1.594538 7.787447 9.480829 0.299321 0.606955 0.004059 0.000547 -19056.400000 1 0 0
3.319930 -8.243362 1.884947 9.084491 -1.187930 1.361787 -0.007451 -0.000979 2071030.000000 1 0 0
4.872930 6.408838 -4.629553 9.287164 0.920707 2.092652 0.006531 -0.001496 -2905280.000000 1 0 0
-4.179770 2.897938 -8.058653 9.529449 -0.606232 2.578593 0.001108 -0.002612 -698152.000000 1 0 0
-8.807870 -2.191962 -12.948953 15.813243 0.243909 2.530232 0.001816 0.001655 -285369.000000 1 0 0
-7.686870 8.108738 1.441047 11.265710 -0.812100 1.442530 -0.006100 0.004118 -3780450.000000 1 0 0
7.304530 0.924738 -6.592753 9.883101 0.125928 2.301070 -0.001225 0.001310 -421331.000000 1 0 0
9.030330 8.780538 5.443147 13.721245 0.771374 1.162883 -0.000263 0.003686 402374.000000 1 0 0
9.356130 -1.049862 -1.400553 9.518452 -0.111744 1.718473 0.006370 -0.002412 1389400.000000 1 0 0
5.339030 0.075038 4.207447 6.798050 0.014054 0.903430 -0.001210 -0.001442 -83884.700000 1 0 0
-4.250870 -7.314862 -7.956153 11.613676 1.044369 2.325493 0.012701 -0.000380 -382716.000000 1 0 0
-2.143070 7.443838 -0.568953 7.767057 -1.290478 1.644114 -0.004237 0.001475 293177.000000 1 0 0
13.290230 -3.318162 -7.652153 15.690630 -0.244667 2.080237 0.005495 0.003310 807651.000000 1 0 0
-4.808370 -5.140062 1.647547 7.228767 0.818727 1.340860 0.002331 -0.000772 1164670.000000 1 0 0
-8.805770 1.295138 2.622747 9.278888 -0.146031 1.284233 -0.006249 0.002808 238190.000000 1 0 0
-0.862670 11.163938 10.251147 15.181032 -1.493677 0.829479 0.000290 0.004618 638804.000000 1 0 0
-8.557370 0.379438 7.600947 11.451941 -0.044311 0.845007 -0.004191 0.001952 -433412.000000 1 0 0
-6.211570 12.874838 -1.950553 14.427394 -1.121280 1.706409 -0.000250 0.003483 804243.000000 1 0 0
-12.999170 -0.730562 3.352047 13.444269 0.056142 1.318809 -0.001533 -0.000700 217389.000000 1 0 0
-6.568370 12.962638 8.807847 16.992694 -1.101791 1.025898 0.007529 -0.003851 -209123.000000 1 0 0
-8.059570 0.831838 -14.207253 16.355264 -0.102847 2.623298 -0.006659 0.010416 -826622.000000 1 0 0
7.263230 2.840638 3.642847 8.607791 0.372809 1.133818 0.002798 -0.002724 -366714.000000 1 0 0
-1.618770 0.649238 -2.086953 2.719797 -0.381427 2.445446 -0.005003 -0.001089 349146.000000 1 0 0
-6.250770 9.720138 -10.295253 15.477255 -0.999305 2.298539 0.000920 0.001088 -271915.000000 1 0 0
-9.789870 13.738238 5.327847 17.690865 -0.951664 1.264883 -0.009769 0.002840 193952.000000 1 0 0
-5.609970 8.334938 2.506947 10.355083 -0.978376 1.326268 -0.008458 0.004496 -1562610.000000 1 0 0
-2.483870 -10.695862 -1.237853 11.050039 1.342614 1.683054 0.004892 0.001763 -318357.000000 1 0 0
-2.238770 -12.358362 8.821447 15.347936 1.391586 0.958480 -0.002250 0.000737 365453.000000 1 0 0
-14.707670 -6.326362 -1.552553 16.085672 0.406216 1.667465 0.002598 0.002124 435582.000000 1 0 0
-2.747470 -9.441962 3.327347 10.381256 1.287631 1.244523 -0.000625 0.000028 5777.240000 1 0 0
4.695230 -2.640162 7.390547 9.145263 -0.512243 0.629829 0.001981 -0.002154 -1401620.000000 1 0 0
-14.891670 -1.283662 -0.205153 14.948301 0.085987 1.584521 -0.005619 -0.003384 -197616.000000 1 0 0
5.397130 8.767438 -2.919353 10.701383 1.018994 1.847100 0.004407 -0.002061 -804275.000000 1 0 0
-5.528070 -5.739562 8.561147 11.695955 0.804166 0.749580 0.002535 0.000999 -3353410.000000 1 0 0
3.485330 3.588138 7.082747 8.671077 0.799931 0.614912 -0.003614 0.001576 284970.000000 1 0 0
3.308430 2.187438 9.324547 10.133004 0.584188 0.402166 0.001834 -0.000519 -229634.000000 1 0 0
9.920330 -3.186862 5.108647 11.604625 -0.310832 1.114947 0.010829 -0.007233 -318120.000000 1 0 0
6.445730 10.054738 -5.025453 12.957637 1.000729 1.969080 0.008080 -0.002879 24456.900000 1 0 0
-4.571570 12.107238 -8.505853 15.486575 -1.209757 2.152251 0.005345 -0.002340 -651003.000000 1 0 0
-3.206670 -7.252062 2.156147 8.217305 1.154470 1.305297 0.004165 0.000150 960825.000000 1 0 0
-7.428270 -4.021562 1.164247 8.526877 0.496206 1.433830 0.002529 0.000032 1740470.000000 1 0 0
-2.086870 -3.971762 -10.902653 11.789731 1.087015 2.751197 0.002588 0.000837 -557499.000000 1 0 0
-5.260370 8.293338 -4.426253 10.772310 -1.005545 1.994228 0.000577 0.000092 -1454010.000000 1 0 0
-10.971970 -3.229862 -10.168053 15.303772 0.286287 2.297507 0.004142 0.006322 -2016170.000000 1 0 0
4.595030 -11.232962 -7.686453 14.365768 -1.182498 2.135367 -0.000807 -0.001581 -2065190.000000 1 0 0
-9.291570 -3.966062 7.358747 12.498563 0.403433 0.941263 -0.000594 0.001802 -445111.000000 1 0 0
-5.815570 -9.716962 -5.175953 12.451132 1.031483 1.999510 0.009587 -0.003699 721575.000000 1 0 0
4.699730 4.433938 -9.515953 11.502201 0.756306 2.545109 -0.003176 0.002886 297013.000000 1 0 0
-3.583870 -7.120162 -14.040953 16.145872 1.104479 2.625251 0.000528 0.007117 236175.000000 1 0 0
0.591130 -0.868262 -8.785853 8.848419 -0.973059 3.022603 -0.000269 -0.004096 -51801.400000 1 0 0
-7.640070 2.223838 -2.757853 8.421513 -0.283249 1.904429 -0.003694 -0.000077 -475701.000000 1 0 0
-2.322970 7.609438 -12.525553 14.838774 -1.274507 2.575699 -0.004744 -0.000289 -72239.900000 1 0 0
-9.664370 8.878438 7.757547 15.244876 -0.743039 1.036933 -0.005318 -0.001301 -482232.000000 1 0 0
-10.797670 -3.128562 -14.435353 18.296365 0.282021 2.479933 0.005150 0.009302 166242.000000 1 0 0
-3.236570 4.838738 8.002247 9.895693 -0.981258 0.628926 -0.003794 0.003708 -40553.900000 1 0 0
8.590630 -2.342362 -3.472153 9.557271 -0.266194 1.942603 0.003103 0.000547 -4832680.000000 1 0 0
1.912030 -8.475462 -1.103653 8.758274 -1.348915 1.697145 -0.004245 0.001762 -488767.000000 1 0 0
-13.529770 -2.772462 5.122547 14.730299 0.202118 1.215620 0.005575 -0.008183 -7146.730000 1 0 0
7.028330 2.721738 -2.048853 7.810447 0.369469 1.836224 0.002519 -0.001649 1674060.000000 1 0 0
-11.083070 4.554538 9.064347 15.024668 -0.389906 0.923167 -0.001131 0.000399 -2463940.000000 1 0 0
-1.714770 -2.482262 8.117447 8.659966 0.966265 0.355843 -0.003251 -0.000742 -1141410.000000 1 0 0
3.167830 11.921738 -9.814353 15.763391 1.311079 2.242862 0.001502 -0.006382 904035.000000 1 0 0
3.544530 -4.987762 -7.147653 9.409060 -0.952961 2.433581 -0.003092 -0.000865 -50426.600000 1 0 0
7.986230 -13.717862 -9.908853 18.712161 -1.043585 2.128855 0.012557 0.004255 46314.500000 1 0 0
-6.354570 -5.711362 -0.424553 8.554558 0.732141 1.620446 0.005247 -0.000833 -495042.000000 1 0 0
-1.129170 -4.100462 9.960947 10.830941 1.302080 0.403544 -0.006264 0.000264 1019640.000000 1 0 0
2.716130 3.358638 1.863447 4.704280 0.890773 1.163512 -0.007957 0.001882 -1244570.000000 1 0 0
-8.997570 13.393038 7.878147 17.955360 -0.979242 1.116575 -0.001811 -0.009847 -774848.000000 1 0 0
3.911430 -11.057262 -0.109453 11.729208 -1.230791 1.580128 -0.003417 0.002122 -237781.000000 1 0 0
-12.376470 -1.408062 -9.024153 15.381644 0.113282 2.197753 -0.001650 -0.001042 435271.000000 1 0 0
-4.324770 0.967338 -13.581953 14.286666 -0.220052 2.826196 -0.002133 -0.001248 -15973.100000 1 0 0
3.912130 -3.090262 4.875047 6.972845 -0.668563 0.796592 -0.003072 -0.000790 -109974.000000 1 0 0
1.727730 -1.164862 1.048147 2.332503 -0.593210 1.104741 -0.004379 -0.000154 606577.000000 1 0 0
8.129730 -8.933462 7.311947 14.119626 -0.832467 1.026452 -0.001341 -0.000507 -781862.000000 1 0 0
-0.125570 2.263638 -6.330453 6.724169 -1.515381 2.797694 -0.004085 -0.001470 -884257.000000 1 0 0
-3.867870 -9.717562 -3.304253 10.968569 1.191990 1.876797 0.007982 0.001994 866624.000000 1 0 0
-9.369170 2.387938 -5.333753 11.042305 -0.249559 2.074907 -0.002505 0.000628 -1467280.000000 1 0 0
9.010730 -7.567762 5.207047 12.867697 -0.698578 1.154189 0.000360 -0.003068 528023.000000 1 0 0
-5.498270 -4.317662 4.650447 8.396418 0.665698 0.983802 -0.000383 0.000835 183594.000000 1 0 0
-0.037370 -12.477362 10.325847 16.195959 1.567801 0.879473 -0.003863 -0.001132 -2546580.000000 1 0 0
-14.108070 -8.261462 3.177247 16.654858 0.529752 1.378850 -0.004757 -0.004796 -1278260.000000 1 0 0
10.804730 -1.429762 -3.687653 11.505877 -0.131563 1.897055 0.008112 0.001442 -596671.000000 1 0 0
-13.553670 3.043138 2.741947 14.159129 -0.220862 1.375913 -0.001585 0.002527 -1792910.000000 1 0 0
-6.227270 6.181638 1.132247 8.847232 -0.781721 1.442467 -0.003262 0.003344 1290420.000000 1 0 0
6.982230 -6.925362 -0.430153 9.843638 -0.781309 1.614509 -0.001098 -0.004054 -408623.000000 1 0 0
-6.780670 7.799138 10.154547 14.488577 -0.855140 0.794186 0.005261 0.001958 365338.000000 1 0 0
-12.645770 -5.036462 -1.883653 13.741528 0.379016 1.708307 -0.002796 -0.000511 -1843940.000000 1 0 0
-9.366070 -5.629662 0.240347 10.930422 0.541206 1.548806 0.002740 -0.000816 -1304660.000000 1 0 0
-1.821270 1.909738 2.239247 3.460976 -0.809105 0.867154 -0.005727 0.000360 470751.000000 1 0 0
-7.075770 7.256738 7.722447 12.742172 -0.798024 0.919706 -0.003057 0.001998 -367588.000000 1 0 0
5.579330 7.159438 -0.508953 9.090958 0.908807 1.626810 0.001007 -0.001375 -1372090.000000 1 0 0
0.008730 -4.093262 7.514747 8.557237 -1.568664 0.498764 -0.006050 0.000276 -962279.000000 1 0 0
6.478330 0.611738 13.072847 14.602819 0.094149 0.461855 0.007768 -0.005361 290493.000000 1 0 0
5.695230 6.092138 -7.935753 11.511992 0.819058 2.331383 -0.002971 0.000774 -349216.000000 1 0 0
10.025430 5.143338 8.995947 14.418400 0.474017 0.897046 0.003356 0.001279 -1564080.000000 1 0 0
-1.236270 -5.055862 -8.522353 9.986020 1.330980 2.593324 0.004809 0.000418 918734.000000 1 0 0
9.870930 -3.595162 -8.152953 13.297785 -0.349284 2.230783 0.003528 -0.001916 545610.000000 1 0 0
8.367630 -5.413062 1.143947 10.031306 -0.574196 1.456510 0.004083 -0.005486 839209.000000 1 0 0
15.517230 3.219538 -5.242753 16.692403 0.204579 1.890284 -0.008775 0.007924 -568527.000000 1 0 0
-6.878070 3.619038 1.154847 7.857414 -0.484364 1.423286 -0.002750 0.000442 -93122.700000 1 0 0
-1.688770 3.917338 0.361047 4.281102 -1.163769 1.486361 -0.005589 0.000917 -1717100.000000 1 0 0
-2.624970 10.202338 7.011647 12.654697 -1.318967 0.983545 -0.003907 0.007308 567898.000000 1 0 0
5.414130 -5.749462 -8.819353 11.838501 -0.815427 2.411289 -0.003711 -0.000202 -485319.000000 1 0 0
-1.120870 -0.873962 6.324647 6.482386 0.662251 0.221055 -0.004425 -0.000557 377208.000000 1 0 0
-5.639370 5.055038 -7.806353 10.876352 -0.730813 2.371342 -0.001915 -0.000149 -51322.700000 1 0 0
6.724530 -1.263962 2.450247 7.267779 -0.185795 1.226921 0.004325 -0.004721 -1273230.000000 1 0 0
8.825530 7.498138 3.161947 12.004581 0.704260 1.304256 0.005883 -0.002344 407668.000000 1 0 0
-5.269170 -4.878562 -7.647153 10.490160 0.746925 2.387632 0.004424 -0.000900 852291.000000 1 0 0
-2.201470 8.042438 -10.011653 13.029216 -1.303610 2.447134 -0.004219 0.001348 447387.000000 1 0 0
-2.894670 -2.331562 1.729247 4.099462 0.678066 1.135341 -0.004934 0.001858 -852100.000000 1 0 0
5.768830 -2.001562 -9.275653 11.105106 -0.333965 2.559402 -0.001710 0.001913 1286580.000000 1 0 0
1.162430 -7.554762 5.225147 9.258933 -1.418126 0.971168 -0.008808 0.002105 815954.000000 1 0 0
1.803930 11.856238 1.223247 12.054911 1.419804 1.469148 0.000212 -0.003699 207651.000000 1 0 0
-1.118070 6.994438 2.589747 7.541819 -1.412286 1.220278 -0.006031 0.003703 522389.000000 1 0 0
8.720630 7.943238 -6.601853 13.517725 0.738781 2.081034 0.005826 -0.003195 -301610.000000 1 0 0
3.654030 -11.306662 5.474047 13.082727 -1.258216 1.139094 -0.007738 0.001014 675777.000000 1 0 0
8.074030 -7.105262 12.290047 16.331564 -0.721663 0.718896 -0.003943 0.001620 488261.000000 1 0 0
-8.626870 0.136838 -3.939153 9.484647 -0.015861 1.999090 -0.000973 0.000723 -1312780.000000 1 0 0
-3.282070 -5.070762 11.208147 12.732132 0.996354 0.494294 -0.002843 -0.002314 703719.000000 1 0 0
-8.182870 0.119338 -11.701953 14.279681 -0.014583 2.531304 -0.004719 0.005311 -2023980.000000 1 0 0
1.373030 -5.033162 5.335547 7.462305 -1.304480 0.774172 -0.006711 0.000441 -604950.000000 1 0 0
6.624630 3.779138 -7.783653 10.897378 0.518422 2.366374 -0.002787 0.002733 -2627500.000000 1 0 0
16.329330 4.140638 -1.307653 16.896800 0.248336 1.648264 -0.005465 0.004768 384837.000000 1 0 0
7.881130 7.400138 0.061647 10.811015 0.753933 1.565094 0.005568 -0.004479 -1030430.000000 1 0 0
5.638230 -10.273262 13.815147 18.115956 -1.068855 0.703480 -0.007837 -0.000193 234264.000000 1 0 0
-5.082070 -9.418962 9.014647 13.993146 1.076006 0.870795 0.004817 -0.002386 658200.000000 1 0 0
-12.542170 -3.191662 2.866647 13.255580 0.249185 1.352814 -0.002889 -0.000620 402086.000000 1 0 0
-2.182670 -1.400362 -5.869653 6.417000 0.570435 2.725570 -0.000676 -0.001900 -1090910.000000 1 0 0
-2.460370 13.114238 -4.347253 14.033362 -1.385342 1.885758 0.004641 0.002232 518270.000000 1 0 0
3.970630 -0.459062 -5.055853 6.445020 -0.115103 2.472619 -0.001866 -0.000198 -194860.000000 1 0 0
-8.771470 4.002738 -7.297353 12.091813 -0.428110 2.218674 -0.002900 0.001184 373956.000000 1 0 0
-4.568770 8.024338 -11.300553 14.593360 -1.053208 2.456504 0.000163 0.001112 -266524.000000 1 0 0
-10.084970 -6.425262 7.509347 14.120230 0.567262 1.010054 0.006398 0.001359 -396780.000000 1 0 0
8.061730 5.284938 4.040247 10.452065 0.580273 1.173908 0.002570 -0.001547 -2102210.000000 1 0 0
-6.667470 -7.516962 4.169347 10.878572 0.845216 1.177471 0.007777 -0.001472 -183274.000000 1 0 0
-4.086670 11.968638 8.159247 15.050664 -1.241760 0.997840 -0.000642 0.002435 -121072.000000 1 0 0
-7.254970 10.080638 -7.886653 14.712346 -0.946975 2.136555 0.004241 -0.004199 -1519440.000000 1 0 0
13.123730 5.547338 4.492947 14.939606 0.399917 1.265327 0.004070 -0.005971 1523660.000000 1 0 0
5.200230 3.945538 -3.690253 7.498508 0.649061 2.085333 0.003619 -0.000473 481253.000000 1 0 0
-2.834070 -4.083462 5.053747 7.088510 0.964084 0.777101 -0.001338 0.000493 -1581470.000000 1 0 0
12.325230 -2.427362 -5.366053 13.660084 -0.194454 1.974500 0.007052 0.001370 -2895680.000000 1 0 0
-5.226970 9.848838 7.115247 13.226775 -1.082876 1.002802 -0.006819 0.005224 -354796.000000 1 0 0
1.702730 3.862338 -0.397253 4.239664 1.155574 1.664633 -0.006066 0.000169 467321.000000 1 0 0
-0.140370 9.609838 7.755347 12.349660 -1.556190 0.891841 -0.005754 0.008477 -414047.000000 1 0 0
-5.552470 2.063038 5.956047 8.400033 -0.355745 0.782646 -0.002427 0.001967 695333.000000 1 0 0
8.940430 0.816038 10.638347 13.920188 0.091023 0.700936 0.008341 -0.003499 -1677210.000000 1 0 0
0.376730 -2.840562 -10.187653 10.582957 -1.438941 2.867411 0.000001 -0.000665 -1487130.000000 1 0 0
1.221730 10.688138 -2.651253 11.079624 1.456983 1.812432 0.000112 -0.000702 163261.000000 1 0 0
2.237530 -4.275962 11.683747 12.641216 -1.088698 0.391708 -0.000243 -0.002515 74520.100000 1 0 0
6.458030 -3.004862 9.395047 11.789922 -0.435497 0.648698 0.005802 -0.005088 443180.000000 1 0 0
-10.532270 -8.191162 5.659447 14.493212 0.661007 1.169633 0.006727 -0.002622 -1773870.000000 1 0 0
-2.912270 0.848038 -6.922853 7.558199 -0.283359 2.728639 0.001249 -0.001042 619437.000000 1 0 0
11.018830 2.675638 -5.201653 12.475209 0.238214 2.000894 0.003602 0.000083 -2639950.000000 1 0 0
-1.852970 -4.029162 -0.010053 4.434833 1.139749 1.573063 -0.001256 -0.001225 693046.000000 1 0 0
-1.425370 -6.445062 -10.701453 12.573448 1.353143 2.588902 0.001940 0.003135 1375110.000000 1 0 0
0.265230 6.814338 -6.586553 9.480940 1.531894 2.338820 -0.002091 0.002648 -3238680.000000 1 0 0
2.019130 3.817138 -6.153853 7.517801 1.084247 2.529715 -0.004399 0.001245 -1159850.000000 1 0 0
1.638730 -14.807862 6.527947 16.265679 -1.460579 1.157825 -0.001034 0.001343 -445963.000000 1 0 0
-1.702070 5.426038 -10.531753 11.968991 -1.266832 2.646490 -0.001208 -0.000681 -30576.200000 1 0 0
13.665530 4.395238 -0.959553 14.386993 0.311180 1.637542 0.002938 -0.003246 515113.000000 1 0 0
-2.423870 3.412538 -6.349253 7.604839 -0.953202 2.558741 -0.000343 -0.001952 -927589.000000 1 0 0
5.783630 7.777638 14.256247 17.238985 0.931389 0.597087 0.012471 -0.006460 881965.000000 1 0 0
15.854730 0.717538 -5.856753 16.917118 0.045226 1.924317 -0.001140 0.006578 196634.000000 1 0 0
6.323530 -8.302662 10.555347 14.843739 -0.919895 0.779738 -0.005549 -0.000177 779117.000000 1 0 0
-0.040170 -5.846662 -6.297653 8.593340 1.563926 2.393302 -0.001282 0.002232 -1838660.000000 1 0 0
8.626130 5.502538 -7.586653 12.737556 0.567816 2.208825 0.001053 0.001537 -339192.000000 1 0 0
-15.938670 -0.809662 5.431847 16.858283 0.050755 1.242737 0.004559 -0.006540 -66260.200000 1 0 0
-0.376370 4.082138 -12.303553 12.968535 -1.478857 2.819969 -0.001546 -0.002115 642038.000000 1 0 0
-11.256270 3.726638 6.007847 13.292316 -0.319714 1.101814 -0.003027 0.002534 176051.000000 1 0 0
4.916030 -9.640662 -9.718653 14.545168 -1.099239 2.302543 -0.009740 0.003875 414449.000000 1 0 0
1.482830 11.254938 -11.643453 16.261685 1.439801 2.368859 0.000545 0.001050 -2075230.000000 1 0 0
5.889530 2.337538 1.155147 6.440886 0.377829 1.390475 0.001376 -0.001664 -388294.000000 1 0 0
5.690230 4.515838 4.806947 8.710813 0.670834 0.986231 -0.001392 -0.000659 -229928.000000 1 0 0
0.331830 -1.604362 -6.335853 6.544243 -1.366842 2.888556 -0.002320 -0.001174 606728.000000 1 0 0
12.729930 6.837638 -4.623953 15.171861 0.492909 1.880495 0.004515 0.001792 -1190460.000000 1 0 0
7.582030 3.073638 12.752847 15.151553 0.385140 0.570399 0.010544 -0.002215 -39792.400000 1 0 0
-2.418770 -0.214762 8.710247 9.042399 0.088558 0.271882 -0.005624 0.000881 913820.000000 1 0 0
2.386230 -15.306962 13.291347 20.412180 -1.416149 0.861700 -0.006740 -0.000648 118376.000000 1 0 0
18.874630 4.415838 -1.912253 19.478398 0.229823 1.669128 -0.000445 0.010874 840554.000000 1 0 0
-0.406470 -13.303362 7.179147 15.122328 1.540252 1.076130 -0.007058 0.001835 -1485560.000000 1 0 0
4.316530 1.579738 -0.653153 4.642695 0.350834 1.711949 -0.000235 -0.000994 791203.000000 1 0 0
2.674030 -0.523662 -7.377353 7.864476 -0.193385 2.787785 -0.004174 -0.000682 -857503.000000 1 0 0
7.066330 -11.302962 0.849647 13.357091 -1.012071 1.507143 -0.004306 0.001458 294454.000000 1 0 0
-11.767370 -7.379562 1.350047 13.955342 0.560123 1.473904 -0.001093 0.000996 229258.000000 1 0 0
0.190530 -7.089462 10.061747 12.309977 -1.543928 0.613974 -0.006781 -0.000915 -2923650.000000 1 0 0
-4.528870 -7.260362 10.620047 13.638509 1.013075 0.678236 0.004468 -0.000593 -1263440.000000 1 0 0
11.861930 0.735038 -1.715053 12.007792 0.061887 1.714115 0.005330 -0.000472 1237.660000 1 0 0
6.468230 -9.487462 -7.542953 13.738489 -0.972413 2.152009 -0.005004 0.000130 -226592.000000 1 0 0
-10.873370 4.871338 3.654447 12.462548 -0.421195 1.273188 -0.008109 0.002616 -303554.000000 1 0 0
5.929730 -9.094962 1.947147 11.030477 -0.993031 1.393342 -0.005516 -0.002204 3403690.000000 1 0 0
11.688830 -1.369162 5.766347 13.105500 -0.116603 1.115204 0.008635 -0.007936 804845.000000 1 0 0
-6.389170 3.706838 4.196747 8.495577 -0.525715 1.054121 -0.003893 0.001971 -1909520.000000 1 0 0
9.374330 6.263138 -3.261753 11.736439 0.589005 1.852421 0.005027 -0.000196 -518251.000000 1 0 0
-2.279170 6.525338 10.982047 12.976133 -1.234763 0.561745 -0.009329 0.004619 586578.000000 1 0 0
1.993430 9.848238 3.009947 10.489106 1.371080 1.279745 -0.005977 0.002330 -51963.200000 1 0 0
2.790430 6.182438 -5.629453 8.814748 1.146822 2.263526 -0.003110 0.001839 -2599020.000000 1 0 0
11.790730 0.000338 -5.732053 13.110215 0.000029 2.023302 0.005311 0.003229 276525.000000 1 0 0
-2.639170 -12.400662 6.226347 14.124767 1.361100 1.114295 -0.000934 0.001969 -134867.000000 1 0 0
10.900030 1.819838 -2.816653 11.404210 0.165431 1.820362 0.005608 0.000753 227709.000000 1 0 0
-8.830470 5.379038 0.826547 10.372773 -0.547117 1.491027 -0.004446 0.001414 56388.400000 1 0 0
1.242330 -10.178062 5.518747 11.644437 -1.449338 1.077038 -0.009462 0.001222 -796973.000000 1 0 0
9.199930 -5.764362 -1.450853 10.953153 -0.559725 1.703647 0.005160 -0.003194 1047130.000000 1 0 0
-7.841070 8.710738 -4.580853 12.583463 -0.837892 1.943396 -0.000560 -0.000057 -309135.000000 1 0 0
-7.431670 -0.136562 -1.591453 7.601387 0.018374 1.781720 -0.003952 0.001297 -1573450.000000 1 0 0
4.182630 8.814538 2.705547 10.124745 1.127744 1.300288 -0.001825 0.000588 -994894.000000 1 0 0
-1.504870 -10.498262 -3.747653 11.248246 1.428422 1.910467 0.001921 0.002922 -1105750.000000 1 0 0
2.999030 7.853938 -3.651153 9.165666 1.206033 1.980515 0.003654 -0.002094 -135212.000000 1 0 0
-4.374670 1.750638 -11.091053 12.050474 -0.380658 2.739855 -0.002701 -0.000194 -146393.000000 1 0 0
1.387930 2.795838 11.024147 11.457525 1.110011 0.275919 0.000276 -0.001081 415655.000000 1 0 0
2.011530 5.574738 -8.040253 9.988474 1.224507 2.506393 -0.002777 0.002319 -584941.000000 1 0 0
15.640230 6.013338 3.863547 17.196047 0.367055 1.344185 0.005670 -0.003208 523091.000000 1 0 0
-4.362470 9.016438 4.733047 11.078314 -1.120164 1.129364 -0.006727 0.004603 335163.000000 1 0 0
-1.067570 -8.185562 -12.550153 15.021633 1.441107 2.559787 0.003645 0.004559 226521.000000 1 0 0
14.241230 -4.257562 -5.506353 15.851164 -0.290503 1.925570 0.003237 0.003472 1407550.000000 1 0 0
-6.130770 -6.232862 -5.626753 10.396887 0.793655 2.142655 0.007218 -0.000182 580689.000000 1 0 0
-9.010070 2.520638 -12.280953 15.438807 -0.272784 2.490562 -0.005686 0.003460 -772220.000000 1 0 0
10.823130 5.413838 13.741647 18.310725 0.463816 0.722024 0.019319 -0.000496 461413.000000 1 0 0
-0.394970 10.909638 5.656847 12.295370 -1.534608 1.092712 -0.002011 0.006683 468586.000000 1 0 0
0.322430 11.274738 -0.499853 11.290418 1.542207 1.615083 -0.000630 -0.001297 145417.000000 1 0 0
-1.464770 -0.651262 3.701447 4.033659 0.418369 0.408695 -0.004783 0.000866 125816.000000 1 0 0
-4.746370 6.709938 8.890647 12.107638 -0.955145 0.746160 -0.004089 0.005902 -1623240.000000 1 0 0
3.393730 -8.717362 -11.573153 14.881118 -1.199542 2.461807 -0.003411 0.005057 114975.000000 1 0 0
6.681830 -3.784162 11.908547 14.169694 -0.515299 0.572732 0.002404 -0.000391 -592430.000000 1 0 0
-2.426070 -1.833762 -12.501253 12.865839 0.647239 2.902961 0.000164 -0.005047 848374.000000 1 0 0
-16.003870 -4.922862 5.393647 17.591187 0.298419 1.259166 0.013116 -0.010193 843472.000000 1 0 0
-8.907770 7.212138 5.997647 12.935806 -0.680595 1.088689 -0.012517 0.002809 -3648280.000000 1 0 0
-12.774670 1.523338 6.136347 14.253684 -0.118686 1.125739 -0.000975 -0.000077 81722.100000 1 0 0
-3.575570 3.586638 10.185147 11.374792 -0.786944 0.461436 -0.003899 0.004948 388774.000000 1 0 0
1.932930 -12.299362 -1.248153 12.512730 -1.414914 1.670713 0.000257 0.002484 -3297680.000000 1 0 0
10.266230 -4.994162 -3.778753 12.025644 -0.452761 1.890436 0.007276 -0.000139 688078.000000 1 0 0
3.032130 -13.456662 0.876847 13.821882 -1.349172 1.507315 -0.003348 0.004078 567459.000000 1 0 0
9.983030 -1.797662 -6.233353 11.905762 -0.178162 2.121818 0.006227 0.002376 -462275.000000 1 0 0
11.829030 -5.385962 -1.700653 13.108271 -0.427267 1.700902 0.010000 -0.002209 -49527.800000 1 0 0
1.488430 0.893338 5.965847 6.213277 0.540558 0.283160 -0.003239 -0.000811 433022.000000 1 0 0
-10.693870 11.776538 6.710147 17.264755 -0.833543 1.171618 -0.006050 -0.000395 -593853.000000 1 0 0
4.703030 -14.057762 3.003447 15.124810 -1.247951 1.370890 -0.003430 -0.000099 -2836660.000000 1 0 0
5.202530 -3.383662 -1.756953 6.449990 -0.576648 1.846679 0.001397 -0.001774 -1477710.000000 1 0 0
2.013230 -2.934462 -7.771953 8.547948 -0.969484 2.712199 -0.005370 0.000436 -257128.000000 1 0 0
-2.860470 15.023538 -8.768453 17.628804 -1.382649 2.091388 0.012022 -0.003820 -1038570.000000 1 0 0
-2.359570 6.215938 -8.094453 10.475000 -1.207999 2.453943 0.002434 -0.000775 -428543.000000 1 0 0
2.501830 -3.480062 -11.330753 12.114287 -0.947496 2.779963 -0.001399 0.001658 -989265.000000 1 0 0
14.780730 2.718038 -2.819153 15.290694 0.181859 1.756228 0.009780 0.005160 617378.000000 1 0 0
-3.504770 13.324138 2.326447 13.972416 -1.313584 1.403514 -0.009409 0.004414 -1248160.000000 1 0 0
7.887030 -4.958362 13.906347 16.738491 -0.561236 0.590252 -0.008564 0.000626 -999995.000000 1 0 0
-11.382470 7.315238 3.017047 13.862752 -0.571209 1.351404 -0.010738 0.003365 673290.000000 1 0 0
-2.166670 11.930538 4.001747 12.768954 -1.391147 1.252029 -0.004978 0.004494 601250.000000 1 0 0
1.812230 1.444838 0.698947 2.420798 0.673075 1.277900 -0.008981 0.000211 -1671660.000000 1 0 0
-6.806370 8.551238 5.376547 12.180214 -0.898529 1.113620 -0.007333 0.003088 -233607.000000 1 0 0
-1.118970 9.187638 1.068547 9.317005 -1.449602 1.455856 -0.005028 0.003395 392012.000000 1 0 0
5.056730 13.279238 -8.531353 16.573855 1.206951 2.111510 0.005789 -0.007306 -1563210.000000 1 0 0
8.997030 6.825738 7.158147 13.370726 0.649024 1.005863 -0.001575 0.001705 -1362670.000000 1 0 0
7.223930 -13.697362 2.794847 15.735758 -1.085473 1.392238 -0.000016 0.002474 378599.000000 1 0 0
4.048630 -13.477862 -1.311953 14.133839 -1.278981 1.663754 -0.003201 0.006800 -2671230.000000 1 0 0
11.995030 -11.901662 -4.739753 17.549802 -0.781491 1.844267 0.014394 0.003500 -1156380.000000 1 0 0
2.731930 0.017338 -1.957053 3.360625 0.006346 2.192410 -0.000302 -0.001606 471434.000000 1 0 0
-13.571970 -3.025662 -10.640753 17.509386 0.219348 2.223979 -0.006864 0.000633 759506.000000 1 0 0
-6.437670 13.573838 5.077247 15.857841 -1.127943 1.244885 -0.006778 -0.000892 168020.000000 1 0 0
7.211230 -4.355462 -0.801953 8.462566 -0.543343 1.665703 0.001018 -0.001975 -1923280.000000 1 0 0
11.619830 2.081038 -7.354353 13.908187 0.177215 2.127957 0.002369 0.003216 -925088.000000 1 0 0
-7.407470 -4.558162 9.711747 13.037081 0.551627 0.730362 0.005729 0.001514 213893.000000 1 0 0
1.017430 2.843038 8.505247 9.025368 1.227130 0.341148 -0.001031 0.000446 -1149550.000000 1 0 0
1.539330 8.066538 -8.594953 11.887463 1.382234 2.378970 0.000128 0.000150 -88719.700000 1 0 0
-8.626470 -1.975362 -5.529253 10.435069 0.225107 2.129246 0.000589 0.000702 1234530.000000 1 0 0
6.653030 -0.461762 7.070047 9.719136 -0.069295 0.756219 0.007820 -0.005103 348117.000000 1 0 0
-10.820270 6.559738 7.357447 14.636954 -0.544999 1.044120 -0.002632 0.001169 286965.000000 1 0 0
-5.910770 11.017838 4.892347 13.426281 -1.078398 1.197823 -0.011048 0.005433 -891383.000000 1 0 0
6.058830 -1.170062 -6.940853 9.287298 -0.190768 2.414859 -0.000548 -0.000044 -555401.000000 1 0 0
4.491630 -5.631662 11.352547 13.445099 -0.897540 0.565421 0.002977 -0.002220 -1716980.000000 1 0 0
-8.973670 -7.405762 2.925747 11.997169 0.689965 1.324442 0.006516 -0.002491 -2555920.000000 1 0 0
-1.255170 12.864138 -9.290553 15.917785 -1.473533 2.194023 0.011397 -0.000315 711923.000000 1 0 0
-4.536570 9.395038 -2.288953 10.681129 -1.120947 1.786770 -0.001689 0.001779 336280.000000 1 0 0
-3.273170 9.680038 -0.127953 10.219254 -1.244730 1.583317 -0.002984 0.002361 -2284410.000000 1 0 0
-3.423470 10.849238 -6.373453 13.040207 -1.265136 2.081457 0.002074 -0.000449 985685.000000 1 0 0
4.868130 -4.918462 0.393047 6.931410 -0.790541 1.514061 -0.000763 -0.003014 -1487620.000000 1 0 0
-2.375070 3.052838 -10.985953 11.646971 -0.909622 2.803067 -0.000799 -0.001189 -2705180.000000 1 0 0
-3.625370 12.174438 -2.220753 12.895425 -1.281373 1.743872 -0.000961 0.004655 -1017670.000000 1 0 0
-0.194770 0.397038 0.028847 0.443178 -1.114731 1.505658 -0.009375 0.000883 -2166150.000000 1 0 0
-4.823770 -1.775062 0.128947 5.141617 0.352604 1.545715 -0.003343 0.001087 38567.900000 1 0 0
2.609430 2.668938 -2.415353 4.445929 0.796672 2.145127 -0.010459 -0.000975 585142.000000 1 0 0
6.006930 -9.745362 8.445347 14.226004 -1.018413 0.935202 -0.006798 0.001346 -511101.000000 1 0 0
-4.155470 -5.468662 6.643147 9.555396 0.921009 0.802064 0.003383 -0.001221 7103.530000 1 0 0
-6.384470 5.453838 -12.153053 14.771679 -0.706948 2.536987 -0.003783 0.002198 -60630.500000 1 0 0
-12.867670 3.118338 8.089247 15.515698 -0.237755 1.022354 -0.001988 -0.000470 623382.000000 1 0 0
4.626230 -7.369562 -4.874953 9.973846 -1.010223 2.081480 -0.005398 -0.000515 63766.400000 1 0 0
-5.912070 2.547938 -0.956053 6.508348 -0.406918 1.718226 -0.002827 0.000477 -384263.000000 1 0 0
-6.926270 -2.623962 -14.597853 16.369352 0.362135 2.672059 -0.001440 0.002208 -436645.000000 1 0 0
2.696530 -6.156862 0.951747 6.788523 -1.157990 1.430133 -0.005722 -0.000917 62547.900000 1 0 0
4.939230 -7.777162 12.910847 15.860965 -1.004971 0.619788 -0.006440 0.001506 -209103.000000 1 0 0
-9.972770 -1.689662 8.137147 12.981690 0.167834 0.893335 0.004863 0.000162 -137645.000000 1 0 0
-4.351070 13.327338 -0.006153 14.019621 -1.255229 1.571235 -0.007130 0.006130 934205.000000 1 0 0
6.802930 2.261538 -4.514353 8.471941 0.320943 2.132772 0.001937 0.001568 -1003090.000000 1 0 0
4.963130 4.431138 -0.041453 6.653523 0.728829 1.577027 -0.001627 -0.001462 -711282.000000 1 0 0
-5.859370 12.335238 1.993947 13.800947 -1.127339 1.425810 -0.008719 0.007660 -942538.000000 1 0 0
6.589730 -7.229362 6.468647 11.727388 -0.831651 0.986533 -0.003130 -0.001859 -1991290.000000 1 0 0
-0.244370 4.936638 7.803347 9.237009 -1.521335 0.564621 -0.006478 0.002955 -704175.000000 1 0 0
-5.786870 -3.445362 -1.601753 6.922716 0.537012 1.804288 0.000831 0.000865 -920932.000000 1 0 0
2.209930 -6.540862 -5.250353 8.673688 -1.244973 2.220964 -0.002570 0.001981 -1950030.000000 1 0 0
-14.514470 -4.759862 -3.660753 15.707553 0.316888 1.806016 -0.004020 0.000539 -316008.000000 1 0 0
-12.322070 -5.060062 -6.310953 14.739937 0.389654 2.013245 -0.001366 -0.002687 -1784890.000000 1 0 0
-14.793370 -3.711462 -1.208153 15.299620 0.245813 1.649845 -0.000718 -0.002568 75300.200000 1 0 0
11.920030 2.841338 8.608047 14.975273 0.234000 0.958415 0.005587 -0.002557 -1349330.000000 1 0 0
8.783130 -6.508362 7.518147 13.267430 -0.637721 0.968347 0.002967 -0.007387 11997.300000 1 0 0
-8.953170 -1.646162 -9.731153 13.325330 0.181833 2.389520 -0.000981 0.001432 69349.400000 1 0 0
-8.805370 5.245038 -3.903753 10.967417 -0.537225 1.934717 -0.000831 0.000272 -1107710.000000 1 0 0
-4.003470 -6.224162 4.127647 8.473809 0.999206 1.062023 0.004124 -0.000049 -1641020.000000 1 0 0
-0.201570 -9.195262 3.530647 9.851850 1.548879 1.204271 -0.007384 0.000697 521055.000000 1 0 0
7.969030 -10.318462 3.210847 13.427049 -0.913170 1.329324 -0.004098 -0.000560 -225870.000000 1 0 0
0.031730 6.463838 9.726247 11.678275 1.565887 0.586560 -0.005281 0.003095 626602.000000 1 0 0
-0.149770 3.407538 -9.683153 10.266313 -1.526872 2.802921 0.001114 0.000406 323804.000000 1 0 0
4.395530 -3.020862 11.065947 12.284197 -0.602123 0.449124 0.004789 -0.004896 -1798110.000000 1 0 0
8.453130 -9.214662 0.937547 12.539713 -0.828474 1.495960 -0.002079 -0.003742 -789176.000000 1 0 0
-0.282270 -0.551062 11.460547 11.477260 1.097414 0.053972 -0.000251 -0.000379 -1566790.000000 1 0 0
10.998830 5.980838 11.304747 16.868373 0.498048 0.836353 0.001820 -0.000226 -25812.400000 1 0 0
-6.367870 -2.852762 -11.891653 13.787655 0.421184 2.610957 -0.000159 -0.000327 339572.000000 1 0 0
-1.662570 2.839738 8.528547 9.141355 -1.041132 0.368238 -0.005260 0.002461 -1328190.000000 1 0 0
-1.600570 13.703138 -6.802353 15.382126 -1.454520 2.028874 0.014975 -0.001401 601286.000000 1 0 0
7.823030 3.063138 9.743747 12.865583 0.373204 0.711551 0.012213 -0.003206 362494.000000 1 0 0
6.435630 8.433938 -7.922253 13.240496 0.918987 2.212218 0.008581 -0.001512 35182.600000 1 0 0
6.552830 -2.877962 -4.065753 8.231196 -0.413831 2.087417 0.001240 -0.001624 -1648250.000000 1 0 0
2.019830 8.143038 1.026547 8.452371 1.327660 1.449045 -0.005656 0.002051 780631.000000 1 0 0
-17.478770 6.259038 6.338747 19.617917 -0.343867 1.241782 0.002174 0.003764 -375934.000000 1 0 0
-14.587070 2.932638 -10.140053 18.005656 -0.198399 2.169000 0.003796 0.000194 -1158230.000000 1 0 0
-18.274170 0.174438 -4.412353 18.800121 -0.009545 1.807704 0.002756 -0.001889 491803.000000 1 0 0
-12.993370 7.968838 0.128947 15.242922 -0.550142 1.562337 -0.003499 0.002674 -598425.000000 1 0 0
-12.736570 -4.387662 -12.662053 18.487817 0.331761 2.325244 0.000509 0.007297 -196530.000000 1 0 0
-17.197670 -0.754462 -8.520453 19.207477 0.043842 2.030409 -0.015277 -0.010067 -429181.000000 1 0 0
-16.650170 -2.041962 -2.023353 16.896500 0.122030 1.690834 -0.004786 -0.000765 -1275460.000000 1 0 0
-15.265770 4.158938 1.846247 15.929505 -0.265980 1.454634 0.000158 0.001891 -1156690.000000 1 0 0
-13.024070 5.960138 4.481747 15.007855 -0.429177 1.267543 -0.003929 0.006223 -718343.000000 1 0 0
-9.850970 14.344638 2.802247 17.625630 -0.969028 1.411132 0.005091 0.000769 458548.000000 1 0 0
-11.745770 2.520738 -6.338353 13.582781 -0.211402 2.056291 -0.002531 0.001473 145835.000000 1 0 0
-15.757770 10.737438 4.003247 19.483990 -0.598137 1.363859 -0.003381 0.004965 710780.000000 1 0 0
-12.696570 1.141738 -8.457153 15.298035 -0.089684 2.156548 -0.001123 -0.000942 754945.000000 1 0 0
-12.111070 14.280938 4.146447 19.178536 -0.867431 1.352873 0.004726 -0.000964 510709.000000 1 0 0
-10.331570 11.156738 -0.886853 15.231567 -0.823780 1.629054 0.000212 0.002501 424260.000000 1 0 0
-16.992870 5.626638 8.870247 19.977437 -0.319755 1.110724 -0.001744 0.005073 276412.000000 1 0 0
-11.809370 12.562138 -9.153753 19.520751 -0.816276 2.058869 0.002656 -0.014254 -1174520.000000 1 0 0
-17.021370 -0.548462 3.096347 17.309397 0.032211 1.390946 -0.001806 -0.005392 680768.000000 1 0 0
-13.301870 14.750438 -0.482753 19.868271 -0.836990 1.595096 0.030161 -0.012879 -25726.800000 1 0 0
-16.316870 4.676638 -10.398353 19.905701 -0.279131 2.120437 0.001134 0.004062 698309.000000 1 0 0
-12.036370 7.646838 -8.960653 16.841663 -0.565980 2.131819 0.002057 0.003953 42157.300000 1 0 0
-14.827370 13.297838 -1.990153 20.016096 -0.731069 1.670388 0.028639 -0.021731 451708.000000 1 0 0
-11.974170 10.580938 -5.534053 16.910433 -0.723706 1.904195 0.006522 -0.005463 2206340.000000 1 0 0
-17.550670 2.894738 -0.579553 17.797230 -0.163464 1.603366 -0.003895 0.000235 -327653.000000 1 0 0
-9.239470 15.359638 0.528347 17.932246 -1.029244 1.541329 0.004578 -0.005043 31509.200000 1 0 0
-8.139770 13.210838 -3.659553 15.942848 -1.018591 1.802403 -0.000242 -0.002010 -796880.000000 1 0 0
-17.426670 11.466338 1.966247 20.953087 -0.581962 1.476818 0.009579 -0.000307 412960.000000 1 0 0
-8.186570 15.734738 -7.379253 19.210811 -1.091052 1.965051 0.018869 -0.023623 -77960.100000 1 0 0
-6.324470 15.406138 -5.540353 17.551168 -1.181257 1.891958 0.003114 -0.004730 1013930.000000 1 0 0
-17.211370 5.272438 0.052747 18.000907 -0.297258 1.567866 0.000601 0.004500 586277.000000 1 0 0
-5.391270 12.428338 -12.151853 18.198816 -1.161505 2.301948 -0.011107 0.001654 -579670.000000 1 0 0
-11.111670 3.766138 -11.441453 16.387795 -0.326784 2.343633 -0.004377 0.002741 -12134.800000 1 0 0
-11.572070 10.990638 1.349747 16.016515 -0.759634 1.486424 -0.001962 0.001618 -28240.500000 1 0 0
-12.924670 0.225938 -11.013053 16.981916 -0.017479 2.276430 -0.002468 -0.000699 694314.000000 1 0 0
-14.079970 -2.107962 -13.035453 19.303162 0.148610 2.312170 -0.008780 0.007090 -61364.900000 1 0 0
-18.677170 -2.225062 -3.536753 19.138866 0.118574 1.756659 -0.009085 0.001261 975401.000000 1 0 0
-18.397570 4.742138 -5.041353 19.656390 -0.252268 1.830169 0.025975 0.000822 558765.000000 1 0 0
-8.172470 15.498438 -2.376653 17.681610 -1.085541 1.705618 0.007279 -0.007673 -72374.200000 1 0 0
-16.232970 8.976838 -5.348153 19.305327 -0.505144 1.851498 0.014719 0.001209 156743.000000 1 0 0
-18.205570 1.668638 2.294547 18.425311 -0.091400 1.445940 0.009818 -0.003185 -122500.000000 1 0 0
-15.613770 -2.690162 -8.500853 17.980302 0.170619 2.063247 -0.012418 -0.006996 -275285.000000 1 0 0
-9.698170 10.596738 -7.129453 16.036660 -0.829645 2.031493 0.003049 -0.005462 295351.000000 1 0 0
-14.025770 12.240938 -7.958253 20.245902 -0.717552 1.974775 0.011150 -0.005885 -64957.100000 1 0 0
-11.026070 6.592138 -3.756053 13.384261 -0.538851 1.855249 0.001495 0.000616 -1098680.000000 1 0 0
-12.982770 4.973638 -12.680953 18.817437 -0.365849 2.310263 0.000155 0.002557 -102031.000000 1 0 0
-17.458670 9.082438 2.807347 19.879060 -0.479696 1.429101 0.002300 0.005727 824389.000000 1 0 0
-13.521170 8.751038 -6.509253 17.371617 -0.574411 1.954876 0.003085 0.001441 -806100.000000 1 0 0
-15.899970 6.931038 -3.722953 17.740031 -0.411079 1.782230 0.007447 0.003993 -705803.000000 1 0 0
-14.726770 -0.329362 -9.257053 17.397680 0.022361 2.131858 -0.004794 -0.007148 -1498410.000000 1 0 0
-10.264470 5.851838 -6.063753 13.280529 -0.518149 2.044955 -0.005202 0.000022 438118.000000 1 0 0
-12.698770 12.183038 -0.763353 17.614422 -0.764674 1.614147 0.015521 -0.008408 -454671.000000 1 0 0
-10.686370 3.457138 -14.028753 17.970982 -0.312883 2.466475 -0.005674 0.012265 344939.000000 1 0 0
-10.974870 6.445038 -11.815253 17.366245 -0.530995 2.319046 -0.008444 0.000690 -730216.000000 1 0 0
-5.667970 11.786838 -14.628653 19.622765 -1.122567 2.412072 -0.010066 -0.000767 -214828.000000 1 0 0
-15.390070 13.324238 3.681147 20.686721 -0.713578 1.391896 -0.005189 -0.003259 -14496.200000 1 0 0
-15.092170 11.126938 -3.375553 19.051947 -0.635301 1.748913 0.020357 -0.001136 931726.000000 1 0 0
-18.327270 7.769438 -4.385053 20.383368 -0.400962 1.787620 0.024625 0.006374 -869565.000000 1 0 0
-4.210070 16.295838 -10.544353 19.861077 -1.317972 2.130465 0.012811 -0.007520 231825.000000 1 0 0
-15.838170 4.405938 -4.351653 17.005787 -0.271325 1.829567 0.001867 0.002331 1074280.000000 1 0 0
-18.532470 -1.746962 -6.157353 19.606563 0.093987 1.890247 -0.011465 -0.001241 381006.000000 1 0 0
-10.824370 8.576638 -5.909553 15.021602 -0.670056 1.975127 0.000954 0.001416 1113130.000000 1 0 0
-11.456470 13.703338 -6.770353 19.101567 -0.874466 1.933111 0.005217 -0.008024 228705.000000 1 0 0
-9.624670 10.526438 -4.383553 14.921652 -0.830119 1.868966 -0.002908 0.001604 -71625.600000 1 0 0
-11.086970 6.221238 -0.233253 12.715310 -0.511349 1.589142 -0.006172 0.002108 -197379.000000 1 0 0
-14.462770 9.285838 -1.601353 17.261600 -0.570767 1.663700 0.007406 0.001840 186424.000000 1 0 0
-18.618370 3.235738 4.792447 19.495673 -0.172074 1.322430 0.005544 0.001804 465475.000000 1 0 0
-14.721070 13.019638 0.548647 19.660160 -0.724141 1.542886 0.008901 -0.012907 -495573.000000 1 0 0
-16.925070 2.534938 -9.015353 19.343228 -0.148669 2.055643 0.008661 -0.003334 438900.000000 1 0 0
-9.122770 8.612838 -8.873853 15.367211 -0.756654 2.186403 0.001771 0.005336 -2709080.000000 1 0 0
-17.663470 4.723938 -2.478753 18.451503 -0.261325 1.705542 0.005570 0.005689 1006260.000000 1 0 0
-13.574670 5.795438 -4.373353 15.394316 -0.403504 1.858852 0.001706 0.004833 -14102.500000 1 0 0
-12.015070 9.675138 3.529447 15.824892 -0.677934 1.345873 -0.010419 0.005478 565250.000000 1 0 0
-17.564770 2.577538 -3.983253 18.194261 -0.145705 1.791513 0.011089 -0.002515 908820.000000 1 0 0
-11.296870 1.397038 -12.644753 17.013546 -0.123041 2.408662 -0.003327 0.007520 -379490.000000 1 0 0
-10.834770 12.043138 3.582047 16.590976 -0.838167 1.353179 -0.004229 0.003516 447454.000000 1 0 0
-16.418470 13.269738 -4.054153 21.496238 -0.679733 1.760531 0.026178 -0.006211 529136.000000 1 0 0
-11.082370 4.140638 -4.433053 12.633913 -0.357564 1.929313 -0.001226 -0.001116 -386412.000000 1 0 0
-11.138770 15.213538 -8.937953 20.866503 -0.938810 2.013451 0.004609 -0.013857 -218095.000000 1 0 0
-15.500270 7.229438 -0.350653 17.106902 -0.436414 1.591295 0.008595 0.001867 251080.000000 1 0 0
-12.767170 8.387338 -4.075753 15.810118 -0.581243 1.831535 0.002377 0.003156 807579.000000 1 0 0
-19.153270 1.984538 -6.059553 20.186736 -0.103245 1.875672 0.007361 -0.001138 388768.000000 1 0 0
-12.769370 10.183138 -8.931553 18.615202 -0.673194 2.071222 0.002436 -0.007639 772018.000000 1 0 0
-16.482570 10.890938 -1.128453 19.787901 -0.583899 1.627855 0.002352 -0.003003 548847.000000 1 0 0
-10.770170 6.694138 -14.485453 19.251919 -0.556110 2.422519 -0.003829 0.000855 209155.000000 1 0 0
-13.800270 13.136638 -4.439453 19.563421 -0.760767 1.799717 0.021706 -0.008900 1354740.000000 1 0 0
-18.092570 7.717038 0.097947 19.669859 -0.403167 1.565817 0.021125 0.005353 -168685.000000 1 0 0
-12.778870 6.676538 -2.052053 14.563193 -0.481459 1.712174 -0.001938 0.004076 249974.000000 1 0 0
-13.925670 8.475938 -10.523553 19.403890 -0.546760 2.144019 0.004042 0.002239 -8269.390000 1 0 0
-14.893370 1.394938 -0.849153 14.982636 -0.093389 1.627502 -0.000256 -0.000440 -714643.000000 1 0 0
-13.263970 2.792838 -2.323953 13.752585 -0.207527 1.740594 -0.001931 -0.001964 -754319.000000 1 0 0
-11.424370 9.310138 -10.819153 18.282477 -0.683783 2.204058 -0.000438 -0.002140 -398669.000000 1 0 0
-15.263570 4.234938 -7.983853 17.738466 -0.270646 2.037659 -0.001249 0.005010 460863.000000 1 0 0
-18.368170 10.996238 4.290947 21.833899 -0.539432 1.372982 0.017440 0.008837 -74749.100000 1 0 0
-15.439770 5.990138 -6.154653 17.667711 -0.370091 1.926613 0.004801 0.007467 699225.000000 1 0 0
-7.669470 11.372138 -13.041353 18.926784 -0.977453 2.330963 -0.011057 0.001116 -2254080.000000 1 0 0
-16.795070 9.146438 -2.833953 19.332951 -0.498681 1.717913 0.004907 0.003384 372578.000000 1 0 0
-20.554270 -0.957662 -4.688953 21.104061 0.046558 1.794849 -0.003324 -0.000314 -633232.000000 1 0 0
-15.292270 4.426838 4.255847 16.479158 -0.281780 1.309579 -0.002511 0.006682 199729.000000 1 0 0
-6.986770 12.614338 -9.279753 17.147894 -1.064983 2.142612 0.005582 -0.010747 -2758870.000000 1 0 0
-17.118570 1.445538 5.938847 18.177044 -0.084243 1.237963 0.005848 -0.003725 31894.200000 1 0 0
-10.443170 14.282038 -3.058253 17.955203 -0.939430 1.741958 0.016975 -0.014176 1486010.000000 1 0 0
-10.027870 8.622038 -12.845953 18.436817 -0.710160 2.341661 -0.012442 0.002389 618230.000000 1 0 0
-13.503870 11.691838 2.949047 18.103880 -0.713603 1.407171 -0.003903 0.002249 1084520.000000 1 0 0
-16.527370 6.812438 1.966047 17.984121 -0.390972 1.461256 -0.006633 0.004516 858541.000000 1 0 0
-9.393670 13.347338 -8.282753 18.302908 -0.957534 2.040405 0.011490 -0.018280 -96545.600000 1 0 0
-5.585170 9.911438 -12.888353 17.191287 -1.057642 2.418409 -0.002743 0.005080 -462435.000000 1 0 0
-15.815070 1.886838 3.322847 16.270154 -0.118745 1.365120 -0.000491 -0.000836 -452522.000000 1 0 0
-18.570070 -4.915862 4.758747 19.790373 0.258784 1.327959 0.015630 -0.010693 -231610.000000 1 0 0
-5.361570 14.553138 -9.008253 17.935687 -1.217813 2.096999 0.009235 -0.008896 -802715.000000 1 0 0
-15.326070 -0.765562 -6.678953 16.735678 0.049910 1.981315 -0.001908 -0.003522 471991.000000 1 0 0
-8.957470 11.126538 -9.486753 17.147437 -0.892981 2.157052 -0.003710 -0.007849 414477.000000 1 0 0
-16.587670 1.402738 -6.069353 17.718790 -0.084364 1.920413 -0.004506 -0.004443 -1317790.000000 1 0 0
-11.138070 8.655038 -1.388253 14.173691 -0.660601 1.668899 -0.002672 0.002235 -1009080.000000 1 0 0
-10.841070 11.134938 -12.592553 20.002200 -0.798770 2.251781 -0.000106 -0.006170 -105465.000000 1 0 0
-13.902170 11.874438 -10.617053 21.142242 -0.706894 2.096906 0.004507 -0.010024 -70550.500000 1 0 0
-13.159870 5.709538 -7.513053 16.193423 -0.409351 2.053253 -0.000575 0.005982 145477.000000 1 0 0
-8.953770 15.354738 -4.977153 18.458332 -1.042875 1.843818 0.012136 -0.016659 299783.000000 1 0 0
-8.666570 6.292638 -12.868053 16.741968 -0.628017 2.447463 -0.005818 0.001987 -922263.000000 1 0 0
-16.241370 7.572338 4.430147 18.459377 -0.436275 1.328436 -0.001640 0.012651 -45462.500000 1 0 0
-12.628870 5.397238 -10.128653 17.064822 -0.403879 2.206247 -0.001393 0.004683 260936.000000 1 0 0
-12.594470 9.221538 -13.214953 20.452198 -0.632005 2.273310 0.016801 -0.004045 -253860.000000 1 0 0
-10.824370 5.246738 -8.431953 14.689897 -0.451345 2.182175 -0.002465 0.004769 -474156.000000 1 0 0
-17.643770 -4.404262 -2.460353 18.350844 0.244622 1.705274 -0.014409 0.000597 248173.000000 1 0 0
-8.951670 13.302938 -10.882653 19.378666 -0.978484 2.167089 0.003851 -0.013698 211169.000000 1 0 0
-14.886370 6.158838 6.140047 17.240518 -0.392281 1.206662 -0.005561 0.002128 -1500490.000000 1 0 0
-16.304670 -3.108462 -4.406753 17.173359 0.188388 1.830303 -0.010403 0.000842 -1343910.000000 1 0 0
-11.222270 -1.238362 -12.564453 16.891961 0.109904 2.409553 -0.003406 0.006492 131749.000000 1 0 0
-15.448070 6.769338 -8.489953 18.882428 -0.412997 2.037138 -0.000103 0.005568 435364.000000 1 0 0
-14.844570 9.383838 1.041047 17.592653 -0.563717 1.511587 0.002451 0.000558 -38933.700000 1 0 0
-19.338870 5.340238 7.824447 21.534438 -0.269426 1.198940 0.014096 0.003132 -561620.000000 1 0 0
-16.256770 0.660038 1.016947 16.301914 -0.040579 1.508374 0.001930 -0.003129 374925.000000 1 0 0
-17.489070 3.709038 7.106747 19.238773 -0.208981 1.192436 0.006303 0.004116 738108.000000 1 0 0
-15.334270 4.040038 -1.427353 15.921654 -0.257611 1.660565 -0.002513 -0.000846 -1002080.000000 1 0 0
-10.785570 13.327238 0.626747 17.156241 -0.890418 1.534256 0.005674 -0.004018 -556684.000000 1 0 0
-13.419570 3.472638 0.096247 13.861938 -0.253219 1.563853 0.000894 0.000530 -141942.000000 1 0 0
-14.995570 0.288638 -4.253553 15.589841 -0.019246 1.847141 -0.004180 -0.002889 -467853.000000 1 0 0
-18.619370 6.828338 3.573747 20.151397 -0.351503 1.392508 0.004159 0.012783 228320.000000 1 0 0
-14.039570 1.484738 -6.287053 15.454482 -0.105362 1.989757 0.001093 -0.000312 -795880.000000 1 0 0
-14.020470 12.061138 5.443147 19.278809 -0.710416 1.284566 -0.006743 -0.004220 -17413.800000 1 0 0
17.812830 5.507638 6.074847 19.609558 0.299871 1.255824 0.016311 -0.005623 -369164.000000 1 0 0
18.493930 7.730238 -0.477553 20.050189 0.395916 1.594616 0.001178 0.010776 119911.000000 1 0 0
16.647430 5.106238 8.285847 19.283824 0.297618 1.126659 0.010687 -0.010607 421392.000000 1 0 0
11.530330 12.144038 10.989647 20.029941 0.811315 0.990035 -0.010497 -0.001317 463892.000000 1 0 0
-2.255370 16.222538 -0.469953 16.385307 -1.432655 1.599482 -0.003296 -0.004613 -96370.400000 1 0 0
14.973330 12.602838 3.280547 19.844247 0.699647 1.404719 -0.001114 0.008630 208236.000000 1 0 0
13.492930 11.668838 6.697147 19.054467 0.713030 1.211651 0.002207 0.001024 650183.000000 1 0 0
-0.456670 15.895638 8.587947 18.072982 -1.542075 1.075626 -0.003453 0.004020 -22824.200000 1 0 0
0.956330 12.911138 9.449847 16.028464 1.496861 0.940274 -0.002956 0.005453 -1476610.000000 1 0 0
0.824430 15.628438 -3.896653 16.127978 1.518093 1.814819 0.003132 -0.005381 397367.000000 1 0 0
5.666730 10.361338 13.903947 18.242503 1.070328 0.704133 0.004565 0.005750 489469.000000 1 0 0
-1.243470 16.560638 -2.729753 16.830107 -1.495851 1.733711 0.003360 -0.003504 355120.000000 1 0 0
8.667130 10.004938 3.295247 13.640989 0.856923 1.326813 0.004565 -0.001967 440247.000000 1 0 0
12.639330 13.628138 -4.911253 19.224963 0.823024 1.829122 0.020394 -0.002533 9704.670000 1 0 0
2.456330 11.616438 7.841047 14.228746 1.362413 0.987149 -0.001566 0.008239 406143.000000 1 0 0
-0.321270 15.036438 -8.688653 17.369236 -1.549433 2.094663 0.012416 -0.004454 -1255070.000000 1 0 0
2.419930 15.973838 0.217247 16.157560 1.420446 1.557350 0.002179 -0.009703 -1012680.000000 1 0 0
1.980030 13.547138 5.210347 14.648999 1.425665 1.207155 -0.002221 0.005729 -46661.100000 1 0 0
17.469730 9.122038 -2.462553 19.861199 0.481220 1.695104 -0.011614 0.013745 257736.000000 1 0 0
-7.143370 14.993738 7.150247 18.082200 -1.126187 1.164260 0.002540 -0.008734 -637118.000000 1 0 0
8.494430 15.647938 -0.181153 17.805789 1.073462 1.580970 0.004846 -0.005802 -549823.000000 1 0 0
15.604230 10.292138 2.065347 18.806535 0.583076 1.460754 0.000412 0.002815 759901.000000 1 0 0
14.185830 7.384338 8.649847 18.182026 0.479947 1.074996 0.007246 -0.005973 -826933.000000 1 0 0
4.156530 18.392738 -1.840853 18.946195 1.348542 1.668112 0.008616 -0.014631 -682709.000000 1 0 0
-0.377470 17.672338 -4.788253 18.313421 -1.549440 1.835332 0.011994 -0.005285 433231.000000 1 0 0
1.440730 13.666838 -0.674053 13.759088 1.465766 1.619806 0.002410 -0.007868 -223405.000000 1 0 0
10.340030 14.694438 4.186947 18.449208 0.957612 1.341857 0.002996 0.000278 -194327.000000 1 0 0
-1.731670 15.482238 -5.047853 16.376177 -1.459410 1.884143 0.010495 -0.006853 179221.000000 1 0 0
14.954430 8.668038 -6.328053 18.406904 0.525307 1.921743 -0.001895 0.002038 -346608.000000 1 0 0
-2.295570 18.598138 0.860747 18.759031 -1.447987 1.524896 -0.008652 -0.001906 -2107490.000000 1 0 0
-3.615370 19.374138 3.402947 20.000204 -1.386310 1.399819 -0.007221 -0.004768 -338801.000000 1 0 0
1.880130 17.784038 -2.745853 18.092722 1.465467 1.723151 -0.005012 -0.004836 -779303.000000 1 0 0
2.957830 12.273838 3.256147 13.038342 1.334319 1.318388 -0.000946 0.001828 -845328.000000 1 0 0
-2.527670 16.202938 1.901047 16.508734 -1.416043 1.455386 -0.007263 -0.001707 -726932.000000 1 0 0
11.834930 12.766138 -2.602853 17.601554 0.823232 1.719217 0.004673 0.005942 553938.000000 1 0 0
7.254530 11.646838 4.789247 14.533201 1.013726 1.234982 -0.003937 0.004734 456403.000000 1 0 0
7.069630 15.605338 1.892547 17.236240 1.145428 1.460774 0.009815 -0.007460 -2098230.000000 1 0 0
5.607530 12.156138 10.338747 16.914662 1.138592 0.913183 -0.009397 0.013746 1261960.000000 1 0 0
-1.317470 14.220938 3.186847 14.633072 -1.478417 1.351253 -0.004784 0.001552 -1270450.000000 1 0 0
4.645630 15.951138 1.559047 16.686860 1.287394 1.477230 0.005221 -0.014485 -1838320.000000 1 0 0
7.559130 12.930438 12.014447 19.201136 1.041778 0.894748 -0.001903 0.005525 497139.000000 1 0 0
0.762230 17.290938 -9.410153 19.700470 1.526742 2.068787 0.012928 -0.010405 141930.000000 1 0 0
10.002230 9.474438 15.497447 20.735970 0.758306 0.726701 0.018984 -0.013128 -340546.000000 1 0 0
13.504330 7.594838 -0.153253 15.494256 0.512314 1.580687 0.001561 -0.000043 -531666.000000 1 0 0
12.416330 13.580038 -0.113853 18.400969 0.830133 1.576984 0.004945 0.011469 635459.000000 1 0 0
9.437130 12.321638 3.450147 15.899236 0.917197 1.352055 0.002993 0.004245 176603.000000 1 0 0
-0.599470 12.975038 0.818047 13.014614 -1.524627 1.507899 -0.000562 -0.002489 -941714.000000 1 0 0
15.988730 7.477938 -0.998153 17.679235 0.437476 1.627285 0.000366 0.006626 -282989.000000 1 0 0
-4.260570 18.580038 -2.449853 19.219054 -1.345384 1.698614 0.002429 -0.007157 15991.800000 1 0 0
11.445230 9.020638 -3.314453 14.944925 0.667478 1.794434 0.005572 -0.000400 87578.900000 1 0 0
14.758630 9.646738 7.676447 19.230303 0.578925 1.160169 0.005983 -0.003692 16926.500000 1 0 0
4.609130 13.748638 4.676347 15.236054 1.247328 1.258834 -0.000912 0.004956 1181120.000000 1 0 0
2.234430 16.080838 5.676047 17.198940 1.432730 1.234468 -0.000905 0.004549 283083.000000 1 0 0
6.204930 18.467738 5.354447 20.204668 1.246659 1.302582 0.008632 -0.016458 -342006.000000 1 0 0
10.776130 16.910838 -0.637353 20.062593 1.003449 1.602570 0.005527 0.003208 -351307.000000 1 0 0
10.072430 13.517138 -4.408053 17.424058 0.930400 1.826562 0.018340 -0.003394 -27442.300000 1 0 0
16.528930 7.866238 2.168647 18.433292 0.444188 1.452875 -0.002280 -0.002314 -5941.520000 1 0 0
4.075030 14.135438 -0.522153 14.720364 1.290122 1.606275 0.002704 -0.007862 453962.000000 1 0 0
5.614430 13.139238 -2.373653 14.484323 1.166977 1.735416 0.000712 -0.007524 -505401.000000 1 0 0
-6.127970 16.971638 -3.122653 18.312276 -1.224293 1.742156 0.005377 -0.011701 -1622550.000000 1 0 0
18.094530 9.868438 2.700647 20.786813 0.499291 1.440507 0.005161 0.003686 141132.000000 1 0 0
8.028430 12.817138 9.454447 17.835955 1.011204 1.012104 -0.007797 0.008575 226283.000000 1 0 0
-2.481770 15.782338 6.784247 17.357056 -1.414824 1.169226 -0.005362 0.004058 1159600.000000 1 0 0
11.251430 15.956138 6.220547 20.491174 0.956624 1.262357 0.004052 -0.004916 424266.000000 1 0 0
13.516530 11.798238 1.185347 17.980547 0.717625 1.504825 0.002600 0.004697 -583936.000000 1 0 0
17.434030 7.827938 -5.772853 19.963663 0.422025 1.864154 -0.004216 0.016985 308212.000000 1 0 0
9.423030 9.243238 8.070447 15.471363 0.775767 1.022027 -0.006903 0.007285 -893140.000000 1 0 0
-2.025570 14.198438 -1.883253 14.465311 -1.429091 1.701358 -0.000299 -0.001135 551704.000000 1 0 0
10.952130 11.542638 0.670047 15.925784 0.811643 1.528711 0.003281 0.001991 -947805.000000 1 0 0
11.711830 9.612938 -0.658053 15.166034 0.687289 1.614200 0.002860 0.002191 -2455830.000000 1 0 0
-0.000570 16.043438 11.111647 19.515650 -1.570761 0.965056 0.001796 -0.002120 -870480.000000 1 0 0
2.098530 20.042438 -1.719353 20.225215 1.466472 1.655909 0.004884 -0.012610 -744861.000000 1 0 0
9.234130 14.222238 1.834347 17.055968 0.994932 1.463039 0.006200 0.000485 4037.110000 1 0 0
8.428630 11.720938 -5.177253 15.337084 0.947360 1.915124 0.012694 -0.002540 -433993.000000 1 0 0
10.499930 9.890738 10.276147 17.710856 0.755531 0.951801 -0.017977 0.002669 -546982.000000 1 0 0
-4.976970 15.745238 5.766147 17.490889 -1.264641 1.234847 -0.012124 0.001146 681783.000000 1 0 0
14.443530 9.213938 -1.918353 17.239266 0.567842 1.682305 0.012266 0.007395 -370667.000000 1 0 0
12.228830 9.429038 6.996147 16.952791 0.656837 1.145397 -0.002822 0.000521 -1773850.000000 1 0 0
3.352030 12.993738 9.774547 16.601660 1.318328 0.941261 -0.007413 0.010076 -1233400.000000 1 0 0
8.528830 12.601038 -2.617653 15.439534 0.975787 1.741161 0.009981 -0.002909 -709562.000000 1 0 0
9.384030 16.879838 2.015647 19.417821 1.063411 1.466805 0.003322 -0.001589 239109.000000 1 0 0
9.736630 14.354538 -7.524353 18.906893 0.974786 1.980098 0.019051 -0.007652 -210221.000000 1 0 0
6.478330 11.364338 7.345447 15.002418 1.052684 1.059145 -0.007580 0.010220 -494954.000000 1 0 0
5.526030 16.866738 -5.684453 18.636976 1.254189 1.880745 -0.002814 -0.005473 -1296090.000000 1 0 0
-4.061670 17.322838 -4.718753 18.407729 -1.340488 1.830037 0.001186 -0.010579 185771.000000 1 0 0
-0.076270 18.522838 -0.455053 18.528584 -1.566679 1.595358 -0.004859 -0.006300 -472406.000000 1 0 0
6.715430 15.619338 -2.785553 17.228465 1.164746 1.733192 0.001575 -0.001912 163556.000000 1 0 0
-0.827570 20.680438 0.741047 20.710252 -1.530801 1.535007 -0.003808 -0.006246 -8653.170000 1 0 0
-1.248670 18.947538 4.278147 19.464607 -1.504990 1.349196 -0.005539 -0.003444 593713.000000 1 0 0
7.281630 13.855338 -4.367253 16.250090 1.086921 1.842894 0.004464 -0.001306 327979.000000 1 0 0
-0.808770 12.036538 7.800747 14.366072 -1.503704 0.996793 -0.001327 0.010066 752175.000000 1 0 0
7.795630 10.691438 10.869947 17.124090 0.940775 0.883079 -0.004018 0.001821 -345191.000000 1 0 0
1.509830 15.997438 -7.237153 17.623109 1.476696 1.993977 0.004744 -0.008862 -386951.000000 1 0 0
9.158330 7.103138 14.811747 18.807377 0.659681 0.663973 0.012148 -0.004922 -257685.000000 1 0 0
11.315530 11.253138 -4.790453 16.662016 0.782634 1.862420 0.005865 0.000795 -120917.000000 1 0 0
-3.159970 17.000938 4.479347 17.862862 -1.387023 1.317328 -0.007993 -0.001110 -850033.000000 1 0 0
3.934930 15.298338 -6.719053 17.165911 1.319041 1.972969 -0.002646 -0.011443 -671301.000000 1 0 0
-4.274870 14.201838 9.538847 17.633954 -1.278415 0.999246 0.007969 -0.001477 295759.000000 1 0 0
6.184230 17.584038 0.327047 18.642694 1.232612 1.553253 0.005788 -0.016443 -437472.000000 1 0 0
9.751230 10.670438 -2.175553 14.617721 0.830379 1.720181 0.009712 -0.000758 -1757420.000000 1 0 0
7.175230 18.156838 -2.696153 19.708474 1.194451 1.708028 0.001304 0.000485 240662.000000 1 0 0
3.589130 10.414238 10.454947 15.186972 1.238907 0.811494 -0.004472 0.007808 902354.000000 1 0 0
0.061430 18.604438 2.046947 18.716807 1.567494 1.461213 -0.003498 -0.009299 286081.000000 1 0 0
-0.796870 17.194838 -7.342053 18.713717 -1.524486 1.973965 0.021566 -0.008938 -387132.000000 1 0 0
10.298730 8.747138 13.138347 18.846550 0.704112 0.799421 -0.000746 -0.002923 -530821.000000 1 0 0
3.664230 11.459038 5.495147 13.226216 1.261304 1.142333 -0.006808 0.007071 759073.000000 1 0 0
12.910030 13.785338 8.101247 20.550782 0.818175 1.165592 -0.000640 -0.007424 -228598.000000 1 0 0
-0.452970 17.428638 6.689747 18.673921 -1.544812 1.204414 -0.002360 -0.001517 -505982.000000 1 0 0
12.276430 13.652038 5.654647 19.211036 0.838402 1.272028 0.002064 0.000992 254162.000000 1 0 0
4.846830 14.627038 -4.395453 16.023795 1.250822 1.848666 -0.004447 -0.005166 -711713.000000 1 0 0
3.917530 17.575538 4.622847 18.590785 1.351485 1.319496 0.006048 -0.012057 -1043210.000000 1 0 0
7.127130 11.643438 2.121447 13.815432 1.021516 1.416630 0.007228 -0.001593 794890.000000 1 0 0
6.354330 8.786738 11.842247 16.056871 0.944687 0.741407 -0.001693 0.000127 1311580.000000 1 0 0
-5.418570 14.981638 1.734047 16.025520 -1.223754 1.462379 -0.006505 0.006866 -31317.900000 1 0 0
6.847130 13.720938 6.174547 16.530952 1.107927 1.188002 -0.005304 0.004585 -117764.000000 1 0 0
6.026130 15.852838 4.770947 17.617850 1.207536 1.296570 0.002239 -0.009629 578887.000000 1 0 0
1.324230 18.015938 4.204647 18.547417 1.497425 1.342111 0.004078 -0.008708 -213279.000000 1 0 0
7.382230 17.973838 -7.059653 20.673531 1.181082 1.919290 0.000364 -0.005883 144204.000000 1 0 0
-2.267570 18.896438 -5.993453 19.953414 -1.451368 1.875879 0.015156 -0.009459 1431250.000000 1 0 0
13.509230 9.857238 -4.566353 17.335398 0.630360 1.837354 0.004365 0.001208 -961247.000000 1 0 0
-1.279970 18.047238 9.958847 20.652355 -1.499992 1.067617 0.003773 0.000036 -41408.400000 1 0 0
3.466230 11.865738 -1.587553 12.463178 1.286584 1.698523 0.003128 -0.008206 -866015.000000 1 0 0
4.053430 14.078238 -10.837353 18.222933 1.290457 2.207701 0.006014 -0.014664 539080.000000 1 0 0
11.589930 13.227638 2.388147 17.748243 0.851292 1.435830 0.001757 0.001891 -22778.900000 1 0 0
15.809730 6.479138 -7.330953 18.592194 0.388943 1.976105 -0.004981 0.001469 85284.000000 1 0 0
2.513630 16.073238 2.981847 16.539611 1.415667 1.389520 0.002388 -0.008488 -450094.000000 1 0 0
13.512530 10.539638 3.502547 17.491149 0.662420 1.369186 0.004613 0.004652 -995872.000000 1 0 0
-4.914070 19.393238 -6.028353 20.894660 -1.322629 1.863468 -0.003073 -0.017290 -303389.000000 1 0 0
5.441130 12.039338 0.133847 13.212474 1.146325 1.560666 0.002571 -0.005035 1261940.000000 1 0 0
5.090730 15.239838 9.556047 18.694551 1.248409 1.034254 -0.004055 0.007893 -207414.000000 1 0 0
7.959130 9.319338 13.893847 18.526651 0.863959 0.722827 0.006622 -0.009609 -1678810.000000 1 0 0
-4.919170 13.592838 7.002447 16.062308 -1.223565 1.119697 -0.004464 0.002166 -1832910.000000 1 0 0
-4.484170 17.136838 0.432747 17.719093 -1.314866 1.546371 -0.006551 -0.000832 -1428090.000000 1 0 0
-0.504070 16.536338 3.483347 16.906752 -1.540323 1.363277 -0.003063 -0.002841 -1772630.000000 1 0 0
7.992030 16.837438 -4.834953 19.254834 1.127627 1.824616 0.008233 -0.001764 1044890.000000 1 0 0
3.164330 16.545138 -4.570653 17.454095 1.381824 1.835753 -0.006063 -0.005323 285461.000000 1 0 0
9.692930 14.302138 8.202447 19.125485 0.975176 1.127549 0.006636 0.001130 104510.000000 1 0 0
12.797930 10.730738 9.134847 19.036312 0.697765 1.070296 -0.000394 -0.004212 1145730.000000 1 0 0
3.797830 12.247138 12.274347 17.750366 1.270100 0.807235 -0.007283 0.006569 677491.000000 1 0 0
-3.226870 19.234538 5.967847 20.395964 -1.404580 1.273852 0.004512 -0.004576 219068.000000 1 0 0
-2.433870 15.787138 10.270747 18.990674 -1.417833 0.999371 0.005764 0.001387 -603400.000000 1 0 0
2.116130 14.290738 7.666447 16.354743 1.423788 1.082910 -0.000893 0.008305 -74770.200000 1 0 0
4.404430 17.358238 8.025247 19.624271 1.322303 1.149499 -0.001403 0.002522 -33590.500000 1 0 0
-1.710070 13.479538 9.430347 16.539460 -1.444606 0.964080 0.001497 0.003102 12775.300000 1 0 0
5.926030 17.670638 2.984847 18.875344 1.247223 1.411995 0.006278 -0.017187 515163.000000 1 0 0
7.412530 15.292738 -6.812353 18.309057 1.119456 1.952040 0.008373 -0.009840 -655312.000000 1 0 0
10.993230 7.531438 9.288647 16.243541 0.600654 0.962054 -0.005051 -0.001215 -426857.000000 1 0 0
9.120030 16.339038 -2.647153 18.898321 1.061699 1.711332 0.009728 -0.000449 -909222.000000 1 0 0
14.401930 11.201838 -6.666953 19.425371 0.661058 1.921127 0.009067 0.001767 343707.000000 1 0 0
11.437630 6.537438 16.058447 20.770922 0.519255 0.687048 0.040556 -0.006419 287114.000000 1 0 0
8.473130 8.206838 10.139447 15.554887 0.769435 0.860775 -0.004306 -0.001439 1362230.000000 1 0 0
16.291730 9.124538 4.373047 19.178144 0.510543 1.340750 0.003546 0.000774 30582.800000 1 0 0
-3.140770 14.233538 4.811847 15.349655 -1.353617 1.251938 -0.014124 0.004428 -1317830.000000 1 0 0
4.826830 14.703838 12.683947 20.009589 1.253610 0.884219 -0.012319 0.010355 -799088.000000 1 0 0
15.993330 10.517738 -4.769053 19.726968 0.581722 1.814968 0.003223 0.003873 -9457.790000 1 0 0
14.824530 13.956238 6.396847 21.341577 0.755238 1.266380 0.007267 0.005180 -320777.000000 1 0 0
6.180230 9.426538 9.335647 14.635887 0.990480 0.879080 -0.007814 0.008056 973834.000000 1 0 0
10.530230 11.955338 8.667047 18.136526 0.848692 1.072559 -0.005281 -0.000263 341061.000000 1 0 0
7.975230 11.427838 -0.370453 13.940481 0.961496 1.597373 0.006280 -0.004789 55346.500000 1 0 0
7.597830 13.379638 -8.616553 17.634815 1.054341 2.081293 0.020479 -0.011158 -2258930.000000 1 0 0
2.762330 15.314138 -2.264953 15.725244 1.392337 1.715332 -0.006828 -0.008002 471427.000000 1 0 0
12.269930 13.786538 -7.649253 19.978260 0.843537 1.963707 0.020891 -0.008548 545531.000000 1 0 0
-7.894470 14.841438 9.760647 19.438652 -1.081939 1.044741 0.015319 -0.011617 198314.000000 1 0 0
11.516630 9.543338 2.193347 15.116840 0.691972 1.425189 0.008671 0.000221 -2559050.000000 1 0 0
12.019130 8.651538 4.535547 15.488053 0.623901 1.273599 0.000925 0.000149 315992.000000 1 0 0
14.083030 7.877738 6.069047 17.240181 0.510015 1.211058 0.003115 -0.003187 -1447090.000000 1 0 0
16.275730 7.388138 7.082447 19.226155 0.426122 1.193535 0.016354 -0.008745 -938515.000000 1 0 0
13.586130 8.172138 2.426447 16.039153 0.541526 1.418930 0.000486 0.003089 -2530210.000000 1 0 0
-4.040970 17.414638 -7.288553 19.306011 -1.342787 1.957921 0.003722 -0.015671 86909.900000 1 0 0
3.141130 19.624338 -4.062953 20.285190 1.412080 1.772452 -0.008373 -0.006663 226367.000000 1 0 0
-0.014870 14.925038 6.238347 16.176339 -1.569800 1.174888 0.001239 0.003649 -864334.000000 1 0 0
6.800030 16.396338 8.054447 19.492420 1.177658 1.144821 0.000226 0.011291 -1110720.000000 1 0 0
12.763130 15.172138 -2.049353 19.932163 0.871421 1.673795 0.002727 0.008635 -390948.000000 1 0 0
12.801530 15.746538 4.234347 20.730710 0.888194 1.365094 0.003474 0.003927 410977.000000 1 0 0
3.162730 18.050338 1.295647 18.371071 1.397340 1.500211 0.013991 -0.013143 -875155.000000 1 0 0
10.353930 14.453338 -1.367453 17.831791 0.949168 1.647558 0.008941 0.006157 -1550060.000000 1 0 0
-6.231070 15.796738 -0.703553 16.995827 -1.195081 1.612204 -0.005788 0.001220 -172961.000000 1 0 0
-3.860770 15.928538 -2.549653 16.586880 -1.333002 1.725123 -0.000251 -0.003095 -1510210.000000 1 0 0
-6.811070 17.179638 1.458947 18.538046 -1.193344 1.492015 -0.004720 0.005967 -117185.000000 1 0 0
0.313130 19.382738 -6.523753 20.453555 1.554643 1.895422 0.020546 -0.013349 174974.000000 1 0 0
4.871230 15.017238 7.012747 17.274980 1.257129 1.152780 -0.001343 0.007889 -541038.000000 1 0 0
8.811930 12.246338 6.885547 16.584139 0.947066 1.142646 -0.001103 0.003947 403453.000000 1 0 0
-7.765570 17.614538 -5.662153 20.065792 -1.155568 1.856861 0.018529 -0.017785 211488.000000 1 0 0
-7.849870 17.778438 -1.387453 19.483797 -1.155001 1.642067 0.013133 -0.008438 3327.580000 1 0 0
-13.607870 -9.189162 9.248047 18.845190 0.593944 1.057860 0.022518 -0.013355 -548248.000000 1 0 0
-12.668170 -12.974362 7.741647 19.716737 0.797338 1.167292 0.032683 -0.009268 305875.000000 1 0 0
-3.717870 -14.963562 12.587247 19.904008 1.327266 0.886152 0.001295 -0.010344 15265.600000 1 0 0
-2.045770 -13.996862 14.862147 20.517815 1.425665 0.760700 -0.000959 -0.007623 -516269.000000 1 0 0
-7.124570 -13.755362 12.733547 20.052748 1.092893 0.882784 0.030257 -0.013847 -115995.000000 1 0 0
-9.751370 -11.616262 8.957147 17.614121 0.872454 1.037330 0.019691 -0.012390 265934.000000 1 0 0
-10.607470 -10.767762 11.273247 18.856013 0.792897 0.929968 0.027939 -0.010080 359801.000000 1 0 0
-5.862670 -12.398362 10.813047 17.464601 1.129097 0.903148 0.020414 -0.006988 722157.000000 1 0 0
-12.511670 -10.452262 7.411647 17.908774 0.695957 1.144111 0.024661 -0.006936 -453393.000000 1 0 0
-7.579970 -11.202462 12.446447 18.381109 0.975925 0.826937 0.021777 -0.016886 499694.000000 1 0 0
-14.822070 -11.604362 7.410547 20.230452 0.664234 1.195760 0.019133 -0.001488 -869080.000000 1 0 0
-10.973970 -9.228662 9.180047 17.025554 0.699222 1.001319 0.016448 -0.010711 -565065.000000 1 0 0
-5.276170 -11.876362 13.290047 18.587934 1.152728 0.774197 0.019686 -0.014113 -307867.000000 1 0 0
4.104630 -12.430762 14.640947 19.639989 -1.251869 0.729562 -0.013191 0.005193 905667.000000 1 0 0
6.738030 -12.625462 14.083747 20.078727 -1.080565 0.793400 -0.000875 0.001771 68230.400000 1 0 0
6.743830 -8.509662 16.033947 19.364428 -0.900651 0.595246 -0.008673 0.001406 -322653.000000 1 0 0
0.679530 -1.882362 14.440147 14.578165 -1.224357 0.137713 0.003042 -0.003790 -1504230.000000 1 0 0
-0.089770 -6.407562 15.573747 16.840621 1.556787 0.390358 0.000045 -0.005004 -497950.000000 1 0 0
-1.345270 -4.590662 18.311647 18.926182 1.285733 0.255528 0.006816 -0.020168 -2432420.000000 1 0 0
-5.027370 12.822538 13.010047 18.946062 -1.197142 0.813872 0.014080 0.000953 43245.200000 1 0 0
-3.927370 8.899238 11.762047 15.263238 -1.155188 0.690994 -0.002046 0.007039 -60162.400000 1 0 0
-0.695570 -4.008562 14.978447 15.521156 1.398986 0.265222 0.000635 -0.005737 -45590.600000 1 0 0
-4.279070 9.217938 14.415047 17.637302 -1.136187 0.614079 0.002632 -0.001608 499845.000000 1 0 0
-13.290670 -2.538362 17.040547 21.759261 0.188716 0.671097 0.002296 0.003981 -417438.000000 1 0 0
-0.183970 0.819738 17.296547 17.316939 -1.350029 0.048534 0.006484 -0.002758 1321980.000000 1 0 0
-3.333170 -7.381362 15.368947 17.372365 1.146641 0.484994 0.005794 -0.014709 15782.700000 1 0 0
-7.340970 5.502138 12.827547 15.770521 -0.643188 0.620844 0.007356 -0.000819 -1989030.000000 1 0 0
-9.574270 9.942638 13.699647 19.447443 -0.804270 0.789156 0.011170 -0.008061 -394487.000000 1 0 0
-5.433970 2.243338 11.381847 12.810427 -0.391523 0.476767 -0.000259 0.003248 -2196390.000000 1 0 0
-7.145770 -7.319462 16.886147 19.742809 0.797405 0.544655 0.021218 -0.013672 -29596.900000 1 0 0
-4.720270 2.996938 18.737147 19.553600 -0.565693 0.289995 0.011160 -0.003187 -688233.000000 1 0 0
1.150230 -8.392362 16.519147 18.564401 -1.434588 0.473826 -0.008773 -0.003614 648473.000000 1 0 0
-15.014270 -3.645762 14.073447 20.899325 0.238209 0.832008 0.011198 -0.006205 427752.000000 1 0 0
-14.392670 2.097938 13.012147 19.515795 -0.144745 0.840957 0.000818 -0.003703 -1015600.000000 1 0 0
-5.354270 0.953638 16.231947 17.118813 -0.176260 0.323296 0.010057 -0.003302 -18830.100000 1 0 0
4.722430 5.638638 15.274847 16.953364 0.873597 0.448745 0.020496 -0.005389 115458.000000 1 0 0
-0.793470 -11.947962 13.882047 18.332884 1.504483 0.711748 -0.007714 -0.007595 -339381.000000 1 0 0
-5.733570 -4.088162 16.877147 18.287291 0.619412 0.395278 0.013917 -0.009865 -73772.300000 1 0 0
-12.922670 -1.582362 10.026847 16.432801 0.121842 0.914518 0.006936 -0.000224 -774231.000000 1 0 0
-14.599570 10.492938 10.532347 20.836975 -0.623177 1.040876 -0.004754 0.014543 312754.000000 1 0 0
-3.521770 -3.335162 17.825047 18.473183 0.758190 0.265678 0.009779 -0.014027 -3305550.000000 1 0 0
-7.819170 9.326738 11.989247 17.084189 -0.873098 0.792911 0.007681 -0.005538 -29382.200000 1 0 0
-3.803470 10.563338 16.604247 20.043740 -1.225185 0.594550 0.000975 -0.001652 366416.000000 1 0 0
-12.365670 12.765038 8.403747 19.659068 -0.801288 1.129099 0.000111 -0.004351 208666.000000 1 0 0
-12.543170 3.158138 10.537447 16.683607 -0.246655 0.887175 0.003709 -0.000011 491731.000000 1 0 0
-9.964970 -3.552362 13.851147 17.429119 0.342440 0.652262 0.015584 -0.000957 -1325260.000000 1 0 0
-4.045370 -6.438362 17.690047 19.255007 1.009811 0.405958 0.014449 -0.016057 -352056.000000 1 0 0
0.940430 -3.695162 17.804547 18.208255 -1.321584 0.210970 0.002746 -0.014421 -643634.000000 1 0 0
-5.801270 1.711738 13.831547 15.096241 -0.286921 0.412243 0.005218 0.000317 -699632.000000 1 0 0
-10.340370 8.747438 10.412247 17.083788 -0.702138 0.915390 0.001870 -0.006881 -589707.000000 1 0 0
4.632530 2.416938 17.331947 18.102440 0.480881 0.292808 0.023753 -0.006666 -2101560.000000 1 0 0
0.593630 -5.479562 13.236347 14.338023 -1.462882 0.394564 -0.002070 -0.002111 -1484080.000000 1 0 0
-4.194970 5.492438 20.816347 21.933649 -0.918539 0.320557 0.037376 -0.012311 132719.000000 1 0 0
-10.588870 10.956938 9.145547 17.771317 -0.802480 1.030227 0.001115 -0.007780 -273367.000000 1 0 0
0.749830 4.107438 13.140547 13.787940 1.390230 0.307654 0.003476 0.000638 -2937280.000000 1 0 0
-2.935670 7.229738 13.435247 15.536832 -1.185081 0.526173 -0.003760 0.006209 -170517.000000 1 0 0
0.911530 8.901038 14.180947 16.767786 1.468745 0.562873 0.001995 -0.001664 412028.000000 1 0 0
-4.188370 -6.650062 13.116347 15.290662 1.008735 0.539820 0.007060 -0.006717 -463311.000000 1 0 0
-4.816170 8.229938 16.772247 19.293410 -1.041329 0.516961 0.008464 0.006151 -778000.000000 1 0 0
1.734130 -10.737262 15.762947 19.151149 -1.410673 0.603981 -0.015558 -0.001114 -228783.000000 1 0 0
-14.935870 -1.088262 14.482147 20.832597 0.072734 0.802143 -0.007926 0.001560 53134.200000 1 0 0
-13.688770 -5.402662 8.278547 16.885068 0.375910 1.058376 0.021092 -0.009652 -375970.000000 1 0 0
-13.985170 -1.927862 12.278547 18.710007 0.136987 0.854951 0.004504 -0.003045 184038.000000 1 0 0
9.490430 1.550338 16.843747 19.395454 0.161928 0.518753 0.005514 -0.005984 544526.000000 1 0 0
5.018030 -6.676462 16.801547 18.762936 -0.926272 0.461322 -0.004773 -0.000563 -141739.000000 1 0 0
-6.047870 -2.696362 11.156247 12.973394 0.419386 0.535658 0.001051 -0.000462 158329.000000 1 0 0
0.568430 -6.317562 18.020947 19.104692 -1.481062 0.338441 -0.003453 -0.010497 -130975.000000 1 0 0
-8.406470 11.879438 12.344747 19.083568 -0.954955 0.867312 0.013032 -0.005861 208906.000000 1 0 0
-6.454570 -5.760762 14.908347 17.236783 0.728661 0.525816 0.011348 -0.008303 -1085980.000000 1 0 0
-4.216170 -8.918562 17.230247 19.854427 1.129193 0.519980 0.018532 -0.012462 -361701.000000 1 0 0
2.501530 -6.146362 16.255747 17.558039 -1.184276 0.387572 -0.003767 -0.003249 279909.000000 1 0 0
2.278330 5.175538 16.188247 17.147488 1.156112 0.336066 0.014579 -0.004939 962523.000000 1 0 0
1.118430 -8.888062 13.996747 16.617986 -1.445619 0.569325 -0.005264 -0.003902 -251583.000000 1 0 0
-9.787570 -2.820762 11.376547 15.270201 0.280595 0.730237 0.003475 0.000649 -130638.000000 1 0 0
-1.133270 10.090138 12.402047 16.028286 -1.458950 0.686041 -0.002686 0.001386 -195880.000000 1 0 0
-12.241170 -3.627862 11.517947 17.195079 0.288119 0.836803 0.012561 -0.001566 -2018830.000000 1 0 0
-1.768070 6.448038 20.281847 21.355482 -1.303171 0.318438 0.020748 -0.006925 -480667.000000 1 0 0
0.378030 -13.624862 15.615547 20.727400 -1.543058 0.717614 -0.013716 -0.002585 -589672.000000 1 0 0
4.228130 -8.645562 15.281247 18.059329 -1.115945 0.562041 -0.005008 -0.000603 -390428.000000 1 0 0
4.529630 -4.388962 16.086347 17.278632 -0.769627 0.373663 0.000005 -0.000580 -654838.000000 1 0 0
8.208030 1.595338 14.683047 16.897004 0.191970 0.517672 0.010655 -0.003233 895222.000000 1 0 0
-6.287670 -0.159862 12.026847 13.572229 0.025419 0.481856 0.001343 -0.000316 105049.000000 1 0 0
-3.161570 -11.030662 18.063847 21.400318 1.291663 0.565926 0.014173 -0.016849 -319084.000000 1 0 0
3.226530 -1.508762 13.649847 14.106920 -0.437403 0.255253 0.006206 -0.003599 306118.000000 1 0 0
-2.340670 8.524338 16.218447 18.471088 -1.302814 0.499035 0.008082 0.001324 -1687530.000000 1 0 0
-3.163070 3.934138 14.978647 15.806402 -0.893618 0.325060 0.000920 0.000073 -711271.000000 1 0 0
-3.936770 -9.364862 19.816347 22.268507 1.172848 0.473710 0.007866 -0.002773 -175350.000000 1 0 0
-5.618770 -2.831062 19.225447 20.228774 0.466729 0.316274 0.019219 -0.010345 -1156560.000000 1 0 0
-6.491270 -8.645762 11.139847 15.523594 0.926781 0.770435 0.017208 -0.008276 -1680220.000000 1 0 0
-11.808670 2.499538 12.728047 17.541253 -0.208591 0.758881 0.016609 -0.009314 -342611.000000 1 0 0
-11.594170 -7.659862 11.770347 18.210968 0.583836 0.868028 0.016925 -0.001320 -247885.000000 1 0 0
-10.834970 -7.498562 15.579747 20.404743 0.605384 0.702026 0.021130 -0.009983 -355979.000000 1 0 0
0.182530 5.634638 17.764047 18.637163 1.538413 0.307306 0.013078 -0.006941 189193.000000 1 0 0
-2.139270 -0.135562 13.271247 13.443246 0.063284 0.160136 -0.000947 0.000486 137513.000000 1 0 0
-5.735870 -10.649462 18.430547 22.045324 1.076743 0.580789 0.018656 -0.000773 -631081.000000 1 0 0
0.379930 2.676738 19.160647 19.350444 1.429800 0.140175 0.017718 -0.010467 -428408.000000 1 0 0
-0.806170 10.680338 14.894647 18.345846 -1.495458 0.623429 0.003011 -0.010388 -451703.000000 1 0 0
-12.669970 -2.437362 14.493247 19.404203 0.190051 0.727389 0.013721 -0.004346 -342119.000000 1 0 0
-13.463170 8.537838 11.873547 19.877946 -0.565161 0.930638 -0.007396 -0.001691 -410094.000000 1 0 0
-18.016570 -0.696562 7.068447 19.366077 0.038643 1.197173 0.021122 -0.007831 -899096.000000 1 0 0
-1.851770 -7.905062 17.523647 19.313137 1.340694 0.433875 0.004943 -0.014131 -1976660.000000 1 0 0
5.735230 2.660538 14.486247 15.805780 0.434348 0.411515 0.019198 -0.005726 -1655990.000000 1 0 0
-13.974570 -6.735562 11.239447 19.156763 0.449134 0.943807 0.014424 -0.005561 517556.000000 1 0 0
3.360530 7.669838 16.311447 18.335291 1.157841 0.474283 0.015707 -0.019882 -60414.300000 1 0 0
1.097830 2.031038 14.655847 14.836583 1.075255 0.156247 0.008504 -0.004261 -2090580.000000 1 0 0
-14.385470 0.533838 9.905447 17.474113 -0.037093 0.968102 0.002940 0.001627 -1460010.000000 1 0 0
-9.440370 -5.278662 15.734047 19.093064 0.509847 0.602235 0.016954 0.001485 -232513.000000 1 0 0
-2.518770 -0.189962 18.313247 18.486625 0.075276 0.137064 0.005586 -0.005382 319722.000000 1 0 0
6.889230 3.675338 17.493047 19.156626 0.490080 0.419828 0.027607 -0.009161 -639201.000000 1 0 0
-4.150270 -0.859662 14.709347 15.307797 0.204246 0.280542 0.003634 -0.001002 -1698690.000000 1 0 0
4.725230 -9.014862 17.726947 20.441140 -1.088008 0.521206 -0.012254 0.002468 -22403.100000 1 0 0
2.131530 6.896438 13.504047 15.312203 1.271033 0.490889 0.006589 0.000251 -1242310.000000 1 0 0
-3.607470 -0.823562 20.659347 20.988109 0.224447 0.177230 0.017178 -0.006633 -980152.000000 1 0 0
-10.498470 1.561038 16.224847 19.388151 -0.147610 0.579305 0.019742 -0.016170 -223676.000000 1 0 0
-3.699370 6.978538 18.676747 20.278220 -1.083354 0.400092 0.017792 0.000032 -746141.000000 1 0 0
-12.695470 1.073838 14.684847 19.441523 -0.084383 0.714632 0.018672 -0.008200 1290460.000000 1 0 0
-16.066170 -4.748262 8.752447 18.901670 0.287364 1.089361 0.019714 -0.010947 -250576.000000 1 0 0
-2.286770 0.646838 15.799347 15.977080 -0.275660 0.149298 0.003867 -0.000889 -503206.000000 1 0 0
-13.700270 -8.949962 12.571447 20.635903 0.578670 0.915742 0.014132 -0.005087 398763.000000 1 0 0
6.171530 -3.079662 14.521047 16.075849 -0.462856 0.443435 0.001735 0.000240 548794.000000 1 0 0
-15.680670 0.281338 7.730147 17.484786 -0.017940 1.112850 0.006086 -0.003202 410530.000000 1 0 0
-14.027470 6.068338 12.400147 19.681420 -0.408294 0.889187 0.000353 -0.006966 -287866.000000 1 0 0
0.599630 9.521638 16.785947 19.307749 1.507904 0.516832 0.010611 -0.009875 -226199.000000 1 0 0
-10.392470 -5.478862 10.928847 16.045593 0.485166 0.821516 0.013032 -0.003962 317174.000000 1 0 0
-2.952270 -11.190362 15.140047 19.056787 1.312851 0.652662 0.008322 -0.006670 -278777.000000 1 0 0
-3.437270 2.729538 12.695947 13.433253 -0.671133 0.332855 -0.002304 0.001843 -1352990.000000 1 0 0
-12.325270 -7.821962 7.444647 16.386523 0.565493 1.099193 0.020221 -0.006080 -345671.000000 1 0 0
-8.103670 -1.899362 13.308547 15.696958 0.230227 0.558893 0.006656 -0.002463 -487227.000000 1 0 0
-9.703570 6.428738 9.709147 15.157687 -0.585121 0.875591 0.000146 -0.001508 -246787.000000 1 0 0
-17.826470 -3.642962 6.785147 19.418868 0.201581 1.213855 0.017298 -0.019787 141202.000000 1 0 0
-1.216770 -0.014662 20.608847 20.644741 0.012049 0.058977 0.013716 -0.002914 -919890.000000 1 0 0
-2.786270 2.442838 20.311647 20.646883 -0.719815 0.180448 0.023561 -0.007458 -505569.000000 1 0 0
-3.777270 11.380638 11.163147 16.382996 -1.250333 0.821141 0.002198 -0.003558 -625123.000000 1 0 0
-4.021970 -4.812862 15.015047 16.272416 0.874680 0.395692 0.006820 -0.008771 628340.000000 1 0 0
-0.079270 -14.408362 13.189547 19.533851 1.565295 0.829540 -0.003943 -0.007853 -446299.000000 1 0 0
-12.144570 0.451838 8.512847 14.837901 -0.037188 0.959752 0.002904 0.002041 -319222.000000 1 0 0
-7.672470 1.889138 15.593847 17.481525 -0.241421 0.469004 0.013221 -0.002310 -926287.000000 1 0 0
3.592330 -2.129762 18.454347 18.920985 -0.535156 0.222551 0.010634 -0.003191 -57178.500000 1 0 0
-1.946570 4.930838 12.854847 13.905013 -1.194803 0.391138 -0.006497 0.002232 -730133.000000 1 0 0
-10.250470 -6.187862 13.446347 18.004611 0.543111 0.727517 0.009979 -0.004832 -509449.000000 1 0 0
2.330230 -3.809862 14.348047 15.027025 -1.021868 0.301756 0.002465 -0.001296 -463100.000000 1 0 0
6.853130 1.081938 16.970347 18.333812 0.156583 0.388096 0.009912 -0.006627 -670062.000000 1 0 0
-1.864170 -5.977962 13.789847 15.145001 1.268513 0.426253 0.001640 -0.005599 -1823600.000000 1 0 0
-13.080270 3.703138 14.585647 19.938601 -0.275889 0.750236 0.016312 -0.002274 291341.000000 1 0 0
-13.139370 -6.513362 13.615547 20.011248 0.460212 0.822495 0.007475 -0.005062 -752618.000000 1 0 0
-9.330770 6.850638 12.101547 16.746401 -0.633311 0.763189 0.005089 -0.000851 -450410.000000 1 0 0
-1.142170 -2.588462 12.823047 13.131460 1.155239 0.217159 -0.002674 0.000101 529986.000000 1 0 0
0.248330 6.618138 15.278347 16.652006 1.533291 0.409028 0.006397 -0.005761 406152.000000 1 0 0
-16.274470 -1.215562 9.866747 19.070623 0.074553 1.027011 0.004638 0.000864 -478919.000000 1 0 0
-1.255070 2.671738 13.886047 14.196327 -1.131634 0.209458 -0.001093 0.001252 -1655600.000000 1 0 0
-10.966370 -3.338562 16.342547 19.962117 0.295522 0.611691 0.014948 -0.007856 261029.000000 1 0 0
-5.006670 -1.450162 17.134147 17.909459 0.281931 0.295319 0.007938 -0.005750 8505.900000 1 0 0
-11.776870 6.743538 11.321347 17.673225 -0.520035 0.875526 0.003361 0.000994 -1461100.000000 1 0 0
-2.708470 4.614038 18.835247 19.580391 -1.039986 0.276765 0.014541 -0.002176 -47321.000000 1 0 0
5.171230 -1.852662 16.466447 17.358510 -0.344017 0.321984 0.003113 0.000530 -1379520.000000 1 0 0
-7.929470 -4.283662 12.332447 15.274669 0.495304 0.631100 0.011300 0.000443 -1408990.000000 1 0 0
-11.578970 -0.750062 16.231847 19.952644 0.064688 0.620619 0.030163 -0.006293 338367.000000 1 0 0
2.150130 1.987538 17.419947 17.664312 0.746123 0.166528 0.015597 -0.005531 -649346.000000 1 0 0
-8.870970 -7.547462 11.630247 16.459676 0.704961 0.786128 0.016175 -0.007430 1475360.000000 1 0 0
-7.107070 6.835838 15.067947 18.007836 -0.765948 0.579487 0.001984 -0.002217 -27463.500000 1 0 0
-5.556770 3.472138 15.895047 17.192614 -0.558490 0.391002 0.011835 -0.001703 -277361.000000 1 0 0
-9.286970 4.199238 11.785247 15.581189 -0.424652 0.713040 0.005495 -0.003975 52535.400000 1 0 0
-10.329670 0.060838 14.080647 17.463402 -0.005890 0.632935 0.017800 -0.009049 52233.500000 1 0 0
8.492130 -0.654062 15.998647 18.124591 -0.076868 0.489211 0.008227 0.000279 294082.000000 1 0 0
-8.374370 -7.470862 14.705447 18.498487 0.728439 0.651864 0.025148 -0.007563 -1214290.000000 1 0 0
0.011030 4.044438 15.732147 16.243708 1.568069 0.251633 0.004251 -0.003402 -119291.000000 1 0 0
-7.979070 3.073038 9.844547 13.039334 -0.367628 0.715160 0.000470 0.001304 -271878.000000 1 0 0
-2.128770 -9.782762 13.204547 16.570883 1.356532 0.648729 -0.000545 -0.004607 827795.000000 1 0 0
-5.968270 10.280438 10.610847 15.934169 -1.044804 0.842073 0.009310 -0.006168 -2381050.000000 1 0 0
-8.411070 -2.845762 15.735647 18.068067 0.326246 0.513747 0.016051 -0.010540 -29897.100000 1 0 0
4.201330 5.703538 17.798047 19.155992 0.935915 0.378794 0.025952 -0.009887 351078.000000 1 0 0
-6.683870 -0.982362 15.360247 16.780237 0.145930 0.414352 0.008612 -0.002965 -629554.000000 1 0 0
-0.758270 -9.852862 15.500747 18.382792 1.493988 0.567550 -0.005087 -0.007070 -1469660.000000 1 0 0
-4.240370 5.717438 16.416047 17.892916 -0.932657 0.409146 0.008217 0.000173 -94110.400000 1 0 0
3.790030 0.099538 17.389847 17.798343 0.026257 0.214661 0.018424 -0.007294 -631440.000000 1 0 0
1.496730 0.320738 19.330447 19.390958 0.211100 0.079022 0.014437 -0.000912 31388.900000 1 0 0
-6.106970 6.445738 18.076947 20.139976 -0.812379 0.456580 0.003231 0.001459 -1795720.000000 1 0 0
-12.136770 0.584838 11.082447 16.445785 -0.048150 0.831352 0.011960 -0.001205 -505953.000000 1 0 0
-5.161070 5.210838 14.055647 15.854044 -0.790196 0.480929 0.004203 -0.000266 -1020770.000000 1 0 0
-8.643770 -9.534962 9.974947 16.282808 0.834383 0.911443 0.022442 -0.009669 -197450.000000 1 0 0
6.896230 -3.603762 17.006047 18.701624 -0.481540 0.429113 -0.003903 -0.000426 -253161.000000 1 0 0
-16.710270 1.440538 9.757147 19.403871 -0.085994 1.043909 0.003122 -0.000891 123789.000000 1 0 0
-4.015270 -9.600162 11.430547 15.457779 1.174657 0.738515 0.008389 -0.007563 397717.000000 1 0 0
-11.003070 -3.860662 9.281647 14.903732 0.337451 0.898514 0.008759 -0.000579 132510.000000 1 0 0
3.710730 -5.299362 18.452747 19.553942 -0.959921 0.337201 0.000680 -0.006162 16603.700000 1 0 0
2.556230 -1.863862 16.144547 16.451587 -0.630020 0.193502 0.005979 -0.002910 -791826.000000 1 0 0
-3.115370 -4.437662 20.234147 20.948009 0.958710 0.261813 0.010724 -0.013411 -961076.000000 1 0 0
-6.133270 -3.337262 14.399147 16.002805 0.498321 0.451511 0.008003 -0.003423 630872.000000 1 0 0
-9.586470 5.294538 14.106647 17.858612 -0.504602 0.660139 0.014320 -0.006968 324003.000000 1 0 0
-5.904770 -5.298762 11.713747 14.147617 0.731360 0.595325 0.007210 -0.000246 -904831.000000 1 0 0
6.198230 2.034938 19.345447 20.415812 0.317222 0.325247 0.023735 -0.011454 153784.000000 1 0 0
-2.657870 11.854038 13.561747 18.207237 -1.350228 0.730479 0.010156 -0.009479 -1892530.000000 1 0 0
3.431330 1.423238 15.231147 15.677611 0.393180 0.239224 0.014045 -0.003348 -1240510.000000 1 0 0
-5.598970 7.405838 12.965547 15.946797 -0.923453 0.621424 -0.000886 -0.002956 -323987.000000 1 0 0
-1.856270 -1.800262 15.281747 15.498983 0.770082 0.167625 0.001709 -0.004049 203885.000000 1 0 0
-7.120870 10.500938 14.130747 18.990906 -0.974908 0.731640 0.019117 -0.012603 -655690.000000 1 0 0
-10.072470 2.066538 10.807147 14.917093 -0.202359 0.760515 0.002278 -0.001851 -230587.000000 1 0 0
-13.659070 5.228738 9.263947 17.312730 -0.365594 1.006177 -0.006721 0.000764 -107357.000000 1 0 0
0.693930 -4.911762 20.080647 20.684278 -1.430446 0.242182 0.003417 -0.011877 -31039.100000 1 0 0
-14.372170 -2.982162 7.610947 16.534179 0.204592 1.092445 0.010111 -0.007615 774146.000000 1 0 0
-2.419170 2.347038 17.701647 18.019692 -0.770265 0.188159 0.006241 -0.003663 28657.800000 1 0 0
-6.078070 -8.482962 14.752047 18.070044 0.949080 0.615679 0.017289 -0.004284 -563364.000000 1 0 0
-7.901370 1.924038 12.266047 14.716980 -0.238858 0.585452 0.002503 -0.002620 1136860.000000 1 0 0
-14.461270 -3.541962 10.211247 18.053902 0.240199 0.969638 0.006225 -0.006558 -642997.000000 1 0 0
-0.393270 7.006538 12.792747 14.591114 -1.514726 0.501736 -0.003691 0.001786 519985.000000 1 0 0
-1.773670 -2.351962 19.519947 19.740972 0.924661 0.149781 0.007025 -0.004761 598656.000000 1 0 0
-12.580970 10.326538 7.422947 17.889056 -0.687300 1.142916 -0.010218 -0.008034 -12216.300000 1 0 0
-19.526770 2.020638 6.874447 20.799898 -0.103113 1.233959 0.022282 -0.006444 1056080.000000 1 0 0
-16.090270 8.425938 6.663247 19.346630 -0.482401 1.219182 0.004167 0.006913 247720.000000 1 0 0
-12.290670 7.351038 13.823347 19.904353 -0.539021 0.803087 0.015579 -0.004943 176085.000000 1 0 0
-15.863170 8.325438 10.916947 20.979343 -0.483312 1.023516 -0.010294 0.015486 -1348820.000000 1 0 0
1.772630 11.111138 15.104847 18.834968 1.412593 0.640231 -0.006376 -0.006595 -82781.200000 1 0 0
2.242030 14.341538 12.857147 19.391046 1.415720 0.845916 -0.013565 0.005357 -940331.000000 1 0 0
-2.946970 13.654538 11.771347 18.267339 -1.358233 0.870567 0.001670 -0.002955 89364.500000 1 0 0
9.512230 4.716038 15.754447 18.998056 0.460271 0.593003 0.018603 -0.003983 127407.000000 1 0 0
-0.239670 12.478638 13.029547 18.042809 -1.551592 0.763896 0.000934 -0.003687 -505295.000000 1 0 0
3.926630 13.336938 14.618147 20.173809 1.284469 0.760328 -0.006995 0.001159 237630.000000 1 0 0
-2.935870 -4.038762 -13.759653 14.637588 0.942229 2.793491 -0.004250 -0.002305 -263022.000000 1 0 0
5.936130 -11.386062 16.166547 20.645515 -1.090215 0.671236 -0.014042 0.001944 228708.000000 1 0 0
7.599630 -13.494062 7.255247 17.102126 -1.057888 1.132684 -0.015108 -0.002696 -528118.000000 1 0 0
0.006330 15.567138 1.345647 15.625191 1.570390 1.484569 -0.000936 -0.007285 -2479260.000000 1 0 0
-13.820270 8.289838 9.317847 18.615680 -0.540296 1.046577 -0.000998 0.007247 715386.000000 1 0 0
-15.379870 -9.675662 4.898447 18.818970 0.561551 1.307471 0.005335 -0.005074 -1264920.000000 1 0 0
9.453630 -10.974962 11.086447 18.240894 -0.859732 0.917535 -0.005410 -0.000201 188106.000000 1 0 0
-5.819570 -10.584562 -16.773253 20.669842 1.068094 2.517484 0.022581 0.010122 4917.610000 1 0 0
-2.022870 -12.506662 -14.799153 19.481363 1.410442 2.433582 0.004663 0.004323 69033.700000 1 0 0
5.197730 -15.622162 -12.937853 20.939350 -1.249602 2.236831 -0.013037 0.014068 165307.000000 1 0 0
2.597430 -11.525062 -16.952753 20.663241 -1.349128 2.532960 -0.002830 0.011782 144717.000000 1 0 0
0.388330 -14.735362 -13.816253 20.203231 -1.544449 2.323841 0.010218 0.020132 225158.000000 1 0 0
-6.364270 -5.795862 -14.568753 16.921717 0.738689 2.607931 0.003527 0.003697 61922.700000 1 0 0
-6.376170 -8.177162 -16.695253 19.653320 0.908523 2.585810 0.006784 -0.001974 101006.000000 1 0 0
-2.413870 -16.313262 -13.097353 21.059201 1.423893 2.242002 0.008080 -0.000271 255542.000000 1 0 0
15.884530 -8.073562 -9.398153 20.145123 -0.470238 2.056151 -0.008618 0.008415 -60882.100000 1 0 0
19.131630 -3.061462 -3.708053 19.726669 -0.158676 1.759893 0.003485 0.006322 186577.000000 1 0 0
15.823930 -11.626162 -8.763053 21.502453 -0.633650 1.990552 0.021624 0.004292 309604.000000 1 0 0
18.338230 -3.766262 -7.250453 20.075968 -0.202561 1.940298 0.118486 0.003642 -395091.000000 1 0 0
8.945230 -9.792762 -15.994653 20.778456 -0.830598 2.449279 0.029428 -0.001778 206846.000000 1 0 0
-4.803770 9.544838 -15.971353 19.216249 -1.104524 2.551947 -0.004504 -0.003639 517155.000000 1 0 0
2.464630 -9.804862 -18.557253 21.132471 -1.324530 2.642755 0.003263 0.012034 223275.000000 1 0 0
11.165630 7.984738 -14.928253 20.280041 0.620800 2.398095 0.029732 -0.038829 359942.000000 1 0 0
18.325430 -6.715262 -8.592653 21.324864 -0.351249 1.985524 0.006930 0.016662 257875.000000 1 0 0
12.525830 5.590038 -13.806153 19.461624 0.419757 2.359448 0.008209 -0.008118 40722.900000 1 0 0
15.589930 5.640138 -11.729453 20.308548 0.347131 2.186536 -0.012841 -0.000286 46631.100000 1 0 0
3.367730 -0.559362 -19.143853 19.445863 -0.164592 2.965121 0.011556 -0.007396 175641.000000 1 0 0
10.159930 -1.712762 -15.139553 18.312940 -0.167010 2.544037 0.011420 0.003934 181636.000000 1 0 0
11.984730 -6.153462 -14.125353 19.519847 -0.474343 2.379859 0.008544 -0.000200 415943.000000 1 0 0
10.039530 6.697638 -13.051453 17.776134 0.588321 2.395302 0.011208 -0.004922 307682.000000 1 0 0
10.254930 5.550538 -16.632953 20.313227 0.496105 2.530155 -0.008948 0.004431 260336.000000 1 0 0
11.680030 -10.224762 -15.515153 21.947410 -0.719060 2.355936 0.017623 -0.006684 483034.000000 1 0 0
-1.442070 2.251038 -17.378253 17.582673 -1.001040 2.988957 -0.006004 0.000514 266337.000000 1 0 0
6.558430 -1.124262 -17.272453 18.509851 -0.169772 2.773872 0.011041 0.009787 83648.800000 1 0 0
7.154630 -6.279262 -15.805253 18.450579 -0.720329 2.599491 0.007417 -0.004094 257030.000000 1 0 0
-2.010070 -5.148662 -20.674153 21.400226 1.198588 2.880357 0.000931 -0.003135 338877.000000 1 0 0
15.638830 -0.393362 -13.407953 20.603420 -0.025148 2.279386 -0.002204 -0.000463 -87470.700000 1 0 0
-4.026470 -0.369962 -18.427153 18.865558 0.091625 2.925588 -0.011691 0.000168 -14688.500000 1 0 0
3.437330 8.520338 -18.003653 20.212444 1.187340 2.669726 -0.006189 -0.003658 -10119.100000 1 0 0
9.863330 0.193738 -17.209453 19.836534 0.019640 2.621078 0.017181 -0.005572 -102779.000000 1 0 0
3.916630 4.164738 -18.201353 19.078110 0.816090 2.837249 -0.002810 -0.001845 216293.000000 1 0 0
-2.616270 -11.274462 -18.048253 21.440564 1.342779 2.571370 0.019166 -0.004264 241444.000000 1 0 0
6.837430 -8.817062 -16.314253 19.764763 -0.911188 2.541744 0.032591 -0.010816 150042.000000 1 0 0
10.333230 -12.402562 -10.883653 19.469286 -0.876165 2.163996 0.016283 0.004981 383622.000000 1 0 0
6.268630 6.815838 -17.142353 19.483624 0.827195 2.646309 0.001017 -0.006350 193820.000000 1 0 0
8.183130 1.612238 -20.190053 21.844934 0.194528 2.749847 -0.003677 0.000022 125045.000000 1 0 0
-1.113170 -0.586662 -20.181953 20.221141 0.485029 3.079325 0.001273 -0.001600 182173.000000 1 0 0
-1.259670 7.093438 -19.406453 20.700580 -1.395046 2.786124 -0.002579 -0.001148 -14876.500000 1 0 0
8.346230 5.946238 -18.083153 20.785036 0.619030 2.626015 -0.002913 -0.004108 6487.300000 1 0 0
12.006930 -0.123362 -13.827053 18.313082 -0.010274 2.426507 -0.005316 0.014233 36618.700000 1 0 0
-4.067570 -2.534362 -19.759753 20.332632 0.557207 2.903649 -0.026902 0.003113 466975.000000 1 0 0
5.277530 -11.348162 -14.581653 19.216079 -1.135493 2.432304 -0.017800 0.002934 -50846.600000 1 0 0
11.012230 2.936738 -15.788453 19.472259 0.260615 2.516344 0.006888 0.000148 -288322.000000 1 0 0
-3.099170 -4.263662 -17.052153 17.848237 0.942257 2.841798 -0.004470 -0.003048 337753.000000 1 0 0
-7.140470 -5.145562 -17.413553 19.511405 0.624431 2.673611 0.020806 0.002587 -24094.400000 1 0 0
3.031430 10.726038 -15.418653 19.025570 1.295357 2.515661 -0.005410 -0.002289 215840.000000 1 0 0
16.596330 -6.505862 -10.967253 20.929526 -0.373596 2.122347 0.013917 -0.002189 -45963.000000 1 0 0
9.381930 -3.481562 -17.847453 20.461511 -0.355340 2.630571 -0.001107 -0.009995 59184.000000 1 0 0
-7.205470 -1.408562 -18.672753 20.064260 0.193051 2.766975 -0.012785 0.007631 355018.000000 1 0 0
1.000530 -7.493162 -19.425053 20.844213 -1.438056 2.770456 0.009039 -0.009215 191299.000000 1 0 0
5.865130 10.776138 -13.790353 18.458026 1.072363 2.414514 0.006688 -0.009270 253751.000000 1 0 0
5.774230 -3.931062 -18.136953 19.435638 -0.597719 2.773958 0.005097 -0.012148 269300.000000 1 0 0
4.638630 13.606438 -14.215253 20.216959 1.242238 2.350593 0.004454 -0.018962 -81588.800000 1 0 0
9.348530 11.298038 -15.281753 21.179534 0.879542 2.376812 0.046175 -0.030908 20328.300000 1 0 0
16.937530 1.121038 -11.643853 20.584362 0.066090 2.172036 0.008789 0.007054 128057.000000 1 0 0
15.048030 -2.817862 -12.405853 19.705043 -0.185114 2.251806 0.017273 0.001556 5829.750000 1 0 0
-8.862170 -0.049062 -17.433953 19.557177 0.005536 2.671299 -0.001975 0.011937 300080.000000 1 0 0
-3.729570 4.322038 -18.887153 19.731048 -0.858850 2.848068 0.009964 0.000459 25751.600000 1 0 0
3.977130 2.064838 -16.875753 17.460588 0.478872 2.882042 -0.002289 -0.002891 349065.000000 1 0 0
-5.039370 14.654938 -13.484653 20.542597 -1.239594 2.286865 -0.002380 -0.006675 332500.000000 1 0 0
0.892530 9.565938 -17.712253 20.150128 1.477763 2.644587 -0.001294 0.004757 260517.000000 1 0 0
1.304230 -4.949762 -19.813753 20.464260 -1.313159 2.888779 0.012615 -0.003146 480421.000000 1 0 0
3.647730 -6.242562 -17.921653 19.325143 -1.041977 2.758131 0.012895 -0.024460 114028.000000 1 0 0
-6.404270 7.880938 -15.944553 18.903772 -0.888403 2.574486 -0.021485 0.014842 -25215.100000 1 0 0
-11.543670 3.167438 -17.078753 20.856001 -0.267797 2.530269 0.002542 0.001608 323770.000000 1 0 0
-4.291270 7.044938 -17.547553 19.389759 -1.023692 2.702154 -0.010101 0.023294 325768.000000 1 0 0
-8.242570 5.752138 -17.426753 20.117623 -0.609286 2.618429 -0.009427 -0.001266 344308.000000 1 0 0
-8.569170 4.569438 -15.046853 17.908607 -0.489886 2.568452 -0.015158 -0.004311 500146.000000 1 0 0
9.396730 13.892538 -12.561353 20.954444 0.976095 2.213623 0.043010 -0.029931 408720.000000 1 0 0
13.675530 10.060638 -12.199053 20.905823 0.634265 2.193858 0.012432 -0.012089 131947.000000 1 0 0
8.712130 15.540338 -9.916853 20.389882 1.059841 2.078717 0.020805 -0.018775 37916.900000 1 0 0
7.961530 13.791638 -14.369653 21.449526 1.047256 2.304909 0.039213 -0.030254 46344.800000 1 0 0
3.910030 15.774838 -12.900353 20.749770 1.327828 2.241721 0.016374 -0.020141 136800.000000 1 0 0
11.018430 11.792038 -11.102053 19.588607 0.819300 2.173365 0.026659 -0.019633 252102.000000 1 0 0
16.096130 10.251538 -10.874253 21.964262 0.567107 2.088733 0.034709 -0.000430 309190.000000 1 0 0
13.321430 11.577238 -10.128853 20.349118 0.715461 2.091803 0.035498 -0.007472 -11516.500000 1 0 0
10.986330 11.425738 -7.802653 17.667154 0.805002 2.028230 0.010377 -0.000862 226925.000000 1 0 0
6.214130 16.607438 -10.174253 20.443528 1.212747 2.091714 0.040222 -0.016587 116140.000000 1 0 0
11.868330 14.090538 -10.133253 21.025778 0.870795 2.073669 0.044082 -0.019945 94140.100000 1 0 0
8.066130 -19.517762 -2.033253 21.216494 -1.178902 1.666777 0.029012 0.002284 -22117.800000 1 0 0
7.615930 -17.781462 -4.257653 19.806827 -1.166128 1.787446 0.020884 0.025213 140393.000000 1 0 0
4.040730 -18.668362 5.132747 19.778279 -1.357637 1.308277 0.009064 -0.014918 33230.900000 1 0 0
10.130930 -17.938762 -2.735953 20.782694 -1.056699 1.702825 0.024203 0.009809 502695.000000 1 0 0
-1.954570 -15.582662 7.693047 17.487787 1.446016 1.115298 -0.000982 -0.010325 48725.600000 1 0 0
-15.411070 -12.643262 -4.328153 20.398188 0.687058 1.784605 -0.011916 0.009343 -117592.000000 1 0 0
-9.723770 -12.803462 -7.031553 17.547737 0.921266 1.983088 0.011187 -0.004984 185197.000000 1 0 0
-11.475370 -15.344662 6.798547 20.331331 0.928678 1.229841 0.022250 -0.008149 221488.000000 1 0 0
-15.647770 -7.901062 -8.363053 19.422156 0.467586 2.015947 0.053000 -0.001552 12914.100000 1 0 0
5.378530 -15.332762 6.478247 17.492566 -1.233421 1.191418 0.007659 -0.006357 268258.000000 1 0 0
2.877630 -14.298262 8.910747 17.091591 -1.372192 1.022361 -0.004739 0.000334 245202.000000 1 0 0
3.201430 -17.666762 9.936247 20.520542 -1.391530 1.065337 0.003730 -0.000876 167894.000000 1 0 0
-7.511570 -17.177962 -5.515753 19.543019 1.158571 1.856921 -0.032988 -0.004366 -88520.700000 1 0 0
2.163530 -19.889062 -4.176053 20.437590 -1.462442 1.776578 0.021449 -0.009131 83737.400000 1 0 0
-18.522370 -10.448462 -1.792553 21.341551 0.513604 1.654889 -0.000603 0.001128 -39291.700000 1 0 0
-4.201370 -14.928862 2.818147 15.762753 1.296466 1.391045 -0.003514 0.004474 119289.000000 1 0 0
-10.995770 -9.899662 -14.392953 20.641399 0.732989 2.342400 0.013200 0.002195 262576.000000 1 0 0
0.745430 -20.634262 2.694747 20.822826 -1.534686 1.441019 0.013428 0.001964 226543.000000 1 0 0
6.810830 -18.178662 1.084447 19.442921 -1.212323 1.514991 0.021168 0.003433 179614.000000 1 0 0
-7.751370 -18.745962 -3.720353 20.623672 1.178710 1.752182 0.000584 -0.013113 142342.000000 1 0 0
-9.333970 -15.712062 -7.520453 19.762315 1.034753 1.961182 0.006656 -0.001772 -6628.810000 1 0 0
-11.831870 -11.368662 -12.261753 20.483901 0.765435 2.212554 -0.004080 0.012708 330388.000000 1 0 0
-13.391870 -15.569862 -3.289253 20.798605 0.860459 1.729611 -0.002428 0.018313 69989.600000 1 0 0
-0.620370 -20.276562 -2.490453 20.438351 1.540210 1.692952 0.002085 -0.011306 460604.000000 1 0 0
-12.684670 -16.552162 -0.385553 20.857219 0.916916 1.589283 0.021307 -0.006694 200469.000000 1 0 0
1.120930 -20.462162 5.027247 21.100469 -1.516070 1.330230 0.015594 -0.004534 145778.000000 1 0 0
-18.148370 -8.720762 2.661647 20.310081 0.447947 1.439368 0.005545 0.000591 -186974.000000 1 0 0
-14.964770 -15.043262 -0.543353 21.225911 0.788014 1.596398 -0.002832 0.009313 -127792.000000 1 0 0
10.204130 -15.629562 -5.003453 19.324648 -0.992404 1.832696 0.020441 0.010883 19977.600000 1 0 0
-0.340370 -19.224362 -7.091353 20.493395 1.553093 1.924134 -0.003196 -0.000040 174975.000000 1 0 0
-9.861470 -16.559762 -2.195753 19.398341 1.033686 1.684232 -0.003701 -0.004977 505753.000000 1 0 0
-15.014270 -6.509362 -11.155253 19.805044 0.409086 2.169114 0.011432 -0.006640 -43007.000000 1 0 0
-11.761670 -15.213862 2.552547 19.398814 0.912681 1.438831 -0.000638 -0.007575 183438.000000 1 0 0
-2.651970 -16.581762 10.439547 19.773010 1.412206 1.014588 0.004346 -0.003532 277864.000000 1 0 0
-12.732270 -14.391162 -6.402553 20.253615 0.846483 1.892432 0.003722 0.000627 183806.000000 1 0 0
5.751130 -17.061662 -7.315253 19.434215 -1.245678 1.956716 0.019426 -0.007369 19297.700000 1 0 0
-17.413670 -7.366762 -2.848453 19.121160 0.400213 1.720321 -0.039043 0.004192 -57728.900000 1 0 0
-12.356470 -13.492362 -9.271853 20.510813 0.829314 2.039855 0.011483 -0.014272 187819.000000 1 0 0
-6.837570 -14.875362 8.721547 18.549775 1.139940 1.081313 0.009364 -0.006332 497267.000000 1 0 0
-15.885970 -8.033762 -5.661353 18.680372 0.468209 1.878703 0.003733 0.002870 415094.000000 1 0 0
-0.686870 -19.598462 -0.000953 19.610495 1.535764 1.570845 0.009335 -0.006263 256864.000000 1 0 0
-14.853170 -11.383062 -1.567053 18.778882 0.653897 1.654341 -0.020916 0.006780 187998.000000 1 0 0
-6.916770 -19.116562 1.470547 20.382521 1.223630 1.498586 -0.005783 -0.003716 161706.000000 1 0 0
-2.608370 -20.629762 -5.235453 21.442962 1.445026 1.817447 -0.007059 -0.003459 129405.000000 1 0 0
-8.789470 -19.856462 -0.870253 21.732262 1.154071 1.610851 -0.008750 0.009856 109232.000000 1 0 0
-17.696270 -7.448062 4.947447 19.826972 0.398378 1.318600 0.009220 -0.008300 103395.000000 1 0 0
-2.934070 -15.724562 -10.682653 19.235116 1.386326 2.159607 0.005326 0.000957 51079.100000 1 0 0
-3.295470 -18.166862 -8.675353 20.399920 1.391348 2.010050 -0.006868 0.000978 192186.000000 1 0 0
3.606730 -17.417462 -6.491553 18.934538 -1.366607 1.920737 0.003054 0.022082 255477.000000 1 0 0
0.462730 -17.442162 -9.048853 19.655149 -1.544273 2.049220 -0.005427 0.004569 -68027.700000 1 0 0
-7.676070 -9.989362 -14.388353 19.124176 0.915607 2.422441 0.010480 -0.004338 205539.000000 1 0 0
-5.047870 -19.503062 -1.790353 20.225127 1.317530 1.659434 -0.003905 -0.005024 429065.000000 1 0 0
-9.839670 -14.562462 8.917147 19.707864 0.976575 1.101267 0.011954 -0.041223 254554.000000 1 0 0
-7.651570 -14.764262 -10.244753 19.531639 1.092656 2.122949 0.023947 -0.014213 162472.000000 1 0 0
-12.702070 -8.068662 -12.082553 19.298548 0.565918 2.247320 -0.001832 -0.004801 370685.000000 1 0 0
-15.588870 -13.021362 3.640947 20.635533 0.695897 1.393427 -0.006951 0.002706 53648.800000 1 0 0
-6.263970 -14.339862 -13.451953 20.635503 1.158955 2.280862 -0.005648 0.011745 459388.000000 1 0 0
-14.154370 -11.502762 -6.670053 19.420333 0.682416 1.921392 -0.002009 -0.006486 -159402.000000 1 0 0
-12.306270 -10.624762 -8.042553 18.138702 0.712200 2.030176 0.019575 -0.000612 120854.000000 1 0 0
-9.798970 -14.837962 3.703347 18.163142 0.987146 1.365463 0.006414 -0.007335 433152.000000 1 0 0
5.334330 -17.979962 8.091047 20.425454 -1.282386 1.163503 0.024919 -0.026754 231392.000000 1 0 0
-4.819770 -16.607162 5.137647 18.039496 1.288334 1.281999 -0.000200 0.004257 230387.000000 1 0 0
-18.511070 -7.204562 -6.808853 20.998236 0.371164 1.901024 -0.016608 -0.000690 -47025.300000 1 0 0
-17.272870 -3.139662 -10.639753 20.528367 0.179805 2.115653 0.003718 -0.013357 -127632.000000 1 0 0
-15.729970 -4.104562 -13.112053 20.885529 0.255247 2.249527 -0.015075 0.004173 240930.000000 1 0 0
-19.265970 -4.769162 -5.797653 20.676926 0.242665 1.854999 -0.008595 0.005316 -338744.000000 1 0 0
5.259730 -13.803362 8.952947 17.272893 -1.206735 1.025907 0.002300 0.003395 177167.000000 1 0 0
19.736330 -3.399262 2.599047 20.194870 -0.170560 1.441740 -0.001708 -0.005508 48013.500000 1 0 0
18.181530 -2.764162 -0.259353 18.392278 -0.150876 1.584898 0.010543 -0.000712 343397.000000 1 0 0
14.165630 -11.321162 0.163047 18.134508 -0.674253 1.561805 0.020110 0.003416 33514.500000 1 0 0
11.002730 -13.875262 5.431347 18.522486 -0.900354 1.273193 -0.002540 0.011792 524248.000000 1 0 0
10.000330 -13.240462 9.570747 19.155042 -0.923921 1.047606 0.002988 0.014565 309311.000000 1 0 0
17.847730 4.507338 -4.586953 18.970970 0.247372 1.815004 -0.013453 0.015114 -14322.000000 1 0 0
18.493530 -6.127162 -4.470853 19.988529 -0.319932 1.796376 0.000468 0.002041 -99559.300000 1 0 0
17.246430 -10.182362 0.058547 20.028062 -0.533334 1.567873 -0.002040 0.008134 216025.000000 1 0 0
17.411530 -8.946762 8.440647 21.317844 -0.474659 1.163702 0.023582 -0.004061 -76331.000000 1 0 0
19.634530 0.079438 -2.262953 19.764666 0.004046 1.685543 -0.010872 0.010964 88535.700000 1 0 0
7.544030 -13.266462 11.673947 19.214381 -1.053744 0.917808 -0.001142 0.004534 312578.000000 1 0 0
16.291230 -6.676662 -3.547353 17.960114 -0.388953 1.769616 0.022486 0.002300 174723.000000 1 0 0
14.445830 -7.183862 11.030747 19.543983 -0.461483 0.971082 -0.002120 -0.033221 354858.000000 1 0 0
16.211930 1.865538 10.853447 19.598577 0.114568 0.983890 0.006573 0.000742 250706.000000 1 0 0
16.325130 -10.108862 2.386547 19.349278 -0.554433 1.447141 -0.011737 -0.006538 332689.000000 1 0 0
16.112230 -7.316562 -5.992053 18.682632 -0.426258 1.897295 0.015794 0.006288 215893.000000 1 0 0
18.768930 -4.906962 5.543147 20.176162 -0.255717 1.292480 0.110100 -0.011196 -170716.000000 1 0 0
13.295130 -13.292962 7.896047 20.391442 -0.785317 1.173178 -0.004046 -0.002252 367485.000000 1 0 0
14.927330 -14.426562 -1.349753 20.803190 -0.768340 1.635724 0.011589 0.010580 183193.000000 1 0 0
18.520130 -6.550462 7.849247 21.154538 -0.339962 1.190664 0.008186 -0.004553 210960.000000 1 0 0
19.415130 3.280338 2.815947 19.890637 0.167377 1.428748 -0.001959 -0.000511 38263.400000 1 0 0
15.663930 -10.345562 8.010947 20.409915 -0.583701 1.167445 0.013940 -0.022347 125579.000000 1 0 0
14.096730 -4.536162 10.704547 18.272436 -0.311324 0.944892 0.000733 -0.004752 -213946.000000 1 0 0
18.661930 -7.857662 2.116347 20.359013 -0.398523 1.466657 0.012719 -0.006704 -21865.200000 1 0 0
19.029630 -6.341062 -1.327653 20.102203 -0.321649 1.636890 0.010866 -0.003816 30070.900000 1 0 0
14.375030 -13.899162 -6.209253 20.937598 -0.768569 1.871885 0.020133 0.003450 487899.000000 1 0 0
13.884430 -9.593162 10.173547 19.705513 -0.604612 1.028296 -0.008419 -0.004168 492084.000000 1 0 0
14.268830 2.332338 0.423547 14.464394 0.162024 1.541510 -0.000611 -0.002837 -131702.000000 1 0 0
13.235530 3.010338 13.477847 19.128350 0.223639 0.788936 0.029060 -0.015156 81049.800000 1 0 0
18.375630 -2.513562 9.699647 20.930001 -0.135944 1.088931 0.010131 0.008247 175756.000000 1 0 0
7.038130 -18.054462 4.984947 20.008713 -1.199090 1.319005 -0.001018 -0.015922 156351.000000 1 0 0
11.745330 -3.022362 15.463547 19.652195 -0.251860 0.665090 -0.021274 0.021172 193320.000000 1 0 0
11.122330 -13.368062 -7.310853 18.864249 -0.876841 1.968769 0.007467 0.001140 131121.000000 1 0 0
10.651730 -17.282162 4.211947 20.733378 -1.018447 1.366224 0.011137 -0.005883 480064.000000 1 0 0
18.240230 -0.261662 -5.766153 19.131727 -0.014344 1.876949 0.007593 0.011488 120172.000000 1 0 0
4.495830 -13.749662 11.611647 18.549826 -1.254777 0.894421 -0.006161 0.000007 192629.000000 1 0 0
9.129530 -2.305862 12.693547 15.804793 -0.247398 0.638240 -0.004815 -0.021930 452298.000000 1 0 0
9.155330 -9.216662 14.024847 19.117094 -0.788736 0.747150 -0.001449 -0.001453 322944.000000 1 0 0
21.002630 5.752638 -2.586753 21.929309 0.267344 1.689030 0.000401 0.012912 388998.000000 1 0 0
14.750330 -13.638562 2.057247 20.194427 -0.746256 1.468747 0.018416 0.011563 207510.000000 1 0 0
11.331930 -0.546962 15.376947 19.109221 -0.048230 0.635648 0.006892 0.000476 43485.100000 1 0 0
19.494030 0.185438 7.668847 20.949053 0.009512 1.196013 0.030893 -0.000769 -154127.000000 1 0 0
19.724130 0.890538 0.506847 19.750728 0.045119 1.545131 -0.003880 -0.004427 110589.000000 1 0 0
18.090330 0.392838 3.078747 18.354647 0.021712 1.402263 0.003330 -0.001867 69691.300000 1 0 0
10.311730 -8.272362 16.232747 20.934800 -0.676098 0.683455 -0.002465 0.001337 203930.000000 1 0 0
19.131130 2.978138 5.533647 20.136800 0.154430 1.292412 0.015126 0.001903 72756.700000 1 0 0
15.467030 2.207838 6.994747 17.118121 0.141787 1.149859 0.009239 -0.005669 -19276.600000 1 0 0
11.227830 -16.026862 2.061347 19.676728 -0.959692 1.465843 -0.002054 0.016577 218715.000000 1 0 0
8.826230 -16.304662 6.957247 19.802718 -1.074633 1.211807 0.003942 0.007467 355563.000000 1 0 0
6.124830 6.608238 7.217447 11.544432 0.823345 0.895423 0.003254 0.003820 -802124.000000 1 0 0
18.297730 2.654438 -6.805553 19.701993 0.144064 1.923488 -0.015149 0.016346 190356.000000 1 0 0
14.035830 4.381738 -7.191853 16.368473 0.302595 2.025696 -0.001039 -0.001740 275221.000000 1 0 0
-10.502370 -3.986662 -14.154153 18.070232 0.362794 2.470730 0.000974 0.008537 -10027.500000 1 0 0
7.358430 -14.327062 -10.279553 19.107077 -1.096325 2.138856 -0.001051 0.009195 48348.600000 1 0 0
1.991630 -15.817362 13.988747 21.209446 -1.445541 0.850573 -0.012605 -0.002958 352206.000000 1 0 0
-9.400970 -8.109762 2.452247 12.655433 0.711793 1.375792 0.008199 0.000181 379724.000000 1 0 0
-13.759870 3.071538 -9.694053 17.109735 -0.219624 2.173147 0.003216 0.000760 239672.000000 1 0 0
-13.156270 -5.166462 -13.008153 19.209159 0.374197 2.314726 0.010227 0.002894 45775.900000 1 0 0
-17.358370 0.143338 -8.786253 19.455893 -0.008257 2.039352 -0.008475 -0.010153 430823.000000 1 0 0
-12.100970 15.221638 4.279047 19.910851 -0.899121 1.354196 0.005443 -0.006669 349180.000000 1 0 0
-17.067870 6.538938 9.124347 20.428500 -0.365865 1.107781 -0.014100 0.007519 159607.000000 1 0 0
-13.898970 15.238138 0.072347 20.624923 -0.831327 1.567289 0.028634 -0.027250 150636.000000 1 0 0
-15.640570 5.318738 -10.579653 19.617478 -0.327793 2.140399 -0.008873 0.001128 16667.500000 1 0 0
-18.264970 2.990338 0.039447 18.508182 -0.162280 1.568665 0.023878 0.001246 -14231.700000 1 0 0
-9.562970 15.351638 -0.364853 18.090227 -1.013688 1.590966 0.001193 -0.007226 3750.450000 1 0 0
-18.112670 12.121238 2.022347 21.887967 -0.589764 1.478269 0.027619 -0.011014 -178424.000000 1 0 0
-8.649770 16.478638 -7.746253 20.158583 -1.087421 1.965209 0.027866 -0.027538 -90459.900000 1 0 0
-14.983970 -1.866162 -13.199053 20.055346 0.123906 2.289131 -0.010392 0.001798 24126.600000 1 0 0
-19.088870 5.260738 -4.646753 20.338452 -0.268916 1.801303 0.035740 0.002031 -46648.000000 1 0 0
-16.816070 9.689438 -5.582053 20.194671 -0.522736 1.850855 0.014612 0.015784 -193556.000000 1 0 0
-18.879270 1.035938 2.514447 19.074130 -0.054817 1.438586 0.005740 -0.004745 234698.000000 1 0 0
-13.594670 12.159238 -7.115653 19.577912 -0.729719 1.942768 0.006795 -0.002476 71428.000000 1 0 0
-12.989070 5.612438 -13.384053 19.476865 -0.407860 2.328392 0.010052 0.000497 -276752.000000 1 0 0
-14.063670 9.517038 -6.655853 18.239002 -0.594924 1.944348 0.005325 -0.001682 350283.000000 1 0 0
-6.366170 11.976638 -15.244253 20.404784 -1.082229 2.414473 -0.008884 -0.002426 -104574.000000 1 0 0
-14.998170 13.818038 2.970347 20.608402 -0.744467 1.426160 0.012702 -0.010938 40028.800000 1 0 0
-18.754970 8.491238 -4.830853 21.146800 -0.425135 1.801275 0.022562 0.001938 163578.000000 1 0 0
-3.997870 16.983538 -9.924253 20.072726 -1.339608 2.087958 0.010594 -0.009124 -7200.910000 1 0 0
-19.274270 -1.987662 -6.699853 20.502105 0.102762 1.903700 -0.005504 -0.003373 -253382.000000 1 0 0
-10.800870 14.093338 -6.204153 18.808840 -0.916893 1.906944 0.010405 -0.013826 97683.100000 1 0 0
-19.459770 2.916238 4.488347 20.182476 -0.148753 1.346533 0.025111 -0.002345 83910.000000 1 0 0
-14.947870 12.105338 0.672147 19.246553 -0.680710 1.535866 0.000587 -0.013304 100577.000000 1 0 0
-17.461870 2.806038 -8.279853 19.528100 -0.159333 2.008650 -0.003003 -0.005653 243983.000000 1 0 0
-16.340570 14.216138 -4.080653 22.040066 -0.715986 1.757018 0.000686 0.036814 275806.000000 1 0 0
-10.694570 15.869638 -8.413753 20.904795 -0.977802 1.985020 0.014286 -0.019835 29771.000000 1 0 0
-18.962170 1.655738 -6.930153 20.256662 -0.087097 1.919965 0.004353 -0.012245 192967.000000 1 0 0
-16.850570 10.458638 -0.366753 19.835809 -0.555479 1.589287 -0.004653 0.001337 -113405.000000 1 0 0
-11.675470 6.976938 -14.539353 19.909471 -0.538633 2.389518 0.003184 -0.000371 331634.000000 1 0 0
-13.069770 12.529338 -4.447553 18.643603 -0.764290 1.811675 0.020139 -0.014215 271691.000000 1 0 0
-18.871170 7.263038 0.398447 20.224528 -0.367400 1.551094 0.016212 0.000602 140066.000000 1 0 0
-14.609470 9.135238 -10.539853 20.198457 -0.558812 2.119773 0.002130 0.006762 390627.000000 1 0 0
-18.260370 11.888238 4.599447 22.269401 -0.577106 1.362762 -0.004681 0.008104 258964.000000 1 0 0
-8.142470 11.887138 -13.684453 19.871289 -0.970221 2.330428 -0.015568 -0.004815 423201.000000 1 0 0
-20.995970 -1.620162 -5.207153 21.692628 0.077013 1.813206 -0.012886 -0.004656 254724.000000 1 0 0
-10.988970 13.794038 -3.663653 18.012643 -0.898104 1.775619 0.014959 0.005651 575893.000000 1 0 0
-18.705470 -4.739962 3.835047 19.674080 0.248176 1.374611 0.014335 -0.012945 -11690.800000 1 0 0
-11.559170 11.742138 -12.726753 20.819761 -0.793250 2.228476 0.010538 -0.004059 136758.000000 1 0 0
-14.851270 11.833938 -10.622053 21.758454 -0.672805 2.080800 0.003012 0.006766 172126.000000 1 0 0
-12.572170 9.584538 -14.092553 21.178358 -0.651366 2.298856 0.017770 -0.004168 382630.000000 1 0 0
-18.259870 -4.893062 -2.993353 19.139620 0.261817 1.727837 -0.022565 0.000248 -255942.000000 1 0 0
-9.455570 12.717738 -11.436053 19.543080 -0.931472 2.195888 0.005982 -0.010889 86030.600000 1 0 0
-15.634870 7.610038 -8.088853 19.177888 -0.452979 2.006204 -0.008135 0.005227 -8580.160000 1 0 0
-14.386570 9.116438 1.829147 17.129758 -0.564815 1.463810 0.002665 0.004571 -64135.700000 1 0 0
-19.661270 6.206938 7.606647 21.976185 -0.305792 1.217352 0.015765 0.003300 110020.000000 1 0 0
-18.570470 5.968338 3.974447 19.906774 -0.310962 1.369793 -0.006273 0.011857 58193.900000 1 0 0
-14.455870 12.769038 5.903247 20.170990 -0.723518 1.273789 0.000405 -0.004448 205286.000000 1 0 0
18.023130 6.189638 5.447947 19.819813 0.330808 1.292338 0.006535 -0.008061 259692.000000 1 0 0
18.358630 7.180538 0.285347 19.714990 0.372833 1.556322 0.011459 -0.001439 29172.000000 1 0 0
16.860730 4.192238 8.138747 19.185888 0.243697 1.132713 0.007288 -0.012460 -92340.800000 1 0 0
11.651130 13.045538 10.715147 20.512174 0.841800 1.021157 -0.009287 -0.005629 114145.000000 1 0 0
15.212330 12.527338 4.196947 20.148537 0.688906 1.360959 0.001656 0.004626 165276.000000 1 0 0
5.200330 10.303238 14.729547 18.712555 1.103374 0.664625 0.006374 -0.002271 257526.000000 1 0 0
13.255430 13.186138 -5.483553 19.484610 0.782778 1.856080 0.017024 0.000348 368487.000000 1 0 0
17.722330 8.975838 -3.366553 20.148954 0.468811 1.738667 -0.005744 0.012674 -97308.900000 1 0 0
14.258830 7.828038 9.486647 18.830531 0.502072 1.042815 -0.001422 -0.008961 123716.000000 1 0 0
4.780430 19.001438 -1.463153 19.648104 1.324329 1.645333 0.002396 -0.011283 638442.000000 1 0 0
-4.559470 19.269338 3.415247 20.093782 -1.338452 1.400002 -0.004767 -0.000869 84553.400000 1 0 0
6.981130 12.768238 12.750747 19.348014 1.070446 0.851280 0.004556 0.007930 -129128.000000 1 0 0
0.154130 17.370738 -10.135553 20.112079 1.561924 2.098966 0.009618 0.004632 12829.400000 1 0 0
10.861130 9.129038 15.710647 21.169032 0.698967 0.734520 0.021126 -0.015583 1158.820000 1 0 0
-1.170370 12.248938 1.040247 12.348618 -1.475537 1.486456 -0.004683 0.000953 436821.000000 1 0 0
-4.792070 19.351438 -2.607553 20.105756 -1.328046 1.700855 0.001879 0.002273 -8394.440000 1 0 0
5.823230 18.476338 6.224447 20.347698 1.265479 1.259908 0.010737 -0.012447 286369.000000 1 0 0
11.256030 17.353538 -1.327353 20.726924 0.995385 1.634880 0.008942 0.010813 441236.000000 1 0 0
18.426830 10.502738 3.324947 21.468834 0.518046 1.415297 0.008385 0.007663 210261.000000 1 0 0
11.638530 16.823638 6.216547 21.380731 0.965597 1.275781 0.011043 0.006853 -177997.000000 1 0 0
18.061930 7.824938 -6.485653 20.725025 0.408819 1.889081 -0.003312 0.019000 393960.000000 1 0 0
0.918530 15.975738 10.881147 19.351157 1.513364 0.973632 -0.007289 0.012667 508555.000000 1 0 0
1.205230 20.195538 -2.003953 20.330474 1.511189 1.669526 -0.006182 -0.006988 335873.000000 1 0 0
14.483530 9.922238 -1.286453 17.603364 0.600636 1.643941 0.006588 0.006193 1011.510000 1 0 0
10.181030 16.815338 2.528647 19.819259 1.026371 1.442862 0.026508 -0.016272 388650.000000 1 0 0
0.428630 17.738238 -0.276453 17.745569 1.546637 1.586376 -0.009548 -0.003490 49577.600000 1 0 0
-0.372870 21.082038 1.472147 21.136664 -1.553112 1.501091 -0.000684 -0.003352 302465.000000 1 0 0
6.251130 16.984838 -0.407053 18.103233 1.218140 1.593283 0.006463 -0.026139 -61772.100000 1 0 0
6.554430 18.535538 -3.307353 19.936532 1.230905 1.737461 -0.017289 -0.003182 95381.000000 1 0 0
10.344830 9.570838 12.667347 18.949357 0.746554 0.838627 -0.003310 -0.005717 116009.000000 1 0 0
12.577230 14.674838 8.077947 20.947334 0.862217 1.174904 -0.002437 -0.010256 287305.000000 1 0 0
0.447830 17.682638 6.852847 18.969390 1.545476 1.201179 -0.006094 -0.001253 178240.000000 1 0 0
6.878530 17.989238 -7.865053 20.803507 1.205581 1.958500 -0.007941 -0.011768 100070.000000 1 0 0
-0.766970 18.533638 9.324247 20.761155 -1.529437 1.105016 0.014097 -0.007062 83516.600000 1 0 0
16.006730 6.809438 -8.199553 19.230614 0.402219 2.011283 0.019147 0.001736 -245428.000000 1 0 0
-5.024270 19.684438 -6.925853 21.463639 -1.320891 1.899354 -0.011375 -0.020488 328719.000000 1 0 0
4.514830 15.789138 10.074947 19.266166 1.292283 1.020506 -0.003601 0.011227 213419.000000 1 0 0
9.335530 14.894338 7.551347 19.131552 1.010915 1.165048 0.004076 0.006895 46335.300000 1 0 0
-2.562970 19.255538 6.647047 20.531142 -1.438471 1.241101 0.003473 -0.003895 97986.600000 1 0 0
4.784630 18.137538 8.413447 20.558431 1.312875 1.149169 -0.001726 -0.000144 186826.000000 1 0 0
15.015830 11.228538 -7.391453 20.154126 0.642079 1.946306 0.008497 -0.020219 -35724.700000 1 0 0
12.208630 6.831938 15.588147 20.945557 0.510183 0.731427 0.042832 -0.006827 286998.000000 1 0 0
16.882630 9.673838 4.874647 20.059126 0.520334 1.325325 -0.001835 -0.000284 106273.000000 1 0 0
5.693830 14.395538 12.919947 20.163736 1.194152 0.875319 -0.009543 -0.004234 268693.000000 1 0 0
15.931630 10.531538 -3.821153 19.476430 0.584101 1.768271 0.014629 0.000521 172478.000000 1 0 0
15.509630 13.657138 6.983147 21.813537 0.721970 1.244931 0.006911 0.012368 418423.000000 1 0 0
12.621830 14.630838 -7.905753 20.877570 0.858983 1.959157 0.032870 -0.007546 293391.000000 1 0 0
-8.238070 15.714938 9.613847 20.180464 -1.087962 1.074248 0.015201 -0.005462 240830.000000 1 0 0
-4.938170 17.106738 -7.341953 19.259550 -1.289768 1.961902 0.006303 0.002640 51775.000000 1 0 0
2.540630 19.275538 -4.711253 20.004926 1.439746 1.808534 -0.008042 -0.021637 58581.400000 1 0 0
7.137330 17.049638 8.655947 20.409730 1.174341 1.132819 -0.004087 0.015432 472898.000000 1 0 0
13.440730 15.327038 -1.401853 20.433710 0.850875 1.639455 0.016958 0.005340 152136.000000 1 0 0
13.511730 16.017538 4.804147 21.499028 0.870054 1.345435 0.015522 -0.008240 240211.000000 1 0 0
2.591030 18.376138 0.610347 18.567940 1.430720 1.537919 0.007203 -0.015804 76459.800000 1 0 0
-6.856270 18.096638 1.214747 19.390007 -1.208637 1.508107 -0.023882 0.026672 259742.000000 1 0 0
0.460330 20.078838 -5.894253 20.931169 1.547874 1.856259 0.005702 -0.002211 249856.000000 1 0 0
-7.523970 18.036438 -6.478353 20.588644 -1.175590 1.890891 0.021957 -0.025179 81613.600000 1 0 0
-7.391370 18.608238 -1.448053 20.074753 -1.192698 1.642992 0.007747 -0.007292 51861.400000 1 0 0
-14.181770 -8.508162 8.917147 18.789011 0.540373 1.076294 0.019551 -0.012578 157768.000000 1 0 0
-13.327170 -13.500562 8.179147 20.658584 0.791861 1.163727 0.033532 -0.008819 -32245.000000 1 0 0
-3.239870 -15.567262 13.143547 20.629814 1.365605 0.880048 0.000899 0.001262 21980.000000 1 0 0
-2.012070 -14.602962 15.592947 21.457748 1.433873 0.757317 -0.003104 -0.006807 494678.000000 1 0 0
-8.067170 -13.670762 12.816147 20.401534 1.037685 0.891565 0.025973 -0.011671 268877.000000 1 0 0
-10.085370 -11.470962 11.641147 19.204530 0.849588 0.919564 0.037949 -0.002113 96077.600000 1 0 0
-7.314970 -10.589662 13.122147 18.380437 0.966295 0.775717 0.024778 -0.009195 295784.000000 1 0 0
-15.337470 -12.389362 7.267047 21.012954 0.679469 1.217666 0.012241 -0.003536 307149.000000 1 0 0
-4.414870 -12.013262 12.913247 18.181350 1.218617 0.780947 0.013924 -0.023904 263488.000000 1 0 0
3.532130 -12.264162 13.901347 18.871488 -1.290381 0.742719 -0.012909 -0.001855 468267.000000 1 0 0
6.701330 -13.507562 14.434547 20.873864 -1.110260 0.807215 -0.005007 -0.000411 298507.000000 1 0 0
7.208530 -8.961962 16.728247 20.300589 -0.893410 0.602313 -0.009809 0.006380 567075.000000 1 0 0
-4.984470 13.562138 13.604747 19.846049 -1.218592 0.815487 0.005218 0.009804 452550.000000 1 0 0
-13.535170 -1.776462 17.552647 22.236278 0.130502 0.661014 0.015257 -0.007537 326778.000000 1 0 0
-10.062270 9.435538 13.061547 18.996912 -0.753266 0.812671 0.010803 -0.010633 257811.000000 1 0 0
-7.811970 -7.933962 17.170847 20.464912 0.793146 0.575283 0.025809 -0.009332 147619.000000 1 0 0
-5.036870 2.167338 18.399347 19.199047 -0.406347 0.289639 0.017997 -0.003417 522697.000000 1 0 0
-15.807770 -3.472862 14.566447 21.774475 0.216258 0.837976 0.018061 -0.009392 217490.000000 1 0 0
-14.581170 2.879038 12.505347 19.423776 -0.194942 0.871321 0.000956 0.003306 213614.000000 1 0 0
-13.789170 10.988238 10.555347 20.549889 -0.672832 1.031369 -0.056798 0.051227 -127943.000000 1 0 0
-3.556470 11.253138 15.999547 19.881326 -1.264687 0.635538 -0.011299 -0.000631 163169.000000 1 0 0
-13.195070 12.918238 7.966647 20.111146 -0.774797 1.163497 0.004489 -0.022223 226332.000000 1 0 0
-3.809970 -6.346762 18.605847 20.024356 1.030155 0.378660 0.013193 -0.012070 166528.000000 1 0 0
0.947330 -2.841962 18.222447 18.467046 -1.249043 0.162938 0.008950 -0.007846 177290.000000 1 0 0
-4.503970 6.313638 21.180547 22.555783 -0.951152 0.350999 0.028112 -0.009566 387137.000000 1 0 0
2.348830 -10.457462 16.431047 19.617717 -1.349855 0.577992 -0.015235 -0.007844 291232.000000 1 0 0
-14.718470 -0.202062 14.217947 20.465195 0.013728 0.802741 -0.030277 0.006744 -201663.000000 1 0 0
-14.123670 -5.922862 7.613247 17.103213 0.397081 1.109471 0.025829 -0.008538 88574.000000 1 0 0
10.185130 1.727838 16.220547 19.230925 0.168043 0.567101 0.010027 -0.004880 145729.000000 1 0 0
-7.587970 12.347038 12.227047 18.961206 -1.019741 0.869975 0.016973 -0.002834 148756.000000 1 0 0
-1.666970 7.386538 20.175047 21.549299 -1.348838 0.359060 0.029067 -0.017411 418596.000000 1 0 0
1.264130 -13.286762 15.562347 20.501774 -1.475940 0.708908 -0.013346 -0.007468 596461.000000 1 0 0
-3.436870 -11.740062 17.495147 21.347630 1.286007 0.610196 0.015429 -0.020044 212581.000000 1 0 0
-1.996370 8.691838 17.087847 19.275063 -1.345029 0.481014 0.012065 -0.005981 510322.000000 1 0 0
-3.807170 -10.025862 20.486347 23.123643 1.207881 0.482262 0.006483 0.000412 198030.000000 1 0 0
-6.560970 -2.858162 19.106547 20.402832 0.410841 0.358382 0.020818 -0.015539 -89694.100000 1 0 0
-10.506170 -8.315462 15.936347 20.820511 0.669526 0.699109 0.041826 -0.007846 179385.000000 1 0 0
-0.381770 6.357338 18.012847 19.105606 -1.510817 0.339851 0.022902 -0.007130 128955.000000 1 0 0
-5.769470 -11.471562 18.905347 22.853789 1.104802 0.596636 0.027914 -0.004222 390034.000000 1 0 0
0.322230 3.465138 18.633747 18.955937 1.478071 0.184636 0.016364 -0.013270 188132.000000 1 0 0
-18.547370 -0.269762 7.730647 20.095786 0.014543 1.175924 0.017652 -0.006101 187426.000000 1 0 0
-1.739570 -8.819562 17.755147 19.901157 1.376056 0.468677 -0.001500 -0.003073 97519.700000 1 0 0
6.001630 3.421838 14.988347 16.503912 0.518183 0.431906 0.019670 -0.006851 427950.000000 1 0 0
-13.520670 -6.492562 10.441047 18.275047 0.447679 0.962673 0.011626 -0.008779 95908.600000 1 0 0
3.727630 8.069438 17.091247 19.264522 1.138054 0.479582 0.022560 -0.008186 132711.000000 1 0 0
6.430730 4.506538 17.455247 19.140241 0.611250 0.422746 0.030150 -0.026297 129204.000000 1 0 0
5.455030 -9.402862 18.195347 21.195326 -1.045104 0.538536 -0.001605 0.008905 370600.000000 1 0 0
-4.437570 -0.679762 20.220447 20.712812 0.152002 0.218476 0.016287 -0.003252 680613.000000 1 0 0
-11.025770 1.905238 16.936147 20.298537 -0.171109 0.583838 0.036369 -0.019135 221281.000000 1 0 0
-16.719270 -4.115862 9.028147 19.441753 0.241375 1.087874 0.019037 -0.014459 402714.000000 1 0 0
-14.050770 -9.306162 11.763547 20.552611 0.584990 0.961412 0.065101 -0.019713 168426.000000 1 0 0
-14.679970 6.041938 13.090147 20.575677 -0.390447 0.881240 -0.002457 -0.008838 297896.000000 1 0 0
1.383630 9.019138 16.973947 19.271071 1.418573 0.493248 0.015454 -0.028071 101046.000000 1 0 0
-3.669570 -10.571462 15.069647 18.770078 1.236689 0.638728 0.016120 -0.009197 605714.000000 1 0 0
-18.725170 -3.413662 6.990447 20.276869 0.180323 1.218824 0.092784 -0.015194 -480356.000000 1 0 0
-1.159770 -0.244362 21.528847 21.561448 0.207661 0.054998 0.012781 0.010468 318955.000000 1 0 0
-1.842370 2.406638 20.413547 20.637324 -0.917426 0.147397 0.015245 -0.012164 151822.000000 1 0 0
-7.942470 2.198238 16.450647 18.399426 -0.270011 0.464413 0.010879 0.006150 503575.000000 1 0 0
2.901130 -1.761862 18.992347 19.293262 -0.545771 0.176848 0.012186 0.001199 683.324000 1 0 0
-12.458170 4.330238 14.236047 19.406751 -0.334519 0.747249 0.002727 -0.004961 208784.000000 1 0 0
-13.844070 -5.881462 13.534247 20.234271 0.401732 0.838099 0.058413 -0.000840 27344.700000 1 0 0
-17.121470 -1.520862 9.563647 19.670310 0.088595 1.063064 0.003981 -0.014431 97851.400000 1 0 0
-7.081970 7.785538 15.068747 18.380317 -0.832685 0.609681 0.005959 -0.001880 20767.300000 1 0 0
-9.557570 0.611138 14.021047 16.979706 -0.063856 0.599260 0.021457 -0.008494 243150.000000 1 0 0
8.118630 -1.056662 15.223447 17.285313 -0.129425 0.493425 0.015725 -0.003185 149255.000000 1 0 0
4.021530 6.302638 18.513047 19.965692 1.002853 0.383815 0.026702 -0.004949 34373.500000 1 0 0
1.440230 0.438238 20.271447 20.327270 0.295382 0.074127 0.012477 0.005537 187237.000000 1 0 0
-6.810570 6.886638 17.615447 20.102578 -0.790952 0.502714 0.002975 -0.007578 467610.000000 1 0 0
7.737230 -3.453862 16.590547 18.629014 -0.419852 0.472187 -0.004311 0.004851 410212.000000 1 0 0
-16.405670 2.133538 9.183147 18.921633 -0.129323 1.064061 0.005413 -0.004018 314032.000000 1 0 0
4.426830 -5.698562 18.932747 20.261277 -0.910342 0.364141 0.016094 -0.011747 117198.000000 1 0 0
-3.814570 -3.896862 20.582047 21.292185 0.796069 0.258995 0.014162 -0.011885 212182.000000 1 0 0
-9.718770 6.097138 14.597347 18.566425 -0.560292 0.666124 0.019087 -0.004478 -19147.900000 1 0 0
6.839930 2.632638 19.710847 21.029335 0.367415 0.355988 0.027729 -0.018970 150483.000000 1 0 0
-7.227170 11.183738 14.782647 19.895594 -0.997082 0.733238 0.016996 -0.010351 335905.000000 1 0 0
-14.347970 5.061638 9.896347 18.149989 -0.339147 0.994105 -0.008173 0.003461 279538.000000 1 0 0
1.521130 -5.374962 20.141047 20.901336 -1.295005 0.270547 0.010035 -0.017898 360064.000000 1 0 0
-5.825070 -8.409362 13.839347 17.209775 0.964994 0.636542 0.014921 -0.004567 305156.000000 1 0 0
-12.632570 10.247738 6.477647 17.508794 -0.681542 1.191825 -0.022113 -0.009712 56235.200000 1 0 0
-19.408770 1.750938 7.777747 20.982361 -0.089970 1.191055 -0.005742 -0.000273 61105.700000 1 0 0
-15.251270 8.853138 6.536447 18.807031 -0.525947 1.215836 -0.026555 0.004641 114031.000000 1 0 0
-12.956470 7.133438 14.465047 20.688007 -0.503280 0.796519 0.015668 -0.009858 259397.000000 1 0 0
-16.456170 9.046638 11.092247 21.810207 -0.502645 1.037261 -0.013821 0.010383 120771.000000 1 0 0
2.355130 10.995938 14.363247 18.241715 1.359802 0.664241 -0.006991 -0.044105 277906.000000 1 0 0
1.772630 14.339838 13.683047 19.899723 1.447804 0.812618 -0.010938 -0.005677 457529.000000 1 0 0
9.147930 4.884938 16.615347 19.586143 0.490471 0.557989 0.019708 -0.005423 170104.000000 1 0 0
-0.281970 13.252238 13.579247 18.976229 -1.549522 0.773324 0.003243 0.013005 144208.000000 1 0 0
4.663430 12.788838 14.861547 20.153599 1.221132 0.741563 0.016660 0.006552 37799.900000 1 0 0
-3.790070 -4.401262 -13.555853 14.747775 0.859875 2.736788 -0.002498 -0.001881 101634.000000 1 0 0
5.939530 -12.134962 16.751047 21.520523 -1.115619 0.678722 -0.037552 0.023526 180767.000000 1 0 0
8.548630 -13.490762 7.299947 17.560438 -1.005990 1.142079 -0.009110 -0.005120 348036.000000 1 0 0
-0.179370 15.318038 0.447847 15.325633 -1.559087 1.541570 -0.003452 -0.007408 -340947.000000 1 0 0
-14.425170 7.811038 8.763447 18.598275 -0.496284 1.080149 0.010866 0.007561 -48587.400000 1 0 0
-15.799470 -9.659562 5.750647 19.390728 0.548749 1.269701 -0.002326 0.000425 240695.000000 1 0 0
9.162030 -10.108562 11.345047 17.743616 -0.834477 0.877095 -0.004455 0.003243 97571.900000 1 0 0
-25.013470 6.089838 31.361441 40.574620 -0.238816 0.687346 0.006186 -0.004974 -390238.000000 0 0 1
-24.157470 4.984738 31.370931 39.906970 -0.203488 0.666320 0.004326 -0.011531 -27389.400000 0 0 1
-23.049470 5.300738 32.216091 39.965640 -0.226042 0.633273 0.009035 -0.005178 310431.000000 0 0 1
-21.776870 4.591638 31.667171 38.705618 -0.207805 0.612602 0.016167 -0.015875 -239807.000000 0 0 1
-21.725670 3.197038 31.889501 38.719066 -0.146106 0.603045 0.020516 -0.017642 286538.000000 0 0 1
-20.695170 2.510138 31.176651 37.504325 -0.120701 0.589387 0.015585 -0.018431 227058.000000 0 0 1
-20.054970 1.299138 31.936231 37.733439 -0.064688 0.561675 0.004323 -0.014246 233817.000000 0 0 1
-20.716370 0.018738 31.853601 37.997634 -0.000904 0.576630 0.011411 0.000009 279818.000000 0 0 1
-20.642770 -0.701562 33.049331 38.972739 0.033973 0.558574 0.006634 0.004635 -411851.000000 0 0 1
-21.067170 -2.155162 32.945151 39.164440 0.101945 0.571297 0.009527 -0.016309 -438792.000000 0 0 1
-20.254370 -3.004862 32.147891 38.115031 0.147282 0.567134 0.024509 -0.025307 34347.700000 0 0 1
-20.349870 -4.387962 32.347211 38.467044 0.212374 0.571839 0.030066 -0.030582 -408699.000000 0 0 1
-21.715070 -5.051162 32.045901 39.038420 0.228547 0.607844 0.024435 -0.021654 613790.000000 0 0 1
-22.832470 -4.761362 32.905921 40.333508 0.205588 0.616606 0.024507 -0.019710 811714.000000 0 0 1
-22.763370 -5.230762 34.251717 41.457351 0.225868 0.598482 0.019822 -0.012187 -394147.000000 0 0 1
-23.868570 -4.587262 -34.108813 41.882726 0.189873 2.522471 0.025703 -0.009559 345109.000000 0 0 1
-23.849070 -5.065862 -32.788803 40.860086 0.209303 2.502212 0.024085 -0.010348 810214.000000 0 0 1
-24.968670 -4.493062 -32.078443 40.898026 0.178043 2.472447 0.013978 -0.004874 340624.000000 0 0 1
-25.098890 -4.943262 -30.596143 39.881249 0.194463 2.445231 0.000021 -0.004702 -961540.000000 0 0 1
-25.454560 -6.333362 -30.531713 40.252100 0.243859 2.431823 0.005739 -0.004018 696353.000000 0 0 1
-25.100990 -6.938862 -29.293133 39.195601 0.269702 2.414873 -0.017366 -0.002684 -192154.000000 0 0 1
-25.262610 -8.447162 -29.209993 39.531983 0.322687 2.402226 -0.011149 -0.003110 -542007.000000 0 0 1
-26.620090 -8.799662 -29.243043 40.511958 0.319257 2.377250 0.005744 -0.002957 -221804.000000 0 0 1
-26.732030 -10.177062 -29.044293 40.764506 0.363764 2.363836 0.009903 -0.004633 660409.000000 0 0 1
-28.196040 -10.652562 -28.761363 41.661850 0.361226 2.332773 0.046125 -0.002590 764473.000000 0 0 1
-28.317480 -11.273462 -27.514303 41.061021 0.378876 2.305117 0.045827 -0.009704 -373593.000000 0 0 1
-29.658110 -11.373662 -27.105033 41.756993 0.366195 2.277215 0.034990 -0.009150 -411655.000000 0 0 1
-29.894390 -12.123162 -25.765613 41.285741 0.385267 2.244750 0.020270 -0.003206 135945.000000 0 0 1
-29.077480 -11.650762 -24.700253 39.891635 0.381092 2.238499 0.017350 -0.002347 497709.000000 0 0 1
-29.410500 -12.367262 -23.497353 39.623885 0.398057 2.205588 0.012550 -0.003310 -268588.000000 0 0 1
-28.821870 -11.674262 -22.306053 38.269421 0.384851 2.193051 0.012591 -0.004860 -126405.000000 0 0 1
-28.674750 -12.360062 -21.022853 37.642698 0.406978 2.163354 0.012014 -0.004825 415660.000000 0 0 1
-27.704300 -13.401262 -20.933053 37.219817 0.450543 2.168102 -0.001089 -0.003872 -344123.000000 0 0 1
-27.481530 -13.705362 -19.469353 36.361066 0.462616 2.135831 -0.006053 -0.009919 -365065.000000 0 0 1
-27.020700 -12.596662 -18.731453 35.208826 0.436232 2.131769 0.003948 -0.010784 284482.000000 0 0 1
-26.837190 -12.937462 -17.385853 34.494645 0.449203 2.099039 0.001859 -0.001968 -261886.000000 0 0 1
-26.618580 -11.658662 -16.520053 33.427314 0.412821 2.087720 0.017171 -0.012269 -649.045000 0 0 1
-25.314100 -11.123862 -16.636153 32.269266 0.414032 2.112436 0.014510 -0.007625 174844.000000 0 0 1
-25.251210 -9.846162 -16.008653 31.477730 0.371794 2.104320 0.023036 -0.007464 157160.000000 0 0 1
-23.876470 -9.092462 -15.991153 30.140930 0.363857 2.130041 0.027265 -0.006028 -2653.150000 0 0 1
-22.976970 -9.614162 -15.055753 29.104105 0.396289 2.114497 0.015720 -0.010435 27358.800000 0 0 1
-21.766370 -8.888162 -15.094653 27.939628 0.387679 2.141542 0.018822 -0.023967 -553922.000000 0 0 1
-20.736470 -9.343662 -14.098353 26.759461 0.423345 2.125692 0.007706 -0.001057 -863493.000000 0 0 1
-19.914070 -10.384962 -14.529153 26.749091 0.480690 2.144998 0.008109 0.004761 -446804.000000 0 0 1
-18.720170 -10.332262 -13.806053 25.452063 0.504325 2.144127 0.011850 0.008824 -476369.000000 0 0 1
-17.703570 -11.404162 -14.240153 25.421511 0.572268 2.165377 0.012212 0.009067 -700403.000000 0 0 1
-17.045870 -11.161162 -15.470453 25.582575 0.579723 2.220218 0.003001 0.000987 -115377.000000 0 0 1
-17.871870 -11.199162 -16.629553 26.858276 0.559775 2.238468 0.004396 -0.004681 -95658.900000 0 0 1
-17.049070 -11.079262 -17.926853 27.107063 0.576267 2.293394 -0.003595 0.001750 -427975.000000 0 0 1
-17.926670 -11.110462 -18.990653 28.380499 0.554832 2.303853 -0.003845 0.003693 -278906.000000 0 0 1
-17.379670 -10.850262 -20.241053 28.800717 0.558101 2.350118 -0.003481 -0.001319 -121496.000000 0 0 1
-18.340470 -11.237862 -21.427253 30.360987 0.549731 2.354277 0.002656 0.002188 303050.000000 0 0 1
-19.367370 -10.283162 -21.589653 30.772578 0.488102 2.348419 -0.004822 -0.005868 245620.000000 0 0 1
-20.350670 -10.759762 -22.517453 32.201831 0.486357 2.345158 0.010996 0.001390 513086.000000 0 0 1
-21.332670 -9.645462 -22.941553 32.778538 0.424636 2.346048 -0.005295 -0.005096 -310556.000000 0 0 1
-20.723570 -8.684862 -23.699853 32.658478 0.396847 2.382830 -0.010987 -0.005911 -44305.200000 0 0 1
-21.644270 -8.181262 -24.628653 33.793165 0.361387 2.387372 -0.021030 -0.006357 -308985.000000 0 0 1
-20.970170 -7.459062 -25.798183 34.072450 0.341743 2.429746 -0.016710 -0.008393 -207013.000000 0 0 1
-20.208170 -8.345362 -26.589943 34.424413 0.391637 2.453432 -0.006650 -0.017135 -36237.400000 0 0 1
-19.737170 -7.732962 -27.741223 34.913178 0.373415 2.489108 -0.009917 -0.026357 207663.000000 0 0 1
-18.377670 -8.281662 -28.280103 34.728790 0.423384 2.522341 0.014603 -0.026776 283258.000000 0 0 1
-18.545170 -9.533762 -28.986833 35.707876 0.474851 2.517985 0.019061 -0.025051 235227.000000 0 0 1
-17.356670 -9.981762 -29.600553 35.736288 0.521907 2.546872 0.003249 -0.016876 -163246.000000 0 0 1
-17.556270 -11.189062 -30.473073 36.905635 0.567414 2.542243 0.000995 -0.009640 -520398.000000 0 0 1
-18.173570 -10.865862 -31.685203 38.109023 0.538869 2.552483 0.000585 -0.010613 307596.000000 0 0 1
-18.381070 -12.023662 -32.427573 39.166052 0.579275 2.546240 -0.002771 -0.006672 -384338.000000 0 0 1
-19.074370 -11.856762 -33.742373 40.533469 0.556156 2.554324 0.000457 -0.009086 -387747.000000 0 0 1
-18.239470 -11.399062 34.451324 40.614167 0.558575 0.558108 -0.002914 -0.007509 111053.000000 0 0 1
-18.839270 -11.419762 33.145291 39.798736 0.544942 0.586609 0.004824 -0.012636 -94492.000000 0 0 1
-18.380770 -12.606662 32.260441 39.211180 0.601174 0.604589 0.005519 -0.007696 -1344890.000000 0 0 1
-17.091070 -12.412762 31.833141 38.203798 0.628141 0.585845 0.018360 -0.009490 -766791.000000 0 0 1
-16.555970 -13.307362 30.826951 37.436438 0.677042 0.603335 0.019733 -0.009187 217383.000000 0 0 1
-16.517870 -14.813762 31.166601 38.257608 0.731062 0.618669 0.017009 -0.003750 -793800.000000 0 0 1
-17.785870 -15.411962 31.117081 39.014593 0.714012 0.647531 0.002750 -0.000775 -311821.000000 0 0 1
-17.779270 -16.688962 31.723561 40.012600 0.753776 0.655342 0.016427 -0.005672 -226998.000000 0 0 1
-17.823870 -16.794362 33.310275 41.343867 0.755668 0.633960 -0.000790 -0.011301 -330984.000000 0 0 1
-16.704370 -16.189662 33.891527 41.106894 0.769752 0.601526 0.005563 -0.007289 -250094.000000 0 0 1
-16.928470 -15.991862 -33.972833 41.188179 0.756955 2.540680 0.005379 -0.001961 913640.000000 0 0 1
-15.643270 -15.445862 -33.221353 39.836476 0.779049 2.557011 -0.008171 0.002339 807187.000000 0 0 1
-15.384970 -14.092562 -33.607493 39.557062 0.741582 2.586014 -0.005546 -0.005283 -115244.000000 0 0 1
-14.372770 -13.500462 -32.806193 38.276432 0.754113 2.600383 0.002220 -0.001788 -198353.000000 0 0 1
-14.750570 -13.249562 -31.339953 37.085345 0.731842 2.577505 0.014536 -0.001814 -445805.000000 0 0 1
-15.090870 -14.405562 -30.601073 37.036201 0.762169 2.543210 0.012760 0.004483 -154527.000000 0 0 1
-15.472570 -14.032062 -29.328313 36.006237 0.736614 2.522722 0.007777 0.006620 -742608.000000 0 0 1
-15.617170 -15.249362 -28.370713 35.795759 0.773483 2.485812 0.002327 0.019842 -84314.100000 0 0 1
-14.431870 -15.830462 -27.878383 35.158023 0.831581 2.486424 -0.003585 0.010274 207653.000000 0 0 1
-13.554170 -16.431962 -28.843573 35.856332 0.881076 2.505496 -0.012218 0.004130 10540.300000 0 0 1
-12.096670 -16.630862 -28.398793 35.062892 0.941941 2.514844 -0.015298 0.011474 341643.000000 0 0 1
-11.246970 -15.487662 -28.498313 34.329518 0.942709 2.550155 -0.021099 0.016971 69913.300000 0 0 1
-9.891170 -15.801562 -28.259633 33.854563 1.011506 2.558450 -0.011409 0.010779 604809.000000 0 0 1
-8.911670 -14.582762 -28.269983 33.034326 1.022248 2.597845 -0.013096 0.015463 32578.100000 0 0 1
-9.186070 -13.809662 -27.176283 31.837729 0.983816 2.593629 -0.011016 0.003341 -463012.000000 0 0 1
-8.269270 -12.817462 -26.904693 30.927830 0.997834 2.625833 -0.000061 0.002766 -597129.000000 0 0 1
-8.155070 -11.567162 -27.883423 31.269628 0.956710 2.671904 -0.004183 -0.006314 -65825.300000 0 0 1
-7.540070 -11.743362 -29.169723 32.336232 1.000015 2.695351 0.009053 -0.010689 384524.000000 0 0 1
-7.380570 -10.534862 -29.885463 32.536088 0.959678 2.735149 -0.003234 -0.004913 117534.000000 0 0 1
-6.445570 -10.728062 -31.115453 33.538159 1.029779 2.759168 -0.000740 0.008589 390587.000000 0 0 1
-5.053570 -10.847362 -30.839073 33.079484 1.134815 2.771439 0.011462 0.008231 1199730.000000 0 0 1
-4.101070 -10.657262 -31.895303 33.877815 1.203449 2.797792 0.013257 0.012056 338136.000000 0 0 1
-3.877070 -9.167262 -32.219003 33.721425 1.170684 2.841964 -0.004922 0.007934 -728652.000000 0 0 1
-2.737870 -8.887262 -33.046163 34.329699 1.271955 2.867280 -0.013409 0.008783 502904.000000 0 0 1
-2.674470 -7.525462 -33.330393 34.273903 1.229328 2.906409 -0.029508 0.003441 127350.000000 0 0 1
-1.280570 -6.967062 -33.730933 34.466732 1.389022 2.934593 -0.021019 0.002375 181683.000000 0 0 1
-1.022070 -7.137862 34.181392 34.933669 1.428573 0.207905 -0.014289 -0.010504 48046.700000 0 0 1
0.212330 -6.590962 33.755039 34.393146 -1.538592 0.192930 -0.022199 0.003625 130728.000000 0 0 1
0.731630 -7.233262 32.439021 33.243728 -1.469991 0.220475 -0.022142 0.006967 -432354.000000 0 0 1
-0.025270 -6.905562 31.313541 32.065952 1.567137 0.217057 -0.025456 0.011758 75968.900000 0 0 1
0.502630 -7.514962 30.157041 31.083346 -1.504012 0.244744 -0.016962 0.005025 -68112.400000 0 0 1
-0.009470 -6.877062 28.906261 29.713061 1.569419 0.233567 -0.012980 0.005559 -92205.000000 0 0 1
0.741330 -5.670262 28.621191 29.186881 -1.440794 0.197203 -0.005357 0.009746 489586.000000 0 0 1
0.326230 -4.940362 27.489761 27.932070 -1.504858 0.178197 0.003750 0.012660 -156830.000000 0 0 1
-1.094670 -4.306562 27.585991 27.941576 1.321881 0.159707 0.004753 0.017866 -401453.000000 0 0 1
-2.146370 -5.171662 27.394921 27.961307 1.177405 0.201618 0.010646 0.011555 -1571020.000000 0 0 1
-3.281370 -4.369262 27.268401 27.810493 0.926648 0.197768 0.005866 0.006501 -274058.000000 0 0 1
-4.587370 -5.180862 27.502371 28.359578 0.846081 0.246495 -0.001876 0.009248 60596.700000 0 0 1
-5.193170 -5.755962 26.375001 27.490740 0.836754 0.285880 -0.002111 0.008683 287790.000000 0 0 1
-6.479170 -6.281262 26.717141 28.199991 0.769890 0.325732 -0.006411 0.004661 649509.000000 0 0 1
-6.652870 -7.807662 26.807601 28.703096 0.865087 0.365453 0.000376 0.000659 3772.090000 0 0 1
-5.799870 -8.407262 27.773081 29.591630 0.966905 0.352406 0.001126 -0.004888 54374.700000 0 0 1
-5.988670 -9.803962 27.912261 30.184038 1.022443 0.390455 0.009573 -0.009690 -264289.000000 0 0 1
-4.894170 -10.356262 28.811161 31.004646 1.129324 0.378411 0.005864 -0.021187 -381979.000000 0 0 1
-4.898870 -11.764162 28.862991 31.551017 1.176213 0.415774 0.012098 -0.026869 413597.000000 0 0 1
-4.247070 -12.304562 30.058561 32.756021 1.238438 0.408671 0.019734 -0.029485 -46721.300000 0 0 1
-4.279470 -13.879162 30.028091 33.356127 1.271708 0.450505 0.028106 -0.032314 -176121.000000 0 0 1
-5.572470 -14.440762 30.038411 33.791924 1.202517 0.475808 0.054519 -0.035690 -362966.000000 0 0 1
-5.584570 -15.852162 30.103801 34.477780 1.232082 0.509197 0.038750 -0.035568 -110972.000000 0 0 1
-5.750970 -16.390162 31.563691 36.027457 1.233338 0.503082 0.030645 -0.027535 -588130.000000 0 0 1
-7.007470 -16.289162 32.145031 36.711639 1.164536 0.504102 0.036391 -0.025710 -821893.000000 0 0 1
-7.126270 -16.858962 33.404366 38.090156 1.170876 0.501252 0.028977 -0.013750 -813141.000000 0 0 1
-8.504570 -17.248362 33.916935 38.989642 1.112712 0.515805 0.023309 -0.003356 -553435.000000 0 0 1
-8.977170 -18.506262 33.423069 39.245036 1.119149 0.551669 0.021037 -0.002692 672247.000000 0 0 1
-9.802670 -18.433762 32.223921 38.396315 1.082051 0.574903 0.025384 -0.012142 148281.000000 0 0 1
-10.565870 -19.737462 31.881801 38.957082 1.079293 0.612205 0.027828 -0.016902 -337744.000000 0 0 1
-11.442870 -20.260862 32.824981 40.235819 1.056679 0.616659 0.039648 -0.009372 -67928.600000 0 0 1
-11.654870 -21.657562 32.697191 40.914451 1.077102 0.644900 0.035538 -0.008673 80436.900000 0 0 1
-10.845070 -22.540662 33.708084 41.975372 1.122355 0.638410 0.037490 -0.006782 628807.000000 0 0 1
-9.553970 -22.996062 33.289650 41.572803 1.177033 0.642241 0.026167 -0.003379 254574.000000 0 0 1
-8.940970 -23.807562 34.279434 42.682790 1.211542 0.638282 0.016570 0.000592 84750.500000 0 0 1
-9.495170 -25.218792 34.485969 43.765600 1.210701 0.663292 0.022748 0.001036 -287977.000000 0 0 1
-9.178670 -26.097562 33.432106 43.393968 1.232602 0.691278 0.025292 0.008318 -196883.000000 0 0 1
-9.054670 -27.384862 33.942426 44.542182 1.251467 0.704356 0.025380 0.009442 -315098.000000 0 0 1
-8.347570 -28.212712 32.821671 44.078352 1.283124 0.730829 0.043072 -0.000047 880939.000000 0 0 1
-6.982070 -27.860852 32.574451 43.428921 1.325248 0.722638 0.024723 -0.005183 695954.000000 0 0 1
-6.012870 -28.599202 33.339370 44.334891 1.363568 0.719721 0.031230 -0.009261 1590060.000000 0 0 1
-4.547270 -27.981822 33.225243 43.675815 1.409697 0.706368 0.018758 -0.008261 1324740.000000 0 0 1
-4.375970 -26.741782 33.928551 43.421407 1.408596 0.673925 0.007974 0.001817 37643.200000 0 0 1
-4.402770 -25.636292 33.024651 42.038452 1.400716 0.667160 0.021232 0.008138 -116278.000000 0 0 1
-4.221470 -24.332062 33.794026 41.855779 1.399012 0.631078 0.004648 0.007232 135987.000000 0 0 1
-2.953370 -24.201062 34.403179 42.166248 1.449362 0.616523 -0.011877 0.009615 80737.500000 0 0 1
-2.838170 -22.822062 -34.465242 41.433737 1.447071 2.553168 -0.011879 0.010340 -17324.200000 0 0 1
33.203656 -15.724062 2.478847 36.822189 -0.442276 1.503426 0.051855 -0.026108 166004.000000 0 0 1
34.130581 -16.001362 3.544547 37.861643 -0.438400 1.477041 0.047566 -0.026086 579255.000000 0 0 1
33.506836 -16.561662 4.701447 37.670948 -0.459059 1.445667 0.056197 -0.032955 112075.000000 0 0 1
34.430633 -16.622362 5.936947 38.691327 -0.449776 1.416744 0.053039 -0.014213 -36938.600000 0 0 1
-34.654933 -17.660662 5.954547 39.348697 0.471310 1.418885 0.065515 -0.016627 -424101.000000 0 0 1
-33.810150 -17.593462 7.062547 38.762556 0.479803 1.387573 0.055656 -0.009593 -370320.000000 0 0 1
-32.522760 -18.398062 6.975347 38.011499 0.514816 1.386244 0.040708 -0.022707 -730750.000000 0 0 1
-32.723310 -19.767362 6.984847 38.863244 0.543411 1.390085 0.073104 -0.026316 -197694.000000 0 0 1
-31.631740 -20.494262 7.468447 38.423423 0.574899 1.375179 0.045033 -0.017826 -346028.000000 0 0 1
-31.998690 -21.989362 7.496147 39.542893 0.602081 1.380072 0.031005 -0.012057 -262125.000000 0 0 1
-31.764830 -22.718362 6.272847 39.553470 0.620858 1.411532 0.051489 -0.017179 178838.000000 0 0 1
-32.042620 -24.086862 6.521547 40.613261 0.644597 1.409521 0.065722 -0.015291 -277287.000000 0 0 1
-31.693230 -25.147252 5.460847 40.824820 0.670739 1.436631 0.061324 -0.013894 207002.000000 0 0 1
-32.403620 -25.051172 4.212347 41.174017 0.658121 1.468311 0.059380 -0.012206 315982.000000 0 0 1
-31.766930 -25.871082 3.274647 41.099562 0.683462 1.491036 0.059289 -0.011453 -106156.000000 0 0 1
-32.087110 -25.444492 1.853447 40.993171 0.670447 1.525567 0.050696 -0.014422 35070.200000 0 0 1
-33.330240 -25.961012 1.389647 42.270677 0.661744 1.537915 0.044918 -0.011480 170971.000000 0 0 1
-33.800880 -25.271242 0.283647 42.204450 0.641996 1.564075 0.030245 0.001135 -332021.000000 0 0 1
-34.812431 -24.172362 0.623747 42.386289 0.606931 1.556080 0.040435 -0.003596 -441080.000000 0 0 1
33.865406 -24.584562 0.388947 41.849943 -0.627930 1.561502 0.035985 -0.002571 -151531.000000 0 0 1
32.998916 -23.519462 0.710847 40.528988 -0.619221 1.553256 0.048551 -0.006080 -251486.000000 0 0 1
31.526006 -23.778562 0.404547 39.490160 -0.646217 1.560552 0.014454 0.002516 -231561.000000 0 0 1
31.362066 -23.689562 -0.983553 39.315925 -0.646921 1.595816 0.017990 -0.009548 295260.000000 0 0 1
29.989766 -23.644362 -1.378453 38.214422 -0.667636 1.606876 0.005552 0.004510 710941.000000 0 0 1
29.783836 -23.298062 -2.877453 37.923032 -0.663817 1.646745 -0.006101 0.017948 45374.100000 0 0 1
30.139336 -21.917162 -3.138253 37.397730 -0.628745 1.654811 0.007585 -0.002765 36204.400000 0 0 1
30.303126 -21.688362 -4.509653 37.536669 -0.621194 1.691227 0.006641 -0.025081 -256694.000000 0 0 1
30.290376 -20.250462 -4.929353 36.768011 -0.589301 1.705268 0.023117 -0.024293 57355.700000 0 0 1
29.216886 -19.562162 -4.313453 35.424716 -0.589996 1.692863 0.017817 -0.021620 -147248.000000 0 0 1
29.091696 -18.135362 -4.462653 34.570702 -0.557438 1.700245 0.016327 -0.017879 119239.000000 0 0 1
27.950966 -17.641562 -3.518953 33.239499 -0.563017 1.676862 0.009967 -0.012302 83014.200000 0 0 1
28.243106 -17.385362 -2.175853 33.236399 -0.551783 1.636309 0.000363 -0.008244 -248331.000000 0 0 1
28.806396 -18.367562 -1.366353 34.191267 -0.567624 1.610769 -0.001794 0.007118 -532851.000000 0 0 1
27.984946 -19.669362 -1.230353 34.227983 -0.612640 1.606750 -0.012402 0.008435 157811.000000 0 0 1
26.991646 -19.530062 -0.217453 33.316956 -0.626363 1.577323 -0.018898 0.031273 302567.000000 0 0 1
26.433976 -20.802662 0.103947 33.638024 -0.666743 1.567706 -0.032452 0.035999 257298.000000 0 0 1
25.380226 -20.774762 1.258547 32.822714 -0.685945 1.532443 -0.041442 0.040957 -580448.000000 0 0 1
24.567966 -21.915262 1.547447 32.958433 -0.728392 1.523828 -0.045690 0.053642 -100572.000000 0 0 1
23.841166 -21.721562 2.740647 32.368791 -0.738911 1.486025 -0.056583 0.057862 467185.000000 0 0 1
22.494066 -20.941462 2.512547 30.835706 -0.749668 1.489224 -0.052547 0.044047 -694802.000000 0 0 1
22.561566 -19.635062 2.071647 29.980855 -0.716155 1.501642 -0.031907 0.027317 -90956.600000 0 0 1
22.812166 -18.678162 3.134847 29.649552 -0.686088 1.464868 -0.030979 0.028431 -491407.000000 0 0 1
22.822466 -17.206162 2.641247 28.703539 -0.646001 1.478648 -0.027653 0.029097 -430738.000000 0 0 1
21.608066 -16.881462 2.039647 27.496408 -0.663208 1.496549 -0.014077 0.022564 -463916.000000 0 0 1
21.544166 -15.471762 1.820047 26.586446 -0.622798 1.502285 0.004792 0.005152 -519151.000000 0 0 1
20.174866 -15.135962 1.246647 25.252262 -0.643654 1.521408 0.008136 0.005700 -91978.000000 0 0 1
19.130566 -15.079362 2.251747 24.462954 -0.667525 1.478619 0.008947 0.007858 489877.000000 0 1 0
18.139366 -14.133262 1.939647 23.077000 -0.661897 1.486646 0.020905 0.000962 -379493.000000 0 1 0
18.407866 -12.639762 2.276647 22.445406 -0.601710 1.469191 0.016895 0.000617 -657551.000000 0 1 0
19.435366 -12.135662 1.468747 22.960074 -0.558176 1.506783 0.013376 -0.004098 184561.000000 0 1 0
19.682066 -10.761262 1.799647 22.503938 -0.500348 1.490741 0.007225 -0.007602 -141520.000000 0 1 0
20.602766 -10.025162 0.821547 22.927119 -0.452865 1.534956 0.013493 -0.007010 -204623.000000 0 1 0
19.937666 -9.881262 -0.434853 22.256212 -0.460128 1.590336 0.012199 0.002624 748085.000000 0 1 0
20.694666 -9.217762 -1.446153 22.700831 -0.419036 1.634544 0.011634 0.009372 -240842.000000 0 1 0
19.788466 -8.925362 -2.656053 21.870073 -0.423717 1.692544 0.003627 0.013537 -366278.000000 0 1 0
20.293066 -7.941862 -3.574153 22.082941 -0.373035 1.733363 -0.005979 0.013918 904053.000000 0 1 0
21.435066 -8.278962 -4.368553 23.389903 -0.368584 1.758670 -0.005380 0.014581 -208702.000000 0 1 0
21.438366 -9.611262 -5.241853 24.071912 -0.421456 1.790313 0.005437 0.010054 -531044.000000 0 1 0
20.852766 -9.656062 -6.524553 23.888223 -0.433661 1.847440 0.003011 0.008883 -645063.000000 0 1 0
19.472866 -9.546662 -6.425753 22.619054 -0.455821 1.858849 0.000588 0.012032 -1313930.000000 0 1 0
18.810066 -9.596962 -7.823153 22.519369 -0.471777 1.925590 -0.001497 0.014527 -259358.000000 0 1 0
18.844566 -10.837762 -8.499753 23.341392 -0.521919 1.943516 -0.002121 0.015635 960179.000000 0 1 0
20.094366 -11.045962 -9.167253 24.694845 -0.502616 1.951120 0.008545 0.009489 284538.000000 0 1 0
20.234966 -12.437262 -9.845653 25.711403 -0.551116 1.963762 0.016414 0.006435 -132646.000000 0 0 1
19.291766 -12.599762 -10.886653 25.484220 -0.578563 2.012181 0.020449 0.004832 161711.000000 0 0 1
18.999866 -13.971062 -11.109053 26.069073 -0.634042 2.011017 0.014754 0.002730 -15241.800000 0 0 1
17.669266 -14.152462 -11.880453 25.566390 -0.675329 2.054081 0.021280 -0.000360 11198.100000 0 0 1
17.521366 -15.476862 -12.260853 26.398107 -0.723519 2.053821 0.024951 -0.005516 416305.000000 0 0 1
16.506066 -15.706262 -13.249753 26.357026 -0.760574 2.097519 0.028749 -0.008242 68248.700000 0 0 1
16.369866 -17.233362 -13.598953 27.384171 -0.811089 2.090472 0.029920 -0.016513 -289386.000000 0 0 1
15.655666 -18.027862 -12.645153 27.018579 -0.855708 2.057842 0.031750 -0.006573 252604.000000 0 0 1
15.583566 -19.372662 -13.094153 28.099901 -0.893372 2.055545 0.020543 -0.000062 -382963.000000 0 0 1
14.600266 -20.167962 -12.206253 27.729174 -0.944187 2.026613 0.010482 0.003875 841767.000000 0 0 1
13.247866 -19.808762 -12.552253 26.934217 -0.981326 2.055599 0.013613 0.003188 471762.000000 0 0 1
12.347666 -20.611762 -11.811553 26.773539 -1.031069 2.027693 0.014960 0.006283 -266377.000000 0 0 1
10.856466 -20.420562 -12.053653 26.079738 -1.082155 2.051253 0.008862 0.004255 158256.000000 0 0 1
10.062766 -21.173262 -11.101953 25.938767 -1.127137 2.013082 0.012501 0.003111 -120594.000000 0 0 1
8.715566 -20.802362 -11.072153 25.125523 -1.174044 2.027145 -0.004232 0.011844 -244240.000000 0 0 1
7.919966 -21.442762 -9.918953 24.917936 -1.216985 1.980203 -0.003219 0.002217 -305382.000000 0 1 0
7.924666 -22.841062 -9.983553 26.156945 -1.236843 1.962408 -0.001752 0.001065 198496.000000 0 0 1
7.113366 -23.425562 -8.965453 26.071753 -1.275987 1.921838 -0.001693 -0.024225 73233.600000 0 0 1
7.011466 -24.905762 -9.129753 27.437384 -1.296379 1.910013 0.014167 -0.013928 330041.000000 0 0 1
8.267166 -25.566862 -9.035153 28.348624 -1.258053 1.895171 0.011712 -0.001157 -36460.800000 0 0 1
8.237266 -26.933612 -9.511753 29.727857 -1.273994 1.896485 -0.005218 0.003133 -1049800.000000 0 0 1
9.552166 -27.645762 -9.609653 30.787619 -1.238118 1.888228 -0.002834 0.016462 -1030300.000000 0 0 1
10.160266 -27.782612 -8.360753 30.740962 -1.220199 1.846240 0.012925 0.009473 476081.000000 0 0 1
11.541166 -28.149432 -8.557053 31.603990 -1.181702 1.844977 0.030903 0.017396 651911.000000 0 0 1
12.225666 -28.170712 -7.178153 31.536991 -1.161340 1.800419 0.027109 0.003777 -353343.000000 0 0 1
12.034266 -29.282542 -6.257753 32.271509 -1.180868 1.765942 0.045887 0.003169 735603.000000 0 0 1
10.720566 -29.381372 -5.668253 31.785605 -1.220931 1.750083 0.041387 0.004868 737806.000000 0 0 1
10.546766 -30.556032 -4.639653 32.656267 -1.238438 1.713354 0.058843 0.001105 20841.500000 0 0 1
10.394766 -31.948322 -5.028753 33.971088 -1.256237 1.719373 0.060084 0.001789 66524.900000 0 0 1
9.199166 -32.182802 -5.771753 33.965726 -1.292379 1.741554 0.060232 0.000558 405774.000000 0 0 1
9.174666 -33.624222 -6.177853 35.396733 -1.304422 1.746226 0.052601 -0.000503 17932.500000 0 0 1
8.855966 -34.503668 -5.124353 35.988752 -1.319552 1.713670 0.047596 -0.002889 -51640.500000 0 0 1
9.293066 33.477108 -5.438253 35.166070 1.300019 1.726064 0.041546 -0.002899 61012.200000 0 0 1
8.956466 32.383756 -4.446253 33.892405 1.300968 1.702363 0.020687 0.002991 1648430.000000 0 0 1
7.552366 31.984336 -4.543253 33.176455 1.338917 1.708170 0.024013 -0.004083 1032790.000000 0 0 1
7.363566 31.010886 -3.607853 32.076686 1.337663 1.683511 0.000185 -0.004477 588651.000000 0 0 1
5.948866 30.320996 -3.576153 31.105316 1.377061 1.686020 0.002006 -0.003770 856974.000000 0 0 1
5.601966 29.610406 -4.799453 30.515454 1.383817 1.728731 -0.004687 -0.007641 168488.000000 0 0 1
5.109666 30.443296 -5.844953 31.417614 1.404504 1.757927 0.017596 -0.010119 -627673.000000 0 0 1
5.158766 29.786416 -7.243753 31.085614 1.399306 1.805984 0.027617 -0.016508 -58471.400000 0 0 1
4.317266 28.632736 -7.395253 29.885818 1.421143 1.820844 0.028830 -0.016536 125739.000000 0 0 1
4.910366 27.418086 -7.006053 28.721907 1.393583 1.817210 0.011115 -0.012124 -153645.000000 0 0 1
4.068866 26.192316 -7.505153 27.548510 1.416682 1.846718 0.008404 -0.019250 383434.000000 0 0 1
2.719166 26.116736 -7.067053 27.192297 1.467054 1.833706 0.009179 -0.019210 124296.000000 0 0 1
1.821266 26.790106 -7.958153 28.006410 1.502918 1.858921 0.028212 -0.025712 368011.000000 0 0 1
1.271866 26.052316 -9.243953 27.672938 1.522015 1.911386 0.047788 -0.026620 754825.000000 0 0 1
2.437066 25.791116 -10.058853 27.790313 1.476584 1.941161 0.029030 -0.024200 918571.000000 0 0 1
2.192166 24.843276 -11.111253 27.303002 1.482784 1.989921 0.034809 -0.022104 -381136.000000 0 0 1
1.934066 23.337846 -10.873353 25.819091 1.488113 2.005494 0.040258 -0.023850 -282714.000000 0 0 1
0.647166 23.071146 -10.398453 25.314510 1.542753 1.994095 0.049385 -0.026706 -564627.000000 0 0 1
0.603166 21.694446 -10.285653 24.016816 1.543001 2.013372 0.025783 -0.024217 -692213.000000 0 1 0
-0.421434 20.913446 -9.457753 22.956457 -1.550648 1.995430 0.042263 -0.021897 -147717.000000 0 1 0
-1.725834 21.121346 -9.980053 23.424159 -1.489267 2.010927 0.059384 -0.023745 -465210.000000 0 1 0
-2.591634 20.220246 -9.391253 22.444834 -1.443321 2.002496 0.048036 -0.023921 -26482.100000 0 1 0
-4.079334 20.354246 -9.818453 22.963848 -1.373000 2.012590 0.046938 -0.030838 -15500.500000 0 1 0
-4.938134 19.466346 -9.210353 22.094216 -1.322361 2.000792 0.025948 -0.038580 -925088.000000 0 1 0
-6.023634 19.241246 -10.053153 22.529439 -1.267403 2.033337 0.025090 -0.029383 -1107730.000000 0 1 0
-6.980334 18.199546 -9.465353 21.668905 -1.204556 2.022854 0.026123 -0.024142 -391055.000000 0 1 0
-7.934334 18.705546 -8.565753 22.050470 -1.169629 1.969757 0.027967 -0.023077 202733.000000 0 1 0
-9.206434 18.935446 -9.166853 22.963901 -1.118249 1.981424 0.028581 -0.029279 188504.000000 0 1 0
-10.305234 19.077646 -8.086453 23.141848 -1.075529 1.927759 0.044214 -0.033606 -124569.000000 0 1 0
-10.426234 17.947946 -7.257053 21.988632 -1.044528 1.907139 0.036257 -0.032312 -753722.000000 0 1 0
-11.132534 18.354046 -6.152553 22.330657 -1.025579 1.849927 0.039709 -0.026376 -733335.000000 0 1 0
-11.767834 17.155046 -5.421953 21.498258 -0.969549 1.825754 0.036930 -0.030207 -779942.000000 0 1 0
-12.487834 17.565146 -4.346953 21.985822 -0.952763 1.769824 0.041609 -0.028647 -466956.000000 0 1 0
-13.052834 16.432646 -3.743853 21.317241 -0.899526 1.747338 0.043822 -0.024278 154954.000000 0 1 0
-14.340934 16.817146 -2.929453 22.294853 -0.864704 1.702573 0.039017 -0.020754 661074.000000 0 1 0
-15.525834 16.582746 -3.683753 23.013236 -0.818303 1.731559 0.053735 -0.031717 699686.000000 0 1 0
-16.640934 17.260446 -3.121653 24.178263 -0.803670 1.700268 0.052623 -0.029689 201525.000000 0 1 0
-17.979734 17.237746 -3.879853 25.208411 -0.764333 1.725322 0.046687 -0.032843 -186908.000000 0 0 1
-17.971234 18.026446 -5.073553 25.954941 -0.786932 1.767539 0.051346 -0.033337 -173992.000000 0 0 1
-19.213834 18.627246 -5.323853 27.285328 -0.769898 1.767174 0.030758 -0.028883 -266975.000000 0 0 1
-19.199834 19.587246 -6.560453 28.201655 -0.795386 1.805574 0.017841 -0.010330 -158749.000000 0 0 1
-18.436134 20.725546 -6.293153 28.443682 -0.843792 1.793892 0.021748 -0.011532 -6253.060000 0 0 1
-18.527434 21.548046 -7.445853 29.377284 -0.860629 1.827048 0.008367 0.000183 152690.000000 0 0 1
-18.356734 23.048846 -7.034853 30.293698 -0.898238 1.805157 0.005895 -0.005824 659062.000000 0 0 1
-16.995634 23.379946 -6.751453 29.682580 -0.942223 1.800260 0.017550 -0.010050 663786.000000 0 0 1
-17.044134 24.433296 -5.794753 30.349096 -0.961698 1.762913 0.014607 -0.009592 -158560.000000 0 0 1
-15.669834 24.937056 -5.334553 29.930886 -1.009773 1.749983 0.020865 -0.009381 -398244.000000 0 0 1
-15.756134 25.953026 -4.396853 30.678130 -1.025171 1.714614 0.010421 -0.012903 -39860.200000 0 0 1
-14.502334 26.510156 -4.079453 30.491769 -1.070222 1.704987 0.011397 -0.012547 118210.000000 0 0 1
-14.042634 27.644136 -5.038953 31.413132 -1.100786 1.731901 0.018657 -0.010385 -147821.000000 0 0 1
-14.630534 28.857016 -4.590453 32.678007 -1.101564 1.711738 0.014388 -0.013403 100942.000000 0 0 1
-14.179734 29.936946 -5.414553 33.564907 -1.128447 1.732820 0.014729 -0.012845 -145500.000000 0 0 1
-14.761434 31.255256 -4.858053 34.905467 -1.129564 1.710427 0.017743 -0.010090 11191.800000 0 0 1
-16.153934 31.403966 -4.949353 35.660269 -1.095702 1.710038 0.026108 -0.010318 -377331.000000 0 0 1
-16.493634 32.449646 -4.044653 36.624837 -1.100544 1.681457 0.029588 -0.005951 -308620.000000 0 0 1
12.535030 -8.865062 18.975001 24.408338 -0.615557 0.680277 0.020224 0.006896 -28673.300000 0 1 0
12.767230 -10.173262 19.354201 25.319607 -0.672803 0.700693 0.031351 0.002361 186180.000000 0 0 1
13.540230 -10.934162 18.415901 25.338491 -0.679316 0.757151 0.037054 0.001199 110020.000000 0 0 1
13.872530 -12.339062 18.909901 26.500639 -0.726961 0.776224 0.043880 -0.008740 -328375.000000 0 0 1
14.963730 -12.363362 19.822601 27.743494 -0.690527 0.774894 0.037824 -0.006152 479716.000000 0 0 1
15.274830 -13.649762 20.374901 28.892439 -0.729274 0.788093 0.034483 -0.008468 -57078.900000 0 0 1
15.800330 -14.739062 19.432001 29.060162 -0.750661 0.838362 0.029270 -0.009413 -1075560.000000 0 0 1
14.783430 -15.155062 18.578901 28.167379 -0.797811 0.850524 0.029921 -0.010860 -134129.000000 0 0 1
14.996130 -16.385962 17.920601 28.540000 -0.829657 0.891929 0.027319 -0.016710 -758859.000000 0 0 1
14.489530 -16.492362 16.483201 27.452512 -0.849954 0.926763 0.019512 -0.019890 816528.000000 0 0 1
13.057930 -16.297462 16.382201 26.542293 -0.895309 0.905603 0.026448 -0.019123 963101.000000 0 0 1
12.636030 -16.302262 15.032801 25.522894 -0.911418 0.940984 0.027230 -0.025152 142020.000000 0 0 1
12.072330 -17.688062 14.538101 25.883683 -0.971903 0.974393 0.013926 -0.011594 -280909.000000 0 0 1
13.122330 -18.584362 14.351901 26.898905 -0.955991 1.008004 0.012611 -0.011483 -173969.000000 0 0 1
12.634230 -19.803962 13.833601 27.261497 -1.002928 1.038584 0.017005 -0.015325 -342315.000000 0 0 1
13.691530 -20.754062 13.242901 28.170259 -0.987630 1.081390 0.020578 -0.014363 -455448.000000 0 0 1
14.450030 -21.439462 14.179901 29.487684 -0.977739 1.069144 0.025860 -0.015824 -494156.000000 0 0 1
14.988630 -22.612462 13.662101 30.374915 -0.985442 1.104275 0.010664 -0.009425 -526969.000000 0 0 1
15.787230 -23.377662 14.710101 31.814129 -0.976832 1.090123 0.018042 -0.009515 -495656.000000 0 0 1
17.023730 -22.771662 14.925701 32.111252 -0.928843 1.087374 -0.015027 -0.012677 -760753.000000 0 0 1
17.665830 -23.199662 16.102901 33.310798 -0.919995 1.066246 -0.004734 -0.012068 1044490.000000 0 0 1
19.174230 -22.713562 16.191901 33.848702 -0.869693 1.072009 -0.021335 -0.021685 822691.000000 0 0 1
19.987130 -23.631762 15.555801 34.639984 -0.868761 1.105071 -0.007356 -0.019036 -2079440.000000 0 0 1
21.280630 -23.192162 15.585801 35.123479 -0.828354 1.111025 -0.013869 -0.010846 -1220410.000000 0 0 1
22.282430 -24.219362 15.036201 36.182475 -0.827027 1.142232 -0.022515 -0.019144 -310529.000000 0 0 1
22.409930 -25.362262 15.920301 37.401942 -0.847120 1.131111 -0.013228 -0.017698 -245885.000000 0 0 1
23.395030 -26.178232 15.381901 38.330538 -0.841482 1.157865 -0.012538 -0.019287 -503974.000000 0 0 1
23.944830 -27.274912 16.309001 39.790190 -0.850322 1.148479 -0.001863 -0.020914 -437446.000000 0 0 1
24.568330 -26.752752 17.423101 40.284948 -0.827936 1.123536 -0.007914 -0.009119 -272254.000000 0 0 1
25.123830 -27.742602 18.237101 41.634729 -0.834893 1.117395 0.005717 -0.004386 118088.000000 0 0 1
25.480330 -27.182502 19.618801 42.107398 -0.817709 1.086119 0.003348 -0.006589 -210639.000000 0 0 1
24.326930 -26.805542 20.311201 41.507608 -0.833835 1.059467 0.015825 -0.002873 -94401.200000 0 0 1
24.633430 -26.219502 21.596201 41.960268 -0.816577 1.030159 0.015314 -0.000630 -770316.000000 0 0 1
23.359730 -26.283772 22.407501 41.696640 -0.844231 1.003453 0.027364 -0.003853 -118039.000000 0 0 1
22.886130 -27.671612 22.455201 42.352439 -0.879771 1.011962 0.027945 -0.001600 -1055270.000000 0 0 1
21.704930 -27.837742 23.115001 42.194160 -0.908560 0.991035 0.026858 -0.000025 -979318.000000 0 0 1
21.295430 -29.318002 23.175901 43.013521 -0.942597 1.001778 0.058933 0.005358 234912.000000 0 0 1
22.266430 -30.095422 23.888901 44.409548 -0.933816 1.002825 0.046183 -0.001938 381883.000000 0 0 1
22.121530 -31.510932 23.655201 45.187050 -0.958711 1.019848 0.051555 -0.009106 -69459.500000 0 0 1
23.186730 -32.386042 24.345741 46.681852 -0.949447 1.022159 0.022450 -0.003877 31976.700000 0 0 1
23.017230 -32.330522 25.769191 47.319200 -0.952105 0.994906 0.022681 -0.004331 -234959.000000 0 0 1
24.056430 -32.929072 26.485601 48.626358 -0.939858 0.994794 0.027764 -0.002592 -956031.000000 0 0 1
23.735830 -33.330262 27.966651 49.562380 -0.951969 0.971245 0.022334 -0.008804 198763.000000 0 0 1
22.938430 -34.490846 28.101381 50.054746 -0.983908 0.974704 0.007022 -0.004524 -366588.000000 0 0 1
21.576030 -34.382609 27.833041 49.217548 -1.010382 0.969744 0.016163 -0.008576 -513030.000000 0 0 1
20.701530 33.666017 28.200281 48.551106 1.019487 0.951040 0.049118 -0.024332 348285.000000 0 0 1
20.321930 33.654996 29.595711 49.209204 1.027565 0.925511 0.036859 -0.025003 51147.300000 0 0 1
19.787730 32.461876 30.089281 48.483941 1.023371 0.901285 0.043351 -0.027626 -26501.800000 0 0 1
19.432030 32.605316 31.601861 49.390162 1.033340 0.876505 0.026626 -0.028339 -604012.000000 0 0 1
20.540830 32.736766 32.426601 50.449044 1.010434 0.872701 0.011760 -0.018017 -395482.000000 0 0 1
20.154930 33.054476 33.742530 51.355408 1.023239 0.853912 -0.002802 -0.016948 -561437.000000 0 0 1
21.378030 33.178486 -34.623546 52.503543 0.998414 2.290885 -0.016564 -0.012907 -420060.000000 0 0 1
21.791330 31.877466 -34.291818 51.642654 0.971164 2.296980 -0.016739 -0.007358 227887.000000 0 0 1
23.098430 31.900756 -33.726573 51.852458 0.944097 2.278951 -0.020507 -0.004628 325814.000000 0 0 1
23.675230 30.492946 -33.391263 51.042264 0.910602 2.283906 -0.014921 0.008230 -143865.000000 0 0 1
23.862030 29.725226 -34.580609 51.466533 0.894379 2.307574 -0.002244 0.005241 283437.000000 0 0 1
22.831530 28.761136 34.484766 50.375399 0.899827 0.816802 0.001713 -0.001879 -169006.000000 0 0 1
22.990030 27.856136 33.247917 49.091036 0.880810 0.826750 0.038456 -0.011077 738984.000000 0 0 1
24.207930 27.068556 33.306404 49.275218 0.841129 0.828576 0.027399 -0.015660 1260680.000000 0 0 1
24.568030 26.522726 32.067901 48.325908 0.823639 0.845208 0.043050 -0.028009 -827268.000000 0 0 1
25.899830 25.799336 31.984861 48.574049 0.783454 0.852004 0.034086 -0.018212 -716515.000000 0 0 1
26.027330 24.713266 32.820411 48.634831 0.759506 0.830057 0.045447 -0.012637 544415.000000 0 0 1
26.803630 24.996406 34.008250 49.998160 0.750524 0.822774 0.045560 -0.023634 -629033.000000 0 0 1
26.685030 24.049446 -34.037873 49.487811 0.733496 2.329255 0.042647 -0.019362 500635.000000 0 0 1
25.537830 24.262246 -33.177433 48.389869 0.759790 2.326262 0.039597 -0.014954 1323780.000000 0 0 1
24.223930 23.998546 -33.624943 47.889099 0.780724 2.349198 0.031308 -0.010822 -145680.000000 0 0 1
23.881630 22.470746 -33.660403 46.992440 0.754969 2.369273 0.014311 -0.004827 -559228.000000 0 0 1
23.788030 21.842246 -32.396373 45.743623 0.742782 2.357765 0.002775 -0.013989 374718.000000 0 0 1
23.419230 20.455946 -32.554083 45.018600 0.717962 2.379113 -0.002341 -0.001400 -115201.000000 0 0 1
23.275030 19.672046 -31.238383 43.641184 0.701701 2.368566 0.003832 -0.010239 -40583.900000 0 0 1
22.197130 20.110746 -30.424093 42.694029 0.736124 2.364004 0.003258 -0.008401 220894.000000 0 0 1
22.025930 19.321046 -29.198453 41.364164 0.720072 2.354472 0.010068 -0.007485 176910.000000 0 0 1
20.917530 19.810646 -28.225473 40.332147 0.758228 2.345950 0.025377 -0.012329 154438.000000 0 0 1
20.808730 19.134746 -26.980283 39.077838 0.743514 2.332872 0.022773 -0.004173 76744.100000 0 0 1
21.816930 19.524746 -26.050483 39.189562 0.730010 2.297929 0.025465 0.000429 209899.000000 0 0 1
21.883230 18.666846 -24.746353 37.943496 0.706245 2.281266 0.030039 0.004574 -94221.100000 0 0 1
22.665730 17.539746 -25.051653 38.065251 0.658588 2.289121 0.040626 -0.014436 -7751.500000 0 0 1
22.608430 16.541246 -24.069653 36.933753 0.631647 2.280617 0.037494 -0.007177 -554699.000000 0 0 1
23.734630 15.507746 -24.083153 37.199746 0.578748 2.274966 0.049003 -0.018728 -306967.000000 0 0 1
24.973830 16.005446 -23.597753 37.904095 0.569943 2.242812 0.061162 -0.028216 861016.000000 0 0 1
26.018330 15.016146 -23.467853 38.120575 0.523439 2.233971 0.056029 -0.033564 686227.000000 0 0 1
25.841030 14.096946 -22.183153 36.858852 0.499402 2.216600 0.054633 -0.027387 -833913.000000 0 0 1
24.720430 13.273946 -22.254753 35.813005 0.492779 2.241344 0.047643 -0.022978 -367682.000000 0 0 1
24.565930 12.566246 -21.025253 34.690874 0.472830 2.221912 0.037875 -0.024907 153042.000000 0 0 1
23.204430 11.833846 -20.858453 33.370055 0.471601 2.246011 0.030001 -0.014781 879379.000000 0 0 1
22.087230 12.676646 -20.573553 32.738573 0.521034 2.250316 0.043165 -0.013177 -277573.000000 0 0 1
20.979130 12.377946 -21.349953 32.390708 0.533043 2.290469 0.027758 -0.014322 444700.000000 0 0 1
19.874630 13.544446 -21.342153 32.154944 0.598198 2.296589 0.030135 -0.009753 244560.000000 0 0 1
20.294730 14.744546 -21.967953 33.344695 0.628304 2.290038 0.031431 -0.004621 209046.000000 0 0 1
19.367130 15.828546 -21.908253 33.250566 0.685195 2.290130 0.020147 0.000949 25752.400000 0 0 1
18.080830 15.687846 -22.751253 33.024906 0.714652 2.330783 0.028671 0.014263 542344.000000 0 0 1
17.064330 14.859646 -22.119653 31.643001 0.716447 2.344847 0.019722 0.003973 1137210.000000 0 0 1
15.886130 14.771346 -22.926853 31.562674 0.749052 2.383853 0.028425 -0.004845 578507.000000 0 0 1
14.722130 13.917246 -22.368853 30.179404 0.757301 2.405647 0.020596 -0.008279 407072.000000 0 0 1
13.563230 14.129246 -23.156353 30.328427 0.805835 2.439542 0.030688 -0.007653 -149295.000000 0 0 1
12.409630 13.462146 -22.681653 29.149368 0.826058 2.462461 0.050393 -0.010380 63905.600000 0 0 1
11.183630 13.961246 -23.471553 29.511079 0.895417 2.490376 0.045496 -0.006765 -278958.000000 0 0 1
10.833830 15.344746 -23.428653 30.028901 0.956036 2.465787 0.018665 0.001400 92444.600000 0 0 1
10.288030 15.870946 -24.614053 31.041619 0.995666 2.486411 0.012255 0.000388 -840783.000000 0 0 1
10.247930 17.425846 -24.645553 31.876064 1.039182 2.454618 -0.003143 0.008435 643957.000000 0 0 1
11.531330 18.066946 -24.452353 32.516206 1.002722 2.421895 0.002963 0.009307 1099730.000000 0 0 1
12.566830 17.823846 -25.421713 33.494450 0.956684 2.432546 0.008080 0.006688 35335.000000 0 0 1
12.250630 17.964246 -26.960713 34.636283 0.972291 2.462902 0.010739 -0.000906 -665459.000000 0 0 1
13.373030 17.870646 -27.799133 35.650943 0.928369 2.465077 0.011912 -0.003172 -60907.600000 0 0 1
12.850530 17.639846 -29.078803 36.357627 0.941201 2.497757 0.010033 -0.009314 542365.000000 0 0 1
13.802230 17.968946 -30.323853 37.853938 0.915802 2.499886 0.017203 -0.004261 505835.000000 0 0 1
15.001330 17.219146 -30.372693 38.000518 0.854122 2.496877 0.006630 0.001604 -11637.400000 0 0 1
15.739630 17.550246 -31.530423 39.368955 0.839734 2.499586 0.011716 0.012432 -22192.100000 0 0 1
16.947630 16.627646 -31.750643 39.645985 0.775868 2.499516 0.011663 0.003193 -305260.000000 0 0 1
17.901630 16.549046 -30.692803 39.196778 0.746157 2.470341 0.014480 0.000327 483628.000000 0 0 1
18.839030 15.484846 -30.883473 39.350710 0.687986 2.473212 0.016380 0.000946 906748.000000 0 0 1
20.166430 15.999546 -31.547113 40.717204 0.670688 2.457173 0.009257 0.001966 70845.100000 0 0 1
19.986330 16.401746 -32.944893 41.878833 0.687205 2.476196 0.004133 0.007647 -386738.000000 0 0 1
21.067230 17.206846 -33.284373 42.985500 0.684877 2.456430 0.003146 0.009829 -482301.000000 0 0 1
21.218430 17.469746 34.488635 44.100791 0.688805 0.672862 -0.000957 0.022467 -171803.000000 0 0 1
22.089130 18.555946 34.244081 44.776220 0.698688 0.700092 0.009091 0.019767 196860.000000 0 0 1
22.152630 18.835446 32.852651 43.872653 0.704644 0.724519 0.014584 0.017308 -467787.000000 0 0 1
22.813330 20.165446 32.545921 44.568265 0.723867 0.752110 0.025433 0.013072 -840731.000000 0 0 1
24.186430 20.037246 32.369141 45.102505 0.691849 0.770332 0.013864 0.010731 -722687.000000 0 0 1
24.819730 21.261946 32.034311 45.763374 0.708345 0.795400 0.026776 0.001702 -1034900.000000 0 0 1
26.298430 21.086346 31.851981 46.376612 0.675844 0.813704 0.010624 0.003353 -1212280.000000 0 0 1
26.969030 20.770846 33.052491 47.447063 0.656288 0.800123 0.013327 0.004917 -202012.000000 0 0 1
28.361430 20.845046 32.853351 48.147994 0.633818 0.819836 0.010091 0.006328 -40815.300000 0 0 1
29.274930 20.228646 33.924896 49.164197 0.604652 0.809262 0.006106 0.007473 -68582.800000 0 0 1
29.238030 20.805646 -34.051973 49.469932 0.618466 2.329990 0.003673 -0.001076 691161.000000 0 0 1
28.099630 20.464846 -33.226653 48.087520 0.629465 2.333615 0.009880 -0.008293 715897.000000 0 0 1
28.444130 20.624046 -31.735343 47.345029 0.627355 2.305408 0.010480 -0.008151 187250.000000 0 0 1
29.299730 19.642046 -31.169283 47.072374 0.590571 2.294489 0.009764 -0.005750 -17253.500000 0 0 1
29.797030 20.071146 -29.924123 46.756465 0.592784 2.265294 -0.004424 -0.004398 206631.000000 0 0 1
31.221130 19.509246 -29.629683 47.257674 0.558508 2.248469 0.006169 0.001890 769787.000000 0 0 1
32.198830 20.115046 -30.514253 48.708309 0.558393 2.247811 -0.018734 0.008925 -1905.270000 0 0 1
33.396330 20.235346 -29.794613 49.117238 0.544758 2.222576 -0.002405 0.011032 -199053.000000 0 0 1
34.464930 21.079346 -30.556343 50.654322 0.548918 2.218344 -0.004040 0.010859 -96929.400000 0 0 1
-34.946906 20.481146 -31.681053 51.424242 -0.530110 2.234543 -0.012412 0.011526 -152070.000000 0 0 1
-34.033306 21.454646 -32.148673 51.498592 -0.562474 2.244984 -0.003637 0.004169 -168176.000000 0 0 1
-33.202406 20.885846 -33.349053 51.485703 -0.561504 2.275403 -0.007764 0.005429 158313.000000 0 0 1
-32.239706 19.955646 -32.831453 50.155067 -0.554257 2.284448 0.008664 0.000580 82924.300000 0 0 1
-31.383406 19.570746 -33.873223 50.153041 -0.557593 2.312299 0.017147 0.005024 -345292.000000 0 0 1
-30.583606 18.380246 -33.373153 48.856501 -0.541142 2.322775 0.013372 0.005031 -540021.000000 0 0 1
-31.410506 17.236946 -33.283673 48.903324 -0.501894 2.319380 0.008019 0.000540 -158651.000000 0 0 1
-30.821606 15.949246 -33.432583 48.188043 -0.477525 2.337541 -0.004571 0.005243 -608716.000000 0 0 1
-31.751706 14.755246 -33.700843 48.596656 -0.435017 2.337105 -0.013547 0.009648 -359203.000000 0 0 1
-31.108406 13.507546 -33.821023 47.896224 -0.409645 2.354816 -0.012191 0.005050 154884.000000 0 0 1
-32.121906 12.524446 -33.727843 48.231172 -0.371772 2.345208 -0.005738 0.002984 -197527.000000 0 0 1
-31.679106 11.067646 -33.808303 47.634650 -0.336111 2.359928 -0.012546 0.005300 -274078.000000 0 0 1
-31.255606 10.657246 34.149455 47.504475 -0.328608 0.768624 -0.016991 0.002733 131395.000000 0 0 1
-31.312706 9.246546 34.148779 47.245352 -0.287136 0.762956 0.001002 0.002048 -114492.000000 0 0 1
-30.681406 8.383446 32.989461 45.825052 -0.266731 0.767138 0.012606 0.002038 814530.000000 0 0 1
-29.339506 7.964546 33.247052 45.051161 -0.265074 0.740718 -0.003263 0.019741 183324.000000 0 0 1
-28.731706 7.221046 32.265811 43.803390 -0.246227 0.742759 0.001576 0.006065 -39689.600000 0 0 1
19.154030 -4.278262 -31.767723 37.341245 -0.219754 2.588190 -0.000473 -0.015055 -1207890.000000 0 0 1
20.332030 -4.617462 -32.439383 38.561975 -0.223315 2.570345 0.014698 -0.018103 342926.000000 0 0 1
21.440330 -3.724062 -32.187683 38.853614 -0.171978 2.547103 0.010020 -0.019707 698385.000000 0 0 1
21.192430 -2.229262 -32.569193 38.920958 -0.104806 2.562215 0.009105 -0.021789 -830475.000000 0 0 1
22.172230 -1.337362 -32.060753 39.003694 -0.060244 2.535698 0.005602 -0.024585 230791.000000 0 0 1
22.067630 -0.113362 -32.755233 39.495549 -0.005137 2.548721 -0.004299 -0.016289 -45230.300000 0 0 1
22.983930 0.985938 -32.195563 39.570031 0.042871 2.521174 0.014876 -0.021871 -26056.500000 0 0 1
24.371030 0.778038 -32.374443 40.529705 0.031914 2.496066 0.017367 -0.029405 138778.000000 0 0 1
25.113330 1.848138 -31.788193 40.553473 0.073459 2.471652 0.021508 -0.021373 1547570.000000 0 0 1
26.703230 1.810438 -31.886833 41.630641 0.067695 2.443308 0.010503 -0.024762 1532730.000000 0 0 1
27.153130 2.452338 -33.072203 42.861136 0.090071 2.452169 0.022436 -0.025737 -71401.600000 0 0 1
27.555130 1.492838 -33.995983 43.786306 0.054123 2.459740 0.014155 -0.018451 -988892.000000 0 0 1
28.361230 2.048538 34.076536 44.382048 0.072105 0.695396 0.003814 -0.023661 -320128.000000 0 0 1
27.690530 2.984538 33.254139 43.376384 0.107367 0.697202 0.001587 -0.011312 180791.000000 0 0 1
28.022830 4.336838 33.612978 43.976351 0.153543 0.700776 0.010242 -0.002401 -7379.700000 0 0 1
27.316730 5.268838 32.607411 42.862660 0.190540 0.706341 0.014619 0.001494 201041.000000 0 0 1
27.608830 6.664438 32.900531 43.463860 0.236857 0.712144 0.015590 -0.007490 97484.000000 0 0 1
26.715130 7.497738 32.194741 42.501948 0.273616 0.711339 0.005136 0.000962 -77237.700000 0 0 1
27.060230 9.036238 32.416861 43.182896 0.322288 0.721694 0.003089 0.003892 -26983.500000 0 0 1
28.175830 9.416038 31.666271 43.419948 0.322520 0.753495 0.006078 -0.002534 -480631.000000 0 0 1
28.422730 10.762338 31.920401 44.074840 0.361969 0.760877 0.007911 0.002415 -554146.000000 0 0 1
29.749430 11.253338 31.329711 44.645459 0.361635 0.792953 -0.002741 0.006498 -826023.000000 0 0 1
30.863630 10.593638 31.909081 45.639657 0.330640 0.796585 -0.000828 -0.001189 421805.000000 0 0 1
32.109230 11.044838 31.369191 46.227884 0.331299 0.824972 -0.011881 -0.002489 623021.000000 0 0 1
32.598130 12.460538 31.778011 47.198994 0.365109 0.832164 0.000771 -0.001177 -962257.000000 0 0 1
32.906530 12.666638 33.119861 48.375703 0.367446 0.816689 0.007151 -0.009315 120435.000000 0 0 1
33.276130 13.985138 33.511260 49.253319 0.397862 0.822507 0.004761 0.003991 -28133.600000 0 0 1
32.199930 15.086138 33.386795 48.776071 0.438144 0.816891 0.017538 0.001622 -995540.000000 0 0 1
31.914230 15.381638 32.042661 47.768661 0.449118 0.835525 0.011190 -0.006402 496659.000000 0 0 1
30.788130 16.263738 31.863961 47.198836 0.485989 0.829695 0.005429 0.002404 1388110.000000 0 0 1
29.421130 15.495338 32.022311 46.164237 0.484758 0.804238 0.008220 0.008492 -64052.600000 0 0 1
28.775730 15.108238 30.790461 44.770012 0.483474 0.812415 0.001704 0.011125 381694.000000 0 0 1
27.505030 14.616638 31.198111 44.085087 0.488464 0.784588 -0.003652 0.014484 678957.000000 0 0 1
26.666430 13.877338 30.036541 42.495562 0.479838 0.785809 -0.004120 0.013146 460989.000000 0 0 1
27.060130 12.564638 29.771221 42.147910 0.434701 0.786466 -0.007426 0.004417 -363377.000000 0 0 1
26.137030 11.930838 28.936461 40.777543 0.428223 0.781841 -0.018699 -0.009245 -878599.000000 0 0 1
26.185430 10.406338 28.807821 40.297136 0.378271 0.774337 -0.012726 0.008179 -473342.000000 0 0 1
27.217230 9.948238 27.981391 40.282791 0.350427 0.802899 -0.015494 0.010383 -450202.000000 0 0 1
27.053830 8.588338 27.643071 39.620811 0.307391 0.798627 -0.000466 0.011114 660303.000000 0 0 1
28.293030 7.859938 26.989971 39.883991 0.270972 0.827509 0.000996 0.004832 660242.000000 0 0 1
28.661430 8.258538 25.647091 39.337696 0.280542 0.860614 -0.008309 0.008644 8445.870000 0 0 1
29.757030 7.574938 25.092131 39.654452 0.249265 0.885672 -0.003568 0.019210 81332.700000 0 0 1
30.250130 8.139438 23.730701 39.299707 0.262846 0.922488 0.007257 0.021012 -92618.800000 0 0 1
30.811330 9.443938 23.780101 40.050209 0.297417 0.935076 -0.002679 0.011933 167396.000000 0 0 1
29.948830 10.476638 23.321001 39.377169 0.336513 0.936952 -0.008595 0.015554 -176760.000000 0 0 1
29.455630 10.488838 21.876701 38.160712 0.342089 0.960295 -0.007848 0.031802 -447083.000000 0 0 1
30.500730 10.761338 21.018201 38.572862 0.339187 0.994531 -0.013759 0.021541 -229250.000000 0 0 1
30.031430 10.708838 19.690301 37.473643 0.342531 1.017559 -0.016014 0.019138 -940662.000000 0 0 1
30.998030 11.336338 18.644201 37.907739 0.350603 1.056605 -0.007320 -0.002443 313387.000000 0 0 1
32.182730 10.692538 18.253801 38.513111 0.320770 1.077010 0.004932 0.002630 696234.000000 0 0 1
33.116130 10.397738 19.331001 39.730072 0.304231 1.062650 0.005243 0.012077 131157.000000 0 0 1
34.436330 9.696038 18.868701 40.446284 0.274459 1.085452 0.015960 -0.005091 58783.200000 0 0 1
34.180230 8.373138 18.407501 39.714401 0.240239 1.088859 0.018116 -0.012063 206093.000000 0 0 1
-34.719206 7.553938 18.168101 39.906956 -0.214234 1.098130 0.014274 -0.001214 -802413.000000 0 0 1
34.832730 6.139338 17.771301 39.583200 0.174460 1.105194 0.008786 -0.002937 -616221.000000 0 0 1
34.159330 6.051138 16.552601 38.437803 0.175326 1.125602 -0.010222 0.008605 26277.500000 0 0 1
33.959130 4.740038 16.175201 37.912104 0.138685 1.130011 -0.005833 0.008974 -294229.000000 0 0 1
32.770130 3.924838 16.733101 37.003817 0.119201 1.101567 -0.009685 0.013092 -346546.000000 0 0 1
32.939430 3.464138 18.020301 37.705935 0.104782 1.072515 0.008179 0.016677 -440944.000000 0 0 1
31.766130 2.857738 18.447801 36.845285 0.089720 1.046409 0.000987 0.013481 -635368.000000 0 0 1
31.948030 1.978138 19.718401 37.595279 0.061838 1.018679 0.004621 0.002150 -67928.500000 0 0 1
32.581830 0.738938 19.540701 37.999482 0.022676 1.030680 0.012192 0.003027 -292037.000000 0 0 1
32.439730 -0.098362 20.651901 38.455777 -0.003032 1.003884 0.021655 -0.008433 181724.000000 0 0 1
33.069430 -1.475962 20.504301 38.938310 -0.044603 1.016219 0.033196 -0.009195 20923.700000 0 0 1
32.660330 -2.175262 21.641201 39.239910 -0.066504 0.986623 0.032943 0.001939 8945.110000 0 0 1
32.959430 -3.545362 21.643501 39.589579 -0.107155 0.992382 0.012948 0.004888 -332172.000000 0 0 1
32.352330 -4.338162 22.799701 39.816068 -0.133296 0.961091 0.001347 0.004309 -301211.000000 0 0 1
32.814530 -3.912062 24.040801 40.866340 -0.118657 0.941868 0.005572 -0.003108 279951.000000 0 0 1
32.296930 -4.653962 25.156941 41.202217 -0.143114 0.914013 0.004251 0.003425 162140.000000 0 0 1
32.646530 -4.025062 26.519031 42.252290 -0.122673 0.892284 -0.006568 0.010019 70747.500000 0 0 1
31.746730 -4.515062 27.492001 42.238025 -0.141274 0.862050 -0.008981 0.011939 128059.000000 0 0 1
32.229430 -4.092762 28.754711 43.385715 -0.126312 0.846286 -0.001365 0.012900 -416838.000000 0 0 1
31.286930 -4.285562 29.925261 43.505853 -0.136129 0.812281 0.004039 0.000806 -349004.000000 0 0 1
31.140530 -5.649962 30.184951 43.735408 -0.179482 0.809070 0.000463 -0.001544 243674.000000 0 0 1
30.049630 -5.892362 31.055521 43.613594 -0.193631 0.778368 0.025516 -0.015499 -84912.900000 0 0 1
30.096630 -7.420662 31.459091 44.165006 -0.241740 0.778015 0.021570 -0.011669 -246920.000000 0 0 1
31.270830 -7.717762 32.161461 45.516900 -0.241968 0.786139 0.008647 -0.011190 -424415.000000 0 0 1
31.779630 -8.937562 31.671471 45.748300 -0.274154 0.806127 -0.002221 -0.003053 -87949.600000 0 0 1
33.152830 -9.301462 32.277221 47.195829 -0.273531 0.817702 -0.022079 -0.003793 111903.000000 0 0 1
33.074830 -9.722262 33.570773 48.119264 -0.285895 0.798674 -0.009789 -0.010834 -56541.800000 0 0 1
34.362930 -9.804562 34.156771 49.433040 -0.277939 0.807966 -0.017882 -0.005082 28715.600000 0 0 1
34.450130 -10.085462 -33.558123 49.139349 -0.284797 2.322545 -0.004353 -0.006579 -531275.000000 0 0 1
33.963630 -9.098362 -32.682323 48.004610 -0.261740 2.319673 0.003503 -0.003796 705934.000000 0 0 1
34.971230 -8.136962 -32.314653 48.305630 -0.228608 2.303608 0.005986 0.000962 381296.000000 0 0 1
34.407830 -6.864462 -31.631533 47.239533 -0.196918 2.304465 0.010675 -0.010295 -112863.000000 0 0 1
34.051130 -7.101762 -30.285853 46.121008 -0.205614 2.287179 0.013527 -0.003704 316152.000000 0 0 1
33.471530 -5.941762 -29.690523 45.135075 -0.175687 2.288710 0.017185 -0.012245 -136471.000000 0 0 1
33.952430 -5.818862 -28.231283 44.537984 -0.169734 2.257343 0.023370 -0.010645 793068.000000 0 0 1
-34.693606 -5.399962 -28.073033 44.954433 0.154408 2.245259 0.022404 -0.013199 563855.000000 0 0 1
-34.367206 -5.149462 -26.721003 43.836444 0.148730 2.226303 0.022438 -0.016489 -772799.000000 0 0 1
-32.931706 -4.798062 -26.446673 42.508178 0.144679 2.242289 0.039475 -0.016510 -1489180.000000 0 0 1
-32.726006 -4.419062 -25.078803 41.466443 0.134220 2.220308 0.042320 -0.019023 872542.000000 0 0 1
-31.342506 -4.289262 -24.706653 40.139372 0.136006 2.233844 0.050371 -0.019008 956992.000000 0 0 1
-30.488006 -3.163362 -25.337553 39.768291 0.103388 2.261565 0.046561 -0.017371 -515142.000000 0 0 1
-29.990006 -3.600962 -26.584963 40.238385 0.119500 2.292529 0.046912 -0.010471 -467446.000000 0 0 1
-29.068206 -2.709162 -27.122063 39.848544 0.092932 2.319417 0.042353 -0.010206 -112980.000000 0 0 1
-28.324106 -3.474562 -28.226893 40.138324 0.122062 2.350742 0.039772 -0.005499 -688315.000000 0 0 1
-29.240306 -3.641462 -29.233873 41.507530 0.123898 2.352237 0.049011 -0.008067 -335747.000000 0 0 1
-28.701906 -4.401762 -30.257633 41.936848 0.152176 2.376769 0.043642 -0.009060 -740634.000000 0 0 1
-29.797506 -4.574262 -31.347843 43.491407 0.152322 2.375727 0.020439 0.000120 260011.000000 0 0 1
-30.883206 -5.432862 -31.038883 44.121431 0.174135 2.351089 0.016737 -0.003334 534543.000000 0 0 1
-31.842506 -4.966862 -30.092493 44.092778 0.154735 2.321948 0.023375 -0.012293 -53940.500000 0 0 1
-32.974006 -4.002362 -30.612503 45.171111 0.120788 2.315428 0.031295 -0.014276 -73630.700000 0 0 1
-32.499806 -2.828162 -31.255493 45.178996 0.086802 2.334795 0.035123 -0.008929 -43752.100000 0 0 1
-32.071806 -1.799962 -30.393463 44.222202 0.056064 2.328547 0.041920 -0.008562 94672.500000 0 0 1
-31.634006 -0.487762 -31.193303 44.429387 0.015418 2.349121 0.047022 -0.009766 21244.500000 0 0 1
-32.806906 0.028738 -31.746903 45.652598 -0.000876 2.339775 0.047403 -0.007823 -122671.000000 0 0 1
-32.670806 1.390938 -32.081093 45.809527 -0.042549 2.346635 0.057002 0.000283 -138574.000000 0 0 1
-33.995006 2.059838 -32.465273 47.052070 -0.060518 2.332266 0.044766 0.000700 -307596.000000 0 0 1
-34.497406 1.763738 -33.738123 48.285015 -0.051082 2.344415 0.037750 -0.000774 373076.000000 0 0 1
34.237130 2.386538 -33.877233 48.223890 0.069594 2.349699 0.016414 -0.002275 437740.000000 0 0 1
33.378930 1.765038 34.214033 47.831668 0.052830 0.773742 0.002836 -0.007514 11150.900000 0 0 1
33.754330 2.292138 32.968241 47.238899 0.067802 0.798329 0.000679 0.002745 962012.000000 0 0 1
34.719930 1.377938 32.336911 47.466283 0.039666 0.821313 -0.019386 0.007428 597734.000000 0 0 1
34.904230 1.699538 30.809551 46.587789 0.048653 0.848216 -0.010386 0.005597 -146366.000000 0 0 1
-34.495606 2.953738 30.529801 46.159941 -0.085418 0.848124 -0.003570 0.007897 209915.000000 0 0 1
-34.101106 3.060538 29.187021 44.990382 -0.089509 0.864870 -0.003110 0.008406 -139472.000000 0 0 1
-33.482306 4.384038 28.815541 44.391666 -0.130195 0.864369 -0.002662 0.012022 -467301.000000 0 0 1
-33.017106 4.490738 27.491681 43.198247 -0.135183 0.880965 -0.001983 0.016421 232704.000000 0 0 1
-32.485006 5.776738 27.218371 42.772492 -0.175988 0.881036 -0.008644 0.022129 -471665.000000 0 0 1
-31.699406 5.816138 25.895521 41.343171 -0.181460 0.893927 -0.007211 0.021960 761336.000000 0 0 1
-30.479806 5.014038 25.886071 40.301958 -0.163043 0.873297 -0.011992 0.018756 1282610.000000 0 0 1
-29.516706 5.347038 24.913591 38.993766 -0.179209 0.877713 -0.010942 0.009023 -107192.000000 0 0 1
-29.850306 5.128638 23.440001 38.298529 -0.170151 0.912166 0.009096 -0.001257 -447571.000000 0 0 1
-30.043606 3.782538 23.092801 38.081535 -0.125243 0.919266 -0.006969 0.004809 -15028.400000 0 0 1
-30.596406 3.622338 21.819001 37.753546 -0.117842 0.954603 0.018104 -0.003331 -966825.000000 0 0 1
-30.561706 2.158938 21.263101 37.293409 -0.070525 0.964099 0.017647 0.014542 294.633000 0 0 1
-29.367806 1.631738 20.701601 35.967859 -0.055505 0.957510 0.013555 0.018527 249926.000000 0 0 1
-29.118806 2.152338 19.392501 35.051484 -0.073782 0.984526 0.020983 0.012810 217890.000000 0 0 1
-27.881306 1.489738 18.717301 33.614341 -0.053381 0.980238 0.021690 0.015094 180274.000000 0 0 1
-28.159906 0.128538 18.421401 33.650332 -0.004565 0.991499 0.026197 0.009165 -14063.400000 0 0 1
-27.100506 -0.616862 17.896201 32.482179 0.022758 0.987289 0.033728 0.011471 -469002.000000 0 0 1
-26.894206 -0.552962 16.356201 31.482208 0.020558 1.024486 0.036129 0.018839 22835.900000 0 0 1
-26.319406 0.666138 15.957401 30.786255 -0.025304 1.025901 0.040397 0.022242 374462.000000 0 0 1
-26.735206 0.935738 14.623701 30.487694 -0.034986 1.070530 0.032423 0.021419 101119.000000 0 0 1
-26.239806 2.340638 14.258401 29.955100 -0.088966 1.074704 0.034830 0.019622 168936.000000 0 0 1
-24.847406 2.365038 14.015501 28.625535 -0.094897 1.059148 0.032115 0.011967 73466.700000 0 0 1
-24.489406 3.711538 13.720501 28.315343 -0.150412 1.064936 0.026893 0.014432 370977.000000 0 0 1
-22.978206 3.882638 13.355401 26.859627 -0.167389 1.050394 0.021222 0.017502 194487.000000 0 0 1
-22.285006 3.895638 14.572101 26.909917 -0.173061 0.998559 0.022129 0.023088 -5515.620000 0 0 1
-20.911406 4.182238 14.358201 25.708675 -0.197394 0.978224 -0.003813 0.020225 -111943.000000 0 0 1
-20.282006 4.862938 15.597301 26.043881 -0.235324 0.928688 -0.017489 0.016323 -639845.000000 0 0 1
-20.577406 6.254938 15.660001 26.604314 -0.295096 0.941438 -0.009248 0.021360 350214.000000 0 0 1
-19.969906 6.820838 16.772601 26.956282 -0.329132 0.899227 -0.017070 0.016470 -381457.000000 0 0 1
-20.279606 8.350238 16.942701 27.713607 -0.390599 0.913032 -0.016194 0.015987 -518704.000000 0 0 1
-19.490006 9.116338 16.068901 26.854749 -0.437512 0.929339 -0.024411 0.007435 357352.000000 0 0 1
-19.730506 10.520638 16.214701 27.620522 -0.489867 0.943383 -0.016096 0.008280 -241545.000000 0 0 1
-19.266906 11.118538 17.585401 28.356338 -0.523396 0.901853 -0.008142 0.008636 -264244.000000 0 0 1
-20.183206 10.900038 18.638801 29.556345 -0.495176 0.888445 -0.000359 0.006549 438644.000000 0 0 1
-19.687606 11.466738 19.815001 30.194737 -0.527403 0.854971 0.008080 0.011092 -134912.000000 0 0 1
-12.471470 -33.184770 -22.578553 42.030436 1.211308 2.137905 0.049613 0.009801 48472.800000 0 0 1
-13.043770 -34.005970 -21.567353 42.328438 1.204531 2.105428 0.070453 0.002665 1110580.000000 0 0 1
-14.384570 -33.619270 -21.190953 42.263787 1.166500 2.096009 0.054299 0.000424 1225470.000000 0 0 1
-15.018670 -34.321570 -19.937453 42.438575 1.158313 2.059855 0.048530 -0.004697 -180429.000000 0 0 1
-15.557270 33.699838 -20.212753 42.264206 -1.138303 2.069454 0.046671 -0.007846 206838.000000 0 0 1
-16.060870 32.963038 -19.092953 41.340709 -1.117410 2.050869 0.042672 -0.016740 1289040.000000 0 0 1
-17.490870 33.403038 -18.540653 42.017250 -1.088423 2.027802 0.035855 -0.014829 695011.000000 0 0 1
-17.536170 34.594038 -17.738853 42.648934 -1.101634 1.999758 0.032028 -0.009484 -942319.000000 0 0 1
-18.747470 34.609038 -17.093453 42.911994 -1.074353 1.980500 0.009184 -0.004235 -1040640.000000 0 0 1
-18.888970 34.084438 -15.612553 41.979684 -1.064748 1.951859 0.014065 -0.015593 -490075.000000 0 0 1
-18.746670 32.735638 -15.516953 40.790139 -1.050716 1.961035 0.014919 -0.021309 227712.000000 0 0 1
-19.417070 32.363738 -14.330853 40.370874 -1.030403 1.933689 0.020358 -0.016928 -370541.000000 0 0 1
-19.529070 30.855338 -14.129853 39.154683 -1.006519 1.940000 0.012918 -0.015627 -1051620.000000 0 0 1
-18.315270 30.242938 -13.989353 38.023498 -1.026266 1.947560 0.017306 -0.024568 -1166130.000000 0 0 1
-18.434270 28.824738 -13.837053 36.907341 -1.001817 1.955100 0.018662 -0.021326 -165397.000000 0 0 1
-17.114570 28.122538 -13.482453 35.574741 -1.024098 1.959500 0.031290 -0.016244 -10730.000000 0 0 1
-16.089770 28.239838 -14.451853 35.570004 -1.052913 1.989190 0.047657 -0.025653 -477006.000000 0 0 1
-14.950670 27.522938 -14.072253 34.337486 -1.073183 1.993055 0.051159 -0.028069 -681511.000000 0 0 1
-13.723370 27.945038 -14.855653 34.495600 -1.114307 2.016013 0.050745 -0.027579 -759370.000000 0 0 1
-13.773770 27.777838 -16.251353 35.006163 -1.110471 2.053576 0.043755 -0.024969 -357515.000000 0 0 1
-12.908270 28.695538 -16.844653 35.690330 -1.148079 2.062317 0.044573 -0.021042 -284239.000000 0 0 1
-12.952770 28.558038 -18.390453 36.353054 -1.144986 2.101204 0.062315 -0.021949 106320.000000 0 0 1
-12.536170 27.275238 -18.820353 35.430211 -1.139974 2.130807 0.048082 -0.024817 312219.000000 0 0 1
-12.984470 27.207038 -20.195253 36.285915 -1.125516 2.161035 0.045699 -0.021876 -219530.000000 0 0 1
-12.340170 26.060938 -20.917853 35.623150 -1.128563 2.198390 0.031392 -0.013073 120201.000000 0 0 1
-10.958370 26.328638 -21.171053 35.517552 -1.176390 2.209398 0.036257 -0.016729 564338.000000 0 0 1
-10.402370 25.233738 -21.932953 35.014358 -1.179782 2.247721 0.036459 -0.013994 272897.000000 0 0 1
-9.083570 25.500138 -22.674053 35.311201 -1.228594 2.268058 0.039492 -0.020881 -101690.000000 0 0 1
-9.327570 26.244138 -23.843153 36.664073 -1.229305 2.278794 0.037586 -0.020630 -37191.700000 0 0 1
-8.209370 26.362538 -24.694653 37.043259 -1.268911 2.300493 0.020543 -0.024075 -106064.000000 0 0 1
-8.530570 27.127138 -26.010893 38.538536 -1.266121 2.311669 0.020129 -0.015794 288312.000000 0 0 1
-9.359870 26.472538 -26.982883 38.941987 -1.230946 2.336299 0.026172 -0.016092 55594.700000 0 0 1
-9.803670 27.423538 -27.889953 40.323837 -1.227464 2.334566 0.044356 -0.010338 -348170.000000 0 0 1
-10.885770 26.757238 -28.747953 40.754074 -1.184412 2.353785 0.019562 -0.007463 -183106.000000 0 0 1
-11.280570 27.454738 -29.955433 42.170390 -1.180947 2.360781 0.019350 -0.006720 546121.000000 0 0 1
-12.552070 26.913738 -30.345303 42.458699 -1.134403 2.366994 0.015487 -0.006302 693076.000000 0 0 1
-12.915370 27.206138 -31.843163 43.828846 -1.127574 2.384061 0.007160 -0.010283 -173255.000000 0 0 1
-12.105970 26.519938 -32.784163 43.870981 -1.142562 2.414764 0.003255 -0.008170 45921.000000 0 0 1
-12.210270 25.105738 -32.884203 43.136522 -1.118125 2.437700 -0.003897 -0.009951 -203732.000000 0 0 1
-11.318170 24.465638 -33.981173 43.374976 -1.137501 2.470959 -0.013318 0.000680 -231402.000000 0 0 1
-11.700670 24.602938 33.967271 43.542918 -1.126875 0.675991 -0.005959 -0.001817 -465640.000000 0 0 1
-11.029070 23.775238 33.077911 42.202494 -1.136453 0.670050 -0.003533 0.000430 -566650.000000 0 0 1
-11.464870 23.928538 31.611041 41.270765 -1.123984 0.698290 0.005845 0.009042 756504.000000 0 0 1
-12.748970 23.322738 31.294981 41.059252 -1.070542 0.704106 0.018876 -0.001635 889011.000000 0 0 1
-13.091470 23.279138 29.911091 40.099603 -1.058506 0.728881 0.034763 -0.007055 -190777.000000 0 0 1
-14.477170 22.655838 29.729601 40.083969 -1.002190 0.735220 0.016076 -0.002268 -83795.100000 0 0 1
-14.403070 21.245038 29.907781 39.411615 -0.975023 0.709240 -0.009110 0.000105 551989.000000 0 0 1
-15.684870 20.673638 30.185101 39.806466 -0.921757 0.710100 -0.007838 -0.011974 510047.000000 0 0 1
-15.365670 19.192838 30.540441 39.206981 -0.895693 0.677800 -0.015675 -0.017846 192860.000000 0 0 1
-15.011670 18.571538 29.328871 37.821091 -0.891005 0.683348 -0.008741 -0.005840 -95510.000000 0 0 1
-14.435570 17.330438 29.514991 37.146527 -0.876278 0.652521 -0.019881 -0.011390 -233065.000000 0 0 1
-14.017070 16.608838 28.198641 35.601897 -0.869824 0.656629 -0.008837 0.000322 -62015.100000 0 0 1
-12.975370 17.255738 27.508861 34.969389 -0.926051 0.665423 -0.030630 0.001464 -239739.000000 0 0 1
-12.534370 16.365838 26.496701 33.571211 -0.917205 0.661179 -0.041550 0.011056 533409.000000 0 0 1
-11.412670 17.056438 25.603811 32.813507 -0.981103 0.675679 -0.030653 0.014656 304605.000000 0 0 1
-11.750670 18.063438 24.679471 32.763429 -0.994054 0.717788 -0.031642 0.014834 -374998.000000 0 0 1
-12.174370 19.286838 25.217931 34.002080 -1.007732 0.735257 -0.026751 0.010764 -66476.700000 0 0 1
-11.130670 20.185338 25.960141 34.716978 -1.066861 0.726107 -0.037110 0.009926 233907.000000 0 0 1
-10.714670 19.816238 27.266171 35.368510 -1.075120 0.690517 -0.026603 0.011914 284894.000000 0 0 1
-11.743670 19.994338 28.248431 36.546699 -1.039730 0.687333 -0.006135 0.007494 193988.000000 0 0 1
-11.308270 19.490638 29.629941 37.224929 -1.045071 0.650187 -0.008400 0.011577 318826.000000 0 0 1
-10.233370 20.303938 30.125111 37.742470 -1.103947 0.646536 -0.022689 0.009984 231066.000000 0 0 1
-10.042370 19.896238 31.444831 38.542014 -1.103366 0.616584 -0.029068 0.006161 -452370.000000 0 0 1
-8.934570 20.641338 32.156371 39.241860 -1.162297 0.610362 -0.036543 0.007194 -1176790.000000 0 0 1
-7.653470 20.169738 31.937641 38.540976 -1.208127 0.594074 -0.032177 0.012250 -1020820.000000 0 0 1
-6.745470 20.990038 32.605891 39.360223 -1.259855 0.594557 -0.039496 0.019857 -431665.000000 0 0 1
-5.629470 20.162338 33.277798 39.314407 -1.298523 0.561508 -0.026087 0.022842 -480865.000000 0 0 1
-6.050470 19.465738 34.465538 40.042433 -1.269437 0.534103 -0.027413 0.019898 -224210.000000 0 0 1
-5.010670 18.919538 -34.057653 39.280777 -1.311899 2.620009 -0.032720 0.023999 -335584.000000 0 0 1
-4.103670 17.848038 34.568829 39.120282 -1.344801 0.487183 -0.033416 0.016461 -117143.000000 0 0 1
-4.763970 16.587838 34.394846 38.481907 -1.291127 0.465064 -0.027973 0.015170 317554.000000 0 0 1
-4.593670 16.103938 33.104811 37.099422 -1.292925 0.468322 -0.031122 0.014874 -91975.300000 0 0 1
-5.152170 14.651438 32.860191 36.345586 -1.232653 0.441518 -0.012281 0.011266 -458259.000000 0 0 1
-4.553570 13.673638 33.618212 36.577145 -1.249329 0.404995 -0.011466 0.011177 -512272.000000 0 0 1
-5.305470 12.493138 33.634418 36.269830 -1.169205 0.383559 0.003991 0.003516 -331700.000000 0 0 1
-4.598170 11.199238 34.142614 36.225464 -1.181204 0.340753 0.016666 -0.007227 288512.000000 0 0 1
-4.310170 10.972538 -33.722423 35.723605 -1.196500 2.805291 0.014276 -0.005898 -493074.000000 0 0 1
-3.408970 9.948838 -33.482593 35.095362 -1.240684 2.837256 0.011445 -0.007423 -111255.000000 0 0 1
-3.184070 9.540738 -32.018693 33.561297 -1.248685 2.837224 0.012814 -0.002907 127447.000000 0 0 1
-4.394970 8.989738 -31.553073 33.101775 -1.116078 2.834492 0.021246 -0.001270 208931.000000 0 0 1
-4.171270 8.653938 -30.203613 31.694611 -1.121645 2.833644 0.019912 -0.001731 441963.000000 0 0 1
-5.463470 7.964138 -29.691423 31.222709 -0.969522 2.827108 0.028744 -0.003622 131282.000000 0 0 1
-5.380570 7.294738 -28.431033 29.841035 -0.935281 2.832959 0.029360 -0.005092 110203.000000 0 0 1
-6.556370 6.518038 -28.272203 29.745390 -0.782466 2.825552 0.037761 -0.013480 -166679.000000 0 0 1
-6.679870 5.688538 -26.991033 28.381261 -0.705419 2.827302 0.026289 -0.010643 -316846.000000 0 0 1
-7.028070 6.439338 -25.794733 27.499583 -0.741711 2.787624 0.006547 -0.000727 -210705.000000 0 0 1
-6.171470 7.422438 -25.286753 27.066575 -0.877164 2.776926 0.011142 0.000217 -1095770.000000 0 0 1
-6.524770 7.983238 -23.877253 26.008228 -0.885590 2.733969 -0.000026 -0.003962 -40130.400000 0 0 1
-6.596270 6.909638 -22.957653 24.865793 -0.808596 2.747284 -0.003304 0.000977 77814.100000 0 1 0
-7.723970 7.001938 -22.124353 24.457592 -0.736406 2.701238 -0.011308 -0.005253 -421125.000000 0 1 0
-7.364970 7.523538 -20.705653 23.228656 -0.796048 2.671186 -0.020751 0.003189 -351351.000000 0 1 0
-7.047270 8.920638 -20.714953 23.629453 -0.902185 2.639668 -0.028054 0.010519 258689.000000 0 1 0
-6.734770 9.398638 -19.360553 22.550444 -0.949037 2.603220 -0.019686 0.021937 723117.000000 0 1 0
-8.005570 9.637538 -18.412153 22.270578 -0.877635 2.544098 -0.027330 0.023383 750585.000000 0 1 0
-7.652770 9.714438 -17.009653 21.030061 -0.903556 2.512949 -0.034341 0.018083 1077390.000000 0 1 0
-8.813070 10.011638 -16.185753 20.973356 -0.848982 2.452352 -0.014294 0.011092 1131260.000000 0 1 0
-9.435870 11.421938 -16.355753 22.068234 -0.880331 2.405570 -0.008860 0.009188 -333971.000000 0 1 0
-8.498470 12.397438 -15.911853 21.888525 -0.969867 2.384665 -0.022469 0.006966 -18304.500000 0 1 0
-8.862970 13.749738 -16.104453 22.955629 -0.998232 2.348362 -0.011286 0.009813 364377.000000 0 1 0
-7.701170 14.792738 -15.811653 22.981329 -1.090801 2.329556 -0.004542 0.010334 606324.000000 0 1 0
-7.267970 15.071238 -14.449553 22.107808 -1.121457 2.283121 -0.002333 0.006742 -169111.000000 0 1 0
-8.235970 15.589538 -13.589153 22.260502 -1.084765 2.227438 -0.009539 -0.006564 -1065290.000000 0 1 0
-7.680470 16.481838 -12.476953 22.052550 -1.134720 2.172179 -0.002328 -0.011276 54958.500000 0 1 0
-7.251770 17.774638 -12.848653 23.100082 -1.183426 2.160623 0.005032 -0.007812 -309141.000000 0 1 0
-6.038470 17.820438 -13.548653 23.186141 -1.244088 2.194866 0.014724 -0.010139 -614632.000000 0 1 0
-5.736170 19.200338 -14.112553 24.509606 -1.280483 2.184375 0.026736 -0.005320 8488.220000 0 1 0
-5.256270 20.151838 -13.161653 24.636437 -1.315648 2.134399 0.026870 -0.019647 -101552.000000 0 1 0
-5.394470 21.503838 -13.583553 26.000543 -1.325008 2.120499 0.038308 -0.016446 -323972.000000 0 0 1
-4.774070 22.540338 -12.603153 26.262103 -1.362080 2.071336 0.044824 -0.015896 -939648.000000 0 0 1
-4.847570 23.894938 -13.009153 27.635214 -1.370643 2.060932 0.028327 -0.017652 471832.000000 0 0 1
-6.134770 24.481338 -13.231053 28.496176 -1.325263 2.053651 0.024498 -0.018883 346128.000000 0 0 1
-7.150070 24.444738 -12.106653 28.199996 -1.286235 2.014529 0.012576 -0.022139 -652779.000000 0 0 1
-7.726170 23.148838 -11.734953 27.078987 -1.248661 2.019014 0.019139 -0.025642 204339.000000 0 0 1
-8.545070 23.062038 -10.586853 26.776058 -1.215954 1.977283 0.015749 -0.022471 -102959.000000 0 0 1
-7.814470 23.256338 -9.250653 26.220179 -1.246635 1.931365 0.016462 -0.020934 -187070.000000 0 0 1
-7.577070 24.644638 -9.227853 27.384730 -1.272516 1.914494 0.007897 -0.016225 -71798.400000 0 0 1
-6.981070 25.075338 -8.010153 27.233627 -1.299268 1.869339 0.007270 -0.016064 50499.500000 0 0 1
-6.990770 26.632338 -7.966653 28.663912 -1.314096 1.852438 -0.001859 -0.011701 -163792.000000 0 0 1
-6.023870 27.315038 -8.711853 29.296667 -1.353738 1.872730 -0.013009 -0.014306 -242670.000000 0 0 1
-6.322970 27.368938 -10.119753 29.857128 -1.343753 1.916586 -0.008634 -0.010034 342736.000000 0 0 1
-5.584570 28.597438 -10.718453 31.046515 -1.377941 1.923289 -0.012168 -0.010687 316830.000000 0 0 1
-6.242970 29.826238 -10.453853 32.215868 -1.364464 1.901273 -0.015709 -0.010019 -51032.900000 0 0 1
-6.864870 30.368738 -11.609453 33.228994 -1.348482 1.927703 -0.011044 -0.015181 -542479.000000 0 0 1
-7.868070 31.437238 -11.274953 34.312257 -1.325555 1.905616 -0.005527 -0.019290 -336476.000000 0 0 1
-8.927570 30.968838 -10.450853 33.882012 -1.290130 1.884358 0.010617 -0.017998 558033.000000 0 0 1
-9.896070 32.002938 -10.157953 35.004346 -1.270899 1.865223 0.016625 -0.013146 339715.000000 0 0 1
-11.039270 31.494138 -9.289253 34.641542 -1.233660 1.842272 0.020041 -0.012963 -40866.200000 0 0 1
-11.896570 30.538938 -9.908853 34.239458 -1.199327 1.864395 0.024699 -0.026861 500717.000000 0 0 1
-13.091770 30.387038 -9.129153 34.323577 -1.163995 1.840010 0.035523 -0.021258 489687.000000 0 0 1
-14.008370 29.240938 -9.537253 33.796835 -1.124035 1.856876 0.040428 -0.026300 -371998.000000 0 0 1
-13.717470 27.928338 -9.150653 32.432938 -1.114240 1.856821 0.023483 -0.016017 -384397.000000 0 0 1
-14.597070 27.098538 -9.863953 32.321862 -1.076696 1.880923 0.033675 -0.017453 -87179.400000 0 0 1
-14.875570 25.748438 -9.177653 31.120635 -1.046915 1.870153 0.029509 -0.014155 -148301.000000 0 0 1
-13.886370 24.749538 -9.292953 29.861846 -1.059489 1.887250 0.019663 -0.002719 57792.400000 0 0 1
-14.489670 23.520338 -9.011753 29.058020 -1.018660 1.886126 0.042352 -0.005835 381234.000000 0 0 1
-13.498770 22.294938 -9.158153 27.625220 -1.026369 1.908704 0.029637 -0.003578 396979.000000 0 0 1
-13.189270 22.017038 -10.501753 27.730734 -1.031077 1.959192 0.016280 -0.004361 221795.000000 0 0 1
-12.539670 20.765038 -10.670553 26.500770 -1.027526 1.985207 0.019481 -0.015782 -117588.000000 0 0 1
-12.491970 20.373538 -12.169853 26.818570 -1.020766 2.041804 0.012282 -0.007407 -1005970.000000 0 0 1
-13.659070 19.826938 -12.614053 27.180728 -0.967549 2.053393 0.014906 0.004542 -1224590.000000 0 0 1
-13.510370 19.436938 -13.962053 27.482059 -0.963375 2.103707 0.005862 0.007105 147471.000000 0 0 1
-14.815570 19.029438 -14.670853 28.228612 -0.909266 2.117314 0.004906 0.014233 149590.000000 0 0 1
-15.638270 20.047638 -15.149553 29.596828 -0.908336 2.108150 -0.006872 0.016019 416006.000000 0 0 1
-16.973070 19.633038 -15.467253 30.212203 -0.857935 2.108254 -0.013304 0.019533 547827.000000 0 0 1
-17.758170 20.739638 -16.207553 31.751692 -0.862689 2.106501 -0.015826 0.011633 -203661.000000 0 0 1
-18.216070 21.773038 -15.377753 32.285688 -0.874113 2.067241 -0.017821 0.008557 333888.000000 0 0 1
-18.609970 22.902938 -16.130153 33.631196 -0.888445 2.071017 -0.003091 -0.002635 -80204.700000 0 0 1
-18.836570 24.170638 -15.307753 34.254392 -0.908795 2.034076 -0.001103 0.007592 232518.000000 0 0 1
-20.132170 24.233438 -14.728253 34.777654 -0.877579 2.008099 -0.004555 0.011714 471154.000000 0 0 1
-20.450070 25.435638 -13.989353 35.508858 -0.893625 1.975741 -0.004975 -0.005399 -103696.000000 0 0 1
-25.391420 -1.062962 3.654547 25.675081 0.041839 1.427973 0.031582 -0.013382 -212841.000000 0 0 1
-25.860030 -0.127662 4.599047 26.266113 0.004937 1.394795 0.029520 -0.010713 333967.000000 0 0 1
-26.836950 -0.655162 5.470947 27.396759 0.024408 1.369751 0.012849 -0.004814 -201060.000000 0 0 1
-27.161720 0.256438 6.650947 27.965334 -0.009441 1.330667 0.011878 0.001705 -360050.000000 0 0 1
-27.581380 1.564838 6.275747 28.329600 -0.056675 1.347417 0.018862 0.000397 144645.000000 0 0 1
-28.116050 2.288538 7.337847 29.147790 -0.081217 1.316312 0.022817 0.011159 -344340.000000 0 0 1
-27.109320 2.936838 8.328047 28.511342 -0.107912 1.274379 0.034104 0.008430 -22629.100000 0 0 1
-26.410490 2.047738 9.133947 28.020282 -0.077380 1.238752 0.034384 0.002042 275846.000000 0 0 1
-25.336440 2.535638 9.900547 27.320056 -0.099747 1.199964 0.036560 -0.001337 -293113.000000 0 0 1
-24.436770 1.556938 10.603047 26.683410 -0.063627 1.162153 0.026473 0.000227 -589356.000000 0 0 1
-23.708970 0.682238 9.724847 25.635003 -0.028768 1.181694 0.023577 -0.004701 485151.000000 0 0 1
-24.408470 -0.413462 9.137347 26.065983 0.016938 1.212641 0.020218 -0.008772 -416503.000000 0 0 1
-23.497270 -1.442762 8.418047 25.001335 0.061324 1.227382 0.028990 -0.013169 669808.000000 0 0 1
-22.551570 -2.186362 9.222047 24.462208 0.096647 1.184250 0.016378 -0.016188 699123.000000 0 1 0
-21.510670 -2.793962 8.521847 23.305300 0.129164 1.196453 0.026386 -0.014438 -293536.000000 0 1 0
-20.148470 -2.843962 9.225547 22.341882 0.140224 1.145132 0.028294 -0.012283 -140113.000000 0 1 0
-19.453170 -1.647962 9.547247 21.732269 0.084513 1.115964 0.016311 -0.011165 678835.000000 0 1 0
-20.106070 -0.955662 10.628547 22.762543 0.047495 1.084979 0.010029 -0.011476 -426860.000000 0 1 0
-19.719370 0.490338 10.848647 22.511933 -0.024861 1.067967 -0.002531 -0.004967 -266620.000000 0 1 0
-20.149970 1.410138 9.830047 22.464185 -0.069868 1.117882 0.003797 -0.006691 330082.000000 0 1 0
-20.377670 2.680438 10.418547 23.043010 -0.130787 1.101639 0.006106 0.003622 -371191.000000 0 1 0
-21.256370 3.766238 9.763347 23.692631 -0.175362 1.146057 0.014347 -0.000209 -491438.000000 0 1 0
-21.439570 4.842538 10.693547 24.442939 -0.222142 1.117991 0.007708 0.006526 328632.000000 0 1 0
-22.061170 5.928138 10.103147 24.978223 -0.262513 1.154388 0.013739 0.000643 -361875.000000 0 1 0
-22.249870 7.121338 11.047247 25.842056 -0.309759 1.129081 0.015976 0.007737 -158165.000000 0 0 1
-23.214070 6.910738 12.044447 27.050324 -0.289342 1.109331 0.015975 0.014850 -16921.300000 0 0 1
-23.122670 7.869838 13.069047 27.701845 -0.328054 1.079493 0.009537 0.018899 -182835.000000 0 0 1
-24.080270 7.657338 14.246347 29.007803 -0.307881 1.057420 0.019285 0.018765 -383338.000000 0 0 1
-25.419650 7.723938 13.849647 29.960483 -0.294992 1.090250 0.041025 0.016852 -653426.000000 0 0 1
-26.261090 7.198038 14.841947 31.011933 -0.267525 1.071750 0.045239 0.017744 -433974.000000 0 0 1
-27.651400 6.954338 14.248647 31.874546 -0.246390 1.107362 0.040309 0.028517 -556864.000000 0 0 1
-27.585510 5.933038 13.316147 31.200658 -0.211851 1.129855 0.039727 0.044012 445382.000000 0 0 1
-28.818900 5.722338 12.630947 31.981479 -0.196012 1.164788 0.000728 0.015797 256239.000000 0 0 1
-28.938590 4.332138 11.895047 31.586414 -0.148598 1.184687 0.014218 0.014459 -108834.000000 0 0 1
-29.289610 3.233238 12.731547 32.100271 -0.109943 1.162967 0.015803 0.009166 98370.000000 0 0 1
-29.930770 2.284138 11.964747 32.314446 -0.076166 1.191507 0.003112 0.014115 -578019.000000 0 0 1
-30.954990 1.410438 12.684647 33.482847 -0.045533 1.182254 0.016467 0.021523 -450256.000000 0 0 1
-30.462480 0.291538 13.370947 33.269053 -0.009570 1.157202 0.022652 0.020423 77666.200000 0 0 1
-31.551970 -0.353962 14.009447 34.524147 0.011218 1.152957 0.029178 0.021864 211621.000000 0 0 1
-31.187360 -1.575662 14.928647 34.612117 0.050480 1.124849 0.025442 0.014704 -190934.000000 0 0 1
-30.902270 -2.781062 14.302247 34.164878 0.089754 1.138866 0.017414 0.011895 305088.000000 0 0 1
-31.104680 -3.909062 15.163147 34.823884 0.125019 1.120287 0.010493 0.016236 -206079.000000 0 0 1
-30.996120 -5.405162 14.621447 34.695273 0.172646 1.135780 0.011583 0.017322 198656.000000 0 0 1
-32.035810 -5.556362 13.652247 35.264006 0.171734 1.173264 0.007802 0.005523 481161.000000 0 0 1
-32.104360 -6.857062 13.134447 35.358492 0.210425 1.190210 0.009966 0.006700 -126172.000000 0 0 1
-33.302730 -7.078262 12.176147 36.158432 0.209427 1.227339 0.016025 0.015894 675102.000000 0 0 1
-34.642390 -7.010262 12.627947 37.532706 0.199665 1.227650 0.008956 0.019023 452845.000000 0 0 1
34.844956 -5.702962 12.935347 37.603430 -0.162228 1.219629 0.015647 0.012489 338615.000000 0 0 1
33.300546 -5.567062 12.811647 36.111728 -0.165644 1.208120 0.024867 0.009726 569904.000000 0 0 1
32.474736 -6.308162 13.651047 35.787603 -0.191859 1.179436 0.018614 0.018026 -111736.000000 0 0 1
31.114696 -6.285862 13.268647 34.404846 -0.199339 1.174871 0.016398 0.023828 313139.000000 0 0 1
30.265596 -7.515462 13.647147 34.040169 -0.243394 1.158283 0.000095 0.016861 3527.890000 0 0 1
30.026436 -7.656462 15.001847 34.427659 -0.249670 1.119925 0.010446 0.015494 190826.000000 0 0 1
29.041446 -8.633362 15.285147 33.934883 -0.288957 1.103554 0.007350 0.021876 -109653.000000 0 0 1
28.490216 -8.722662 16.723247 34.167884 -0.297102 1.059345 -0.019514 0.027823 -357224.000000 0 0 1
29.396566 -9.156762 17.697847 35.513634 -0.301965 1.049114 -0.024502 0.037198 -482034.000000 0 0 1
28.819776 -9.331062 18.992747 35.754338 -0.313122 1.010779 -0.028054 0.028029 -673290.000000 0 0 1
29.785566 -9.518862 20.201747 37.227669 -0.309322 0.997203 -0.032823 0.032358 64240.100000 0 0 1
30.704836 -8.493362 20.472147 37.868628 -0.269865 0.999635 -0.024006 0.031576 -297006.000000 0 0 1
31.855266 -8.570462 19.669147 38.406851 -0.262820 1.033138 -0.022242 0.032389 -1089690.000000 0 0 1
33.085676 -7.905062 20.272247 39.599445 -0.234530 1.033363 -0.009613 0.024666 -160419.000000 0 0 1
33.559816 -8.610762 21.438847 40.743474 -0.251162 1.016681 -0.009667 0.014764 -170516.000000 0 0 1
34.662579 -8.070462 22.107547 41.897141 -0.228754 1.014950 -0.021821 0.016019 -121434.000000 0 0 1
-34.877651 -8.873662 23.360347 42.905690 0.249137 0.995053 -0.016297 0.009157 -197298.000000 0 0 1
34.401162 -8.422462 24.466347 43.046254 -0.240108 0.966269 -0.015940 0.008471 154057.000000 0 0 1
34.563550 -9.184062 25.667647 44.020610 -0.259714 0.948279 -0.009570 0.003205 -470152.000000 0 0 1
34.172867 -8.450562 26.983647 44.354415 -0.242425 0.916798 -0.007673 0.004301 -517660.000000 0 0 1
-34.826134 -7.802962 27.679347 45.165165 0.220415 0.911138 -0.031720 -0.006495 -756346.000000 0 0 1
34.734749 -7.095362 28.763147 45.652663 -0.201501 0.889188 -0.031158 -0.003349 244956.000000 0 0 1
-34.147118 -6.659062 29.755747 45.779616 0.192594 0.863241 -0.018764 0.004970 700051.000000 0 0 1
-33.643870 -7.754062 30.527247 46.086313 0.226519 0.846788 -0.017268 0.007492 181877.000000 0 0 1
-32.388890 -7.413962 31.092047 45.505191 0.225028 0.818573 -0.010860 0.003718 169183.000000 0 0 1
-31.983550 -8.153462 32.370047 46.230362 0.249610 0.795132 -0.014759 0.005382 -251349.000000 0 0 1
-31.912680 -9.559362 32.257147 46.371587 0.291042 0.801509 -0.015626 -0.002340 202929.000000 0 0 1
-31.529670 -10.153262 33.476447 47.094388 0.311536 0.780108 -0.018409 -0.002052 -247023.000000 0 0 1
-31.648090 -11.666262 33.517947 47.551615 0.353170 0.788549 -0.005946 -0.006986 -561881.000000 0 0 1
-33.000640 -12.016562 33.627347 48.623436 0.349208 0.807112 -0.024821 -0.009502 -292254.000000 0 0 1
-33.074440 -13.453062 33.795947 49.163701 0.386313 0.812870 -0.016035 -0.018468 1007000.000000 0 0 1
-34.586016 -13.867962 33.937647 50.401158 0.381342 0.832065 -0.021654 -0.010439 905046.000000 0 0 1
-34.816658 -15.217162 34.105347 51.058167 0.412046 0.839318 -0.021120 -0.011646 -437816.000000 0 0 1
33.865386 -15.393262 34.500447 50.735567 -0.426625 0.823027 -0.039316 -0.011896 -476505.000000 0 0 1
33.443816 -16.836562 -34.561506 50.955435 -0.466386 2.316201 -0.034854 0.000620 -197318.000000 0 0 1
33.839606 -17.332962 -33.317206 50.552811 -0.473367 2.290361 -0.032955 -0.005548 103357.000000 0 0 1
33.670466 -18.774262 -33.336806 50.965830 -0.508651 2.283790 -0.023445 -0.014624 -141312.000000 0 0 1
34.275098 -19.516562 -32.114606 50.862820 -0.517623 2.254149 -0.016738 -0.015998 -208460.000000 0 0 1
33.490316 -19.436262 -30.958106 49.575941 -0.525849 2.245234 -0.027800 -0.011966 -350727.000000 0 0 1
33.958492 -20.285962 -29.968606 49.626775 -0.538487 2.219156 -0.037701 -0.007464 -682656.000000 0 0 1
32.851176 -20.367562 -28.843906 48.228708 -0.554992 2.211881 -0.036063 -0.002385 1513010.000000 0 0 1
31.635396 -21.055762 -29.200206 47.924894 -0.587247 2.225962 -0.029170 -0.007004 993803.000000 0 0 1
30.737596 -20.228462 -29.937606 47.436808 -0.582049 2.253773 -0.034482 -0.000584 -958833.000000 0 0 1
29.297726 -20.649762 -30.203706 46.872522 -0.613957 2.271008 -0.032342 0.003977 -200844.000000 0 0 1
28.512296 -19.641062 -30.785906 46.330275 -0.603212 2.297605 -0.036328 0.010944 -293277.000000 0 0 1
27.184696 -20.047362 -30.970006 45.826256 -0.635421 2.312864 -0.026544 0.003337 -290883.000000 0 0 1
26.390966 -19.246962 -31.995206 45.723319 -0.630122 2.345853 -0.023777 0.017111 -46807.000000 0 0 1
26.726256 -19.551962 -33.326906 46.981429 -0.631597 2.359391 -0.023729 0.004993 -74253.700000 0 0 1
25.567286 -19.631162 -34.109406 46.931016 -0.654811 2.384446 -0.000947 -0.001090 -392287.000000 0 0 1
25.916466 -20.035662 33.689547 46.990175 -0.658113 0.771381 -0.002617 -0.007955 -480492.000000 0 0 1
26.754216 -19.089662 33.133447 46.669354 -0.619742 0.781353 -0.005211 -0.009559 -137860.000000 0 0 1
26.955826 -19.296962 31.714847 45.878327 -0.621300 0.807535 -0.006936 -0.019856 -265423.000000 0 0 1
25.951806 -18.547862 30.807447 44.346570 -0.620526 0.802797 0.003927 -0.019094 -245733.000000 0 0 1
25.943106 -17.148362 30.987347 43.901330 -0.584068 0.787187 0.011832 -0.018574 483811.000000 0 0 1
25.091976 -16.453862 30.073547 42.482409 -0.580401 0.784267 0.031837 -0.016149 208189.000000 0 0 1
24.851366 -15.008362 30.547447 42.142471 -0.543301 0.759963 0.040369 -0.013629 902844.000000 0 0 1
26.110756 -14.284362 30.533947 42.639612 -0.500589 0.772607 0.038523 -0.014176 1319440.000000 0 0 1
26.030866 -13.065462 31.248747 42.717637 -0.465184 0.750250 0.053627 -0.006237 -214420.000000 0 0 1
27.343186 -12.262162 31.279647 43.317742 -0.421568 0.763966 0.027782 -0.000654 -34007.200000 0 0 1
27.674676 -11.663062 30.016347 42.460521 -0.398847 0.785657 0.018509 -0.005379 533908.000000 0 0 1
29.080126 -11.413362 29.974047 43.293904 -0.374007 0.806071 0.009559 -0.000409 411090.000000 0 0 1
29.451956 -10.656462 28.670347 42.461356 -0.347170 0.829546 0.000276 -0.004122 -171265.000000 0 0 1
29.265366 -9.251362 28.704447 42.023739 -0.306179 0.818862 0.008960 0.002384 -50924.300000 0 0 1
29.930906 -8.676262 27.625947 41.645284 -0.282143 0.845492 0.002238 0.015279 -135056.000000 0 0 1
29.902776 -7.098062 27.499747 41.240691 -0.233058 0.840875 0.006892 0.009862 -333271.000000 0 0 1
28.587276 -6.651862 27.311347 40.092260 -0.228618 0.821379 0.019426 0.011676 -588520.000000 0 0 1
28.545566 -5.267162 27.091347 39.705585 -0.182465 0.819884 0.020090 0.008178 -130625.000000 0 0 1
27.169286 -4.592962 26.894947 38.504592 -0.167466 0.797516 0.021693 0.007611 -91049.800000 0 0 1
26.614366 -5.043762 25.698447 37.338643 -0.187292 0.811718 0.009581 0.009633 257347.000000 0 0 1
25.201726 -4.887362 25.645547 36.286463 -0.191552 0.785899 0.022149 0.005131 -93021.700000 0 0 1
24.675466 -5.308762 24.275947 35.019755 -0.211913 0.804867 0.023341 0.007201 -380912.000000 0 0 1
25.060226 -4.386062 23.272647 34.479974 -0.173266 0.829884 0.023613 0.011400 275640.000000 0 0 1
24.717866 -4.787762 21.981647 33.422873 -0.191327 0.853058 0.029395 0.011591 -53575.900000 0 0 1
24.926466 -3.639562 20.963647 32.772697 -0.144987 0.876730 0.032117 0.009523 -198446.000000 0 0 1
23.929866 -2.649062 20.965747 31.925203 -0.110252 0.854342 0.032873 0.015151 -128375.000000 0 0 1
24.299866 -1.606362 20.093547 31.572370 -0.066010 0.880938 0.034698 0.013363 -530056.000000 0 0 1
23.110866 -0.806862 19.540447 30.275275 -0.034898 0.869216 -0.011813 0.009435 -278655.000000 0 0 1
22.264566 -1.643562 18.768147 29.166000 -0.073686 0.871742 0.020206 0.005471 139276.000000 0 0 1
21.249266 -0.882262 18.104847 27.930185 -0.041496 0.865555 0.020086 0.004967 576015.000000 0 0 1
20.232366 -1.848262 17.414247 26.758564 -0.091099 0.862170 0.016594 0.004717 -36058.500000 0 0 1
20.699166 -2.468862 16.247047 26.429478 -0.118713 0.908750 0.016983 -0.004248 -18894.700000 0 0 1
19.662266 -3.093862 15.493047 25.223228 -0.156071 0.909377 0.033352 -0.011605 -225985.000000 0 0 1
20.026266 -3.685662 14.121447 24.780047 -0.182005 0.964447 0.020383 -0.012731 -751145.000000 0 1 0
19.128066 -4.590362 13.565447 23.895098 -0.235526 0.967077 0.024557 -0.008189 166631.000000 0 1 0
19.369166 -4.875162 12.175047 23.391528 -0.246575 1.023372 0.019876 -0.005747 50468.400000 0 1 0
18.253166 -5.842762 11.674647 22.441331 -0.309790 1.023676 0.003917 -0.004734 256473.000000 0 1 0
18.355666 -7.152662 12.242047 23.193939 -0.371570 1.014773 0.018268 -0.007077 335546.000000 0 1 0
17.122466 -7.809962 12.073047 22.359178 -0.427935 1.000408 -0.003175 0.007529 -634134.000000 0 1 0
17.141966 -9.322262 12.297547 23.064719 -0.498091 1.008446 0.003626 -0.010341 -235375.000000 0 1 0
17.857666 -10.043862 11.303947 23.399886 -0.512344 1.066631 -0.010620 -0.014783 549404.000000 0 1 0
17.576766 -11.422862 11.346447 23.836241 -0.576294 1.074677 -0.001530 -0.009173 -20890.100000 0 1 0
18.267166 -12.134762 10.196447 24.184899 -0.586358 1.135583 -0.003006 -0.004125 58706.200000 0 1 0
17.713366 -11.689262 8.968047 23.039706 -0.583312 1.170987 -0.001651 -0.001884 207039.000000 0 1 0
18.485866 -12.167762 7.893047 23.496423 -0.582132 1.228209 0.006835 -0.021945 10501.300000 0 1 0
18.288866 -11.410862 6.508347 22.517748 -0.557825 1.277581 0.008951 -0.017416 -153801.000000 0 1 0
18.824566 -10.040362 6.541247 22.315042 -0.489982 1.273295 0.014358 -0.010108 727525.000000 0 1 0
19.027766 -9.563362 5.268547 21.937898 -0.465726 1.328268 -0.018958 -0.015955 -830168.000000 0 1 0
19.795466 -8.261162 5.243347 22.081666 -0.395353 1.331054 0.016102 -0.009026 -755147.000000 0 1 0
20.321866 -7.998662 3.951547 22.193954 -0.374976 1.391796 0.014331 -0.014061 609637.000000 0 1 0
20.748366 -6.632162 3.961347 22.139841 -0.309383 1.390904 0.027449 -0.011231 -846861.000000 0 1 0
21.503866 -6.197262 2.666047 22.537306 -0.280590 1.452224 0.028153 -0.015206 -118866.000000 0 1 0
20.612166 -6.194462 1.566747 21.579793 -0.291938 1.498130 0.013360 -0.022114 704529.000000 0 1 0
21.163266 -5.493862 0.442347 21.869203 -0.253988 1.550568 0.022571 -0.010415 -38352.300000 0 1 0
-25.215750 -15.917862 0.115547 29.819888 0.563093 1.566921 0.021705 -0.005232 39298.300000 0 0 1
-24.329370 -15.193262 -0.804053 28.694946 0.558227 1.598821 0.011873 -0.002437 1345750.000000 0 0 1
-22.979270 -15.701162 -0.791753 27.842417 0.599413 1.599237 0.001942 0.002394 1176760.000000 0 0 1
-22.119370 -15.037862 0.326747 26.749030 0.597074 1.558581 -0.013204 -0.001853 -501633.000000 0 0 1
-22.437270 -15.636762 1.559547 27.392911 0.608649 1.513833 -0.002190 0.002396 -201434.000000 0 0 1
-21.676270 -15.118062 2.621347 26.557258 0.609011 1.471930 -0.008237 0.018175 -53459.500000 0 0 1
-21.979770 -15.744062 3.996047 27.330462 0.621581 1.424058 -0.003572 0.019417 -402979.000000 0 0 1
-21.611970 -17.090262 4.086947 27.854218 0.669092 1.423538 0.002419 0.012298 241326.000000 0 0 1
-22.174870 -17.701062 5.276747 28.859947 0.673672 1.386922 0.010115 0.002163 -334740.000000 0 0 1
-22.027470 -19.256862 5.344747 29.742268 0.718388 1.390113 0.008098 0.003362 -179981.000000 0 0 1
-22.727870 -19.843162 6.425947 30.848014 0.717739 1.360950 -0.003851 0.004425 -14592.400000 0 0 1
-22.826070 -21.263862 6.277047 31.821103 0.749981 1.372234 0.005763 0.004663 -406968.000000 0 0 1
-23.661570 -21.994362 7.293947 33.118326 0.748898 1.348737 0.005565 0.012248 -623246.000000 0 0 1
-23.129470 -22.159762 8.563247 33.156547 0.763990 1.309568 0.009597 0.020111 -126894.000000 0 0 1
-24.044070 -22.863662 9.438047 34.495523 0.760239 1.293660 0.021783 0.026912 328388.000000 0 0 1
-23.435770 -23.333262 10.731447 34.768382 0.783206 1.257017 -0.016446 0.019754 -27762.500000 0 0 1
-23.115470 -22.319262 11.674247 34.187168 0.767876 1.222305 0.020137 0.019221 -553094.000000 0 0 1
-22.143470 -22.755162 12.534747 34.135766 0.799021 1.194796 0.027673 0.018640 -569742.000000 0 0 1
-22.325970 -22.110262 13.905847 34.361100 0.780544 1.154148 0.008097 0.026586 628235.000000 0 0 1
-23.502370 -22.593062 14.567547 35.707440 0.765674 1.150567 0.005326 0.025718 220874.000000 0 0 1
-23.663070 -22.024262 15.815047 35.987841 0.749543 1.115804 0.008506 0.031623 -88426.200000 0 0 1
-24.843770 -22.615262 16.652147 37.496093 0.738476 1.110623 -0.017934 0.028192 300690.000000 0 0 1
-26.168240 -22.487262 16.203847 38.118478 0.709888 1.131733 -0.022182 0.018014 -122738.000000 0 0 1
-26.458770 -23.248562 15.019947 38.290481 0.720906 1.167706 -0.027205 0.018133 -855913.000000 0 0 1
-27.427630 -24.428662 15.250747 39.769583 0.727630 1.177237 -0.020649 0.021133 -362395.000000 0 0 1
-26.998680 -25.293542 16.290547 40.423680 0.752802 1.156009 -0.021255 0.031534 21547.200000 0 0 1
-27.954780 -26.309942 16.557547 41.807118 0.755096 1.163589 -0.036317 0.025765 36749.900000 0 0 1
-27.839510 -27.537442 15.587447 42.146382 0.779943 1.191959 -0.028269 0.022730 134667.000000 0 0 1
-28.399950 -27.344992 14.306747 41.940300 0.766476 1.222686 -0.020708 0.007932 115733.000000 0 0 1
-29.672090 -27.940572 14.118747 43.132905 0.755353 1.237318 0.009489 -0.006620 254198.000000 0 0 1
-30.137400 -28.248352 12.720247 43.220793 0.753055 1.272064 0.020231 -0.016558 113178.000000 0 0 1
-29.453240 -29.426372 12.319447 43.418585 0.784942 1.283108 0.032414 -0.012653 464529.000000 0 0 1
-30.086860 -29.944042 11.145547 43.887219 0.783019 1.314025 0.031743 -0.005233 259801.000000 0 0 1
-29.321860 -31.118342 10.502747 44.027609 0.815113 1.329925 0.047843 -0.017493 -424690.000000 0 0 1
-29.475640 -32.333862 11.199047 45.163156 0.831608 1.320213 0.039152 -0.005026 65695.200000 0 0 1
-28.742660 -33.441132 10.695447 45.374469 0.860813 1.332842 0.054937 -0.008039 -164428.000000 0 0 1
-28.977780 34.592278 11.521347 46.573371 -0.873489 1.320820 0.037365 -0.005279 526329.000000 0 0 1
-30.316220 34.093603 11.547247 47.061512 -0.843977 1.322900 0.031335 -0.003288 331069.000000 0 0 1
-30.362660 32.749056 11.880647 46.211920 -0.823192 1.310786 0.019889 -0.010342 -359212.000000 0 0 1
-31.722760 32.313566 12.478947 46.970461 -0.794624 1.301891 0.027830 -0.011890 294032.000000 0 0 1
-32.849240 32.258476 11.623147 47.484518 -0.776325 1.323506 0.000230 -0.013097 267121.000000 0 0 1
-33.383960 33.532735 11.177147 48.619561 -0.787621 1.338832 0.008209 -0.007803 -422311.000000 0 0 1
-34.762775 33.298888 10.520447 49.274195 -0.763893 1.355632 -0.011278 0.006083 137804.000000 0 0 1
-34.639042 32.724406 9.211347 48.534513 -0.756983 1.379848 -0.021116 0.006682 -183071.000000 0 0 1
34.076746 32.515666 8.713847 47.900150 0.761960 1.387861 -0.031643 0.011983 -214700.000000 0 0 1
33.870196 32.016666 7.268147 47.170787 0.757274 1.416099 -0.028107 0.006597 -295933.000000 0 0 1
34.204453 30.713076 7.007247 46.500959 0.731668 1.419530 -0.015186 0.000634 21400.800000 0 0 1
33.751596 30.281706 5.704247 45.702193 0.731262 1.445657 0.003164 -0.001969 57910.500000 0 0 1
33.861426 28.721116 5.479147 44.738348 0.703446 1.448017 -0.003866 0.002762 391912.000000 0 0 1
32.934706 27.950986 6.255947 43.647330 0.703727 1.426972 0.009200 0.004587 309653.000000 0 0 1
33.510446 27.495586 7.493847 43.989943 0.687121 1.399608 -0.008743 0.009324 -280874.000000 0 0 1
32.729306 26.351496 8.060147 42.785218 0.677864 1.381278 0.001276 0.004479 -336419.000000 0 0 1
32.658166 25.290496 7.157347 41.921267 0.658935 1.399223 0.007314 0.000260 -405152.000000 0 0 1
31.528166 24.530506 7.429147 40.632047 0.661213 1.386922 0.011285 0.004973 -951049.000000 0 0 1
31.557126 23.185346 6.666247 39.722177 0.633644 1.402177 0.011770 0.006711 59199.300000 0 0 1
32.397726 22.145846 7.101447 39.880844 0.599608 1.391775 0.023837 0.001659 201855.000000 0 0 1
33.797546 22.421346 7.032347 41.163635 0.585739 1.399115 0.026865 -0.006308 463778.000000 0 0 1
34.680540 21.117246 7.062647 41.213578 0.546944 1.398579 0.015934 -0.009370 21759.700000 0 0 1
34.516696 20.325546 5.881547 40.486081 0.532189 1.425007 0.039747 -0.016804 215764.000000 0 0 1
-34.821984 19.105846 6.155647 40.193232 -0.501823 1.417040 0.044038 -0.017758 105723.000000 0 0 1
34.834877 17.962946 5.157847 39.531500 0.476097 1.439949 0.044502 -0.011703 417042.000000 0 0 1
-34.336089 17.919346 3.993547 38.936081 -0.480999 1.468049 0.031697 -0.011850 878389.000000 0 0 1
-34.921881 16.812046 3.241547 38.893319 -0.448672 1.487355 0.029076 -0.009403 -362843.000000 0 0 1
-34.019740 16.268746 2.091347 37.767559 -0.446068 1.515394 0.025014 0.008203 383750.000000 0 0 1
-32.938610 15.451346 2.535947 36.470908 -0.438620 1.501207 0.032041 0.008284 514172.000000 0 0 1
-31.819370 16.262146 2.894347 35.851178 -0.472470 1.489976 0.034611 -0.000398 -940567.000000 0 0 1
-30.553260 15.451146 3.172547 34.384657 -0.468207 1.478399 0.019454 -0.006432 -600024.000000 0 0 1
-30.518570 14.738046 4.402247 34.175618 -0.449891 1.441625 0.025210 -0.012569 1185050.000000 0 0 1
-29.185530 14.262346 4.705247 32.822995 -0.454550 1.426949 0.009090 -0.004125 745938.000000 0 0 1
-29.003400 13.544446 6.105247 32.587164 -0.436897 1.382331 0.016370 -0.014885 -460048.000000 0 0 1
-29.320360 12.187146 6.145247 32.341523 -0.393929 1.379623 0.009674 -0.001702 218820.000000 0 0 1
-29.023370 11.707346 7.404347 32.159638 -0.383414 1.338475 -0.009877 -0.000791 -241027.000000 0 0 1
-28.924790 10.210446 7.511947 31.580469 -0.339345 1.330627 -0.013803 0.002763 101190.000000 0 0 1
-30.181540 9.567246 7.438947 32.523768 -0.306970 1.340030 -0.017254 -0.000179 150214.000000 0 0 1
-29.992230 8.178446 7.440547 31.965334 -0.266213 1.335872 -0.023118 0.001846 175831.000000 0 0 1
-31.288420 7.330746 7.410447 32.979081 -0.230145 1.344160 -0.025823 0.011090 -49340.100000 0 0 1
-32.008690 7.203746 8.623547 33.923675 -0.221368 1.313771 -0.026126 0.003480 224133.000000 0 0 1
-33.197710 6.504046 8.285947 34.828831 -0.193468 1.330588 0.003859 0.005362 137858.000000 0 0 1
-34.114512 6.093946 9.442147 35.917826 -0.176768 1.304788 0.000791 0.006350 -98449.900000 0 0 1
-34.802125 7.135046 10.135447 36.943525 -0.202215 1.292883 -0.001295 0.012529 108675.000000 0 0 1
-34.023580 7.982146 11.009347 36.640475 -0.230439 1.265611 -0.003356 0.002020 -484029.000000 0 0 1
-34.702061 9.091146 11.810547 37.767327 -0.256219 1.252742 0.012652 -0.003957 -881257.000000 0 0 1
34.643435 8.546646 12.927647 37.951770 0.241873 1.223206 -0.003121 -0.004672 279451.000000 0 0 1
34.181399 9.534946 13.804247 38.076771 0.272036 1.199807 0.015850 -0.006572 -113196.000000 0 0 1
33.386566 9.006846 15.070247 37.721326 0.263502 1.159808 -0.008437 -0.005458 -730999.000000 0 0 1
32.118676 8.515346 14.854047 36.397297 0.259159 1.150415 -0.007912 -0.004742 -742982.000000 0 0 1
31.650856 8.102546 16.154647 36.447230 0.250616 1.111593 -0.021248 0.003037 584434.000000 0 0 1
30.130366 7.732046 16.211147 35.077412 0.251199 1.090374 -0.029854 0.019355 922756.000000 0 0 1
29.206906 8.840546 16.356547 34.622757 0.293920 1.078760 -0.044468 0.014565 1323640.000000 0 0 1
27.830416 8.463746 16.496547 33.441040 0.295231 1.054914 -0.033692 0.017676 887690.000000 0 0 1
27.329056 7.693546 17.777247 33.497739 0.274413 1.011370 -0.037094 0.022462 -514337.000000 0 0 1
27.316256 8.512846 18.963747 34.325940 0.302101 0.985482 -0.021357 0.013567 384647.000000 0 0 1
26.520066 8.023246 20.051947 34.201857 0.293781 0.944334 -0.016494 0.018836 -68050.800000 0 0 1
26.919586 6.752446 20.813747 34.691090 0.245767 0.927328 -0.019218 0.021335 -243014.000000 0 0 1
26.234646 6.720446 22.033047 34.912408 0.250774 0.887832 -0.014940 0.017069 131735.000000 0 0 1
26.706466 5.585146 22.731147 35.512452 0.206160 0.876182 -0.005738 0.015352 -825410.000000 0 0 1
26.278466 5.328346 24.241647 36.147013 0.200053 0.835725 0.000569 0.009702 415486.000000 0 0 1
24.923966 4.938546 24.410347 35.234336 0.195611 0.805432 -0.013742 0.020313 496310.000000 0 0 1
23.975666 6.013246 24.226847 34.611152 0.245737 0.795438 -0.016530 0.025813 438926.000000 0 0 1
22.488066 5.531246 24.268647 33.545120 0.241176 0.761991 -0.004011 0.019125 709471.000000 0 0 1
21.999366 4.895146 23.090847 32.266419 0.218946 0.773269 -0.010909 0.026865 -195372.000000 0 0 1
20.603366 4.910946 23.038747 31.295367 0.233990 0.743401 0.007073 0.015820 -1483910.000000 0 0 1
19.982766 3.981146 21.962147 29.958244 0.196654 0.747939 0.013490 0.022948 1288670.000000 0 0 1
18.665666 4.291946 21.411147 28.727428 0.226010 0.729781 0.029523 0.011373 1481510.000000 0 0 1
17.652966 3.931346 22.331247 28.736167 0.219126 0.680731 0.032956 0.008647 614042.000000 0 0 1
16.176266 3.897646 21.752547 27.386795 0.236442 0.652989 0.037129 0.009884 918521.000000 0 0 1
15.916666 2.859546 20.849247 26.385761 0.177761 0.659709 0.019142 0.014255 -646764.000000 0 0 1
14.588966 2.828546 20.444447 25.274771 0.191507 0.628539 0.009842 -0.003361 -829908.000000 0 0 1
13.715766 1.766446 21.144047 25.264863 0.128084 0.579210 0.008703 -0.001986 -597550.000000 0 0 1
13.992366 0.394646 20.851647 25.114404 0.028197 0.591211 -0.001089 0.002295 579597.000000 0 0 1
13.171266 -0.387154 21.728947 25.412188 -0.029385 0.545130 -0.022075 -0.001631 286776.000000 0 0 1
13.633366 -1.891354 21.745047 25.735054 -0.137850 0.564309 -0.033701 0.004009 -45015.900000 0 0 1
13.146866 -2.718054 20.689147 24.663105 -0.203873 0.575592 -0.033569 0.012707 529296.000000 0 1 0
13.677466 -4.043454 20.898547 25.301618 -0.287442 0.598864 -0.000466 0.022089 -63277.200000 0 0 1
13.463966 -4.860454 19.604347 24.274119 -0.346438 0.630686 -0.001267 0.018402 192986.000000 0 1 0
12.056766 -4.911654 19.413547 23.374683 -0.386850 0.590725 -0.015093 0.017647 194697.000000 0 1 0
11.732466 -5.349354 18.104147 22.226707 -0.427786 0.618891 -0.011166 0.015269 252700.000000 0 1 0
10.203066 -5.424754 17.879347 21.288532 -0.488668 0.573774 -0.007869 0.014804 294041.000000 0 1 0
9.539566 -6.385454 18.646947 21.897169 -0.589868 0.551826 -0.006158 0.019000 -1166710.000000 0 1 0
8.178066 -6.434954 18.423847 21.159574 -0.666674 0.514153 -0.010831 0.006568 -845599.000000 0 1 0
7.439366 -7.400354 19.392847 22.049760 -0.782769 0.495978 -0.023886 0.006276 -572439.000000 0 1 0
7.673366 -8.784254 19.129847 22.405239 -0.852796 0.547533 -0.018822 0.006597 -240151.000000 0 1 0
8.724166 -9.384154 19.846847 23.623522 -0.821829 0.573272 -0.001179 0.009201 -70219.300000 0 1 0
9.011766 -10.686954 19.124547 23.689053 -0.870234 0.631207 0.008580 -0.003174 60500.500000 0 1 0
9.407666 -10.438754 17.786247 22.667650 -0.837305 0.668660 0.012338 0.003415 -3253.760000 0 1 0
9.765666 -11.655754 17.191247 22.951336 -0.873404 0.724199 0.009781 -0.006739 108421.000000 0 1 0
9.743466 -11.656854 15.716347 21.859116 -0.874570 0.768457 0.010179 -0.009232 246264.000000 0 1 0
10.255566 -12.847554 15.081447 22.308885 -0.897123 0.828436 -0.002236 -0.010533 157262.000000 0 1 0
10.096266 -12.839254 13.713647 21.327099 -0.904428 0.872368 -0.000281 -0.007740 -773622.000000 0 1 0
10.600866 -14.103154 13.013247 21.923091 -0.926230 0.935288 0.000132 -0.009877 1515930.000000 0 1 0
12.010366 -14.138754 12.645247 22.451181 -0.866613 0.972503 -0.010933 -0.003559 1419570.000000 0 1 0
12.430966 -13.181954 11.674247 21.554138 -0.814710 0.998428 -0.015209 -0.001830 -1331080.000000 0 1 0
13.813266 -13.419254 11.107747 22.232066 -0.770931 1.047628 -0.016595 0.003865 -626374.000000 0 1 0
13.968366 -14.425354 10.162447 22.505142 -0.801491 1.102282 -0.019944 0.000772 -398643.000000 0 1 0
15.271966 -14.369854 9.654147 23.085238 -0.754974 1.139338 -0.009635 0.000941 -348466.000000 0 1 0
16.002366 -15.727954 9.404447 24.328746 -0.776750 1.173901 -0.011278 0.001438 197909.000000 0 1 0
16.409466 -16.466654 10.542147 25.525637 -0.787138 1.145048 -0.008871 0.000585 605475.000000 0 0 1
15.329666 -17.254154 11.061247 25.594056 -0.844392 1.123887 -0.006412 0.003971 504834.000000 0 0 1
15.681866 -17.842154 12.398047 26.795055 -0.849749 1.089759 -0.006600 0.001020 702652.000000 0 0 1
16.841366 -18.713354 12.472147 28.095830 -0.838000 1.110834 0.008878 -0.003191 844785.000000 0 0 1
17.080866 -19.227254 13.792247 29.183375 -0.844445 1.078550 0.000059 -0.009083 4511.970000 0 0 1
18.465466 -19.900254 13.893147 30.496116 -0.822778 1.097783 -0.017003 -0.010364 -359218.000000 0 0 1
19.605266 -19.108554 13.958547 30.730186 -0.772568 1.099290 -0.013914 -0.002842 -659037.000000 0 0 1
20.736966 -19.936754 13.747447 31.882413 -0.765727 1.124983 -0.022434 -0.006201 4061.030000 0 0 1
21.623966 -19.355554 12.633547 31.651855 -0.730100 1.160217 -0.017110 0.006223 -1084150.000000 0 0 1
21.277966 -19.579754 11.281647 31.038592 -0.743858 1.198805 -0.023984 0.018483 138954.000000 0 0 1
20.154866 -19.032154 10.585747 29.673213 -0.756756 1.206016 -0.017627 0.015998 491400.000000 0 0 1
19.876866 -17.465454 10.572447 28.494009 -0.720912 1.190666 0.012523 0.019915 304219.000000 0 0 1
20.718366 -16.811754 9.633247 28.366974 -0.681679 1.224311 0.005906 0.015231 222546.000000 0 0 1
20.303766 -15.471354 9.607847 27.274832 -0.651133 1.210811 0.008415 -0.003889 208478.000000 0 0 1
-33.525440 25.385738 8.358447 42.874870 -0.648098 1.374590 -0.003687 0.004185 -324717.000000 0 0 1
-32.722110 24.865238 9.355447 42.149032 -0.649801 1.346971 0.008372 -0.003476 -853231.000000 0 0 1
-31.609710 25.599238 9.668347 41.808751 -0.680720 1.337432 0.005720 -0.000067 -497786.000000 0 0 1
-30.441780 24.734038 10.299247 40.553040 -0.682318 1.314014 0.012806 -0.013325 448152.000000 0 0 1
-29.898220 23.912238 9.260947 39.388626 -0.674612 1.333457 0.009519 -0.010005 -248891.000000 0 0 1
-28.973400 23.006038 9.789347 38.269662 -0.671096 1.312122 0.013081 -0.003992 -191440.000000 0 0 1
-28.267650 22.299838 8.581347 37.013272 -0.667925 1.336822 0.013890 -0.013288 -89987.300000 0 0 1
-28.968560 21.212038 7.958047 36.775787 -0.632040 1.352677 0.028339 -0.019640 265577.000000 0 0 1
-28.311580 20.615438 6.848347 35.685315 -0.629378 1.377689 0.021881 -0.022747 -314949.000000 0 0 1
-29.263490 19.766138 6.016147 35.822424 -0.594061 1.402053 0.022664 -0.018216 -398951.000000 0 0 1
-29.818850 18.659838 6.699547 35.808341 -0.559155 1.382593 0.026162 -0.019020 346863.000000 0 0 1
-30.881310 18.061938 6.001547 36.275439 -0.529230 1.404588 0.017699 -0.017765 55164.800000 0 0 1
-31.510740 16.767738 6.601247 36.299590 -0.489018 1.387924 0.026952 -0.012148 -46945.500000 0 0 1
-32.182090 16.930538 7.852147 37.201966 -0.484298 1.358129 0.032259 -0.017964 1135610.000000 0 0 1
-33.145740 15.854238 8.103847 37.625381 -0.446153 1.353713 0.040481 -0.017666 784098.000000 0 0 1
-34.168356 16.175538 9.222647 38.912489 -0.442148 1.331509 0.036614 -0.020541 211456.000000 0 0 1
34.877995 17.149738 8.879547 39.867712 0.456991 1.346187 0.047940 -0.019197 255458.000000 0 0 1
34.210038 17.657038 10.056247 39.789770 0.476473 1.315291 0.045508 -0.009743 123469.000000 0 0 1
33.310786 18.855838 9.799447 39.511774 0.515088 1.320167 0.032288 -0.014203 -454214.000000 0 0 1
32.181106 18.651438 9.009147 38.270935 0.525267 1.333162 0.024225 -0.009115 -281461.000000 0 0 1
31.434286 19.827638 8.817947 38.196934 0.562734 1.337840 0.015252 -0.006652 -146099.000000 0 0 1
30.016296 19.660038 8.232447 36.813969 0.579867 1.345266 0.003418 -0.006095 -494548.000000 0 0 1
29.429506 20.939938 8.360347 37.073876 0.618422 1.343335 -0.004666 0.000206 1543230.000000 0 0 1
28.003176 20.880338 7.988647 35.832735 0.640706 1.345964 -0.009673 0.004531 1827710.000000 0 0 1
27.678676 20.850438 6.470547 35.252204 0.645612 1.386200 -0.020413 0.012599 -694573.000000 0 0 1
27.941756 19.605738 5.891947 34.638732 0.611842 1.399868 -0.021221 0.008295 -152157.000000 0 0 1
27.908126 19.431838 4.518447 34.305630 0.608224 1.438701 -0.024475 0.006316 40741.400000 0 0 1
26.495116 19.542938 3.894047 33.152394 0.635521 1.453066 -0.007080 0.014535 -385694.000000 0 0 1
25.543026 18.681338 4.487147 31.962057 0.631469 1.429941 -0.001204 0.009948 1272470.000000 0 0 1
24.194266 18.850238 3.980947 30.928012 0.661879 1.441722 0.015869 0.001236 1694860.000000 0 0 1
23.319266 20.107238 4.380547 31.101100 0.711568 1.429478 0.026059 -0.008232 -503774.000000 0 0 1
23.806166 21.245738 3.735147 32.125788 0.728626 1.454266 0.014100 -0.003926 200169.000000 0 0 1
23.373066 22.492938 4.312147 32.723495 0.766211 1.438637 0.018634 -0.000045 -127425.000000 0 0 1
24.292566 23.679738 3.947147 34.153166 0.772624 1.454966 0.010941 0.013749 -574907.000000 0 0 1
25.585626 23.576338 4.425747 35.072143 0.744550 1.444269 -0.002312 0.007681 -360839.000000 0 0 1
26.408576 24.710838 4.078747 36.396080 0.752199 1.458495 0.020942 0.002476 1056930.000000 0 0 1
27.783006 24.802138 4.879847 37.561342 0.728772 1.440511 0.011152 0.006159 1026270.000000 0 0 1
28.793376 23.799038 4.676947 37.647398 0.690719 1.446244 0.001313 0.001101 531645.000000 0 0 1
29.394296 23.845138 3.394847 38.001845 0.681543 1.481343 0.014612 -0.013308 -345458.000000 0 0 1
30.299566 25.076238 3.075747 39.450496 0.691351 1.492752 0.028305 -0.019601 -811537.000000 0 0 1
29.562726 26.225038 2.723347 39.612170 0.725641 1.501992 0.024891 -0.017512 -542680.000000 0 0 1
30.266726 27.324538 2.235147 40.837495 0.734355 1.516036 0.037643 -0.013045 -972211.000000 0 0 1
29.609276 28.678438 2.496647 41.296432 0.769430 1.510303 0.038578 -0.011656 947028.000000 0 0 1
28.361676 28.936838 1.828347 40.559440 0.795436 1.525703 0.059297 -0.016505 1352700.000000 0 0 1
27.187536 28.396638 2.470747 39.390808 0.807147 1.508031 0.043929 -0.006105 709017.000000 0 0 1
25.869736 29.135238 2.098347 39.019334 0.844696 1.516993 0.015649 -0.001867 234256.000000 0 0 1
25.760056 30.499638 2.580647 40.005852 0.869444 1.506245 0.015349 -0.005444 204834.000000 0 0 1
24.496266 31.062438 2.269347 39.624387 0.903037 1.513493 0.020424 0.002416 285024.000000 0 0 1
24.160066 32.535938 2.712847 40.615953 0.932070 1.503954 0.026686 -0.009538 -397782.000000 0 0 1
24.094366 32.759038 4.114747 40.873270 0.936638 1.469955 0.014112 -0.026070 373380.000000 0 0 1
25.321946 32.641738 4.835447 41.594057 0.911016 1.454280 0.007693 -0.020545 210463.000000 0 0 1
25.120646 32.345738 6.355347 41.444952 0.910469 1.416845 0.018270 -0.026809 183879.000000 0 0 1
24.699266 31.020238 6.781447 40.228062 0.898358 1.401412 0.026821 -0.020281 415049.000000 0 0 1
25.596356 30.004138 6.332147 39.943934 0.864509 1.411599 0.021952 -0.014355 209756.000000 0 0 1
25.316306 28.635038 6.934547 38.845447 0.846834 1.391318 0.031530 -0.008563 1207390.000000 0 0 1
23.955666 28.218638 6.647247 37.607863 0.866923 1.393111 0.025453 -0.015498 1064040.000000 0 0 1
23.702566 26.831538 6.793947 36.440373 0.847237 1.383259 0.037248 -0.010689 204159.000000 0 0 1
22.348366 26.317038 6.195247 35.077301 0.866768 1.393248 0.040619 0.000591 500948.000000 0 0 1
22.131266 26.173938 4.749047 34.603778 0.868894 1.433121 0.020888 -0.004799 160919.000000 0 0 1
22.159966 27.419738 4.078747 35.490031 0.891090 1.455615 0.033063 -0.011018 -297855.000000 0 0 1
22.259366 27.364938 2.544647 35.366573 0.887922 1.498783 0.028981 -0.002914 -37785.400000 0 0 1
23.403366 26.602638 2.174547 35.498543 0.849289 1.509501 0.021699 0.018594 274939.000000 0 0 1
23.397166 26.195538 0.808147 35.132417 0.841765 1.547791 0.025845 0.016820 -580726.000000 0 0 1
24.708566 25.723038 0.193747 35.668270 0.805511 1.565364 0.037614 0.009795 -951522.000000 0 0 1
25.682586 26.747938 -0.073353 37.081705 0.805715 1.572774 0.027954 0.010699 1107170.000000 0 0 1
26.779736 26.369738 -0.929353 37.594961 0.777684 1.595519 0.028989 0.015032 1293650.000000 0 0 1
27.724676 25.177838 -0.420553 37.453412 0.737293 1.582025 0.032813 0.004764 -461555.000000 0 0 1
27.246086 23.902238 -0.745353 36.252197 0.720116 1.591358 0.041433 -0.001315 53185.500000 0 0 1
27.928556 22.880038 -0.083753 36.104119 0.686360 1.573116 0.042483 -0.007902 229432.000000 0 0 1
26.910466 21.993338 0.715347 34.761931 0.685188 1.550216 0.034990 -0.000610 452164.000000 0 0 1
26.333756 20.945238 0.009047 33.647731 0.671915 1.570527 0.041718 -0.016471 1019410.000000 0 0 1
25.059476 20.557938 0.579647 32.418238 0.687036 1.552915 0.034445 -0.000964 1013010.000000 0 0 1
24.501266 19.201838 -0.086153 31.129248 0.664728 1.573564 0.035785 -0.006417 -379263.000000 0 0 1
23.296666 18.744638 0.453147 29.904874 0.677543 1.555643 0.035264 -0.003406 -628869.000000 0 0 1
22.739166 17.812638 -0.354453 28.887461 0.664503 1.583067 0.040973 -0.011989 42399.700000 0 0 1
21.273366 17.558038 0.120747 27.583607 0.690010 1.566419 0.027338 0.006002 -1069040.000000 0 0 1
20.850966 16.383338 -0.443153 26.521179 0.665982 1.587506 0.037356 0.002761 275443.000000 0 0 1
19.538866 15.997138 -0.065353 25.252327 0.686060 1.573384 0.035523 0.009342 73683.900000 0 0 1
18.332966 16.775738 -0.573953 24.856638 0.741073 1.593889 0.016580 0.007286 -1200560.000000 0 1 0
18.310666 18.066738 -0.066353 25.723373 0.778693 1.573376 0.004774 0.013839 -1224750.000000 0 0 1
17.242666 18.767038 -0.541553 25.491264 0.827705 1.592043 -0.007648 0.015988 -926775.000000 0 0 1
17.259166 20.233338 -0.111653 26.594722 0.864559 1.574995 -0.006556 0.015000 -251178.000000 0 0 1
17.042566 20.333538 1.311347 26.563536 0.873222 1.521410 0.001772 0.014834 126919.000000 0 0 1
17.253766 21.628938 1.836147 27.728593 0.897449 1.504529 0.006579 0.010133 -311405.000000 0 0 1
16.290066 22.730238 1.330947 27.996453 0.948970 1.523239 -0.002844 0.010216 -157407.000000 0 0 1
14.971566 22.576138 1.791247 27.148451 0.985226 1.504769 -0.007689 0.013388 23786.800000 0 0 1
14.095166 23.603138 1.292447 27.521851 1.032458 1.523818 -0.019404 0.005304 1546270.000000 0 0 1
12.595166 23.555338 1.783347 26.770739 1.079771 1.504131 -0.020475 0.006733 1064870.000000 0 0 1
12.448466 23.764238 3.180147 27.015119 1.088265 1.452805 -0.021025 0.002518 -391376.000000 0 0 1
11.139166 23.504938 3.615647 26.260922 1.128240 1.432676 -0.023525 -0.000504 -155288.000000 0 0 1
10.910866 23.568238 5.131447 26.473394 1.137227 1.375727 -0.021418 0.003597 -134681.000000 0 0 1
11.682166 22.646138 5.913747 26.158994 1.094544 1.342756 -0.021995 -0.019545 68457.400000 0 0 1
11.086266 22.550838 7.156847 26.127879 1.113881 1.293334 -0.018463 -0.012759 -368089.000000 0 0 1
11.744166 21.539838 8.191947 25.864997 1.071623 1.248527 -0.009263 -0.009003 497761.000000 0 0 1
13.019766 21.861138 8.733147 26.901515 1.033643 1.240172 0.007755 -0.008701 437724.000000 0 0 1
14.114166 21.544838 7.874947 26.933335 0.990840 1.274075 -0.000161 -0.013292 564812.000000 0 0 1
15.469466 21.753938 8.646747 28.058946 0.952652 1.257534 0.019745 -0.009597 236198.000000 0 0 1
15.824866 20.672138 9.458247 27.698775 0.917438 1.222318 0.027076 -0.011737 -129780.000000 0 0 1
17.016566 20.829638 10.172747 28.756254 0.885811 1.209211 0.034008 -0.013219 -417773.000000 0 0 1
16.881966 21.790038 11.361447 29.814242 0.911639 1.179838 0.014930 0.001291 -858138.000000 0 0 1
16.111666 21.275038 12.374847 29.416830 0.922637 1.136610 0.011710 0.001218 -467346.000000 0 0 1
16.215666 21.931338 13.628347 30.490380 0.934125 1.107419 0.004313 0.015236 -63109.300000 0 0 1
17.309966 21.329438 14.567047 31.093066 0.889051 1.083206 0.022042 0.014605 1170340.000000 0 0 1
18.665066 21.662538 14.224747 31.937340 0.859590 1.109180 0.029321 0.012901 14696.000000 0 0 1
19.541166 20.876238 14.982547 32.282367 0.818418 1.088168 0.010200 0.010038 -798040.000000 0 0 1
20.968366 21.344438 14.772847 33.369064 0.794286 1.112177 0.007063 0.011967 -859356.000000 0 0 1
21.466666 21.047738 13.486947 32.950308 0.775545 1.149097 0.008267 0.009469 53151.600000 0 0 1
22.606266 21.885638 13.273347 34.149761 0.769203 1.171597 0.015019 0.004503 150633.000000 0 0 1
23.554166 21.463338 12.147847 34.103428 0.738987 1.206592 0.011546 0.016315 -353171.000000 0 0 1
23.193166 21.848238 10.785347 33.639147 0.755547 1.244413 0.009362 0.007603 1023290.000000 0 0 1
24.232766 21.347738 9.903947 33.779299 0.722187 1.273229 0.025855 -0.008206 538920.000000 0 0 1
24.097866 21.922838 8.462147 33.658965 0.738171 1.316661 0.015921 -0.009150 -16262.500000 0 0 1
24.316666 23.375038 8.372647 34.753329 0.765657 1.327486 0.027842 0.000135 548512.000000 0 0 1
25.688366 23.743138 8.282347 35.947546 0.746066 1.338307 0.007641 -0.003261 108160.000000 0 0 1
26.028146 25.101638 9.033447 37.271434 0.767279 1.325989 0.014248 -0.003605 479780.000000 0 0 1
27.338946 25.556638 8.664347 38.413938 0.751716 1.343287 0.003332 0.000106 649745.000000 0 0 1
27.667906 26.677238 9.464047 39.582272 0.767171 1.329359 0.005861 -0.001063 844454.000000 0 0 1
28.948766 27.440338 8.947647 40.878645 0.758654 1.350127 0.002939 0.000401 715661.000000 0 0 1
28.720506 28.174038 7.765647 40.974982 0.775794 1.380121 0.017031 0.002328 -359717.000000 0 0 1
29.945396 28.603538 7.249147 42.040924 0.762484 1.397499 0.018076 0.009461 -624627.000000 0 0 1
29.914366 29.679338 6.086447 42.576722 0.781454 1.427352 0.023671 0.005793 -101919.000000 0 0 1
29.798956 30.982638 6.624747 43.494700 0.804870 1.417890 0.016616 -0.002373 41730.300000 0 0 1
29.597956 31.932638 5.559447 43.893506 0.823323 1.443798 0.020040 -0.002465 102796.000000 0 0 1
29.633976 33.401638 6.092047 45.066118 0.845098 1.435201 -0.008504 -0.002015 254757.000000 0 0 1
28.480696 33.765438 6.828647 44.697710 0.870096 1.417422 -0.007435 -0.012060 103672.000000 0 0 1
28.490096 -34.151570 6.995847 45.021742 -0.875532 1.414776 -0.013138 -0.006801 261173.000000 0 0 1
27.134736 -33.581870 7.524247 43.825224 -0.891186 1.398254 0.007088 -0.014368 575682.000000 0 0 1
26.118586 -33.810970 6.564047 43.225560 -0.913057 1.418351 0.013784 -0.023814 -213504.000000 0 0 1
24.947866 -33.053470 6.811847 41.968193 -0.924248 1.407765 0.007058 -0.031826 123862.000000 0 0 1
23.839666 -33.330670 5.781147 41.384598 -0.949911 1.430645 0.026942 -0.021123 -174083.000000 0 0 1
24.094466 -32.663470 4.560147 40.844101 -0.935241 1.458915 0.005948 0.003826 103918.000000 0 0 1
23.111766 -32.959270 3.574647 40.413430 -0.959251 1.482229 0.014591 -0.007013 58965.400000 0 0 1
23.490866 -32.464470 2.158047 40.130036 -0.944415 1.516994 0.017520 0.011687 33690.500000 0 0 1
23.425466 -31.024970 2.066347 38.930336 -0.924070 1.517693 0.008576 0.019575 -73086.600000 0 0 1
23.982866 -30.595170 0.844247 38.883867 -0.905964 1.549083 0.001379 0.013594 -361334.000000 0 0 1
24.474766 -29.166770 0.783947 38.083189 -0.872646 1.550210 -0.016011 0.020289 -616411.000000 0 0 1
23.578566 -28.098470 0.837147 36.690239 -0.872641 1.547978 -0.030015 0.024786 -547571.000000 0 0 1
22.845966 -27.902870 -0.353153 36.064291 -0.884716 1.580589 -0.025474 0.025091 -240286.000000 0 0 1
21.830766 -26.755570 -0.303553 34.533101 -0.886415 1.579587 -0.028204 0.019815 -720984.000000 0 0 1
22.307366 -25.417170 -0.240353 33.818766 -0.850468 1.577903 -0.036240 0.021028 -459020.000000 0 0 1
22.519266 -24.862170 1.105547 33.562883 -0.834806 1.537851 -0.053193 0.030665 411236.000000 0 0 1
21.324266 -24.782370 2.126347 32.762961 -0.860260 1.505850 -0.050809 0.030365 288653.000000 0 0 1
21.526466 -24.006070 3.281747 32.410647 -0.839802 1.469367 -0.063326 0.038429 -438524.000000 0 0 1
20.294266 -23.877270 3.957747 31.585520 -0.866337 1.445164 -0.035483 0.033254 -259286.000000 0 0 1
20.351166 -23.103970 5.305347 31.242761 -0.848662 1.400159 -0.032329 0.031766 -31836.300000 0 0 1
20.381666 -21.684070 5.220847 30.213714 -0.816349 1.397127 -0.022565 0.037536 745979.000000 0 0 1
19.111266 -21.121570 4.845947 28.893675 -0.835323 1.402283 -0.017240 0.029038 350102.000000 0 0 1
19.025166 -19.636170 5.182647 27.827971 -0.801201 1.383464 -0.018030 0.022554 -1622.010000 0 0 1
19.031266 -19.324970 6.564247 27.905787 -0.793055 1.333342 0.001188 0.021280 -707252.000000 0 0 1
17.783666 -19.049670 7.105147 27.011699 -0.819756 1.304625 0.013735 0.025293 -373920.000000 0 0 1
18.235030 -26.492162 -12.602053 34.542187 -0.967954 1.944247 0.055605 -0.009169 196260.000000 0 0 1
18.507630 -25.170742 -12.931453 33.813031 -0.936781 1.963232 0.050603 -0.003321 -430649.000000 0 0 1
17.288430 -24.568162 -13.270753 32.842005 -0.957597 1.986768 0.043109 -0.000385 -210655.000000 0 0 1
17.269030 -23.045862 -13.738453 31.907307 -0.927722 2.015925 0.032270 -0.004069 -93615.700000 0 0 1
17.420730 -22.057162 -12.746053 30.861985 -0.902306 1.996544 0.033917 -0.003554 551812.000000 0 0 1
18.676830 -22.002762 -12.029753 31.267563 -0.866976 1.965718 0.034328 -0.010113 320508.000000 0 0 1
18.756630 -22.759862 -10.662053 31.360833 -0.881526 1.917692 0.036569 -0.004207 5128.260000 0 0 1
18.009530 -22.367962 -9.492953 30.245414 -0.892924 1.890056 0.039405 -0.007905 -467260.000000 0 0 1
16.661030 -22.686462 -9.584253 29.734212 -0.937352 1.898987 0.037739 0.006818 -745764.000000 0 0 1
15.723830 -22.142462 -8.499153 28.456336 -0.953310 1.874099 0.020893 0.000644 -865584.000000 0 0 1
15.576630 -20.707862 -8.570253 27.292786 -0.925883 1.890212 0.007953 -0.003306 226118.000000 0 0 1
14.548630 -20.122762 -7.791853 26.025010 -0.944804 1.874859 0.000446 -0.005283 1553370.000000 0 0 1
13.031930 -20.505562 -8.070853 25.601718 -1.004660 1.891513 0.011365 0.006193 942072.000000 0 0 1
12.598330 -21.796862 -7.640653 26.309707 -1.046719 1.865454 0.008754 0.007704 -366835.000000 0 0 1
11.348230 -22.030962 -8.243553 26.117078 -1.095139 1.891926 0.009875 0.009360 -536331.000000 0 0 1
10.724030 -23.287162 -7.742553 26.781409 -1.139235 1.864085 0.009229 0.005699 -517143.000000 0 0 1
10.438030 -23.232262 -6.404453 26.262283 -1.148533 1.817146 0.014441 0.005276 160365.000000 0 0 1
9.975130 -24.513462 -5.917153 27.118734 -1.184335 1.790760 0.015242 0.005751 381025.000000 0 0 1
10.810530 -25.014662 -4.688853 27.651152 -1.162870 1.741191 0.032097 -0.004589 -15002.600000 0 0 1
9.983930 -25.886462 -3.997953 28.031614 -1.202694 1.713907 0.048253 -0.016528 -222743.000000 0 0 1
10.549130 -26.384902 -2.795853 28.552828 -1.190448 1.668872 0.047590 -0.011308 -135297.000000 0 0 1
9.535930 -27.067792 -1.871953 28.759408 -1.232076 1.635932 0.047538 -0.007720 -171271.000000 0 0 1
8.609230 -26.212732 -1.292753 27.620597 -1.253459 1.617617 0.037840 -0.004269 -472938.000000 0 0 1
7.972630 -26.817772 -0.175253 27.978321 -1.281828 1.577060 0.044619 -0.008135 -135402.000000 0 0 1
6.926930 -25.992202 0.531647 26.904639 -1.310349 1.551035 0.032239 -0.009632 -358480.000000 0 0 1
5.635630 -25.933682 -0.025553 26.538968 -1.356814 1.571759 0.043418 -0.008787 -307239.000000 0 0 1
4.826830 -25.130362 0.841147 25.603533 -1.381036 1.537938 0.046726 -0.012699 -58129.000000 0 0 1
3.342630 -25.069622 0.506047 25.296545 -1.438244 1.550790 0.016812 -0.010394 -217201.000000 0 0 1
2.596330 -26.287562 0.493247 26.420071 -1.472349 1.552126 0.002096 -0.005854 526706.000000 0 0 1
1.287930 -25.999712 -0.006353 26.031593 -1.521300 1.571040 0.002170 0.004107 1089270.000000 0 0 1
0.262430 -27.202202 -0.012053 27.203471 -1.561149 1.571239 0.006269 0.000844 536800.000000 0 0 1
0.130630 -27.933902 1.180947 27.959159 -1.566120 1.528545 0.006320 0.002439 -97085.100000 0 0 1
0.623030 -29.265912 0.971247 29.288651 -1.549511 1.537629 0.002374 0.008212 105719.000000 0 0 1
0.104730 -30.215482 2.061347 30.285896 -1.567330 1.502681 0.002147 0.007221 126133.000000 0 0 1
0.754830 -30.022742 3.283247 30.211166 -1.545660 1.461905 -0.007386 0.012245 221891.000000 0 0 1
0.154630 -30.948202 4.194147 31.231490 -1.565800 1.436097 -0.004585 0.011598 154348.000000 0 0 1
0.425330 -30.664342 5.711247 31.194569 -1.556927 1.386673 -0.010659 0.002669 -157936.000000 0 0 1
1.789230 -30.838042 6.033447 31.473619 -1.512841 1.377904 -0.025059 0.012444 -106565.000000 0 0 1
1.978330 -30.832992 7.435247 31.778453 -1.506721 1.334636 -0.016452 0.014363 -412316.000000 0 0 1
3.363230 -31.292682 7.837247 32.434021 -1.463731 1.326744 -0.008528 0.006035 -437361.000000 0 0 1
3.435530 -32.638262 7.509547 33.666784 -1.465922 1.345849 -0.013809 0.007935 -295634.000000 0 0 1
4.663530 -33.183532 7.922147 34.433352 -1.431173 1.338645 -0.016414 0.007652 -416545.000000 0 0 1
4.734530 34.603479 7.680447 35.760395 1.434818 1.354335 -0.032420 0.016159 -522281.000000 0 0 1
4.740730 34.235229 6.380047 35.145845 1.433196 1.388254 -0.024022 0.016665 -3998.000000 0 0 1
4.512530 32.868246 6.214647 33.753613 1.434358 1.385622 -0.025896 0.015139 -331743.000000 0 0 1
4.603630 32.373536 4.733047 33.039991 1.429540 1.427050 -0.017951 0.011204 1899750.000000 0 0 1
5.986530 32.440426 4.216747 33.256590 1.388310 1.443660 -0.019667 0.016881 1362270.000000 0 0 1
6.539130 31.201236 4.255047 32.161822 1.364207 1.438106 -0.026154 0.017946 1768330.000000 0 0 1
8.089030 31.233046 3.795747 32.486048 1.317375 1.453686 -0.027077 0.015963 1916330.000000 0 0 1
9.064330 31.829846 4.609447 33.414790 1.293366 1.432409 -0.019807 0.007287 -530789.000000 0 0 1
10.280630 31.800126 3.906247 33.648152 1.258113 1.454443 -0.019211 0.005135 -239502.000000 0 0 1
11.465330 32.227426 4.797547 34.540951 1.228997 1.431451 -0.005972 -0.003475 8972.540000 0 0 1
11.888130 31.295926 5.810847 33.978355 1.207770 1.398935 0.000434 -0.004712 -529162.000000 0 0 1
13.044430 31.758516 6.430347 34.930071 1.181067 1.385648 0.025440 -0.007683 -664027.000000 0 0 1
13.647030 30.758736 7.417647 34.458131 1.153211 1.353833 0.026463 -0.012529 -466144.000000 0 0 1
12.975030 30.529036 8.614147 34.272102 1.168920 1.316726 0.010109 -0.001772 -124171.000000 0 0 1
13.603030 29.432746 9.247847 33.717231 1.137865 1.292959 0.000833 0.001156 69119.300000 0 0 1
13.557830 29.471616 10.781947 34.185396 1.139633 1.249922 -0.007182 0.009473 412363.000000 0 0 1
14.327130 30.554416 11.360547 35.607598 1.132332 1.246071 0.028347 -0.002611 555019.000000 0 0 1
13.718730 30.853906 12.611547 36.044670 1.152413 1.213346 0.014231 0.009467 164239.000000 0 0 1
14.527430 31.852466 13.476747 37.513312 1.142894 1.203330 0.034216 0.007556 469957.000000 0 0 1
15.666030 31.319956 14.128647 37.762188 1.106994 1.187318 0.036738 0.005678 270882.000000 0 0 1
16.397430 32.293566 14.827947 39.135894 1.100959 1.182207 0.044299 0.002222 172745.000000 0 0 1
17.550730 31.946796 15.792747 39.724511 1.068434 1.161944 0.030669 0.002256 1504100.000000 0 0 1
18.828030 31.472806 15.295247 39.736342 1.031678 1.175677 0.027666 0.009476 1254920.000000 0 0 1
18.838330 30.013796 15.283247 38.591298 1.010290 1.163609 0.016432 0.008351 -279773.000000 0 0 1
20.046830 29.408016 14.574847 38.459498 0.972472 1.182117 0.021213 0.003043 649734.000000 0 0 1
21.266130 29.528706 15.319947 39.482826 0.946651 1.172319 0.019264 0.008362 1238530.000000 0 0 1
22.469830 29.066376 14.684547 39.564927 0.912704 1.190548 0.014608 0.006851 298673.000000 0 0 1
23.709830 29.165276 15.541047 40.673008 0.888210 1.178732 0.020734 0.003888 -654792.000000 0 0 1
23.795230 28.086366 16.449447 40.319242 0.867921 1.150556 0.015664 0.003641 -505581.000000 0 0 1
24.623530 28.466816 17.489947 41.503929 0.857664 1.135803 0.013650 -0.004422 -1075160.000000 0 0 1
25.496330 27.362726 18.090747 41.545840 0.820692 1.120269 0.000290 -0.001653 -332083.000000 0 0 1
24.913230 26.171326 18.638647 40.657183 0.810021 1.094564 0.010822 -0.002501 -646930.000000 0 0 1
24.305130 26.278466 19.881047 40.945735 0.824390 1.063808 0.025262 -0.002654 -174465.000000 0 0 1
23.888530 24.924416 20.414647 40.107932 0.806617 1.036782 0.031992 -0.006331 -848909.000000 0 0 1
24.935030 24.051546 20.573447 40.292671 0.767365 1.034914 0.025394 -0.003837 -895560.000000 0 0 1
24.479930 22.750346 20.822147 39.375209 0.748794 1.013594 0.031111 -0.004782 432637.000000 0 0 1
25.682430 21.763346 20.811647 39.577205 0.702984 1.017083 0.012384 -0.001953 406153.000000 0 0 1
25.077930 20.508246 21.038247 38.627692 0.685489 0.994835 -0.001125 0.011094 -80978.400000 0 0 1
25.935230 19.407946 21.068247 38.641630 0.642427 0.994143 -0.004696 0.006234 -440991.000000 0 0 1
26.437830 19.088946 22.509647 39.623616 0.625360 0.966617 -0.003693 0.006241 276659.000000 0 0 1
25.469830 18.438546 23.364447 39.173839 0.626611 0.931750 -0.020064 0.017041 415633.000000 0 0 1
25.919830 18.191846 24.666847 40.140182 0.611967 0.909022 -0.009263 0.026564 119635.000000 0 0 1
24.920630 17.283346 25.476647 39.608224 0.606374 0.872105 -0.019417 0.022453 446361.000000 0 0 1
24.794230 15.965446 24.984147 38.650446 0.572088 0.867923 -0.025889 0.012572 158954.000000 0 0 1
23.732830 15.322746 25.663547 38.166103 0.573301 0.833327 -0.012024 0.014815 91061.000000 0 0 1
23.259830 14.022346 24.993647 36.909732 0.542517 0.826906 -0.019613 0.021077 -550431.000000 0 0 1
22.086530 13.485246 25.508547 36.336657 0.548151 0.792586 -0.008504 0.005745 -366725.000000 0 0 1
21.718230 12.348746 24.706847 35.136895 0.517003 0.790965 -0.007613 0.011547 549000.000000 0 0 1
20.457130 11.553246 25.216347 34.464995 0.514100 0.750056 -0.007132 0.008296 1058900.000000 0 0 1
19.250930 12.303546 25.031347 33.890174 0.568685 0.739802 0.006872 0.004119 392662.000000 0 0 1
18.108430 11.515846 25.301147 33.176468 0.566427 0.703437 0.013555 0.005836 177810.000000 0 0 1
16.754730 12.240446 25.345947 32.756168 0.630947 0.686015 0.015744 -0.004196 12820.700000 0 0 1
16.587230 12.894846 26.616247 33.909260 0.660805 0.668220 0.025450 0.008798 -94150.300000 0 0 1
15.410930 13.651446 26.742747 33.749567 0.724930 0.656083 0.032151 0.010066 -316427.000000 0 0 1
15.270930 14.197346 28.147347 35.029118 0.748982 0.637575 0.023386 0.021216 -219657.000000 0 0 1
14.946230 13.059846 29.000547 35.142298 0.718144 0.600184 0.025732 0.019845 -10745.300000 0 0 1
15.086330 13.205246 30.414447 36.428210 0.719007 0.582819 0.021391 0.016267 -893950.000000 0 0 1
16.492430 13.263946 30.983047 37.521750 0.677324 0.599291 0.031679 0.021843 -864032.000000 0 0 1
17.110630 14.426846 30.482047 37.816171 0.700504 0.633334 0.046281 0.009141 -787357.000000 0 0 1
18.495130 14.253546 30.510247 38.420159 0.656596 0.653237 0.031028 0.020711 -665901.000000 0 0 1
19.253230 15.462046 29.904247 38.781771 0.676621 0.690245 0.030324 0.016865 -516320.000000 0 0 1
18.993630 15.691146 28.508047 37.678626 0.690470 0.712683 0.042699 0.009933 294756.000000 0 0 1
19.436530 14.776946 27.518947 36.788984 0.650039 0.725721 0.037660 0.001866 -329304.000000 0 0 1
19.264230 15.437746 26.157247 35.967154 0.675575 0.756484 0.019447 -0.000373 -313091.000000 0 0 1
20.177530 16.474246 25.940047 36.761659 0.684700 0.787488 0.024101 0.011569 -57011.300000 0 0 1
19.965930 17.188046 24.723947 36.129502 0.710770 0.817133 0.022345 -0.002767 -658147.000000 0 0 1
21.229930 17.934646 24.321847 36.931203 0.701456 0.851877 0.014011 0.008073 -656484.000000 0 0 1
21.197630 18.517446 23.046347 36.378146 0.718015 0.884700 0.010683 0.000667 -638677.000000 0 0 1
22.272630 19.316846 22.660147 37.184579 0.714447 0.915497 0.009608 0.005229 -531260.000000 0 0 1
22.409830 20.727446 23.344747 38.429217 0.746417 0.917920 0.025497 -0.004148 64369.600000 0 0 1
21.549930 21.727046 22.781047 38.150231 0.789491 0.930865 0.028423 -0.000912 334270.000000 0 0 1
21.514130 22.844146 23.630547 39.282510 0.815373 0.925351 0.029299 -0.003344 -153988.000000 0 0 1
20.578830 23.944346 23.115247 39.129716 0.860845 0.938828 0.017493 -0.009265 -130338.000000 0 0 1
21.007230 24.669986 21.984047 39.156229 0.865415 0.974666 0.027323 -0.005819 449169.000000 0 0 1
19.932830 25.486346 21.459847 38.825206 0.907067 0.985160 0.027219 -0.008042 433187.000000 0 0 1
20.368330 26.604666 20.445647 39.251772 0.917391 1.022909 0.017751 -0.005875 -339063.000000 0 0 1
20.623330 26.057846 19.156847 38.357762 0.901294 1.047861 0.014380 0.002409 -70878.500000 0 0 1
20.868530 27.056206 18.241047 38.733315 0.913800 1.080441 0.017686 0.000266 -393885.000000 0 0 1
21.118530 26.412916 16.812247 37.766204 0.896328 1.109436 0.022146 0.002785 -74805.300000 0 0 1
19.939830 25.801216 16.332447 36.469829 0.912846 1.106454 0.022428 0.003619 -116857.000000 0 0 1
20.167430 25.219296 15.067047 35.633609 0.896249 1.134228 0.023780 0.008642 1114540.000000 0 0 1
18.772130 24.700976 14.511147 34.250613 0.920942 1.133297 0.021373 0.013055 1317510.000000 0 0 1
17.689230 25.492796 14.129247 34.094386 0.964182 1.143496 0.015805 0.017446 -391656.000000 0 0 1
17.020530 26.081746 15.230347 34.668710 0.992607 1.115965 0.014817 0.012973 -1434480.000000 0 0 1
15.652030 26.627546 14.782547 34.242313 1.039386 1.124415 0.004686 0.016040 220839.000000 0 0 1
14.664630 25.646216 14.360847 32.848344 1.051367 1.118329 0.008397 0.021150 562954.000000 0 0 1
14.231430 24.735246 15.377647 32.416632 1.048699 1.076542 0.019716 0.014226 -751911.000000 0 0 1
13.248530 25.292016 16.414747 32.934079 1.088273 1.049030 0.018618 0.003874 -347027.000000 0 0 1
13.856130 26.240616 17.300247 34.349103 1.084968 1.042967 0.009748 0.004523 -428026.000000 0 0 1
12.898630 26.820466 18.091147 34.828174 1.122525 1.024601 0.011373 -0.002216 -737481.000000 0 0 1
13.362330 28.055156 18.816947 36.327967 1.126298 1.026315 0.011086 -0.008144 -523281.000000 0 0 1
13.439330 29.198516 18.008147 36.843756 1.139431 1.060116 0.011783 -0.014952 241699.000000 0 0 1
14.115530 30.249896 18.708247 38.266212 1.134199 1.059971 0.020776 -0.012961 13953.300000 0 0 1
14.151130 31.563066 17.802647 38.902646 1.149320 1.095479 0.026457 -0.017023 -1257440.000000 0 0 1
12.910830 32.117416 17.830147 38.937541 1.188577 1.095146 0.022814 -0.012393 -1326490.000000 0 0 1
12.824130 33.251086 17.051947 39.507746 1.202699 1.124519 0.033851 -0.014600 527950.000000 0 0 1
11.371730 33.831607 17.118347 39.584488 1.246533 1.123587 0.029122 -0.015480 405071.000000 0 0 1
11.117330 -34.228677 16.485447 39.584938 -1.256749 1.141251 0.026614 -0.008325 -249714.000000 0 0 1
11.778030 -33.036502 16.908247 38.936118 -1.228329 1.121584 0.029708 -0.017777 -116459.000000 0 0 1
11.648730 -32.497042 18.333447 39.087926 -1.226609 1.082603 0.040708 -0.015173 -184410.000000 0 0 1
12.333530 -33.352722 19.226347 40.424899 -1.216600 1.075143 0.051602 -0.021491 177786.000000 0 0 1
12.067230 -33.072192 20.591047 40.784546 -1.220931 1.041561 0.048103 -0.020880 -503605.000000 0 0 1
13.029730 -33.852572 21.448347 42.140267 -1.203378 1.036803 0.062899 -0.022018 790940.000000 0 0 1
14.373730 -33.314212 21.446947 42.147508 -1.163467 1.036943 0.062969 -0.027061 371021.000000 0 0 1
15.146630 -33.887162 22.449247 43.378899 -1.150463 1.026852 0.066003 -0.021753 192712.000000 0 0 1
16.622230 -33.423412 22.305047 43.484919 -1.109293 1.032193 0.085998 -0.022974 344287.000000 0 0 1
16.785530 -32.006342 22.461347 42.551993 -1.087785 1.014721 0.091359 -0.015791 58533.000000 0 0 1
18.060230 -31.558792 22.021947 42.509945 -1.051014 1.026236 0.089829 -0.012285 240907.000000 0 0 1
-4.791370 12.834138 18.810001 23.269904 -1.213490 0.629469 0.029853 0.003464 -428619.000000 0 1 0
-4.447470 14.082438 18.222101 23.455063 -1.264893 0.681078 0.031066 0.001653 -497801.000000 0 1 0
-5.588570 14.827238 18.021801 23.997175 -1.210350 0.721226 0.019588 0.005168 -813563.000000 0 1 0
-5.337270 16.282538 17.607601 24.568986 -1.254042 0.771795 0.023573 0.004465 -198006.000000 0 1 0
-4.982270 17.117638 18.669701 25.814613 -1.287561 0.762340 0.031133 0.012390 211804.000000 0 0 1
-4.828670 18.457738 18.314001 26.446300 -1.314924 0.805851 0.029725 0.019808 -473345.000000 0 0 1
-4.061570 19.242138 19.358801 27.595641 -1.362773 0.793273 0.020572 0.017032 -276252.000000 0 0 1
-4.884670 19.613738 20.485701 28.778858 -1.326718 0.778694 0.007832 0.017147 118698.000000 0 0 1
-4.299570 20.315238 21.571101 29.941736 -1.362231 0.766366 0.009549 0.022810 118174.000000 0 0 1
-5.330470 20.629538 22.723101 31.150137 -1.317937 0.753249 -0.006034 0.022892 450168.000000 0 0 1
-5.648670 19.388538 23.334701 30.859863 -1.287303 0.713386 -0.012259 0.014980 170883.000000 0 0 1
-6.470170 19.557638 24.509351 32.016755 -1.251304 0.698953 -0.021841 0.015574 696797.000000 0 0 1
-5.751770 20.215538 25.773871 33.257228 -1.293599 0.684104 -0.030908 0.012132 -78577.000000 0 0 1
-5.227370 21.489838 25.518081 33.768491 -1.332182 0.714109 -0.030302 0.015699 -214339.000000 0 0 1
-4.415670 21.957138 26.547361 34.732930 -1.372339 0.700797 -0.019567 0.020384 369594.000000 0 0 1
-2.900970 21.610838 26.461151 34.287555 -1.437357 0.689220 -0.009879 0.017856 123176.000000 0 0 1
-2.528570 20.328338 26.987021 33.881179 -1.447045 0.649280 -0.004851 0.020055 212980.000000 0 0 1
-1.199670 20.082638 26.556321 33.316508 -1.511131 0.648332 -0.003670 0.019795 488582.000000 0 0 1
-0.467070 18.798538 27.066091 32.957191 -1.545955 0.607198 -0.013619 0.024804 -54298.200000 0 0 1
-0.987570 17.655138 26.438611 31.806907 -1.514918 0.589494 0.001541 0.021281 -253135.000000 0 0 1
-0.404370 16.379038 26.778411 31.392988 -1.546113 0.549078 0.001263 0.016908 -435021.000000 0 0 1
1.048630 16.034738 26.409351 30.913852 1.505492 0.546616 0.000622 0.016171 -314636.000000 0 0 1
1.201030 15.858338 25.005371 29.634404 1.495206 0.566480 0.005548 0.022374 -152532.000000 0 0 1
0.946930 14.559138 24.483631 28.501111 1.505848 0.537402 0.020487 0.014868 -150836.000000 0 0 1
1.175030 14.277038 22.951201 27.054983 1.488679 0.557998 0.033117 0.005689 1185690.000000 0 0 1
2.577630 14.240138 22.609201 26.844025 1.391724 0.569365 0.020443 0.003556 781862.000000 0 0 1
2.775330 13.611538 21.332601 25.456949 1.369658 0.577212 0.022493 -0.007087 43440.200000 0 0 1
4.255230 13.544838 20.904901 25.270229 1.266401 0.596594 0.017562 -0.008415 235802.000000 0 0 1
4.692130 14.836538 20.409001 25.664494 1.264494 0.651421 0.009051 -0.004713 -40657.600000 0 0 1
6.085330 14.835338 20.148701 25.750508 1.181535 0.672192 0.013820 -0.005745 -8288.380000 0 0 1
6.446730 15.890538 19.157201 25.711240 1.185389 0.730126 0.006534 -0.009449 -387435.000000 0 0 1
5.883330 15.628638 17.937001 24.507221 1.210759 0.749680 0.003300 -0.021493 -153441.000000 0 1 0
6.384530 16.533738 16.999301 24.558154 1.202285 0.806255 -0.003514 -0.006565 36695.000000 0 1 0
6.368330 15.875638 15.576101 23.134529 1.189309 0.832155 -0.013289 -0.003928 -115857.000000 0 1 0
7.393630 14.988638 15.213601 22.600413 1.112537 0.832328 -0.011723 -0.006536 -163645.000000 0 1 0
7.566530 13.733138 15.925501 22.348893 1.067210 0.777620 -0.002441 -0.010761 -758597.000000 0 1 0
8.590030 12.829338 15.263601 21.710782 0.980792 0.791130 -0.003996 -0.011928 -1612400.000000 0 1 0
9.791830 13.466738 15.239501 22.571561 0.942105 0.829610 -0.001700 -0.015888 -1788390.000000 0 1 0
10.675930 12.828638 14.396801 22.041264 0.876730 0.859026 -0.011206 -0.006486 -500585.000000 0 1 0
12.094230 13.421638 14.380101 23.091082 0.837374 0.898537 0.006360 -0.000903 -821750.000000 0 1 0
12.808030 13.160938 15.571201 24.077338 0.798987 0.867525 0.020964 -0.006943 -285205.000000 0 1 0
14.072630 13.767838 15.578901 25.105665 0.774451 0.901374 0.021694 -0.002486 -16721.900000 0 0 1
15.191630 13.023638 14.804701 24.891363 0.708711 0.933814 0.010271 -0.007091 -703638.000000 0 1 0
16.459730 13.635738 14.959901 26.089360 0.691838 0.960134 0.017962 -0.008743 165409.000000 0 0 1
17.398730 12.895238 14.215701 25.905388 0.637819 0.989923 0.022296 -0.014884 345491.000000 0 0 1
18.807630 13.561338 14.084401 27.129452 0.624718 1.024934 0.019117 -0.010971 582965.000000 0 0 1
19.552230 13.528738 15.279301 28.262581 0.605288 0.999623 -0.002894 0.001834 527069.000000 0 0 1
20.905530 13.944938 15.045501 29.289411 0.588265 1.031323 0.002286 -0.006545 851758.000000 0 0 1
21.861830 13.732638 16.260001 30.510860 0.560866 1.008743 -0.003471 0.014897 34143.600000 0 0 1
22.229230 12.374638 16.405901 30.272494 0.507960 0.998052 -0.002901 0.010847 34135.800000 0 0 1
23.152930 12.255738 17.442901 31.472465 0.486842 0.983362 -0.022704 0.019708 -431428.000000 0 0 1
23.497730 10.764038 17.707601 31.329969 0.429560 0.970124 -0.011307 0.027289 -909465.000000 0 0 1
22.362330 10.108038 18.134401 30.513976 0.424526 0.934404 -0.028907 0.035236 -170738.000000 0 0 1
22.590030 8.710538 18.241901 30.314186 0.368024 0.925092 -0.021840 0.028645 256151.000000 0 0 1
21.289230 7.834038 18.366401 29.187808 0.352603 0.890210 0.010339 0.027162 135399.000000 0 0 1
21.376430 6.401738 18.528601 29.004190 0.290976 0.877826 0.011823 0.023697 693026.000000 0 0 1
20.061730 5.856438 18.649101 28.009995 0.284028 0.842229 0.006814 0.026786 300292.000000 0 0 1
20.008530 4.370838 18.232001 27.419908 0.215070 0.843412 0.041350 0.022198 -733017.000000 0 0 1
19.879230 4.259838 16.845601 26.402732 0.211093 0.878866 0.052148 0.002052 334177.000000 0 0 1
19.898930 2.902238 16.452501 25.982209 0.144828 0.885087 0.032261 -0.000965 869133.000000 0 0 1
18.586130 2.027838 16.750201 25.102302 0.108675 0.840249 0.051024 -0.001586 1020150.000000 0 0 1
18.609830 1.572138 18.063901 25.982723 0.084279 0.802060 0.036358 0.001260 134616.000000 0 0 1
17.305130 1.191338 18.468601 25.337246 0.068735 0.754066 0.037201 0.000100 43442.300000 0 0 1
17.292830 0.202738 19.633101 26.163748 0.011723 0.722139 0.029614 0.000339 -318366.000000 0 0 1
17.698430 -1.092462 19.297101 26.206984 -0.061648 0.743160 0.033615 -0.001146 -238904.000000 0 0 1
16.794430 -2.017062 19.816301 26.053929 -0.119530 0.706578 0.028326 0.011497 -360325.000000 0 0 1
16.963530 -3.445462 19.283501 25.913046 -0.200384 0.731517 0.009902 0.009181 -310287.000000 0 0 1
16.795430 -3.539462 17.852101 24.765132 -0.207700 0.765759 0.006006 0.002375 226802.000000 0 1 0
16.759430 -4.877062 17.377201 24.629887 -0.283183 0.787621 0.019460 0.007437 -176595.000000 0 1 0
16.309130 -4.911162 15.906101 23.304748 -0.292493 0.819583 0.002175 -0.000676 591156.000000 0 1 0
14.921230 -4.739162 15.565101 22.076574 -0.307535 0.788302 -0.015479 0.003240 808823.000000 0 1 0
14.666830 -4.580562 14.130801 20.875272 -0.302710 0.827232 -0.017415 -0.001844 212779.000000 0 1 0
15.327730 -3.484062 13.271901 20.572344 -0.223507 0.869599 -0.006458 -0.001448 -292689.000000 0 1 0
14.714530 -2.286362 13.561901 20.141251 -0.154149 0.832080 -0.009864 -0.001208 349750.000000 0 1 0
15.442130 -1.111362 13.047201 20.246579 -0.071846 0.870538 0.000462 -0.000636 369385.000000 0 1 0
14.612530 0.193738 13.164201 19.668751 0.013258 0.837537 0.004343 0.001981 -488638.000000 0 1 0
15.239330 1.409338 12.830601 19.971173 0.092218 0.873097 0.016570 -0.000309 279034.000000 0 1 0
16.145130 2.037138 13.738601 21.297049 0.125513 0.869650 0.029632 -0.003653 90509.300000 0 1 0
16.357930 3.467038 13.245801 21.331982 0.208858 0.900860 0.032482 -0.001748 -1162630.000000 0 1 0
15.254430 4.265238 13.369301 20.727472 0.272644 0.869768 0.032198 -0.003447 -388866.000000 0 1 0
15.295930 5.334638 12.488101 20.454254 0.335571 0.914057 0.033561 -0.015303 -180122.000000 0 1 0
14.306730 6.453038 12.838801 20.277057 0.423726 0.885156 0.038798 -0.010324 -176326.000000 0 1 0
14.460030 7.630138 12.086001 20.331820 0.485539 0.934230 0.020207 -0.017281 236870.000000 0 1 0
13.477030 8.590038 12.434401 20.249282 0.567455 0.909594 0.007230 -0.008381 -384379.000000 0 1 0
13.743130 9.462338 13.677301 21.574940 0.602976 0.884154 0.019057 -0.008671 -183273.000000 0 1 0
13.501930 8.827638 14.930401 21.980586 0.579046 0.824051 0.031655 -0.010394 226748.000000 0 1 0
13.877930 9.575938 16.048901 23.277946 0.603991 0.810072 0.034054 -0.007913 -414596.000000 0 1 0
13.473330 9.058738 17.408301 23.804207 0.591924 0.750553 0.036642 -0.009174 -136433.000000 0 1 0
12.080530 9.296138 17.550201 23.245794 0.655874 0.715167 0.034261 -0.018663 255175.000000 0 1 0
11.447830 8.562638 18.614801 23.470884 0.642201 0.654912 0.032669 -0.016858 -113869.000000 0 1 0
11.887930 8.898138 20.077901 24.972422 0.642542 0.636800 0.030191 -0.006945 -357400.000000 0 1 0
13.115330 8.352038 20.505301 25.733942 0.567050 0.648784 0.036290 0.001907 85593.500000 0 0 1
13.588130 8.948738 21.715601 27.134563 0.582376 0.643013 0.037632 0.007806 1129140.000000 0 0 1
15.158730 8.749038 21.794401 27.952257 0.523457 0.676608 0.040018 0.008349 983127.000000 0 0 1
15.849030 9.597238 20.911701 27.939183 0.544484 0.725041 0.039340 0.014676 17286.700000 0 0 1
17.016430 8.905838 20.485701 28.080897 0.482166 0.753170 0.041681 0.004139 1620.210000 0 0 1
18.027830 9.695838 19.651101 28.375653 0.493449 0.805801 0.038614 0.007559 -211664.000000 0 0 1
18.661030 10.728738 20.379801 29.642472 0.521780 0.812728 0.016152 0.011028 172986.000000 0 0 1
19.619530 11.409638 19.579501 29.974367 0.526739 0.858983 0.006150 0.015533 -274870.000000 0 0 1
20.442330 12.371838 20.415101 31.428133 0.544239 0.863764 -0.011649 0.020299 -627843.000000 0 0 1
19.728730 13.420438 21.085201 31.842058 0.597347 0.847071 0.000741 0.007265 217787.000000 0 0 1
20.458430 14.194738 22.031601 33.247998 0.606575 0.846452 -0.020232 0.020141 -334816.000000 0 0 1
21.620730 15.102738 21.598001 34.088448 0.609739 0.884615 -0.026370 0.019435 -210881.000000 0 0 1
22.824230 14.388938 21.479701 34.487165 0.562490 0.898439 -0.031429 0.024680 -747388.000000 0 0 1
23.911230 15.267038 21.411401 35.542615 0.568240 0.924273 -0.040374 0.028710 442010.000000 0 0 1
25.270430 14.485238 21.252401 36.056640 0.520487 0.940459 -0.035101 0.024938 455816.000000 0 0 1
25.434030 13.838838 20.005401 35.194025 0.498308 0.966198 -0.040842 0.021628 250975.000000 0 0 1
26.596530 13.015638 20.027301 35.747378 0.455110 0.976114 -0.028138 0.015088 262041.000000 0 0 1
26.829830 12.275938 18.624001 34.891143 0.429113 1.007739 -0.021151 0.017189 -336482.000000 0 0 1
27.268030 13.157638 17.549801 34.995206 0.449574 1.045474 -0.018460 0.011812 502932.000000 0 0 1
27.692030 12.530138 16.329101 34.503513 0.424916 1.077810 -0.011891 0.005121 535438.000000 0 0 1
26.531930 12.009238 15.393801 32.941375 0.425042 1.084552 -0.008114 -0.005104 314091.000000 0 0 1
25.967630 12.928738 14.533701 32.445316 0.461949 1.106331 0.002453 -0.010532 -180920.000000 0 0 1
24.796730 12.361138 13.988501 31.037940 0.462446 1.103258 0.004417 -0.007016 112156.000000 0 0 1
24.263730 13.187438 12.737501 30.411857 0.497842 1.138636 -0.002129 -0.014088 40209.800000 0 0 1
23.728030 14.445438 13.127801 30.725059 0.546859 1.129329 -0.008178 -0.001609 234940.000000 0 0 1
23.339330 15.232338 12.006001 30.346211 0.578234 1.164038 -0.017198 -0.006644 -269977.000000 0 0 1
22.700230 16.525438 12.563201 30.760763 0.629262 1.150078 -0.010939 0.003885 -472942.000000 0 0 1
21.394230 16.266938 13.039001 29.872092 0.650087 1.119098 0.003063 0.000087 210274.000000 0 0 1
20.648630 17.463438 13.308601 30.140611 0.702018 1.113470 0.000280 0.002656 -443581.000000 0 0 1
20.068330 18.224038 12.129601 29.698159 0.737272 1.150064 0.006283 0.006758 -677666.000000 0 0 1
18.899430 17.710938 11.542101 28.356408 0.752946 1.151589 0.016896 0.001618 876482.000000 0 0 1
17.671730 17.933038 12.280001 28.012182 0.792737 1.117000 0.010563 0.004421 -740760.000000 0 0 1
16.457830 17.333638 11.681601 26.604041 0.811310 1.116209 0.016251 0.001730 -1341550.000000 0 0 1
16.433230 15.909338 11.641601 25.664858 0.769201 1.099995 0.016874 -0.004432 1022170.000000 0 0 1
15.114630 15.431738 11.304401 24.379911 0.795779 1.088656 0.010227 -0.007486 853640.000000 0 1 0
15.220830 14.095738 10.461701 23.233826 0.747040 1.103719 0.013264 -0.013183 20724.900000 0 1 0
15.527530 12.894638 11.217501 23.091301 0.693027 1.063531 0.015355 -0.006537 369161.000000 0 1 0
15.834930 11.842238 10.308401 22.299030 0.642127 1.090231 0.013962 -0.006056 -196804.000000 0 1 0
16.291530 10.557938 11.025001 22.325650 0.575012 1.054311 0.024598 -0.016402 -1106950.000000 0 1 0
16.722930 9.543238 10.144701 21.763381 0.518572 1.085878 0.008987 -0.018401 426084.000000 0 1 0
17.331630 8.428038 10.787201 22.085763 0.452612 1.060514 0.009317 -0.021193 71171.000000 0 1 0
18.694230 8.646038 11.470601 23.575472 0.433198 1.062662 0.018780 -0.021892 -591628.000000 0 1 0
18.543530 9.377538 12.642101 24.323311 0.468200 1.024235 0.032842 -0.017704 622958.000000 0 1 0
19.831230 9.561238 13.255701 25.698416 0.449250 1.028834 0.035424 -0.024058 402546.000000 0 0 1
19.675130 9.673338 14.785401 26.444135 0.456948 0.977474 0.031130 -0.006343 22571.800000 0 0 1
19.277630 8.532538 15.501001 26.167007 0.416694 0.936778 0.048634 -0.002809 1741300.000000 0 0 1
17.857630 8.211738 15.394501 24.966342 0.431011 0.906367 0.055529 -0.009169 1234490.000000 0 1 0
17.483830 6.815338 16.035101 24.683144 0.371689 0.863689 0.054357 -0.005656 1035810.000000 0 1 0
16.067430 6.661338 16.277101 23.821833 0.393017 0.818544 0.042486 -0.009364 1234060.000000 0 1 0
15.737030 5.342938 16.785901 23.621337 0.327303 0.780411 0.049882 -0.005937 465673.000000 0 1 0
14.227630 5.205438 17.175301 22.902249 0.350741 0.722826 0.038709 -0.017737 326850.000000 0 1 0
13.703530 3.947538 17.477401 22.557246 0.280474 0.684394 0.032448 -0.012689 173422.000000 0 1 0
13.368230 3.186038 16.358101 21.364641 0.233964 0.698726 0.036757 -0.011213 -439795.000000 0 1 0
13.076130 1.717838 16.634701 21.228505 0.130624 0.670354 0.016459 -0.006606 666520.000000 0 1 0
14.281230 0.969138 16.973901 22.203740 0.067757 0.700591 0.009663 -0.000079 1044900.000000 0 1 0
14.240630 -0.439462 16.944801 22.138540 -0.030850 0.699136 0.001381 0.013616 -315955.000000 0 1 0
13.256830 -1.145562 17.910201 22.312130 -0.086199 0.638968 -0.000049 0.012925 26991.100000 0 1 0
11.921230 -1.088562 17.467601 21.175877 -0.091060 0.600803 -0.001931 0.001627 -672458.000000 0 1 0
11.071730 -1.676362 18.397501 21.537443 -0.150268 0.546767 -0.012106 -0.000434 -205495.000000 0 1 0
-25.157560 14.190438 29.378181 41.198894 -0.513576 0.776912 0.040881 0.002408 207637.000000 0 0 1
-23.961770 14.230438 30.146801 41.054858 -0.535908 0.746154 0.044256 -0.001602 401346.000000 0 0 1
-23.335070 12.981538 30.263471 40.359924 -0.507675 0.722977 0.037661 0.001095 513518.000000 0 0 1
-22.140670 12.866538 31.273051 40.419807 -0.526427 0.686126 0.057697 -0.012279 547166.000000 0 0 1
-22.619070 12.870438 32.638681 41.743909 -0.517320 0.673122 0.050426 -0.012765 107726.000000 0 0 1
-21.564270 12.964038 33.561604 41.945980 -0.541288 0.643310 0.026015 -0.009069 -329534.000000 0 0 1
-22.058470 13.217738 -34.240150 42.821403 -0.539841 2.497431 0.014720 0.001341 89168.300000 0 0 1
-22.941870 12.222338 -33.762363 42.610000 -0.489505 2.485460 0.011156 -0.002631 145346.000000 0 0 1
-23.661770 12.711438 -32.640943 42.271635 -0.492974 2.453048 -0.005011 0.000000 56946.700000 0 0 1
-24.596570 11.633838 -32.041943 42.035979 -0.441804 2.437579 -0.017859 -0.003359 -67589.400000 0 0 1
-23.902470 10.618638 -31.323773 40.807625 -0.418061 2.445878 -0.028317 -0.005667 428686.000000 0 0 1
-23.294370 9.619138 -32.153723 40.853609 -0.391610 2.476804 -0.024341 -0.008237 -40614.600000 0 0 1
-22.342670 8.683138 -31.387233 39.493672 -0.370671 2.489377 -0.032107 0.007005 -335964.000000 0 0 1
-22.971870 7.730138 -30.543493 38.991881 -0.324602 2.470801 -0.028878 0.002510 459266.000000 0 0 1
-22.038670 7.047038 -29.687033 37.638858 -0.309483 2.479543 -0.030019 0.006192 102221.000000 0 0 1
-22.683170 6.140638 -28.579943 37.000632 -0.264377 2.453435 -0.029838 0.009084 -252868.000000 0 0 1
-23.272770 4.991138 -29.040413 37.548353 -0.211262 2.455005 -0.021510 0.002660 -90113.100000 0 0 1
-23.446770 4.031138 -28.045463 36.777018 -0.170263 2.438090 0.008078 0.011771 -729010.000000 0 0 1
-24.038370 2.656838 -28.570053 37.431937 -0.110078 2.439130 0.009935 0.014100 1422080.000000 0 0 1
-25.463560 2.666038 -28.841023 38.565596 -0.104320 2.415604 0.025025 0.000500 1547550.000000 0 0 1
-25.842710 3.584938 -29.913403 39.692683 -0.137842 2.424356 0.011870 0.003465 -657263.000000 0 0 1
-27.306840 3.467438 -30.442923 41.042151 -0.126305 2.406469 0.032601 -0.004368 562361.000000 0 0 1
-28.320640 3.886638 -29.512043 41.086801 -0.136385 2.372131 0.029798 -0.005306 1501510.000000 0 0 1
-29.613280 4.073138 -30.144233 42.452462 -0.136687 2.360394 0.043394 -0.016328 1112160.000000 0 0 1
-29.871960 5.464938 -30.803863 43.255953 -0.180944 2.363324 0.040001 -0.023303 -655660.000000 0 0 1
-28.946430 5.821238 -31.807123 43.399028 -0.198457 2.393370 0.022956 -0.011643 39932.200000 0 0 1
-29.187010 7.094638 -32.450903 44.218509 -0.238451 2.394807 0.024060 -0.012851 -793458.000000 0 0 1
-28.810820 8.379138 -31.661453 43.620189 -0.283026 2.383057 0.006360 -0.017632 56832.800000 0 0 1
-27.424460 8.584938 -31.453373 42.604188 -0.303376 2.401297 -0.019782 -0.025321 -10028.200000 0 0 1
-26.782320 7.787938 -30.535403 41.356444 -0.282983 2.401412 -0.013603 -0.024242 -1277990.000000 0 0 1
-26.672780 8.400438 -29.109113 40.365146 -0.305110 2.376250 -0.011779 -0.017409 461743.000000 0 0 1
-27.911150 8.592738 -28.395853 40.733179 -0.298652 2.342167 -0.010152 -0.015195 839296.000000 0 0 1
-28.540240 7.459638 -27.857953 40.574093 -0.255653 2.327591 -0.007980 -0.014836 -519228.000000 0 0 1
-29.928580 7.829538 -27.300013 41.259087 -0.255873 2.293844 -0.001725 -0.016312 -268589.000000 0 0 1
-29.995790 8.650738 -26.151833 40.724698 -0.280779 2.268111 -0.026300 -0.010765 16352.000000 0 0 1
-29.994640 7.825138 -24.961553 39.799376 -0.255196 2.248729 -0.022328 -0.013872 32145.700000 0 0 1
-29.282650 8.579138 -23.827453 38.714631 -0.285001 2.233771 -0.020618 -0.002198 -59449.800000 0 0 1
-30.149180 9.552038 -23.250353 39.252941 -0.306821 2.204733 -0.021359 -0.003480 588823.000000 0 0 1
-29.386130 10.456738 -22.482653 38.449417 -0.341867 2.195348 -0.028542 -0.002340 -199732.000000 0 0 1
-30.229700 11.555638 -21.792853 39.016611 -0.365121 2.163437 -0.032760 0.008919 -19344.200000 0 0 1
-30.944480 10.883138 -20.755653 38.817530 -0.338187 2.134947 -0.035136 -0.003489 461926.000000 0 0 1
-31.755780 11.669338 -19.883453 39.242256 -0.352154 2.102131 -0.038171 0.004668 131456.000000 0 0 1
-30.985900 12.670338 -18.966353 38.475784 -0.388161 2.086265 -0.042592 0.008467 51850.600000 0 0 1
-30.284420 12.250138 -17.788353 37.197278 -0.384382 2.069419 -0.015041 0.003911 560548.000000 0 0 1
-31.144860 11.819938 -16.744553 37.283955 -0.362723 2.036564 -0.017239 0.010474 -155656.000000 0 0 1
-31.517490 12.921438 -15.750653 37.528639 -0.389077 2.003908 -0.032625 0.012384 -157918.000000 0 0 1
-32.237320 13.992938 -16.302653 38.740464 -0.409520 2.005142 -0.036916 0.010347 333566.000000 0 0 1
-32.940100 14.787538 -15.360853 39.238721 -0.421957 1.973027 -0.045132 0.012526 316396.000000 0 0 1
-33.553960 16.121638 -15.971953 40.507761 -0.447901 1.976095 -0.036870 0.012716 566338.000000 0 0 1
-34.618657 15.921438 -16.906153 41.686468 -0.431064 1.988382 -0.032165 0.007936 660904.000000 0 0 1
-34.994904 17.119538 -17.498853 42.707514 -0.454971 1.992962 -0.029487 0.000313 -487440.000000 0 0 1
34.723295 17.060738 -19.048353 43.123262 0.456691 2.028310 -0.031025 -0.001461 624904.000000 0 0 1
33.573986 16.376738 -19.526153 42.150691 0.453824 2.052451 -0.002072 0.002037 1018990.000000 0 0 1
32.270326 16.834138 -19.210653 41.155939 0.480825 2.056439 0.035365 -0.015450 -57333.900000 0 0 1
31.116776 15.837438 -19.318353 39.903345 0.470796 2.076163 0.046620 -0.018746 -156976.000000 0 0 1
30.680876 15.538438 -20.634753 40.106761 0.468797 2.111216 0.036676 -0.023902 450661.000000 0 0 1
29.641006 14.563638 -20.741753 38.998835 0.456691 2.131587 0.021781 -0.022277 165455.000000 0 0 1
30.009066 13.057238 -20.683853 38.715078 0.410402 2.134426 0.002288 0.012165 -101643.000000 0 0 1
30.399946 12.622138 -19.384753 38.200049 0.393543 2.103023 0.009866 0.011744 302634.000000 0 0 1
30.981646 11.307538 -19.378553 38.252466 0.349953 2.102029 -0.018587 0.030411 -137260.000000 0 0 1
31.255786 10.892238 -17.935353 37.646274 0.335326 2.067372 -0.028776 0.040924 160385.000000 0 0 1
30.094726 10.428038 -17.234553 36.214173 0.333560 2.066791 -0.004719 0.035998 505673.000000 0 0 1
30.521506 9.839838 -16.037453 35.855051 0.311870 2.034525 -0.034499 0.036564 -70494.200000 0 0 1
30.339656 10.731338 -14.826153 35.432629 0.339973 2.002515 -0.018571 0.028865 54981.900000 0 0 1
28.979516 11.083038 -14.635653 34.305225 0.365281 2.011560 0.002614 0.030244 199944.000000 0 0 1
28.814056 12.193938 -13.808953 34.199841 0.400340 1.986433 -0.010058 0.027386 -378759.000000 0 0 1
27.319066 12.469938 -13.629153 32.978547 0.428209 1.996842 0.031814 0.017985 -460852.000000 0 0 1
26.609336 11.450838 -12.888253 31.706238 0.406378 1.989405 0.001612 0.022539 1472500.000000 0 0 1
25.192376 11.394038 -13.196453 30.637009 0.424749 2.016104 0.016191 0.020855 995471.000000 0 0 1
24.868366 10.744838 -14.583553 30.766332 0.407842 2.064636 0.018909 0.015612 -966084.000000 0 0 1
25.130066 9.362238 -14.800153 30.630316 0.356622 2.075087 0.006053 0.019379 235040.000000 0 0 1
26.490236 9.010938 -14.845453 31.675181 0.327883 2.058590 0.002581 0.014618 -450424.000000 0 0 1
26.805356 7.775938 -13.930653 31.193836 0.282339 2.033740 0.000515 0.017485 232280.000000 0 0 1
26.041076 6.579738 -14.315053 30.436021 0.247488 2.060464 0.006051 0.005012 1102010.000000 0 0 1
25.860946 5.759238 -13.193453 29.597712 0.219124 2.032819 0.007595 -0.000514 -100872.000000 0 0 1
25.327156 4.349438 -13.604353 29.076810 0.170071 2.057683 0.008333 -0.003460 -153610.000000 0 0 1
24.696466 3.801538 -12.481353 27.931189 0.152732 2.034050 -0.005950 -0.006600 256009.000000 0 0 1
24.168866 2.490238 -12.623253 27.380320 0.102673 2.049956 -0.005263 -0.007413 113611.000000 0 0 1
23.168866 2.167338 -11.458253 25.938105 0.093274 2.028349 -0.009872 -0.005286 -138011.000000 0 0 1
23.831166 2.102238 -10.203253 26.008657 0.087986 1.973929 -0.011241 0.000073 298311.000000 0 0 1
23.023066 2.095338 -9.026253 24.817842 0.090760 1.943033 -0.014726 0.006437 -1017690.000000 0 1 0
23.698166 1.719438 -7.673853 24.968932 0.072429 1.883189 -0.014338 0.013650 -265909.000000 0 1 0
23.947266 0.323338 -7.423453 25.073567 0.013501 1.871369 -0.022704 0.011314 790122.000000 0 0 1
24.889366 -0.303262 -8.301953 26.239187 -0.012184 1.892723 -0.011298 0.003088 -394008.000000 0 0 1
24.839066 -1.848162 -8.018053 26.166469 -0.074269 1.882231 -0.007985 -0.000263 -597349.000000 0 0 1
25.658686 -2.182162 -6.951353 26.673045 -0.084842 1.834454 -0.002572 -0.000603 19505.800000 0 0 1
25.692256 -3.588662 -6.697753 26.792358 -0.138781 1.823464 0.007269 0.003085 -332936.000000 0 0 1
26.828376 -4.098662 -5.775153 27.747310 -0.151601 1.780463 0.004994 0.006315 -185169.000000 0 0 1
28.065006 -4.144862 -6.460553 29.095759 -0.146628 1.794707 0.004874 0.004604 -210003.000000 0 0 1
29.031526 -4.769462 -5.638153 29.956069 -0.162831 1.760140 0.008772 0.009989 -396974.000000 0 0 1
30.351486 -4.667662 -6.428753 31.374013 -0.152591 1.777165 0.005991 0.000595 -540271.000000 0 0 1
30.328936 -5.623462 -7.505953 31.745977 -0.183334 1.809495 -0.008482 0.001202 256071.000000 0 0 1
31.278666 -5.371362 -8.532753 32.863572 -0.170067 1.833447 -0.005527 -0.009764 -557902.000000 0 0 1
31.090096 -6.379262 -9.685853 33.182900 -0.202377 1.867002 -0.011990 -0.007065 427930.000000 0 0 1
29.861136 -6.366562 -10.437553 32.267059 -0.210060 1.900195 0.004767 -0.005057 825010.000000 0 0 1
28.805116 -7.011962 -9.718653 31.198631 -0.238783 1.887577 0.004286 -0.004698 12097.300000 0 0 1
27.540826 -6.105462 -9.652253 29.815093 -0.218160 1.900473 0.002067 -0.001127 -595389.000000 0 0 1
26.749666 -6.040862 -10.824653 29.482364 -0.222104 1.946747 -0.011399 -0.000989 724924.000000 0 0 1
25.641176 -5.131162 -10.649653 28.234976 -0.197505 1.957545 0.013050 0.005759 39928.600000 0 0 1
24.339266 -5.793462 -10.271853 27.045795 -0.233681 1.960371 0.027909 0.009869 -2103150.000000 0 0 1
24.483466 -6.612062 -9.146953 26.959715 -0.263770 1.916950 0.021161 0.009967 339552.000000 0 0 1
23.288466 -7.172262 -8.633253 25.852022 -0.298757 1.911286 0.025798 0.005935 -382035.000000 0 0 1
22.309766 -6.195762 -7.996953 24.496212 -0.270889 1.903349 0.036373 0.015219 -566919.000000 0 1 0
21.621766 -5.296862 -8.920953 23.982096 -0.240247 1.951942 0.017428 0.017733 650542.000000 0 1 0
21.245966 -4.075062 -8.297053 23.169771 -0.189503 1.937027 0.004289 0.016270 -114239.000000 0 1 0
20.964166 -3.073062 -9.455053 23.202112 -0.145550 1.990520 -0.005533 0.017952 41210.600000 0 1 0
22.175866 -2.784462 -10.148853 24.546313 -0.124909 1.997044 -0.003343 0.013125 877681.000000 0 1 0
22.050166 -2.146662 -11.391553 24.911553 -0.097048 2.045730 -0.003350 0.014234 16723.700000 0 1 0
23.397766 -2.176462 -12.167653 26.462128 -0.092753 2.048582 0.002631 0.000069 70057.100000 0 0 1
24.368666 -1.285162 -11.693053 27.059398 -0.052689 2.017645 -0.003323 -0.004752 -378785.000000 0 0 1
25.578396 -1.477962 -12.338953 28.437449 -0.057717 2.019611 -0.002785 -0.004955 -484472.000000 0 0 1
26.660776 -0.479562 -11.826553 29.170093 -0.017986 1.988250 -0.008602 -0.009937 -945707.000000 0 0 1
27.944836 -0.589762 -12.323153 30.547042 -0.021101 1.986043 -0.005303 -0.011506 -421184.000000 0 0 1
28.718306 0.592238 -12.198453 31.207277 0.020619 1.972389 0.004696 -0.008025 -52760.500000 0 0 1
28.334966 1.760238 -13.087553 31.261043 0.062043 2.002759 0.002463 -0.009800 -586590.000000 0 0 1
28.724796 1.369938 -14.365153 32.145735 0.047656 2.034066 -0.004776 -0.006462 405025.000000 0 0 1
28.632866 2.462738 -15.236953 32.528001 0.085800 2.058304 -0.008122 -0.001506 -276482.000000 0 0 1
29.065846 2.238838 -16.701453 33.597237 0.076875 2.091059 -0.012387 -0.007458 -470673.000000 0 0 1
28.115506 1.507138 -17.402053 33.099616 0.053554 2.124390 -0.005868 -0.001092 -313509.000000 0 0 1
28.477626 1.332138 -18.762853 34.129085 0.046744 2.152875 -0.013416 0.002849 40111.800000 0 0 1
27.382336 0.601838 -19.641253 33.703611 0.021976 2.192922 -0.008541 0.007247 368129.000000 0 0 1
27.192786 -0.788162 -19.397653 33.411641 -0.028976 2.190220 -0.010180 0.010514 194914.000000 0 0 1
26.707396 -1.441262 -20.554553 33.732060 -0.053913 2.226034 -0.015081 0.011896 -88259.600000 0 0 1
26.586296 -2.984262 -20.467553 33.684680 -0.111780 2.223859 -0.023765 0.007437 142761.000000 0 0 1
25.371966 -3.374462 -19.837953 32.383144 -0.132224 2.230144 -0.013523 0.009611 468492.000000 0 0 1
25.153656 -4.829362 -19.862853 32.412375 -0.189686 2.230417 -0.016763 0.007672 28643.800000 0 0 1
25.906706 -5.667862 -18.748753 32.477651 -0.215386 2.186192 -0.029784 0.010319 -1186930.000000 0 0 1
27.260716 -5.686062 -18.954053 33.685814 -0.205633 2.168410 -0.026908 0.007339 -1357610.000000 0 0 1
27.946066 -5.875262 -17.717853 33.606899 -0.207218 2.126109 -0.035922 0.004132 559259.000000 0 0 1
29.486066 -5.622762 -17.795953 34.896124 -0.188430 2.105945 -0.027971 0.013401 161031.000000 0 0 1
30.026556 -6.448362 -18.757753 35.986508 -0.211542 2.119104 -0.028607 0.008972 -544414.000000 0 0 1
31.327576 -5.969862 -19.027353 37.136188 -0.188305 2.108735 -0.009171 0.008281 -91076.600000 0 0 1
32.118286 -6.987362 -19.896553 38.422394 -0.214213 2.115117 -0.004060 0.003452 -368473.000000 0 0 1
32.550606 -8.064862 -19.128453 38.606757 -0.242873 2.089171 -0.010051 0.010479 -176048.000000 0 0 1
32.997986 -9.051062 -20.043453 39.655124 -0.267707 2.100693 -0.011745 0.023481 -279253.000000 0 0 1
33.745156 -10.110662 -19.220653 40.129722 -0.291106 2.070269 -0.010981 0.017681 -657682.000000 0 0 1
32.930246 -10.804862 -18.305253 39.194750 -0.317045 2.056729 -0.031541 0.009525 347578.000000 0 0 1
33.686636 -11.559862 -17.335753 39.609951 -0.330567 2.023793 -0.003802 0.017880 -253983.000000 0 0 1
34.559630 -10.755962 -16.325153 39.706037 -0.301727 1.994512 0.011222 0.014408 -351918.000000 0 0 1
34.890266 -11.487562 -15.124653 39.724676 -0.318070 1.961389 0.000505 0.002028 556808.000000 0 0 1
-34.395699 -12.752962 -15.223453 39.717196 0.355059 1.964159 0.005576 0.000562 204882.000000 0 0 1
-32.912070 -12.615962 -15.642253 38.562247 0.366048 1.988471 -0.001978 0.001805 -491576.000000 0 0 1
-32.738850 -12.237762 -17.001953 38.867229 0.357718 2.023543 0.006916 0.002585 -99583.300000 0 0 1
-31.375490 -12.232762 -17.366353 37.889999 0.371754 2.046918 0.004151 0.002505 93171.100000 0 0 1
-30.972390 -11.243262 -18.527053 37.801476 0.348217 2.083017 0.015955 0.001747 105329.000000 0 0 1
-31.225840 -9.863862 -18.221153 37.474782 0.305968 2.078560 0.032401 0.002389 578210.000000 0 0 1
-32.456220 -9.453462 -18.836953 38.698901 0.283427 2.079169 0.028485 -0.000121 411069.000000 0 0 1
-32.982690 -8.114962 -18.168453 38.520165 0.241245 2.061970 0.030326 -0.011833 -945110.000000 0 0 1
-34.075105 -7.615462 -18.818053 39.663927 0.219877 2.065121 0.029273 -0.011507 -1181570.000000 0 0 1
-34.571371 -6.554862 -18.035053 39.539967 0.187379 2.044429 0.027741 -0.014030 -119281.000000 0 0 1
23.625530 27.073238 -27.711513 45.376798 0.853297 2.227738 0.015791 0.024464 -157689.000000 0 0 1
24.198030 26.392938 -26.664913 44.644702 0.828756 2.210888 0.017386 0.010355 -458628.000000 0 0 1
25.475630 25.932338 -27.021893 45.295436 0.794282 2.210017 0.006569 0.007298 -508453.000000 0 0 1
26.224030 25.211338 -25.920033 44.667207 0.765712 2.189884 -0.000553 -0.004362 -491831.000000 0 0 1
26.495730 26.026638 -24.762153 44.638255 0.776467 2.158834 0.002025 0.004474 167533.000000 0 0 1
26.655930 25.240938 -23.600953 43.642279 0.758139 2.142163 0.004235 -0.002042 142711.000000 0 0 1
27.326130 26.063438 -22.444853 43.929393 0.761752 2.107063 -0.001459 -0.001759 309621.000000 0 0 1
26.418030 26.960438 -21.845053 43.611740 0.795559 2.095433 0.015438 -0.004301 161169.000000 0 0 1
27.102330 27.728338 -20.907653 44.051413 0.796815 2.065328 0.001938 -0.003994 238695.000000 0 0 1
26.084830 28.726738 -20.292253 43.788347 0.833561 2.052643 0.010879 0.006399 503003.000000 0 0 1
25.146630 28.056638 -19.452153 42.401818 0.840040 2.047393 0.027775 0.001170 235715.000000 0 0 1
24.179030 28.959538 -18.935753 42.211883 0.875120 2.035981 0.026910 -0.001465 323801.000000 0 0 1
23.197530 28.358138 -17.886153 40.770380 0.885164 2.024953 0.036761 -0.005659 105458.000000 0 0 1
22.268330 27.472238 -18.476653 39.899738 0.889640 2.052260 0.049657 -0.005982 -338974.000000 0 0 1
21.236230 27.252238 -17.557653 38.754782 0.908838 2.040974 0.021300 0.006994 -333740.000000 0 0 1
20.161230 26.244538 -17.982653 37.664662 0.915744 2.068536 0.009713 -0.000879 -104271.000000 0 0 1
19.529930 26.732238 -19.163853 38.252895 0.939843 2.095525 0.010256 0.003487 -149717.000000 0 0 1
18.843230 25.728638 -19.894953 37.587754 0.938665 2.128564 0.007008 0.008423 92255.600000 0 0 1
18.039130 26.240338 -21.087153 38.192061 0.968538 2.155718 -0.001793 0.013429 288210.000000 0 0 1
17.098330 27.245938 -20.773253 38.291279 1.010362 2.144214 -0.015634 0.017480 -296239.000000 0 0 1
16.012830 27.309338 -21.674553 38.366612 1.040474 2.171148 -0.013909 0.010144 410437.000000 0 0 1
14.882530 28.303838 -21.230353 38.383914 1.086712 2.156884 -0.009973 0.014884 178046.000000 0 0 1
14.200530 27.836638 -20.071953 37.140500 1.099071 2.141748 -0.001242 0.015139 33920.700000 0 0 1
13.481930 28.886838 -19.410753 37.322770 1.134129 2.117739 -0.023918 0.014861 159641.000000 0 0 1
13.335230 28.614738 -17.906653 36.294349 1.134695 2.086760 -0.017016 0.010030 213053.000000 0 0 1
12.535830 27.459738 -17.625253 34.954739 1.142536 2.099287 -0.021584 0.018303 58178.800000 0 0 1
11.797630 27.598838 -16.416353 34.210767 1.166837 2.071291 -0.008830 0.019360 521153.000000 0 0 1
10.920030 26.316138 -16.173053 32.762079 1.177464 2.087080 0.016990 0.006705 372086.000000 0 0 1
11.707930 25.154938 -15.845853 31.952114 1.135183 2.089696 0.002748 0.010144 136070.000000 0 0 1
10.980630 23.935138 -16.005653 30.816327 1.140676 2.116932 0.028141 0.003815 -145428.000000 0 0 1
11.854130 22.702738 -16.165753 30.286404 1.089590 2.133840 0.021923 -0.000970 -144711.000000 0 0 1
12.469130 22.668138 -17.446653 31.204317 1.067897 2.164109 0.021341 0.004779 134813.000000 0 0 1
13.390630 21.555738 -17.646453 30.908835 1.014927 2.178422 0.022868 0.005937 361680.000000 0 0 1
12.838630 20.152338 -17.982353 29.905052 1.003558 2.215942 0.049126 -0.001644 -364930.000000 0 0 1
12.132030 19.656238 -16.888853 28.614458 1.017818 2.202129 0.048151 -0.010429 -181036.000000 0 0 1
11.549430 18.384938 -17.132353 27.657057 1.009899 2.238847 0.045152 -0.013098 -243819.000000 0 0 1
12.548830 17.228438 -17.232553 27.408996 0.941277 2.250701 0.036882 -0.012298 -349185.000000 0 0 1
13.140130 16.980638 -16.001853 26.778058 0.912218 2.211268 0.033554 -0.016646 189111.000000 0 0 1
14.256430 16.108738 -16.203453 26.931192 0.846324 2.216376 0.027490 -0.011875 -496119.000000 0 0 1
14.864830 15.472738 -14.955053 26.153822 0.805434 2.179508 0.036528 -0.006223 -1447630.000000 0 0 1
15.631730 16.333038 -14.110353 26.649975 0.807335 2.128772 -0.000378 0.005378 1681320.000000 0 0 1
16.972930 16.664938 -14.572953 27.895725 0.776242 2.120469 -0.018167 0.012667 430103.000000 0 0 1
17.880030 15.507738 -14.963053 28.001399 0.714465 2.134556 -0.027911 0.010482 -1973240.000000 0 0 1
18.245530 14.563538 -13.990653 27.216436 0.673641 2.110698 -0.009388 0.007488 133077.000000 0 0 1
19.132030 15.023138 -13.012253 27.587098 0.665673 2.061990 -0.012576 0.007778 -648437.000000 0 0 1
19.826830 13.916238 -12.181553 27.113744 0.611993 2.036751 0.007500 0.002283 184106.000000 0 0 1
18.918730 13.183338 -11.371753 25.710611 0.608602 2.028956 0.024673 0.000337 1017250.000000 0 0 1
19.704530 12.255738 -10.586053 25.505610 0.556422 1.998792 0.045281 0.004962 457353.000000 0 0 1
20.145930 10.973638 -11.319953 25.581645 0.498771 2.029184 0.044594 -0.003262 -869855.000000 0 0 1
21.127730 11.178138 -12.315553 26.888745 0.486636 2.046562 0.031558 0.006358 332426.000000 0 0 1
21.489430 10.013738 -13.040553 27.057837 0.436067 2.073676 0.021909 0.005139 97920.000000 0 0 1
22.352030 8.991938 -12.214753 27.012375 0.382477 2.040017 0.024604 0.011925 -392932.000000 0 0 1
21.563930 8.418038 -11.152653 25.695293 0.372182 2.019763 0.026879 0.003677 781143.000000 0 0 1
22.114630 7.239138 -10.521853 25.537646 0.316352 1.995459 0.010647 0.012692 -852612.000000 0 0 1
22.138130 5.943438 -11.389253 25.595631 0.262286 2.031936 0.011425 0.001773 1304870.000000 0 0 1
20.859530 5.296838 -11.740553 24.515649 0.248673 2.070198 0.015686 -0.005932 1509570.000000 0 1 0
20.140430 5.984938 -12.732353 24.567646 0.288850 2.115608 -0.005219 -0.013060 -272224.000000 0 1 0
18.910030 5.102338 -13.086853 23.556078 0.263546 2.159835 -0.012588 -0.015893 -203781.000000 0 1 0
19.353130 3.974538 -13.817653 24.109503 0.202553 2.181105 -0.008410 -0.012306 647767.000000 0 1 0
18.351530 3.029438 -14.189553 23.394434 0.163603 2.222492 -0.003521 -0.003022 -681165.000000 0 1 0
18.905730 1.798738 -14.905453 24.141968 0.094857 2.236240 -0.001432 -0.000049 -410674.000000 0 1 0
19.803630 1.043038 -14.122353 24.345688 0.052620 2.189618 -0.008938 -0.001118 393051.000000 0 1 0
21.144830 1.144938 -14.557253 25.696854 0.054095 2.173048 -0.005152 0.007816 -341955.000000 0 0 1
21.745930 -0.204362 -14.987853 26.411417 -0.009397 2.174234 0.000307 0.002051 -240052.000000 0 0 1
21.052930 -0.811062 -16.096353 26.513699 -0.038506 2.223197 0.000818 0.003441 175681.000000 0 0 1
21.719830 -1.965262 -16.534253 27.367769 -0.090237 2.219496 -0.003514 0.000005 -394972.000000 0 0 1
21.081730 -2.800062 -17.680453 27.656430 -0.132047 2.264370 0.007976 0.005447 741273.000000 0 0 1
19.999330 -3.679562 -17.262853 26.674303 -0.181949 2.274665 0.013590 0.000086 870808.000000 0 0 1
19.633730 -4.454362 -18.375853 27.257965 -0.223096 2.310604 0.020950 0.001483 -146960.000000 0 0 1
18.649430 -5.554362 -17.921653 26.454448 -0.289465 2.315091 0.019585 0.001960 -162714.000000 0 0 1
19.269830 -6.668762 -17.283053 26.730182 -0.333172 2.273882 0.026190 -0.000771 652365.000000 0 0 1
18.303630 -7.593362 -16.706253 25.918736 -0.393247 2.271248 0.031577 0.002017 626886.000000 0 0 1
18.967930 -8.833962 -15.995053 26.337482 -0.435859 2.223468 0.032747 0.001207 263399.000000 0 0 1
19.540230 -9.780862 -16.888553 27.617188 -0.464088 2.228781 0.040931 -0.008461 184885.000000 0 0 1
20.092130 -10.872762 -16.207653 28.010688 -0.496020 2.187837 0.039566 -0.013985 -603984.000000 0 0 1
20.746130 -11.781562 -17.194753 29.408615 -0.516476 2.195287 0.039194 -0.009091 -202806.000000 0 0 1
21.910430 -11.214562 -17.797953 30.374339 -0.473072 2.196853 0.034510 -0.010188 308728.000000 0 0 1
22.520430 -12.063462 -18.751953 31.691207 -0.491773 2.203973 0.044868 -0.011579 -391266.000000 0 0 1
21.898930 -12.138662 -20.163353 32.147644 -0.506142 2.248763 0.060485 -0.007781 -46332.500000 0 0 1
20.563830 -12.549562 -20.352153 31.536847 -0.547939 2.272271 0.044123 -0.012316 -81476.700000 0 0 1
20.293830 -13.915462 -20.139253 31.797313 -0.601063 2.256688 0.038530 -0.004218 -728826.000000 0 0 1
18.778730 -14.086162 -20.100053 30.904252 -0.643573 2.278904 0.032493 0.003072 -560374.000000 0 0 1
18.125330 -13.585662 -21.237853 31.050671 -0.643207 2.323993 0.026428 0.008698 -87999.300000 0 0 1
16.723830 -13.795062 -21.135053 30.276735 -0.689725 2.343484 0.022082 0.012548 -23180.500000 0 0 1
16.088130 -13.118762 -22.309953 30.473986 -0.684080 2.392193 0.023407 0.004417 -546221.000000 0 0 1
16.304830 -13.869362 -23.505853 31.792008 -0.704859 2.402921 0.020914 0.013025 264066.000000 0 0 1
15.467130 -13.402562 -24.531653 31.947813 -0.714006 2.446300 0.033336 0.002655 -196716.000000 0 0 1
15.444930 -14.121862 -25.945013 33.333415 -0.740680 2.462827 0.031739 -0.003420 -475339.000000 0 0 1
14.667730 -15.281562 -25.869043 33.434650 -0.805891 2.455488 0.028209 -0.003917 -104851.000000 0 0 1
14.543730 -15.945562 -27.119973 34.659399 -0.831344 2.469420 0.041362 -0.002174 -828559.000000 0 0 1
15.485230 -17.084262 -27.342743 35.767163 -0.834455 2.441007 0.038222 -0.003742 -547826.000000 0 0 1
16.849230 -16.727362 -27.418693 36.269628 -0.781769 2.427929 0.043947 -0.003594 55270.200000 0 0 1
17.635830 -17.873462 -27.692373 37.381154 -0.792090 2.405073 0.039035 0.001572 542243.000000 0 0 1
19.169430 -17.595262 -27.735343 38.030376 -0.742607 2.388087 0.027964 0.006337 445526.000000 0 0 1
19.643930 -17.262162 -26.452513 37.196796 -0.720952 2.361929 0.028840 0.006806 -655091.000000 0 0 1
21.025030 -17.074062 -26.404713 37.825710 -0.682065 2.343484 0.022726 0.009109 -463621.000000 0 0 1
21.527230 -16.716762 -24.940553 36.944593 -0.660272 2.311869 0.029452 0.015196 39788.900000 0 0 1
21.348030 -15.375462 -24.580153 36.004543 -0.624174 2.322242 0.031188 0.011520 335460.000000 0 0 1
20.034730 -14.819762 -24.426153 34.894881 -0.636879 2.346183 0.041858 0.012767 590532.000000 0 0 1
20.083430 -13.386162 -23.875053 33.949251 -0.587906 2.350765 0.043330 0.015931 -41680.700000 0 0 1
20.278030 -12.309462 -24.760553 34.290032 -0.545576 2.377618 0.044300 0.000995 28839.300000 0 0 1
19.932130 -11.132562 -24.113353 33.206589 -0.509364 2.383519 0.049909 -0.005458 -65012.900000 0 0 1
19.923830 -9.850762 -24.971853 33.430375 -0.459175 2.414306 0.053059 -0.010619 -100187.000000 0 0 1
19.571030 -8.669462 -24.232953 32.332967 -0.416996 2.418074 0.051367 -0.015075 229497.000000 0 0 1
19.395330 -7.651762 -25.205633 32.711652 -0.375770 2.450484 0.039123 -0.008410 -352595.000000 0 0 1
18.866530 -6.349562 -24.511253 31.576327 -0.324644 2.459498 0.032517 -0.008155 -368240.000000 0 0 1
17.598130 -6.584362 -23.922353 30.419187 -0.358026 2.475793 0.046329 -0.009082 80911.700000 0 0 1
17.259630 -5.662362 -22.885853 29.218477 -0.317006 2.470699 0.030836 -0.008433 83162.200000 0 0 1
17.982430 -5.979962 -21.532953 28.684417 -0.321041 2.419894 0.029081 -0.008795 -76779.600000 0 0 1
17.428030 -7.000262 -20.741853 27.981500 -0.381942 2.405757 0.037296 -0.016736 123009.000000 0 0 1
17.431530 -8.345262 -21.213353 28.696829 -0.446500 2.402712 0.051759 -0.015000 -260225.000000 0 0 1
17.012230 -9.324862 -20.125253 27.953440 -0.501404 2.374536 0.044840 -0.021383 226166.000000 0 0 1
15.757830 -9.156762 -19.486753 26.681249 -0.526401 2.389636 0.027764 -0.016995 -46178.400000 0 0 1
15.266630 -10.424062 -19.031153 26.531412 -0.599089 2.370725 0.028055 -0.005872 155983.000000 0 0 1
13.843930 -10.297962 -18.424353 25.242012 -0.639561 2.388984 0.023369 -0.005152 10343.400000 0 0 1
13.798530 -9.630062 -17.173553 24.043054 -0.609318 2.366396 0.031628 -0.010406 171205.000000 0 1 0
13.808630 -8.222162 -17.294853 23.609196 -0.537057 2.392853 0.036941 -0.027785 -442734.000000 0 1 0
12.471330 -7.510362 -17.047853 22.418048 -0.542043 2.434805 0.021978 -0.017736 -282167.000000 0 1 0
11.436330 -7.775362 -17.967853 22.673545 -0.597096 2.485626 0.018789 -0.022337 229110.000000 0 1 0
10.425530 -6.792462 -17.754353 21.680550 -0.577444 2.530300 0.003687 -0.015209 1251520.000000 0 1 0
9.000930 -6.854662 -18.439053 21.633349 -0.650852 2.591247 0.001949 -0.006948 1144210.000000 0 1 0
8.852030 -6.489762 -19.775753 22.617600 -0.632622 2.634896 0.005393 -0.012926 192584.000000 0 1 0
7.529630 -6.029762 -20.032853 22.234400 -0.675231 2.692830 0.009201 -0.010210 435683.000000 0 1 0
7.076530 -5.663762 -21.457153 23.293022 -0.674960 2.741908 0.012197 -0.014419 -170428.000000 0 1 0
7.118330 -6.830762 -22.298453 24.383415 -0.764786 2.725048 0.019272 -0.011671 112719.000000 0 1 0
6.457930 -6.550862 -23.516653 25.251764 -0.792542 2.768728 0.023681 -0.014086 -337733.000000 0 0 1
6.557930 -7.674062 -24.601453 26.591900 -0.863662 2.752223 0.030718 -0.010764 -273583.000000 0 0 1
5.823930 -8.828262 -24.184253 26.395728 -0.987638 2.729335 0.025225 -0.010996 249435.000000 0 0 1
5.733230 -9.897462 -25.115483 27.597412 -1.045764 2.714241 0.017867 0.001229 -412009.000000 0 0 1
4.855530 -11.078062 -24.764853 27.560797 -1.157713 2.687259 0.023108 -0.008162 -188679.000000 0 0 1
5.434430 -11.987362 -23.855053 27.245062 -1.145163 2.637418 0.018241 -0.008652 -123562.000000 0 0 1
4.760930 -13.198862 -23.977153 27.780933 -1.224614 2.612132 0.027857 -0.013716 -310817.000000 0 0 1
5.392430 -14.374962 -23.133953 27.765043 -1.211915 2.555674 0.028669 -0.006965 765123.000000 0 0 1
6.605030 -15.008862 -23.552853 28.698941 -1.156226 2.533409 0.022445 -0.004214 1057720.000000 0 0 1
7.847430 -14.297262 -23.640953 28.720872 -1.068816 2.537694 0.029737 -0.005109 930328.000000 0 0 1
8.457230 -13.628162 -22.324853 27.489099 -1.015389 2.518598 0.013941 0.004066 -213643.000000 0 0 1
9.010430 -14.522562 -21.375853 27.368225 -1.015480 2.467136 0.014285 0.010580 516060.000000 0 0 1
7.990830 -15.053962 -20.514253 26.670390 -1.082804 2.448349 0.008421 0.010526 314141.000000 0 0 1
8.427430 -15.604162 -19.176553 26.119947 -1.075604 2.395244 0.005849 0.012967 38010.800000 0 0 1
9.427330 -16.600762 -19.160553 27.047858 -1.054325 2.358017 0.016414 0.013886 -447553.000000 0 0 1
9.693430 -17.093762 -17.808753 26.520011 -1.054939 2.307056 0.017129 0.010242 -158842.000000 0 0 1
8.689930 -17.956362 -16.987753 26.201709 -1.120073 2.276205 -0.003313 0.016335 -308966.000000 0 0 1
8.463330 -19.288662 -17.430453 27.340467 -1.157319 2.262088 -0.005185 0.015454 461562.000000 0 0 1
7.746930 -19.488962 -18.694253 28.094655 -1.192444 2.298829 0.000247 0.020104 -264273.000000 0 0 1
6.239130 -19.282362 -18.684153 27.565083 -1.257861 2.315589 0.005619 0.017188 -669775.000000 0 0 1
5.893730 -17.887762 -18.473153 26.381157 -1.252514 2.346531 0.003209 0.017734 -643954.000000 0 0 1
4.577330 -17.788662 -18.011853 25.725771 -1.318943 2.346401 -0.003294 0.020673 -246797.000000 0 0 1
4.214930 -16.311462 -17.693853 24.431575 -1.317925 2.380700 -0.019991 0.027460 36676.300000 0 1 0
4.702830 -15.868462 -16.417253 23.312033 -1.282679 2.352148 -0.017244 0.023822 134209.000000 0 1 0
4.369930 -14.518462 -16.154753 22.155317 -1.278430 2.387889 -0.017469 0.023341 115554.000000 0 1 0
10.085930 30.431338 -17.971753 36.752907 1.250758 2.081726 0.010727 -0.004450 -629042.000000 0 0 1
9.267730 29.717338 -18.825653 36.378788 1.268492 2.114711 0.021265 -0.008754 -1328250.000000 0 0 1
8.172930 29.198938 -18.204553 35.366375 1.297876 2.111503 0.023520 -0.006568 -577539.000000 0 0 1
7.100330 28.659038 -19.213653 35.226689 1.327935 2.147697 0.016466 -0.007218 154924.000000 0 0 1
6.506830 29.743238 -19.885953 36.365508 1.355423 2.149376 0.017792 -0.015852 -303167.000000 0 0 1
5.528630 29.195038 -20.739353 36.235849 1.383644 2.180157 0.007566 -0.018050 -22459.000000 0 0 1
4.456730 30.155938 -21.286153 37.179878 1.424069 2.180370 0.013729 -0.016997 227405.000000 0 0 1
3.445630 30.595838 -20.391353 36.929459 1.458651 2.155762 0.011477 -0.018266 -273467.000000 0 0 1
2.424330 31.290838 -21.038853 37.783955 1.493473 2.161348 0.004001 -0.011788 -525638.000000 0 0 1
1.045230 30.724938 -20.644453 37.031173 1.536790 2.162154 -0.004966 -0.006207 -313948.000000 0 0 1
0.625430 29.452338 -21.078953 36.223661 1.549564 2.191873 -0.008321 -0.018814 23870.300000 0 0 1
0.325130 29.315238 -22.446553 36.923388 1.559706 2.224238 -0.007376 -0.014557 -541571.000000 0 0 1
0.032330 27.846238 -22.799753 35.989481 1.569635 2.256880 -0.008898 -0.011450 199824.000000 0 0 1
-0.967170 27.365238 -21.915853 35.072728 -1.535468 2.245760 -0.003457 -0.017930 -200944.000000 0 0 1
-1.417170 26.034838 -22.109653 34.185639 -1.516416 2.274115 0.006777 -0.031088 161364.000000 0 0 1
-2.565570 25.740138 -21.117453 33.392868 -1.471452 2.255436 0.002839 -0.024106 -456241.000000 0 0 1
-3.698170 26.539638 -21.173353 34.151716 -1.432343 2.239512 0.006131 -0.024878 -596616.000000 0 0 1
-4.745870 25.925438 -20.475153 33.374893 -1.389743 2.231268 0.015525 -0.025115 -177131.000000 0 0 1
-5.867870 26.956538 -20.176653 34.178709 -1.356461 2.202262 0.023864 -0.033634 -290811.000000 0 0 1
-7.027870 26.359938 -19.682253 33.639684 -1.310245 2.195788 0.040968 -0.032538 -745980.000000 0 0 1
-7.932970 27.324138 -19.215153 34.333113 -1.288236 2.164782 0.035533 -0.033644 235021.000000 0 0 1
-9.226470 26.786738 -18.546653 33.862005 -1.239082 2.150424 0.031842 -0.023322 38252.700000 0 0 1
-9.138570 26.114938 -17.303353 32.632950 -1.234178 2.129682 0.033213 -0.032732 -267671.000000 0 0 1
-10.311370 25.351938 -17.074953 32.258318 -1.184503 2.128594 0.015830 -0.027566 -23075.900000 0 0 1
-10.405370 24.643238 -15.735553 31.034956 -1.171265 2.102528 0.020571 -0.027511 356937.000000 0 0 1
-9.518170 23.492838 -15.625053 29.776690 -1.185856 2.123207 0.027189 -0.022681 385979.000000 0 0 1
-9.688670 22.888038 -14.348553 28.698668 -1.170360 2.094364 0.033963 -0.015673 -277659.000000 0 0 1
-8.993570 21.514238 -14.174553 27.288545 -1.174845 2.116983 0.038250 -0.013493 -282515.000000 0 0 1
-9.679170 20.326738 -14.562753 26.812989 -1.126386 2.144948 0.019976 -0.003267 1458.000000 0 0 1
-10.155770 20.292738 -15.953353 27.738860 -1.106778 2.183555 0.027401 -0.000549 -112041.000000 0 0 1
-9.076870 20.313638 -17.035553 28.022197 -1.150576 2.224248 0.022057 0.005807 -138117.000000 0 0 1
-8.335170 19.101038 -17.010853 26.901558 -1.159333 2.255363 0.017733 0.004761 302150.000000 0 0 1
-7.367870 19.007438 -18.068953 27.240691 -1.200998 2.296026 0.029944 0.004582 575937.000000 0 0 1
-6.780770 17.576038 -18.209553 26.200835 -1.202594 2.339215 0.022117 0.008384 108309.000000 0 0 1
-7.729670 16.631938 -18.671853 26.172643 -1.135745 2.365150 0.010905 0.007332 -177434.000000 0 0 1
-7.452070 15.968138 -19.904353 26.583793 -1.134155 2.416956 0.017323 0.004538 171910.000000 0 0 1
-6.306670 14.922238 -19.979153 25.721855 -1.170930 2.460267 0.015862 0.008792 47238.800000 0 0 1
-6.516670 13.728538 -19.215753 24.498671 -1.127609 2.472458 0.000672 0.010486 618643.000000 0 1 0
-5.302670 12.967238 -19.065353 23.659147 -1.182617 2.507879 0.006137 0.014971 768356.000000 0 1 0
-4.588870 13.180238 -17.695853 22.537072 -1.235759 2.473797 0.004973 0.010828 32141.200000 0 1 0
-3.966370 14.454838 -17.675853 23.175638 -1.302990 2.438260 0.000533 0.002704 -256710.000000 0 1 0
-3.832770 14.977438 -16.393853 22.533801 -1.320270 2.385501 0.012470 0.007832 -200013.000000 0 1 0
-2.964570 16.221538 -16.350353 23.221994 -1.390036 2.351936 0.021431 0.001264 -46698.900000 0 1 0
-3.589870 17.474638 -16.607553 24.373365 -1.368182 2.320444 0.008595 -0.000692 -758562.000000 0 1 0
-2.700570 18.490038 -16.442053 24.890072 -1.425766 2.292396 0.017631 -0.009601 -583459.000000 0 1 0
-3.266470 19.758038 -17.085753 26.324377 -1.406955 2.277127 0.029388 -0.018230 262515.000000 0 0 1
-3.336570 19.661538 -18.512853 27.210926 -1.402697 2.319031 0.032677 -0.015973 -213257.000000 0 0 1
-3.799270 20.854638 -19.182753 28.588955 -1.390594 2.306332 0.044666 -0.011996 -7704.020000 0 0 1
-2.860770 22.066638 -19.375853 29.504986 -1.441873 2.287228 0.017872 -0.016242 -787460.000000 0 0 1
-1.814670 21.865338 -20.315853 29.901838 -1.487993 2.317766 0.030053 -0.015593 351171.000000 0 0 1
-0.762770 22.825838 -20.129153 30.443119 -1.537392 2.293221 0.019283 -0.014005 244181.000000 0 0 1
0.230630 22.499938 -19.033653 29.471687 1.560546 2.272904 0.021173 -0.009623 -1632860.000000 0 0 1
-0.259170 22.718938 -17.764553 28.840885 -1.559389 2.234388 0.021672 -0.010139 -712193.000000 0 0 1
0.650030 22.298438 -16.793153 27.922264 1.541653 2.216080 0.024663 -0.014338 -407949.000000 0 0 1
0.013730 22.426638 -15.438153 27.226657 1.570184 2.173684 0.035856 -0.018796 -163663.000000 0 0 1
-0.711570 21.269638 -15.081953 26.083886 -1.537354 2.187329 0.036769 -0.011765 -144909.000000 0 0 1
-0.927570 21.325938 -13.710353 25.369860 -1.527329 2.141731 0.059990 -0.016361 -109380.000000 0 0 1
-1.749770 20.183938 -13.134453 24.144707 -1.484321 2.145980 0.040819 -0.014010 -102242.000000 0 1 0
-1.058270 18.943838 -13.126453 23.071469 -1.514991 2.176022 0.031225 -0.006324 200851.000000 0 1 0
-1.951770 17.891738 -12.763253 22.064095 -1.462138 2.187639 0.026927 -0.007733 347977.000000 0 1 0
-1.393270 16.466638 -13.034353 21.047226 -1.486386 2.238635 0.012178 0.003252 -930307.000000 0 1 0
-0.310470 16.187338 -12.224553 20.287089 -1.551619 2.217524 0.010337 0.001944 -526654.000000 0 1 0
0.023530 14.768838 -12.151353 19.125232 1.569203 2.259267 0.014403 0.001668 301216.000000 0 1 0
0.684530 14.056738 -13.361053 19.405623 1.522137 2.330235 0.004956 0.000903 -3115.700000 0 1 0
-0.150270 14.055638 -14.529653 20.216190 -1.560106 2.372747 0.003160 0.000151 561178.000000 0 1 0
0.370630 12.948138 -15.305153 20.050919 1.542180 2.439224 0.003783 -0.007561 -12333.800000 0 1 0
-0.196470 12.854638 -16.701453 21.076500 -1.555514 2.485564 0.002727 0.000792 21656.800000 0 1 0
0.162630 14.013538 -17.448853 22.380084 1.559192 2.464919 0.000194 -0.004304 -133068.000000 0 1 0
-0.373370 13.893638 -18.744153 23.334863 -1.543929 2.503558 0.007383 0.000475 -234805.000000 0 1 0
-1.027970 15.193538 -19.320253 24.600254 -1.503241 2.474087 0.012766 0.001488 34597.500000 0 1 0
-0.173070 16.285638 -19.604853 25.487295 -1.560170 2.448386 -0.001992 -0.000500 -276066.000000 0 0 1
-0.929870 17.355138 -20.112153 26.581274 -1.517269 2.428938 0.024986 -0.009850 -1649.910000 0 0 1
-0.064370 18.612238 -20.265453 27.515598 -1.567338 2.398689 0.026717 -0.014242 399356.000000 0 0 1
0.687730 18.618738 -21.485853 28.438921 1.533876 2.427227 0.026443 -0.019680 269417.000000 0 0 1
1.615730 19.698838 -21.547453 29.239486 1.488958 2.399314 0.025072 -0.016698 95237.600000 0 0 1
2.130030 19.703438 -22.970753 30.338391 1.463110 2.429737 0.036942 -0.025560 -7439.620000 0 0 1
3.033630 18.629238 -23.248753 29.945883 1.409371 2.459665 0.014776 -0.016498 175887.000000 0 0 1
3.242230 18.454338 -24.661453 30.971953 1.396882 2.491869 0.016082 -0.029443 203962.000000 0 0 1
4.056930 17.180638 -25.018653 30.619699 1.338910 2.527119 0.002265 -0.010017 -518323.000000 0 0 1
5.361630 17.262938 -24.516853 30.460338 1.269656 2.506266 -0.007940 -0.000528 -154009.000000 0 0 1
6.262330 16.275738 -25.006653 30.486868 1.203492 2.532633 -0.006787 0.005608 298259.000000 0 0 1
6.735030 16.333838 -26.503863 31.852937 1.179701 2.553625 -0.010115 -0.002302 -1056280.000000 0 0 1
7.753430 17.316138 -26.695093 32.750455 1.149809 2.523708 -0.022946 0.002125 400228.000000 0 0 1
8.292930 17.481038 -28.001353 34.035792 1.127841 2.536946 -0.012959 -0.007461 221019.000000 0 0 1
8.908230 16.189738 -28.617533 34.065046 1.067769 2.568236 -0.010689 -0.006898 288308.000000 0 0 1
10.116730 15.693138 -27.976493 33.634907 0.998185 2.553084 0.007563 -0.005779 953513.000000 0 0 1
10.314030 14.290238 -28.219663 33.270700 0.945619 2.583343 0.008218 -0.005819 49143.600000 0 0 1
9.570130 13.382138 -27.154673 31.749728 0.949980 2.596873 0.010671 -0.003851 -838501.000000 0 0 1
8.200530 13.522338 -27.266933 31.521230 1.025653 2.616014 0.011358 -0.000274 -1385320.000000 0 0 1
7.727730 12.961638 -26.078783 30.130131 1.033176 2.617021 0.024849 0.002104 -167432.000000 0 0 1
6.341530 12.268138 -26.173483 29.593469 1.093712 2.656077 -0.002706 -0.003520 -70506.000000 0 0 1
5.381330 13.248538 -26.411013 30.033715 1.184971 2.645352 -0.007420 -0.003165 382530.000000 0 0 1
4.025830 12.812438 -26.200233 29.441774 1.266352 2.667922 -0.010158 -0.001660 1566770.000000 0 0 1
2.885830 13.777838 -26.688703 30.173559 1.364327 2.656231 -0.001026 0.006776 -260891.000000 0 0 1
2.708230 13.866538 -28.078813 31.433026 1.377917 2.675409 0.013245 0.002868 -23493.700000 0 0 1
3.517330 14.756738 -28.803143 32.553862 1.336808 2.656827 0.016749 -0.012070 -243240.000000 0 0 1
3.455630 14.592038 -30.319433 33.825093 1.338264 2.682284 0.038771 -0.014107 69577.300000 0 0 1
4.413430 13.636438 -30.791843 33.964222 1.257786 2.705944 0.030780 -0.011314 355343.000000 0 0 1
4.369430 13.438638 -32.218383 35.181147 1.256438 2.728255 0.022176 -0.004070 -746473.000000 0 0 1
5.532830 12.604138 -32.789143 35.561276 1.157153 2.744130 0.007536 0.003044 557223.000000 0 0 1
6.896330 13.013738 -32.670333 35.836676 1.083495 2.718066 0.015772 -0.001464 820126.000000 0 0 1
7.412130 13.097838 -31.323703 34.751509 1.055824 2.693701 0.009444 -0.007487 -718858.000000 0 0 1
7.530030 11.860438 -30.413883 33.501875 1.005119 2.708867 0.016239 -0.007538 -297045.000000 0 0 1
8.612230 11.014138 -30.721043 33.752988 0.907174 2.714497 0.014754 -0.002701 -174978.000000 0 0 1
8.512030 9.868738 -29.905493 32.621851 0.859076 2.730618 0.014394 0.003566 -357706.000000 0 0 1
9.532930 8.778038 -30.099583 32.770651 0.744195 2.735046 -0.001129 0.007530 -760623.000000 0 0 1
10.797930 8.977338 -29.547493 32.714557 0.693593 2.697943 0.017780 -0.003517 -291055.000000 0 0 1
11.498930 7.735238 -29.505913 32.598438 0.592162 2.702488 -0.005446 0.011516 -915592.000000 0 0 1
12.854830 7.828038 -28.807903 32.502617 0.546979 2.660145 0.010908 0.007411 -477281.000000 0 0 1
13.427030 6.564438 -28.660553 32.323432 0.454726 2.660912 0.015278 -0.005309 -137424.000000 0 0 1
14.199330 6.120938 -29.748703 33.527185 0.407003 2.662256 0.004056 -0.003106 -827521.000000 0 0 1
14.964330 4.852338 -29.344033 33.294874 0.313563 2.649483 0.012800 -0.009269 231352.000000 0 0 1
15.824430 4.923738 -28.209223 32.717213 0.301653 2.610420 -0.008344 -0.024495 687217.000000 0 0 1
16.697230 3.816838 -28.024743 32.844359 0.224730 2.592999 -0.004957 -0.017412 -129629.000000 0 0 1
17.518530 3.921438 -26.750713 32.216102 0.220215 2.550536 -0.002243 -0.016863 -287521.000000 0 0 1
18.478830 4.964038 -26.856783 32.975682 0.262438 2.522563 0.021587 -0.033033 -27458.800000 0 0 1
18.988030 5.181438 -25.585883 32.280489 0.266393 2.485876 0.024310 -0.027965 -643346.000000 0 0 1
20.098930 6.198938 -25.492563 33.049426 0.299165 2.451751 0.023119 -0.024672 -975920.000000 0 0 1
19.616130 7.486638 -25.869423 33.317703 0.364594 2.459804 0.031076 -0.026253 416966.000000 0 0 1
20.552630 8.309038 -26.539323 34.580144 0.384191 2.445686 0.043931 -0.034429 -561873.000000 0 0 1
20.723630 8.013938 -28.020193 35.760638 0.368993 2.471153 0.023832 -0.034232 -598624.000000 0 0 1
19.652030 8.451738 -28.811803 35.885291 0.406157 2.502917 0.027263 -0.018142 -30521.200000 0 0 1
18.582430 7.535038 -28.900213 35.175358 0.385232 2.535015 0.023758 -0.022987 -437190.000000 0 0 1
17.283230 8.239938 -29.333693 35.029590 0.444883 2.563301 0.026861 -0.013262 -508945.000000 0 0 1
16.942330 8.408638 -30.680503 36.042211 0.460691 2.589136 0.015927 -0.005893 592334.000000 0 0 1
15.804030 9.273738 -30.809743 35.847034 0.530654 2.605044 0.004225 0.004081 218722.000000 0 0 1
15.141530 9.225038 -32.216603 36.773316 0.547196 2.638481 -0.001891 0.006388 -143744.000000 0 0 1
14.513330 7.946438 -32.326133 36.314756 0.500942 2.668504 -0.002183 0.006433 371738.000000 0 0 1
13.391130 8.000038 -33.199153 36.681149 0.538515 2.702350 -0.011568 0.015948 360468.000000 0 0 1
12.892630 6.596938 -33.621953 36.608403 0.472950 2.734869 -0.013551 0.016370 57027.800000 0 0 1
12.349530 5.805938 -32.594573 35.335902 0.439471 2.745099 -0.008622 0.013038 -159293.000000 0 0 1
11.706430 4.704138 -33.078143 35.402443 0.382093 2.777217 -0.008729 0.010531 -371836.000000 0 0 1
11.648530 3.497538 -32.101353 34.328091 0.291691 2.779432 -0.007236 0.006890 -490085.000000 0 0 1
12.825530 2.774338 -31.915473 34.507804 0.213031 2.751508 -0.002275 -0.002808 -526211.000000 0 0 1
12.669930 1.758638 -30.872183 33.417235 0.137923 2.748791 0.000716 0.002791 129112.000000 0 0 1
11.827530 0.527538 -31.257803 33.424826 0.044573 2.779527 -0.000341 0.003573 549251.000000 0 0 1
12.578030 -0.483262 -32.016163 34.401672 -0.038402 2.767001 0.006115 0.006682 406712.000000 0 0 1
13.232730 -1.400062 -31.193083 33.912737 -0.105411 2.738378 -0.002542 0.000490 -743.482000 0 0 1
13.812630 -2.620162 -31.911083 34.870778 -0.187466 2.726611 0.000690 0.000096 181785.000000 0 0 1
12.858330 -3.607062 -32.292693 34.945179 -0.273494 2.749459 0.012493 0.001882 -195119.000000 0 0 1
13.449430 -4.730562 -32.814533 35.777911 -0.338215 2.731723 0.008446 -0.002716 -43027.400000 0 0 1
12.613330 -6.073562 -32.814923 35.676370 -0.448754 2.738352 0.018186 -0.000561 98091.200000 0 0 1
12.450830 -6.598862 -31.544313 34.548688 -0.487354 2.721471 0.021808 -0.004271 151143.000000 0 0 1
12.086230 -7.955262 -31.585393 34.741908 -0.582124 2.712020 0.042178 -0.007627 -22214.800000 0 0 1
11.952530 -8.592362 -30.220743 33.615249 -0.623281 2.688320 0.046832 -0.009119 525381.000000 0 0 1
13.205030 -8.692262 -29.531343 33.496693 -0.582156 2.650079 0.037357 -0.011048 806812.000000 0 0 1
12.968630 -9.224762 -28.210213 32.389778 -0.618279 2.627950 0.039729 -0.017588 -49688.700000 0 0 1
12.997030 -10.783862 -28.103173 32.787235 -0.692600 2.600483 0.040533 -0.015873 399467.000000 0 0 1
11.859530 -11.444762 -28.697123 33.093139 -0.767602 2.620272 0.029964 -0.013778 494986.000000 0 0 1
12.142730 -12.664662 -29.248053 34.107010 -0.806434 2.601261 0.017599 -0.013023 -45116.100000 0 0 1
-10.026970 -3.543662 -18.170653 21.053985 0.339712 2.612074 0.003173 0.023136 -134633.000000 0 1 0
-10.839770 -2.879862 -19.069353 22.123165 0.259677 2.609926 0.002415 0.016623 -396720.000000 0 1 0
-11.871670 -3.717862 -19.528353 23.154170 0.303496 2.574387 -0.003608 0.019789 -586417.000000 0 1 0
-12.616670 -3.112562 -20.710953 24.450193 0.241873 2.581239 -0.010844 0.008805 -335921.000000 0 1 0
-13.377170 -1.957262 -20.416453 24.486957 0.145283 2.556695 -0.025085 0.008260 22732.100000 0 1 0
-13.977370 -1.437162 -21.578753 25.750240 0.102461 2.564408 -0.024827 0.003315 -63033.800000 0 0 1
-14.667270 -0.078562 -21.280353 25.845471 0.005356 2.538118 -0.020816 0.010513 44254.800000 0 0 1
-13.910270 1.074838 -21.561853 25.681985 -0.077116 2.567290 -0.015728 0.006138 510540.000000 0 0 1
-14.745870 2.180938 -21.168553 25.890245 -0.146837 2.528073 -0.020052 0.018548 506997.000000 0 0 1
-14.282170 3.511838 -21.806953 26.303166 -0.241106 2.548224 -0.004390 0.002587 -147253.000000 0 0 1
-13.220770 4.109638 -21.115653 25.249726 -0.301378 2.561246 -0.000251 0.003550 -22602.700000 0 0 1
-12.794770 5.298738 -21.741053 25.777047 -0.392630 2.574427 -0.001811 -0.004024 -915128.000000 0 0 1
-11.592870 5.898038 -21.049853 24.744247 -0.470634 2.588106 -0.010372 -0.005976 -753610.000000 0 1 0
-11.899770 6.571038 -19.828853 24.040933 -0.504530 2.540637 0.006016 -0.013368 -409348.000000 0 1 0
-10.757970 6.799838 -19.108753 22.959010 -0.563670 2.554038 -0.007313 -0.005255 -1099980.000000 0 1 0
-11.055570 7.353938 -17.685253 22.115022 -0.586972 2.497582 0.001056 -0.001256 -165572.000000 0 1 0
-11.564970 8.647238 -17.695953 22.840096 -0.642034 2.457157 0.002272 -0.007876 228425.000000 0 1 0
-12.742070 8.739538 -16.912753 22.908100 -0.601187 2.401323 0.025914 -0.001240 -101202.000000 0 1 0
-13.270270 10.212838 -16.812053 23.728616 -0.655929 2.358186 0.027104 -0.001724 -236562.000000 0 1 0
-12.616670 11.060338 -15.881853 23.102915 -0.719761 2.328754 0.007281 0.002076 -5829.610000 0 1 0
-13.177670 12.364538 -15.916753 24.080610 -0.753574 2.292918 0.013364 -0.007814 -118498.000000 0 1 0
-12.413270 13.580638 -15.254753 23.900428 -0.830277 2.263036 0.015460 0.005963 -326397.000000 0 1 0
-12.482970 13.526838 -13.843953 23.031607 -0.825510 2.215654 0.029860 -0.002071 142540.000000 0 1 0
-12.142570 14.806838 -13.294953 23.311804 -0.883940 2.177679 0.018074 -0.001443 -765584.000000 0 1 0
-12.677670 14.979038 -11.806353 22.901634 -0.868419 2.112416 0.002942 -0.010403 1188690.000000 0 1 0
-14.074270 15.293838 -11.633553 23.818608 -0.826901 2.081078 0.001205 -0.006459 1526420.000000 0 1 0
-15.067370 14.411838 -12.182353 24.148218 -0.763165 2.099579 0.001970 -0.001151 -572322.000000 0 1 0
-16.417470 14.589238 -11.482753 24.783720 -0.726504 2.052532 -0.015836 -0.001540 -365928.000000 0 1 0
-17.457870 13.887738 -12.123953 25.389697 -0.671991 2.068620 -0.011773 0.002654 -961211.000000 0 0 1
-18.692870 14.173138 -11.595253 26.167749 -0.648735 2.029864 0.017663 -0.004624 -1335240.000000 0 0 1
-19.733670 13.551838 -12.548853 27.028573 -0.601769 2.053619 0.009694 -0.006880 -599432.000000 0 0 1
-19.945370 12.164138 -12.328353 26.415380 -0.547647 2.056365 0.008446 -0.005934 369280.000000 0 0 1
-21.071470 11.723138 -13.068653 27.426784 -0.507706 2.067457 0.019854 -0.002513 -242742.000000 0 0 1
-21.702370 10.514638 -12.431853 27.131189 -0.451165 2.046780 0.024066 -0.007465 -60708.500000 0 0 1
-20.828870 9.380638 -12.437653 26.010255 -0.423159 2.069381 0.015878 -0.007255 682109.000000 0 0 1
-21.261170 8.414538 -11.486253 25.588587 -0.376855 2.036310 0.010138 -0.005286 -224469.000000 0 0 1
-20.514470 7.090338 -11.651553 24.634834 -0.332773 2.063456 0.025421 -0.001859 -154403.000000 0 1 0
-20.555670 6.405838 -12.845953 25.071674 -0.302095 2.108738 0.043090 -0.003492 -62193.500000 0 0 1
-19.464370 5.548638 -12.910653 24.006958 -0.277701 2.138607 0.035406 -0.005971 -666596.000000 0 1 0
-19.421170 4.449438 -13.955553 24.325640 -0.225216 2.181809 0.035828 -0.012070 -774321.000000 0 1 0
-20.126770 3.354038 -13.597453 24.519934 -0.165128 2.158615 0.027114 -0.017368 -140498.000000 0 1 0
-19.836270 2.317038 -14.503753 24.682081 -0.116281 2.198914 0.022479 -0.021980 -533381.000000 0 1 0
-20.481270 0.937338 -14.244753 24.965456 -0.045734 2.178006 0.015576 -0.014926 616372.000000 0 1 0
-21.874970 1.018038 -14.612653 26.326419 -0.046505 2.159227 0.024857 -0.022175 995818.000000 0 0 1
-22.488270 -0.226362 -14.609753 26.818247 0.010065 2.146910 0.021846 -0.026444 -557267.000000 0 0 1
-23.775070 -0.394262 -15.443553 28.353354 0.016581 2.146806 0.039627 -0.021450 -727736.000000 0 0 1
-24.836170 0.068338 -14.684853 28.852814 -0.002752 2.104769 0.056700 -0.025154 -1355850.000000 0 0 1
-26.011980 -0.447262 -15.186053 30.123734 0.017193 2.099162 0.039888 -0.014443 -555403.000000 0 0 1
-27.296480 -0.128262 -14.371453 30.848872 0.004699 2.055410 0.041603 -0.013129 100740.000000 0 0 1
-27.363250 -0.661562 -13.112853 30.350157 0.024172 2.017563 0.048279 -0.014204 838026.000000 0 0 1
-28.660680 -0.355562 -12.570053 31.298039 0.012405 1.984086 0.051487 -0.010562 719221.000000 0 0 1
-28.862940 -0.970562 -11.158653 30.960084 0.033614 1.939515 0.044927 -0.015374 -407899.000000 0 0 1
-29.178600 -2.357762 -11.094153 31.305430 0.080629 1.933052 0.053095 -0.013147 1044800.000000 0 0 1
-28.104360 -3.271062 -11.418353 30.511206 0.115869 1.954368 0.059327 -0.014551 281551.000000 0 0 1
-28.466660 -4.734262 -11.056053 30.903078 0.164801 1.936670 0.043897 -0.013493 -204961.000000 0 0 1
-29.462280 -5.249362 -11.929253 32.216282 0.176322 1.950114 0.051869 -0.009360 416018.000000 0 0 1
-29.961690 -6.513062 -11.416353 32.717823 0.214050 1.927229 0.052580 -0.011295 -166163.000000 0 0 1
-29.151750 -7.752262 -11.852553 32.409954 0.259912 1.945189 0.042348 -0.010277 288424.000000 0 0 1
-27.785930 -7.640262 -11.475153 31.017908 0.268337 1.949754 0.024529 -0.005116 369506.000000 0 0 1
-26.968540 -8.595962 -12.151353 30.803378 0.308560 1.976299 0.031081 -0.005430 206779.000000 0 0 1
-25.482650 -8.444462 -11.742453 29.301187 0.319992 1.983132 0.039560 -0.014060 -295178.000000 0 0 1
-24.890870 -7.181562 -12.166953 28.621058 0.280893 2.009874 0.030598 -0.006967 809648.000000 0 0 1
-23.540670 -7.036962 -11.750353 27.235138 0.290473 2.016886 0.024855 -0.018086 52984.400000 0 0 1
-23.236370 -6.961362 -10.181553 26.306909 0.291080 1.968204 0.004772 -0.015852 -727044.000000 0 0 1
-23.572070 -5.737962 -9.511453 26.058289 0.238778 1.944436 0.004696 -0.009570 1144670.000000 0 0 1
-24.957570 -5.349262 -9.470453 27.224701 0.211140 1.926087 0.012849 -0.009319 280664.000000 0 0 1
-25.282780 -3.964662 -8.863253 27.083108 0.155546 1.904200 0.021446 -0.018942 -497065.000000 0 0 1
-25.056970 -3.968462 -7.512153 26.458134 0.157073 1.858682 0.007103 -0.009828 476168.000000 0 0 1
-25.100730 -2.681762 -6.932353 26.178159 0.106436 1.838808 0.037006 -0.014712 -165351.000000 0 0 1
-24.959770 -2.796962 -5.400053 25.689953 0.111593 1.782577 0.027511 -0.008818 787356.000000 0 0 1
-23.673370 -3.260762 -4.944453 24.403045 0.136878 1.774825 -0.012438 -0.003920 875613.000000 0 1 0
-23.565870 -3.131462 -3.521853 24.032472 0.132107 1.717872 -0.029728 0.004419 -232530.000000 0 1 0
-22.295670 -3.778262 -2.933453 22.803011 0.167867 1.699797 -0.034807 0.004963 -109482.000000 0 1 0
-22.354670 -5.231062 -2.927853 23.144494 0.229867 1.697639 -0.018587 0.005711 -294770.000000 0 1 0
-21.199570 -5.867662 -2.526953 22.141290 0.270022 1.685174 -0.018880 -0.004337 -848359.000000 0 1 0
-21.441570 -7.351862 -2.432753 22.797129 0.330317 1.677713 0.001293 0.002670 -52354.600000 0 1 0
-22.185970 -7.725662 -1.306053 23.528895 0.335091 1.626333 0.014056 0.018202 196095.000000 0 1 0
-22.801070 -8.970962 -1.436653 24.544468 0.374843 1.629362 0.011492 0.006483 -148182.000000 0 1 0
-22.764570 -9.861762 -0.180853 24.809528 0.408801 1.578086 -0.013256 -0.001831 -26639.200000 0 1 0
-21.481070 -10.208162 0.287347 23.784985 0.443625 1.558715 -0.027865 0.007808 -52220.800000 0 1 0
-21.624370 -11.049462 1.398947 24.324083 0.472387 1.513252 -0.047663 0.009969 -571641.000000 0 1 0
-20.350670 -11.571162 2.047547 23.499660 0.517003 1.483555 -0.042207 0.005095 -507502.000000 0 1 0
-19.712970 -12.535862 1.234747 23.393880 0.566413 1.517991 -0.037096 0.012798 -288134.000000 0 1 0
-18.496370 -12.914562 1.801947 22.630701 0.609531 1.491088 -0.058537 0.013786 -1053360.000000 0 1 0
-17.866270 -14.070462 0.899047 22.759389 0.667099 1.531284 -0.046348 0.019565 39082.100000 0 1 0
-18.718170 -15.212462 0.718947 24.131013 0.682444 1.540998 -0.034394 0.019467 607022.000000 0 1 0
-18.012570 -16.353462 0.234147 24.329883 0.737158 1.561172 -0.039138 0.013163 134563.000000 0 1 0
-17.067870 -17.125962 1.180447 24.207524 0.787097 1.522013 -0.022797 0.015859 -70703.900000 0 1 0
-15.736470 -16.629162 1.135047 22.922780 0.812973 1.521260 -0.016943 0.018102 -153587.000000 0 1 0
-14.887670 -17.192062 2.071247 22.836370 0.857108 1.479972 0.003475 0.010611 -191666.000000 0 1 0
-15.141570 -16.825462 3.554847 22.912884 0.838025 1.415021 0.016704 -0.001800 -675116.000000 0 1 0
-14.972170 -15.427762 3.884547 21.846543 0.800384 1.392035 0.009555 -0.006127 418922.000000 0 1 0
-14.029770 -15.247362 4.949647 21.302946 0.826963 1.336308 0.003679 -0.009057 154329.000000 0 1 0
-14.580470 -15.636062 6.347747 22.301803 0.820318 1.282177 0.007826 -0.006373 -71383.400000 0 1 0
-15.612870 -14.824562 6.937247 22.619787 0.759505 1.259084 0.006556 -0.000428 614335.000000 0 1 0
-15.797570 -15.054962 8.328847 23.357757 0.761333 1.206194 0.006669 0.001335 -58778.000000 0 1 0
-16.521470 -16.383662 8.736747 24.853855 0.781210 1.211597 -0.004793 0.010542 -366658.000000 0 1 0
-15.800370 -17.562662 8.443447 25.087658 0.838171 1.227537 -0.001479 0.002022 -108301.000000 0 0 1
-16.375770 -18.819462 8.885247 26.481798 0.854719 1.228636 0.000715 0.003933 6205.900000 0 0 1
-16.164470 -19.087362 10.401647 27.088960 0.868124 1.176692 0.012072 0.005576 19038.400000 0 0 1
-14.832070 -19.469062 10.634047 26.685532 0.919768 1.160921 0.015783 0.008710 -219718.000000 0 0 1
-14.584370 -19.769462 12.003447 27.342608 0.935199 1.116309 0.010302 0.008302 612630.000000 0 0 1
-13.150070 -20.285662 12.350447 27.147117 0.995656 1.098486 -0.001113 0.013664 858712.000000 0 0 1
-12.046070 -19.412462 12.123047 25.863483 1.015416 1.082941 0.003915 0.007762 -80116.100000 0 0 1
-10.883170 -20.100162 12.521547 26.062407 1.074544 1.069635 0.003264 0.010031 -251106.000000 0 0 1
-9.726370 -19.211862 12.945947 25.125594 1.102146 1.029498 0.006062 0.004603 -90653.200000 0 0 1
-9.118870 -18.450162 11.894147 23.770423 1.111765 1.046763 0.000517 -0.003917 -265051.000000 0 1 0
-7.949270 -17.845162 12.375247 23.125472 1.151726 1.006129 0.007677 0.000662 95349.300000 0 1 0
-6.988170 -17.225362 11.324147 21.766578 1.185394 1.023648 0.008514 0.002778 531844.000000 0 1 0
-6.178070 -18.124762 10.583947 21.879111 1.242284 1.065866 0.001640 -0.000004 -69339.800000 0 1 0
-5.629270 -17.621862 9.384747 20.743485 1.261594 1.101320 0.006195 0.002590 784081.000000 0 1 0
-4.500170 -18.456762 8.649747 20.873948 1.331640 1.143535 0.003394 0.002312 842269.000000 0 1 0
-3.253170 -18.557262 9.287547 21.005086 1.397255 1.112794 0.005744 0.002302 -473435.000000 0 1 0
-2.312670 -19.255162 8.502847 21.175649 1.451262 1.157600 0.007708 -0.001530 -79929.600000 0 1 0
-1.001270 -19.390662 9.326347 21.540220 1.519205 1.123007 0.004364 -0.004002 -221816.000000 0 1 0
-0.028870 -19.740362 8.356447 21.436253 1.569334 1.170352 0.010310 -0.003956 -1156130.000000 0 1 0
1.172930 -19.967262 9.010147 21.937413 -1.512121 1.147552 0.013086 -0.008458 -629483.000000 0 1 0
2.293130 -20.435262 8.059547 22.086527 -1.459049 1.197262 0.022457 -0.020792 -310139.000000 0 1 0
2.087730 -21.791762 7.637947 23.185723 -1.475284 1.235102 0.016020 -0.009879 -77115.800000 0 1 0
2.394330 -22.813562 8.576347 24.489695 -1.466227 1.213009 0.021694 -0.016210 -133512.000000 0 1 0
1.822330 -24.214462 8.263947 25.650612 -1.495680 1.242772 0.008639 -0.006091 -120160.000000 0 0 1
1.914630 -25.072532 9.365247 26.832919 -1.494581 1.214270 0.010126 -0.004691 28308.200000 0 0 1
1.474530 -26.371492 8.909547 27.874897 -1.514941 1.245461 0.008205 -0.002096 -669304.000000 0 0 1
1.572530 -27.451942 10.030947 29.269470 -1.513576 1.220996 0.011419 -0.005735 143356.000000 0 0 1
0.684730 -27.351252 11.122547 29.534233 -1.545767 1.184675 -0.000624 -0.004029 727127.000000 0 0 1
-0.725070 -27.432372 10.827247 29.500679 1.544371 1.194996 -0.017676 0.007971 658376.000000 0 0 1
-1.534270 -27.647232 12.102247 30.218998 1.515359 1.158751 -0.016472 0.002828 -223835.000000 0 0 1
-1.143870 -28.875292 12.722147 31.574419 1.531203 1.156085 -0.034433 0.000421 87633.500000 0 0 1
-1.277570 -28.798912 14.155347 32.115158 1.526464 1.114342 -0.036436 0.002009 -451274.000000 0 0 1
-0.701770 -30.074812 14.839847 33.544118 1.547466 1.112526 -0.054977 0.015892 132455.000000 0 0 1
-0.757970 -29.978122 16.292747 34.127935 1.545518 1.073101 -0.049798 0.013207 -20509.000000 0 0 1
-0.394070 -31.201182 16.906647 35.489488 1.558167 1.074258 -0.057772 0.016789 -48818.100000 0 0 1
-0.724670 -31.079752 18.462247 36.157029 1.547484 1.034899 -0.045012 0.016868 647891.000000 0 0 1
-2.120870 -31.084382 18.757647 36.367379 1.502672 1.028876 -0.060493 0.016047 489448.000000 0 0 1
-2.475970 -30.644802 20.059547 36.709941 1.490176 0.992696 -0.038631 0.012982 -37973.700000 0 0 1
-3.940670 -30.531522 20.533347 37.004339 1.442437 0.982565 -0.023467 0.003439 -103606.000000 0 0 1
-4.676870 -29.544822 19.822547 35.884579 1.413802 0.985559 -0.021503 0.000188 364107.000000 0 0 1
-5.903770 -29.162922 20.442447 36.100196 1.371055 0.968823 0.000175 -0.002165 530756.000000 0 0 1
-5.742370 -28.121732 21.594347 35.918275 1.369369 0.925785 0.009732 -0.003355 -30904.500000 0 0 1
-4.988970 -28.610012 22.743347 36.887430 1.398154 0.906429 0.005580 -0.002131 445171.000000 0 0 1
-5.055870 -27.668052 23.789847 36.838021 1.390057 0.868731 0.012707 -0.010300 95873.600000 0 0 1
-4.022870 -27.954612 24.953447 37.687111 1.427870 0.847150 0.025989 -0.012587 351949.000000 0 0 1
-4.218870 -29.015762 25.865947 39.099368 1.426409 0.847921 0.022044 -0.007868 -18678.000000 0 0 1
-3.692570 -30.218482 25.336547 39.607226 1.449203 0.876695 0.010236 -0.005138 -12450.400000 0 0 1
-3.924370 -31.392452 26.327647 41.158617 1.446432 0.876736 0.016053 -0.000277 128446.000000 0 0 1
-3.260570 -31.291802 27.573847 41.834498 1.466972 0.851152 0.017741 -0.019925 202906.000000 0 0 1
-3.598570 -32.466952 28.290647 43.213579 1.460409 0.857050 0.028126 -0.018921 -6577.970000 0 0 1
-3.179770 -32.311712 29.767747 44.048569 1.472703 0.828755 0.034128 -0.024176 -423564.000000 0 0 1
-1.841970 -32.678102 29.977447 44.383539 1.514489 0.829265 0.025949 -0.026389 -221958.000000 0 0 1
-1.572870 -32.853522 31.319847 45.417625 1.522958 0.809864 0.021901 -0.036275 -400437.000000 0 0 1
-28.081310 3.259238 -10.509553 30.160128 -0.115547 1.926722 0.045325 -0.009957 -133964.000000 0 0 1
-29.038970 2.868438 -11.451853 31.347004 -0.098460 1.944779 0.029879 -0.019167 -224919.000000 0 0 1
-29.619060 3.952138 -12.097553 32.237538 -0.132649 1.955477 0.012674 -0.014120 -436498.000000 0 0 1
-30.530910 3.549938 -13.242753 33.468030 -0.115754 1.977608 0.019549 -0.008876 -305238.000000 0 0 1
-31.649780 2.818938 -12.782053 34.249611 -0.088832 1.953255 0.027643 -0.010936 602599.000000 0 0 1
-32.457900 2.377438 -13.894153 35.386649 -0.073116 1.974295 0.031246 -0.006118 475707.000000 0 0 1
-33.356110 1.171338 -13.658053 36.063063 -0.035102 1.959217 0.008678 -0.002405 486556.000000 0 0 1
-32.507420 0.000338 -13.666953 35.263550 -0.000010 1.968786 0.031996 -0.005750 1047820.000000 0 0 1
-33.107480 -1.076162 -12.919253 35.555175 0.032494 1.942666 0.028609 -0.003546 476790.000000 0 0 1
-32.156620 -2.315462 -12.854253 34.707944 0.071882 1.950187 0.002306 -0.006370 74786.700000 0 0 1
-32.219260 -2.992862 -14.092453 35.293557 0.092625 1.981541 0.021343 -0.007006 -39717.500000 0 0 1
-31.844480 -4.292462 -13.954653 35.031821 0.133987 1.980505 0.032108 -0.006142 -23478.800000 0 0 1
-33.033090 -5.272662 -14.118753 36.308748 0.158282 1.970182 0.025129 -0.010153 308409.000000 0 0 1
-32.624450 -6.556162 -13.704553 35.988231 0.198317 1.961465 0.032477 -0.016330 20268.400000 0 0 1
-33.440680 -7.587562 -14.214753 37.120201 0.223119 1.963771 0.034494 -0.008089 -814696.000000 0 0 1
-33.259430 -8.931062 -13.482953 36.983017 0.262339 1.943969 0.032734 -0.004851 -592590.000000 0 0 1
-31.962780 -9.434062 -13.390953 35.915713 0.287008 1.952868 0.024874 -0.006034 -121350.000000 0 0 1
-31.217850 -9.683362 -14.575653 35.787865 0.300776 1.990269 0.015384 -0.010286 -1124930.000000 0 0 1
-29.974950 -10.477062 -14.241653 34.800734 0.336254 1.992411 0.010647 -0.007774 -614296.000000 0 0 1
-30.260140 -11.881562 -14.015953 35.401900 0.374152 1.977855 0.007517 -0.005320 -100179.000000 0 0 1
-29.037840 -12.516762 -13.805753 34.503105 0.406984 1.982456 0.005021 -0.009330 -618586.000000 0 0 1
-29.107810 -14.027362 -14.155753 35.276292 0.449072 1.983713 0.000650 -0.010120 -142744.000000 0 0 1
-29.168660 -14.169162 -15.555253 35.965841 0.452196 2.018061 -0.004713 -0.006661 -14177.900000 0 0 1
-29.324020 -15.504762 -16.024953 36.838769 0.486374 2.020837 -0.004230 -0.004653 13620.500000 0 0 1
-28.186320 -16.547662 -15.729653 36.272796 0.530866 2.019334 -0.014023 -0.005500 421517.000000 0 0 1
-26.968840 -16.193762 -16.356853 35.455647 0.540759 2.050293 -0.009524 -0.012260 320164.000000 0 0 1
-26.039160 -17.323062 -16.313653 35.274092 0.587035 2.051589 0.001228 -0.014058 959376.000000 0 0 1
-24.644570 -16.959062 -16.887053 34.353124 0.602726 2.084691 0.005051 -0.023676 262894.000000 0 0 1
-24.711670 -16.671562 -18.311053 34.984314 0.593505 2.121641 0.006934 -0.024261 269405.000000 0 0 1
-23.441670 -16.360562 -18.873853 34.254959 0.609333 2.154336 -0.008153 -0.014612 -246154.000000 0 0 1
-23.612070 -15.602262 -20.251953 34.800891 0.583913 2.191906 0.002631 -0.017002 -103710.000000 0 0 1
-24.088170 -16.369862 -21.356753 36.115415 0.596890 2.203525 0.007039 -0.024282 -445704.000000 0 0 1
-25.452850 -16.581862 -21.238853 37.066084 0.577411 2.180958 0.013212 -0.025658 -1184420.000000 0 0 1
-25.995540 -17.841962 -21.941253 38.412527 0.601504 2.178764 0.018712 -0.020350 -128392.000000 0 0 1
-25.585050 -17.674862 -23.285153 38.848344 0.604544 2.213530 0.024452 -0.010016 211108.000000 0 0 1
-26.166380 -18.640062 -24.121553 40.174378 0.618978 2.214824 0.014959 -0.000001 -456311.000000 0 0 1
-25.420150 -18.837862 -25.490203 40.630032 0.637755 2.248972 0.028745 0.003673 1386410.000000 0 0 1
-24.063270 -19.348062 -25.458843 40.019259 0.677205 2.260314 0.031739 -0.010829 958634.000000 0 0 1
-23.976270 -20.671662 -24.948453 40.306382 0.711518 2.238227 0.024783 -0.002576 -711927.000000 0 0 1
-22.526770 -21.174962 -24.901153 39.697629 0.754475 2.248840 0.032363 -0.001052 -148831.000000 0 0 1
-21.939670 -21.299562 -26.181403 40.255264 0.770595 2.278887 0.041362 -0.011211 -656198.000000 0 0 1
-20.614670 -21.711962 -26.028403 39.671799 0.811317 2.286427 0.037947 -0.007226 -451765.000000 0 0 1
-19.810470 -21.589462 -27.350883 40.082794 0.828343 2.321782 0.040302 -0.011919 -186077.000000 0 0 1
-19.895570 -22.781262 -28.182383 41.340855 0.852913 2.320891 0.063441 -0.017840 -278899.000000 0 0 1
-20.377770 -22.344362 -29.440533 42.205082 0.831398 2.342781 0.066071 -0.021924 102835.000000 0 0 1
-19.371970 -22.433162 -30.626723 42.620607 0.858493 2.372568 0.067838 -0.027254 243233.000000 0 0 1
-18.963470 -23.736562 -31.016573 43.417339 0.896718 2.366537 0.070710 -0.037137 178708.000000 0 0 1
-18.174770 -23.729462 -32.209833 43.941813 0.917187 2.393534 0.062603 -0.034764 94659.600000 0 0 1
-17.723270 -25.120532 -32.683783 44.870760 0.956369 2.386778 0.055513 -0.027082 -248689.000000 0 0 1
-17.324370 -25.252872 -34.030063 45.780853 0.969504 2.408824 0.035426 -0.020536 -32570.200000 0 0 1
-18.289370 -24.963962 34.229069 46.144660 0.938504 0.735079 0.047236 -0.015677 -114460.000000 0 0 1
-17.565170 -25.054162 32.842321 44.887239 0.959341 0.750038 0.032480 -0.009373 577097.000000 0 0 1
-16.622870 -23.979362 32.639821 43.779990 0.964638 0.729449 0.026286 -0.005563 200139.000000 0 0 1
-16.196870 -23.935162 31.280481 42.587546 0.975881 0.745869 0.023062 -0.003431 272174.000000 0 0 1
-15.300870 -22.675862 31.021331 41.359815 0.977208 0.722681 0.013535 0.006403 17468.800000 0 0 1
-16.050770 -21.490162 30.785531 40.831399 0.929289 0.716716 0.013053 0.000878 -293638.000000 0 0 1
-15.356770 -20.289962 30.583131 39.784932 0.922916 0.693972 0.017769 -0.003873 -492344.000000 0 0 1
-14.900570 -19.574962 31.852471 40.246565 0.920162 0.657646 0.020530 -0.009282 -41897.100000 0 0 1
-14.370070 -18.294562 31.569331 39.214953 0.904970 0.635065 0.026392 -0.014606 -85492.600000 0 0 1
-13.760670 -17.823462 32.746401 39.741145 0.913330 0.602375 0.025992 -0.014531 -326799.000000 0 0 1
-13.170970 -16.441462 32.552861 38.774797 0.895396 0.574367 0.029443 -0.014630 384082.000000 0 0 1
-12.069370 -16.383762 31.626101 37.607281 0.935883 0.571747 0.038321 -0.020158 229688.000000 0 0 1
-11.760370 -15.091762 31.247671 36.639931 0.908832 0.549413 0.037839 -0.026020 973968.000000 0 0 1
-10.235770 -15.007262 30.842991 35.794957 0.972216 0.532270 0.043314 -0.028912 1084460.000000 0 0 1
-9.846070 -13.650262 30.808301 35.105927 0.945911 0.500003 0.060774 -0.029157 84114.200000 0 0 1
-8.478870 -13.309762 31.020251 34.803692 1.003585 0.470610 0.045872 -0.028060 407145.000000 0 0 1
-8.252370 -11.849362 30.644271 33.875955 0.962464 0.440350 0.043013 -0.029308 -95452.200000 0 0 1
-9.015470 -10.945462 31.414771 34.466936 0.881787 0.424010 0.038666 -0.026700 106212.000000 0 0 1
-8.612670 -9.563562 31.300841 33.843499 0.837666 0.390102 0.024115 -0.018430 94682.200000 0 0 1
-9.398270 -8.590562 32.258331 34.680328 0.740528 0.375942 0.008438 -0.016937 92415.200000 0 0 1
-10.753770 -8.290962 32.013881 34.774591 0.656795 0.401153 0.010121 -0.019134 -32806.900000 0 0 1
-11.430470 -7.641362 33.095841 35.838258 0.589276 0.393747 0.015453 -0.017622 94062.000000 0 0 1
-11.069170 -6.170862 33.454785 35.774693 0.508569 0.362108 0.000003 -0.011067 -522980.000000 0 0 1
-11.461870 -5.371662 32.393691 34.779023 0.438259 0.372516 0.012577 -0.015276 168537.000000 0 0 1
-11.719570 -4.019662 32.783331 35.046437 0.330414 0.361336 0.003805 -0.010938 -470654.000000 0 0 1
-11.259070 -2.942962 31.808761 33.870709 0.255666 0.350728 -0.000323 -0.002602 -309254.000000 0 0 1
-9.926470 -2.587362 32.066051 33.666910 0.254979 0.309618 0.005439 -0.006323 84774.600000 0 0 1
-9.394170 -1.509362 31.261961 32.677803 0.159309 0.295445 -0.000787 0.001142 629146.000000 0 0 1
-7.878370 -1.160562 31.443051 32.435799 0.146258 0.248048 0.003830 0.007368 526802.000000 0 0 1
-7.573770 -0.808462 32.800221 33.672987 0.106342 0.228174 0.010380 -0.008314 819625.000000 0 0 1
-6.220670 -0.327662 32.924151 33.508265 0.052624 0.186991 0.006649 -0.008558 774951.000000 0 0 1
-5.959470 0.601138 34.138475 34.659949 -0.100531 0.173686 0.019290 -0.013140 -354248.000000 0 0 1
-6.720170 1.800738 34.173138 34.874155 -0.261810 0.200843 0.029141 -0.012761 168909.000000 0 0 1
-6.250470 2.794538 33.264659 33.961969 -0.420433 0.202991 0.033140 -0.013442 -573195.000000 0 0 1
-7.105770 4.047438 33.425285 34.411094 -0.517766 0.239941 0.031584 -0.008401 -81231.400000 0 0 1
-8.363570 3.906638 32.788491 34.063121 -0.436984 0.274428 0.007036 0.007742 441677.000000 0 0 1
-9.275070 4.883838 33.330591 34.940050 -0.484666 0.304701 -0.009199 0.015039 277980.000000 0 0 1
-10.631970 5.009838 32.612081 34.665330 -0.440347 0.345904 -0.022380 0.022978 -182858.000000 0 0 1
-11.368870 6.133438 33.043051 35.478352 -0.494741 0.372671 -0.016785 0.023074 -412005.000000 0 0 1
-12.405870 6.276638 32.111251 34.991916 -0.468389 0.408604 -0.022051 0.023894 -491913.000000 0 0 1
-13.034870 7.657238 32.422271 35.773520 -0.531135 0.436303 -0.009591 0.013392 -40267.800000 0 0 1
-13.715870 7.812938 33.683278 37.198525 -0.517787 0.438239 0.001928 0.012386 210953.000000 0 0 1
-14.308770 9.087338 33.637115 37.666644 -0.565821 0.466782 0.005915 0.015329 -571653.000000 0 0 1
-15.131970 9.336038 -34.362391 38.689947 -0.552807 2.664095 0.019372 0.012860 -651046.000000 0 0 1
-14.454370 9.451138 -33.156983 37.385001 -0.579084 2.661400 0.029856 0.003679 -701335.000000 0 0 1
-15.270670 9.866338 -32.108953 36.898819 -0.573627 2.626382 0.039805 -0.002839 -1515450.000000 0 0 1
-14.551670 10.155938 -30.765663 35.516477 -0.609330 2.618416 0.053997 -0.011635 127006.000000 0 0 1
-13.670570 11.246938 -30.819983 35.542220 -0.688437 2.620222 0.050617 -0.017049 462948.000000 0 0 1
-12.396670 11.020438 -31.437923 35.545330 -0.726695 2.656102 0.052269 -0.025799 -204332.000000 0 0 1
-11.557270 12.279438 -31.466743 35.700294 -0.815685 2.649644 0.043601 -0.023060 -399460.000000 0 0 1
-12.091170 13.287738 -32.211343 36.882665 -0.832511 2.632827 0.033279 -0.019337 -582789.000000 0 0 1
-11.171370 14.304338 -32.312693 37.061081 -0.907762 2.629818 0.027330 -0.020905 -519082.000000 0 0 1
-11.361570 15.475138 -31.356113 36.766438 -0.937496 2.592208 0.037902 -0.022538 217341.000000 0 0 1
-12.452070 16.259338 -31.859613 37.874200 -0.917234 2.570287 0.031915 -0.017582 419573.000000 0 0 1
-12.819070 17.189538 -30.869973 37.586753 -0.930022 2.534481 0.000974 -0.009471 -269430.000000 0 0 1
-14.247370 17.699038 -31.156223 38.561039 -0.893026 2.511498 -0.021539 -0.016761 -279306.000000 0 0 1
-14.403870 18.481438 -32.340053 39.936375 -0.908762 2.514589 -0.009374 -0.018170 -65339.300000 0 0 1
-15.637270 19.164238 -32.437443 40.791910 -0.886399 2.490122 -0.017882 -0.015163 111808.000000 0 0 1
-15.895570 20.410338 -31.508823 40.768333 -0.909117 2.454156 -0.028136 -0.018137 -514117.000000 0 0 1
-15.225070 21.561838 -31.924213 41.423073 -0.955980 2.450714 -0.015558 -0.017766 51060.400000 0 0 1
-15.691470 22.790338 -31.322413 41.793723 -0.967821 2.418031 -0.023202 -0.014386 85305.500000 0 0 1
-17.025270 23.357838 -31.855173 43.013956 -0.940944 2.404726 -0.013742 -0.019472 580815.000000 0 0 1
-18.202070 22.659338 -31.435253 42.812802 -0.894051 2.395356 -0.007001 -0.015496 452494.000000 0 0 1
-19.218770 22.691638 -32.431973 44.001186 -0.868073 2.399521 0.016887 -0.017774 376771.000000 0 0 1
-20.482670 21.874638 -31.923683 43.785398 -0.818249 2.387794 0.018322 -0.023051 444726.000000 0 0 1
-21.283570 22.696138 -31.053383 43.959272 -0.817506 2.355213 0.049563 -0.027905 619633.000000 0 0 1
-22.331170 23.477538 -31.600123 45.259736 -0.810418 2.343669 0.047300 -0.021525 437181.000000 0 0 1
-23.639670 22.736138 -32.028373 45.843021 -0.765918 2.344310 0.051994 -0.033839 -139507.000000 0 0 1
-23.421370 21.948538 -33.132193 46.130696 -0.752947 2.372043 0.064874 -0.024442 -618465.000000 0 0 1
-24.610570 21.490638 -33.660703 46.910239 -0.717825 2.371083 0.081174 -0.027751 -839714.000000 0 0 1
-24.451470 20.470138 34.423604 46.924252 -0.697001 0.747193 0.078824 -0.015293 -144964.000000 0 0 1
-24.053270 19.211138 -34.403258 46.165049 -0.673942 2.411666 0.077091 -0.021351 332653.000000 0 0 1
-23.671670 18.354738 33.736609 45.115442 -0.659553 0.726078 0.068301 -0.025502 -105537.000000 0 0 1
-23.240170 16.891138 33.999114 44.512423 -0.628492 0.701598 0.051098 -0.009641 -721795.000000 0 0 1
-24.285870 16.049438 34.309454 44.994739 -0.583968 0.703595 0.059073 -0.006595 -274270.000000 0 0 1
-24.694270 15.357038 33.143181 44.092131 -0.556357 0.720190 0.056859 -0.010614 -345138.000000 0 0 1
-25.640090 14.148838 33.301065 44.345966 -0.504243 0.721315 0.040579 -0.001072 -418026.000000 0 0 1
-27.000690 14.512738 33.335119 45.286719 -0.493192 0.743520 0.036653 0.004550 211502.000000 0 0 1
-27.949920 13.435338 33.569729 45.701565 -0.448083 0.745805 0.011521 0.007691 660841.000000 0 0 1
-27.826560 12.398038 -34.546558 46.059672 -0.419145 2.418918 0.001218 0.004183 -210411.000000 0 0 1
-26.770690 11.452938 34.509167 45.152212 -0.404254 0.700864 0.001664 -0.005486 193860.000000 0 0 1
-27.276910 10.125038 34.531759 45.155161 -0.355430 0.700165 -0.000707 0.008316 -63116.900000 0 0 1
-26.142100 9.037138 34.498420 44.217872 -0.332833 0.675824 -0.003866 -0.001282 996257.000000 0 0 1
-25.290730 8.947238 33.324969 42.781160 -0.340034 0.677785 -0.003012 -0.002306 229960.000000 0 0 1
-24.393170 10.000038 33.123161 42.334044 -0.389056 0.672248 -0.003376 -0.009124 -891857.000000 0 0 1
-23.103670 9.462038 32.461731 40.952090 -0.388709 0.655611 0.011456 -0.011272 -19039.900000 0 0 1
-23.313870 9.078538 31.110781 39.922889 -0.371340 0.677293 0.018930 -0.007644 240768.000000 0 0 1
-22.037370 9.153738 30.502971 38.728127 -0.393689 0.663863 0.027211 -0.006281 392770.000000 0 0 1
-22.010370 9.237438 28.967601 37.535430 -0.397361 0.689223 0.043860 -0.016115 -176090.000000 0 0 1
-22.441970 10.463038 28.549911 37.791726 -0.436266 0.714450 0.042716 -0.011009 9792.230000 0 0 1
-22.356570 10.579338 27.156701 36.731798 -0.441986 0.738730 0.038606 -0.011210 -702319.000000 0 0 1
-22.842570 11.926538 26.577721 37.018921 -0.481186 0.769944 0.032716 -0.006480 551643.000000 0 0 1
-24.188870 12.338738 26.804061 38.154994 -0.471695 0.791886 0.031625 0.000024 481591.000000 0 0 1
-25.117030 11.649238 25.966311 37.958125 -0.434269 0.817458 0.032705 0.004277 -172860.000000 0 0 1
-26.526250 12.264038 26.147411 39.213973 -0.433065 0.840906 0.019289 0.011179 -38809.700000 0 0 1
-26.500700 13.627638 25.662831 39.326588 -0.474972 0.859843 0.029086 0.005416 -27217.300000 0 0 1
-27.714280 14.308738 25.879851 40.528853 -0.476598 0.878179 0.011601 0.002466 -103153.000000 0 0 1
-27.714560 15.707838 25.198061 40.617426 -0.515629 0.901575 0.007472 0.001895 168240.000000 0 0 1
-26.815280 16.678238 25.756571 40.750752 -0.556416 0.886599 0.020022 0.000271 315283.000000 0 0 1
-26.593140 17.776938 24.939491 40.560976 -0.589256 0.908583 0.015568 -0.005285 -640370.000000 0 0 1
-21.666170 -9.006062 32.519881 40.100807 0.393945 0.625017 0.018565 -0.009344 423724.000000 0 0 1
-20.783570 -8.772362 31.403171 38.666138 0.399396 0.622948 0.014513 -0.019216 622154.000000 0 0 1
-21.413770 -9.191962 30.207121 38.151171 0.405469 0.657088 0.012698 -0.015034 -81284.000000 0 0 1
-20.445870 -8.978862 29.053031 36.643310 0.413797 0.655308 0.006985 -0.012472 -752182.000000 0 0 1
-20.064070 -7.604462 28.852391 35.956296 0.362281 0.639441 0.008006 -0.013105 30685.200000 0 0 1
-18.812570 -7.221562 29.393491 35.637635 0.366523 0.600969 0.007582 -0.014016 421989.000000 0 0 1
-17.485670 -7.808062 28.805911 34.590389 0.419973 0.586700 0.017684 -0.012650 -515044.000000 0 0 1
-17.216770 -9.184762 29.086461 35.025694 0.490070 0.590913 0.016262 -0.007084 124668.000000 0 0 1
-16.764370 -9.502662 30.399841 35.992985 0.515678 0.564970 0.025143 -0.016019 -19789.200000 0 0 1
-15.292470 -9.115962 30.719431 35.505546 0.537553 0.525245 0.022682 -0.014888 -296053.000000 0 0 1
-14.304570 -9.708062 29.940621 34.573226 0.596266 0.523638 0.023655 -0.012473 -1553040.000000 0 0 1
-13.078270 -9.139562 30.158181 34.118743 0.609944 0.486621 0.018718 -0.019682 -1496170.000000 0 0 1
-11.940470 -9.971062 29.617061 33.453956 0.695759 0.483640 0.031159 -0.019770 -768049.000000 0 0 1
-11.635670 -9.773862 28.230551 32.060586 0.698655 0.493801 0.049465 -0.016442 570239.000000 0 0 1
-10.503470 -10.572962 27.834901 31.573598 0.788695 0.491581 0.049204 -0.014574 639381.000000 0 0 1
-10.006370 -10.423462 26.385821 30.083011 0.805811 0.501005 0.044164 -0.011196 346717.000000 0 0 1
-11.076370 -10.681762 25.503001 29.785719 0.767264 0.542897 0.043213 -0.006755 686689.000000 0 0 1
-10.459570 -10.696162 24.193781 28.445553 0.796581 0.553805 0.042368 -0.007811 -199794.000000 0 0 1
-11.415270 -11.017462 23.110401 28.031830 0.767667 0.601594 0.035093 -0.001435 -1030890.000000 0 0 1
-11.779970 -12.360762 23.010401 28.653703 0.809452 0.638398 0.046925 -0.000194 1276830.000000 0 0 1
-13.090670 -12.653762 22.475701 28.924738 0.768429 0.680846 0.033408 0.008600 873374.000000 0 0 1
-14.338970 -12.406862 23.326601 30.061048 0.713284 0.682538 0.020570 0.004223 -404820.000000 0 0 1
-15.490870 -13.065762 22.832801 30.528969 0.700679 0.725894 0.009718 0.013172 -135897.000000 0 0 1
-16.531570 -13.005862 23.759201 31.732395 0.666596 0.724642 0.005783 0.014066 -209052.000000 0 0 1
-17.711370 -13.953462 23.427301 32.515076 0.667273 0.766265 0.011990 0.007884 -215565.000000 0 0 1
-17.306170 -15.324462 23.492101 32.957874 0.724741 0.777326 0.007888 0.011179 408352.000000 0 0 1
-18.364970 -16.267162 23.564501 34.017325 0.724898 0.805542 0.012043 0.010390 846897.000000 0 0 1
-19.387070 -16.293562 24.798771 35.444572 0.698915 0.795890 0.002986 0.008556 419935.000000 0 0 1
-18.783270 -16.738462 25.950401 36.144303 0.727897 0.769920 0.007314 0.011722 -211988.000000 0 0 1
-19.687370 -16.752862 27.029421 37.401076 0.705042 0.763109 0.006207 0.008680 -409269.000000 0 0 1
-19.264870 -17.537362 28.314431 38.475983 0.738492 0.743803 0.007245 0.008973 -232273.000000 0 0 1
-19.302670 -18.933962 28.116661 39.008135 0.775756 0.765855 0.017360 0.013218 194589.000000 0 0 1
-18.900970 -19.743162 29.224821 40.014113 0.807188 0.751943 0.010911 0.010695 -91706.800000 0 0 1
-18.733070 -21.246962 28.907451 40.472238 0.848194 0.775239 0.019141 0.013459 -205834.000000 0 0 1
-19.979170 -21.856162 28.670801 41.217398 0.830234 0.801542 0.011599 0.016416 -176254.000000 0 0 1
-19.868670 -23.176062 28.194861 41.555313 0.862084 0.825091 0.026752 0.017569 -829690.000000 0 0 1
-21.122770 -23.816862 27.689201 42.191304 0.845276 0.854922 0.029823 0.019706 -704492.000000 0 0 1
-22.137970 -24.024162 28.650701 43.452419 0.826236 0.850832 0.020412 0.021595 -746556.000000 0 0 1
-23.258570 -24.574262 28.094711 43.979179 0.812897 0.877835 0.009007 0.028693 -855554.000000 0 0 1
-24.005970 -25.645472 28.896981 45.486397 0.818406 0.882414 -0.000015 0.029405 -282589.000000 0 0 1
-24.559770 -25.161692 30.078691 46.271165 0.797503 0.863143 -0.001879 0.030023 1856.510000 0 0 1
-25.137260 -26.258712 30.796571 47.642739 0.807215 0.867931 -0.006997 0.022579 -271422.000000 0 0 1
-25.982950 -25.762322 31.975181 48.592418 0.781134 0.852599 0.014978 0.012308 -816523.000000 0 0 1
-27.018360 -25.058582 31.408251 48.419031 0.747784 0.864953 -0.001790 0.019207 -430146.000000 0 0 1
-28.112730 -24.943262 32.335571 49.579038 0.725731 0.860310 0.006902 0.002571 318177.000000 0 0 1
-29.361320 -24.268262 31.734901 49.579629 0.690715 0.876195 0.006767 0.006937 -244850.000000 0 0 1
-29.966030 -25.122262 30.753471 49.748035 0.697696 0.904365 0.003043 -0.001456 -93795.500000 0 0 1
-31.069840 -24.537162 30.126221 49.749336 0.668455 0.920327 -0.012338 0.005790 -422011.000000 0 0 1
-32.435050 -25.049192 30.585921 51.137003 0.657613 0.929647 -0.012770 0.002135 -567955.000000 0 0 1
-32.667500 -26.454982 30.527191 51.951333 0.680704 0.942693 -0.001577 -0.008628 -653966.000000 0 0 1
-33.598120 -26.888552 31.446721 53.298444 0.674923 0.939723 -0.001108 -0.014366 -357049.000000 0 0 1
-33.621410 -28.418112 31.526431 54.147060 0.701723 0.949319 0.012088 -0.027252 643891.000000 0 0 1
-32.459500 -28.919212 32.198991 54.099122 0.727783 0.933300 0.011835 -0.024384 402918.000000 0 0 1
-32.628520 -30.315112 32.366001 55.056192 0.748661 0.942370 0.017455 -0.029675 310012.000000 0 0 1
-31.494360 -30.887322 33.253021 55.242056 0.775667 0.924854 0.027309 -0.025664 188847.000000 0 0 1
-31.790090 -30.526272 34.554537 56.004278 0.765120 0.905874 0.017387 -0.020182 416165.000000 0 0 1
-30.729710 -30.895392 -33.800103 55.147867 0.788087 2.230521 0.009556 -0.019788 560188.000000 0 0 1
-31.163440 -30.527182 -32.353553 54.312256 0.775085 2.208927 0.011284 -0.021691 107442.000000 0 0 1
-31.240060 -29.096722 -32.178583 53.460469 0.749890 2.216692 0.008293 -0.012523 78026.300000 0 0 1
-30.221540 -28.628512 -31.302973 52.084636 0.758336 2.215551 0.023701 -0.013732 -278651.000000 0 0 1
-30.135800 -27.101722 -31.180033 51.135743 0.732439 2.226542 0.001685 -0.009078 17474.300000 0 0 1
-31.084310 -26.560302 -30.240203 50.854241 0.707078 2.207620 -0.011857 -0.010384 276752.000000 0 0 1
-31.051440 -25.149882 -30.227573 50.104038 0.680774 2.218424 -0.002539 0.002407 356006.000000 0 0 1
-29.786670 -24.517162 -29.549583 48.595419 0.688664 2.224428 -0.002730 0.000570 94215.000000 0 0 1
-29.837740 -23.092262 -29.570813 47.937211 0.658640 2.235550 0.004601 -0.002675 259717.000000 0 0 1
-28.793190 -22.477162 -28.812513 46.523451 0.662825 2.238662 0.016537 0.001249 87004.600000 0 0 1
-28.668200 -20.961962 -28.985063 45.841067 0.631355 2.255308 0.039149 -0.017883 -98762.300000 0 0 1
-27.987810 -20.549862 -30.173173 46.000377 0.633340 2.286215 0.034360 -0.004207 455541.000000 0 0 1
-27.509670 -19.218662 -29.960593 44.986398 0.609796 2.299620 0.037075 -0.014116 -352006.000000 0 0 1
-26.879890 -18.680062 -31.270363 45.269292 0.607326 2.333340 0.046634 -0.007939 404267.000000 0 0 1
-27.778510 -18.466762 -32.372593 46.482810 0.586699 2.341224 0.044401 -0.015594 293556.000000 0 0 1
-28.863480 -17.603362 -32.115573 46.630342 0.547655 2.330528 0.038769 -0.019065 -927815.000000 0 0 1
-29.293630 -16.920162 -33.456423 47.578786 0.523790 2.350656 0.043836 -0.020657 10791.200000 0 0 1
-30.249750 -17.581162 -34.256778 48.966023 0.526481 2.345638 0.035474 -0.024258 -389152.000000 0 0 1
-31.562320 -17.463062 -33.821723 49.447421 0.505364 2.324020 0.028392 -0.023451 -1128770.000000 0 0 1
-32.586980 -18.120162 34.511836 50.806676 0.507480 0.824019 0.018704 -0.017188 -430811.000000 0 0 1
-32.797480 -19.527762 34.518147 51.463683 0.537033 0.835606 0.012402 -0.014486 236607.000000 0 0 1
-33.613940 -19.871362 33.391379 51.378518 0.533897 0.863331 0.013936 -0.007650 203206.000000 0 0 1
-34.320295 -21.199962 33.754792 52.599496 0.553339 0.874042 0.010758 -0.014148 237908.000000 0 0 1
-33.336820 -22.227562 33.698662 52.354636 0.588065 0.871523 0.023081 -0.013499 340765.000000 0 0 1
-33.767100 -23.450162 34.272318 53.523069 0.607003 0.875871 0.020519 -0.014680 -976349.000000 0 0 1
-32.594210 -24.411362 34.308292 53.248061 0.642827 0.870675 0.014417 -0.010729 468021.000000 0 0 1
-31.587890 -24.155562 -33.946643 52.284419 0.652849 2.277419 -0.000237 -0.020178 519271.000000 0 0 1
-30.716790 -23.054862 -34.131178 51.380786 0.643861 2.297325 0.010246 -0.018608 -1391520.000000 0 0 1
-29.471580 -23.154462 -33.271803 50.117023 0.665932 2.296795 0.008432 -0.016476 -1143750.000000 0 0 1
-28.660050 -24.207262 -33.769853 50.475667 0.701371 2.303702 0.002950 -0.012467 523688.000000 0 0 1
-27.293040 -24.055862 -33.359703 49.360554 0.722439 2.312896 0.016057 -0.012945 803017.000000 0 0 1
-26.928570 -24.416162 -31.905263 48.365717 0.736505 2.291172 0.026117 -0.010093 -891633.000000 0 0 1
-26.785650 -25.812552 -31.763083 48.914745 0.766900 2.277534 0.036046 -0.012296 -96006.000000 0 0 1
-26.674960 -26.089692 -30.402253 48.130266 0.774307 2.254497 0.021908 -0.006074 -446698.000000 0 0 1
-26.212640 -27.468922 -29.925503 48.344388 0.808796 2.238274 0.029692 -0.005309 112903.000000 0 0 1
-27.207370 -28.465422 -30.138553 49.586829 0.807992 2.224075 0.008513 0.009373 338203.000000 0 0 1
-26.927220 -29.669282 -29.444683 49.722538 0.833810 2.204558 0.018441 0.008746 54864.600000 0 0 1
-27.585950 -30.892442 -30.219763 51.269500 0.841880 2.201149 0.010523 0.011304 315012.000000 0 0 1
-26.965940 -31.293952 -31.480223 51.937248 0.859550 2.221970 0.032870 -0.006687 451192.000000 0 0 1
-27.375610 -32.585752 -31.903613 53.189245 0.872072 2.214064 0.032717 0.002225 -184962.000000 0 0 1
-27.084490 -32.825062 -33.377603 54.084366 0.880927 2.235899 0.035485 -0.017051 -399093.000000 0 0 1
-25.697140 -32.938882 -33.493123 53.545329 0.908279 2.246581 0.022667 -0.013766 -661116.000000 0 0 1
-25.299570 -33.337182 34.460931 54.212468 0.921624 0.881928 0.036970 -0.020191 70740.200000 0 0 1
-23.847670 -33.821352 34.258248 53.723577 0.956651 0.879319 0.032602 -0.015901 69936.900000 0 0 1
-23.512370 -34.425821 33.005671 53.172766 0.971580 0.901129 0.038256 -0.008526 16236.300000 0 0 1
-22.618170 33.802347 33.109141 52.444213 -0.981090 0.887541 0.016632 0.001925 -207524.000000 0 0 1
-22.562070 32.968606 31.819751 51.073208 -0.970651 0.898196 0.010684 -0.002147 935943.000000 0 0 1
-23.881970 32.411176 31.564541 51.158118 -0.935769 0.905872 0.018503 -0.018192 1224680.000000 0 0 1
-23.915670 31.787186 30.307341 50.009193 -0.925781 0.919729 0.006070 -0.010282 -399066.000000 0 0 1
-25.251200 31.109086 30.008211 50.058876 -0.888963 0.927972 0.015853 -0.012333 -339657.000000 0 0 1
-25.362340 29.880716 30.673891 49.769399 -0.867007 0.906735 0.015065 -0.013284 990586.000000 0 0 1
-26.716060 29.399876 30.551961 50.115096 -0.833188 0.915195 0.018511 -0.016382 914761.000000 0 0 1
-26.947380 28.253896 31.541421 50.192680 -0.809062 0.891293 0.015350 -0.034114 -310633.000000 0 0 1
-26.319060 27.008306 31.295451 49.005579 -0.798322 0.878106 0.025094 -0.024127 -8495.370000 0 0 1
-27.131030 25.930706 31.680491 49.113621 -0.762781 0.869714 0.024367 -0.025032 425513.000000 0 0 1
-28.243910 25.445036 30.710151 48.870049 -0.733314 0.891296 0.031453 -0.028960 98307.500000 0 0 1
-27.726390 25.019006 29.511311 47.598538 -0.734114 0.902048 0.026169 -0.026843 -850012.000000 0 0 1
-28.629870 24.256946 28.795331 47.299471 -0.702901 0.916265 0.014660 -0.015162 -306311.000000 0 0 1
-27.950850 23.800546 27.483371 45.859041 -0.705372 0.928169 0.028652 -0.022671 -500544.000000 0 0 1
-26.785670 23.063446 27.617101 44.856426 -0.710867 0.907551 0.033772 -0.024210 -742782.000000 0 0 1
-26.182630 22.616846 26.443581 43.546697 -0.712458 0.918206 0.019042 -0.014311 -254324.000000 0 0 1
-24.786270 22.040846 26.723931 42.594912 -0.726836 0.892590 0.023938 -0.013922 -479813.000000 0 0 1
-24.739270 20.821746 27.499711 42.447741 -0.699625 0.866039 0.047974 -0.020980 226671.000000 0 0 1
-23.457470 20.324646 27.848041 41.699611 -0.713965 0.839514 0.043518 -0.014824 36055.900000 0 0 1
-23.544670 19.065646 28.690371 41.725145 -0.680667 0.812613 0.062577 -0.013009 -625288.000000 0 0 1
-22.324170 18.461646 28.927611 40.939072 -0.690977 0.786112 0.042539 -0.005067 -684727.000000 0 0 1
-22.562070 17.374546 29.715181 41.157184 -0.656227 0.764118 0.052441 -0.002086 -344011.000000 0 0 1
-21.487070 16.282846 29.806911 40.190511 -0.648473 0.735284 0.044839 -0.006926 -830230.000000 0 0 1
-20.327170 16.764046 30.367381 40.204538 -0.689628 0.714651 0.055772 -0.002860 -750097.000000 0 0 1
-19.234970 15.867246 30.347481 39.277515 -0.689750 0.687803 0.026677 -0.003345 750261.000000 0 0 1
-18.013370 16.327746 31.211561 39.563093 -0.736353 0.661770 0.008810 -0.008920 339964.000000 0 0 1
-18.241670 16.112546 32.659431 40.730960 -0.723502 0.640440 -0.001400 -0.003759 316449.000000 0 0 1
-17.143370 16.499646 33.455589 41.053744 -0.766267 0.618202 -0.003887 -0.002883 -540086.000000 0 0 1
-17.471370 16.268946 -34.283369 41.776509 -0.749776 2.533322 -0.012383 -0.012775 265900.000000 0 0 1
-18.224170 17.269546 -33.613983 41.955422 -0.758509 2.500066 0.012430 -0.009818 347742.000000 0 0 1
-19.611070 17.320346 -33.875613 42.803570 -0.723451 2.483925 0.022688 -0.010566 -385679.000000 0 0 1
-20.411970 18.278446 -33.001443 42.893418 -0.730310 2.448670 0.035635 -0.004582 -142273.000000 0 0 1
-20.596570 17.757446 -31.704233 41.769654 -0.711509 2.432611 0.038309 -0.004448 517492.000000 0 0 1
-21.696870 18.354146 -31.022003 42.071291 -0.702130 2.399961 0.034592 -0.012309 -106599.000000 0 0 1
-21.701870 17.914046 -29.521533 40.784864 -0.690074 2.380141 0.038177 -0.023244 446534.000000 0 0 1
-22.378170 16.646846 -29.162543 40.352867 -0.639578 2.378480 0.035908 -0.018544 116306.000000 0 0 1
-23.728270 16.503546 -29.497953 41.298027 -0.607715 2.366377 0.043593 -0.018144 -645807.000000 0 0 1
-24.531270 15.486946 -28.710623 40.815788 -0.563127 2.350993 0.029910 -0.008132 -354700.000000 0 0 1
-24.361370 14.112646 -28.916293 40.358334 -0.525063 2.369552 0.002368 -0.003758 -93734.600000 0 0 1
-25.324640 13.336746 -28.232563 40.203032 -0.484725 2.349349 -0.028605 0.002455 -20603.700000 0 0 1
-25.033170 11.838946 -28.323733 39.611287 -0.441758 2.367480 -0.008268 -0.003748 178991.000000 0 0 1
-23.947470 11.471446 -27.484603 38.216211 -0.446728 2.373428 -0.016307 -0.006750 231116.000000 0 0 1
-23.239470 10.369346 -28.027553 37.856836 -0.419686 2.404397 -0.024234 -0.001108 -74973.400000 0 0 1
-22.027270 9.839846 -27.257743 36.400656 -0.420116 2.417085 -0.003201 -0.000008 -130235.000000 0 0 1
-22.379070 8.926946 -26.223013 35.611228 -0.379555 2.398485 -0.010517 0.002155 197627.000000 0 0 1
-21.225370 8.412146 -25.572953 34.282013 -0.377334 2.412769 0.011014 0.012001 -768324.000000 0 0 1
-21.527270 7.294846 -24.510153 33.427320 -0.326721 2.393867 0.011438 0.017079 -37398.400000 0 0 1
-22.118470 6.173446 -25.117503 34.032735 -0.272182 2.400957 0.009061 0.000624 68636.900000 0 0 1
-22.320870 5.143246 -24.213453 33.331149 -0.226470 2.383940 0.019166 0.012867 -481671.000000 0 0 1
33.355066 25.322138 -10.741053 43.233567 0.649344 1.821868 -0.019521 0.004811 -293741.000000 0 0 1
34.310830 24.850838 -9.830453 43.490632 0.626840 1.798803 -0.020825 0.003528 -161423.000000 0 0 1
-34.851003 23.933538 -10.505153 43.563343 -0.601770 1.814343 -0.016702 -0.000310 304086.000000 0 0 1
-33.748740 23.336738 -9.581953 42.135432 -0.604988 1.800212 -0.006158 -0.001532 268902.000000 0 0 1
-34.302628 22.436738 -8.593153 41.879825 -0.579240 1.777450 -0.024015 -0.001818 106594.000000 0 0 1
-33.250580 22.008038 -7.761853 40.622668 -0.584684 1.763050 -0.012903 0.004767 -108675.000000 0 0 1
-33.681320 21.069338 -6.567853 40.267667 -0.558994 1.734633 -0.027720 0.015697 -39315.500000 0 0 1
-34.046800 19.715138 -6.890153 39.941776 -0.524880 1.744168 -0.023541 0.012671 300873.000000 0 0 1
-34.370262 19.021238 -5.714653 39.696091 -0.505466 1.715258 -0.015536 0.008859 -345262.000000 0 0 1
34.947300 17.674838 -6.081153 39.631983 0.468243 1.724845 -0.015162 0.014628 780081.000000 0 0 1
33.636516 18.006438 -6.588953 38.717714 0.491506 1.741808 -0.008749 0.008581 654144.000000 0 0 1
33.245276 17.001538 -7.489253 38.083981 0.472724 1.768737 -0.001102 0.016783 -417082.000000 0 0 1
32.093276 17.418238 -8.377253 37.464006 0.497251 1.796311 -0.009529 0.006951 -465257.000000 0 0 1
31.569566 16.375638 -9.160953 36.724952 0.478508 1.822906 0.000464 0.014010 19378.800000 0 0 1
30.843826 16.918838 -10.278453 36.650175 0.501716 1.855057 0.022598 -0.001067 -196485.000000 0 0 1
30.296306 15.798738 -11.239953 35.969471 0.480679 1.888605 0.019977 0.014600 183971.000000 0 0 1
29.214776 15.018038 -10.748753 34.562701 0.474829 1.887034 0.019246 0.018038 296656.000000 0 0 1
29.489276 14.331038 -9.526453 34.143072 0.452364 1.853565 -0.001056 0.014452 -1496490.000000 0 0 1
28.435036 13.301438 -9.113353 32.688419 0.437544 1.853335 -0.002083 0.028954 -361120.000000 0 0 1
28.552986 12.158038 -9.850853 32.559641 0.402553 1.878161 -0.000589 0.027430 151120.000000 0 0 1
27.476196 11.268438 -9.617853 31.215736 0.389197 1.884001 0.004449 0.019509 -319307.000000 0 0 1
27.548716 9.908238 -10.253253 31.019899 0.345257 1.907670 0.001597 0.016684 -123323.000000 0 0 1
28.483116 9.092338 -9.536153 31.383065 0.308994 1.879541 -0.005655 0.024720 435062.000000 0 0 1
28.490926 7.702538 -9.878753 31.123170 0.264039 1.893792 -0.008469 0.019934 -32676.000000 0 0 1
29.570676 6.938638 -9.056953 31.695394 0.230476 1.860585 0.010180 0.005361 940891.000000 0 0 1
30.924486 7.284738 -9.372653 33.124581 0.231348 1.857666 0.013954 0.008121 299257.000000 0 0 1
31.815866 6.752738 -8.460853 33.607066 0.209141 1.825293 0.019408 -0.000349 -101249.000000 0 0 1
33.305236 6.929238 -8.861453 35.153641 0.205126 1.825623 0.012623 -0.000748 282528.000000 0 0 1
33.693156 6.073938 -9.915953 35.643339 0.178357 1.852715 0.006044 0.007032 767654.000000 0 0 1
-34.914510 6.200138 -10.169253 36.890085 -0.175748 1.850076 -0.000717 0.005802 109144.000000 0 0 1
-34.437472 5.316238 -11.360553 36.650566 -0.153165 1.885957 0.004711 0.007184 1079380.000000 0 0 1
-33.028380 5.398238 -11.708353 35.455611 -0.162010 1.907339 0.008073 0.004483 1656260.000000 0 0 1
-32.708850 6.553138 -12.500353 35.624027 -0.197730 1.929325 -0.002750 0.007468 -749363.000000 0 0 1
-31.898410 7.569038 -11.696853 34.808264 -0.232977 1.913502 -0.003872 0.019619 -584702.000000 0 0 1
-32.615000 8.387738 -10.720353 35.341453 -0.251719 1.878989 0.005350 0.008866 638743.000000 0 0 1
-33.245210 9.551538 -11.304053 36.390348 -0.279770 1.886656 -0.003006 0.008615 -281026.000000 0 0 1
-33.998510 10.327638 -10.257353 36.983402 -0.294910 1.851831 -0.003401 0.013026 -261822.000000 0 0 1
-33.214220 11.084138 -9.383553 36.250429 -0.322095 1.832631 0.001614 0.018757 -204917.000000 0 0 1
-34.052510 11.930938 -8.651553 37.104852 -0.337003 1.806127 0.007219 0.018766 -397775.000000 0 0 1
-33.254240 12.862738 -7.745553 36.486821 -0.369075 1.784708 0.007088 0.013811 -130377.000000 0 0 1
-32.575410 13.923238 -8.413153 36.411468 -0.403915 1.803961 0.001717 0.011895 5415.190000 0 0 1
-32.036370 14.782138 -7.392453 36.048425 -0.432308 1.777332 -0.009902 0.015542 -65460.000000 0 0 1
-31.077860 15.864238 -7.912253 35.778641 -0.471987 1.793784 -0.019321 0.017017 -349475.000000 0 0 1
-31.630570 16.792638 -8.838353 36.886340 -0.488060 1.812761 -0.016963 0.013951 23555.800000 0 0 1
-30.970820 18.077438 -8.923153 36.954135 -0.528342 1.814672 -0.020371 0.011425 371122.000000 0 0 1
-31.644080 18.919338 -10.045553 38.212593 -0.538859 1.836808 -0.029197 0.007422 228002.000000 0 0 1
-31.256220 18.618938 -11.377253 38.118998 -0.537242 1.873882 -0.032752 0.008874 -444772.000000 0 0 1
-32.235450 19.008538 -12.289053 39.388698 -0.532795 1.888088 -0.035175 0.000936 -1155990.000000 0 0 1
-31.798980 19.206238 -13.733253 39.606274 -0.543348 1.924894 -0.027572 0.009653 -246799.000000 0 0 1
-31.071610 20.404738 -13.927753 39.696103 -0.581071 1.929285 -0.025261 0.005743 157811.000000 0 0 1
-30.861550 20.664138 -15.306453 40.171250 -0.590014 1.961706 -0.038743 0.008205 -486144.000000 0 0 1
-29.933050 21.886938 -15.575453 40.219650 -0.631358 1.968454 -0.018554 -0.003495 -261839.000000 0 0 1
-28.591620 21.639638 -15.206353 38.948528 -0.647872 1.971886 -0.017993 -0.001466 135732.000000 0 0 1
-27.764500 22.778438 -15.169353 38.985048 -0.687066 1.970458 -0.009489 -0.003847 106227.000000 0 0 1
-27.220500 23.416038 -16.512453 39.521229 -0.710406 2.001832 -0.022013 -0.006427 -655749.000000 0 0 1
-28.179750 24.035438 -17.349153 40.899800 -0.706194 2.008860 -0.016927 0.001538 22754.300000 0 0 1
-27.612950 24.720738 -18.449053 41.399969 -0.730190 2.032674 -0.019382 0.001362 -593230.000000 0 0 1
-26.811500 25.999838 -18.171853 41.533894 -0.770030 2.023634 -0.015369 0.001460 178427.000000 0 0 1
-27.621080 27.110738 -17.805053 42.602066 -0.776074 2.001972 -0.011509 -0.000280 393735.000000 0 0 1
-26.861500 28.319638 -17.707253 42.861275 -0.811817 1.996684 -0.002895 0.002976 531578.000000 0 0 1
-27.700420 29.596638 -17.179653 44.027431 -0.818481 1.971649 -0.007199 0.001044 25422.300000 0 0 1
-27.883510 29.777238 -15.761453 43.733253 -0.818229 1.939493 -0.006270 -0.003452 -173189.000000 0 0 1
-26.750460 29.653238 -14.941553 42.639789 -0.836817 1.928809 -0.004947 0.003074 -471067.000000 0 0 1
-26.887760 30.331738 -13.555353 42.740070 -0.845515 1.893528 -0.001851 0.003365 -132454.000000 0 0 1
-26.724570 31.740238 -13.651453 43.680745 -0.870978 1.888649 0.008352 0.005570 139588.000000 0 0 1
-27.194670 32.380438 -12.477053 44.087636 -0.872225 1.857723 0.000141 0.002809 -36257.100000 0 0 1
-26.721840 33.844838 -12.459353 44.886136 -0.902466 1.852067 -0.013484 0.001682 16935.500000 0 0 1
-27.122740 34.640038 -13.563053 46.038371 -0.906515 1.869837 -0.019793 -0.009227 -297540.000000 0 0 1
-26.328690 -33.545970 -13.700153 44.790917 0.905359 1.881647 -0.000948 -0.006657 -323369.000000 0 0 1
-26.500530 -32.719970 -15.016853 44.703248 0.890036 1.913381 -0.005528 -0.004484 -99763.900000 0 0 1
-25.919650 -33.417870 -16.109253 45.255832 0.911098 1.934737 -0.005742 -0.009477 154407.000000 0 0 1
-26.340170 -32.920170 -17.418853 45.617525 0.895981 1.962589 -0.001869 0.007456 46892.000000 0 0 1
-25.376770 -33.411470 -18.533553 45.867193 0.921229 1.986758 -0.003153 0.006415 -285042.000000 0 0 1
-25.638760 34.627938 -19.033153 47.103089 -0.933463 1.986763 -0.004093 0.016426 -87642.500000 0 0 1
-25.127900 33.507038 -18.296053 45.704250 -0.927341 1.982656 -0.021174 0.004016 -562899.000000 0 0 1
-25.159570 32.146238 -19.104153 45.070536 -0.906718 2.008513 -0.020490 -0.006596 1191640.000000 0 0 1
-26.503280 31.625038 -19.343253 45.571134 -0.873282 2.009165 -0.007858 0.000735 1130280.000000 0 0 1
-27.119860 32.277038 -20.441753 46.852526 -0.872007 2.022279 -0.003918 0.003313 -100494.000000 0 0 1
-28.649310 32.018538 -20.468253 47.591166 -0.840877 2.015383 -0.003686 -0.011600 202875.000000 0 0 1
-28.887920 30.724138 -20.953553 47.090720 -0.816191 2.031927 -0.011988 -0.011189 -564138.000000 0 0 1
-30.258290 30.541738 -21.091353 47.887441 -0.790060 2.026881 -0.003799 -0.014645 -870198.000000 0 0 1
-30.581440 29.182538 -21.696653 47.514100 -0.761995 2.045007 -0.006303 -0.015771 -286199.000000 0 0 1
-31.951990 28.854038 -21.760853 48.239194 -0.734494 2.038797 0.003461 -0.022009 94796.900000 0 0 1
-32.048120 27.572638 -22.392753 47.841067 -0.710473 2.057897 0.004256 -0.023618 -814188.000000 0 0 1
-33.412390 26.909938 -22.470753 48.430025 -0.678018 2.053284 0.030439 -0.022595 -831217.000000 0 0 1
-34.232074 27.560838 -23.393353 49.786380 -0.677854 2.059945 0.012469 -0.025389 -594691.000000 0 0 1
34.765840 26.677438 -23.830353 49.882212 0.654511 2.068868 0.022073 -0.028008 -637084.000000 0 0 1
33.787636 27.384338 -24.714353 50.023050 0.681101 2.087549 0.023715 -0.030969 -580400.000000 0 0 1
34.355162 27.566038 -25.985743 51.141201 0.676193 2.103794 0.022604 -0.017941 174348.000000 0 0 1
33.357346 28.046438 -26.874753 51.201246 0.699121 2.123376 0.020958 -0.015575 433336.000000 0 0 1
34.075443 28.495038 -28.201173 52.615674 0.696448 2.136469 0.011376 -0.012645 313146.000000 0 0 1
34.422279 27.399038 -29.035633 52.713078 0.672278 2.154148 0.001423 0.003786 43327.400000 0 0 1
-34.805972 27.901838 -30.131983 53.832189 -0.675740 2.164867 -0.011541 0.005340 -1112610.000000 0 0 1
-34.237976 26.655638 -30.944823 53.294878 -0.661518 2.190304 -0.018684 0.007178 160742.000000 0 0 1
-33.207720 25.953538 -30.292083 51.903266 -0.663390 2.193983 -0.004851 0.001743 -924879.000000 0 0 1
-31.970610 26.575738 -30.392473 51.498467 -0.693511 2.202057 -0.018413 0.017354 -1080720.000000 0 0 1
-30.826820 25.808138 -29.720203 49.996432 -0.697014 2.207373 -0.016187 0.003895 -443099.000000 0 0 1
-30.577580 24.488238 -30.120513 49.415660 -0.675263 2.226269 0.003759 0.005542 259313.000000 0 0 1
-31.276250 23.456838 -29.400743 48.916569 -0.643494 2.215596 -0.002919 0.007008 36302.100000 0 0 1
-30.890110 22.095438 -29.974923 48.382882 -0.620915 2.238947 -0.008137 0.002674 864011.000000 0 0 1
-29.612390 21.457638 -29.731133 47.130289 -0.627057 2.253417 0.025187 0.003560 1010200.000000 0 0 1
-29.659680 20.124638 -30.240433 46.895431 -0.596163 2.271621 0.017638 0.001529 720165.000000 0 0 1
-28.226720 19.477938 -30.253543 45.731987 -0.604019 2.293667 0.049473 -0.008247 609182.000000 0 0 1
-27.287180 19.998438 -31.169333 46.000598 -0.632459 2.315271 0.066463 -0.018450 410199.000000 0 0 1
-26.121640 19.230938 -31.430073 45.166564 -0.634615 2.340427 0.062987 -0.023669 234506.000000 0 0 1
-26.338230 17.903038 -32.236173 45.314368 -0.596996 2.362270 0.052834 -0.013405 -422519.000000 0 0 1
-26.767020 16.838538 -31.423473 44.580762 -0.561526 2.353031 0.023558 -0.006029 124869.000000 0 0 1
-26.837620 15.665038 -32.190213 44.742162 -0.528346 2.373821 0.001722 0.000538 -7030.500000 0 0 1
-27.372370 14.425238 -31.418313 44.095856 -0.485014 2.363852 0.000564 0.005290 -685384.000000 0 0 1
-28.751980 14.476438 -31.224233 44.846363 -0.466439 2.340955 -0.006617 0.000863 -496811.000000 0 0 1
-29.429620 13.233638 -31.039453 44.773645 -0.422580 2.336789 -0.020538 0.004579 187496.000000 0 0 1
-28.892080 12.218638 -29.930913 43.357893 -0.400096 2.332730 -0.030104 -0.001888 -223885.000000 0 0 1
-29.436570 12.648738 -28.705413 43.017472 -0.405840 2.301369 -0.025780 0.003146 385019.000000 0 0 1
-29.189780 11.592838 -27.813663 41.952795 -0.378051 2.295582 -0.025414 -0.000254 -55765.800000 0 0 1
-29.139220 12.019638 -26.379163 41.102628 -0.391227 2.267623 -0.028044 0.003731 631224.000000 0 0 1
-27.922870 12.714838 -26.039333 40.241777 -0.427299 2.274534 -0.025673 -0.004816 560939.000000 0 0 1
-28.021300 13.412738 -24.850553 39.782468 -0.446432 2.245494 -0.024581 -0.001079 528705.000000 0 0 1
-26.661770 13.860338 -24.171153 38.564278 -0.479408 2.248205 -0.028530 0.006500 714173.000000 0 0 1
-25.977000 14.805138 -25.029553 38.993270 -0.518018 2.267762 -0.023111 0.001623 489838.000000 0 0 1
-24.618470 15.094838 -24.735653 38.023357 -0.550033 2.279089 -0.002793 -0.003714 583822.000000 0 0 1
-24.158970 15.752238 -23.392453 37.134831 -0.577797 2.252263 0.001548 -0.000985 -1049490.000000 0 0 1
-24.361170 17.186538 -23.390953 37.894331 -0.614400 2.236062 0.017502 -0.006104 29309.000000 0 0 1
-24.596970 17.771438 -22.143353 37.565450 -0.625671 2.201187 0.013607 -0.011406 -597887.000000 0 0 1
-25.969810 17.541238 -21.533953 38.024166 -0.594057 2.172834 0.004345 -0.000326 -990574.000000 0 0 1
-26.358570 16.235238 -21.227753 37.536311 -0.552056 2.171867 0.000089 0.005125 299497.000000 0 0 1
-27.633310 16.447238 -20.598753 38.189266 -0.536880 2.140504 -0.007557 0.014509 177493.000000 0 0 1
-28.591220 15.250738 -20.902553 38.561115 -0.490014 2.143686 -0.033284 0.011667 -71042.000000 0 0 1
-29.015600 14.999438 -22.213853 39.501183 -0.477111 2.168032 -0.036295 0.016887 1058850.000000 0 0 1
-30.041790 15.957138 -22.657553 40.871801 -0.488267 2.158386 -0.050646 0.021556 571428.000000 0 0 1
-30.436170 15.925838 -24.178153 42.006854 -0.482077 2.184105 -0.043476 0.019626 364624.000000 0 0 1
-31.420440 14.898738 -24.476353 42.524208 -0.442774 2.184117 -0.041767 0.017010 761690.000000 0 0 1
-31.850330 14.947638 -25.832833 43.648719 -0.438795 2.204130 -0.021724 0.010630 -206251.000000 0 0 1
-33.207600 14.291938 -26.129723 44.606800 -0.406420 2.196637 -0.030995 0.004008 -82462.700000 0 0 1
-33.191340 12.844038 -26.347583 44.281254 -0.369223 2.208069 -0.025394 0.004367 63003.300000 0 0 1
-32.980290 12.044938 -25.183143 43.208457 -0.350166 2.193002 -0.029539 0.001197 -159502.000000 0 0 1
-32.874280 10.506438 -25.551563 42.941657 -0.309335 2.208099 -0.017008 -0.006323 454408.000000 0 0 1
-34.166133 10.020238 -25.904183 44.031312 -0.285280 2.199767 -0.009711 -0.006656 437055.000000 0 0 1
-34.010540 8.752538 -26.473553 43.979231 -0.251882 2.216744 -0.012985 -0.005106 -1414330.000000 0 0 1
34.735162 8.134838 -26.902853 44.681882 0.230050 2.216922 0.001726 -0.008033 -1145180.000000 0 0 1
33.923216 7.709438 -25.795263 43.308378 0.223466 2.208831 -0.016797 0.003063 -653329.000000 0 0 1
32.800776 7.095638 -26.306883 42.641425 0.213043 2.235635 -0.012016 -0.000753 -875289.000000 0 0 1
31.977056 6.229638 -25.327133 41.265048 0.192406 2.231620 -0.010332 -0.001558 -63239.000000 0 0 1
32.705296 5.121338 -24.799053 41.362514 0.155329 2.213740 -0.007832 -0.009926 250718.000000 0 0 1
32.012796 4.358938 -23.845553 40.155073 0.135330 2.206615 -0.009241 -0.007342 -498939.000000 0 0 1
33.033606 3.422938 -23.232053 40.529791 0.103251 2.181213 -0.012890 -0.001055 -266392.000000 0 0 1
33.628316 2.498438 -24.066153 41.428077 0.074159 2.190648 -0.007437 -0.009383 -187106.000000 0 0 1
34.669743 1.824638 -23.418753 41.877899 0.052581 2.164235 0.008785 -0.007359 -103228.000000 0 0 1
-34.630304 0.773138 -24.307553 42.316815 -0.022322 2.182690 0.020704 -0.008451 -165656.000000 0 0 1
34.740533 -0.478262 -24.260553 42.375793 -0.013766 2.180360 0.014023 -0.015354 -42747.700000 0 0 1
-34.404000 -1.529062 -24.579453 42.309842 0.044415 2.190679 0.024855 -0.018860 -48875.800000 0 0 1
-22.252670 29.741038 27.860861 46.432082 -0.928439 0.927252 -0.001537 -0.001400 -723314.000000 0 0 1
-23.611770 29.917638 27.510451 47.004315 -0.902660 0.945577 -0.014007 -0.007382 383570.000000 0 0 1
-23.795770 29.571238 26.167281 46.102314 -0.893200 0.967219 -0.018680 -0.005318 -427463.000000 0 0 1
-24.000270 28.043338 25.899521 45.091318 -0.862929 0.958951 -0.009531 -0.004791 -43951.500000 0 0 1
-25.308810 27.625638 26.270391 45.758553 -0.829138 0.959281 -0.002751 -0.005416 266020.000000 0 0 1
-25.573220 27.136538 27.598651 46.390374 -0.815048 0.933628 0.002845 -0.010928 -1527710.000000 0 0 1
-24.968370 25.828638 28.021921 45.560576 -0.802332 0.908350 0.020439 -0.010906 186840.000000 0 0 1
-23.598270 25.870438 28.441491 45.111820 -0.831297 0.888642 0.018107 -0.000671 477816.000000 0 0 1
-23.415870 26.462038 29.724071 46.174266 -0.846395 0.871425 0.021059 -0.006420 494941.000000 0 0 1
-21.968570 26.213538 30.287791 45.684986 -0.873274 0.846017 0.028544 0.000107 201658.000000 0 0 1
-20.880070 26.769938 29.643681 45.070553 -0.908381 0.853012 0.021338 -0.005783 -274926.000000 0 0 1
-19.636370 26.512538 30.269151 44.774135 -0.933310 0.828420 0.037299 -0.004349 614733.000000 0 0 1
-18.885970 25.150738 30.084121 43.523486 -0.926712 0.807626 0.045219 -0.004418 -89917.300000 0 0 1
-18.335070 25.011138 28.756751 42.292819 -0.938215 0.823110 0.038087 -0.002696 541312.000000 0 0 1
-19.161870 24.244438 27.819571 41.580026 -0.901960 0.837852 0.041622 -0.004629 409953.000000 0 0 1
-18.892270 22.706038 27.772761 40.543905 -0.876823 0.816186 0.035262 0.002653 200362.000000 0 0 1
-19.602070 22.022838 28.800921 41.215768 -0.843489 0.797100 0.029340 0.007138 248349.000000 0 0 1
-19.239370 20.610338 28.823211 40.320179 -0.819788 0.774375 0.031808 0.008246 142352.000000 0 0 1
-19.708970 19.944938 30.098521 41.135933 -0.791349 0.750007 0.032123 0.001841 -84254.500000 0 0 1
-18.820070 20.204138 31.164941 41.637192 -0.820850 0.725017 0.028506 -0.003581 89985.600000 0 0 1
-19.349970 19.743838 32.386721 42.580983 -0.795473 0.706573 0.031941 -0.004823 299195.000000 0 0 1
-18.474470 20.275338 33.580558 43.359534 -0.831839 0.684923 0.027741 -0.007432 -14436.800000 0 0 1
-18.660970 21.651438 33.837263 44.294209 -0.859445 0.701429 0.018725 -0.015300 201958.000000 0 0 1
-17.899270 22.560338 33.001401 43.800059 -0.900096 0.717494 0.030355 -0.004439 156469.000000 0 0 1
-16.507370 22.873538 33.619263 43.885611 -0.945668 0.698099 0.024182 -0.000324 23353.200000 0 0 1
-15.696270 21.737338 33.625042 43.006141 -0.945400 0.673143 0.016865 -0.011010 203142.000000 0 0 1
-14.339770 21.993738 34.038221 42.987835 -0.993021 0.657029 -0.006708 -0.012403 638661.000000 0 0 1
-13.428470 20.759038 33.709691 41.804362 -0.996622 0.632812 -0.015899 -0.004774 744288.000000 0 0 1
-12.075970 20.773038 34.178137 41.779100 -1.044219 0.612753 -0.024400 0.001647 662506.000000 0 0 1
-11.955770 20.650138 -33.658463 41.258463 -1.045985 2.524899 -0.009893 -0.008258 139645.000000 0 0 1
-10.481770 20.428838 -33.168403 40.340400 -1.096734 2.536085 -0.027661 -0.000990 455822.000000 0 0 1
-9.674770 21.536338 -33.438513 40.933472 -1.148583 2.526810 -0.030072 0.001452 -1044130.000000 0 0 1
-8.483670 21.367938 -32.739783 40.005684 -1.192855 2.529380 -0.031071 0.009801 -638295.000000 0 0 1
-7.628870 22.659838 -32.806683 40.594905 -1.246046 2.511797 -0.032873 0.013875 -253104.000000 0 0 1
-7.913670 23.680738 -31.867023 40.483461 -1.248282 2.476989 -0.024870 0.008624 141020.000000 0 0 1
-7.510270 23.386838 -30.547263 39.198005 -1.260067 2.464355 -0.015561 0.002095 -294121.000000 0 0 1
-7.251270 24.697738 -29.765853 39.351813 -1.285221 2.428594 -0.010652 -0.004962 -282101.000000 0 0 1
-6.144270 25.451638 -30.164373 39.942800 -1.333919 2.426739 -0.020150 0.008271 -171656.000000 0 0 1
-5.931270 26.606238 -29.384593 40.081494 -1.351455 2.393696 -0.010450 0.004829 -385481.000000 0 0 1
-4.671870 27.309838 -29.897183 40.761442 -1.401367 2.394205 -0.023164 0.011462 -1282800.000000 0 0 1
-3.512970 26.616938 -29.540253 39.917776 -1.439572 2.403908 -0.019778 0.012778 243989.000000 0 0 1
-2.303570 27.100438 -30.149763 40.604782 -1.485999 2.407617 -0.018144 0.018900 771415.000000 0 0 1
-1.795870 28.461638 -29.625023 41.120943 -1.507782 2.375228 -0.020833 0.021974 -854616.000000 0 0 1
-1.192870 28.265438 -28.341723 40.045114 -1.528619 2.357097 -0.019823 0.013921 556160.000000 0 0 1
-0.499670 29.422238 -27.859383 40.522376 -1.553815 2.328846 -0.020532 0.015798 -258731.000000 0 0 1
-0.040970 29.341538 -26.369763 39.449866 -1.569400 2.302902 -0.011244 0.002825 567702.000000 0 0 1
1.081130 28.511438 -26.042593 38.630138 1.532895 2.310613 0.001882 -0.009450 1819660.000000 0 0 1
2.400330 28.976838 -26.469563 39.319925 1.488149 2.309303 0.006044 -0.012310 1165820.000000 0 0 1
3.458430 28.845938 -25.353473 38.559661 1.451473 2.288309 0.008323 -0.015005 -214055.000000 0 0 1
3.934130 27.536338 -25.100803 37.467020 1.428886 2.304930 0.017574 -0.019152 13452.300000 0 0 1
4.828630 27.609738 -24.012753 36.908340 1.397659 2.279177 0.011410 -0.016582 134277.000000 0 0 1
5.720230 26.312338 -23.829453 35.956960 1.356730 2.295244 0.002723 -0.023424 415824.000000 0 0 1
6.597730 26.472438 -22.715953 35.501190 1.326542 2.265118 0.001680 -0.024178 -300699.000000 0 0 1
7.388430 25.341338 -22.487553 34.676539 1.287104 2.276402 0.000028 -0.012246 808.610000 0 0 1
8.847730 25.737238 -22.196053 35.119119 1.239681 2.254956 -0.005956 0.001389 -724439.000000 0 0 1
8.988230 26.316038 -20.937053 34.809227 1.241670 2.216149 0.001747 0.000699 652185.000000 0 0 1
10.327230 26.658038 -20.522253 35.191839 1.201202 2.193402 0.014931 -0.000902 1142040.000000 0 0 1
11.211230 25.468838 -20.043553 34.294276 1.156127 2.195008 0.000204 0.015396 -209898.000000 0 0 1
11.545530 24.636238 -21.099053 34.429835 1.132550 2.230412 -0.002165 0.009614 -247412.000000 0 0 1
11.573530 23.275438 -20.682653 33.218440 1.109357 2.242890 -0.001532 0.009867 -324702.000000 0 0 1
11.680730 22.205438 -21.820453 33.251362 1.086542 2.286604 -0.012350 0.015757 317520.000000 0 0 1
10.633230 22.219738 -22.803353 33.567473 1.124456 2.317644 -0.008221 0.005136 517768.000000 0 0 1
11.085430 21.749838 -24.041153 34.262505 1.099436 2.348542 -0.024153 0.003854 -93622.900000 0 0 1
10.128930 22.222538 -25.143153 35.051598 1.143133 2.370742 -0.005205 -0.005268 494332.000000 0 0 1
8.858930 21.569038 -25.049953 34.222860 1.181079 2.391999 -0.017385 -0.005001 5768.350000 0 0 1
8.196930 21.695038 -26.305843 35.069384 1.209551 2.419022 -0.027469 -0.009207 -586665.000000 0 0 1
6.814330 21.001938 -26.265213 34.312940 1.257051 2.442554 -0.017965 -0.018789 324188.000000 0 0 1
5.765330 21.691938 -25.571863 34.024981 1.311020 2.421222 -0.000625 -0.019409 331784.000000 0 0 1
5.974830 22.015938 -24.218853 33.270902 1.305793 2.386093 0.005635 -0.015356 -603811.000000 0 0 1
4.581530 22.261438 -23.542453 32.723220 1.367825 2.373795 0.014721 -0.020419 766994.000000 0 0 1
3.997530 23.467438 -24.113253 33.884360 1.402072 2.362617 0.008155 -0.022980 -1074930.000000 0 0 1
2.620230 23.427738 -24.065653 33.687982 1.459416 2.366518 0.013256 -0.022129 -1064810.000000 0 0 1
2.109730 24.771938 -24.692953 35.040573 1.485835 2.352791 0.002600 -0.009843 -593569.000000 0 0 1
0.785130 24.567738 -25.093993 35.126893 1.538849 2.366536 0.011445 -0.030743 -582299.000000 0 0 1
0.515530 25.238338 -26.308763 36.460807 1.550373 2.376853 0.007063 -0.027771 7850.850000 0 0 1
-0.982170 25.207438 -26.671503 36.711696 -1.531853 2.384029 0.016304 -0.022377 -144239.000000 0 0 1
-1.367370 23.957838 -27.126873 36.217605 -1.513784 2.417343 0.032733 -0.028893 -1241930.000000 0 0 1
-2.630770 24.038338 -27.673143 36.750040 -1.461790 2.423421 0.032755 -0.015429 -832954.000000 0 0 1
-3.276770 22.665438 -27.965413 36.145866 -1.427220 2.455429 0.033938 -0.019402 -569503.000000 0 0 1
-2.532670 21.879238 -28.869453 36.311992 -1.455552 2.489868 0.042985 -0.013594 -5365.790000 0 0 1
-3.162670 20.648038 -29.257743 35.949401 -1.418807 2.521559 0.027158 -0.004213 487279.000000 0 0 1
-4.498070 20.785838 -30.072653 36.832705 -1.357682 2.526060 0.004973 0.005804 -61892.400000 0 0 1
-4.466170 21.251538 -31.442853 38.212923 -1.363653 2.537175 0.007915 0.008777 -4188.010000 0 0 1
-3.872770 22.510638 -31.739703 39.104167 -1.400422 2.517803 0.016571 0.005451 -165810.000000 0 0 1
-3.457870 22.540938 -33.236003 40.307352 -1.418579 2.540228 -0.000919 0.012634 138647.000000 0 0 1
-2.288370 21.877838 -33.682533 40.229211 -1.466578 2.563059 -0.009913 0.012685 261834.000000 0 0 1
-1.993770 22.187838 34.227160 40.838386 -1.481178 0.576983 -0.018102 0.023050 237941.000000 0 0 1
-0.747270 21.470738 33.630629 39.907019 -1.536006 0.568472 -0.017910 0.021803 279385.000000 0 0 1
-1.070770 20.131138 33.303886 38.930169 -1.517657 0.544324 -0.031975 0.025258 -33440.000000 0 0 1
0.035030 19.353738 32.959441 38.221632 1.568986 0.530954 -0.017506 0.026333 -316686.000000 0 0 1
-0.474470 17.985538 32.502251 37.149711 -1.544422 0.505569 -0.026117 0.031730 12792.800000 0 0 1
-1.198970 18.007738 31.300551 36.130882 -1.504314 0.523029 -0.035907 0.025922 -18839.700000 0 0 1
-1.534370 16.655538 31.005361 35.229159 -1.478932 0.494713 -0.029530 0.023644 -271626.000000 0 0 1
-2.536170 16.409938 29.828961 34.139202 -1.417459 0.507947 -0.027234 0.024899 316139.000000 0 0 1
-3.875270 16.783738 30.067271 34.651874 -1.343879 0.520249 -0.038709 0.021915 44207.000000 0 0 1
-4.054470 18.100638 29.645671 34.970525 -1.350438 0.559100 -0.039870 0.026888 490863.000000 0 0 1
-5.547270 18.632138 29.646721 35.452176 -1.281427 0.580396 -0.028126 0.023386 1133630.000000 0 0 1
-6.276670 17.936538 28.664161 34.391134 -1.234177 0.585429 -0.032444 0.027188 -1469220.000000 0 0 1
-7.625170 18.183738 28.757361 34.867999 -1.173729 0.601037 -0.038557 0.029407 -1112880.000000 0 0 1
-8.544670 17.211838 27.929761 33.901774 -1.110000 0.602637 -0.027349 0.020640 49770.600000 0 0 1
-8.880470 15.953738 28.368161 33.736287 -1.062870 0.571890 -0.012932 0.004774 -186760.000000 0 0 1
-9.579670 15.929038 29.579491 34.934948 -1.029351 0.561040 -0.010870 0.007122 -791056.000000 0 0 1
-10.159270 14.550738 30.015811 34.869523 -0.961282 0.533950 -0.005590 -0.002013 -156667.000000 0 0 1
-9.269570 13.438438 30.077021 34.221977 -0.966962 0.497286 -0.005521 0.003052 -474094.000000 0 0 1
-8.367970 13.495838 31.134491 34.950209 -1.015771 0.471640 -0.010418 0.004914 -868376.000000 0 0 1
-8.820970 13.289738 32.563021 36.259853 -0.984821 0.455489 0.012259 -0.007905 -856528.000000 0 0 1
-9.079170 11.940638 32.819301 36.084854 -0.920698 0.428708 0.011092 0.001984 323753.000000 0 0 1
-9.236170 11.712738 34.206555 37.317335 -0.903071 0.411205 0.001621 0.005793 -366384.000000 0 0 1
-9.668470 10.279238 34.526052 37.298663 -0.816007 0.388008 0.002098 0.000263 -551412.000000 0 0 1
-8.683670 9.286838 34.357882 36.634895 -0.818950 0.354426 0.007692 -0.003462 -209479.000000 0 0 1
-8.614470 8.411038 -33.811133 35.890770 -0.773450 2.799505 0.028050 -0.009639 120936.000000 0 0 1
-7.750870 8.900538 -32.615063 34.684836 -0.854332 2.794384 0.036827 -0.013000 -476160.000000 0 0 1
-8.267770 10.031738 -31.942953 34.486867 -0.881496 2.755096 0.051097 -0.016257 -68556.500000 0 0 1
-7.460870 10.710038 -30.982973 33.620144 -0.962340 2.742875 0.037784 -0.007940 89896.200000 0 0 1
-6.569370 11.850338 -31.607043 34.388839 -1.064611 2.736606 0.017937 -0.002389 83456.900000 0 0 1
-7.389970 12.919638 -32.035783 35.324497 -1.051223 2.706664 0.040786 -0.010123 530095.000000 0 0 1
-6.607070 13.867338 -32.766583 36.188470 -1.126167 2.703218 0.008267 -0.000238 15485.300000 0 0 1
-7.272970 15.227238 -33.000973 37.065200 -1.125205 2.668908 -0.003459 0.006617 163511.000000 0 0 1
-8.317070 15.248238 -33.971693 38.154401 -1.071457 2.668963 0.002972 0.001885 362101.000000 0 0 1
-8.777770 16.555838 -34.179311 38.979101 -1.083288 2.640093 0.002959 -0.003944 -509384.000000 0 0 1
-9.483970 16.950538 33.776295 38.962861 -1.060682 0.521878 -0.016018 -0.008844 220610.000000 0 0 1
-10.685270 16.344738 33.396905 38.686932 -0.991794 0.529102 0.001388 -0.005157 660198.000000 0 0 1
-11.869070 16.772338 34.087067 39.800933 -0.954950 0.542465 0.006816 -0.023048 92492.900000 0 0 1
-13.211370 16.704438 33.296796 39.525373 -0.901635 0.569045 0.002254 -0.025863 213698.000000 0 0 1
-13.484670 15.428538 32.792801 38.668384 -0.852528 0.558498 -0.002902 -0.019243 295569.000000 0 0 1
-13.865670 14.487938 33.808833 39.308960 -0.807341 0.535371 0.022226 -0.015877 -639641.000000 0 0 1
-13.274870 13.053838 33.619529 38.430425 -0.777003 0.505742 -0.002352 -0.005063 49683.000000 0 0 1
-13.568970 12.438438 32.397191 37.261369 -0.741956 0.516692 -0.027513 -0.004726 480517.000000 0 0 1
-12.450470 11.685538 31.948081 36.224934 -0.753716 0.490842 -0.017836 0.000512 61563.600000 0 0 1
-12.639770 11.391738 30.430341 34.864611 -0.733512 0.509856 -0.014203 0.009142 185692.000000 0 0 1
-13.513170 10.276838 30.146841 34.598427 -0.650191 0.512879 -0.018884 0.011775 560339.000000 0 0 1
-13.507070 9.981638 28.753231 33.298984 -0.636420 0.528654 -0.030515 0.017592 16997.400000 0 0 1
-14.387770 8.760438 28.506371 33.111424 -0.546924 0.533716 -0.023202 0.014881 269556.000000 0 0 1
-13.683870 7.541338 28.774481 32.742798 -0.503696 0.497448 -0.049286 0.023577 780998.000000 0 0 1
-14.539370 6.414038 28.427061 32.567329 -0.415470 0.509742 -0.030893 0.027459 780235.000000 0 0 1
-13.810970 5.012338 28.316771 31.901503 -0.348142 0.478620 -0.032446 0.025927 808741.000000 0 0 1
-12.891070 4.800438 27.212491 30.491696 -0.356476 0.468037 -0.041479 0.013643 261255.000000 0 0 1
-13.541970 4.509338 25.995581 29.656185 -0.321441 0.502118 -0.030126 0.014216 -153316.000000 0 0 1
-12.664470 4.303838 24.696031 28.085686 -0.327591 0.496384 -0.032603 0.029283 -380451.000000 0 0 1
-12.048070 3.085438 24.753391 27.702099 -0.250706 0.465591 -0.033011 0.019175 -322247.000000 0 0 1
-11.713370 2.534138 23.493701 26.373829 -0.213062 0.471702 -0.021136 0.011939 -354152.000000 0 0 1
-10.761670 1.297838 23.604201 25.974145 -0.120019 0.430499 -0.019334 0.000047 -429492.000000 0 0 1
-9.463770 1.764238 23.855801 25.724982 -0.184305 0.383556 -0.007309 -0.010152 -105478.000000 0 0 1
-8.629870 0.759938 24.453421 25.942667 -0.087832 0.340479 -0.005307 0.000183 1247860.000000 0 0 1
-7.114870 1.194138 24.551261 25.589290 -0.166287 0.285805 0.018095 -0.004416 537127.000000 0 0 1
-6.455470 1.218338 23.269501 24.179063 -0.186535 0.275158 0.023319 -0.003248 618692.000000 0 1 0
-5.063870 1.492338 23.187601 23.780973 -0.286590 0.223857 0.020872 -0.003549 540416.000000 0 1 0
-4.583270 2.883238 23.716401 24.326674 -0.561527 0.224465 0.039790 -0.006117 -728616.000000 0 1 0
-4.619970 2.902238 25.121661 25.707294 -0.560893 0.213859 0.043746 -0.001099 78925.900000 0 0 1
-4.279770 4.214938 25.587231 26.282856 -0.777766 0.230584 0.047267 -0.012935 43298.100000 0 0 1
3.396130 -23.950162 12.778147 27.357358 -1.429936 1.084808 0.035311 0.000464 245469.000000 0 0 1
3.363730 -25.104712 13.601247 28.749873 -1.437602 1.078003 0.026607 -0.003390 -157296.000000 0 0 1
2.072730 -25.684342 13.558547 29.117277 -1.490271 1.086424 -0.000330 0.007154 243887.000000 0 0 1
1.853430 -26.957272 14.396447 30.616783 -1.502150 1.081263 -0.008641 0.020117 -236087.000000 0 0 1
1.547730 -26.702142 15.757747 31.043622 -1.512898 1.038399 0.000654 0.010219 63842.200000 0 0 1
1.812130 -27.910772 16.460647 32.453781 -1.505961 1.038860 -0.009820 0.014196 -356198.000000 0 0 1
1.523630 -27.942332 17.936247 33.238597 -1.516323 1.000809 -0.029472 0.018562 -368787.000000 0 0 1
2.488130 -27.355152 18.752247 33.258712 -1.480089 0.971781 -0.009171 0.013680 -271105.000000 0 0 1
2.229430 -27.669122 20.129647 34.289260 -1.490395 0.943381 -0.017487 0.012989 354716.000000 0 0 1
2.955330 -26.805262 21.222447 34.316881 -1.460988 0.904058 -0.018918 0.021040 187358.000000 0 0 1
2.361730 -25.505732 21.287447 33.305789 -1.478464 0.877402 -0.024206 0.016033 529456.000000 0 0 1
3.147030 -24.660462 22.122147 33.278095 -1.443868 0.843616 -0.006140 0.001353 225822.000000 0 0 1
2.323330 -23.418162 22.439247 32.516580 -1.471909 0.809188 -0.002226 0.001795 -12526.700000 0 0 1
2.038430 -22.447662 21.441147 31.109091 -1.480237 0.810378 -0.006311 0.001993 1114880.000000 0 0 1
3.225930 -21.863862 20.808247 30.354872 -1.424307 0.815507 0.001586 0.007678 897564.000000 0 0 1
2.905430 -20.681462 19.898147 28.846155 -1.431225 0.809580 -0.000056 0.001938 -82435.800000 0 0 1
2.390130 -19.610862 20.723047 28.631160 -1.449517 0.761512 -0.016493 0.006550 250846.000000 0 0 1
1.615930 -18.705462 19.956447 27.400097 -1.484622 0.754908 -0.029357 0.000931 193031.000000 0 0 1
1.112730 -17.444462 20.649647 27.054674 -1.507096 0.702458 -0.021276 0.000838 711111.000000 0 0 1
2.123530 -16.402462 20.516447 26.352889 -1.442048 0.678480 -0.031149 0.010812 569517.000000 0 0 1
1.658730 -15.125862 20.949847 25.892841 -1.461571 0.628181 -0.029233 0.008786 -102939.000000 0 0 1
2.599030 -13.905862 20.919247 25.253571 -1.386026 0.594608 -0.031528 0.020108 -300572.000000 0 0 1
3.180630 -13.448762 19.672647 24.041603 -1.338563 0.612392 -0.043348 0.021232 280730.000000 0 1 0
2.228030 -13.059662 18.686547 22.906461 -1.401819 0.616726 -0.036058 0.016423 610130.000000 0 1 0
1.332230 -11.761362 19.019047 22.401532 -1.458005 0.556694 -0.027054 0.005707 152799.000000 0 1 0
1.971630 -10.486862 18.995347 21.787263 -1.384956 0.511818 -0.026157 0.006022 -283652.000000 0 1 0
1.588830 -9.625862 20.044747 22.292902 -1.407213 0.452964 -0.023377 0.002941 366811.000000 0 1 0
0.143530 -9.035062 20.043347 21.986103 -1.554912 0.423546 -0.014518 -0.004576 392466.000000 0 1 0
-0.074570 -8.288062 21.177347 22.741539 1.561799 0.373054 -0.008734 -0.003847 -102566.000000 0 1 0
-1.343070 -7.659262 21.121947 22.507883 1.397209 0.352755 0.004866 -0.009807 196141.000000 0 1 0
-1.695170 -7.018162 22.488647 23.619218 1.333795 0.310655 0.006966 -0.003665 -559871.000000 0 1 0
-1.804870 -7.941362 23.564547 24.932121 1.347318 0.332749 -0.002968 0.004140 57043.000000 0 1 0
-1.983870 -7.338862 24.822647 25.960710 1.306783 0.297193 -0.001165 0.007788 -356929.000000 0 0 1
-2.088470 -8.428962 25.943047 27.357829 1.327915 0.323004 -0.000353 0.004619 108288.000000 0 0 1
-0.942570 -9.240162 26.091147 27.695072 1.469140 0.341999 -0.008724 0.007336 7124.930000 0 0 1
-1.131070 -10.199562 27.166047 29.039706 1.460354 0.361183 0.002305 -0.005828 214028.000000 0 0 1
0.121830 -11.070562 27.471647 29.618636 -1.559792 0.383095 -0.000505 -0.003431 822833.000000 0 0 1
1.200430 -10.400562 28.115347 30.001425 -1.455885 0.356472 -0.012071 0.002381 174036.000000 0 0 1
2.307830 -11.209862 28.392547 30.612478 -1.367758 0.383174 -0.015751 0.000337 -182555.000000 0 0 1
3.315030 -10.671662 29.406247 31.457927 -1.269608 0.363157 -0.008186 0.003246 -3514.530000 0 0 1
2.691230 -10.468862 30.636947 32.487880 -1.319175 0.339182 -0.020015 -0.001358 230671.000000 0 0 1
3.669430 -10.001262 31.554547 33.304345 -1.219149 0.325596 -0.022554 0.013436 -23621.100000 0 0 1
3.260330 -9.885762 33.020047 34.621981 -1.252229 0.305387 -0.030666 0.012400 -333443.000000 0 0 1
3.351530 -11.151962 33.652347 35.610104 -1.278851 0.333133 -0.029960 0.011310 290851.000000 0 0 1
2.781630 -11.251762 -34.276306 36.182935 -1.328438 2.815514 -0.030380 0.014900 -288809.000000 0 0 1
3.309030 -10.384962 -33.101506 34.849775 -1.262331 2.823501 -0.039506 0.024042 -226183.000000 0 0 1
2.914030 -9.014462 -33.222806 34.547170 -1.258137 2.863807 -0.035985 0.017803 289327.000000 0 0 1
3.104330 -8.358962 -32.006706 33.225568 -1.215205 2.869891 -0.026038 0.022628 -173132.000000 0 0 1
2.538230 -6.935762 -31.991106 32.832579 -1.219972 2.914703 -0.037526 0.012313 142455.000000 0 0 1
3.273230 -6.029462 -32.805206 33.514922 -1.073442 2.935431 -0.010879 0.014158 314252.000000 0 0 1
2.959930 -4.754862 -32.303506 32.785460 -1.013992 2.969916 -0.021510 0.017676 -243484.000000 0 0 1
3.256530 -3.617462 -33.248706 33.603087 -0.837857 2.996233 -0.018417 0.019386 -591404.000000 0 0 1
2.239830 -3.604962 -34.189306 34.451723 -1.014849 3.018088 -0.021844 0.018725 -311224.000000 0 0 1
2.345230 -2.538762 34.146047 34.320518 -0.825003 0.100875 0.000097 0.013974 20255.400000 0 0 1
1.788730 -2.848662 32.719247 32.891695 -1.010100 0.102445 -0.002172 0.006297 -686613.000000 0 0 1
0.416330 -2.915562 32.590847 32.723648 -1.428959 0.090122 -0.009967 0.003504 -1065180.000000 0 0 1
0.079830 -3.416662 31.297047 31.483093 -1.547436 0.108768 -0.002177 0.003185 -884717.000000 0 0 1
-1.379870 -3.606062 31.013147 31.252568 1.205333 0.123860 -0.006143 0.001547 -1087770.000000 0 0 1
-2.162670 -2.498062 30.635347 30.813016 0.857236 0.107439 -0.001821 0.005372 710797.000000 0 0 1
-3.532870 -2.947862 30.598447 30.942463 0.695373 0.149255 -0.006679 0.001591 700251.000000 0 0 1
-4.468970 -1.905562 30.002247 30.393054 0.403055 0.160537 0.015638 -0.008969 -464743.000000 0 0 1
-4.114470 -1.686762 28.636947 28.980145 0.389062 0.154052 0.015955 -0.001482 287232.000000 0 0 1
-5.090970 -1.002362 27.849647 28.328882 0.194404 0.184200 0.012801 -0.005586 303941.000000 0 0 1
-5.442170 0.489238 28.203747 28.728173 -0.089657 0.191366 0.017549 0.000548 307148.000000 0 0 1
-6.505070 0.664138 29.127347 29.852293 -0.101743 0.220832 0.010003 -0.003124 60036.900000 0 0 1
-6.932070 2.039738 29.248047 30.127436 -0.286170 0.242207 0.012863 -0.004885 492182.000000 0 0 1
-8.395870 2.388838 29.685347 30.942156 -0.277200 0.285993 -0.006997 -0.004904 706242.000000 0 0 1
-9.288670 1.769038 28.737447 30.253095 -0.188197 0.317877 -0.024336 0.006944 -768610.000000 0 0 1
-10.588070 2.142638 29.040047 30.984229 -0.199667 0.356132 -0.040188 0.018138 -1111030.000000 0 0 1
-11.538770 1.299338 28.190047 30.487871 -0.112134 0.390729 -0.029397 0.018188 -552275.000000 0 0 1
-11.491270 0.016838 28.638447 30.857904 -0.001465 0.381587 -0.021960 0.015429 78378.400000 0 0 1
-12.068870 -0.948062 27.792747 30.314901 0.078393 0.410800 -0.017105 0.015996 -1431500.000000 0 0 1
-11.598870 -2.345462 28.300247 30.674729 0.199524 0.396051 -0.009013 0.010851 451846.000000 0 0 1
-10.197870 -2.544562 28.494547 30.371213 0.244526 0.353378 -0.014721 0.001033 1196270.000000 0 0 1
-9.304970 -2.244662 27.390547 29.014877 0.236710 0.336193 -0.008081 0.003700 -529518.000000 0 0 1
-9.503570 -2.980162 26.039247 27.879053 0.303872 0.365325 -0.011104 0.005227 -609461.000000 0 0 1
-10.431070 -2.424562 25.107647 27.296148 0.228381 0.403165 -0.009756 0.006918 463140.000000 0 0 1
-10.335570 -2.983362 23.777647 26.097911 0.281012 0.424866 0.003814 0.002137 -228597.000000 0 0 1
-9.199770 -2.439762 22.902147 24.801140 0.259231 0.393869 0.009789 -0.005092 -940298.000000 0 1 0
-7.924270 -2.840562 23.210447 24.689830 0.344195 0.347928 0.005748 -0.002663 -1138860.000000 0 1 0
-7.011470 -2.500062 22.201847 23.416512 0.342514 0.323502 0.006622 -0.007191 -215139.000000 0 1 0
-5.539570 -2.723862 22.609047 23.436623 0.456994 0.266537 0.013700 -0.008401 -91667.900000 0 1 0
-5.031670 -4.063262 22.487747 23.399286 0.679320 0.280041 0.015333 -0.010338 -47764.600000 0 1 0
-5.432170 -5.049462 23.468247 24.612277 0.748902 0.306094 0.011770 -0.000271 -49057.900000 0 1 0
-5.181370 -6.509762 22.966047 24.426685 0.898537 0.347570 0.007605 -0.000684 -153400.000000 0 1 0
-6.127970 -6.859462 21.957047 23.805801 0.841662 0.396702 0.014986 -0.006578 668376.000000 0 1 0
-5.692270 -6.404662 20.664347 22.370447 0.844221 0.393079 0.013384 -0.013358 -302885.000000 0 1 0
-6.901470 -6.257862 19.730247 21.819115 0.736528 0.441143 0.022752 -0.012671 -33945.900000 0 1 0
-7.781470 -5.230562 20.094947 22.174692 0.591811 0.436562 0.020936 -0.011085 -199484.000000 0 1 0
-8.955570 -5.200762 19.313447 21.914822 0.526129 0.492198 0.037084 -0.002105 342103.000000 0 1 0
-9.662270 -3.840762 19.441547 22.047328 0.378350 0.491111 0.026032 -0.008292 -39632.600000 0 1 0
-8.808270 -2.837562 18.971147 21.107861 0.311650 0.453837 0.027424 -0.013077 -237647.000000 0 1 0
-9.409570 -1.579762 18.930647 21.199176 0.166338 0.466852 0.017705 -0.015648 -732954.000000 0 1 0
-8.501870 -0.547962 18.290147 20.177005 0.064363 0.435913 0.022108 -0.015778 116587.000000 0 1 0
-7.315270 -0.244462 19.026947 20.386213 0.033406 0.367233 0.021922 -0.008066 696728.000000 0 1 0
-7.604770 0.582138 20.203747 21.595435 -0.076400 0.360965 0.026183 -0.008551 -418646.000000 0 1 0
-7.580070 2.107838 19.954547 21.449578 -0.271224 0.375566 0.021412 -0.018411 -450064.000000 0 1 0
-8.481870 2.565638 18.983947 20.950295 -0.293735 0.436724 0.015405 -0.026189 66287.300000 0 1 0
-8.530970 3.961338 18.894947 21.106603 -0.434721 0.461883 0.018912 -0.019785 -140163.000000 0 1 0
-9.369870 4.461038 17.729747 20.543594 -0.444349 0.529558 0.017953 -0.014708 -814278.000000 0 1 0
-10.750670 4.433138 17.968647 21.403315 -0.391115 0.574385 0.016836 -0.008914 -594732.000000 0 1 0
-11.487870 5.121338 17.029047 21.170444 -0.419359 0.636168 0.015437 0.001828 -331237.000000 0 1 0
-11.567170 6.646238 17.179447 21.750984 -0.521517 0.660274 0.015836 0.009773 -1175010.000000 0 1 0
-10.356170 7.231138 16.825847 21.039219 -0.609547 0.643939 0.019500 0.003299 -188551.000000 0 1 0
-10.534070 8.660738 16.882147 21.702118 -0.688111 0.679474 0.012100 0.001877 -398893.000000 0 1 0
-9.245270 9.457238 16.968747 21.514013 -0.796731 0.662056 0.008706 0.004328 -408845.000000 0 1 0
-8.782370 9.784338 18.282847 22.519454 -0.839312 0.623450 0.023896 0.018951 149195.000000 0 1 0
-7.927170 10.914338 18.469847 22.871337 -0.942631 0.630803 0.031108 0.008792 63345.200000 0 1 0
-8.384070 12.291538 17.952947 23.317008 -0.972184 0.692032 0.024524 0.010723 -340782.000000 0 1 0
-8.438070 12.382338 16.532347 22.312369 -0.972622 0.736313 0.023816 -0.004751 -1884.930000 0 1 0
-9.098570 13.582038 16.137547 22.971203 -0.980560 0.791875 0.029197 -0.010839 -55865.800000 0 1 0
-8.750670 14.033438 14.659447 22.100023 -1.013234 0.845546 0.024806 -0.010476 6576.230000 0 1 0
-7.522270 14.688338 14.550647 22.001208 -1.097496 0.848170 0.020458 0.002066 -469762.000000 0 1 0
-7.504770 15.313538 13.319547 21.638770 -1.115121 0.907724 0.014589 -0.008700 6692.140000 0 1 0
-6.443070 16.429238 13.214047 22.046407 -1.197057 0.928077 0.001744 -0.001977 438464.000000 0 1 0
-5.126070 16.013538 13.524847 21.578496 -1.260995 0.893390 0.009939 -0.007842 -19929.400000 0 1 0
-4.167870 17.060438 13.480247 22.139258 -1.331189 0.916143 0.005985 -0.008855 199611.000000 0 1 0
-2.718870 16.557738 13.481247 21.524288 -1.408043 0.893963 0.011642 -0.025084 -176897.000000 0 1 0
-2.138270 16.206738 14.757547 22.023073 -1.439617 0.836460 0.016027 -0.017532 -44635.300000 0 1 0
-2.392770 14.918638 15.228347 21.452125 -1.411763 0.781474 0.025873 -0.009875 -488034.000000 0 1 0
-1.428870 14.471938 16.337547 21.872222 -1.472381 0.727327 0.024630 0.001923 -1080160.000000 0 1 0
-0.234070 14.099038 15.765447 21.151525 -1.554196 0.729725 0.005559 -0.016372 -968441.000000 0 1 0
0.710430 13.641038 16.727347 21.595990 1.518763 0.684780 0.004987 0.001038 855014.000000 0 1 0
1.824630 14.644838 17.163247 22.635760 1.446843 0.710193 0.002203 -0.005853 460397.000000 0 1 0
1.233730 15.547738 18.088247 23.883864 1.491611 0.711564 0.003541 -0.003278 259664.000000 0 1 0
2.214830 16.495538 18.490147 24.877576 1.437326 0.732888 0.013616 -0.006253 -185544.000000 0 1 0
1.604530 17.837938 18.987747 26.101745 1.481087 0.756196 0.006172 0.002180 319628.000000 0 0 1
0.857430 18.568038 17.985247 25.864577 1.524651 0.801873 -0.001469 0.008979 543732.000000 0 0 1
-0.434370 18.007438 17.726847 25.272468 -1.546679 0.793396 0.009075 0.010053 -259668.000000 0 0 1
-1.226370 18.943938 16.786947 25.341239 -1.506150 0.846730 0.003978 0.008822 -293418.000000 0 0 1
-1.694370 20.114338 17.433647 26.671887 -1.486758 0.858420 0.003238 0.015348 200540.000000 0 0 1
-2.401270 20.847838 16.378247 26.620395 -1.456121 0.908091 -0.001569 0.014466 236661.000000 0 0 1
-2.958070 22.221938 16.909047 28.079897 -1.438459 0.924572 -0.002015 0.018250 -619971.000000 0 0 1
-4.016670 22.112738 17.814447 28.678587 -1.391110 0.900554 -0.000755 0.021310 -228928.000000 0 0 1
-4.143370 23.294338 18.620947 30.108693 -1.394767 0.904018 -0.004433 0.025053 -890872.000000 0 0 1
-5.203570 23.194638 19.685147 30.863788 -1.350107 0.879148 -0.017309 0.027588 -470723.000000 0 0 1
-6.501570 23.267438 19.114347 30.805882 -1.298318 0.901445 -0.023743 0.016662 -300824.000000 0 0 1
-7.402670 22.847938 20.121247 31.331971 -1.257472 0.873437 -0.031458 0.013072 -19072.000000 0 0 1
-8.865670 22.833638 19.606347 31.374894 -1.200441 0.895786 -0.035461 0.002881 319727.000000 0 0 1
-9.419470 24.135838 19.654547 32.520245 -1.198707 0.921810 -0.027007 0.006736 430250.000000 0 0 1
-10.744470 24.279738 19.117147 32.717192 -1.154173 0.946761 -0.016483 0.006264 936166.000000 0 0 1
-11.298470 25.754038 19.281147 34.098219 -1.157373 0.969807 -0.001830 -0.005143 153841.000000 0 0 1
-11.730970 26.018838 20.624747 35.213290 -1.147224 0.945042 -0.007125 0.001388 155177.000000 0 0 1
-12.502070 27.208938 20.714247 36.410275 -1.140084 0.965614 0.009477 -0.001287 -388797.000000 0 0 1
-13.294170 27.361338 22.015347 37.550676 -1.118513 0.944333 0.028409 -0.018886 -1114870.000000 0 0 1
-14.408770 26.531838 22.029947 37.374719 -1.073286 0.940438 0.022638 -0.020844 -700843.000000 0 0 1
-15.019070 26.713738 23.292947 38.493605 -1.058618 0.920890 0.012831 -0.011754 -143442.000000 0 0 1
-16.550270 26.566938 23.242147 38.986036 -1.013662 0.932079 0.031792 -0.007815 33067.800000 0 0 1
-16.916570 25.191938 23.105447 38.140081 -0.979450 0.920019 0.029390 -0.012383 -1184790.000000 0 0 1
-18.283270 25.000538 23.149347 38.667779 -0.939361 0.928953 0.045340 -0.007642 -745239.000000 0 0 1
25.900630 24.814438 23.970901 43.141663 0.763984 0.981673 0.040282 -0.016120 176030.000000 0 0 1
26.245030 23.916438 25.018261 43.436286 0.739010 0.956999 0.050575 -0.019952 142291.000000 0 0 1
25.819730 22.649438 24.627481 42.263085 0.720083 0.948727 0.042211 -0.007579 -107541.000000 0 0 1
25.730930 21.681438 25.804721 42.403409 0.700195 0.916561 0.045443 -0.001595 -336419.000000 0 0 1
24.593730 22.004238 26.541821 42.349809 0.729884 0.893449 0.036012 -0.001626 -311570.000000 0 0 1
24.492230 21.346238 27.766881 42.737933 0.716873 0.863605 0.039915 -0.000852 317414.000000 0 0 1
23.158830 21.532038 28.560861 42.610830 0.749013 0.836221 0.039379 -0.003072 301817.000000 0 0 1
22.941530 22.880838 28.977081 43.468584 0.784074 0.841130 0.044374 -0.009151 175971.000000 0 0 1
21.749030 22.925538 29.743211 43.396534 0.811727 0.815668 0.052364 -0.006129 -19055.300000 0 0 1
21.307930 24.253438 30.399111 44.343693 0.849958 0.815459 0.047965 -0.016204 -425312.000000 0 0 1
20.855530 25.185538 29.497951 44.038546 0.879169 0.836828 0.040066 -0.020579 -198423.000000 0 0 1
20.576830 26.458138 30.073451 45.031672 0.909794 0.839508 0.039158 -0.022957 1804750.000000 0 0 1
19.059730 26.585438 30.611451 44.800890 0.948802 0.818554 0.051702 -0.024213 1156300.000000 0 0 1
18.120830 26.712038 29.575131 43.778828 0.974730 0.829075 0.044064 -0.030166 1651010.000000 0 0 1
16.791830 27.191338 29.967701 43.810929 1.017577 0.817532 0.043176 -0.028492 1857600.000000 0 0 1
15.766030 26.319138 30.710171 43.409438 1.031088 0.784907 0.033071 -0.016459 -811440.000000 0 0 1
16.170130 26.073038 32.017851 44.344325 1.015666 0.764067 0.037031 -0.020248 -153235.000000 0 0 1
15.392830 25.097738 32.684061 43.989584 1.020644 0.733261 0.035804 -0.017883 -379655.000000 0 0 1
15.971730 24.524438 33.932897 44.810553 0.993537 0.711700 0.044553 -0.012656 -313975.000000 0 0 1
16.183130 25.559938 -34.393776 45.805414 1.006362 2.420170 0.037409 -0.008307 28357.700000 0 0 1
16.606830 25.123938 -33.123623 44.767996 0.986730 2.403711 0.020169 0.013716 -58481.000000 0 0 1
17.061130 26.358338 -32.260523 45.017613 0.996338 2.369740 0.024948 0.031644 -332336.000000 0 0 1
16.033330 27.035438 -31.599903 44.570578 1.035504 2.358855 0.043565 0.006447 -60465.400000 0 0 1
16.481130 28.284138 -31.072923 45.134761 1.043196 2.330143 0.047181 0.005074 -102300.000000 0 0 1
16.003430 28.589038 -29.655223 44.191346 1.060479 2.306439 0.052625 0.008994 -62558.100000 0 0 1
16.487230 27.810138 -28.541293 43.125838 1.035651 2.294033 0.027005 0.025820 197411.000000 0 0 1
15.916130 28.352638 -27.350273 42.488030 1.059271 2.270142 0.025822 0.026184 166925.000000 0 0 1
16.607030 27.702838 -26.117263 41.537358 1.030766 2.250761 0.016134 0.024282 12309.200000 0 0 1
17.993030 27.898238 -26.153433 42.261837 0.997978 2.238065 0.033540 0.023553 -776445.000000 0 0 1
18.647730 27.486438 -24.984253 41.562663 0.974691 2.215701 0.035671 0.018006 490257.000000 0 0 1
20.197630 27.614238 -25.036653 42.394863 0.939292 2.202547 0.036447 0.013333 471948.000000 0 0 1
20.753630 27.156038 -23.817153 41.658376 0.918246 2.179404 0.022051 0.010593 628611.000000 0 0 1
22.193530 27.148138 -23.864653 42.415750 0.885477 2.168368 0.032713 0.012099 1023120.000000 0 0 1
22.671630 26.879238 -22.434153 41.710759 0.870110 2.138682 0.037808 0.008937 36122.700000 0 0 1
22.457130 25.474938 -22.047453 40.489324 0.848275 2.146619 0.039830 0.004720 127816.000000 0 0 1
22.930930 25.333838 -20.713853 39.958661 0.835143 2.115754 0.028649 0.006522 -378406.000000 0 0 1
22.451730 24.118738 -19.900553 38.494489 0.821178 2.114105 0.014485 0.005447 -806356.000000 0 0 1
23.090930 22.899238 -20.154253 38.259117 0.781230 2.125608 0.015808 0.012670 -39107.100000 0 0 1
22.769730 22.007838 -19.146053 37.005093 0.768385 2.114594 0.014471 0.015452 -795151.000000 0 0 1
22.932730 20.529038 -19.559753 36.468280 0.730149 2.136902 0.023368 0.007935 390529.000000 0 0 1
21.967830 19.991838 -20.453253 36.063759 0.738340 2.173827 0.015920 0.008775 1075140.000000 0 0 1
20.589130 20.042238 -20.043053 35.033235 0.771939 2.179879 0.008510 0.005351 457599.000000 0 0 1
19.557730 19.700638 -21.164053 34.907550 0.789038 2.222182 0.013717 0.012096 252211.000000 0 0 1
19.500930 20.651738 -22.251553 36.082020 0.814051 2.235332 0.019074 0.011551 -56565.300000 0 0 1
19.450030 22.066938 -21.938253 36.695236 0.848347 2.211613 0.016183 0.012242 -305183.000000 0 0 1
19.224230 22.984138 -23.134753 37.855758 0.874243 2.228283 0.030513 0.016336 208910.000000 0 0 1
17.888330 23.055638 -23.590053 37.523931 0.910939 2.250634 0.028358 0.013864 -347387.000000 0 0 1
17.793630 23.677438 -24.863553 38.670798 0.926335 2.269146 0.024761 0.007816 -1001730.000000 0 0 1
16.327230 23.730538 -25.176093 38.256405 0.968152 2.289073 0.018205 0.018281 -866699.000000 0 0 1
15.598830 24.571438 -24.310853 37.922244 1.005155 2.266689 0.001874 0.007617 -497978.000000 0 0 1
14.211030 24.436438 -24.387053 37.333915 1.044053 2.282618 0.003780 0.007820 -503353.000000 0 0 1
13.394430 25.443338 -23.652253 37.231751 1.086220 2.259156 -0.009078 0.011590 -355540.000000 0 0 1
13.421230 26.742538 -24.261853 38.521815 1.105655 2.252119 -0.011867 0.014481 206392.000000 0 0 1
12.440430 27.617538 -23.701253 38.460916 1.147565 2.234759 -0.009499 0.011079 303799.000000 0 0 1
12.336330 28.914338 -24.556853 39.890638 1.167528 2.233949 -0.004938 0.007579 12469.500000 0 0 1
12.103030 28.700638 -25.938583 40.534183 1.171725 2.265189 0.010109 -0.000428 -348271.000000 0 0 1
11.708930 29.767838 -26.696053 41.664163 1.196043 2.266263 0.030036 0.001596 -444316.000000 0 0 1
12.514730 31.089438 -26.729423 42.867629 1.188103 2.244051 0.039306 -0.000781 611417.000000 0 0 1
13.783230 31.049138 -27.397913 43.642548 1.153013 2.249494 0.034320 0.000605 514584.000000 0 0 1
14.401730 32.324738 -27.394963 44.752458 1.151664 2.229566 0.030342 -0.001607 -2439.680000 0 0 1
15.769230 32.335138 -28.097453 45.647526 1.117052 2.233855 0.036639 0.008614 486062.000000 0 0 1
16.767730 31.573238 -27.415273 45.051341 1.082600 2.225008 0.019592 0.014366 -834760.000000 0 0 1
18.052430 31.694738 -27.872813 45.905777 1.053051 2.223296 0.024068 0.012148 -1180280.000000 0 0 1
19.046430 30.905638 -26.963773 45.221344 1.018494 2.209633 0.019659 0.020371 -615721.000000 0 0 1
19.488730 31.487838 -25.731773 45.093444 1.016575 2.178072 0.027056 0.012643 144257.000000 0 0 1
20.234430 32.679738 -25.832163 46.310885 1.016398 2.162528 0.024114 0.003681 -479947.000000 0 0 1
21.692230 32.552538 -26.307613 47.141394 0.982995 2.162839 0.011345 0.009446 -656209.000000 0 0 1
21.791630 32.077338 -27.608733 47.603286 0.974067 2.189495 0.006371 0.017360 1235890.000000 0 0 1
23.147330 32.325938 -28.093263 48.682610 0.949373 2.185933 -0.000055 0.022632 924383.000000 0 0 1
23.278330 31.713538 -29.514173 49.180438 0.937602 2.214448 -0.008580 0.020744 370127.000000 0 0 1
22.412730 32.328938 -30.481033 49.765290 0.964600 2.230010 -0.001667 0.010919 235519.000000 0 0 1
21.069830 31.945238 -30.494123 48.931866 0.987729 2.243618 0.001053 0.014477 -439107.000000 0 0 1
20.043830 32.678838 -31.379873 49.541477 1.020613 2.256743 -0.004875 0.010310 -892780.000000 0 0 1
19.719630 34.012738 -31.115413 50.138798 1.045383 2.240286 0.006514 0.009554 -15963.200000 0 0 1
18.708630 34.501438 -31.970763 50.621060 1.073918 2.254373 0.001187 -0.001224 -365413.000000 0 0 1
17.244530 34.230438 -31.551003 49.644360 1.104131 2.259505 0.003081 -0.001933 -302705.000000 0 0 1
16.747630 32.874738 -31.765833 48.685723 1.099627 2.281632 0.027329 -0.002540 229686.000000 0 0 1
16.951130 32.185738 -32.994763 49.111271 1.086044 2.307482 0.031035 -0.010786 -672723.000000 0 0 1
16.282830 32.830538 -34.283955 50.183307 1.110381 2.322897 0.049732 -0.024240 -351078.000000 0 0 1
16.834330 34.051438 34.555904 51.351783 1.111655 0.832640 0.031213 -0.015625 -250970.000000 0 0 1
16.607230 34.539138 33.218497 50.717065 1.122607 0.856645 0.044055 -0.032263 -555811.000000 0 0 1
15.210330 -34.219970 32.948841 49.879722 -1.152537 0.849224 0.056270 -0.039087 -677617.000000 0 0 1
14.229130 34.095538 32.892071 49.465768 1.175439 0.843375 0.064347 -0.037934 401788.000000 0 0 1
12.875330 34.447138 32.568161 49.122953 1.213104 0.845987 0.044131 -0.032702 1128760.000000 0 0 1
12.628630 -34.228370 31.144311 47.969071 -1.217338 0.864188 0.020199 -0.022223 -780926.000000 0 0 1
13.035630 -32.873770 30.994741 47.024317 -1.193280 0.851146 0.040946 -0.024748 269713.000000 0 0 1
12.551430 -32.417070 29.750111 45.754496 -1.201385 0.862933 0.034325 -0.025834 -324252.000000 0 0 1
13.036830 -30.985770 29.497341 44.723260 -1.172543 0.850573 0.025928 -0.017961 -140814.000000 0 0 1
12.729430 -30.073070 30.568421 44.730932 -1.170381 0.818408 0.003607 -0.007426 370012.000000 0 0 1
13.219430 -28.742070 30.307651 43.811113 -1.139713 0.806845 0.014252 -0.009545 -363628.000000 0 0 1
12.924730 -27.764470 31.513461 43.943289 -1.135117 0.771107 0.006690 -0.005835 352710.000000 0 0 1
11.538530 -27.637270 31.781191 43.669217 -1.175296 0.755730 -0.003807 0.000218 167347.000000 0 0 1
10.655130 -26.809770 31.076001 42.402988 -1.192503 0.748261 -0.017511 -0.000175 -36319.100000 0 0 1
10.820930 -25.283670 31.239251 41.620275 -1.166403 0.721860 -0.034820 0.005722 -398732.000000 0 0 1
10.334730 -24.851470 32.464101 42.170132 -1.176693 0.692212 -0.008372 0.002350 42057.500000 0 0 1
10.776630 -23.531970 32.732211 41.728731 -1.141345 0.669061 -0.010745 0.002236 42410.400000 0 0 1
9.961130 -22.975170 33.896910 42.143600 -1.161697 0.636267 -0.003308 0.004679 -586229.000000 0 0 1
9.960830 -23.641770 -34.119105 42.687993 -1.172044 2.496871 -0.005247 0.010559 668607.000000 0 0 1
11.217530 -23.805670 -33.437563 42.551305 -1.130443 2.474813 -0.001241 0.008289 991820.000000 0 0 1
11.874730 -22.538570 -32.761663 41.500878 -1.085890 2.480661 0.010307 -0.006526 60261.700000 0 0 1
12.222130 -21.507770 -33.656203 41.769662 -1.054038 2.507749 -0.000890 0.001585 -21375.100000 0 0 1
13.234830 -20.713970 -33.070473 41.205406 -1.002241 2.502397 0.009914 -0.004962 -19406.700000 0 0 1
13.643030 -19.524070 -33.939883 41.463686 -0.960890 2.529669 0.002591 0.001293 -591366.000000 0 0 1
14.212830 -19.847070 34.082192 41.922626 -0.949335 0.621547 0.006281 0.010673 138974.000000 0 0 1
13.852230 -19.011270 32.984401 40.512756 -0.941111 0.619493 -0.015270 0.018851 -89399.500000 0 0 1
14.572030 -17.622670 32.909641 40.074269 -0.879872 0.607257 0.001682 0.014038 -518340.000000 0 0 1
14.079530 -16.658270 33.816322 40.240213 -0.869097 0.572847 -0.002481 0.017099 15203.000000 0 0 1
14.721230 -15.383970 33.865329 40.003021 -0.807409 0.561290 0.030655 0.009962 1322650.000000 0 0 1
16.191130 -15.380570 34.482726 41.082515 -0.759730 0.574705 0.037685 0.009670 1570830.000000 0 0 1
17.217330 -15.998570 33.718827 41.101703 -0.748723 0.608729 0.029388 0.008788 -316210.000000 0 0 1
18.495330 -15.542270 34.047021 41.747324 -0.698856 0.617118 0.043593 0.005213 -629014.000000 0 0 1
19.515330 -16.214570 33.137661 41.735656 -0.693279 0.653453 0.049933 -0.010039 -569524.000000 0 0 1
19.428730 -15.705570 31.800521 40.440248 -0.679823 0.665905 0.043991 -0.005496 599337.000000 0 0 1
20.199330 -16.543370 30.916051 40.466013 -0.686223 0.701306 0.036568 -0.007508 -22682.100000 0 0 1
20.459230 -15.820870 29.587931 39.297909 -0.658239 0.718318 0.028005 0.002375 -454017.000000 0 0 1
21.322330 -14.746870 29.817241 39.511768 -0.605077 0.715688 0.040149 -0.002028 407055.000000 0 0 1
21.774730 -14.061770 28.588161 38.589574 -0.573406 0.736497 0.020513 -0.002541 470947.000000 0 0 1
22.486530 -12.669470 28.760171 38.643330 -0.513092 0.731390 0.020195 0.002694 199109.000000 0 0 1
21.570230 -11.692270 29.132821 38.088125 -0.496724 0.699942 0.013512 0.000882 -105866.000000 0 0 1
22.255930 -10.491170 29.269261 38.237164 -0.440497 0.699031 0.024001 -0.002344 143261.000000 0 0 1
21.346730 -9.248470 29.234071 37.361049 -0.408838 0.672166 0.025270 -0.003570 616765.000000 0 0 1
20.413230 -9.119370 30.325221 37.676012 -0.420138 0.635298 0.032512 -0.006520 -249079.000000 0 0 1
19.428230 -8.189370 30.021071 36.684964 -0.398919 0.612265 0.028754 -0.015127 -81620.900000 0 0 1
18.185630 -8.242970 30.960381 36.840316 -0.425569 0.572787 0.021548 0.002521 100063.000000 0 0 1
18.401430 -7.713870 32.226681 37.903501 -0.396947 0.554375 0.017803 -0.000496 182850.000000 0 0 1
18.981230 -8.630870 33.138431 39.152709 -0.426760 0.561628 0.024972 -0.009860 -536754.000000 0 0 1
19.096530 -8.074670 34.539292 40.284494 -0.400035 0.540631 0.027919 -0.012856 -19628.100000 0 0 1
17.846030 -7.988670 -34.067331 39.279545 -0.420893 2.620558 0.023605 -0.015784 193052.000000 0 0 1
18.071730 -7.369570 -32.807293 38.173505 -0.387209 2.604942 0.015327 -0.020554 424540.000000 0 0 1
16.783330 -7.196170 -31.939983 36.791677 -0.405059 2.622220 0.011975 -0.017388 239741.000000 0 0 1
16.883230 -6.223170 -30.917803 35.772641 -0.353149 2.614526 0.004467 -0.012063 720880.000000 0 0 1
15.753830 -6.256170 -30.003673 34.460749 -0.378022 2.627343 0.007199 -0.005346 785569.000000 0 0 1
15.656730 -5.066970 -29.043473 33.381592 -0.312991 2.626089 -0.007956 -0.003468 -138051.000000 0 0 1
16.543930 -5.171170 -27.913863 32.857668 -0.302951 2.585907 -0.009754 -0.000535 342753.000000 0 0 1
16.273630 -6.111270 -26.881403 32.012317 -0.359237 2.567565 0.016777 -0.007006 -99183.900000 0 0 1
14.982530 -5.895370 -26.028323 30.605640 -0.374876 2.587621 0.016181 -0.008740 479811.000000 0 0 1
15.029330 -4.691370 -25.282093 29.783786 -0.302564 2.584610 -0.009732 0.007482 -211447.000000 0 0 1
13.753230 -4.482270 -24.726353 28.646721 -0.315052 2.612267 0.007621 -0.009207 19514.200000 0 0 1
13.644630 -3.208170 -23.826653 27.643764 -0.230929 2.609836 0.006922 -0.004555 -48449.200000 0 0 1
13.450430 -2.077170 -24.620653 28.131926 -0.153221 2.636615 -0.006188 -0.005789 146054.000000 0 0 1
13.046530 -1.071170 -23.759153 27.126679 -0.081920 2.638010 -0.000859 -0.006049 -83663.800000 0 0 1
13.475930 0.339830 -24.340053 27.823629 0.025212 2.635815 -0.005674 -0.010699 -375817.000000 0 0 1
12.755030 0.873830 -25.408863 28.444062 0.068402 2.675414 0.002830 -0.009674 111078.000000 0 0 1
13.430630 2.034830 -25.838703 29.191795 0.150363 2.657582 -0.005106 -0.001195 142286.000000 0 0 1
12.607830 2.620830 -27.058383 29.966351 0.204954 2.697402 -0.006617 -0.010569 -226869.000000 0 0 1
11.521930 3.358830 -26.627963 29.207619 0.283655 2.718147 0.006311 -0.020227 -508157.000000 0 0 1
10.821930 3.837830 -27.766423 30.046919 0.340798 2.749476 0.001297 -0.017502 432185.000000 0 0 1
9.480230 4.604830 -27.533883 29.482095 0.452166 2.776019 0.008992 -0.013249 437852.000000 0 0 1
9.618130 5.911830 -26.987893 29.254136 0.551125 2.745389 0.010439 -0.015806 311481.000000 0 0 1
8.370730 6.587830 -27.062423 29.083386 0.666768 2.766603 0.022400 -0.014828 273911.000000 0 0 1
7.603230 5.764538 -31.792363 33.193272 0.648709 2.850028 0.011519 -0.000397 -320677.000000 0 0 1
7.444830 4.758538 -30.792453 32.035048 0.568727 2.862157 0.011067 0.012253 423713.000000 0 0 1
7.727330 3.479838 -31.387843 32.511807 0.423127 2.877881 0.005190 0.012018 -228070.000000 0 0 1
7.438330 2.285438 -30.439053 31.417955 0.298096 2.891310 0.014099 0.000057 -442428.000000 0 0 1
8.436030 1.932738 -29.501243 30.744518 0.225218 2.856235 0.017558 -0.004844 118887.000000 0 0 1
8.016130 0.928238 -28.677433 29.791192 0.115283 2.867291 0.015442 -0.009124 -469645.000000 0 0 1
9.061530 0.447738 -27.628873 29.080344 0.049371 2.824313 0.012533 -0.015511 243910.000000 0 0 1
10.111630 -0.277662 -28.263843 30.019443 -0.027453 2.797903 0.011961 -0.001187 671326.000000 0 0 1
11.100530 -0.655662 -27.277673 29.457140 -0.058997 2.754505 0.002803 -0.006383 -173644.000000 0 0 1
11.956430 -1.785562 -27.778633 30.295163 -0.148243 2.731122 -0.003012 0.002549 -315865.000000 0 0 1
11.200730 -2.943962 -27.992263 30.293399 -0.257023 2.749309 0.006564 -0.006506 364027.000000 0 0 1
12.115230 -3.988462 -28.304033 31.045207 -0.318036 2.718208 0.018124 -0.008098 103477.000000 0 0 1
11.465930 -5.373362 -28.224373 30.934702 -0.438244 2.719871 0.021268 -0.005389 -164053.000000 0 0 1
11.333130 -5.630662 -26.806083 29.643047 -0.461110 2.700524 0.022366 -0.012024 250730.000000 0 0 1
10.428830 -6.661462 -26.446293 29.198321 -0.568429 2.703935 0.018939 -0.019568 113072.000000 0 0 1
9.963430 -6.545662 -24.966153 27.666305 -0.581259 2.696110 0.011078 -0.020420 -1015900.000000 0 0 1
11.014830 -6.717662 -24.089253 27.326646 -0.547648 2.649889 0.008113 -0.011687 -593236.000000 0 0 1
10.677330 -6.560562 -22.724453 25.950859 -0.550968 2.637623 -0.000719 -0.013446 164578.000000 0 0 1
11.863830 -6.753162 -21.725953 25.658774 -0.517482 2.580597 0.008709 -0.014353 938142.000000 0 0 1
12.785930 -5.651862 -21.594553 25.724468 -0.416213 2.567077 0.012540 -0.014638 486999.000000 0 0 1
13.815630 -5.963362 -20.660653 25.559654 -0.407480 2.512107 0.019101 -0.016153 665353.000000 0 0 1
14.397930 -4.729262 -19.819653 24.949648 -0.317366 2.488792 0.022957 -0.012027 393028.000000 0 1 0
15.104030 -3.795662 -20.642053 25.857941 -0.246203 2.495242 0.020571 -0.008912 596797.000000 0 0 1
15.686530 -2.766562 -19.800653 25.412338 -0.174570 2.464144 0.015231 -0.005809 -481398.000000 0 0 1
16.629730 -1.813662 -20.463453 26.430857 -0.108632 2.456287 0.002964 0.004976 -56138.400000 0 0 1
17.919230 -2.354262 -20.705453 27.483761 -0.130634 2.423969 0.008836 0.005313 93887.900000 0 0 1
18.632730 -1.712662 -21.706253 28.657865 -0.091659 2.430160 0.002188 0.003385 -326122.000000 0 0 1
19.891330 -2.491262 -22.108653 29.843993 -0.124595 2.405068 0.005961 0.005619 -1423920.000000 0 0 1
20.765230 -2.689962 -21.013853 29.665008 -0.128824 2.357985 0.006488 0.014508 969950.000000 0 0 1
22.076330 -3.092962 -21.461953 30.944243 -0.139197 2.337227 -0.004504 0.006673 988045.000000 0 0 1
22.961830 -2.162662 -22.312153 32.089794 -0.093908 2.339639 -0.000386 0.000521 -1464710.000000 0 0 1
22.563930 -1.974762 -23.663353 32.756448 -0.087296 2.378067 0.002818 -0.000761 327567.000000 0 0 1
23.493730 -1.237562 -24.451253 33.931559 -0.052628 2.375471 0.005503 0.003884 -269473.000000 0 0 1
24.637730 -2.016262 -25.050253 35.193724 -0.081654 2.362828 0.024613 -0.011687 -514320.000000 0 0 1
25.651130 -2.448062 -24.118953 35.294438 -0.095149 2.323157 0.013430 -0.003611 1625920.000000 0 0 1
26.887630 -2.978962 -24.661053 36.605824 -0.110343 2.309990 0.007715 0.000714 1168160.000000 0 0 1
27.828130 -1.985962 -25.351623 37.696865 -0.071244 2.308395 0.010853 -0.014851 -1177680.000000 0 0 1
27.490030 -1.660262 -26.658433 38.329235 -0.060322 2.339928 0.033983 -0.020145 -74308.800000 0 0 1
28.074430 -0.494462 -27.174213 39.075004 -0.017611 2.339825 0.028451 -0.026787 -950895.000000 0 0 1
27.498930 -0.063962 -28.537093 39.630303 -0.002326 2.374718 0.034065 -0.027676 599493.000000 0 0 1
26.125630 0.337238 -28.534493 38.689528 0.012908 2.400194 0.022529 -0.020029 478787.000000 0 0 1
25.771930 1.508038 -27.823423 37.955361 0.058448 2.393601 0.018541 -0.009740 -531839.000000 0 0 1
24.284430 1.790638 -28.136813 37.210484 0.073603 2.428210 -0.000193 -0.017280 241228.000000 0 0 1
23.343630 1.196538 -27.271193 35.917610 0.051213 2.432988 0.003719 -0.014028 176594.000000 0 0 1
21.994030 1.298238 -27.660833 35.363038 0.058958 2.468979 0.003637 -0.009842 559310.000000 0 0 1
20.986430 0.945538 -26.506183 33.821620 0.045024 2.471405 0.014437 -0.004467 311535.000000 0 0 1
21.159430 1.962638 -25.564653 33.243419 0.092490 2.448093 0.014107 -0.007583 645645.000000 0 0 1
20.302230 1.674138 -24.458753 31.831020 0.082275 2.447124 0.013370 -0.006359 -122801.000000 0 0 1
20.559630 2.452138 -23.105853 31.025664 0.118709 2.410932 0.014206 -0.002342 -418929.000000 0 0 1
20.205230 3.846138 -23.052153 30.894107 0.188103 2.413082 0.009954 -0.010687 398123.000000 0 0 1
20.543130 4.307838 -21.798953 30.261725 0.206702 2.375099 0.011511 -0.007276 -207081.000000 0 0 1
20.115930 5.742038 -21.414453 29.936607 0.278053 2.367888 0.017989 -0.003111 -254701.000000 0 0 1
20.911130 6.699838 -22.071853 31.134063 0.310062 2.358775 0.023193 -0.009231 336678.000000 0 0 1
20.684430 8.027338 -21.572153 30.945784 0.370194 2.342134 0.018925 -0.008146 -628604.000000 0 0 1
21.070930 8.340738 -20.089253 30.284156 0.376916 2.296094 0.017508 0.000171 -935473.000000 0 0 1
22.438030 8.334938 -19.799053 31.063465 0.355668 2.261882 0.020593 0.002557 -244645.000000 0 0 1
22.759630 8.487538 -18.431353 30.491865 0.356947 2.219894 0.027321 -0.003991 -113145.000000 0 0 1
22.311530 9.742038 -17.589453 30.034988 0.411686 2.196456 0.036175 -0.010641 358379.000000 0 0 1
20.938730 10.144038 -17.585053 29.164465 0.451141 2.218005 0.018524 -0.014628 211001.000000 0 0 1
20.821430 11.521838 -17.392553 29.475169 0.505423 2.201948 -0.006821 -0.005849 -343409.000000 0 0 1
19.344930 11.996838 -17.325753 28.606505 0.555107 2.221389 -0.001761 -0.009168 802835.000000 0 0 1
18.511630 11.809838 -18.508553 28.717925 0.567871 2.271159 -0.004280 -0.009810 636542.000000 0 0 1
18.271330 10.415238 -18.803153 28.211296 0.518092 2.300316 0.004744 -0.006953 -1236450.000000 0 0 1
17.600630 10.155138 -20.175753 28.635118 0.523318 2.352628 0.003293 -0.010650 -484916.000000 0 0 1
18.452530 10.346938 -21.237153 29.976185 0.511046 2.358121 0.020005 -0.017925 -253318.000000 0 0 1
17.820130 9.972238 -22.453753 30.350841 0.510188 2.403579 0.018179 -0.018298 118005.000000 0 0 1
18.706230 10.221738 -23.753253 31.915889 0.500102 2.410201 0.038368 -0.028071 32816.100000 0 0 1
18.811730 11.583738 -24.051353 32.657797 0.551936 2.398627 0.027416 -0.012341 387770.000000 0 0 1
19.530930 11.868338 -25.252163 34.058573 0.546039 2.406000 0.031811 -0.017053 144772.000000 0 0 1
19.562530 13.400438 -25.357853 34.717215 0.600591 2.389721 0.043353 -0.023114 290290.000000 0 0 1
20.409030 13.898538 -26.407643 36.153305 0.597860 2.389755 0.041542 -0.024423 408943.000000 0 0 1
20.279330 15.313438 -26.593813 36.782924 0.646773 2.378922 0.048612 -0.008282 169504.000000 0 0 1
18.995630 15.889738 -27.248053 36.820838 0.696601 2.403892 0.039426 -0.004022 -41405.800000 0 0 1
17.811430 15.788538 -26.534353 35.645432 0.725266 2.410428 0.040247 -0.004456 -138343.000000 0 0 1
16.655630 16.028738 -27.344283 35.805590 0.766220 2.439802 0.034461 -0.007501 899234.000000 0 0 1
15.318230 15.507138 -26.757653 34.512193 0.791526 2.458002 0.039882 -0.014112 37267.500000 0 0 1
15.225530 14.088938 -26.703363 33.813969 0.746645 2.481139 0.041384 -0.013593 -542299.000000 0 0 1
13.951530 13.699238 -26.311943 32.781590 0.776274 2.502511 0.026813 -0.012396 -669925.000000 0 0 1
13.805030 12.194038 -26.139123 31.976978 0.723514 2.527741 0.024947 -0.015620 655395.000000 0 0 1
12.433130 11.770338 -26.146343 31.253077 0.758021 2.561844 0.028333 -0.018202 764436.000000 0 0 1
12.296730 10.407638 -25.893303 30.495764 0.702385 2.585035 0.042255 -0.023215 135723.000000 0 0 1
10.825930 9.917238 -25.843723 29.722893 0.741619 2.624963 0.022677 -0.028034 336061.000000 0 0 1
10.116530 10.380738 -24.715753 28.652615 0.798287 2.611184 0.031242 -0.027343 -45110.200000 0 0 1
8.991330 9.619138 -24.348453 27.680661 0.819119 2.645858 0.019159 -0.023605 72505.900000 0 0 1
8.246530 10.247938 -23.131853 26.610301 0.893195 2.624544 0.009501 -0.021968 275001.000000 0 0 1
7.506630 11.476938 -23.404153 27.126075 0.991571 2.611562 0.003561 -0.018224 508318.000000 0 0 1
6.943730 12.077838 -22.191853 26.202440 1.049026 2.580997 0.008690 -0.006275 329806.000000 0 0 1
7.887330 12.851138 -21.213453 26.026377 1.020331 2.523655 0.018109 -0.019143 -236466.000000 0 0 1
8.673330 12.026238 -20.425353 25.239891 0.945983 2.513669 0.026554 -0.026017 -665208.000000 0 0 1
9.612630 12.823338 -19.742653 25.428586 0.927538 2.459723 0.031499 -0.022400 -703792.000000 0 0 1
10.723930 12.055738 -19.023153 24.944415 0.843796 2.438153 0.039271 -0.021606 368049.000000 0 1 0
11.744630 11.466138 -19.854953 25.760974 0.773400 2.450794 0.052559 -0.023984 683589.000000 0 0 1
11.248730 10.391938 -20.621053 25.685679 0.745827 2.502811 0.054519 -0.030795 -385293.000000 0 0 1
12.360030 9.759238 -21.509453 26.658387 0.668355 2.509605 0.051107 -0.029607 -305444.000000 0 0 1
13.251630 8.989738 -20.825053 26.269829 0.596073 2.486082 0.050376 -0.026308 -576652.000000 0 0 1
14.170930 8.427838 -21.710853 27.261783 0.536533 2.492089 0.047346 -0.030432 -369657.000000 0 0 1
14.927830 7.179638 -21.257653 26.949492 0.448297 2.479644 0.061045 -0.020522 407399.000000 0 0 1
15.806930 7.370338 -20.130153 26.634638 0.436303 2.427654 0.031044 -0.019040 614818.000000 0 0 1
16.277630 6.112338 -19.652153 26.239837 0.359214 2.417262 0.013039 -0.021930 6695.180000 0 0 1
17.074030 6.134938 -18.320753 25.783909 0.344948 2.361076 0.029404 -0.023016 -1236440.000000 0 0 1
18.322330 6.709938 -18.518853 26.901282 0.351048 2.330078 0.015771 -0.026657 -474091.000000 0 0 1
18.995230 6.906838 -17.280653 26.592182 0.348747 2.278170 0.018636 -0.022975 203054.000000 0 0 1
19.673530 5.614838 -16.642453 26.373195 0.278010 2.253685 0.017923 -0.025231 -1411640.000000 0 0 1
20.828130 5.245738 -17.298853 27.578598 0.246727 2.248822 0.020571 -0.017669 -514648.000000 0 0 1
21.366130 4.214338 -16.535153 27.343801 0.194744 2.220202 0.026678 -0.015838 -65809.600000 0 0 1
22.742930 3.685338 -17.038053 28.655154 0.160647 2.207551 0.005234 0.009363 71231.900000 0 0 1
23.341330 2.683438 -16.253553 28.569153 0.114463 2.175988 0.000116 0.006194 -91160.400000 0 0 1
24.481330 2.208738 -16.926653 29.845027 0.089978 2.173840 0.000639 0.004463 -318605.000000 0 0 1
25.280630 1.284638 -15.981153 29.935895 0.050771 2.133939 0.002532 -0.003463 -601038.000000 0 0 1
24.770730 -0.027862 -15.864653 29.415592 -0.001125 2.140435 0.000276 -0.003105 -90635.800000 0 0 1
25.820730 -0.944162 -16.068853 30.427119 -0.036550 2.127169 -0.003547 0.004122 -582739.000000 0 0 1
25.407530 -2.405662 -16.271953 30.267247 -0.094402 2.138396 -0.015052 -0.001923 -411222.000000 0 0 1
24.801130 -3.076162 -15.161053 29.230401 -0.123403 2.116096 -0.005556 -0.000635 500728.000000 0 0 1
24.580330 -4.475862 -15.425253 29.362636 -0.180118 2.123906 -0.007753 0.001548 -1265480.000000 0 0 1
24.040930 -5.372162 -14.320153 28.493740 -0.219847 2.097367 -0.001323 0.002046 -210713.000000 0 0 1
22.721730 -5.186162 -13.870653 27.121362 -0.224403 2.107643 0.005368 0.007626 -20541.000000 0 0 1
21.776430 -5.659362 -14.819253 26.941632 -0.254260 2.153221 0.005845 0.009506 -402240.000000 0 0 1
20.313430 -5.558362 -14.298453 25.455384 -0.267092 2.167243 0.016751 0.007718 145853.000000 0 0 1
19.883030 -6.543662 -13.342653 24.822989 -0.317943 2.138280 0.014714 0.010187 462495.000000 0 1 0
20.179830 -6.223062 -11.956453 24.267443 -0.299127 2.085981 0.019468 0.010732 -309257.000000 0 1 0
20.003630 -7.438262 -10.955053 23.989292 -0.356002 2.045038 0.020944 0.009349 20602.100000 0 1 0
18.672930 -7.920262 -10.845253 23.000617 -0.401157 2.061810 0.016670 0.006905 703722.000000 0 1 0
18.514830 -8.994562 -11.740953 23.697068 -0.452226 2.089161 0.020254 -0.000650 -541533.000000 0 1 0
17.095730 -9.597562 -11.655053 22.808276 -0.511554 2.107145 0.028472 -0.006044 -158548.000000 0 1 0
16.163030 -8.593562 -11.977753 21.876001 -0.488669 2.150205 0.030636 -0.005327 28336.300000 0 1 0
14.889230 -9.137162 -12.323853 21.378827 -0.550415 2.185175 0.025102 -0.007492 215543.000000 0 1 0
13.965730 -8.035662 -12.886353 20.631810 -0.522123 2.245398 0.023055 -0.006182 -481765.000000 0 1 0
14.197630 -7.378862 -14.127453 21.344911 -0.479303 2.294100 0.027904 -0.001972 652645.000000 0 1 0
15.343530 -6.512162 -14.085153 21.822550 -0.401383 2.272396 0.040651 -0.002025 450654.000000 0 1 0
15.163330 -5.258662 -14.920253 21.913330 -0.333822 2.319754 0.022873 -0.003569 -200617.000000 0 1 0
14.129630 -4.413962 -14.493253 20.716754 -0.302785 2.345621 0.026634 -0.007666 -7230.180000 0 1 0
13.626730 -3.422762 -15.365953 20.821037 -0.246089 2.400900 0.021195 -0.015599 115543.000000 0 1 0
14.552730 -2.181562 -15.595653 21.442144 -0.148799 2.385229 0.013684 -0.009797 -696133.000000 0 1 0
15.572630 -2.437762 -16.516653 22.830885 -0.155281 2.379561 0.006642 -0.000913 1048700.000000 0 1 0
16.784830 -1.637862 -16.297053 23.452229 -0.097272 2.339083 0.015829 0.005390 1540790.000000 0 1 0
17.759330 -2.124462 -15.203153 23.474305 -0.119059 2.275294 0.015455 -0.000109 -837566.000000 0 1 0
17.190930 -2.181862 -13.975953 22.262431 -0.126244 2.249497 0.007204 0.002721 -213061.000000 0 1 0
18.215530 -2.530662 -13.078553 22.566753 -0.138045 2.188972 0.005355 0.003594 -92986.200000 0 1 0
17.812430 -2.613362 -11.590253 21.411359 -0.145676 2.142795 0.004468 0.010379 -748169.000000 0 1 0
17.694330 -1.382062 -10.957953 20.858479 -0.077949 2.123920 0.008319 0.009648 874095.000000 0 1 0
17.179330 -1.599862 -9.618653 19.753669 -0.092859 2.079368 -0.001070 0.009561 -1265020.000000 0 1 0
17.275730 -0.277862 -8.765953 19.374467 -0.016083 2.040306 -0.000886 0.010351 -102452.000000 0 1 0
18.585130 -0.054762 -8.232953 20.327114 -0.002947 1.987801 -0.000231 0.014244 1385630.000000 0 1 0
19.587930 0.471738 -9.101153 21.604178 0.024078 2.005639 -0.001715 0.016391 -130913.000000 0 1 0
19.287630 1.822438 -9.764553 21.695171 0.094208 2.037651 -0.003641 0.007489 -974131.000000 0 1 0
18.924730 2.917138 -8.926253 21.126597 0.152940 2.007012 -0.017696 0.014719 653521.000000 0 1 0
18.571330 3.965438 -9.800953 21.370018 0.210366 2.047250 -0.008415 0.004385 -275834.000000 0 1 0
18.386230 5.345338 -9.135553 21.215193 0.282926 2.015969 -0.009004 0.004304 -366845.000000 0 1 0
18.018130 6.343138 -10.025553 21.573134 0.338493 2.054119 0.017186 0.005124 332501.000000 0 1 0
18.540230 7.569238 -9.557553 22.189644 0.387607 2.016088 0.035018 -0.001089 -124078.000000 0 1 0
-24.859470 -29.357062 6.165247 38.959474 0.868165 1.411881 0.030815 0.003847 -32612.800000 0 0 1
-25.139680 -28.207032 6.911947 38.411134 0.842833 1.389864 0.031329 0.001549 332114.000000 0 0 1
-24.047270 -27.281592 6.845747 37.005685 0.848327 1.384733 0.016645 0.007514 58331.600000 0 0 1
-24.351370 -26.092672 7.767947 36.526124 0.819904 1.356491 0.007871 0.013416 316134.000000 0 0 1
-25.560490 -25.359502 7.615447 36.802690 0.781451 1.362364 0.005738 0.008716 889922.000000 0 0 1
-26.816550 -25.965692 7.959247 38.166663 0.769279 1.360715 0.010930 0.005507 653361.000000 0 0 1
-27.147010 -26.064592 9.483447 38.810551 0.765059 1.323945 -0.000373 0.009646 -730313.000000 0 0 1
-26.199030 -26.848202 10.158947 38.864114 0.797635 1.306327 -0.001698 0.010834 -483190.000000 0 0 1
-26.540550 -27.318682 11.389247 39.754574 0.799845 1.280236 -0.014110 0.017142 104952.000000 0 0 1
-25.300760 -27.953072 12.115847 39.601723 0.835162 1.259868 -0.024170 0.018305 1088460.000000 0 0 1
-24.291270 -27.015402 12.519947 38.427163 0.838443 1.238928 -0.002747 0.029841 245684.000000 0 0 1
-24.588770 -26.348042 13.776147 38.582498 0.819923 1.205681 -0.008673 0.031187 -1064170.000000 0 0 1
-23.369870 -25.771782 14.451047 37.671851 0.834237 1.177101 0.006734 0.026627 -384406.000000 0 0 1
-22.600270 -26.809752 15.070547 38.166168 0.870388 1.164874 0.025112 0.019256 -519001.000000 0 0 1
-21.554170 -26.340112 15.854047 37.546432 0.884995 1.134868 0.031155 0.021722 -323058.000000 0 0 1
-20.801170 -27.577972 16.420847 38.247581 0.924570 1.127045 0.031638 0.003421 183085.000000 0 0 1
-21.580770 -28.315492 17.361447 39.609552 0.919562 1.117074 0.041378 0.002115 277152.000000 0 0 1
-20.894470 -29.503892 17.660547 40.236221 0.954592 1.116398 0.028050 0.009159 -63558.300000 0 0 1
-21.653670 -30.451712 18.615847 41.746113 0.952671 1.108583 0.029855 0.001800 -711.610000 0 0 1
-22.734370 -31.126442 17.998747 42.540121 0.939966 1.133932 0.022673 0.001577 92847.000000 0 0 1
-23.201570 -32.202902 18.765347 43.903052 0.946457 1.129152 0.011737 0.006182 -124470.000000 0 0 1
-24.394670 -32.935662 18.145447 44.823153 0.933289 1.154011 0.007804 0.007978 -75699.600000 0 0 1
-23.941670 -33.754932 17.097947 44.776543 0.953870 1.178999 0.005793 0.006013 242940.000000 0 0 1
-25.002370 -34.522861 16.563847 45.730815 0.943995 1.200166 0.007686 0.004230 -199131.000000 0 0 1
-24.582370 34.132161 15.205547 44.727017 -0.946634 1.223918 -0.000510 -0.002871 59337.100000 0 0 1
-23.482670 33.245346 15.179747 43.440920 -0.955825 1.213829 -0.012213 -0.002319 -199405.000000 0 0 1
-22.320270 34.016950 14.914247 43.333384 -0.990109 1.219437 -0.010382 0.004719 -137219.000000 0 0 1
-21.043170 33.115566 15.031247 42.016594 -1.004720 1.204944 0.006356 -0.001687 211743.000000 0 0 1
-20.890070 32.236876 13.949847 40.868196 -0.995816 1.222457 0.006288 0.003242 -728909.000000 0 0 1
-19.749470 31.469846 14.001547 39.704359 -1.010352 1.210400 0.003237 0.002176 -834048.000000 0 0 1
-19.604070 30.410046 12.874047 38.403536 -0.998186 1.228946 -0.000346 0.000022 305784.000000 0 0 1
-18.950070 30.962006 11.732947 38.149876 -1.021569 1.258180 -0.011581 0.006882 -9657.620000 0 0 1
-18.965270 29.991846 10.753247 37.078628 -1.006931 1.276557 -0.008740 0.002097 201439.000000 0 0 1
-18.879770 30.563536 9.297247 37.108143 -1.017448 1.317553 -0.016129 0.005596 711516.000000 0 0 1
-17.574470 31.155456 9.116547 36.913898 -1.057200 1.321246 -0.012131 0.001525 707025.000000 0 0 1
-17.191070 31.555966 7.798147 36.771225 -1.071969 1.357102 -0.016446 0.004296 193914.000000 0 0 1
-16.697970 30.404736 6.848647 35.357802 -1.068575 1.375869 -0.019245 0.000020 -325092.000000 0 0 1
-17.713470 29.537956 6.418447 35.035045 -1.030608 1.386555 -0.026708 0.006839 -171130.000000 0 0 1
-17.570370 28.248096 6.962047 33.987394 -1.014356 1.364494 -0.029470 0.008388 -601695.000000 0 0 1
-18.411570 27.266166 6.228747 33.484728 -0.976873 1.383689 -0.016885 0.017505 -434274.000000 0 0 1
-17.920070 26.810206 4.958247 32.626681 -0.981591 1.418236 -0.008589 0.005544 664650.000000 0 0 1
-19.013370 26.163416 4.314447 32.628930 -0.942364 1.438180 0.000544 -0.000631 -301834.000000 0 0 1
-18.661770 25.294296 3.076347 31.583651 -0.935158 1.473238 0.014992 -0.008919 -1163980.000000 0 0 1
-18.137670 25.978196 1.905647 31.740719 -0.961287 1.510722 0.014904 -0.005721 298210.000000 0 0 1
-16.908570 26.673956 1.973747 31.643251 -1.005824 1.508381 -0.000552 -0.003858 -251876.000000 0 0 1
-15.715170 25.664606 2.144247 30.170124 -1.021361 1.499664 -0.004407 -0.008491 -764123.000000 0 0 1
-15.559470 24.681826 1.143247 29.199258 -1.008322 1.531633 0.002865 -0.009739 -46442.100000 0 0 1
-15.259770 25.140626 -0.127153 29.409656 -1.025263 1.575120 0.013416 -0.011137 -388871.000000 0 0 1
-15.099170 23.909946 -1.136653 28.301280 -1.007535 1.610970 0.027292 -0.016744 263807.000000 0 0 1
-16.213870 23.007246 -1.221653 28.172955 -0.956904 1.614173 0.040216 -0.027519 395396.000000 0 0 1
-16.053670 21.807946 -1.983553 27.152188 -0.936226 1.643915 0.045051 -0.023024 -33335.200000 0 0 1
-15.095270 20.762846 -1.343753 25.705420 -0.942157 1.623095 0.045601 -0.020888 199027.000000 0 0 1
-15.824070 19.892446 -0.499453 25.423612 -0.898817 1.590443 0.053540 -0.027535 71491.700000 0 0 1
-15.043070 18.903846 0.146847 24.159282 -0.898641 1.564718 0.074972 -0.036058 -340081.000000 0 1 0
-15.802770 17.754146 0.820547 23.782568 -0.843484 1.536287 0.061382 -0.033042 -202305.000000 0 1 0
-16.161970 16.690646 0.009747 23.233317 -0.801489 1.570377 0.044496 -0.031209 120277.000000 0 1 0
-17.129470 15.967446 0.708547 23.428191 -0.750303 1.540548 0.046716 -0.038482 -357333.000000 0 1 0
-17.728670 14.743046 -0.002853 23.057822 -0.693711 1.570920 0.066713 -0.037151 -141811.000000 0 1 0
-18.521970 15.081346 -1.119553 23.911582 -0.683364 1.617634 0.044644 -0.038059 18841.800000 0 1 0
-19.500570 14.137746 -1.386553 24.126140 -0.627303 1.628299 0.044092 -0.028914 -1214250.000000 0 1 0
-20.434270 14.429746 -2.592053 25.149467 -0.614844 1.674046 0.038579 -0.015943 276632.000000 0 0 1
-21.428870 13.423346 -2.830553 25.443953 -0.559616 1.682274 0.027879 -0.013857 931581.000000 0 0 1
-22.371070 13.092546 -1.812453 25.983928 -0.529499 1.640606 0.020017 -0.006421 -218129.000000 0 0 1
-23.572470 14.051946 -1.486953 27.483260 -0.537559 1.624927 0.001549 -0.006757 21306.200000 0 0 1
-23.154470 15.192246 -0.774753 27.704405 -0.580670 1.598765 -0.006238 -0.020723 376841.000000 0 0 1
-24.220270 15.982846 -0.306853 29.020114 -0.583300 1.581370 -0.006846 -0.017135 -497497.000000 0 0 1
-23.706170 17.165246 0.445947 29.271608 -0.626707 1.555561 -0.011381 -0.024052 -37745.200000 0 0 1
-23.142470 16.763046 1.708747 28.626796 -0.626876 1.511070 -0.010973 -0.019780 427740.000000 0 0 1
-22.304870 17.741346 2.286847 28.591822 -0.671931 1.490728 -0.013403 -0.026285 -243193.000000 0 0 1
-23.077170 18.954246 2.840647 29.998142 -0.687619 1.475960 -0.016003 -0.024882 -738969.000000 0 0 1
-23.819670 18.661046 4.037347 30.527226 -0.664555 1.438154 -0.009902 -0.024685 238578.000000 0 0 1
-25.133600 19.174846 4.075447 31.874470 -0.651717 1.442586 -0.009854 -0.026743 -19819.400000 0 0 1
-26.091720 18.360346 3.166347 32.060972 -0.613195 1.471875 0.017494 -0.019056 -1951910.000000 0 0 1
-27.327890 18.989746 3.151547 33.426880 -0.607285 1.476374 0.021420 -0.014208 -649637.000000 0 0 1
-28.224720 18.310346 2.295347 33.721984 -0.575485 1.502677 0.008561 0.001743 -212343.000000 0 0 1
-29.458380 19.164546 1.945847 35.197476 -0.576771 1.515484 -0.001048 -0.007576 -277032.000000 0 0 1
-30.309590 19.435946 3.048047 36.134718 -0.570198 1.486344 0.044091 -0.011008 274188.000000 0 0 1
-31.414070 20.180146 2.502647 37.421188 -0.571008 1.503869 0.015448 -0.007947 457149.000000 0 0 1
-32.214960 20.812046 3.683647 38.529394 -0.573584 1.475044 0.010198 -0.012949 -272945.000000 0 0 1
-31.433500 21.747746 4.392447 38.474966 -0.605246 1.456383 0.007336 -0.014704 229020.000000 0 0 1
-31.999290 22.212846 5.619147 39.356574 -0.606800 1.427531 0.001324 -0.016778 -249478.000000 0 0 1
-31.101350 23.276746 6.285847 39.352417 -0.642487 1.410377 0.006114 -0.016445 -138877.000000 0 0 1
-31.206610 24.509066 5.589847 40.072350 -0.665763 1.430846 -0.008430 -0.008044 -82273.900000 0 0 1
-30.242620 25.366906 6.086847 39.939275 -0.697944 1.417798 -0.012048 -0.003428 -555405.000000 0 0 1
-30.368730 26.839666 5.639947 40.919878 -0.723788 1.432527 -0.016189 0.002587 -1344420.000000 0 0 1
-31.451780 27.396496 6.258447 42.177608 -0.716596 1.421863 -0.011085 0.000514 -641058.000000 0 0 1
-31.487990 28.817556 6.087747 43.116189 -0.741145 1.429129 -0.020693 0.002545 277877.000000 0 0 1
-32.491770 29.351356 7.153447 44.366531 -0.734661 1.408854 -0.020631 0.004269 -10015.700000 0 0 1
-31.849060 29.584056 8.409747 44.275308 -0.748545 1.379693 -0.015456 0.001884 622949.000000 0 0 1
-32.709360 30.205806 9.385247 45.501383 -0.745627 1.363042 -0.009717 -0.002946 230907.000000 0 0 1
-33.959370 29.419616 9.879647 46.003914 -0.713892 1.354354 -0.008795 -0.003225 -98911.500000 0 0 1
-33.639620 28.222836 10.572347 45.165552 -0.698059 1.334524 -0.005626 -0.009603 388388.000000 0 0 1
-34.654763 27.747946 11.461147 45.850398 -0.675165 1.318149 0.000055 -0.015753 178944.000000 0 0 1
-34.228190 26.465676 12.198147 44.953262 -0.658193 1.295999 0.011912 -0.007907 -1080740.000000 0 0 1
-33.184150 26.603766 13.065647 44.493363 -0.675777 1.272749 0.014061 -0.019097 -878999.000000 0 0 1
-32.769560 25.384306 13.653347 43.641963 -0.659079 1.252605 0.014007 -0.016456 373785.000000 0 0 1
-31.569660 25.701846 14.598747 43.247564 -0.683298 1.226470 0.012564 -0.017428 257446.000000 0 0 1
-31.990540 26.684706 15.590247 44.480603 -0.695216 1.212696 0.002073 -0.009336 -207493.000000 0 0 1
-30.992860 27.106656 16.473547 44.347559 -0.718609 1.190210 0.022255 -0.004792 -426806.000000 0 0 1
-31.488320 28.295386 17.361447 45.755470 -0.732041 1.181606 0.016232 -0.009586 -495779.000000 0 0 1
-31.520560 29.526426 16.636447 46.283117 -0.752744 1.203118 0.020084 -0.018721 -163942.000000 0 0 1
-31.934580 30.619326 17.366447 47.528455 -0.764375 1.196744 0.011024 -0.013562 -321790.000000 0 0 1
-31.602060 31.893706 16.614647 47.874265 -0.789991 1.216375 0.004503 -0.010561 115112.000000 0 0 1
-30.225720 31.837696 16.280447 46.821854 -0.811365 1.215668 -0.001498 -0.002881 -353778.000000 0 0 1
-29.930220 32.980636 15.534147 47.168317 -0.833848 1.235198 -0.002169 0.011806 -1061310.000000 0 0 1
-28.444110 32.942666 15.228047 46.110520 -0.858550 1.234227 0.010357 0.002324 -572391.000000 0 0 1
-27.926380 31.971536 14.272047 44.785636 -0.852830 1.246465 0.011897 -0.004874 188645.000000 0 0 1
-27.747130 30.667566 14.758047 43.911306 -0.835351 1.228037 0.002441 -0.004344 180149.000000 0 0 1
-28.855480 29.659096 14.266147 43.770123 -0.799131 1.238797 0.013734 -0.010584 593181.000000 0 0 1
-28.828690 29.478616 12.880947 43.197234 -0.796544 1.268001 0.019230 -0.023417 -196056.000000 0 0 1
-29.802840 28.552226 12.465747 43.114194 -0.763970 1.277475 0.025860 -0.023348 63973.400000 0 0 1
-29.901250 28.501956 10.899847 42.722979 -0.761444 1.312816 0.020261 -0.014569 -257415.000000 0 0 1
-28.850570 27.751866 10.357447 41.349706 -0.765990 1.317616 0.013225 -0.006515 -271897.000000 0 0 1
-28.756720 28.149346 8.978547 41.230437 -0.774725 1.351272 0.006416 -0.005701 -113980.000000 0 0 1
-27.618220 27.403366 8.269247 39.775508 -0.781493 1.361371 0.003452 -0.004526 -6527.220000 0 0 1
-27.426780 27.874936 6.947347 39.717829 -0.793502 1.394974 0.001881 -0.001312 -196530.000000 0 0 1
-26.481220 27.052826 6.289747 38.375400 -0.796075 1.406153 0.008146 0.006218 -184916.000000 0 0 1
-26.208720 27.453986 4.842747 38.263175 -0.808599 1.443892 0.004923 0.004770 -380339.000000 0 0 1
-25.371300 28.568086 4.776247 38.505207 -0.844595 1.446434 0.019305 0.008657 33051.600000 0 0 1
-25.059570 28.769736 3.382047 38.302977 -0.854214 1.482384 0.020050 0.006604 -170267.000000 0 0 1
-24.089870 29.959846 3.117347 38.569834 -0.893577 1.489885 0.018857 0.003264 -96426.200000 0 0 1
-22.812270 29.545116 3.516847 37.492423 -0.913290 1.476857 0.016181 0.004771 239610.000000 0 0 1
-21.756870 30.389276 2.978947 37.493248 -0.949453 1.491260 0.015677 0.007063 503943.000000 0 0 1
-20.333570 29.898596 3.224647 36.301219 -0.973562 1.481849 -0.003188 0.003051 512716.000000 0 0 1
-19.380370 30.852536 2.692147 36.533894 -1.009927 1.497040 -0.007890 0.005011 511302.000000 0 0 1
-18.029070 30.630936 3.049147 35.673505 -1.038809 1.485218 -0.000903 -0.000354 600053.000000 0 0 1
-16.918870 31.540106 2.495047 35.878291 -1.078436 1.501198 0.005489 -0.002674 71923.600000 0 0 1
-16.886070 32.804556 3.114747 37.026746 -1.095420 1.486575 0.002015 0.002151 -57660.600000 0 0 1
-15.853570 33.602574 2.596247 37.245257 -1.129965 1.501033 0.014892 0.005478 -230013.000000 0 0 1
-15.538870 -34.399948 3.345447 37.894656 1.146520 1.482398 0.015660 0.000421 165481.000000 0 0 1
-16.534870 -33.381422 3.203847 37.389650 1.110890 1.485003 0.014209 -0.001393 290214.000000 0 0 1
-16.421670 -32.378162 4.197647 36.546366 1.101418 1.455684 0.002071 0.000333 -616804.000000 0 0 1
-17.643170 -31.490432 4.325847 36.354391 1.060102 1.451523 -0.008154 0.003138 -651980.000000 0 0 1
-17.860370 -30.566042 3.300947 35.555196 1.041986 1.477822 0.007734 -0.004964 47619.600000 0 0 1
-18.859270 -29.666082 3.701747 35.347580 1.004527 1.465880 0.005318 -0.004738 -507703.000000 0 0 1
-19.275870 -28.642112 2.595347 34.621750 0.978428 1.495763 0.003183 -0.004248 -95062.600000 0 0 1
-18.371470 -27.590232 2.520347 33.242803 0.983346 1.494907 -0.001104 0.002132 -71505.700000 0 0 1
-18.840070 -26.684172 1.505847 32.699554 0.956029 1.524729 -0.003193 0.003462 239718.000000 0 0 1
-17.909670 -25.457932 1.276747 31.152731 0.957725 1.529801 0.002866 0.003143 986780.000000 0 0 1
-16.670870 -25.821472 0.610447 30.741486 0.997506 1.550938 0.009320 -0.002739 -27373.500000 0 0 1
-15.731070 -24.821962 0.797347 29.397825 1.005925 1.543670 0.007950 0.005421 -979410.000000 0 0 1
-14.437970 -25.167832 0.088747 29.015214 1.049964 1.567738 0.016935 -0.000009 -893592.000000 0 0 1
-14.409570 -25.130102 -1.352553 28.999778 1.050166 1.617453 0.019317 -0.003102 2403.570000 0 0 1
-14.664970 -23.852562 -1.917453 28.065685 1.019553 1.639170 0.025959 -0.002772 -462404.000000 0 0 1
-14.939570 -24.000262 -3.425853 28.477005 1.014015 1.691391 0.014303 -0.002451 -158864.000000 0 0 1
-13.802870 -24.248862 -4.215653 28.218757 1.053319 1.720750 0.039130 -0.002067 -302993.000000 0 0 1
-14.159870 -24.497262 -5.543553 28.833119 1.046697 1.764264 0.022370 -0.002751 -183561.000000 0 0 1
-13.034070 -25.027962 -6.459153 28.948342 1.090663 1.795817 0.054794 -0.011120 123460.000000 0 0 1
-12.765170 -26.379422 -6.242353 29.963151 1.120106 1.780668 0.019749 -0.008831 291068.000000 0 0 1
-11.596770 -26.684542 -7.023853 29.931327 1.160833 1.807671 0.033765 -0.015625 510603.000000 0 0 1
22.510930 12.925138 28.727531 38.717854 0.521212 0.734791 0.004998 0.009000 -213976.000000 0 0 1
23.146830 11.633538 28.867381 38.787119 0.465723 0.731383 -0.003887 0.001279 -165610.000000 0 0 1
22.717630 10.711838 29.868911 39.025453 0.440606 0.699180 -0.001238 -0.001842 -757980.000000 0 0 1
22.704330 11.160838 31.334621 40.272936 0.456883 0.679230 0.014636 -0.003274 -48732.600000 0 0 1
21.768030 12.164638 31.607131 40.259611 0.509598 0.667966 0.011890 0.003141 21369.900000 0 0 1
21.925230 12.485138 33.004371 41.543747 0.517647 0.652697 0.013865 0.006822 453372.000000 0 0 1
20.947130 13.657538 33.424941 41.743709 0.577780 0.642303 -0.005300 0.016460 777161.000000 0 0 1
19.588930 13.311438 33.622105 41.126226 0.596861 0.613680 -0.000259 0.017865 26321.700000 0 0 1
18.807530 14.174638 34.382373 41.674826 0.645845 0.600567 0.008390 0.019317 -158705.000000 0 0 1
17.750730 13.489538 -33.976603 40.638228 0.649834 2.560885 0.013066 0.018809 334858.000000 0 0 1
16.512230 13.351438 34.579118 40.578689 0.679950 0.550717 0.006415 0.025499 -386154.000000 0 0 1
15.646830 12.595538 -33.913713 39.415870 0.677776 2.606865 0.005538 0.017942 -9028.130000 0 0 1
14.312330 12.334138 34.579730 39.404714 0.711296 0.500061 0.002068 0.022023 364022.000000 0 0 1
14.532230 11.398538 33.575004 38.319620 0.665133 0.502911 -0.000789 0.028273 -25679.200000 0 0 1
13.329530 10.879338 33.036511 37.248455 0.684531 0.480156 -0.003927 0.026345 -13653.000000 0 0 1
13.495230 9.711538 32.009201 36.069712 0.623778 0.479066 -0.002687 0.025496 -140609.000000 0 0 1
13.849030 8.478938 32.597191 36.417920 0.549371 0.462171 -0.011133 0.024715 -171272.000000 0 0 1
14.481230 7.654438 31.664421 35.650133 0.486247 0.477385 0.001626 0.006486 -105492.000000 0 0 1
14.774530 6.239838 32.064311 35.851671 0.399613 0.463797 0.018292 0.003110 -342316.000000 0 0 1
13.698430 5.403438 32.318061 35.514802 0.375719 0.427540 0.009903 0.011689 -784518.000000 0 0 1
14.148830 4.085638 32.335071 35.530812 0.281115 0.427374 0.011226 0.002646 -306895.000000 0 0 1
13.146530 3.084238 32.885711 35.550158 0.230437 0.389626 -0.000343 0.007579 -538571.000000 0 0 1
13.570330 1.734138 32.919911 35.649427 0.127100 0.393860 0.004095 -0.007263 47351.900000 0 0 1
12.704030 0.924038 33.736149 36.060698 0.072608 0.361018 0.001393 -0.004334 79509.300000 0 0 1
13.314930 -0.413862 34.208432 36.710700 -0.031073 0.371350 -0.007221 -0.001070 -491549.000000 0 0 1
13.478930 -1.362562 33.131391 35.794234 -0.100746 0.388160 -0.021216 0.002684 105818.000000 0 0 1
13.941830 -2.645362 33.541286 36.419643 -0.187514 0.400242 -0.005483 -0.006198 -476160.000000 0 0 1
14.059830 -3.620662 32.377961 35.484086 -0.252042 0.421529 0.004079 -0.010218 -923340.000000 0 0 1
14.421730 -5.003462 32.587531 35.985665 -0.333945 0.438075 0.012039 -0.006821 766820.000000 0 0 1
15.726930 -5.336062 33.085741 37.019942 -0.327106 0.465210 0.004006 -0.007810 1509990.000000 0 0 1
17.007830 -4.798662 32.336041 36.849871 -0.274996 0.500156 0.012939 -0.016093 -54812.100000 0 0 1
17.077330 -3.425962 32.655631 37.010305 -0.197986 0.489987 0.014610 -0.012751 -221133.000000 0 0 1
18.116530 -2.807162 31.941431 36.828573 -0.153728 0.521043 0.035821 -0.020525 -442477.000000 0 0 1
18.137430 -1.289662 32.046081 36.845365 -0.070986 0.516110 0.045385 -0.019799 -473010.000000 0 0 1
18.508530 -0.786362 33.310463 38.115233 -0.042461 0.507544 0.026129 -0.017390 107031.000000 0 0 1
18.550530 0.658638 33.234260 38.066678 0.035490 0.509366 0.016207 -0.006653 392446.000000 0 0 1
19.732830 1.349938 32.453331 38.005600 0.068304 0.547345 0.040922 -0.013503 -59036.400000 0 0 1
19.545930 1.302238 31.049031 36.712144 0.066526 0.562841 0.050910 -0.016228 422594.000000 0 0 1
20.451230 2.129438 30.277171 36.599104 0.103749 0.596574 0.042895 -0.008541 388383.000000 0 0 1
20.015930 3.618838 30.237971 36.442672 0.178866 0.592153 0.039558 -0.002247 -188024.000000 0 0 1
19.919730 4.215538 31.547021 37.547050 0.208549 0.573145 0.034619 -0.010192 455949.000000 0 0 1
19.426530 5.567638 31.472101 37.401628 0.279118 0.570810 0.038153 -0.006800 -35610.300000 0 0 1
19.325030 6.236838 32.839891 38.611052 0.312181 0.553803 0.038710 -0.010373 379223.000000 0 0 1
18.076430 5.902938 33.460034 38.486048 0.315637 0.516796 0.028621 -0.009388 746709.000000 0 0 1
18.099630 6.403338 -34.501009 39.483148 0.340041 2.633792 0.016188 -0.008458 -81564.700000 0 0 1
16.918730 5.940038 -33.630833 38.112470 0.337648 2.651757 0.012621 -0.002897 -179461.000000 0 0 1
16.953930 4.533438 -33.467443 37.789648 0.261285 2.658634 -0.001127 -0.009243 502.708000 0 0 1
15.754230 3.940838 -33.020113 36.797470 0.245115 2.684518 0.005371 -0.016060 -213735.000000 0 0 1
15.573830 2.469738 -33.375813 36.913259 0.157273 2.700226 -0.004102 -0.020119 -603306.000000 0 0 1
16.477030 1.652138 -32.686323 36.641749 0.099935 2.672660 -0.007895 -0.008576 -44678.700000 0 0 1
16.471230 0.362438 -33.205763 37.068254 0.022001 2.681025 -0.008147 -0.007489 -407350.000000 0 0 1
17.482430 -0.548162 -32.476363 36.886989 -0.031345 2.647562 -0.019825 -0.007630 -171130.000000 0 0 1
17.260230 -0.747862 -31.089333 35.567140 -0.043302 2.634382 -0.020292 -0.006615 312224.000000 0 0 1
17.839730 0.256238 -30.248573 35.118340 0.014362 2.608683 -0.013700 -0.002497 -156428.000000 0 0 1
17.670230 -0.007362 -28.752813 33.748501 -0.000417 2.590538 -0.026625 0.014670 366736.000000 0 0 1
16.296630 -0.206662 -28.408013 32.751153 -0.012681 2.620729 -0.024117 0.003662 774707.000000 0 0 1
16.034430 -0.214362 -26.970753 31.377865 -0.013368 2.605179 -0.012153 0.000331 -410447.000000 0 0 1
16.538030 -1.374362 -26.108973 30.936609 -0.082913 2.575402 -0.002313 0.005834 -849739.000000 0 0 1
17.903330 -1.223962 -25.871933 31.486254 -0.068259 2.535166 0.000738 0.001816 17531.600000 0 0 1
18.658030 -2.479662 -25.664253 31.826478 -0.132126 2.508802 -0.001288 0.009216 838449.000000 0 0 1
19.236330 -3.161662 -26.934703 33.249221 -0.162902 2.515094 0.004862 0.006606 157599.000000 0 0 1
20.440730 -2.504662 -27.308353 34.202966 -0.121925 2.495464 0.008790 0.005685 93875.300000 0 0 1
20.882630 -2.670762 -28.666583 35.566700 -0.127203 2.508151 0.003986 -0.000292 1238290.000000 0 0 1
22.363330 -2.133662 -28.857093 36.570519 -0.095121 2.480107 0.010606 -0.009014 1447040.000000 0 0 1
23.338330 -3.005262 -28.271763 36.783173 -0.128065 2.447455 0.015640 -0.011892 -867906.000000 0 0 1
24.616130 -2.540662 -28.518783 37.758837 -0.102847 2.426889 0.018841 -0.019003 -621601.000000 0 0 1
25.682130 -3.657462 -28.290673 38.383733 -0.141461 2.399489 0.028097 -0.012597 -153032.000000 0 0 1
25.678730 -4.775762 -29.168803 39.153852 -0.183880 2.411300 0.032250 -0.016971 53125.300000 0 0 1
26.722530 -5.708662 -29.002173 39.847314 -0.210464 2.385952 0.028072 -0.008285 -13270.000000 0 0 1
26.456730 -6.830362 -27.910623 39.059125 -0.252654 2.366811 0.006492 -0.000009 -77591.900000 0 0 1
26.533230 -6.244162 -26.620183 38.100341 -0.231128 2.344356 -0.000447 0.009153 290628.000000 0 0 1
26.099930 -7.208162 -25.673833 37.313666 -0.269459 2.329601 -0.018992 0.013061 -73098.200000 0 0 1
26.156830 -6.737962 -24.233753 36.288492 -0.252117 2.302057 -0.027762 0.015985 -425998.000000 0 0 1
27.493330 -6.690762 -23.801553 36.975173 -0.238719 2.270142 -0.030424 0.015210 43061.800000 0 0 1
27.586830 -6.034762 -22.565153 36.147443 -0.215363 2.244971 -0.031640 0.009129 639603.000000 0 0 1
29.073830 -5.623862 -22.256353 37.044037 -0.191074 2.215308 -0.023820 0.012902 517684.000000 0 0 1
29.575630 -4.503462 -22.889253 37.668514 -0.151109 2.223894 -0.014129 0.003750 116254.000000 0 0 1
30.745230 -4.096762 -22.188853 38.136568 -0.132468 2.191769 -0.009766 0.005284 32896.900000 0 0 1
31.383830 -2.806362 -22.745253 38.860867 -0.089183 2.196046 0.002980 -0.011393 -145683.000000 0 0 1
30.678930 -1.625362 -22.397253 38.019409 -0.052930 2.200742 0.002900 -0.011733 58232.500000 0 0 1
31.215030 -0.443862 -22.903653 38.718890 -0.014219 2.203760 0.002199 -0.012271 130388.000000 0 0 1
30.232630 0.758138 -22.672353 37.797120 0.025072 2.214102 0.004650 -0.010453 360498.000000 0 0 1
29.048730 0.673038 -23.465453 37.348483 0.023165 2.250142 0.011173 -0.011506 764745.000000 0 0 1
28.040630 1.572638 -23.009253 36.306691 0.056026 2.257184 0.005592 -0.004856 -627403.000000 0 0 1
26.879230 1.583738 -23.959453 36.042428 0.058852 2.297965 0.001502 -0.005385 -1509590.000000 0 0 1
25.924130 2.503838 -23.593053 35.142024 0.096285 2.306843 0.003528 0.000039 -454891.000000 0 0 1
24.998530 2.632138 -24.651653 35.207366 0.104905 2.346452 0.008405 -0.005650 -140110.000000 0 0 1
23.921530 3.723338 -24.493353 34.438745 0.154409 2.362021 0.013026 -0.000532 -543138.000000 0 0 1
24.412530 4.999938 -24.365153 34.851566 0.202017 2.344951 0.007123 -0.001645 287386.000000 0 0 1
23.428230 6.036238 -24.176553 34.202687 0.252164 2.355847 0.017784 -0.008584 -149787.000000 0 0 1
23.981430 7.181638 -23.357153 34.238012 0.290967 2.321563 0.023878 -0.008901 2603.530000 0 0 1
24.807430 8.084938 -24.083153 35.507366 0.315053 2.316186 0.015765 -0.009968 197214.000000 0 0 1
24.989630 9.309038 -23.375953 35.462303 0.356591 2.290521 0.023709 -0.016677 -232618.000000 0 0 1
25.786630 10.377438 -24.157353 36.826881 0.382604 2.286264 0.036805 -0.016320 -225447.000000 0 0 1
25.340530 10.771438 -25.430933 37.481978 0.401928 2.316494 0.032401 -0.021778 388198.000000 0 0 1
24.107430 11.499838 -25.447863 36.891844 0.445099 2.332004 0.044277 -0.026966 602696.000000 0 0 1
23.606730 11.708838 -26.901283 37.657052 0.460439 2.366528 0.035948 -0.027730 -186312.000000 0 0 1
23.126230 10.604638 -27.638013 37.565151 0.429945 2.397548 0.025939 -0.017216 408449.000000 0 0 1
24.102330 9.704338 -28.173183 38.325249 0.382772 2.396622 0.021715 -0.028357 185719.000000 0 0 1
24.942030 10.142638 -29.420013 39.881263 0.386225 2.400439 0.015877 -0.016884 -581429.000000 0 0 1
25.942230 11.089738 -29.024683 40.477324 0.403968 2.370372 0.011556 -0.012175 685061.000000 0 0 1
26.857130 11.529438 -30.017123 41.895835 0.405497 2.369526 0.010456 -0.004522 931958.000000 0 0 1
27.885830 10.411838 -30.440073 42.574921 0.357344 2.367387 0.008484 -0.003436 -419059.000000 0 0 1
27.209130 9.570838 -31.343483 42.595206 0.338234 2.397710 0.010468 -0.011184 96710.600000 0 0 1
27.986430 8.488438 -31.737233 43.157222 0.294487 2.397033 0.009878 -0.010483 -351900.000000 0 0 1
27.241530 7.493938 -32.663923 43.187868 0.268452 2.428468 0.014210 -0.015314 -722882.000000 0 0 1
26.085430 6.968338 -32.144543 41.979507 0.261040 2.442956 0.011951 -0.017938 -955707.000000 0 0 1
25.534130 5.958238 -32.961213 42.118095 0.229242 2.469612 0.001332 -0.012249 -625239.000000 0 0 1
24.168330 5.404838 -32.520623 40.876783 0.220013 2.490755 0.004671 -0.007900 417114.000000 0 0 1
23.057930 6.276238 -32.804493 40.585638 0.265756 2.512019 0.002106 -0.012061 560805.000000 0 0 1
22.883230 7.248638 -31.801883 39.844005 0.306767 2.495031 0.008551 -0.014286 -1364350.000000 0 0 1
21.453630 7.733838 -31.712083 39.060551 0.345990 2.518144 0.018890 -0.013046 -725109.000000 0 0 1
20.999330 8.518238 -32.762423 39.836021 0.385362 2.536470 0.032527 -0.009118 -529111.000000 0 0 1
19.649430 8.865438 -32.671733 39.142537 0.423835 2.558359 0.020986 -0.007898 -589615.000000 0 0 1
19.177030 9.905038 -33.720753 40.036951 0.476765 2.572223 0.015603 0.002888 -143403.000000 0 0 1
19.087130 9.434638 34.162825 40.254559 0.459072 0.557331 0.017782 0.004175 58621.100000 0 0 1
18.573730 10.407438 33.275287 39.503708 0.510740 0.569198 0.012687 0.008529 58233.000000 0 0 1
17.547130 9.813338 32.255951 38.008548 0.509922 0.557369 0.007309 0.016184 -143093.000000 0 0 1
17.970930 8.895838 31.200591 37.088639 0.459650 0.571217 0.002150 0.011135 278134.000000 0 0 1
19.059830 9.386038 30.413121 37.098959 0.457590 0.609763 0.008234 0.009142 -63772.400000 0 0 1
18.652130 10.374438 29.318031 36.264002 0.507596 0.629264 0.007777 0.007507 193959.000000 0 0 1
17.828030 9.794838 28.303331 34.854785 0.502388 0.623164 0.007401 0.008336 -4165.810000 0 0 1
16.454130 10.013538 28.476641 34.379186 0.546699 0.594711 0.002752 0.009058 71711.900000 0 0 1
15.472730 9.111238 27.628071 32.950422 0.532186 0.576320 0.017417 0.006720 153038.000000 0 0 1
15.463830 9.391838 26.228231 31.863094 0.545801 0.603853 0.018957 0.004586 840510.000000 0 0 1
14.394630 8.760538 25.455321 30.527459 0.546717 0.584750 0.027736 0.009039 846796.000000 0 0 1
14.385130 7.230438 25.267431 29.960879 0.465752 0.567314 0.024533 0.007261 -195002.000000 0 0 1
14.239230 6.456938 26.471331 30.743765 0.425729 0.533503 0.019267 0.000716 27767.000000 0 0 1
14.122830 5.127538 26.215761 30.216090 0.348268 0.520422 0.012321 0.001028 -110111.000000 0 0 1
14.399530 4.383338 27.523761 31.370648 0.295496 0.500437 0.005794 0.006862 -218188.000000 0 0 1
15.752530 4.334438 27.909801 32.340169 0.268513 0.529604 0.020216 0.010640 -523325.000000 0 0 1
15.981030 3.879238 29.251791 33.557549 0.238134 0.512155 0.029693 0.007955 -84416.100000 0 0 1
16.647030 2.403138 29.420031 33.888595 0.143368 0.519355 0.040389 0.007904 205847.000000 0 0 1
15.860330 1.263638 29.065871 33.135656 0.079505 0.500843 0.024113 0.000740 724423.000000 0 0 1
14.688130 1.060138 29.878891 33.310857 0.072052 0.457925 0.002148 0.002416 591380.000000 0 0 1
14.202630 -0.427162 29.971231 33.168838 -0.030067 0.442705 -0.002072 0.001836 -260684.000000 0 0 1
13.585330 -0.922562 28.763341 31.823609 -0.067805 0.442144 -0.001862 -0.000863 519226.000000 0 0 1
14.424730 -1.346162 27.654001 31.219045 -0.093054 0.482569 0.002874 0.006062 -773400.000000 0 0 1
15.430030 -2.510962 27.921471 31.999989 -0.161318 0.510406 0.007202 0.015761 1626140.000000 0 0 1
16.711030 -2.225562 28.560161 33.164656 -0.132400 0.533244 0.013842 0.000459 1514940.000000 0 0 1
17.495930 -1.241462 27.876871 32.935827 -0.070838 0.561609 0.015627 0.000618 299122.000000 0 0 1
19.020430 -1.194262 28.336551 34.149131 -0.062706 0.592068 0.052094 0.007652 1556980.000000 0 0 1
19.816530 -2.116962 27.604131 34.046504 -0.106424 0.625318 0.042585 0.003954 -178903.000000 0 0 1
21.192430 -1.856762 27.738481 34.956973 -0.087391 0.654252 0.054953 -0.005033 -8620.700000 0 0 1
22.082030 -2.285162 26.546691 34.605849 -0.103118 0.696463 0.049884 -0.002443 -65321.300000 0 0 1
22.072130 -1.523762 25.326241 33.629143 -0.068926 0.718029 0.050432 0.008469 296492.000000 0 0 1
21.263930 -2.222962 24.401561 32.442757 -0.104163 0.719490 0.050355 0.019319 -66431.400000 0 0 1
21.246630 -1.478062 23.038801 31.374995 -0.069455 0.746155 0.031213 -0.000234 -76463.300000 0 0 1
20.379730 -0.368462 22.954201 30.697956 -0.018078 0.726139 0.017225 0.012171 -23815.900000 0 0 1
20.161730 0.076038 21.686901 29.611194 0.003771 0.748973 0.029977 0.018071 -302762.000000 0 0 1
-29.371030 -27.948070 -10.242053 41.816883 0.760578 1.818240 -0.023516 0.029973 -24081.700000 0 0 1
-29.332990 -26.846370 -9.407453 40.861376 0.741165 1.803109 -0.022616 0.027373 -255279.000000 0 0 1
-29.815890 -27.081670 -8.103853 41.086209 0.737380 1.769338 -0.012311 0.016155 -345261.000000 0 0 1
-30.202190 -25.795970 -7.251153 40.375532 0.706875 1.751369 -0.001388 0.010309 1480280.000000 0 0 1
-29.068160 -24.917070 -6.885253 38.900193 0.708656 1.748732 -0.000887 0.005528 848873.000000 0 0 1
-28.129730 -25.564970 -6.020653 38.485032 0.737669 1.727883 -0.005560 0.007414 1076040.000000 0 0 1
-26.926500 -24.536470 -5.729953 36.876919 0.738990 1.726809 -0.023068 0.006647 521351.000000 0 0 1
-27.165920 -23.489170 -4.752353 36.225864 0.712941 1.702362 -0.010070 0.004584 -396965.000000 0 0 1
-28.151740 -22.558870 -5.105853 36.434775 0.675552 1.711396 -0.001308 -0.001814 -247003.000000 0 0 1
-27.999890 -21.337970 -4.131053 35.445288 0.651183 1.687609 0.002621 -0.007426 258579.000000 0 0 1
-26.836780 -20.523970 -4.186853 34.043734 0.652887 1.694093 0.002566 -0.010746 312821.000000 0 0 1
-27.081730 -19.542170 -3.228353 33.552031 0.625076 1.667165 0.007958 -0.005282 -541527.000000 0 0 1
-26.087950 -18.431570 -3.173453 32.099450 0.615086 1.669821 0.005771 -0.009247 -691467.000000 0 0 1
-26.205370 -17.534470 -4.252953 31.816139 0.589697 1.704870 0.004886 -0.023768 -522337.000000 0 0 1
-25.217560 -16.587570 -4.243353 30.480795 0.581824 1.710464 0.009102 -0.026323 -889617.000000 0 0 1
-25.400370 -15.452070 -5.295653 30.199159 0.546530 1.747065 0.000663 -0.032931 -45844.700000 0 0 1
-26.527670 -14.577070 -5.133353 30.701133 0.502463 1.738789 -0.009622 -0.025096 527923.000000 0 0 1
-26.647900 -13.706870 -6.238653 30.608980 0.475077 1.776052 0.007054 -0.037628 -143636.000000 0 0 1
-27.977920 -12.913170 -6.173053 31.426431 0.432416 1.768511 0.013847 -0.022963 83245.900000 0 0 1
-29.079160 -13.560370 -6.781253 32.794307 0.436347 1.779080 0.016598 -0.017287 -773140.000000 0 0 1
-30.203950 -12.902570 -6.322953 33.447491 0.403717 1.760982 0.014378 -0.019310 103609.000000 0 0 1
-31.528800 -13.345670 -7.083453 34.962086 0.400417 1.774812 -0.003396 -0.012099 695500.000000 0 0 1
-32.224510 -14.443070 -6.547453 35.915045 0.421357 1.754125 -0.003676 -0.008272 183008.000000 0 0 1
-32.090680 -15.590770 -7.377053 36.432194 0.452251 1.774693 -0.003042 -0.015196 -623360.000000 0 0 1
-32.737750 -16.920170 -6.866053 37.485932 0.477028 1.755000 -0.015114 -0.011786 -176305.000000 0 0 1
-34.130709 -16.958970 -6.752253 38.705360 0.461151 1.746146 -0.009736 -0.010462 -426500.000000 0 0 1
-34.610765 -16.245770 -5.610753 38.643378 0.438857 1.716504 -0.004019 -0.012949 -606660.000000 0 0 1
33.868106 -16.381270 -5.584953 38.034016 -0.450505 1.718170 0.012542 -0.015368 -603829.000000 0 0 1
33.164006 -15.534670 -6.472553 37.189666 -0.438066 1.745729 0.011373 -0.013396 1254270.000000 0 0 1
31.728876 -15.683770 -6.364253 35.961173 -0.459082 1.748709 0.016071 -0.018631 1289520.000000 0 0 1
31.018506 -14.907170 -5.198953 34.805180 -0.447999 1.720730 0.032158 -0.024288 -588381.000000 0 0 1
31.314456 -15.417070 -3.895753 35.120623 -0.457493 1.681950 0.013296 -0.020483 405172.000000 0 0 1
30.745886 -14.628370 -2.838553 34.166594 -0.444087 1.653972 0.022972 -0.022274 -746173.000000 0 0 1
30.776736 -15.392770 -1.446953 34.441814 -0.463762 1.612820 0.033470 -0.019682 327936.000000 0 0 1
32.055526 -15.622870 -0.838153 35.669782 -0.453492 1.594296 0.046342 -0.017374 797641.000000 0 0 1
32.967846 -16.499670 -1.516353 36.897390 -0.464030 1.611904 0.031961 -0.022352 -878309.000000 0 0 1
32.549426 -17.953170 -1.986853 37.225382 -0.504045 1.624195 0.030774 -0.017129 -995977.000000 0 0 1
32.618186 -18.956770 -0.954153 37.738782 -0.526460 1.596082 0.041167 -0.019781 288724.000000 0 0 1
32.484316 -20.353970 -1.227853 38.353912 -0.559734 1.602816 0.035008 -0.017011 449024.000000 0 0 1
33.659096 -20.908770 -2.116753 39.681130 -0.555856 1.624166 0.028836 -0.025028 525046.000000 0 0 1
33.638486 -20.336670 -3.409453 39.455701 -0.543770 1.657316 0.003227 -0.022739 -323149.000000 0 0 1
34.548144 -20.972370 -4.262053 40.639632 -0.545585 1.675864 0.017609 -0.017394 -425452.000000 0 0 1
34.554988 -20.350570 -5.691653 40.504171 -0.532242 1.711783 0.028122 -0.019395 -434050.000000 0 0 1
33.323346 -20.459870 -6.366253 39.617937 -0.550636 1.732187 0.023763 -0.025973 153359.000000 0 0 1
33.464176 -19.719270 -7.597853 39.578127 -0.532489 1.763966 0.026121 -0.023370 -452436.000000 0 0 1
32.380876 -20.006670 -8.603453 39.023165 -0.553444 1.793093 0.024900 -0.030859 -548488.000000 0 0 1
32.640826 -21.213870 -9.309253 40.026417 -0.576318 1.805524 0.034488 -0.029435 47508.700000 0 0 1
31.759466 -21.315870 -10.395353 39.637021 -0.591111 1.836164 0.037319 -0.035112 -296617.000000 0 0 1
31.727506 -22.737870 -10.981853 40.549310 -0.621821 1.845048 0.042318 -0.034197 -39334.800000 0 0 1
31.112546 -23.610470 -10.039353 40.326585 -0.649156 1.822394 0.035393 -0.029882 75006.900000 0 0 1
30.829656 -24.891070 -10.570953 41.009488 -0.679221 1.831508 0.017919 -0.019076 -304060.000000 0 0 1
29.893826 -25.731770 -9.709953 40.620784 -0.710715 1.812172 0.005677 -0.016855 -760175.000000 0 0 1
28.600486 -25.234370 -9.601653 39.331324 -0.722953 1.817411 0.007274 -0.018650 -1219260.000000 0 0 1
27.796296 -26.254470 -9.133053 39.310863 -0.756880 1.805268 -0.007631 -0.009533 -135531.000000 0 0 1
26.312306 -25.799570 -9.072053 37.950724 -0.775559 1.812182 0.003644 -0.022494 -41155.700000 0 0 1
25.775166 -25.348070 -10.298853 37.589230 -0.777044 1.848330 0.002282 -0.009177 -446362.000000 0 0 1
24.605966 -24.596370 -10.175353 36.248763 -0.785203 1.855329 0.014771 -0.023505 -514436.000000 0 0 1
23.815766 -24.468270 -11.482753 36.024167 -0.798911 1.895208 0.031610 -0.021112 -266511.000000 0 0 1
23.394266 -25.720570 -11.940553 36.761614 -0.832727 1.901608 0.031044 -0.016501 294345.000000 0 0 1
22.606966 -25.641270 -13.128453 36.618383 -0.848205 1.937479 0.042829 0.000486 68378.700000 0 0 1
22.078266 -27.026870 -13.609353 37.458191 -0.885835 1.942626 0.053256 0.004270 169919.000000 0 0 1
23.019466 -27.860470 -14.293353 38.863885 -0.880258 1.947417 0.041483 0.008745 389278.000000 0 0 1
22.691766 -29.263670 -14.151753 39.642790 -0.911221 1.935831 0.066396 -0.005455 -252007.000000 0 0 1
23.435666 -30.178070 -15.129353 41.095544 -0.910500 1.947816 0.065355 0.001305 -139221.000000 0 0 1
23.075566 -29.967670 -16.478653 41.256382 -0.914608 1.981681 0.054248 0.003805 360858.000000 0 0 1
23.353266 -31.178270 -17.200753 42.583160 -0.927920 1.986609 0.054177 0.005270 -320351.000000 0 0 1
23.208566 -31.110870 -18.726953 43.095505 -0.929863 2.020330 0.047443 0.016955 -1540780.000000 0 0 1
21.890266 -30.887470 -18.974853 42.346955 -0.954248 2.035414 0.048464 0.013591 -1401400.000000 0 0 1
21.668266 -31.016370 -20.373353 42.972113 -0.961006 2.064745 0.039210 0.013549 -148469.000000 0 0 1
20.319766 -30.491370 -20.879953 42.173321 -0.982971 2.088745 0.024936 0.014085 -428393.000000 0 0 1
20.134066 -30.655470 -22.265653 42.905685 -0.989666 2.116412 0.005617 0.014833 -48850.200000 0 0 1
18.893666 -30.227370 -22.753453 42.289291 -1.012160 2.138910 0.011573 0.010539 -601675.000000 0 0 1
18.729166 -30.405370 -24.295153 43.191697 -1.018708 2.168198 0.010815 0.017984 -231506.000000 0 0 1
19.555966 -29.555370 -25.082343 43.417504 -0.986259 2.186706 0.019300 0.015600 577307.000000 0 0 1
19.116666 -29.623870 -26.430253 44.063351 -0.997723 2.214077 0.016390 0.009024 -83553.200000 0 0 1
19.799366 -28.572570 -27.354273 44.234183 -0.964818 2.237497 0.011031 0.004434 311193.000000 0 0 1
19.116066 -27.314870 -27.469363 43.198287 -0.960177 2.259958 0.027671 -0.003390 258958.000000 0 0 1
17.976566 -27.353870 -28.314213 43.279161 -0.989386 2.283951 0.032250 -0.006815 -158138.000000 0 0 1
17.295966 -25.954870 -28.453233 42.218387 -0.982988 2.310344 0.034391 -0.003695 -609886.000000 0 0 1
16.409866 -25.780270 -27.406213 41.048831 -1.003950 2.301843 0.030478 0.006957 -719323.000000 0 0 1
15.929066 -24.479870 -27.502163 40.116931 -0.993929 2.326155 0.025500 0.007842 -455800.000000 0 0 1
14.864966 -24.172870 -26.464023 38.802569 -1.019461 2.321314 0.024141 0.010437 -601741.000000 0 0 1
13.617066 -24.793570 -26.703983 38.900493 -1.068554 2.327418 0.037658 0.001437 579655.000000 0 0 1
12.503466 -24.310470 -25.906913 37.663029 -1.095755 2.329334 0.027346 0.004291 827992.000000 0 0 1
12.573766 -24.690270 -24.439853 36.946116 -1.099768 2.293613 0.014583 0.011388 -971130.000000 0 0 1
13.433766 -23.879970 -23.705953 36.231081 -1.058366 2.284051 0.011102 0.010437 -586116.000000 0 0 1
13.767166 -24.414070 -22.465753 35.920631 -1.057342 2.246476 0.002751 0.009496 539612.000000 0 0 1
14.929666 -23.577770 -21.808453 35.417719 -1.006315 2.234134 -0.004383 0.004716 512107.000000 0 0 1
14.629866 -22.234370 -21.483353 34.204308 -0.988829 2.249891 -0.012563 0.001434 24817.900000 0 0 1
15.786866 -21.596870 -20.965053 33.987989 -0.939580 2.235514 -0.003640 0.004757 88098.000000 0 0 1
15.524266 -20.194570 -20.378353 32.620558 -0.915412 2.245555 0.005486 0.008464 181272.000000 0 0 1
14.938466 -20.137370 -19.080753 31.507881 -0.932546 2.221299 0.010543 0.000638 918515.000000 0 0 1
13.503466 -20.063670 -19.066453 30.796495 -0.978401 2.238407 -0.004336 0.007043 431859.000000 0 0 1
12.906266 -20.026370 -17.667053 29.660613 -0.998323 2.208859 0.007669 0.004040 -369875.000000 0 0 1
13.197666 -18.851970 -16.942953 28.576893 -0.960025 2.205439 0.018045 -0.001813 -10889.300000 0 0 1
12.684566 -18.933670 -15.667953 27.656226 -0.980526 2.173079 0.017053 -0.002637 -231522.000000 0 0 1
12.818366 -17.562270 -14.932153 26.376373 -0.940296 2.172586 0.019650 0.002201 -1086410.000000 0 0 1
11.783966 -16.725270 -15.216253 25.497664 -0.957016 2.210267 0.015767 -0.004228 -516170.000000 0 0 1
12.076866 -15.484170 -14.689053 24.523020 -0.908402 2.213036 0.021914 -0.008273 914440.000000 0 1 0
10.722466 -14.730470 -14.386753 23.215010 -0.941583 2.239179 0.018511 -0.003589 849176.000000 0 1 0
10.154966 -14.163970 -15.542253 23.351724 -0.948780 2.299056 0.019454 0.004102 -311765.000000 0 1 0
8.823966 -13.770870 -15.274653 22.378880 -1.000937 2.322039 0.017091 0.004449 36329.400000 0 1 0
8.185066 -13.241870 -16.539253 22.713197 -1.017160 2.386456 0.018851 0.009062 -376301.000000 0 1 0
8.674366 -12.024470 -16.956653 22.524666 -0.945857 2.423107 0.014801 0.005811 -225176.000000 0 1 0
9.752866 -12.143170 -17.871453 23.705776 -0.894134 2.424753 0.017268 0.004963 88987.600000 0 1 0
9.890866 -10.870970 -18.783653 23.850217 -0.832570 2.477648 0.015304 0.001567 88598.700000 0 1 0
9.025266 -10.796970 -19.916653 24.386534 -0.874541 2.526477 0.012202 0.006936 237416.000000 0 1 0
9.181966 -9.593170 -20.651953 24.552812 -0.807296 2.570154 0.010553 -0.003589 -2930.830000 0 1 0
8.811466 -9.766170 -22.116953 25.732851 -0.836743 2.605054 0.020357 -0.002917 -475182.000000 0 0 1
9.811766 -10.372870 -22.844753 26.939746 -0.813190 2.582986 -0.006275 0.004614 -909352.000000 0 0 1
9.555166 -10.296370 -24.228453 28.005970 -0.822718 2.616181 0.001929 0.002018 -172703.000000 0 0 1
10.473066 -11.190170 -25.055553 29.371513 -0.818488 2.592611 0.025380 0.001274 -257626.000000 0 0 1
10.344366 -12.601170 -24.942853 29.798344 -0.883438 2.562674 0.009685 0.003950 -563416.000000 0 0 1
11.460066 -13.244370 -25.468213 30.909162 -0.857499 2.539178 0.017949 -0.005046 -571138.000000 0 0 1
11.638766 -14.738670 -25.121943 31.365607 -0.902383 2.499658 0.011027 -0.002180 -42334.100000 0 0 1
10.569066 -15.574970 -25.579743 31.758591 -0.974582 2.507219 0.014184 -0.006513 130497.000000 0 0 1
10.731266 -16.940670 -25.197383 32.203330 -1.006135 2.469381 0.011256 -0.002913 605098.000000 0 0 1
9.473166 -17.862070 -25.385143 32.453042 -1.083164 2.469004 0.017241 -0.007161 579154.000000 0 0 1
9.447666 -18.334870 -26.714113 33.750106 -1.094996 2.484100 0.017708 -0.015159 -86126.000000 0 0 1
8.181366 -18.816870 -27.080563 33.975966 -1.160664 2.493192 0.024547 -0.016881 -330984.000000 0 0 1
8.281466 -19.755270 -28.314333 35.504293 -1.173846 2.493920 0.025112 -0.012870 -303213.000000 0 0 1
9.048566 -20.925070 -28.093873 36.180116 -1.162652 2.459889 0.015136 -0.015245 47430.400000 0 0 1
8.937066 -21.896370 -29.162623 37.547047 -1.183281 2.460199 0.017482 -0.015015 121792.000000 0 0 1
9.958366 -23.062970 -29.082223 38.429746 -1.163188 2.429144 0.015280 -0.007139 246557.000000 0 0 1
9.597366 -23.983170 -30.102403 39.666819 -1.190143 2.432390 0.022988 -0.009744 232174.000000 0 0 1
10.213066 -25.303070 -29.916193 40.491119 -1.187165 2.402134 0.025108 -0.016002 237765.000000 0 0 1
9.694566 -26.222970 -28.741313 40.096033 -1.216683 2.370016 0.019421 -0.019655 36164.200000 0 0 1
10.094566 -25.872670 -27.465573 39.059609 -1.198799 2.350643 0.014416 -0.006851 -830999.000000 0 0 1
9.320166 -26.391470 -26.420683 38.489319 -1.231317 2.327381 0.007804 0.001408 -369631.000000 0 0 1
8.487366 -25.301070 -25.719903 37.063364 -1.247138 2.337749 0.003830 0.007110 -250923.000000 0 0 1
9.258766 -24.242270 -25.147843 36.136220 -1.205967 2.340494 0.008723 0.010806 -178691.000000 0 0 1
8.699566 -22.942370 -25.325843 35.262347 -1.208355 2.372026 -0.002630 0.010883 -540914.000000 0 0 1
9.692466 -21.851970 -25.032553 34.613310 -1.153318 2.379230 0.008542 0.003474 -509203.000000 0 0 1
10.037266 -21.738070 -23.683453 33.677832 -1.138225 2.350735 0.000457 0.006369 284959.000000 0 0 1
11.278466 -21.048870 -23.534753 33.528247 -1.078903 2.348911 0.016662 -0.002589 159826.000000 0 0 1
11.658366 -20.746170 -22.101853 32.477885 -1.058823 2.319269 0.002624 0.001831 -216006.000000 0 0 1
10.772666 -19.996270 -21.269953 31.117713 -1.076644 2.323387 -0.005483 0.008365 -107755.000000 0 0 1
10.450766 -18.656870 -21.616353 30.406645 -1.060189 2.361586 0.010498 0.007216 -119552.000000 0 0 1
11.555366 -17.596570 -21.380153 30.004612 -0.989737 2.363940 0.002263 0.007200 543692.000000 0 0 1
12.743866 -17.890570 -22.119753 31.173099 -0.951848 2.359696 0.001557 0.013418 -194968.000000 0 0 1
13.630066 -16.822370 -21.989953 30.859826 -0.889846 2.363958 0.005448 0.008838 -65921.900000 0 0 1
14.808366 -16.850170 -22.995853 32.125149 -0.849804 2.368595 0.003672 0.015512 840438.000000 0 0 1
15.966566 -17.593470 -22.567853 32.768421 -0.833838 2.330501 0.015864 0.019108 460224.000000 0 0 1
17.062466 -17.473670 -23.423753 33.839756 -0.797304 2.335324 0.017802 0.012438 -735245.000000 0 0 1
18.356566 -17.713770 -22.668553 34.126302 -0.767579 2.297293 0.020873 0.011214 -654943.000000 0 0 1
18.678366 -19.113170 -22.489453 34.928071 -0.796903 2.270354 0.021566 0.006045 -808077.000000 0 0 1
19.952666 -19.239270 -21.988053 35.379837 -0.767198 2.241434 0.018783 0.001404 -862795.000000 0 0 1
20.273066 -20.729870 -21.732053 36.235437 -0.796538 2.213980 0.027320 -0.006295 -450978.000000 0 0 1
19.427866 -21.426970 -20.864253 35.663344 -0.834291 2.195718 0.021005 -0.004566 -15651.100000 0 0 1
19.844766 -22.750270 -20.592353 36.543598 -0.853505 2.169414 0.029582 -0.005091 -270060.000000 0 0 1
-15.437870 13.307938 29.468611 35.830546 -0.711438 0.605102 0.010328 -0.006214 -468533.000000 0 0 1
-16.705870 13.813938 29.135261 36.314933 -0.690924 0.639668 0.024551 -0.006930 -198400.000000 0 0 1
-16.891770 13.824538 27.729541 35.289902 -0.685871 0.666866 0.014166 0.000244 419068.000000 0 0 1
-18.213770 14.426538 27.146321 35.732186 -0.669885 0.707920 0.026168 0.005609 388944.000000 0 0 1
-18.354970 15.792938 27.224091 36.434502 -0.710511 0.726948 0.024653 0.007869 52073.600000 0 0 1
-19.358870 16.215838 26.307711 36.466627 -0.697277 0.764947 0.026031 0.004673 -282719.000000 0 0 1
-19.455970 17.767538 26.115891 37.097977 -0.740070 0.789823 0.036405 0.007631 663082.000000 0 0 1
-18.356970 18.438638 25.474461 36.413045 -0.787618 0.795963 0.016207 0.002231 1148130.000000 0 0 1
-17.131470 18.520338 26.201671 36.373311 -0.824335 0.766483 0.007746 0.010608 691766.000000 0 0 1
-15.987770 19.475238 25.769981 36.041443 -0.883424 0.774158 0.008536 0.006356 113625.000000 0 0 1
-16.355170 20.786538 25.854731 36.987009 -0.904147 0.796767 0.019468 -0.002120 111100.000000 0 0 1
-15.310970 21.673838 25.462461 36.776595 -0.955770 0.806049 0.034970 -0.009305 131754.000000 0 0 1
-15.642670 23.173838 25.514391 37.851077 -0.977037 0.831087 0.032279 -0.010864 -102285.000000 0 0 1
-15.169370 23.825838 26.659491 38.839526 -1.003844 0.814268 0.027074 -0.004826 -114369.000000 0 0 1
-15.508470 25.177238 26.710941 39.848216 -1.018716 0.836160 0.025073 -0.006883 -178253.000000 0 0 1
-14.892870 25.951338 27.917401 40.922497 -1.049807 0.820027 0.009454 -0.005125 149811.000000 0 0 1
-13.490770 26.107738 27.804271 40.456054 -1.093851 0.813071 0.011258 -0.006537 -362524.000000 0 0 1
-13.024370 26.906438 28.886771 41.569654 -1.119981 0.802515 0.016650 -0.004113 801045.000000 0 0 1
-11.476470 27.081438 29.055321 41.343988 -1.169963 0.791512 0.029766 -0.003007 789825.000000 0 0 1
-10.932070 27.835938 27.994261 40.963743 -1.196571 0.818399 0.027110 -0.005277 -1460870.000000 0 0 1
-9.561670 27.784738 28.029941 40.609048 -1.239357 0.808977 0.012338 -0.005011 -1319360.000000 0 0 1
-8.930770 28.771438 27.031131 40.475132 -1.269822 0.839486 0.027756 -0.016067 185168.000000 0 0 1
-7.517370 28.651738 26.966801 40.057974 -1.314209 0.832276 0.020462 -0.015095 624786.000000 0 0 1
-6.887770 29.378638 25.906981 39.770811 -1.340507 0.861359 0.030239 -0.024225 411654.000000 0 0 1
-5.415970 28.961538 25.637271 39.056025 -1.385926 0.854729 0.015710 -0.014807 -178390.000000 0 0 1
-4.529370 29.297138 26.685661 39.886865 -1.417410 0.837888 0.018912 -0.014731 -302453.000000 0 0 1
-3.182570 28.976338 26.495951 39.392795 -1.461401 0.833067 -0.000445 -0.008569 281819.000000 0 0 1
-2.385970 29.860638 25.421831 39.288930 -1.491062 0.867090 -0.006495 -0.002996 -826505.000000 0 0 1
-2.702470 29.741938 24.061101 38.351307 -1.480181 0.892604 -0.011354 0.005754 -261256.000000 0 0 1
-2.543470 30.927538 23.320101 38.817637 -1.488741 0.926344 -0.015894 0.012122 -469004.000000 0 0 1
-2.736570 30.664938 21.806301 37.727205 -1.481791 0.954521 -0.017202 0.014936 846533.000000 0 0 1
-4.063770 30.392538 21.308701 37.340077 -1.437875 0.963480 -0.014223 0.012200 501771.000000 0 0 1
-4.410570 29.036838 21.499501 36.398072 -1.420053 0.938899 -0.016574 0.007446 630341.000000 0 0 1
-5.866270 28.595738 21.091601 36.013678 -1.368459 0.945108 0.002853 0.005839 671011.000000 0 0 1
-6.198370 28.923738 19.699001 35.539457 -1.359689 0.983292 -0.011308 0.017509 199116.000000 0 0 1
-7.185870 28.070038 19.128201 34.719617 -1.320181 0.987314 -0.011482 0.019636 -667180.000000 0 0 1
-6.754170 26.545538 18.878501 33.266833 -1.321646 0.967346 -0.032457 0.021736 334524.000000 0 0 1
-5.860770 26.433238 17.762901 32.381867 -1.352606 0.990174 -0.027561 0.021240 2654440.000000 0 0 1
-4.462570 26.854338 18.086801 32.683365 -1.406124 0.984362 -0.025617 0.024684 1619940.000000 0 0 1
-3.600070 27.175538 16.884001 32.195339 -1.439089 1.018758 -0.020243 0.020869 -232974.000000 0 0 1
-3.322070 25.956338 16.195301 30.774265 -1.443502 1.016599 -0.014087 0.015678 19082.700000 0 0 1
-2.818870 26.058838 14.835601 30.118169 -1.463042 1.055745 -0.007342 0.004020 -218545.000000 0 0 1
-2.222770 24.796238 14.259901 28.690397 -1.481394 1.050627 -0.015045 0.001427 337230.000000 0 0 1
-1.037170 24.456338 14.988901 28.702880 -1.528413 1.021357 0.002789 0.004358 399856.000000 0 0 1
-0.422570 23.322138 14.364301 27.394047 -1.552679 1.018835 0.011318 -0.011790 -714779.000000 0 0 1
0.827830 22.814738 15.047601 27.342784 1.534527 0.988035 0.000146 -0.004841 -611207.000000 0 0 1
1.758830 23.833238 15.257201 28.353111 1.497132 1.002599 0.010783 -0.012107 -295606.000000 0 0 1
3.045030 23.358738 15.578401 28.241626 1.441168 0.986502 0.009424 -0.009024 97616.000000 0 0 1
4.141130 24.426738 15.710001 29.336302 1.402860 1.005680 0.011615 -0.008161 420886.000000 0 0 1
5.466230 23.935038 15.712401 29.148675 1.346269 1.001495 0.013843 -0.004955 -198381.000000 0 0 1
6.444530 24.936938 15.692001 30.159936 1.317897 1.023602 0.012147 -0.001182 -66621.400000 0 0 1
7.890830 24.422938 15.828401 30.154326 1.258292 1.018183 0.010348 0.006624 41420.900000 0 0 1
8.340030 23.821438 14.614001 29.164808 1.234027 1.045946 0.006804 0.006202 16462.900000 0 0 1
9.264830 24.603838 13.878401 29.728705 1.210658 1.085088 0.005003 0.001920 -5769.520000 0 0 1
9.943130 23.948038 12.654201 28.853131 1.177259 1.116786 0.012708 0.003711 75261.700000 0 0 1
10.917530 22.965838 12.919601 28.522592 1.127037 1.100713 0.012197 -0.000815 -196662.000000 0 0 1
11.004030 21.932138 11.909901 27.275503 1.105765 1.118923 0.008547 -0.007841 26745.800000 0 0 1
12.255930 21.034638 11.859001 27.079507 1.043228 1.117499 0.010916 -0.005754 188140.000000 0 0 1
12.246030 20.115238 12.971401 26.885782 1.023936 1.067332 0.016033 0.000122 -831337.000000 0 0 1
13.524330 19.618338 13.131001 27.206798 0.967239 1.067133 0.016572 0.003559 -1143990.000000 0 0 1
13.799230 18.656138 14.289901 27.252000 0.933945 1.018831 0.029740 0.002092 411075.000000 0 0 1
15.154030 18.206738 14.430601 27.737559 0.876650 1.023647 0.011051 0.004612 676405.000000 0 0 1
15.274630 17.463538 15.646701 27.984080 0.852160 0.977462 0.014637 -0.000122 1116150.000000 0 0 1
16.729430 16.891638 15.926501 28.615637 0.790223 0.980549 0.014619 0.000353 1093500.000000 0 0 1
16.958630 16.372338 17.228901 29.197322 0.767810 0.939632 0.017735 -0.000278 632789.000000 0 0 1
18.166130 15.581638 17.277001 29.517630 0.708965 0.945532 0.009650 0.002165 735269.000000 0 0 1
18.594730 15.338638 18.766701 30.548762 0.689736 0.909273 0.022596 0.000226 315766.000000 0 0 1
19.211730 16.437038 19.483801 31.919983 0.707721 0.914237 0.023485 0.001573 1066640.000000 0 0 1
18.176930 17.314138 19.975601 32.081222 0.761093 0.898663 0.012748 0.000451 446241.000000 0 0 1
18.658930 18.409538 20.957501 33.560149 0.778670 0.896336 0.016506 -0.000435 -291480.000000 0 0 1
17.700030 19.309838 21.429801 33.843718 0.828867 0.885117 0.016660 0.008848 -93854.000000 0 0 1
18.372830 20.309838 22.177601 35.240550 0.835431 0.890118 0.018138 0.005931 -153715.000000 0 0 1
17.486930 21.494738 22.513701 35.702706 0.887851 0.888486 0.021276 0.007608 161526.000000 0 0 1
16.654930 21.176038 23.639401 35.841771 0.904342 0.850578 0.018016 0.006750 359385.000000 0 0 1
15.939230 22.279538 24.168501 36.531538 0.949796 0.847874 0.015224 -0.001970 379133.000000 0 0 1
15.084530 22.103238 25.484161 36.953195 0.971941 0.809814 0.026165 -0.005710 658068.000000 0 0 1
14.040530 21.123038 25.378351 35.880077 0.984155 0.785110 0.022021 -0.000885 -17435.800000 0 0 1
13.424130 21.132138 26.665231 36.576072 1.004862 0.753886 0.028177 -0.001626 -714290.000000 0 0 1
12.217730 20.219938 26.643941 35.609246 1.027264 0.725405 0.030961 -0.001667 -935726.000000 0 0 1
12.460930 18.811138 26.485521 34.793915 0.985737 0.705617 0.028985 0.005950 -73254.100000 0 0 1
12.935630 18.250238 25.220391 33.711568 0.954194 0.725568 0.034684 -0.003630 -46843.700000 0 0 1
11.963530 18.234038 23.983901 32.416565 0.990138 0.737926 0.027211 -0.003627 -259883.000000 0 0 1
12.126230 19.232838 22.981201 32.327745 1.008254 0.780045 0.027839 0.000471 -16428.000000 0 0 1
13.374730 19.466438 22.335601 32.506994 0.968804 0.813304 0.026656 0.000979 212512.000000 0 0 1
13.982130 18.351738 21.521501 31.550931 0.919725 0.820139 0.030034 0.000461 -528452.000000 0 0 1
13.156530 17.930638 20.490401 30.240016 0.937779 0.826313 0.030929 -0.003090 -166248.000000 0 0 1
13.884930 17.045938 19.668101 29.498974 0.887240 0.840972 0.041006 -0.008737 186700.000000 0 0 1
12.946330 16.277938 18.715401 27.979367 0.898910 0.838068 0.035576 -0.005880 -9769.740000 0 0 1
12.355930 17.167938 17.796001 27.642445 0.946965 0.871352 0.031931 -0.000070 -368157.000000 0 0 1
11.477030 16.390838 17.038301 26.280896 0.959929 0.865427 0.021965 -0.004415 21769.200000 0 0 1
10.852930 16.985638 15.731601 25.569146 1.002230 0.908084 0.017916 0.003430 243024.000000 0 0 1
10.065230 18.156738 15.797501 26.087104 1.064618 0.920318 0.011240 0.000881 55501.100000 0 0 1
9.706930 18.435638 14.439001 25.349201 1.086150 0.964773 0.001109 0.007662 -148500.000000 0 0 1
8.884230 19.739738 14.360101 25.976899 1.147886 0.985072 0.004262 0.005569 -41077.900000 0 0 1
7.665830 19.601438 15.047001 25.872641 1.197999 0.950127 -0.001836 0.006521 -631023.000000 0 0 1
6.862030 20.756438 14.912501 26.463179 1.251510 0.972157 -0.003735 0.001916 691397.000000 0 0 1
5.484230 20.592238 15.640201 26.433557 1.310513 0.937655 0.000373 0.006490 251314.000000 0 0 1
4.660130 19.615238 15.038301 25.152035 1.337544 0.929923 0.002253 0.000400 213344.000000 0 0 1
3.407030 19.544238 15.752301 25.332194 1.398207 0.899720 -0.004837 0.004903 978476.000000 0 0 1
2.316430 18.875238 14.896101 24.156454 1.448684 0.906315 -0.004708 -0.002380 -72203.900000 0 1 0
1.660430 19.633138 13.903501 24.114818 1.486424 0.956291 -0.003774 -0.010915 195623.000000 0 1 0
0.534630 18.944738 13.380101 23.199483 1.542583 0.956062 0.001601 -0.014744 -171576.000000 0 1 0
-0.329170 19.813238 12.522301 23.441006 -1.554184 1.007229 0.007935 -0.020246 137931.000000 0 1 0
-1.452070 20.447338 13.160201 24.359660 -1.499900 1.000067 0.006509 -0.011844 839155.000000 0 1 0
-2.481670 20.738138 12.206601 24.191531 -1.451696 1.041899 0.010723 -0.017150 836374.000000 0 1 0
-3.627070 21.645838 12.751701 25.383140 -1.404774 1.044460 0.005721 -0.005844 599776.000000 0 0 1
-4.431870 21.001638 13.761801 25.497008 -1.362823 1.000666 0.010321 -0.001693 203381.000000 0 0 1
-5.512870 21.852138 14.078501 26.572765 -1.323672 1.012421 -0.000015 0.013192 -151333.000000 0 0 1
-6.301670 21.354538 15.327801 27.030886 -1.283843 0.967879 0.000372 0.013724 -699667.000000 0 0 1
-7.165970 20.279738 15.077201 26.266726 -1.231135 0.959409 0.004329 0.011641 -187550.000000 0 0 1
-7.675670 19.661638 16.265501 26.646997 -1.198603 0.914223 0.006847 0.028203 -274795.000000 0 0 1
-8.816370 20.401438 16.991401 27.975967 -1.162890 0.918067 -0.001117 0.028796 -669658.000000 0 0 1
-9.975670 20.401738 16.206501 27.899741 -1.116018 0.950983 -0.005951 0.019863 -1016490.000000 0 0 1
-11.028870 19.803938 16.900001 28.274405 -1.062669 0.930150 -0.013128 0.019321 -316683.000000 0 0 1
-12.217670 19.534238 15.923901 28.007651 -1.011874 0.966048 -0.001389 0.008358 -93543.400000 0 0 1
-12.823070 20.772438 15.588901 28.964446 -1.017745 1.002487 -0.005668 0.013111 291315.000000 0 0 1
-13.721270 20.505538 14.479701 28.607902 -0.981077 1.040089 -0.000837 0.004370 105054.000000 0 0 1
-14.828370 21.554038 14.284101 29.807594 -0.968195 1.071042 0.003133 -0.006545 -9031.560000 0 0 1
-16.011370 21.357338 15.047201 30.641770 -0.927494 1.057481 0.009685 -0.004697 -347131.000000 0 0 1
-16.828070 22.431138 14.732101 31.676090 -0.927161 1.087065 0.017757 -0.015625 -398721.000000 0 0 1
-18.154070 22.514238 15.508201 32.817152 -0.892203 1.078599 0.042655 -0.025340 -1269100.000000 0 0 1
-19.075870 21.483938 15.155301 32.482788 -0.844699 1.085394 0.031965 -0.022013 -42550.700000 0 0 1
-20.130370 21.398738 16.088301 33.495839 -0.815930 1.069791 0.028086 -0.019980 -10209.400000 0 0 1
-21.137270 22.559138 15.975601 34.798257 -0.817926 1.093823 0.025985 -0.015390 -1956640.000000 0 0 1
-21.886070 22.639438 14.822301 34.802942 -0.802316 1.130849 0.017419 -0.006308 -198389.000000 0 0 1
-22.719870 23.756138 14.785801 36.043952 -0.807691 1.148106 0.030652 -0.012333 -206276.000000 0 0 1
-22.059870 25.027438 14.102001 36.219842 -0.848338 1.170876 0.021361 -0.004961 -122413.000000 0 0 1
-20.990970 25.508938 14.877201 36.230620 -0.882255 1.147657 0.018367 -0.015441 -493271.000000 0 0 1
-20.458170 26.584938 14.242801 36.443834 -0.914907 1.169279 0.010546 0.001225 -1061830.000000 0 0 1
-18.994670 26.925838 14.441101 35.976987 -0.956426 1.157753 0.018446 -0.008147 -1067790.000000 0 0 1
-18.161870 26.169238 13.621101 34.644147 -0.964098 1.166718 0.022736 -0.001689 -823495.000000 0 0 1
-16.867170 26.701738 13.819701 34.474169 -1.007402 1.158329 0.013200 -0.002227 -698619.000000 0 0 1
-15.872070 25.951538 12.954801 33.064056 -1.021888 1.168199 0.015332 0.001885 275073.000000 0 0 1
-14.612770 26.644038 12.896301 33.011398 -1.069148 1.169446 0.010962 0.001839 680163.000000 0 0 1
-13.662570 26.128438 11.974701 31.823805 -1.088997 1.185017 0.007863 0.005646 114275.000000 0 0 1
-12.291370 26.791838 12.101701 31.864267 -1.140671 1.181228 -0.001095 0.013566 -788843.000000 0 0 1
-11.234870 26.073138 11.497201 30.630319 -1.163940 1.186018 -0.010515 0.018428 441986.000000 0 0 1
-9.936370 26.612938 11.683001 30.715996 -1.213459 1.180616 -0.000762 0.012584 340315.000000 0 0 1
-9.552470 27.967538 11.027901 31.544373 -1.241664 1.213653 -0.000753 0.005696 -774802.000000 0 0 1
-8.255970 28.323138 11.429601 31.638536 -1.287163 1.201182 0.010974 0.001416 -107990.000000 0 0 1
-7.865170 29.555638 10.875301 32.460265 -1.310710 1.229155 0.015506 -0.001371 -225714.000000 0 0 1
-6.609170 30.206238 11.517101 32.996084 -1.355389 1.214245 0.009762 -0.004153 408411.000000 0 0 1
-5.438970 29.479838 11.131001 31.977217 -1.388350 1.215262 0.027604 -0.006790 -568540.000000 0 0 1
-4.345870 30.184338 11.595901 32.625845 -1.427801 1.207432 0.020992 -0.012182 -379935.000000 0 0 1
-2.989670 29.805438 10.931101 31.887164 -1.470825 1.220894 0.023663 -0.014782 276174.000000 0 0 1
-2.917770 30.272538 9.570901 31.883257 -1.474710 1.265909 0.033625 -0.020027 79784.400000 0 0 1
-1.646070 30.109438 8.975101 31.461726 -1.516181 1.281508 0.027884 -0.023969 220242.000000 0 0 1
-1.561170 30.900638 7.657501 31.873563 -1.520317 1.328177 0.019906 -0.024831 -15326.500000 0 0 1
-2.366470 30.358538 6.610701 31.159948 -1.493003 1.357018 0.027849 -0.025185 322365.000000 0 0 1
-2.531870 31.192538 5.500501 31.774837 -1.489805 1.396811 0.021202 -0.018814 5663.190000 0 0 1
10.245030 -34.486770 -27.365703 45.201545 -1.282029 2.221084 0.042850 0.002562 -14370.200000 0 0 1
10.696830 -34.400070 -26.043223 44.452632 -1.269321 2.196743 0.023298 0.007780 294247.000000 0 0 1
12.013730 -33.867470 -26.006293 44.358342 -1.229916 2.197252 0.025139 0.005484 230910.000000 0 0 1
12.517030 -33.797270 -24.569653 43.618796 -1.216103 2.169148 0.015760 0.014690 -737104.000000 0 0 1
12.169230 -32.601870 -23.932053 42.234053 -1.213545 2.173234 0.005310 0.024420 182386.000000 0 0 1
12.705430 -32.307070 -22.639053 41.445162 -1.196104 2.148666 -0.006148 0.021823 17978.300000 0 0 1
14.226730 -32.059670 -22.513753 41.678428 -1.153145 2.141444 -0.014896 0.027684 388256.000000 0 0 1
15.012330 -33.239470 -22.823353 43.024852 -1.146578 2.129950 -0.004300 0.019501 874645.000000 0 0 1
16.418430 -33.018570 -22.635053 43.268192 -1.109352 2.121320 -0.010438 0.017947 763599.000000 0 0 1
17.253730 -34.335970 -22.719953 44.641307 -1.105153 2.104755 -0.010335 0.018384 -84667.300000 0 0 1
18.636430 -34.048970 -22.653753 44.942646 -1.069996 2.099089 0.004416 0.023998 102525.000000 0 0 1
19.384630 34.069838 -22.581653 45.237692 1.053507 2.093446 0.011306 0.018502 -461768.000000 0 0 1
20.860330 34.383038 -22.333753 46.001556 1.025462 2.077731 0.018682 0.025098 -684033.000000 0 0 1
21.475130 -34.276470 -23.379553 46.718959 -1.011100 2.094891 0.019732 0.028765 435861.000000 0 0 1
22.890730 -34.281170 -23.169853 47.286639 -0.982055 2.082872 0.015381 0.023992 884863.000000 0 0 1
23.810430 -33.700270 -24.267153 47.870027 -0.955698 2.102426 0.019076 0.007882 211738.000000 0 0 1
23.962630 -32.255770 -24.220353 46.917671 -0.931858 2.113241 0.024215 0.007383 107935.000000 0 0 1
22.785430 -31.582870 -24.641953 46.085566 -0.945820 2.134949 0.017664 0.015171 320123.000000 0 0 1
22.771630 -30.102270 -24.291453 44.886173 -0.923164 2.142635 0.016650 -0.005037 -77076.700000 0 0 1
23.696830 -29.301170 -24.990253 45.217376 -0.890753 2.156360 0.026674 -0.011274 -304477.000000 0 0 1
23.421130 -27.959370 -24.799753 44.105594 -0.873496 2.167938 0.023576 -0.000437 297321.000000 0 0 1
24.147930 -27.105170 -25.854523 44.567579 -0.843033 2.189672 0.012117 0.002005 327187.000000 0 0 1
23.493930 -27.118170 -27.110803 44.970608 -0.856884 2.217872 0.012482 0.002447 -217700.000000 0 0 1
24.319530 -26.515370 -28.105383 45.655415 -0.828567 2.233941 0.005383 0.000768 -177618.000000 0 0 1
23.508030 -25.986070 -29.349773 45.708998 -0.835424 2.268031 0.003251 0.004303 601022.000000 0 0 1
22.657930 -24.864470 -29.180593 44.532355 -0.831796 2.285333 0.013249 0.000129 -703533.000000 0 0 1
21.494130 -25.107270 -28.481113 43.629651 -0.862776 2.282061 0.007710 0.002296 -684309.000000 0 0 1
20.654130 -23.804970 -28.088363 42.216417 -0.856150 2.298748 0.010951 0.003021 453261.000000 0 0 1
20.236030 -23.106970 -29.241213 42.408460 -0.851539 2.331614 0.027216 0.001253 84868.100000 0 0 1
19.557730 -21.943970 -28.833153 41.175154 -0.842832 2.346552 0.027260 0.006047 -185866.000000 0 0 1
18.537230 -21.323170 -29.828013 41.085482 -0.855177 2.383282 0.029851 -0.003853 409120.000000 0 0 1
17.387730 -22.149770 -29.893083 41.067528 -0.905264 2.386052 0.033336 -0.007031 227713.000000 0 0 1
16.267330 -21.567870 -30.540113 40.773736 -0.924588 2.417369 0.029412 -0.011478 334059.000000 0 0 1
15.090030 -22.589570 -30.527803 40.864954 -0.981865 2.414396 0.023067 -0.013797 -228859.000000 0 0 1
15.171430 -23.684770 -31.408733 42.162177 -1.001089 2.411257 0.020628 -0.009125 -24559.500000 0 0 1
14.334630 -24.729770 -30.989263 42.158956 -1.045474 2.396548 0.025791 -0.017124 -164974.000000 0 0 1
14.678230 -26.024370 -31.729713 43.583173 -1.057254 2.386235 0.028969 -0.016185 193098.000000 0 0 1
13.838130 -27.092570 -31.337183 43.675167 -1.098568 2.371011 0.033468 -0.007295 157640.000000 0 0 1
14.334730 -28.337870 -31.765823 44.917556 -1.102479 2.356330 0.034505 -0.010779 454645.000000 0 0 1
13.616630 -29.442470 -30.885413 44.790405 -1.137610 2.331670 0.033394 -0.014945 75674.700000 0 0 1
14.115730 -29.605870 -29.560323 44.153981 -1.125890 2.304308 0.036884 -0.013821 -154887.000000 0 0 1
13.751030 -28.517070 -28.696393 42.729347 -1.121487 2.307142 0.029045 -0.013674 -148491.000000 0 0 1
14.565530 -28.385570 -27.378893 42.041635 -1.096699 2.280004 0.026912 0.005119 -218299.000000 0 0 1
14.420330 -29.508170 -26.502473 42.202596 -1.116238 2.249754 0.026608 0.012112 -31906.400000 0 0 1
15.241430 -29.404970 -25.367103 41.718621 -1.092594 2.224401 0.031896 0.001904 -835099.000000 0 0 1
14.850630 -28.366170 -24.275253 40.180452 -1.088500 2.219502 0.023621 0.005299 479643.000000 0 0 1
13.762030 -28.590770 -23.378153 39.412735 -1.122184 2.205778 0.010639 0.012086 982264.000000 0 0 1
12.461430 -28.565470 -23.979053 39.322618 -1.159443 2.226608 0.008981 0.020355 -326736.000000 0 0 1
11.315030 -28.270070 -23.029953 38.178600 -1.190076 2.218324 -0.002957 0.022961 -416678.000000 0 0 1
11.254930 -26.938270 -22.500253 36.859263 -1.175036 2.227408 -0.006040 0.024089 413514.000000 0 0 1
10.041230 -26.707870 -21.786653 35.899789 -1.211180 2.222918 -0.002072 0.022164 32934.800000 0 0 1
9.668430 -25.237370 -21.455253 34.506974 -1.204943 2.241791 -0.004965 0.019326 69245.600000 0 0 1
10.498430 -24.666470 -20.469953 33.729375 -1.168405 2.222936 -0.017168 0.013236 267723.000000 0 0 1
9.922130 -23.421070 -20.184353 32.471577 -1.170077 2.241581 -0.014547 0.009724 -168923.000000 0 0 1
10.444330 -22.681270 -18.957553 31.351441 -1.139259 2.220159 -0.024378 0.012804 -101289.000000 0 0 1
9.797330 -23.094670 -17.767753 30.741576 -1.169583 2.187037 -0.017139 0.014199 412522.000000 0 0 1
10.217830 -22.242270 -16.721753 29.643543 -1.140163 2.170132 -0.016130 0.014239 -151128.000000 0 0 1
9.325530 -22.459770 -15.484753 28.830268 -1.177247 2.137792 -0.015111 0.013948 62561.000000 0 0 1
9.603830 -23.772870 -15.042653 29.726492 -1.186861 2.101378 -0.004235 0.012598 324670.000000 0 0 1
8.921330 -24.121270 -13.833153 29.202430 -1.216545 2.064282 -0.002370 0.008529 11998.600000 0 0 1
8.870430 -25.654770 -13.534453 30.332049 -1.237902 2.033322 -0.005370 0.011717 475978.000000 0 0 1
10.160230 -26.157270 -13.193553 31.008110 -1.200305 2.010296 -0.003421 0.009624 355850.000000 0 0 1
10.180330 -27.554270 -13.446653 32.306182 -1.216887 2.000086 -0.003980 0.002514 258032.000000 0 0 1
11.495330 -28.177870 -12.834353 33.028103 -1.183450 1.969896 0.009241 0.005599 1568690.000000 0 0 1
12.758430 -27.822370 -13.421253 33.421428 -1.140841 1.984034 0.021161 0.006812 724352.000000 0 0 1
12.951930 -28.205770 -14.801653 34.386144 -1.140323 2.015792 0.015895 0.002682 -1264820.000000 0 0 1
14.289330 -27.810370 -15.417253 34.861058 -1.096159 2.028901 0.008295 0.007894 -992840.000000 0 0 1
15.308730 -28.699070 -15.074253 35.850062 -1.080770 2.004771 0.038382 0.003802 -1098300.000000 0 0 1
16.436530 -28.244370 -15.749553 36.276058 -1.043762 2.019900 0.048120 -0.002376 -129319.000000 0 0 1
17.709530 -29.120570 -15.553853 37.464082 -1.024409 1.998923 0.047536 -0.003874 484911.000000 0 0 1
17.581430 -30.392370 -16.178953 38.659557 -1.046349 2.002587 0.041196 0.002881 -578761.000000 0 0 1
18.815430 -31.036170 -16.251953 39.766698 -1.025800 1.991806 0.055394 0.006333 -260900.000000 0 0 1
18.939830 -32.128670 -17.354853 41.135867 -1.038134 2.006326 0.037649 0.008419 17465.200000 0 0 1
18.421830 -33.418370 -17.136253 41.830640 -1.066995 1.992875 0.018538 0.015570 228404.000000 0 0 1
18.990630 -34.284370 -18.143353 43.188463 -1.064952 2.004349 0.009596 0.023764 202139.000000 0 0 1
18.909230 33.515038 -17.801653 42.399476 1.057115 2.004082 -0.000772 0.017814 11421.400000 0 0 1
19.885930 33.320438 -16.770853 42.272489 1.032727 1.978750 0.022308 0.013518 452903.000000 0 0 1
19.735630 32.020838 -16.304753 40.996026 1.018451 1.979822 0.007305 0.013737 -423057.000000 0 0 1
20.782530 31.610538 -15.270353 40.796119 0.989198 1.954448 0.013053 0.004707 -75819.900000 0 0 1
22.053430 31.291638 -15.841553 41.430365 0.956876 1.963152 0.025354 0.008002 1036440.000000 0 0 1
23.100230 30.868038 -14.936153 41.346645 0.928349 1.940396 0.040165 -0.003032 700412.000000 0 0 1
22.814830 29.671638 -13.981953 39.955195 0.915302 1.928304 0.033614 0.004567 -964149.000000 0 0 1
22.774830 28.398438 -14.610453 39.225368 0.894852 1.952470 0.039126 0.010197 147336.000000 0 0 1
22.365030 27.374038 -13.706153 37.912942 0.885765 1.940690 0.006100 0.016716 991884.000000 0 0 1
20.839530 27.189238 -13.358653 36.769475 0.916842 1.942613 -0.004756 0.017701 743343.000000 0 0 1
19.978930 26.841538 -14.456453 36.450169 0.930935 1.978616 -0.008029 0.016014 515290.000000 0 0 1
18.628630 27.203238 -14.191253 35.894758 0.970348 1.977253 0.002644 0.008978 124821.000000 0 0 1
18.155130 28.670638 -14.423653 36.873513 1.006300 1.972694 -0.004961 0.008706 -448960.000000 0 0 1
18.219830 29.118738 -15.769253 37.795931 1.011688 2.001182 -0.005844 0.007249 300714.000000 0 0 1
17.291330 28.476638 -16.656153 37.246965 1.025091 2.034408 -0.018035 0.017174 135197.000000 0 0 1
17.335630 29.186438 -18.022553 38.434160 1.034828 2.058864 -0.014994 0.019540 302142.000000 0 0 1
16.576430 30.417538 -17.946453 39.013841 1.071829 2.048794 -0.013766 0.013685 303102.000000 0 0 1
16.726030 30.958938 -19.199153 40.085202 1.075458 2.070264 -0.017061 0.019517 -478106.000000 0 0 1
15.755130 32.092138 -19.588653 40.765730 1.114428 2.072041 -0.023538 0.021979 -214464.000000 0 0 1
16.069630 33.369338 -19.120353 41.681334 1.122002 2.047358 -0.021477 0.026344 -216248.000000 0 0 1
14.956030 34.212338 -19.220553 41.995197 1.158677 2.046186 -0.018760 0.022232 -176258.000000 0 0 1
15.357930 -33.625570 -18.940153 41.536422 -1.142357 2.044280 -0.020934 0.015085 38029.400000 0 0 1
14.223230 -32.789970 -18.977853 40.467781 -1.161523 2.058912 -0.019527 0.025990 14771.100000 0 0 1
14.049530 -32.146570 -17.725853 39.306452 -1.158767 2.038643 -0.005975 0.019224 -25485.000000 0 0 1
12.930730 -31.075770 -17.712953 38.034931 -1.176485 2.055224 -0.006880 0.020261 -708836.000000 0 0 1
11.728430 -31.693070 -17.997253 38.287177 -1.216361 2.060155 -0.009814 0.021253 -1117460.000000 0 0 1
10.692030 -30.717070 -18.006253 37.176378 -1.235832 2.076413 -0.020160 0.027343 989646.000000 0 0 1
9.287630 -31.375370 -18.295653 37.488730 -1.282998 2.080628 -0.000509 0.022718 -336612.000000 0 0 1
8.771430 -32.111970 -17.224253 37.480548 -1.304150 2.048287 0.004474 0.020539 1206.360000 0 0 1
7.811630 -33.093670 -17.568053 38.273347 -1.338993 2.047683 0.020285 0.019675 1112110.000000 0 0 1
6.385730 -32.554070 -18.027353 37.756198 -1.377098 2.068566 0.018332 0.027571 290964.000000 0 0 1
6.330230 -31.816070 -19.233353 37.712810 -1.374398 2.105976 0.013565 0.027283 -180601.000000 0 0 1
6.219130 -32.727170 -20.334853 39.028855 -1.383006 2.118843 0.013459 0.020135 -831695.000000 0 0 1
6.344530 -32.077070 -21.702553 39.245284 -1.375526 2.156754 0.002407 0.034122 -371070.000000 0 0 1
7.610430 -31.624870 -22.083053 39.315548 -1.334640 2.167220 0.012481 0.028096 160946.000000 0 0 1
8.694130 -32.535470 -22.333053 40.409281 -1.309677 2.156363 0.011885 0.017993 222078.000000 0 0 1
8.587830 -33.612070 -23.438253 41.867336 -1.320649 2.164967 0.008308 0.015818 -408449.000000 0 0 1
7.596530 -34.581770 -23.135953 42.295135 -1.354562 2.149587 0.009458 0.009572 34819.900000 0 0 1
7.528730 33.686038 -24.111553 42.104607 1.350913 2.180541 0.004801 0.002400 549611.000000 0 0 1
6.313230 32.688738 -23.852253 40.955347 1.380014 2.192470 0.011155 -0.006193 2355240.000000 0 0 1
4.959830 33.187338 -24.027353 41.271213 1.422445 2.192206 0.016229 -0.001696 1246540.000000 0 0 1
4.496030 33.988538 -22.949553 41.256720 1.439279 2.160677 0.011856 -0.003744 -85785.900000 0 0 1
3.087030 34.607238 -23.218153 41.788435 1.481830 2.159895 0.007469 0.006882 880082.000000 0 0 1
1.997230 33.690638 -23.011853 40.848419 1.511584 2.169228 0.001984 0.002088 421476.000000 0 0 1
0.842830 34.239938 -23.620153 41.605232 1.546186 2.174531 0.000823 0.014885 164136.000000 0 0 1
-0.470370 33.869238 -22.873753 40.872425 -1.556909 2.164745 -0.004842 0.007261 14985.000000 0 0 1
-0.731470 34.291738 -21.536453 40.500335 -1.549469 2.131474 -0.007867 0.012135 -1009820.000000 0 0 1
-1.953970 33.912738 -21.044753 39.959647 -1.513242 2.125451 -0.001885 0.006509 -742996.000000 0 0 1
-2.011470 34.125038 -19.495453 39.352724 -1.511920 2.089095 -0.003329 0.007745 162296.000000 0 0 1
-1.192970 33.243238 -18.758453 38.189208 -1.534926 2.084261 -0.012526 0.002606 199679.000000 0 0 1
-1.658470 33.251438 -17.394653 37.563048 -1.520961 2.052262 -0.019703 0.003458 452810.000000 0 0 1
-0.862570 32.216338 -16.470353 36.192665 -1.544028 2.043252 -0.025357 0.004060 836760.000000 0 0 1
0.354530 32.665138 -15.885753 36.324841 1.559943 2.023418 -0.014349 0.001618 389150.000000 0 0 1
0.975530 31.590038 -15.124153 35.037439 1.539925 2.017125 -0.014512 0.007174 112267.000000 0 0 1
1.956230 32.142638 -14.096953 35.152526 1.510010 1.983429 -0.001986 0.000058 -371442.000000 0 0 1
3.096130 32.714138 -14.716853 36.005369 1.476435 1.991870 0.014258 -0.003755 -342581.000000 0 0 1
3.893430 33.354538 -13.747653 36.286112 1.454594 1.959369 0.028712 -0.009192 -84347.100000 0 0 1
5.322930 33.623938 -14.276153 36.914920 1.413792 1.967881 0.043252 -0.016095 123869.000000 0 0 1
5.986130 32.370738 -14.408853 35.934850 1.387938 1.983373 0.039759 -0.007464 -478312.000000 0 0 1
7.121530 32.505338 -15.244253 36.601918 1.355116 2.000375 0.023134 0.002169 135954.000000 0 0 1
8.021730 31.232538 -15.185953 35.643130 1.319391 2.010925 0.011735 -0.004739 83050.900000 0 0 1
8.773130 31.196838 -13.957153 35.284736 1.296658 1.977471 0.004113 -0.010966 -153052.000000 0 0 1
9.585430 30.042538 -13.841453 34.438646 1.261945 1.984405 -0.003169 -0.004248 -85238.500000 0 0 1
8.920030 28.671438 -13.759153 33.029268 1.269176 2.000470 0.007661 -0.009830 -488879.000000 0 0 1
8.246830 28.221738 -14.898953 32.961424 1.286496 2.039816 0.015042 -0.011283 -358123.000000 0 0 1
7.528030 27.067938 -14.678253 31.698511 1.299535 2.052239 0.014224 -0.006927 -684422.000000 0 0 1
6.831830 26.513738 -15.938853 31.681212 1.318611 2.097980 0.015790 -0.006170 -381752.000000 0 0 1
7.650830 25.926138 -16.907453 31.883566 1.283840 2.129736 0.023138 -0.004348 -567943.000000 0 0 1
7.062930 24.796738 -17.554853 31.191923 1.293312 2.168567 0.016073 -0.001032 36835.100000 0 0 1
8.000530 24.001238 -18.486053 31.333721 1.249041 2.201822 0.012282 0.008087 -259669.000000 0 0 1
7.338730 22.951838 -19.191653 30.805249 1.261325 2.243368 0.014456 0.004190 -362003.000000 0 0 1
8.168030 21.972838 -19.795953 30.682276 1.214893 2.272071 0.006850 0.006669 -639605.000000 0 0 1
7.600130 21.145838 -20.927653 30.706271 1.225759 2.320666 0.001402 -0.002300 -189153.000000 0 0 1
6.640430 20.182738 -20.545953 29.556292 1.252937 2.339420 0.002235 0.004165 -7536.760000 0 0 1
6.192630 19.321238 -21.559953 29.605582 1.260632 2.386546 -0.003245 0.010103 -22569.800000 0 0 1
24.597630 -12.666562 -9.982253 29.413102 -0.475536 1.917055 0.030957 0.003515 -134324.000000 0 0 1
25.049230 -12.134262 -8.741753 29.174004 -0.451103 1.875114 0.024952 0.009021 1088670.000000 0 0 1
23.972630 -12.177062 -7.788653 27.993409 -0.469993 1.852749 0.020495 0.011794 113381.000000 0 0 1
24.472330 -11.703462 -6.422753 27.876831 -0.446082 1.803282 0.000614 0.014577 -64155.900000 0 0 1
24.752130 -10.313862 -6.233553 27.530000 -0.394807 1.799205 0.008006 0.017679 64646.900000 0 0 1
25.896930 -9.799562 -6.846553 28.522933 -0.361754 1.813200 0.012695 0.017303 -1167930.000000 0 0 1
26.081630 -8.327662 -6.481253 28.135530 -0.309061 1.803242 0.038515 0.015875 -259313.000000 0 0 1
26.602430 -7.961262 -5.238953 28.258054 -0.290785 1.757272 0.034447 0.007753 444815.000000 0 0 1
27.939630 -8.339162 -4.967453 29.577697 -0.290053 1.739542 0.029331 0.005559 -228020.000000 0 0 1
28.378530 -8.136362 -3.525353 29.731624 -0.279218 1.689648 0.029948 0.003359 -262670.000000 0 0 1
28.702230 -6.805562 -3.176353 29.668551 -0.232810 1.678063 0.035853 0.001864 369614.000000 0 0 1
29.304530 -6.764462 -1.887453 30.134298 -0.226860 1.633472 0.024984 -0.002481 -127548.000000 0 0 1
29.499930 -5.319262 -1.561453 30.016305 -0.178397 1.622840 0.023780 -0.009688 -533218.000000 0 0 1
28.313930 -4.748562 -1.105153 28.730626 -0.166165 1.609272 0.020266 -0.008115 -806068.000000 0 0 1
28.476030 -3.437362 -0.658353 28.690298 -0.120129 1.593745 0.018209 -0.002367 -358775.000000 0 0 1
29.201730 -3.280962 0.705247 29.393930 -0.111886 1.546801 0.022359 -0.013603 -627371.000000 0 0 1
28.429530 -3.434762 1.844247 28.695592 -0.120234 1.506483 0.020113 -0.022942 -139819.000000 0 0 1
29.153630 -3.106662 3.013047 29.473106 -0.106161 1.468387 0.016679 -0.015780 -650426.000000 0 0 1
28.650030 -3.744262 4.289247 29.210296 -0.129953 1.423423 0.016817 -0.020317 -378383.000000 0 0 1
28.760730 -5.165662 4.361247 29.544613 -0.177713 1.422639 0.021167 -0.027311 213675.000000 0 0 1
28.627430 -5.575662 5.708447 29.718751 -0.192358 1.377513 0.016516 -0.022708 -194735.000000 0 0 1
29.251630 -6.994962 5.922847 30.653996 -0.234723 1.376357 0.021030 -0.018009 -16035.700000 0 0 1
30.655030 -6.959462 5.892147 31.982533 -0.223241 1.385508 0.022525 -0.023243 -179658.000000 0 0 1
31.239530 -8.268762 5.743147 32.821706 -0.258755 1.394911 0.017784 -0.016855 291877.000000 0 0 1
32.772730 -8.230862 5.621647 34.254954 -0.246060 1.405939 0.026230 -0.013791 -14440.000000 0 0 1
33.383330 -7.721562 4.450947 34.552571 -0.227303 1.441621 0.023473 -0.013209 888522.000000 0 0 1
34.812530 -7.655962 4.608947 35.941180 -0.216474 1.442206 0.028025 -0.011832 992100.000000 0 0 1
-34.351506 -7.283462 3.389147 35.278338 0.208933 1.474579 0.026377 -0.008801 -244398.000000 0 0 1
-34.376306 -8.258962 2.382047 35.434659 0.235783 1.503522 0.033633 -0.008004 -337660.000000 0 0 1
-33.260806 -8.158362 1.568747 34.282664 0.240536 1.525021 0.046045 -0.013542 -742897.000000 0 0 1
-32.887806 -9.369862 0.731147 34.204337 0.277550 1.549419 0.044888 -0.011959 -18369.700000 0 0 1
-32.272006 -10.380262 1.528647 33.934775 0.311198 1.525734 0.037962 -0.009342 306939.000000 0 0 1
-32.175006 -11.607062 0.864947 34.215538 0.346217 1.545514 0.035866 -0.010727 -409957.000000 0 0 1
-32.075506 -12.840262 1.819647 34.597999 0.380777 1.518178 0.022764 -0.015181 871350.000000 0 0 1
-30.839506 -13.187362 2.476147 33.632023 0.404081 1.497105 0.021353 -0.014074 927723.000000 0 0 1
-29.883706 -13.871162 1.678847 32.988840 0.434576 1.519883 0.023651 -0.003619 549320.000000 0 0 1
-28.545306 -14.239362 2.400147 31.989915 0.462714 1.495698 0.023967 -0.003536 611325.000000 0 0 1
-27.778506 -13.095962 2.811147 30.839134 0.440542 1.479514 0.020221 -0.010557 683635.000000 0 0 1
-26.497706 -13.585862 3.234847 29.952768 0.473770 1.462587 0.030300 -0.012547 34255.800000 0 0 1
-25.646606 -12.412562 3.655847 28.726039 0.450753 1.443184 0.002434 0.000185 -674464.000000 0 0 1
-24.399806 -12.804562 4.160847 27.867903 0.483276 1.420930 -0.004701 0.006052 -54505.400000 0 0 1
-23.807606 -11.850362 5.028847 27.065153 0.461850 1.383905 -0.005599 0.011018 190096.000000 0 0 1
-22.557006 -12.272662 5.828147 26.332567 0.498281 1.347620 -0.005810 0.021952 -315974.000000 0 0 1
-22.816406 -13.258762 6.818947 27.255847 0.526411 1.317927 -0.002408 0.006625 -346401.000000 0 0 1
-21.721406 -13.547162 7.653747 26.719374 0.557648 1.280277 0.000285 0.017246 -336608.000000 0 0 1
-21.574106 -12.769162 9.007547 26.638871 0.534423 1.225861 0.014495 0.016690 -414362.000000 0 0 1
-21.031306 -11.447262 8.942747 25.560289 0.498454 1.213365 0.008480 0.008000 387712.000000 0 0 1
-21.959506 -10.366762 9.055547 25.917033 0.441068 1.213860 0.015682 -0.000995 -296468.000000 0 0 1
-22.476706 -9.969562 10.498347 26.735927 0.417478 1.167265 0.010952 -0.000389 237279.000000 0 0 1
-23.158406 -10.874162 11.372347 27.998026 0.438997 1.152522 0.005466 -0.015571 922047.000000 0 0 1
-24.473406 -11.321062 11.005347 29.124418 0.433271 1.183298 0.007226 -0.007000 595444.000000 0 0 1
-25.443506 -11.149162 12.206247 30.342516 0.412992 1.156788 0.015116 -0.012525 -340889.000000 0 0 1
-25.402406 -12.181662 13.178947 31.102408 0.447152 1.133240 0.015834 -0.011727 303207.000000 0 0 1
-26.447606 -11.956962 14.117947 32.276327 0.424599 1.118081 -0.000904 -0.009492 176524.000000 0 0 1
-26.338406 -12.812062 15.425347 33.102899 0.452741 1.086052 -0.000414 -0.010475 -195761.000000 0 0 1
-26.576206 -14.177562 15.211547 33.744469 0.490062 1.103150 -0.013441 -0.000612 56127.000000 0 0 1
-25.934206 -14.882162 16.200147 34.007449 0.520964 1.074274 -0.025080 0.004930 -913670.000000 0 0 1
-25.813706 -16.391562 15.840447 34.437632 0.565754 1.092829 -0.018449 0.011594 -621472.000000 0 0 1
-26.936306 -17.154362 16.172847 35.796616 0.567075 1.102016 -0.038467 0.020373 -377961.000000 0 0 1
-26.582606 -18.523662 15.957047 36.116317 0.608598 1.113166 -0.036020 0.028781 26380.800000 0 0 1
-27.439506 -19.570062 16.704847 37.616031 0.619535 1.110640 -0.049359 0.037253 -170770.000000 0 0 1
-27.501106 -19.375662 18.103147 38.202763 0.613767 1.077116 -0.028973 0.032396 -158964.000000 0 0 1
-28.145006 -20.343962 18.894547 39.535074 0.625882 1.072513 -0.019116 0.021762 -274450.000000 0 0 1
-27.360806 -21.643762 19.204347 39.823022 0.669260 1.067584 -0.023645 0.022164 170357.000000 0 0 1
-26.315006 -21.409462 20.168847 39.466784 0.682969 1.034410 -0.010011 0.023594 488055.000000 0 0 1
-25.524506 -22.583962 20.300547 39.669232 0.724351 1.033581 0.002181 0.020554 -503352.000000 0 0 1
-24.173206 -22.250862 20.925347 38.952727 0.744013 1.003684 0.017925 0.024526 -536279.000000 0 0 1
-23.236806 -21.838762 19.953247 37.616656 0.754393 1.011681 0.026171 0.024075 266248.000000 0 0 1
-21.922106 -21.854262 20.518347 37.137449 0.783848 0.985439 0.035156 0.020513 1028620.000000 0 0 1
-20.768406 -21.635862 19.474047 35.758576 0.805852 0.994887 0.026663 0.020399 440416.000000 0 0 1
-20.496806 -22.740062 18.597947 35.820569 0.837235 1.024885 0.021004 0.025755 126735.000000 0 0 1
-19.362406 -22.437962 17.821447 34.582783 0.858843 1.029407 0.022416 0.023148 -126493.000000 0 0 1
-19.024606 -23.344662 16.568347 34.371777 0.887009 1.067822 0.021185 0.037741 -457073.000000 0 0 1
-18.891006 -24.712862 16.865647 35.384258 0.918130 1.073965 0.022364 0.021927 589982.000000 0 0 1
-17.773406 -25.107612 17.692147 35.486592 0.954795 1.048861 0.015188 0.014839 1064880.000000 0 0 1
-16.385706 -25.216642 16.970747 34.530808 0.994564 1.057023 0.019830 0.013673 299007.000000 0 0 1
-15.982406 -23.951062 16.526447 33.199611 0.982359 1.049747 0.015696 0.015563 -142553.000000 0 0 1
-14.849206 -24.032862 15.662347 32.301494 1.017340 1.064570 0.002631 0.015415 22137.000000 0 0 1
-14.166706 -22.730362 15.189847 30.791174 1.013456 1.054896 0.004061 0.022224 77325.700000 0 0 1
-14.969406 -21.749562 14.522347 30.133456 0.967991 1.067935 0.010791 0.018846 67432.100000 0 0 1
-15.836706 -20.961662 15.367747 30.436166 0.923779 1.041510 0.010700 0.016215 -245485.000000 0 0 1
-15.208106 -19.933262 16.328947 29.920828 0.919058 0.993526 0.013208 0.011180 -311740.000000 0 0 1
-14.633406 -18.839062 15.620547 28.514002 0.910388 0.991040 0.007412 0.008812 79449.900000 0 0 1
-14.368806 -17.807362 16.572147 28.252448 0.891861 0.943974 -0.007914 0.013684 -483544.000000 0 0 1
-13.811606 -16.511562 16.032047 26.840616 0.874203 0.930659 0.003209 0.009846 186592.000000 0 0 1
-14.682706 -15.840262 15.096047 26.351213 0.823304 0.960783 0.006978 0.007556 478031.000000 0 0 1
-14.804806 -16.506762 13.820147 26.127609 0.839700 1.013436 0.007435 0.004930 -277493.000000 0 0 1
-15.704106 -15.752062 12.858147 25.691990 0.786923 1.046651 0.009960 0.002473 -949231.000000 0 0 1
-17.056506 -15.741162 13.145747 26.674318 0.745315 1.055464 0.004736 -0.004293 -1012580.000000 0 0 1
-17.806406 -14.908562 12.317047 26.287696 0.697050 1.083150 0.005743 -0.000556 -962301.000000 0 0 1
-19.304106 -15.143662 12.461347 27.518434 0.665205 1.100852 0.005249 -0.005478 -903722.000000 0 0 1
-19.869506 -16.211062 11.761147 28.212061 0.684347 1.140782 0.016284 -0.011058 -83809.700000 0 0 1
-20.051906 -15.995062 10.337947 27.654911 0.673326 1.187673 0.011100 -0.000512 -328564.000000 0 0 1
-20.881106 -17.166462 9.764547 28.741162 0.688075 1.224155 0.005158 0.008685 161931.000000 0 0 1
-20.097106 -18.287062 9.535847 28.796574 0.738277 1.233279 0.008873 0.017067 408484.000000 0 0 1
-20.986606 -19.396762 9.322247 30.059546 0.746050 1.255471 0.012455 0.011295 755406.000000 0 0 1
-20.255706 -20.772962 9.660947 30.580116 0.798005 1.249368 0.014479 0.027167 579032.000000 0 0 1
-19.115706 -20.837062 8.816047 29.619522 0.828456 1.268573 0.023621 0.020068 -236941.000000 0 0 1
-18.662206 -22.200362 8.782947 30.303039 0.871769 1.276740 0.019972 0.022291 -636420.000000 0 0 1
-17.564306 -22.390862 7.763547 29.497936 0.905615 1.304470 0.015508 0.016567 -55032.100000 0 0 1
-16.312906 -21.968362 8.313247 28.597726 0.932072 1.275842 0.006704 0.007735 15839.400000 0 0 1
-15.228806 -22.297762 7.473447 28.017122 0.971588 1.300782 0.021185 0.014802 185144.000000 0 0 1
-13.885106 -21.908662 8.149047 27.188097 1.005914 1.266388 -0.028234 0.015413 844409.000000 0 0 1
-12.718906 -22.386362 7.438147 26.800109 1.054122 1.289562 -0.008006 0.019610 18331.900000 0 0 1
-11.556506 -21.898462 8.035147 26.031886 1.085211 1.257007 -0.003124 0.016322 -1177050.000000 0 0 1
-10.341506 -22.570662 7.507147 25.937209 1.141158 1.277159 -0.008451 0.019722 -959532.000000 0 0 1
-10.381706 -23.981162 7.770147 27.262633 1.162244 1.281779 -0.013716 0.023370 -34170.000000 0 0 1
-9.107306 -24.562162 7.536147 27.258693 1.215725 1.290680 0.002208 0.018225 315477.000000 0 0 1
-9.113606 -26.080962 7.499347 28.627166 1.234625 1.305737 -0.010524 0.012686 -427087.000000 0 0 1
-9.847506 -26.585022 6.407747 29.065375 1.216051 1.348510 -0.011373 0.007651 -196339.000000 0 0 1
-10.031706 -27.970442 6.512847 30.420354 1.226433 1.355031 0.006106 0.005690 -56116.300000 0 0 1
-8.930606 -28.903882 5.923847 30.826646 1.271125 1.377427 0.010423 0.001394 388737.000000 0 0 1
-7.688706 -28.751342 6.619147 30.488834 1.309490 1.351953 0.004965 -0.001396 15513.900000 0 0 1
-6.632006 -29.546582 6.130347 30.896038 1.349997 1.371052 0.006532 0.004865 280745.000000 0 0 1
-6.671406 -30.987312 6.605747 32.378343 1.358738 1.365336 0.012883 0.007286 -408595.000000 0 0 1
-6.524506 -30.951172 7.968547 32.619656 1.363038 1.324012 0.013147 0.007637 4214.250000 0 0 1
-6.355406 -32.265612 8.481347 33.961657 1.376314 1.318392 0.041975 -0.000145 -157640.000000 0 0 1
-6.397506 -32.242932 10.047147 34.372662 1.374925 1.274165 0.029993 0.005432 -183026.000000 0 0 1
-5.448006 -31.460382 10.727547 33.682587 1.399326 1.246661 0.008290 0.014310 102000.000000 0 0 1
-5.686206 -31.712792 12.093447 34.413451 1.393378 1.211713 0.007199 0.009966 -224693.000000 0 0 1
-4.974206 -30.696372 12.984847 33.698906 1.410147 1.175242 -0.007565 0.010351 8105.660000 0 0 1
-5.517606 -29.386442 12.879547 32.555947 1.385197 1.164061 -0.010722 0.011346 13644.500000 0 0 1
-4.868206 -28.472762 13.743447 31.988747 1.401456 1.126709 -0.024518 0.008824 -7759.650000 0 0 1
-5.629906 -28.133842 15.110847 32.427560 1.373294 1.086046 -0.018349 0.010932 349250.000000 0 0 1
-5.869806 -29.175242 16.039247 33.806905 1.372256 1.076472 -0.014392 0.001015 33880.400000 0 0 1
-4.697206 -29.751092 16.580847 34.381910 1.414205 1.067569 -0.016197 0.002527 182266.000000 0 0 1
-4.985206 -31.237432 16.934647 35.880520 1.412540 1.079269 -0.008725 0.000813 -130788.000000 0 0 1
-5.193106 -32.138042 15.842247 36.204957 1.410594 1.117901 -0.010113 0.004693 86804.200000 0 0 1
-5.591406 -33.371572 16.326947 37.569866 1.404788 1.121229 -0.004410 0.002326 -388216.000000 0 0 1
-5.098906 -34.598889 15.547947 38.272975 1.424478 1.152463 -0.015641 0.004198 -257438.000000 0 0 1
-5.601506 34.477626 14.276547 37.734645 -1.409736 1.182793 0.015122 -0.002945 255673.000000 0 0 1
-4.840206 33.433544 13.689947 36.450571 -1.427024 1.185778 0.005898 -0.000854 368738.000000 0 0 1
-3.691206 33.733750 12.677247 36.225730 -1.461808 1.213277 0.003864 -0.010354 92032.200000 0 0 1
-4.069206 33.979749 11.367447 36.061069 -1.451610 1.250100 0.014069 -0.004640 -182692.000000 0 0 1
-3.006206 34.480415 10.605847 36.199728 -1.483830 1.273453 0.012360 -0.005893 -616267.000000 0 0 1
-3.343206 -34.617734 9.102847 35.950332 1.474520 1.314803 0.015753 -0.007871 -409243.000000 0 0 1
-3.676206 33.590693 8.240547 34.781544 -1.461789 1.331599 0.027112 -0.027028 849458.000000 0 0 1
-4.695206 32.659086 8.640747 34.107527 -1.428011 1.314667 0.031327 -0.021105 1234090.000000 0 0 1
-6.199106 33.068756 8.899947 34.802020 -1.385486 1.312193 0.047138 -0.014631 1279310.000000 0 0 1
-6.860506 33.673181 7.743447 35.226562 -1.369809 1.349168 0.050793 -0.023811 -1381510.000000 0 0 1
-8.147106 33.938913 8.097347 35.830046 -1.335202 1.342834 0.044508 -0.013881 -1796520.000000 0 0 1
-9.072906 34.253951 6.955047 36.111265 -1.311870 1.376985 0.051020 -0.010565 -541414.000000 0 0 1
-8.988206 -33.715962 6.490747 35.492024 1.310269 1.386882 0.049568 -0.006192 161701.000000 0 0 1
-9.727806 -33.688912 5.286747 35.461567 1.289689 1.421155 0.035318 0.000731 -499672.000000 0 0 1
-9.826806 -32.283372 4.596847 34.057499 1.275315 1.435410 0.017372 0.001017 71567.200000 0 0 1
-10.715806 -31.327682 5.117047 33.502781 1.241216 1.417461 0.032122 -0.007308 -65072.700000 0 0 1
-12.096406 -31.579412 4.987147 34.182656 1.204989 1.424377 0.034452 -0.003879 460226.000000 0 0 1
-13.059406 -30.542032 5.720947 33.705979 1.166736 1.400240 0.013031 -0.001081 458349.000000 0 0 1
-13.279206 -31.019252 7.051747 34.471125 1.166307 1.364772 0.018023 0.004976 259100.000000 0 0 1
-14.281206 -30.219182 7.695447 34.298276 1.129318 1.344502 0.007430 0.006425 213246.000000 0 0 1
32.363686 -13.510662 -12.953853 37.386475 -0.395470 1.924618 -0.020578 0.007396 -532554.000000 0 0 1
31.207426 -13.549262 -12.179453 36.136201 -0.409610 1.914571 -0.011938 0.008026 -272625.000000 0 0 1
30.987726 -14.797162 -11.538353 36.226079 -0.445500 1.894953 -0.004656 -0.000762 -51720.300000 0 0 1
31.957626 -15.110162 -10.349853 36.833766 -0.441667 1.855620 -0.010281 0.001447 -954920.000000 0 0 1
33.184476 -15.463562 -10.813153 38.174016 -0.436070 1.857987 0.004535 -0.007218 -1433260.000000 0 0 1
34.181315 -15.529362 -9.811553 38.804510 -0.426443 1.826417 0.006311 -0.007273 798527.000000 0 0 1
-34.363518 -15.691562 -10.323453 39.161846 0.428357 1.837559 -0.002861 -0.005967 500157.000000 0 0 1
-33.877400 -14.474862 -10.877953 38.412624 0.403793 1.857912 -0.014400 0.002776 -628756.000000 0 0 1
-32.492100 -14.619062 -10.985253 37.284438 0.422793 1.869869 -0.013133 -0.001776 -507661.000000 0 0 1
-31.788760 -13.284762 -11.272653 36.250281 0.395848 1.887007 -0.000747 -0.012970 -273817.000000 0 0 1
-31.963920 -12.437862 -10.146753 35.767991 0.371094 1.858429 0.015494 -0.015227 173236.000000 0 0 1
-31.532160 -11.191662 -10.563753 35.087366 0.341059 1.876611 0.015401 -0.015779 -502299.000000 0 0 1
-31.969970 -10.019862 -9.749053 34.892988 0.303718 1.853964 0.017481 -0.019148 -180577.000000 0 0 1
-31.236180 -9.839462 -8.544653 33.845606 0.305163 1.826018 0.030492 -0.015752 116412.000000 0 0 1
-31.915140 -9.029362 -7.637753 34.035875 0.275712 1.797127 0.038784 -0.017317 -551928.000000 0 0 1
-31.286320 -8.922662 -6.238753 33.126572 0.277818 1.760259 0.031430 -0.007821 -687236.000000 0 0 1
-30.067200 -8.185662 -6.227153 31.777649 0.265804 1.768033 0.039888 -0.018396 356407.000000 0 0 1
-29.613640 -8.127062 -4.844753 31.088397 0.267842 1.727272 0.040552 -0.009973 -167603.000000 0 0 1
-28.787400 -9.341762 -4.425853 30.587106 0.313787 1.716003 0.032528 -0.005012 -959354.000000 0 0 1
-29.588230 -10.474262 -4.176753 31.664156 0.340235 1.703090 0.048825 -0.005778 301397.000000 0 0 1
-29.963590 -10.606262 -2.835253 31.911568 0.340209 1.659761 0.028826 -0.008852 38142.900000 0 0 1
-30.630430 -11.989862 -2.475353 32.986473 0.373102 1.645908 0.034342 -0.008023 697577.000000 0 0 1
-31.936170 -12.261762 -2.997753 34.340301 0.366591 1.658203 0.037994 -0.014975 754670.000000 0 0 1
-32.364170 -13.575462 -2.622153 35.193868 0.397169 1.645371 0.034270 -0.014895 286324.000000 0 0 1
-33.916070 -13.645562 -2.558753 36.647624 0.382516 1.640674 0.018067 -0.009547 275359.000000 0 0 1
-34.407132 -12.953262 -1.444553 36.792995 0.360059 1.610068 0.025127 -0.008617 133696.000000 0 0 1
34.226180 -12.648662 -1.533353 36.520833 -0.353994 1.612794 0.044499 -0.011669 -67517.800000 0 0 1
33.897686 -11.761662 -0.366953 35.882092 -0.333978 1.581023 0.034611 -0.011493 -321305.000000 0 0 1
33.849826 -12.332362 0.941247 36.038644 -0.349380 1.544676 0.050604 -0.005038 177707.000000 0 0 1
33.668966 -11.248462 1.803147 35.544037 -0.322431 1.520045 0.043911 -0.009688 -209000.000000 0 0 1
34.172032 -11.564562 3.202847 36.217746 -0.326323 1.482248 0.041605 -0.016342 50921.500000 0 0 1
33.172796 -11.897462 4.142547 35.484429 -0.344361 1.453787 0.041822 -0.017560 -45961.000000 0 0 1
33.784086 -12.435062 5.281647 36.385314 -0.352685 1.425123 0.039051 -0.014452 -362363.000000 0 0 1
32.900526 -12.607462 6.531747 35.833734 -0.365940 1.387492 0.043125 -0.009030 -242113.000000 0 0 1
32.538266 -11.334462 6.999047 35.159572 -0.335197 1.370392 0.033824 -0.011435 3065.360000 0 0 1
32.128706 -11.454862 8.364547 35.120269 -0.342481 1.330317 0.009302 0.007255 -815039.000000 0 0 1
31.407546 -10.241962 8.857447 34.202136 -0.315225 1.308837 0.000205 -0.005606 -1015540.000000 0 0 1
30.069276 -10.242962 8.475047 32.877136 -0.328317 1.310073 0.002003 -0.000386 -590424.000000 0 0 1
29.291366 -9.429062 9.331747 32.155449 -0.311431 1.276353 0.009439 0.006561 573801.000000 0 0 1
27.743566 -9.479462 9.145547 30.711671 -0.329245 1.268422 0.004201 -0.005567 613389.000000 0 0 1
27.219416 -9.033862 7.927247 29.754807 -0.320451 1.301120 0.018207 -0.010220 -274657.000000 0 0 1
26.519156 -9.999162 7.218647 29.246500 -0.360570 1.321398 0.021907 -0.020431 -925592.000000 0 0 1
25.684526 -9.348162 6.144147 28.014881 -0.349058 1.349682 0.028296 -0.025593 -1264860.000000 0 0 1
24.540966 -8.815162 6.736647 26.932295 -0.344849 1.317979 0.025081 -0.018432 44874.600000 0 0 1
23.617366 -8.335462 5.727247 25.691658 -0.339290 1.345985 0.022132 -0.020844 140830.000000 0 0 1
23.839666 -6.863062 5.293847 25.366437 -0.280305 1.360556 0.011398 -0.014985 -1490220.000000 0 0 1
24.885766 -6.792362 4.373047 26.164119 -0.266452 1.402869 0.016238 -0.020784 -31862.900000 0 0 1
25.027396 -5.500562 3.746047 25.897097 -0.216342 1.425636 0.014556 -0.026562 84642.800000 0 0 1
25.899886 -5.585962 2.472247 26.610507 -0.212421 1.477757 0.029022 -0.028397 352879.000000 0 0 1
25.065186 -5.825262 1.363947 25.769315 -0.228351 1.517842 0.031386 -0.024650 331033.000000 0 0 1
25.880336 -5.661462 0.213447 26.493198 -0.215363 1.562740 0.026596 -0.018600 -618589.000000 0 0 1
25.234896 -5.867662 -1.172753 25.934626 -0.228462 1.616031 0.039515 -0.010720 92967.600000 0 0 1
24.189766 -4.947562 -1.494653 24.735747 -0.201749 1.631258 0.038166 -0.002876 128535.000000 0 1 0
23.659666 -5.250962 -2.768753 24.392999 -0.218397 1.684548 0.035637 0.006242 929562.000000 0 1 0
22.357566 -4.348462 -2.984153 22.971179 -0.192098 1.701073 0.005515 0.010658 731017.000000 0 1 0
22.525066 -2.960162 -2.839353 22.895482 -0.130668 1.695130 -0.015083 0.008504 371667.000000 0 1 0
23.198466 -2.204162 -3.855053 23.619666 -0.094729 1.734743 -0.005997 0.011442 55901.000000 0 1 0
22.180666 -1.447562 -4.745253 22.728722 -0.065170 1.781121 -0.005923 0.015068 188745.000000 0 1 0
21.679966 -0.287762 -4.091153 22.064480 -0.013272 1.757294 -0.031731 0.018496 -957.596000 0 1 0
20.989866 0.462838 -4.994053 21.580762 0.022047 1.804325 -0.008877 0.024886 -1056470.000000 0 1 0
20.680466 1.939238 -4.661453 21.287825 0.093498 1.791558 -0.011891 0.020010 -1039690.000000 0 1 0
21.806566 2.731438 -4.573753 22.447858 0.124609 1.775983 -0.009111 0.017218 -550817.000000 0 1 0
22.490166 2.601738 -3.361753 22.888382 0.115171 1.718206 -0.002349 0.012055 -78969.400000 0 1 0
23.653966 3.640038 -3.263253 24.153857 0.152689 1.706313 -0.011954 0.008916 106793.000000 0 1 0
23.233766 4.992238 -3.099053 23.965276 0.211652 1.700474 -0.014820 0.012139 407449.000000 0 1 0
24.352066 5.847638 -2.918153 25.213759 0.235667 1.686793 -0.014062 0.010007 -49937.500000 0 0 1
24.094366 7.357338 -3.014453 25.372344 0.296362 1.689886 -0.011461 0.003996 -111307.000000 0 0 1
23.320066 7.761938 -1.892953 24.650689 0.321310 1.647663 0.002153 0.002617 414500.000000 0 1 0
22.430866 8.794938 -2.302353 24.203213 0.373670 1.666066 0.005604 0.002406 -457720.000000 0 1 0
21.434266 9.103238 -1.169553 23.316616 0.401621 1.620977 0.003722 0.005693 -515640.000000 0 1 0
21.983866 9.821538 -0.124053 24.078380 0.420157 1.575948 -0.003703 0.011453 412393.000000 0 1 0
20.925966 10.263538 0.698847 23.317905 0.455994 1.540821 -0.002596 0.013207 256784.000000 0 1 0
21.455466 10.747538 2.123647 24.090589 0.464386 1.482529 0.014318 0.011425 -230169.000000 0 1 0
22.031866 12.051238 2.200347 25.208669 0.500530 1.483400 0.009404 0.010922 688076.000000 0 0 1
21.217166 13.144138 1.776247 25.021822 0.554638 1.499749 0.005934 0.014819 97082.800000 0 0 1
20.191266 13.744738 2.791147 24.584458 0.597674 1.457018 0.006475 0.015859 669361.000000 0 1 0
18.936366 13.044038 2.945747 23.182112 0.603194 1.443382 0.021014 0.007947 474316.000000 0 1 0
18.170966 13.793238 3.792247 23.126145 0.649288 1.406071 0.021700 0.008563 -802131.000000 0 1 0
18.378266 13.541638 5.332547 23.442967 0.635018 1.341319 0.021133 0.007883 -754392.000000 0 1 0
17.903166 12.278738 5.740847 22.455469 0.601160 1.312271 0.015145 0.002782 491928.000000 0 1 0
18.042166 12.080638 7.152847 22.860989 0.590015 1.252568 0.009451 -0.003078 -328491.000000 0 1 0
18.126266 10.577638 7.488147 22.282736 0.528238 1.228075 0.003418 -0.011223 167550.000000 0 1 0
19.317966 9.956038 6.995447 22.830743 0.475873 1.259383 0.005530 -0.016810 672783.000000 0 1 0
19.477366 8.592038 7.386847 22.533451 0.415453 1.236804 0.014616 -0.013761 -165777.000000 0 1 0
20.509866 7.827138 6.580447 22.917701 0.364569 1.279563 0.026588 -0.019793 -152759.000000 0 1 0
19.956966 7.540138 5.316047 21.986236 0.361241 1.326586 0.009940 -0.016088 879087.000000 0 1 0
20.947566 6.977038 4.444747 22.521887 0.321515 1.372140 0.012547 -0.017272 273356.000000 0 1 0
20.534166 6.810938 2.933347 21.832210 0.320269 1.436030 0.001176 -0.005242 -240355.000000 0 1 0
21.612266 6.298538 2.191747 22.617812 0.283579 1.473740 0.002714 -0.004468 360868.000000 0 1 0
21.233666 5.879138 0.886147 22.050354 0.270111 1.530598 0.004558 0.005630 -100512.000000 0 1 0
22.304266 4.986838 0.224647 22.856057 0.219965 1.560967 0.002498 0.006826 60153.200000 0 1 0
22.243666 3.670538 0.782747 22.558064 0.163541 1.536090 0.006098 0.001430 1587200.000000 0 1 0
23.438866 2.917938 0.423547 23.623594 0.123854 1.552866 0.008772 0.002540 750798.000000 0 1 0
23.144466 1.439438 0.755247 23.201481 0.062114 1.538239 0.012461 -0.005264 141713.000000 0 1 0
22.060666 0.971338 -0.040853 22.082078 0.044002 1.572646 -0.004816 -0.010304 627838.000000 0 1 0
22.185766 -0.314962 -0.579553 22.195570 -0.014196 1.596910 -0.007514 -0.007777 -1298890.000000 0 1 0
21.935866 -1.605262 0.345447 21.997237 -0.073050 1.555092 0.002713 -0.009491 -11479.500000 0 1 0
22.924066 -1.926962 1.311047 23.042241 -0.083861 1.513868 0.007999 -0.008656 570738.000000 0 1 0
24.168466 -2.289562 0.707847 24.286991 -0.094452 1.541647 0.014446 -0.008936 -658338.000000 0 1 0
25.337116 -2.120462 1.645747 25.478899 -0.083495 1.506159 0.023981 -0.011182 -883923.000000 0 0 1
25.336716 -0.759062 2.007747 25.427474 -0.029950 1.491754 0.018958 -0.011136 360204.000000 0 0 1
26.238886 -0.432262 3.049847 26.419076 -0.016473 1.455097 0.023803 -0.006503 -47905.600000 0 0 1
25.805396 0.884338 3.734547 26.089220 0.034256 1.427158 0.024623 -0.001537 -46619.400000 0 0 1
25.878206 1.990138 2.854947 26.111165 0.076753 1.461239 0.028348 0.002539 1038800.000000 0 0 1
27.209946 2.499938 2.624047 27.450255 0.091619 1.475057 0.035741 -0.005312 956770.000000 0 0 1
27.184996 3.578238 1.517647 27.461447 0.130873 1.515504 0.030332 -0.009445 -182249.000000 0 0 1
26.577296 3.081038 0.324047 26.757251 0.115412 1.558685 0.012808 0.000493 84775.800000 0 0 1
26.846446 3.825338 -0.850853 27.130957 0.141537 1.602162 0.006345 0.004367 18855.900000 0 0 1
28.290446 3.682838 -1.408953 28.563925 0.129452 1.620143 0.007419 0.006272 -255454.000000 0 0 1
29.298836 4.030338 -0.550553 29.579867 0.136702 1.589410 0.030913 -0.000530 -497946.000000 0 0 1
30.614606 3.870938 -1.059853 30.876554 0.125773 1.605129 0.012109 -0.001358 262965.000000 0 0 1
31.707156 4.403438 -0.138653 32.011768 0.137996 1.575128 -0.005647 0.004583 -634160.000000 0 0 1
32.028796 3.606338 0.997047 32.246606 0.112124 1.539872 -0.010335 0.007195 215175.000000 0 0 1
31.381926 3.997238 2.209847 31.712563 0.126692 1.501056 0.008117 0.014031 112992.000000 0 0 1
31.454586 2.944438 3.332047 31.767330 0.093337 1.465714 0.007331 0.016156 634136.000000 0 0 1
30.536516 1.807338 3.198047 30.756671 0.059117 1.466629 0.008289 0.008486 721794.000000 0 0 1
30.551856 0.890038 4.278847 30.862868 0.029124 1.431708 0.009349 0.008583 -162717.000000 0 0 1
31.725596 -0.116362 4.154047 31.996611 -0.003668 1.440601 0.017026 0.004101 -490635.000000 0 0 1
32.882866 0.499138 4.634347 33.211583 0.015178 1.430799 0.014064 0.009668 88052.500000 0 0 1
34.008443 -0.396262 4.412847 34.295838 -0.011651 1.441769 0.010195 0.003982 -193027.000000 0 0 1
-34.696882 0.374738 4.571947 34.998811 -0.010800 1.439790 0.021226 0.000210 -635694.000000 0 0 1
-34.496229 1.450438 3.745747 34.729299 -0.042022 1.462731 0.004553 -0.000593 126973.000000 0 0 1
-34.096947 1.054938 2.447547 34.200953 -0.030930 1.499171 0.004015 0.002944 -754496.000000 0 0 1
-34.170061 2.330138 1.536847 34.283881 -0.068087 1.525954 -0.006070 -0.000451 814474.000000 0 0 1
-33.166470 3.350638 1.812647 33.384535 -0.100683 1.516474 -0.002508 -0.005295 768016.000000 0 0 1
-31.928460 3.082438 1.185747 32.098816 -0.096244 1.533847 0.017167 -0.001038 -172497.000000 0 0 1
-30.785150 4.056638 1.581947 31.091547 -0.131018 1.519894 0.015205 -0.002217 167401.000000 0 0 1
-30.320120 3.784338 2.888147 30.691567 -0.124171 1.476555 0.012998 -0.003007 440058.000000 0 0 1
-29.416500 4.789138 3.413147 29.998598 -0.161389 1.456773 0.006419 0.000982 -224055.000000 0 0 1
-29.261380 4.643738 4.938647 30.036359 -0.157386 1.405624 -0.001684 0.002276 289616.000000 0 0 1
-30.400070 4.980038 5.740747 31.335622 -0.162374 1.386554 -0.014005 0.005834 897423.000000 0 0 1
-31.556910 4.153538 5.610847 32.319840 -0.130868 1.396308 -0.006885 0.008109 -223307.000000 0 0 1
-31.803390 3.077338 6.716847 32.650293 -0.096461 1.363596 -0.006330 0.016173 -488031.000000 0 0 1
-32.120570 3.667838 7.986347 33.301138 -0.113697 1.328614 -0.016533 0.020624 272017.000000 0 0 1
-32.231500 2.751838 9.079147 33.598707 -0.085171 1.297172 -0.007442 0.022327 -66524.500000 0 0 1
-33.432460 1.771638 9.202747 34.721155 -0.052942 1.302543 -0.002933 0.026562 -126744.000000 0 0 1
-33.302280 0.693338 8.399147 34.352121 -0.020817 1.323791 0.012086 0.012693 617257.000000 0 0 1
-34.214293 -0.411262 8.683347 35.301381 0.012020 1.322268 0.025344 0.012843 479413.000000 0 0 1
-34.086508 -1.181962 10.058847 35.559351 0.034661 1.284006 0.029045 0.024376 -550242.000000 0 0 1
-32.859680 -1.829962 10.170147 34.446179 0.055633 1.271082 0.024252 0.013853 -308689.000000 0 0 1
-32.782790 -2.775962 11.238047 34.766521 0.084476 1.241641 0.025153 0.017337 -213674.000000 0 0 1
-31.455800 -3.521962 11.080347 33.535737 0.111501 1.234065 0.024259 0.013096 -356685.000000 0 0 1
-31.542360 -4.490362 10.102747 33.423784 0.141410 1.263731 0.013493 0.014780 557096.000000 0 0 1
-30.396520 -5.352262 10.135747 32.485820 0.174295 1.253493 0.001874 -0.000314 252191.000000 0 0 1
-30.283430 -6.340162 8.962747 32.212026 0.206380 1.288833 0.001136 0.002914 -45002.900000 0 0 1
-31.215480 -7.396562 9.053947 33.333006 0.232661 1.295719 0.002438 0.002167 -57712.900000 0 0 1
-31.249550 -8.097462 7.850847 33.222569 0.253546 1.332229 0.007763 -0.004134 18701.900000 0 0 1
-32.201390 -9.308762 7.891447 34.436282 0.281408 1.339581 0.011692 -0.004548 1372460.000000 0 0 1
-33.594440 -8.905662 8.003147 35.664374 0.259133 1.344467 0.021949 -0.009018 649228.000000 0 0 1
-34.398338 -10.036962 7.948947 36.703842 0.283904 1.352497 0.027346 -0.007311 -394469.000000 0 0 1
7.465430 -23.916962 10.394947 27.125793 -1.268240 1.177524 0.046286 -0.014223 121455.000000 0 0 1
6.826030 -24.518162 9.268047 27.085636 -1.299265 1.221565 0.032807 -0.016929 -595055.000000 0 0 1
5.615830 -25.130432 9.613547 27.486296 -1.350941 1.213484 0.041344 -0.016202 -24747.200000 0 0 1
5.224330 -26.146482 8.518047 27.990879 -1.373583 1.261577 0.024680 -0.005646 -373013.000000 0 0 1
4.758330 -25.523142 7.333647 26.978786 -1.386480 1.295502 0.027322 -0.002797 -244233.000000 0 0 1
4.588430 -26.546832 6.318147 27.671411 -1.399644 1.340437 0.018813 -0.001909 -456768.000000 0 0 1
3.864130 -26.057952 5.061747 26.824795 -1.423579 1.380962 0.014791 -0.001860 1282720.000000 0 0 1
2.421230 -25.994102 5.129147 26.605711 -1.477919 1.376798 0.002093 -0.005526 864227.000000 0 0 1
1.739930 -27.176252 4.775447 27.647440 -1.506860 1.397199 -0.005411 -0.003237 -220337.000000 0 0 1
0.212730 -27.023672 4.915447 27.467904 -1.562924 1.390875 0.006954 -0.004943 -206289.000000 0 0 1
-0.245970 -26.978962 6.230247 27.690086 1.561679 1.343854 0.004600 -0.003394 127108.000000 0 0 1
-1.657370 -27.058522 6.376947 27.849164 1.509621 1.339765 -0.002301 -0.003568 453559.000000 0 0 1
-2.369070 -28.400102 6.561347 29.244308 1.487571 1.344507 -0.004427 0.002658 -386582.000000 0 0 1
-2.004470 -28.987252 7.808347 30.087356 1.501756 1.308269 -0.004536 0.000453 12782.000000 0 0 1
-2.567170 -30.241302 7.994647 31.385364 1.486110 1.313233 -0.000795 0.003521 -163895.000000 0 0 1
-2.316570 -30.840822 9.446247 32.338126 1.495823 1.274365 -0.010044 0.009168 586805.000000 0 0 1
-0.976670 -31.304452 9.572447 32.749876 1.539607 1.274176 -0.018438 0.007115 356686.000000 0 0 1
-0.621770 -31.597562 10.967347 33.452582 1.551121 1.236772 -0.023291 0.009673 -86262.400000 0 0 1
0.864630 -31.834432 11.229647 33.768086 -1.543643 1.231788 -0.019506 0.007549 -468995.000000 0 0 1
1.340430 -33.130822 10.968847 34.925116 -1.530360 1.251322 -0.017388 0.006535 1281710.000000 0 0 1
2.789330 -33.167082 11.106747 35.088396 -1.486894 1.248721 -0.016500 0.004831 1439860.000000 0 0 1
3.241330 -33.792662 12.477747 36.168279 -1.475171 1.218567 -0.016344 0.007159 -473880.000000 0 0 1
2.677030 -33.213852 13.615847 35.996080 -1.490370 1.182881 -0.023969 0.009083 -301171.000000 0 0 1
3.332130 -33.494332 14.812347 36.774706 -1.471639 1.156237 -0.018865 0.014728 -872817.000000 0 0 1
2.980030 -32.438292 15.917547 36.255919 -1.479186 1.116274 -0.018038 0.018687 -120507.000000 0 0 1
3.319030 -31.076612 15.593647 34.927548 -1.464398 1.107994 -0.015211 0.014845 1275770.000000 0 0 1
4.727630 -30.835572 15.883247 35.006579 -1.418664 1.099859 -0.013594 0.023576 1328640.000000 0 0 1
5.204630 -29.602212 15.050147 33.613778 -1.396756 1.106563 0.002026 0.015287 -122988.000000 0 0 1
5.265430 -29.753412 13.666347 33.162620 -1.395641 1.146038 -0.000768 0.012337 1461050.000000 0 0 1
3.976030 -29.677612 12.958047 32.626377 -1.437615 1.162371 -0.012893 0.019560 1054070.000000 0 0 1
4.244830 -29.570732 11.438147 31.988717 -1.428222 1.205134 -0.003643 0.002570 2325.180000 0 0 1
4.793730 -30.751872 10.896347 32.975565 -1.416157 1.234030 -0.004863 0.001016 202151.000000 0 0 1
6.188930 -30.931672 11.099647 33.440595 -1.373320 1.232457 -0.006019 0.005257 -149886.000000 0 0 1
6.790930 -32.188192 10.420947 34.507863 -1.362870 1.264019 -0.022032 0.003359 -459665.000000 0 0 1
6.581330 -33.321682 11.236447 35.775776 -1.375797 1.251309 -0.037130 0.009394 263241.000000 0 0 1
6.783430 -34.505499 10.479747 36.694271 -1.376682 1.281168 -0.033453 0.007218 -537583.000000 0 0 1
6.747730 33.471005 11.317547 35.971196 1.371863 1.250732 -0.024412 0.007535 -761466.000000 0 0 1
5.512130 33.082206 11.802747 35.554477 1.405694 1.232413 -0.034323 0.004148 -657894.000000 0 0 1
5.644630 31.839406 12.385847 34.626852 1.395335 1.204998 -0.024384 0.001927 -396756.000000 0 0 1
4.361330 31.459886 13.089147 34.352168 1.433043 1.179888 -0.025785 0.004675 -391126.000000 0 0 1
4.261330 31.965826 14.418047 35.324964 1.438269 1.150365 -0.011037 0.005110 360442.000000 0 0 1
2.960830 31.643236 14.906247 35.103520 1.477499 1.132236 0.006514 0.003104 350251.000000 0 0 1
3.027330 31.406706 16.445247 35.580783 1.474702 1.090328 0.003797 -0.006741 50890.600000 0 0 1
3.130530 32.634336 17.081447 36.967228 1.475161 1.090468 -0.011514 -0.002172 127125.000000 0 0 1
3.414730 32.449666 18.480147 37.498761 1.465951 1.055468 -0.006982 0.002232 -106777.000000 0 0 1
3.869030 33.688285 19.262447 38.998870 1.456449 1.054200 -0.007144 0.010156 100650.000000 0 0 1
2.900830 -34.596795 19.404447 39.772926 -1.487145 1.061136 -0.026109 0.016609 -281886.000000 0 0 1
3.321030 -33.602182 20.289847 39.393068 -1.472282 1.029717 -0.019904 0.009480 63436.500000 0 0 1
2.246130 -32.606652 20.795047 38.738519 -1.502019 1.004150 -0.027735 0.011220 303180.000000 0 0 1
1.355330 -33.143062 21.753347 39.667463 -1.529926 0.990355 -0.024962 0.015148 -113370.000000 0 0 1
0.339630 -32.258792 22.193147 39.157130 -1.560268 0.968214 -0.027027 0.017343 -402329.000000 0 0 1
-0.684670 -33.043952 22.977647 40.253495 1.550079 0.963288 -0.030686 0.016550 -1468150.000000 0 0 1
-1.590770 -33.714072 22.165647 40.379266 1.523647 0.989705 -0.037578 0.018122 -683310.000000 0 0 1
-2.392970 -34.596300 22.871047 41.541727 1.501738 0.987766 -0.032362 0.013023 171715.000000 0 0 1
-3.717370 -33.976602 23.428547 41.438209 1.461820 0.969896 -0.009110 0.015149 701985.000000 0 0 1
-4.663070 -33.748482 22.330347 40.735104 1.433494 0.990605 -0.019869 0.013278 1434110.000000 0 0 1
-5.859170 -33.015862 22.739447 40.514929 1.395160 0.974888 -0.007004 0.018510 1540560.000000 0 0 1
-7.091770 -33.052202 21.794247 40.221020 1.359438 0.998145 -0.002946 0.002218 347543.000000 0 0 1
-7.757770 -34.302240 21.628547 41.287053 1.348379 1.019423 0.002858 0.012511 224352.000000 0 0 1
-8.863570 -34.096453 20.767947 40.895460 1.316470 1.038132 0.019071 -0.002494 253500.000000 0 0 1
-9.865770 34.046041 20.722947 41.059797 -1.288744 1.041760 0.044993 -0.010042 323918.000000 0 0 1
-10.410770 33.772968 22.016647 41.638087 -1.271781 1.013655 0.057714 -0.004082 -778844.000000 0 0 1
-11.708370 33.273706 22.019247 41.582120 -1.232447 1.012742 0.046266 -0.003191 -433537.000000 0 0 1
-12.152370 33.115256 23.534747 42.405007 -1.219082 0.982434 0.047009 -0.004714 -181721.000000 0 0 1
-12.377870 34.319028 24.288147 43.828318 -1.224647 0.983436 0.039985 -0.006128 20437.500000 0 0 1
-11.242470 -34.216015 24.644847 43.640547 1.253336 0.970698 0.042896 -0.002494 -32946.700000 0 0 1
-11.521970 -32.676942 24.839247 42.632459 1.231805 0.948827 0.032515 0.007856 -55452.300000 0 0 1
-12.162470 -32.457552 26.078147 43.376124 1.212272 0.925782 0.025079 0.010698 -31252.300000 0 0 1
-12.398570 -31.033782 26.209347 42.470579 1.190705 0.905722 0.027427 0.009307 39348.800000 0 0 1
-13.211370 -30.646152 27.467947 43.222853 1.163775 0.882146 0.027700 0.007156 -5475.430000 0 0 1
-12.414270 -30.644072 28.653347 43.751429 1.185891 0.856730 0.028557 0.001411 140827.000000 0 0 1
-13.173470 -30.322672 29.810747 44.516125 1.160955 0.837043 0.015868 0.000864 -43448.600000 0 0 1
-12.438170 -30.042542 31.176747 45.047219 1.178264 0.806415 0.021474 0.007075 -65158.800000 0 0 1
-13.375070 -29.777602 32.241747 45.881678 1.148637 0.791590 0.015383 0.008394 270629.000000 0 0 1
-12.884170 -29.346542 33.479647 46.347688 1.157098 0.763589 0.014588 0.002558 -468045.000000 0 0 1
-11.927670 -30.226812 34.293347 47.243657 1.194949 0.758480 0.009015 0.004846 -753629.000000 0 0 1
-10.620470 -30.363012 33.800547 46.660303 1.234315 0.760638 0.004267 0.006426 -328364.000000 0 0 1
-10.123570 -31.431932 -34.595206 47.825530 1.259209 2.379457 0.006190 0.011416 449212.000000 0 0 1
-8.599670 -31.782742 -34.568206 47.739479 1.306547 2.380526 0.010249 0.010652 300447.000000 0 0 1
-7.920170 -30.800112 -33.862606 46.454839 1.319102 2.387563 0.012890 0.003877 -469829.000000 0 0 1
-6.630770 -31.279542 -33.542106 46.340584 1.361904 2.380115 0.018556 -0.002743 -200051.000000 0 0 1
-5.950170 -30.382462 -32.526806 44.905363 1.377402 2.380875 0.010839 0.003465 -207608.000000 0 0 1
-6.381670 -30.749002 -31.225206 44.285893 1.366161 2.353336 0.004245 0.007600 58132.300000 0 0 1
-5.841770 -29.954202 -30.180606 42.921434 1.378191 2.350627 -0.002865 0.014746 -200666.000000 0 0 1
-6.473670 -30.118612 -28.797606 42.170384 1.359078 2.322504 0.003784 0.005971 -152521.000000 0 0 1
-6.080170 -31.342652 -28.170306 42.578122 1.379186 2.293766 -0.007009 0.008830 344737.000000 0 0 1
-7.060670 -31.753682 -27.220506 42.415862 1.351998 2.267578 -0.007071 0.010265 206678.000000 0 0 1
-6.751770 -33.128962 -26.591206 43.014030 1.369747 2.237245 -0.011894 0.015530 -465957.000000 0 0 1
-5.630670 -32.989052 -25.783706 42.246674 1.401742 2.227252 -0.010156 0.012294 -452170.000000 0 0 1
-5.508470 -34.150845 -24.977806 42.667485 1.410876 2.196177 -0.019316 0.014077 -198202.000000 0 0 1
-4.562870 -34.002402 -23.767706 41.735919 1.437401 2.176668 -0.011298 0.008071 -122639.000000 0 0 1
-5.077870 -33.303792 -22.660706 40.600923 1.419490 2.162930 -0.002965 0.010792 45650.600000 0 0 1
-4.990570 -31.887102 -22.827806 39.532288 1.415548 2.186395 -0.000528 0.015076 -205284.000000 0 0 1
-5.463370 -31.195162 -21.551706 38.307474 1.397420 2.168321 0.011300 0.013945 -897354.000000 0 0 1
-6.822270 -31.238572 -21.241806 38.387577 1.355780 2.157178 0.012654 0.017069 -458128.000000 0 0 1
-7.321070 -30.068682 -20.594106 37.173121 1.331965 2.157964 0.020420 0.010162 80720.800000 0 0 1
-7.524470 -28.785412 -21.496706 36.705939 1.315119 2.196474 0.026173 -0.003334 -292635.000000 0 0 1
-6.296870 -28.424792 -22.109506 36.557484 1.352790 2.220295 0.027403 0.001862 -228292.000000 0 0 1
-6.426670 -27.515922 -23.190706 36.554574 1.341348 2.258046 0.039553 -0.008070 -535429.000000 0 0 1
-5.254370 -27.482512 -24.251906 37.027717 1.381887 2.284934 0.040375 -0.012018 470532.000000 0 0 1
-4.050870 -26.852702 -23.959206 36.214924 1.421070 2.293725 0.036852 -0.009880 -326301.000000 0 0 1
-3.381670 -27.313912 -22.809506 35.745756 1.447616 2.262829 0.007930 -0.007512 -1393180.000000 0 0 1
-1.869270 -27.024482 -22.701106 35.343415 1.501737 2.268293 0.009952 -0.001398 37267.300000 0 0 1
-1.353270 -25.691412 -22.757406 34.347919 1.518171 2.295022 0.002809 -0.005505 231198.000000 0 0 1
-1.985970 -24.761262 -21.875306 33.099746 1.490763 2.292801 0.021628 -0.003864 -652443.000000 0 0 1
-2.051670 -23.303162 -22.446606 32.420623 1.482980 2.335545 0.020748 -0.006005 -1599.400000 0 0 1
-2.766270 -23.059062 -23.663206 33.155994 1.451402 2.365553 0.019887 -0.010935 401451.000000 0 0 1
-4.169370 -23.244862 -23.549006 33.350606 1.393316 2.354778 0.024364 -0.010399 96975.900000 0 0 1
-4.982470 -23.248562 -24.867106 34.404848 1.359677 2.378612 0.014886 -0.003871 77179.400000 0 0 1
-5.066370 -21.945262 -25.381006 33.933141 1.343908 2.415796 0.014732 -0.001934 60337.100000 0 0 1
-5.629270 -22.001162 -26.682806 35.038721 1.320308 2.436457 0.010932 0.005913 -256967.000000 0 0 1
-5.461970 -20.786162 -27.632306 35.006313 1.313836 2.480549 0.011890 0.013413 99376.200000 0 0 1
-5.828270 -20.972162 -29.013106 36.270658 1.299731 2.497934 0.009051 0.018967 136503.000000 0 0 1
-4.703170 -21.417662 -29.729306 36.941409 1.354634 2.506083 -0.003008 0.014539 -148596.000000 0 0 1
-5.079370 -21.911162 -31.155706 38.426254 1.343003 2.516301 -0.001751 0.016492 1297.290000 0 0 1
-5.446070 -20.777762 -31.987006 38.529776 1.314452 2.550243 0.012108 0.011296 101818.000000 0 0 1
-6.230170 -21.306262 -33.053806 39.816151 1.286317 2.550192 0.003501 0.016400 -70855.700000 0 0 1
-6.202170 -20.501862 -34.347606 40.479023 1.277032 2.583995 0.000846 0.013315 -131005.000000 0 0 1
-5.116270 -20.668162 34.038647 40.149454 1.328131 0.558976 0.006688 0.011124 -635020.000000 0 0 1
-5.274470 -19.929362 32.792847 38.734614 1.312070 0.561226 0.007272 0.014540 159497.000000 0 0 1
-4.148970 -20.320362 31.823847 37.985370 1.369387 0.577569 0.003679 0.011543 -1106710.000000 0 0 1
-4.071070 -21.725362 31.536547 38.511281 1.385557 0.611320 0.013079 0.007535 633868.000000 0 0 1
-2.903370 -22.217262 30.850547 38.128632 1.440852 0.628147 0.012761 -0.002840 223238.000000 0 0 1
-1.531970 -21.998162 31.471147 38.427844 1.501268 0.611187 -0.006377 -0.007462 -1157640.000000 0 0 1
-1.028170 -20.701162 31.211247 37.466481 1.521170 0.586208 -0.012556 -0.010202 -270138.000000 0 0 1
-0.141070 -20.238962 32.221247 38.050549 1.563826 0.560854 -0.004669 -0.004890 -277637.000000 0 0 1
-0.735970 -19.879062 33.565747 39.017665 1.533791 0.534996 -0.010743 -0.005958 -559888.000000 0 0 1
-1.608070 -18.770962 33.591247 38.513722 1.485337 0.511137 -0.012134 -0.006375 -102993.000000 0 0 1
-1.968870 -18.402962 -34.331106 39.002183 1.464215 2.647155 -0.006218 -0.004347 153569.000000 0 0 1
-2.970670 -17.241062 -34.204006 38.418656 1.400170 2.668793 -0.000843 0.000478 125524.000000 0 0 1
-2.421370 -16.006262 -34.547406 38.152152 1.420658 2.703392 0.004013 -0.006115 -12156.900000 0 0 1
-3.383570 -14.997162 -34.330706 37.615964 1.348898 2.720550 0.005666 -0.005109 70697.000000 0 0 1
-2.896370 -13.568362 34.585647 37.264681 1.360488 0.381498 0.012103 -0.009358 -372046.000000 0 0 1
-1.875070 -13.039662 -33.849806 36.322968 1.427978 2.770445 0.013776 0.000117 -28583.900000 0 0 1
-1.572470 -11.711862 -34.184806 36.169619 1.437331 2.808773 0.002279 0.001973 -255398.000000 0 0 1
-0.838770 -11.333362 33.782147 35.642420 1.496922 0.324509 0.000621 -0.003944 -562606.000000 0 0 1
-1.659970 -11.471562 32.607847 34.606704 1.427091 0.341538 0.006370 -0.012340 175648.000000 0 0 1
-1.093070 -11.082262 31.377447 33.294978 1.472482 0.341039 0.005286 -0.007719 -661500.000000 0 0 1
-0.183170 -12.106862 30.756347 33.053934 1.555668 0.375049 -0.002988 -0.011989 -614927.000000 0 0 1
-0.880270 -13.223062 30.335947 33.104289 1.504324 0.411867 0.013303 -0.022845 478521.000000 0 0 1
0.098730 -14.242662 30.096647 33.296717 -1.563864 0.442013 -0.001496 -0.019662 541884.000000 0 0 1
-0.467370 -15.661062 30.391747 34.192771 1.540962 0.475999 -0.008915 -0.019559 149550.000000 0 0 1
-1.400670 -16.250862 29.516347 33.723392 1.484818 0.504847 -0.003205 -0.023612 103303.000000 0 0 1
-1.805670 -17.433462 30.136747 34.862725 1.467589 0.526760 0.003412 -0.012241 -453475.000000 0 0 1
-2.421370 -18.470062 29.191947 34.629121 1.440443 0.567982 0.004766 -0.017012 56109.600000 0 0 1
-3.810570 -18.250562 28.924647 34.412769 1.364961 0.572553 0.017017 -0.015276 421506.000000 0 0 1
-4.318370 -19.332362 28.130147 34.404850 1.351029 0.613528 0.021597 -0.012482 -15447.400000 0 0 1
-3.742670 -19.521762 26.640647 33.238996 1.381377 0.641017 0.016334 -0.013613 -499487.000000 0 0 1
-4.437970 -20.335162 25.741247 33.103266 1.355924 0.679950 0.038227 -0.007620 -539235.000000 0 0 1
-4.523570 -21.729362 26.110347 34.269200 1.365550 0.704526 0.027036 -0.011542 52507.100000 0 0 1
-28.233550 -34.593170 -0.405853 44.654065 0.886279 1.579885 0.008140 0.002352 -209065.000000 0 0 1
-27.708410 -33.287870 -0.265453 43.311762 0.876616 1.576925 0.019899 0.003660 200129.000000 0 0 1
-28.167380 -32.754270 0.988647 43.211352 0.860548 1.547915 0.004170 0.005413 -68467.700000 0 0 1
-27.474220 -31.449570 1.355247 41.782113 0.852762 1.538355 0.023565 -0.003047 863988.000000 0 0 1
-26.059500 -31.520570 1.624647 40.930226 0.879958 1.531093 0.032331 -0.010981 577442.000000 0 0 1
-25.671380 -30.250670 2.090947 39.730276 0.867103 1.518143 0.035088 -0.015573 -824886.000000 0 0 1
-24.166070 -30.152170 2.190047 38.703341 0.895159 1.514181 0.031599 -0.005477 -922093.000000 0 0 1
-23.815470 -30.859070 3.351647 39.124064 0.913520 1.485024 0.027471 -0.007704 -292305.000000 0 0 1
-22.402270 -30.786470 3.397047 38.225756 0.941743 1.481811 0.017906 0.001150 -270046.000000 0 0 1
-21.769670 -31.564170 4.523847 38.609333 0.967020 1.453357 0.019906 -0.004731 -581685.000000 0 0 1
-22.050170 -30.965170 5.736647 38.444257 0.951998 1.421017 0.013405 0.002391 -207183.000000 0 0 1
-21.644270 -31.744470 6.779047 39.014629 0.972371 1.396153 -0.001032 0.006407 -400530.000000 0 0 1
-22.184170 -31.153270 8.095547 39.092218 0.951997 1.362198 -0.002795 0.028491 -119286.000000 0 0 1
-21.589770 -29.918570 8.463847 37.853345 0.945709 1.345294 0.008029 0.020081 99234.200000 0 0 1
-22.119970 -29.555970 9.718847 38.174657 0.928314 1.313374 -0.002013 0.022008 195958.000000 0 0 1
-21.411470 -28.273370 10.271247 36.923340 0.922639 1.288900 0.008247 0.020338 152610.000000 0 0 1
-20.104970 -28.435070 10.745647 36.444917 0.955356 1.271502 0.000540 0.013844 -524674.000000 0 0 1
-19.779070 -27.459270 11.736147 35.818435 0.946572 1.236974 0.019260 0.015399 301695.000000 0 0 1
-18.427770 -27.689070 12.449747 35.514272 0.983584 1.212631 0.020102 0.017510 145924.000000 0 0 1
-18.360770 -28.807470 13.248047 36.640128 1.003357 1.200843 0.022580 0.025452 -595693.000000 0 0 1
-17.274770 -28.805370 14.124847 36.437321 1.030593 1.172718 0.018798 0.016512 -432008.000000 0 0 1
-17.256970 -29.897070 15.200147 37.718461 1.047301 1.156015 0.024258 0.002402 -83324.900000 0 0 1
-17.224970 -31.207170 14.697047 38.556326 1.066453 1.179720 0.026827 0.007315 -22881.500000 0 0 1
-17.261170 -32.178670 15.674247 39.737852 1.078442 1.165337 0.038805 0.004671 163994.000000 0 0 1
-16.964370 -33.645170 15.219247 40.637579 1.103783 1.186926 0.023564 0.006194 45580.000000 0 0 1
-17.047370 -34.594670 16.259447 41.854195 1.112946 1.171817 0.032763 0.010260 107095.000000 0 0 1
-17.131870 33.471638 15.648747 40.727568 -1.097728 1.176423 0.021629 0.010569 -231274.000000 0 0 1
-17.192070 32.200738 16.584247 40.093541 -1.080396 1.144349 0.012149 0.006477 -55577.600000 0 0 1
-18.285470 32.161738 17.473047 40.915073 -1.053825 1.129561 0.020164 0.001564 63559.400000 0 0 1
-18.263470 30.992538 18.284547 40.353642 -1.038292 1.100548 0.022818 0.001480 98566.500000 0 0 1
-19.023470 31.136638 19.629947 41.433289 -1.022352 1.077227 0.012600 -0.003216 -374027.000000 0 0 1
-18.293470 31.790838 20.629947 42.082100 -1.048637 1.058442 0.003840 -0.000518 -659611.000000 0 0 1
-19.018270 32.165738 21.722147 43.222459 -1.036829 1.044232 -0.000901 0.005321 -1065540.000000 0 0 1
-18.286870 33.104538 22.668247 44.092737 -1.066114 1.030834 -0.021154 0.011651 -439987.000000 0 0 1
-17.431270 32.398938 23.495947 43.653177 -1.077197 1.002447 -0.028226 -0.001432 -789114.000000 0 0 1
-17.246470 32.909638 24.796147 44.669161 -1.088090 0.982305 -0.035344 -0.000541 128917.000000 0 0 1
-18.303870 32.717838 25.942947 45.590844 -1.060730 0.965460 -0.036367 0.008206 -491502.000000 0 0 1
-19.515970 33.340938 25.754647 46.430519 -1.041222 0.982803 -0.026031 -0.001351 -967813.000000 0 0 1
-20.484670 32.837838 26.660647 46.997185 -1.013051 0.967595 -0.028331 0.000819 -117256.000000 0 0 1
-21.897970 33.085738 26.104747 47.493631 -0.986132 0.988854 -0.025580 -0.000312 -412276.000000 0 0 1
-22.037570 32.389338 24.921547 46.430671 -0.973349 1.004219 -0.008549 0.001054 -527975.000000 0 0 1
-23.317170 32.578138 24.423547 46.920520 -0.949591 1.023325 -0.008578 0.000335 -777144.000000 0 0 1
-23.443070 32.281638 22.938647 46.020248 -0.942699 1.048990 -0.017024 -0.004471 -230085.000000 0 0 1
-22.698870 33.127838 22.123147 45.848948 -0.970079 1.067264 -0.017360 -0.002096 -234641.000000 0 0 1
-22.701570 32.598038 20.839647 44.858491 -0.962484 1.087654 -0.028491 0.004227 -174515.000000 0 0 1
-22.146470 33.549438 19.754647 44.791484 -0.987344 1.114044 -0.018378 0.004667 -591624.000000 0 0 1
-20.789270 33.833538 19.828947 44.385687 -1.019814 1.107676 -0.009851 0.009659 -797964.000000 0 0 1
-20.333970 34.525338 18.684747 44.210735 -1.038536 1.134452 0.004744 0.010765 -160229.000000 0 0 1
-19.077770 -33.957670 18.904947 43.295285 1.058931 1.118923 0.016458 0.003429 -162855.000000 0 0 1
-19.347170 -32.862170 19.747947 42.944344 1.038700 1.092970 0.020707 -0.000485 -57342.300000 0 0 1
-18.131870 -32.303370 20.156247 42.172820 1.059319 1.072484 0.026835 0.001082 -286510.000000 0 0 1
-18.199870 -31.362670 21.313947 42.061107 1.044985 1.039400 0.041136 0.002345 -408928.000000 0 0 1
-18.810170 -30.149470 20.940447 41.247005 1.012990 1.038302 0.033105 0.003493 30451.800000 0 0 1
-19.240470 -29.420170 22.070747 41.507349 0.991622 1.010153 0.032031 0.008541 -244337.000000 0 0 1
-20.116270 -28.217670 21.694147 40.884438 0.951468 1.011463 0.022785 -0.000480 -138979.000000 0 0 1
-19.469070 -27.242870 20.842147 39.441270 0.950307 1.014040 0.020058 0.007304 199665.000000 0 0 1
-20.132370 -26.022370 20.811147 38.930450 0.912326 1.006795 0.028569 0.013405 -536288.000000 0 0 1
-21.283670 -25.806170 19.823047 38.883239 0.881144 1.035833 0.033766 0.013908 -90894.600000 0 0 1
-22.490070 -26.435070 20.222747 40.169338 0.865857 1.043224 0.035651 0.007574 -246547.000000 0 0 1
-23.497570 -26.202870 19.277147 40.128975 0.839777 1.069709 0.025476 0.019162 -1283630.000000 0 0 1
-24.820970 -26.681570 19.834447 41.489662 0.821509 1.072354 0.000283 0.009507 -845554.000000 0 0 1
-25.041370 -28.116570 19.803847 42.541793 0.843184 1.086580 -0.000192 0.008221 -216360.000000 0 0 1
-25.449160 -28.506570 18.533247 42.470761 0.842003 1.119229 0.002540 0.004738 -512960.000000 0 0 1
-26.406890 -29.713670 18.521747 43.855230 0.844253 1.134773 0.001075 -0.000051 335806.000000 0 0 1
-27.636130 -29.383970 19.152247 44.654025 0.816042 1.127518 -0.025315 0.005476 -28820.200000 0 0 1
-28.734040 -30.025870 18.513647 45.496737 0.807380 1.151714 -0.021009 0.011932 579652.000000 0 0 1
-30.071040 -29.276470 18.820547 45.995567 0.772011 1.149239 -0.015574 0.003959 173183.000000 0 0 1
-30.285000 -28.096170 18.050747 45.082208 0.747924 1.158847 -0.004995 0.007871 639837.000000 0 0 1
-31.511070 -27.462770 18.474347 45.699593 0.716860 1.154631 -0.025235 0.026524 488342.000000 0 0 1
-31.680930 -26.147570 17.688247 44.724164 0.690003 1.164188 -0.026668 0.016483 -313751.000000 0 0 1
-32.026830 -26.349570 16.322347 44.569460 0.688450 1.195850 0.001564 -0.001096 312376.000000 0 0 1
-32.417660 -25.157870 15.591647 43.896726 0.659969 1.207680 0.000278 -0.010939 125548.000000 0 0 1
-31.253430 -24.165270 15.253747 42.348719 0.658187 1.202321 -0.007796 0.001649 308855.000000 0 0 1
-30.645210 -23.484770 16.322247 41.917527 0.653879 1.170828 -0.018087 0.008076 -71394.300000 0 0 1
-30.295880 -22.130270 16.039647 40.802690 0.630885 1.166793 -0.031168 0.008660 263234.000000 0 0 1
-31.490020 -21.127870 16.239247 41.251926 0.590954 1.166186 -0.021551 0.007151 490429.000000 0 0 1
-31.846530 -21.058970 17.613147 42.046458 0.584253 1.138566 -0.016671 0.002775 -85663.400000 0 0 1
-32.360710 -19.803870 17.868447 41.936741 0.549176 1.130640 -0.013863 0.004032 -298696.000000 0 0 1
-32.591940 -19.410870 19.341447 42.580606 0.537158 1.099287 0.003751 -0.000603 382796.000000 0 0 1
-33.778500 -20.041470 19.844547 44.005155 0.535493 1.102956 0.002546 -0.000851 808176.000000 0 0 1
-34.093276 -19.470070 21.096847 44.570305 0.518885 1.077719 -0.005116 0.005527 -752323.000000 0 0 1
34.473724 -19.759670 21.521247 45.189007 -0.520466 1.074412 -0.006194 0.014189 -432156.000000 0 0 1
34.097697 -21.041670 21.944547 45.683345 -0.552898 1.069729 0.006037 0.013787 26144.600000 0 0 1
34.715155 -21.529270 23.128347 46.942219 -0.555118 1.055609 -0.004938 0.020942 -406494.000000 0 0 1
34.125654 -22.850470 23.602547 47.368603 -0.590029 1.049189 -0.002352 0.017155 187909.000000 0 0 1
33.014686 -22.890770 24.484047 47.047056 -0.606250 1.023458 0.014503 0.004594 255916.000000 0 0 1
32.472506 -24.181670 24.595347 47.372439 -0.640088 1.024892 0.015522 -0.000146 -163690.000000 0 0 1
31.552126 -24.318870 25.805647 47.464467 -0.656651 0.995977 0.029591 -0.008671 924069.000000 0 0 1
30.165336 -23.956670 25.764147 46.342862 -0.671181 0.981295 0.035213 -0.010604 851810.000000 0 0 1
29.479306 -24.166770 26.987347 46.705238 -0.686691 0.954738 0.019010 -0.002780 637319.000000 0 0 1
28.070946 -24.833270 26.876747 46.119724 -0.724276 0.948675 0.018419 -0.005631 -62146.600000 0 0 1
27.122646 -23.983770 26.346747 44.777341 -0.724057 0.941724 0.016341 -0.003463 -821633.000000 0 0 1
25.951786 -24.701270 26.014547 44.276457 -0.760715 0.942771 0.017523 0.011657 327353.000000 0 0 1
24.906266 -23.822270 25.258247 42.729401 -0.763156 0.938348 0.013664 0.004397 -113999.000000 0 0 1
25.168476 -23.597870 23.872247 41.954689 -0.753203 0.965506 0.027407 -0.007997 -175369.000000 0 0 1
26.266376 -22.777270 23.581647 42.009769 -0.714375 0.974796 0.036967 -0.005831 -164402.000000 0 0 1
26.037066 -22.138870 22.240347 40.776114 -0.704658 0.993899 0.037865 -0.013699 2539.170000 0 0 1
25.073986 -21.129170 22.323147 39.666983 -0.700225 0.973071 0.028642 -0.016553 -152238.000000 0 0 1
25.114686 -20.481270 21.078647 38.659272 -0.684127 0.994119 0.006808 -0.012218 344862.000000 0 0 1
24.185566 -19.227770 20.954547 37.332852 -0.671691 0.974853 0.024860 -0.009087 504740.000000 0 0 1
24.750966 -18.023870 21.559547 37.447087 -0.629408 0.957295 0.021684 -0.018080 380806.000000 0 0 1
24.578166 -18.014870 22.933247 38.138637 -0.632508 0.925653 0.026823 -0.015015 6488.530000 0 0 1
24.799366 -16.598170 23.531147 38.002931 -0.589822 0.903082 0.036562 -0.006101 190435.000000 0 0 1
23.575666 -15.873170 23.482947 36.867579 -0.592571 0.880256 0.004264 0.006266 379788.000000 0 0 1
23.706066 -14.717870 24.213047 36.944079 -0.555608 0.856088 -0.000946 0.012821 1193780.000000 0 0 1
22.262866 -14.073570 24.259447 35.808119 -0.563728 0.826459 -0.021181 0.008948 1801050.000000 0 0 1
21.241266 -14.781170 24.982747 35.969599 -0.607949 0.803000 0.005853 0.016370 354498.000000 0 0 1
20.004066 -14.114470 24.895047 34.916247 -0.614461 0.777038 0.017273 0.003522 557327.000000 0 0 1
18.733366 -14.958970 25.219847 34.795841 -0.673838 0.760060 0.030781 0.013404 290360.000000 0 0 1
18.380066 -15.991670 24.319547 34.423840 -0.716022 0.786293 0.036032 0.022159 121132.000000 0 0 1
17.083466 -16.514570 24.559247 34.172101 -0.768467 0.768876 0.015690 0.024606 159541.000000 0 0 1
16.682066 -17.699470 23.666147 33.935956 -0.814981 0.799066 0.002841 0.003476 -121413.000000 0 0 1
17.120766 -18.906470 24.165147 35.135874 -0.834923 0.812394 0.002350 0.004255 -124705.000000 0 0 1
16.868766 -19.832470 23.166247 34.850498 -0.865975 0.843661 -0.008845 -0.003433 208128.000000 0 0 1
17.367766 -21.281670 23.532647 36.170904 -0.886321 0.862427 -0.006709 -0.003076 403729.000000 0 0 1
16.504866 -21.910770 24.537547 36.804670 -0.925202 0.841029 -0.014170 -0.004425 570379.000000 0 0 1
16.668066 -23.275270 24.771647 37.857591 -0.949328 0.857490 0.016839 -0.009145 -449795.000000 0 0 1
16.393666 -24.225070 23.535447 37.543623 -0.975864 0.893251 0.010085 -0.000588 203415.000000 0 0 1
17.291066 -24.453870 22.429047 37.417041 -0.955328 0.928002 0.016918 -0.000140 97932.200000 0 0 1
18.508266 -25.121470 22.734947 38.607280 -0.935829 0.941127 0.025123 -0.007036 -345198.000000 0 0 1
19.462866 -25.035670 21.579347 38.356958 -0.909985 0.973278 0.025422 0.002183 -567060.000000 0 0 1
18.944866 -25.819170 20.531947 38.040747 -0.937775 1.000673 0.038202 -0.013713 21104.900000 0 0 1
19.849366 -25.950970 19.462947 38.029680 -0.917840 1.033537 0.033381 -0.012918 188139.000000 0 0 1
19.169966 -26.556070 18.182347 37.460783 -0.945544 1.064010 0.033022 -0.014516 481085.000000 0 0 1
18.765866 -27.922370 18.357447 38.325088 -0.979060 1.071289 0.049394 -0.025463 274047.000000 0 0 1
17.806466 -28.366070 17.380347 37.733018 -1.010230 1.092110 0.060724 -0.020429 254501.000000 0 0 1
17.021366 -29.580070 17.919247 38.546166 -1.048636 1.087300 0.070617 -0.023195 331388.000000 0 0 1
15.927266 -29.175970 18.745047 38.161392 -1.071104 1.057324 0.072918 -0.029883 43404.700000 0 0 1
15.159066 -30.256370 19.211647 38.914427 -1.106333 1.054469 0.081467 -0.031604 -244052.000000 0 0 1
13.938566 -29.856870 20.036047 38.563708 -1.134022 1.024464 0.068302 -0.015594 102369.000000 0 0 1
12.941766 -29.259770 19.200747 37.313432 -1.154359 1.030279 0.069173 -0.021007 -763710.000000 0 0 1
11.783066 -28.912170 19.863647 37.004307 -1.183801 1.004165 0.033208 -0.005744 -680072.000000 0 0 1
10.700466 -28.401270 18.905547 35.756844 -1.210483 1.013698 0.032800 -0.010841 -315200.000000 0 0 1
10.189366 -29.410370 18.103947 36.007582 -1.237283 1.043983 0.030904 -0.009583 -207003.000000 0 0 1
9.917266 -28.780370 16.870047 34.803167 -1.238954 1.064745 0.034605 -0.006010 -47329.900000 0 0 1
9.878966 -29.795870 15.765147 35.127308 -1.250647 1.105374 0.032296 -0.009156 -116993.000000 0 0 1
8.713666 -30.561670 15.652747 35.425304 -1.293049 1.113134 0.016966 0.004404 -15644.300000 0 0 1
8.943866 -31.381570 14.532647 35.721052 -1.293154 1.151807 0.009114 0.006729 245642.000000 0 0 1
7.775866 -32.377670 14.251647 36.219982 -1.335099 1.166388 -0.009659 0.007347 112121.000000 0 0 1
7.753866 -33.444470 15.180847 37.538156 -1.342978 1.154461 -0.003360 0.001044 -436931.000000 0 0 1
6.950266 -34.486770 14.800147 38.166581 -1.371926 1.172577 -0.032890 -0.000740 -777071.000000 0 0 1
6.837266 33.693238 15.766347 37.822747 1.370588 1.140821 -0.002876 -0.001201 -23256.400000 0 0 1
7.927066 32.821038 15.816247 37.285555 1.333811 1.132726 0.000337 -0.006651 -267324.000000 0 0 1
7.582566 31.882038 16.818947 36.835264 1.337302 1.096628 0.007581 -0.017362 215144.000000 0 0 1
8.827466 31.087138 17.239347 36.626895 1.294120 1.080741 0.008253 -0.015994 -164508.000000 0 0 1
9.358766 30.209238 16.242447 35.552801 1.270375 1.096341 0.000940 -0.012691 -226391.000000 0 0 1
10.437566 29.434638 16.723847 35.426371 1.230028 1.079155 0.000611 -0.008554 538821.000000 0 0 1
11.354966 28.898538 15.484747 34.696371 1.196404 1.108178 -0.002014 -0.003773 572534.000000 0 0 1
10.842066 27.935538 14.572447 33.321178 1.200582 1.118166 -0.008407 0.001040 -471590.000000 0 0 1
11.697366 27.812138 13.486747 33.048990 1.172671 1.150443 0.004514 0.007027 -194590.000000 0 0 1
-9.233770 -10.128762 18.930101 23.370987 0.831588 0.626673 0.040156 -0.001082 47506.300000 0 1 0
-9.177770 -9.993262 17.534601 22.171129 0.827910 0.658558 0.027927 -0.010906 -87033.700000 0 1 0
-9.141870 -11.222062 16.929801 22.273900 0.887196 0.707370 0.032992 -0.011728 47512.100000 0 1 0
-9.389170 -11.111562 15.403701 21.187197 0.869217 0.756812 0.032347 -0.020173 -530665.000000 0 1 0
-10.764870 -10.896362 15.332501 21.672533 0.791468 0.784895 0.028212 -0.009933 -123463.000000 0 1 0
-11.536570 -11.582262 14.307201 21.724116 0.787375 0.851858 0.037982 -0.014364 611396.000000 0 1 0
-11.672170 -13.143262 14.320801 22.673117 0.844610 0.887155 0.039952 -0.010454 -627253.000000 0 1 0
-10.465070 -13.695062 13.859901 22.117171 0.918301 0.893539 0.044846 -0.010634 12127.000000 0 1 0
-10.279370 -15.055962 14.247101 23.137142 0.971746 0.907437 0.036033 -0.007156 54114.800000 0 1 0
-9.774070 -15.402462 15.666401 24.045881 1.005339 0.861208 0.031322 -0.007467 206543.000000 0 1 0
-10.764470 -15.171162 16.656001 24.969188 0.953700 0.840538 0.024154 0.004786 203592.000000 0 1 0
-10.208670 -15.314762 17.980701 25.730614 0.982847 0.797070 0.025882 0.003818 262816.000000 0 0 1
-11.183470 -14.717262 19.030101 26.529465 0.920997 0.770849 0.020485 0.004943 -466970.000000 0 0 1
-11.563570 -13.350262 18.823601 25.812276 0.856990 0.753571 0.026209 0.012566 671328.000000 0 0 1
-12.830870 -13.191762 18.176501 25.865788 0.799266 0.791578 0.023371 0.005059 912598.000000 0 0 1
-14.119770 -13.511562 18.999101 27.256119 0.763390 0.799510 0.012837 0.008852 -179665.000000 0 0 1
-14.308170 -14.925962 19.247101 28.248167 0.806528 0.821181 0.012103 0.010339 473011.000000 0 0 1
-15.281270 -15.115262 20.305801 29.568799 0.779937 0.813814 0.014320 0.008370 454192.000000 0 0 1
-15.550970 -16.581462 20.759101 30.785026 0.817457 0.830747 0.005118 0.007402 -77142.500000 0 0 1
-16.353870 -17.243962 19.776901 30.918103 0.811885 0.876748 0.016240 0.019036 34336.400000 0 0 1
-16.585070 -18.563562 20.092001 31.989981 0.841628 0.891724 -0.021828 0.014988 -317891.000000 0 0 1
-17.979970 -18.965562 19.567101 32.647255 0.812069 0.928109 0.014244 0.016694 -112454.000000 0 0 1
-18.065070 -19.072862 18.184901 31.950140 0.812528 0.965306 0.023764 0.011772 -28480.600000 0 0 1
-18.469470 -17.840762 17.617801 31.141628 0.768085 0.969476 0.026409 0.002934 -634438.000000 0 0 1
-18.139270 -17.670662 16.124601 30.021462 0.772313 1.003798 0.028542 0.001881 -93341.500000 0 0 1
-18.888970 -18.608162 15.341201 30.633467 0.777910 1.046275 0.036462 -0.000405 386430.000000 0 0 1
-18.374370 -18.677662 14.003101 29.707901 0.793584 1.079965 0.034340 -0.006938 89911.200000 0 0 1
-18.937870 -19.850262 13.164201 30.429788 0.808916 1.123412 0.035028 0.004469 -133064.000000 0 0 1
-18.524070 -21.100962 13.687701 31.236916 0.850339 1.117212 0.033048 0.017705 -21358.200000 0 0 1
-18.165070 -22.036462 12.670801 31.242993 0.881402 1.153209 0.027292 0.013108 -372434.000000 0 0 1
-17.553070 -23.365062 13.199201 32.066420 0.926494 1.146565 0.024286 0.015008 -180059.000000 0 0 1
-17.325970 -24.384962 12.269001 32.331780 0.953046 1.181571 0.025364 0.009077 284451.000000 0 0 1
-16.297170 -24.159962 11.304101 31.258346 0.977354 1.200776 0.017972 0.007018 -84242.200000 0 0 1
-16.259570 -25.262392 10.201001 31.727314 0.998914 1.243461 0.012489 0.011619 13860.200000 0 0 1
-17.388870 -25.344472 9.352901 32.127742 0.969460 1.275403 0.014339 0.016676 -339934.000000 0 0 1
-17.447070 -26.463982 8.509701 32.820079 0.987928 1.308516 0.014144 0.019590 363949.000000 0 0 1
-18.560970 -26.434562 7.412201 33.139650 0.958630 1.345223 0.004942 0.014851 346251.000000 0 0 1
-18.598570 -25.291252 6.584101 32.076543 0.936721 1.364065 0.008830 0.009105 -18355.900000 0 0 1
-19.624070 -25.436322 5.629301 32.615941 0.913678 1.397334 0.012389 0.007128 88200.800000 0 0 1
-19.497670 -24.184362 4.765701 31.428560 0.892280 1.418573 0.008599 0.007654 104712.000000 0 0 1
-20.372870 -24.226262 3.659601 31.864687 0.871585 1.455694 0.008612 0.002278 31884.900000 0 0 1
-20.188370 -23.084262 2.820901 30.796281 0.852221 1.479069 -0.002266 0.009174 -437036.000000 0 0 1
-21.111770 -23.138062 1.636001 31.364841 0.831158 1.518612 -0.014915 0.009240 -610027.000000 0 0 1
-20.714870 -23.985562 0.577601 31.697739 0.858437 1.552573 -0.028017 0.001248 -158717.000000 0 0 1
-21.152170 -23.591362 -0.704199 31.693257 0.839859 1.593017 -0.020923 0.004943 -537889.000000 0 0 1
-20.655270 -24.495862 -1.816599 32.093418 0.870255 1.627430 -0.024319 0.008721 -812570.000000 0 0 1
-19.284570 -24.283962 -1.989899 31.073544 0.899646 1.634879 -0.019602 0.004820 -554139.000000 0 0 1
-18.681870 -24.999062 -3.063199 31.358389 0.929024 1.668636 -0.002929 0.012514 -12782.400000 0 0 1
-18.595970 -26.563432 -3.162599 32.579565 0.960031 1.668023 0.013044 0.003393 -1162590.000000 0 0 1
-19.720370 -27.307032 -3.534799 33.868301 0.945344 1.675356 0.012769 -0.004142 -698981.000000 0 0 1
-19.340170 -28.538882 -4.146399 34.723228 0.975209 1.690495 0.025882 0.000103 -421572.000000 0 0 1
-20.451470 -29.253172 -4.905599 36.028816 0.960661 1.707378 0.019762 -0.000057 -130127.000000 0 0 1
-20.818270 -28.633012 -6.114699 35.925468 0.942131 1.741834 0.009239 0.008534 -373202.000000 0 0 1
-21.924970 -29.218882 -6.736699 37.146070 0.927059 1.753162 0.012164 -0.001740 -380860.000000 0 0 1
-22.347870 -28.560202 -8.069299 37.151393 0.906828 1.789742 0.004020 0.013614 -312906.000000 0 0 1
-21.262770 -28.400552 -8.958799 36.591759 0.928144 1.818142 0.020755 0.010707 33737.200000 0 0 1
-21.643470 -28.433652 -10.330699 37.197254 0.920171 1.852224 0.017136 0.022333 -39241.200000 0 0 1
-22.345870 -27.124412 -10.739599 36.747934 0.881694 1.867375 0.001088 0.029839 -79135.800000 0 0 1
-21.487070 -26.045242 -11.104299 35.543695 0.881002 1.888528 -0.005230 0.032354 228673.000000 0 0 1
-21.139370 -25.146222 -10.039699 34.351143 0.871751 1.867393 -0.013085 0.037030 69604.600000 0 0 1
-20.838270 -23.674862 -10.393199 33.207698 0.849037 1.889121 -0.011138 0.027205 700815.000000 0 0 1
-22.061670 -22.962462 -10.578699 33.554446 0.805402 1.891537 -0.010085 0.025732 851964.000000 0 0 1
-21.730070 -21.599462 -10.854199 32.504559 0.782384 1.911265 0.000320 0.024350 610451.000000 0 0 1
-23.088970 -20.859562 -10.906099 32.972183 0.734714 1.907912 0.000668 0.019469 -320959.000000 0 0 1
-23.831170 -21.033862 -12.122499 34.019156 0.723129 1.935148 -0.016668 0.027191 -612757.000000 0 0 1
-25.075780 -20.451962 -11.988299 34.507924 0.684185 1.925601 -0.018847 0.020122 -913670.000000 0 0 1
-25.235410 -18.910462 -11.828799 33.680142 0.643093 1.929659 -0.011956 0.011781 -1082040.000000 0 0 1
-24.680370 -18.164662 -12.967799 33.275207 0.634478 1.971117 -0.010750 0.015106 511349.000000 0 0 1
-24.626770 -16.785262 -12.834699 32.449227 0.598260 1.977443 0.018999 -0.000256 406240.000000 0 0 1
-23.559070 -16.311462 -11.765299 30.976053 0.605583 1.960397 0.008946 0.004370 45501.500000 0 0 1
-23.892470 -16.597662 -10.373199 30.885851 0.607148 1.913310 0.010904 -0.006694 664586.000000 0 0 1
-22.842970 -16.238862 -9.452599 29.577923 0.617998 1.896086 0.006870 -0.006850 521681.000000 0 0 1
-23.066070 -16.932662 -8.076199 29.731862 0.633243 1.845887 -0.008249 -0.015365 -184289.000000 0 0 1
-23.245170 -18.329862 -8.188399 30.714356 0.667717 1.840658 -0.014184 -0.006789 92363.900000 0 0 1
-23.829070 -18.802162 -7.016799 31.154154 0.668024 1.797974 -0.007603 0.000273 -134229.000000 0 0 1
-24.201970 -20.313662 -7.086499 32.382073 0.698272 1.791422 -0.007500 -0.001513 -134867.000000 0 0 1
-25.019970 -20.583262 -8.186799 33.416961 0.688414 1.818305 -0.022205 -0.005995 -203085.000000 0 0 1
-25.685380 -21.839562 -8.172999 34.691543 0.704652 1.808622 -0.019879 0.007897 37494.900000 0 0 1
-24.846770 -23.105862 -8.518799 34.983036 0.749109 1.816782 -0.036147 0.022857 -321926.000000 0 0 1
-25.468920 -24.319662 -8.222799 36.162498 0.762320 1.800188 -0.025146 0.020844 -833590.000000 0 0 1
-24.865870 -25.439902 -8.803599 36.647012 0.796809 1.813396 -0.028340 0.032252 -410443.000000 0 0 1
-25.606190 -26.778492 -8.628899 38.042378 0.807773 1.799611 -0.016096 0.028819 -216717.000000 0 0 1
-25.412690 -27.289392 -7.308799 37.999135 0.820993 1.764344 -0.005906 0.008453 -1532.930000 0 0 1
-26.069410 -28.519442 -7.135299 39.292305 0.830250 1.753405 0.005670 0.005827 -86002.400000 0 0 1
-25.631450 -29.142542 -5.763699 39.236198 0.849412 1.718227 0.012132 0.003225 190190.000000 0 0 1
-26.099290 -28.409302 -4.612299 38.852731 0.827752 1.689789 -0.008592 0.003082 -112475.000000 0 0 1
-25.395960 -28.730612 -3.441699 38.499976 0.846929 1.660311 -0.006823 -0.001857 -198813.000000 0 0 1
-25.735040 -30.014942 -2.639599 39.625200 0.862017 1.637460 -0.003745 0.001718 -265568.000000 0 0 1
-25.111870 -31.149412 -3.220499 40.140547 0.892302 1.651113 0.021479 -0.005738 -49856.900000 0 0 1
-25.320550 -32.382232 -2.547699 41.185313 0.907173 1.632695 0.027247 -0.009514 589626.000000 0 0 1
-24.398770 -32.626002 -1.246699 40.759174 0.928684 1.601388 0.031178 -0.015982 1974300.000000 0 0 1
-22.982270 -32.634192 -1.583799 39.946009 0.957231 1.610455 0.042924 -0.024075 1093130.000000 0 0 1
-22.167770 -32.602352 -0.417199 39.427115 0.973658 1.581378 0.048118 -0.025726 410036.000000 0 0 1
-21.015370 -31.582152 -0.474699 37.938153 0.983658 1.583309 0.042584 -0.024279 14669.300000 0 0 1
-21.389970 -30.236262 -0.198699 37.037843 0.955103 1.576161 0.027291 -0.017758 -225995.000000 0 0 1
-21.800370 -29.474432 -1.292999 36.683377 0.933961 1.606051 0.020876 -0.016847 -53512.400000 0 0 1
-22.256970 -28.026962 -1.024899 35.804102 0.899647 1.599425 0.001754 -0.002970 1206450.000000 0 0 1
-23.628970 -28.026402 -0.547699 36.662070 0.870324 1.585736 0.010212 -0.008295 820819.000000 0 0 1
-24.170370 -26.779182 -0.166699 36.074356 0.836557 1.575417 0.009971 -0.009060 -53827.200000 0 0 1
-23.576470 -26.037032 1.032001 35.140319 0.834952 1.541424 0.011613 -0.001747 -340151.000000 0 0 1
-23.750570 -26.737552 2.225701 35.832109 0.844491 1.508642 0.004568 -0.003049 -354960.000000 0 0 1
-23.194770 -26.063572 3.280301 35.043794 0.843572 1.477053 0.016113 -0.002118 47195.000000 0 0 1
-24.114170 -24.977862 3.955701 34.943302 0.802990 1.457350 0.033911 -0.007097 37964.200000 0 0 1
-24.289970 -23.841962 3.123201 34.178885 0.776091 1.479291 0.014677 -0.008282 -307687.000000 0 0 1
-25.097640 -22.859062 3.674101 34.145677 0.738753 1.462987 0.010825 -0.000970 -439087.000000 0 0 1
-25.330170 -21.592362 2.858401 33.406856 0.705907 1.485128 0.016335 -0.000103 -345171.000000 0 0 1
-24.258670 -20.688362 2.794101 32.004662 0.706131 1.483382 0.000207 0.003617 -220555.000000 0 0 1
-24.423970 -19.807662 1.741501 31.494549 0.681408 1.515473 -0.006828 0.001313 291522.000000 0 0 1
-23.171970 -18.922362 1.570301 29.957667 0.684785 1.518355 0.000122 0.003585 368257.000000 0 0 1
-21.969570 -19.545662 1.188701 29.429711 0.727078 1.530394 -0.003595 0.004159 -225310.000000 0 0 1
-20.810570 -18.939362 1.693401 28.189481 0.738358 1.510688 -0.007557 0.008869 141900.000000 0 0 1
-19.574470 -19.800862 1.289801 27.872883 0.791148 1.524505 -0.017676 0.004370 -251210.000000 0 0 1
-19.300770 -20.014562 -0.061899 27.804788 0.803552 1.573023 -0.026104 0.001074 -38662.600000 0 0 1
-18.175870 -20.851662 -0.203099 27.662164 0.853853 1.578139 -0.005247 0.004090 -13751.900000 0 0 1
-17.855670 -21.309662 -1.606299 27.847923 0.873361 1.628509 -0.000190 0.002149 -34666.700000 0 0 1
-17.339170 -20.257462 -2.393899 26.772044 0.862864 1.660334 -0.005358 0.004244 -133062.000000 0 0 1
-17.319870 -20.527862 -3.773499 27.122137 0.869957 1.710379 0.002721 0.007918 289880.000000 0 0 1
-16.484970 -19.447962 -4.547599 25.897068 0.867671 1.747314 0.002636 0.019553 818755.000000 0 0 1
-15.080270 -19.456862 -4.292499 24.988189 0.911448 1.743434 0.020907 0.015728 384271.000000 0 1 0
-14.431670 -18.568462 -5.203499 24.086039 0.910104 1.788551 0.018284 0.008824 -859515.000000 0 1 0
-12.927770 -18.616762 -5.018399 23.214121 0.963828 1.788695 0.022323 0.009164 -897948.000000 0 1 0
-12.471070 -19.905662 -5.300399 24.080224 1.011113 1.792728 0.028346 0.004888 -760178.000000 0 1 0
-11.139570 -19.836062 -5.698899 23.452864 1.059105 1.816247 0.021328 0.005278 -531474.000000 0 1 0
-10.279270 -21.061162 -5.964499 24.182870 1.116740 1.820009 0.024338 0.000573 163646.000000 0 1 0
-10.714070 -21.864662 -7.075999 25.355956 1.115166 1.853618 0.038581 -0.003824 -610264.000000 0 0 1
-9.675570 -22.686062 -7.509399 25.781100 1.167657 1.866356 0.037156 0.000754 -330523.000000 0 0 1
-10.054370 -23.702262 -8.603799 27.146140 1.169608 1.893302 0.038461 -0.010107 -160374.000000 0 0 1
-10.307470 -23.129062 -9.923599 27.196972 1.151566 1.944299 0.026340 -0.008430 -108660.000000 0 0 1
-10.669070 -24.163462 -10.775499 28.527414 1.155002 1.958134 0.031554 -0.013084 -243544.000000 0 0 1
-11.252270 -23.642262 -12.063299 28.828689 1.126582 2.002532 0.044298 -0.015467 -617288.000000 0 0 1
-10.392370 -22.854762 -12.844199 28.201329 1.144030 2.043670 0.030866 -0.006397 -730451.000000 0 0 1
-11.008070 -22.192462 -13.887099 28.399551 1.110332 2.081728 0.031109 -0.004324 -642132.000000 0 0 1
-10.280770 -20.978662 -14.488199 27.490115 1.115134 2.125902 0.023243 -0.004425 -397667.000000 0 0 1
-10.268270 -19.971062 -13.508299 26.206008 1.095887 2.112347 0.024870 -0.001817 -107187.000000 0 0 1
-10.058170 -18.688662 -14.083199 25.470952 1.077061 2.156652 0.017994 0.008759 -167069.000000 0 0 1
-9.906370 -17.535762 -13.112999 24.033099 1.056568 2.147928 0.013638 0.000714 -250219.000000 0 1 0
-11.093370 -17.226362 -12.394399 23.946431 0.998667 2.114827 0.015863 0.002948 -93418.100000 0 1 0
-11.002570 -16.375762 -11.257799 22.714757 0.979192 2.089340 0.024819 -0.004738 -97509.800000 0 1 0
-10.839570 -14.848462 -11.593799 21.734518 0.940210 2.133444 0.034497 -0.005195 138629.000000 0 1 0
-11.891170 -14.432662 -12.448999 22.465067 0.881647 2.158137 0.028524 0.014888 -488457.000000 0 1 0
-11.378070 -13.993562 -13.636899 22.610734 0.888123 2.218198 0.019581 0.000490 -407652.000000 0 1 0
-12.415670 -13.384462 -14.578599 23.362967 0.822930 2.244653 -0.002458 0.007721 -458389.000000 0 1 0
-12.857170 -12.124762 -14.183799 22.660469 0.756089 2.247116 0.006245 0.015102 -469750.000000 0 1 0
-13.821570 -11.549862 -15.004399 23.442848 0.696098 2.265349 -0.007950 0.015825 -377830.000000 0 1 0
-14.377470 -10.255162 -14.340099 22.749032 0.619583 2.252814 -0.000847 0.006461 -580002.000000 0 1 0
-13.532070 -9.103562 -14.435599 21.780227 0.592195 2.295328 0.011053 0.004753 368158.000000 0 1 0
-13.642270 -8.304362 -15.617299 22.337726 0.546809 2.344997 0.014696 -0.002900 230846.000000 0 1 0
-12.518870 -7.198462 -15.585299 21.247153 0.521841 2.394289 0.019668 0.008197 1973340.000000 0 1 0
-11.214170 -7.845062 -15.770599 20.880958 0.610435 2.426850 0.023912 0.010254 1433630.000000 0 1 0
-10.093470 -6.999162 -15.637399 19.884533 0.606306 2.475772 0.012735 0.018408 385179.000000 0 1 0
11.015230 22.389638 16.114801 29.703838 1.113586 0.997367 0.029794 0.009960 -210213.000000 0 0 1
11.862230 22.149738 17.212001 30.456138 1.079117 0.970193 0.041012 0.001693 -211989.000000 0 0 1
12.265030 20.765238 17.308401 29.685128 1.037279 0.948298 0.030875 0.010098 -542829.000000 0 0 1
13.357930 20.588738 18.311401 30.620872 0.995267 0.929788 0.029063 0.006678 -226330.000000 0 0 1
14.636130 21.076038 17.920401 31.297866 0.963809 0.961152 0.022917 0.003528 274724.000000 0 0 1
15.630830 20.754038 18.895401 32.126144 0.925285 0.942011 0.018863 0.006012 -307815.000000 0 0 1
16.983130 21.321238 18.541701 32.966901 0.898171 0.973470 0.013431 0.008994 -1242030.000000 0 0 1
17.026730 22.765338 18.640901 33.994902 0.928626 0.990414 0.018955 0.007902 -822285.000000 0 0 1
18.101130 23.377738 18.028601 34.629467 0.911930 1.023226 0.028360 0.013297 250538.000000 0 0 1
19.506030 23.341138 18.712201 35.713308 0.874667 1.019307 0.007094 0.008230 319244.000000 0 0 1
20.013830 22.037138 18.738701 35.175670 0.833477 1.008988 0.016114 0.014419 28337.800000 0 0 1
21.360230 21.914238 19.179801 36.115897 0.798200 1.010942 0.019569 -0.002053 237684.000000 0 0 1
21.793530 20.420538 19.094201 35.447776 0.752885 1.001954 0.008938 0.002831 -36574.700000 0 0 1
21.686030 19.941838 17.781501 34.411373 0.743523 1.027765 -0.003891 0.006922 -81022.700000 0 0 1
21.464330 18.553938 17.663001 33.420767 0.712799 1.013959 0.001241 0.009828 119641.000000 0 0 1
22.528530 17.527638 18.167301 33.834946 0.661194 1.003992 -0.013894 0.010503 -316580.000000 0 0 1
23.654230 17.361838 17.375201 34.100640 0.633172 1.036161 -0.023584 0.017526 -674586.000000 0 0 1
24.400430 16.258738 17.868301 34.336624 0.587769 1.023493 -0.039808 0.020306 -39748.800000 0 0 1
25.789030 16.233938 17.197001 34.990737 0.561822 1.057016 0.005132 0.012789 -1589690.000000 0 0 1
26.630430 17.351038 17.406701 36.238537 0.577464 1.069758 0.001469 0.014198 985524.000000 0 0 1
28.032530 17.165938 17.614401 37.292885 0.549457 1.078868 0.000605 0.011094 761756.000000 0 0 1
28.738430 16.139238 16.723401 36.960039 0.511699 1.101260 -0.000337 0.010274 -1810770.000000 0 0 1
28.690730 16.521338 15.389101 36.509410 0.522467 1.135686 0.021629 -0.003110 -82305.700000 0 0 1
29.252830 15.509838 14.565301 36.172243 0.487514 1.156370 0.047703 -0.011028 -94497.500000 0 0 1
28.612630 15.317238 13.213801 35.041474 0.491512 1.184144 0.030616 -0.004432 -717131.000000 0 0 1
28.999730 16.248138 12.251201 35.427084 0.510706 1.217690 0.033388 -0.002158 271980.000000 0 0 1
28.177930 16.196038 11.053801 34.329199 0.521667 1.242961 0.024113 0.002544 1735180.000000 0 0 1
26.706330 16.755438 11.298401 33.490695 0.560320 1.226686 0.012721 0.006595 321215.000000 0 0 1
26.595330 18.166338 11.300201 34.132418 0.599270 1.233360 -0.007012 0.017087 182413.000000 0 0 1
27.223130 18.958338 12.347701 35.397501 0.608309 1.214474 -0.010962 0.008564 -274740.000000 0 0 1
26.672930 18.887338 13.723201 35.447186 0.616147 1.173263 -0.010753 0.008256 -191991.000000 0 0 1
25.457930 19.571138 13.936601 35.005207 0.655402 1.161320 -0.010327 0.020424 123285.000000 0 0 1
24.913930 19.588538 15.306801 35.195353 0.666299 1.120858 0.001677 0.017095 255450.000000 0 0 1
25.749630 20.253138 16.422201 36.645896 0.666480 1.106122 0.011004 0.010085 -211422.000000 0 0 1
25.747230 21.705938 16.438201 37.473751 0.700439 1.116690 0.003625 0.008647 1368950.000000 0 0 1
24.488430 22.383138 16.805301 37.190136 0.740512 1.101930 0.018320 0.005099 1412890.000000 0 0 1
24.429630 23.909738 16.338701 37.887142 0.774644 1.124922 0.012667 0.006218 23612.600000 0 0 1
24.125130 24.153938 14.973501 37.277880 0.785995 1.157454 0.027984 0.003054 67853.800000 0 0 1
24.466930 25.507238 14.658101 38.263687 0.806212 1.177667 0.030110 -0.003229 -104096.000000 0 0 1
24.272930 25.827638 13.132601 37.798244 0.816420 1.215957 0.024437 -0.000864 -596118.000000 0 0 1
22.925130 25.730338 12.799701 36.761994 0.842989 1.215170 0.035418 0.003389 -560465.000000 0 0 1
22.762730 25.900538 11.389801 36.314010 0.849789 1.251764 0.036662 -0.006455 -167439.000000 0 0 1
22.046230 24.735138 10.685301 34.814350 0.842813 1.258839 0.030019 -0.005080 -1457190.000000 0 0 1
20.664530 24.799338 10.815601 34.044195 0.876096 1.247501 0.042699 -0.007496 -980426.000000 0 0 1
20.101530 23.483838 10.610501 32.682486 0.862845 1.240150 0.041588 0.000769 -62915.600000 0 0 1
19.919030 23.149838 9.084801 31.862460 0.860273 1.281659 0.035219 0.007546 -781281.000000 0 0 1
18.836530 23.749838 8.422601 31.461244 0.900263 1.299777 0.034140 0.004332 -387475.000000 0 0 1
19.055230 24.007038 7.047801 31.450138 0.899887 1.344783 0.032947 -0.009440 -189605.000000 0 0 1
17.840330 24.353438 6.165201 30.811962 0.938551 1.369345 0.020700 -0.006500 -930841.000000 0 0 1
17.039530 23.218738 5.799401 29.378367 0.937699 1.372087 0.038122 -0.000053 869840.000000 0 0 1
15.907030 23.481838 4.970001 28.794639 0.975387 1.397326 0.048388 -0.003311 604277.000000 0 0 1
14.844530 24.508738 5.390601 29.156421 1.026208 1.384841 0.014876 -0.003791 -1096070.000000 0 0 1
15.174530 25.888638 5.221801 30.459073 1.040626 1.398509 0.038864 -0.015299 555095.000000 0 0 1
14.101330 26.677838 5.729601 30.714538 1.084548 1.383154 0.021491 -0.019516 283782.000000 0 0 1
14.021530 27.925938 4.819101 31.617796 1.105473 1.417783 0.015723 -0.021664 -596179.000000 0 0 1
13.792830 27.711538 3.464801 31.147654 1.108967 1.459328 0.014208 -0.010801 481469.000000 0 0 1
13.342730 28.885338 2.788501 31.940052 1.138074 1.483381 0.003771 -0.013147 -277323.000000 0 0 1
12.654830 28.692938 1.412401 31.391468 1.155416 1.525788 0.016053 -0.012852 -323785.000000 0 0 1
13.421330 28.426738 0.260901 31.436915 1.129686 1.562497 0.040178 -0.014857 -286335.000000 0 0 1
13.693430 27.103338 -0.033599 30.366134 1.102973 1.571903 0.022229 -0.006469 -230468.000000 0 0 1
14.739430 26.968438 -1.135199 30.754449 1.070611 1.607716 0.034724 -0.007575 -243056.000000 0 0 1
14.270630 27.391338 -2.388199 30.978053 1.090498 1.647966 0.036729 -0.012055 188788.000000 0 0 1
15.311530 27.369638 -3.385499 31.543647 1.060738 1.678331 0.053182 -0.008312 121552.000000 0 0 1
14.865230 27.870638 -4.719099 31.937712 1.080814 1.719099 0.057676 0.001554 -148179.000000 0 0 1
13.924330 26.980438 -5.281799 30.817664 1.094360 1.743035 0.055976 -0.004400 -277799.000000 0 0 1
13.656530 27.266838 -6.631899 31.208386 1.106471 1.784933 0.037223 0.000538 334053.000000 0 0 1
12.400230 26.563138 -7.224999 30.192162 1.134042 1.812442 0.025275 -0.005541 223795.000000 0 0 1
12.515430 25.181938 -7.504099 29.104596 1.109551 1.831574 0.057491 -0.021526 53729.300000 0 0 1
11.248330 24.746638 -7.965399 28.326112 1.144174 1.855844 0.036559 0.005129 123556.000000 0 0 1
11.192430 23.321338 -8.581299 27.254247 1.123340 1.891107 0.035283 -0.010071 34057.100000 0 0 1
11.963430 23.062138 -9.735799 27.744759 1.092263 1.929335 0.031975 -0.008907 124963.000000 0 0 1
11.659830 21.753038 -10.250499 26.724877 1.078758 1.964441 0.041535 -0.009437 136155.000000 0 0 1
12.267530 21.467738 -11.653599 27.334272 1.051641 2.011235 0.040611 -0.003052 198822.000000 0 0 1
11.636030 20.322138 -12.273199 26.438947 1.050783 2.053538 0.047614 -0.004909 22836.800000 0 0 1
12.101530 20.094738 -13.615099 27.122250 1.028743 2.096695 0.053363 -0.006338 -59409.600000 0 0 1
13.562430 19.666938 -13.860299 27.619483 0.967081 2.096510 0.026888 -0.011743 -117856.000000 0 0 1
14.425530 20.794338 -13.787799 28.820198 0.964295 2.069637 0.019451 -0.002022 -865697.000000 0 0 1
15.699730 20.418538 -14.221099 29.421725 0.915311 2.075278 0.032140 0.001910 -351033.000000 0 0 1
16.750730 21.501838 -13.883199 30.588547 0.908969 2.041899 0.003427 0.012056 -209176.000000 0 0 1
16.894030 22.710338 -14.627599 31.861173 0.931216 2.047783 -0.001137 0.012337 -607184.000000 0 0 1
15.776430 23.559738 -14.603999 31.894103 0.980741 2.046417 0.003239 0.011387 -63451.400000 0 0 1
16.116530 24.907138 -15.289099 33.374610 0.996487 2.046659 0.000899 0.009291 181708.000000 0 0 1
16.249230 24.834638 -16.722799 34.065360 0.991406 2.083923 -0.015538 0.006733 -74573.900000 0 0 1
14.975630 25.009638 -17.317899 33.906653 1.031264 2.106856 -0.006202 0.012082 439941.000000 0 0 1
15.084030 24.853138 -18.866999 34.657901 1.025299 2.146444 -0.012537 0.011572 222037.000000 0 0 1
15.540030 23.573338 -19.306799 34.204492 0.987966 2.170566 -0.010247 0.016968 16394.900000 0 0 1
15.416330 23.525938 -20.715199 34.932112 0.990711 2.205592 -0.004166 0.022613 -261682.000000 0 0 1
15.746030 22.125338 -21.280699 34.501249 0.952278 2.235479 0.010366 0.026832 -211420.000000 0 0 1
14.801130 21.099538 -20.993999 33.241720 0.959071 2.254354 0.012142 0.017809 53305.300000 0 0 1
15.092030 19.873638 -21.710399 33.076764 0.921307 2.286786 0.019387 0.015412 -284230.000000 0 0 1
13.994830 18.809438 -21.762599 31.988450 0.931125 2.319005 0.021878 0.020856 -663701.000000 0 0 1
13.722630 18.119238 -20.533599 30.630802 0.922607 2.305487 0.021946 0.011749 560432.000000 0 0 1
12.834930 17.003638 -20.723599 29.720813 0.924208 2.342386 0.018339 0.007308 1018440.000000 0 0 1
11.309530 17.235338 -20.950799 29.392148 0.990087 2.364282 0.025337 0.002120 -71821.400000 0 0 1
10.517730 17.468338 -19.830099 28.442896 1.028832 2.342266 0.045357 -0.006083 -340146.000000 0 0 1
9.162230 17.454338 -20.229499 28.245938 1.087408 2.369126 0.016101 0.002538 113795.000000 0 0 1
8.199530 17.047638 -19.087899 26.873819 1.122482 2.360690 0.013947 -0.010178 -208732.000000 0 0 1
8.199830 15.645538 -18.863399 25.842753 1.088055 2.389016 0.013838 -0.016682 556918.000000 0 0 1
6.967330 15.122538 -18.343599 24.773423 1.139059 2.404543 0.013206 -0.025582 615029.000000 0 1 0
6.714230 15.421238 -16.843899 23.803622 1.160160 2.356919 0.017797 -0.030403 -83666.800000 0 1 0
6.576730 16.858038 -16.545399 24.519320 1.198832 2.311477 0.030150 -0.028644 -220263.000000 0 1 0
6.009230 17.141938 -15.262999 23.725852 1.233625 2.269606 0.021554 -0.032579 -239947.000000 0 1 0
5.674230 18.632338 -15.176099 24.691596 1.275183 2.232708 0.023716 -0.024368 46128.300000 0 1 0
6.746230 19.542338 -14.914099 25.492057 1.238394 2.195737 0.023815 -0.019829 -110400.000000 0 0 1
7.384030 20.011838 -16.071699 26.707622 1.217311 2.216505 0.028859 -0.014377 -751202.000000 0 0 1
8.693530 20.710438 -15.774299 27.446825 1.173368 2.183061 0.024937 -0.001799 -861671.000000 0 0 1
8.662430 21.937038 -15.023099 27.963634 1.194714 2.137954 0.028096 -0.004152 -338759.000000 0 0 1
8.546130 21.792338 -13.596999 27.070662 1.197065 2.097028 0.022415 -0.012353 -180394.000000 0 0 1
8.282130 23.170338 -12.875799 27.771288 1.227504 2.052892 0.025421 -0.009381 534244.000000 0 0 1
6.971130 23.663638 -13.212399 27.984494 1.284308 2.062505 0.022138 -0.008664 414769.000000 0 0 1
6.572430 24.684238 -12.366799 28.380383 1.310573 2.021670 0.002727 -0.011166 -212713.000000 0 0 1
5.880030 24.385038 -11.012699 27.394970 1.334181 1.984493 -0.010177 -0.009048 128621.000000 0 0 1
6.742830 24.032838 -9.875899 26.843555 1.297262 1.947552 -0.020059 -0.009478 81803.600000 0 0 1
6.044430 23.448838 -8.863799 25.786626 1.318517 1.921689 -0.021036 -0.013109 -622421.000000 0 0 1
6.836430 23.274838 -7.570399 25.411922 1.285105 1.873296 -0.021933 -0.011489 -176880.000000 0 0 1
7.053630 24.488038 -6.872899 26.394212 1.290344 1.834227 -0.027759 -0.010602 338218.000000 0 0 1
7.931130 24.327038 -5.757699 26.227060 1.255641 1.792132 -0.006882 -0.007854 116713.000000 0 0 1
8.226930 25.618538 -5.024299 27.372166 1.260067 1.755398 -0.011837 -0.005585 -175358.000000 0 0 1
8.851930 26.507838 -5.906999 28.564222 1.248503 1.779097 -0.004969 -0.004129 -205307.000000 0 0 1
9.140130 27.665938 -5.258899 29.607467 1.251711 1.749365 -0.010950 -0.005956 -133739.000000 0 0 1
9.268830 28.867738 -6.170499 30.940791 1.260115 1.771572 -0.011754 -0.004522 -217624.000000 0 0 1
10.430930 28.854338 -6.932299 31.455268 1.223911 1.793006 0.007376 -0.012266 -695266.000000 0 0 1
10.394030 30.044638 -7.674399 32.704931 1.237731 1.807661 0.010342 -0.008785 -68975.200000 0 0 1
11.666030 30.270738 -8.518999 33.540829 1.202948 1.827599 0.024375 -0.004868 521547.000000 0 0 1
12.821530 30.602438 -7.758699 34.074892 1.174043 1.800507 0.024121 0.003660 77212.800000 0 0 1
13.838230 31.222638 -8.539199 35.203234 1.153602 1.815809 0.017296 0.004674 678374.000000 0 0 1
15.078730 31.619338 -7.681299 35.862975 1.125813 1.786653 0.016924 0.000238 385486.000000 0 0 1
15.926430 30.529038 -7.358799 35.211153 1.089954 1.781339 0.026021 0.007217 -266575.000000 0 0 1
17.084630 30.984038 -6.695299 36.010030 1.066878 1.757813 0.029151 0.005996 183078.000000 0 0 1
18.176330 29.917338 -6.521299 35.608334 1.024843 1.754976 0.033143 0.003167 -144849.000000 0 0 1
17.895730 29.069838 -5.411499 34.562942 1.018977 1.728013 0.049603 0.000007 -466417.000000 0 0 1
18.882930 28.126338 -5.192299 34.272670 0.979551 1.722882 0.047159 0.003933 -575689.000000 0 0 1
18.998130 26.891738 -6.196699 33.503636 0.955743 1.756823 0.038355 0.020402 -351124.000000 0 0 1
19.546630 27.216138 -7.398699 34.315152 0.947960 1.788113 0.032104 0.020112 -39084.300000 0 0 1
19.494130 26.040438 -8.212599 33.549550 0.928185 1.818100 0.013793 0.017921 -888590.000000 0 0 1
19.916830 26.254438 -9.639599 34.335077 0.921809 1.855373 0.014810 0.014468 469469.000000 0 0 1
21.291430 26.523338 -9.933099 35.432738 0.894385 1.854941 0.003791 0.018992 273211.000000 0 0 1
22.044630 25.347538 -9.891399 35.018612 0.854979 1.857155 0.004912 0.022430 -983819.000000 0 0 1
23.551630 25.581538 -9.994499 36.179889 0.826689 1.850681 -0.002847 0.020440 -185210.000000 0 0 1
24.137130 25.919038 -11.233299 37.156219 0.820981 1.877928 0.005097 0.019443 390343.000000 0 0 1
25.555630 26.043238 -11.118899 38.144074 0.794848 1.866588 0.000654 0.026951 697304.000000 0 0 1
26.263530 26.159838 -12.478599 39.112985 0.783420 1.895513 0.008001 0.014645 -17147.600000 0 0 1
26.260130 27.457538 -13.064799 40.177105 0.807685 1.901999 0.011819 0.016559 -53646.200000 0 0 1
26.765930 27.416538 -14.388899 40.928254 0.797405 1.930038 0.009077 0.014252 207282.000000 0 0 1
26.374230 28.730238 -15.149899 41.839527 0.828127 1.941311 0.022729 -0.002240 -163.500000 0 0 1
27.006630 29.922538 -14.750899 42.922085 0.836573 1.921615 0.026088 -0.004028 -104496.000000 0 0 1
27.340930 30.712738 -15.875599 44.077584 0.843414 1.939251 0.034139 -0.001505 -455069.000000 0 0 1
27.755330 32.163638 -15.462799 45.210133 0.858837 1.919863 0.026617 -0.002852 687072.000000 0 0 1
28.897930 32.185938 -14.572399 45.644055 0.839174 1.895747 0.021150 -0.002837 577280.000000 0 0 1
29.200630 33.580138 -14.499599 46.803214 0.855044 1.885778 0.020740 -0.008753 -123939.000000 0 0 1
14.468530 -33.067870 -29.442803 46.580050 -1.158352 2.255044 0.023801 -0.007727 269168.000000 0 0 1
15.371230 -33.576670 -28.466273 46.626132 -1.141479 2.227516 0.017135 -0.004886 301493.000000 0 0 1
15.665330 -32.633370 -27.432503 45.418957 -1.123244 2.219292 0.020347 -0.004601 -1180430.000000 0 0 1
16.794230 -33.046170 -26.474873 45.552326 -1.100606 2.190995 0.005463 -0.000113 8231.820000 0 0 1
18.115430 -32.731070 -26.839713 46.041959 -1.065298 2.193139 0.019256 -0.010855 -39628.300000 0 0 1
18.589430 -33.406570 -27.980313 47.375772 -1.063007 2.202603 0.012906 -0.009173 -1262010.000000 0 0 1
20.110130 -33.290570 -28.174303 48.025730 -1.027383 2.197713 0.021810 -0.008076 -40497.100000 0 0 1
20.522130 -32.010870 -28.667643 47.620241 -1.000704 2.216807 0.009490 -0.014713 1150660.000000 0 0 1
21.929330 -31.790970 -28.399603 47.938489 -0.966951 2.204853 -0.001330 -0.004159 1145700.000000 0 0 1
22.570830 -30.533370 -29.016453 47.787902 -0.934231 2.223319 -0.008600 0.007579 -126301.000000 0 0 1
22.794630 -30.652770 -30.369603 48.800617 -0.931378 2.242499 -0.015807 -0.004523 137208.000000 0 0 1
23.532230 -29.525970 -30.858183 48.762447 -0.897887 2.255995 -0.014574 -0.002890 292786.000000 0 0 1
23.815630 -29.653970 -32.379013 49.949401 -0.894157 2.276062 -0.009481 0.001825 438601.000000 0 0 1
24.946930 -30.467070 -32.681053 51.172677 -0.884687 2.263529 0.000035 -0.003590 35985.500000 0 0 1
25.042230 -30.538070 -34.097344 52.175817 -0.883959 2.283007 -0.006701 -0.008045 529043.000000 0 0 1
26.338430 -31.312470 -34.497346 53.518694 -0.871464 2.271277 -0.008718 -0.012848 1123180.000000 0 0 1
27.504230 -30.486470 -34.572943 53.676773 -0.836779 2.270636 0.001107 -0.017958 -88330.700000 0 0 1
28.692930 -31.196770 34.481288 54.639564 -0.827181 0.887867 -0.000374 -0.011215 -614500.000000 0 0 1
29.841130 -30.249870 34.240533 54.570705 -0.792200 0.892519 0.005884 -0.021731 -613511.000000 0 0 1
29.757630 -29.740170 32.958191 53.443771 -0.785105 0.906266 0.005662 -0.005951 19779.700000 0 0 1
30.744630 -28.738570 32.922671 53.432574 -0.751686 0.906947 0.010221 -0.014344 -54354.900000 0 0 1
31.095430 -28.202270 31.542951 52.509538 -0.736646 0.926409 0.009838 -0.008830 -691818.000000 0 0 1
32.019830 -27.161870 31.678121 52.597909 -0.703496 0.924455 0.007599 -0.019234 -184590.000000 0 0 1
32.080530 -26.304670 30.522511 51.504561 -0.686792 0.936492 0.017703 -0.011599 -166960.000000 0 0 1
32.918630 -26.763870 29.294681 51.556952 -0.682636 0.966479 0.014540 -0.003517 -321806.000000 0 0 1
32.413430 -27.846670 28.519571 51.375417 -0.709759 0.982288 0.022293 -0.013580 1244550.000000 0 0 1
31.149930 -27.521870 27.857401 50.038048 -0.723640 0.980359 0.024306 -0.010435 1016410.000000 0 0 1
30.693630 -28.553170 26.875011 49.796071 -0.749286 1.000714 0.003729 0.001500 -196861.000000 0 0 1
29.440730 -28.228270 26.324671 48.544620 -0.764377 0.997651 -0.005670 0.010324 -125099.000000 0 0 1
28.909930 -29.361670 25.626911 48.524533 -0.793150 1.014408 -0.024105 0.016778 44042.000000 0 0 1
27.534330 -29.198470 24.951651 47.257538 -0.814723 1.014561 -0.025582 0.022747 192464.000000 0 0 1
26.453430 -29.325170 25.860781 47.207304 -0.836837 0.991048 -0.016343 0.022967 -141660.000000 0 0 1
25.241930 -29.073270 25.181691 46.005735 -0.855821 0.991590 -0.004683 0.025988 43907.200000 0 0 1
24.005530 -28.819170 26.050661 45.666695 -0.876272 0.963740 0.006924 0.023298 -236577.000000 0 0 1
24.059030 -27.597370 26.736451 45.335302 -0.853789 0.940048 -0.006617 0.022060 -665829.000000 0 0 1
22.944430 -27.381170 27.527691 45.099325 -0.873332 0.914257 -0.007081 0.015873 -603687.000000 0 0 1
23.033530 -26.199970 28.525301 45.063009 -0.849624 0.885362 -0.014649 0.027492 -860771.000000 0 0 1
21.875030 -26.171970 29.276391 44.951040 -0.874593 0.861506 -0.003789 0.017432 -634658.000000 0 0 1
21.809530 -25.114370 30.249071 44.959910 -0.855712 0.832808 -0.007068 0.021087 -249786.000000 0 0 1
21.179330 -23.753970 29.835641 43.623166 -0.842635 0.817646 -0.009495 0.013497 -564097.000000 0 0 1
21.944530 -23.098370 28.844261 42.977768 -0.811009 0.835046 -0.003589 0.008335 62321.600000 0 0 1
21.547330 -21.774970 28.486181 41.831797 -0.790653 0.821711 0.013719 0.009127 -199476.000000 0 0 1
22.108730 -20.670870 29.346761 42.158193 -0.751800 0.800831 0.014682 0.001328 -92606.900000 0 0 1
21.678130 -20.724470 30.666371 42.893721 -0.762911 0.774260 0.004610 0.002832 -86842.200000 0 0 1
22.514930 -19.868570 31.393041 43.441975 -0.723041 0.763178 0.025205 -0.001814 -368098.000000 0 0 1
22.127030 -19.530070 32.813811 44.133607 -0.723137 0.732491 0.041771 -0.005630 -305803.000000 0 0 1
22.355430 -20.569970 33.767954 45.422061 -0.743828 0.732618 0.018034 -0.004047 69813.900000 0 0 1
21.945130 -20.041770 -34.281424 45.370445 -0.740097 2.427350 0.031494 -0.010691 -468441.000000 0 0 1
21.828330 -21.050270 -33.127393 44.911179 -0.767255 2.400335 0.007334 -0.002656 -804621.000000 0 0 1
22.982830 -21.105270 -32.389473 44.974669 -0.742837 2.374846 0.012209 -0.001306 -753646.000000 0 0 1
22.707030 -22.089370 -31.414333 44.614009 -0.771611 2.352002 0.006768 0.000105 183396.000000 0 0 1
23.900930 -22.372070 -30.493383 44.739361 -0.752370 2.320714 -0.012920 0.006578 242932.000000 0 0 1
25.063030 -22.974570 -31.046453 46.042031 -0.741950 2.310822 -0.010912 0.002118 160038.000000 0 0 1
25.923230 -23.345470 -29.957613 45.983512 -0.733125 2.280338 -0.006254 -0.000066 198167.000000 0 0 1
27.003430 -24.405870 -30.282423 47.348251 -0.734914 2.264732 -0.015810 0.016962 419293.000000 0 0 1
28.075630 -23.985170 -31.161563 48.317413 -0.706988 2.271734 -0.012920 0.004742 117299.000000 0 0 1
27.713530 -23.787670 -32.514083 48.898452 -0.709317 2.298197 -0.008722 0.001614 -395303.000000 0 0 1
27.801830 -25.000070 -33.454683 50.171317 -0.732386 2.300715 -0.003063 -0.005796 -58412.700000 0 0 1
26.907630 -26.031170 -33.091773 49.967067 -0.768844 2.294643 0.002560 -0.003164 -114180.000000 0 0 1
27.015730 -27.239270 -33.809883 51.136442 -0.789518 2.293174 0.008984 -0.005165 53961.000000 0 0 1
26.518130 -27.272670 33.951992 50.987719 -0.799425 0.842116 0.010742 0.004321 -120950.000000 0 0 1
27.404830 -26.568170 33.118371 50.534334 -0.769898 0.856132 0.008168 0.007292 -112362.000000 0 0 1
27.005130 -26.491570 31.782761 49.408747 -0.775799 0.872045 0.006724 -0.000673 -487068.000000 0 0 1
28.118730 -25.910070 30.911601 49.168301 -0.744542 0.890929 0.009119 -0.009857 -295857.000000 0 0 1
28.275130 -24.507270 30.746631 48.429790 -0.714134 0.882956 0.001943 -0.005204 -49783.800000 0 0 1
28.595130 -23.753570 31.909511 48.991126 -0.693174 0.861457 -0.003863 0.001414 -1087150.000000 0 0 1
29.063630 -22.306970 31.574671 48.365849 -0.654621 0.859482 -0.007066 -0.007891 702197.000000 0 0 1
30.317530 -22.095370 30.922661 48.616550 -0.629793 0.881425 0.003918 -0.009630 1370910.000000 0 0 1
31.467230 -22.552470 31.688971 50.029905 -0.621844 0.884856 0.005705 -0.001588 -679269.000000 0 0 1
32.829330 -22.196770 31.172001 50.419789 -0.594523 0.904283 0.006762 -0.005266 -863692.000000 0 0 1
33.231630 -22.825370 29.978221 50.239750 -0.601850 0.931410 0.009032 -0.012166 67389.200000 0 0 1
34.545930 -22.485970 29.593781 50.742803 -0.577008 0.948120 -0.008572 -0.004465 188162.000000 0 0 1
-34.997806 -22.887270 28.143781 50.405813 0.579156 0.978408 0.006438 0.003466 70997.900000 0 0 1
-34.665806 -24.240770 27.908061 50.677341 0.610236 0.987593 0.001835 0.004443 267623.000000 0 0 1
-34.285006 -24.469570 26.560741 49.796531 0.619869 1.008199 -0.016204 0.013648 -335206.000000 0 0 1
-34.142206 -25.927270 26.164171 50.224271 0.649484 1.022837 -0.019614 0.009816 -767573.000000 0 0 1
34.667730 -26.622270 26.206501 50.964473 -0.654876 1.030709 -0.010258 0.005096 -588673.000000 0 0 1
34.711730 -28.010070 26.121551 51.689493 -0.678955 1.041003 -0.009575 0.001105 -240157.000000 0 0 1
-34.454606 -28.744670 27.168011 52.454521 0.695295 1.026362 -0.012703 -0.001550 -552277.000000 0 0 1
-34.242906 -30.126970 26.814011 52.907487 0.721543 1.039317 -0.004864 -0.002599 1030050.000000 0 0 1
-33.168506 -30.863270 27.500281 52.999592 0.749412 1.025259 -0.005455 -0.011156 1502590.000000 0 0 1
-31.730106 -30.359970 27.167391 51.639080 0.763335 1.016787 0.000289 -0.010015 -370423.000000 0 0 1
-31.310606 -30.454970 25.836591 50.748288 0.771546 1.036643 -0.002628 -0.009993 353835.000000 0 0 1
-30.035106 -29.850770 25.650811 49.508991 0.782320 1.026163 -0.014875 0.001326 369162.000000 0 0 1
-29.534406 -29.758270 24.147901 48.383436 0.789174 1.048243 -0.027629 0.009392 -198071.000000 0 0 1
-29.295906 -31.046370 23.550601 48.752005 0.814399 1.066639 -0.019447 0.003142 348997.000000 0 0 1
-28.822006 -30.945970 22.232701 47.777130 0.820920 1.086775 -0.025338 0.010961 -525460.000000 0 0 1
-28.954106 -32.191370 21.312701 48.258220 0.838292 1.113372 -0.021146 0.010632 -64094.200000 0 0 1
-28.182906 -33.318370 21.696701 48.735376 0.868707 1.109405 -0.013351 -0.005864 319455.000000 0 0 1
-26.823306 -33.234770 21.306201 47.728335 0.891750 1.108052 -0.007177 -0.000065 119410.000000 0 0 1
-25.981106 -34.533270 21.245401 48.155287 0.925793 1.113877 -0.003836 0.000924 -35706.500000 0 0 1
-26.375306 33.825938 20.244901 47.431075 -0.908534 1.129814 -0.014404 0.004602 279072.000000 0 0 1
-27.538706 33.050238 20.526901 47.666049 -0.876114 1.125595 -0.007043 0.000129 230899.000000 0 0 1
-27.491806 31.989238 21.683401 47.426581 -0.860866 1.095953 -0.006843 -0.001994 -320683.000000 0 0 1
-26.646306 30.931638 21.291001 46.044528 -0.859688 1.090096 -0.013982 0.001696 -131813.000000 0 0 1
-26.580206 29.910838 22.268801 45.793723 -0.844289 1.062963 -0.009403 -0.002021 -524754.000000 0 0 1
-25.585406 28.866438 21.853101 44.333309 -0.845581 1.055345 0.001468 -0.001547 12857.200000 0 0 1
-24.214806 29.243038 21.938901 43.850057 -0.879182 1.046832 -0.004152 -0.002776 108599.000000 0 0 1
-23.383106 28.248638 21.373701 42.445144 -0.879356 1.043081 0.006395 -0.002859 539198.000000 0 0 1
-21.882306 28.689238 21.466501 41.984740 -0.919194 1.034108 -0.002096 0.005013 464419.000000 0 0 1
-21.479706 28.703338 22.825501 42.500151 -0.928362 1.003838 -0.004132 -0.003650 -152919.000000 0 0 1
-20.137106 29.009738 23.077201 42.185603 -0.964007 0.991973 0.011490 0.000236 -259314.000000 0 0 1
-19.754106 29.028538 24.580471 42.861174 -0.973273 0.960036 0.004719 0.003625 -388762.000000 0 0 1
-19.651706 27.765838 25.171901 42.317324 -0.954878 0.933734 0.017880 -0.007350 300842.000000 0 0 1
-19.447206 27.824538 26.639421 43.151564 -0.960794 0.905432 0.016377 -0.006272 -493562.000000 0 0 1
-18.034706 28.153938 27.116961 43.049093 -1.001075 0.889362 0.026734 -0.006571 -987997.000000 0 0 1
-17.711206 29.547338 26.932181 43.727273 -1.030805 0.907252 0.001912 -0.002856 -986243.000000 0 0 1
-16.378406 29.750338 27.223381 43.525248 -1.067548 0.895073 0.004733 -0.004368 -1172000.000000 0 0 1
-16.039306 30.006338 28.700181 44.512246 -1.079907 0.870073 -0.000048 0.005864 -598470.000000 0 0 1
-16.157206 28.826038 29.414291 44.240211 -1.059922 0.843467 0.007445 0.002147 48195.100000 0 0 1
-16.062706 28.993538 30.833741 45.269806 -1.064880 0.821518 -0.003197 0.014932 -97600.300000 0 0 1
-16.051706 27.679238 31.637821 44.997213 -1.045273 0.791040 -0.008403 0.010888 -687717.000000 0 0 1
-14.835406 27.007738 31.593721 44.132419 -1.068489 0.772906 -0.002759 0.012141 -713773.000000 0 0 1
-14.555406 25.904438 32.396981 43.959801 -1.058871 0.742222 0.012920 0.005474 -151231.000000 0 0 1
-14.631706 26.106338 33.971137 45.273235 -1.059954 0.722193 0.025362 0.004778 -252239.000000 0 0 1
-15.995206 26.065438 34.336024 45.980607 -1.020396 0.727634 0.028554 0.004816 -194498.000000 0 0 1
-16.344206 27.141738 -34.059963 46.517610 -1.028776 2.392335 0.030186 -0.001071 -161269.000000 0 0 1
-17.662606 26.824138 -33.340843 46.293777 -0.988497 2.374889 0.015988 0.000831 -367099.000000 0 0 1
-18.757806 26.785038 -34.198589 47.316350 -0.959863 2.378591 0.003014 0.006688 -650091.000000 0 0 1
-19.920906 26.306138 -33.570393 47.072568 -0.922657 2.364796 0.005861 0.003732 503225.000000 0 0 1
-21.214206 26.453638 -34.464437 48.349094 -0.894874 2.364314 0.016331 -0.004893 -176072.000000 0 0 1
-21.371206 25.577438 33.712300 47.407309 -0.874752 0.779706 0.025035 -0.009007 41658.700000 0 0 1
-21.408106 24.148038 34.022471 46.893105 -0.845470 0.758988 0.028418 -0.019197 -291329.000000 0 0 1
-21.538906 23.348738 32.680741 45.575419 -0.825695 0.771208 0.035300 -0.013608 683304.000000 0 0 1
-22.912506 23.272238 32.265711 45.909216 -0.793187 0.791449 0.040812 -0.018638 605922.000000 0 0 1
-23.121406 22.777438 30.964911 44.857963 -0.777904 0.808909 0.041863 -0.014293 742047.000000 0 0 1
-24.651406 22.684538 30.638281 45.398065 -0.743871 0.829993 0.035274 -0.013415 717787.000000 0 0 1
-25.206006 21.531938 31.240721 45.551616 -0.706950 0.815051 0.052147 -0.022715 665131.000000 0 0 1
-26.515606 21.232038 30.708591 45.791859 -0.675190 0.835762 0.045217 -0.019058 771524.000000 0 0 1
-26.926106 19.845338 31.163891 45.716963 -0.635148 0.820753 0.065726 -0.021737 -457169.000000 0 0 1
-27.357306 19.729738 32.512791 46.848333 -0.624804 0.803765 0.071653 -0.019279 60705.600000 0 0 1
-27.447006 18.382438 32.982291 46.680656 -0.590129 0.786183 0.068394 -0.010784 151236.000000 0 0 1
-28.403106 17.415338 32.218711 46.347338 -0.550032 0.802157 0.038719 -0.006417 1398440.000000 0 0 1
-29.828206 17.676638 32.199941 47.318301 -0.534972 0.822356 0.023270 -0.009364 1024240.000000 0 0 1
-30.578106 16.613538 31.729711 47.093575 -0.497696 0.831513 0.012872 0.002239 111891.000000 0 0 1
-32.108206 16.864638 31.714401 48.178378 -0.483638 0.852277 -0.007632 0.004265 -104188.000000 0 0 1
-32.594606 16.751738 32.994191 49.311720 -0.474739 0.837807 -0.005936 0.003586 -549547.000000 0 0 1
-33.982206 16.917638 33.008161 50.304428 -0.461917 0.855067 0.001579 -0.000666 -571435.000000 0 0 1
-34.442806 17.103138 34.455940 51.633671 -0.460897 0.840198 0.000014 0.000564 -1326180.000000 0 0 1
34.227830 17.262438 -34.541049 51.600583 0.467113 2.304187 -0.011003 -0.000433 -1156840.000000 0 0 1
33.887330 17.730538 -33.287273 50.702718 0.482051 2.286990 -0.014807 0.003954 640252.000000 0 0 1
32.346430 17.808238 -33.042173 49.550076 0.503263 2.300762 -0.005794 0.011159 689027.000000 0 0 1
31.715930 16.547138 -32.730763 48.487223 0.480880 2.311814 -0.000686 0.006977 -578614.000000 0 0 1
30.434930 16.844538 -32.299233 47.468557 0.505496 2.319151 -0.003549 0.010570 -750822.000000 0 0 1
29.420130 15.687238 -32.461363 46.533574 0.489865 2.342825 0.001700 0.009322 -171636.000000 0 0 1
29.170930 15.261438 -33.804483 47.186838 0.482014 2.369420 0.011811 -0.000002 66367.700000 0 0 1
28.538130 13.997038 -33.928623 46.491864 0.455993 2.388790 0.012330 0.000508 -213122.000000 0 0 1
29.497730 12.852238 -34.273430 47.010255 0.410901 2.387748 0.013415 0.002122 147162.000000 0 0 1
30.189330 12.320038 -33.117453 46.475205 0.387463 2.363970 0.016671 0.001771 113200.000000 0 0 1
30.905630 11.216638 -33.560483 46.981666 0.348149 2.366465 0.024017 -0.006324 -621268.000000 0 0 1
16.923130 -21.453462 10.525647 29.281950 -0.902904 1.203109 -0.012070 0.005168 -24687.000000 0 0 1
16.702130 -22.724862 11.073347 30.298507 -0.936983 1.196653 -0.001018 -0.001120 92793.100000 0 0 1
17.880230 -23.507762 10.955747 31.501522 -0.920540 1.215589 -0.013321 -0.003616 -218279.000000 0 0 1
17.768130 -24.897362 11.584247 32.707490 -0.950965 1.208762 0.004238 -0.001275 783457.000000 0 0 1
16.854930 -25.800382 10.861347 32.675943 -0.992117 1.231954 0.008284 -0.003559 799626.000000 0 0 1
15.478430 -25.678202 11.176347 31.997853 -1.028332 1.213989 0.024302 -0.006764 -198337.000000 0 0 1
14.620530 -26.523992 10.242147 31.971607 -1.067018 1.244696 0.037864 -0.009179 -320440.000000 0 0 1
14.574530 -25.994292 8.941947 31.113961 -1.059789 1.279292 0.041080 -0.010177 90608.000000 0 0 1
13.949630 -26.963502 8.075147 31.413860 -1.093363 1.310821 0.053703 -0.004804 36609.400000 0 0 1
13.673630 -26.392272 6.608047 30.449737 -1.092780 1.352041 0.053119 -0.007366 -149942.000000 0 0 1
12.761730 -25.334222 6.760147 29.161347 -1.104165 1.336849 0.056702 -0.016709 -169360.000000 0 0 1
12.400630 -24.788162 5.483447 28.254147 -1.106937 1.375481 0.048351 -0.008508 40264.500000 0 0 1
11.774530 -23.395362 5.639347 26.791505 -1.104524 1.358720 0.043329 -0.003109 -52178.000000 0 0 1
11.068130 -22.797262 4.576047 25.751871 -1.118814 1.392150 0.047600 -0.009228 142596.000000 0 0 1
10.483030 -21.560862 4.962447 24.482454 -1.118244 1.366688 0.041058 -0.005160 -247026.000000 0 1 0
9.822930 -20.819362 3.822247 23.335496 -1.129948 1.406260 0.032638 -0.003940 -139465.000000 0 1 0
10.674830 -20.352462 2.773347 23.148783 -1.087743 1.450703 0.032556 0.000725 240007.000000 0 1 0
9.932430 -19.604662 1.839747 22.054038 -1.101854 1.487279 0.022483 0.008260 450631.000000 0 1 0
10.880830 -19.285462 0.619247 22.151862 -1.057117 1.542838 0.026136 0.010612 1168350.000000 0 1 0
11.903830 -18.303762 0.943547 21.854500 -0.994176 1.527609 0.026188 0.020895 598118.000000 0 1 0
12.537430 -17.963962 -0.283453 21.908250 -0.961467 1.583735 0.032844 0.013515 345912.000000 0 1 0
13.818930 -17.084162 -0.156553 21.973983 -0.890668 1.577921 0.034818 0.022058 584685.000000 0 1 0
14.931630 -17.671662 0.468847 23.140031 -0.869243 1.550534 0.042423 0.013770 -497617.000000 0 1 0
16.114230 -16.944862 0.313947 23.385793 -0.810519 1.557371 0.034418 0.008014 285945.000000 0 1 0
17.313830 -17.577062 1.091147 24.696405 -0.792942 1.526600 0.032276 0.011731 217704.000000 0 1 0
17.787230 -18.789762 0.601347 25.880540 -0.812800 1.547559 0.018407 0.010647 115450.000000 0 0 1
19.001530 -19.184762 1.232347 27.030204 -0.790196 1.525189 0.000178 0.019559 828595.000000 0 0 1
19.523430 -20.614262 0.682447 28.400314 -0.812569 1.546764 0.002644 0.014846 340544.000000 0 0 1
18.567930 -21.622662 1.039047 28.519943 -0.861258 1.534356 0.008980 0.013033 286529.000000 0 0 1
18.839630 -22.816762 0.409747 29.592299 -0.880584 1.556949 0.003365 0.007537 -30609.500000 0 0 1
17.634930 -23.787262 0.446247 29.614587 -0.932848 1.555727 0.006188 0.002918 -53782.600000 0 0 1
17.551430 -24.476762 1.679347 30.165954 -0.948709 1.515097 -0.006134 0.005764 284945.000000 0 0 1
16.341730 -25.232522 1.731347 30.111956 -0.996078 1.513268 0.010662 -0.001021 103391.000000 0 0 1
16.146830 -26.106152 3.023047 30.844612 -1.016880 1.472630 0.014159 0.001550 196498.000000 0 0 1
16.926830 -27.273942 3.306347 32.269450 -1.015351 1.468156 0.006678 -0.001150 968456.000000 0 0 1
18.280430 -26.999352 3.742047 32.819842 -0.975626 1.456530 -0.008166 0.007607 841451.000000 0 0 1
19.182030 -28.248112 3.682147 34.343330 -0.974266 1.463374 0.001820 0.009642 -237095.000000 0 0 1
19.461030 -28.642612 2.365347 34.709160 -0.974000 1.502596 -0.019105 0.017617 -84194.600000 0 0 1
20.278730 -29.808842 2.247247 36.122626 -0.973420 1.508544 0.011078 0.022579 286191.000000 0 0 1
19.709930 -31.130402 2.840147 36.954698 -1.006364 1.493866 0.018156 0.014807 24944.000000 0 0 1
19.876430 -31.298672 4.272147 37.321985 -1.004998 1.456078 0.033747 0.010884 -52794.200000 0 0 1
19.051630 -32.382312 4.744347 37.869349 -1.038999 1.445184 0.040697 -0.015192 351472.000000 0 0 1
18.983830 -32.348712 6.304447 38.033814 -1.040102 1.404269 0.048699 -0.013436 -908147.000000 0 0 1
19.940130 -33.214552 6.790647 39.331007 -1.030125 1.397273 0.035558 -0.028813 -660881.000000 0 0 1
19.597530 -34.043445 7.833647 40.054780 -1.048464 1.373954 0.033322 -0.019598 8153.440000 0 0 1
20.803630 34.415643 8.285647 41.059463 1.027088 1.367605 0.044739 -0.024406 663229.000000 0 0 1
21.805130 -34.178381 9.006247 41.529964 -1.002917 1.352198 0.042281 -0.021867 420333.000000 0 0 1
22.903630 34.282503 9.316047 42.268842 0.981812 1.348572 0.058979 -0.025795 813323.000000 0 0 1
23.909330 -34.372071 10.354947 43.131430 -0.963027 1.328349 0.044053 -0.022499 -190013.000000 0 0 1
24.528830 -33.252882 9.826147 42.473178 -0.935249 1.337332 0.025265 -0.020337 -181143.000000 0 0 1
25.288130 -32.536542 10.788147 42.596951 -0.910099 1.314747 0.001596 -0.010011 -337132.000000 0 0 1
26.007830 -31.353152 10.137547 41.978533 -0.878317 1.326892 -0.009153 -0.017191 -770566.000000 0 0 1
25.202530 -30.331002 9.621347 40.591964 -0.877486 1.331493 -0.013677 -0.019008 -384620.000000 0 0 1
25.680630 -29.673132 8.471447 40.146668 -0.857400 1.358186 -0.018999 -0.010315 -152026.000000 0 0 1
25.128030 -28.231242 8.318047 38.698977 -0.843490 1.354164 -0.031489 0.000783 -34439.100000 0 0 1
25.547030 -27.476062 9.379747 38.672528 -0.821763 1.325810 -0.029172 -0.006761 -146962.000000 0 0 1
24.978730 -26.211542 9.244447 37.368994 -0.809476 1.320818 -0.032528 0.003965 -1003280.000000 0 0 1
25.432430 -25.242762 10.362747 37.301368 -0.781655 1.289281 -0.004353 -0.017992 -22258.900000 0 0 1
26.815130 -25.054142 10.152947 38.076812 -0.751461 1.300887 0.028832 -0.010612 -281513.000000 0 0 1
27.476130 -24.178862 11.044247 38.229969 -0.721652 1.277729 0.018186 -0.021152 373537.000000 0 0 1
28.956930 -23.932062 10.637647 39.043654 -0.690675 1.294852 0.030569 -0.021688 555416.000000 0 0 1
28.964430 -23.144962 9.478747 38.268448 -0.674181 1.320500 0.050291 -0.019724 253672.000000 0 0 1
30.260130 -23.164962 8.881347 39.130158 -0.653365 1.341832 0.052790 -0.022628 674481.000000 0 0 1
30.276130 -22.416662 7.554447 38.421615 -0.637333 1.372887 0.048247 0.000222 -114564.000000 0 0 1
29.865730 -21.109062 7.662447 37.366662 -0.615274 1.364270 0.038426 0.016094 115733.000000 0 0 1
30.402930 -20.366562 6.506547 37.168134 -0.590230 1.394833 0.031098 0.015867 322517.000000 0 0 1
29.828830 -18.923362 6.492547 35.916652 -0.565329 1.389030 0.033874 0.009866 57323.100000 0 0 1
30.374830 -18.085062 7.484747 36.134765 -0.537028 1.362152 0.045138 0.004745 88890.500000 0 0 1
30.004130 -16.741362 7.223347 35.109796 -0.508941 1.363581 0.043136 0.008839 48321.200000 0 0 1
30.478830 -15.859662 8.358047 35.360217 -0.479795 1.332169 0.041437 -0.011437 75947.400000 0 0 1
31.883730 -15.773962 8.488647 36.571126 -0.459426 1.336546 0.047837 -0.002134 -85122.800000 0 0 1
32.282930 -15.085462 9.692247 36.928287 -0.437138 1.305224 0.043546 -0.008560 -22792.700000 0 0 1
33.799930 -15.139962 9.936847 38.345726 -0.421130 1.308666 0.030235 -0.014054 -486763.000000 0 0 1
34.447830 -14.282562 9.075447 38.379791 -0.393041 1.332071 0.036889 -0.004366 -815587.000000 0 0 1
-34.194406 -14.527462 9.267547 38.290887 0.401743 1.326339 0.025461 -0.010398 -174859.000000 0 0 1
-33.285306 -13.600262 8.468647 36.940448 0.387895 1.339488 0.020573 -0.008766 -139742.000000 0 0 1
-33.623806 -13.708662 7.061547 36.991259 0.387133 1.378720 0.034038 -0.010529 153658.000000 0 0 1
-32.659706 -13.180262 6.158747 35.753404 0.383574 1.397677 0.023411 -0.008972 190418.000000 0 0 1
-31.695106 -14.290462 5.620847 35.219185 0.423580 1.410515 0.004573 -0.002884 187781.000000 0 0 1
-30.825506 -14.785762 6.628647 34.824841 0.447244 1.379285 0.010966 -0.005578 -294169.000000 0 0 1
-29.761006 -15.478462 6.031747 34.083460 0.479592 1.392889 0.008332 -0.002390 -731538.000000 0 0 1
-29.069306 -16.180862 7.158747 34.030758 0.507920 1.358852 0.003347 -0.011050 -1247790.000000 0 0 1
-29.829906 -17.038762 7.924947 35.255461 0.518972 1.344073 0.023578 -0.019320 -527478.000000 0 0 1
-29.341506 -17.061462 9.234247 35.175116 0.526690 1.305161 -0.010422 -0.009035 563662.000000 0 0 1
-30.393006 -17.831462 10.110747 36.659556 0.530580 1.291373 -0.016016 -0.013937 -311608.000000 0 0 1
-31.623206 -17.192962 10.349147 37.453037 0.497979 1.290830 0.008678 -0.006892 781750.000000 0 0 1
-32.640606 -17.951662 11.048647 38.855424 0.502827 1.282465 0.041438 -0.020223 713106.000000 0 0 1
-33.061306 -19.319962 10.447747 39.692144 0.528846 1.304438 0.055681 -0.020572 -1275850.000000 0 0 1
-32.258506 -20.459362 10.695547 39.668520 0.565210 1.297795 0.046938 -0.012188 -205161.000000 0 0 1
-32.163306 -20.944962 12.008447 40.216570 0.577223 1.267577 0.013797 -0.019676 -724159.000000 0 0 1
-33.433806 -21.602362 12.478547 41.715652 0.573645 1.267012 0.032413 -0.031624 -667177.000000 0 0 1
-33.498506 -22.949862 12.096547 42.369477 0.600657 1.281267 0.042609 -0.028601 -66873.400000 0 0 1
-34.813306 -23.426762 11.889847 43.613621 0.592323 1.294684 0.067152 -0.024981 126965.000000 0 0 1
-34.881006 -24.984662 12.119447 44.584739 0.621571 1.295503 0.046588 -0.015209 -269173.000000 0 0 1
-34.628906 -25.381172 13.464147 44.996092 0.632498 1.266912 0.039763 -0.010697 -130453.000000 0 0 1
34.697130 -26.547952 13.806347 45.818117 -0.653117 1.264710 0.030241 -0.008885 11986.300000 0 0 1
33.371130 -26.262152 14.567847 44.894934 -0.666747 1.240326 0.033756 -0.005466 84321.500000 0 0 1
32.463030 -25.508862 13.787047 43.527383 -0.666011 1.248501 0.033251 -0.017458 26009.300000 0 0 1
31.275130 -25.145982 14.487547 42.665480 -0.677190 1.224346 0.026687 -0.002201 254711.000000 0 0 1
31.255030 -23.631962 14.806547 41.887712 -0.647394 1.209506 0.041154 -0.003475 596325.000000 0 0 1
32.335530 -23.217462 15.666047 42.779225 -0.622716 1.195867 0.046234 -0.010879 870779.000000 0 0 1
33.451430 -22.629662 14.970547 43.072231 -0.594775 1.215820 0.050733 -0.020694 618536.000000 0 0 1
34.598230 -22.112262 15.863547 44.018653 -0.568685 1.202119 0.050622 -0.022337 -93634.300000 0 0 1
34.419330 -20.838962 16.505547 43.490065 -0.544413 1.181514 0.039828 -0.014733 -140254.000000 0 0 1
33.485030 -20.738662 17.554647 43.121978 -0.554520 1.151527 0.036937 -0.015499 49756.800000 0 0 1
33.418330 -19.320062 18.121747 42.643256 -0.524182 1.131877 0.022942 -0.003267 -198848.000000 0 0 1
33.043330 -18.327162 17.159947 41.499522 -0.506399 1.144504 0.023863 -0.009035 40763.700000 0 0 1
32.896330 -16.947462 17.620047 40.985986 -0.475716 1.126410 0.019965 -0.005236 246495.000000 0 0 1
34.145330 -16.122762 18.084847 41.867753 -0.441145 1.124141 0.005798 -0.007490 210698.000000 0 0 1
34.588930 -16.419962 19.376547 42.912234 -0.443218 1.102307 -0.003062 0.011640 274770.000000 0 0 1
-34.429606 -15.495162 19.790347 42.628109 0.422898 1.088002 -0.010911 -0.000068 66139.800000 0 0 1
-34.109406 -15.433162 21.263847 43.055607 0.424898 1.054262 -0.017509 0.009215 -287287.000000 0 0 1
-33.458006 -16.576162 21.750647 43.212244 0.459986 1.043331 -0.015688 0.019439 328549.000000 0 0 1
-32.877206 -16.331962 23.064547 43.354550 0.461049 1.009838 -0.017273 0.018522 22255.100000 0 0 1
-32.071406 -17.535762 23.603447 43.510927 0.500362 0.997420 -0.015666 0.023953 -887439.000000 0 0 1
-32.810506 -18.730462 23.724647 44.611864 0.518723 1.010070 -0.021167 0.015705 34304.400000 0 0 1
-32.117106 -19.853262 24.228347 44.862828 0.553660 1.000295 -0.030103 0.021054 -512226.000000 0 0 1
-31.049906 -20.535862 23.345847 43.941403 0.584335 1.010668 -0.033426 0.022816 476383.000000 0 0 1
-29.806806 -19.837962 23.346547 42.744025 0.587230 0.992982 -0.031309 0.030354 234509.000000 0 0 1
-28.715406 -20.660662 23.054647 42.225043 0.623692 0.993220 -0.017339 0.027451 36345.200000 0 0 1
-27.311106 -20.019662 22.956147 40.910489 0.632547 0.975045 -0.003928 0.029362 110922.000000 0 0 1
-26.989306 -19.419362 24.152547 41.095983 0.623707 0.942570 -0.000365 0.027158 -212527.000000 0 0 1
-25.833906 -18.633762 24.070247 39.924737 0.624873 0.923677 0.022364 0.022407 -470647.000000 0 0 1
-25.433406 -18.090262 25.457047 40.276258 0.618256 0.886587 0.013210 0.007244 -426043.000000 0 0 1
-24.405506 -17.111562 25.565447 39.268644 0.611488 0.861843 0.017588 0.010853 382197.000000 0 0 1
-24.164406 -16.695762 26.881747 39.815767 0.604609 0.829624 0.011156 0.009239 185488.000000 0 0 1
-23.192806 -17.507462 27.784147 40.204183 0.646608 0.807820 0.003883 0.011665 -528243.000000 0 0 1
-23.714206 -18.701762 28.272847 41.369957 0.667770 0.818366 0.007261 0.014267 -345844.000000 0 0 1
-22.785406 -19.398962 29.079147 41.726386 0.705293 0.799730 0.008793 0.012665 -245580.000000 0 0 1
-23.273206 -20.658962 29.808747 43.092879 0.725962 0.806911 0.013273 0.019881 -160417.000000 0 0 1
-24.245006 -20.504262 30.814247 44.246615 0.701999 0.800399 0.013715 0.011351 62145.100000 0 0 1
-24.556306 -21.794462 31.345247 45.393119 0.725883 0.808577 0.009487 0.013710 -742441.000000 0 0 1
-25.606806 -21.757762 32.411947 46.686648 0.704312 0.803427 0.019450 0.009385 -1538110.000000 0 0 1
-25.245406 -21.007462 33.514247 46.923861 0.694028 0.775279 0.027111 0.006185 1170390.000000 0 0 1
-26.321206 -20.681762 34.454847 48.038294 0.665988 0.770967 0.039092 -0.012211 806065.000000 0 0 1
-27.565806 -19.916962 34.007947 48.094693 0.625683 0.785402 0.024628 -0.014128 -461613.000000 0 0 1
-28.327006 -20.522562 32.981447 48.076717 0.626972 0.814796 0.029129 -0.007425 -737180.000000 0 0 1
-29.462506 -19.776362 32.700147 48.253947 0.591161 0.826210 0.034575 -0.010255 -853643.000000 0 0 1
-30.074906 -20.360162 31.433547 48.032323 0.595110 0.857375 0.015790 0.011585 -358382.000000 0 0 1
-30.941806 -19.439162 30.808447 47.795782 0.560932 0.870316 0.017913 -0.000140 266587.000000 0 0 1
-31.611606 -19.963462 29.669747 47.729733 0.563276 0.899987 0.007881 0.004353 -259311.000000 0 0 1
-32.392906 -18.838562 28.996247 47.381158 0.526754 0.912237 0.001406 0.009530 -79786.800000 0 0 1
-33.274406 -19.364262 27.996647 47.602238 0.527047 0.942043 -0.016893 0.015315 204800.000000 0 0 1
-34.006606 -18.296962 27.399747 47.349490 0.493616 0.953699 -0.007886 0.011210 -271283.000000 0 0 1
35.005730 -18.938262 26.434347 47.779008 -0.495911 0.984520 -0.022497 0.008510 -426072.000000 0 0 1
33.988230 -19.645462 27.114847 47.711203 -0.524092 0.966343 -0.016362 0.010148 -562832.000000 0 0 1
32.988330 -19.974662 26.220547 46.634045 -0.544459 0.973678 0.013656 0.006027 -371722.000000 0 0 1
31.730530 -20.629962 26.824147 46.389188 -0.576489 0.954225 0.015070 0.000062 59025.300000 0 0 1
31.016030 -19.865262 27.771547 46.128967 -0.569656 0.924741 0.010517 -0.008064 283539.000000 0 0 1
29.955030 -20.642162 28.314147 46.098738 -0.603376 0.909416 0.014470 -0.016710 273031.000000 0 0 1
-29.455760 -5.653262 -34.615046 45.801774 0.189618 2.427607 -0.008848 -0.000109 -27989.700000 0 0 1
-30.140300 -5.544362 33.419478 45.343568 0.181918 0.742134 -0.014144 0.009783 403672.000000 0 0 1
-29.541640 -4.503262 32.670971 44.276181 0.151273 0.740857 -0.003434 0.009564 317594.000000 0 0 1
-30.189120 -4.305362 31.226471 43.646438 0.141658 0.773541 -0.010865 0.010122 313994.000000 0 0 1
-29.908130 -5.413162 30.382181 42.975289 0.179055 0.785594 -0.016485 0.007651 505580.000000 0 0 1
-28.771220 -5.191662 29.538041 41.559984 0.178525 0.780257 -0.001874 0.002962 532370.000000 0 0 1
-28.392620 -6.296962 28.582791 40.777059 0.218249 0.794064 0.010045 -0.007772 28288.800000 0 0 1
-29.232390 -6.222662 27.455321 40.583849 0.209738 0.827785 -0.006210 -0.007989 63689.400000 0 0 1
-28.682890 -7.048362 26.442831 39.643548 0.240960 0.840602 0.005327 -0.008074 85664.300000 0 0 1
-29.340540 -6.813962 25.091351 39.202975 0.228192 0.876250 -0.000915 -0.011885 -164575.000000 0 0 1
-28.809170 -5.640062 24.447521 38.202877 0.193328 0.876377 0.018629 -0.001505 55598.100000 0 0 1
-29.514870 -5.200562 23.316501 37.971471 0.174411 0.909611 0.025102 -0.005597 -363436.000000 0 0 1
-29.061900 -3.827862 22.796601 37.133968 0.130960 0.909803 0.022248 -0.006578 -1112150.000000 0 0 1
-27.891340 -3.884162 22.111001 35.803769 0.138371 0.905159 0.030736 -0.003177 -1422950.000000 0 0 1
-27.479270 -2.638462 21.691201 35.108118 0.095723 0.904804 0.029520 -0.001092 -958873.000000 0 0 1
-26.053700 -2.652462 21.209001 33.699444 0.101458 0.890070 0.017453 0.009942 -933694.000000 0 0 1
-25.783170 -3.513662 20.091401 32.875250 0.135443 0.913295 0.024313 0.012295 39166.100000 0 0 1
-24.631570 -3.096162 19.372501 31.489589 0.125043 0.908152 0.015501 0.011818 24202.600000 0 0 1
-24.345770 -3.905862 18.046101 30.555425 0.159077 0.938991 0.021431 0.006261 -354566.000000 0 0 1
-25.179420 -3.546262 16.974801 30.573240 0.139919 0.982172 0.016210 0.012009 120764.000000 0 0 1
-24.878570 -4.280962 15.803201 29.782730 0.170405 1.011469 0.024615 0.002639 -587601.000000 0 0 1
-26.029930 -4.337662 14.826501 30.268758 0.165124 1.058903 0.018372 -0.001124 -437219.000000 0 0 1
-26.224720 -3.213862 13.966701 29.885340 0.121943 1.084513 0.023886 -0.002062 159546.000000 0 0 1
-27.574880 -3.248762 13.534701 30.888778 0.117275 1.117229 0.017889 -0.005217 197900.000000 0 0 1
-27.891610 -2.002762 12.692201 30.709036 0.071682 1.144716 0.018106 0.010867 -80369.000000 0 0 1
-27.463510 -2.074862 11.322201 29.778208 0.075407 1.180765 0.019742 0.002358 288052.000000 0 0 1
-27.738340 -0.818162 10.665301 29.729338 0.029487 1.203871 0.015776 0.013068 -326491.000000 0 0 1
-29.031580 -0.781162 9.843601 30.664953 0.026901 1.244006 0.000229 0.021552 -211197.000000 0 0 1
-28.952660 -1.535662 8.630601 30.250654 0.052991 1.281474 -0.008150 0.009521 -13755.500000 0 0 1
-30.209920 -1.613762 7.993301 31.291154 0.053368 1.312484 -0.001312 0.011241 -186607.000000 0 0 1
-30.357350 -2.406462 6.654001 31.171068 0.079106 1.355674 -0.001062 0.008820 -403638.000000 0 0 1
-29.843260 -1.674062 5.531801 30.397754 0.056036 1.387796 0.006999 0.001978 -154007.000000 0 0 1
-30.743040 -0.722762 5.117601 31.174456 0.023505 1.405890 0.006919 0.007613 -694452.000000 0 0 1
-30.386420 0.025038 3.803601 30.623561 -0.000824 1.446270 0.003720 0.004088 -75140.300000 0 0 1
-30.683460 -0.643262 2.611601 30.801119 0.020961 1.485905 0.003961 -0.004160 171004.000000 0 0 1
-30.109900 0.066238 1.533401 30.148993 -0.002200 1.519914 0.005967 -0.007529 -125796.000000 0 0 1
-30.640980 -0.460562 0.167901 30.644901 0.015030 1.565317 0.016323 -0.007556 23044.400000 0 0 1
-32.030330 -0.248062 0.062001 32.031350 0.007744 1.568861 0.015510 -0.002877 -10515.200000 0 0 1
-32.623200 -0.929462 -1.022199 32.652442 0.028483 1.602107 0.021783 -0.005620 -122241.000000 0 0 1
-34.141684 -0.697562 -1.121299 34.167214 0.020429 1.603620 0.021776 -0.006345 -35223.100000 0 0 1
-34.833038 -1.470962 -0.135699 34.864347 0.042204 1.574689 0.016834 -0.005106 1811560.000000 0 0 1
33.722306 -1.463562 -0.198299 33.754634 -0.043373 1.576671 0.024177 -0.005779 1585570.000000 0 0 1
33.054146 -2.685762 0.435401 33.165939 -0.081075 1.557668 0.024937 -0.014909 -498721.000000 0 0 1
33.339126 -2.970562 1.809001 33.520055 -0.088867 1.516802 0.021089 -0.016681 359470.000000 0 0 1
32.532976 -4.048362 2.244901 32.860666 -0.123802 1.502427 0.023223 -0.010370 -482549.000000 0 0 1
32.674666 -4.471162 3.727401 33.189134 -0.135994 1.458251 0.026618 -0.006057 -231406.000000 0 0 1
32.296576 -3.429162 4.582801 32.799849 -0.105781 1.430618 0.021776 -0.008853 307351.000000 0 0 1
32.363116 -3.871362 5.956501 33.133648 -0.119057 1.390042 0.023856 -0.009437 -277067.000000 0 0 1
31.802626 -2.823962 6.973101 32.680360 -0.088564 1.355770 0.024313 -0.003648 1489420.000000 0 0 1
30.362946 -2.603962 6.908001 31.247554 -0.085552 1.347881 0.020081 -0.002360 1407160.000000 0 0 1
30.037436 -1.360462 7.402301 30.965989 -0.045261 1.329413 0.019947 0.005056 -105511.000000 0 0 1
28.588626 -1.293662 7.945101 29.700299 -0.045220 1.299989 0.014780 0.006455 -94503.600000 0 0 1
27.657436 -1.028362 6.874201 28.517468 -0.037165 1.327346 0.012697 -0.002409 813331.000000 0 0 1
26.294696 -1.144162 7.286901 27.309689 -0.043486 1.300700 0.010193 0.009356 547893.000000 0 0 1
25.750316 -2.594162 7.211301 26.866547 -0.100404 1.299052 0.016612 -0.000604 -959257.000000 0 0 1
26.323076 -3.490362 8.145501 27.774740 -0.131828 1.273151 0.006682 -0.000941 476715.000000 0 0 1
25.733376 -4.776962 7.916201 27.343962 -0.183544 1.277087 0.021134 -0.013937 -265203.000000 0 0 1
25.868456 -5.897762 8.987301 28.013072 -0.224159 1.244196 0.011688 -0.005911 -361171.000000 0 0 1
25.098086 -5.623062 10.141201 27.647364 -0.220404 1.195224 0.015547 0.002906 349026.000000 0 0 1
25.488016 -6.471862 11.175501 28.572991 -0.248663 1.168947 0.008674 0.004923 282228.000000 0 0 1
24.490766 -6.445562 12.425401 28.208749 -0.257348 1.114663 -0.000908 0.005332 373820.000000 0 0 1
23.241666 -6.934362 12.008301 27.063993 -0.289951 1.111073 0.005477 -0.005053 -111054.000000 0 0 1
22.324666 -6.928562 13.120201 26.805510 -0.300929 1.059327 0.023786 -0.004041 423462.000000 0 0 1
21.336766 -8.120462 13.047701 26.295285 -0.363658 1.051581 0.026248 -0.005070 -167554.000000 0 0 1
21.760566 -9.272362 13.733701 27.351663 -0.402809 1.044753 0.016114 -0.007380 -132214.000000 0 0 1
20.705866 -10.169762 14.013201 26.991235 -0.456546 1.024910 0.033218 -0.023186 -393419.000000 0 0 1
21.045066 -11.393162 14.870701 28.175108 -0.496193 1.014793 0.026080 -0.010093 -598096.000000 0 0 1
21.395366 -11.014362 16.198101 29.007867 -0.475418 0.978336 0.034139 -0.010686 156649.000000 0 0 1
21.795966 -12.164862 16.872801 30.128714 -0.509059 0.976382 0.024992 -0.006350 -817760.000000 0 0 1
21.735766 -12.088562 18.398701 30.936856 -0.507560 0.933882 0.037246 -0.002315 60767.000000 0 0 1
20.389866 -11.923562 18.794001 30.184971 -0.529152 0.898700 0.046534 -0.009376 -30545.000000 0 0 1
20.301166 -12.057962 20.238801 31.098888 -0.535962 0.862174 0.084266 -0.008809 263192.000000 0 0 1
20.869566 -11.003862 21.214001 31.727868 -0.485224 0.838440 0.047648 0.001424 -219751.000000 0 0 1
20.071666 -9.865962 21.341301 30.913753 -0.456854 0.808824 0.066347 0.002475 -85634.200000 0 0 1
20.521566 -8.775862 20.533601 30.327862 -0.404105 0.827044 0.050530 0.007885 -716421.000000 0 0 1
21.690766 -7.890062 21.136001 31.296533 -0.348873 0.829362 0.030212 0.016224 515579.000000 0 0 1
22.977766 -8.426362 21.133801 32.336030 -0.351490 0.858507 0.022331 0.020152 -440649.000000 0 0 1
23.442666 -8.603062 19.815501 31.878290 -0.351724 0.900014 0.013267 0.011210 -1185460.000000 0 0 1
24.797166 -9.358862 19.671001 33.006606 -0.360888 0.932321 -0.039755 0.017886 149486.000000 0 0 1
24.658566 -10.598762 20.270201 33.634204 -0.405947 0.923958 -0.026380 0.017423 800807.000000 0 0 1
25.769556 -11.498462 20.082101 34.634888 -0.419692 0.952285 -0.027902 0.014253 402103.000000 0 0 1
25.445846 -12.876062 20.653001 35.211227 -0.468451 0.944009 -0.049385 0.014180 -621727.000000 0 0 1
24.370466 -13.399462 19.952801 34.228343 -0.502708 0.948464 0.007321 -0.003001 -406343.000000 0 0 1
24.316466 -14.817762 20.131401 34.873054 -0.547282 0.955407 0.008438 0.000064 447421.000000 0 0 1
23.055766 -15.503862 19.499101 33.943380 -0.591996 0.958853 0.035697 -0.007091 419678.000000 0 0 1
23.309666 -15.602262 18.076101 33.369395 -0.589856 0.998342 0.008890 -0.009865 135391.000000 0 0 1
22.272766 -16.125962 17.291101 32.482379 -0.626667 1.009455 0.000167 -0.016732 -210355.000000 0 0 1
22.025766 -17.675062 17.431101 33.187128 -0.676246 1.017803 0.001389 -0.019784 -164232.000000 0 0 1
23.167066 -18.349062 16.973201 34.080648 -0.669864 1.049470 0.007907 -0.013923 63358.300000 0 0 1
22.992166 -19.702562 17.385601 34.915466 -0.708501 1.049581 0.014862 -0.016664 -677974.000000 0 0 1
24.175866 -20.590662 17.126301 36.079884 -0.705482 1.076199 0.005606 -0.016869 -835891.000000 0 0 1
24.456466 -20.725262 15.768301 35.725265 -0.703003 1.113664 0.001693 -0.022059 -104899.000000 0 0 1
25.434876 -21.723462 15.567301 36.894208 -0.706859 1.135208 0.000147 -0.030628 -357646.000000 0 0 1
25.754736 -21.662562 14.049401 36.468599 -0.699310 1.175321 -0.001348 -0.028650 -561684.000000 0 0 1
24.651566 -22.056062 13.288301 35.647560 -0.729886 1.188805 -0.018591 -0.012172 -254656.000000 0 0 1
24.848766 -21.910162 11.900101 35.201261 -0.722635 1.225943 -0.007817 -0.013238 -449968.000000 0 0 1
23.615366 -22.087662 11.016501 34.160118 -0.751984 1.242431 -0.036305 0.009984 52124.400000 0 0 1
22.959466 -23.381262 10.971901 34.557244 -0.794500 1.247705 -0.040374 0.009244 626481.000000 0 0 1
21.722566 -23.358562 10.259301 33.507396 -0.821672 1.259618 -0.050567 0.019193 359990.000000 0 0 1
21.685766 -24.173762 8.974501 33.692505 -0.839598 1.301177 -0.047194 0.020563 -355668.000000 0 0 1
21.801366 -25.582242 9.197101 34.847344 -0.865022 1.303707 -0.040635 0.023972 -30836.400000 0 0 1
21.839166 -26.278332 7.969701 35.085838 -0.877395 1.341648 -0.030308 0.020050 -785647.000000 0 0 1
20.492766 -26.807812 7.400401 34.545306 -0.918122 1.354900 -0.019107 0.012531 46467.700000 0 0 1
19.590566 -25.754392 7.187401 33.147213 -0.920502 1.352227 -0.023145 0.016591 -55266.300000 0 0 1
18.291866 -26.139182 7.654301 32.809108 -0.960213 1.335328 -0.000303 0.001332 296634.000000 0 0 1
17.297566 -24.998162 7.653401 31.347862 -0.965491 1.324159 0.001823 0.001943 -585443.000000 0 0 1
16.986366 -24.397262 6.426301 30.414805 -0.962598 1.357903 0.012885 -0.000682 -198474.000000 0 0 1
16.284866 -23.215462 6.698901 29.138116 -0.959087 1.338820 0.025116 0.002805 -150847.000000 0 0 1
15.833366 -22.623462 5.334301 28.124212 -0.960161 1.379971 0.032269 0.001726 -286708.000000 0 0 1
15.188966 -21.381862 5.417401 26.781280 -0.953147 1.367108 0.050378 0.004697 -229444.000000 0 0 1
14.745466 -20.985562 4.170401 25.984896 -0.958295 1.409606 0.037865 0.006304 50112.600000 0 0 1
14.013266 -19.624262 4.093701 24.458980 -0.950684 1.402635 0.034718 0.020666 -73530.400000 0 1 0
14.819666 -18.581262 4.512301 24.191872 -0.897545 1.383176 0.029428 0.016892 47653.900000 0 1 0
14.208666 -17.319062 4.154101 22.783605 -0.883736 1.387442 0.018552 0.020590 -32313.500000 0 1 0
15.196766 -16.194562 4.289301 22.618657 -0.817173 1.380005 0.001814 0.018420 -699351.000000 0 1 0
15.589066 -15.862962 5.604301 22.936014 -0.794106 1.323952 0.001175 0.009318 -35705.800000 0 1 0
16.567666 -14.876762 5.806301 23.011274 -0.731676 1.315715 0.004303 0.001562 86675.900000 0 1 0
18.007166 -15.382062 5.643701 24.345785 -0.706938 1.336854 0.005521 -0.003058 208336.000000 0 1 0
19.097766 -14.469262 5.560901 24.596907 -0.648374 1.342743 0.016796 -0.007616 1170730.000000 0 1 0
20.413566 -15.038162 5.471701 25.938379 -0.634918 1.358250 0.016002 -0.005471 961581.000000 0 0 1
21.467866 -13.890362 5.344601 26.122332 -0.574285 1.364742 0.016323 -0.017917 -338886.000000 0 0 1
21.458166 -13.075362 6.444201 25.941197 -0.547260 1.319752 0.028885 -0.021108 270857.000000 0 0 1
22.363066 -11.998662 6.278301 26.143674 -0.492450 1.328280 0.029278 -0.025565 -5083.730000 0 0 1
22.478866 -11.299362 7.656201 26.298145 -0.465778 1.275388 0.035262 -0.024993 -215872.000000 0 0 1
23.016466 -12.057662 8.678101 27.394422 -0.482562 1.248460 0.031508 -0.008075 75076.500000 0 0 1
22.796666 -11.388362 9.897601 27.337617 -0.463298 1.200330 0.032906 -0.020695 -102249.000000 0 0 1
23.165566 -12.073062 11.246801 28.441041 -0.480435 1.164247 0.016018 -0.007027 -558448.000000 0 0 1
22.224366 -13.016362 11.644501 28.265572 -0.529823 1.146184 0.021359 -0.011937 98296.800000 0 0 1
22.704166 -13.888762 12.672501 29.478283 -0.548998 1.126422 0.018624 -0.004554 661267.000000 0 0 1
21.659966 -15.048462 13.040701 29.422274 -0.607200 1.111603 0.019276 -0.008180 768881.000000 0 0 1
20.567366 -14.599162 13.818801 28.759544 -0.617287 1.069578 0.012454 -0.010450 -61741.400000 0 0 1
19.719866 -15.688262 14.138701 28.894594 -0.672025 1.059487 0.000730 -0.014331 -103382.000000 0 0 1
18.392166 -15.177362 14.718601 28.022514 -0.689924 1.017797 0.004238 -0.016310 -760738.000000 0 0 1
18.533266 -14.796362 16.016801 28.617341 -0.673745 0.976786 0.004639 -0.011905 125196.000000 0 0 1
18.222666 -13.398162 16.214501 27.829595 -0.633992 0.948829 0.022581 -0.020564 -468851.000000 0 0 1
16.759966 -12.935362 16.316701 26.729287 -0.657308 0.914177 0.026661 -0.020719 -504957.000000 0 0 1
16.080366 -13.397862 15.137001 25.830402 -0.694649 0.944664 0.010518 -0.018432 -550499.000000 0 0 1
14.717666 -13.059162 15.124801 24.817555 -0.725761 0.915443 0.024469 -0.021541 -562.373000 0 1 0
14.283666 -11.596162 14.661701 23.525721 -0.681924 0.897943 0.014419 -0.013994 -269635.000000 0 1 0
14.754266 -10.583462 15.505401 23.877092 -0.622253 0.864022 0.018399 -0.009618 46056.200000 0 1 0
14.367666 -9.318562 15.031001 22.785882 -0.575375 0.850426 0.010997 -0.007168 -784209.000000 0 1 0
14.932866 -8.178962 15.956601 23.334503 -0.501088 0.817811 0.022750 -0.003480 884394.000000 0 1 0
16.363366 -8.086962 15.955401 24.243216 -0.459006 0.852452 0.031029 -0.012375 658840.000000 0 1 0
16.973966 -8.925862 16.901301 25.562483 -0.484118 0.848411 0.045873 -0.010820 -752599.000000 0 0 1
18.498966 -8.839162 16.970301 26.614538 -0.445746 0.879375 0.038731 -0.006858 -414353.000000 0 0 1
19.087166 -7.605962 17.313301 26.868587 -0.379200 0.870598 0.040837 -0.007099 -31646.100000 0 0 1
20.409166 -7.536862 16.836401 27.510048 -0.353754 0.912198 0.031732 0.004547 -101592.000000 0 0 1
21.032166 -6.142562 17.286201 27.908705 -0.284153 0.902839 0.035323 0.010793 -180511.000000 0 0 1
21.669766 -6.195262 18.517201 29.169278 -0.278466 0.883023 0.035865 0.007573 -26715.400000 0 0 1
21.911566 -4.914762 18.994401 29.411884 -0.220648 0.868717 0.027970 0.008059 -79682.500000 0 0 1
-5.389870 -33.549570 -6.807253 34.654914 1.411504 1.768512 -0.034387 0.004484 -190980.000000 0 0 1
-5.667470 -32.142070 -6.834953 33.345907 1.396265 1.777231 -0.030339 -0.003103 145977.000000 0 0 1
-5.378470 -31.494570 -5.590753 32.435974 1.401654 1.744024 -0.038012 0.003761 -581015.000000 0 0 1
-6.163070 -30.171770 -5.393753 31.263585 1.369302 1.744189 -0.012759 -0.003356 1865200.000000 0 0 1
-7.598670 -30.268270 -5.192253 31.636490 1.324835 1.735664 -0.000281 -0.003373 1557460.000000 0 0 1
-8.471470 -30.685770 -6.237053 32.438914 1.301434 1.764272 -0.004684 -0.003617 -1087620.000000 0 0 1
-9.884570 -30.282470 -5.930553 32.402225 1.255288 1.754863 0.019723 0.000424 -693060.000000 0 0 1
-10.856070 -30.684770 -6.890053 33.269839 1.230746 1.779402 0.019874 -0.004162 -148476.000000 0 0 1
-12.125770 -30.199370 -6.520053 33.189567 1.188977 1.768531 0.030251 -0.004580 383205.000000 0 0 1
-13.304870 -30.602870 -7.471753 34.196233 1.160689 1.791070 0.041160 -0.013547 405475.000000 0 0 1
-13.290270 -30.026170 -8.790853 33.992371 1.154094 1.832382 0.049051 -0.022131 30023.500000 0 0 1
-14.295170 -30.529070 -9.663853 35.068021 1.132872 1.849984 0.050447 -0.014751 -49657.800000 0 0 1
-14.571370 -29.496370 -10.834053 34.637225 1.111956 1.888922 0.050072 -0.015940 -355138.000000 0 0 1
-15.018470 -28.199970 -10.462553 33.619307 1.081433 1.887259 0.050749 -0.017091 29943.200000 0 0 1
-14.037070 -27.364870 -9.894753 32.307609 1.096835 1.882065 0.042283 -0.011656 -246898.000000 0 0 1
-14.437270 -25.884370 -9.804853 31.218112 1.062015 1.890279 0.049486 -0.005448 -88406.800000 0 0 1
-14.657670 -25.344970 -11.083053 31.305732 1.046466 1.932669 0.052060 -0.022072 244960.000000 0 0 1
-15.056670 -23.973470 -10.870753 30.324971 1.010003 1.937430 0.037647 -0.002682 -272267.000000 0 0 1
-15.623970 -23.215370 -12.061753 30.472081 0.978421 1.977767 0.048342 0.001847 507182.000000 0 0 1
-16.947070 -23.707070 -12.328053 31.641891 0.950171 1.971006 0.052191 0.002136 414719.000000 0 0 1
-17.473870 -23.290770 -13.539353 32.110904 0.927136 2.006053 0.061170 -0.008920 -1349700.000000 0 0 1
-18.873370 -23.780070 -13.741453 33.324516 0.899931 1.995831 0.039819 0.011994 -1135530.000000 0 0 1
-18.986870 -25.165370 -14.057653 34.516876 0.924432 1.990258 0.063003 0.008115 -15882.300000 0 0 1
-18.917870 -26.111970 -13.004453 34.768327 0.943822 1.954149 0.063306 0.000275 -819403.000000 0 0 1
-19.037570 -27.588770 -13.451053 36.117865 0.966781 1.952413 0.061501 -0.001398 22639.800000 0 0 1
-18.073570 -28.211070 -14.281853 36.421007 1.001018 1.973745 0.070922 -0.011037 1584050.000000 0 0 1
-16.678770 -28.177770 -13.845353 35.550835 1.036345 1.970833 0.073975 -0.017541 1252020.000000 0 0 1
-15.911270 -29.455770 -14.161353 36.350445 1.075528 1.970970 0.062722 -0.018171 -257021.000000 0 0 1
-15.948170 -29.730470 -15.571953 37.158185 1.078435 2.003219 0.061571 -0.018513 -56192.100000 0 0 1
-15.252070 -30.888170 -15.936553 37.956270 1.112134 2.004094 0.056178 -0.011769 -3703.610000 0 0 1
-16.003570 -32.191770 -15.540053 39.165260 1.109445 1.978804 0.045410 -0.014712 3100.040000 0 0 1
-16.175770 -32.365770 -14.168153 38.857884 1.107325 1.944015 0.046914 -0.013633 32118.700000 0 0 1
-16.276470 -33.761770 -13.825853 39.949153 1.121573 1.924193 0.032614 -0.008534 -1438450.000000 0 0 1
-16.863470 -33.959670 -12.393653 39.890330 1.109894 1.886719 0.037307 -0.021995 1233850.000000 0 0 1
-18.264870 -33.662970 -12.152453 40.180632 1.073667 1.878054 0.039639 -0.012007 1401930.000000 0 0 1
-18.750270 -32.334570 -12.292053 39.347066 1.045300 1.888516 0.043398 -0.013941 -575624.000000 0 0 1
-18.229470 -31.266170 -11.310053 37.918390 1.042940 1.873680 0.055613 -0.011953 -262667.000000 0 0 1
-18.411270 -31.791670 -9.954053 38.062690 1.045869 1.835390 0.036880 -0.017471 213653.000000 0 0 1
-18.228970 -30.706170 -9.046653 36.837565 1.035053 1.818917 0.047205 -0.008256 56667.400000 0 0 1
-18.409870 -31.105170 -7.541853 36.923360 1.036384 1.776501 0.038959 -0.000476 -391319.000000 0 0 1
-17.271770 -31.702670 -7.025153 36.779425 1.071950 1.762985 0.039986 -0.012174 -434558.000000 0 0 1
-17.471270 -32.169670 -5.703253 37.049427 1.073268 1.725347 0.054728 -0.018209 38891.900000 0 0 1
-16.230670 -32.974370 -5.226753 37.122267 1.113391 1.712064 0.051142 -0.018104 585120.000000 0 0 1
-15.090970 -32.181670 -4.920253 35.883230 1.132312 1.708348 0.060287 -0.013115 217739.000000 0 0 1
-14.969070 -31.919170 -3.568953 35.435066 1.132281 1.671685 0.039704 -0.011938 -318790.000000 0 0 1
-13.700370 -31.167670 -3.122353 34.188783 1.156650 1.662251 0.055550 -0.013247 771418.000000 0 0 1
-12.501470 -31.962270 -3.194653 34.468526 1.197958 1.663613 0.013734 0.001625 -166700.000000 0 0 1
-11.431770 -31.352870 -2.546453 33.468975 1.221160 1.646954 0.012734 0.004819 -224984.000000 0 0 1
-10.180970 -32.251870 -2.652253 33.924471 1.265025 1.649057 0.021098 0.006268 -551378.000000 0 0 1
-10.167770 -33.339070 -1.738053 34.898395 1.274776 1.620620 0.016178 0.013820 -33856.500000 0 0 1
-8.921570 -34.024870 -1.707753 35.216511 1.314362 1.619308 -0.026062 0.015521 409413.000000 0 0 1
-7.854670 -33.323570 -0.829853 34.246822 1.339312 1.595030 -0.025498 0.011195 -805737.000000 0 0 1
-8.349570 -33.010370 0.469447 34.053197 1.323055 1.557010 -0.007216 0.008145 154551.000000 0 0 1
-7.358870 -32.748770 1.469447 33.597533 1.349761 1.527046 -0.002951 0.005058 187144.000000 0 0 1
-6.613770 -33.975870 1.990747 34.670806 1.378540 1.513346 -0.003975 -0.000791 -173205.000000 0 0 1
-7.415970 34.538138 2.864247 35.441268 -1.359289 1.489891 0.015693 -0.006130 340142.000000 0 0 1
-6.660970 33.498638 3.481647 34.331460 -1.374514 1.469209 0.023177 -0.008730 -60714.700000 0 0 1
-5.748870 33.937838 4.658347 34.735091 -1.402995 1.436280 0.030529 -0.013420 -512411.000000 0 0 1
-4.689670 -34.607370 4.239747 35.180087 1.436106 1.449987 0.009836 -0.010428 -841527.000000 0 0 1
-3.870870 -34.243470 5.341347 34.873040 1.458234 1.417026 0.000431 -0.015760 360421.000000 0 0 1
-2.749270 -33.224270 5.073247 33.721632 1.488236 1.419778 0.015553 -0.008942 -31937.900000 0 0 1
-3.249470 -31.986170 4.646447 32.484822 1.469554 1.427270 0.008169 -0.001935 231553.000000 0 0 1
-3.725070 -31.866570 3.280847 32.250867 1.454429 1.468891 -0.005467 -0.009328 91821.400000 0 0 1
-4.176370 -30.396770 3.004947 30.829133 1.434256 1.473170 -0.002921 -0.011432 451958.000000 0 0 1
-3.077370 -29.527770 2.736247 29.813529 1.466952 1.478888 0.000188 0.004732 35323.500000 0 0 1
-3.565670 -28.359670 2.177347 28.665759 1.445722 1.494767 -0.002863 -0.000603 196691.000000 0 0 1
-2.686770 -27.125670 2.445747 27.367908 1.472069 1.481311 0.000682 -0.001938 -245499.000000 0 0 1
-3.081570 -26.035470 1.609047 26.266534 1.452984 1.509499 0.008009 -0.004275 -257762.000000 0 0 1
-2.778070 -24.813670 2.159947 25.061949 1.459303 1.484505 0.002924 -0.006930 657138.000000 0 0 1
-3.847770 -24.301170 3.227247 24.814660 1.413763 1.440373 -0.009616 -0.004981 662606.000000 0 1 0
-3.825870 -24.934070 4.472047 25.619219 1.418544 1.395339 0.004295 -0.006346 -834037.000000 0 0 1
-4.823670 -24.496370 5.301047 25.523343 1.376370 1.361579 -0.006264 -0.001184 -625395.000000 0 0 1
-5.413070 -25.605370 6.263347 26.910330 1.362460 1.335893 -0.003314 -0.001305 3541.540000 0 0 1
-4.609470 -26.030770 7.342147 27.436387 1.395535 1.299889 -0.002670 -0.005584 -83522.300000 0 0 1
-5.442370 -26.700570 8.233347 28.466258 1.369721 1.277372 -0.005394 -0.001613 335935.000000 0 0 1
-4.600070 -27.045070 9.501147 29.032194 1.402320 1.237391 -0.008844 0.000655 713381.000000 0 0 1
-4.109070 -26.036470 10.398447 28.335666 1.414268 1.195043 -0.007900 -0.000305 479641.000000 0 0 1
-5.212470 -25.412170 11.045847 28.195017 1.368485 1.168246 -0.013879 0.001368 471024.000000 0 0 1
-4.759070 -24.618670 12.254247 27.908677 1.379840 1.116218 -0.024163 -0.000244 220930.000000 0 0 1
-4.120970 -25.297470 13.309347 28.880497 1.409314 1.091853 -0.017739 0.002968 -278997.000000 0 0 1
-3.782470 -24.381270 14.367347 28.551254 1.416885 1.043484 -0.019613 -0.002119 -14145.100000 0 0 1
-2.671370 -24.996870 15.227047 29.391201 1.464332 1.026190 -0.027192 -0.001688 155006.000000 0 0 1
-3.158770 -25.910970 16.231047 30.737650 1.449486 1.014492 -0.022096 -0.001916 -266105.000000 0 0 1
-2.061770 -26.334870 16.984447 31.404582 1.492665 0.999376 -0.030482 -0.001096 -122903.000000 0 0 1
-2.433070 -26.972970 18.355547 32.716771 1.480836 0.975150 -0.027261 0.001648 1164.340000 0 0 1
-2.753470 -25.985470 19.327747 32.502124 1.465228 0.933952 -0.008758 -0.002558 -137250.000000 0 0 1
-2.554970 -26.435870 20.677547 33.659235 1.474448 0.909272 -0.006814 -0.002181 36540.900000 0 0 1
-2.829570 -25.276370 21.625547 33.385112 1.459315 0.866156 0.016025 -0.007562 -43092.700000 0 0 1
-2.425170 -25.563970 22.933747 34.428982 1.476213 0.841805 -0.005895 -0.009817 -191470.000000 0 0 1
-2.615870 -24.488670 23.852047 34.284952 1.464380 0.801402 0.007990 -0.013478 -159536.000000 0 0 1
-1.690270 -23.260270 23.762947 33.295268 1.498256 0.776025 0.003989 -0.011355 -160019.000000 0 0 1
-1.982170 -22.346370 22.735447 31.940411 1.482326 0.778727 0.020146 -0.005678 -275674.000000 0 0 1
-0.989270 -21.342470 22.668247 31.150107 1.524477 0.755819 0.011854 -0.000751 -627703.000000 0 0 1
-1.317370 -20.079070 21.788947 29.659109 1.505281 0.745652 0.007383 0.012842 -643831.000000 0 0 1
-2.149770 -19.182670 22.439847 29.599715 1.459194 0.710386 0.006707 0.000127 444908.000000 0 0 1
-3.533370 -19.505670 22.619347 30.076415 1.391594 0.719610 0.028104 -0.003203 462064.000000 0 0 1
-4.502170 -19.393970 21.374547 29.210733 1.342694 0.749931 0.040005 -0.006489 -213278.000000 0 0 1
-4.345870 -20.388570 20.334647 29.121784 1.360787 0.797829 0.032657 -0.009495 156162.000000 0 0 1
-4.943370 -21.684470 20.550347 30.281512 1.346659 0.824882 0.036875 -0.011988 115749.000000 0 0 1
-4.894570 -22.594370 19.313547 30.124334 1.357465 0.874829 0.024697 -0.004390 -133039.000000 0 0 1
-5.705570 -23.748870 19.346147 31.158238 1.335019 0.900906 0.022418 -0.012861 -276690.000000 0 0 1
-5.605970 -24.604670 18.168647 31.095280 1.346779 0.946792 0.026376 -0.007368 -242648.000000 0 0 1
-6.395470 -25.879570 18.272047 32.319064 1.328526 0.969921 -0.003362 -0.015759 -425241.000000 0 0 1
-7.785270 -25.775870 18.171947 32.484236 1.277472 0.977125 0.008335 -0.016152 -905937.000000 0 0 1
-8.269970 -27.035570 17.801847 33.409882 1.273943 1.008853 0.007911 -0.016524 -784425.000000 0 0 1
-9.770170 -27.156270 17.972047 33.998731 1.225439 1.013835 0.020880 -0.020515 -1409240.000000 0 0 1
-10.498270 -26.533570 16.950647 33.189885 1.194037 1.034777 0.032543 -0.016689 -224028.000000 0 0 1
-11.903270 -26.551470 17.077847 33.739017 1.149349 1.040052 0.024840 -0.013148 566557.000000 0 0 1
-12.531570 -25.716370 18.262447 33.939489 1.117361 1.002629 0.027923 -0.005353 -664896.000000 0 0 1
-12.345170 -24.331070 18.061047 32.720111 1.101260 0.986052 0.014069 -0.006745 324469.000000 0 0 1
-13.024270 -23.574870 19.057647 32.993940 1.066063 0.954998 0.006919 0.003458 547319.000000 0 0 1
-11.957770 -22.727370 19.860647 32.464857 1.086456 0.912515 -0.011649 -0.002617 1020950.000000 0 0 1
-11.122470 -23.502570 20.720847 33.248063 1.128781 0.897943 -0.000942 -0.008023 -3125.370000 0 0 1
-9.760470 -23.451470 20.369347 32.559923 1.176404 0.894901 0.032209 -0.015120 296489.000000 0 0 1
-8.806670 -24.382070 21.183047 33.477818 1.224184 0.885699 0.024109 -0.022989 378023.000000 0 0 1
-8.595370 -23.987770 22.540747 34.020271 1.226726 0.846554 0.030448 -0.019358 18983.600000 0 0 1
-7.633870 -24.816770 23.166647 34.797150 1.272373 0.842281 0.025732 -0.009722 150910.000000 0 0 1
-7.565070 -24.586270 24.679247 35.648005 1.272295 0.806120 0.031133 -0.007918 209742.000000 0 0 1
-6.530870 -25.352370 25.308547 36.413150 1.318674 0.802323 0.027935 -0.009127 196194.000000 0 0 1
-6.393170 -24.999670 26.677547 37.115329 1.320432 0.768759 0.034481 -0.009866 386721.000000 0 0 1
-5.151970 -25.569670 27.472047 37.882242 1.371971 0.759477 0.023316 -0.013424 315405.000000 0 0 1
-3.983670 -24.847870 27.192447 37.050175 1.411827 0.746698 0.029400 -0.014093 -842509.000000 0 0 1
-3.036270 -25.000870 28.193347 37.803800 1.449942 0.729090 0.022019 -0.013612 206162.000000 0 0 1
-1.643370 -24.383470 27.870147 37.067498 1.503501 0.719894 0.007753 -0.012487 -21713.800000 0 0 1
-1.744570 -22.925170 27.789347 36.067365 1.494844 0.691195 0.014966 -0.013204 -586086.000000 0 0 1
-0.583370 -22.284570 27.388347 35.313793 1.544624 0.683177 0.015634 -0.014043 -116861.000000 0 0 1
0.503730 -22.037670 28.494347 36.025553 -1.547943 0.658439 0.015372 -0.019347 -203713.000000 0 0 1
1.204530 -23.203370 28.739947 36.957163 -1.518931 0.679868 0.010248 -0.012705 -404769.000000 0 0 1
2.027430 -23.052470 29.860247 37.777788 -1.483074 0.659305 0.012088 -0.013558 -137666.000000 0 0 1
2.649230 -24.355570 30.404047 39.046361 -1.462449 0.678261 0.015358 -0.020438 -226779.000000 0 0 1
3.589530 -24.962770 29.515647 38.822649 -1.427980 0.707070 0.014529 -0.020601 139788.000000 0 0 1
4.367430 -25.922870 30.128147 39.984684 -1.403886 0.717439 -0.007978 -0.009934 -887237.000000 0 0 1
5.694130 -25.411570 30.775947 40.315381 -1.350361 0.702267 -0.007027 -0.012255 319074.000000 0 0 1
6.665330 -24.840970 29.891547 39.433552 -1.308651 0.710519 -0.019512 -0.003988 539651.000000 0 0 1
7.155030 -25.766270 28.894847 39.370133 -1.299931 0.746709 -0.014630 0.000469 -1075430.000000 0 0 1
8.386930 -25.273670 28.124647 38.731057 -1.250386 0.758087 -0.017162 0.000261 -96720.800000 0 0 1
8.050130 -24.201470 27.211647 37.295972 -1.249679 0.753040 -0.002535 -0.001953 51605.700000 0 0 1
9.031930 -24.086570 26.229747 36.738785 -1.212045 0.775669 -0.023302 0.001727 -86328.800000 0 0 1
8.678830 -22.797870 25.397947 35.215348 -1.207050 0.765237 -0.011947 0.009574 89820.400000 0 0 1
7.832830 -23.055570 24.317247 34.412804 -1.243294 0.786067 -0.008391 0.010052 -279651.000000 0 0 1
7.495430 -21.895370 23.554247 33.021073 -1.240971 0.776587 -0.015385 0.023084 173634.000000 0 0 1
6.724630 -22.244470 22.207347 32.143481 -1.277226 0.808088 0.011447 0.023553 478587.000000 0 0 1
7.507930 -23.088170 21.366847 32.341534 -1.256397 0.849095 0.003590 0.027655 371630.000000 0 0 1
6.833130 -23.210570 20.117447 31.466394 -1.284487 0.877168 0.010009 0.015528 191059.000000 0 0 1
7.582830 -24.188370 19.204947 31.802619 -1.267009 0.922437 0.020453 0.005632 -991344.000000 0 0 1
8.875830 -23.865070 18.904347 31.712715 -1.214731 0.932146 0.021503 -0.003717 -1590860.000000 0 0 1
9.240930 -24.505770 17.742147 31.634022 -1.210193 0.975376 0.036462 -0.014305 -1546620.000000 0 0 1
10.593230 -24.179170 17.250347 31.534478 -1.157871 0.991983 0.025269 -0.016143 -1432150.000000 0 0 1
10.660130 -23.043770 16.449147 30.252738 -1.137511 0.995928 0.023612 -0.011816 -187529.000000 0 0 1
12.003030 -22.824770 16.076647 30.389167 -1.086662 1.013344 0.033146 -0.023238 -71283.200000 0 0 1
-11.941470 22.469038 11.617547 27.971839 -1.082296 1.142491 0.009053 0.004947 -268881.000000 0 0 1
-12.971970 21.689938 11.064947 27.589101 -1.031802 1.158120 0.002459 0.001746 124377.000000 0 0 1
-12.493370 20.453638 10.542247 26.183479 -1.022463 1.156408 0.018506 -0.003289 140822.000000 0 0 1
-13.527970 19.907138 9.540747 25.890654 -0.973925 1.193400 0.023206 -0.000967 -286025.000000 0 0 1
-13.625370 20.640938 8.310747 26.091522 -0.987344 1.246626 0.020258 -0.003155 3003.210000 0 0 1
-14.378870 20.042538 7.269547 25.715784 -0.948476 1.284201 0.022390 -0.007382 513748.000000 0 0 1
-15.927670 20.028938 7.393247 26.636613 -0.898969 1.289543 0.001401 -0.001784 40620.500000 0 0 1
-16.381670 19.067138 8.322347 26.479734 -0.861010 1.251086 -0.004742 -0.005269 482981.000000 0 0 1
-17.727370 19.159638 8.790447 27.543118 -0.824207 1.245962 0.009349 -0.002553 469503.000000 0 0 1
-18.134470 18.050638 9.769547 27.388475 -0.783081 1.206060 -0.007593 -0.001807 -49033.800000 0 0 1
-18.204470 16.837238 9.178147 26.441136 -0.746401 1.216302 -0.012697 0.006226 456774.000000 0 0 1
-18.971270 15.922338 9.951847 26.692119 -0.698242 1.188730 -0.000744 -0.000215 -119053.000000 0 0 1
-18.065470 15.125238 10.943047 25.978536 -0.697043 1.135991 0.007109 0.002889 559813.000000 0 0 1
-17.045970 14.359338 10.300847 24.553271 -0.700059 1.137868 -0.013495 0.013469 406783.000000 0 1 0
-16.310070 13.461238 11.124447 23.895117 -0.689998 1.086537 -0.013527 0.009451 360367.000000 0 1 0
-17.147870 12.361238 11.887647 24.252130 -0.624590 1.058512 -0.009166 0.006107 -8744.590000 0 1 0
-17.855870 11.542438 11.005947 23.941404 -0.573856 1.093135 -0.017943 0.006596 -339787.000000 0 1 0
-18.823070 10.791838 11.675247 24.639057 -0.520579 1.077137 -0.004387 0.003330 -190248.000000 0 1 0
-19.658670 9.761338 10.863647 24.490117 -0.460877 1.111192 0.000069 0.005132 -197353.000000 0 1 0
-18.893070 8.793138 10.162447 23.184967 -0.435600 1.117067 -0.015263 0.008479 209524.000000 0 1 0
-18.417470 9.213238 8.912347 22.439182 -0.463843 1.162357 -0.000386 0.010412 -333550.000000 0 1 0
-19.487670 9.551738 7.823447 23.069705 -0.455731 1.224813 0.005048 0.010468 188030.000000 0 1 0
-19.929770 8.434838 7.050547 22.760765 -0.400369 1.255848 -0.015182 0.000464 127649.000000 0 1 0
-20.878670 8.921638 6.141747 23.520960 -0.403825 1.306616 -0.001425 0.007566 -124745.000000 0 1 0
-21.472170 7.794838 5.252547 23.439344 -0.348227 1.344786 0.032501 0.010153 -163073.000000 0 1 0
-22.217670 6.867538 6.004447 24.017521 -0.299787 1.318113 0.029308 0.004885 306232.000000 0 1 0
-21.831470 5.499938 5.720747 23.229062 -0.246792 1.321961 0.025805 0.006120 -426958.000000 0 1 0
-22.880470 4.397338 6.071647 24.077321 -0.189872 1.315871 0.038951 0.006499 395245.000000 0 1 0
-23.963370 4.521838 5.121447 24.918253 -0.186505 1.363791 0.027060 0.004721 320448.000000 0 1 0
-24.779070 3.396938 5.297547 25.565709 -0.136240 1.362071 0.039410 -0.000581 -570424.000000 0 0 1
-25.841260 3.314738 4.180947 26.386332 -0.127576 1.411674 0.038328 -0.002313 -688572.000000 0 0 1
-25.338320 3.212038 2.875947 25.702504 -0.126093 1.458668 0.038778 -0.003981 103710.000000 0 0 1
-26.374380 3.047438 1.934247 26.620220 -0.115035 1.498071 0.041495 -0.004473 -315012.000000 0 0 1
-25.965950 3.112338 0.431447 26.155369 -0.119293 1.554300 0.055218 -0.007819 -139292.000000 0 0 1
-25.484210 4.376538 -0.036153 25.857307 -0.170076 1.572194 0.057302 -0.012445 442732.000000 0 0 1
-25.578350 4.537738 -1.483753 26.020080 -0.175579 1.627851 0.077388 -0.004932 489345.000000 0 0 1
-26.939590 5.222338 -1.873753 27.505004 -0.191479 1.638973 0.081625 -0.012632 838406.000000 0 0 1
-28.049480 4.352638 -1.747053 28.438899 -0.153949 1.632267 0.062484 -0.015994 1110160.000000 0 0 1
-29.296310 4.995238 -2.124653 29.794971 -0.168883 1.642166 0.037580 -0.003806 975109.000000 0 0 1
-30.419670 3.966438 -2.384553 30.769710 -0.129659 1.648371 0.029705 -0.000573 -416942.000000 0 0 1
-30.241170 3.189838 -3.562153 30.616864 -0.105091 1.687407 0.018879 0.002452 494396.000000 0 0 1
-31.184800 2.125238 -3.625953 31.466743 -0.068045 1.686284 0.031672 -0.001318 63474.100000 0 0 1
-31.240720 1.465838 -5.040653 31.678691 -0.046886 1.730594 0.030172 -0.003253 516548.000000 0 0 1
-30.039500 0.766038 -5.469353 30.542956 -0.025495 1.750838 0.043682 -0.005410 1052870.000000 0 0 1
-30.062200 0.047438 -6.748953 30.810493 -0.001578 1.791634 0.050652 -0.002089 -319021.000000 0 0 1
-30.365600 0.910138 -8.016653 31.419178 -0.029964 1.828801 0.037029 0.001540 -28196.800000 0 0 1
-31.734340 1.261638 -8.136653 32.785136 -0.039735 1.821599 0.024734 -0.000907 514871.000000 0 0 1
-31.934850 2.136438 -9.249453 33.315933 -0.066800 1.852121 0.027178 -0.000730 132348.000000 0 0 1
-33.445950 2.487738 -9.263653 34.794190 -0.074244 1.840288 0.028192 -0.002351 220266.000000 0 0 1
-33.858860 3.293238 -8.134753 34.977736 -0.096959 1.805515 0.008379 0.008488 97364.400000 0 0 1
34.765547 3.147938 -7.916253 35.794132 0.090301 1.793801 0.011314 0.013743 -78129.600000 0 0 1
34.475894 3.939038 -6.624853 35.326930 0.113762 1.759443 0.017825 0.005679 -180390.000000 0 0 1
33.085096 4.173438 -6.626253 33.999241 0.125480 1.766946 0.031250 -0.011719 189335.000000 0 0 1
32.580986 4.723038 -5.426553 33.365779 0.143960 1.734160 0.024665 -0.008166 -328122.000000 0 0 1
31.287586 4.087638 -4.937453 31.937443 0.129911 1.726016 0.030200 -0.011606 -452357.000000 0 0 1
31.421356 2.807838 -4.358153 31.846179 0.089124 1.708077 0.032035 -0.016153 -128547.000000 0 0 1
30.161576 2.179038 -4.368553 30.554102 0.072120 1.714266 0.033741 -0.017201 -337927.000000 0 0 1
30.180386 0.777638 -3.642953 30.409399 0.025761 1.690882 0.037156 -0.009137 -565349.000000 0 0 1
30.903796 -0.184762 -4.294653 31.201327 -0.005979 1.708878 0.030065 -0.013535 -121922.000000 0 0 1
30.811156 -1.394362 -3.590253 31.050950 -0.045224 1.686680 0.029720 -0.007891 -102336.000000 0 0 1
31.978336 -2.336862 -3.934353 32.304087 -0.072947 1.692891 0.035514 -0.009469 -46164.500000 0 0 1
31.959886 -3.606562 -3.281853 32.329742 -0.112371 1.672483 0.024548 -0.003765 -635323.000000 0 0 1
33.220056 -4.176362 -3.361053 33.649827 -0.125062 1.670846 0.043181 -0.009345 -733725.000000 0 0 1
33.296276 -5.631462 -2.860653 33.890098 -0.167546 1.655307 0.029957 -0.007138 -169324.000000 0 0 1
33.033336 -5.795262 -1.479553 33.570455 -0.173669 1.614884 0.031826 -0.006066 -48364.400000 0 0 1
33.196156 -7.139062 -1.112253 33.973344 -0.211831 1.603541 0.041684 -0.008595 -177107.000000 0 0 1
32.805256 -7.309062 0.338247 33.611332 -0.219221 1.560733 0.032845 -0.007718 73028.000000 0 0 1
31.395946 -7.141762 0.433947 32.200909 -0.223668 1.557320 0.022379 -0.010823 140810.000000 0 0 1
30.923336 -7.314562 1.769147 31.825861 -0.232270 1.515179 0.018372 -0.015534 -301084.000000 0 0 1
30.789536 -8.783862 2.289447 32.099741 -0.277905 1.499413 0.029954 -0.020967 -130317.000000 0 0 1
29.734466 -9.512762 1.694947 31.265060 -0.309634 1.516558 0.031315 -0.028384 119164.000000 0 0 1
28.465276 -9.353862 2.280647 30.049427 -0.317490 1.494827 0.019267 -0.030648 -682769.000000 0 0 1
27.435976 -10.437562 1.805247 29.409768 -0.363526 1.509375 0.023020 -0.028066 929895.000000 0 0 1
26.070296 -10.425562 2.285347 28.170472 -0.380422 1.489581 0.025370 -0.031363 1573870.000000 0 0 1
25.283866 -9.317362 1.853247 27.009659 -0.353069 1.502128 0.031798 -0.026608 -324603.000000 0 0 1
24.598266 -9.414862 0.470647 26.342662 -0.365543 1.552929 0.020679 -0.016164 -598376.000000 0 0 1
25.584846 -9.563762 -0.525953 27.318978 -0.357723 1.590050 0.026611 -0.020894 367711.000000 0 0 1
25.102426 -9.647862 -1.892453 26.959125 -0.366934 1.641051 0.020822 -0.004285 -133523.000000 0 0 1
24.497066 -11.020062 -2.338953 26.963285 -0.422731 1.657651 0.016044 0.006945 689320.000000 0 0 1
23.284066 -11.313062 -1.605753 25.936684 -0.452281 1.632746 0.020143 0.013062 656350.000000 0 0 1
22.954866 -12.722062 -1.708853 26.300132 -0.506078 1.635817 0.014810 0.015398 -566960.000000 0 0 1
21.473466 -12.987262 -1.497953 25.140060 -0.543945 1.630416 0.012934 0.009953 -488576.000000 0 0 1
20.581466 -12.469262 -2.463253 24.189809 -0.544709 1.672803 0.010248 0.015458 -1135460.000000 0 1 0
19.298566 -12.814562 -2.148653 23.265089 -0.586165 1.663283 0.012195 0.011986 -986489.000000 0 1 0
18.235566 -12.321662 -3.171353 22.235483 -0.594226 1.713910 0.009808 0.017707 85503.600000 0 1 0
18.335166 -12.923762 -4.429653 22.865340 -0.613982 1.765757 0.008928 0.008010 705286.000000 0 1 0
17.332666 -12.448962 -5.356453 22.002036 -0.622861 1.816720 0.008423 0.009141 219641.000000 0 1 0
17.358066 -13.149362 -6.752353 22.799177 -0.648307 1.871473 0.007227 0.005412 -380518.000000 0 1 0
16.748766 -14.417862 -6.773353 23.114373 -0.710749 1.868197 0.007111 0.001730 197064.000000 0 1 0
16.949366 -14.880162 -8.124853 23.973182 -0.720481 1.916559 0.014559 0.000419 -669729.000000 0 1 0
15.929066 -15.878462 -8.568953 24.068396 -0.783807 1.934807 0.023404 -0.004906 -728659.000000 0 1 0
14.600166 -15.383062 -8.634353 22.898810 -0.811503 1.957422 0.029588 0.001083 22871.600000 0 1 0
13.715466 -16.266162 -9.244853 23.198477 -0.870269 1.980689 0.030633 -0.002688 -302834.000000 0 1 0
13.665066 -16.126762 -10.789753 23.732367 -0.867841 2.042768 0.029042 -0.005469 -923329.000000 0 1 0
13.065866 -14.974362 -11.327153 22.874719 -0.853356 2.088841 0.029192 -0.003071 -51858.200000 0 1 0
13.700366 -13.768962 -11.036053 22.340072 -0.787895 2.087484 0.038629 0.004303 -377357.000000 0 1 0
13.562266 -12.749962 -12.176253 22.243150 -0.754536 2.150070 0.045159 -0.002340 -1949.890000 0 1 0
14.630966 -12.772662 -13.101953 23.427916 -0.717689 2.164272 0.038276 -0.004577 -56839.900000 0 1 0
14.321366 -12.173262 -14.356753 23.651769 -0.704498 2.223083 0.040340 -0.003750 -53281.400000 0 1 0
15.508266 -12.052962 -15.336253 24.919488 -0.660681 2.233730 0.032118 -0.004097 133279.000000 0 1 0
15.669666 -13.208962 -16.170453 26.105529 -0.700395 2.238808 0.022039 -0.004488 576765.000000 0 0 1
16.881766 -13.060862 -16.928553 27.242541 -0.658477 2.241326 0.029122 -0.000745 359192.000000 0 0 1
17.883766 -14.202462 -16.719653 28.303459 -0.671166 2.202757 0.035427 -0.008736 -541461.000000 0 0 1
18.477866 -14.128062 -15.433953 27.914881 -0.652776 2.156629 0.024622 -0.011785 727803.000000 0 0 1
19.559566 -15.106062 -15.441553 29.141230 -0.657628 2.129263 0.031528 -0.009984 698395.000000 0 0 1
20.654066 -14.904862 -14.381253 29.250056 -0.625104 2.084798 0.018871 -0.011787 7644.190000 0 0 1
21.240666 -13.622662 -14.474953 29.090670 -0.570269 2.091604 0.006870 -0.010721 23095.500000 0 0 1
22.340066 -13.455462 -13.590453 29.407965 -0.542110 2.051198 0.005712 -0.008723 335559.000000 0 0 1
23.018766 -12.071962 -13.717053 29.389682 -0.483008 2.056386 0.018964 -0.011767 100130.000000 0 0 1
22.165566 -10.949062 -13.423853 28.131728 -0.458810 2.068237 0.014742 -0.002498 574836.000000 0 0 1
22.878466 -9.689062 -13.376253 28.217482 -0.400601 2.064671 0.026565 -0.007239 789249.000000 0 0 1
23.797766 -9.427462 -12.120953 28.321868 -0.377182 2.013043 0.018405 -0.010493 467327.000000 0 0 1
24.981606 -10.173162 -12.061753 29.547585 -0.386720 1.991294 0.006468 -0.001365 625897.000000 0 0 1
25.993896 -9.625162 -11.173753 29.886103 -0.354631 1.953983 -0.001790 0.001557 1054340.000000 0 0 1
27.313576 -10.471662 -11.204953 31.324721 -0.366103 1.936604 -0.015474 0.009907 503765.000000 0 0 1
27.981206 -10.358462 -12.470453 32.338179 -0.354550 1.966683 -0.025024 0.010630 -245084.000000 0 0 1
29.121166 -11.159262 -12.586353 33.630161 -0.365941 1.954393 -0.034097 0.017587 -4919.260000 0 0 1
30.006556 -10.787262 -13.835453 34.758858 -0.345110 1.980177 -0.036214 0.018256 -229748.000000 0 0 1
29.414936 -11.129862 -15.050253 34.865777 -0.361726 2.017131 -0.034688 0.006382 -56139.300000 0 0 1
30.251676 -10.948562 -16.173453 36.008548 -0.347251 2.036617 -0.036853 0.005804 -387067.000000 0 0 1
29.585976 -11.449462 -17.457353 36.210211 -0.369240 2.073859 -0.047289 0.020245 217096.000000 0 0 1
28.464696 -10.699862 -17.924153 35.298743 -0.359559 2.103407 -0.033297 0.004040 522650.000000 0 0 1
28.859256 -9.662862 -18.836153 35.791455 -0.323094 2.125010 -0.031627 0.011451 676433.000000 0 0 1
27.642916 -8.985862 -19.584453 35.048928 -0.314295 2.163704 -0.070366 0.001240 924464.000000 0 0 1
26.909196 -9.794562 -20.501553 35.218631 -0.349079 2.192133 -0.046203 0.007666 965440.000000 0 0 1
25.501386 -9.520862 -20.453553 34.048720 -0.357321 2.215191 -0.000847 0.019084 790525.000000 0 0 1
24.874966 -9.753562 -21.843553 34.511400 -0.373681 2.256138 0.007808 0.007043 -381712.000000 0 0 1
24.737466 -11.153562 -22.217553 35.070840 -0.423583 2.256871 0.007348 0.009020 321239.000000 0 0 1
23.914966 -11.294662 -23.382753 35.302240 -0.441230 2.294759 0.014558 0.002658 -633064.000000 0 0 1
23.848966 -12.733462 -23.883853 36.074266 -0.490415 2.294380 0.009728 0.006739 603717.000000 0 0 1
25.002396 -13.183762 -24.614953 37.481026 -0.485248 2.287272 -0.000733 0.013927 713539.000000 0 0 1
26.162966 -13.301062 -23.805653 37.790583 -0.470339 2.252267 -0.015209 0.020800 -517930.000000 0 0 1
27.402816 -13.969962 -24.414253 39.269962 -0.471457 2.241711 -0.034795 0.026496 66516.500000 0 0 1
27.855586 -13.331962 -25.612373 40.120675 -0.446390 2.263193 -0.035251 0.016864 651819.000000 0 0 1
29.178746 -13.827162 -25.875553 41.377940 -0.442532 2.246372 -0.047464 0.018121 466498.000000 0 0 1
29.871376 -13.254862 -27.075563 42.439093 -0.417629 2.262677 -0.040853 0.022413 -306058.000000 0 0 1
29.371566 -13.711262 -28.321973 43.044416 -0.436754 2.288917 -0.036690 0.015517 194559.000000 0 0 1
30.307306 -13.422162 -29.331393 44.260794 -0.416908 2.295208 -0.040940 0.013589 -741.447000 0 0 1
30.217646 -14.387162 -30.584783 45.337904 -0.444360 2.311214 -0.034777 -0.001602 27.936700 0 0 1
30.582356 -15.714462 -30.293483 45.824883 -0.474659 2.293041 -0.041153 0.000586 -38312.700000 0 0 1
30.992346 -16.519362 -31.378063 47.095623 -0.489709 2.299982 -0.038259 -0.000895 250626.000000 0 0 1
29.887166 -17.132362 -32.318513 47.236075 -0.520507 2.324291 -0.047823 0.002936 354247.000000 0 0 1
29.470106 -16.267162 -33.320123 47.363892 -0.504369 2.351095 -0.045013 -0.002731 8617.840000 0 0 1
28.465176 -16.845762 -34.129017 47.527211 -0.534370 2.371856 -0.026900 -0.003302 508211.000000 0 0 1
27.728436 -15.959162 33.993972 46.681379 -0.522249 0.755086 0.002968 -0.006065 701907.000000 0 0 1
26.894976 -14.909562 34.530269 46.238234 -0.506186 0.727573 0.018647 -0.006731 571003.000000 0 0 1
27.630146 -13.768562 -34.280097 46.131587 -0.462300 2.408478 -0.007656 -0.002193 69364.100000 0 0 1
26.693036 -12.600562 -33.848503 44.911173 -0.441042 2.424435 0.007910 0.001145 643834.000000 0 0 1
25.937406 -11.915062 34.379025 44.683723 -0.430625 0.692917 0.035245 -0.010052 359438.000000 0 0 1
25.081406 -10.954562 -34.285660 43.870102 -0.411789 2.467906 0.016557 -0.007266 109899.000000 0 0 1
20.971030 -30.108670 9.325947 37.858809 -0.962416 1.321899 0.023407 -0.005397 200486.000000 0 0 1
21.047830 -29.607070 8.015647 37.200005 -0.952789 1.353619 0.024935 -0.008504 377861.000000 0 0 1
21.911330 -30.479970 7.268547 38.235674 -0.947514 1.379534 0.011928 -0.011200 -50747.500000 0 0 1
22.160130 -29.983770 5.852847 37.740611 -0.934327 1.415087 0.002361 -0.008067 -247618.000000 0 0 1
22.910830 -28.790870 5.871947 37.259900 -0.898642 1.412542 -0.009733 0.014107 32421.200000 0 0 1
23.583430 -28.589170 4.649147 37.351485 -0.881051 1.446002 -0.027442 0.023503 111716.000000 0 0 1
23.700730 -27.097870 4.282947 36.254142 -0.852173 1.452383 -0.042942 0.025623 -123030.000000 0 0 1
24.400330 -26.331270 5.197347 36.272915 -0.823442 1.427017 -0.047808 0.023894 -122146.000000 0 0 1
24.021830 -24.981270 5.077147 35.026984 -0.804975 1.425334 -0.048606 0.033789 -372815.000000 0 0 1
24.584030 -24.073270 6.156047 34.954167 -0.774901 1.393755 -0.051791 0.032130 1144050.000000 0 0 1
26.006430 -23.865270 5.932347 35.792154 -0.742491 1.404284 -0.043375 0.032421 1438690.000000 0 0 1
26.647430 -22.979270 6.857547 35.849105 -0.711617 1.378321 -0.015297 0.021131 140622.000000 0 0 1
26.172830 -21.450870 6.786047 34.513871 -0.686570 1.372889 -0.028780 0.029414 -32167.700000 0 0 1
26.444930 -20.787770 5.549947 34.092047 -0.666194 1.407276 -0.019944 0.041531 197204.000000 0 0 1
26.039830 -19.418070 5.569447 32.956835 -0.640748 1.400989 -0.022780 0.033645 -257001.000000 0 0 1
26.226430 -18.648170 4.227447 32.456913 -0.618100 1.440177 -0.028008 0.045631 -164162.000000 0 0 1
27.579330 -18.430970 3.865347 33.395524 -0.589125 1.454792 0.000764 0.025843 291176.000000 0 0 1
27.553130 -17.678370 2.701547 32.848107 -0.570455 1.488460 -0.008182 0.030411 125132.000000 0 0 1
28.571830 -16.516370 2.507547 33.097247 -0.524135 1.494961 0.003360 0.007456 169380.000000 0 0 1
28.408030 -15.386470 3.378447 32.483435 -0.496390 1.466603 0.007397 -0.001988 -452225.000000 0 0 1
29.583030 -14.664070 3.534647 33.206692 -0.460195 1.464150 0.025026 -0.003041 -358821.000000 0 0 1
29.287730 -13.374070 4.339447 32.487962 -0.428365 1.436825 0.027966 -0.010582 134210.000000 0 0 1
28.924530 -13.787770 5.632047 32.533844 -0.444819 1.396806 0.019162 0.001827 5821.890000 0 0 1
28.870530 -12.674970 6.543447 32.202160 -0.413692 1.366172 0.012122 -0.005384 -103548.000000 0 0 1
28.243030 -13.062770 7.934747 32.113314 -0.433211 1.321125 0.018962 0.001569 -152656.000000 0 0 1
26.835930 -13.193870 7.913647 30.933334 -0.456945 1.312091 0.009497 0.009568 -207748.000000 0 0 1
26.200830 -13.283570 9.169147 30.773528 -0.469224 1.268246 0.008278 0.015342 46514.200000 0 0 1
26.391430 -14.556370 10.014447 31.759796 -0.504038 1.250004 0.012232 0.012508 176071.000000 0 0 1
27.637130 -14.568170 10.708047 33.025821 -0.485110 1.240596 0.016623 0.013618 404030.000000 0 0 1
27.845630 -15.856970 11.332447 33.988925 -0.517661 1.230872 0.012125 0.011787 163685.000000 0 0 1
28.680430 -15.807970 12.624747 35.097625 -0.503746 1.202846 0.016117 0.013030 -586825.000000 0 0 1
30.010230 -15.400370 12.628647 36.017608 -0.474129 1.212559 0.028894 0.010629 -537438.000000 0 0 1
30.571330 -15.684670 13.885347 37.059654 -0.474034 1.186749 0.040556 0.006509 825629.000000 0 0 1
32.137930 -15.572370 13.892547 38.319031 -0.451210 1.199794 0.033284 -0.003364 780844.000000 0 0 1
32.680430 -14.277070 13.860447 38.261694 -0.411881 1.200111 0.021894 0.001578 -43018.500000 0 0 1
34.030230 -14.294970 14.250847 39.566266 -0.397685 1.202339 0.013948 -0.001052 -272099.000000 0 0 1
34.761830 -12.995570 14.452447 39.826410 -0.357759 1.199433 0.004314 0.002272 -92079.700000 0 0 1
-34.258406 -12.625170 13.488547 38.922670 0.353084 1.216908 0.017124 0.000039 323046.000000 0 0 1
-33.769606 -11.336770 13.661547 38.151626 0.323887 1.204580 0.015210 0.006643 -212637.000000 0 0 1
-32.567206 -10.969370 12.749647 36.653834 0.324888 1.215531 0.010198 0.000313 1075220.000000 0 0 1
-31.390606 -11.800970 12.836647 35.908391 0.359594 1.205225 -0.004781 0.006708 883681.000000 0 0 1
-31.536906 -12.992770 12.074047 36.182470 0.390796 1.230572 -0.007652 0.003634 -414455.000000 0 0 1
-30.367106 -14.000370 12.247147 35.611292 0.431995 1.219717 -0.011042 -0.000692 -145675.000000 0 0 1
-29.175206 -13.653770 11.604647 34.238662 0.437715 1.225013 -0.010135 -0.002808 -446933.000000 0 0 1
-28.298106 -14.752370 11.753847 34.008355 0.480558 1.217901 -0.013517 -0.002479 896484.000000 0 0 1
-26.846806 -14.513970 11.176547 32.501101 0.495615 1.219748 -0.005254 -0.007203 781874.000000 0 0 1
-26.853606 -14.593070 9.787947 32.091709 0.497786 1.260859 -0.011911 -0.001195 -366124.000000 0 0 1
-25.630606 -14.319670 9.171947 30.758829 0.509494 1.268001 -0.013703 0.002703 -430387.000000 0 0 1
-25.570606 -14.508370 7.628747 30.373451 0.516092 1.316913 -0.006482 0.006286 -285109.000000 0 0 1
-25.801106 -15.867270 7.192947 31.132071 0.551364 1.337643 0.007395 0.002409 90150.000000 0 0 1
-25.455506 -15.954370 5.815047 30.599665 0.559860 1.379597 0.011355 0.004935 -309708.000000 0 0 1
-25.876906 -17.213270 5.001047 31.478905 0.586985 1.411251 0.006078 0.006374 -941781.000000 0 0 1
-27.242606 -17.308470 4.793147 32.630002 0.566004 1.423369 -0.000621 -0.006384 -901494.000000 0 0 1
-27.629806 -18.370670 3.938047 33.412512 0.586769 1.452660 0.002099 0.000475 727731.000000 0 0 1
-29.178206 -18.612770 4.017347 34.841671 0.567822 1.455236 0.014391 -0.005901 701587.000000 0 0 1
-29.947906 -17.562770 3.493847 34.893194 0.530392 1.470498 0.017762 -0.009403 417210.000000 0 0 1
-31.344506 -17.856370 3.588447 36.251965 0.517828 1.471648 0.036371 -0.009070 758271.000000 0 0 1
-32.300406 -16.814970 2.967147 36.535783 0.479976 1.489495 0.032053 -0.015796 101223.000000 0 0 1
-32.353406 -16.892070 1.559947 36.531060 0.481180 1.528081 0.030099 -0.006513 67585.200000 0 0 1
-33.393206 -16.149970 0.936847 37.105329 0.450466 1.545545 0.044358 -0.011105 -108146.000000 0 0 1
-33.845606 -16.803270 -0.382053 37.789164 0.460818 1.580907 0.043927 -0.010926 -1098470.000000 0 0 1
-32.854806 -17.029770 -1.352753 37.030816 0.478207 1.607335 0.035071 -0.008056 -35979.800000 0 0 1
-33.258806 -17.874970 -2.456453 37.837771 0.493157 1.635763 0.024581 -0.001138 302280.000000 0 0 1
-32.041706 -18.611370 -3.102553 37.184404 0.526218 1.654330 0.014509 0.001103 239374.000000 0 0 1
-32.448806 -19.526770 -4.095153 38.091863 0.541721 1.678512 0.009051 -0.007309 121017.000000 0 0 1
-31.419706 -20.050970 -4.922053 37.596090 0.568011 1.702093 -0.000977 -0.002555 -541000.000000 0 0 1
-31.991906 -21.207670 -5.778953 38.815508 0.585395 1.720234 0.012243 -0.002634 -416884.000000 0 0 1
-32.417306 -22.320870 -5.059753 39.682541 0.602999 1.698650 0.026681 -0.009945 -127162.000000 0 0 1
-32.852606 -23.372370 -5.889153 40.746086 0.618357 1.715837 0.015314 -0.004828 -455041.000000 0 0 1
-33.399406 -24.493770 -5.052353 41.725189 0.632766 1.692181 0.014624 -0.006624 -1016040.000000 0 0 1
-32.494006 -25.164570 -4.178853 41.310760 0.658958 1.672126 0.015943 -0.002446 -236529.000000 0 0 1
-33.017506 -26.464270 -3.994553 42.502586 0.675669 1.664919 0.010005 0.001377 98370.100000 0 0 1
-31.985206 -27.524270 -3.554453 42.347054 0.710576 1.654831 -0.001215 0.009578 -675442.000000 0 0 1
-31.082506 -27.939270 -4.575653 42.043568 0.732193 1.679844 -0.010690 0.013364 252126.000000 0 0 1
-30.178206 -28.952870 -4.181653 42.029502 0.764679 1.670454 -0.002662 0.011295 358900.000000 0 0 1
-29.169506 -28.723570 -3.032253 41.049947 0.777696 1.644731 0.008021 0.009649 -1238460.000000 0 0 1
-29.767706 -28.559770 -1.783353 41.291127 0.764692 1.613999 0.004477 0.003713 -51470.000000 0 0 1
-28.834806 -28.697870 -0.705353 40.687975 0.783018 1.588133 0.013782 -0.007945 421798.000000 0 0 1
-29.544806 -28.555870 0.686347 41.095065 0.768379 1.554094 0.017463 -0.006238 450719.000000 0 0 1
-30.262106 -29.701370 1.137847 42.417699 0.776047 1.543968 0.007622 -0.000881 48388.800000 0 0 1
-31.086106 -29.441970 2.248547 42.874603 0.758242 1.518328 0.021068 -0.000214 -91498.500000 0 0 1
-31.728606 -30.750770 2.834547 44.275829 0.769749 1.506732 -0.003403 0.004612 -1099450.000000 0 0 1
-32.697506 -30.449770 3.816347 44.842836 0.749818 1.485588 0.000691 0.002872 8984.810000 0 0 1
-33.212706 -31.595370 4.412047 46.052334 0.760448 1.474844 0.000919 0.008270 -96945.500000 0 0 1
-33.962806 -32.608970 3.485147 47.211899 0.765064 1.496910 -0.006013 0.007341 -1125560.000000 0 0 1
-34.595706 -33.682370 4.067847 48.455261 0.772022 1.486747 -0.005000 0.003265 -91515.700000 0 0 1
34.643230 -34.368470 3.099547 48.897365 -0.781417 1.507365 -0.007894 0.004179 -994099.000000 0 0 1
33.483330 34.077138 3.601347 47.909857 0.794187 1.495556 -0.013665 0.007937 -211615.000000 0 0 1
32.552930 34.657638 4.502347 47.761033 0.816703 1.476388 -0.020712 0.009605 607694.000000 0 0 1
31.962830 -33.381470 4.196647 46.406432 -0.807105 1.480240 -0.019871 0.006214 -366904.000000 0 0 1
30.882630 -33.174070 3.088647 45.429016 -0.821155 1.502755 -0.005291 0.006423 -524145.000000 0 0 1
31.413130 -33.620070 1.848847 46.049019 -0.819321 1.530636 -0.004890 0.008534 335592.000000 0 0 1
30.628030 -33.141070 0.705047 45.132071 -0.824786 1.555174 0.004592 0.007878 -201940.000000 0 0 1
31.044130 -33.743370 -0.669753 45.856315 -0.827037 1.585402 0.003296 0.002347 525134.000000 0 0 1
32.308230 -33.556870 -1.258553 46.599026 -0.804353 1.597808 -0.016837 0.007742 -27662.400000 0 0 1
33.496930 -33.713570 -0.499253 47.527870 -0.788621 1.581301 -0.011604 0.007030 392153.000000 0 0 1
34.797230 -33.532670 -1.354153 48.343779 -0.766894 1.598811 -0.029245 0.022290 57170.400000 0 0 1
-34.969906 34.620138 -2.111353 49.253488 -0.780372 1.613677 -0.032553 0.009276 379993.000000 0 0 1
-34.323806 -34.591870 -3.388253 48.848761 0.789288 1.640214 -0.026604 0.014754 -340194.000000 0 0 1
-33.888506 33.383238 -3.942953 47.732780 -0.777887 1.653495 -0.029539 0.001878 -1147400.000000 0 0 1
-32.608506 33.002838 -3.611153 46.535389 -0.791408 1.648475 -0.023549 0.002759 -946445.000000 0 0 1
-32.136106 32.084138 -4.586453 45.641612 -0.784589 1.671455 -0.016182 -0.009696 213624.000000 0 0 1
-30.800606 31.441638 -4.142753 44.208781 -0.795697 1.664643 -0.005836 -0.012533 105029.000000 0 0 1
-29.674506 32.326338 -4.104853 44.072874 -0.828143 1.664069 -0.000195 -0.002522 828367.000000 0 0 1
-28.446006 31.661238 -3.769653 42.729610 -0.838839 1.659132 0.026205 -0.009440 863750.000000 0 0 1
-28.136906 31.312438 -2.318153 42.160741 -0.838763 1.625808 0.015196 -0.006012 -605974.000000 0 0 1
-29.124706 30.497238 -1.750153 42.206552 -0.808415 1.612275 -0.002693 -0.006808 -315877.000000 0 0 1
-29.136006 30.601638 -0.330153 42.254894 -0.809928 1.578610 -0.012555 0.005325 -635232.000000 0 0 1
-30.430206 30.006938 0.174147 42.736917 -0.778395 1.566721 -0.019862 0.007670 -774530.000000 0 0 1
-30.657306 28.617638 -0.116253 41.938683 -0.751001 1.573568 -0.016913 0.000595 575135.000000 0 0 1
-31.804706 28.470838 -0.982853 42.697704 -0.730144 1.593817 -0.025632 -0.001399 502449.000000 0 0 1
-32.046706 27.038838 -1.460953 41.955030 -0.700844 1.605625 -0.029960 -0.000430 -118986.000000 0 0 1
-32.479706 26.237438 -0.366953 41.754869 -0.679485 1.579585 -0.033517 0.006250 69821.500000 0 0 1
-32.803706 24.883738 -0.699853 41.179769 -0.648960 1.587792 -0.016227 0.011434 20356.200000 0 0 1
-32.693306 23.906038 0.539847 40.504844 -0.631374 1.557468 -0.018096 0.006930 -81656.600000 0 0 1
-31.353906 23.580538 0.801147 39.239662 -0.644829 1.550378 -0.017853 0.002202 -454617.000000 0 0 1
-31.002006 23.761838 2.133547 39.119066 -0.653953 1.516229 -0.007549 -0.004892 17435.500000 0 0 1
-29.452406 23.643538 2.343147 37.841134 -0.676428 1.508836 -0.010512 -0.015982 680250.000000 0 0 1
-28.645206 24.568038 1.623147 37.772621 -0.708928 1.527812 -0.010119 -0.011975 11820.400000 0 0 1
-28.705906 25.898338 2.113647 38.719768 -0.734027 1.516181 -0.031754 0.000176 -575791.000000 0 0 1
-28.121806 26.925438 1.087147 38.948647 -0.763668 1.542880 -0.012584 0.005161 1229680.000000 0 0 1
-26.774606 26.532038 0.718747 37.700732 -0.780848 1.551731 0.004857 -0.000699 812481.000000 0 0 1
-26.305606 27.466738 -0.260453 38.032545 -0.806988 1.577645 0.010339 -0.009882 218709.000000 0 0 1
-25.155706 26.876238 -1.116953 36.829191 -0.818453 1.601129 0.018443 -0.012263 -506677.000000 0 0 1
-25.491406 25.897738 -2.007553 36.394160 -0.793305 1.625986 0.025938 -0.020572 -65765.400000 0 0 1
-24.408706 25.262038 -2.737453 35.234204 -0.802576 1.648568 0.017526 -0.016954 491019.000000 0 0 1
-23.515606 24.320438 -1.941853 33.885664 -0.802221 1.628134 0.011836 -0.016306 -331660.000000 0 0 1
-24.154606 23.203238 -1.415053 33.523688 -0.765312 1.613019 -0.018591 -0.020340 -389301.000000 0 0 1
-23.221706 22.340738 -0.789953 32.233216 -0.766065 1.595306 -0.010448 -0.027944 -739415.000000 0 0 1
-23.743106 20.924338 -0.457253 31.650783 -0.722376 1.585244 -0.014362 -0.024623 -614256.000000 0 0 1
-24.698606 20.812038 0.599147 32.303576 -0.700206 1.552248 -0.021001 -0.028897 697855.000000 0 0 1
-26.003006 21.277738 0.274347 33.600204 -0.685788 1.562631 -0.026068 -0.014308 -238285.000000 0 0 1
-26.796406 20.599938 -0.843953 33.810015 -0.655398 1.595761 -0.034315 -0.014991 -1316690.000000 0 0 1
-27.052206 19.252738 -0.633053 33.209796 -0.618527 1.589860 -0.053612 -0.003639 336134.000000 0 0 1
-27.854406 18.698238 -1.638553 33.588345 -0.591193 1.619599 -0.040180 0.005272 -261340.000000 0 0 1
-28.153006 17.195438 -1.465653 33.021553 -0.548312 1.615196 -0.043593 0.007238 -302227.000000 0 0 1
-28.923206 16.872338 -0.339453 33.486458 -0.528087 1.580934 -0.024109 0.000238 233350.000000 0 0 1
-29.149006 15.508338 -0.242953 33.018663 -0.488947 1.578154 -0.016030 -0.001604 70088.200000 0 0 1
-27.914806 14.711138 0.262747 31.555079 -0.485015 1.562470 -0.003704 -0.001816 -335771.000000 0 0 1
-27.673006 14.841438 1.636247 31.444250 -0.492276 1.518736 0.004786 -0.005472 -411539.000000 0 0 1
-26.435406 14.375538 2.053047 30.161263 -0.498070 1.502675 0.009933 -0.004242 -676430.000000 0 0 1
-26.044906 12.869338 1.982447 29.118501 -0.458933 1.502662 0.017308 0.000536 -370026.000000 0 0 1
-25.932606 12.428638 0.653947 28.764540 -0.446924 1.548060 0.009973 -0.002966 252993.000000 0 0 1
-25.438806 11.110838 0.588047 27.765615 -0.411795 1.549616 0.023768 0.005509 -135479.000000 0 0 1
-25.315606 10.360238 -0.802553 27.365280 -0.388449 1.600128 0.027461 -0.004560 -119905.000000 0 0 1
-26.532406 9.927738 -1.384453 28.362744 -0.358046 1.619628 0.031728 -0.016154 149761.000000 0 0 1
-26.423606 8.953138 -2.400853 28.002317 -0.326690 1.656639 0.031133 -0.012027 41019.900000 0 0 1
-27.750006 8.744738 -3.176753 29.268157 -0.305275 1.679550 0.037119 -0.019423 71690.600000 0 0 1
-27.709306 7.719938 -4.220453 29.072587 -0.271714 1.716481 0.041751 -0.008666 900352.000000 0 0 1
-29.018306 7.725038 -4.813353 30.412278 -0.260178 1.729735 0.027969 -0.002171 742514.000000 0 0 1
-11.279470 18.136538 -19.945853 29.223235 -1.014415 2.322021 0.029185 0.005862 248610.000000 0 0 1
-11.574570 17.123638 -20.919153 29.407492 -0.976400 2.362220 0.018388 0.001515 -523462.000000 0 0 1
-10.703670 17.099738 -21.995253 29.845615 -1.011510 2.399369 0.014280 0.001250 -474353.000000 0 0 1
-10.938970 15.896338 -22.978253 30.005911 -0.968072 2.443067 0.013637 0.001931 447113.000000 0 0 1
-10.062170 14.762238 -22.749653 28.926072 -0.972516 2.475878 0.013591 0.002526 588406.000000 0 0 1
-10.439470 13.696138 -23.594553 29.210779 -0.919520 2.511095 0.006386 0.000615 -449288.000000 0 0 1
-9.681870 12.456938 -23.307853 28.145513 -0.910096 2.546541 -0.012075 0.004103 -629355.000000 0 0 1
-8.299970 12.433238 -23.541353 27.886739 -0.982173 2.575825 -0.003474 0.007779 -191588.000000 0 0 1
-7.650470 11.413938 -22.799853 26.620311 -0.980300 2.599214 -0.011079 -0.002240 1395860.000000 0 0 1
-6.074270 11.555238 -22.684253 26.172420 -1.086822 2.619392 -0.003041 0.006805 1332280.000000 0 0 1
-5.419770 11.079538 -23.822253 26.825916 -1.115851 2.663842 -0.000081 0.000654 997940.000000 0 0 1
-3.972870 11.048938 -23.680853 26.431903 -1.225621 2.681293 0.006183 0.003120 1304340.000000 0 0 1
-3.265870 10.424538 -24.873753 27.166900 -1.267195 2.727770 0.015105 0.002755 -588007.000000 0 0 1
-3.455270 9.001538 -24.983953 26.779926 -1.204287 2.773279 0.012055 -0.002871 -134445.000000 0 0 1
-3.049370 8.535538 -26.266123 27.786026 -1.227672 2.809308 0.002318 -0.007047 -490033.000000 0 0 1
-2.550870 7.050938 -26.297553 27.345638 -1.223668 2.863835 0.010704 0.009151 1695330.000000 0 0 1
-1.110070 6.993538 -26.028063 26.974096 -1.413382 2.875966 0.013780 0.005248 1598280.000000 0 0 1
-0.720470 5.677938 -25.673623 26.303858 -1.444581 2.922248 0.019210 0.007763 -302060.000000 0 0 1
0.751030 5.673338 -25.251163 25.891543 1.439183 2.918721 0.027653 0.006977 -355913.000000 0 0 1
0.958530 6.497538 -24.107153 24.985828 1.424331 2.875604 0.014351 0.007249 217110.000000 0 1 0
1.606530 5.816038 -23.016853 23.794595 1.301292 2.885213 0.017551 0.002408 155326.000000 0 1 0
1.757430 6.608538 -21.721553 22.772509 1.310879 2.836602 0.010499 0.006885 206072.000000 0 1 0
2.466230 7.826238 -21.788053 23.282000 1.265523 2.781410 -0.004015 0.002773 112864.000000 0 1 0
2.139530 8.550338 -20.621753 22.426381 1.325604 2.737682 -0.008785 0.006037 132146.000000 0 1 0
2.809930 9.986438 -20.490953 22.967451 1.296513 2.672931 -0.013145 0.006253 -58329.400000 0 1 0
2.573230 10.670638 -19.288853 22.193329 1.334164 2.624234 -0.005887 -0.003747 -116106.000000 0 1 0
3.164530 11.915938 -19.297553 22.899768 1.311217 2.573068 -0.005298 -0.004018 -159736.000000 0 1 0
4.331230 11.949938 -18.247353 22.237951 1.223075 2.533169 -0.002267 -0.020103 689230.000000 0 1 0
5.410830 11.163838 -18.826353 22.546395 1.119484 2.558938 0.003536 -0.012207 -11078.700000 0 1 0
6.284530 10.828138 -17.769453 21.737004 1.044922 2.527809 0.004636 -0.022630 -619396.000000 0 1 0
7.444530 9.963838 -18.275153 22.106114 0.929119 2.544016 0.021665 -0.024336 -659864.000000 0 1 0
7.174830 8.673838 -18.802553 21.914599 0.879700 2.602144 0.014094 -0.008721 15217.300000 0 1 0
6.418230 8.657438 -20.011453 22.728905 0.932851 2.647587 0.001035 0.008025 98994.300000 0 1 0
5.864130 7.222438 -20.321053 22.349425 0.888822 2.712258 0.005474 0.005930 430274.000000 0 1 0
6.945530 6.322738 -20.634553 22.671616 0.738494 2.714440 0.004126 0.009060 638408.000000 0 1 0
6.564830 4.988038 -20.813253 22.386804 0.649751 2.764423 0.004672 0.011268 -289906.000000 0 1 0
6.910730 4.502238 -22.261153 23.739993 0.577419 2.786766 0.008023 0.001499 -153438.000000 0 1 0
5.989430 5.083738 -23.174853 24.470216 0.703788 2.814759 0.004167 0.009324 331814.000000 0 1 0
6.171530 4.720538 -24.513453 25.715377 0.652962 2.834646 0.004566 -0.000009 312607.000000 0 0 1
5.070930 5.488238 -25.351573 26.429857 0.824899 2.854962 -0.001721 -0.002105 389107.000000 0 0 1
5.181730 6.871938 -25.671553 27.075865 0.924713 2.818110 -0.003191 -0.002360 171813.000000 0 0 1
4.863830 7.626338 -24.515653 26.131114 1.003069 2.788127 0.005855 0.001825 -1059850.000000 0 0 1
4.687630 9.158938 -24.609853 26.674049 1.097746 2.745600 0.002170 -0.002759 -396124.000000 0 0 1
3.625330 9.698838 -25.314253 27.349988 1.213087 2.753327 0.007998 -0.002819 194251.000000 0 0 1
2.332330 9.407938 -24.779053 26.607339 1.327785 2.768725 -0.010796 0.009653 -88406.600000 0 0 1
1.128930 9.726438 -25.671963 27.475948 1.455245 2.777208 -0.015849 0.019057 -151690.000000 0 0 1
0.966330 11.102638 -25.907283 28.202653 1.483979 2.735349 -0.009126 0.007909 -133168.000000 0 0 1
-0.270870 11.377538 -26.504273 28.844379 -1.546993 2.736007 0.008362 0.001425 -626649.000000 0 0 1
-0.461070 12.821338 -26.943233 29.841868 -1.534851 2.697188 0.008259 0.003856 -555070.000000 0 0 1
-0.781870 13.666338 -25.850553 29.251174 -1.513647 2.654600 0.009199 0.006688 122810.000000 0 0 1
-0.665270 15.010938 -26.123443 30.136441 -1.526506 2.619623 0.008138 0.001149 -401904.000000 0 0 1
-0.930370 15.774538 -24.789953 29.398017 -1.511885 2.574102 0.014040 -0.004133 -502268.000000 0 0 1
-2.259670 15.654138 -24.385153 29.065337 -1.427437 2.566197 0.010541 0.006168 -744428.000000 0 0 1
-2.335270 16.298738 -23.164153 28.419717 -1.428486 2.523652 0.018588 -0.002316 458989.000000 0 0 1
-3.525170 15.711038 -22.307453 27.511561 -1.350077 2.516381 0.023386 -0.000037 2108370.000000 0 0 1
-4.913570 15.819138 -22.725053 28.121456 -1.269635 2.511722 0.018259 0.000677 1262380.000000 0 0 1
-5.206370 15.030638 -23.875153 28.688835 -1.237347 2.553879 0.013611 -0.004137 -104653.000000 0 0 1
-6.716270 15.001538 -24.266853 29.309291 -1.149852 2.546252 0.002599 -0.001379 488381.000000 0 0 1
-7.191270 16.214538 -24.807753 30.496724 -1.153355 2.520866 0.002926 0.003325 -505136.000000 0 0 1
-8.376870 16.038838 -25.522423 31.285945 -1.089479 2.524871 0.004954 0.000291 -708516.000000 0 0 1
-8.904770 17.386238 -26.032953 32.546748 -1.097457 2.497864 0.005709 -0.002565 -183993.000000 0 0 1
-9.515170 18.157838 -25.015953 32.342595 -1.088114 2.455090 0.007130 0.000853 -62500.700000 0 0 1
-10.297470 19.079838 -25.754963 33.665950 -1.075892 2.441861 0.007045 0.002935 -72877.500000 0 0 1
-10.849370 20.277038 -24.985153 33.957693 -1.079498 2.397604 0.011342 0.004599 341931.000000 0 0 1
-9.957770 21.370338 -24.651053 34.110452 -1.134748 2.378473 0.016844 0.001323 679083.000000 0 0 1
-10.613970 22.646638 -24.802753 35.223616 -1.132519 2.352023 0.021486 -0.004955 198106.000000 0 0 1
-10.454970 23.325538 -26.149203 36.567307 -1.149424 2.367560 0.013726 -0.004239 -445701.000000 0 0 1
-11.207070 22.705738 -27.131713 37.111707 -1.112299 2.390703 -0.007914 0.002669 -277641.000000 0 0 1
-10.785270 23.113038 -28.438123 38.200280 -1.134198 2.410504 0.009955 -0.003220 -193816.000000 0 0 1
-11.415370 22.344938 -29.658193 38.848620 -1.098490 2.439403 0.007302 -0.002287 -85350.200000 0 0 1
-10.683570 21.187938 -30.079053 38.312097 -1.103771 2.473663 -0.007355 -0.002902 182689.000000 0 0 1
-10.772170 20.052438 -29.244013 37.058767 -1.077833 2.480180 0.002512 0.004747 -354968.000000 0 0 1
-9.709170 19.007138 -29.661143 36.542067 -1.098533 2.517851 -0.002110 0.000339 -731056.000000 0 0 1
-8.442270 19.532538 -29.354843 36.256017 -1.162830 2.514359 -0.011805 0.003451 -68590.700000 0 0 1
-7.371770 18.816138 -29.982103 36.156832 -1.197397 2.548514 -0.008522 0.005104 270259.000000 0 0 1
-6.946470 17.341638 -29.540903 34.952121 -1.189802 2.577702 0.005564 -0.006328 -897173.000000 0 0 1
-7.956670 16.412938 -29.708223 34.860746 -1.119398 2.590966 0.006827 -0.014618 -139140.000000 0 0 1
-7.496870 15.160538 -29.233743 33.773609 -1.111559 2.617103 -0.004432 -0.010257 -365021.000000 0 0 1
-8.670870 14.195438 -29.146483 33.559081 -1.022458 2.622990 0.012448 -0.013853 -36740.700000 0 0 1
-9.627870 14.587038 -28.157933 33.141314 -0.987403 2.586084 0.014547 -0.005926 -579567.000000 0 0 1
-10.825470 13.888538 -28.238093 33.278704 -0.908710 2.584004 0.050209 -0.019066 -556662.000000 0 0 1
-11.708970 14.444238 -27.119953 32.882029 -0.889606 2.540583 0.034719 -0.013377 -243505.000000 0 0 1
-12.204870 15.748038 -27.372223 33.855548 -0.911481 2.512396 0.011993 -0.009112 -482896.000000 0 0 1
-13.235770 16.040538 -26.464493 33.657894 -0.880910 2.475560 0.008859 -0.007871 -197502.000000 0 0 1
-14.130470 17.182438 -26.926813 34.927920 -0.882558 2.451089 -0.002976 -0.003330 -158856.000000 0 0 1
-13.523070 18.478638 -26.914653 35.337402 -0.939031 2.436648 -0.013593 0.005222 121398.000000 0 0 1
-14.386070 19.452038 -27.483623 36.615438 -0.934006 2.419769 -0.019606 0.004194 -322006.000000 0 0 1
-13.917970 20.886438 -27.348713 37.120146 -0.983003 2.399065 -0.013388 0.000208 -191842.000000 0 0 1
-14.852070 21.818638 -27.942093 38.436929 -0.973137 2.384680 -0.023375 0.005556 332082.000000 0 0 1
-14.514170 23.196638 -28.015653 39.161485 -1.011693 2.367975 -0.014074 0.001220 -557950.000000 0 0 1
-14.208870 24.000338 -26.698023 38.609489 -1.036259 2.334344 -0.031430 0.001533 -111407.000000 0 0 1
-13.743770 25.296938 -26.982563 39.457382 -1.073113 2.323810 0.000111 -0.012330 172756.000000 0 0 1
-13.374470 25.967238 -25.746453 38.936534 -1.095180 2.293269 0.035668 -0.016759 -57211.600000 0 0 1
-12.980970 27.460538 -25.823463 39.867756 -1.129215 2.275395 0.048991 -0.022459 30058.000000 0 0 1
-14.014470 28.340638 -26.249073 41.092711 -1.111558 2.263704 0.058840 -0.017042 27478.300000 0 0 1
-14.414470 29.204638 -25.177263 41.165305 -1.112308 2.228895 0.064206 -0.017356 39101.000000 0 0 1
-15.832870 29.746038 -25.435923 42.219577 -1.081669 2.217385 0.059079 -0.017661 478352.000000 0 0 1
-16.882670 28.794638 -25.391583 41.939101 -1.040502 2.221114 0.040051 -0.015090 -311683.000000 0 0 1
-18.132470 29.262538 -25.834153 43.040516 -1.016055 2.214583 0.029280 -0.005629 439996.000000 0 0 1
-19.213070 28.130338 -25.769943 42.714727 -0.971570 2.218433 0.008432 0.005436 -87088.000000 0 0 1
-19.624670 27.850338 -24.479153 41.952329 -0.956958 2.193827 0.011919 0.003620 -354219.000000 0 0 1
-20.519870 26.761838 -24.508153 41.688255 -0.916656 2.199246 0.007589 -0.004775 -503697.000000 0 0 1
-20.987370 26.533238 -23.060353 40.942182 -0.901577 2.169100 0.007587 -0.003045 -281151.000000 0 0 1
-21.919470 27.535138 -22.714153 41.887704 -0.898466 2.143925 -0.006780 0.003999 -167185.000000 0 0 1
-22.295970 27.717438 -21.401853 41.513925 -0.893377 2.112427 -0.020276 0.009006 -438519.000000 0 0 1
-23.480070 28.687738 -21.257353 42.733769 -0.884894 2.091438 -0.041069 0.019297 -542362.000000 0 0 1
-24.673670 28.004238 -21.420353 43.033229 -0.848539 2.091814 -0.045849 0.012031 -1300320.000000 0 0 1
-25.816100 28.820038 -21.444953 44.237446 -0.840324 2.076896 -0.031143 0.013735 191465.000000 0 0 1
-26.998210 27.831638 -21.707753 44.437933 -0.800597 2.081162 -0.037921 0.009166 -115816.000000 0 0 1
-27.053790 27.678438 -23.128053 45.087806 -0.796810 2.109421 -0.045590 0.012089 -462262.000000 0 0 1
-28.259820 27.055038 -23.440553 45.607587 -0.763621 2.110593 -0.044643 0.005480 -420288.000000 0 0 1
-28.434340 26.816138 -24.911453 46.348651 -0.756118 2.138242 -0.043144 0.012824 65594.500000 0 0 1
-27.970450 25.522838 -25.333723 45.558301 -0.739675 2.160449 -0.029475 0.009398 -169953.000000 0 0 1
-28.173270 25.352938 -26.718233 46.372066 -0.732756 2.184832 -0.009349 0.004294 46770.500000 0 0 1
-28.213650 23.887038 -27.255713 45.929016 -0.702545 2.206112 -0.006404 0.002977 -306432.000000 0 0 1
-26.920330 23.351238 -27.332453 44.911551 -0.714521 2.225071 -0.001636 -0.006428 -80203.300000 0 0 1
-26.984480 22.148038 -28.068953 44.794685 -0.687278 2.247996 0.017587 -0.009444 -199302.000000 0 0 1
-25.947310 21.152238 -27.541113 43.349659 -0.683941 2.259225 0.019649 -0.003202 -177020.000000 0 0 1
-26.168480 20.660538 -26.255053 42.437895 -0.668318 2.237845 0.016204 -0.003210 -154344.000000 0 0 1
-25.593670 19.385038 -26.190763 41.433944 -0.648230 2.255068 0.019110 -0.011419 248262.000000 0 0 1
-26.565410 18.132538 -26.137763 41.445055 -0.598926 2.253200 0.011603 0.000544 226115.000000 0 0 1
-27.405440 17.936838 -27.253773 42.609347 -0.579532 2.264800 0.013890 0.006539 253503.000000 0 0 1
-28.040850 16.660138 -27.245153 42.498798 -0.536098 2.266702 -0.001658 0.005693 1443.350000 0 0 1
-28.931430 16.371838 -28.469043 43.767009 -0.514957 2.278997 -0.013522 0.013126 720155.000000 0 0 1
-30.263160 16.908038 -28.429423 44.832719 -0.509498 2.257669 -0.017800 0.006117 598155.000000 0 0 1
-30.995420 16.373738 -29.501403 45.816461 -0.486002 2.270386 -0.003064 0.008283 676184.000000 0 0 1
-32.366980 17.044738 -29.858993 47.219741 -0.484707 2.255368 0.001506 0.009717 973497.000000 0 0 1
-33.404950 16.879538 -28.894633 47.283287 -0.467879 2.228241 -0.013572 0.009151 125083.000000 0 0 1
-34.658943 17.040338 -29.547353 48.627785 -0.456952 2.223860 -0.020768 0.005996 190773.000000 0 0 1
34.224582 16.822438 -28.513903 47.616794 0.456849 2.212824 -0.005306 0.014212 -240609.000000 0 0 1
34.153659 17.860638 -27.522403 47.359872 0.481838 2.190917 -0.019167 0.010658 -63806.600000 0 0 1
33.241466 17.592338 -26.482743 45.998055 0.486756 2.184301 -0.012602 0.004680 6813.670000 0 0 1
32.843026 18.875638 -25.713813 45.783777 0.521626 2.167158 -0.003291 -0.001822 302973.000000 0 0 1
32.071606 19.839638 -26.452923 46.064697 0.553987 2.182491 0.000849 -0.002662 193954.000000 0 0 1
31.868926 20.972038 -25.662233 45.978310 0.582029 2.162936 0.015746 -0.013927 -623262.000000 0 0 1
30.989416 22.036138 -26.388653 46.284947 0.618127 2.177466 0.018489 -0.019723 225130.000000 0 0 1
29.678866 21.673038 -26.731973 45.443966 0.630742 2.199677 0.019987 -0.014673 -629515.000000 0 0 1
28.730046 21.713538 -25.714913 44.250989 0.647189 2.190894 0.022696 -0.013319 -449745.000000 0 0 1
27.297936 21.544038 -26.287113 43.592834 0.668132 2.218071 0.014066 -0.011700 202947.000000 0 0 1
27.149706 20.221238 -26.835643 43.199036 0.640168 2.241081 0.011226 -0.019441 -289640.000000 0 0 1
25.882596 19.991238 -27.414713 42.674640 0.657672 2.268438 0.012076 -0.019494 -146239.000000 0 0 1
25.460776 18.493838 -27.296723 41.657943 0.628203 2.285321 0.021576 -0.016000 -573872.000000 0 0 1
26.302936 17.617238 -27.951363 42.231389 0.590156 2.294097 0.012753 -0.018321 -456685.000000 0 0 1
27.239356 17.099938 -27.017123 42.003754 0.560586 2.269476 0.002539 -0.011904 -40799.500000 0 0 1
28.313656 16.188538 -27.658753 42.763752 0.519394 2.274152 -0.010539 0.006611 -264522.000000 0 0 1
27.887396 15.008838 -28.278283 42.457430 0.493734 2.299682 0.000066 0.004313 -151118.000000 0 0 1
27.258466 13.989538 -27.500353 41.170384 0.474166 2.302266 0.012822 -0.008040 -195064.000000 0 0 1
28.147376 13.148438 -26.578113 40.884622 0.437006 2.278481 0.003919 -0.008541 -157889.000000 0 0 1
28.653926 13.787638 -25.396863 40.695787 0.448477 2.244732 0.004900 -0.011314 59347.000000 0 0 1
29.352776 12.873738 -24.582253 40.393140 0.413322 2.225060 0.007058 -0.011895 -426422.000000 0 0 1
-13.700070 -31.586570 -25.718333 42.974830 1.161554 2.212363 0.041044 0.016444 -318702.000000 0 0 1
-12.765670 -30.625470 -26.032873 42.173359 1.175865 2.236080 0.027059 0.025240 -302787.000000 0 0 1
-13.188870 -29.983970 -27.204693 42.580278 1.156403 2.263869 0.010768 0.023944 178907.000000 0 0 1
-12.600670 -28.542970 -27.434863 41.546958 1.155064 2.292060 0.008563 0.014871 -479676.000000 0 0 1
-13.068070 -27.589670 -26.474763 40.408878 1.128443 2.285207 0.025592 0.006490 59690.500000 0 0 1
-12.660370 -26.264570 -26.822213 39.617467 1.121626 2.314516 0.017993 -0.003311 -405700.000000 0 0 1
-13.207370 -25.027570 -26.037813 38.454929 1.085225 2.314610 0.013817 -0.000951 -350730.000000 0 0 1
-12.657570 -24.730470 -24.796153 37.237876 1.097737 2.299476 0.010526 -0.008856 62460.600000 0 0 1
-13.227670 -23.492270 -24.380853 36.349470 1.057978 2.305995 0.014202 -0.004094 102957.000000 0 0 1
-12.728870 -23.072670 -22.950253 34.944046 1.066660 2.287326 0.012280 -0.009196 -686988.000000 0 0 1
-11.361170 -22.869070 -23.015553 34.377118 1.109718 2.304335 0.013455 -0.016104 -1083350.000000 0 0 1
-10.866270 -22.301270 -21.864353 33.067694 1.117402 2.293213 0.011199 -0.013704 636608.000000 0 0 1
-9.350370 -21.915670 -21.906553 32.367006 1.167527 2.314227 0.015310 -0.018048 643795.000000 0 0 1
-9.110370 -20.719670 -22.615253 31.996144 1.156544 2.355777 0.015217 -0.011837 -201270.000000 0 0 1
-7.730870 -20.452370 -22.613053 31.454983 1.209404 2.373018 0.023640 -0.009309 -5833.770000 0 0 1
-7.329370 -19.333070 -23.637453 31.404083 1.208427 2.422931 0.020850 -0.003967 181199.000000 0 0 1
-7.995870 -18.111670 -23.342553 30.607863 1.155053 2.438170 0.013138 0.002131 -163695.000000 0 0 1
-8.388670 -17.288270 -24.395553 31.054743 1.119040 2.474407 0.015609 0.000106 -744532.000000 0 0 1
-7.357970 -16.619370 -25.273643 31.130374 1.154001 2.518135 0.020314 -0.001688 -528781.000000 0 0 1
-6.794470 -17.396070 -26.312003 32.266230 1.198441 2.524330 0.001387 0.003230 149781.000000 0 0 1
-5.918970 -16.513370 -27.020503 32.215418 1.226627 2.565770 0.004643 0.001677 23579.700000 0 0 1
-5.524570 -17.173870 -28.361363 33.612938 1.259566 2.575053 -0.009153 0.012696 -654867.000000 0 0 1
-6.560470 -17.167370 -29.306893 34.592663 1.205774 2.581488 -0.009081 0.012409 -142081.000000 0 0 1
-6.393270 -17.980670 -30.457993 35.942561 1.229174 2.581879 -0.012155 0.015508 503037.000000 0 0 1
-7.433570 -17.498870 -31.566353 36.849736 1.169093 2.599486 0.000750 0.016461 687745.000000 0 0 1
-7.129070 -16.302070 -32.313213 36.888004 1.158545 2.638263 0.003795 0.006428 33333.300000 0 0 1
-6.869470 -15.095070 -31.581853 35.671616 1.143726 2.658042 -0.002015 0.004823 -106693.000000 0 0 1
-7.057670 -13.816670 -32.471753 35.987856 1.098540 2.695866 0.006333 -0.004543 -288400.000000 0 0 1
-6.313770 -13.804370 -33.662283 36.926598 1.141827 2.717956 0.013760 -0.010751 71929.100000 0 0 1
-6.934270 -12.988270 34.551224 37.557507 1.080408 0.402830 0.023134 -0.013411 -264048.000000 0 0 1
-7.100870 -11.453770 -34.575413 37.108899 1.015830 2.769940 0.015500 -0.013469 843047.000000 0 0 1
-5.913670 -10.627070 34.613111 36.687512 1.062998 0.337886 0.004382 -0.013273 497974.000000 0 0 1
-5.378670 -10.454670 33.337847 35.350279 1.095636 0.339048 0.011842 -0.022008 100268.000000 0 0 1
-4.155570 -9.496970 33.212412 34.792607 1.158329 0.302541 0.000500 -0.018228 -28282.300000 0 0 1
-3.957570 -9.096470 31.915061 33.421239 1.160430 0.301361 0.005299 -0.010936 286160.000000 0 0 1
-3.173370 -7.881070 31.876851 32.989622 1.188001 0.260470 0.003908 -0.015501 -920365.000000 0 0 1
-3.578970 -7.005970 30.706281 31.698081 1.098510 0.250813 0.001705 -0.009133 124486.000000 0 0 1
-4.743670 -6.230170 30.859701 31.837691 0.920037 0.248502 -0.011816 -0.009536 -1127410.000000 0 0 1
-5.939870 -6.899470 30.792331 32.110004 0.859999 0.287472 -0.002726 -0.017348 -2110620.000000 0 0 1
-7.042070 -5.852170 30.705071 32.041224 0.693377 0.289807 -0.005821 -0.013805 -18691.700000 0 0 1
-8.234470 -6.376270 30.130481 31.879605 0.658897 0.332793 -0.006021 -0.006501 1110720.000000 0 0 1
-9.395270 -5.503170 30.106391 32.014852 0.529867 0.347026 0.002865 -0.011271 626229.000000 0 0 1
-10.533870 -6.017770 29.231181 31.648664 0.519033 0.393390 0.009974 -0.013391 -463132.000000 0 0 1
-10.233670 -5.895370 27.832901 30.234976 0.522642 0.401302 -0.004906 -0.002312 185738.000000 0 0 1
-11.186470 -6.553670 27.072601 30.016886 0.529955 0.446619 0.001525 -0.001484 -366066.000000 0 0 1
-10.837070 -6.337170 25.574931 28.489979 0.529144 0.456317 0.009966 -0.004187 439007.000000 0 0 1
-9.659770 -7.019670 25.126421 27.819489 0.628416 0.443641 0.019299 -0.001963 721177.000000 0 0 1
-9.169970 -6.524870 23.829701 26.353689 0.618434 0.441232 0.017564 0.000175 -149598.000000 0 0 1
-10.085170 -6.717270 22.586901 25.632020 0.587579 0.492405 0.024700 -0.001516 410268.000000 0 0 1
-11.246770 -5.883470 22.706601 26.013358 0.481976 0.509718 0.014513 -0.002912 332389.000000 0 0 1
-12.071070 -6.058770 21.552201 25.434559 0.465186 0.559805 0.025802 -0.002353 -332768.000000 0 0 1
-13.283570 -5.159370 21.549701 25.835285 0.370469 0.584263 0.018492 0.005203 -678270.000000 0 0 1
-12.940770 -3.855170 21.139101 25.083609 0.289537 0.568433 0.010023 0.004338 397597.000000 0 0 1
-14.029370 -2.911170 21.027701 25.445281 0.204602 0.598132 0.000432 0.002968 337402.000000 0 0 1
-13.733070 -1.600170 20.355101 24.606663 0.115996 0.596656 -0.001982 -0.001537 -71387.700000 0 1 0
-12.739770 -0.749170 20.924701 24.509306 0.058738 0.547660 -0.008698 -0.002701 139534.000000 0 1 0
-12.775470 0.611830 20.663301 24.301419 -0.047854 0.554257 -0.007327 -0.006587 -680762.000000 0 1 0
-12.470270 1.078830 19.245501 22.957805 -0.086297 0.576641 0.014961 -0.025942 635514.000000 0 1 0
-13.421370 0.710830 18.191301 22.617734 -0.052913 0.636310 0.021403 -0.018244 1169490.000000 0 1 0
-14.717770 1.301830 18.315201 23.531980 -0.088223 0.678825 0.003275 -0.009837 604221.000000 0 1 0
-15.830170 0.552830 17.511101 23.612254 -0.034908 0.735328 0.023037 0.000154 146806.000000 0 1 0
-15.927470 -0.799170 17.986101 24.037945 0.050134 0.725394 -0.009098 0.000261 241177.000000 0 1 0
-16.660770 -1.618170 17.105401 23.933125 0.096821 0.774578 -0.024529 0.015630 -299331.000000 0 1 0
-16.466870 -3.128170 17.465401 24.207096 0.187731 0.764831 -0.022461 0.021346 -338420.000000 0 1 0
-16.933970 -3.451170 18.764401 25.510246 0.201048 0.744299 -0.030348 0.019623 77424.400000 0 0 1
-16.644370 -4.777970 19.150801 25.818931 0.279545 0.735143 -0.024511 0.017403 -320599.000000 0 0 1
-17.434970 -5.262270 20.408701 27.352966 0.293128 0.728575 -0.027276 0.022416 -269885.000000 0 0 1
-17.070570 -4.681370 21.673601 27.983291 0.267656 0.684841 -0.025282 0.017639 -434876.000000 0 0 1
-18.045370 -4.657570 22.658401 29.338225 0.252591 0.688316 -0.018734 0.014161 -806678.000000 0 0 1
-18.398970 -6.027270 23.287601 30.284690 0.316570 0.693589 -0.012374 0.008849 697914.000000 0 0 1
-17.306270 -6.632870 24.011801 30.332631 0.365996 0.657347 0.006123 0.002793 1190370.000000 0 0 1
-16.171470 -7.138570 23.316201 29.259543 0.415704 0.648691 -0.000193 0.000033 -334716.000000 0 0 1
-15.114370 -7.735870 24.229471 29.586401 0.473061 0.611236 0.006719 0.000013 -384718.000000 0 0 1
-15.487670 -8.881870 24.996951 30.718123 0.520691 0.620217 0.007465 -0.003086 588240.000000 0 0 1
-14.390870 -9.358670 25.799401 30.988561 0.576600 0.587108 0.022088 0.003683 880403.000000 0 0 1
-14.894670 -10.255070 26.988641 32.486988 0.602970 0.590338 0.022409 -0.006811 63536.900000 0 0 1
-15.085770 -11.649470 26.670861 32.781480 0.657568 0.620487 0.024607 -0.007935 -43768.600000 0 0 1
-14.025470 -12.426070 27.167531 33.002966 0.725006 0.603799 0.036691 -0.008630 -33424.600000 0 0 1
-14.350470 -13.897970 26.947121 33.544551 0.769381 0.637942 0.014448 -0.008336 -8835.490000 0 0 1
-15.340370 -14.385570 27.821901 34.875919 0.753289 0.647259 0.011572 -0.008230 226625.000000 0 0 1
-15.807670 -15.717070 27.567081 35.452118 0.782524 0.679978 0.015765 -0.000267 172997.000000 0 0 1
-14.911070 -16.754970 28.312141 36.119889 0.843562 0.669974 0.012106 -0.005769 479047.000000 0 0 1
-13.616370 -16.805070 27.757431 35.189358 0.889834 0.661939 0.040001 -0.014642 207127.000000 0 0 1
-12.637670 -17.496970 28.503861 35.753668 0.945275 0.648105 0.047486 -0.015667 175126.000000 0 0 1
-11.358870 -17.886170 27.742911 34.908568 1.004992 0.652233 0.043586 -0.017479 -370579.000000 0 0 1
-10.379670 -18.403770 28.585041 35.546320 1.057270 0.636530 0.044746 -0.022343 -636633.000000 0 0 1
-9.331670 -18.922470 27.846741 34.936813 1.112641 0.648385 0.033955 -0.016592 105897.000000 0 0 1
-8.070770 -19.502270 28.565571 35.517147 1.178418 0.636341 0.045763 -0.020213 458859.000000 0 0 1
-8.315470 -20.814370 29.066981 36.705237 1.190716 0.656878 0.038200 -0.006663 -395480.000000 0 0 1
-7.214670 -21.373270 29.704141 37.298849 1.245250 0.649507 0.039942 -0.011141 -497215.000000 0 0 1
-7.448870 -22.725770 30.485261 38.746580 1.254059 0.665212 0.041119 -0.004298 121860.000000 0 0 1
-7.565070 -23.895370 29.660601 38.832593 1.264188 0.701606 0.034884 -0.011545 -70141.500000 0 0 1
-8.016970 -24.973670 30.418721 40.165341 1.260171 0.711570 0.033122 -0.010099 -111386.000000 0 0 1
-8.297770 -26.242770 29.515231 40.356968 1.264551 0.750491 0.031023 -0.011198 -371085.000000 0 0 1
-9.418270 -26.265470 28.667641 40.005154 1.226498 0.771883 0.038234 -0.013487 -119385.000000 0 0 1
-9.596470 -27.517670 28.070591 40.463224 1.235246 0.804140 0.042377 -0.019010 -94452.900000 0 0 1
-10.805370 -27.731170 27.118531 40.263986 1.199247 0.831838 0.030395 -0.005650 10747.700000 0 0 1
-10.899470 -27.002870 25.930521 38.991606 1.187155 0.843265 0.048498 -0.006812 25013.500000 0 0 1
-11.305770 -25.653870 26.103591 38.305861 1.155700 0.821052 0.038622 -0.002935 -305360.000000 0 0 1
-11.524770 -24.977270 24.742521 36.998334 1.138494 0.838274 0.039929 -0.017444 -201424.000000 0 0 1
-12.630170 -25.521170 24.060701 37.279601 1.111245 0.869234 0.031501 -0.007815 16422.300000 0 0 1
-12.733170 -25.080270 22.686601 36.136345 1.101010 0.892066 0.025946 -0.011152 -901412.000000 0 0 1
-14.064670 -25.327270 22.023601 36.391270 1.063880 0.920793 0.014157 -0.005212 -871210.000000 0 0 1
-14.438870 -26.666570 21.698901 37.288460 1.074534 0.949709 0.022500 0.000752 198622.000000 0 0 1
-15.623370 -26.746870 20.917401 37.376763 1.042135 0.976849 0.022785 0.004252 335960.000000 0 0 1
-15.824870 -28.193170 20.404701 38.231312 1.059318 1.007806 0.024595 -0.003565 475047.000000 0 0 1
-14.919870 -28.518770 19.333701 37.546169 1.088793 1.029869 0.015417 -0.001357 279757.000000 0 0 1
-14.750270 -29.900470 19.153401 38.450765 1.112513 1.049358 0.030357 0.007996 285524.000000 0 0 1
-13.737370 -30.138670 17.991301 37.692727 1.143125 1.073200 0.018576 0.001032 247044.000000 0 0 1
-14.244070 -29.871770 16.714601 37.075519 1.125847 1.103106 0.024599 -0.007022 -152261.000000 0 0 1
-13.230870 -30.067570 15.748101 36.429622 1.156258 1.123767 0.031802 -0.008399 121411.000000 0 0 1
-13.613470 -29.430570 14.356301 35.462493 1.137545 1.154003 0.007105 -0.006192 -281001.000000 0 0 1
-13.574670 -27.997070 14.322601 34.252657 1.119334 1.139393 0.006379 -0.001812 -289268.000000 0 0 1
-13.839370 -27.347570 13.086901 33.326937 1.102317 1.167250 0.006300 0.005794 91170.500000 0 0 1
-12.828870 -27.458570 11.908801 32.563362 1.133725 1.196399 -0.002719 0.010520 230003.000000 0 0 1
-13.243270 -26.757570 10.759801 31.735234 1.111209 1.224890 -0.012766 0.012145 406206.000000 0 0 1
-12.261670 -26.940970 9.716701 31.154112 1.143684 1.253613 -0.006849 0.008404 570822.000000 0 0 1
-12.701470 -26.207570 8.415801 30.314844 1.119505 1.289488 -0.008456 0.013599 -558705.000000 0 0 1
-13.850370 -26.661970 7.775601 31.034713 1.091686 1.317553 -0.007753 0.010991 -455374.000000 0 0 1
-13.924270 -26.031170 6.541301 30.237324 1.079614 1.352740 -0.005989 0.010061 -169144.000000 0 0 1
-14.979670 -26.600870 5.597101 31.037467 1.057931 1.389471 -0.004647 0.011033 -233588.000000 0 0 1
-14.495070 -27.634470 4.767301 31.567359 1.087719 1.419196 0.000772 0.005945 127034.000000 0 0 1
-15.270670 -27.658170 3.575401 31.795459 1.066326 1.458108 0.015019 0.006149 -29411.600000 0 0 1
-14.873670 -28.809770 2.601601 32.526870 1.094216 1.490728 0.019421 0.007202 219827.000000 0 0 1
-13.622170 -28.586570 1.971101 31.727603 1.126106 1.508631 0.025041 0.013181 -63448.200000 0 0 1
-13.165270 -29.859170 1.446101 32.664746 1.155526 1.526511 0.021291 0.006708 717629.000000 0 0 1
-11.666770 -29.817170 0.973401 32.033181 1.197832 1.540404 0.003384 0.007136 597721.000000 0 0 1
-11.454670 -29.089770 -0.211999 31.264503 1.195672 1.577577 0.017173 0.003908 -169360.000000 0 0 1
-11.460370 -27.697170 -0.102099 29.974719 1.178472 1.574203 0.019953 -0.000382 -507102.000000 0 0 1
-11.208170 -26.930670 -1.398099 29.203403 1.176415 1.618689 0.030769 0.001359 129722.000000 0 0 1
-9.973470 -27.266370 -1.991599 29.101401 1.220134 1.639286 0.020931 -0.004403 -355976.000000 0 0 1
-9.676670 -26.499470 -3.143999 28.385641 1.220676 1.681784 0.033902 -0.007504 -506574.000000 0 0 1
-8.293170 -26.766370 -3.684199 28.262848 1.270341 1.701523 0.023255 -0.011568 -580320.000000 0 0 1
-8.020770 -25.958970 -4.814899 27.593190 1.271123 1.746190 0.025417 -0.011852 -1603860.000000 0 0 1
-6.705470 -26.102470 -5.164099 27.440303 1.319343 1.760119 0.015415 -0.004508 -869654.000000 0 0 1
-6.137670 -24.907270 -6.019199 26.349077 1.329189 1.801272 0.014370 -0.004869 -54809.700000 0 0 1
-6.631470 -24.775970 -7.342299 26.678352 1.309269 1.849610 0.014303 -0.007319 -36601.700000 0 0 1
-6.061070 -23.620270 -7.908999 25.636030 1.319611 1.884424 -0.000100 -0.001154 -77002.500000 0 0 1
-6.348770 -23.734470 -9.463299 26.328426 1.309424 1.938456 0.003057 0.000033 234045.000000 0 0 1
-5.687870 -24.868670 -10.087399 27.432795 1.345948 1.947345 -0.015957 0.004128 105517.000000 0 0 1
-5.817970 -24.866070 -11.483999 28.000937 1.340959 1.993392 -0.020450 0.009061 -774826.000000 0 0 1
-6.972670 -25.653870 -12.021899 29.176450 1.305409 1.995489 -0.013668 0.004357 -603185.000000 0 0 1
-7.314370 -25.482970 -13.368199 29.691590 1.291281 2.037825 -0.006548 0.001170 -563233.000000 0 0 1
-8.439970 -26.227770 -13.674499 30.759079 1.259466 2.031488 0.003840 -0.002589 -1079500.000000 0 0 1
-8.617770 -26.201270 -15.209899 31.497834 1.253035 2.074745 0.008202 -0.002432 759889.000000 0 0 1
-7.719870 -26.893970 -16.160099 32.311466 1.291264 2.094551 -0.000704 0.002082 1279830.000000 0 0 1
-6.353270 -26.448670 -16.108099 31.612768 1.335052 2.105451 -0.000506 0.003934 602561.000000 0 0 1
-5.411870 -27.424270 -16.850599 32.639265 1.375961 2.113284 -0.005808 0.009758 -432307.000000 0 0 1
-5.688370 -27.350270 -18.196499 33.339278 1.365737 2.148137 0.015966 0.006386 277785.000000 0 0 1
-4.709070 -27.917670 -19.075499 34.138634 1.403692 2.163693 0.007736 0.002488 44763.800000 0 0 1
-24.304670 14.720338 -5.764153 28.993633 -0.544570 1.770937 -0.025249 -0.005831 -65399.600000 0 0 1
-24.558170 13.525438 -5.089253 28.494590 -0.503420 1.750364 -0.028574 0.001504 140974.000000 0 0 1
-23.409870 12.715438 -5.191053 27.141323 -0.497581 1.763242 -0.019645 -0.003678 -347103.000000 0 0 1
-23.616470 11.258538 -4.690453 26.579930 -0.444854 1.748191 -0.005870 -0.001554 18891.700000 0 0 1
-24.069070 10.298738 -5.664253 26.785591 -0.404310 1.783871 -0.001679 -0.007880 -342892.000000 0 0 1
-25.436680 10.251238 -5.926353 28.057694 -0.383099 1.783620 -0.000719 -0.011843 -745679.000000 0 0 1
-25.779240 9.627738 -7.287553 28.467015 -0.357427 1.829678 0.014947 -0.007121 -199261.000000 0 0 1
-25.503610 10.528338 -8.314953 28.816982 -0.391507 1.863502 0.031421 0.005987 -188141.000000 0 0 1
-25.710370 9.881538 -9.537153 29.148331 -0.366934 1.904129 0.047120 -0.002660 -532486.000000 0 0 1
-25.971070 10.780538 -10.770453 30.111777 -0.393454 1.936581 0.026062 -0.003226 88258.300000 0 0 1
-24.930270 11.632338 -11.227953 29.713575 -0.436568 1.958294 0.020007 -0.004407 361163.000000 0 0 1
-25.463230 12.512738 -12.236053 30.897664 -0.456747 1.977973 0.020560 -0.010209 12380.300000 0 0 1
-24.519570 13.617838 -12.773453 30.819083 -0.506969 1.998152 0.021607 -0.013411 -252089.000000 0 0 1
-24.095270 14.514238 -11.735953 30.479136 -0.542159 1.966057 0.013311 -0.007781 292810.000000 0 0 1
-23.251370 15.451838 -12.370753 30.535570 -0.586540 1.987913 0.006943 -0.009876 -152131.000000 0 0 1
-23.249070 16.903838 -11.842753 31.088740 -0.628668 1.961602 -0.010230 -0.002458 -319228.000000 0 0 1
-22.626870 17.046038 -10.610953 30.251198 -0.645644 1.929180 -0.009974 0.002103 -80580.100000 0 0 1
-22.598970 18.375338 -10.219453 30.867518 -0.682681 1.908239 -0.024256 0.008631 149843.000000 0 0 1
-21.650970 18.657838 -8.983753 29.959760 -0.711279 1.875343 -0.016647 0.013378 141239.000000 0 0 1
-22.140370 18.325738 -7.677653 29.748529 -0.691409 1.831836 -0.007307 0.005577 129323.000000 0 0 1
-23.234170 19.109038 -7.226453 30.938707 -0.688283 1.806547 -0.020545 -0.001816 -138509.000000 0 0 1
-23.609070 18.663438 -5.814053 30.651514 -0.668934 1.761635 -0.032410 -0.004135 341362.000000 0 0 1
-22.582670 18.968038 -4.867853 29.890792 -0.698623 1.734380 -0.001834 -0.023915 486102.000000 0 0 1
-23.010870 18.414238 -3.650553 29.696983 -0.674888 1.694035 -0.023510 -0.018214 381269.000000 0 0 1
-21.850470 17.918138 -2.729553 28.389314 -0.686838 1.667092 -0.006628 -0.036976 -126635.000000 0 0 1
-21.126270 18.911838 -2.050153 28.428507 -0.730146 1.642975 0.008542 -0.036209 104177.000000 0 0 1
-20.140970 18.316038 -1.231653 27.251658 -0.737980 1.616007 0.035832 -0.047068 -358182.000000 0 0 1
-19.171970 19.367938 -0.689753 27.260910 -0.790483 1.596101 0.037229 -0.040955 -625233.000000 0 0 1
-19.825070 20.222838 0.171547 28.320064 -0.795330 1.564739 0.017558 -0.039908 190467.000000 0 0 1
-19.192970 21.491538 0.276047 28.815491 -0.841836 1.561216 0.029335 -0.040191 205525.000000 0 0 1
-20.000270 22.302138 1.312047 29.985290 -0.839759 1.527026 0.015989 -0.027068 197362.000000 0 0 1
-19.917470 21.750838 2.586947 29.605690 -0.829369 1.483305 0.008686 -0.022186 -188980.000000 0 0 1
-20.967970 22.313738 3.316847 30.798704 -0.816481 1.462893 -0.009026 -0.014327 -261884.000000 0 0 1
-20.904870 21.865838 4.768347 30.624591 -0.807862 1.414457 -0.007372 -0.002328 -157807.000000 0 0 1
-19.798670 22.412038 5.451147 30.397398 -0.847232 1.390492 -0.011497 0.004658 -529581.000000 0 0 1
-19.639470 21.890038 6.768247 30.177669 -0.839537 1.344592 -0.009838 0.019996 -295505.000000 0 0 1
-20.678770 22.164038 7.886347 31.321727 -0.820052 1.316272 -0.022444 0.010836 26709.500000 0 0 1
-21.792170 21.264038 7.814147 31.434358 -0.773133 1.319576 -0.010165 0.015133 602333.000000 0 0 1
-22.253970 20.642438 9.023347 31.666547 -0.747848 1.281843 0.000791 0.008548 18948.500000 0 0 1
-22.605370 21.582838 10.254947 32.893549 -0.762262 1.253750 -0.001334 0.007966 -83670.600000 0 0 1
-23.756270 22.411438 10.046447 34.169636 -0.756277 1.272370 0.007630 0.007170 843293.000000 0 0 1
-24.112070 23.058938 11.269847 35.215281 -0.763076 1.245038 0.012955 0.011987 85768.100000 0 0 1
-25.018770 24.283238 11.051647 36.575311 -0.770480 1.263837 0.017921 -0.003628 173944.000000 0 0 1
-25.761040 24.670138 12.189847 37.694022 -0.763770 1.241487 0.006911 -0.004614 176202.000000 0 0 1
-26.275630 26.030238 12.135047 38.926102 -0.780707 1.253767 0.003692 -0.006014 -1017.990000 0 0 1
-26.741370 26.552738 13.507147 40.032384 -0.781859 1.226637 0.007758 -0.009295 -193635.000000 0 0 1
-25.759830 26.451338 14.492747 39.664617 -0.798642 1.196753 -0.006193 -0.004354 182133.000000 0 0 1
-26.394100 26.861838 15.742547 40.817088 -0.794181 1.174846 0.000982 -0.012063 284216.000000 0 0 1
-25.456540 26.864638 16.931347 40.699075 -0.812304 1.141740 0.008909 -0.019923 -269010.000000 0 0 1
-24.998470 25.599738 17.396647 39.785844 -0.797281 1.118250 0.019814 -0.015354 -546223.000000 0 0 1
-24.075770 25.729638 18.395347 39.749790 -0.818593 1.089669 0.028069 -0.015590 -738803.000000 0 0 1
-23.581070 24.336838 18.847147 38.775811 -0.801169 1.063227 0.040195 -0.008606 -356884.000000 0 0 1
-22.534670 24.402538 19.789047 38.663957 -0.825172 1.033493 0.041973 -0.017316 200199.000000 0 0 1
-22.088170 23.080938 20.011647 37.697254 -0.807374 1.011191 0.044392 -0.017140 397870.000000 0 0 1
-20.568770 22.939738 20.389947 36.946662 -0.839839 0.986185 0.044501 -0.026680 42752.300000 0 0 1
-19.806970 23.155238 19.231647 36.032449 -0.863176 1.007789 0.046035 -0.028680 -1085920.000000 0 0 1
-18.460170 22.873338 19.285647 35.155421 -0.891765 0.990128 0.035278 -0.030983 -745632.000000 0 0 1
-18.027270 21.360538 19.340747 33.989992 -0.869824 0.965491 0.033126 -0.024220 -880175.000000 0 0 1
-18.335570 20.640238 20.536947 34.408992 -0.844460 0.931229 0.038604 -0.023477 -97949.300000 0 0 1
-17.549570 20.967338 21.654747 34.879002 -0.873901 0.900965 0.037974 -0.014146 -359262.000000 0 0 1
-18.246270 20.621038 23.027347 35.894461 -0.846422 0.874306 0.010563 -0.004734 -96065.000000 0 0 1
-19.336370 21.500638 23.224647 37.088501 -0.838346 0.894133 0.025045 -0.006582 -212885.000000 0 0 1
-19.883470 21.225438 24.487847 38.020077 -0.818031 0.870981 0.035839 0.001757 -591888.000000 0 0 1
-21.106270 22.103338 24.742147 39.321826 -0.808469 0.890245 0.033825 -0.001162 -560936.000000 0 0 1
-20.889970 23.483838 24.770147 40.018017 -0.843787 0.903359 0.040172 -0.008825 231688.000000 0 0 1
-21.997770 24.156838 25.356047 41.356787 -0.832143 0.910811 0.034149 -0.019845 242971.000000 0 0 1
-22.944670 24.926838 24.396647 41.749270 -0.826781 0.946704 0.027567 -0.018399 125338.000000 0 0 1
-23.992170 24.158138 23.849347 41.569595 -0.788845 0.959755 0.031348 -0.019847 -38243.200000 0 0 1
-24.663470 24.934038 22.861647 41.864638 -0.790853 0.993113 0.030583 -0.016592 219329.000000 0 0 1
-25.730210 24.066238 22.125347 41.602386 -0.751995 1.010038 0.035886 -0.015743 560410.000000 0 0 1
-26.939160 23.936638 22.873247 42.683327 -0.726450 1.005244 0.007527 -0.012187 -164559.000000 0 0 1
-27.749690 22.939938 22.334647 42.368886 -0.690795 1.015556 0.013579 -0.011872 751893.000000 0 0 1
-29.195640 22.967538 22.973247 43.676805 -0.666564 1.016926 0.018048 -0.003936 -639434.000000 0 0 1
-29.879690 24.169738 22.677747 44.623450 -0.680145 1.037700 -0.000828 0.005019 -320315.000000 0 0 1
-31.269040 24.161538 22.905847 45.675055 -0.657871 1.045470 -0.022085 0.004499 151530.000000 0 0 1
-32.030330 23.275738 21.868347 45.231920 -0.628407 1.066180 -0.023113 0.003996 -1527780.000000 0 0 1
-31.815470 21.896638 22.045947 44.471459 -0.602789 1.052118 -0.019284 0.005577 108145.000000 0 0 1
-32.432550 21.043238 21.069047 44.029455 -0.575553 1.071826 -0.025901 0.017809 -116428.000000 0 0 1
-33.920710 20.759638 21.320547 45.123640 -0.549200 1.078680 -0.028971 0.019866 -298921.000000 0 0 1
-34.465137 20.132738 20.200847 44.735300 -0.528682 1.102279 -0.009361 0.025780 -594009.000000 0 0 1
34.155929 20.152838 20.066547 44.445818 0.533052 1.102369 -0.016663 0.009570 -334943.000000 0 0 1
33.779816 19.561638 18.720447 43.291903 0.524904 1.123617 0.011242 0.010655 -224153.000000 0 0 1
33.984924 18.138838 18.764947 42.849922 0.490268 1.117510 0.018641 0.010016 465457.000000 0 0 1
33.203886 17.532238 17.740047 41.528144 0.485810 1.129423 0.022807 0.001100 142052.000000 0 0 1
33.586626 16.065038 17.573547 41.170092 0.446151 1.129787 0.015785 0.000484 240625.000000 0 0 1
32.732616 15.348938 16.686847 39.817897 0.438475 1.138366 0.016854 -0.004028 464438.000000 0 0 1
33.317166 14.070538 16.528647 39.764429 0.399599 1.142123 0.014683 -0.005938 52832.600000 0 0 1
32.599696 13.195238 15.516747 38.439875 0.384608 1.155280 0.020685 -0.002414 -253680.000000 0 0 1
32.718126 13.664238 14.180447 38.187332 0.395616 1.190346 0.026084 -0.011246 147210.000000 0 0 1
32.082026 12.815338 13.252147 37.001469 0.380037 1.204509 0.034487 -0.014555 -379321.000000 0 0 1
32.385556 13.169838 11.804647 36.900117 0.386233 1.245164 0.053434 -0.013357 -208934.000000 0 0 1
33.584696 12.730138 11.209247 37.624932 0.362313 1.268283 0.046669 -0.015330 -122859.000000 0 0 1
33.758866 13.047038 9.832147 37.504098 0.368795 1.305534 0.040840 -0.012266 -3094.810000 0 0 1
-34.879763 12.601338 9.286247 38.231217 -0.346688 1.325445 0.052023 -0.005269 -129564.000000 0 0 1
-34.701321 11.169638 9.253447 37.610753 -0.311407 1.322212 0.042040 -0.001882 410246.000000 0 0 1
-33.537260 10.651738 8.587247 36.220825 -0.307533 1.331437 0.017707 -0.001439 625273.000000 0 0 1
-33.319450 10.936638 7.072347 35.774487 -0.317156 1.371793 0.020248 0.006868 -81534.300000 0 0 1
-33.014560 12.314038 6.889547 35.903517 -0.357006 1.377708 0.050720 0.004523 -19754.900000 0 0 1
-32.760720 12.568338 5.480147 35.514221 -0.366324 1.415869 0.029003 -0.008005 406696.000000 0 0 1
-33.940150 13.403938 4.859147 36.813186 -0.376127 1.438415 0.045862 -0.011385 -486137.000000 0 0 1
34.878233 12.701238 4.762847 37.423219 0.349233 1.443180 0.055750 -0.005598 -670028.000000 0 0 1
33.753406 13.544538 4.646747 36.665232 0.381609 1.443720 0.040973 -0.007070 195617.000000 0 0 1
33.285286 14.332738 5.923947 36.720986 0.406607 1.408765 0.045188 -0.000968 -1704250.000000 0 0 1
32.506136 15.485938 5.608247 36.440577 0.444590 1.416281 0.038070 -0.002779 204015.000000 0 0 1
31.979966 16.071538 6.770947 36.426066 0.465686 1.383827 0.036380 -0.003295 307436.000000 0 0 1
30.726476 15.349538 7.339647 35.122572 0.463291 1.360272 0.043228 -0.006034 -310766.000000 0 0 1
31.151726 14.194238 8.070547 35.171582 0.427541 1.339271 0.050167 -0.002823 638639.000000 0 0 1
30.061406 13.266338 8.211947 33.869159 0.415602 1.325895 0.056303 -0.004759 261139.000000 0 0 1
30.013216 12.177038 7.164147 33.172254 0.385430 1.353113 0.064281 -0.006132 -178699.000000 0 0 1
29.614126 12.610438 5.887847 32.721344 0.402569 1.389872 0.042893 -0.008715 176402.000000 0 0 1
30.003056 11.679438 4.873047 32.562851 0.371227 1.420582 0.063563 -0.015497 -293543.000000 0 0 1
29.312206 11.847138 3.520847 31.811264 0.384097 1.459890 0.031248 -0.022624 -470496.000000 0 0 1
27.988676 11.381238 3.523147 30.418928 0.386215 1.454715 0.013068 -0.010385 -160647.000000 0 0 1
27.480586 11.597738 2.219647 29.910149 0.399356 1.496518 0.018463 -0.005766 -545971.000000 0 0 1
26.030666 11.147038 2.085347 28.393674 0.404601 1.497286 0.042798 0.007997 -460628.000000 0 0 1
26.044016 9.797938 1.711147 27.878637 0.359828 1.509379 0.000435 -0.004689 690238.000000 0 0 1
24.741466 9.204138 1.725647 26.454379 0.356149 1.505519 0.003908 -0.007982 -204555.000000 0 0 1
24.809466 7.688038 1.754247 26.032536 0.300499 1.503358 0.011729 -0.004334 -72160.400000 0 0 1
25.334086 7.004538 2.848947 26.438532 0.269748 1.462829 0.017873 0.000542 167318.000000 0 0 1
26.720156 7.134538 3.081547 27.827402 0.260923 1.459831 0.039026 -0.006399 -470783.000000 0 0 1
27.171156 6.392638 4.329547 28.246815 0.231071 1.416914 0.042675 -0.010352 -404773.000000 0 0 1
28.568636 6.386538 4.499947 29.617636 0.219935 1.418271 0.055309 -0.011074 5408.130000 0 0 1
28.903986 5.813138 5.754247 30.039047 0.198471 1.378046 0.042443 0.001695 -194835.000000 0 0 1
30.420766 5.908838 5.977347 31.560515 0.191848 1.380252 0.061276 -0.002540 -120974.000000 0 0 1
30.880286 7.260638 6.181347 32.319004 0.230928 1.378350 0.076946 -0.018380 -295577.000000 0 0 1
32.217346 7.236438 6.611747 33.675490 0.220946 1.373175 0.030751 -0.003325 -247676.000000 0 0 1
32.533916 8.415238 7.535147 34.439082 0.253113 1.350216 0.050213 -0.016628 2937.720000 0 0 1
31.770126 8.439138 8.729347 34.011197 0.259635 1.311230 0.049699 -0.015992 -222356.000000 0 0 1
32.222596 9.343738 9.676647 34.917598 0.282234 1.289992 0.043331 -0.009363 -293995.000000 0 0 1
31.593366 9.274938 11.095947 34.746012 0.285549 1.245759 0.029564 -0.008677 274683.000000 0 0 1
30.189006 9.535038 11.108147 33.551215 0.305929 1.233348 0.036589 -0.008690 113718.000000 0 0 1
29.696086 9.480938 12.415047 33.554123 0.309037 1.191787 0.025256 -0.011197 217755.000000 0 0 1
28.172116 9.808338 12.524247 32.353182 0.335033 1.173301 0.027199 -0.018106 45017.200000 0 0 1
27.877306 11.164638 12.529647 32.538983 0.380930 1.175517 0.023430 -0.015325 32975.400000 0 0 1
28.088936 11.938638 11.309947 32.548953 0.401896 1.215919 0.037233 -0.022987 -273370.000000 0 0 1
26.913456 12.024938 10.288447 31.221554 0.420190 1.234990 0.025403 -0.023413 -9651.220000 0 0 1
27.103216 12.965038 9.271247 31.442528 0.446185 1.271484 0.013484 -0.008050 -249731.000000 0 0 1
26.039236 12.893538 8.362747 30.236083 0.459767 1.290561 0.001916 -0.004603 -162754.000000 0 0 1
25.968026 14.147838 7.504247 30.509235 0.498856 1.322280 -0.005897 0.001669 64802.400000 0 0 1
25.836316 15.366438 8.234047 31.167968 0.536559 1.303440 -0.002367 0.005078 246924.000000 0 0 1
25.995586 16.441138 7.373447 31.629879 0.563945 1.335515 -0.007925 0.010087 -981211.000000 0 0 1
25.632466 17.832838 7.841347 32.195033 0.607843 1.324764 -0.003676 0.006298 34739.900000 0 0 1
24.294566 18.221338 8.074647 31.423607 0.643512 1.310920 0.004512 0.003161 111731.000000 0 0 1
23.539466 17.401638 8.982247 30.620324 0.636588 1.273075 0.008248 0.004160 -408919.000000 0 0 1
22.201266 18.135838 9.297047 30.137019 0.684951 1.257188 0.014496 -0.003851 -390198.000000 0 0 1
21.525866 18.337738 8.116747 29.419673 0.705592 1.291275 0.018965 -0.000227 362039.000000 0 0 1
20.375366 19.187038 8.413447 29.224717 0.755370 1.278776 0.054558 -0.011978 829740.000000 0 0 1
19.668166 19.723838 7.145247 28.756236 0.786811 1.319689 0.041612 -0.011056 -45583.100000 0 0 1
20.391766 20.714138 6.406147 29.764717 0.793240 1.353873 0.028583 -0.000483 -65516.900000 0 0 1
19.894666 21.021338 5.112647 29.391046 0.812927 1.395954 0.030091 -0.000707 -286648.000000 0 0 1
16.707330 17.555938 33.175201 41.084544 0.810160 0.630918 0.043660 0.013853 -70810.100000 0 0 1
16.323830 18.324838 32.080691 40.391061 0.843085 0.653020 0.043864 0.003726 80985.900000 0 0 1
15.836330 17.488238 31.079461 39.020004 0.834928 0.649311 0.040196 0.002474 -72828.900000 0 0 1
15.264230 18.166638 29.839871 38.124026 0.871999 0.671796 0.045961 0.003000 364389.000000 0 0 1
16.298430 18.623838 28.960241 38.094379 0.851888 0.707139 0.043229 0.003629 456505.000000 0 0 1
15.925930 18.625938 27.565211 36.883623 0.863383 0.726722 0.048984 -0.008480 271656.000000 0 0 1
17.142430 19.086038 26.700631 37.027874 0.838995 0.765414 0.044054 -0.000679 376342.000000 0 0 1
17.591630 20.400438 26.986831 38.130465 0.859195 0.784488 0.045698 -0.005044 124119.000000 0 0 1
18.631630 20.774638 26.101521 38.210111 0.839727 0.818790 0.040246 -0.002016 -343672.000000 0 0 1
19.359230 22.062838 26.526791 39.562852 0.850575 0.835917 0.039087 -0.008447 -195836.000000 0 0 1
18.553730 23.241038 26.471611 39.813728 0.897082 0.843454 0.024246 -0.008003 101325.000000 0 0 1
19.087230 24.374938 27.055411 41.115146 0.906465 0.852584 0.024462 -0.002866 -57842.600000 0 0 1
18.186430 25.634138 26.733691 41.261913 0.953749 0.865969 0.032843 0.000052 399726.000000 0 0 1
18.115430 26.104138 25.395681 40.675981 0.964130 0.896509 0.032258 -0.006031 -141361.000000 0 0 1
17.263230 27.161038 25.153661 40.846637 1.004619 0.907386 0.033847 -0.012418 -658616.000000 0 0 1
17.497830 27.720838 23.780601 40.498591 1.007740 0.943206 0.016836 -0.013343 -61309.000000 0 0 1
18.658330 28.486738 23.536401 41.395527 0.990926 0.966026 0.025907 -0.014749 -45206.000000 0 0 1
18.443330 29.497638 22.586001 41.477639 1.012019 0.994962 0.024062 -0.015739 -61101.700000 0 0 1
19.703230 30.356138 22.362401 42.541619 0.995076 1.017306 0.031367 -0.016684 -307565.000000 0 0 1
20.726230 29.668338 21.720001 42.208356 0.961012 1.030267 0.020954 -0.018776 -1840330.000000 0 0 1
21.848430 30.412438 21.568801 43.214389 0.947825 1.048223 0.024391 -0.024331 -975373.000000 0 0 1
22.378230 30.541738 20.117501 42.875363 0.938453 1.082402 0.014224 -0.023358 -46797.700000 0 0 1
21.690530 31.503338 19.322901 42.852233 0.967820 1.103001 0.013318 -0.015379 -47908.500000 0 0 1
22.036630 31.526738 17.957701 42.450292 0.960754 1.134011 0.017530 -0.002363 -199367.000000 0 0 1
21.574030 32.714338 17.065401 42.742187 0.987795 1.160083 0.021431 -0.010869 -383310.000000 0 0 1
22.212230 33.976638 17.266001 44.112468 0.991789 1.168634 0.031272 -0.010703 89013.800000 0 0 1
22.429430 -34.527470 16.136201 44.222195 -0.994695 1.197283 0.033171 -0.010493 -89662.200000 0 0 1
23.464830 34.234638 15.124901 44.174329 0.969928 1.221336 0.016910 -0.006491 -437538.000000 0 0 1
23.089930 33.175138 14.232701 42.852123 0.962759 1.232230 0.027017 -0.006657 -38972.900000 0 0 1
22.171930 33.425938 13.183001 42.221787 0.985118 1.253255 0.026962 -0.004268 -169458.000000 0 0 1
21.704730 32.202838 12.396701 40.765135 0.977734 1.261802 0.036150 -0.010309 189258.000000 0 0 1
22.622530 31.618438 11.451901 40.529625 0.949753 1.284338 0.043118 -0.032546 164365.000000 0 0 1
22.064630 30.425138 10.992301 39.158238 0.943350 1.286257 0.043280 -0.023077 -321361.000000 0 0 1
23.223930 29.663938 10.231201 39.038156 0.906569 1.305617 0.041454 -0.023059 1526790.000000 0 0 1
24.259230 29.040738 11.014501 39.410582 0.874868 1.287543 0.030043 -0.018986 480588.000000 0 0 1
24.993330 29.963038 11.801001 40.764124 0.875583 1.277097 0.021722 -0.021463 -1448530.000000 0 0 1
26.431730 29.485138 12.106701 41.407510 0.839950 1.274082 0.023140 -0.017362 207758.000000 0 0 1
26.540830 28.476938 13.059101 41.059612 0.820574 1.247122 0.024247 -0.009421 -502544.000000 0 0 1
27.814130 27.899338 12.934301 41.464383 0.786928 1.253565 0.022315 0.007212 -13287.900000 0 0 1
28.061130 26.864538 14.063801 41.314899 0.763616 1.223449 0.016204 -0.012325 -295804.000000 0 0 1
28.678430 27.455238 15.168101 42.500750 0.763611 1.205860 -0.000829 -0.009838 -289060.000000 0 0 1
28.793330 26.495338 16.131401 42.323526 0.743859 1.179762 0.019051 -0.019219 211418.000000 0 0 1
29.889530 26.798338 17.216701 43.680084 0.730922 1.165649 0.014518 -0.022690 -203311.000000 0 0 1
31.149830 26.670238 16.634601 44.252949 0.708078 1.185431 0.028007 -0.013260 -804399.000000 0 0 1
32.088630 27.319038 17.489401 45.627724 0.705284 1.177423 -0.003207 -0.006987 232292.000000 0 0 1
33.555230 27.319638 17.026301 46.499581 0.683321 1.195917 -0.008186 -0.020817 90217.800000 0 0 1
33.760730 28.197738 15.888701 46.769115 0.695852 1.224170 0.007475 -0.022632 113171.000000 0 0 1
-34.832606 28.267638 15.752001 47.544667 -0.681731 1.233105 0.016017 -0.028677 333852.000000 0 0 1
-34.470206 29.446938 14.879101 47.714829 -0.706969 1.253674 0.005833 -0.024408 -117607.000000 0 0 1
-34.842406 30.721838 15.408701 48.941318 -0.722633 1.250508 0.007904 -0.018721 -125862.000000 0 0 1
34.893230 31.623638 14.360401 49.232236 0.736283 1.274806 0.000290 0.002185 86817.300000 0 0 1
33.796830 32.678338 14.623801 49.233678 0.768574 1.269217 -0.013835 0.000639 -943725.000000 0 0 1
33.631730 33.539238 13.554801 49.393384 0.784021 1.292804 -0.035532 0.002040 601439.000000 0 0 1
32.516130 34.473338 13.589501 49.298928 0.814607 1.291525 -0.034829 0.017364 1566290.000000 0 0 1
31.144730 33.783338 13.248401 47.820793 0.826015 1.290081 -0.025896 0.015176 96437.600000 0 0 1
30.895730 32.763238 14.129501 47.197656 0.814726 1.266765 -0.025429 -0.006934 -31348.500000 0 0 1
29.704130 32.027738 13.805401 45.811575 0.823021 1.264686 -0.004904 -0.004744 223934.000000 0 0 1
29.327730 30.954038 14.815901 45.141767 0.812370 1.236390 0.001825 -0.007200 -127602.000000 0 0 1
28.728130 31.470638 15.988001 45.511786 0.830924 1.211844 -0.003172 -0.009361 -133236.000000 0 0 1
28.302630 30.444838 16.860601 44.857629 0.821847 1.185462 -0.000799 -0.002499 140001.000000 0 0 1
27.141830 31.029038 17.712101 44.868682 0.852123 1.164996 -0.006839 -0.001969 29682.800000 0 0 1
26.710430 30.308338 18.857001 44.582832 0.848415 1.134081 -0.011764 0.002684 261668.000000 0 0 1
27.646930 30.366338 19.945201 45.653896 0.832239 1.118671 -0.004946 -0.006597 371127.000000 0 0 1
27.331630 29.301538 21.035601 45.255880 0.820168 1.087371 0.020292 -0.016641 810504.000000 0 0 1
26.086630 29.436638 21.744201 44.942610 0.845660 1.065780 0.020467 -0.020510 522917.000000 0 0 1
26.066930 28.635638 22.909201 44.992400 0.832321 1.036565 0.011734 -0.018523 185169.000000 0 0 1
24.762630 28.608138 23.754301 44.675275 0.857327 1.010178 0.026329 -0.015863 367933.000000 0 0 1
23.692930 27.898038 23.110701 43.286949 0.866727 1.007596 0.024753 -0.016926 169646.000000 0 0 1
22.529030 27.899038 23.911001 43.100458 0.891487 0.982705 0.027583 -0.018721 55816.600000 0 0 1
22.361030 26.667838 24.866471 42.773013 0.873016 0.950399 0.043868 -0.019719 -324763.000000 0 0 1
23.335230 26.622638 25.899571 43.864400 0.851107 0.939185 0.032011 -0.014900 145051.000000 0 0 1
23.142130 25.605638 26.893771 43.754792 0.835891 0.908857 0.026993 -0.008584 -841966.000000 0 0 1
24.377630 25.467538 27.767081 44.876220 0.807261 0.903648 0.047609 -0.013615 -298441.000000 0 0 1
24.874030 26.638738 28.435741 46.226952 0.819642 0.908241 0.037779 -0.018327 -270485.000000 0 0 1
25.787130 27.353138 27.713711 46.703533 0.814859 0.935524 0.021479 -0.006152 -1246870.000000 0 0 1
26.068130 28.706338 28.430031 48.081887 0.833526 0.938147 -0.004489 -0.005473 57966.100000 0 0 1
26.853430 28.668138 29.650581 49.215097 0.818071 0.924205 0.013326 -0.004377 508444.000000 0 0 1
26.919230 29.980238 30.293781 50.410046 0.839143 0.926111 0.015596 -0.008463 -814826.000000 0 0 1
28.349330 30.388938 30.559141 51.585203 0.820108 0.936760 0.001871 -0.004910 -885076.000000 0 0 1
29.063330 30.510838 29.387011 51.372997 0.809691 0.961815 -0.017366 -0.008105 78284.700000 0 0 1
30.478730 30.479638 29.615611 52.297665 0.785413 0.968800 -0.006237 -0.014300 541378.000000 0 0 1
31.224630 30.792538 28.341141 52.214731 0.778431 0.997052 -0.006945 -0.011874 -559928.000000 0 0 1
31.087630 32.189438 27.984161 52.779863 0.802809 1.011954 -0.012863 -0.013350 320480.000000 0 0 1
31.702930 32.431838 26.731621 52.644842 0.796763 1.038199 0.007379 -0.017957 -201442.000000 0 0 1
31.350830 33.886938 26.296301 53.129037 0.824253 1.053017 0.000945 -0.015207 -252076.000000 0 0 1
32.091930 -34.440370 26.978381 54.257388 -0.820681 1.050394 0.011259 -0.021132 97172.900000 0 0 1
31.591630 -33.146670 26.799021 53.055823 -0.809414 1.041287 0.011528 -0.020041 -454003.000000 0 0 1
32.559730 -32.094570 27.353451 53.276719 -0.778204 1.031628 0.007028 -0.018219 -75785.200000 0 0 1
32.556130 -32.090070 28.737371 53.995469 -0.778189 1.009578 -0.000342 -0.015882 -5891.870000 0 0 1
33.605830 -31.309170 29.240321 54.448254 -0.750033 1.003885 -0.000366 -0.028786 -508079.000000 0 0 1
33.432130 -30.867370 30.693841 54.887282 -0.745532 0.977357 0.009320 -0.025206 -326095.000000 0 0 1
33.515730 -31.907570 31.691141 56.086769 -0.760822 0.970317 0.005469 -0.022977 -284331.000000 0 0 1
32.393030 -32.739470 31.718891 55.921994 -0.790717 0.967696 0.005270 -0.025007 -703069.000000 0 0 1
32.346530 -33.543670 33.041301 57.124455 -0.803565 0.954019 0.011276 -0.020604 -639021.000000 0 0 1
31.819230 -32.799370 34.170081 57.060114 -0.800565 0.928740 0.003540 -0.023620 218456.000000 0 0 1
32.092130 -33.377370 -33.803893 57.329371 -0.805027 2.201414 0.002193 -0.018442 -84021.800000 0 0 1
31.384730 34.559538 -33.514753 57.468266 0.833505 2.193443 0.002693 -0.018053 143729.000000 0 0 1
31.716730 33.459838 -34.369296 57.504436 0.812136 2.211402 0.004076 -0.020067 -19944.600000 0 0 1
30.855130 32.398738 -34.042993 56.219593 0.809797 2.221236 0.007078 -0.015521 47896.700000 0 0 1
30.928430 31.353038 34.049918 55.668462 0.792216 0.912645 0.000785 -0.010492 469211.000000 0 0 1
32.281830 30.873538 34.051740 56.167721 0.763103 0.919458 -0.001641 -0.020740 801015.000000 0 0 1
32.590630 30.099538 32.843241 55.197915 0.745682 0.933520 -0.004641 -0.017874 180778.000000 0 0 1
33.881930 29.236938 32.907181 55.548774 0.711939 0.936760 -0.008735 -0.014097 176004.000000 0 0 1
33.836730 28.134038 33.734903 55.448102 0.693634 0.916747 -0.011940 -0.004372 -426655.000000 0 0 1
-34.899706 27.595638 33.735605 55.835470 -0.669052 0.922039 -0.022633 -0.005892 -608041.000000 0 0 1
-34.795406 26.273738 34.507718 55.604066 -0.646752 0.901292 -0.021189 -0.002958 143354.000000 0 0 1
34.676430 25.141038 33.806687 54.565728 0.627320 0.902616 -0.029064 -0.001176 218673.000000 0 0 1
34.596730 24.071238 -34.573263 54.513014 0.607879 2.257796 -0.024620 -0.004931 -307958.000000 0 0 1
34.022430 22.825238 34.029716 53.259166 0.590919 0.877669 -0.028932 -0.002490 -694100.000000 0 0 1
34.941530 22.274738 33.105111 53.037938 0.567528 0.896717 -0.024880 -0.006736 209748.000000 0 0 1
34.489230 21.109938 32.466691 51.857714 0.549250 0.894290 -0.015055 -0.003691 -85081.200000 0 0 1
-34.373806 20.345038 31.769461 51.037023 -0.534425 0.898890 -0.015127 -0.011036 -58148.400000 0 0 1
-33.877506 21.165938 30.759831 50.416759 -0.558440 0.914595 -0.017459 -0.016476 -285267.000000 0 0 1
-32.716506 20.631138 30.153381 49.043246 -0.562619 0.908623 -0.007387 -0.015400 16913.500000 0 0 1
-32.927506 19.668838 28.937351 48.046375 -0.538460 0.924443 0.001777 -0.011717 -619962.000000 0 0 1
-33.548606 18.494738 29.317461 48.239795 -0.503827 0.917579 -0.008985 -0.009021 64126.100000 0 0 1
-34.130306 17.743738 28.253121 47.727946 -0.479427 0.937306 -0.007357 -0.011216 -164696.000000 0 0 1
-34.845606 16.446938 28.621851 47.999254 -0.440993 0.931915 -0.012452 -0.012405 -78105.700000 0 0 1
-33.983006 15.595038 29.360891 47.540633 -0.430236 0.905114 -0.008533 -0.007943 295673.000000 0 0 1
-34.592306 14.326338 29.451171 47.636573 -0.392643 0.904286 -0.005446 -0.012368 -203548.000000 0 0 1
-33.695806 13.220538 29.992901 47.008128 -0.373894 0.878851 -0.005632 0.001068 -693366.000000 0 0 1
-33.237106 13.410638 31.348161 47.615729 -0.383506 0.852162 -0.002888 0.005191 824017.000000 0 0 1
-32.376206 12.330838 31.828401 47.045886 -0.363899 0.827743 -0.000755 0.010741 -713580.000000 0 0 1
-30.934406 12.580538 31.548111 45.940077 -0.386255 0.813825 -0.005536 0.012975 -2764890.000000 0 0 1
-30.497606 12.703138 30.194711 44.757058 -0.394674 0.830325 0.005113 0.012520 -194683.000000 0 0 1
-29.140206 12.915638 29.930181 43.723918 -0.417205 0.816842 0.024660 0.009106 -276561.000000 0 0 1
-28.127306 11.878738 30.422691 43.102087 -0.399599 0.787204 0.013181 0.010649 -969461.000000 0 0 1
-27.976906 10.702638 29.739551 42.210125 -0.365376 0.788994 -0.000363 0.006486 -398860.000000 0 0 1
-26.879806 9.994738 30.216901 41.659091 -0.355989 0.759272 -0.006713 0.004186 -605620.000000 0 0 1
-26.259406 8.939238 29.314101 40.358182 -0.328115 0.757802 0.008176 -0.003450 -85146.000000 0 0 1
-26.790606 7.614238 29.097541 40.278779 -0.276911 0.763524 0.005249 -0.004356 533059.000000 0 0 1
-28.074806 7.596538 28.443021 40.680555 -0.264254 0.796547 0.006732 0.007181 652728.000000 0 0 1
-28.802106 6.264038 28.400891 40.931774 -0.214151 0.803962 0.000377 0.003933 -215301.000000 0 0 1
-29.190006 5.756238 29.691011 42.032688 -0.194701 0.786427 0.003117 0.006316 270964.000000 0 0 1
-29.816106 4.469338 29.572411 42.231536 -0.148789 0.795056 0.003419 0.002410 -324272.000000 0 0 1
-30.355306 4.014638 30.963621 43.546616 -0.131492 0.779812 0.003123 0.014045 896120.000000 0 0 1
-31.516406 4.772738 31.400701 44.744462 -0.150295 0.792905 0.000885 0.010089 698941.000000 0 0 1
-32.041506 4.415338 32.676001 45.976889 -0.136938 0.780297 0.010229 0.001870 150538.000000 0 0 1
-33.478606 4.879738 32.966721 47.238052 -0.144738 0.798356 0.012535 -0.000824 822.612000 0 0 1
-33.713906 6.289138 33.048671 47.627674 -0.184425 0.803910 0.007620 0.005844 -552567.000000 0 0 1
34.945830 6.629238 32.987561 48.511205 0.187473 0.823035 -0.004694 0.015232 -382884.000000 0 0 1
34.693630 8.145738 33.129901 48.657901 0.230614 0.821841 -0.012692 0.007992 -144029.000000 0 0 1
35.002030 8.691638 34.442171 49.869327 0.243395 0.808411 -0.002745 0.001786 295777.000000 0 0 1
34.530030 10.008338 -34.614374 49.906359 0.282114 2.337252 -0.003019 -0.005675 -137374.000000 0 0 1
34.529030 10.309838 -33.069063 48.909197 0.290158 2.313296 0.004351 -0.015367 -169774.000000 0 0 1
33.492730 9.654638 -32.361053 47.562724 0.280652 2.319087 0.017417 -0.007553 194672.000000 0 0 1
33.696430 9.853438 -30.967243 46.813564 0.284486 2.293615 0.016972 -0.000228 551346.000000 0 0 1
32.431430 9.317538 -30.200003 45.284151 0.279765 2.300837 -0.000185 0.000123 658683.000000 0 0 1
32.315230 7.914138 -30.185713 44.923100 0.240177 2.307624 -0.010090 0.001118 106667.000000 0 0 1
31.153730 7.475538 -29.524613 43.567664 0.235504 2.315389 0.001069 -0.008831 -360361.000000 0 0 1
33.614546 6.199538 -19.926053 39.565384 0.182381 2.098584 -0.022245 0.001465 -725405.000000 0 0 1
33.169946 7.284238 -19.195053 39.009685 0.216172 2.085249 -0.032768 0.013319 113516.000000 0 0 1
33.810006 8.472438 -19.544053 39.960840 0.245534 2.081831 -0.037171 0.009934 -1077290.000000 0 0 1
-34.759954 8.738238 -19.129453 40.626926 -0.246285 2.061058 -0.024476 0.008015 -232803.000000 0 0 1
-33.762030 7.917338 -19.740653 39.903036 -0.230342 2.088304 -0.010324 -0.009470 426734.000000 0 0 1
-33.335910 8.453638 -20.998253 40.294832 -0.248354 2.118953 -0.009321 -0.007189 -588826.000000 0 0 1
-32.690320 7.309438 -21.879853 40.010159 -0.219978 2.149402 -0.000954 -0.008157 -120273.000000 0 0 1
-33.510830 6.239038 -22.293053 40.729369 -0.184072 2.149986 0.001857 -0.007904 -175465.000000 0 0 1
-34.227379 6.483638 -23.469253 42.004248 -0.187210 2.163656 -0.004801 -0.005644 -185124.000000 0 0 1
-33.959940 5.435838 -24.605653 42.287870 -0.158720 2.191811 0.003723 -0.012306 -589333.000000 0 0 1
-32.655030 5.426538 -25.088423 41.535855 -0.164673 2.219330 0.015205 -0.013953 -602758.000000 0 0 1
-32.508130 4.297038 -25.916963 41.796316 -0.131422 2.239638 0.029329 -0.014615 -705354.000000 0 0 1
-31.193390 4.219038 -26.675413 41.260217 -0.134438 2.273806 0.041325 -0.016037 -30122.400000 0 0 1
-30.057550 4.206038 -25.795533 39.831603 -0.139030 2.275246 0.033285 -0.015688 -55590.800000 0 0 1
-28.884520 4.027038 -26.520683 39.419274 -0.138526 2.308763 0.035060 -0.014290 -5225.910000 0 0 1
-27.542980 4.270038 -25.766553 37.957400 -0.153807 2.316962 0.019080 -0.013388 246465.000000 0 0 1
-27.215270 5.612538 -25.630413 37.803301 -0.203376 2.315827 0.003181 -0.002714 28801.400000 0 0 1
-25.929080 5.775438 -25.090903 36.540748 -0.219162 2.327675 0.005483 -0.001179 -343819.000000 0 0 1
-25.444440 7.266038 -25.209693 36.547824 -0.278162 2.331971 -0.006835 -0.002288 -142343.000000 0 0 1
-26.232250 8.221838 -24.519153 36.836373 -0.303727 2.299125 -0.007147 0.001249 -38786.200000 0 0 1
-25.977890 9.536238 -25.012053 37.301386 -0.351818 2.305732 -0.016341 -0.005097 -99528.100000 0 0 1
-24.696670 10.219538 -24.484753 36.247311 -0.392348 2.312427 -0.004250 -0.000022 -137326.000000 0 0 1
-24.663870 10.698538 -23.158753 35.483701 -0.409279 2.281885 -0.016170 0.003994 1003620.000000 0 0 1
-23.324270 11.142038 -22.851753 34.501727 -0.445650 2.294729 0.008333 0.006140 493224.000000 0 0 1
-23.060870 11.670138 -21.400653 33.555682 -0.468482 2.262390 0.015928 -0.010245 -653471.000000 0 0 1
-23.586070 12.954838 -21.044853 34.161621 -0.502273 2.234499 0.020415 -0.009990 1189730.000000 0 0 1
-24.990270 13.217438 -21.077053 35.262677 -0.486502 2.211445 0.003320 -0.005223 1322250.000000 0 0 1
-26.102600 12.283838 -20.403853 35.334906 -0.439851 2.186388 -0.003018 0.004021 322893.000000 0 0 1
-25.932880 12.177738 -18.990753 34.372376 -0.439022 2.156157 0.007222 -0.001412 362248.000000 0 0 1
-27.127060 11.784038 -18.351953 34.807113 -0.409807 2.126154 0.013844 -0.003526 -556220.000000 0 0 1
-26.994110 11.469238 -16.826853 33.813730 -0.401768 2.091665 0.038127 -0.008341 117.389000 0 0 1
-26.091120 10.429538 -16.479553 32.574491 -0.380278 2.101226 0.041297 -0.012236 852460.000000 0 0 1
-24.740070 10.893438 -16.343453 31.588708 -0.414771 2.114586 0.032572 -0.006655 69212.600000 0 0 1
-23.858070 9.630138 -16.245253 30.427870 -0.383643 2.133995 0.028587 0.001616 -530482.000000 0 0 1
-22.477970 9.788438 -16.077453 29.318205 -0.410704 2.151219 0.032472 0.010723 160718.000000 0 0 1
-21.759070 8.565138 -16.112453 28.397708 -0.375008 2.174124 0.028136 0.005868 860237.000000 0 0 1
-20.222370 8.648738 -15.818653 27.091967 -0.404140 2.194305 0.033736 0.007081 785219.000000 0 0 1
-19.400870 8.961638 -16.918953 27.257213 -0.432722 2.240450 0.041554 -0.002323 986252.000000 0 0 1
-17.996370 8.992238 -16.630753 26.101946 -0.463383 2.261586 0.047978 -0.010857 549839.000000 0 0 1
-17.128770 9.486438 -17.818353 26.474156 -0.505779 2.309117 0.039227 -0.007750 -199762.000000 0 0 1
-17.014170 8.583738 -18.907553 26.845075 -0.467245 2.352263 0.060172 -0.012811 270841.000000 0 0 1
-16.214470 7.440338 -18.769453 25.895174 -0.430206 2.381576 0.062257 -0.013252 -493148.000000 0 0 1
-15.590370 6.786038 -20.017553 26.264279 -0.410538 2.437438 0.035120 -0.011579 81761.000000 0 0 1
-16.466270 5.913138 -20.709953 27.110983 -0.344764 2.440124 0.029384 -0.001241 658927.000000 0 0 1
-17.474870 6.544638 -21.523853 28.486481 -0.358347 2.427337 0.040482 -0.005760 455652.000000 0 0 1
-18.452470 5.555938 -22.223653 29.415180 -0.292461 2.427238 0.029953 0.001595 498949.000000 0 0 1
-19.415070 4.950138 -21.329553 29.264289 -0.249645 2.387451 0.028654 0.005325 559280.000000 0 0 1
-19.924270 3.818038 -21.960453 29.896746 -0.189332 2.395790 0.010001 0.013692 -394749.000000 0 0 1
-20.809470 3.062338 -20.919653 29.665532 -0.146112 2.353479 0.019191 0.005625 -66809.400000 0 0 1
-21.408370 1.906538 -21.485653 30.390565 -0.088821 2.356021 0.028162 0.007438 595677.000000 0 0 1
-22.201770 1.228038 -20.487753 30.235322 -0.055256 2.315304 0.035222 0.000331 -239319.000000 0 0 1
-22.707470 -0.117662 -20.918253 30.874202 0.005182 2.315198 0.035198 0.011021 -628803.000000 0 0 1
-21.793070 -1.168962 -21.051453 30.322731 0.053588 2.338169 0.017711 0.004589 -377058.000000 0 0 1
-22.353970 -2.414162 -21.333353 30.994194 0.107580 2.329941 0.019446 0.000613 -773007.000000 0 0 1
-22.712270 -2.562662 -22.798753 32.283085 0.112356 2.354932 0.022271 -0.003574 -39318.100000 0 0 1
-21.717870 -2.454262 -23.803853 32.315827 0.112529 2.398826 0.001530 0.000615 -373267.000000 0 0 1
-20.757170 -3.468162 -23.807253 31.775360 0.165553 2.417705 -0.015615 -0.008671 -812593.000000 0 0 1
-19.891370 -3.393362 -25.078073 32.188371 0.168968 2.464031 -0.001297 -0.010327 294492.000000 0 0 1
-20.630870 -3.707562 -26.277993 33.614159 0.177811 2.468269 -0.001069 -0.011401 800043.000000 0 0 1
-19.704270 -3.652062 -27.353353 33.908726 0.183264 2.509302 0.002334 -0.014436 421556.000000 0 0 1
-20.448870 -3.801162 -28.708953 35.451503 0.183788 2.514623 0.006209 -0.016491 59015.500000 0 0 1
-21.030870 -5.074762 -28.891223 36.093676 0.236774 2.498844 0.008363 -0.010435 11225.700000 0 0 1
-21.618970 -5.000062 -30.151863 37.436817 0.227285 2.507158 -0.009192 -0.018810 -856969.000000 0 0 1
-21.308070 -6.220262 -31.085083 38.196961 0.284028 2.521475 0.009192 -0.015629 342128.000000 0 0 1
-19.946170 -6.252262 -31.513943 37.816254 0.303756 2.555926 0.007414 -0.017851 452565.000000 0 0 1
-19.506170 -7.526462 -31.881833 38.125969 0.368249 2.561156 0.002118 -0.016256 -86864.400000 0 0 1
-18.006670 -7.563262 -32.276173 37.725249 0.397650 2.597426 0.012986 -0.019665 -281102.000000 0 0 1
-17.671570 -7.090262 -33.577753 38.600799 0.381561 2.625739 0.006683 -0.022292 372802.000000 0 0 1
-17.974870 -7.997062 -34.626621 39.825266 0.418607 2.624912 0.007704 -0.022464 -743001.000000 0 0 1
-18.064470 -7.440062 33.195256 38.517588 0.390690 0.531948 0.008766 -0.023539 305776.000000 0 0 1
-16.843270 -7.049762 32.551371 37.322736 0.396395 0.511198 0.015008 -0.022525 470424.000000 0 0 1
-16.349770 -5.800062 32.942201 37.230959 0.340899 0.484717 0.004515 -0.022906 -442248.000000 0 0 1
-15.116570 -5.513062 32.076021 35.885591 0.349713 0.464956 0.009950 -0.022349 -383954.000000 0 0 1
-15.468570 -5.338562 30.726321 34.812120 0.332324 0.489362 0.007944 -0.019768 964331.000000 0 0 1
-14.313270 -5.075262 29.909921 33.544468 0.340753 0.469820 0.014850 -0.016914 668272.000000 0 0 1
-14.738270 -5.206362 28.413151 32.428844 0.339571 0.502940 0.016194 -0.013025 -18984.700000 0 0 1
-15.655770 -4.244562 27.989131 32.349820 0.264754 0.525243 0.002096 -0.014802 11147.100000 0 0 1
-16.186370 -4.288162 26.671571 31.492215 0.258975 0.560620 0.007000 -0.007119 -7984.650000 0 0 1
-15.210070 -3.782562 25.593241 30.011131 0.243743 0.549489 0.001921 -0.002164 91149.700000 0 0 1
-14.926370 -2.409662 25.696651 29.814776 0.160056 0.531838 -0.004458 0.005560 183665.000000 0 0 1
-14.039270 -1.953662 24.677281 28.458497 0.138269 0.521381 -0.008962 0.006212 122434.000000 0 0 1
-14.008070 -0.437362 24.659161 28.363560 0.031212 0.516818 -0.008296 0.005455 557184.000000 0 0 1
-15.167670 0.199238 24.079901 28.459436 -0.013135 0.562146 -0.012658 0.006067 463626.000000 0 0 1
-15.139570 1.570938 24.490511 28.835040 -0.103394 0.556079 -0.016990 0.008649 -21035.700000 0 0 1
-15.948170 2.505738 23.507401 28.517025 -0.155844 0.601781 -0.015231 0.005469 -132973.000000 0 0 1
-15.226470 2.820838 22.351101 27.191436 -0.183182 0.605899 -0.019552 0.012511 -1462.990000 0 0 1
-15.785970 3.892438 21.683101 27.101749 -0.241753 0.643396 -0.035338 0.012727 -1059970.000000 0 0 1
-14.857670 4.514938 20.661701 25.846487 -0.295012 0.644499 -0.024418 0.011741 -795773.000000 0 0 1
-13.920570 5.274538 21.345101 26.023381 -0.362188 0.608987 -0.022674 0.012349 -717994.000000 0 0 1
-12.763270 5.329938 20.552501 24.773263 -0.395586 0.592362 -0.014617 0.005926 -312136.000000 0 1 0
-11.817370 6.482938 20.935801 24.899527 -0.501763 0.572016 -0.011815 0.007194 -59190.700000 0 1 0
-12.384870 7.770138 20.742101 25.377052 -0.560316 0.613989 -0.006045 0.004362 356062.000000 0 0 1
-11.393870 8.771338 20.906901 25.374301 -0.656072 0.602467 -0.005071 0.008380 199250.000000 0 0 1
-11.928770 10.265638 20.884701 26.150518 -0.710603 0.645774 -0.012994 0.012679 77600.800000 0 0 1
-12.548170 10.739738 19.685001 25.696260 -0.707898 0.698100 -0.000694 0.010515 481311.000000 0 0 1
-12.847170 12.148138 19.786301 26.535349 -0.757439 0.729274 -0.019470 0.018921 -497222.000000 0 0 1
-13.175070 12.820038 18.432601 26.032607 -0.771741 0.784052 -0.018653 0.018550 -334664.000000 0 0 1
-12.117670 13.393638 17.694701 25.284974 -0.835372 0.795664 -0.015459 0.013261 170664.000000 0 0 1
-11.664970 14.699638 18.203601 26.144253 -0.899998 0.800601 -0.015705 0.010729 -441638.000000 0 0 1
-12.505370 15.928538 17.763801 26.937988 -0.905212 0.850732 -0.022849 0.013539 -137930.000000 0 0 1
-12.415070 16.279038 16.393401 26.227555 -0.919254 0.895607 -0.020654 0.003228 411048.000000 0 0 1
-13.222870 15.405038 15.568001 25.583630 -0.861476 0.916610 -0.003737 0.004600 40563.000000 0 0 1
-13.655470 15.937238 14.212501 25.346846 -0.862352 0.975540 -0.004465 -0.004412 -474046.000000 0 0 1
-14.744870 16.800638 14.268801 26.519263 -0.850474 1.002669 -0.006349 -0.002429 -540824.000000 0 0 1
-15.062570 17.154638 12.969301 26.255768 -0.850243 1.054158 -0.005865 -0.002292 564580.000000 0 0 1
-16.248970 18.211538 12.920501 27.615729 -0.842288 1.083920 0.005026 -0.007489 -280650.000000 0 0 1
-17.447870 17.640238 13.343201 28.171744 -0.790881 1.077380 0.007755 -0.007572 -1247130.000000 0 0 1
-18.293770 18.762338 13.365001 29.416162 -0.798042 1.099163 0.019247 -0.009429 -1580000.000000 0 0 1
-19.710970 18.429238 13.702901 30.264313 -0.751805 1.100922 0.015938 -0.008914 -979472.000000 0 0 1
-20.383570 17.793138 12.624501 29.857389 -0.717648 1.134234 0.009585 -0.003007 -290664.000000 0 0 1
-21.717170 17.451338 12.918401 30.709441 -0.676916 1.136618 0.017015 -0.008010 41790.800000 0 0 1
-22.476370 16.823738 11.713001 30.420712 -0.642545 1.175552 0.015701 -0.005840 -3067.300000 0 0 1
-21.812270 15.604638 11.420201 29.149628 -0.620991 1.168232 0.018462 0.001506 282987.000000 0 0 1
-22.500470 14.868638 10.414201 28.910260 -0.583940 1.202287 0.015101 -0.000175 174508.000000 0 0 1
-21.730770 13.560038 9.935501 27.473900 -0.557881 1.200776 0.029229 0.004042 -368781.000000 0 0 1
-21.852370 12.370538 10.735901 27.309629 -0.515117 1.166776 0.021166 -0.001293 852975.000000 0 0 1
-23.136470 11.699238 10.723201 28.056291 -0.468167 1.178617 0.016781 0.000593 644857.000000 0 0 1
-23.616970 11.124138 9.374601 27.737896 -0.440199 1.226036 0.006648 0.013255 -501378.000000 0 0 1
-23.995670 12.151438 8.499301 28.207937 -0.468756 1.264731 0.010856 0.003951 15379.800000 0 0 1
-25.134550 11.715138 7.771301 28.799013 -0.436159 1.297563 0.020292 0.006570 -284830.000000 0 0 1
-25.441260 12.785338 6.646301 29.238603 -0.465680 1.341479 0.009743 0.009850 -817040.000000 0 0 1
-24.647170 12.799838 5.480001 28.308113 -0.478986 1.375982 0.015500 -0.005239 1036720.000000 0 0 1
-23.399770 13.533438 5.671901 27.620167 -0.524354 1.363971 0.015364 -0.005752 648681.000000 0 0 1
-23.398170 15.072538 5.769701 28.424377 -0.572270 1.366392 0.005692 -0.000909 -264250.000000 0 0 1
-22.118570 15.673638 5.975301 27.759652 -0.616487 1.353847 -0.008158 0.000305 681573.000000 0 0 1
-22.254970 17.030838 6.296001 28.722339 -0.653196 1.349800 -0.004451 -0.004669 -221459.000000 0 0 1
-20.933770 17.827438 6.383801 28.227525 -0.705429 1.342668 -0.007529 0.000393 287700.000000 0 0 1
-20.313070 18.000538 5.072801 27.611112 -0.725113 1.386024 -0.009247 -0.010298 -378309.000000 0 0 1
-19.045070 18.532738 5.242401 27.086156 -0.771765 1.376022 -0.005485 -0.003918 -871557.000000 0 0 1
-18.392770 19.092838 3.971501 26.806776 -0.804072 1.422096 0.003171 -0.016747 -696577.000000 0 0 1
-17.097870 19.539338 4.237501 26.307400 -0.851939 1.409015 -0.007434 -0.015068 -353966.000000 0 0 1
-16.677470 20.659538 3.466601 26.776330 -0.891649 1.440967 0.004348 -0.009791 -33058.300000 0 0 1
-17.054970 22.027738 4.021801 28.147258 -0.911955 1.427421 0.002816 -0.011770 -973992.000000 0 0 1
-16.424970 22.352738 5.197801 28.221298 -0.937089 1.385559 0.022905 -0.009866 -402848.000000 0 0 1
-16.498470 23.752638 5.441701 29.427868 -0.963707 1.384809 0.005749 -0.005279 -409462.000000 0 0 1
-15.727970 24.182438 6.693201 29.613481 -0.994148 1.342808 0.001427 0.006214 -104672.000000 0 0 1
-16.300070 23.612038 7.879401 29.754085 -0.966591 1.302782 0.003148 0.008586 216812.000000 0 0 1
-15.499870 23.780138 9.011901 29.781794 -0.993157 1.263379 0.005732 0.003858 -7240.570000 0 0 1
-16.184170 23.051838 10.208401 29.958739 -0.958678 1.223083 0.003692 0.010598 263789.000000 0 0 1
-17.360670 23.726938 10.565101 31.240707 -0.939120 1.225810 0.005545 0.004366 -318446.000000 0 0 1
-18.362570 22.843038 11.017301 31.310849 -0.893707 1.211230 0.002963 -0.000170 827420.000000 0 0 1
-19.548570 23.510438 11.839101 32.787979 -0.877150 1.201370 0.003837 0.000344 551199.000000 0 0 1
-20.522570 24.261938 11.167601 33.682827 -0.868702 1.232848 -0.004935 0.016047 -266070.000000 0 0 1
-20.090470 25.461638 10.581601 34.115865 -0.902769 1.255428 -0.005592 0.013050 -307647.000000 0 0 1
-21.171970 26.495038 10.130901 35.395967 -0.896609 1.280521 -0.003113 0.010016 87957.400000 0 0 1
-21.834970 27.083138 11.246201 36.561446 -0.892274 1.258129 0.001387 -0.001559 -151163.000000 0 0 1
-22.851170 27.914038 10.764701 37.646358 -0.884801 1.280806 0.001376 0.002392 -488560.000000 0 0 1
-23.757770 28.458338 11.864201 38.923873 -0.875178 1.261062 -0.004146 -0.001107 -298605.000000 0 0 1
-23.123670 29.479938 12.652501 39.545627 -0.905648 1.245123 -0.004379 -0.000682 515137.000000 0 0 1
-24.060970 30.031938 13.551001 40.798005 -0.895337 1.232216 0.000528 -0.000512 134566.000000 0 0 1
8.020730 -32.903870 27.850031 43.847703 -1.331697 0.882589 -0.016986 -0.019477 -288791.000000 0 0 1
9.332830 -33.397770 27.683771 44.372333 -1.298303 0.897077 -0.015713 -0.015675 172280.000000 0 0 1
9.789630 -33.041770 26.372691 43.394865 -1.282755 0.917588 -0.008118 -0.014598 -112269.000000 0 0 1
11.310930 -33.267070 26.231431 43.848866 -1.243054 0.929514 -0.011646 -0.003310 28847.500000 0 0 1
11.553430 34.644138 26.210181 44.951881 1.248906 0.948292 -0.000404 -0.018950 332519.000000 0 0 1
12.916630 34.374538 26.546041 45.311593 1.211358 0.944861 0.022759 -0.015927 509052.000000 0 0 1
13.484030 33.047538 26.058031 44.192531 1.183396 0.940174 0.047228 -0.007933 -88414.700000 0 0 1
13.793630 33.164238 24.692321 43.587173 1.176643 0.968539 0.037470 -0.012368 -95252.900000 0 0 1
14.840730 32.279838 24.401081 43.100440 1.139862 0.968975 0.046326 -0.012036 -561352.000000 0 0 1
15.020430 31.969338 22.875901 42.082760 1.131568 0.996084 0.044943 -0.020237 368215.000000 0 0 1
14.026330 31.105138 22.290601 40.757066 1.147167 0.992123 0.027618 -0.013634 300194.000000 0 0 1
14.354330 29.741938 22.407001 39.908688 1.121142 0.974651 0.020384 -0.010355 -110903.000000 0 0 1
13.776730 29.067338 23.645901 39.922889 1.128198 0.936899 0.024353 -0.000855 -642311.000000 0 0 1
14.382030 29.378738 24.870781 41.091468 1.115553 0.920711 0.031723 -0.013851 -82008.800000 0 0 1
13.783430 28.831938 26.031551 41.217778 1.124853 0.887231 0.031645 -0.003007 -284210.000000 0 0 1
14.650130 28.960538 27.306491 42.414426 1.102468 0.871340 0.037337 -0.018634 -51752.300000 0 0 1
14.642230 30.312638 27.788321 43.651365 1.120808 0.880719 0.042909 -0.017675 94063.100000 0 0 1
15.438130 30.483938 28.945601 44.782297 1.102014 0.867989 0.074248 -0.027271 82976.500000 0 0 1
15.268730 31.950838 29.516011 46.099729 1.124999 0.875954 0.086264 -0.032560 188611.000000 0 0 1
16.078130 32.799038 28.714411 46.462894 1.115018 0.904591 0.078182 -0.025058 196216.000000 0 0 1
15.980530 34.124338 29.099211 47.608947 1.132826 0.913204 0.092392 -0.018456 -113848.000000 0 0 1
16.732830 -34.192070 28.207391 47.378710 -1.115683 0.933083 0.097089 -0.028540 -416733.000000 0 0 1
16.223830 -34.002670 26.907111 46.296726 -1.125608 0.950608 0.096833 -0.026536 -212529.000000 0 0 1
16.465330 -32.704270 26.322931 45.095156 -1.104384 0.947494 0.076045 -0.024659 -922190.000000 0 0 1
17.857030 -32.261970 25.935511 45.081692 -1.065269 0.957825 0.057414 -0.011252 -1145930.000000 0 0 1
18.731130 -32.090070 26.979421 45.918591 -1.042445 0.942770 0.049479 -0.008054 -1005570.000000 0 0 1
19.704430 -31.149870 26.681281 45.502415 -1.006773 0.944225 0.040917 -0.007810 -141035.000000 0 0 1
20.255130 -30.344470 27.892471 45.924363 -0.982213 0.918067 0.039174 -0.003335 -387912.000000 0 0 1
19.210630 -29.611470 28.414161 45.312824 -0.995296 0.893015 0.026168 0.002653 -428599.000000 0 0 1
19.676330 -28.711970 29.388221 45.554393 -0.970004 0.869611 0.031406 0.004723 267495.000000 0 0 1
18.529930 -27.979970 30.149371 45.113431 -0.985853 0.838873 0.002774 0.003809 470381.000000 0 0 1
17.794630 -27.054770 29.375021 43.720719 -0.989009 0.834054 0.023999 0.003530 -366744.000000 0 0 1
16.660730 -26.577270 30.027011 43.422950 -1.010847 0.807232 0.000404 0.001833 -665607.000000 0 0 1
15.772030 -25.685370 29.182441 41.953665 -1.020112 0.801559 0.004535 0.006840 -683472.000000 0 0 1
15.209430 -26.386870 28.063941 41.414713 -1.047909 0.826258 0.003664 0.000998 335692.000000 0 0 1
14.422430 -25.523270 27.255191 40.028605 -1.056457 0.821815 0.001826 -0.010123 1615660.000000 0 0 1
12.887530 -25.327370 27.714521 39.694569 -1.100103 0.797924 -0.008033 -0.001681 1766040.000000 0 0 1
11.997530 -26.449370 27.741921 40.163716 -1.144950 0.808311 -0.006498 0.004817 576911.000000 0 0 1
11.722630 -27.000870 26.438611 39.565985 -1.161195 0.838989 0.000751 0.005219 -328184.000000 0 0 1
10.739130 -28.217370 26.453781 40.141642 -1.207138 0.851293 -0.004102 0.001007 -559580.000000 0 0 1
9.385730 -27.942870 26.561971 39.679141 -1.246747 0.837370 -0.022580 -0.000242 -823325.000000 0 0 1
8.703130 -29.145870 26.745611 40.503752 -1.280619 0.849546 -0.014512 -0.007280 697794.000000 0 0 1
7.184030 -29.048270 27.189511 40.431198 -1.328348 0.833230 -0.012679 -0.010337 1109790.000000 0 0 1
6.187130 -28.953970 26.188011 39.527521 -1.360274 0.846610 -0.000268 -0.005023 125399.000000 0 0 1
6.167630 -27.798970 25.377011 38.142038 -1.352467 0.842862 0.000215 -0.003792 179226.000000 0 0 1
4.836730 -27.555270 24.548361 37.219738 -1.397038 0.850573 0.016961 -0.003424 107588.000000 0 0 1
4.649430 -28.431070 23.471801 37.160038 -1.408698 0.887128 0.001161 0.008126 30119.000000 0 0 1
3.829530 -29.568270 23.688501 38.080086 -1.441998 0.899412 0.015536 0.008066 427339.000000 0 0 1
2.341830 -29.383770 24.111201 38.082019 -1.491266 0.885195 -0.011939 0.005540 166851.000000 0 0 1
1.482330 -28.875970 23.067301 36.988097 -1.519507 0.897404 -0.019034 0.013148 1078500.000000 0 0 1
0.313630 -28.165470 23.555301 36.718446 -1.559662 0.874329 -0.022817 -0.003367 820875.000000 0 0 1
0.505530 -26.693470 24.048601 35.932327 -1.551860 0.837564 -0.004450 -0.005334 -600792.000000 0 0 1
1.221730 -26.681570 25.252521 36.757158 -1.525039 0.813431 0.000181 -0.009023 -222013.000000 0 0 1
1.418830 -25.429870 25.873951 36.306373 -1.515060 0.777519 0.006220 -0.018286 -592684.000000 0 0 1
2.779330 -25.247170 26.557501 36.748403 -1.461153 0.763118 0.008530 -0.008214 -291817.000000 0 0 1
3.770430 -24.829470 25.595111 35.858450 -1.420095 0.775913 -0.000944 -0.008547 271078.000000 0 0 1
4.759730 -23.998470 26.165301 35.821845 -1.375003 0.751847 0.006685 -0.005169 157637.000000 0 0 1
4.204630 -22.558870 26.481791 35.040930 -1.386526 0.714015 0.002855 -0.000641 -264302.000000 0 0 1
3.922830 -21.833470 25.308301 33.654110 -1.393023 0.719687 0.001942 0.001448 195087.000000 0 0 1
3.445530 -20.504970 25.499191 32.901888 -1.404318 0.684070 0.008010 -0.003054 22781.500000 0 0 1
3.529730 -19.661170 24.165101 31.352396 -1.393161 0.690767 0.005715 -0.002003 -572886.000000 0 0 1
4.797230 -19.131470 23.967801 31.040007 -1.325111 0.688565 0.006887 0.007322 -738006.000000 0 0 1
4.775030 -18.268670 22.880801 29.666080 -1.315138 0.689949 0.011742 0.007400 187220.000000 0 0 1
6.130030 -17.666070 22.421001 29.195352 -1.236801 0.695139 0.006627 0.009490 146742.000000 0 0 1
7.024830 -18.681070 21.979101 29.688575 -1.211114 0.737247 -0.002078 0.011130 -266453.000000 0 0 1
8.193730 -18.118470 21.425001 29.230923 -1.146089 0.748138 -0.011283 0.008468 946263.000000 0 0 1
9.480230 -18.147370 22.350101 30.310540 -1.089388 0.741627 -0.015112 0.012980 535120.000000 0 0 1
9.393030 -17.313270 23.460901 30.633188 -1.073704 0.698410 -0.004452 0.019272 24225.600000 0 0 1
10.424430 -17.528770 24.410011 31.808413 -1.034280 0.696009 -0.009641 0.018648 33015.700000 0 0 1
10.296830 -16.562570 25.643251 32.216762 -1.014579 0.650205 -0.006581 -0.000760 -221013.000000 0 0 1
10.697530 -15.203470 25.536191 31.586068 -0.957642 0.629259 0.000317 0.006892 154874.000000 0 0 1
10.578130 -14.552470 26.765851 32.250302 -0.942247 0.591794 -0.004620 0.002088 82870.700000 0 0 1
10.927830 -12.999370 26.793451 31.722076 -0.871760 0.564921 0.006100 0.001556 54451.800000 0 0 1
9.826830 -12.293870 26.298551 30.648322 -0.896466 0.539288 0.014973 0.006884 214415.000000 0 0 1
10.273230 -10.982170 26.227111 30.232576 -0.818739 0.520619 0.018808 0.011342 510336.000000 0 0 1
9.320530 -10.122870 25.288161 28.789510 -0.826640 0.498332 0.021444 0.010049 19126.200000 0 0 1
8.078230 -9.849870 25.864011 28.830970 -0.883898 0.457655 0.008987 0.012523 -260444.000000 0 0 1
7.117830 -9.561570 24.852041 27.562857 -0.930876 0.447227 0.006555 0.020112 364326.000000 0 0 1
5.649330 -9.448370 25.312581 27.602778 -1.031911 0.410227 -0.000419 0.010935 -335916.000000 0 0 1
5.382030 -8.291170 26.113301 27.921573 -0.995034 0.361867 0.003333 0.013796 1309450.000000 0 0 1
4.039130 -8.178070 26.665571 28.182407 -1.112042 0.329581 -0.006325 0.015502 2707590.000000 0 0 1
2.757230 -8.050970 25.718341 27.089730 -1.240844 0.319553 -0.004142 0.017923 969248.000000 0 0 1
2.732430 -6.830070 25.007231 26.066792 -1.190239 0.286099 0.009059 0.014708 -534947.000000 0 0 1
1.539530 -6.702770 24.318941 25.272676 -1.345027 0.275600 0.005529 0.005540 -768383.000000 0 0 1
1.708130 -5.422570 23.448401 24.127774 -1.265632 0.237867 0.007022 -0.003964 -57992.200000 0 1 0
1.767130 -4.234170 24.129701 24.562032 -1.175423 0.187901 0.020505 0.000891 70684.200000 0 1 0
2.108630 -3.163170 23.248101 23.556871 -0.982827 0.162087 0.022884 -0.011980 92237.000000 0 1 0
0.946730 -2.531170 22.342201 22.505045 -1.212878 0.120371 0.014239 -0.013692 853163.000000 0 1 0
-0.086970 -1.815170 22.957101 23.028914 1.522920 0.078994 0.017875 -0.012060 -200399.000000 0 1 0
-1.015870 -2.578170 23.690701 23.852217 1.195449 0.116441 0.029710 -0.010992 -269390.000000 0 1 0
-2.067170 -1.611170 24.326901 24.467676 0.662059 0.107322 0.024137 -0.011140 195530.000000 0 1 0
-1.440970 -0.773170 25.274531 25.327378 0.492468 0.064611 0.033016 -0.013091 -1692.270000 0 0 1
-2.230170 0.350830 25.586321 25.685727 -0.156032 0.088007 0.042001 -0.012859 -456670.000000 0 0 1
-1.686470 1.338830 26.662501 26.749310 -0.670989 0.080586 0.048885 -0.018458 -133386.000000 0 0 1
-1.665470 0.912830 28.049761 28.113985 -0.501377 0.067606 0.031286 -0.004607 216922.000000 0 0 1
-0.933870 -0.277170 28.390981 28.407688 0.288516 0.034298 0.031439 -0.009975 -350819.000000 0 0 1
0.284330 0.036830 29.317501 29.318903 0.128814 0.009779 0.039713 -0.013565 2542.020000 0 0 1
1.365430 0.694830 28.700281 28.741143 0.470720 0.053331 0.039562 -0.008240 179004.000000 0 0 1
2.193830 0.009830 27.773461 27.859973 0.004480 0.078827 0.033539 -0.009072 -12506.900000 0 0 1
3.152630 -1.069170 28.337741 28.532609 -0.326964 0.116940 0.026373 -0.010781 -539087.000000 0 0 1
2.467030 -2.270170 28.542531 28.738754 -0.743866 0.116924 0.015463 -0.005850 107880.000000 0 0 1
3.302830 -3.392170 28.698901 29.086808 -0.798742 0.163499 0.012659 0.007408 -119899.000000 0 0 1
3.972230 -4.044170 27.456041 28.035123 -0.794372 0.203603 0.016160 0.002372 -594934.000000 0 0 1
5.035730 -3.435170 26.842501 27.525966 -0.598652 0.223308 0.019251 0.001005 -839174.000000 0 0 1
5.409530 -4.198170 25.664451 26.562223 -0.659978 0.260733 0.012893 0.004825 137484.000000 0 0 1
6.743830 -3.715170 25.016951 26.174980 -0.503533 0.298570 0.008394 0.007812 1545940.000000 0 0 1
7.963030 -4.007170 25.788461 27.285747 -0.466222 0.332817 0.009499 0.006436 1301530.000000 0 0 1
8.477130 -5.306170 25.748691 27.622676 -0.559275 0.370469 -0.002414 0.002760 -292746.000000 0 0 1
9.346830 -5.593970 24.488881 26.802258 -0.539307 0.418530 0.000524 -0.001496 -745777.000000 0 0 1
8.694730 -5.754070 23.250901 25.481602 -0.584618 0.421544 -0.003804 0.002475 -423002.000000 0 0 1
9.512830 -5.632070 22.103801 24.714210 -0.534553 0.463762 0.018431 0.002051 -102154.000000 0 1 0
9.458830 -4.281170 21.347901 23.738803 -0.425023 0.452669 0.004673 -0.004354 175365.000000 0 1 0
8.101730 -3.998170 21.067601 22.923071 -0.458431 0.405116 0.005049 -0.011356 -146873.000000 0 1 0
8.018630 -2.917170 20.205201 21.933045 -0.348915 0.399587 -0.006629 -0.014847 405718.000000 0 1 0
6.618630 -2.235170 20.314501 21.482113 -0.325683 0.331217 0.003111 -0.005284 352999.000000 0 1 0
6.301130 -1.583170 21.511101 22.470828 -0.246157 0.293317 0.010163 0.000747 -307033.000000 0 1 0
5.200530 -0.740170 21.313301 21.951086 -0.141376 0.241647 0.019146 0.004545 -447286.000000 0 1 0
4.565230 -0.428170 22.691401 23.150039 -0.093516 0.199386 0.021945 -0.005565 165752.000000 0 1 0
3.421530 0.417830 22.513701 22.776044 0.121516 0.151925 0.024292 -0.008806 661181.000000 0 1 0
2.718930 0.593830 23.745501 23.908033 0.215029 0.116670 0.032996 -0.010010 -212397.000000 0 1 0
1.292730 1.130830 23.653601 23.715876 0.718694 0.072485 0.034263 -0.017722 -463003.000000 0 1 0
1.149230 2.498830 23.350401 23.511829 1.139734 0.117249 0.039419 -0.011084 158829.000000 0 1 0
-0.210570 2.674830 23.027301 23.183089 -1.492236 0.115995 0.030697 -0.017151 98462.700000 0 1 0
-0.761270 4.123830 22.796001 23.178506 -1.388249 0.181924 0.037734 -0.012314 84428.700000 0 1 0
-0.808970 4.931830 23.987401 24.502505 -1.408214 0.205410 0.041348 -0.011330 662489.000000 0 1 0
-1.713370 6.052830 23.707501 24.527902 -1.294944 0.259368 0.041003 -0.005189 633763.000000 0 1 0
-1.368170 7.386830 24.437671 25.566323 -1.387654 0.298244 0.052916 -0.007446 -165158.000000 0 0 1
-0.363170 8.189830 23.888901 25.256381 -1.526481 0.330574 0.043950 -0.007796 -56459.900000 0 0 1
-0.278270 9.457830 24.502181 26.265659 -1.541383 0.368524 0.053073 -0.005361 -393522.000000 0 0 1
0.630830 10.379830 23.624801 25.812207 1.510096 0.414651 0.055852 -0.013132 1226510.000000 0 0 1
2.061230 10.266830 23.694001 25.904867 1.372664 0.416144 0.043611 -0.008027 857564.000000 0 0 1
2.656130 10.690830 24.956061 27.279183 1.327278 0.415687 0.052077 -0.008235 198202.000000 0 0 1
3.907030 11.628830 24.693311 27.572707 1.246668 0.461084 0.040505 -0.005482 761698.000000 0 0 1
5.074430 11.044830 24.138601 27.026101 1.140120 0.466476 0.027563 -0.002848 186198.000000 0 0 1
4.983330 10.472830 22.876501 25.648548 1.126668 0.469219 0.035083 -0.007743 -1328010.000000 0 0 1
6.333330 10.086830 22.277301 25.261301 1.010128 0.490973 0.027620 -0.004745 159729.000000 0 0 1
7.051230 11.187830 21.662601 25.380222 1.008424 0.548087 0.025907 -0.010695 -577772.000000 0 0 1
8.322330 10.859830 21.269301 25.289923 0.916919 0.571633 0.023464 -0.004700 -991440.000000 0 0 1
9.172530 12.025830 20.756901 25.682773 0.919194 0.629702 0.015916 -0.018420 -577427.000000 0 0 1
8.773830 12.569830 19.525201 24.823662 0.961409 0.665584 0.014635 -0.024842 -28476.900000 0 1 0
9.686230 13.422830 18.872401 25.103046 0.945705 0.720013 0.017276 -0.024491 1072790.000000 0 0 1
11.107730 12.892830 18.390101 25.055988 0.859639 0.746662 0.022695 -0.026110 630699.000000 0 0 1
12.044330 12.772830 19.394801 26.160454 0.814744 0.735674 0.033018 -0.020920 -345625.000000 0 0 1
13.301830 12.391830 18.863401 26.197786 0.749996 0.766939 0.041734 -0.016802 1006580.000000 0 0 1
14.498930 12.229830 19.886701 27.482150 0.700708 0.761760 0.043354 -0.006936 769622.000000 0 0 1
14.971130 13.458830 20.402401 28.662393 0.732254 0.778713 0.040480 -0.009366 -13376.600000 0 0 1
16.038430 13.200830 21.299901 29.751956 0.688654 0.772861 0.032294 -0.003402 120200.000000 0 0 1
16.472130 14.481830 22.083501 31.124515 0.721188 0.781978 0.025461 -0.005776 -305955.000000 0 0 1
15.621730 14.997830 23.068801 31.640842 0.765025 0.753815 0.028289 -0.005672 -181601.000000 0 0 1
16.167930 16.121830 23.753701 32.947741 0.783970 0.765623 0.036695 -0.002114 -62911.700000 0 0 1
-20.402870 12.764038 -24.870153 34.608124 -0.559031 2.372615 0.009312 0.005822 -33817.100000 0 0 1
-20.436570 12.633438 -26.265463 35.596793 -0.553679 2.400691 0.011054 -0.016388 -20120.600000 0 0 1
-21.210870 13.626338 -26.893733 36.862595 -0.571030 2.388485 0.010119 -0.015607 -6163.140000 0 0 1
-21.151870 13.683738 -28.448153 37.999259 -0.574213 2.416820 0.016458 -0.008578 -659783.000000 0 0 1
-19.960070 14.266738 -28.860033 37.879357 -0.620566 2.437028 0.045534 -0.001907 -692626.000000 0 0 1
-19.990670 14.368138 -30.272993 39.019538 -0.623194 2.458845 0.030329 -0.010103 -329306.000000 0 0 1
-18.735570 14.841338 -31.009833 39.152224 -0.669935 2.484927 0.014012 -0.011736 76558.900000 0 0 1
-17.681770 13.877038 -30.883063 38.196606 -0.665417 2.512444 0.006073 -0.013914 1648100.000000 0 0 1
-16.352870 14.476038 -31.002483 37.922631 -0.724594 2.527887 -0.000820 -0.001912 1097830.000000 0 0 1
-15.336570 14.094138 -29.987633 36.511823 -0.743208 2.534505 0.028115 -0.008039 -523740.000000 0 0 1
-15.703170 14.502638 -28.653453 35.748236 -0.745674 2.500654 0.014675 -0.005732 86507.800000 0 0 1
-16.173170 13.516738 -27.729053 34.830647 -0.696163 2.491637 0.035655 -0.003400 63765.100000 0 0 1
-16.878970 13.963038 -26.464043 34.354208 -0.691134 2.450153 0.035941 -0.004255 195963.000000 0 0 1
-15.949270 14.440638 -25.514303 33.375004 -0.735796 2.441020 0.049401 -0.015098 661450.000000 0 0 1
-16.713170 14.795338 -24.338653 33.024265 -0.724606 2.399407 0.036011 -0.007824 829151.000000 0 0 1
-15.836670 15.425538 -23.204353 32.049794 -0.772248 2.380394 0.030605 0.000091 512646.000000 0 0 1
-15.202870 16.670838 -23.509053 32.584040 -0.831421 2.376748 0.016062 -0.004641 -66482.800000 0 0 1
-14.577270 17.211438 -22.380653 31.774581 -0.868074 2.352313 0.009947 0.001600 -676531.000000 0 0 1
-14.230870 18.659938 -22.697353 32.647829 -0.919253 2.339519 0.011016 -0.001059 -741400.000000 0 0 1
-15.257270 19.585938 -22.769653 33.687540 -0.908998 2.312991 -0.012972 -0.001051 -528306.000000 0 0 1
-16.003170 19.497238 -23.971353 34.797550 -0.883506 2.330740 -0.026747 0.001779 406011.000000 0 0 1
-17.415270 20.152838 -23.933653 35.808494 -0.858139 2.302824 -0.012051 -0.003064 382632.000000 0 0 1
-17.242370 21.522038 -24.133053 36.645623 -0.895355 2.289689 -0.021386 -0.002493 467856.000000 0 0 1
-18.466870 22.231438 -24.389053 37.816504 -0.877635 2.271730 0.005586 -0.013603 382482.000000 0 0 1
-18.273470 23.730438 -24.686253 38.813199 -0.914590 2.260135 -0.000589 -0.008612 -169442.000000 0 0 1
-17.895070 24.402138 -23.506153 38.317582 -0.938043 2.231226 0.000146 -0.003176 -90825.200000 0 0 1
-17.058370 25.472038 -23.930053 38.890360 -0.980704 2.233589 -0.002601 0.000580 -146665.000000 0 0 1
-15.822070 25.677838 -23.015753 37.939612 -1.018567 2.222626 0.005322 -0.003730 181649.000000 0 0 1
-14.778870 24.718138 -23.012153 36.864081 -1.031925 2.244959 0.013208 -0.010583 304486.000000 0 0 1
-15.164070 23.407038 -22.521353 35.847591 -0.995939 2.250102 -0.014486 0.004134 -822032.000000 0 0 1
-13.940970 22.540538 -22.194053 34.568808 -1.016896 2.267933 0.007145 0.003322 -117412.000000 0 0 1
-13.233270 22.912538 -21.056353 33.815290 -1.047043 2.242969 0.018911 -0.001365 -234690.000000 0 0 1
-12.338470 21.890638 -20.675753 32.541122 -1.057540 2.259288 0.019636 -0.000256 -264168.000000 0 0 1
-11.607670 22.136938 -19.355453 31.613535 -1.087853 2.229702 0.025855 -0.005650 -497462.000000 0 0 1
-12.324070 21.965138 -18.189753 31.067943 -1.059491 2.196272 0.026434 -0.001278 -102215.000000 0 0 1
-13.260070 23.017738 -17.936653 32.052601 -1.048150 2.164700 0.020999 -0.011586 113358.000000 0 0 1
-14.055170 22.880438 -16.614353 31.576874 -1.019937 2.124870 0.028532 -0.009348 88337.500000 0 0 1
-13.218270 23.151038 -15.499753 30.837243 -1.052005 2.097436 0.029669 -0.014182 148545.000000 0 0 1
-13.965070 23.390838 -14.291253 30.763523 -1.032562 2.053925 0.021700 -0.007490 24798.000000 0 0 1
-13.144870 23.747438 -13.023853 30.105633 -1.065249 2.018177 0.022597 -0.009039 -196628.000000 0 0 1
-12.596870 25.039938 -12.949153 30.876531 -1.104695 2.003564 0.026970 -0.017144 448844.000000 0 0 1
-11.611570 25.143338 -11.919953 30.151306 -1.138161 1.977232 0.008356 -0.019363 213063.000000 0 0 1
-11.145770 26.601838 -11.767253 31.150509 -1.174031 1.958166 0.026069 -0.027894 -106210.000000 0 0 1
-10.558670 27.036338 -12.958653 31.786408 -1.198475 1.990707 0.030812 -0.037495 -65797.600000 0 0 1
-10.464470 28.432438 -12.909653 32.932777 -1.218135 1.973601 0.018251 -0.019221 -507488.000000 0 0 1
-9.862670 29.124238 -14.179653 33.860833 -1.244276 2.002879 0.040475 -0.028828 851200.000000 0 0 1
-8.430970 29.111438 -14.245953 33.488867 -1.288898 2.010193 0.021206 -0.027224 531908.000000 0 0 1
-7.855670 27.889338 -14.685453 32.483676 -1.296237 2.039900 0.023374 -0.030398 -343150.000000 0 0 1
-6.534370 28.195038 -15.407153 32.787780 -1.343061 2.059980 0.017784 -0.027199 672446.000000 0 0 1
-5.547670 28.845338 -14.588853 32.797329 -1.380792 2.031768 0.003299 -0.026421 -421922.000000 0 0 1
-4.282670 28.892038 -15.173653 32.913992 -1.423638 2.049928 0.007993 -0.024900 13874.700000 0 0 1
-3.185070 29.618138 -14.328953 33.055977 -1.463670 2.019142 -0.007488 -0.016683 121918.000000 0 0 1
-3.207070 31.017738 -14.449953 34.368394 -1.467768 2.004730 -0.015701 -0.012748 -69165.600000 0 0 1
-4.267170 31.749738 -13.852253 34.901855 -1.437197 1.978924 -0.028666 -0.015219 -160779.000000 0 0 1
-4.310770 33.270838 -14.285753 36.463874 -1.441948 1.973360 -0.022678 -0.013476 108733.000000 0 0 1
-3.450370 34.112538 -13.509553 36.852114 -1.469992 1.946136 -0.032334 -0.013555 119904.000000 0 0 1
-3.690170 -33.863070 -13.872153 36.779906 1.462251 1.957531 -0.028828 -0.010378 -79807.300000 0 0 1
-2.920870 -32.868270 -13.053953 35.486059 1.482163 1.947504 -0.024790 -0.004176 -544087.000000 0 0 1
-3.222670 -32.792670 -11.655053 34.951182 1.472837 1.910775 -0.028415 -0.007956 -544619.000000 0 0 1
-2.225970 -32.235270 -10.887553 34.097015 1.501852 1.895799 -0.032209 -0.008065 -690160.000000 0 0 1
-2.669870 -32.016670 -9.410653 33.477691 1.487599 1.855739 -0.036385 -0.000801 -340891.000000 0 0 1
-1.567870 -31.730770 -8.587153 32.909561 1.521425 1.834784 -0.031146 -0.007026 -72282.400000 0 0 1
-1.946670 -31.676970 -7.208053 32.544984 1.509420 1.794128 -0.041402 -0.007902 201209.000000 0 0 1
-0.710670 -31.399070 -6.313453 32.035392 1.548167 1.769172 -0.023965 -0.006137 200995.000000 0 0 1
-1.037370 -31.181770 -4.964553 31.591545 1.537540 1.728599 -0.022560 0.006762 -571509.000000 0 0 1
0.071130 -30.674170 -4.316553 30.976482 -1.568477 1.710601 -0.011166 0.004268 -570055.000000 0 0 1
-0.141170 -30.650570 -2.791953 30.777791 1.566191 1.661634 -0.009266 0.007319 -275446.000000 0 0 1
-0.153070 -31.904670 -2.064353 31.971753 1.565999 1.635409 -0.008641 0.009232 -10395.100000 0 0 1
0.920230 -32.781270 -2.293853 32.874310 -1.542732 1.640630 -0.002973 0.006361 765374.000000 0 0 1
2.372430 -32.409370 -1.823753 32.547224 -1.497725 1.626860 0.019081 0.003173 -105016.000000 0 0 1
2.691930 -32.618370 -0.461153 32.732510 -1.488455 1.584885 0.007337 0.013024 -450728.000000 0 0 1
3.970830 -32.224470 -0.075053 32.468286 -1.448190 1.573108 0.011739 0.011966 -460825.000000 0 0 1
4.186730 -30.730970 0.188147 31.015426 -1.435392 1.564730 0.007123 0.003151 -585136.000000 0 0 1
4.291930 -30.049470 -1.069153 30.373252 -1.428927 1.606004 0.029997 -0.007636 84088.600000 0 0 1
4.253330 -28.622770 -0.883153 28.950540 -1.423276 1.601307 0.026218 0.003566 -213091.000000 0 0 1
3.834730 -27.947970 -2.168653 28.293060 -1.434438 1.647521 0.023717 0.004777 983603.000000 0 0 1
2.441730 -27.954670 -2.575253 28.179027 -1.483671 1.662313 0.010009 0.004490 1146940.000000 0 0 1
2.094430 -27.025570 -3.576953 27.341593 -1.493453 1.701997 0.001362 0.004719 4294.210000 0 0 1
2.667730 -27.221370 -5.012453 27.807274 -1.473107 1.752044 -0.003069 0.001595 -247403.000000 0 0 1
2.069330 -28.236970 -5.738353 28.888360 -1.497643 1.770765 -0.009485 0.000985 -197656.000000 0 0 1
2.547430 -28.247170 -7.065853 29.228724 -1.480856 1.814959 0.007453 -0.010136 -292709.000000 0 0 1
1.757730 -29.208370 -7.988153 30.331982 -1.510690 1.837297 -0.008047 -0.008466 1093800.000000 0 0 1
0.444430 -28.690470 -8.332153 29.879180 -1.555307 1.853405 -0.009962 -0.008676 854510.000000 0 0 1
0.171230 -28.751570 -9.751453 30.360714 -1.564841 1.897778 -0.005503 -0.002865 -32157.200000 0 0 1
-1.180670 -28.055270 -9.942453 29.788329 1.528737 1.911097 -0.025403 -0.005666 -1104690.000000 0 0 1
-1.114770 -26.669570 -9.724753 28.409145 1.529021 1.920171 -0.018866 0.001686 -552447.000000 0 0 1
-2.321470 -25.954770 -9.735653 27.817661 1.481591 1.928347 -0.003666 -0.005766 218895.000000 0 0 1
-3.337170 -26.352570 -8.606753 27.922587 1.444831 1.884135 0.002789 -0.011358 -640746.000000 0 0 1
-2.877670 -26.268070 -7.266753 27.406171 1.461681 1.839156 0.004114 -0.012664 -330657.000000 0 0 1
-2.398970 -27.570770 -6.864853 28.513657 1.484004 1.813942 -0.003366 -0.002117 306261.000000 0 0 1
-1.876770 -27.668470 -5.362453 28.245751 1.503069 1.761806 -0.000426 0.007164 272254.000000 0 0 1
-2.874370 -27.663970 -4.372953 28.154573 1.467265 1.726747 0.001816 -0.000846 18542.800000 0 0 1
-2.311170 -27.091070 -3.204053 27.377611 1.485691 1.688097 -0.001149 0.007053 -93770.700000 0 0 1
-3.258270 -27.172870 -2.024253 27.442281 1.451457 1.644627 -0.001694 0.005736 -437801.000000 0 0 1
-4.323370 -26.265570 -2.128153 26.703946 1.407657 1.650575 0.000691 0.008018 -682553.000000 0 0 1
-5.127070 -26.329970 -0.997653 26.843053 1.378479 1.607971 0.003060 0.003813 -431833.000000 0 0 1
-6.225070 -25.277970 -0.877253 26.047972 1.329336 1.604481 0.005675 0.004605 49709.300000 0 0 1
-5.716670 -23.930470 -0.844853 24.618317 1.336304 1.605121 -0.008352 -0.001187 -210308.000000 0 1 0
-6.549170 -23.151670 -0.042653 24.060201 1.295118 1.572569 0.010094 -0.002306 -554046.000000 0 1 0
-5.928270 -21.791670 0.288747 22.585497 1.305181 1.558011 0.001524 -0.007082 -251602.000000 0 1 0
-4.859970 -21.884070 1.175347 22.448013 1.352265 1.518414 -0.007137 -0.009107 -634563.000000 0 1 0
-4.314570 -20.672470 1.478047 21.169581 1.365039 1.500920 -0.007839 -0.003176 -224428.000000 0 1 0
-3.352570 -20.616870 2.705647 21.062184 1.409594 1.441980 -0.002026 0.002560 519828.000000 0 1 0
-3.937170 -20.675170 4.045547 21.431996 1.382620 1.380895 0.001562 0.010151 115567.000000 0 1 0
-2.919270 -20.466570 5.026047 21.275897 1.429116 1.332310 0.012126 0.000077 264239.000000 0 1 0
-2.090770 -21.699770 5.404147 22.460102 1.474743 1.327801 0.001908 -0.007768 -190643.000000 0 1 0
-1.036770 -21.965670 4.518947 22.449643 1.523632 1.368119 0.012695 -0.006268 -386650.000000 0 1 0
-0.294470 -23.072370 4.987747 23.607173 1.558034 1.357911 0.008146 -0.010147 -1216980.000000 0 1 0
0.710330 -23.511070 3.939947 23.849490 -1.540593 1.404835 0.012470 -0.011519 -325750.000000 0 1 0
1.781530 -22.619670 3.741447 22.996125 -1.492198 1.407371 -0.003271 -0.018494 30086.700000 0 1 0
2.822430 -22.898170 4.657747 23.536927 -1.448155 1.371590 0.012630 -0.018136 -862926.000000 0 1 0
4.036230 -21.971570 4.754347 22.839546 -1.389120 1.361100 0.020280 -0.019355 168000.000000 0 1 0
4.613130 -21.702870 3.490547 22.460621 -1.361355 1.414756 0.012568 -0.009414 -132716.000000 0 1 0
5.849730 -21.006770 3.574847 22.097133 -1.299208 1.408303 0.024557 -0.005844 473843.000000 0 1 0
6.360430 -20.634370 2.142047 21.698403 -1.271793 1.471916 0.027190 0.001802 -203273.000000 0 1 0
6.928030 -21.757170 1.554047 22.886396 -1.262523 1.502841 0.031454 0.004916 -570563.000000 0 1 0
6.975830 -21.720770 0.139847 22.813891 -1.260042 1.564666 0.036649 -0.003627 -204141.000000 0 1 0
7.944630 -22.675270 -0.533753 24.032685 -1.233796 1.593008 0.034780 0.002811 635373.000000 0 1 0
9.323430 -22.264170 -0.567153 24.144177 -1.174220 1.594289 0.036395 0.009396 427734.000000 0 1 0
9.883630 -22.989070 -1.656853 25.078450 -1.164760 1.636911 0.041677 0.005098 3237.830000 0 0 1
11.303530 -22.577870 -2.093253 25.335977 -1.106632 1.653510 0.037980 0.010721 81854.200000 0 0 1
11.324730 -21.459170 -2.919553 24.439094 -1.085209 1.690545 0.039752 0.012919 -93303.400000 0 1 0
12.640930 -21.213270 -3.368253 24.922702 -1.033399 1.706359 0.034192 0.008798 95346.800000 0 1 0
12.660930 -20.028670 -4.326853 24.086686 -1.007079 1.751413 0.027995 -0.001192 22182.200000 0 1 0
12.484130 -18.749370 -3.721353 22.830700 -0.983364 1.734525 0.039240 0.004987 245659.000000 0 1 0
12.838030 -17.713670 -4.635153 22.362329 -0.943650 1.779585 0.035330 0.002197 -729913.000000 0 1 0
13.309430 -16.375170 -4.043953 21.485825 -0.888310 1.760141 0.062823 0.006522 250558.000000 0 1 0
14.564330 -16.335870 -3.381453 22.145306 -0.842667 1.724090 0.043321 0.007536 -192221.000000 0 1 0
15.565730 -16.206470 -4.340353 22.886247 -0.805562 1.761601 0.038116 0.003842 -716098.000000 0 1 0
17.005430 -15.941570 -3.819253 23.620013 -0.753119 1.733205 0.027155 0.005976 494039.000000 0 1 0
17.565130 -16.965270 -2.990953 24.602845 -0.768028 1.692667 0.029016 0.000818 596592.000000 0 1 0
18.972130 -17.017870 -3.181253 25.684042 -0.731151 1.694976 0.002878 0.018536 65007.000000 0 0 1
19.752930 -17.985070 -2.295753 26.812525 -0.738587 1.656524 0.006301 0.009545 368864.000000 0 0 1
21.159030 -17.776370 -2.433453 27.742127 -0.698737 1.658626 -0.013929 0.010885 438361.000000 0 0 1
21.827830 -18.325770 -1.317153 28.531087 -0.698402 1.616978 -0.022202 0.015992 -655380.000000 0 0 1
23.348430 -18.224370 -1.332253 29.648807 -0.662762 1.615746 -0.016440 0.008812 -344767.000000 0 0 1
23.766630 -16.808770 -1.345453 29.140997 -0.615570 1.616983 -0.020169 0.008391 -769110.000000 0 0 1
25.006730 -16.777970 -0.743453 30.122908 -0.590954 1.595479 -0.010233 0.005670 -922307.000000 0 0 1
25.486930 -15.370470 -0.235153 29.763909 -0.542676 1.578697 -0.009650 0.006542 -296365.000000 0 0 1
24.720830 -14.807570 0.780547 28.826946 -0.539678 1.543716 -0.017762 0.009441 -144636.000000 0 0 1
25.309130 -13.673270 1.336447 28.797508 -0.495327 1.524371 -0.026632 0.001196 -63204.900000 0 0 1
24.525830 -13.149170 2.564147 27.946232 -0.492136 1.478914 -0.013547 -0.013989 47704.900000 0 0 1
24.206430 -14.097270 3.586147 28.240835 -0.527361 1.443468 -0.005534 -0.003058 26358.000000 0 0 1
25.311530 -14.336470 4.443947 29.427141 -0.515348 1.419201 0.009696 0.016380 -158714.000000 0 0 1
25.056730 -14.782570 5.896847 29.683951 -0.533007 1.370812 0.005134 0.030012 -96128.300000 0 0 1
24.425330 -16.075370 5.931247 29.836119 -0.582079 1.370669 -0.014855 0.031412 -905.133000 0 0 1
23.598430 -16.221870 7.059947 29.493692 -0.602228 1.329078 -0.026490 0.036125 -85893.400000 0 0 1
22.686130 -17.482070 7.037447 29.492524 -0.656559 1.329854 -0.025517 0.030034 -16165.300000 0 0 1
23.348430 -18.658570 7.300947 30.766789 -0.674214 1.331211 -0.018843 0.035762 -377241.000000 0 0 1
22.368630 -19.660970 7.320047 30.667450 -0.721064 1.329779 -0.027754 0.053837 213600.000000 0 0 1
1.439030 23.338338 -3.109253 23.588478 1.509215 1.702993 -0.007438 -0.003333 170820.000000 0 1 0
2.240030 24.463538 -2.776653 24.722302 1.479485 1.683347 0.000554 -0.001583 243016.000000 0 1 0
2.998530 25.041938 -3.841153 25.511650 1.451623 1.721936 0.006489 -0.005091 -20532.600000 0 0 1
3.942730 26.113938 -3.325553 26.618456 1.420946 1.696058 0.000189 0.003158 -789058.000000 0 0 1
4.954930 25.609538 -2.534553 26.207322 1.379678 1.667659 -0.007631 -0.001364 -758962.000000 0 0 1
5.640530 26.646138 -1.863553 27.300276 1.362193 1.639111 -0.005968 -0.001243 -331397.000000 0 0 1
6.648530 26.071138 -0.862453 26.919343 1.321103 1.602840 -0.009105 -0.010052 -80516.700000 0 0 1
7.731030 25.479738 -1.555753 26.672200 1.276206 1.629158 -0.009679 -0.011224 148194.000000 0 0 1
8.717830 24.760138 -0.781753 26.261686 1.232260 1.600569 -0.015610 -0.004450 565312.000000 0 0 1
9.844630 24.375338 -1.760053 26.347137 1.186952 1.637649 0.002388 -0.004661 -812291.000000 0 0 1
10.644430 25.503438 -2.081253 27.713911 1.175404 1.645965 0.006385 -0.005939 271551.000000 0 0 1
11.454230 25.450638 -3.271853 28.100523 1.147895 1.687495 0.030891 -0.005290 360264.000000 0 0 1
12.588630 24.395338 -3.329853 27.653102 1.094410 1.691504 0.020796 -0.002574 -598173.000000 0 0 1
12.158530 23.052838 -3.472253 26.292960 1.085454 1.703243 0.020514 -0.002649 -94107.300000 0 0 1
11.855830 22.673638 -4.864253 26.044491 1.089004 1.758667 0.028319 -0.007138 322995.000000 0 0 1
10.952430 21.397838 -5.023953 24.557347 1.097716 1.776831 0.022662 -0.009170 720779.000000 0 1 0
9.595230 21.551038 -4.627153 24.040096 1.151914 1.764481 0.007699 -0.007799 298197.000000 0 1 0
8.844130 20.372338 -4.966353 22.757756 1.161223 1.790793 -0.008810 -0.000333 1269670.000000 0 1 0
7.293530 20.648638 -4.816053 22.422225 1.231255 1.787272 -0.013349 -0.001807 966372.000000 0 1 0
6.894830 21.108038 -3.580953 22.492469 1.255078 1.730683 -0.023169 -0.003100 -657475.000000 0 1 0
5.722630 21.856738 -3.663153 22.888516 1.314720 1.731531 -0.012393 0.017633 -260678.000000 0 1 0
5.380530 22.430638 -2.236153 23.175073 1.335370 1.667436 -0.008210 0.005868 245017.000000 0 1 0
5.044330 21.469538 -1.222953 22.088050 1.340029 1.626192 -0.006707 -0.000432 -240279.000000 0 1 0
4.322430 22.051338 -0.180753 22.471706 1.377234 1.578840 -0.003019 -0.005286 6035.330000 0 1 0
4.129630 21.152238 1.052147 21.577257 1.377988 1.522015 0.000936 -0.007007 -318402.000000 0 1 0
3.374930 21.750638 2.037847 22.105050 1.416859 1.478476 0.000122 -0.006602 -80326.300000 0 1 0
3.136330 20.781738 3.047947 21.236930 1.421009 1.426778 0.004610 -0.009341 -95356.000000 0 1 0
2.172030 21.233138 4.163047 21.746145 1.468857 1.378169 0.008090 -0.016689 -804014.000000 0 1 0
0.864130 21.404238 3.740447 21.745783 1.530446 1.397929 0.010126 -0.017857 -987037.000000 0 1 0
0.114330 22.137538 4.686147 22.628381 1.565632 1.362195 0.002475 -0.013204 322237.000000 0 1 0
-1.305770 22.415638 4.127247 22.829806 -1.512609 1.389014 0.000102 -0.004426 292455.000000 0 1 0
-2.255470 22.919038 5.059947 23.579069 -1.472702 1.354519 0.011511 -0.006316 -364125.000000 0 1 0
-3.493170 22.978738 4.385147 23.652783 -1.419934 1.384321 0.013398 -0.009513 -782816.000000 0 1 0
-4.574470 23.189238 5.402747 24.245746 -1.376030 1.346077 0.020621 -0.018143 -916758.000000 0 1 0
-4.895270 24.554238 5.669747 25.671391 -1.374011 1.348102 0.032765 -0.012225 622410.000000 0 0 1
-6.070870 24.658438 6.493047 26.211709 -1.329399 1.320475 0.046425 -0.016542 713225.000000 0 0 1
-6.324570 26.131138 6.968047 27.773913 -1.333331 1.317202 0.045072 -0.017863 -31518.800000 0 0 1
-5.205970 26.689938 7.647647 28.247857 -1.378161 1.296641 0.029833 -0.024080 114236.000000 0 0 1
-5.348570 28.060438 8.103047 29.692672 -1.382447 1.294393 0.044755 -0.022433 -133603.000000 0 0 1
-5.772570 29.194238 7.132547 30.602276 -1.375585 1.335560 0.040309 -0.032005 -276802.000000 0 0 1
-7.087970 29.118638 6.662447 30.700531 -1.332023 1.352042 0.042153 -0.027697 -756792.000000 0 0 1
-7.330970 30.149338 5.749647 31.556048 -1.332270 1.387569 0.051597 -0.027625 727005.000000 0 0 1
-8.840070 30.452338 5.354147 32.158337 -1.288270 1.403524 0.051431 -0.020291 1423980.000000 0 0 1
-9.640070 31.073238 6.338047 33.145858 -1.269974 1.378395 0.044809 -0.013151 98762.400000 0 0 1
-10.144670 30.116338 7.310347 32.609037 -1.245885 1.344693 0.029840 -0.007858 -302819.000000 0 0 1
-10.920770 30.788938 8.469747 33.748460 -1.229942 1.317117 0.023636 -0.002506 269218.000000 0 0 1
-10.067370 31.328738 9.444747 34.235143 -1.259873 1.291293 0.035050 -0.005177 -473376.000000 0 0 1
-10.870770 31.932838 10.399847 35.299244 -1.242676 1.271739 0.023221 0.008439 -290086.000000 0 0 1
-10.275170 32.268938 11.806247 35.864341 -1.262525 1.235349 0.033585 0.002559 -436931.000000 0 0 1
-9.630970 33.488638 11.698647 36.757350 -1.290764 1.246896 0.031321 0.004656 427066.000000 0 0 1
-8.722170 33.712938 12.810447 37.104528 -1.317629 1.218288 0.025439 0.004548 525319.000000 0 0 1
-8.427370 -34.069770 12.967447 37.415565 1.328307 1.216875 0.024023 -0.000638 610401.000000 0 0 1
-9.552070 -33.273870 13.406847 37.123255 1.291240 1.201302 0.025127 0.008015 746794.000000 0 0 1
-9.153370 -31.935870 13.351047 35.804112 1.291662 1.188673 0.030239 0.006848 138600.000000 0 0 1
-10.043870 -30.958770 14.180947 35.502451 1.257083 1.159895 0.023252 0.000258 -118582.000000 0 0 1
-10.032370 -31.040470 15.587447 36.154222 1.258191 1.125043 0.017256 -0.002472 -293355.000000 0 0 1
-8.758770 -30.911070 16.173347 35.969258 1.294680 1.104430 0.015074 -0.001596 -243747.000000 0 0 1
-8.758670 -31.252170 17.663247 36.951357 1.297548 1.072405 -0.004444 -0.009996 -163589.000000 0 0 1
-9.272070 -30.224670 18.510947 36.635463 1.273139 1.041097 0.031881 -0.007057 156897.000000 0 0 1
-10.101070 -30.756370 19.527747 37.806334 1.253472 1.028014 0.001186 -0.013187 132662.000000 0 0 1
-10.585570 -29.700070 20.478647 37.596855 1.228417 0.994776 0.011037 -0.026635 243418.000000 0 0 1
-9.481370 -29.334070 21.268547 37.453106 1.258175 0.966879 0.025198 -0.027377 498109.000000 0 0 1
-10.036070 -28.867170 22.478347 37.938270 1.236204 0.936640 0.025860 -0.012436 436262.000000 0 0 1
-9.048570 -28.928570 23.678047 38.462823 1.267647 0.907638 0.031594 -0.012820 206061.000000 0 0 1
-9.020270 -30.195170 24.359947 39.831151 1.280503 0.912740 0.037690 -0.004512 -63926.300000 0 0 1
-7.843570 -30.315870 25.125447 40.147997 1.317620 0.894613 0.034335 -0.003429 -41202.000000 0 0 1
-7.756870 -31.414870 26.180047 41.622806 1.328721 0.890552 0.047796 -0.003139 -237014.000000 0 0 1
-7.601370 -32.638770 25.549147 42.140587 1.341981 0.919417 0.051658 0.004971 205479.000000 0 0 1
-7.947970 -33.737370 26.352947 43.541454 1.339431 0.920731 0.062105 -0.004226 -485866.000000 0 0 1
-7.617070 34.172838 25.855147 43.523456 -1.351483 0.934711 0.059272 -0.007123 -198403.000000 0 0 1
-6.218270 34.051538 25.662847 43.090090 -1.390173 0.932830 0.043326 -0.004478 364688.000000 0 0 1
-5.709870 32.807638 25.193347 41.757017 -1.398481 0.923124 0.044771 -0.006210 -245176.000000 0 0 1
-6.160270 32.309738 23.785947 40.591124 -1.382395 0.944696 0.048307 -0.004263 -520183.000000 0 0 1
-7.474070 31.821038 23.901847 40.493685 -1.340100 0.939414 0.036984 -0.005318 -174867.000000 0 0 1
-7.894670 31.392438 22.619347 39.489820 -1.324422 0.960892 0.024045 -0.003050 36827.700000 0 0 1
-9.144970 30.494038 22.701947 39.101090 -1.279437 0.951335 0.006627 -0.010261 -223144.000000 0 0 1
-8.800070 29.127738 22.639047 37.926149 -1.277396 0.931134 0.014568 -0.010557 -329297.000000 0 0 1
-9.752870 28.199038 23.040447 37.698361 -1.237816 0.913247 0.001792 -0.006587 -672341.000000 0 0 1
-9.270670 26.768138 22.748847 36.331647 -1.237393 0.894198 -0.002091 -0.009215 58544.300000 0 0 1
-8.164070 26.347538 23.526947 36.254131 -1.270318 0.864599 -0.011339 0.002460 93334.100000 0 0 1
-7.805970 24.986638 23.300247 35.045210 -1.267997 0.843487 0.000115 0.008702 -270045.000000 0 0 1
-6.419670 24.616338 23.841047 34.865051 -1.315689 0.817826 -0.010699 0.019476 -506157.000000 0 0 1
-5.406270 25.256038 23.132147 34.672633 -1.359920 0.840408 -0.023022 0.012672 -779702.000000 0 0 1
-4.164170 24.830538 23.627547 34.527625 -1.404639 0.817141 0.004159 0.013980 723169.000000 0 0 1
-2.875970 25.510438 23.014647 34.477930 -1.458533 0.839926 -0.010308 0.019181 875883.000000 0 0 1
-2.556270 24.948738 21.749547 33.196639 -1.468692 0.856385 -0.004454 0.019027 -346161.000000 0 0 1
-1.390670 25.455738 21.163947 33.133687 -1.516220 0.877931 -0.006453 0.023933 -266322.000000 0 0 1
-1.067470 24.636238 19.910647 31.694126 -1.527494 0.891543 -0.003573 0.017510 -526059.000000 0 0 1
-0.446770 23.383738 20.179547 30.890337 -1.551693 0.858909 0.013498 0.009284 18213.100000 0 0 1
-0.172970 22.723738 18.974447 29.604524 -1.563185 0.875086 -0.004414 0.011042 -805593.000000 0 0 1
0.929930 21.669938 19.099647 28.900649 1.527909 0.848815 0.010693 0.018674 460613.000000 0 0 1
2.218630 22.281238 18.963147 29.342407 1.471550 0.868109 0.013218 0.004487 490929.000000 0 0 1
3.281530 21.417438 19.342347 29.044819 1.418761 0.842032 0.009324 0.018531 505618.000000 0 0 1
4.720530 21.959838 19.252847 29.583611 1.359057 0.862166 0.001646 0.010811 147328.000000 0 0 1
5.653530 20.942838 19.008247 28.842301 1.307131 0.851254 0.009748 0.008851 -314471.000000 0 0 1
6.951130 21.440938 18.759847 29.325141 1.257289 0.876664 0.018843 0.005723 162724.000000 0 0 1
8.031030 20.401438 18.413447 28.631646 1.195776 0.872237 0.014736 0.009946 -109289.000000 0 0 1
8.396330 19.663738 19.541747 28.966202 1.167237 0.830320 0.010395 0.008324 -387474.000000 0 0 1
9.411130 18.767138 19.158747 28.422393 1.105975 0.831088 0.019489 0.002930 4485.980000 0 0 1
9.888130 17.917238 20.385047 28.885164 1.066512 0.787347 0.034832 -0.005447 443439.000000 0 0 1
8.879930 17.040938 20.917447 28.403984 1.090416 0.743023 0.024101 -0.000302 198234.000000 0 0 1
9.482230 16.329738 21.986047 28.982052 1.044709 0.709621 0.027025 -0.009615 -262504.000000 0 0 1
8.661230 15.239638 22.618847 28.616005 1.053985 0.659291 0.021548 -0.000153 -597657.000000 0 0 1
7.601430 15.786738 23.355547 29.197336 1.122052 0.643634 0.015586 0.013070 -529023.000000 0 0 1
6.622830 14.928838 23.881947 28.932326 1.153255 0.599812 0.010497 0.012620 55006.500000 0 0 1
6.983930 13.929538 25.028547 29.482800 1.106049 0.556857 0.016001 0.010216 -468111.000000 0 0 1
7.342930 14.628038 26.192247 30.885789 1.105569 0.558529 0.025122 0.004605 -231417.000000 0 0 1
7.579730 13.788038 27.304947 31.513845 1.068159 0.522763 0.020163 0.005582 44525.700000 0 0 1
8.624130 14.536238 28.255947 32.925315 1.035329 0.539077 0.016999 0.007334 695806.000000 0 0 1
9.958230 14.581038 27.790347 32.925316 0.971600 0.566020 0.023790 0.011806 173217.000000 0 0 1
10.221430 15.475738 26.736747 32.539664 0.987088 0.606468 0.021981 0.008870 -844585.000000 0 0 1
11.552730 15.195938 26.016647 32.268375 0.920767 0.632997 0.031756 0.005166 -156145.000000 0 0 1
11.455730 14.255838 25.003047 30.977654 0.893875 0.631519 0.033224 -0.000711 -222913.000000 0 0 1
12.686730 13.964038 24.382847 30.829705 0.833289 0.658537 0.031214 0.000435 -449049.000000 0 0 1
12.631230 12.775038 23.324747 29.441355 0.791058 0.656318 0.031484 -0.005937 97510.100000 0 0 1
12.206630 11.516738 23.836347 29.151476 0.756326 0.613441 0.024179 0.001677 430995.000000 0 0 1
10.806230 11.379338 24.051047 28.717883 0.811225 0.578116 0.025778 0.007769 46209.700000 0 0 1
10.445730 10.125538 24.851947 28.796859 0.769834 0.529600 0.023652 0.006200 -89227.400000 0 0 1
10.445030 8.947038 24.065447 27.718115 0.708304 0.519191 0.021525 0.004578 198756.000000 0 0 1
10.354930 7.810738 24.929647 28.101949 0.646248 0.479741 0.017757 0.007855 -64887.400000 0 0 1
10.431830 6.588038 24.012647 26.996899 0.563283 0.474635 0.019700 0.005424 244463.000000 0 0 1
11.757730 6.367238 23.541747 27.073969 0.496322 0.516538 0.019395 0.005914 546661.000000 0 0 1
11.851830 5.190738 22.650947 26.085917 0.412804 0.518989 0.018201 0.001814 -111284.000000 0 0 1
11.583730 3.806838 23.242147 26.246376 0.317518 0.483147 0.009030 0.002135 46817.800000 0 0 1
12.573530 3.354438 24.169247 27.449926 0.260714 0.493912 0.004910 0.007704 623188.000000 0 0 1
12.216330 2.048738 24.506647 27.459276 0.166159 0.468000 0.000656 0.007060 271732.000000 0 0 1
13.409130 1.313438 25.254547 28.623802 0.097640 0.490087 -0.006301 0.011027 874728.000000 0 0 1
14.383930 0.819438 24.362947 28.304101 0.056907 0.534042 -0.009348 0.010529 -554597.000000 0 0 1
15.715230 1.028738 24.716247 29.307331 0.065368 0.567315 -0.005238 0.008554 -399766.000000 0 0 1
16.584430 0.022138 23.884147 29.077419 0.001335 0.606938 0.009890 0.005544 -46853.600000 0 0 1
16.512630 -1.319462 24.282247 29.394480 -0.079737 0.598677 0.002600 0.006568 178811.000000 0 0 1
17.368030 -2.163962 23.520847 29.318279 -0.123956 0.639727 0.031441 0.009391 57461.900000 0 0 1
17.620130 -3.568962 24.021947 30.004340 -0.199847 0.642474 0.029444 0.013535 -680489.000000 0 0 1
16.674030 -4.426162 23.555547 29.197226 -0.259468 0.632125 0.024335 0.014030 -178186.000000 0 0 1
17.103030 -5.783262 23.899547 29.952431 -0.326073 0.646965 0.035089 0.012024 689235.000000 0 0 1
16.182330 -6.798262 23.129847 29.035737 -0.397716 0.649148 0.020192 0.010459 299735.000000 0 0 1
16.329730 -6.812562 21.718947 28.013992 -0.395235 0.683623 0.021944 0.008979 -180227.000000 0 0 1
15.691130 -7.844862 21.014247 27.374295 -0.463612 0.695609 0.039455 -0.001499 77194.200000 0 0 1
16.287430 -9.321462 21.197447 28.310807 -0.519810 0.724636 0.043347 -0.001470 463242.000000 0 0 1
15.984130 -9.830562 22.485047 29.286682 -0.551391 0.695464 0.032378 0.004995 34162.200000 0 0 1
16.711730 -11.019562 22.659647 30.235282 -0.582949 0.723575 0.035480 -0.000306 -41506.700000 0 0 1
16.283430 -11.807362 23.923547 31.255400 -0.627384 0.699101 0.023776 -0.001135 -522608.000000 0 0 1
15.179330 -12.609462 23.676947 30.822207 -0.693182 0.694806 0.030490 -0.012118 -463729.000000 0 0 1
14.935230 -13.513162 24.698947 31.870122 -0.735452 0.684101 0.015595 0.005414 428511.000000 0 0 1
13.752430 -14.469562 24.292147 31.442105 -0.810803 0.687871 0.013964 0.003034 469737.000000 0 0 1
14.075430 -15.289462 23.170747 31.125053 -0.826718 0.731100 0.007514 0.002116 859537.000000 0 0 1
12.862230 -15.683662 22.496847 30.290632 -0.883917 0.733703 0.001212 0.009288 622416.000000 0 0 1
13.115230 -16.693662 21.374247 30.125505 -0.904872 0.781998 -0.015616 -0.002976 -31019.500000 0 0 1
13.568630 -18.007762 21.748647 31.327159 -0.925067 0.803429 0.002002 0.001690 184627.000000 0 0 1
13.998630 -18.825662 20.671647 31.267942 -0.931408 0.848495 -0.007471 -0.006159 36933.400000 0 0 1
-22.427470 -32.446670 26.967031 47.780734 0.965994 0.971101 0.010285 -0.009638 -67378.800000 0 0 1
-23.213270 -33.415570 27.651421 49.194078 0.963647 0.973888 0.003433 -0.009621 264918.000000 0 0 1
-24.533270 -33.520670 27.123341 49.610405 0.938990 0.992346 0.006548 -0.016338 398305.000000 0 0 1
-25.292160 -34.577270 27.970171 51.162598 0.939262 0.992388 0.009707 -0.016366 52773.600000 0 0 1
-26.054020 -33.987670 29.030421 51.737211 0.916773 0.975067 0.028535 -0.020579 255369.000000 0 0 1
-25.241960 -33.645470 30.109131 51.727497 0.927146 0.949522 0.032345 -0.019603 312505.000000 0 0 1
-26.186580 -32.994370 31.195171 52.416640 0.899928 0.933358 0.023622 -0.026503 764842.000000 0 0 1
-26.731940 -31.725170 30.801431 51.670216 0.870608 0.932142 0.022352 -0.020644 -106494.000000 0 0 1
-27.471000 -31.182770 31.863011 52.366711 0.848597 0.916679 0.011731 -0.015516 -214125.000000 0 0 1
-27.867380 -29.728570 31.601031 51.565530 0.817702 0.911156 0.012119 -0.019416 -443252.000000 0 0 1
-28.843970 -29.602770 30.626581 51.442065 0.798380 0.933082 0.011849 0.003182 -182685.000000 0 0 1
-29.384740 -28.303570 30.568541 50.980297 0.766659 0.927777 0.004529 0.009127 112479.000000 0 0 1
-30.079520 -27.908770 29.222001 50.374620 0.747981 0.951953 -0.004484 0.000971 23386.000000 0 0 1
-29.205670 -27.798370 28.101201 49.146699 0.760715 0.962120 -0.006103 0.003702 -18924.600000 0 0 1
-28.641310 -26.563870 27.985471 48.053620 0.747785 0.949143 -0.024880 0.018462 31122.300000 0 0 1
-27.633240 -26.408170 26.774451 46.667533 0.762733 0.959747 -0.010004 0.024928 421747.000000 0 0 1
-28.144560 -26.528570 25.453691 46.300882 0.755849 0.988737 -0.032027 0.019320 141246.000000 0 0 1
-27.052140 -26.507570 24.541711 45.130534 0.775231 0.995845 -0.000256 0.029216 207144.000000 0 0 1
-27.363570 -26.743070 23.038701 44.662496 0.773931 1.028808 -0.022924 0.027791 320258.000000 0 0 1
-28.169310 -25.764370 22.331201 44.226636 0.740837 1.041500 -0.037037 0.023872 646373.000000 0 0 1
-28.476730 -26.237870 21.024301 44.060994 0.744502 1.073372 -0.042029 0.032402 -170874.000000 0 0 1
-29.112300 -25.136570 20.161801 43.426621 0.712242 1.087983 -0.042979 0.031127 -1206110.000000 0 0 1
-30.346530 -24.723270 20.588101 44.226936 0.683639 1.086585 -0.037923 0.019016 -1018830.000000 0 0 1
-30.792840 -23.583570 19.875901 43.582510 0.653586 1.097242 -0.022591 0.013844 463125.000000 0 0 1
-32.274940 -23.129670 20.103001 44.506000 0.621810 1.102135 -0.017811 0.023181 579386.000000 0 0 1
-33.244510 -24.018370 19.600201 45.455994 0.625652 1.124984 -0.018830 0.014866 -306405.000000 0 0 1
-34.524941 -23.765670 20.126801 46.495879 0.602873 1.123119 -0.006973 0.007008 -876937.000000 0 0 1
34.465056 -24.520270 19.350601 46.513756 -0.618371 1.141733 -0.001533 -0.001339 -841483.000000 0 0 1
34.366827 -25.928470 19.620701 47.311059 -0.646351 1.143165 -0.005930 0.003095 -101118.000000 0 0 1
33.575706 -26.621970 18.672501 46.740985 -0.670393 1.159837 0.003884 0.006455 68363.000000 0 0 1
33.280216 -28.068470 19.156101 47.564357 -0.700649 1.156287 -0.000023 0.016900 -106654.000000 0 0 1
32.345656 -28.363570 20.180201 47.518145 -0.719899 1.132183 -0.003148 0.014329 -265622.000000 0 0 1
32.557366 -27.663970 21.419201 47.791835 -0.704319 1.106071 0.007608 0.008410 101757.000000 0 0 1
31.312486 -27.579970 22.387701 47.353307 -0.722104 1.078353 -0.001625 0.006194 1401040.000000 0 0 1
30.251806 -26.804470 21.794401 45.920010 -0.725052 1.076268 0.004527 0.006986 -133035.000000 0 0 1
29.086196 -26.681770 22.551201 45.458556 -0.742310 1.051715 0.009608 0.005632 67935.900000 0 0 1
28.124086 -25.561970 21.997801 43.912206 -0.737710 1.046101 0.022962 -0.001135 54336.000000 0 0 1
28.750456 -24.385770 21.429001 43.364232 -0.703441 1.053924 0.020407 -0.000632 92186.600000 0 0 1
29.765596 -23.718170 22.146901 44.034391 -0.672806 1.043793 0.028088 -0.006075 -216353.000000 0 0 1
30.470216 -22.602370 21.371001 43.543322 -0.638223 1.057790 0.025279 -0.002995 14307.300000 0 0 1
29.691616 -21.430670 21.175001 42.299484 -0.625191 1.046508 0.030107 -0.014230 -547160.000000 0 0 1
30.476576 -20.325870 20.989001 42.219674 -0.588188 1.050499 0.024430 -0.010950 -900584.000000 0 0 1
29.819896 -18.949270 21.216601 41.212198 -0.566084 1.030006 0.014653 -0.006096 -210284.000000 0 0 1
29.567746 -18.598870 22.567901 41.587014 -0.561489 0.997187 0.019683 -0.015503 -617115.000000 0 0 1
28.452896 -19.145770 23.168201 41.387116 -0.592301 0.976661 0.036913 -0.016802 -889966.000000 0 0 1
28.438286 -18.816970 24.678521 42.093276 -0.584541 0.944335 0.021527 -0.012411 3367.730000 0 0 1
28.259276 -17.418770 24.991891 41.552315 -0.552385 0.925474 0.011149 -0.009333 168608.000000 0 0 1
28.492646 -17.157070 26.344061 42.428829 -0.542005 0.900906 0.011581 -0.011918 -374554.000000 0 0 1
28.109456 -15.699270 26.750961 41.859557 -0.509349 0.877515 0.000891 -0.003756 425044.000000 0 0 1
26.674986 -15.556170 26.740571 40.848592 -0.527956 0.857108 0.017778 0.001297 1031510.000000 0 0 1
26.140576 -14.329170 27.185291 40.344701 -0.501428 0.831422 0.006543 -0.006599 -185748.000000 0 0 1
26.638736 -13.041870 26.509401 39.780158 -0.455279 0.841430 0.002521 -0.001240 -853581.000000 0 0 1
26.071156 -12.741270 25.255181 38.469070 -0.454576 0.854619 -0.009243 0.009909 59797.200000 0 0 1
26.840506 -11.893270 24.428371 38.191726 -0.417109 0.876786 -0.016479 0.017219 10682.000000 0 0 1
28.051846 -12.582770 23.780101 38.868051 -0.421651 0.912442 -0.015549 0.018694 -355376.000000 0 0 1
27.564336 -13.526470 22.830501 38.262120 -0.456199 0.931430 -0.008193 0.014478 218164.000000 0 0 1
28.318186 -14.736470 22.778901 39.216853 -0.479825 0.951030 -0.003857 0.004387 -110405.000000 0 0 1
27.690656 -15.666070 21.728801 38.527120 -0.514857 0.971590 0.001784 -0.002081 -544276.000000 0 0 1
28.125996 -15.483970 20.425001 38.052670 -0.503244 1.004209 -0.003281 0.004115 -77561.000000 0 0 1
27.701956 -16.547470 19.480701 37.692372 -0.538461 1.027648 -0.003580 -0.004923 -42801.000000 0 0 1
28.116626 -16.204970 18.025001 37.122047 -0.522847 1.063792 -0.005033 -0.007364 -11097.400000 0 0 1
27.747906 -17.143670 17.054801 36.806494 -0.553431 1.089009 0.005464 -0.011308 275784.000000 0 0 1
26.378666 -17.093470 16.662801 35.576252 -0.574970 1.083353 0.017977 -0.011321 244549.000000 0 0 1
25.945896 -16.035170 15.518901 34.222106 -0.553567 1.100135 0.001646 -0.002305 -20649.100000 0 0 1
25.900716 -16.496270 14.171501 33.820193 -0.567114 1.138425 0.008553 -0.001848 278329.000000 0 0 1
24.874166 -17.470470 14.000001 33.465527 -0.612304 1.139178 -0.006919 -0.013240 -91504.700000 0 0 1
24.972546 -18.227870 12.717601 33.430835 -0.630523 1.180551 -0.010129 0.013836 -521058.000000 0 0 1
24.568266 -17.506170 11.589101 32.316760 -0.619101 1.204018 -0.001626 0.007405 -123662.000000 0 0 1
24.483166 -18.248970 10.364001 32.246905 -0.640530 1.243594 -0.009201 0.008099 1252360.000000 0 0 1
25.899516 -18.546770 9.691501 33.297039 -0.621453 1.275460 -0.007397 0.016352 1406480.000000 0 0 1
26.631066 -19.614670 10.290501 34.638756 -0.634827 1.269163 -0.000893 0.034895 763767.000000 0 0 1
28.007416 -19.528470 9.843201 35.534000 -0.608885 1.290118 0.011325 0.026229 1210480.000000 0 0 1
29.046246 -20.139270 10.801301 36.958663 -0.606250 1.274214 0.039651 -0.003605 -116010.000000 0 0 1
28.999546 -19.498970 12.087101 36.976770 -0.591954 1.237792 0.048528 -0.018549 118745.000000 0 0 1
29.223076 -20.385870 13.162101 37.984376 -0.609110 1.216945 0.031375 -0.017404 -68626.500000 0 0 1
29.046386 -19.752370 14.544801 38.018416 -0.597196 1.178217 0.028471 -0.012311 48144.600000 0 0 1
29.072496 -20.723770 15.599201 38.961773 -0.619285 1.158874 0.035234 -0.015354 -54945.700000 0 0 1
28.821996 -20.127770 16.876801 38.995654 -0.609616 1.123215 0.040199 -0.023415 12156.600000 0 0 1
28.613606 -21.166570 18.014901 39.891087 -0.636901 1.102236 0.020650 -0.017961 -145108.000000 0 0 1
27.437726 -21.899670 17.776901 39.350255 -0.673617 1.102058 0.016114 -0.017856 -497043.000000 0 0 1
27.197376 -22.820870 18.770401 40.159897 -0.698122 1.084458 0.022015 -0.017181 -667275.000000 0 0 1
25.890416 -23.539970 18.547401 39.603661 -0.737883 1.083402 0.010591 -0.010069 19047.600000 0 0 1
24.697766 -22.955870 19.071601 38.738580 -0.748861 1.056048 0.018584 -0.013873 1181580.000000 0 0 1
23.483966 -23.634070 18.682201 38.198044 -0.788584 1.059753 0.020943 -0.012470 1102430.000000 0 0 1
22.256166 -23.129070 19.490201 37.552081 -0.804629 1.025095 0.015679 -0.011124 135801.000000 0 0 1
21.608266 -21.921370 19.044401 36.196034 -0.792591 1.016734 0.019979 -0.012765 194291.000000 0 0 1
20.389266 -21.625170 19.690101 35.652072 -0.814806 0.985694 0.028131 -0.012623 244038.000000 0 0 1
20.545866 -21.023270 21.086701 36.176781 -0.796882 0.948528 0.027634 -0.008189 -407994.000000 0 0 1
20.719466 -21.987670 22.094101 37.428642 -0.815085 0.939367 0.027639 -0.007789 -230843.000000 0 0 1
21.108766 -21.500070 23.317501 38.099067 -0.794582 0.912180 0.029836 -0.007445 113455.000000 0 0 1
21.579066 -22.667270 24.247751 39.590588 -0.809987 0.911624 0.026181 -0.010688 1466430.000000 0 0 1
20.391766 -23.408970 24.674051 39.656183 -0.854174 0.899247 0.006403 0.003072 1295110.000000 0 0 1
20.843766 -24.319570 25.645981 41.031944 -0.862207 0.895633 0.007541 0.007887 352384.000000 0 0 1
19.722766 -25.187170 26.307101 41.417926 -0.906478 0.882578 0.020574 0.008267 210723.000000 0 0 1
19.247466 -26.196670 25.441651 41.279633 -0.937140 0.906729 0.021788 0.000400 -360933.000000 0 0 1
18.283566 -26.977570 26.063351 41.729802 -0.975172 0.896210 0.027761 -0.004231 -663665.000000 0 0 1
17.545666 -27.904570 25.151301 41.462072 -1.009488 0.919007 0.048545 -0.014567 -618881.000000 0 0 1
16.684266 -27.272470 24.253261 40.129454 -1.021773 0.921814 0.048600 -0.017417 -68549.800000 0 0 1
16.146166 -28.170170 23.291501 39.959369 -1.050342 0.948528 0.059188 -0.017143 -586639.000000 0 0 1
15.231066 -27.433870 22.332301 38.514079 -1.063976 0.952255 0.053045 -0.014678 -64162.000000 0 0 1
13.955466 -27.240370 22.921401 38.238507 -1.097351 0.928005 0.022158 -0.016373 32765.700000 0 0 1
13.226766 -26.129070 22.416901 36.880796 -1.102194 0.917483 0.001265 -0.010019 -87536.500000 0 0 1
11.839766 -25.809670 22.984301 36.532140 -1.140703 0.890333 0.006926 -0.007490 -78355.600000 0 0 1
10.865566 -26.683870 22.462801 36.533093 -1.184102 0.908586 0.012030 -0.008141 471189.000000 0 0 1
9.601366 -25.995170 22.321901 35.583738 -1.216987 0.892707 0.007057 0.001102 915931.000000 0 0 1
8.361866 -26.917970 22.276101 35.926628 -1.269605 0.901997 0.017293 0.004429 75377.300000 0 0 1
8.227766 -27.768970 21.144201 35.859296 -1.282743 0.940179 0.024762 0.006038 250645.000000 0 0 1
6.984166 -28.446070 21.288601 36.209971 -1.330036 0.942310 0.011903 0.012524 267867.000000 0 0 1
6.684566 -29.417070 20.110001 36.255477 -1.347356 0.982824 0.026650 0.015875 58021.800000 0 0 1
7.370466 -30.662870 20.114301 37.404819 -1.334901 1.003035 0.032862 0.004829 142091.000000 0 0 1
7.103266 -31.417170 18.940301 37.366161 -1.348440 1.039230 0.018415 0.006324 121433.000000 0 0 1
7.927866 -32.724370 18.911101 38.618198 -1.333114 1.059058 0.012735 -0.004198 -74929.800000 0 0 1
7.393966 -33.722470 19.746001 39.771602 -1.354953 1.051252 0.014083 -0.001780 150835.000000 0 0 1
8.221566 34.480138 19.686901 40.546863 1.336724 1.063822 0.012549 -0.009211 -114954.000000 0 0 1
7.711866 33.472038 20.703601 40.105976 1.344351 1.028362 0.018443 -0.017319 -335877.000000 0 0 1
7.126366 32.335838 20.141901 38.756776 1.353878 1.024296 0.013559 -0.017106 -224750.000000 0 0 1
6.975466 31.372538 21.151501 38.474397 1.352012 0.988725 0.006055 -0.017805 -309165.000000 0 0 1
6.037366 30.185438 20.896401 37.205779 1.373392 0.974425 0.020275 -0.024176 1417040.000000 0 0 1
4.621266 30.491238 21.047701 37.337346 1.420381 0.971917 0.012257 -0.017995 1094210.000000 0 0 1
3.866866 29.303538 20.862601 36.178697 1.439595 0.956169 0.015218 -0.018102 929770.000000 0 0 1
2.436566 29.306838 21.518201 36.439821 1.487847 0.939102 0.006515 -0.009847 790763.000000 0 0 1
2.383566 28.900238 22.859901 36.925333 1.488507 0.903220 0.007953 -0.016354 138656.000000 0 0 1
1.066966 28.822838 23.394101 37.137291 1.533795 0.889326 -0.000465 -0.011692 325682.000000 0 0 1
1.044966 28.430038 24.883951 37.796429 1.534057 0.852148 0.009863 -0.018063 -263904.000000 0 0 1
1.243666 29.480338 25.837991 39.220388 1.528635 0.851587 0.006809 -0.014820 76429.600000 0 0 1
1.211766 29.094038 27.231771 39.868543 1.529170 0.818881 0.000610 -0.011317 233258.000000 0 0 1
2.398666 28.264838 27.859231 39.759168 1.486135 0.794419 -0.011416 -0.016100 264792.000000 0 0 1
2.762966 27.046638 27.217951 38.470397 1.468994 0.784837 -0.002308 -0.016284 56045.600000 0 0 1
3.573166 26.286638 28.091441 38.637856 1.435693 0.756789 -0.020968 -0.008682 -211708.000000 0 0 1
4.063066 24.978238 27.517521 37.384955 1.409544 0.743567 -0.013514 0.002309 -257039.000000 0 0 1
3.029666 24.058038 27.182021 36.425682 1.445524 0.728412 0.000373 0.005630 -500892.000000 0 0 1
3.507466 22.774638 26.857371 35.387919 1.417989 0.709110 -0.002255 0.014086 185636.000000 0 0 1
2.351166 21.776338 26.568861 34.433142 1.463244 0.689432 -0.005250 0.018610 43279.000000 0 0 1
2.744066 20.437338 26.758511 33.782134 1.437327 0.656570 -0.007937 0.023319 104475.000000 0 0 1
3.524866 19.866738 25.719301 32.689362 1.395198 0.665223 0.001296 0.021464 -481289.000000 0 0 1
3.848966 18.378338 26.005461 32.075876 1.364351 0.625367 -0.001763 0.019658 230401.000000 0 0 1
5.059166 18.098238 26.705611 32.654724 1.298215 0.613188 -0.003786 0.012727 -311125.000000 0 0 1
6.169066 18.134338 25.841481 32.166655 1.242890 0.637876 0.013166 0.011483 -1768450.000000 0 0 1
7.369466 17.975138 26.767241 33.074156 1.181715 0.627820 0.000528 0.008669 -775459.000000 0 0 1
7.674666 19.151838 27.556221 34.424391 1.189663 0.642692 -0.003178 0.006745 72324.000000 0 0 1
8.238566 20.234538 26.832621 34.602024 1.184138 0.683347 -0.005552 0.000305 -404855.000000 0 0 1
8.699266 21.446738 27.698381 36.094876 1.185453 0.696056 -0.012980 0.004973 683798.000000 0 0 1
9.791666 21.099638 28.576591 36.846886 1.136305 0.683211 -0.001205 -0.007030 403553.000000 0 0 1
9.860666 22.046338 29.618291 38.216710 1.150215 0.684067 0.005766 -0.012170 18891.800000 0 0 1
11.044266 21.805338 30.603971 39.166971 1.101967 0.673935 0.034158 -0.017861 1058650.000000 0 0 1
12.316466 21.889838 29.922851 39.067088 1.058288 0.698302 0.027998 -0.021749 404953.000000 0 0 1
13.355966 21.789738 30.870381 40.076863 1.020911 0.691517 0.034348 -0.011462 768905.000000 0 0 1
14.810166 21.813138 30.276521 40.147500 0.974334 0.716465 0.035177 -0.020716 827052.000000 0 0 1
15.112666 23.105738 29.715481 40.562022 0.991568 0.748672 0.025879 -0.030955 -282515.000000 0 0 1
16.419366 22.973738 29.223101 40.637149 0.950272 0.768257 0.051598 -0.011452 -317725.000000 0 0 1
-8.187470 16.950038 4.376847 19.326025 -1.120812 1.342340 0.005697 -0.005367 -122145.000000 0 1 0
-8.061270 18.321638 4.750047 20.572541 -1.156301 1.337801 0.008310 -0.005559 1183850.000000 0 1 0
-6.724070 18.738538 5.126547 20.557904 -1.226271 1.318766 -0.004506 0.005477 409303.000000 0 1 0
-6.654970 20.186038 5.659247 21.995268 -1.252336 1.310576 0.001147 0.006243 -203678.000000 0 1 0
-6.950970 21.219438 4.752747 22.829129 -1.254237 1.361074 0.003436 -0.000777 980277.000000 0 1 0
-8.348170 21.407138 4.408547 23.396427 -1.198965 1.381235 0.004816 -0.004979 1124270.000000 0 1 0
-8.637470 22.422638 3.252747 24.247906 -1.203103 1.436245 0.019607 -0.011078 77358.100000 0 1 0
-7.985370 22.220138 1.998847 23.695908 -1.225794 1.486342 0.002298 -0.012155 -53564.300000 0 1 0
-8.406870 21.086938 1.230047 22.734279 -1.191431 1.516664 0.015228 -0.013056 -604901.000000 0 1 0
-7.765870 21.025138 -0.221853 22.414602 -1.216978 1.580694 0.002321 -0.008824 478339.000000 0 1 0
-6.444170 20.518938 -0.245653 21.508475 -1.266491 1.582218 -0.008100 -0.002024 37238.200000 0 1 0
-5.495370 21.530338 0.041147 22.220626 -1.320893 1.568945 -0.009185 -0.003395 568917.000000 0 1 0
-3.994270 21.303938 -0.394453 21.678735 -1.385458 1.588993 -0.008168 -0.001182 991048.000000 0 1 0
-3.872470 21.294838 -1.849253 21.722934 -1.390912 1.656029 -0.005745 -0.014781 -467752.000000 0 1 0
-2.558070 21.495538 -2.267453 21.765643 -1.452349 1.675161 -0.009393 -0.001701 -422653.000000 0 1 0
-2.660670 21.690738 -3.776953 22.177300 -1.448742 1.741938 0.004309 -0.006098 405320.000000 0 1 0
-1.437870 22.079738 -4.402853 22.560306 -1.505766 1.767216 0.006968 -0.002267 563978.000000 0 1 0
-1.676470 22.451838 -5.758353 23.239066 -1.496265 1.821192 0.015866 -0.011808 241891.000000 0 1 0
-0.416770 23.115538 -6.362653 23.978848 -1.552768 1.839357 0.017077 -0.014178 703323.000000 0 1 0
0.756630 22.304638 -6.355953 23.204902 1.536887 1.848248 -0.000495 -0.001284 -288907.000000 0 1 0
1.810730 22.877438 -7.048353 24.006982 1.491812 1.868783 -0.001346 -0.008809 -264442.000000 0 1 0
3.072530 21.980738 -6.961953 23.260741 1.431913 1.874756 -0.001582 -0.000064 -152352.000000 0 1 0
2.922330 20.866438 -7.782553 22.461442 1.431652 1.924618 0.002582 -0.015157 858169.000000 0 1 0
3.973230 19.857738 -7.696453 21.664526 1.373319 1.933984 0.005749 -0.014239 1071550.000000 0 1 0
3.592030 18.860938 -8.746053 21.098130 1.382602 1.998235 0.001522 -0.017123 244126.000000 0 1 0
4.148630 19.260438 -9.995253 22.092548 1.358641 2.040281 0.003438 -0.019465 -206972.000000 0 1 0
3.119530 19.235138 -10.942453 22.348585 1.410017 2.082457 0.012695 -0.017429 -333362.000000 0 1 0
3.486130 19.763738 -12.331953 23.554946 1.396202 2.121797 0.011452 -0.015793 -97461.300000 0 1 0
3.623730 21.160938 -12.519453 24.852634 1.401195 2.098728 0.030829 -0.017866 -88603.800000 0 1 0
3.805730 21.374138 -13.885353 25.770921 1.394590 2.139807 0.030304 -0.013339 72247.400000 0 0 1
4.137930 22.826538 -14.334453 27.269944 1.391467 2.124276 0.023993 -0.013518 -86177.100000 0 0 1
3.061630 23.739138 -14.249853 27.856392 1.442535 2.107781 0.031750 -0.017788 -170956.000000 0 0 1
3.390730 25.015438 -14.752553 29.238793 1.436072 2.099662 0.021179 -0.015835 224225.000000 0 0 1
2.136430 25.767638 -15.298353 30.042888 1.488074 2.105071 0.018973 -0.005082 1069430.000000 0 0 1
1.075130 26.018838 -14.363653 29.739710 1.529499 2.074850 0.027120 -0.019887 -92856.600000 0 0 1
1.200830 27.305638 -13.748053 30.594915 1.526847 2.036842 0.015875 -0.013882 -1087110.000000 0 0 1
0.172130 27.670438 -12.630853 30.417449 1.564576 1.999014 0.025302 -0.028776 1059470.000000 0 0 1
-1.218870 27.494938 -12.970653 30.425238 -1.526495 2.011208 0.021183 -0.035194 883196.000000 0 0 1
-1.668470 26.156938 -13.220353 29.355526 -1.507096 2.037957 0.018947 -0.030284 -921997.000000 0 0 1
-1.455170 25.066738 -12.128153 27.884601 -1.512810 2.020769 0.051093 -0.041608 -868207.000000 0 0 1
-2.115870 25.302038 -10.958253 27.654174 -1.487366 1.978236 0.033181 -0.032996 -582952.000000 0 0 1
-2.381670 24.116638 -10.273953 26.321829 -1.472359 1.971776 0.063045 -0.032134 -635792.000000 0 0 1
-3.503870 24.235938 -9.263353 26.181434 -1.427218 1.932442 0.039026 -0.025927 -378598.000000 0 0 1
-3.128770 24.761438 -7.986453 26.204989 -1.445106 1.880492 0.039126 -0.026113 -88545.300000 0 0 1
-2.820170 26.094638 -7.838353 27.392029 -1.463139 1.861007 0.036467 -0.024390 -45238.500000 0 0 1
-2.544870 26.628538 -6.426853 27.511086 -1.475516 1.806585 0.021627 -0.014548 858938.000000 0 0 1
-1.225970 26.292238 -5.946953 26.984274 -1.524201 1.793006 0.024277 -0.012741 691970.000000 0 0 1
-0.997370 26.541038 -4.587753 26.953087 -1.533236 1.741842 0.019538 -0.007244 -122956.000000 0 0 1
-1.767770 25.668838 -3.555953 25.974200 -1.502037 1.708131 0.011707 -0.004689 1384090.000000 0 0 1
-3.204970 25.875238 -3.596553 26.319859 -1.447562 1.707873 -0.002139 0.000442 1214280.000000 0 0 1
-3.905370 24.965138 -2.744453 25.417357 -1.415621 1.678983 -0.003412 -0.001204 -265978.000000 0 0 1
-5.129470 24.405638 -3.457053 25.177328 -1.363636 1.708540 -0.011778 0.003421 -606306.000000 0 0 1
-6.200970 25.323438 -3.478253 26.302600 -1.330651 1.703425 -0.017912 0.007676 -1345420.000000 0 0 1
-7.312470 24.744238 -4.028753 26.114754 -1.283453 1.725686 -0.014121 0.001714 -839026.000000 0 0 1
-8.362470 25.872238 -4.263153 27.522319 -1.258174 1.726321 -0.014606 0.004402 4498.260000 0 0 1
-8.964270 26.193638 -3.003953 27.847595 -1.241060 1.678878 -0.011299 0.001215 -56996.100000 0 0 1
-10.247870 26.758138 -3.205453 28.832130 -1.205047 1.682203 -0.000593 -0.000303 -24141.300000 0 0 1
-11.118970 26.837638 -1.982553 29.117363 -1.178019 1.638937 0.002405 0.005225 -481462.000000 0 0 1
-11.567470 25.660638 -1.348153 28.179642 -1.147289 1.618656 0.008866 0.002184 40840.400000 0 0 1
-10.595970 24.821638 -0.732353 26.998604 -1.167331 1.597925 0.011112 -0.002649 -172644.000000 0 0 1
-11.080070 23.439638 -0.305653 25.928324 -1.129221 1.582585 0.019924 -0.010435 -191312.000000 0 0 1
-11.787370 23.416038 0.928047 26.231931 -1.104441 1.535410 0.024546 -0.010837 -23136.300000 0 0 1
-12.284970 22.099138 1.095647 25.307960 -1.063433 1.527490 0.030418 -0.013567 115859.000000 0 0 1
-13.383970 21.974538 2.203147 25.823726 -1.023736 1.485378 0.029606 -0.017587 63902.600000 0 0 1
-12.939470 21.998538 3.532847 25.765220 -1.039101 1.433246 0.027684 -0.020064 -7158.370000 0 0 1
-12.549370 23.275938 4.011747 26.746029 -1.076316 1.420234 0.018906 -0.015428 -118605.000000 0 0 1
-12.291470 23.225838 5.521347 26.851537 -1.084051 1.363694 0.021116 -0.013136 -490468.000000 0 0 1
-11.060070 22.717338 5.944547 25.956507 -1.117719 1.339726 0.021265 -0.007742 -326800.000000 0 0 1
-11.118770 22.547938 7.391147 26.204305 -1.112670 1.284857 0.021867 -0.007013 -183910.000000 0 0 1
-9.799870 22.151738 8.062547 25.529231 -1.154283 1.249479 0.022289 -0.010807 -59884.600000 0 0 1
-8.953770 23.209238 8.527847 26.297584 -1.202604 1.240543 0.026961 -0.015859 826658.000000 0 0 1
-7.813570 22.768438 9.281247 25.799132 -1.240214 1.202796 0.034220 -0.010911 334208.000000 0 0 1
-8.057470 22.335338 10.722147 26.052919 -1.224577 1.146639 0.019467 -0.010212 -317463.000000 0 0 1
-8.839370 21.171638 10.913447 25.406221 -1.175287 1.126793 0.023776 -0.004195 271798.000000 0 0 1
-8.372070 20.540238 12.106047 25.269533 -1.183761 1.071194 0.016686 -0.000042 -19851.900000 0 0 1
-9.405970 19.568038 12.704947 25.155438 -1.122724 1.041348 0.013936 0.000806 -99192.200000 0 0 1
-9.517470 18.393838 11.924147 23.897715 -1.093304 1.048391 0.023857 -0.011207 842812.000000 0 1 0
-10.495270 17.505338 12.557547 23.964130 -1.030710 1.019239 0.021337 -0.007656 539899.000000 0 1 0
-10.840070 16.377138 11.579947 22.799407 -0.986099 1.038045 0.023805 -0.017313 -264947.000000 0 1 0
-11.116470 15.178838 12.217947 22.433262 -0.938677 0.994842 0.012986 -0.015374 -86314.700000 0 1 0
-11.550570 14.344138 11.139547 21.523463 -0.892864 1.026807 0.011001 -0.010771 143275.000000 0 1 0
-11.854770 12.947538 11.812547 21.159173 -0.829429 0.978496 0.009626 -0.012424 252233.000000 0 1 0
-12.906770 12.951738 12.764447 22.299402 -0.787137 0.961352 0.019185 -0.010719 48922.300000 0 1 0
-13.006270 11.680438 13.358247 22.000874 -0.731743 0.918304 -0.000956 -0.001430 58691.300000 0 1 0
-13.804170 11.783138 14.667047 23.334946 -0.706576 0.891116 -0.002702 -0.002001 -243708.000000 0 1 0
-15.175270 11.987938 14.461347 24.148086 -0.668592 0.928718 0.002929 -0.012339 -512292.000000 0 1 0
-15.871170 11.973438 15.680847 25.320865 -0.646320 0.902964 -0.011494 -0.011536 -117925.000000 0 0 1
-16.665270 13.302938 15.894647 26.595849 -0.673669 0.930246 0.002159 -0.014463 -429657.000000 0 0 1
-17.817070 13.328538 15.109747 26.896140 -0.642269 0.974259 -0.004262 -0.005947 -693262.000000 0 0 1
-18.453670 14.573538 15.108347 27.949742 -0.668451 0.999701 0.013896 -0.014642 1112970.000000 0 0 1
-19.821870 14.443838 14.278747 28.379810 -0.629717 1.043579 0.013726 -0.010447 1178560.000000 0 0 1
-20.665970 13.448438 14.862947 28.789755 -0.576904 1.028320 0.017306 -0.000930 762725.000000 0 0 1
-21.717770 13.056238 13.915647 28.909724 -0.541285 1.068604 0.002006 0.002312 636059.000000 0 0 1
-22.761570 12.201438 14.641747 29.687454 -0.492073 1.055036 -0.000530 0.013315 -586432.000000 0 0 1
-23.386270 12.914838 15.650247 30.961927 -0.504561 1.040873 0.004204 0.005428 -27832.600000 0 0 1
-24.145470 12.036338 16.472047 31.610212 -0.462441 1.022658 0.007268 0.011080 -171505.000000 0 0 1
-24.896770 12.730438 17.599047 33.039971 -0.472670 1.009057 0.008699 -0.000562 -979595.000000 0 0 1
-26.029410 13.428038 17.214047 33.973016 -0.476270 1.039446 0.008979 0.006644 -463031.000000 0 0 1
-26.829670 13.666438 18.339447 35.255326 -0.471122 1.023724 0.002637 0.020070 -327541.000000 0 0 1
-27.981500 14.630638 18.086047 36.388529 -0.481774 1.050628 0.003407 0.016623 153618.000000 0 0 1
-27.419820 15.939438 17.823547 36.381191 -0.526564 1.058809 0.002021 0.017100 597947.000000 0 0 1
-28.511630 16.821138 17.662147 37.520863 -0.533015 1.080680 0.012420 0.017284 -331.978000 0 0 1
-28.024100 18.354838 17.558947 37.822835 -0.579858 1.088018 0.023566 0.010719 68974.900000 0 0 1
-27.369910 18.915038 18.685047 38.157851 -0.604720 1.059076 0.012194 0.012772 -494628.000000 0 0 1
-28.090790 19.127038 19.831247 39.347356 -0.597792 1.042567 0.008231 0.013106 -920279.000000 0 0 1
-27.160560 19.210538 21.070747 39.379146 -0.615605 1.006201 0.007770 0.000432 372841.000000 0 0 1
-26.751500 18.029438 21.753147 38.908904 -0.593035 0.977522 0.013881 -0.004059 -103646.000000 0 0 1
-25.753630 17.407038 20.969347 37.496239 -0.594372 0.977329 0.027222 0.005191 -526011.000000 0 0 1
-25.321550 16.027338 21.519547 36.893731 -0.564298 0.948030 0.011631 0.005593 -54124.300000 0 0 1
-26.445780 15.167138 21.515847 37.314247 -0.520720 0.956220 -0.016943 0.007239 506503.000000 0 0 1
-26.121340 13.910538 22.126247 36.951296 -0.489336 0.928801 -0.023349 0.017520 -103984.000000 0 0 1
-27.345810 12.984538 22.370147 37.640604 -0.443307 0.934390 -0.013334 0.008565 -34723.500000 0 0 1
-27.901200 12.502838 21.175647 37.191477 -0.421282 0.965059 -0.010230 -0.001732 -90941.700000 0 0 1
-28.969250 11.635938 21.486547 37.898340 -0.381941 0.967995 0.007319 -0.004017 -305662.000000 0 0 1
-29.800240 11.304238 20.209447 37.739394 -0.362565 1.005697 0.019735 0.004910 -373624.000000 0 0 1
-29.097240 10.769438 19.103547 36.435912 -0.354484 1.018897 0.029692 -0.003984 -3635.800000 0 0 1
-28.466970 9.512738 19.202547 35.631424 -0.322501 1.001640 0.040496 -0.006049 -430685.000000 0 0 1
-27.641050 9.272238 17.918247 34.220836 -0.323656 1.019718 0.049232 -0.009417 -526184.000000 0 0 1
-28.240080 9.080538 16.662147 34.023307 -0.311106 1.059019 0.034481 0.008110 192378.000000 0 0 1
-28.979770 10.177938 16.086747 34.672769 -0.337751 1.088337 0.024917 0.005886 -50170.000000 0 0 1
-28.120800 11.227938 15.351547 33.948726 -0.379881 1.101568 0.024117 0.007252 -245618.000000 0 0 1
-27.606160 10.864238 14.123947 32.857535 -0.374928 1.126465 0.016534 -0.003590 282043.000000 0 0 1
-26.810460 11.926438 13.612947 32.347380 -0.418557 1.136429 0.001370 -0.006737 -61157.400000 0 0 1
-26.603650 11.958738 12.101447 31.578642 -0.422450 1.177521 0.010432 -0.007486 -431866.000000 0 0 1
-26.081920 10.788238 11.552247 30.497656 -0.392200 1.182306 0.023030 0.002971 771704.000000 0 0 1
-27.097670 9.824738 11.231847 30.934828 -0.347827 1.199224 0.008334 0.005612 -152292.000000 0 0 1
-26.469260 8.639338 10.550047 29.775214 -0.315490 1.208606 0.005047 0.000703 -357559.000000 0 0 1
-26.145630 8.922238 9.251447 29.133993 -0.328860 1.247654 0.009710 -0.002434 254422.000000 0 0 1
-26.057490 7.644238 8.594547 28.483213 -0.285354 1.264278 0.019012 -0.002022 -81033.700000 0 0 1
-25.349250 7.822338 7.227747 27.495705 -0.299312 1.304803 0.027986 0.008885 220218.000000 0 0 1
-26.233060 8.263138 6.223647 28.199054 -0.305151 1.348260 0.032060 0.004149 320705.000000 0 0 1
-25.432010 8.649038 5.110147 27.344224 -0.327814 1.382809 0.038556 0.009366 171825.000000 0 0 1
-26.207390 8.919138 3.828547 27.947023 -0.328033 1.433371 0.010592 0.016077 -221262.000000 0 0 1
-26.748710 7.806838 3.064447 28.032678 -0.283971 1.461260 0.022611 0.000912 954229.000000 0 0 1
-25.808200 6.742638 2.721247 26.812899 -0.255547 1.469131 0.027060 0.004277 603816.000000 0 0 1
-24.771770 7.075738 1.615047 25.813079 -0.278228 1.508188 0.040407 0.001620 -601555.000000 0 0 1
-23.821470 7.993338 1.987847 25.205305 -0.323746 1.491848 0.040231 0.003284 -916532.000000 0 0 1
-22.742370 7.944038 1.113747 24.115629 -0.336056 1.524596 0.034695 0.007508 -767815.000000 0 1 0
-21.651470 8.906538 1.599647 23.466390 -0.390261 1.502576 0.024392 0.010385 -314072.000000 0 1 0
-22.028070 10.283038 1.534247 24.358379 -0.436749 1.507768 0.030164 0.009523 -88409.200000 0 1 0
-20.935070 11.098238 1.784847 23.762023 -0.487457 1.495612 0.021675 0.012094 -880566.000000 0 1 0
-21.236770 12.604538 2.143547 24.788497 -0.535644 1.484215 0.011972 0.018124 -537976.000000 0 1 0
-20.091570 13.391338 2.280547 24.252835 -0.587898 1.476625 0.002137 0.007407 59546.700000 0 1 0
-20.400770 14.634938 2.864447 25.270099 -0.622290 1.457199 -0.006539 0.004095 -14361.600000 0 0 1
-19.273070 15.111738 3.819947 24.787252 -0.664961 1.416070 -0.028036 0.003640 140695.000000 0 1 0
-19.050670 14.136438 4.803547 24.204152 -0.638390 1.371010 -0.015646 0.007508 393863.000000 0 1 0
-18.402170 14.698438 5.985147 24.300328 -0.673968 1.321937 -0.010031 0.004630 167924.000000 0 1 0
-17.997070 13.667438 7.099847 23.687575 -0.649506 1.266388 -0.013000 0.009510 -160670.000000 0 1 0
-16.895470 12.864838 6.785547 22.293600 -0.650781 1.261517 -0.006699 0.010455 -72180.600000 0 1 0
-16.464470 12.217938 7.922647 21.980107 -0.638412 1.202050 -0.014005 0.012906 -243769.000000 0 1 0
9.868630 -34.238870 -14.461853 38.455628 -1.290173 1.956343 0.005654 0.023476 -435976.000000 0 0 1
10.675030 -33.453270 -13.647953 37.674185 -1.261908 1.941491 0.015799 0.011532 -147277.000000 0 0 1
11.080330 -32.206070 -14.252553 36.920725 -1.239437 1.967122 0.014237 -0.004365 280430.000000 0 0 1
12.382530 -31.741170 -13.528053 36.658385 -1.198845 1.948762 0.011370 -0.009941 179028.000000 0 0 1
13.535930 -32.498370 -13.842353 37.828246 -1.176138 1.945424 0.013020 -0.000848 980687.000000 0 0 1
14.667530 -31.793170 -13.195953 37.417580 -1.138550 1.931216 0.010119 -0.000452 915986.000000 0 0 1
16.017830 -32.216570 -13.791653 38.531649 -1.109397 1.936847 0.024108 0.001118 -206266.000000 0 0 1
16.387530 -33.520970 -13.319353 39.618326 -1.116089 1.913667 0.030406 -0.010688 -423059.000000 0 0 1
17.432730 -34.056070 -14.091153 40.771026 -1.097687 1.923692 0.018697 0.009105 15659.000000 0 0 1
17.735830 33.754638 -13.975753 40.611044 1.087009 1.922116 0.002738 0.005961 282169.000000 0 0 1
18.463130 33.470038 -12.760753 40.298479 1.066701 1.892998 0.002352 0.002627 193274.000000 0 0 1
18.111230 32.142238 -12.380353 38.915463 1.057669 1.894557 -0.000193 0.008336 -18183.800000 0 0 1
18.618430 31.612538 -11.025153 38.308648 1.038536 1.862723 0.014473 -0.010126 603104.000000 0 0 1
19.977330 31.184538 -11.032653 38.643092 1.001046 1.860326 0.009197 -0.004768 204286.000000 0 0 1
20.459730 31.004638 -9.738253 38.402105 0.987498 1.827182 0.016569 -0.004161 -404507.000000 0 0 1
21.607530 30.020438 -9.593153 38.211787 0.946931 1.824563 0.011246 0.014740 133884.000000 0 0 1
22.733630 30.449938 -10.370853 39.389989 0.929481 1.837224 0.011502 -0.000016 234925.000000 0 0 1
23.849030 29.624238 -10.091053 39.347186 0.892983 1.830156 0.009094 0.010288 562409.000000 0 0 1
25.038930 29.799238 -11.103553 40.475072 0.871988 1.848690 0.000392 0.002766 493967.000000 0 0 1
25.669830 31.051938 -10.951153 41.750339 0.880001 1.836202 0.004231 -0.003765 -344387.000000 0 0 1
26.711830 31.305638 -11.844953 42.823682 0.864413 1.851049 0.008840 -0.001259 -189325.000000 0 0 1
27.410730 32.655838 -11.551653 44.172305 0.872499 1.835386 0.004387 -0.004011 -114392.000000 0 0 1
26.674830 33.800638 -11.995153 44.698024 0.902687 1.842486 0.021489 -0.000936 -26364.800000 0 0 1
27.275830 -34.314270 -11.650553 45.356096 -0.899183 1.830577 0.023325 -0.001264 -317668.000000 0 0 1
26.349730 -33.110470 -11.876253 43.950619 -0.898614 1.844416 0.018329 0.005640 387417.000000 0 0 1
25.161430 -33.209970 -11.098053 43.118053 -0.922419 1.831114 0.030949 -0.013785 1113840.000000 0 0 1
24.020330 -32.340170 -11.338153 41.849929 -0.931958 1.845149 0.038018 -0.016354 1079190.000000 0 0 1
24.264030 -30.836470 -11.007853 40.752962 -0.904118 1.844305 0.019393 -0.002543 -259902.000000 0 0 1
25.190130 -30.195770 -11.868053 41.075271 -0.875531 1.863910 0.010187 0.006730 3007.710000 0 0 1
25.640730 -28.977670 -11.325853 40.316589 -0.846418 1.855552 0.002506 0.002253 -225863.000000 0 0 1
26.497330 -28.097370 -12.239153 40.513795 -0.814697 1.877689 0.002744 0.020428 363991.000000 0 0 1
27.805730 -28.540670 -12.549253 41.775737 -0.798441 1.875904 -0.008553 0.014614 102123.000000 0 0 1
27.813330 -29.447870 -13.651753 42.744927 -0.813936 1.895868 0.001925 0.007447 -150957.000000 0 0 1
29.221330 -29.961470 -14.052053 44.147888 -0.797904 1.894727 0.003777 0.009939 98389.800000 0 0 1
29.808530 -30.702970 -13.003153 44.724745 -0.800178 1.865794 0.007742 0.008289 -401957.000000 0 0 1
30.870630 -31.426270 -13.544053 46.087391 -0.794317 1.869077 -0.000201 0.000130 -489798.000000 0 0 1
31.186930 -32.658170 -12.674653 46.902319 -0.808438 1.844434 -0.028764 0.001150 766200.000000 0 0 1
32.337230 -33.331470 -13.267153 48.298040 -0.800537 1.849067 -0.039435 -0.002359 729474.000000 0 0 1
33.074630 -34.047370 -12.314753 49.038839 -0.799889 1.824636 -0.035972 -0.003375 -601453.000000 0 0 1
32.463230 34.009138 -11.638153 48.434795 0.808650 1.813456 -0.030681 -0.003594 349622.000000 0 0 1
31.525530 34.288638 -10.547353 47.757893 0.827357 1.793483 -0.029906 -0.008247 487010.000000 0 0 1
30.918530 33.089338 -10.108753 46.400934 0.819300 1.790414 -0.019016 -0.004478 -393507.000000 0 0 1
30.311130 33.392038 -8.717053 45.932340 0.833724 1.761735 -0.023441 -0.003077 224574.000000 0 0 1
29.161630 34.214738 -8.849753 45.818851 0.864962 1.765164 -0.017621 -0.008152 -136250.000000 0 0 1
28.621130 34.581038 -7.601153 45.527956 0.879419 1.738538 -0.007826 -0.008678 1034790.000000 0 0 1
27.582730 -33.535170 -7.647453 44.089661 -0.882485 1.745130 0.000402 -0.015073 455827.000000 0 0 1
28.293130 -32.323870 -7.870753 43.672446 -0.851796 1.752009 -0.009151 -0.015063 138105.000000 0 0 1
27.545530 -31.265670 -8.416853 42.510490 -0.848570 1.770108 -0.007530 -0.010245 62185.000000 0 0 1
26.452830 -30.623870 -7.529853 41.161540 -0.858346 1.754766 -0.000176 -0.017944 425797.000000 0 0 1
25.811530 -29.447670 -8.050053 39.977540 -0.851105 1.773547 -0.000058 -0.026590 -297889.000000 0 0 1
24.769630 -28.959770 -7.276453 38.796258 -0.863227 1.759469 -0.002718 -0.027505 -582386.000000 0 0 1
23.847630 -28.011370 -8.020853 37.652097 -0.865516 1.785467 0.025640 -0.033263 -869345.000000 0 0 1
23.015030 -28.668470 -8.940253 37.835181 -0.894351 1.809347 0.040160 -0.034051 202504.000000 0 0 1
22.193930 -27.757070 -9.686853 36.835589 -0.896313 1.836901 0.058658 -0.032744 -563257.000000 0 0 1
20.943030 -28.437770 -10.176953 36.754424 -0.936023 1.851353 0.062381 -0.029070 -985695.000000 0 0 1
21.134830 -29.300270 -11.283053 37.848305 -0.945905 1.873511 0.071790 -0.024369 -163173.000000 0 0 1
20.058530 -30.133370 -11.683353 38.037684 -0.983492 1.882995 0.062578 -0.026059 111863.000000 0 0 1
19.752630 -31.397470 -10.774453 38.627146 -1.009243 1.853481 0.060228 -0.037667 23873.600000 0 0 1
20.682330 -32.450270 -10.912553 39.998283 -1.003362 1.847125 0.042165 -0.023284 -158325.000000 0 0 1
20.184930 -33.708270 -10.532753 40.676993 -1.031251 1.832717 0.029154 -0.022644 162487.000000 0 0 1
21.333830 34.564538 -10.550553 41.966102 1.017813 1.824930 0.029435 -0.015586 -67382.000000 0 0 1
22.218630 34.598838 -9.464753 42.193941 0.999939 1.797037 0.029734 -0.006070 -73091.200000 0 0 1
23.270730 33.702938 -9.890253 42.133502 0.966498 1.807743 0.009995 -0.002019 990484.000000 0 0 1
24.573430 33.868438 -9.004253 42.801882 0.943124 1.782750 0.011259 -0.000895 320629.000000 0 0 1
24.596730 33.312038 -7.681653 42.115304 0.934778 1.754219 0.000522 -0.005197 -87329.700000 0 0 1
25.386930 32.165538 -7.512353 41.659975 0.902639 1.752114 0.015699 -0.009239 -152095.000000 0 0 1
25.388730 31.622938 -6.114553 41.012017 0.894315 1.720446 0.022117 -0.003825 -218649.000000 0 0 1
26.183830 32.394238 -5.194753 41.975768 0.891023 1.694870 0.007059 -0.002369 1022660.000000 0 0 1
27.242530 31.564538 -4.614853 41.949641 0.858761 1.681029 0.014168 0.000661 720574.000000 0 0 1
26.777330 30.500738 -3.558753 40.742915 0.850313 1.658254 0.020596 0.007366 -625769.000000 0 0 1
26.356530 31.032538 -2.253253 40.776982 0.866698 1.626082 0.019487 0.005916 273314.000000 0 0 1
25.879030 30.038138 -1.323553 39.670716 0.859641 1.604166 0.013976 0.007241 182295.000000 0 0 1
24.495530 29.403938 -1.638353 38.305440 0.876214 1.613580 0.023227 0.005460 -137522.000000 0 0 1
23.469530 30.318838 -1.269453 38.362251 0.912055 1.603894 0.031009 0.004263 -168361.000000 0 0 1
22.217430 29.778738 -1.686053 37.191803 0.929806 1.616146 0.036256 0.013234 -62229.900000 0 0 1
21.074530 30.390938 -0.900253 36.993991 0.964481 1.595134 0.045473 0.005843 -449645.000000 0 0 1
20.998530 29.954038 0.398947 36.583354 0.959383 1.559891 0.050940 -0.009599 -76357.700000 0 0 1
19.900230 30.607638 1.002447 36.521933 0.994300 1.543345 0.042209 -0.011813 -493284.000000 0 0 1
19.272230 29.733038 2.093247 35.494423 0.995705 1.511788 0.038534 -0.027682 -537598.000000 0 0 1
18.412430 28.720138 1.591747 34.152563 1.000704 1.524172 0.040130 -0.020195 262182.000000 0 0 1
17.823030 28.011138 2.684547 33.309024 1.004124 1.490114 0.045269 -0.017804 310536.000000 0 0 1
17.096330 26.693838 2.190247 31.774875 1.001157 1.501811 0.035884 0.005993 278932.000000 0 0 1
18.009430 25.775138 1.638147 31.486201 0.960934 1.518745 0.030137 -0.004044 501753.000000 0 0 1
18.874130 25.134038 2.595347 31.538682 0.926695 1.488412 0.046653 -0.000323 395905.000000 0 0 1
20.139730 24.463038 1.992347 31.749306 0.882025 1.508003 0.052070 0.004450 -68899.500000 0 0 1
19.948930 23.189738 1.461447 30.624493 0.860383 1.523057 0.044818 0.012275 215350.000000 0 0 1
21.187330 22.624738 1.080947 31.015322 0.818195 1.535937 0.020266 0.015314 95877.400000 0 0 1
20.953430 21.462838 0.080247 29.995101 0.797407 1.568121 0.050634 0.007586 -63366.300000 0 0 1
20.517530 21.892038 -1.207453 30.028125 0.817797 1.611018 0.030938 0.018843 377749.000000 0 0 1
20.668330 20.921438 -2.218253 29.492492 0.791484 1.646082 0.076158 0.003579 -71738.200000 0 0 1
20.632930 21.602338 -3.643553 30.094091 0.808347 1.692166 0.045471 0.009606 15612.600000 0 0 1
21.713730 22.489338 -3.893653 31.502650 0.802943 1.694711 0.033544 0.016674 384068.000000 0 0 1
21.568530 23.134238 -5.169553 32.048693 0.820409 1.732807 0.024899 0.013420 -796798.000000 0 0 1
22.687530 24.110238 -5.373253 33.539521 0.815790 1.731696 0.023675 0.026987 -810522.000000 0 0 1
22.575730 25.396538 -4.760853 34.312002 0.844131 1.709997 0.017793 0.021920 -158193.000000 0 0 1
22.778030 25.534438 -3.369653 34.383146 0.842390 1.668957 0.037204 0.016817 276910.000000 0 0 1
21.518830 25.437538 -2.437553 33.407635 0.868659 1.643825 0.029341 0.016311 -339499.000000 0 0 1
20.616630 26.497838 -2.654153 33.678263 0.909584 1.649687 0.036370 0.009973 945162.000000 0 0 1
19.436130 26.492138 -1.820353 32.907601 0.937837 1.626142 0.041979 0.013172 1133600.000000 0 0 1
18.382730 25.350238 -1.963453 31.375380 0.943390 1.633417 0.032954 0.005339 -728768.000000 0 0 1
17.851230 25.375738 -3.269553 31.197507 0.957741 1.675791 0.037616 -0.001636 -52697.800000 0 0 1
17.303330 24.130838 -3.663953 29.918675 0.948710 1.693568 0.033006 -0.003117 -55831.400000 0 0 1
16.834430 24.269338 -5.128153 29.978271 0.964345 1.742704 0.036750 0.002810 -258615.000000 0 0 1
16.234930 23.090138 -5.530853 28.763132 0.957985 1.764291 0.037359 -0.003302 83277.500000 0 0 1
15.503730 23.304038 -6.743853 28.791030 0.983754 1.807227 0.038246 -0.009017 278529.000000 0 0 1
14.863730 22.022238 -7.264953 27.544309 0.977087 1.837709 0.042968 -0.006590 -274660.000000 0 0 1
15.872130 21.181038 -7.743653 27.577618 0.927708 1.855418 0.019266 0.001608 129329.000000 0 0 1
15.312230 19.972938 -8.126453 26.446585 0.916725 1.883128 0.033920 -0.004476 -316470.000000 0 0 1
16.340130 18.929238 -8.555853 26.429501 0.858676 1.900459 0.026023 0.005986 -690783.000000 0 0 1
17.042030 19.153638 -9.710453 27.415060 0.843671 1.932856 0.001663 0.004106 -363520.000000 0 0 1
17.559130 17.949738 -10.142253 27.081016 0.796398 1.954670 -0.010098 0.005170 -903868.000000 0 0 1
18.950830 18.109338 -10.727753 28.322549 0.762696 1.959264 -0.015671 0.008891 -748889.000000 0 0 1
18.880230 18.830438 -11.912753 29.205516 0.784078 1.990943 -0.019133 0.007443 25817.900000 0 0 1
20.187530 19.111338 -12.351153 30.419247 0.758020 1.988903 -0.020256 0.016814 -143501.000000 0 0 1
20.370330 19.501938 -13.820653 31.405197 0.763622 2.026479 -0.023352 0.012640 -233858.000000 0 0 1
20.239630 18.377138 -14.673453 31.026957 0.737205 2.063405 -0.024851 0.017246 348563.000000 0 0 1
20.466030 18.821738 -15.982753 32.071242 0.743570 2.092493 -0.013409 0.010363 -225728.000000 0 0 1
20.479330 17.726238 -17.079153 32.020617 0.713463 2.133388 -0.007344 0.007052 -759849.000000 0 0 1
21.591630 16.896638 -17.171853 32.350694 0.664013 2.130344 0.001841 0.003434 -394027.000000 0 0 1
21.469230 15.875338 -18.213753 32.321742 0.636712 2.169430 0.018998 -0.005253 -505617.000000 0 0 1
22.177430 16.210138 -19.538253 33.709795 0.631184 2.189036 0.017391 -0.003564 -1044020.000000 0 0 1
23.560230 16.142538 -19.415953 34.534695 0.600697 2.167859 0.042493 -0.003736 -534441.000000 0 0 1
24.187430 16.876738 -20.434953 35.880961 0.609213 2.176719 0.068573 -0.008513 234268.000000 0 0 1
25.645430 17.231938 -20.003253 36.807036 0.591638 2.145353 0.050551 -0.010735 389936.000000 0 0 1
25.717530 18.224138 -19.044953 36.826903 0.616493 2.114312 0.038429 -0.005451 339481.000000 0 0 1
27.071030 18.454038 -18.661653 37.704767 0.598331 2.088564 0.027382 -0.014423 329030.000000 0 0 1
27.307530 19.665238 -17.698053 38.021623 0.624115 2.054966 0.028313 -0.006142 312038.000000 0 0 1
26.760330 19.525538 -16.343853 36.938915 0.630346 2.029132 0.025680 -0.006933 723394.000000 0 0 1
25.365630 19.804438 -16.228253 36.041464 0.662898 2.037860 0.019907 0.002925 455288.000000 0 0 1
24.594230 19.116238 -15.092853 34.613594 0.660724 2.021988 0.012379 0.011481 157258.000000 0 0 1
25.148430 19.364938 -13.795153 34.608534 0.656195 1.980792 0.016312 0.007172 -467374.000000 0 0 1
24.156030 19.113538 -12.851653 33.376730 0.669385 1.966056 0.013015 0.005895 -452068.000000 0 0 1
24.472730 19.628538 -11.471253 33.403348 0.675994 1.921348 0.023210 -0.002292 -278264.000000 0 0 1
24.344830 21.028638 -11.413353 34.134132 0.712441 1.911731 0.016637 0.005542 -53294.900000 0 0 1
24.767030 21.574238 -10.167753 34.383669 0.716609 1.871000 0.012521 0.004728 -53683.700000 0 0 1
23.912930 21.373338 -8.909753 33.287107 0.729378 1.841764 0.021195 0.010081 -1070820.000000 0 0 1
24.211630 20.122138 -8.246953 32.544058 0.693415 1.826999 0.035158 0.003594 49320.500000 0 0 1
23.444630 19.841538 -7.123353 31.529026 0.702351 1.798694 0.038342 0.003145 251647.000000 0 0 1
21.901830 19.634838 -7.283453 30.302899 0.730874 1.813528 0.022037 0.004499 294310.000000 0 0 1
21.307530 20.872338 -7.649853 30.792622 0.775081 1.821857 0.022097 0.009795 -1403040.000000 0 0 1
19.982930 20.662238 -8.008753 29.839331 0.802110 1.842524 0.020705 0.006474 -876319.000000 0 0 1
19.250930 22.034338 -8.078353 30.354079 0.852715 1.840180 0.018061 0.005198 -538331.000000 0 0 1
19.600230 22.864738 -9.209653 31.492586 0.862123 1.867572 0.001157 0.016956 -22635.500000 0 0 1
19.113430 22.612938 -10.504653 31.416809 0.869070 1.911727 -0.001127 0.021471 -997046.000000 0 0 1
17.635230 22.916638 -10.618753 30.804732 0.914908 1.922728 0.005875 0.008765 -1045300.000000 0 0 1
17.362430 24.289238 -10.671553 31.706515 0.950193 1.914071 0.018917 0.011162 378016.000000 0 0 1
15.975230 24.580138 -10.526453 31.147991 0.994474 1.915534 0.029819 0.007584 561682.000000 0 0 1
15.755430 25.933038 -9.834253 31.897783 1.024849 1.884207 0.029575 0.008627 -127675.000000 0 0 1
16.247330 27.008838 -10.554853 33.239404 1.029233 1.893931 0.042024 0.018055 -37732.100000 0 0 1
16.357930 28.199738 -9.783453 34.037083 1.045157 1.862344 0.036514 0.000888 144055.000000 0 0 1
19.418930 29.510938 33.442165 48.645336 0.988800 0.812798 0.013895 0.014542 -380233.000000 0 0 1
18.101430 29.985638 33.559284 48.507997 1.027683 0.806776 0.036025 -0.002839 -86196.300000 0 0 1
17.195730 28.883038 33.535974 47.482466 1.033798 0.786565 0.030488 -0.002755 688389.000000 0 0 1
15.695630 29.185738 33.841108 47.364340 1.077380 0.774909 0.067647 -0.019937 531719.000000 0 0 1
15.041030 29.641738 32.691851 46.622123 1.101224 0.793705 0.072012 -0.025670 -445156.000000 0 0 1
13.680030 29.908338 32.916721 46.531306 1.141807 0.784969 0.057428 -0.029034 -27536.600000 0 0 1
12.805730 29.889038 31.634151 45.365855 1.166014 0.799156 0.039881 -0.031082 -35292.200000 0 0 1
12.518630 28.536138 31.327141 44.186163 1.157384 0.782744 0.033117 -0.030439 -30151.400000 0 0 1
11.132930 28.264738 31.309851 43.625042 1.195576 0.770297 0.016282 -0.017275 -148633.000000 0 0 1
10.768430 26.757138 31.269021 42.540042 1.188179 0.745057 0.002992 -0.003940 -111083.000000 0 0 1
11.003830 26.078438 30.042521 41.276171 1.171511 0.755627 0.000233 -0.001588 -211617.000000 0 0 1
12.327530 25.711938 29.773551 41.225430 1.123725 0.763800 0.002658 -0.002320 -705348.000000 0 0 1
12.436130 25.041138 28.389141 39.845442 1.109850 0.777768 0.008153 -0.004392 -181403.000000 0 0 1
12.267830 25.906838 27.313131 39.593826 1.128543 0.809538 -0.012168 0.010659 167087.000000 0 0 1
12.507830 25.323338 26.044561 38.419219 1.112021 0.825888 -0.008366 0.013835 218355.000000 0 0 1
11.400230 24.339938 25.521011 37.063726 1.132767 0.811280 -0.015073 0.013371 -333742.000000 0 0 1
11.669530 23.657238 24.325711 35.882907 1.112543 0.825868 -0.004202 0.013475 582640.000000 0 0 1
10.654430 22.674138 23.984801 34.682908 1.131523 0.807170 0.009824 0.005526 661627.000000 0 0 1
10.803430 22.200138 22.512201 33.411965 1.117895 0.831488 0.022280 0.004753 -84442.800000 0 0 1
10.416430 23.235238 21.662901 33.431416 1.149354 0.865867 0.018350 0.002394 36124.400000 0 0 1
10.496730 22.883138 20.303101 32.342468 1.140723 0.892132 0.020751 0.006120 -603719.000000 0 0 1
10.275430 23.994438 19.247501 32.431216 1.166183 0.935412 0.015318 0.003592 -877941.000000 0 0 1
9.033930 24.470138 18.912501 32.219284 1.217136 0.943456 0.014249 -0.001564 -816315.000000 0 0 1
8.243030 25.073138 19.949901 33.084866 1.253168 0.923550 0.008697 -0.008808 -282890.000000 0 0 1
6.897330 25.711638 19.701201 33.117953 1.308710 0.933680 0.024131 -0.011837 -195795.000000 0 0 1
7.110630 26.753438 18.797901 33.461449 1.311018 0.974263 0.023610 -0.018124 -651853.000000 0 0 1
5.925530 27.448138 18.662201 33.716315 1.358178 0.984228 0.026843 -0.019013 -430151.000000 0 0 1
6.160630 28.465538 17.476501 33.965693 1.357659 1.030332 0.029980 -0.015252 196643.000000 0 0 1
6.357030 27.895838 16.176601 32.867492 1.346738 1.056208 0.022979 -0.014465 -238883.000000 0 0 1
6.577930 28.940938 15.276501 33.379912 1.347305 1.095440 0.005434 -0.006076 366894.000000 0 0 1
7.438330 28.431438 14.034801 32.567638 1.314908 1.125259 0.004120 -0.007098 176558.000000 0 0 1
6.666230 28.153838 12.917201 31.684875 1.338299 1.150888 0.001806 -0.003298 -422789.000000 0 0 1
7.193530 27.130638 12.149201 30.584661 1.311616 1.162298 -0.006258 -0.004935 -276860.000000 0 0 1
6.377330 27.032038 10.871701 29.826084 1.339115 1.197697 -0.019757 -0.003612 -388558.000000 0 0 1
6.825330 27.812338 9.784501 30.262976 1.330146 1.241565 -0.024915 0.001160 -146054.000000 0 0 1
6.696630 29.202138 9.979301 31.578413 1.345374 1.249268 -0.031042 0.001608 -443153.000000 0 0 1
6.838430 29.926538 8.598001 31.879263 1.346146 1.297710 -0.038474 0.012016 686439.000000 0 0 1
5.611730 29.887938 7.840201 31.404603 1.385198 1.318476 -0.031711 0.002889 743400.000000 0 0 1
5.812730 28.876738 6.867501 30.245932 1.372156 1.341743 -0.030004 0.012984 887566.000000 0 0 1
4.431830 28.332838 6.353101 29.372652 1.415633 1.352780 -0.021701 0.013143 984180.000000 0 0 1
3.597730 29.271738 5.687901 30.035488 1.448502 1.380273 -0.011224 0.013660 1381080.000000 0 0 1
2.225530 28.769938 5.650301 29.403881 1.493594 1.377432 -0.008252 0.002394 1966800.000000 0 0 1
1.179130 29.723238 4.980001 30.160597 1.531147 1.404921 -0.011673 0.005585 212769.000000 0 0 1
1.629330 30.091138 3.646101 30.354989 1.516703 1.450390 -0.010040 0.006044 424838.000000 0 0 1
0.685530 30.846138 2.922501 30.991857 1.548576 1.476357 0.001279 0.001092 -58405.800000 0 0 1
-0.528170 30.146638 2.318801 30.240297 -1.553278 1.494042 -0.000996 -0.003496 -355705.000000 0 0 1
-0.137770 29.379638 1.218001 29.405197 -1.566107 1.529363 0.000348 0.002087 270213.000000 0 0 1
-1.099170 28.342338 1.153901 28.387106 -1.532034 1.530136 0.008878 -0.000791 290715.000000 0 0 1
-1.261870 27.858538 -0.324899 27.888994 -1.525532 1.582446 0.000139 -0.003041 -348935.000000 0 0 1
-2.066870 28.781238 -0.985299 28.872174 -1.499106 1.604929 -0.000265 -0.001578 -269224.000000 0 0 1
-1.447670 29.502538 -2.042699 29.608582 -1.521766 1.639841 0.000211 0.003997 -604740.000000 0 0 1
-2.332370 30.681138 -2.563999 30.876306 -1.494923 1.653933 -0.001692 0.006951 601246.000000 0 0 1
-3.551070 30.484938 -3.259499 30.863666 -1.454833 1.676603 -0.019611 0.010619 201215.000000 0 0 1
-3.428070 29.584638 -4.348299 30.098342 -1.455437 1.715773 -0.019429 0.007046 44154.300000 0 0 1
-4.826570 29.314138 -5.009299 30.128185 -1.407611 1.737838 -0.018100 0.007727 692189.000000 0 0 1
-5.326470 30.418038 -5.730699 31.408108 -1.397445 1.754283 -0.027515 0.012552 -481246.000000 0 0 1
-6.236870 29.983938 -6.686999 31.347265 -1.365714 1.785768 -0.026372 0.006709 -467422.000000 0 0 1
-6.913270 31.142038 -7.498399 32.769587 -1.352347 1.801664 -0.021132 -0.004032 -208934.000000 0 0 1
-7.790370 31.819738 -6.619399 33.421580 -1.330691 1.770172 -0.023758 0.006923 -68556.500000 0 0 1
-8.117570 33.071838 -7.175299 34.801240 -1.330102 1.778465 -0.013553 0.001847 -706346.000000 0 0 1
-9.044470 34.042538 -6.491699 35.816742 -1.311114 1.753051 -0.018260 0.001353 456114.000000 0 0 1
-10.407070 33.581638 -6.578799 35.767501 -1.270279 1.755782 0.002581 -0.003797 449378.000000 0 0 1
-11.265070 34.615738 -6.144099 36.917490 -1.256174 1.738002 0.014886 -0.005326 -295951.000000 0 0 1
-12.756270 34.330738 -6.314199 37.164379 -1.215036 1.741524 0.034345 -0.011481 -61731.800000 0 0 1
-13.237670 34.216238 -7.694999 37.485995 -1.201649 1.777543 0.038071 -0.013762 -499912.000000 0 0 1
-14.570870 33.849438 -7.815299 37.671921 -1.164309 1.779771 0.032535 -0.011632 -1489820.000000 0 0 1
-15.009370 34.003038 -9.266499 38.306080 -1.155107 1.815127 0.039259 -0.020226 316661.000000 0 0 1
-16.405970 33.757538 -9.416699 38.696272 -1.118416 1.816613 0.044424 -0.023180 630326.000000 0 0 1
-17.297370 -34.513770 -8.998199 39.640471 1.106211 1.799788 0.047631 -0.017748 -1098840.000000 0 0 1
-18.718070 34.251038 -9.108799 40.080793 -1.070647 1.800060 0.041424 -0.016642 -691396.000000 0 0 1
-19.127870 33.346838 -8.075199 39.282259 -1.050012 1.777841 0.027888 -0.012504 107710.000000 0 0 1
-19.316770 33.868538 -6.749599 39.569844 -1.052467 1.742209 0.028883 -0.019585 -484983.000000 0 0 1
-19.679570 32.941038 -5.583399 38.775918 -1.032277 1.715290 0.017634 -0.018239 -448732.000000 0 0 1
-19.492870 33.414538 -4.281099 38.920832 -1.042698 1.681014 0.030909 -0.023576 164798.000000 0 0 1
-20.611370 34.013638 -3.634599 39.937031 -1.025996 1.661931 0.029242 -0.016099 1779.840000 0 0 1
-21.133570 -33.868470 -3.982299 40.119319 1.012924 1.670221 0.037971 -0.024779 43951.200000 0 0 1
-21.688170 -33.868770 -5.302499 40.565833 1.001229 1.701885 0.037828 -0.013854 -297299.000000 0 0 1
-22.417570 -32.705070 -5.458199 40.024505 0.969905 1.707594 0.040244 -0.015258 -136432.000000 0 0 1
-23.222570 -32.880370 -6.793199 40.823450 0.955872 1.737978 0.031740 -0.009617 -7945.520000 0 0 1
-22.415870 -32.683470 -7.960299 40.423345 0.969632 1.769015 0.039074 -0.006383 153038.000000 0 0 1
-22.946670 -33.164970 -9.189499 41.363170 0.965531 1.794832 0.024458 0.003260 -43701.700000 0 0 1
-24.090870 -32.331470 -9.791999 41.491894 0.930425 1.809042 0.018402 0.004329 -708218.000000 0 0 1
-25.270240 -32.331770 -9.062399 42.024463 0.907381 1.788149 0.015170 0.001905 639711.000000 0 0 1
-26.502490 -32.130470 -9.836499 42.796096 0.881092 1.802715 -0.008113 0.012818 1543730.000000 0 0 1
-26.808860 -30.602370 -10.031799 41.902948 0.851378 1.812550 -0.018050 0.017397 -576611.000000 0 0 1
-25.930370 -29.785770 -10.799399 40.941461 0.854485 1.837732 -0.012934 0.032989 -33873.000000 0 0 1
-26.135040 -29.869570 -12.182999 41.516949 0.851982 1.868626 -0.020934 0.031268 -149074.000000 0 0 1
-24.966770 -29.127270 -12.853699 40.459301 0.862159 1.894093 -0.014374 0.036013 -184830.000000 0 0 1
-23.758870 -29.837370 -12.817699 40.237371 0.898328 1.894998 -0.000764 0.027472 -256181.000000 0 0 1
-22.779070 -29.302770 -13.676499 39.554836 0.910008 1.923845 0.003465 0.026131 509666.000000 0 0 1
-21.474870 -30.151470 -13.834399 39.517994 0.951907 1.928451 0.025413 0.008271 172286.000000 0 0 1
-21.612570 -31.340670 -14.550399 40.756042 0.967083 1.935864 0.025688 0.007029 23117.800000 0 0 1
-22.155870 -32.452570 -13.832299 41.657945 0.971765 1.909267 0.016147 0.010392 -86848.100000 0 0 1
-22.595270 -33.678070 -14.612599 43.107850 0.979855 1.916626 0.008200 -0.000840 -177590.000000 0 0 1
-22.814470 34.551738 -13.774799 43.635624 -0.987215 1.891967 0.005022 -0.011462 -117034.000000 0 0 1
-22.839270 33.303738 -14.444699 42.888466 -0.969673 1.914309 -0.001722 -0.019917 -77524.200000 0 0 1
-23.460770 32.113438 -13.541799 42.012628 -0.939854 1.898983 -0.006416 -0.012734 101201.000000 0 0 1
-22.629970 31.662538 -12.465199 40.865793 -0.950257 1.880764 -0.009596 -0.009157 456310.000000 0 0 1
-22.420170 32.675738 -11.445599 41.247662 -0.969432 1.851971 0.012328 -0.010043 -45130.300000 0 0 1
-21.677670 32.194138 -10.174799 40.123689 -0.978186 1.827182 0.011912 -0.009801 -196818.000000 0 0 1
-22.451270 31.529838 -9.186199 39.781610 -0.952019 1.803815 0.007210 0.004470 -37468.500000 0 0 1
-21.671970 30.926738 -8.185199 38.641104 -0.959566 1.784240 0.007702 -0.001759 -367706.000000 0 0 1
-22.451970 29.789138 -7.552199 38.059419 -0.924934 1.770554 0.006595 -0.006173 -116134.000000 0 0 1
-22.763670 28.797938 -8.536799 37.687967 -0.901898 1.799292 0.011703 0.002659 -34636.000000 0 0 1
-23.055470 27.514438 -7.997399 36.777131 -0.873345 1.790003 0.010544 -0.003851 -562579.000000 0 0 1
-22.109570 26.733238 -7.066099 35.403797 -0.879781 1.771732 0.017829 -0.007141 -429460.000000 0 0 1
-22.060570 27.373538 -5.813299 35.633885 -0.892463 1.734668 0.018427 -0.004813 189659.000000 0 0 1
-21.151370 26.725938 -4.934599 34.438445 -0.901311 1.714579 0.011092 -0.004753 -150076.000000 0 0 1
-19.880570 27.566038 -4.768999 34.320065 -0.945985 1.710204 0.001791 -0.017022 -126081.000000 0 0 1
-19.114170 27.819038 -5.948399 34.272931 -0.968788 1.745239 -0.002201 -0.008180 558261.000000 0 0 1
-17.930370 28.603138 -5.750399 34.244777 -1.010855 1.739516 0.005709 -0.010818 55098.100000 0 0 1
-17.016370 28.440438 -6.963399 33.865975 -1.031616 1.777890 0.022456 -0.013446 -1127800.000000 0 0 1
-17.406270 28.871238 -8.251899 34.707643 -1.028252 1.810850 0.023647 -0.015866 -29091.300000 0 0 1
-17.640770 30.284438 -8.351299 36.028990 -1.043342 1.804718 0.031596 -0.017270 -173577.000000 0 0 1
-17.776870 30.789638 -9.778399 36.873242 -1.047186 1.839197 0.027348 -0.018198 -75584.600000 0 0 1
-16.598470 30.598938 -10.548599 36.374128 -1.073766 1.865026 0.034479 -0.021331 174356.000000 0 0 1
-16.511270 31.575838 -11.603199 37.473855 -1.088990 1.885605 0.040064 -0.017652 -572889.000000 0 0 1
-15.281470 31.314738 -12.452599 37.002748 -1.116798 1.914028 0.047689 -0.020296 -333601.000000 0 0 1
-15.077470 32.209838 -13.474999 38.031295 -1.132992 1.932976 0.045556 -0.018436 -272775.000000 0 0 1
-15.046970 31.494138 -14.701899 37.873974 -1.125090 1.969452 0.041330 -0.017935 43426.900000 0 0 1
-14.394970 32.178038 -15.918299 38.678593 -1.150145 1.994954 0.061713 -0.016060 -948401.000000 0 0 1
-13.017470 32.178138 -15.921499 38.188758 -1.186379 2.000846 0.050117 -0.017825 -1314250.000000 0 0 1
-12.627670 32.591838 -17.183599 38.948197 -1.201157 2.027722 0.046196 -0.014904 158416.000000 0 0 1
-11.125770 32.367438 -17.504699 38.442792 -1.239715 2.043555 0.056716 -0.013459 -147471.000000 0 0 1
-10.769170 31.001438 -17.496299 37.191191 -1.236461 2.060588 0.055474 -0.022574 592627.000000 0 0 1
-9.468770 30.692838 -18.015799 36.827665 -1.271559 2.081959 0.049491 -0.025541 541403.000000 0 0 1
-9.285370 30.852138 -19.567599 37.695669 -1.278456 2.116587 0.041981 -0.020098 -520543.000000 0 0 1
-9.847970 29.769838 -20.270199 37.337739 -1.251324 2.144668 0.048639 -0.029629 189669.000000 0 0 1
-9.404470 29.636738 -21.600399 37.859709 -1.263522 2.177957 0.039358 -0.032204 -41745.000000 0 0 1
-10.610670 29.336138 -22.570499 38.504840 -1.223743 2.197123 0.052019 -0.028592 1564750.000000 0 0 1
-11.539470 30.425838 -22.879899 39.779150 -1.208291 2.183612 0.060143 -0.027650 983926.000000 0 0 1
-12.497170 30.747738 -21.871599 39.748830 -1.184749 2.153454 0.065720 -0.023728 19358.100000 0 0 1
-13.243370 32.069838 -22.294399 41.241988 -1.179173 2.141917 0.076487 -0.019970 342758.000000 0 0 1
-14.147170 31.835438 -23.370299 41.950070 -1.152622 2.161683 0.075726 -0.025656 135303.000000 0 0 1
-14.954070 32.986838 -23.606599 43.232247 -1.145173 2.148428 0.070690 -0.010452 208471.000000 0 0 1
-15.275370 33.188638 -25.095499 44.323884 -1.139444 2.172666 0.069516 -0.006775 -732643.000000 0 0 1
-14.205370 33.447938 -25.927299 44.640586 -1.169179 2.190509 0.063168 -0.007072 -756938.000000 0 0 1
-14.490470 33.515638 -27.319799 45.603104 -1.162717 2.213145 0.058997 0.000516 161627.000000 0 0 1
-15.176970 -34.503270 -27.891799 46.891028 1.156398 2.207840 0.041516 0.010053 97999.800000 0 0 1
-16.470970 -34.275970 -27.413399 46.878881 1.122838 2.195394 0.033547 0.008545 -683123.000000 0 0 1
-17.037670 -33.135370 -27.968399 46.588264 1.095866 2.214712 0.023097 0.011376 459016.000000 0 0 1
-18.460770 -32.845370 -27.365999 46.567331 1.058748 2.198966 0.033110 0.005092 705835.000000 0 0 1
-19.408570 -33.720070 -27.945399 47.902830 1.048527 2.193676 0.035859 0.013730 -1544840.000000 0 0 1
-20.657970 -33.530970 -27.419399 47.988552 1.018633 2.178975 0.032994 0.021393 -704862.000000 0 0 1
-21.756670 -34.491570 -27.921499 49.422983 1.008050 2.171169 0.000821 0.024865 -90213.800000 0 0 1
-21.539470 33.514238 -27.508099 48.413308 -0.999573 2.175105 0.021893 0.007077 -161805.000000 0 0 1
-22.755270 32.795438 -27.559799 48.506552 -0.964207 2.175072 -0.004803 0.014669 116612.000000 0 0 1
-22.665670 31.268438 -27.296999 47.292430 -0.943571 2.186087 -0.005211 0.011068 5865.170000 0 0 1
-22.271470 31.044638 -25.934599 46.177823 -0.948487 2.167144 0.007383 0.006630 -63302.300000 0 0 1
-22.555470 29.740938 -25.561199 45.239889 -0.921942 2.171247 -0.016342 0.011527 -96389.700000 0 0 1
30.207286 9.981738 -26.652943 41.502947 0.319146 2.268153 -0.020195 0.001771 -279109.000000 0 0 1
29.798446 8.647138 -26.777573 40.984861 0.282430 2.282801 -0.022915 0.000776 370712.000000 0 0 1
28.385886 8.489938 -26.749403 39.917016 0.290622 2.305174 -0.009029 -0.006859 393769.000000 0 0 1
28.068956 7.032938 -26.406433 39.174331 0.245505 2.310508 -0.011233 -0.016622 -129231.000000 0 0 1
28.540376 6.766938 -25.086493 38.596329 0.232802 2.278343 -0.020304 -0.004639 701269.000000 0 0 1
27.928356 5.537138 -24.523653 37.577420 0.195724 2.281829 -0.000793 -0.001260 270311.000000 0 0 1
28.045176 5.385638 -22.996753 36.665892 0.189725 2.248746 0.000624 0.005177 -532430.000000 0 0 1
29.291456 5.051938 -22.464753 37.258242 0.170791 2.217987 -0.017241 0.002792 -418373.000000 0 0 1
29.170826 4.686238 -21.114253 36.314041 0.159287 2.191288 -0.018393 0.003823 -413861.000000 0 0 1
30.465576 4.406038 -20.319053 36.883986 0.143628 2.154228 -0.023951 0.006740 -377625.000000 0 0 1
31.016156 3.127238 -20.446353 37.280490 0.100487 2.151302 -0.012815 0.008221 382356.000000 0 0 1
31.889496 2.761738 -19.383053 37.420181 0.086388 2.115289 -0.009853 0.003546 -74028.000000 0 0 1
32.401566 1.312138 -19.474153 37.826259 0.040474 2.111608 0.002107 -0.000613 -132304.000000 0 0 1
31.440866 0.361038 -19.012453 36.744139 0.011483 2.114639 0.014668 0.000168 -27551.500000 0 0 1
31.815296 -0.952762 -19.205153 37.174706 -0.029938 2.113694 0.016336 0.000428 -594961.000000 0 0 1
30.766506 -1.961662 -18.785453 36.101513 -0.063673 2.118058 -0.001036 0.005150 -355707.000000 0 0 1
30.619216 -2.135762 -17.397753 35.281436 -0.069640 2.086461 0.009284 -0.002138 -209214.000000 0 0 1
29.364176 -1.823462 -16.843353 33.901009 -0.062019 2.090749 -0.009274 -0.002752 -515103.000000 0 0 1
29.113876 -2.111362 -15.342953 32.976990 -0.072394 2.054727 -0.006566 -0.012153 -628916.000000 0 0 1
28.958906 -3.462362 -15.110553 32.847146 -0.118996 2.048821 -0.022701 -0.000838 636466.000000 0 0 1
28.141156 -3.778262 -13.977453 31.647577 -0.133463 2.028244 -0.014935 -0.004245 -125592.000000 0 0 1
28.086146 -5.262062 -13.676453 31.679114 -0.185207 2.017193 -0.018340 -0.003713 -131891.000000 0 0 1
27.451866 -6.097662 -14.649153 31.707793 -0.218573 2.051051 -0.027173 -0.001287 487922.000000 0 0 1
27.433916 -7.426662 -14.148653 31.748377 -0.264374 2.032696 -0.028065 -0.006007 -257900.000000 0 0 1
26.835236 -8.412262 -15.145353 31.941787 -0.303776 2.064800 -0.026122 -0.002637 -224642.000000 0 0 1
25.445616 -8.274762 -15.313553 30.829466 -0.314407 2.090610 -0.018646 -0.001664 -136621.000000 0 0 1
25.024956 -9.007362 -16.469853 31.283175 -0.345498 2.125247 -0.009985 -0.006301 396105.000000 0 0 1
23.605966 -8.686062 -16.999953 30.359310 -0.352585 2.165132 0.000059 -0.009412 89799.100000 0 0 1
23.553766 -7.402062 -17.660553 30.355651 -0.304490 2.191722 -0.009656 -0.007588 184603.000000 0 0 1
22.226566 -7.187662 -18.138153 29.574910 -0.312767 2.231022 0.023738 -0.012200 202390.000000 0 0 1
21.908766 -7.736462 -19.531553 30.353393 -0.339453 2.269822 0.015467 -0.011232 -229612.000000 0 0 1
22.683266 -7.042762 -20.493153 31.370374 -0.301046 2.282684 0.005922 -0.001667 290110.000000 0 0 1
22.316666 -7.358462 -21.851553 32.088486 -0.318504 2.319894 0.011064 -0.008923 -53156.800000 0 0 1
22.834366 -6.283062 -22.890953 32.937530 -0.268513 2.339190 0.009749 -0.006461 -116047.000000 0 0 1
22.556466 -6.592362 -24.260053 33.775784 -0.284341 2.372106 0.015635 -0.012247 200373.000000 0 0 1
22.537066 -5.396462 -25.061853 34.134112 -0.235023 2.395309 0.024200 -0.009891 -353212.000000 0 0 1
22.596766 -5.663262 -26.595773 35.355643 -0.245565 2.422245 0.028310 -0.009386 1158920.000000 0 0 1
21.336066 -6.182962 -27.124063 35.059543 -0.282063 2.455389 0.027263 -0.011109 986592.000000 0 0 1
21.426266 -6.419762 -28.543643 36.263450 -0.291109 2.476920 0.019425 -0.008391 7127.510000 0 0 1
20.225666 -7.109262 -29.203793 36.228175 -0.338008 2.508340 0.034451 -0.011751 51152.300000 0 0 1
20.315766 -8.469262 -28.807763 36.253909 -0.394974 2.489163 0.032908 -0.010573 565416.000000 0 0 1
19.130866 -9.054062 -29.310373 36.153341 -0.442036 2.516184 0.041850 -0.020947 105885.000000 0 0 1
19.264766 -10.609462 -29.128603 36.498868 -0.503395 2.494879 0.051135 -0.015305 -207176.000000 0 0 1
18.560166 -11.005762 -27.940823 35.302920 -0.535240 2.483989 0.049319 -0.018896 184973.000000 0 0 1
18.692666 -12.319062 -27.521803 35.477101 -0.582698 2.458719 0.059309 -0.018607 -417562.000000 0 0 1
18.484266 -13.505662 -28.497563 36.553825 -0.631006 2.464832 0.055464 -0.010002 22496.900000 0 0 1
17.242766 -13.594462 -29.175313 36.514672 -0.667637 2.496431 0.053659 -0.012003 230239.000000 0 0 1
17.255866 -14.717562 -29.999803 37.607974 -0.706176 2.494264 0.048056 -0.009083 -508086.000000 0 0 1
16.188866 -14.957862 -31.073763 38.097188 -0.745896 2.524639 0.025734 -0.010185 468014.000000 0 0 1
14.976566 -15.511862 -30.508013 37.358456 -0.802954 2.526343 0.028651 -0.008794 932195.000000 0 0 1
14.090566 -15.913962 -31.543183 38.036438 -0.846094 2.548630 0.021110 -0.004690 -146216.000000 0 0 1
12.843066 -16.666662 -31.044883 37.503423 -0.914251 2.545950 0.016692 -0.010262 -4326.130000 0 0 1
13.063366 -17.973962 -30.502553 37.737522 -0.942313 2.512024 0.015024 -0.011665 213057.000000 0 0 1
12.079866 -18.135962 -29.493743 36.670385 -0.983205 2.505281 0.012965 -0.010605 189164.000000 0 0 1
12.163366 -19.535862 -28.779423 36.849051 -1.013912 2.467075 0.023874 -0.008561 266978.000000 0 0 1
13.302866 -19.511162 -27.926633 36.572510 -0.972384 2.439661 0.026817 -0.007686 252755.000000 0 0 1
13.395666 -20.637862 -27.088403 36.594355 -0.995067 2.404215 0.028072 -0.002143 -202603.000000 0 0 1
14.443666 -20.474262 -25.998343 36.107184 -0.956419 2.374645 0.023085 0.002674 239163.000000 0 0 1
15.789966 -20.737962 -26.375203 37.081497 -0.920037 2.362109 0.025846 -0.000485 443358.000000 0 0 1
16.704966 -20.543362 -25.341893 36.651018 -0.888085 2.334273 0.022059 0.001461 -267705.000000 0 0 1
18.081966 -21.211962 -25.519823 37.791086 -0.864886 2.312150 0.020615 0.010623 -213559.000000 0 0 1
18.196466 -22.662562 -25.506813 38.669117 -0.894271 2.291106 0.027029 0.006017 173040.000000 0 0 1
17.972466 -23.219762 -24.273753 38.097007 -0.912101 2.261599 0.024140 0.005283 -581081.000000 0 0 1
18.498666 -24.664362 -24.214253 39.202824 -0.927285 2.236568 0.017782 0.003889 -626150.000000 0 0 1
19.866166 -24.595262 -23.926653 39.649416 -0.891364 2.218624 0.036045 -0.001920 -5765.020000 0 0 1
20.454966 -25.882052 -23.501653 40.504493 -0.901989 2.189799 0.034718 -0.004848 193206.000000 0 0 1
20.353566 -26.134452 -21.973253 39.750485 -0.909115 2.156492 0.047386 0.005978 -1109250.000000 0 0 1
19.083466 -26.469332 -21.544753 39.102181 -0.946138 2.154342 0.030465 0.012464 -748893.000000 0 0 1
19.034066 -26.701662 -20.148653 38.486915 -0.951503 2.121773 0.027600 0.009093 -805815.000000 0 0 1
17.734866 -27.290752 -19.653953 38.020895 -0.994527 2.114051 0.012459 0.013270 -1360090.000000 0 0 1
17.714166 -28.658602 -20.049653 39.205813 -1.017167 2.107604 0.019530 0.013081 449145.000000 0 0 1
16.654266 -29.460902 -19.488953 39.052895 -1.056282 2.093287 0.009211 0.019794 605950.000000 0 0 1
15.229266 -29.106432 -19.976953 38.447283 -1.088740 2.117171 -0.002085 0.022263 -503749.000000 0 0 1
14.632166 -28.130272 -19.160553 37.047797 -1.091153 2.114355 -0.000630 0.021045 164872.000000 0 0 1
13.326366 -27.776922 -19.616553 36.523398 -1.123468 2.137786 -0.007105 0.029306 662426.000000 0 0 1
12.550966 -26.679712 -18.822553 34.980313 -1.131082 2.138966 -0.011964 0.022536 -183480.000000 0 0 1
11.805066 -27.233432 -17.763953 34.591580 -1.161768 2.110095 -0.013233 0.019266 -43846.600000 0 0 1
10.950966 -26.279022 -17.145153 33.233521 -1.175961 2.112854 -0.005406 0.014361 1526720.000000 0 0 1
9.419566 -26.371242 -17.577153 33.062470 -1.227730 2.131326 -0.005189 0.022369 822962.000000 0 0 1
8.739566 -27.361912 -16.809253 33.280704 -1.261632 2.100265 -0.001864 0.027186 537741.000000 0 0 1
7.315266 -27.398832 -16.953453 33.039804 -1.309890 2.109615 -0.005568 0.031466 1022700.000000 0 0 1
6.869266 -28.329952 -18.136853 34.332469 -1.332914 2.127359 0.001269 0.032203 -349660.000000 0 0 1
7.157166 -27.807382 -19.395553 34.650584 -1.318880 2.164877 0.000946 0.030136 -193423.000000 0 0 1
6.734766 -28.659432 -20.369853 35.800154 -1.339991 2.176071 0.001075 0.027166 -130286.000000 0 0 1
6.706966 -27.949422 -21.759653 36.050466 -1.335282 2.218791 0.000457 0.010677 18312.700000 0 0 1
5.749866 -26.873712 -21.816653 35.088797 -1.360016 2.241778 0.004759 0.007901 489333.000000 0 0 1
5.877966 -26.166182 -23.038953 35.355522 -1.349825 2.280536 -0.003593 0.009605 -159020.000000 0 0 1
4.662166 -25.349722 -23.556453 34.917770 -1.388915 2.311255 -0.007742 0.003211 542538.000000 0 0 1
3.601266 -26.209862 -24.024753 35.736742 -1.434250 2.308068 -0.014476 0.012608 365306.000000 0 0 1
2.450266 -25.450322 -24.367453 35.319902 -1.474816 2.332157 -0.009303 0.003286 737308.000000 0 0 1
1.378166 -26.410042 -25.008153 36.397766 -1.518660 2.328258 -0.028629 0.001735 -53072.000000 0 0 1
1.843466 -26.849732 -26.244053 37.590647 -1.502245 2.343612 -0.029669 0.011682 85560.300000 0 0 1
1.039566 -27.891612 -26.798393 38.693366 -1.533542 2.335861 -0.018960 0.003889 -88695.100000 0 0 1
1.686366 -28.793542 -27.870813 40.108529 -1.512296 2.339056 -0.020994 0.009731 -874746.000000 0 0 1
1.999566 -28.127802 -29.067573 40.498090 -1.499827 2.371364 -0.032931 0.004143 134728.000000 0 0 1
2.533566 -28.993082 -30.073543 41.850158 -1.483633 2.372584 -0.017473 -0.002832 859587.000000 0 0 1
4.040866 -29.460362 -29.902903 42.171378 -1.434484 2.358990 -0.009385 0.003357 552271.000000 0 0 1
4.162366 -30.390522 -28.866203 42.120859 -1.434681 2.325837 -0.014997 0.006132 684668.000000 0 0 1
5.351566 -31.176362 -29.097073 42.979582 -1.400798 2.314472 -0.000755 0.004436 668375.000000 0 0 1
5.607866 -32.275692 -28.040523 43.121217 -1.398765 2.278739 0.011760 -0.001697 -55553.900000 0 0 1
4.675166 -33.334292 -28.135363 43.870615 -1.431454 2.267021 0.012213 -0.000967 367090.000000 0 0 1
5.088566 -34.450063 -27.372223 44.293780 -1.424148 2.236954 0.013293 0.000641 -272888.000000 0 0 1
3.899066 33.951200 -27.119483 43.627435 1.456454 2.241600 0.009525 0.008004 -135953.000000 0 0 1
3.229366 33.499351 -28.287803 43.964021 1.474692 2.269768 0.009538 0.008802 889335.000000 0 0 1
1.822666 33.438534 -28.014823 43.661058 1.516342 2.267435 -0.025039 0.010029 815810.000000 0 0 1
0.861766 33.528080 -29.225993 44.486329 1.545099 2.287583 -0.035958 0.013446 102164.000000 0 0 1
0.930966 32.406566 -30.126923 44.257019 1.542077 2.319550 -0.028285 0.013797 -191582.000000 0 0 1
-0.051734 32.459416 -31.112613 44.962329 -1.569203 2.335012 -0.025261 0.022397 -238732.000000 0 0 1
-0.025434 31.280376 -32.095953 44.817550 -1.569983 2.369062 -0.030113 0.022391 19240.900000 0 0 1
1.020966 31.278516 -33.055383 45.519735 1.538167 2.383541 -0.024959 0.019332 181747.000000 0 0 1
0.922266 30.076696 -33.819713 45.268435 1.540142 2.414474 -0.021331 0.016492 292133.000000 0 0 1
2.099366 29.828216 34.427898 45.600548 1.500530 0.715159 -0.015993 0.013678 258771.000000 0 0 1
2.336466 30.839786 33.402843 45.522537 1.495179 0.746949 -0.020352 0.004051 368213.000000 0 0 1
3.243866 30.358706 32.369361 44.496621 1.464349 0.756188 -0.041156 0.007619 274618.000000 0 0 1
2.561666 29.439746 31.318111 43.059086 1.484001 0.756375 -0.039192 0.005897 67260.500000 0 0 1
2.325066 28.108226 31.695501 42.427386 1.488266 0.727179 -0.027052 0.001894 56396.300000 0 0 1
3.483266 27.289986 31.664831 41.946847 1.443844 0.715325 -0.034034 0.006085 -110253.000000 0 0 1
3.141966 25.935456 32.275931 41.524156 1.450238 0.680464 -0.020741 0.008640 -109252.000000 0 0 1
2.343366 25.206696 31.362671 40.304913 1.478097 0.679105 -0.011246 0.010229 86201.500000 0 0 1
2.621066 23.813046 31.411001 39.504204 1.461169 0.651573 -0.012373 0.011796 -229783.000000 0 0 1
1.937866 22.955146 30.256441 38.028230 1.486576 0.650748 -0.008866 0.017556 63792.900000 0 0 1
0.561966 22.875446 30.531111 38.154300 1.546235 0.643166 -0.022737 0.021635 -372092.000000 0 0 1
-0.083434 21.861046 29.772851 36.936905 -1.566980 0.633355 -0.015338 0.012993 -197464.000000 0 0 1
-1.495534 21.567046 30.268221 37.195958 -1.501564 0.620221 -0.020005 0.026108 -626383.000000 0 0 1
-2.428134 22.615246 30.117211 37.741113 -1.463839 0.646836 -0.004285 0.020461 -906549.000000 0 0 1
-3.624534 22.124146 30.623451 37.952745 -1.408412 0.631939 -0.026516 0.025792 -915752.000000 0 0 1
-4.689934 23.222446 30.651841 38.740326 -1.371520 0.658007 -0.040543 0.013149 -365430.000000 0 0 1
-4.951534 23.768546 31.949271 40.127514 -1.365411 0.649819 -0.046788 0.015708 145249.000000 0 0 1
-4.512534 25.111666 32.038711 40.956535 -1.392995 0.672509 -0.031337 0.011407 -291459.000000 0 0 1
-4.694234 25.619006 33.477745 42.416137 -1.389574 0.661179 -0.024057 0.017449 -284532.000000 0 0 1
-6.032134 25.811756 33.841306 42.986828 -1.341219 0.664463 -0.031858 0.016061 -224262.000000 0 0 1
-6.009134 26.133286 -34.043893 43.336416 -1.344783 2.474417 -0.025328 0.014164 -321236.000000 0 0 1
-7.392934 26.457486 -33.480573 43.308230 -1.298319 2.454473 -0.011489 0.017905 -433642.000000 0 0 1
-7.825734 27.736096 -33.988913 44.562084 -1.295795 2.438323 -0.003863 0.012163 -20688.800000 0 0 1
-9.086234 28.174696 -33.539933 44.735894 -1.258831 2.418453 0.007883 0.006897 -74435.400000 0 0 1
-9.206634 28.611296 -32.011563 43.910233 -1.259477 2.387690 0.019367 -0.000880 -344100.000000 0 0 1
-8.474534 29.776376 -31.652083 44.275328 -1.293522 2.367266 0.013029 0.002071 278616.000000 0 0 1
-8.563234 30.065066 -30.269203 43.513927 -1.293321 2.340080 0.016109 0.000638 -242141.000000 0 0 1
-8.124534 31.484326 -29.839273 44.132222 -1.318256 2.313298 0.006675 0.000981 1221200.000000 0 0 1
-6.685134 31.618696 -29.978783 44.081293 -1.362435 2.318667 -0.012883 0.006607 1298890.000000 0 0 1
-6.210134 32.913476 -29.582113 44.687404 -1.384308 2.294252 -0.015570 0.011173 139760.000000 0 0 1
-4.664834 33.059206 -29.676993 44.669852 -1.430616 2.297437 -0.009779 0.011481 241805.000000 0 0 1
-4.247434 34.320256 -29.173313 45.243815 -1.447664 2.271561 -0.020327 0.011514 -186840.000000 0 0 1
-4.590334 -33.820492 -29.870943 45.356037 1.435894 2.289737 -0.010240 0.005662 -597010.000000 0 0 1
-4.050034 -33.558952 -31.294693 46.064778 1.450693 2.317690 -0.004828 0.001817 -525270.000000 0 0 1
-4.449734 -34.444840 -32.275093 47.412327 1.442324 2.319558 0.001033 0.015327 -143236.000000 0 0 1
-4.183934 -34.088594 -33.633883 48.070527 1.448670 2.345743 0.014307 -0.000221 438585.000000 0 0 1
-2.738434 -33.651292 -34.051353 47.952092 1.489598 2.360454 0.019705 -0.005599 217792.000000 0 0 1
-2.464134 -32.303412 -33.810383 46.826535 1.494663 2.377535 0.018496 -0.002510 -406279.000000 0 0 1
-1.245034 -31.866642 -34.326394 46.854394 1.531746 2.392957 0.020269 -0.016247 -470352.000000 0 0 1
31.176816 20.357938 12.404101 39.246672 0.578470 1.249228 0.037407 -0.003439 -185141.000000 0 0 1
32.047356 19.626338 13.212101 39.834480 0.549499 1.232718 0.027799 -0.003308 -229654.000000 0 0 1
31.831936 18.191738 13.058701 38.919676 0.519195 1.228629 0.029628 -0.004702 -77250.700000 0 0 1
32.850476 17.246338 13.733201 39.562492 0.483443 1.216291 0.038687 -0.005499 260330.000000 0 0 1
34.084117 17.104038 13.038901 40.302458 0.465101 1.241343 0.026621 0.009613 644892.000000 0 0 1
34.839297 16.010138 13.650501 40.699353 0.430761 1.228768 0.022151 0.009395 446080.000000 0 0 1
-34.052780 15.356838 12.824901 39.495599 -0.423662 1.240084 0.024273 -0.001643 145250.000000 0 0 1
-33.288020 14.330438 13.398601 38.639050 -0.406519 1.216678 0.015734 -0.002541 244834.000000 0 0 1
-34.001900 13.076538 13.500201 38.850746 -0.367145 1.215905 0.018537 -0.001273 -118447.000000 0 0 1
-33.384070 12.108838 14.530201 38.369869 -0.347955 1.182418 0.003081 0.001751 -336489.000000 0 0 1
-33.632500 12.375238 15.920201 39.214084 -0.352580 1.152744 0.015201 -0.003858 322126.000000 0 0 1
-32.908960 11.622138 16.907201 38.780500 -0.339487 1.119679 0.003867 -0.009715 -47589.300000 0 0 1
-32.762570 12.394138 18.251701 39.498420 -0.361662 1.090449 0.025892 -0.007288 -425935.000000 0 0 1
-33.859150 12.529538 19.113201 40.850285 -0.354423 1.083901 0.027713 -0.000253 -218885.000000 0 0 1
-33.520860 13.302438 20.263601 41.366852 -0.377780 1.058877 0.022978 -0.008955 685657.000000 0 0 1
-34.791181 13.502738 21.180001 42.910868 -0.370213 1.054594 0.033579 -0.012431 762827.000000 0 0 1
34.857180 12.309938 21.774401 42.903171 0.339481 1.038487 0.027460 0.002337 483289.000000 0 0 1
33.725376 12.371038 22.657101 42.471023 0.351577 1.008096 0.016533 -0.010088 572230.000000 0 0 1
33.507396 11.122138 23.503501 42.412995 0.320488 0.983445 0.000711 0.000804 -744180.000000 0 0 1
34.373235 10.941938 24.576761 43.649313 0.308185 0.972724 0.011888 0.004877 -308435.000000 0 0 1
33.912416 11.621038 25.725791 44.123880 0.330137 0.948336 0.002186 0.008380 -692103.000000 0 0 1
-34.902641 11.854538 26.678231 45.502224 -0.327421 0.944305 -0.005313 0.005939 424580.000000 0 0 1
-34.002110 12.921938 26.555141 45.036601 -0.363176 0.940190 0.008768 -0.003349 -202939.000000 0 0 1
-33.257060 12.812938 25.384221 43.755709 -0.367744 0.951902 0.010802 -0.003183 -1566590.000000 0 0 1
-32.417670 14.047438 25.053891 43.312045 -0.408902 0.953968 0.010551 -0.003830 -581306.000000 0 0 1
-31.352480 14.327038 25.890951 43.111290 -0.428632 0.926594 -0.007326 -0.006893 -425404.000000 0 0 1
-31.698000 14.851438 27.154461 44.302293 -0.438156 0.911026 -0.017431 -0.002046 -791848.000000 0 0 1
-30.496900 15.521938 27.860291 44.126945 -0.470796 0.887482 -0.015661 0.009543 -77048.200000 0 0 1
-29.986100 16.710738 27.298011 43.858823 -0.508417 0.898983 0.006432 -0.002656 -731605.000000 0 0 1
-29.284950 17.431238 28.226471 44.251441 -0.536904 0.879073 0.007687 -0.010770 -307224.000000 0 0 1
-28.885150 18.816738 27.620541 44.173700 -0.577382 0.895317 0.030189 0.001610 -174559.000000 0 0 1
-30.013780 19.580438 27.273651 45.034127 -0.578048 0.920249 0.001612 -0.025895 21784.500000 0 0 1
-29.707520 20.638438 26.422581 44.795476 -0.607174 0.939924 0.000846 -0.031419 228287.000000 0 0 1
-30.891060 21.653738 26.258591 45.963633 -0.611377 0.962719 0.009862 -0.017259 188879.000000 0 0 1
-31.057390 22.461138 27.465141 47.152923 -0.626137 0.949033 0.004219 -0.020741 -133373.000000 0 0 1
-32.071170 23.412038 27.353061 48.216941 -0.630579 0.967583 -0.007754 -0.016478 -1328250.000000 0 0 1
-31.823930 24.667938 26.498071 48.201840 -0.659396 0.988754 -0.014225 -0.012692 -653122.000000 0 0 1
-32.925790 25.323438 25.922101 48.962633 -0.655618 1.012872 -0.019086 -0.003882 -421945.000000 0 0 1
-32.678210 26.609238 25.465261 49.238160 -0.683388 1.027237 -0.008690 -0.014647 224593.000000 0 0 1
-33.789260 27.088938 24.478561 49.746604 -0.675778 1.056336 -0.004777 -0.012540 222471.000000 0 0 1
-33.591960 26.651838 23.104401 48.708865 -0.670703 1.076586 -0.004968 -0.010042 127850.000000 0 0 1
-34.436836 27.349938 22.209001 49.266160 -0.671198 1.103139 0.010385 -0.011916 61439.600000 0 0 1
-33.782400 27.207038 20.839201 48.122196 -0.678001 1.122925 0.000044 -0.013170 134582.000000 0 0 1
-33.721700 25.919338 20.316601 47.135224 -0.655315 1.125165 0.000753 -0.006601 -125711.000000 0 0 1
-33.096000 25.822038 19.060201 46.102214 -0.662561 1.144575 0.009553 -0.010846 -394474.000000 0 0 1
-33.355340 24.539438 18.267201 45.259842 -0.634284 1.155340 0.002092 0.001816 -125039.000000 0 0 1
-34.552431 24.413438 17.539601 45.798734 -0.615116 1.177786 0.004101 -0.006094 -468293.000000 0 0 1
-34.402963 23.389038 16.560101 44.775528 -0.597078 1.191952 -0.004296 -0.004017 396215.000000 0 0 1
34.401545 23.121638 15.607301 44.290680 0.591762 1.210680 -0.004938 0.003074 854446.000000 0 0 1
33.289436 22.556638 16.284401 43.383986 0.595528 1.186016 0.002951 -0.004575 92613.300000 0 0 1
32.100936 22.387138 15.536101 42.107297 0.608978 1.192902 0.010390 -0.004542 -67859.300000 0 0 1
31.171376 21.317138 16.160701 41.076068 0.599818 1.166433 0.016891 -0.004697 550982.000000 0 0 1
30.377156 21.673538 17.321601 41.140634 0.619717 1.136211 0.005669 0.002849 173092.000000 0 0 1
29.245216 22.431338 16.930901 40.559869 0.654298 1.140181 0.005428 0.003553 261546.000000 0 0 1
28.375026 22.862238 18.218101 40.739701 0.678217 1.107183 0.004131 -0.000272 693690.000000 0 0 1
29.048046 23.795138 19.093401 42.125474 0.686318 1.100388 -0.005168 0.004293 278533.000000 0 0 1
28.228026 24.286238 20.162801 42.345972 0.710477 1.074531 0.004192 0.000515 403893.000000 0 0 1
29.184236 24.944838 21.173101 43.843640 0.707238 1.066807 0.009660 -0.000905 561848.000000 0 0 1
29.747176 26.180838 20.782001 44.746199 0.721718 1.087792 0.014391 -0.004883 -163146.000000 0 0 1
30.642076 26.710038 21.730201 46.092999 0.716946 1.079871 0.015386 -0.008562 52721.200000 0 0 1
31.398986 27.988238 21.202401 47.103924 0.728029 1.103897 0.022840 -0.015151 32502.400000 0 0 1
32.414796 28.475238 22.038101 48.448283 0.720789 1.098560 0.022429 -0.009412 -21573.700000 0 0 1
31.945626 29.333638 23.101501 49.139238 0.742800 1.081366 0.010674 -0.006146 203211.000000 0 0 1
32.995026 29.385738 24.266961 50.409114 0.727604 1.068545 0.009953 -0.013045 1115560.000000 0 0 1
34.245819 30.054538 24.109101 51.549007 0.720307 1.084118 0.021117 -0.017666 372702.000000 0 0 1
34.639387 30.681138 25.320661 52.748036 0.724875 1.070107 0.022071 -0.014646 -7676.880000 0 0 1
-34.193552 31.662638 25.041821 52.903822 -0.746986 1.077711 0.032965 -0.024244 217284.000000 0 0 1
-33.017890 30.912238 24.788781 51.577429 -0.752473 1.069443 0.023502 -0.024187 -669900.000000 0 0 1
-31.932510 31.772038 24.895761 51.467917 -0.782879 1.065903 0.021378 -0.022031 223773.000000 0 0 1
-30.510230 31.242738 24.494151 50.069414 -0.797260 1.059620 0.026122 -0.022016 357331.000000 0 0 1
-30.282120 31.150538 23.095401 49.201223 -0.799533 1.082177 0.008043 -0.015403 288216.000000 0 0 1
-30.904500 29.981138 22.474701 48.570247 -0.770234 1.089729 0.006473 -0.016075 -5238.960000 0 0 1
-30.508300 28.542338 23.103201 47.740751 -0.752118 1.065656 -0.004159 -0.010363 -240809.000000 0 0 1
-29.192550 28.106038 22.806701 46.500537 -0.766438 1.058178 -0.008532 -0.007351 126628.000000 0 0 1
-28.836740 26.903338 23.426001 45.870739 -0.750726 1.034802 -0.001968 -0.011346 -54576.700000 0 0 1
-28.391600 27.018838 24.909701 46.439140 -0.760629 1.004637 0.017166 -0.016194 -391661.000000 0 0 1
-29.429100 27.418738 25.766811 47.768061 -0.750049 1.001054 0.002755 -0.017174 -246090.000000 0 0 1
-28.932180 27.701738 27.071401 48.345817 -0.763675 0.976467 0.017361 -0.026824 -1001940.000000 0 0 1
-29.960990 28.218738 28.060841 49.813340 -0.755461 0.972398 0.015952 -0.022715 73388.400000 0 0 1
-30.875490 27.167738 28.470491 50.019503 -0.721606 0.965279 0.003712 -0.020882 25343.200000 0 0 1
-31.651650 27.607038 29.529211 51.341501 -0.717250 0.958005 0.001949 -0.009436 -317299.000000 0 0 1
-32.441090 26.419438 30.107341 51.544767 -0.683449 0.947025 -0.005292 -0.013099 -24725.500000 0 0 1
-31.581970 25.555538 30.827981 50.998733 -0.680314 0.921677 -0.001420 -0.018749 -81121.900000 0 0 1
-32.347310 24.578438 31.462831 51.384412 -0.649762 0.911826 -0.011324 -0.017720 -25228.000000 0 0 1
-31.609980 23.582338 32.419481 51.052328 -0.640962 0.882756 0.020533 -0.025708 -2408.090000 0 0 1
-30.605070 22.750038 31.766511 49.632104 -0.639226 0.876247 0.023418 -0.021497 410620.000000 0 0 1
-29.875260 21.981938 32.657901 49.419381 -0.634345 0.848870 0.030550 -0.019898 -242108.000000 0 0 1
-28.750190 22.751638 33.378545 49.581627 -0.669448 0.832263 0.038849 -0.021863 -863417.000000 0 0 1
-29.195680 23.690238 34.403306 50.962756 -0.681671 0.829740 0.045129 -0.031764 131503.000000 0 0 1
-29.287940 23.183038 -33.522173 50.189369 -0.669571 2.302198 0.040200 -0.030123 289300.000000 0 0 1
-27.982930 23.382738 -32.682813 48.969001 -0.696079 2.301533 0.042148 -0.023001 263854.000000 0 0 1
-27.785000 24.668438 -32.202023 49.168164 -0.726052 2.284895 0.021391 -0.018076 78440.900000 0 0 1
-26.815300 24.762638 -31.185583 48.008219 -0.745622 2.277839 0.033804 -0.013398 -62878.800000 0 0 1
-27.174350 26.006638 -30.312893 48.307991 -0.763444 2.249125 -0.000506 -0.001414 -198612.000000 0 0 1
-27.005360 27.321738 -30.851593 49.270555 -0.791222 2.247424 0.002241 -0.007443 16196.300000 0 0 1
-27.875420 27.763238 -31.871623 50.632369 -0.783382 2.251669 0.003608 -0.005227 -474741.000000 0 0 1
-27.632330 29.190138 -32.375823 51.612050 -0.812807 2.248867 0.005785 -0.002762 -189193.000000 0 0 1
-27.845200 30.161738 -31.357803 51.656533 -0.825312 2.223132 0.008698 -0.003981 346440.000000 0 0 1
-27.490820 31.458138 -31.910923 52.570587 -0.852598 2.223090 0.009833 -0.016384 -93161.000000 0 0 1
-27.883590 32.605838 -30.924053 52.886031 -0.863307 2.195344 0.012434 -0.004305 -310584.000000 0 0 1
-27.104330 32.682538 -29.762443 51.851673 -0.878430 2.182169 -0.012119 0.009207 285750.000000 0 0 1
-27.575700 33.814938 -29.000323 52.391678 -0.886682 2.157392 -0.007706 0.008672 -362391.000000 0 0 1
-26.810790 33.959938 -27.705083 51.377694 -0.902501 2.140335 -0.016172 0.011304 -362604.000000 0 0 1
-25.499580 34.451638 -27.772463 51.073022 -0.933625 2.145730 -0.025631 0.009897 -337711.000000 0 0 1
-25.238990 -33.480570 -27.939963 50.384489 0.924842 2.158600 -0.012582 0.023730 -726603.000000 0 0 1
-25.731330 -32.459570 -26.879783 49.378616 0.900511 2.146423 -0.020021 0.031083 -644314.000000 0 0 1
-27.073820 -32.113270 -27.051923 49.960588 0.870338 2.142975 -0.012577 0.019171 -614680.000000 0 0 1
-27.403130 -31.052770 -26.234323 49.024950 0.847751 2.135448 -0.018380 0.021885 -337521.000000 0 0 1
-28.904270 -30.969370 -25.929043 49.667635 0.819875 2.120050 -0.014099 0.015893 -164873.000000 0 0 1
-29.566530 -30.226770 -26.943983 50.137965 0.796440 2.138144 0.000534 0.012792 242899.000000 0 0 1
-30.978870 -30.277870 -26.844703 50.961533 0.773955 2.125585 -0.001023 0.009925 -104670.000000 0 0 1
-31.621720 -29.541070 -28.002073 51.543419 0.751393 2.145125 0.005943 -0.001841 793745.000000 0 0 1
-33.061080 -29.528570 -27.910493 52.382889 0.729019 2.132722 -0.006183 -0.000887 615128.000000 0 0 1
-33.663740 -29.054370 -29.041433 53.111285 0.712037 2.149338 0.005609 -0.010023 98264.600000 0 0 1
34.802293 -29.127370 -28.928203 53.818624 -0.696862 2.138281 0.009557 -0.009529 312945.000000 0 0 1
34.315597 -28.244470 -27.884983 52.467920 -0.688656 2.131128 -0.016970 -0.005348 161360.000000 0 0 1
32.905216 -28.130670 -28.040213 51.578498 -0.707332 2.145566 -0.017225 -0.007852 468269.000000 0 0 1
32.231506 -27.543970 -26.748473 50.130042 -0.707139 2.133626 -0.021522 -0.008450 -59203.400000 0 0 1
31.959376 -28.486170 -25.737933 49.953026 -0.728001 2.112087 -0.018134 -0.001349 581503.000000 0 0 1
31.209376 -27.840770 -24.660353 48.551691 -0.728413 2.103564 -0.022857 -0.004253 453468.000000 0 0 1
31.226306 -28.787870 -23.461953 48.520995 -0.744790 2.075493 -0.019902 0.003919 79820.800000 0 0 1
30.514846 -30.005870 -23.704853 48.922675 -0.776988 2.076630 -0.009196 0.003258 6991.750000 0 0 1
30.304916 -30.794370 -22.527453 48.725428 -0.793409 2.051423 0.005460 -0.009729 138559.000000 0 0 1
31.448086 -30.967870 -21.466953 49.079743 -0.777705 2.023490 -0.010965 0.000494 -879082.000000 0 0 1
32.501746 -31.845670 -21.930153 50.511799 -0.775203 2.019901 -0.015779 0.000318 622377.000000 0 0 1
33.679126 -31.760370 -21.155353 50.897482 -0.756085 1.999450 -0.010129 0.000262 327457.000000 0 0 1
34.384747 -30.370170 -21.213653 50.543814 -0.723481 2.003920 -0.033279 0.015193 -1799200.000000 0 0 1
33.760566 -29.328770 -20.506753 49.198369 -0.715267 2.000738 -0.041724 0.016695 -542749.000000 0 0 1
34.253760 -28.037070 -20.891453 48.947423 -0.685927 2.011763 -0.053203 0.024164 113708.000000 0 0 1
33.343846 -26.902870 -20.329953 47.422395 -0.678893 2.013849 -0.051130 0.024529 46901.300000 0 0 1
32.084366 -26.885770 -20.930053 46.800837 -0.697469 2.034446 -0.029146 0.017330 -506790.000000 0 0 1
31.320916 -25.745970 -20.665453 45.507315 -0.688016 2.042172 0.001672 -0.001746 30599.600000 0 0 1
30.100126 -25.488970 -21.604853 44.971934 -0.702637 2.071916 0.007288 -0.012153 592649.000000 0 0 1
29.266026 -26.652470 -21.634353 45.109863 -0.738693 2.070987 0.020022 -0.012287 -651274.000000 0 0 1
28.195266 -26.441770 -22.470553 44.710916 -0.753316 2.097370 0.023562 -0.013190 -797638.000000 0 0 1
27.600716 -27.759970 -22.990653 45.398079 -0.788275 2.101828 0.024976 -0.010582 -162285.000000 0 0 1
26.886216 -28.434270 -21.975153 44.880772 -0.813374 2.082466 0.030955 -0.008100 180950.000000 0 0 1
26.265846 -29.650170 -22.452753 45.531894 -0.845850 2.086470 0.025256 -0.006613 258542.000000 0 0 1
25.542576 -30.429770 -21.295153 45.076354 -0.872492 2.062835 0.034560 0.004941 -83294.000000 0 0 1
26.347926 -31.061570 -20.307253 45.512843 -0.867320 2.033297 0.048502 0.001380 -67805.500000 0 0 1
27.064076 -32.192070 -20.786053 46.913256 -0.871723 2.029821 0.041172 0.001097 -55525.000000 0 0 1
27.968076 -32.738170 -19.665853 47.336528 -0.863814 1.999231 0.023128 0.003250 -242807.000000 0 0 1
27.321796 -33.333870 -18.547853 46.921747 -0.884194 1.977183 0.032548 0.003964 -147053.000000 0 0 1
26.914796 -32.435170 -17.574853 45.665326 -0.878145 1.965855 0.018751 0.007193 -248894.000000 0 0 1
26.599026 -33.164770 -16.245853 45.511954 -0.894821 1.935806 0.037224 0.006539 262409.000000 0 0 1
25.554796 -34.131070 -16.344753 45.663208 -0.928112 1.936859 0.043487 0.015411 405754.000000 0 0 1
25.023766 -34.563470 -15.126453 45.272861 -0.944147 1.911465 0.043123 0.014882 -485063.000000 0 0 1
23.509766 34.558438 -15.029353 44.417071 0.973421 1.915979 0.049958 0.009358 -288388.000000 0 0 1
22.849266 -33.547570 -14.737953 43.182586 -0.972868 1.919089 0.042151 0.017186 4891.450000 0 0 1
21.458766 -33.770870 -14.636053 42.604746 -1.004737 1.921471 0.041239 0.000990 828.057000 0 0 1
-0.944170 -7.370862 -28.839643 29.781639 1.443395 2.889409 -0.015234 0.007913 -189262.000000 0 0 1
-0.505170 -8.694262 -29.144153 30.417545 1.512758 2.851217 -0.005369 0.003929 66516.200000 0 0 1
-0.617870 -9.122362 -30.474463 31.816539 1.503168 2.850108 -0.029810 0.020097 -386539.000000 0 0 1
-0.366370 -10.671862 -30.575903 32.386860 1.536479 2.805600 -0.017229 0.017970 -499474.000000 0 0 1
0.962130 -10.896062 -30.223983 32.142479 -1.482724 2.794344 -0.018848 0.009268 -530334.000000 0 0 1
1.188030 -12.188362 -29.724673 32.148464 -1.473631 2.750797 -0.011736 0.009289 -1257520.000000 0 0 1
2.598230 -12.441062 -29.297363 31.935345 -1.364912 2.732284 -0.006640 0.005551 -1670200.000000 0 0 1
3.454530 -12.527962 -30.423573 33.082887 -1.301737 2.737900 -0.004275 0.006549 724857.000000 0 0 1
4.850530 -12.710262 -30.153783 33.080644 -1.206232 2.717770 0.002494 0.001289 948941.000000 0 0 1
5.233630 -14.140162 -29.740463 33.344118 -1.216306 2.672382 0.014320 -0.002984 -1209640.000000 0 0 1
4.618530 -14.579062 -28.556993 32.394161 -1.264006 2.649927 0.023721 -0.004123 -672465.000000 0 0 1
5.366730 -15.490662 -27.864883 32.329771 -1.237288 2.609792 0.027308 -0.009201 -775797.000000 0 0 1
5.163530 -16.976362 -28.119663 33.250178 -1.275527 2.578671 0.030041 -0.004465 -351298.000000 0 0 1
5.381730 -17.278262 -29.466863 34.580303 -1.268846 2.590836 0.024390 -0.012956 89604.700000 0 0 1
5.009230 -18.641662 -29.644803 35.375391 -1.308286 2.564416 0.017545 -0.010638 -374905.000000 0 0 1
5.412130 -19.266762 -30.963273 36.867649 -1.296949 2.567802 0.017152 -0.010919 -640515.000000 0 0 1
6.774330 -19.309362 -31.259753 37.361948 -1.233381 2.561978 0.018032 -0.009069 -394250.000000 0 0 1
7.012530 -20.248762 -32.326633 38.784006 -1.237405 2.556216 0.021494 -0.012617 -926469.000000 0 0 1
8.408830 -20.272562 -32.890113 39.540419 -1.177606 2.553157 0.012262 -0.006274 -842321.000000 0 0 1
8.719730 -19.060062 -33.543293 39.553409 -1.141734 2.583092 0.001397 -0.006047 -105257.000000 0 0 1
9.834330 -19.072562 -34.402968 40.546774 -1.094725 2.583895 0.000720 -0.001245 -222735.000000 0 0 1
10.216430 -17.736262 34.253984 39.903457 -1.048196 0.538612 -0.012398 0.006294 -307469.000000 0 0 1
9.208030 -17.254262 33.419915 38.721933 -1.080579 0.529471 -0.007200 0.006885 -91254.400000 0 0 1
9.519930 -15.960362 32.967691 37.844826 -1.032974 0.513301 -0.016184 0.014479 261929.000000 0 0 1
8.401730 -15.506962 31.982451 36.523035 -1.074268 0.503956 -0.015051 0.004692 113194.000000 0 0 1
8.220530 -16.360962 30.886771 35.906139 -1.105192 0.535118 -0.015014 0.005491 -19107.400000 0 0 1
7.788930 -15.691662 29.760121 34.533469 -1.110054 0.532036 -0.007051 -0.001281 -790179.000000 0 0 1
7.904730 -16.576562 28.509851 33.912811 -1.125830 0.572257 -0.008387 -0.001384 -495811.000000 0 0 1
7.222430 -17.840562 28.472471 34.367583 -1.186131 0.594428 -0.013812 -0.002242 347221.000000 0 0 1
7.379830 -18.640662 27.357481 33.917074 -1.193830 0.632421 -0.024592 0.003000 -130540.000000 0 0 1
6.946830 -20.077362 27.672601 34.887415 -1.237687 0.654755 -0.018470 0.003722 -230776.000000 0 0 1
7.742030 -20.589362 28.701051 36.160907 -1.211131 0.653922 -0.018235 0.003626 230785.000000 0 0 1
7.232130 -21.790662 29.200371 37.145636 -1.250344 0.666314 -0.021392 0.001261 -248978.000000 0 0 1
7.590330 -22.029762 30.696861 38.538562 -1.238986 0.649274 -0.016989 0.003232 -211421.000000 0 0 1
6.865330 -21.242562 31.653981 38.734399 -1.258205 0.614250 -0.003408 -0.000137 387877.000000 0 0 1
7.056830 -19.851762 31.548121 37.936463 -1.229251 0.588806 -0.004234 -0.005011 -265448.000000 0 0 1
6.410030 -19.121762 32.738611 38.451878 -1.247347 0.552114 0.005286 -0.008580 266533.000000 0 0 1
5.018330 -19.280962 32.951941 38.506747 -1.316172 0.543808 0.013030 -0.019166 -9436.690000 0 0 1
4.445230 -18.217162 33.723766 38.586493 -1.331460 0.507466 0.012370 -0.008180 384918.000000 0 0 1
2.904830 -18.428162 33.734797 38.549601 -1.414453 0.505152 0.021193 -0.004963 183014.000000 0 0 1
2.383630 -19.508262 34.524751 39.726721 -1.449213 0.517505 0.014006 -0.014636 -11471.300000 0 0 1
2.212630 -19.287762 -33.352033 38.591082 -1.456579 2.614438 0.010067 -0.008914 -316469.000000 0 0 1
1.690330 -20.436262 -32.462713 38.396950 -1.488272 2.578204 -0.006473 0.015145 142504.000000 0 0 1
0.396130 -20.954162 -32.832443 38.951292 -1.551894 2.573466 -0.019051 0.017344 1033040.000000 0 0 1
-0.288270 -21.619162 -31.770113 38.429303 1.557463 2.544041 -0.020287 0.019921 130473.000000 0 0 1
-0.681570 -20.787762 -30.527393 36.939373 1.538021 2.543514 -0.012984 0.017614 -439805.000000 0 0 1
-1.719870 -19.859862 -30.872043 36.748539 1.484412 2.568244 -0.008667 0.013517 362314.000000 0 0 1
-2.014970 -18.945662 -29.820363 35.387176 1.464839 2.573053 0.004196 0.015225 10974.100000 0 0 1
-2.129870 -17.482262 -30.308613 35.053927 1.449563 2.615206 0.004201 0.013926 10486.900000 0 0 1
-2.686370 -16.535162 -29.422653 33.857357 1.409739 2.624010 0.008770 0.010427 -236024.000000 0 0 1
-2.305970 -15.205462 -29.783423 33.519783 1.420289 2.664933 0.015097 0.011167 261218.000000 0 0 1
-3.239770 -14.098262 -29.179273 32.568191 1.344919 2.681348 0.021871 -0.004175 106182.000000 0 0 1
-3.232770 -13.951362 -27.772553 31.247496 1.343098 2.665501 0.024080 -0.003693 -75509.200000 0 0 1
-4.073270 -12.925062 -27.326233 30.501996 1.265504 2.681212 0.019209 -0.001547 -198370.000000 0 0 1
-4.244870 -12.773562 -25.812933 29.111687 1.249961 2.660925 0.026103 -0.013676 -553073.000000 0 0 1
-4.723870 -13.915462 -25.143413 29.122950 1.243534 2.612675 0.027142 -0.008009 323290.000000 0 0 1
-5.062770 -13.728262 -23.738753 27.885932 1.217486 2.589217 0.028554 -0.009226 822000.000000 0 0 1
-6.366970 -12.883762 -23.404753 27.464742 1.111811 2.590923 0.022933 -0.005188 -385001.000000 0 0 1
-7.520370 -13.595262 -23.574253 28.233535 1.065529 2.558881 0.008455 0.000582 -1542470.000000 0 0 1
-8.610970 -12.706962 -23.408053 27.992010 0.975223 2.561187 0.013813 0.002186 38012.600000 0 0 1
-10.011570 -13.325962 -23.549953 28.851569 0.926475 2.525678 0.013590 0.000192 42218.100000 0 0 1
-10.406570 -14.121162 -22.450153 28.490582 0.935701 2.478326 0.017132 -0.002254 174927.000000 0 0 1
-11.588970 -14.902462 -22.663053 29.495789 0.909830 2.447054 -0.004895 0.006683 708629.000000 0 0 1
-11.980770 -15.717262 -21.399253 29.129009 0.919490 2.395928 0.000367 0.006520 77308.300000 0 0 1
-11.069770 -16.822962 -21.189153 29.232380 0.988807 2.381616 0.011504 0.004561 28290.600000 0 0 1
-11.336270 -18.136762 -21.727953 30.488638 1.012166 2.364075 0.004875 0.001788 -27701.300000 0 0 1
-11.726570 -18.376362 -23.227753 31.854852 1.002808 2.387912 -0.002322 0.006785 938450.000000 0 0 1
-13.037770 -17.828262 -23.479953 32.235672 0.939372 2.386757 -0.009036 0.007722 365704.000000 0 0 1
-13.321970 -18.047162 -24.851553 33.477972 0.934906 2.407331 -0.008343 0.008276 563251.000000 0 0 1
-14.633370 -17.298062 -25.264073 33.935701 0.868656 2.410535 -0.007283 0.007777 517834.000000 0 0 1
-15.833870 -17.936662 -24.841853 34.489896 0.847585 2.374980 -0.003200 0.001968 956658.000000 0 0 1
-17.072870 -17.474962 -25.396123 35.239470 0.797036 2.375568 -0.006764 0.000467 880373.000000 0 0 1
-17.553770 -16.018262 -25.000153 34.492422 0.739692 2.381542 -0.004167 0.005038 -806874.000000 0 0 1
-18.253270 -16.061662 -23.785953 34.013679 0.721617 2.345222 -0.007183 0.005300 -124697.000000 0 0 1
-18.802270 -14.770262 -23.565553 33.571137 0.665872 2.348940 -0.005503 0.001070 -73671.800000 0 0 1
-19.619170 -14.675162 -22.282753 33.117869 0.642221 2.308826 -0.003803 -0.008252 84527.700000 0 0 1
-18.773470 -14.894262 -21.135953 31.953258 0.670684 2.293566 -0.005325 -0.000734 385492.000000 0 0 1
-19.445970 -14.913662 -19.862753 31.545079 0.654247 2.251915 -0.000206 -0.004914 121159.000000 0 0 1
-20.081270 -13.600162 -19.250753 30.964710 0.595298 2.241707 0.003401 -0.006811 1055210.000000 0 0 1
-21.484970 -13.381362 -19.504953 31.954780 0.557033 2.227352 0.004398 -0.012451 1179350.000000 0 0 1
-21.961270 -12.278362 -18.710453 31.355009 0.509797 2.210215 0.007577 -0.002299 103979.000000 0 0 1
-23.354170 -11.719762 -19.041353 32.331767 0.465108 2.200538 0.007532 -0.001944 -82580.500000 0 0 1
-23.382370 -10.999262 -20.222653 32.812721 0.439695 2.234839 -0.003939 -0.007654 -120481.000000 0 0 1
-24.740970 -10.826762 -20.530453 33.923942 0.412498 2.220802 -0.014196 -0.009830 -421582.000000 0 0 1
-24.975470 -10.016962 -21.812753 34.639714 0.381430 2.251968 -0.011638 -0.001902 -413564.000000 0 0 1
-24.938870 -10.606562 -23.127653 35.627724 0.402127 2.277260 -0.017525 -0.009059 567768.000000 0 0 1
-25.440710 -9.607262 -24.045553 36.300383 0.361077 2.294821 -0.018484 -0.006330 -584320.000000 0 0 1
-25.691810 -10.226062 -25.446803 37.578999 0.378805 2.314686 -0.010760 -0.005367 44249.500000 0 0 1
-24.679570 -10.013162 -26.435513 37.525737 0.385433 2.352463 -0.018785 -0.003912 91093.100000 0 0 1
-23.584070 -10.889062 -26.341253 36.995157 0.432551 2.363166 -0.010578 -0.000919 -303496.000000 0 0 1
-22.489870 -10.601562 -27.371373 36.978094 0.440501 2.404172 -0.005967 -0.004221 -417185.000000 0 0 1
-22.971370 -10.797762 -28.660903 38.284760 0.439404 2.416781 0.008339 0.002224 -436498.000000 0 0 1
-21.973070 -10.838062 -29.630973 38.448328 0.458227 2.450688 0.016350 0.002368 -278153.000000 0 0 1
-22.453170 -11.354362 -31.017523 39.939368 0.468190 2.460071 0.028014 -0.002391 412418.000000 0 0 1
-23.384370 -10.457762 -31.663823 40.728260 0.420533 2.461383 0.026209 -0.008778 404210.000000 0 0 1
-22.806870 -9.419962 -32.485583 40.794633 0.391690 2.491983 0.025420 -0.014072 -607058.000000 0 0 1
-23.752770 -8.300962 -33.044323 41.533448 0.336206 2.490806 0.017215 -0.011331 -90954.800000 0 0 1
-24.654070 -8.777762 -34.091928 42.978271 0.342043 2.486902 0.036593 -0.011271 1528190.000000 0 0 1
-25.840470 -9.455262 -33.681183 43.491998 0.350777 2.456598 0.028382 -0.010282 -63139.600000 0 0 1
-26.922870 -8.601962 -32.975923 43.430935 0.309253 2.432991 0.013605 0.000812 -1290910.000000 0 0 1
-28.175200 -9.199762 -33.027363 44.376618 0.315606 2.410210 0.008329 0.000415 -242580.000000 0 0 1
-29.038060 -8.743062 -32.009063 44.093425 0.292456 2.383193 0.010178 0.000266 264381.000000 0 0 1
-30.559150 -8.980962 -32.130193 45.242332 0.285840 2.360550 0.015500 -0.000884 150208.000000 0 0 1
-30.731910 -10.400762 -31.936563 45.525489 0.326335 2.348310 0.017285 -0.002683 -37151.400000 0 0 1
-32.057410 -10.835062 -31.759793 46.408626 0.325935 2.324510 0.009788 -0.003174 -429090.000000 0 0 1
-32.169500 -12.334262 -31.662733 46.792514 0.366128 2.314016 -0.004977 -0.005954 -24754.400000 0 0 1
-33.489280 -12.895562 -31.618673 47.828525 0.367566 2.293059 -0.024372 -0.006495 581969.000000 0 0 1
-33.401250 -14.273962 -31.820513 48.290108 0.403858 2.290211 -0.022985 -0.011682 -186612.000000 0 0 1
-34.618860 -15.105862 -31.423933 49.133655 0.411443 2.264722 -0.034504 -0.008439 -298295.000000 0 0 1
-34.643269 -15.197662 -30.019713 48.293976 0.413409 2.241585 -0.029536 -0.003647 -60927.900000 0 0 1
34.206464 -15.840262 -29.563433 47.906082 -0.433676 2.235864 -0.024909 -0.003127 -173765.000000 0 0 1
34.256656 -15.975462 -28.012653 47.047238 -0.436364 2.208579 -0.020934 0.001271 -101069.000000 0 0 1
-34.757745 -16.936862 -27.685613 47.554719 0.453422 2.192209 -0.021027 -0.008549 363608.000000 0 0 1
-34.490760 -17.028362 -26.307663 46.601188 0.458601 2.170657 -0.028226 0.000981 -428442.000000 0 0 1
-33.315390 -16.199562 -25.836773 45.165029 0.452586 2.179803 0.002669 0.000257 232807.000000 0 0 1
-31.978880 -16.665162 -26.120293 44.526914 0.480409 2.197673 -0.003111 -0.000193 477512.000000 0 0 1
-31.069360 -15.905162 -25.385083 43.158797 0.473142 2.199601 0.011074 0.004919 230702.000000 0 0 1
-29.655810 -16.565562 -25.284773 42.346247 0.509417 2.210672 0.018148 0.012677 371606.000000 0 0 1
-29.559050 -17.745762 -24.484653 42.286496 0.540676 2.188320 0.019563 0.008939 204859.000000 0 0 1
-30.036690 -18.920662 -25.189443 43.528177 0.562128 2.187921 0.001223 0.005892 -86482.400000 0 0 1
-29.991340 -20.241462 -24.328853 43.601494 0.593688 2.162748 0.001560 0.006376 83487.300000 0 0 1
-28.701430 -20.836662 -24.323753 43.006784 0.627950 2.171932 -0.000238 0.011234 322971.000000 0 0 1
-28.724880 -21.989562 -23.478053 43.126309 0.653362 2.146472 -0.025545 0.028030 -229499.000000 0 0 1
-27.465340 -22.880062 -23.661153 42.868313 0.694572 2.155497 -0.014632 0.020370 687701.000000 0 0 1
-26.228000 -22.346562 -23.194953 41.536522 0.705661 2.163280 0.001409 0.011017 326110.000000 0 0 1
-26.030130 -22.247362 -21.771753 40.577358 0.707203 2.137139 -0.002653 0.001716 -480777.000000 0 0 1
-26.023170 -23.508262 -20.836353 40.792124 0.734668 2.106904 0.002542 0.007932 -146938.000000 0 0 1
-26.037450 -23.156562 -19.481053 39.921004 0.726903 2.080582 -0.001982 0.005976 -19389.500000 0 0 1
-26.162140 -24.361862 -18.756253 40.370223 0.749781 2.053986 0.002499 0.039399 -172605.000000 0 0 1
-26.126950 -23.980162 -17.241453 39.432643 0.742580 2.023322 -0.012112 0.034182 -335559.000000 0 0 1
-27.254340 -23.306062 -16.760353 39.583848 0.707466 2.008007 -0.026929 0.024350 -342376.000000 0 0 1
-26.909720 -22.439862 -15.671653 38.383344 0.695069 1.991380 -0.027999 0.020668 298765.000000 0 0 1
-28.168630 -21.818162 -15.003053 38.659999 0.659032 1.969340 -0.037753 0.021796 186630.000000 0 0 1
-28.704060 -20.796562 -15.799353 38.807726 0.626991 1.990094 -0.038050 0.020701 208843.000000 0 0 1
-29.890420 -20.320862 -15.168953 39.197854 0.597071 1.968155 -0.025762 0.016735 -82580.500000 0 0 1
-30.992130 -19.718462 -16.008953 40.070144 0.566642 1.981793 -0.024408 0.009050 -493045.000000 0 0 1
-31.691600 -20.687562 -16.757553 41.390196 0.578325 1.987630 -0.027495 0.019799 -192769.000000 0 0 1
-32.526060 -20.043662 -17.714353 42.112839 0.552271 2.004947 -0.022429 0.017100 368807.000000 0 0 1
-33.397940 -20.965062 -18.611753 43.604513 0.560564 2.011782 -0.041782 0.025019 191813.000000 0 0 1
-34.370737 -21.767662 -17.984253 44.481592 0.564560 1.987018 -0.038436 0.026104 -235746.000000 0 0 1
-33.931770 -22.874062 -17.211253 44.393861 0.593144 1.968925 -0.033832 0.023436 -301020.000000 0 0 1
-34.817892 -24.133762 -17.410453 45.802270 0.606109 1.960725 -0.036866 0.037057 45016.100000 0 0 1
33.872266 -23.884262 -16.991853 44.794101 -0.614159 1.959871 -0.033775 0.018521 -255796.000000 0 0 1
33.117026 -25.088342 -16.876353 44.843881 -0.648326 1.956634 -0.042535 0.019944 -76276.400000 0 0 1
31.636086 -24.811462 -16.611553 43.501659 -0.665080 1.962605 -0.032682 0.008026 -335064.000000 0 0 1
30.851566 -24.299462 -17.675753 43.066405 -0.667149 1.993722 -0.024084 -0.004606 434497.000000 0 0 1
29.518076 -24.697862 -17.354053 42.219242 -0.696724 1.994398 0.003472 -0.008920 355665.000000 0 0 1
28.347846 -24.389562 -18.283653 41.626231 -0.710482 2.025542 0.020814 -0.007253 -266139.000000 0 0 1
27.867496 -23.096762 -18.285153 40.551259 -0.692061 2.038586 0.025048 -0.014056 -1172760.000000 0 0 1
26.686206 -23.043762 -18.959653 40.032949 -0.712284 2.064171 0.033419 -0.028312 -1656500.000000 0 0 1
33.354556 30.209938 -18.829253 48.782246 0.735967 1.967072 0.010303 -0.016746 10477.400000 0 0 1
32.448356 30.393738 -19.919153 48.718044 0.752715 1.992007 0.017426 -0.032823 228066.000000 0 0 1
32.711426 29.404838 -20.893453 48.695157 0.732216 2.014255 0.024002 -0.030684 -271673.000000 0 0 1
31.982286 29.595338 -22.211253 48.909001 0.746654 2.042197 0.021798 -0.032374 -1010660.000000 0 0 1
30.767056 28.936638 -22.209353 47.719976 0.754749 2.054894 0.016517 -0.027509 -558204.000000 0 0 1
29.934976 29.086338 -23.359453 47.830763 0.771021 2.081025 0.029440 -0.021121 466946.000000 0 0 1
28.852076 30.167738 -23.138453 47.727589 0.807686 2.076934 0.027582 -0.012420 -371912.000000 0 0 1
29.372536 31.519638 -23.056553 48.865510 0.820644 2.062169 0.038011 -0.011777 -365220.000000 0 0 1
28.321156 32.408438 -23.177053 48.883234 0.852600 2.064773 0.041408 -0.002351 -724092.000000 0 0 1
28.800906 33.882838 -23.036753 50.082241 0.866294 2.048767 0.034155 -0.003634 192998.000000 0 0 1
29.342906 34.218938 -21.767653 50.057692 0.861961 2.020669 0.030489 -0.005669 -648529.000000 0 0 1
30.673986 33.864838 -21.576453 50.529833 0.834799 2.011974 0.016596 -0.007315 -1096240.000000 0 0 1
31.082876 33.741538 -20.111753 50.091109 0.826388 1.983954 0.010434 -0.016412 -432277.000000 0 0 1
31.068506 -34.317570 -19.477653 50.222771 -0.835048 1.969067 0.008047 -0.007903 66176.500000 0 0 1
30.988776 -34.483570 -18.105953 49.771944 -0.838726 1.943117 -0.007341 -0.013886 -418470.000000 0 0 1
31.095006 -33.126570 -17.381853 48.645636 -0.817021 1.936189 -0.014364 0.004935 -479138.000000 0 0 1
32.371646 -32.591470 -17.379953 49.114053 -0.788782 1.932501 -0.024515 0.003542 -629296.000000 0 0 1
33.292846 -33.071470 -16.390953 49.707133 -0.782062 1.906836 -0.027434 0.004652 -638680.000000 0 0 1
34.596949 -32.319570 -16.628453 50.179767 -0.751378 1.908560 -0.035972 0.014172 -1072630.000000 0 0 1
-34.701062 -32.900670 -17.666653 50.977725 0.758772 1.924694 -0.032076 0.009163 -1445690.000000 0 0 1
-33.540910 -32.156770 -17.781253 49.751618 0.764333 1.936279 -0.048402 0.016616 -905707.000000 0 0 1
-32.624060 -32.669970 -18.874853 49.879017 0.786101 1.958877 -0.030465 0.007056 -891431.000000 0 0 1
-31.945060 -33.861170 -18.504853 50.094863 0.814507 1.949156 -0.020207 -0.000147 666429.000000 0 0 1
-30.856700 -34.336370 -19.336653 50.050259 0.838722 1.967462 -0.019697 0.007927 1585690.000000 0 0 1
-29.577280 -33.422970 -19.314853 48.630998 0.846365 1.979229 -0.017043 0.004461 -852197.000000 0 0 1
-29.740740 -32.314970 -20.188853 48.335894 0.826857 2.001685 -0.029185 0.016908 -10630.700000 0 0 1
-28.557160 -31.698870 -20.664453 47.406217 0.837490 2.021836 -0.012554 0.019072 -77831.400000 0 0 1
-27.673560 -32.551170 -21.577853 47.864479 0.866212 2.038470 -0.010801 0.016481 -592464.000000 0 0 1
-28.435680 -33.105970 -22.602853 49.147555 0.861141 2.048676 -0.014143 0.019905 -109767.000000 0 0 1
-27.728080 -34.190670 -23.150753 49.737367 0.889394 2.054951 -0.019360 0.017070 -272468.000000 0 0 1
-28.472450 34.523538 -24.332653 50.937541 -0.881160 2.068826 -0.026832 0.009866 -835203.000000 0 0 1
-29.462280 33.591038 -24.033453 50.734511 -0.850785 2.064295 -0.029028 0.004124 -447115.000000 0 0 1
-29.925740 32.829138 -25.139943 51.042325 -0.831631 2.085792 -0.026239 0.004920 435937.000000 0 0 1
-30.808890 33.623338 -26.205353 52.596930 -0.829051 2.092352 -0.010685 -0.003817 -279448.000000 0 0 1
-30.190870 34.553738 -27.014293 53.246797 -0.852682 2.102893 -0.009996 -0.011140 -657450.000000 0 0 1
-31.192200 -34.025570 -27.654033 53.809277 0.828816 2.110553 -0.007455 -0.004900 262416.000000 0 0 1
-30.708080 -33.301770 -28.948253 53.758678 0.825896 2.139435 -0.001314 -0.001546 42430.100000 0 0 1
-30.373730 -34.079970 -30.132273 54.698827 0.842837 2.154210 0.006475 -0.003352 -400609.000000 0 0 1
-31.433510 -34.644870 -30.837763 56.029458 0.833959 2.153621 0.005107 -0.004706 -447682.000000 0 0 1
-31.032720 33.949538 -32.187713 56.139555 -0.830254 2.181387 0.015283 -0.006995 -145433.000000 0 0 1
-30.856310 -34.466270 -33.252353 56.971525 0.840606 2.194033 0.040573 -0.024530 -181442.000000 0 0 1
-31.009450 34.217638 -34.502828 57.644409 -0.834543 2.212481 0.023866 -0.026952 -417823.000000 0 0 1
-30.052620 34.590438 33.590670 56.815416 -0.855481 0.938220 0.033887 -0.030276 469068.000000 0 0 1
-28.711560 34.133938 33.675282 55.888317 -0.871466 0.924109 0.031591 -0.025543 199059.000000 0 0 1
-28.486630 32.858238 33.093541 54.647363 -0.856541 0.920297 0.039582 -0.026635 -477927.000000 0 0 1
-27.041750 32.347338 33.150231 53.633425 -0.874498 0.904487 0.034215 -0.023540 -611292.000000 0 0 1
-26.686220 31.959238 34.470082 54.053064 -0.875071 0.879277 0.034468 -0.022318 -197097.000000 0 0 1
-25.332420 31.578038 34.529824 53.209141 -0.894705 0.864599 0.035957 -0.019941 -420830.000000 0 0 1
-25.005470 30.195738 33.954592 51.864925 -0.879147 0.857046 0.028482 -0.021586 -851288.000000 0 0 1
-25.065270 29.236038 -34.300187 51.570500 -0.862056 2.298441 0.028182 -0.015372 158190.000000 0 0 1
-24.606970 28.010238 34.539478 50.823734 -0.849988 0.823588 0.014729 -0.014791 -516803.000000 0 0 1
-24.610270 26.924338 -33.606173 49.597986 -0.830271 2.315252 0.025193 -0.022935 -93904.500000 0 0 1
-23.572470 26.993038 -32.602483 48.447986 -0.852942 2.308970 0.019834 -0.015891 363758.000000 0 0 1
-23.676870 28.082738 -31.652843 48.488522 -0.870315 2.282058 0.009605 -0.008351 -562902.000000 0 0 1
-22.483970 28.282438 -30.729873 47.431532 -0.899124 2.275592 0.024825 -0.007441 -391942.000000 0 0 1
-21.302170 28.682738 -31.400963 47.565769 -0.931995 2.291827 0.018406 -0.012571 -186409.000000 0 0 1
-20.122770 28.572638 -30.660953 46.491026 -0.957212 2.290953 0.020006 -0.007755 -94318.200000 0 0 1
-19.836570 29.665538 -29.611483 46.372120 -0.981405 2.263425 0.019330 -0.001341 -740822.000000 0 0 1
-19.722270 30.999738 -30.208433 47.565755 -1.004178 2.258919 0.017038 0.003181 420081.000000 0 0 1
-19.122670 31.884038 -29.218793 47.286427 -1.030556 2.236879 0.020974 -0.000651 98417.300000 0 0 1
-18.681870 33.171738 -29.944483 48.436025 -1.057886 2.237282 0.016487 0.014659 298016.000000 0 0 1
-17.406870 33.000538 -30.547023 48.219863 -1.085413 2.256858 0.020437 0.005944 -159790.000000 0 0 1
-17.082870 34.024838 -31.411563 49.357880 -1.105494 2.260624 0.012078 0.018654 340675.000000 0 0 1
-15.603970 33.994738 -31.893993 49.156412 -1.140474 2.276838 0.007275 0.016071 389278.000000 0 0 1
-14.708970 34.634638 -30.984383 48.743655 -1.169189 2.259659 0.020407 0.016604 776571.000000 0 0 1
-13.321970 -34.625870 -31.357053 48.576646 1.203514 2.272496 0.023574 0.025002 1550770.000000 0 0 1
-12.503570 33.343338 -31.235743 47.368651 -1.212030 2.290841 0.035446 0.006097 -362422.000000 0 0 1
-12.531370 32.730738 -29.955763 46.105142 -1.205150 2.278022 0.046580 -0.012492 -318.571000 0 0 1
-12.414770 31.323938 -30.004593 45.117526 -1.193454 2.298333 0.047720 -0.013808 -175495.000000 0 0 1
-12.044070 30.716938 -28.644593 43.693278 -1.197120 2.285751 0.048060 -0.023208 410170.000000 0 0 1
-10.818770 31.218638 -28.097373 43.371782 -1.237200 2.275524 0.028901 -0.016918 278304.000000 0 0 1
-10.618770 30.830038 -26.696133 42.141820 -1.239093 2.256843 0.022594 -0.018615 213252.000000 0 0 1
-9.254770 31.140338 -26.031483 41.629431 -1.281914 2.246331 0.017659 -0.012088 229804.000000 0 0 1
-8.187870 30.388938 -26.548483 41.174636 -1.307610 2.271529 0.022827 -0.006506 -725250.000000 0 0 1
-6.948270 30.881438 -26.142183 41.053080 -1.349484 2.261124 0.013660 -0.008947 55066.100000 0 0 1
-5.790370 30.005438 -26.763533 40.621932 -1.380162 2.290078 0.001980 -0.003127 274367.000000 0 0 1
-5.539970 28.941238 -25.863643 39.207327 -1.381663 2.291167 0.013633 -0.013817 122039.000000 0 0 1
-4.405670 28.240438 -26.348693 38.873974 -1.416038 2.315560 0.015619 -0.014774 115595.000000 0 0 1
-3.930670 27.267438 -25.279343 37.389952 -1.427630 2.313253 0.020495 -0.019673 -269459.000000 0 0 1
-4.838070 26.190038 -25.113803 36.606394 -1.388126 2.326842 0.029071 -0.023941 413580.000000 0 0 1
-4.242670 25.062538 -24.527053 35.322901 -1.403103 2.338336 0.029781 -0.026099 -776898.000000 0 0 1
-5.264870 23.974238 -24.383453 34.598204 -1.354623 2.352882 0.043968 -0.016948 -629626.000000 0 0 1
-5.627970 23.392338 -25.569823 35.109704 -1.334693 2.386610 0.028910 -0.010788 57858.700000 0 0 1
-6.563870 22.354638 -25.396723 34.464587 -1.285199 2.399259 0.027403 -0.018557 -322725.000000 0 0 1
-6.776570 21.448838 -26.676723 34.894442 -1.264780 2.441058 0.010591 -0.003994 847218.000000 0 0 1
-5.624670 20.593638 -26.956403 34.385789 -1.304173 2.471784 0.023076 -0.009628 694272.000000 0 0 1
-5.470770 19.500138 -26.083023 33.022852 -1.297277 2.481357 0.021384 -0.007952 -529862.000000 0 0 1
-4.216270 18.707638 -26.375403 32.610037 -1.349123 2.512926 0.014279 -0.015357 -548063.000000 0 0 1
-4.350970 17.839538 -27.482493 33.052495 -1.331572 2.552563 0.001776 -0.006668 -498784.000000 0 0 1
-3.296670 16.934638 -27.558693 32.513559 -1.378531 2.582254 -0.001361 0.001501 -713756.000000 0 0 1
-2.927970 16.408138 -28.943963 33.399895 -1.394209 2.619121 -0.002520 0.008514 -226589.000000 0 0 1
-2.358470 17.404438 -29.722283 34.523773 -1.436107 2.607876 0.005358 -0.006461 71001.700000 0 0 1
-1.942570 16.968038 -31.008253 35.400560 -1.456809 2.638147 0.004902 -0.018532 92958.200000 0 0 1
-1.378870 18.103238 -31.926533 36.727809 -1.494776 2.624528 0.008419 0.009700 359844.000000 0 0 1
0.005830 18.334438 -31.668033 36.592567 1.570478 2.616789 0.018140 -0.006385 652388.000000 0 0 1
0.547030 19.417738 -32.464043 37.832021 1.542632 2.602374 0.020608 0.005153 385721.000000 0 0 1
0.285030 20.789838 -31.755793 37.956936 1.557087 2.561892 0.017298 0.006993 -178695.000000 0 0 1
1.020930 20.923038 -30.576063 37.063613 1.522040 2.540931 0.034644 -0.013679 -262108.000000 0 0 1
0.838630 22.190138 -29.989713 37.316061 1.533021 2.504230 0.036312 -0.014420 -287838.000000 0 0 1
1.714030 22.421438 -28.764613 36.511118 1.494499 2.478077 0.037376 -0.021408 -755724.000000 0 0 1
3.054030 22.543338 -29.144533 36.972057 1.436142 2.478814 0.019599 -0.019845 -693341.000000 0 0 1
3.932130 22.621638 -28.045783 36.245911 1.398694 2.455558 0.009977 -0.020709 -95804.000000 0 0 1
4.230230 24.089738 -27.591843 36.871671 1.396966 2.416324 0.002364 -0.023710 -611480.000000 0 0 1
5.001730 24.797138 -28.531813 38.131086 1.371761 2.416226 -0.002734 -0.024809 16375.900000 0 0 1
5.207430 26.135738 -28.133583 38.751679 1.374126 2.383279 -0.009472 -0.017159 -102382.000000 0 0 1
6.029530 26.928738 -29.171293 40.155653 1.350523 2.383946 0.002260 -0.013011 -135843.000000 0 0 1
7.409230 26.637338 -29.200383 40.213267 1.299502 2.383484 0.006921 -0.016941 -97641.700000 0 0 1
8.037930 27.417138 -30.202313 41.575082 1.285616 2.383942 0.033144 -0.025377 619123.000000 0 0 1
9.590430 27.427538 -30.004073 41.767099 1.234421 2.372247 0.039748 -0.016631 898512.000000 0 0 1
10.333230 28.283838 -30.884903 43.135001 1.220521 2.368860 0.053083 -0.011455 523017.000000 0 0 1
11.642330 28.604338 -30.428463 43.354854 1.184259 2.348783 0.049291 -0.015693 62840.600000 0 0 1
12.440230 29.458338 -31.366963 44.793296 1.171216 2.346558 0.063192 -0.016505 -674408.000000 0 0 1
12.052730 30.796938 -31.514563 45.682462 1.197759 2.332094 0.057251 -0.018128 142990.000000 0 0 1
12.874630 31.447438 -32.472823 47.001933 1.182212 2.333506 0.084793 -0.026219 -147143.000000 0 0 1
12.686330 32.976638 -32.463013 47.981755 1.203543 2.313891 0.070944 -0.025608 -273837.000000 0 0 1
11.547230 33.495038 -33.082923 48.474074 1.238811 2.321956 0.048447 -0.025945 -371780.000000 0 0 1
11.214630 -34.517570 -32.681963 48.839956 -1.256658 2.303880 0.027785 -0.023960 -50058.300000 0 0 1
9.842930 -34.053270 -33.205133 48.570457 -1.289420 2.323547 -0.003059 -0.011448 -46814.200000 0 0 1
9.866830 -33.710970 -34.555881 49.273652 -1.286060 2.348023 0.001360 -0.008186 36983.400000 0 0 1
8.557630 -33.708070 34.165811 48.752125 -1.322174 0.794269 -0.004622 -0.008287 188183.000000 0 0 1
8.525430 -33.422870 32.688701 47.521810 -1.321044 0.812250 0.004147 -0.003626 92862.200000 0 0 1
8.952230 -32.125470 32.375341 46.479576 -1.299026 0.800219 -0.018341 -0.013811 -55224.200000 0 0 1
9.297530 -31.852770 31.014771 45.419809 -1.286796 0.819144 0.002374 -0.004413 -668426.000000 0 0 1
9.160930 -30.327470 30.731491 44.137316 -1.277444 0.800609 -0.011596 -0.025195 1265320.000000 0 0 1
7.816430 -29.766870 30.716291 43.481648 -1.314005 0.786369 -0.017889 -0.004731 905997.000000 0 0 1
7.280730 -29.566370 32.001881 44.173518 -1.329350 0.760548 -0.017471 0.006346 -1602520.000000 0 0 1
5.813130 -29.202170 32.053171 43.748886 -1.374300 0.748570 -0.026791 -0.008621 -439529.000000 0 0 1
4.880930 -30.281470 31.853201 44.220101 -1.410985 0.766514 -0.010013 -0.015176 234954.000000 0 0 1
4.889830 -30.856170 30.531251 43.682616 -1.413632 0.796891 -0.013142 -0.022298 -1224410.000000 0 0 1
4.546130 -29.927270 29.366241 42.174458 -1.420043 0.800561 -0.015751 -0.023272 511000.000000 0 0 1
3.131230 -29.638970 29.338111 41.821022 -1.465541 0.793274 -0.002677 -0.028081 1012920.000000 0 0 1
2.758530 -28.979770 28.135001 40.484748 -1.475894 0.802442 0.013598 -0.031187 516849.000000 0 0 1
1.207930 -29.123070 27.899941 40.348718 -1.529343 0.807274 0.011823 -0.036964 633537.000000 0 0 1
0.873430 -30.360670 27.350211 40.872573 -1.542036 0.837721 0.014695 -0.033723 -24381.400000 0 0 1
0.655630 -31.308470 28.359001 42.247877 -1.549858 0.834899 0.021461 -0.033676 -913003.000000 0 0 1
0.736130 -32.728270 27.727871 42.901240 -1.548308 0.868046 0.010026 -0.021970 492305.000000 0 0 1
2.052530 -33.195270 27.414791 43.101156 -1.509043 0.881419 0.005115 -0.019543 727583.000000 0 0 1
2.632730 -32.647970 26.223001 41.957920 -1.490331 0.895686 0.000311 -0.007820 190655.000000 0 0 1
4.170230 -32.880770 26.174031 42.232875 -1.444641 0.902366 -0.000711 0.008264 381183.000000 0 0 1
4.704230 -32.415070 24.935531 41.166094 -1.426678 0.920114 0.011563 -0.004550 -488965.000000 0 0 1
6.086130 -32.633070 24.961501 41.533538 -1.386413 0.926049 0.002100 -0.015864 -1075530.000000 0 0 1
6.746630 -32.231170 23.669501 40.553799 -1.364455 0.947571 0.008122 -0.000025 -441326.000000 0 0 1
8.106530 -31.953870 23.875001 40.703579 -1.322343 0.943994 0.001720 -0.003442 -198697.000000 0 0 1
8.837930 -31.669370 22.701801 39.955347 -1.298651 0.966505 0.012241 0.000022 535916.000000 0 0 1
10.014830 -30.652270 22.896201 39.548635 -1.255006 0.953371 0.006581 0.007555 556296.000000 0 0 1
11.067830 -31.139770 23.716801 40.677620 -1.229297 0.948327 0.016535 -0.008056 24312.000000 0 0 1
12.136630 -30.228570 23.623001 40.238171 -1.189002 0.943350 0.023909 -0.006951 315891.000000 0 0 1
13.464730 -30.437570 24.397031 41.266933 -1.154304 0.938250 0.066909 -0.015826 212928.000000 0 0 1
13.359230 -30.305970 25.801761 41.983946 -1.155610 0.908965 0.041175 -0.016415 -50827.900000 0 0 1
14.435430 -29.560770 26.297191 42.116066 -1.116528 0.896436 0.033979 -0.011728 -579419.000000 0 0 1
-10.379270 -14.345362 27.056801 32.335571 0.944454 0.579475 0.054769 -0.030124 -803340.000000 0 0 1
-9.114670 -14.189062 26.491901 31.404259 0.999802 0.566887 0.048344 -0.025822 -1359050.000000 0 0 1
-8.229070 -14.456462 27.525501 32.161469 1.053308 0.543598 0.052798 -0.032098 -426123.000000 0 0 1
-6.747070 -14.357462 27.099821 31.401592 1.131489 0.529603 0.049267 -0.018794 -275551.000000 0 0 1
-6.229570 -15.246562 26.101121 30.863145 1.182908 0.562911 0.042825 -0.024983 86377.500000 0 0 1
-6.601870 -14.925862 24.776251 29.668647 1.154355 0.582484 0.041084 -0.017963 -496919.000000 0 0 1
-5.891170 -15.781462 23.719301 29.092364 1.213520 0.617532 0.038380 -0.024089 -54580.600000 0 0 1
-6.341070 -17.120862 23.529201 29.781813 1.216090 0.659901 0.056062 -0.014799 -124662.000000 0 0 1
-6.445370 -17.935762 24.696831 31.195638 1.225809 0.657249 0.051739 -0.014040 -268900.000000 0 0 1
-7.041970 -19.338962 24.565091 32.047285 1.221586 0.697382 0.052292 -0.010915 -763777.000000 0 0 1
-8.435470 -19.327662 24.419541 32.264991 1.159271 0.712327 0.042488 -0.009568 -743902.000000 0 0 1
-8.826870 -20.637262 24.215291 33.018033 1.166628 0.747492 0.028917 -0.005176 -158698.000000 0 0 1
-10.346970 -20.878562 24.185701 33.584554 1.110692 0.766787 0.020319 -0.008153 -69631.300000 0 0 1
-10.943270 -20.922562 25.454381 34.719364 1.088890 0.747859 0.015866 -0.006151 985936.000000 0 0 1
-12.383770 -21.034662 25.406961 35.232491 1.038704 0.765374 0.020621 -0.001678 1039030.000000 0 0 1
-12.977270 -20.960362 26.828751 36.435260 1.016426 0.743151 0.022718 -0.006719 -683988.000000 0 0 1
-12.749570 -22.158662 27.574381 37.601919 1.048679 0.747598 0.026259 -0.002076 -77088.000000 0 0 1
-11.888770 -22.023662 28.662011 38.051221 1.075804 0.717810 0.022253 -0.001346 -281184.000000 0 0 1
-11.472270 -23.332462 29.354291 39.213405 1.113821 0.724882 0.023483 -0.002496 -683294.000000 0 0 1
-12.381670 -23.986762 30.166491 40.480707 1.094283 0.729952 0.022942 0.000068 -736746.000000 0 0 1
-11.997670 -25.258532 30.577571 41.435798 1.127352 0.740768 0.025096 0.000209 -291508.000000 0 0 1
-12.921670 -25.786962 31.680811 42.844028 1.106275 0.738550 0.026480 -0.007404 -19100.500000 0 0 1
-12.818870 -25.234232 32.970241 43.452580 1.100773 0.709383 0.037227 -0.007025 -351723.000000 0 0 1
-13.792470 -25.681342 33.880483 44.695085 1.077941 0.710500 0.031248 -0.007064 -160330.000000 0 0 1
-13.468770 -25.128802 -33.984903 44.360321 1.078773 2.443564 0.027700 -0.011904 45983.000000 0 0 1
-13.614470 -23.755962 -33.846993 43.535255 1.050393 2.461416 0.028979 -0.010981 567614.000000 0 0 1
-14.898470 -23.162262 -34.112116 43.841661 0.999201 2.462392 0.029206 -0.017725 90654.500000 0 0 1
-14.935370 -21.638462 -33.855943 42.866224 0.966662 2.481287 0.018354 -0.009098 -31035.900000 0 0 1
-15.175970 -21.255062 -32.500693 41.693917 0.950741 2.464674 0.019897 -0.005158 221017.000000 0 0 1
-15.125470 -19.861062 -32.428843 40.925193 0.919935 2.485519 0.013177 -0.006254 -195230.000000 0 0 1
-15.075070 -19.295362 -31.012033 39.513477 0.907575 2.473245 0.029139 -0.000718 1045250.000000 0 0 1
-16.374070 -19.416462 -30.369473 39.590580 0.870200 2.445087 0.026764 -0.004193 1022890.000000 0 0 1
-16.400270 -19.279862 -28.942733 38.449495 0.865929 2.423021 0.017201 0.001033 -106559.000000 0 0 1
-15.758970 -20.385762 -28.073603 38.105795 0.912713 2.399015 0.025454 0.001761 187321.000000 0 0 1
-14.348670 -20.376262 -28.195933 37.630931 0.957267 2.417764 0.016799 0.013113 -63637.500000 0 0 1
-13.718270 -21.142162 -27.177713 37.064943 0.995224 2.393880 0.016878 0.003369 -196593.000000 0 0 1
-12.203570 -21.224762 -27.323883 36.688039 1.048986 2.410975 0.002617 0.000917 -894147.000000 0 0 1
-11.460270 -20.124262 -26.806953 35.425082 1.053124 2.429081 -0.000669 0.008428 1421320.000000 0 0 1
-10.024070 -20.164462 -27.020943 35.174122 1.109459 2.446829 -0.002293 0.002241 1506290.000000 0 0 1
-9.243070 -21.199662 -26.209223 34.954018 1.159645 2.418586 0.016823 0.000894 -1241460.000000 0 0 1
-9.434070 -22.566362 -26.528963 36.083628 1.174819 2.396769 0.009067 -0.001129 101953.000000 0 0 1
-8.906970 -23.491862 -25.580603 35.854831 1.208391 2.365205 0.016187 -0.003408 -94075.200000 0 0 1
-9.105370 -24.941162 -26.030083 37.182449 1.220756 2.346283 0.017488 -0.004513 292176.000000 0 0 1
-8.090870 -25.367662 -26.936023 37.875187 1.262051 2.361970 0.007779 -0.000982 544573.000000 0 0 1
-8.510770 -26.588492 -27.567023 39.234192 1.261010 2.349880 0.001494 -0.000728 87805.200000 0 0 1
-8.471870 -27.939212 -26.771983 39.612008 1.276383 2.312921 0.015148 -0.000099 -119228.000000 0 0 1
-9.386170 -28.020222 -25.696603 39.160547 1.247566 2.286550 0.000389 -0.002026 -156579.000000 0 0 1
-9.337870 -29.329582 -25.175213 39.764451 1.262566 2.256359 0.021517 0.011259 -297118.000000 0 0 1
-10.390270 -29.552392 -24.080453 39.511641 1.232707 2.226166 0.020780 0.011277 -148100.000000 0 0 1
-10.331770 -28.589702 -23.083253 38.170055 1.224019 2.220245 0.023823 0.002209 358447.000000 0 0 1
-11.182570 -27.452472 -23.366953 37.745232 1.183976 2.238355 0.018063 0.002352 -188317.000000 0 0 1
-11.140970 -26.350922 -22.293853 36.269935 1.170797 2.232757 0.028221 -0.009121 -299941.000000 0 0 1
-11.716770 -26.797992 -21.090153 36.058419 1.158616 2.195539 0.028394 -0.006299 131788.000000 0 0 1
-11.440670 -25.879382 -20.056853 34.682974 1.154551 2.187429 0.028324 -0.007402 -438102.000000 0 0 1
-11.975270 -26.311572 -18.717353 34.439007 1.143682 2.145389 0.037528 -0.012976 -143408.000000 0 0 1
-13.384070 -26.399722 -18.789253 35.058732 1.101582 2.136413 0.053239 -0.016432 -166846.000000 0 0 1
-13.899170 -26.857212 -17.549953 34.964233 1.093230 2.096637 0.062671 -0.018546 -559892.000000 0 0 1
-15.399770 -27.122552 -17.626253 35.825557 1.054401 2.085184 0.067046 -0.022021 -1016720.000000 0 0 1
-16.120270 -25.863522 -17.558053 35.172007 1.013433 2.093478 0.073385 -0.013067 89279.200000 0 0 1
-17.452970 -25.931182 -17.112853 35.635405 0.978388 2.071702 0.076569 -0.008631 -155917.000000 0 0 1
-18.517470 -26.445872 -18.081553 37.003019 0.959934 2.081339 0.066253 -0.003870 -911886.000000 0 0 1
-18.394670 -27.834162 -18.525853 38.161652 0.986820 2.077682 0.060364 -0.004789 822.120000 0 0 1
-18.505670 -28.869522 -17.517553 38.506802 1.000767 2.043080 0.055617 -0.010330 -590850.000000 0 0 1
-19.931970 -29.413672 -17.246853 39.495588 0.975233 2.022699 0.040928 0.000268 398736.000000 0 0 1
-20.451970 -30.314702 -18.233753 40.862378 0.977284 2.033337 0.036639 -0.003466 197047.000000 0 0 1
-21.679170 -30.910882 -17.847853 41.761404 0.959169 2.012386 0.020290 0.004352 164218.000000 0 0 1
-22.136870 -31.883532 -18.908353 43.175530 0.963903 2.024104 0.002718 0.002319 -318196.000000 0 0 1
-21.414270 -33.108222 -18.967153 43.754751 0.996677 2.019156 -0.007414 0.001172 50794.700000 0 0 1
-21.901770 -33.945192 -19.985353 45.070810 0.997796 2.030208 -0.014246 0.014832 -358800.000000 0 0 1
-21.398870 33.893547 -19.963453 44.779723 -1.007640 2.032880 -0.021924 0.018095 -152414.000000 0 0 1
-21.991670 33.079736 -18.981953 44.025186 -0.984082 2.016576 -0.021090 0.010987 -143203.000000 0 0 1
-21.112770 32.053036 -18.533353 42.621959 -0.988342 2.020647 -0.019422 0.005395 -195297.000000 0 0 1
-21.807770 30.767336 -18.087853 41.825569 -0.954191 2.018015 -0.016881 -0.004004 -16462.600000 0 0 1
-22.629270 30.815756 -16.900553 41.800997 -0.937393 1.987020 -0.023127 0.000315 396442.000000 0 0 1
-23.473370 29.678586 -16.771053 41.389441 -0.901617 1.987995 -0.016205 0.000877 -252457.000000 0 0 1
-22.829170 28.299996 -16.324653 39.856682 -0.891993 1.992794 -0.016835 -0.013173 -68536.700000 0 0 1
-21.871770 27.932586 -17.306953 39.473210 -0.906495 2.024668 -0.017982 -0.008823 158824.000000 0 0 1
-21.514070 26.546416 -17.225353 38.265914 -0.889727 2.037728 -0.023605 -0.006762 -335388.000000 0 0 1
-20.697170 26.069596 -18.396253 38.031813 -0.899774 2.075682 -0.006250 0.004009 -1101600.000000 0 0 1
-20.446170 24.663646 -18.386653 36.937925 -0.878621 2.091824 0.001486 -0.007669 -316575.000000 0 0 1
-19.838470 24.176846 -19.557753 36.886183 -0.883646 2.129655 0.004699 -0.001155 -487060.000000 0 0 1
-18.466670 24.718786 -19.985553 36.762190 -0.929173 2.145569 -0.003079 -0.000188 -929879.000000 0 0 1
-17.471870 24.380406 -19.031553 35.522816 -0.948992 2.136199 0.005424 -0.004728 603470.000000 0 0 1
-16.291370 25.192146 -19.113453 35.572139 -0.996755 2.138047 0.015066 -0.009265 563769.000000 0 0 1
-16.230870 26.348276 -18.076653 35.839059 -1.018686 2.099465 0.020517 -0.016014 -687856.000000 0 0 1
-17.281270 27.215056 -18.317553 37.078758 -1.005046 2.087501 0.015930 -0.008689 -519953.000000 0 0 1
-17.209970 28.356486 -17.542353 37.523426 -1.025308 2.057261 0.032739 -0.017537 -82220.700000 0 0 1
-18.364370 29.354816 -17.795853 38.931320 -1.011766 2.045538 0.020689 -0.013089 -150343.000000 0 0 1
-18.394970 30.051716 -19.037253 40.048690 -1.021520 2.066161 0.045850 -0.013946 69935.700000 0 0 1
-18.828970 29.322286 -20.171153 40.264153 -0.999967 2.095516 0.024351 -0.006952 -401176.000000 0 0 1
-18.679970 29.940356 -21.579853 41.364916 -1.012984 2.119632 0.023387 -0.007544 -178769.000000 0 0 1
-19.634370 30.923976 -21.814353 42.634103 -1.005093 2.107917 0.012593 -0.002543 -212934.000000 0 0 1
-19.556970 31.325976 -23.191453 43.607744 -1.012697 2.131544 0.018295 -0.002520 600558.000000 0 0 1
-20.546870 32.503596 -23.493353 45.062127 -1.007078 2.119234 0.008970 0.002189 207458.000000 0 0 1
-20.036270 33.645070 -22.897253 45.362176 -1.033678 2.099906 -0.012688 0.007059 77481.200000 0 0 1
-20.202070 -34.596861 -23.839553 46.619638 1.042278 2.107566 0.011768 0.015031 -137592.000000 0 0 1
-19.161970 -33.463652 -23.599153 45.209701 1.050752 2.119982 0.020539 0.019409 76837.600000 0 0 1
-19.284570 -32.692922 -22.359253 44.052900 1.037859 2.103141 0.034560 0.020389 1195.040000 0 0 1
-18.656970 -33.330952 -21.257953 43.714248 1.060499 2.078639 0.035252 0.014329 -767475.000000 0 0 1
-18.201070 -32.306842 -20.201553 42.226931 1.057738 2.069633 0.040396 -0.003080 -701305.000000 0 0 1
-17.208870 -31.510732 -20.736253 41.461592 1.070931 2.094547 0.044845 0.001314 -539732.000000 0 0 1
-16.829070 -30.446352 -19.877853 40.066532 1.065848 2.089922 0.049825 -0.002096 155533.000000 0 0 1
-15.554470 -29.622352 -20.238153 39.102533 1.087277 2.114801 0.048348 -0.004621 1173490.000000 0 0 1
-14.310070 -30.318392 -20.147753 39.114127 1.129804 2.111923 0.044576 -0.000282 559138.000000 0 0 1
-13.180170 -29.470512 -20.211553 38.088513 1.150246 2.130160 0.038131 -0.004255 -55628.100000 0 0 1
-11.804470 -30.157862 -20.379053 38.264186 1.197706 2.132452 0.045842 0.006484 129368.000000 0 0 1
-11.334170 -30.774092 -19.221453 38.012792 1.217910 2.100940 0.043193 0.008765 -70849.900000 0 0 1
-10.584670 -29.953732 -18.364253 36.694783 1.231125 2.094926 0.037816 0.004810 -182932.000000 0 0 1
-9.730870 -30.732142 -17.284953 36.577643 1.264149 2.062984 0.031425 0.016217 -153406.000000 0 0 1
-10.472170 -31.337812 -16.265253 36.827751 1.248293 2.028242 0.045221 0.004954 -218079.000000 0 0 1
-10.923270 -32.632332 -16.659753 38.232634 1.247782 2.021664 0.046464 0.009741 -875502.000000 0 0 1
-12.061970 -32.988442 -15.758053 38.497333 1.220255 1.992514 0.054002 -0.006910 -1196180.000000 0 0 1
-11.738170 -33.471752 -14.455053 38.302629 1.233508 1.957773 0.044953 -0.005631 208306.000000 0 0 1
-12.872770 -33.855302 -13.691253 38.721313 1.207449 1.932197 0.041950 -0.008803 -606354.000000 0 0 1
-12.477870 -34.437625 -12.313253 38.642767 1.223177 1.895094 0.035590 -0.013492 33433.500000 0 0 1
-11.946970 -33.399132 -11.504553 37.290573 1.227276 1.884424 0.035018 -0.009632 113627.000000 0 0 1
-11.755470 -33.846272 -10.163053 37.243105 1.236511 1.847186 0.027872 -0.009842 -470284.000000 0 0 1
-10.528870 -33.168072 -9.524753 36.079066 1.263417 1.837960 0.016529 -0.012279 -190664.000000 0 0 1
-9.324970 -33.613382 -10.084853 36.311414 1.300183 1.852229 0.010812 -0.007982 -394561.000000 0 0 1
-8.199070 -32.871382 -9.643753 35.224345 1.326355 1.848118 -0.009020 -0.002216 704957.000000 0 0 1
-6.876670 -33.409892 -10.275753 35.624438 1.367804 1.863401 -0.017338 -0.009616 264785.000000 0 0 1
-6.483070 -34.657277 -9.740153 36.579060 1.385871 1.840325 -0.028814 -0.001548 -980809.000000 0 0 1
-5.374070 34.229481 -10.417153 36.180866 -1.415066 1.862849 -0.028526 -0.005074 -965507.000000 0 0 1
-4.615470 33.099976 -9.727453 34.807102 -1.432249 1.854036 -0.033006 -0.008798 -302491.000000 0 0 1
-4.121870 33.391898 -8.454653 34.691351 -1.447978 1.816986 -0.031046 -0.007371 -1631.750000 0 0 1
-3.364470 32.367026 -7.836553 33.471714 -1.467221 1.807114 -0.019078 -0.003803 -269618.000000 0 0 1
-3.034670 32.851516 -6.416153 33.609498 -1.478682 1.762878 -0.017905 0.005243 97915.900000 0 0 1
-2.082470 33.966108 -6.384853 34.623685 -1.509563 1.756265 -0.021421 0.007629 629313.000000 0 0 1
-1.863770 34.469089 -5.104853 34.894860 -1.516778 1.717616 -0.024526 0.007751 -92001.900000 0 0 1
-0.853370 33.648233 -4.283153 33.930477 -1.545440 1.697367 -0.012100 0.005091 146043.000000 0 0 1
0.521130 33.976927 -4.495453 34.276993 1.555460 1.702326 -0.002655 0.009143 423996.000000 0 0 1
1.408630 33.071956 -3.887753 33.329464 1.528229 1.687709 0.002889 0.003551 271822.000000 0 0 1
2.904830 33.292741 -4.185553 33.680314 1.483766 1.695391 0.011627 0.007246 -45025.500000 0 0 1
3.449930 34.472971 -3.836053 34.856894 1.471052 1.681071 0.013857 0.009992 -1584000.000000 0 0 1
4.823630 34.468509 -3.948553 35.027655 1.431756 1.683763 0.028330 0.005731 -758840.000000 0 0 1
5.432430 -33.567892 -3.364953 34.170712 -1.410353 1.669431 0.029530 0.016144 -218474.000000 0 0 1
5.265030 -32.579882 -4.312353 33.283113 -1.410578 1.700727 0.032734 0.011943 -138288.000000 0 0 1
5.623930 -31.312052 -3.816753 32.041236 -1.393082 1.690200 0.036193 0.001033 -4487.380000 0 0 1
5.419530 -30.111042 -4.782853 30.966463 -1.392718 1.725870 0.022449 -0.000082 305519.000000 0 0 1
6.246930 -30.214172 -5.968553 31.425212 -1.366914 1.761886 0.028776 0.001764 289120.000000 0 0 1
6.064730 -29.142512 -6.853353 30.545628 -1.365619 1.797087 0.025045 0.007651 -193510.000000 0 0 1
6.606330 -27.753202 -6.472453 29.253657 -1.337107 1.793895 0.022942 0.001121 -209853.000000 0 0 1
6.103030 -27.260632 -5.279253 28.429906 -1.350551 1.757574 0.031724 -0.013849 -348108.000000 0 0 1
6.747830 -26.043962 -4.958353 27.357018 -1.317277 1.753050 0.031620 -0.010322 98902.800000 0 0 1
6.038930 -25.359492 -3.756553 26.337885 -1.337017 1.713914 0.024519 -0.004754 -90526.700000 0 0 1
4.940230 -24.588362 -4.139553 25.419074 -1.372519 1.734377 0.024587 -0.015175 -281161.000000 0 0 1
4.263230 -24.141362 -2.921353 24.688353 -1.396004 1.689403 0.020479 -0.006557 -398608.000000 0 1 0
3.121330 -23.203162 -3.171753 23.626033 -1.437077 1.705451 0.018398 -0.012436 -797684.000000 0 1 0
2.126730 -23.753962 -3.972153 24.177504 -1.481503 1.735836 0.004625 -0.008406 -793836.000000 0 1 0
1.226330 -22.737062 -4.365853 23.184878 -1.516913 1.760233 0.012841 -0.012971 93865.700000 0 1 0
-14.646970 23.442238 18.244501 33.119995 -1.012333 0.987401 -0.001847 -0.006572 -100564.000000 0 0 1
-14.816370 22.778638 19.470501 33.428903 -0.994105 0.949063 0.003092 -0.010822 7423.080000 0 0 1
-14.372170 23.602538 20.527201 34.423902 -1.023840 0.931904 -0.005260 -0.012839 -1141670.000000 0 0 1
-14.404670 22.995638 21.985301 34.923450 -1.011185 0.889850 0.010172 -0.015910 -595781.000000 0 0 1
-13.310770 22.101938 22.216101 34.047429 -1.028728 0.859912 0.008459 -0.010401 112335.000000 0 0 1
-12.023870 22.641338 22.188801 33.904963 -1.082612 0.857353 -0.021845 -0.009177 -1033030.000000 0 0 1
-11.744770 23.800238 23.182601 35.239522 -1.112384 0.852825 -0.006064 0.002422 -1423770.000000 0 0 1
-11.573670 23.383538 24.526571 35.809110 -1.111197 0.816295 -0.018951 0.007431 91251.100000 0 0 1
-11.694770 24.518438 25.353381 37.157978 -1.125735 0.819874 0.006846 0.002068 -6568.460000 0 0 1
-11.324870 24.196238 26.815341 37.851989 -1.133040 0.783530 -0.003875 -0.001440 453087.000000 0 0 1
-9.919470 23.981038 26.962911 37.423049 -1.178589 0.766289 -0.033320 0.005425 135294.000000 0 0 1
-9.628370 23.142538 28.033021 37.604957 -1.176534 0.729570 -0.040590 0.016845 -100605.000000 0 0 1
-8.108070 22.820838 28.190601 37.165056 -1.229414 0.709751 -0.045170 0.007249 759567.000000 0 0 1
-7.264470 23.928938 28.447431 37.876416 -1.276054 0.721131 -0.032421 0.011760 -16535.200000 0 0 1
-6.983270 24.822638 27.418021 37.638774 -1.296558 0.754737 -0.034765 0.015333 -151642.000000 0 0 1
-5.751170 25.762738 27.708751 38.269694 -1.351162 0.761156 -0.024598 0.005010 87125.100000 0 0 1
-4.505970 25.214538 27.471511 37.560093 -1.393958 0.750421 -0.016273 0.004451 -798438.000000 0 0 1
-3.503270 25.809638 28.299671 38.461431 -1.435886 0.743959 -0.011952 0.000171 -252791.000000 0 0 1
-2.175970 25.097138 28.163401 37.785954 -1.484311 0.729751 -0.001279 -0.002178 -629037.000000 0 0 1
-1.410570 25.487438 27.045611 37.189572 -1.515509 0.756509 0.002863 -0.005079 -283826.000000 0 0 1
-0.113570 24.935838 27.102981 36.829071 -1.566242 0.743783 0.010972 -0.002697 159220.000000 0 0 1
0.538130 24.866838 25.704091 35.767995 1.549159 0.768961 0.002728 -0.004741 -402595.000000 0 0 1
0.035830 23.699438 25.078081 34.504707 1.569284 0.757142 0.000883 0.007047 272768.000000 0 0 1
0.553630 23.481738 23.762401 33.411827 1.547224 0.779596 0.015473 0.014023 58993.400000 0 0 1
-0.157070 22.241738 23.154301 32.106716 -1.563735 0.765311 -0.005662 0.015497 176271.000000 0 0 1
0.382830 20.980638 23.578301 31.563745 1.552552 0.727249 0.008903 0.012092 81719.500000 0 0 1
-0.140570 19.864738 22.879201 30.299924 -1.563720 0.715003 0.017092 0.016004 76843.500000 0 0 1
0.855330 18.703038 23.057601 29.701653 1.525096 0.682010 0.017017 0.020107 1895070.000000 0 0 1
2.154930 18.947138 22.390401 29.410335 1.457549 0.705464 0.014676 0.014152 1191270.000000 0 0 1
2.957130 17.795838 22.504401 28.842408 1.406131 0.675725 0.002612 0.015122 178697.000000 0 0 1
4.331530 18.089938 21.829001 28.679492 1.335777 0.705733 0.011161 0.009694 -169796.000000 0 0 1
5.233830 18.631338 22.718701 29.843912 1.296939 0.705557 0.008017 0.015201 -323022.000000 0 0 1
6.406730 19.118938 22.038101 29.870686 1.247458 0.741015 0.005733 0.006508 358259.000000 0 0 1
7.501230 19.687938 22.921901 31.133533 1.206770 0.743292 0.012947 -0.000239 -537317.000000 0 0 1
7.120030 20.787038 23.684301 32.306994 1.240798 0.747926 0.000530 0.003598 -133395.000000 0 0 1
6.853630 21.962038 22.960601 32.503731 1.268306 0.786399 -0.003125 0.006269 88496.700000 0 0 1
5.727630 22.815038 23.613901 33.330887 1.324833 0.783470 -0.003366 0.006201 29434.900000 0 0 1
5.529530 24.027038 23.011601 33.725480 1.344597 0.819864 -0.006227 0.000251 83245.200000 0 0 1
4.475330 24.712038 23.662201 34.505263 1.391639 0.815154 -0.014307 0.008424 -430593.000000 0 0 1
4.328230 26.062238 22.877701 34.948004 1.406225 0.857115 0.004248 0.005629 80609.800000 0 0 1
3.991030 25.986438 21.508601 33.968267 1.418406 0.885120 0.014860 -0.004738 13082.300000 0 0 1
2.786130 25.316938 21.196701 33.136234 1.461187 0.876710 0.010443 -0.001216 -398463.000000 0 0 1
2.546730 25.397038 19.683101 32.232279 1.470854 0.913897 0.019825 0.001778 -678882.000000 0 0 1
1.715230 26.466938 19.387601 32.853004 1.506080 0.939574 0.007742 0.001175 -217266.000000 0 0 1
1.618630 26.768938 18.008101 32.303060 1.510403 0.979457 0.012354 0.000491 240253.000000 0 0 1
0.465430 27.789838 17.780301 32.994406 1.554050 1.001679 -0.002505 0.013779 277143.000000 0 0 1
0.683530 29.052438 18.413201 34.402868 1.547273 1.006025 0.002494 0.006414 -591383.000000 0 0 1
-0.499470 29.757838 18.481101 35.033262 -1.554013 1.015106 -0.008649 0.014608 -633029.000000 0 0 1
-0.255270 31.202838 18.903501 36.483210 -1.562616 1.026119 -0.014273 0.004835 -16992.400000 0 0 1
0.066830 31.354338 20.301201 37.352881 1.568665 0.996198 -0.011240 0.005476 -106312.000000 0 0 1
0.303030 32.697238 20.671901 38.684993 1.561529 1.007040 -0.018228 0.006676 -172983.000000 0 0 1
1.064830 32.871538 22.016701 39.577860 1.538414 0.980884 -0.012119 0.005378 63720.500000 0 0 1
0.315130 32.519738 23.194201 39.945007 1.561106 0.951265 -0.015914 0.003343 137910.000000 0 0 1
1.007030 32.702638 24.396631 40.812648 1.540013 0.930078 -0.010814 -0.002266 -470155.000000 0 0 1
0.067330 32.582638 25.603791 41.438954 1.568730 0.904768 -0.002489 -0.008465 -460042.000000 0 0 1
-1.031970 33.488038 25.528611 42.121534 -1.539990 0.919686 -0.002961 -0.004723 600049.000000 0 0 1
-2.002470 33.243838 26.547361 42.590199 -1.510633 0.897814 -0.000410 -0.012452 338676.000000 0 0 1
-1.505670 33.640038 27.975981 43.778701 -1.526068 0.877558 0.015828 -0.023294 -628058.000000 0 0 1
-0.463370 32.869938 28.503701 43.509867 -1.556700 0.856470 0.010292 -0.022627 -270839.000000 0 0 1
0.030630 33.381138 29.702321 44.682538 1.569879 0.843649 0.001166 -0.024263 -743345.000000 0 0 1
1.197330 32.557738 30.287861 44.483642 1.534037 0.821838 -0.016727 -0.015554 271693.000000 0 0 1
2.474430 32.685438 29.680561 44.219864 1.495236 0.834964 -0.025785 -0.016211 322977.000000 0 0 1
2.533730 32.157038 28.331361 42.932050 1.492166 0.850095 -0.028003 -0.016612 -1049880.000000 0 0 1
4.022430 31.895838 28.031251 42.652965 1.445347 0.853707 -0.046520 -0.008691 319296.000000 0 0 1
4.622130 30.793338 28.778931 42.400715 1.421807 0.824755 -0.046165 -0.009794 -102380.000000 0 0 1
6.018730 30.815938 28.727031 42.556897 1.377912 0.829796 -0.051516 -0.006097 135506.000000 0 0 1
6.704930 29.561938 29.448181 42.261799 1.347760 0.799865 -0.053948 0.004900 202053.000000 0 0 1
6.403930 29.657138 30.836351 43.260105 1.358129 0.777296 -0.045394 -0.005761 98030.400000 0 0 1
7.005030 28.661338 31.609001 43.239700 1.331089 0.750984 -0.046691 0.001611 -444293.000000 0 0 1
6.951730 28.811638 33.131111 44.453431 1.334040 0.729813 -0.021826 -0.009595 -325829.000000 0 0 1
5.655030 28.948438 33.687444 44.775387 1.377877 0.719151 -0.023207 -0.003377 -122166.000000 0 0 1
5.622230 28.768838 -34.132781 44.992246 1.377801 2.432015 -0.006864 -0.002483 -144669.000000 0 0 1
5.584030 27.377338 -33.427993 43.567542 1.369591 2.445367 -0.008935 -0.001028 448539.000000 0 0 1
6.812330 26.710138 -33.742713 43.570747 1.321074 2.456618 -0.015814 -0.006083 656377.000000 0 0 1
6.747730 25.377438 -33.452423 42.527765 1.310915 2.476083 -0.008070 -0.008647 -647497.000000 0 0 1
8.051030 24.675438 -33.761373 42.585521 1.255410 2.486169 0.002425 -0.013127 -943426.000000 0 0 1
8.336630 24.552138 34.096872 42.835775 1.243463 0.650154 -0.009559 0.000042 709013.000000 0 0 1
9.551530 23.877438 33.722259 42.409368 1.190270 0.651524 -0.003193 -0.012096 442872.000000 0 0 1
9.576930 22.375038 34.050019 41.854076 1.166372 0.620580 -0.005775 -0.006584 -799945.000000 0 0 1
8.828430 21.612838 33.086681 40.494251 1.183000 0.614484 -0.011370 -0.005557 339644.000000 0 0 1
8.736430 20.232438 33.569820 40.157310 1.163178 0.580920 0.001304 -0.005045 -406643.000000 0 0 1
7.646730 19.895038 34.563053 40.606522 1.203851 0.552586 0.005590 -0.005457 -908921.000000 0 0 1
7.869930 20.508938 -33.477313 40.041014 1.204393 2.560887 0.011331 -0.002982 676065.000000 0 0 1
6.611530 20.750738 -32.819813 39.388394 1.262349 2.555730 0.011948 -0.006731 477073.000000 0 0 1
6.694030 21.519938 -31.515623 38.744706 1.269222 2.520800 0.016340 -0.015623 -515442.000000 0 0 1
6.943530 22.882238 -31.565273 39.600200 1.276181 2.493272 0.016667 -0.015879 52758.100000 0 0 1
6.983530 23.467038 -30.276333 38.937487 1.281553 2.461577 -0.001753 -0.020550 138862.000000 0 0 1
8.430830 23.567638 -29.695923 38.837614 1.227253 2.441244 0.003920 -0.022663 461220.000000 0 0 1
9.039230 22.315638 -29.442713 38.033784 1.185933 2.456120 0.008138 -0.019993 -1604940.000000 0 0 1
10.393230 22.482338 -29.406693 38.447735 1.137774 2.441602 0.027179 -0.018712 -974707.000000 0 0 1
11.296430 21.190738 -29.457773 38.005487 1.081034 2.457658 0.025215 -0.023518 67415.800000 0 0 1
11.314130 20.343938 -30.645133 38.483886 1.063249 2.491968 0.018026 -0.015076 1122340.000000 0 0 1
10.061230 19.767538 -31.138693 38.230905 1.099993 2.522646 0.017589 -0.019616 821301.000000 0 0 1
10.233830 18.577038 -32.115593 38.486997 1.067273 2.557936 0.019549 -0.014084 -235520.000000 0 0 1
10.837130 17.408738 -31.504813 37.590700 1.013989 2.564590 0.023225 -0.010229 336014.000000 0 0 1
10.792930 16.246138 -32.338883 37.765430 0.984407 2.598877 0.014029 -0.003744 -450461.000000 0 0 1
11.723830 16.125838 -33.566873 39.041334 0.942164 2.605631 0.011187 0.011709 -377267.000000 0 0 1
11.438530 16.892138 34.537265 40.112429 0.975570 0.533541 0.018749 0.002938 159498.000000 0 0 1
12.384830 16.665738 33.512778 39.423814 0.931706 0.554689 0.019664 0.002662 49079.600000 0 0 1
11.792230 16.789338 32.084251 38.083300 0.958485 0.568934 0.036868 -0.004829 -474210.000000 0 0 1
11.864730 18.085038 31.487461 38.200793 0.990178 0.601899 0.038387 -0.003353 79596.800000 0 0 1
11.280630 18.121138 30.207441 36.988076 1.013988 0.615161 0.030393 -0.005384 744206.000000 0 0 1
9.718330 18.247838 30.123941 36.536028 1.081430 0.601479 0.006490 0.002338 961078.000000 0 0 1
9.038330 17.092838 30.715681 36.294759 1.084392 0.561825 0.018442 -0.000815 554577.000000 0 0 1
7.620630 17.245538 30.735251 36.057429 1.154707 0.550244 0.008655 0.002218 565939.000000 0 0 1
7.055930 16.436238 31.945201 36.611910 1.165297 0.510427 0.000652 -0.000499 -53002.300000 0 0 1
7.401230 16.869838 33.242865 38.006022 1.157358 0.506034 0.009261 0.000751 -7057.010000 0 0 1
7.357030 15.699538 34.040061 38.201140 1.132571 0.471089 0.023457 -0.002223 -105244.000000 0 0 1
7.334130 15.914838 -33.669703 37.956823 1.138968 2.661718 0.020550 -0.003200 -183840.000000 0 0 1
6.178630 16.563938 -33.176093 37.592454 1.213765 2.651990 0.011559 -0.004059 291650.000000 0 0 1
6.379430 16.806038 -31.777413 36.509505 1.208006 2.626785 0.016216 -0.013846 83959.800000 0 0 1
5.324430 17.748238 -31.128183 36.225864 1.279342 2.604658 0.004422 -0.016638 -587291.000000 0 0 1
5.589530 18.124238 -29.803803 35.327008 1.271650 2.574851 0.016037 -0.027101 397956.000000 0 0 1
4.734230 19.179438 -29.314813 35.349993 1.328795 2.548603 0.025251 -0.032159 441046.000000 0 0 1
3.222730 18.914738 -29.202973 34.942337 1.402035 2.560289 0.040858 -0.032497 -877339.000000 0 0 1
2.711030 18.087138 -28.135563 33.557475 1.422017 2.565191 0.044018 -0.024493 1280660.000000 0 0 1
1.301930 17.757338 -28.099753 33.265811 1.497609 2.576808 0.034775 -0.022009 1254840.000000 0 0 1
0.296630 18.900738 -27.949853 33.741964 1.555104 2.546936 0.032156 -0.029857 -750065.000000 0 0 1
0.301030 19.378838 -26.624433 32.931602 1.555264 2.512355 0.044875 -0.030315 -249104.000000 0 0 1
-0.484170 20.526638 -26.548983 33.562267 -1.547213 2.483298 0.053511 -0.023677 -412768.000000 0 0 1
-0.935470 20.991038 -25.159323 32.779419 -1.526261 2.445782 0.030816 -0.028934 -425704.000000 0 0 1
-2.035170 20.267238 -24.720653 32.031446 -1.470715 2.452404 0.033879 -0.025171 -623510.000000 0 0 1
-2.331170 20.576238 -23.360653 31.217559 -1.457983 2.416319 0.035912 -0.017064 -33560.400000 0 0 1
-3.390470 19.749538 -22.618653 30.218256 -1.400780 2.416608 0.041577 -0.019840 1037220.000000 0 0 1
-4.773770 20.130738 -22.798353 30.786367 -1.337959 2.404661 0.039024 -0.015348 623573.000000 0 0 1
-5.604870 19.058538 -22.488553 30.006290 -1.284773 2.418044 0.029548 -0.006096 -309946.000000 0 0 1
-7.108770 19.400338 -22.510953 30.555698 -1.219565 2.399001 0.031437 -0.006231 -27908.500000 0 0 1
-7.608970 20.225838 -21.508053 30.488970 -1.210974 2.353836 0.025312 -0.007970 43649.100000 0 0 1
-7.329670 21.605638 -21.620353 31.431947 -1.243732 2.329314 0.030041 -0.009842 -457886.000000 0 0 1
-7.689170 22.498538 -20.435353 31.351414 -1.241478 2.280773 0.036438 -0.016256 362445.000000 0 0 1
-6.844970 22.329438 -19.251553 30.266808 -1.273346 2.260180 0.038272 -0.017766 577953.000000 0 0 1
-7.170970 23.279638 -18.269253 30.448809 -1.271983 2.214296 0.047341 -0.022981 -443441.000000 0 0 1
-6.207370 23.511238 -17.107953 29.731999 -1.312669 2.183896 0.041837 -0.022891 -238991.000000 0 0 1
-4.935470 23.978738 -17.467653 30.074202 -1.367804 2.190530 0.029248 -0.018323 -710687.000000 0 0 1
-4.078070 24.070438 -16.360653 29.388562 -1.402968 2.161206 0.030819 -0.017147 -39470.200000 0 0 1
-2.709270 24.633238 -16.784853 29.931051 -1.461252 2.166129 0.023170 -0.007298 -306297.000000 0 0 1
-2.625970 26.047238 -16.873653 31.146019 -1.470320 2.143325 0.007514 -0.009182 -792074.000000 0 0 1
-1.430070 26.556638 -17.353453 31.755983 -1.516998 2.148931 -0.006433 -0.003832 -535805.000000 0 0 1
-1.291170 28.063938 -17.046453 32.860817 -1.524821 2.116181 -0.016709 -0.020600 -350480.000000 0 0 1
-2.318070 28.859638 -17.584953 33.874514 -1.490646 2.116618 -0.016861 -0.023234 65726.000000 0 0 1
-1.947870 29.306738 -18.917453 34.936358 -1.504429 2.142997 -0.015785 -0.013231 -449915.000000 0 0 1
-3.212770 29.622238 -19.739853 35.741582 -1.462761 2.155910 -0.000824 -0.015750 397648.000000 0 0 1
-3.888770 30.854938 -19.433053 36.671423 -1.445423 2.129307 -0.001634 -0.001458 622812.000000 0 0 1
-4.708470 30.802138 -18.228453 36.100109 -1.419109 2.100111 -0.004991 -0.007712 -111335.000000 0 0 1
-5.218770 32.172838 -17.772653 37.124039 -1.409987 2.070012 0.000515 -0.003462 354059.000000 0 0 1
-6.395170 32.596538 -18.486053 38.015347 -1.377065 2.078622 0.012169 0.003790 644821.000000 0 0 1
-6.775870 33.882738 -18.089553 39.002362 -1.373420 2.053083 0.016580 -0.002352 -223484.000000 0 0 1
-7.657170 34.641938 -19.052553 40.270285 -1.353257 2.063622 0.017487 0.016681 -235972.000000 0 0 1
-8.994770 34.240238 -19.160053 40.254284 -1.313905 2.066869 0.028610 0.001866 -180036.000000 0 0 1
-9.844870 -34.237570 -19.889853 40.801212 1.290804 2.080000 0.038920 0.007889 249890.000000 0 0 1
28.539630 -20.993062 -26.564893 44.282193 -0.634206 2.214173 -0.001772 0.001183 240599.000000 0 0 1
28.269630 -22.289962 -26.153013 44.497129 -0.667675 2.199066 0.013868 -0.016798 -1173880.000000 0 0 1
26.915930 -22.426562 -25.910903 43.575140 -0.694664 2.207596 0.010689 -0.012999 -689182.000000 0 0 1
26.585530 -23.816862 -25.271743 43.734361 -0.730522 2.186884 0.000661 -0.009156 -54098.100000 0 0 1
26.735530 -25.008762 -26.147583 44.988030 -0.752039 2.191014 -0.006829 0.009410 -91367.800000 0 0 1
28.091230 -25.320282 -26.403073 46.123271 -0.733565 2.180282 -0.004622 0.009496 -6166.590000 0 0 1
28.179730 -26.706722 -27.046153 47.316388 -0.758567 2.179254 -0.000458 0.008167 -67082.500000 0 0 1
27.642830 -27.755882 -26.258593 47.159609 -0.787439 2.161328 0.003967 -0.003426 -341215.000000 0 0 1
27.774530 -29.076302 -26.794673 48.319875 -0.808292 2.158591 -0.002166 -0.000270 259838.000000 0 0 1
26.692930 -29.550032 -27.798363 48.564039 -0.836154 2.180234 0.005897 0.000218 -238720.000000 0 0 1
26.534330 -28.783832 -28.986803 48.711543 -0.826041 2.208150 -0.005516 -0.001727 -309392.000000 0 0 1
27.518030 -28.862222 -29.992163 49.897892 -0.809235 2.215637 -0.021623 0.007570 -568501.000000 0 0 1
27.813830 -30.115632 -30.848543 51.304902 -0.825112 2.215897 -0.021475 0.011656 -1211390.000000 0 0 1
28.343030 -31.252532 -30.178143 51.872617 -0.834180 2.191704 -0.012796 0.008931 369593.000000 0 0 1
29.594630 -31.168162 -29.497023 52.128407 -0.811289 2.172264 -0.017105 0.008484 -578603.000000 0 0 1
30.792730 -30.813682 -30.327683 53.079596 -0.785738 2.178961 -0.014324 0.001498 -1764920.000000 0 0 1
30.793730 -29.521912 -30.855283 52.648320 -0.764315 2.196989 -0.013761 -0.006650 -451359.000000 0 0 1
31.989730 -29.286732 -31.551943 53.633764 -0.741315 2.199733 -0.009911 -0.009405 -208577.000000 0 0 1
32.001130 -27.828782 -32.195363 53.245233 -0.715774 2.220138 -0.019751 -0.000076 -25923.500000 0 0 1
31.875030 -26.695622 -31.323463 52.056057 -0.697198 2.216456 -0.029312 0.005670 475572.000000 0 0 1
30.571430 -26.511252 -30.738423 50.816429 -0.714390 2.220426 -0.016181 0.008526 635411.000000 0 0 1
30.461330 -25.145082 -29.959593 49.575649 -0.690083 2.219709 -0.018096 0.001025 -1055870.000000 0 0 1
31.072930 -25.219192 -28.712543 49.253880 -0.681782 2.193151 -0.019338 -0.002467 -147772.000000 0 0 1
31.121530 -23.903162 -28.157003 48.298319 -0.654959 2.193189 -0.022420 0.001571 547847.000000 0 0 1
32.350130 -23.585662 -27.209103 48.406091 -0.629974 2.167720 -0.028728 0.004421 448528.000000 0 0 1
32.424130 -24.280462 -25.976983 48.121395 -0.642758 2.141022 -0.020051 -0.006306 -258853.000000 0 0 1
31.450230 -23.936662 -25.010753 46.771984 -0.650565 2.134994 0.008102 -0.005278 -164553.000000 0 0 1
31.858130 -22.804362 -24.115253 46.005704 -0.621258 2.122548 -0.004448 0.002523 -75607.000000 0 0 1
32.125130 -21.599762 -24.840253 45.995781 -0.591936 2.141299 -0.014259 -0.001410 -11985.000000 0 0 1
31.926430 -20.560362 -23.958753 44.900415 -0.572140 2.133645 -0.033199 -0.003828 -136380.000000 0 0 1
32.023130 -19.185662 -24.630153 44.723762 -0.539771 2.154020 -0.033612 0.000126 -46043.300000 0 0 1
31.041230 -18.939962 -25.619353 44.481809 -0.547853 2.184564 -0.025076 -0.004631 156065.000000 0 0 1
31.133930 -17.623762 -26.101213 44.285346 -0.515092 2.201096 -0.026563 -0.004750 -304700.000000 0 0 1
30.317430 -17.212662 -27.348843 44.310061 -0.516367 2.235995 -0.037182 0.006427 43615.100000 0 0 1
28.964430 -17.029162 -26.970913 43.085505 -0.531500 2.247191 -0.026690 0.008792 355249.000000 0 0 1
28.101830 -16.983962 -28.112703 43.226055 -0.543628 2.278861 -0.024451 0.007116 -119334.000000 0 0 1
26.614030 -16.932262 -27.767053 42.024009 -0.566624 2.292604 -0.018845 0.008541 -47076.500000 0 0 1
25.992730 -18.055562 -27.100083 41.665811 -0.607119 2.278927 -0.011104 0.008947 249983.000000 0 0 1
25.754030 -17.718462 -25.781503 40.520363 -0.602619 2.260438 -0.003426 0.014322 -182075.000000 0 0 1
25.118030 -18.788162 -24.870353 40.030550 -0.642217 2.241177 0.012494 0.010719 -272302.000000 0 0 1
24.935730 -18.334562 -23.547353 38.889904 -0.634009 2.221175 0.014742 0.020801 175694.000000 0 0 1
24.654630 -19.378762 -22.625553 38.669146 -0.666151 2.195807 0.025709 0.006047 -447197.000000 0 0 1
24.796830 -18.828862 -21.128853 37.627613 -0.649443 2.167024 0.018794 0.000019 538903.000000 0 0 1
23.845230 -17.808562 -20.694253 36.249027 -0.641475 2.178387 0.021974 0.004304 634427.000000 0 0 1
23.819530 -16.510362 -21.304053 35.969775 -0.606110 2.204678 0.015162 0.005456 185377.000000 0 0 1
25.049430 -15.595862 -20.981853 36.206947 -0.556874 2.188909 0.008886 0.001383 341747.000000 0 0 1
25.048930 -14.946162 -19.728253 35.214210 -0.537974 2.165466 0.011548 -0.010434 651207.000000 0 0 1
26.260930 -14.190462 -19.599853 35.709381 -0.495415 2.151810 -0.003591 0.001590 298683.000000 0 0 1
26.278130 -13.068462 -18.509453 34.697617 -0.461496 2.133471 0.000415 -0.003680 -346441.000000 0 0 1
26.384330 -13.655462 -17.222353 34.339685 -0.477596 2.096162 -0.005345 -0.000806 316549.000000 0 0 1
26.053230 -12.589962 -16.315453 33.218548 -0.450150 2.084211 -0.015174 -0.004136 141007.000000 0 0 1
26.727630 -12.893762 -14.939053 33.223344 -0.449479 2.037176 -0.009963 0.004851 -142944.000000 0 0 1
26.185030 -13.978862 -14.255553 32.928486 -0.490359 2.018531 0.011080 -0.009002 91456.900000 0 0 1
26.947430 -14.140862 -13.078353 33.123576 -0.483257 1.976685 0.020868 -0.011737 -93576.300000 0 0 1
26.697230 -15.453062 -12.332053 33.220758 -0.524705 1.951114 0.022393 -0.018858 201447.000000 0 0 1
25.379930 -15.421562 -11.803553 31.957617 -0.546010 1.949106 0.019102 -0.020514 395750.000000 0 0 1
24.966830 -16.681162 -11.257153 32.067542 -0.589017 1.929483 0.015440 -0.018565 1100710.000000 0 0 1
23.440630 -16.700562 -10.845353 30.757009 -0.619041 1.931159 0.020290 -0.022356 963178.000000 0 0 1
23.142230 -16.205162 -9.549253 29.822111 -0.610888 1.896744 0.022117 -0.013341 278939.000000 0 0 1
21.759030 -16.357162 -9.283353 28.760959 -0.644615 1.899458 0.018828 -0.011186 44469.300000 0 0 1
21.428430 -16.043562 -7.793853 27.880417 -0.642671 1.854117 0.016412 -0.004537 -301810.000000 0 0 1
21.484930 -14.623562 -7.527253 27.057537 -0.597616 1.852710 0.015515 0.006026 394893.000000 0 0 1
21.142830 -14.195062 -6.186653 26.206750 -0.591265 1.809117 0.007950 0.013899 -210973.000000 0 0 1
21.972030 -14.779562 -5.011753 26.950385 -0.592136 1.757847 0.003468 0.009528 -696132.000000 0 0 1
23.258630 -14.270762 -4.889753 27.722341 -0.550337 1.748107 0.009342 0.001099 -413634.000000 0 0 1
24.020130 -15.082862 -3.998253 28.643418 -0.560701 1.710841 0.003877 -0.005395 365583.000000 0 0 1
25.540230 -14.789562 -4.210553 29.812133 -0.524887 1.712506 0.002602 -0.004479 175252.000000 0 0 1
26.005730 -13.655862 -3.532553 29.584785 -0.483533 1.690486 0.007442 -0.003144 64792.700000 0 0 1
27.363730 -13.465962 -3.882653 30.743794 -0.457316 1.697425 0.016641 -0.017047 -82329.500000 0 0 1
27.932630 -12.163462 -3.276453 30.641749 -0.410694 1.677929 0.026800 -0.013400 -1445420.000000 0 0 1
28.197630 -12.262162 -1.877353 30.805704 -0.410197 1.631776 0.032229 -0.020435 670163.000000 0 0 1
28.958030 -11.135762 -1.357853 31.055055 -0.367115 1.614534 0.030142 -0.008402 323206.000000 0 0 1
30.421130 -10.951362 -1.798553 32.382283 -0.345548 1.626366 0.030497 -0.004612 -815884.000000 0 0 1
30.457630 -10.527062 -3.107353 32.375020 -0.332776 1.666924 0.023975 0.003455 670237.000000 0 0 1
31.485130 -11.232662 -3.862053 33.651175 -0.342685 1.685817 0.035791 0.003299 277036.000000 0 0 1
31.465330 -11.078162 -5.427453 33.797188 -0.338522 1.732084 0.028670 0.006208 505690.000000 0 0 1
30.307030 -11.776162 -5.991153 33.061881 -0.370607 1.753013 0.009534 -0.005722 1254990.000000 0 0 1
30.343230 -11.739262 -7.393953 33.364538 -0.369147 1.794263 0.001097 0.003987 -936614.000000 0 0 1
29.080930 -12.326762 -7.918053 32.562941 -0.400920 1.816420 -0.003173 0.003628 -984940.000000 0 0 1
29.056130 -13.738462 -7.805953 33.074717 -0.441672 1.809054 -0.002554 0.001163 160222.000000 0 0 1
27.856430 -14.403462 -8.160653 32.404269 -0.477203 1.825376 0.004846 -0.001764 165651.000000 0 0 1
28.116030 -15.948462 -8.213653 33.351592 -0.515981 1.819631 0.011542 -0.013623 54551.500000 0 0 1
28.721930 -16.441662 -9.404253 34.405196 -0.519910 1.847658 0.017580 -0.020529 298803.000000 0 0 1
28.901830 -17.848562 -9.246753 35.204963 -0.553230 1.836569 0.023718 -0.018270 -136775.000000 0 0 1
29.081030 -18.548062 -10.608753 36.087152 -0.567755 1.869180 0.014133 -0.026553 -119733.000000 0 0 1
30.293430 -18.387862 -11.319753 37.201373 -0.545545 1.879982 0.018404 -0.018498 133475.000000 0 0 1
30.304930 -18.849862 -12.629553 37.857782 -0.556444 1.910922 0.016616 -0.000139 -142379.000000 0 0 1
29.454430 -18.112562 -13.714653 37.198388 -0.551329 1.948395 0.014177 -0.017036 -75525.400000 0 0 1
29.942030 -16.834162 -14.133853 37.144044 -0.512181 1.961149 0.007488 0.001103 380656.000000 0 0 1
29.144030 -16.356662 -15.224653 36.724718 -0.511428 1.998257 0.005187 -0.009626 -794924.000000 0 0 1
29.699630 -15.122262 -16.035453 36.984951 -0.470959 2.019244 -0.014262 0.015575 1388020.000000 0 0 1
30.935530 -15.219662 -16.811853 38.357314 -0.457211 2.024498 -0.019078 0.001931 1021760.000000 0 0 1
32.067830 -15.487362 -16.042753 39.058597 -0.449920 1.994057 -0.003934 0.009625 -1183830.000000 0 0 1
33.248830 -15.936362 -16.918153 40.566935 -0.446956 2.000986 -0.005635 0.006412 -230723.000000 0 0 1
34.495330 -15.993662 -16.256753 41.352231 -0.434145 1.974828 0.002666 0.005152 -309035.000000 0 0 1
-34.559206 -16.436062 -17.170553 41.944138 0.443931 1.992557 -0.000143 0.011938 -310043.000000 0 0 1
-33.075506 -16.119162 -16.877853 40.480593 0.453472 2.000869 -0.003131 0.007877 57858.900000 0 0 1
-32.460906 -16.780762 -15.771353 39.800000 0.477118 1.978242 -0.004168 0.001508 343097.000000 0 0 1
-33.049306 -16.448762 -14.527453 39.671971 0.461809 1.945707 0.002021 -0.000059 -587568.000000 0 0 1
-32.489606 -17.359462 -13.437653 39.210916 0.490716 1.920588 -0.001212 0.000006 -450482.000000 0 0 1
-31.197706 -17.062462 -12.977453 37.852857 0.500471 1.920734 -0.021440 -0.000452 -280107.000000 0 0 1
-30.802206 -17.881262 -11.885753 37.547124 0.525972 1.892892 -0.019438 0.005556 -122668.000000 0 0 1
-29.333506 -17.576362 -11.554653 36.095610 0.539824 1.896644 -0.011289 0.003012 -194995.000000 0 0 1
-29.232806 -16.221862 -11.201553 35.258766 0.506613 1.894094 -0.014607 -0.007709 258978.000000 0 0 1
-27.980706 -15.842962 -10.623453 33.864098 0.515203 1.889892 -0.000016 -0.015172 501715.000000 0 0 1
-27.936706 -15.852362 -9.012553 33.361400 0.516133 1.844344 -0.005188 -0.011182 35635.600000 0 0 1
-27.986106 -17.142962 -8.556253 33.916261 0.549598 1.825828 -0.016788 -0.002827 -53125.900000 0 0 1
-28.394106 -17.285762 -7.187953 34.010138 0.546850 1.783750 -0.005936 -0.009383 27488.700000 0 0 1
-28.562806 -18.749662 -6.642253 34.806655 0.580887 1.762807 -0.011109 -0.008819 -183173.000000 0 0 1
-29.545606 -19.548662 -7.249853 36.161491 0.584517 1.772650 -0.010142 -0.005011 -449223.000000 0 0 1
-29.220106 -19.928262 -8.588653 36.396637 0.598546 1.809017 -0.015493 -0.000413 549316.000000 0 0 1
-30.354506 -20.743162 -9.327653 37.929934 0.599473 1.819263 -0.006717 0.001327 480363.000000 0 0 1
-31.553006 -20.046862 -9.531653 38.578767 0.566000 1.820452 -0.017165 -0.000430 -46366.100000 0 0 1
-32.624406 -20.940862 -9.793153 39.984715 0.570644 1.818236 -0.020329 0.000301 236025.000000 0 0 1
-33.976606 -20.287962 -10.122653 40.847023 0.538296 1.821224 -0.005268 -0.008417 -191266.000000 0 0 1
-34.066406 -19.871062 -11.472053 41.072949 0.528052 1.853871 -0.011830 -0.010656 798217.000000 0 0 1
34.664630 -19.289862 -11.795053 41.386696 -0.507798 1.859799 0.024202 -0.024076 738957.000000 0 0 1
34.304130 -19.058662 -13.290453 41.432380 -0.507117 1.897343 0.012733 -0.012472 -142993.000000 0 0 1
33.920830 -20.236362 -14.010353 41.909701 -0.537898 1.911657 -0.002212 -0.008932 -5149.770000 0 0 1
33.483230 -20.023862 -15.320453 41.914174 -0.538967 1.944987 0.000418 -0.007633 204824.000000 0 0 1
32.260030 -20.891462 -15.688153 41.512418 -0.574683 1.958339 0.007563 -0.016840 576295.000000 0 0 1
31.022530 -20.604462 -14.993153 40.146430 -0.586277 1.953534 0.026732 -0.019468 669752.000000 0 0 1
29.970230 -21.456162 -15.371153 39.935622 -0.621328 1.965894 0.032711 -0.024701 116639.000000 0 0 1
29.153430 -21.067462 -16.614053 39.620540 -0.625760 2.003503 0.027973 -0.028470 -534800.000000 0 0 1
28.336130 -19.924962 -16.396053 38.324547 -0.612847 2.012877 -0.002223 -0.013517 514765.000000 0 0 1
27.473030 -19.653562 -17.507853 38.046745 -0.620971 2.048980 0.001022 -0.020726 -3905.330000 0 0 1
26.829830 -18.279662 -17.370853 36.820271 -0.598078 2.062098 0.003573 -0.025072 -323661.000000 0 0 1
25.822530 -18.301762 -16.380553 35.638183 -0.616575 2.048380 0.004076 -0.024982 -142181.000000 0 0 1
25.409430 -17.005062 -16.101653 34.555383 -0.589784 2.055523 0.002697 -0.015821 -913151.000000 0 0 1
24.007330 -17.053962 -15.456253 33.257860 -0.617648 2.054137 -0.003277 -0.013350 1822080.000000 0 0 1
22.884130 -17.581862 -16.308653 33.147812 -0.655110 2.085179 0.000868 -0.014084 1986560.000000 0 0 1
22.578330 -16.819762 -17.484953 33.142253 -0.640262 2.126537 0.009480 -0.005144 -851112.000000 0 0 1
21.541830 -17.472262 -18.414253 33.292868 -0.681464 2.156876 0.020144 -0.001178 352582.000000 0 0 1
20.237130 -17.400562 -17.837253 32.101224 -0.710175 2.159949 0.021302 0.000945 -283781.000000 0 0 1
19.323730 -18.104062 -18.623753 32.372948 -0.752822 2.183752 0.023446 -0.003326 -385416.000000 0 0 1
17.902730 -18.110562 -18.069153 31.224902 -0.791169 2.187903 0.023950 0.003443 -104006.000000 0 0 1
17.177030 -16.864962 -18.093353 30.113896 -0.776231 2.215336 0.020770 -0.000103 1682170.000000 0 0 1
15.762730 -17.221962 -17.971953 29.462700 -0.829609 2.226844 0.020084 -0.000229 1706530.000000 0 0 1
14.707030 -16.076662 -17.849253 28.166498 -0.829861 2.257130 0.018786 0.005672 228680.000000 0 0 1
14.370830 -15.417462 -19.077453 28.428297 -0.820519 2.306451 0.015085 0.013573 -309670.000000 0 0 1
13.304930 -14.559562 -18.859253 27.288705 -0.830394 2.333808 0.006127 0.009510 -203216.000000 0 0 1
12.646130 -13.891062 -20.098053 27.510324 -0.832277 2.389944 0.010005 0.005528 203459.000000 0 0 1
12.978830 -12.534762 -20.329153 27.181699 -0.767995 2.415687 0.013662 -0.001090 -122982.000000 0 0 1
12.350830 -12.127562 -21.517353 27.615525 -0.776277 2.464146 0.018000 -0.003102 -198337.000000 0 0 1
12.763330 -10.769762 -22.109053 27.707410 -0.700887 2.494678 0.023476 -0.005948 -157260.000000 0 0 1
14.011630 -10.729962 -22.787453 28.822315 -0.653530 2.482615 0.023334 -0.005506 41434.500000 0 0 1
14.292130 -9.387362 -23.162253 28.790233 -0.581155 2.505659 0.036943 -0.007392 23900.300000 0 0 1
15.402230 -9.359062 -24.247253 30.211753 -0.546021 2.502399 0.032340 -0.005243 203652.000000 0 0 1
15.125530 -9.963862 -25.510713 31.286685 -0.582498 2.524191 0.039692 -0.008263 2838.870000 0 0 1
16.268330 -9.792362 -26.311223 32.447332 -0.541836 2.516468 0.039033 -0.011052 -475811.000000 0 0 1
21.217130 5.049438 -6.787153 22.841385 0.233642 1.872495 -0.007282 0.018794 -194274.000000 0 1 0
21.332130 6.460838 -7.114953 23.397110 0.294087 1.879785 -0.004439 0.016360 731667.000000 0 1 0
21.128130 7.339338 -6.054953 23.171668 0.334332 1.835174 -0.002482 0.016168 -343364.000000 0 1 0
21.091130 8.818838 -6.490853 23.764234 0.396037 1.847447 -0.000335 0.015940 -455040.000000 0 1 0
19.830730 9.147838 -7.035053 22.944123 0.432208 1.882433 -0.019012 0.010557 322533.000000 0 1 0
19.605130 10.537238 -7.112553 23.366277 0.493175 1.880098 -0.006787 0.014994 68398.700000 0 1 0
19.119930 11.311538 -5.803153 22.960819 0.534227 1.826309 0.001515 0.018997 549136.000000 0 1 0
20.153330 11.360438 -4.804353 23.628332 0.513301 1.775554 0.017911 0.013460 820831.000000 0 1 0
19.708530 12.394038 -3.915753 23.608716 0.561375 1.737427 0.034983 0.002620 559948.000000 0 1 0
20.730830 12.696038 -2.765053 24.466349 0.549504 1.684053 0.034448 -0.008744 -320033.000000 0 1 0
21.983830 13.123038 -3.229853 25.805714 0.538167 1.696286 0.039516 -0.017267 366461.000000 0 0 1
22.889230 13.509338 -2.181953 26.667958 0.533186 1.652707 0.049425 -0.015520 193857.000000 0 0 1
23.650630 12.347838 -1.542653 26.724543 0.481166 1.628553 0.019589 -0.017898 -1510000.000000 0 0 1
24.699830 11.839338 -2.302453 27.487321 0.446974 1.654659 0.016318 -0.013661 -339768.000000 0 0 1
25.446530 10.912238 -1.587553 27.733070 0.405110 1.628072 0.013964 -0.015739 153750.000000 0 0 1
26.864730 10.686238 -2.205653 28.996109 0.378591 1.646937 0.010249 -0.008277 608909.000000 0 0 1
27.717730 11.830138 -2.202353 30.217132 0.403401 1.643745 0.005644 -0.012442 765696.000000 0 0 1
29.067530 11.415338 -1.972753 31.290941 0.374213 1.633884 0.000784 -0.007854 1071410.000000 0 0 1
30.071830 12.589138 -1.607053 32.640220 0.396468 1.620052 -0.010091 -0.002108 -16310.900000 0 0 1
29.873230 13.215838 -0.336453 32.667743 0.416514 1.581096 -0.002964 0.003029 797926.000000 0 0 1
30.787430 14.310938 -0.134353 33.951242 0.435118 1.574754 0.004162 0.003748 1213890.000000 0 0 1
32.283930 13.940038 0.231947 35.165759 0.407612 1.564200 0.017371 -0.002650 1061050.000000 0 0 1
33.336030 14.901538 0.238347 36.515799 0.420365 1.564269 0.021525 -0.000036 363522.000000 0 0 1
33.866930 15.218938 -1.045453 37.144017 0.422334 1.598946 0.022596 0.006559 -652073.000000 0 0 1
33.217930 16.214138 -2.057053 37.021083 0.454094 1.626389 -0.016431 0.027744 -120257.000000 0 0 1
31.995430 15.778838 -2.616653 35.770465 0.458160 1.644013 -0.009968 0.021855 -300715.000000 0 0 1
31.461630 16.823938 -3.358953 35.835201 0.491055 1.664667 -0.024659 0.030861 -180022.000000 0 0 1
30.146430 16.437138 -4.054153 34.574888 0.499184 1.688324 -0.002713 0.011821 -503296.000000 0 0 1
30.322430 15.524038 -5.115553 34.447270 0.473174 1.719852 -0.011087 0.010618 1098570.000000 0 0 1
29.110030 15.124338 -5.804553 33.314145 0.479171 1.745927 0.009175 -0.005723 819410.000000 0 0 1
28.119130 14.174038 -5.117653 31.902652 0.466899 1.731907 0.016412 -0.014658 -827122.000000 0 0 1
27.032230 13.894138 -5.916153 30.964325 0.474772 1.763042 0.032523 -0.021422 -121656.000000 0 0 1
26.003230 13.202038 -5.202753 29.623140 0.469795 1.747343 0.015479 -0.012037 -197803.000000 0 0 1
24.707930 13.073338 -5.964753 28.582726 0.486667 1.781025 0.022603 -0.007664 -944763.000000 0 0 1
24.835630 11.972338 -6.889153 28.418406 0.449195 1.815654 0.017499 0.002407 606416.000000 0 0 1
23.779230 11.786538 -7.851653 27.677115 0.460174 1.858434 0.021673 -0.000169 325435.000000 0 0 1
23.429330 12.980638 -8.810553 28.196743 0.505935 1.888585 0.030829 0.005390 -272641.000000 0 0 1
22.531830 13.951338 -8.305353 27.772326 0.554406 1.874495 0.029504 -0.010626 195704.000000 0 0 1
22.551330 15.027738 -9.180253 28.612452 0.587804 1.897421 0.030817 -0.011126 -615617.000000 0 0 1
21.554530 16.174538 -8.851553 28.364827 0.643758 1.888158 0.034891 -0.005886 1204930.000000 0 0 1
20.155330 15.829838 -8.932353 27.140524 0.665770 1.906163 0.001651 0.001468 986407.000000 0 0 1
19.737930 15.201838 -7.763453 26.095075 0.656294 1.872876 -0.009462 0.004901 -644099.000000 0 0 1
18.303030 14.622638 -7.811553 24.694996 0.674081 1.892645 -0.017508 0.004068 -512433.000000 0 1 0
17.272730 15.509638 -8.017453 24.559634 0.731668 1.903340 -0.016026 0.005276 -294568.000000 0 1 0
15.963830 15.035638 -7.771453 23.266064 0.755465 1.911367 -0.003685 -0.000289 385887.000000 0 1 0
15.508730 15.399638 -6.342253 22.757279 0.781869 1.853227 0.007549 0.010141 -830996.000000 0 1 0
16.029630 14.510638 -5.447253 22.297538 0.735702 1.817592 -0.006188 0.004380 238122.000000 0 1 0
15.714730 14.914938 -4.137953 22.057442 0.759292 1.759513 -0.001093 0.012570 -396201.000000 0 1 0
15.585730 13.653238 -3.180853 20.962913 0.719401 1.723122 0.007639 0.013164 -773912.000000 0 1 0
16.756830 12.996938 -2.775353 21.387247 0.659698 1.700930 0.013961 0.013714 110766.000000 0 1 0
16.562230 12.272238 -1.528153 20.670040 0.637702 1.644795 0.006760 0.009053 -68237.500000 0 1 0
16.676830 13.091738 -0.227353 21.202876 0.665543 1.581519 0.014631 0.008477 -317972.000000 0 1 0
15.724830 14.120338 -0.158453 21.134790 0.731689 1.578294 0.012491 0.008052 342425.000000 0 1 0
15.906830 14.802938 1.087047 21.756284 0.749468 1.520811 0.021305 0.006510 -322571.000000 0 1 0
14.733130 15.693338 1.565647 21.582336 0.816946 1.498190 0.007529 0.011626 -56229.900000 0 1 0
14.704930 16.924138 0.775947 22.433535 0.855447 1.536201 0.021461 0.013230 438687.000000 0 1 0
13.582930 17.713938 1.156647 22.352123 0.916634 1.519027 0.005796 0.006610 261241.000000 0 1 0
13.609030 19.205738 0.640247 23.547314 0.954327 1.543603 0.008865 0.011158 -531025.000000 0 1 0
13.490730 19.294938 -0.783553 23.556493 0.960618 1.604065 0.032469 0.016393 244732.000000 0 1 0
13.085930 20.636238 -1.141653 24.462201 1.005663 1.617483 0.017601 0.010356 160422.000000 0 1 0
11.555030 20.845638 -1.173653 23.862875 1.064647 1.619999 0.018687 0.003103 87189.500000 0 1 0
10.990430 20.894838 0.153547 23.609477 1.086575 1.564293 0.023723 0.005349 -136321.000000 0 1 0
9.649230 20.449438 0.129047 22.612028 1.129915 1.565089 0.023719 -0.007198 203861.000000 0 1 0
8.958530 20.220438 1.465447 22.164587 1.153743 1.504631 0.019204 -0.013536 94419.000000 0 1 0
8.711230 21.430038 2.128047 23.230597 1.184702 1.479062 0.023709 -0.006312 18708.400000 0 1 0
7.464930 21.420438 2.807247 22.856968 1.235462 1.447667 0.011612 -0.018344 234958.000000 0 1 0
7.092430 22.836538 3.285747 24.137236 1.269667 1.434245 0.004613 -0.011006 -65678.900000 0 1 0
7.680730 23.232638 4.504647 24.880533 1.251507 1.388741 -0.006370 -0.007254 -52115.400000 0 1 0
7.192630 24.486238 4.970447 26.000291 1.285091 1.378443 -0.018543 -0.006672 -402638.000000 0 0 1
7.799230 24.932038 6.254347 26.861708 1.267620 1.335804 -0.034080 0.005951 -768114.000000 0 0 1
7.290830 24.241838 7.334047 26.355477 1.278648 1.288800 -0.015394 -0.011682 -296401.000000 0 0 1
7.765330 24.617038 8.565547 27.196829 1.265230 1.250396 -0.019268 -0.006519 -487576.000000 0 0 1
7.528330 23.678938 9.763047 26.696160 1.262969 1.196401 -0.009428 -0.010784 337914.000000 0 0 1
6.207130 23.827438 10.273647 26.680013 1.315957 1.175514 -0.008461 -0.012631 333330.000000 0 0 1
5.901730 22.828238 11.183847 26.096692 1.317808 1.127904 -0.015105 -0.011354 609870.000000 0 0 1
4.571530 23.131838 11.963147 26.440456 1.375681 1.101279 0.001125 -0.015568 821959.000000 0 0 1
3.397930 23.168438 11.186447 25.951090 1.425172 1.125130 -0.002221 -0.015323 -233528.000000 0 0 1
2.318530 23.805238 11.815447 26.677139 1.473707 1.111960 -0.003282 -0.006580 214936.000000 0 0 1
1.136930 24.085938 10.843447 26.438710 1.523628 1.148194 0.018376 -0.003808 -185857.000000 0 0 1
1.493730 25.057338 9.862447 26.969785 1.511254 1.196428 0.025614 -0.006916 6333.660000 0 0 1
0.644830 25.186938 8.744147 26.669416 1.545200 1.236746 0.010601 -0.011423 439769.000000 0 0 1
-0.757970 25.841538 8.959947 27.361291 -1.541473 1.237174 0.013248 -0.014918 629955.000000 0 0 1
-1.714770 25.092538 9.716747 26.962772 -1.502565 1.202125 0.012542 -0.008654 -249058.000000 0 0 1
-2.942170 25.753438 9.675647 27.667925 -1.457046 1.213539 0.018933 -0.004549 -217383.000000 0 0 1
-4.133270 24.864338 10.201547 27.191741 -1.406070 1.186215 0.027779 -0.008507 584293.000000 0 0 1
-4.592870 25.088338 11.543847 27.996063 -1.389733 1.145777 0.013562 0.005298 515626.000000 0 0 1
-5.591270 26.098438 11.713947 29.148024 -1.359749 1.157230 0.014910 0.008616 44857.100000 0 0 1
-5.999170 26.268438 13.165647 29.989250 -1.346268 1.116297 0.001023 0.019706 -768005.000000 0 0 1
-6.997470 25.404238 13.573347 29.640777 -1.302016 1.095133 -0.005493 0.007384 -342840.000000 0 0 1
-7.308570 25.572638 14.955747 30.513102 -1.292421 1.058544 -0.009746 0.032969 255190.000000 0 0 1
-8.321570 24.547138 15.593947 30.248664 -1.243951 1.029176 -0.008687 0.013646 521000.000000 0 0 1
-9.608470 24.764838 15.044447 30.527943 -1.200687 1.055481 -0.010272 0.017742 225827.000000 0 0 1
-10.501670 23.721438 15.485247 30.212325 -1.154023 1.032647 -0.006329 0.010255 968039.000000 0 0 1
-12.041170 23.959138 15.480947 30.962716 -1.105094 1.047213 -0.003944 0.001692 500778.000000 0 0 1
-12.376170 25.041538 16.338247 32.360262 -1.111779 1.041546 0.006034 -0.004586 -110515.000000 0 0 1
-13.315370 25.917038 15.758747 33.125972 -1.096194 1.075012 0.002567 0.005637 -540689.000000 0 0 1
-13.924670 26.927338 16.683447 34.602245 -1.093547 1.067690 0.013699 0.007851 -352068.000000 0 0 1
-15.006370 26.376638 17.407347 34.984767 -1.053538 1.050002 0.018586 -0.009042 -249831.000000 0 0 1
-15.445070 27.334438 18.345447 36.363129 -1.056479 1.041986 0.025441 -0.004427 343696.000000 0 0 1
-16.731370 26.810038 19.060947 36.905780 -1.012865 1.028066 0.023297 -0.016437 624420.000000 0 0 1
-17.934570 27.039338 18.356247 37.279034 -0.985144 1.055950 0.017629 -0.011327 264666.000000 0 0 1
-19.087670 26.513138 19.006547 37.795958 -0.946818 1.043878 0.017623 -0.010833 478939.000000 0 0 1
-20.420570 26.875138 18.333047 38.410589 -0.921033 1.073226 0.021187 -0.013229 -244162.000000 0 0 1
-20.914370 28.219738 18.426447 39.664826 -0.932999 1.087666 0.012019 -0.011105 314038.000000 0 0 1
-21.608970 28.500038 17.220547 39.695680 -0.922062 1.122075 0.004250 -0.016150 -205513.000000 0 0 1
-22.483370 29.770438 17.188247 41.075744 -0.923960 1.139056 0.000015 -0.016088 -500303.000000 0 0 1
-23.689570 29.588138 17.852447 41.897058 -0.895663 1.130616 -0.004551 -0.014577 -717006.000000 0 0 1
-24.507570 30.718038 17.795447 43.138113 -0.897384 1.145575 -0.008248 -0.002569 -596371.000000 0 0 1
-25.865790 30.469838 18.425147 44.010637 -0.866942 1.138836 -0.009403 -0.008226 -608268.000000 0 0 1
-26.816310 29.792438 17.624647 43.787350 -0.837923 1.156544 0.000163 -0.003484 643201.000000 0 0 1
-28.077400 29.525738 18.269847 44.653073 -0.810536 1.149273 -0.000567 -0.014463 711123.000000 0 0 1
-28.269070 28.309838 19.252347 44.398650 -0.786119 1.122285 0.004078 -0.015359 -614330.000000 0 0 1
-28.352090 27.033338 18.624547 43.376447 -0.761592 1.127001 -0.002081 -0.011927 76216.500000 0 0 1
-28.644190 26.008838 19.527947 43.339243 -0.737216 1.103377 -0.005841 0.000363 -54888.600000 0 0 1
-28.896240 24.580938 18.941047 42.402576 -0.704878 1.107728 0.003454 0.005218 1377690.000000 0 0 1
-30.110070 24.370538 18.143247 42.775190 -0.680435 1.132769 0.017153 0.005005 1266110.000000 0 0 1
-29.771480 23.613138 16.969247 41.615822 -0.670548 1.150797 0.008444 0.008712 -132653.000000 0 0 1
-30.006320 22.053938 17.174647 41.008827 -0.633816 1.138669 0.000080 0.010711 388462.000000 0 0 1
-31.387930 21.723438 17.231847 41.881338 -0.605401 1.146758 0.003444 0.017328 121567.000000 0 0 1
-31.559680 20.356038 17.072347 41.253445 -0.572853 1.144128 -0.006802 0.023656 372809.000000 0 0 1
-32.893540 19.933738 16.406447 41.815193 -0.544825 1.167605 -0.010631 0.009591 260459.000000 0 0 1
-32.807130 20.070938 15.001547 41.281918 -0.549041 1.198889 -0.013037 0.002263 582729.000000 0 0 1
-34.076788 19.822238 14.364547 41.958179 -0.526850 1.221375 0.007523 -0.000900 933461.000000 0 0 1
-34.076172 20.239338 12.857247 41.666835 -0.535955 1.257104 0.022118 0.001630 -29383.000000 0 0 1
-34.097920 21.625838 12.710347 42.330815 -0.565207 1.265829 0.008476 -0.007894 -155829.000000 0 0 1
-34.129137 22.206038 11.396047 42.282100 -0.576830 1.297897 -0.005376 -0.013845 63165.100000 0 0 1
-32.932380 21.945138 10.459247 40.933197 -0.587797 1.312411 0.009697 -0.016872 -582583.000000 0 0 1
-33.282940 20.827838 9.665047 40.434714 -0.559161 1.329431 0.018940 -0.009595 245889.000000 0 0 1
-32.198790 20.267938 8.943247 39.083667 -0.561802 1.339928 0.039438 -0.010160 21827.100000 0 0 1
-31.292190 19.323038 9.779047 38.055364 -0.553190 1.310912 0.033408 -0.013596 -146105.000000 0 0 1
-30.757300 19.910338 10.927147 38.233959 -0.574501 1.280958 0.032886 -0.006724 -67337.200000 0 0 1
-30.281680 18.833538 11.717247 37.536331 -0.556399 1.253333 0.016321 0.000326 -167150.000000 0 0 1
-29.937660 19.200938 13.168347 37.925517 -0.570280 1.216196 0.009008 0.012199 638158.000000 0 0 1
-28.722490 19.935038 13.379347 37.435199 -0.606726 1.205314 -0.001109 0.018019 414894.000000 0 0 1
-28.800900 21.336338 13.041647 38.142047 -0.637601 1.221834 -0.013686 0.031534 510051.000000 0 0 1
-27.562850 22.147538 13.563447 37.870717 -0.676889 1.204509 0.005367 0.011986 640786.000000 0 0 1
-27.569530 22.286138 14.982547 38.486720 -0.679818 1.170934 0.000885 0.026437 723521.000000 0 0 1
-26.288020 22.849438 15.351747 38.063538 -0.715533 1.155655 0.010721 0.005964 752690.000000 0 0 1
-25.948280 22.449238 16.803847 38.205377 -0.713226 1.115388 0.021767 0.005443 -280591.000000 0 0 1
-25.277430 21.216938 16.932447 37.091976 -0.698286 1.096740 0.040353 -0.000850 960.829000 0 0 1
-24.632870 21.030838 18.152447 37.129311 -0.706679 1.059970 0.042311 -0.000212 -147423.000000 0 0 1
-23.755570 19.759038 18.282247 35.902469 -0.693812 1.036518 0.037961 -0.013566 107431.000000 0 0 1
-23.099570 19.849438 19.517947 36.173755 -0.709868 1.000881 0.028682 -0.011144 -255730.000000 0 0 1
-22.221070 18.808038 19.796547 35.205419 -0.702404 0.973613 0.018609 -0.012553 -183101.000000 0 0 1
-21.691970 18.786738 21.268447 35.718762 -0.713749 0.932981 0.022384 -0.010715 224958.000000 0 0 1
-22.669270 18.301838 22.165647 36.608319 -0.679201 0.920426 0.031787 -0.000498 124945.000000 0 0 1
-22.385970 18.695838 23.483347 37.445075 -0.695815 0.892919 0.052778 -0.007175 -191420.000000 0 0 1
-23.114570 17.863638 24.504547 38.129591 -0.657953 0.872825 0.033369 -0.001700 -498196.000000 0 0 1
-22.678170 16.497538 24.429847 37.192548 -0.628921 0.854166 0.043248 -0.005072 601352.000000 0 0 1
-23.481170 15.725438 25.336647 37.955243 -0.590103 0.839896 0.038958 -0.003942 364477.000000 0 0 1
20.539830 24.817738 34.337953 47.083965 0.879435 0.753510 -0.000451 0.001887 -6838.110000 0 0 1
20.238630 23.900238 33.303449 45.715897 0.868165 0.754685 0.008639 -0.002423 -23017.600000 0 0 1
19.931430 22.611438 33.784730 45.276340 0.848310 0.728477 0.012405 0.002675 -111970.000000 0 0 1
19.113230 21.776738 32.765861 43.739496 0.850445 0.724073 0.023689 -0.002128 -107144.000000 0 0 1
19.826530 21.338138 31.629711 42.998210 0.822103 0.744237 0.015811 -0.001681 -21814.400000 0 0 1
19.103430 20.316638 30.972821 41.677601 0.816165 0.733027 0.043420 -0.011660 -194304.000000 0 0 1
19.776630 19.824538 29.678811 40.803912 0.786608 0.756341 0.050930 -0.002605 379421.000000 0 0 1
20.976130 19.068338 29.812481 41.138590 0.737792 0.760221 0.025417 0.001459 170964.000000 0 0 1
21.171830 18.302138 28.682731 40.073853 0.712827 0.773103 0.028069 -0.002901 -295150.000000 0 0 1
22.208730 17.180538 28.750381 40.186851 0.658431 0.773575 0.028479 0.009970 306713.000000 0 0 1
23.569830 17.606038 28.639381 41.057564 0.641561 0.798835 0.037300 0.010782 316351.000000 0 0 1
24.364930 16.881638 29.550611 41.855443 0.605922 0.786940 0.031297 0.020407 231654.000000 0 0 1
25.702830 17.595638 29.920211 43.190982 0.600302 0.805512 0.009339 0.012649 53548.000000 0 0 1
26.608030 17.622338 28.874211 43.037822 0.584969 0.835370 0.016553 0.019606 229842.000000 0 0 1
27.669930 18.589338 29.044751 44.212963 0.591565 0.854059 0.006275 0.020210 485295.000000 0 0 1
28.770830 18.594738 27.999031 44.243312 0.573773 0.885578 0.017655 0.026916 -513205.000000 0 0 1
28.377230 19.003738 26.734941 43.372414 0.590088 0.906628 0.015764 0.010615 -359540.000000 0 0 1
29.452630 18.963538 25.850461 43.535267 0.572051 0.935045 0.018131 0.009474 -576926.000000 0 0 1
29.845030 20.208238 25.040241 43.887497 0.595195 0.963615 0.013679 -0.006586 -432347.000000 0 0 1
28.917430 20.558138 24.069801 42.874353 0.618021 0.974716 0.022578 -0.009058 -115136.000000 0 0 1
29.370530 21.574438 23.167001 43.183265 0.633547 1.004535 0.018857 -0.014011 146480.000000 0 0 1
30.110330 21.152738 21.861001 42.801561 0.612407 1.034737 0.015850 -0.003485 -76766.800000 0 0 1
29.251230 20.522738 20.941001 41.416697 0.611801 1.040699 0.015987 -0.003451 -28177.400000 0 0 1
29.847030 19.791238 19.880801 40.960768 0.585522 1.064019 0.014944 0.003292 -168476.000000 0 0 1
30.571130 18.435238 20.206601 41.021442 0.542643 1.055737 0.005911 0.000554 -205590.000000 0 0 1
29.784530 17.372638 20.636301 40.184371 0.528033 1.031491 0.005799 0.000173 164172.000000 0 0 1
30.667530 16.214138 20.689201 40.391072 0.486349 1.033026 -0.011657 0.004610 674661.000000 0 0 1
30.045830 14.789838 21.163501 39.615464 0.457422 1.007208 -0.010881 0.006644 186377.000000 0 0 1
29.850830 14.670238 22.556101 40.187879 0.456786 0.974881 -0.011798 0.003768 387814.000000 0 0 1
28.656730 15.313038 23.003901 39.810511 0.490757 0.954723 -0.003545 0.005322 -191049.000000 0 0 1
28.125530 14.586738 24.217051 39.878364 0.478440 0.918173 -0.014485 0.001296 -19665.500000 0 0 1
27.604930 13.295238 23.902101 38.860082 0.448840 0.908308 -0.016639 0.008980 -20722.800000 0 0 1
26.959030 12.709938 24.995281 38.898533 0.440551 0.872940 -0.029536 0.009499 85300.000000 0 0 1
26.277730 11.314438 24.756711 37.834248 0.406580 0.857478 -0.027186 0.022408 -312547.000000 0 0 1
25.314030 11.288738 23.772601 36.515370 0.419479 0.861856 -0.033089 0.031750 -481339.000000 0 0 1
25.203230 10.052038 23.102701 35.636794 0.379505 0.865470 -0.031412 0.030372 -547828.000000 0 0 1
24.010230 9.809538 22.181101 34.127986 0.387861 0.863292 -0.033474 0.029896 199253.000000 0 0 1
22.762330 9.714638 22.890101 33.711342 0.403382 0.824393 -0.024928 0.024316 545725.000000 0 0 1
21.827030 8.959838 22.163101 32.371299 0.389519 0.816669 -0.033368 0.043125 -576473.000000 0 0 1
20.413330 8.997738 22.752301 31.864252 0.415158 0.775547 -0.007915 0.026304 -595538.000000 0 0 1
20.181630 8.418138 24.032601 32.491986 0.395176 0.738251 0.002272 0.021748 -229702.000000 0 0 1
18.805430 8.198338 24.146801 31.684774 0.411114 0.704254 0.018579 0.022405 -475178.000000 0 0 1
18.361630 7.534138 25.445281 32.270343 0.389371 0.662424 0.021803 0.009128 -486860.000000 0 0 1
18.617330 6.166238 25.456111 32.134733 0.319838 0.656443 0.022124 0.006404 71144.900000 0 0 1
18.207930 5.363238 26.541131 32.630119 0.286454 0.620834 0.021359 -0.001386 -692695.000000 0 0 1
18.425330 3.883538 26.293741 32.340925 0.207731 0.621480 0.031748 -0.001562 105804.000000 0 0 1
19.748430 3.392238 26.116841 32.918037 0.170112 0.654438 0.046878 0.004472 206042.000000 0 0 1
19.817630 2.012838 26.115551 32.845273 0.101221 0.651610 0.033386 0.004156 -77290.200000 0 0 1
21.312330 1.698738 25.900851 33.585044 0.079539 0.690069 0.029122 0.004571 -17572.500000 0 0 1
22.073230 2.249538 26.960721 34.916592 0.101562 0.688584 0.030674 -0.003195 609806.000000 0 0 1
23.461130 2.354538 26.608441 35.552463 0.100024 0.725108 0.031313 -0.001553 1225730.000000 0 0 1
24.370430 2.894738 27.782821 37.069968 0.118227 0.723535 0.015548 -0.003195 -432160.000000 0 0 1
24.498630 1.998738 28.921101 37.955341 0.081405 0.704436 0.012914 -0.006151 -42207.600000 0 0 1
25.143130 2.497738 30.051351 39.261933 0.099016 0.699123 0.015414 0.003274 296852.000000 0 0 1
26.652430 2.817638 29.873491 40.133734 0.105327 0.731237 0.022824 0.002150 -466885.000000 0 0 1
26.990730 3.956838 29.055601 39.854536 0.145563 0.753876 0.008351 0.014495 684382.000000 0 0 1
28.334030 3.931138 28.545011 40.411493 0.137863 0.786456 -0.006691 0.020998 785846.000000 0 0 1
28.821830 2.896538 27.504751 39.944951 0.100162 0.811286 -0.000792 0.017672 -450268.000000 0 0 1
28.374930 3.133538 26.180901 38.734936 0.109988 0.828613 0.002609 0.018948 -80732.500000 0 0 1
28.660530 1.951538 25.439131 38.371654 0.067987 0.846022 0.016525 0.016906 -363316.000000 0 0 1
28.244730 2.153738 23.943801 37.090551 0.076105 0.869053 0.013938 0.007375 -28677.200000 0 0 1
28.814730 3.260838 23.309201 37.205384 0.112686 0.893741 0.010108 0.017336 -844034.000000 0 0 1
30.199130 3.152138 23.157301 38.186176 0.104002 0.919231 -0.001907 0.014907 -637561.000000 0 0 1
30.863230 4.439638 22.648701 38.538461 0.142869 0.942594 -0.012878 0.019920 -277211.000000 0 0 1
30.350930 4.727738 21.349001 37.407356 0.154527 0.963418 -0.011074 0.009955 134117.000000 0 0 1
30.691230 5.999338 20.806401 37.561283 0.193040 0.983717 -0.001183 0.013520 -1425100.000000 0 0 1
32.095930 6.021738 20.247501 38.423578 0.185461 1.015782 -0.019581 0.008220 -742000.000000 0 0 1
33.117430 5.990738 21.237701 39.795641 0.178959 1.007863 -0.017339 0.009268 320184.000000 0 0 1
33.429130 7.233638 21.903201 40.615052 0.213102 1.001205 -0.003099 0.008101 -1139260.000000 0 0 1
34.253130 6.937538 23.116801 41.902182 0.199834 0.986413 -0.008359 0.009154 -827593.000000 0 0 1
33.599630 6.230338 24.118901 41.826710 0.183346 0.956188 -0.007529 0.020309 132036.000000 0 0 1
34.320630 6.087838 25.360211 43.105774 0.175555 0.941810 0.005501 0.019909 180674.000000 0 0 1
33.492030 5.255338 26.402381 42.969994 0.155644 0.909123 0.006247 0.023995 312344.000000 0 0 1
33.360930 3.937338 25.948211 42.447190 0.117479 0.913087 0.009309 0.016713 143608.000000 0 0 1
32.654930 3.102838 26.871381 42.403339 0.094735 0.884458 0.009164 0.017964 102267.000000 0 0 1
32.792730 1.611938 26.462161 42.168797 0.049116 0.892420 0.007230 0.019038 -170274.000000 0 0 1
32.040630 1.198038 25.361431 40.880796 0.037374 0.901575 0.022945 0.005532 -278762.000000 0 0 1
32.259530 -0.118962 25.161751 40.912164 -0.003688 0.908386 0.026201 0.004448 -337431.000000 0 0 1
31.241530 -0.793962 24.212511 39.533647 -0.025408 0.911636 0.028257 0.006526 133930.000000 0 0 1
29.967230 -0.986262 24.812261 38.918580 -0.032899 0.879492 0.024451 0.011581 -37837.900000 0 0 1
29.246430 -1.825362 23.925701 37.830210 -0.062332 0.886085 0.026267 0.002930 529084.000000 0 0 1
27.702130 -1.935562 24.115801 36.779427 -0.069757 0.855704 0.035146 0.003344 628125.000000 0 0 1
27.004930 -0.823862 23.581101 35.861028 -0.030498 0.853209 0.028105 0.006966 665466.000000 0 0 1
25.589230 -0.970162 23.780001 34.946221 -0.037895 0.822387 0.035456 0.007265 710818.000000 0 0 1
24.842530 0.353938 23.747901 34.369163 0.014246 0.807973 0.033839 0.009021 -292013.000000 0 0 1
24.920330 1.064338 22.534601 33.614936 0.042684 0.836083 0.008223 0.012694 -149328.000000 0 0 1
24.116730 2.201538 22.560301 33.097290 0.091034 0.820800 -0.005381 0.015750 -187762.000000 0 0 1
24.218130 3.178838 21.356601 32.445758 0.130512 0.852338 -0.020893 0.014668 -304541.000000 0 0 1
23.873330 2.573538 20.139201 31.339215 0.107385 0.872884 -0.000794 0.013501 308922.000000 0 0 1
23.794230 3.640238 19.198001 30.789283 0.151811 0.897548 -0.010323 0.016940 -114539.000000 0 0 1
23.467330 3.280038 17.738201 29.599291 0.138871 0.928198 -0.016652 0.017727 -304998.000000 0 0 1
24.596530 2.976838 16.945401 30.016620 0.120441 0.970928 -0.031499 0.016124 237698.000000 0 0 1
24.351430 3.273738 15.576401 29.091816 0.133636 1.005789 -0.023049 0.012595 -318205.000000 0 0 1
23.864730 2.130438 14.622401 28.069177 0.089035 1.022843 -0.025206 0.022424 564743.000000 0 0 1
22.489930 1.772638 14.791501 26.976429 0.078657 0.990452 0.004113 0.016505 814792.000000 0 0 1
22.033330 0.697238 14.022301 26.126207 0.031634 1.004259 0.009543 0.015371 -1000680.000000 0 0 1
20.556830 0.316538 14.176001 24.972834 0.015397 0.967139 0.027489 -0.004798 -268480.000000 0 1 0
19.559830 1.166138 13.637101 23.872942 0.059549 0.962785 0.028530 -0.005091 529478.000000 0 1 0
19.561430 1.177638 12.200401 23.084327 0.060129 1.013947 0.029825 0.005933 -1162250.000000 0 1 0
19.056330 -0.077962 11.397401 22.204741 -0.004091 1.031786 0.014042 0.009358 -234976.000000 0 1 0
19.923930 -1.188062 11.390201 22.980669 -0.059559 1.052222 0.007058 0.001687 633342.000000 0 1 0
21.087030 -1.038662 10.582501 23.616329 -0.049216 1.106156 0.001929 0.001467 991329.000000 0 1 0
22.332730 -1.961862 10.957301 24.953200 -0.087622 1.116184 0.013146 0.002858 935142.000000 0 1 0
22.805130 -1.754062 12.279101 25.960104 -0.076764 1.078105 0.009035 -0.001001 334729.000000 0 0 1
23.698530 -2.789062 12.668001 27.016244 -0.117150 1.082748 -0.002911 0.003076 114723.000000 0 0 1
24.077630 -2.803262 14.160601 28.073353 -0.115904 1.042093 0.006365 0.013367 -63671.100000 0 0 1
24.839930 -1.660062 14.530401 28.825518 -0.066731 1.042479 -0.002417 0.013697 140604.000000 0 0 1
24.876930 -1.512162 15.965601 29.598120 -0.060711 1.001057 -0.011012 0.008266 55179.000000 0 0 1
26.009030 -0.582962 16.478901 30.795514 -0.022410 1.006162 0.014986 0.017114 630020.000000 0 0 1
27.324930 -0.956462 16.088301 31.723809 -0.034989 1.038937 0.008829 0.019872 -167090.000000 0 0 1
28.303730 -0.123462 16.620201 32.822971 -0.004362 1.039839 -0.007729 0.020966 144077.000000 0 0 1
29.638230 -0.952762 16.641701 34.004097 -0.032135 1.059392 0.009885 0.025384 245222.000000 0 0 1
30.174530 -1.243162 15.338501 33.872073 -0.041176 1.100853 0.018094 0.032607 333900.000000 0 0 1
31.558630 -1.523962 15.423701 35.159069 -0.048252 1.116663 0.020277 0.025151 90439.400000 0 0 1
32.108330 -2.159262 14.105301 35.136403 -0.067148 1.157703 0.022391 0.025032 -57594.700000 0 0 1
32.124830 -1.282062 13.006201 34.681546 -0.039888 1.186380 0.022438 0.021540 144382.000000 0 0 1
32.197130 -1.986762 11.794901 34.347083 -0.061628 1.220258 0.024990 0.012995 -189995.000000 0 0 1
31.621230 -1.119962 10.658201 33.387928 -0.035403 1.245887 0.018257 0.017281 -263109.000000 0 0 1
32.303030 0.088438 10.400201 33.936083 0.002738 1.259320 0.029328 0.021830 536672.000000 0 0 1
31.433230 1.013738 9.743901 32.924447 0.032239 1.270349 0.008592 0.019354 87841.800000 0 0 1
32.102930 2.351038 9.341201 33.516914 0.073104 1.288355 0.004049 0.015374 280586.000000 0 0 1
32.805030 2.240838 8.082101 33.860179 0.068202 1.329779 0.015317 0.012223 486034.000000 0 0 1
33.226230 3.508538 7.571801 34.258202 0.105206 1.347935 0.010031 0.010916 74816.600000 0 0 1
34.092930 3.510738 6.282401 34.844250 0.102614 1.389505 0.013514 0.014496 -77075.100000 0 0 1
34.381930 4.832838 5.918001 35.220678 0.139648 1.401969 0.008983 0.011260 102970.000000 0 0 1
34.965030 4.883038 4.647801 35.608980 0.138757 1.439900 0.003093 0.010730 -443047.000000 0 0 1
-34.658106 6.339338 4.321901 35.497188 -0.180911 1.448740 -0.003940 0.001766 -76895.600000 0 0 1
34.315430 7.178938 3.851601 35.269260 0.206230 1.461372 0.012784 0.001686 -87715.200000 0 0 1
34.792730 8.483738 3.562801 35.988907 0.239169 1.471637 0.007077 -0.000658 -965720.000000 0 0 1
33.669430 9.490038 3.439401 35.149976 0.274732 1.472790 0.036561 -0.005195 388026.000000 0 0 1
32.652530 9.280638 2.440601 34.033432 0.276921 1.499023 0.041494 -0.010653 662993.000000 0 0 1
31.744430 8.220138 2.652901 32.898593 0.253382 1.490070 0.050731 -0.001400 -965786.000000 0 0 1
30.453630 8.280038 1.834301 31.612454 0.265473 1.512739 0.048719 -0.009573 -303349.000000 0 0 1
30.558030 8.036438 0.421101 31.599919 0.257166 1.557470 0.038136 -0.011770 -67029.300000 0 0 1
29.324030 7.775438 -0.192699 30.337985 0.259191 1.577148 0.037797 -0.014095 -186666.000000 0 0 1
29.610330 7.624238 -1.710099 30.623930 0.252012 1.626667 0.021122 -0.004392 110377.000000 0 0 1
28.501730 7.268638 -2.518199 29.521569 0.249702 1.656200 0.004924 0.000112 372869.000000 0 0 1
28.908230 7.178838 -3.882199 30.038192 0.243408 1.700401 0.017326 -0.002351 30146.600000 0 0 1
27.956130 6.399738 -4.861099 29.088351 0.225043 1.738699 0.008338 0.001248 -182113.000000 0 0 1
28.022530 4.996938 -4.718699 28.853036 0.176464 1.735077 0.013977 -0.003627 761840.000000 0 0 1
27.071830 4.432138 -5.629399 28.003892 0.162278 1.773197 0.000651 -0.000065 -115184.000000 0 0 1
26.897530 2.918538 -5.708299 27.651034 0.108083 1.778732 0.002392 0.007002 -614813.000000 0 0 1
26.198330 2.302438 -4.635299 26.704676 0.087660 1.745256 -0.000072 0.003982 358234.000000 0 0 1
26.169230 0.931338 -4.742599 26.611806 0.035574 1.749968 -0.005252 0.005144 -226685.000000 0 0 1
25.987930 0.337838 -3.264899 26.194393 0.012999 1.695762 -0.006663 -0.003708 447903.000000 0 0 1
27.111830 0.574338 -2.397599 27.223697 0.021181 1.658981 0.010853 -0.006080 868089.000000 0 0 1
26.920530 -0.050462 -1.111699 26.943522 -0.001874 1.612068 0.012595 -0.002982 -350239.000000 0 0 1
28.082630 0.292138 -0.193199 28.084814 0.010402 1.577676 0.016568 0.001441 -1798530.000000 0 0 1
29.289630 -0.218762 -0.469999 29.294218 -0.007469 1.586841 0.021439 -0.001734 -1460710.000000 0 0 1
30.275030 0.264038 0.430601 30.279243 0.008721 1.556575 0.018833 0.002462 130237.000000 0 0 1
-2.707270 -21.576862 -8.348153 23.293388 1.445978 1.937341 -0.007931 0.018847 120090.000000 0 1 0
-3.084770 -22.106962 -7.067153 23.413206 1.432153 1.877423 -0.008384 0.014232 -574345.000000 0 1 0
-2.277370 -23.129162 -6.596953 24.159146 1.472650 1.847371 -0.002590 0.004502 -315754.000000 0 1 0
-2.794670 -23.751162 -5.303353 24.495988 1.453670 1.789023 -0.006084 0.009054 -184507.000000 0 1 0
-2.508770 -22.918162 -4.155753 23.426616 1.461764 1.749135 -0.009230 0.003762 -184496.000000 0 1 0
-3.129870 -23.375062 -2.980053 23.771208 1.437690 1.696491 -0.003141 -0.002438 -144536.000000 0 1 0
-2.586570 -22.761862 -1.729053 22.973514 1.457646 1.646130 -0.001033 -0.015440 415673.000000 0 1 0
-1.213270 -22.957662 -1.413053 23.033085 1.517997 1.632184 0.006605 -0.003536 -113721.000000 0 1 0
-1.045570 -22.533262 -0.079253 22.557646 1.524428 1.574310 0.007689 -0.010932 604215.000000 0 1 0
0.470030 -22.360962 0.246647 22.367261 -1.549779 1.559769 0.014185 -0.017009 648520.000000 0 1 0
1.109330 -21.311062 -0.454453 21.344754 -1.518789 1.592089 0.006287 -0.012881 669563.000000 0 1 0
2.414130 -20.987962 0.074747 21.126480 -1.456275 1.567258 0.009666 -0.011901 915318.000000 0 1 0
3.054630 -19.903062 -0.786353 20.151451 -1.418509 1.609828 0.014694 -0.017546 399705.000000 0 1 0
3.664230 -20.359262 -2.019153 20.784685 -1.392724 1.668096 0.012146 -0.009837 522750.000000 0 1 0
4.743130 -19.494662 -2.439253 20.211113 -1.332130 1.691780 0.024541 -0.005762 555815.000000 0 1 0
5.612830 -20.198762 -3.520753 21.257694 -1.299755 1.737186 0.021873 -0.001663 -729041.000000 0 1 0
6.445830 -21.281662 -3.118553 22.454025 -1.276698 1.710133 0.030778 -0.002427 116649.000000 0 1 0
7.237430 -21.931362 -4.099153 23.455662 -1.252045 1.746460 0.023833 -0.007445 595407.000000 0 1 0
8.392530 -21.059662 -4.684653 23.149296 -1.191573 1.774571 0.027502 -0.006262 -191843.000000 0 1 0
7.981530 -20.123562 -5.670953 22.379059 -1.193202 1.826994 0.012924 0.003636 440131.000000 0 1 0
9.173330 -19.654862 -6.306353 22.588353 -1.134125 1.853743 0.025336 0.010837 328511.000000 0 1 0
8.908130 -18.349362 -7.165753 21.619479 -1.118837 1.908635 0.023625 0.008740 290710.000000 0 1 0
9.927630 -17.859562 -8.060253 21.965643 -1.063456 1.946523 0.031440 0.007462 669180.000000 0 1 0
9.555930 -16.602962 -8.648253 21.018240 -1.048544 1.994856 0.022013 0.005394 -271376.000000 0 1 0
10.071930 -16.446162 -10.009153 21.727935 -1.021296 2.049533 0.021649 0.002715 -546298.000000 0 1 0
9.496130 -17.268762 -11.016053 22.577423 -1.068028 2.080505 0.021243 0.008768 82983.800000 0 1 0
8.533730 -16.582662 -11.801853 22.070182 -1.095523 2.134999 0.001471 0.010625 236719.000000 0 1 0
7.970030 -17.386362 -13.035353 23.145785 -1.140973 2.169031 0.001273 0.011566 762026.000000 0 1 0
6.935130 -18.326962 -12.655753 23.326844 -1.209038 2.144255 -0.005545 0.018531 475935.000000 0 1 0
6.559630 -19.135362 -13.725253 24.445314 -1.240549 2.166955 -0.011190 0.022114 -84949.800000 0 1 0
5.329730 -19.988762 -13.400453 24.648099 -1.310222 2.145601 -0.013203 0.026492 -238165.000000 0 1 0
5.661230 -20.965662 -12.417353 25.015978 -1.307062 2.090216 -0.004473 0.010173 73861.000000 0 0 1
4.566130 -21.816162 -12.082853 25.353300 -1.364474 2.067556 -0.000592 0.024430 258171.000000 0 0 1
4.838230 -23.303562 -12.219353 26.754010 -1.366087 2.045112 -0.010600 0.024360 -209858.000000 0 0 1
5.152830 -23.707562 -13.578153 27.802273 -1.356775 2.081032 -0.003891 0.013963 -70450.900000 0 0 1
4.825830 -25.072782 -13.731953 28.991370 -1.380649 2.064234 -0.006586 0.007811 407279.000000 0 0 1
3.339430 -25.362632 -14.086253 29.203380 -1.439882 2.074132 0.002973 0.001905 -96469.900000 0 0 1
2.405730 -24.925662 -13.110353 28.265836 -1.474578 2.053102 0.013271 0.000416 31373.700000 0 0 1
1.085330 -25.277292 -13.526753 28.689588 -1.527886 2.061772 0.011410 -0.012611 438592.000000 0 0 1
0.558030 -26.634602 -12.996453 29.641545 -1.549848 2.024674 0.004094 -0.006457 -601078.000000 0 0 1
1.063230 -27.721112 -13.805253 30.986699 -1.532461 2.032553 0.006549 -0.001329 147441.000000 0 0 1
0.599530 -28.977192 -13.373253 31.919915 -1.550110 2.003099 -0.004440 0.006471 -662070.000000 0 0 1
-0.832170 -29.381782 -13.698253 32.428749 1.542481 2.006900 -0.014134 0.003774 -655151.000000 0 0 1
-1.800870 -28.773152 -12.897053 31.582770 1.508289 1.991450 -0.015062 -0.003947 100451.000000 0 0 1
-3.113770 -29.127432 -13.333953 32.185356 1.464299 1.997955 -0.012257 0.003026 433656.000000 0 0 1
-4.290470 -28.296812 -12.763653 31.337334 1.420319 1.990291 -0.026060 0.003607 186485.000000 0 0 1
-4.660570 -28.317922 -11.405453 30.882195 1.407678 1.949075 -0.024021 -0.009079 -104832.000000 0 0 1
-5.013570 -29.567542 -10.905753 31.910983 1.402831 1.919581 -0.032232 -0.002719 -642266.000000 0 0 1
-5.377670 -29.589342 -9.394053 31.507090 1.391015 1.873557 -0.018964 -0.004852 -840088.000000 0 0 1
-6.645970 -29.133752 -9.088853 31.233822 1.346515 1.866062 -0.002571 -0.010251 -1015830.000000 0 0 1
-6.826970 -27.730162 -8.919153 29.918568 1.329404 1.873513 0.003123 -0.010839 -628394.000000 0 0 1
-8.283270 -27.328602 -8.583453 29.818463 1.276499 1.862785 0.007329 -0.014149 511409.000000 0 0 1
-9.311670 -27.602032 -9.530153 30.649685 1.245431 1.886976 0.023870 -0.008506 115184.000000 0 0 1
-9.646470 -28.964922 -9.710453 32.036136 1.249310 1.878750 0.026153 -0.017389 -530278.000000 0 0 1
-10.823270 -29.341152 -10.662853 33.041531 1.217405 1.899388 0.029630 -0.012362 -320905.000000 0 0 1
-10.782470 -28.774942 -11.922453 32.960640 1.212273 1.940906 0.033603 -0.018645 -192433.000000 0 0 1
-11.282870 -29.685802 -12.851553 34.259486 1.207583 1.955327 0.040740 -0.011774 -382336.000000 0 0 1
-11.568470 -29.022112 -14.223853 34.328275 1.191490 1.998023 0.051166 -0.015001 449128.000000 0 0 1
-12.658070 -28.099892 -14.378153 34.008263 1.147554 2.007312 0.041329 -0.032702 504111.000000 0 0 1
-12.445870 -26.913562 -13.618253 32.629684 1.137647 2.001332 0.045984 -0.016974 -113716.000000 0 0 1
-13.473070 -25.784582 -13.905653 32.244929 1.089292 2.016675 0.077290 -0.018267 25966.100000 0 0 1
-13.131570 -25.035172 -15.046153 32.024751 1.087722 2.059893 0.061470 -0.014193 -18467.600000 0 0 1
-14.080870 -24.031962 -15.248153 31.753933 1.040792 2.071676 0.076598 -0.013441 -412696.000000 0 0 1
-13.864470 -23.289662 -16.617953 31.792896 1.033836 2.120804 0.068172 -0.020752 -287169.000000 0 0 1
-12.899870 -22.279962 -16.593753 30.629332 1.045969 2.143326 0.046181 -0.015803 24431.600000 0 0 1
-12.762870 -21.591862 -17.798153 30.755058 1.036949 2.187938 0.025660 -0.007215 -414575.000000 0 0 1
-12.921270 -20.052762 -17.827453 29.780708 0.998394 2.212579 0.016926 0.005057 -245653.000000 0 0 1
-11.804670 -19.252462 -17.522253 28.583857 1.020763 2.230664 0.022707 -0.000210 -104073.000000 0 0 1
-12.100870 -17.892562 -17.635953 27.885510 0.976149 2.255497 0.020422 0.009468 -126861.000000 0 0 1
-10.834770 -17.059962 -17.857253 26.968797 1.004968 2.294474 0.024140 -0.002689 -99073.000000 0 0 1
-10.063970 -16.714062 -16.728553 25.699958 1.028815 2.279589 0.021191 0.014114 -337164.000000 0 0 1
-9.066470 -15.802262 -17.065453 24.962813 1.049906 2.323528 0.034375 0.004129 -649155.000000 0 1 0
-8.475770 -15.115862 -15.786953 23.442607 1.059760 2.309635 0.034583 0.007702 133461.000000 0 1 0
-7.878270 -15.874162 -14.780453 23.076350 1.110117 2.265948 0.021855 0.007882 492014.000000 0 1 0
-6.715570 -16.654462 -15.102353 23.463824 1.187509 2.270047 0.020373 0.006857 2025.560000 0 1 0
-6.178570 -17.458762 -13.905053 23.158877 1.230656 2.214823 0.012255 0.011224 -686937.000000 0 1 0
-5.637870 -16.595262 -12.921053 21.774800 1.243302 2.206066 0.005370 0.005224 101791.000000 0 1 0
-5.511570 -17.297562 -11.696953 21.596337 1.262334 2.143156 0.002793 -0.005225 160258.000000 0 1 0
-4.437570 -18.445462 -11.559953 22.216201 1.334705 2.118044 0.004180 -0.003345 143328.000000 0 1 0
-3.131770 -17.966362 -11.853953 21.751192 1.398217 2.147161 0.008882 0.000726 -995004.000000 0 1 0
-2.326670 -19.075762 -11.718053 22.508017 1.449426 2.118370 0.006913 0.007623 231747.000000 0 1 0
-0.844570 -18.828262 -12.146153 22.421993 1.525970 2.143263 0.003785 0.022819 -974521.000000 0 1 0
-0.734870 -18.400262 -13.507353 22.837650 1.530880 2.203654 0.009284 0.013603 -688375.000000 0 1 0
0.540130 -17.953062 -13.869653 22.692982 -1.540720 2.228356 0.008093 0.016867 -12599.300000 0 1 0
1.628230 -19.054862 -13.754153 23.556647 -1.485554 2.194291 -0.004474 0.013539 -1430470.000000 0 1 0
1.797130 -19.939362 -14.866153 24.936125 -1.480909 2.209518 0.012669 0.021356 4518.510000 0 1 0
1.075130 -21.151862 -14.698853 25.780098 -1.520011 2.177500 0.010014 0.015770 -1109190.000000 0 0 1
1.273830 -22.159762 -15.866753 27.284273 -1.513376 2.191410 0.025725 0.007510 -196815.000000 0 0 1
2.541930 -22.755662 -15.964553 27.913232 -1.459552 2.179659 0.012702 0.008118 -350654.000000 0 0 1
3.545530 -21.805062 -16.288953 27.447431 -1.409606 2.206147 0.005585 0.004751 -1717450.000000 0 0 1
4.837630 -22.502662 -16.648053 28.406515 -1.359039 2.196990 0.009009 0.016382 -607436.000000 0 0 1
4.672730 -23.118362 -17.876653 29.595063 -1.371361 2.219359 0.007653 0.011097 139705.000000 0 0 1
5.851230 -23.775362 -18.293653 30.564071 -1.329487 2.212467 0.008348 0.011702 167238.000000 0 0 1
6.140630 -23.728262 -19.832153 31.528591 -1.317562 2.251090 0.005695 0.014878 -171317.000000 0 0 1
6.301430 -22.423362 -20.384953 30.952568 -1.296841 2.289736 0.012304 0.008614 141308.000000 0 0 1
6.581030 -22.361962 -21.771253 31.895999 -1.284581 2.322070 0.013312 0.005892 179197.000000 0 0 1
7.118630 -21.004262 -22.267953 31.427943 -1.244032 2.358223 0.003029 -0.000701 -164569.000000 0 0 1
6.055030 -20.110362 -22.435553 30.731809 -1.278340 2.389182 0.027513 0.003002 -462595.000000 0 0 1
6.312330 -18.983562 -23.250353 30.672464 -1.249782 2.431069 0.040067 -0.006817 98869.200000 0 0 1
5.133730 -17.997262 -23.541453 30.074185 -1.292925 2.469916 0.033519 -0.002483 -373259.000000 0 0 1
4.165630 -18.473662 -24.422653 30.904605 -1.349015 2.482028 0.033232 -0.000636 -444511.000000 0 0 1
3.345430 -17.460862 -24.936653 30.625320 -1.381495 2.522232 0.028876 -0.001371 887613.000000 0 0 1
2.020630 -17.205762 -24.110653 29.689135 -1.453893 2.518544 0.034249 -0.000508 440059.000000 0 0 1
2.295430 -16.408862 -22.965653 28.318562 -1.431809 2.516613 0.035058 -0.002487 792493.000000 0 0 1
1.113830 -16.115562 -22.168153 27.429527 -1.501791 2.511861 0.028822 -0.000005 1170700.000000 0 0 1
1.550530 -15.463562 -20.850453 26.005139 -1.470860 2.501067 0.029810 0.003866 158756.000000 0 0 1
1.629730 -14.015262 -20.897453 25.214819 -1.455034 2.547714 0.021771 0.001916 -101492.000000 0 0 1
2.040430 -13.453562 -19.634653 23.888936 -1.420279 2.535560 0.019169 0.003290 179267.000000 0 1 0
3.215430 -12.459562 -19.683253 23.516167 -1.318238 2.562591 0.014062 0.001490 180452.000000 0 1 0
4.488530 -13.024362 -19.404853 23.797672 -1.238917 2.524233 0.010341 -0.003081 505876.000000 0 1 0
5.619430 -12.153762 -19.517653 23.669193 -1.137710 2.540294 0.014451 -0.004552 790948.000000 0 1 0
5.857130 -11.049162 -18.424353 22.267616 -1.083362 2.545269 0.011598 -0.005676 -823039.000000 0 1 0
4.921930 -10.009962 -18.443753 21.554506 -1.113808 2.597659 0.005930 0.004238 -297836.000000 0 1 0
5.161930 -8.897762 -19.309953 21.878984 -1.045109 2.652118 0.014388 -0.005908 -53326.900000 0 1 0
4.562330 -8.920762 -20.792253 23.080568 -1.098048 2.692532 0.018361 -0.011559 434490.000000 0 1 0
3.156130 -9.064562 -20.868053 22.969612 -1.235741 2.710493 0.026496 -0.015112 -134636.000000 0 1 0
2.694730 -9.226762 -22.181053 24.174238 -1.286644 2.732669 0.023277 -0.015454 50091.300000 0 1 0
1.155730 -9.120562 -22.175053 24.005277 -1.444751 2.748575 0.026992 -0.017625 -26673.800000 0 1 0
0.702830 -7.817662 -21.846453 23.213731 -1.481135 2.796667 0.019844 -0.013859 463369.000000 0 1 0
-0.708370 -7.608562 -21.950053 23.242134 1.477962 2.806585 0.023200 -0.011175 695930.000000 0 1 0
-1.131870 -6.639362 -23.045253 24.009288 1.401941 2.857254 0.024508 -0.008385 -172805.000000 0 1 0
-0.672470 -7.039162 -24.336953 25.343427 1.475553 2.858824 0.025306 -0.013385 263179.000000 0 0 1
-1.388270 -6.521162 -25.483023 26.340791 1.361041 2.885692 0.014350 -0.006145 279270.000000 0 0 1
-0.780570 -5.141362 -25.893523 26.410555 1.420125 2.943396 0.021647 -0.005098 270278.000000 0 0 1
-1.369070 -4.532462 -27.038733 27.450148 1.277452 2.968241 0.009778 0.000800 144009.000000 0 0 1
-0.771470 -3.260262 -27.309733 27.514468 1.338442 3.019525 -0.002742 0.000888 -59556.300000 0 0 1
-1.377270 -2.062562 -26.449983 26.566005 0.982046 3.048099 0.010412 -0.005696 692071.000000 0 0 1
-2.792170 -1.938362 -26.492853 26.710011 0.606832 3.013990 -0.003515 0.002800 257469.000000 0 0 1
-3.377370 -1.315562 -27.614753 27.851605 0.371442 3.011085 0.013765 0.001098 467934.000000 0 0 1
-4.934170 -1.326462 -27.435713 27.907416 0.262623 2.957472 0.007858 0.008040 491210.000000 0 0 1
-5.360870 -0.446562 -26.457173 26.998524 0.083108 2.941001 0.018450 0.006096 -423612.000000 0 0 1
-6.685570 -0.636162 -26.040283 26.892338 0.094869 2.889193 0.012709 -0.001064 -223846.000000 0 0 1
-7.364970 0.632038 -25.446193 26.498131 -0.085607 2.858877 0.008143 -0.001374 -540720.000000 0 0 1
-7.539570 1.756938 -26.338423 27.452585 -0.228943 2.855717 0.015562 -0.000516 632498.000000 0 0 1
-8.466070 1.708238 -27.452323 28.778854 -0.199101 2.836789 0.016626 0.005187 753136.000000 0 0 1
-9.975370 1.541138 -27.118423 28.935998 -0.153282 2.785271 0.007603 -0.008657 -92680.600000 0 0 1
-10.840870 2.165138 -28.048793 30.148749 -0.197126 2.766154 0.014684 -0.009105 588192.000000 0 0 1
-12.150170 1.592038 -27.917673 30.488648 -0.130288 2.727979 -0.005734 -0.007291 252731.000000 0 0 1
-13.076770 2.331138 -28.907493 31.813193 -0.176412 2.710869 -0.009703 0.000336 313676.000000 0 0 1
-14.417670 1.823438 -28.788453 32.248552 -0.125805 2.674109 -0.008174 0.000792 1332400.000000 0 0 1
-15.486270 2.502138 -29.458873 33.375297 -0.160187 2.652278 -0.008989 0.003171 724835.000000 0 0 1
-16.018670 3.811238 -28.744533 33.126598 -0.233582 2.621388 -0.015143 0.009147 -209833.000000 0 0 1
-15.197370 5.019938 -28.768243 32.920687 -0.319033 2.633893 -0.005565 0.008366 424600.000000 0 0 1
-15.178870 5.670938 -30.067353 34.155575 -0.357549 2.647303 -0.007292 0.004539 644212.000000 0 0 1
-16.524670 6.140738 -30.791943 35.481222 -0.355796 2.621630 -0.010367 0.009426 993046.000000 0 0 1
-17.089270 7.264238 -30.104783 35.371037 -0.401935 2.588900 -0.010426 0.009041 372159.000000 0 0 1
-18.056670 7.966738 -30.877603 36.646126 -0.415518 2.572868 -0.009400 -0.000162 84392.200000 0 0 1
-18.821370 8.983138 -29.992583 36.530751 -0.445310 2.533997 0.005106 0.003373 352488.000000 0 0 1
-17.843870 9.964238 -29.577123 35.951299 -0.509279 2.536940 0.007897 0.005681 1161670.000000 0 0 1
-18.421170 10.860338 -28.656343 35.755733 -0.532706 2.500508 0.019251 0.003938 -138155.000000 0 0 1
-8.156170 25.380238 31.188421 41.029223 -1.259861 0.707250 -0.030080 0.012517 58.670100 0 0 1
-9.109070 26.456938 31.025001 41.779126 -1.239210 0.733859 -0.021059 0.009135 409041.000000 0 0 1
-8.891970 27.495438 31.986691 43.107014 -1.258014 0.734703 -0.001890 0.004620 240247.000000 0 0 1
-7.605670 28.383338 31.955941 43.412466 -1.308985 0.743505 0.000981 0.001640 268082.000000 0 0 1
-7.488970 29.196438 30.832371 43.117882 -1.319707 0.774070 0.025274 -0.007286 -99120.500000 0 0 1
-6.149970 29.442238 30.480811 42.822276 -1.364875 0.778742 0.020373 -0.001074 -183686.000000 0 0 1
-5.938270 30.493638 29.377781 42.757210 -1.378465 0.813329 0.045156 -0.009698 -265445.000000 0 0 1
-6.127470 31.793038 29.915381 44.082572 -1.380401 0.824912 0.048804 -0.014362 241249.000000 0 0 1
-5.816070 32.793138 28.995121 44.158052 -1.395265 0.854466 0.055879 -0.018185 -166506.000000 0 0 1
-5.857470 34.108638 29.684881 45.594970 -1.400725 0.861821 0.064062 -0.020438 -29798.600000 0 0 1
-4.985070 34.147438 30.812651 46.263570 -1.425834 0.841930 0.046023 -0.027626 -164301.000000 0 0 1
-5.280570 -34.236270 31.857481 47.062785 1.417763 0.827234 0.044681 -0.025395 59140.500000 0 0 1
-6.576270 -34.429470 32.719131 47.949737 1.382063 0.819806 0.041585 -0.012147 389008.000000 0 0 1
-6.655970 33.857938 33.611862 48.170729 -1.376686 0.798523 0.034525 -0.005294 -225894.000000 0 0 1
-6.708370 32.526938 33.123411 46.905909 -1.367408 0.786726 0.041844 -0.006941 -285732.000000 0 0 1
-6.612370 31.436138 34.226211 46.940257 -1.363476 0.753726 0.026473 0.002164 -716473.000000 0 0 1
-5.346970 31.464538 -34.461429 46.970175 -1.402468 2.394529 0.014980 0.001586 -588373.000000 0 0 1
-5.329270 30.848638 -33.195943 45.629050 -1.399729 2.385493 0.004882 0.007050 -247675.000000 0 0 1
-3.934370 30.619038 -32.561083 44.869019 -1.443002 2.382836 -0.017500 0.014051 419874.000000 0 0 1
-3.200970 29.418538 -32.721243 44.117755 -1.462415 2.406367 -0.020610 0.020889 197001.000000 0 0 1
-2.898070 29.045238 -34.069878 44.864030 -1.471348 2.433191 -0.012136 0.021259 -544679.000000 0 0 1
-2.296170 27.642838 -34.015093 43.891063 -1.487921 2.457494 -0.010048 0.012833 -390551.000000 0 0 1
-1.025870 27.446738 -33.382143 43.228963 -1.533437 2.453120 0.009778 0.022978 764088.000000 0 0 1
-0.538670 26.084638 -33.538473 42.491501 -1.550148 2.480462 0.004596 0.022863 255716.000000 0 0 1
-0.132470 25.657738 34.285516 42.823284 -1.565633 0.642454 -0.001854 0.019780 -1033670.000000 0 0 1
-1.224370 25.729338 33.435513 42.207007 -1.523246 0.656425 0.000530 0.019348 -362746.000000 0 0 1
-0.805370 25.476838 32.094231 40.984845 -1.539195 0.671201 0.007337 0.016178 -381857.000000 0 0 1
-0.548570 26.744638 31.158701 41.066303 -1.550288 0.709418 0.001125 0.008664 565200.000000 0 0 1
-1.701770 27.531838 30.790491 41.339478 -1.509064 0.730531 -0.000891 -0.000919 606374.000000 0 0 1
-1.198870 28.692638 30.245291 41.707102 -1.529037 0.759496 0.003610 -0.009653 120764.000000 0 0 1
-2.107570 29.933038 30.444921 42.747185 -1.500503 0.778157 0.011312 -0.011112 -103905.000000 0 0 1
-2.024070 30.549838 31.730301 44.093100 -1.504638 0.767541 0.018185 -0.011444 -111749.000000 0 0 1
-2.808370 31.717338 31.788261 44.992999 -1.482483 0.786234 0.024235 -0.008120 -115816.000000 0 0 1
-2.462870 32.603838 32.980891 46.441524 -1.495400 0.781072 0.023741 0.002016 767912.000000 0 0 1
-1.186270 33.235638 32.841491 46.739473 -1.535119 0.791681 0.004701 -0.011847 -112701.000000 0 0 1
-0.446970 33.325838 33.997951 47.609578 -1.557385 0.775460 -0.021618 0.000248 -498476.000000 0 0 1
0.906430 33.991038 33.690000 47.866777 1.544136 0.790024 -0.010011 -0.007419 -247682.000000 0 0 1
0.776930 -34.020670 33.159521 47.513824 -1.547963 0.798346 0.006831 -0.022246 49130.800000 0 0 1
2.037430 -33.492370 32.801951 46.923959 -1.510039 0.796735 -0.012587 -0.025884 -2165.340000 0 0 1
2.020330 -32.126770 32.156681 45.500145 -1.507993 0.785920 -0.008997 -0.025563 -481987.000000 0 0 1
1.561130 -31.238770 33.170151 45.591192 -1.520864 0.756043 -0.009778 -0.013098 158279.000000 0 0 1
1.791330 -29.796270 32.946321 44.457695 -1.510749 0.736132 0.007449 -0.019622 -128773.000000 0 0 1
1.489930 -29.013070 34.220025 44.888621 -1.519488 0.703888 0.006386 -0.011372 180772.000000 0 0 1
0.113130 -28.786670 34.466047 44.906498 -1.566866 0.695853 -0.001488 -0.008363 80657.100000 0 0 1
-0.112070 -28.416070 -33.438683 43.882014 1.566852 2.437213 -0.007111 0.003526 475984.000000 0 0 1
-1.612670 -28.122470 -33.119023 43.478083 1.513515 2.436792 -0.020061 0.014492 493808.000000 0 0 1
-1.877070 -27.846770 -31.761993 42.282268 1.503491 2.420658 -0.014840 0.009974 62125.300000 0 0 1
-2.743370 -26.743270 -31.717013 41.577608 1.468572 2.438489 -0.001090 0.011394 -320034.000000 0 0 1
-2.902370 -26.182870 -30.270983 40.128529 1.460397 2.425461 0.003404 0.004959 23610.900000 0 0 1
-3.724570 -27.016970 -29.452313 40.140103 1.433799 2.394603 0.001365 0.011943 159106.000000 0 0 1
-4.068870 -26.466170 -28.187593 38.878712 1.418252 2.381850 0.001033 0.005099 20916.000000 0 0 1
-2.935770 -26.148470 -27.167193 37.820862 1.458991 2.372170 -0.002619 -0.000330 -297137.000000 0 0 1
-2.258670 -25.012770 -27.539763 37.271689 1.480740 2.402221 -0.004941 0.008967 34994.200000 0 0 1
-1.225370 -24.673170 -26.598883 36.301066 1.521173 2.393121 -0.015323 0.011237 -664435.000000 0 0 1
-0.394270 -23.562670 -27.274543 36.045188 1.554065 2.429011 -0.019503 0.014555 -281591.000000 0 0 1
0.038730 -23.645170 -28.592483 37.102906 -1.569158 2.450620 -0.031487 0.010908 195841.000000 0 0 1
1.053930 -24.649670 -28.660993 37.817582 -1.528066 2.430846 -0.020505 0.010116 -600058.000000 0 0 1
1.662230 -24.824870 -30.034083 39.001068 -1.503938 2.449768 -0.027032 0.005898 -605005.000000 0 0 1
2.660030 -23.909070 -30.312103 38.698100 -1.459996 2.470748 -0.027729 0.010345 -362616.000000 0 0 1
3.247230 -24.121270 -31.576703 39.868137 -1.436980 2.484921 -0.021803 0.009789 -920479.000000 0 0 1
4.336230 -23.092570 -31.798333 39.537370 -1.385182 2.505226 -0.008010 0.004440 82340.000000 0 0 1
5.508630 -23.073970 -30.956133 39.000452 -1.336445 2.487726 -0.005274 -0.004921 1441150.000000 0 0 1
6.430530 -24.160470 -30.911583 39.756836 -1.310668 2.461503 -0.000806 -0.000391 313393.000000 0 0 1
7.203930 -24.731570 -32.147333 41.194638 -1.287354 2.466064 0.008319 0.005193 -48497.100000 0 0 1
6.213530 -25.217970 -33.036183 42.023129 -1.329215 2.475339 -0.022912 0.002997 122790.000000 0 0 1
6.639330 -25.318670 -34.335377 43.174458 -1.314340 2.490250 -0.010715 0.006331 -187822.000000 0 0 1
6.413830 -24.078970 34.028463 42.176656 -1.310474 0.632067 -0.006881 0.009588 -726525.000000 0 0 1
5.049330 -23.851870 33.906423 41.761860 -1.362181 0.623398 -0.002794 0.003734 -863666.000000 0 0 1
4.665030 -22.672570 33.254840 40.517803 -1.367872 0.608080 0.014440 0.001013 -737740.000000 0 0 1
3.269130 -22.131070 33.629889 40.391099 -1.424140 0.586999 0.007095 -0.009066 376794.000000 0 0 1
2.226430 -23.045670 33.280747 40.542176 -1.474486 0.607825 0.005229 -0.003767 166306.000000 0 0 1
1.982630 -24.087470 34.227692 41.900739 -1.488672 0.614823 0.001158 0.004184 -575597.000000 0 0 1
0.683930 -24.880770 33.940623 42.089029 -1.543315 0.632756 -0.009350 -0.004670 214290.000000 0 0 1
0.707130 -25.740870 32.823931 41.719335 -1.543332 0.665222 -0.002453 -0.012068 -102717.000000 0 0 1
-0.566670 -25.848570 32.227851 41.317116 1.548877 0.676111 0.000896 -0.026050 -109769.000000 0 0 1
-0.569070 -27.020970 31.225801 41.297788 1.549739 0.713443 0.014524 -0.040574 -187971.000000 0 0 1
-1.781470 -27.114570 30.527471 40.869304 1.505189 0.727328 0.016927 -0.040492 -79166.900000 0 0 1
-1.831770 -28.401970 29.924091 41.297440 1.506391 0.760344 0.018348 -0.039045 -508000.000000 0 0 1
-3.156870 -28.699170 29.236021 41.089574 1.461238 0.779138 0.026803 -0.030357 -225154.000000 0 0 1
-4.235670 -29.006470 30.105831 42.019963 1.425796 0.772075 0.028865 -0.029794 997414.000000 0 0 1
-5.459170 -29.127770 29.331551 41.696156 1.385524 0.790543 0.028973 -0.017294 833102.000000 0 0 1
-6.554770 -29.933770 30.039491 42.911148 1.355223 0.795344 0.040828 -0.011215 -485957.000000 0 0 1
-7.654570 -30.277770 29.227891 42.773887 1.323173 0.818508 0.050664 -0.004757 1197050.000000 0 0 1
-8.926770 -30.523070 29.883421 43.639018 1.286271 0.816485 0.039028 -0.001098 986115.000000 0 0 1
-8.988770 -31.716870 30.941131 45.211851 1.294632 0.817072 0.045540 -0.001718 -804779.000000 0 0 1
-8.973770 -32.974170 30.313521 45.680784 1.305086 0.845183 0.052135 -0.006073 950152.000000 0 0 1
-10.235670 -33.371070 29.737511 45.855390 1.273183 0.865176 0.039044 -0.003429 656202.000000 0 0 1
-10.206370 34.523938 29.233591 46.375372 -1.283352 0.888768 0.048526 -0.000927 -97068.000000 0 0 1
-10.030770 33.612738 30.303621 46.354524 -1.280788 0.858285 0.044119 0.000483 96183.900000 0 0 1
-9.635370 32.332238 29.928311 45.098977 -1.281165 0.845157 0.050894 -0.005574 -300235.000000 0 0 1
-10.113970 31.158338 30.779381 44.950024 -1.256927 0.816540 0.038204 0.009335 9776.990000 0 0 1
-11.532970 31.114938 30.790721 45.268281 -1.215839 0.822784 0.022071 0.023900 287507.000000 0 0 1
-12.127470 29.883638 31.229951 44.893398 -1.185280 0.801476 0.016930 0.019614 190586.000000 0 0 1
-12.065870 29.522638 32.696651 45.675402 -1.182813 0.772958 0.012042 0.005275 -731770.000000 0 0 1
-12.947270 30.298338 33.443737 46.947892 -1.166957 0.777943 0.013568 0.012974 -98789.500000 0 0 1
-13.144870 29.803938 -34.514582 47.458599 -1.155415 2.385113 0.020105 0.008428 97478.600000 0 0 1
-14.446570 30.271538 -33.817213 47.630592 -1.125528 2.360279 0.013099 0.006906 82437.300000 0 0 1
-14.563870 29.833238 -32.503623 46.460885 -1.116653 2.345621 0.021130 -0.001613 357668.000000 0 0 1
-15.842170 30.174638 -31.951553 46.716002 -1.087337 2.323964 0.023356 -0.003277 689909.000000 0 0 1
-16.042470 29.765538 -30.492243 45.531582 -1.076468 2.304593 0.045888 -0.016518 -187576.000000 0 0 1
-16.165270 28.377338 -30.275113 44.532816 -1.052989 2.318338 0.035423 -0.017651 152109.000000 0 0 1
-16.172870 28.124238 -28.930213 43.468284 -1.048924 2.299024 0.042366 -0.015853 -212193.000000 0 0 1
-16.817770 26.786238 -28.576963 42.626080 -1.010149 2.305558 0.005503 -0.018276 437214.000000 0 0 1
-18.235870 26.764038 -28.738303 43.298392 -0.972692 2.296587 0.006300 -0.011938 276975.000000 0 0 1
-18.707870 25.456438 -28.494143 42.543281 -0.937031 2.304693 -0.007561 -0.015094 -43816.400000 0 0 1
-20.191470 25.251938 -28.873263 43.347677 -0.896299 2.299745 0.010833 -0.010485 -185331.000000 0 0 1
-21.040770 25.669538 -27.807813 43.300273 -0.884171 2.268173 0.003596 -0.009890 723224.000000 0 0 1
-22.386070 25.378838 -28.256573 44.086908 -0.847973 2.266504 -0.001560 -0.018371 1449210.000000 0 0 1
-23.402270 25.227938 -27.039933 43.763833 -0.822922 2.236815 0.014189 -0.020776 608538.000000 0 0 1
-23.705270 26.474538 -26.446063 44.297124 -0.840529 2.210572 -0.003442 -0.000140 6637.750000 0 0 1
-24.664370 26.452338 -25.377593 44.182344 -0.820362 2.182647 -0.004963 0.014765 92188.300000 0 0 1
-24.387870 25.735038 -24.058353 42.846992 -0.812269 2.166987 -0.016352 0.010224 -966699.000000 0 0 1
-24.291270 24.299138 -24.066653 41.948989 -0.785560 2.181827 -0.014587 0.002579 815930.000000 0 0 1
-25.505020 23.499938 -23.904153 42.120798 -0.744505 2.174280 -0.016298 -0.002605 861490.000000 0 0 1
-26.318880 23.673238 -22.588553 41.992241 -0.732526 2.138767 -0.020827 0.002688 -196134.000000 0 0 1
-25.720120 23.195438 -21.345953 40.684181 -0.733831 2.123129 -0.030750 -0.001866 1283290.000000 0 0 1
-24.665870 24.116238 -20.898553 40.332959 -0.774132 2.115484 -0.020116 0.003333 779783.000000 0 0 1
-23.638170 23.646538 -19.860153 38.888912 -0.785575 2.106783 -0.011726 -0.004497 -93917.300000 0 0 1
-24.162870 23.594938 -18.532753 38.523088 -0.773507 2.072684 -0.010053 -0.004047 332561.000000 0 0 1
-23.078870 23.422838 -17.639253 37.314968 -0.792795 2.063163 -0.000738 -0.002899 -378102.000000 0 0 1
-23.495670 23.565738 -16.168753 36.997555 -0.786887 2.023082 -0.010794 -0.001351 -267902.000000 0 0 1
-23.999570 24.791138 -15.775553 37.940057 -0.801620 1.999621 -0.004983 -0.011012 -76057.200000 0 0 1
-24.315170 24.838838 -14.412453 37.628635 -0.796051 1.963858 -0.023267 -0.008222 22341.300000 0 0 1
-24.826070 26.169338 -13.799953 38.621324 -0.811733 1.936187 -0.018028 -0.010027 566845.000000 0 0 1
-23.757570 27.076238 -13.508353 38.471033 -0.850590 1.929575 -0.007064 -0.012827 373347.000000 0 0 1
-23.920770 27.694438 -12.220853 38.581529 -0.858380 1.893102 0.001385 -0.018545 -391594.000000 0 0 1
-22.657570 28.461838 -11.818953 38.250874 -0.898457 1.884922 0.005635 -0.015028 -546099.000000 0 0 1
-21.697870 27.540938 -11.381053 36.862300 -0.903514 1.884670 0.002300 -0.016052 478564.000000 0 0 1
-20.546970 28.262738 -10.847853 36.587378 -0.942179 1.871813 -0.000232 -0.014252 764148.000000 0 0 1
-19.559570 27.271638 -10.161553 35.065313 -0.948611 1.864803 0.012472 -0.010684 -182872.000000 0 0 1
-18.957970 26.504538 -11.145353 34.440006 -0.949894 1.900345 0.006523 -0.008719 -243190.000000 0 0 1
-18.313070 25.369738 -10.641053 33.048814 -0.945558 1.898616 0.011175 0.000537 -178568.000000 0 0 1
-17.681370 24.425838 -11.735853 32.357111 -0.944223 1.941958 0.008280 -0.000565 -105296.000000 0 0 1
-17.183470 23.241938 -11.190753 30.995036 -0.934159 1.940190 0.002773 0.007741 75270.000000 0 0 1
-16.782870 22.362538 -12.239553 30.521377 -0.926981 1.983422 0.009768 0.013536 -176918.000000 0 0 1
-16.402570 20.988438 -11.652653 29.074785 -0.907435 1.983167 0.003038 0.019271 -187977.000000 0 0 1
-17.522570 20.252438 -11.198453 29.027694 -0.857539 1.966855 -0.007723 0.024025 329464.000000 0 0 1
-17.096970 19.021638 -10.728753 27.735090 -0.838635 1.967987 0.008816 0.006505 381373.000000 0 0 1
-18.293770 17.982338 -10.772553 27.822192 -0.776813 1.968381 0.002011 0.002213 759128.000000 0 0 1
-18.661970 17.415238 -12.038053 28.221877 -0.750855 2.011472 -0.007065 0.012786 299790.000000 0 0 1
-19.468770 18.289938 -12.816153 29.627835 -0.754188 2.018139 -0.015400 0.023384 -518557.000000 0 0 1
-20.057470 17.531438 -14.060853 30.122433 -0.718298 2.056454 -0.010271 0.014030 40214.600000 0 0 1
-19.163070 17.262638 -15.130553 29.902434 -0.733273 2.101334 -0.003647 0.017817 320623.000000 0 0 1
-19.944570 16.666838 -16.120353 30.584884 -0.696109 2.125945 0.003788 0.015117 253824.000000 0 0 1
-19.153770 16.443738 -17.428853 30.676185 -0.709415 2.175059 0.020269 0.009228 -96829.400000 0 0 1
-19.022070 17.569338 -18.250253 31.679528 -0.745718 2.184733 0.003581 0.009116 50892.300000 0 0 1
-18.196370 17.210238 -19.333553 31.639950 -0.757554 2.228181 0.002864 0.014996 -435770.000000 0 0 1
-17.230770 18.361438 -19.704353 31.973479 -0.817155 2.234796 -0.007576 0.010934 -194220.000000 0 0 1
-16.103570 18.450438 -18.843353 30.900090 -0.853213 2.226624 -0.004472 0.011999 170016.000000 0 0 1
-15.392270 19.627938 -19.117453 31.426977 -0.905763 2.224730 0.006290 0.009576 -87230.000000 0 0 1
31.415746 31.770838 1.924047 44.721776 0.791018 1.527760 0.030228 -0.014590 601634.000000 0 0 1
32.782506 31.456638 1.625447 45.462676 0.764762 1.535035 0.019001 -0.012352 610625.000000 0 0 1
33.104356 32.117138 0.470647 46.126245 0.770263 1.560593 0.001370 -0.003948 850838.000000 0 0 1
34.563850 31.899538 -0.094453 47.034553 0.745333 1.572804 -0.017086 0.002243 714180.000000 0 0 1
-34.435075 32.718938 0.414947 47.502373 -0.759848 1.562061 -0.029001 -0.000047 -229392.000000 0 0 1
-33.274720 32.534638 -0.360853 46.538585 -0.774153 1.578550 -0.019837 0.003073 -170514.000000 0 0 1
-32.152240 33.540638 0.000747 46.462253 -0.806530 1.570780 -0.024395 0.006160 -105241.000000 0 0 1
-31.589710 33.413238 1.275947 45.999807 -0.813444 1.543055 -0.022383 0.002969 12454.400000 0 0 1
-31.362690 34.626338 1.899347 46.756915 -0.834815 1.530163 -0.025480 0.001240 -40257.300000 0 0 1
-30.563280 34.496038 3.250447 46.202339 -0.845774 1.500386 -0.013404 0.010911 -191495.000000 0 0 1
-30.326600 -33.565970 3.816747 45.397628 0.836055 1.486623 -0.011068 0.015538 88376.400000 0 0 1
-29.662220 -33.778370 5.045247 45.235828 0.850189 1.459032 0.004483 0.001166 -484771.000000 0 0 1
-29.620290 -32.440970 5.869647 44.319645 0.830817 1.437967 0.024535 -0.000451 315156.000000 0 0 1
-30.795030 -32.006770 6.557347 44.897283 0.804690 1.424220 0.016667 0.001015 336458.000000 0 0 1
-31.166280 -32.878070 7.578047 45.931812 0.812120 1.405054 0.022690 -0.010818 -1335100.000000 0 0 1
-32.281180 -32.516070 8.568647 46.613208 0.789023 1.385921 0.034443 -0.005026 1454720.000000 0 0 1
-33.635480 -32.350970 8.060847 47.359350 0.765934 1.399758 0.008669 -0.001214 1479360.000000 0 0 1
-34.235670 -33.458070 7.426347 48.442483 0.773912 1.416887 -0.002193 -0.005052 -875076.000000 0 0 1
34.254572 -33.352370 7.201247 48.348881 -0.772054 1.421297 -0.009840 0.000946 186453.000000 0 0 1
33.480496 -33.479770 8.378347 48.083629 -0.785387 1.395657 -0.015735 0.012330 671193.000000 0 0 1
32.171106 -32.895470 8.283147 46.751498 -0.796530 1.392682 -0.043426 0.022573 475707.000000 0 0 1
31.511816 -32.979670 9.641847 46.622081 -0.808155 1.362484 -0.046891 0.013283 436925.000000 0 0 1
30.110816 -32.660270 9.611547 45.450373 -0.825991 1.357714 -0.037490 0.003491 1081540.000000 0 0 1
29.513386 -32.545970 10.922647 45.272336 -0.834225 1.327127 -0.033845 0.018118 29807.500000 0 0 1
29.799746 -31.164270 11.671447 44.670564 -0.807777 1.306450 -0.033331 0.011866 -393295.000000 0 0 1
29.264696 -29.975570 11.088947 43.334998 -0.797397 1.312029 -0.033981 0.004527 93029.300000 0 0 1
29.649486 -29.565470 9.793047 43.001312 -0.783979 1.341042 -0.024964 0.000733 -464746.000000 0 0 1
28.976476 -28.249170 9.420547 41.549952 -0.772689 1.342079 -0.020277 -0.007827 -274747.000000 0 0 1
29.200496 -27.797170 8.102947 41.121885 -0.760782 1.372451 -0.011148 -0.008192 -89480.900000 0 0 1
28.724596 -26.475370 7.927147 39.860850 -0.744674 1.370591 -0.010069 -0.004996 -68971.200000 0 0 1
28.793696 -26.073070 6.491547 39.383019 -0.735853 1.405210 -0.020098 0.004646 -768291.000000 0 0 1
30.064446 -25.717170 6.097047 40.030211 -0.707622 1.417890 0.000698 -0.005365 -1243850.000000 0 0 1
30.078886 -25.194170 4.822947 39.531588 -0.697253 1.448489 0.003696 0.000401 -50917.400000 0 0 1
31.469236 -24.677070 4.389047 40.231013 -0.665011 1.461483 0.030332 -0.008494 55826.500000 0 0 1
32.235276 -25.800270 4.045847 41.486575 -0.674969 1.473119 0.025195 0.003451 756452.000000 0 0 1
33.653476 -25.505970 3.902947 42.406886 -0.648538 1.478630 0.032953 -0.007761 1514240.000000 0 0 1
34.495720 -26.778470 4.078347 43.859710 -0.660112 1.477676 0.031030 -0.005247 -228752.000000 0 0 1
34.401607 -27.360070 5.356147 44.280158 -0.671877 1.449539 0.010678 0.000239 -249584.000000 0 0 1
34.807323 -28.734270 5.341347 45.450391 -0.690112 1.453004 0.003171 -0.001503 -871341.000000 0 0 1
34.053328 -29.681470 6.388247 45.622676 -0.716911 1.430311 0.003519 0.001868 1002640.000000 0 0 1
32.738056 -30.077470 5.978547 44.857303 -0.743068 1.437119 -0.012901 0.013946 425505.000000 0 0 1
31.805656 -29.005770 6.088947 43.474243 -0.739389 1.430276 -0.009600 0.007012 -758395.000000 0 0 1
30.383436 -29.463870 5.672747 42.701908 -0.770034 1.437557 -0.034314 0.005758 -373048.000000 0 0 1
30.183076 -29.620270 4.295547 42.506826 -0.775987 1.469568 -0.041054 0.009214 -310367.000000 0 0 1
28.866056 -29.409970 3.863047 41.389838 -0.794731 1.477327 -0.028079 0.013439 -83121.900000 0 0 1
27.836546 -30.533870 4.065947 41.517737 -0.831576 1.472706 -0.014353 0.008194 -223748.000000 0 0 1
28.139746 -31.714570 3.346547 42.530679 -0.845053 1.492029 -0.014267 0.014765 -446657.000000 0 0 1
27.191566 -32.743770 3.578647 42.712323 -0.877771 1.486913 0.003132 0.011909 -238035.000000 0 0 1
27.433406 -34.012770 2.777347 43.785546 -0.892067 1.507323 0.010797 0.006633 -490769.000000 0 0 1
27.208756 -33.812770 1.383547 43.422737 -0.893203 1.538929 0.014376 0.000534 174958.000000 0 0 1
27.076516 34.301038 0.698547 43.705685 0.902565 1.554813 0.020752 0.003956 -149846.000000 0 0 1
26.754286 34.598338 -0.788553 43.743098 0.912560 1.588824 0.010209 0.004009 -497825.000000 0 0 1
27.857416 -34.265870 -1.508853 44.186674 -0.888192 1.604950 0.001953 0.004648 -255299.000000 0 0 1
27.564976 -34.215970 -2.915553 44.034770 -0.892640 1.637055 0.012685 0.003634 -207738.000000 0 0 1
28.734036 -33.827770 -3.832253 44.549400 -0.866638 1.656925 -0.002761 0.006365 -185352.000000 0 0 1
28.767116 -32.446870 -3.928253 43.540528 -0.845439 1.661140 -0.001207 0.012247 -15767.500000 0 0 1
29.671996 -31.990670 -4.896953 43.906839 -0.822983 1.682559 -0.011604 0.018714 -367457.000000 0 0 1
29.981806 -30.523070 -4.790353 43.052457 -0.794344 1.682295 -0.003780 0.010908 223184.000000 0 0 1
28.867236 -29.716670 -5.206153 41.755262 -0.799897 1.695804 -0.009315 0.005106 493608.000000 0 0 1
29.113676 -28.325170 -5.155153 40.945049 -0.771671 1.697036 0.002725 -0.007753 678666.000000 0 0 1
30.223286 -27.724170 -6.139353 41.470090 -0.742298 1.719385 -0.003263 -0.007613 601454.000000 0 0 1
31.550686 -27.983270 -5.696453 42.555362 -0.725547 1.705059 -0.009963 0.008055 82215.500000 0 0 1
32.494876 -27.550370 -6.680453 43.122713 -0.703237 1.726340 -0.007388 0.005340 195748.000000 0 0 1
32.666576 -28.469370 -7.937353 44.052376 -0.716852 1.751966 -0.016176 -0.004804 -351763.000000 0 0 1
31.588606 -28.501270 -8.930053 43.473076 -0.734065 1.777685 -0.014309 -0.006278 670847.000000 0 0 1
31.648386 -29.547970 -9.929853 44.421897 -0.751089 1.796236 -0.026359 0.004907 177405.000000 0 0 1
31.431906 -30.989070 -9.361353 45.121194 -0.778304 1.779786 -0.033763 0.001451 910792.000000 0 0 1
32.587236 -31.475470 -8.633953 46.121344 -0.768046 1.759108 -0.036045 0.009428 326073.000000 0 0 1
32.284156 -32.684870 -7.994453 46.631307 -0.791566 1.743087 -0.036667 0.004179 912521.000000 0 0 1
33.510056 -33.275670 -7.206653 47.771644 -0.781889 1.722231 -0.038363 0.006153 577672.000000 0 0 1
33.217536 -34.574570 -6.663253 48.406659 -0.805413 1.708886 -0.030111 0.000911 524446.000000 0 0 1
32.427556 -34.586570 -5.421153 47.719662 -0.817604 1.684646 -0.021295 0.006054 449623.000000 0 0 1
32.364446 33.279838 -4.879753 46.677800 0.799342 1.675529 -0.030767 0.001847 -82854.700000 0 0 1
31.483646 32.367338 -5.519253 45.489853 0.799237 1.692425 -0.016805 -0.010462 174748.000000 0 0 1
31.779176 31.058038 -5.161153 44.734274 0.773922 1.686427 -0.023808 0.004132 -117070.000000 0 0 1
30.592166 30.137238 -5.458753 43.288933 0.777907 1.697233 -0.005752 -0.005532 -179227.000000 0 0 1
30.451016 29.877738 -6.861953 43.209143 0.775896 1.730279 -0.013496 0.003928 -40628.700000 0 0 1
29.131226 29.437638 -7.109153 42.020744 0.790630 1.740796 -0.016651 0.000776 69082.800000 0 0 1
28.837536 29.377838 -8.601553 42.055292 0.794679 1.776779 -0.015561 0.002359 -428144.000000 0 0 1
29.316096 28.189938 -9.170653 41.691810 0.765817 1.792573 -0.005515 0.001280 -57593.100000 0 0 1
29.524996 28.221438 -10.587453 42.193236 0.762828 1.824435 -0.020600 0.001589 104779.000000 0 0 1
30.742606 29.074938 -11.026953 43.727035 0.757526 1.825726 -0.005915 -0.000186 -1203660.000000 0 0 1
31.940336 28.403938 -10.752053 44.074657 0.726861 1.817234 -0.020932 -0.004296 634488.000000 0 0 1
33.185186 28.933838 -11.258653 45.444261 0.717066 1.821150 -0.019039 -0.001365 1110720.000000 0 0 1
33.530136 30.315038 -10.708453 46.453660 0.735083 1.803407 -0.013430 -0.014437 -1403100.000000 0 0 1
34.016126 30.327538 -9.367453 46.525322 0.728134 1.773523 -0.015925 -0.007900 143363.000000 0 0 1
33.891746 31.602038 -8.806553 47.168789 0.750452 1.758601 -0.012450 -0.008799 -1479060.000000 0 0 1
34.803524 31.865638 -7.584953 47.793678 0.741360 1.730172 -0.011777 -0.002710 497951.000000 0 0 1
-33.858640 32.108838 -7.964553 47.337290 -0.758879 1.739852 -0.013206 -0.004016 336346.000000 0 0 1
-33.102570 30.956638 -8.327453 46.080799 -0.751911 1.752509 -0.009507 -0.012260 68483.500000 0 0 1
-31.611760 31.339038 -8.671053 45.350037 -0.781066 1.763184 0.006311 -0.010119 928061.000000 0 0 1
-30.687150 31.626338 -7.621353 44.721487 -0.800469 1.742050 0.012673 -0.006042 1258120.000000 0 0 1
-29.362160 31.948138 -8.096553 44.140391 -0.827552 1.755268 0.022711 -0.015877 845730.000000 0 0 1
-29.081630 33.438238 -8.666053 45.154816 -0.854969 1.763913 0.011993 -0.002931 -326924.000000 0 0 1
-29.265140 34.621038 -7.898353 46.015744 -0.869038 1.743295 -0.002444 0.004064 -270584.000000 0 0 1
-28.387550 -34.562970 -6.829253 45.244785 0.883185 1.722316 0.017938 -0.006267 -386505.000000 0 0 1
-28.171990 -33.241170 -6.093253 43.997320 0.867754 1.709734 0.006712 0.012234 -46864.300000 0 0 1
-29.181510 -32.787470 -5.218853 44.201981 0.843522 1.689141 -0.005070 0.008383 -239716.000000 0 0 1
-29.280530 -33.518970 -3.957353 44.682563 0.852788 1.659478 0.000719 0.006538 -142799.000000 0 0 1
-30.638600 -33.297070 -3.269253 45.366361 0.826955 1.642922 -0.016756 0.003892 -238473.000000 0 0 1
-30.969090 -31.977570 -2.734953 44.599658 0.801418 1.632157 -0.028342 0.007728 -282361.000000 0 0 1
-31.726840 -32.098570 -1.565553 45.159291 0.791222 1.605471 -0.017369 0.007491 -341639.000000 0 0 1
-32.440210 -30.771970 -1.313253 44.732606 0.759013 1.600158 -0.000043 0.009214 -227252.000000 0 0 1
-33.337970 -30.814670 -0.232953 45.398441 0.746086 1.575928 -0.001319 0.006672 -495170.000000 0 0 1
-33.899790 -29.557370 -0.059153 44.975965 0.717074 1.572112 0.015473 0.000964 -604195.000000 0 0 1
-34.869099 -29.402770 1.131047 45.625171 0.700552 1.546004 0.015213 0.003242 494465.000000 0 0 1
33.915836 -30.112670 0.835347 45.362481 -0.726070 1.552380 -0.015857 0.015669 735977.000000 0 0 1
32.941406 -30.038670 1.857947 44.619614 -0.739341 1.529145 -0.012065 0.011246 766040.000000 0 0 1
31.964966 -28.794370 1.896147 43.063560 -0.733263 1.526751 -0.018472 0.026670 -230500.000000 0 0 1
31.009856 -28.811470 0.862147 42.337399 -0.748665 1.550431 -0.024246 0.022390 -359342.000000 0 0 1
30.479036 -27.524970 0.673347 41.073703 -0.734513 1.554402 -0.016789 0.022170 -324020.000000 0 0 1
29.451926 -27.638270 -0.471453 40.391982 -0.753641 1.582469 -0.025801 0.012985 -418571.000000 0 0 1
28.200376 -28.179070 -0.144353 39.866553 -0.785020 1.574417 -0.019869 0.018689 -238016.000000 0 0 1
28.082756 -29.601670 -0.139753 40.803427 -0.811724 1.574221 -0.013942 0.022847 -529500.000000 0 0 1
27.794846 -30.223770 -1.542753 41.090265 -0.827238 1.608351 -0.009963 0.002721 -534210.000000 0 0 1
26.441296 -30.175270 -1.882053 40.165050 -0.851255 1.617671 -0.006447 0.010607 -450201.000000 0 0 1
26.182566 -30.365870 -3.290153 40.229815 -0.859241 1.652672 -0.005652 0.014225 934009.000000 0 0 1
24.699166 -30.598770 -3.792353 39.505892 -0.891684 1.666939 -0.013203 0.017925 934537.000000 0 0 1
23.902766 -29.448070 -3.759353 38.113827 -0.888967 1.669592 -0.000331 0.016423 -315017.000000 0 0 1
22.574866 -29.902470 -3.931353 37.672774 -0.924135 1.675342 0.008050 0.005952 -349464.000000 0 0 1
21.508666 -28.830370 -3.996353 36.190936 -0.929833 1.681446 0.002398 -0.001576 -443408.000000 0 0 1
21.450766 -28.264670 -5.279053 35.873324 -0.921608 1.718491 -0.000339 -0.005563 -35444.300000 0 0 1
21.099066 -26.927770 -5.200153 34.602269 -0.906171 1.721651 -0.012030 -0.011243 -477977.000000 0 0 1
20.498566 -26.440370 -6.576253 34.095916 -0.911314 1.764888 0.006501 -0.037521 -689351.000000 0 0 1
19.177766 -26.831770 -6.724653 33.659346 -0.950245 1.771935 0.010494 -0.027749 -1155190.000000 0 0 1
18.560466 -26.242670 -7.872853 33.093058 -0.955213 1.811000 0.029236 -0.026623 -130860.000000 0 0 1
17.055166 -26.456570 -7.680653 32.400945 -0.998193 1.810125 0.037674 -0.023061 -477639.000000 0 0 1
16.527266 -25.649170 -6.662353 31.231673 -0.998397 1.785769 0.016114 -0.014444 -167801.000000 0 0 1
15.151366 -25.868370 -6.435453 30.661891 -1.040950 1.782253 0.024557 -0.015399 48253.000000 0 0 1
14.554166 -24.910770 -5.395753 29.351054 -1.042037 1.755683 0.009213 -0.005696 -364068.000000 0 0 1
14.900066 -25.317970 -4.081153 29.659188 -1.038863 1.708836 -0.001609 -0.002860 167013.000000 0 0 1
14.391766 -24.492770 -3.074153 28.573925 -1.039550 1.678591 0.004397 0.004976 -288876.000000 0 0 1
14.518966 -25.126670 -1.677153 29.068244 -1.046837 1.628525 0.009240 0.002806 77034.000000 0 0 1
13.718566 -26.285070 -1.425453 29.683934 -1.089771 1.618836 0.023736 0.009595 419411.000000 0 0 1
14.522866 -27.450270 -1.494153 31.091212 -1.084171 1.618872 0.022400 -0.000217 457539.000000 0 0 1
13.670366 -28.782770 -1.784353 31.914115 -1.127389 1.626737 0.022297 0.011016 1210600.000000 0 0 1
12.625566 -28.971670 -0.791453 31.613115 -1.159822 1.595835 0.041583 0.004409 559984.000000 0 0 1
11.874166 -30.159070 -0.931653 32.425813 -1.195717 1.599532 0.037234 0.003310 -90096.400000 0 0 1
12.657566 -31.422970 -0.544153 33.880867 -1.187868 1.586858 0.019540 0.005367 -369675.000000 0 0 1
13.674066 -31.644570 -1.479953 34.504336 -1.162915 1.613701 0.005637 0.013341 -656784.000000 0 0 1
14.286066 -32.898470 -1.276453 35.889140 -1.161119 1.606370 0.005657 0.012024 -523451.000000 0 0 1
15.670766 -32.895970 -1.925053 36.488678 -1.126228 1.623578 -0.001461 0.016416 -741849.000000 0 0 1
16.548866 -32.061470 -1.231753 36.101525 -1.094304 1.604922 -0.006243 0.022102 545718.000000 0 0 1
17.774866 -31.886670 -1.990353 36.560459 -1.062260 1.625263 -0.004345 0.022303 601026.000000 0 0 1
18.629166 -30.763570 -1.390953 35.991358 -1.026299 1.609453 -0.007552 0.017150 -38787.500000 0 0 1
18.027166 -29.489570 -1.622453 34.601241 -1.022105 1.617704 -0.028727 0.014424 353063.000000 0 0 1
18.625866 -28.512970 -0.783353 34.066494 -0.992145 1.593793 -0.022032 0.016277 -217535.000000 0 0 1
18.365966 -27.039570 -1.126453 32.706513 -0.974149 1.605244 -0.021539 0.021884 -467375.000000 0 0 1
18.941266 -26.575870 -2.332153 32.718304 -0.951582 1.642137 -0.028503 0.014474 -395504.000000 0 0 1
18.059266 -26.702970 -3.383653 32.413498 -0.976153 1.675377 -0.014354 0.007336 -698214.000000 0 0 1
32.303366 -29.772670 14.132047 46.147959 -0.744653 1.259562 0.004896 -0.000009 36327.500000 0 0 1
32.709636 -30.270370 15.399447 47.152504 -0.746687 1.238105 -0.003677 0.002508 -54011.600000 0 0 1
31.758166 -31.151970 15.907947 47.244991 -0.775763 1.227374 -0.011843 0.016281 -108887.000000 0 0 1
32.215746 -31.345770 17.354247 48.182793 -0.771712 1.202341 -0.013649 0.015619 284106.000000 0 0 1
31.457046 -32.281070 18.122847 48.580355 -0.798326 1.188503 -0.015863 0.010515 -123646.000000 0 0 1
31.847086 -32.280470 19.435047 49.335451 -0.792156 1.165886 -0.020269 0.004587 -751147.000000 0 0 1
32.776246 -33.432070 19.771547 50.822237 -0.795303 1.171214 -0.021724 0.011932 -785092.000000 0 0 1
33.935776 -33.333870 18.998747 51.222419 -0.776451 1.190811 -0.025745 0.017855 -403894.000000 0 0 1
34.621618 -34.584070 18.961047 52.480813 -0.784856 1.201140 -0.012108 0.006335 57683.500000 0 0 1
-34.341828 34.620038 17.843847 51.926015 -0.789432 1.220006 -0.008138 0.007229 673907.000000 0 0 1
-33.162210 -33.907970 18.043147 50.744830 0.796517 1.207277 -0.012944 0.009355 1202380.000000 0 0 1
-32.245110 -33.849770 16.913747 49.715480 0.809672 1.223655 -0.010453 0.012250 206626.000000 0 0 1
-30.919310 -33.146170 17.266647 48.505767 0.820143 1.206843 -0.009825 0.005631 133891.000000 0 0 1
-29.965610 -33.191170 16.217147 47.566663 0.836426 1.222885 0.001366 -0.001462 160134.000000 0 0 1
-30.153470 -32.074170 15.323947 46.613383 0.816254 1.235821 0.012903 0.007407 -55367.600000 0 0 1
-28.945390 -31.936870 14.339147 45.424778 0.834494 1.249636 0.014025 0.004987 826384.000000 0 0 1
-27.723160 -31.622070 15.006347 44.651085 0.851003 1.228044 0.009282 -0.000005 74179.100000 0 0 1
-26.692180 -31.380870 14.058247 43.530056 0.865961 1.241946 0.014081 0.006918 59960.800000 0 0 1
-25.402020 -30.990270 14.800947 42.716829 0.884172 1.216970 0.020923 0.001484 -678775.000000 0 0 1
-24.313470 -30.841070 13.927947 41.668983 0.903201 1.229985 0.022277 0.004270 -1138210.000000 0 0 1
-23.219770 -30.691170 14.782747 41.226633 0.923109 1.204058 0.017167 0.010091 -475318.000000 0 0 1
-21.883670 -30.545970 13.999347 40.099040 0.949137 1.214165 0.014160 0.016465 260711.000000 0 0 1
-21.367070 -31.781370 13.530347 40.616222 0.978894 1.231179 -0.010793 0.021760 -421699.000000 0 0 1
-20.289470 -31.687270 12.657447 39.698321 1.001268 1.246290 -0.016781 0.015703 -79423.600000 0 0 1
-19.730170 -33.067470 12.144047 40.375922 1.032833 1.265292 -0.020406 0.016340 606874.000000 0 0 1
-20.628670 -33.614670 11.153447 40.986430 1.020378 1.295195 -0.019297 0.010160 655455.000000 0 0 1
-20.381470 34.325838 11.027447 41.415843 -1.034974 1.301284 -0.016990 0.005029 -77876.900000 0 0 1
-21.306570 33.618538 10.034147 41.047048 -1.005912 1.323839 -0.018794 0.005040 -249872.000000 0 0 1
-21.146870 34.023838 8.687647 40.991302 -1.014695 1.357238 -0.017967 0.003960 -202724.000000 0 0 1
-22.317970 33.719138 7.972447 41.214463 -0.986116 1.376131 -0.006581 0.001121 -456027.000000 0 0 1
-22.153970 33.862538 6.444347 40.975596 -0.991452 1.412868 -0.001663 0.003303 -414166.000000 0 0 1
-21.386870 32.865038 5.745747 39.629819 -0.993895 1.425298 -0.005652 -0.001651 518460.000000 0 0 1
-19.973170 32.946438 5.854047 38.970055 -1.025807 1.420006 -0.019794 -0.002324 -71393.500000 0 0 1
-19.217770 34.184738 5.324747 39.576153 -1.058655 1.435843 -0.015094 0.000190 -944581.000000 0 0 1
-19.123870 -33.889570 6.046047 39.379945 1.057041 1.416656 -0.018087 0.003839 148138.000000 0 0 1
-18.545470 -34.045370 7.334347 39.456487 1.072010 1.383824 -0.027375 0.010396 -617234.000000 0 0 1
-18.597870 -32.848370 8.313447 38.652421 1.055621 1.354020 -0.023740 0.009598 -730918.000000 0 0 1
-17.785670 -31.772970 7.955947 37.271287 1.060480 1.355681 -0.017530 0.003350 -423735.000000 0 0 1
-17.957970 -30.621970 8.762847 36.564754 1.040407 1.328788 -0.009554 0.004432 -172929.000000 0 0 1
-17.417570 -30.606470 10.188647 36.659737 1.053421 1.289163 -0.020154 0.012702 -491521.000000 0 0 1
-16.062070 -30.941170 10.194247 36.321740 1.091973 1.286309 -0.012735 0.002226 -860455.000000 0 0 1
-15.519570 -31.051070 11.492647 36.566473 1.107302 1.251083 0.002173 0.005604 -423431.000000 0 0 1
-14.146070 -31.709570 11.477947 36.569816 1.151179 1.251536 0.017784 -0.003011 -168300.000000 0 0 1
-13.138370 -30.891170 10.925347 35.302187 1.168662 1.256149 0.010060 0.002167 -815184.000000 0 0 1
-12.078770 -31.610570 10.416347 35.406569 1.205805 1.272186 0.017477 0.009288 -300738.000000 0 0 1
-10.968770 -30.801870 9.693447 34.103256 1.228691 1.282585 0.024814 0.009091 348275.000000 0 0 1
-10.120970 -30.134170 10.615247 33.513963 1.246770 1.248505 0.027034 0.003961 -537003.000000 0 0 1
-9.242070 -29.294770 9.901047 32.274296 1.265194 1.258990 0.020035 0.010947 -8108.490000 0 0 1
-8.508270 -28.414570 10.940247 31.614356 1.279859 1.217435 0.011560 0.014183 257501.000000 0 0 1
-9.299370 -27.415770 11.586247 31.182429 1.243777 1.190104 0.001685 0.008097 -285105.000000 0 0 1
-8.722670 -27.092370 12.829547 31.219846 1.259316 1.147309 -0.002513 0.004730 90790.200000 0 0 1
-9.202670 -25.768170 13.519447 30.519882 1.227781 1.111886 -0.002927 0.002382 51909.800000 0 0 1
-8.741270 -24.579570 12.994747 29.144957 1.229113 1.108655 -0.003776 0.009790 -349387.000000 0 0 1
-9.448970 -24.187970 11.855647 28.546406 1.198378 1.142511 -0.005601 0.014673 -121063.000000 0 0 1
-8.870170 -22.929870 11.236547 27.031812 1.201687 1.142107 -0.010108 0.010727 6697.610000 0 0 1
-7.692570 -23.105470 10.482647 26.512719 1.249406 1.164313 -0.016745 0.005800 -297781.000000 0 0 1
-7.253970 -21.872070 9.935547 25.094275 1.250558 1.163717 -0.011346 0.012174 -153533.000000 0 0 1
-6.142470 -22.070070 8.889647 24.573233 1.299349 1.200640 -0.004334 -0.002936 483860.000000 0 1 0
-4.966170 -22.580570 9.530347 25.007449 1.354312 1.179810 -0.004702 -0.010865 196995.000000 0 0 1
-3.885970 -22.705770 8.628147 24.598734 1.401294 1.212418 -0.003659 -0.010905 312110.000000 0 1 0
-2.620770 -23.463870 9.087647 25.298359 1.459564 1.203366 -0.003357 -0.010071 387689.000000 0 0 1
-1.790970 -22.689670 9.966047 24.846545 1.492026 1.158075 -0.003257 -0.009035 -332939.000000 0 1 0
-0.909370 -23.511470 10.655347 25.829298 1.532138 1.145567 0.000376 -0.012827 178838.000000 0 0 1
-0.123270 -22.801270 11.853447 25.698586 1.565390 1.091394 0.002929 -0.009340 416741.000000 0 0 1
-0.890370 -22.586770 13.045447 26.098633 1.531397 1.047369 -0.001344 -0.004794 206260.000000 0 0 1
-0.117970 -22.405670 14.243647 26.550131 1.565531 1.004534 0.005901 -0.003818 130903.000000 0 0 1
0.701530 -21.129670 14.419047 25.590312 -1.537607 0.972232 0.003978 -0.005180 181680.000000 0 0 1
1.836930 -20.952870 13.595247 25.044517 -1.483350 0.996977 0.014261 -0.010622 -79354.600000 0 0 1
2.338030 -19.607670 13.516947 23.929793 -1.452116 0.970535 0.008815 -0.005632 419519.000000 0 1 0
3.834230 -19.520870 13.103847 23.821766 -1.376848 0.988338 0.018685 -0.003006 420206.000000 0 1 0
4.010630 -20.040470 11.873647 23.636605 -1.373279 1.044492 0.022153 -0.007633 229979.000000 0 1 0
5.402830 -20.067870 11.523447 23.763414 -1.307804 1.064520 0.033227 -0.009895 813315.000000 0 1 0
5.862630 -20.778570 10.224847 23.888636 -1.295797 1.128494 0.031089 -0.015116 -379711.000000 0 1 0
5.569330 -20.176670 8.976547 22.774852 -1.301474 1.165661 0.021352 -0.017679 -424270.000000 0 1 0
5.875130 -21.019670 7.861247 23.197907 -1.298245 1.225073 0.018252 -0.014967 31429.800000 0 1 0
7.331230 -21.563670 7.630547 24.020076 -1.243075 1.247521 0.022483 -0.003562 767315.000000 0 1 0
8.275930 -20.659070 7.007447 23.332221 -1.189777 1.265754 0.026597 -0.013161 197002.000000 0 1 0
8.774930 -19.616170 7.780347 22.854482 -1.150164 1.223422 0.030514 -0.007317 228719.000000 0 1 0
9.781630 -20.014470 8.927347 23.999101 -1.116207 1.189648 0.020002 -0.003090 -205749.000000 0 1 0
9.100730 -20.340470 10.105547 24.467941 -1.150090 1.145038 0.032879 -0.003858 -441018.000000 0 1 0
9.904930 -20.228170 11.251847 25.177184 -1.115455 1.107492 0.036261 0.001876 157807.000000 0 0 1
8.986230 -20.232670 12.515547 25.431323 -1.152822 1.056260 0.034621 -0.007384 222786.000000 0 0 1
8.489330 -21.569870 12.718247 26.440156 -1.195842 1.068978 0.031805 -0.016205 -287694.000000 0 0 1
7.790430 -21.678670 13.929547 26.920027 -1.225808 1.026938 0.041958 -0.015168 18042.000000 0 0 1
7.976630 -23.029670 14.690747 28.457168 -1.237365 1.028341 0.041346 -0.013092 99214.800000 0 0 1
7.637830 -24.222370 13.890247 28.948206 -1.265343 1.070334 0.049099 -0.007507 -165657.000000 0 0 1
7.604130 -25.376970 14.657047 30.276104 -1.279664 1.065447 0.050693 -0.009387 214391.000000 0 0 1
7.364230 -26.645570 13.792147 30.894039 -1.301150 1.108020 0.043060 -0.010637 25746.400000 0 0 1
8.488430 -26.905770 12.995847 31.062292 -1.265192 1.139135 0.053074 -0.012189 -364069.000000 0 0 1
8.394230 -28.114770 12.246647 31.794399 -1.280652 1.175391 0.034059 -0.010422 -201442.000000 0 0 1
9.751530 -28.545670 11.652547 32.337741 -1.241614 1.202165 0.036784 -0.014423 -86214.100000 0 0 1
10.547930 -29.132070 12.647147 33.464708 -1.223407 1.183242 0.042920 -0.011807 -175146.000000 0 0 1
11.741630 -29.645170 12.091347 34.101359 -1.193680 1.208341 0.049808 -0.009218 201442.000000 0 0 1
12.722530 -30.405370 13.016547 35.436984 -1.174503 1.194675 0.042410 -0.014264 -235246.000000 0 0 1
13.388230 -29.576070 13.953747 35.336889 -1.145723 1.164862 0.047241 -0.010048 566604.000000 0 0 1
14.327230 -30.280270 14.805447 36.624658 -1.128855 1.154640 0.048471 -0.010867 -119580.000000 0 0 1
15.715430 -30.497370 14.266947 37.156563 -1.094980 1.176706 0.054000 -0.005338 -1424420.000000 0 0 1
16.408730 -29.304270 14.116447 36.431590 -1.060351 1.172902 0.048190 -0.009310 -1626850.000000 0 0 1
17.678530 -29.458170 13.678447 36.978564 -1.030286 1.191893 0.036046 0.000825 -1496310.000000 0 0 1
18.418330 -28.176470 13.267547 36.182540 -0.991840 1.195354 0.008872 -0.003672 49454.200000 0 0 1
19.717430 -28.381870 12.757747 36.838400 -0.963623 1.217155 -0.003910 -0.006296 -165491.000000 0 0 1
20.388030 -27.139270 12.564947 36.195161 -0.926504 1.216272 -0.016596 -0.000465 -95330.100000 0 0 1
21.719530 -27.458370 11.859147 36.964029 -0.901568 1.244191 -0.013815 0.003088 484590.000000 0 0 1
22.729630 -28.038570 12.700747 38.263645 -0.889592 1.232450 -0.009224 -0.005358 218862.000000 0 0 1
23.906930 -28.413670 12.046047 39.038254 -0.871323 1.257107 -0.019259 -0.014147 -1283970.000000 0 0 1
24.971130 -29.063470 12.916747 40.436185 -0.860989 1.245663 -0.008206 -0.014512 -497109.000000 0 0 1
25.779830 -28.199870 13.670747 40.579819 -0.830201 1.227189 -0.012442 -0.014633 308011.000000 0 0 1
26.876030 -27.855370 12.798247 40.768098 -0.803290 1.251469 -0.020039 -0.014405 113441.000000 0 0 1
28.103430 -27.076870 13.419047 41.267791 -0.766797 1.239605 0.006133 -0.020030 579570.000000 0 0 1
27.878630 -25.753370 13.894647 40.416770 -0.745792 1.219853 0.020468 -0.023059 -49222.600000 0 0 1
27.052830 -25.638970 15.043847 40.193653 -0.758572 1.187172 0.030713 -0.023335 23377.300000 0 0 1
27.858930 -25.634970 16.402547 41.259123 -0.743848 1.161952 0.013458 -0.015371 -9346.370000 0 0 1
28.514930 -26.808770 16.717747 42.559306 -0.754568 1.167110 0.016821 -0.014305 -278247.000000 0 0 1
29.115830 -26.702370 17.977847 43.404506 -0.742187 1.143740 0.022831 -0.004031 -47971.600000 0 0 1
29.607430 -28.078670 18.543547 44.820473 -0.758903 1.144250 0.003870 0.015203 -396292.000000 0 0 1
28.578430 -28.945770 18.940647 44.870173 -0.791784 1.135012 -0.001685 0.007008 -313141.000000 0 0 1
29.022230 -29.899770 19.852747 46.156448 -0.800290 1.126172 -0.003392 0.000144 119303.000000 0 0 1
27.853430 -30.707370 20.481947 46.241392 -0.834094 1.111926 -0.020366 0.006580 -178703.000000 0 0 1
26.922830 -29.932670 21.243947 45.520422 -0.838287 1.085251 -0.021328 0.016788 1036320.000000 0 0 1
25.677130 -30.569770 21.577047 45.380556 -0.872165 1.075299 -0.015074 0.014609 1658000.000000 0 0 1
24.665430 -31.041170 20.458947 44.615090 -0.899354 1.094416 0.018394 -0.002394 -168340.000000 0 0 1
25.228830 -32.106670 19.716747 45.344044 -0.904785 1.120952 0.002967 0.002628 -195021.000000 0 0 1
24.563030 -32.440770 18.527247 44.710233 -0.922725 1.143529 0.020319 -0.000010 -462096.000000 0 0 1
24.968830 -31.540370 17.335247 43.803519 -0.901170 1.163912 0.018189 0.005684 295359.000000 0 0 1
26.299630 -31.715770 16.882847 44.526298 -0.878485 1.181902 -0.000035 0.001705 62314.400000 0 0 1
26.711230 -30.632070 16.079947 43.707874 -0.853667 1.194051 0.004508 -0.010405 1133280.000000 0 0 1
28.069630 -30.951270 15.287647 44.492667 -0.834183 1.220050 0.003174 -0.005479 856265.000000 0 0 1
28.056630 -31.939170 14.262947 44.841017 -0.850022 1.247095 0.020689 0.001139 101804.000000 0 0 1
28.039030 -33.266170 14.743947 45.937014 -0.870457 1.244053 0.014110 -0.006812 -289046.000000 0 0 1
27.045430 -34.206070 14.025447 45.806372 -0.901775 1.259608 0.017375 -0.010584 -153168.000000 0 0 1
27.356330 -34.379270 12.620847 45.712021 -0.898670 1.291068 0.019688 -0.011314 220187.000000 0 0 1
26.765430 33.763938 12.100847 44.752902 0.900509 1.296996 0.019583 -0.015570 -451886.000000 0 0 1
27.295530 33.349438 10.694047 44.402631 0.884894 1.327562 0.020722 -0.015281 -416045.000000 0 0 1
28.621330 32.910638 10.798047 44.932043 0.854994 1.328101 0.000951 -0.011494 -247595.000000 0 0 1
28.921930 32.008938 9.730147 44.223590 0.836019 1.348960 -0.000674 -0.014601 -241229.000000 0 0 1
30.349530 31.457938 9.774647 44.791066 0.803329 1.350798 -0.014025 -0.008535 -232818.000000 0 0 1
30.454330 30.576738 10.888547 44.508017 0.787404 1.323645 -0.024048 -0.004615 92233.400000 0 0 1
31.805130 30.308138 11.207047 45.340351 0.761302 1.321032 -0.008026 -0.007606 108097.000000 0 0 1
31.999930 29.493138 12.480247 45.272478 0.744655 1.291510 -0.010129 0.004450 -170305.000000 0 0 1
31.684430 28.090638 12.268647 44.085222 0.725349 1.288779 -0.009721 0.001568 251292.000000 0 0 1
32.004330 27.440338 13.446647 44.249990 0.708771 1.262035 -0.001536 -0.014520 -117604.000000 0 0 1
31.778530 25.907738 13.376047 43.127770 0.683976 1.255446 -0.003524 -0.006901 410882.000000 0 0 1
32.893630 25.385338 12.645947 43.431858 0.657270 1.275349 -0.000781 0.006884 103913.000000 0 0 1
32.744830 24.060638 12.060147 42.386146 0.633697 1.282280 0.009481 -0.002713 -203194.000000 0 0 1
31.633530 23.883438 10.984447 41.130973 0.646696 1.300455 -0.001829 -0.002954 806625.000000 0 0 1
30.403830 23.472938 11.589747 40.120991 0.657457 1.277750 -0.002178 -0.006515 -700152.000000 0 0 1
29.373030 23.353838 10.687147 39.017839 0.671732 1.293346 -0.003850 0.004385 -178824.000000 0 0 1
28.128730 22.761738 11.452347 37.953635 0.680325 1.264273 -0.009385 0.006803 342146.000000 0 0 1
27.671930 23.564538 12.496747 38.434254 0.705404 1.239630 -0.000309 0.003208 -182371.000000 0 0 1
26.618130 22.943838 13.208047 37.541937 0.711398 1.211280 0.011480 0.002125 -204785.000000 0 0 1
23.254530 9.277338 26.136491 36.193346 0.379599 0.763912 -0.015956 0.009914 -182290.000000 0 0 1
23.129030 8.186038 27.041721 36.513257 0.340171 0.736833 0.002500 -0.000830 144236.000000 0 0 1
21.810730 7.676038 26.987181 35.537831 0.338401 0.708417 0.004815 -0.000300 -135173.000000 0 0 1
21.593030 6.393438 27.865231 35.827449 0.287864 0.679699 0.022805 0.000387 -213472.000000 0 0 1
21.815530 6.524638 29.252171 37.069904 0.290615 0.661440 0.015933 -0.001327 2056970.000000 0 0 1
23.247330 6.439238 29.587081 38.174566 0.270214 0.684007 0.010440 -0.003621 1854280.000000 0 0 1
23.306530 6.364538 31.098821 39.380685 0.266580 0.660481 0.018131 -0.007215 -221068.000000 0 0 1
22.902730 7.570738 31.684201 39.821347 0.319253 0.650702 0.026836 -0.005843 215732.000000 0 0 1
22.891730 7.326438 33.077771 40.888225 0.309746 0.628381 0.023168 -0.008044 -246659.000000 0 0 1
22.737830 8.586638 33.974014 41.772873 0.361080 0.620989 0.034150 -0.004999 141197.000000 0 0 1
23.855830 9.449938 33.862189 42.485877 0.377163 0.648448 0.022992 -0.000273 33142.900000 0 0 1
24.194030 10.021038 -34.099294 42.994582 0.392683 2.486689 0.025205 -0.004372 148859.000000 0 0 1
25.284830 11.102138 -33.942813 43.757224 0.413738 2.458632 0.018106 -0.001834 -65211.700000 0 0 1
24.948330 12.289538 -34.601205 44.392514 0.457710 2.464564 0.016600 -0.005239 256122.000000 0 0 1
24.873330 13.371338 -33.634503 43.917593 0.493256 2.443166 0.010731 0.000903 -421648.000000 0 0 1
24.244030 14.615938 -34.281382 44.459102 0.542525 2.451327 0.010902 0.010647 -548508.000000 0 0 1
25.086130 15.124638 33.960308 44.848312 0.542555 0.711741 0.008033 0.009150 316699.000000 0 0 1
24.935330 16.523238 33.785359 45.124700 0.585212 0.724681 0.005432 0.014837 -252179.000000 0 0 1
25.546930 17.460638 -34.368138 46.245955 0.599548 2.408577 -0.001114 0.006112 -57087.700000 0 0 1
24.977930 17.371038 -33.081833 44.945051 0.607669 2.398014 -0.000698 0.000569 570841.000000 0 0 1
26.002530 17.067338 -32.126303 44.716048 0.580842 2.372370 0.002420 0.002395 103227.000000 0 0 1
25.392630 16.544938 -30.838483 43.238093 0.577474 2.364885 -0.004232 0.001598 -153102.000000 0 0 1
24.788630 15.305838 -31.022763 42.557686 0.553155 2.387595 0.006987 0.015331 -218177.000000 0 0 1
23.889930 15.047238 -29.974083 41.177588 0.562084 2.386083 0.016168 -0.003473 -140621.000000 0 0 1
23.251330 13.656638 -29.975513 40.319468 0.531065 2.409011 0.024151 -0.008715 -379395.000000 0 0 1
22.444530 13.613738 -31.140363 40.728528 0.545222 2.441191 0.020941 -0.005037 65642.400000 0 0 1
22.100530 12.260138 -31.552593 40.426607 0.506478 2.466247 0.027217 0.005956 -1087.660000 0 0 1
21.140430 11.405238 -30.637303 38.931241 0.494745 2.476662 0.023681 -0.006233 -382458.000000 0 0 1
19.906530 12.084638 -30.584643 38.441238 0.545601 2.490828 0.027525 -0.005988 222462.000000 0 0 1
19.006430 11.331638 -29.741883 37.070608 0.537621 2.501941 0.029018 -0.016273 -228659.000000 0 0 1
17.768430 12.086238 -29.290613 36.328147 0.597319 2.508630 0.037782 -0.008915 -801416.000000 0 0 1
16.816430 12.307038 -30.294193 36.769466 0.631781 2.539047 0.020099 -0.001325 -67184.000000 0 0 1
15.710930 12.865138 -29.587153 35.885160 0.686139 2.540106 0.020484 -0.009350 -232655.000000 0 0 1
14.707830 13.584738 -30.535423 36.514071 0.745723 2.561231 0.005478 -0.000135 434504.000000 0 0 1
13.841530 12.751638 -31.286083 36.510426 0.744437 2.600038 -0.006745 0.010764 814681.000000 0 0 1
12.553730 12.429938 -30.736513 35.451836 0.780443 2.619933 0.004088 0.004731 624000.000000 0 0 1
11.586430 11.791438 -31.741203 35.788089 0.794167 2.661432 0.004890 0.005009 -150257.000000 0 0 1
11.086130 12.630438 -32.780563 36.837420 0.850422 2.667859 0.010502 0.010780 27529.500000 0 0 1
10.244830 11.880438 -33.623493 37.103108 0.859189 2.705047 0.011744 0.015735 151663.000000 0 0 1
9.650330 12.710238 34.432554 37.951018 0.921397 0.434004 0.013847 0.015422 -23220.800000 0 0 1
10.610230 12.814938 33.418399 37.330805 0.879239 0.461925 0.005275 0.022452 -164313.000000 0 0 1
10.096630 13.346438 32.241851 36.326386 0.923146 0.478775 0.012007 0.005449 -1103180.000000 0 0 1
10.956430 13.330638 31.000121 35.478962 0.882845 0.507915 0.015655 0.012408 -736153.000000 0 0 1
11.233530 12.008338 30.560721 34.703747 0.818723 0.493633 0.000332 0.015155 172868.000000 0 0 1
11.354430 11.937138 29.105891 33.445048 0.810411 0.515066 0.014820 0.013591 -275546.000000 0 0 1
11.972330 10.622338 28.674621 32.839072 0.725721 0.509095 0.016275 0.014363 -218672.000000 0 0 1
11.132330 9.512438 28.824001 32.330145 0.707094 0.470036 0.005138 0.010271 -162526.000000 0 0 1
11.808030 8.370338 28.412761 31.886943 0.616653 0.471150 0.009452 -0.000023 -433848.000000 0 0 1
11.043530 7.050338 28.661831 31.514558 0.568187 0.428767 -0.005937 0.007658 111327.000000 0 0 1
9.965530 6.907838 27.750721 30.284196 0.606129 0.411946 -0.006588 0.007025 147238.000000 0 0 1
9.076830 5.818138 28.092771 30.090586 0.570014 0.366446 -0.012633 -0.001648 155427.000000 0 0 1
9.418530 4.467638 27.498711 29.408291 0.442914 0.362349 -0.010613 0.003864 -750757.000000 0 0 1
10.523430 3.935038 28.134451 30.294792 0.357833 0.379933 -0.017674 0.007543 -471585.000000 0 0 1
10.741630 2.643838 27.641441 29.772836 0.241333 0.380682 -0.030202 0.011689 -160815.000000 0 0 1
11.214530 1.667138 28.747671 30.902647 0.147578 0.375660 -0.025309 0.009414 -241440.000000 0 0 1
10.122230 1.288538 29.561051 31.272601 0.126617 0.332375 -0.021622 0.015145 54249.300000 0 0 1
10.326730 0.151538 30.415171 32.120818 0.014673 0.327346 -0.016307 0.010006 198179.000000 0 0 1
9.300730 0.044438 31.584871 32.925820 0.004778 0.286377 -0.007278 0.008226 279808.000000 0 0 1
9.641930 0.997138 32.574411 33.986076 0.103051 0.289231 -0.014456 0.006407 577614.000000 0 0 1
8.486730 1.334938 33.351063 34.439803 0.156019 0.252114 -0.012588 0.010595 396279.000000 0 0 1
8.714730 2.631538 34.176668 35.368293 0.293258 0.260318 0.003796 0.006192 -62587.400000 0 0 1
8.572530 3.927438 33.581083 34.879825 0.429604 0.273745 -0.012393 0.006560 -33755.800000 0 0 1
9.608330 4.242938 32.681981 34.328332 0.415838 0.310958 -0.013555 0.010671 -281524.000000 0 0 1
9.433230 5.628238 32.017131 33.849070 0.537945 0.330503 -0.012384 0.011133 -76015.000000 0 0 1
9.657130 6.732838 32.886361 34.929987 0.608836 0.343761 -0.013572 0.013516 8073.680000 0 0 1
9.585930 7.936138 32.144431 34.469360 0.691520 0.369381 -0.012122 0.018075 -216023.000000 0 0 1
9.748030 9.220138 32.963241 35.589469 0.757575 0.386570 -0.006331 0.010659 651189.000000 0 0 1
8.571830 9.582638 33.718126 36.086219 0.841019 0.364290 -0.003484 0.003988 532944.000000 0 0 1
8.206130 8.758838 -34.436565 36.468271 0.817966 2.806222 0.000249 0.006397 -77423.500000 0 0 1
6.860330 9.181838 -33.797893 35.688483 0.929113 2.814639 0.005565 0.009362 303042.000000 0 0 1
6.400830 8.245838 -32.839433 34.458566 0.910706 2.833825 0.008698 0.013923 -174043.000000 0 0 1
5.099030 8.507038 -32.377353 33.862409 1.030826 2.844339 0.004114 0.011504 -314948.000000 0 0 1
4.689130 7.803738 -31.117593 32.422073 1.029728 2.856963 0.000403 0.007299 -555587.000000 0 0 1
5.149630 8.405538 -29.861673 31.446641 1.021129 2.822748 -0.000175 0.006269 489311.000000 0 0 1
4.648730 7.782038 -28.687933 30.086015 1.032315 2.835541 0.000505 0.004693 1409760.000000 0 0 1
3.082330 7.824638 -28.382083 29.601830 1.195537 2.853526 -0.005000 0.003416 1705430.000000 0 0 1
2.286330 6.984138 -29.266773 30.175312 1.254431 2.895580 -0.003279 0.002681 52216.500000 0 0 1
0.925230 7.205538 -29.000023 29.896106 1.443090 2.896137 0.005705 0.008203 -215111.000000 0 0 1
-0.012470 6.519938 -30.014183 30.714181 -1.568884 2.927687 0.016194 -0.000044 -139948.000000 0 0 1
0.163730 7.104938 -31.267093 32.064592 1.547756 2.918096 0.015215 0.000210 343697.000000 0 0 1
-0.434370 6.386738 -32.352093 32.979342 -1.502890 2.946247 0.028039 -0.005754 -645112.000000 0 0 1
-0.274570 7.178438 -33.662533 34.420509 -1.532566 2.931343 0.034348 -0.010548 -72846.400000 0 0 1
1.067230 7.440238 -34.025263 34.845582 1.428328 2.924178 0.021811 -0.010390 218621.000000 0 0 1
1.841530 6.348238 -34.476907 35.104821 1.288460 2.952170 0.031419 -0.014054 -498870.000000 0 0 1
1.696930 6.177538 33.237416 33.849185 1.302715 0.190411 0.042844 -0.021109 -370067.000000 0 0 1
0.441030 5.703438 32.802941 33.297997 1.493623 0.172653 0.049433 -0.025675 -254893.000000 0 0 1
0.250730 5.737138 31.377021 31.898198 1.527121 0.181016 0.071918 -0.029720 16899.500000 0 0 1
0.961130 4.719938 30.436131 30.814926 1.369911 0.156958 0.082506 -0.031913 -38076.500000 0 0 1
0.881630 4.984738 29.082271 29.519542 1.395741 0.172335 0.073294 -0.030053 27345.700000 0 0 1
1.589630 4.040638 28.326731 28.657588 1.195983 0.152102 0.053223 -0.021204 -236029.000000 0 0 1
1.476430 4.379538 26.869231 27.263818 1.245642 0.170341 0.056303 -0.023203 25977.500000 0 0 1
2.231730 5.512538 26.513271 27.172085 1.186119 0.220656 0.050269 -0.018111 -134460.000000 0 0 1
2.089230 5.730238 25.144521 25.873682 1.221177 0.237970 0.048756 -0.015837 -506643.000000 0 0 1
2.902130 6.824838 24.442941 25.543260 1.168730 0.294583 0.051357 -0.015306 -1143650.000000 0 0 1
4.255430 6.725638 24.692011 25.942981 1.006666 0.311810 0.029484 0.001788 -1169130.000000 0 0 1
4.996630 6.747738 23.484701 24.940518 0.933410 0.343361 0.028232 -0.010008 -735503.000000 0 1 0
6.498830 6.643238 23.755401 25.508557 0.796386 0.372908 0.029096 -0.004184 -581902.000000 0 0 1
6.936030 5.577638 24.584701 26.146244 0.677269 0.347354 0.019648 -0.004552 -91429.800000 0 0 1
6.695930 4.208238 24.294241 25.549068 0.561096 0.314712 0.026794 -0.003559 -888372.000000 0 0 1
6.970730 3.702338 22.867401 24.191246 0.488237 0.332357 0.017848 -0.003310 -178234.000000 0 1 0
6.050130 4.068238 21.887401 23.069741 0.591976 0.321542 0.031079 -0.012166 698621.000000 0 1 0
4.744930 3.434338 22.029101 22.794524 0.626515 0.259880 0.031364 -0.013136 684064.000000 0 1 0
3.760930 3.937038 20.972401 21.667636 0.808271 0.254006 0.029632 -0.020556 -152551.000000 0 1 0
3.309830 5.259738 21.217801 22.109158 1.009128 0.284921 0.030037 -0.021740 741541.000000 0 1 0
2.045430 5.575238 20.615401 21.453713 1.219166 0.280473 0.028250 -0.015066 725589.000000 0 1 0
1.585330 7.027338 20.815001 22.026371 1.348916 0.333191 0.032374 -0.002931 -71715.000000 0 1 0
2.347630 7.876738 19.979401 21.603954 1.281133 0.390279 0.023401 -0.010512 -150930.000000 0 1 0
2.046330 9.219738 20.109301 22.216548 1.352386 0.439065 0.031984 -0.013193 -549380.000000 0 1 0
3.023430 10.265738 19.610201 22.340243 1.284378 0.499552 0.038417 -0.018009 -1098660.000000 0 1 0
3.155430 10.218838 18.229501 21.135186 1.271299 0.530569 0.013250 -0.023424 150100.000000 0 1 0
4.057130 11.193938 17.699701 21.331759 1.223082 0.592164 0.014295 -0.024703 482792.000000 0 1 0
5.575230 10.960438 17.919801 21.733238 1.100238 0.601418 0.022955 -0.024882 -350236.000000 0 1 0
6.013930 9.876138 17.179201 20.708220 1.023833 0.592435 0.022570 -0.024185 246849.000000 0 1 0
7.373830 9.571638 17.486501 21.254819 0.914377 0.604639 0.025282 -0.011927 283685.000000 0 1 0
7.660330 8.162938 18.047301 21.237214 0.817151 0.555198 0.031527 -0.009189 -338212.000000 0 1 0
7.166030 7.952338 19.330401 22.096517 0.837361 0.505739 0.026370 -0.013496 -106807.000000 0 1 0
7.148530 6.584538 19.690901 21.958807 0.744353 0.458494 0.031388 -0.019654 27552.400000 0 1 0
8.497630 5.883638 19.953101 22.471162 0.605597 0.477944 0.027078 -0.014034 -246798.000000 0 1 0
9.175630 5.386238 18.816901 21.616649 0.530817 0.514616 0.018693 -0.013510 22380.200000 0 1 0
10.501430 5.056938 19.214601 22.473396 0.448777 0.545259 0.023455 -0.007735 297701.000000 0 1 0
10.707730 3.554538 19.317301 22.370703 0.320514 0.528610 0.028360 -0.002774 -445888.000000 0 1 0
10.002230 3.023038 20.406501 22.926156 0.293507 0.473239 0.020722 -0.003426 73582.100000 0 1 0
9.861930 1.604038 20.295901 22.621985 0.161238 0.457463 0.008105 -0.009940 74549.000000 0 1 0
8.879230 0.861138 21.226301 23.024729 0.096681 0.397862 0.011038 -0.011110 24791.700000 0 1 0
9.417130 0.904038 22.534301 24.439606 0.095706 0.397478 0.001451 -0.010204 603728.000000 0 1 0
8.821830 -0.122162 23.385701 24.994612 -0.013847 0.360758 0.002766 -0.009162 -407357.000000 0 1 0
9.210030 -0.017562 24.881301 26.531191 -0.001907 0.354520 -0.005846 0.001513 867956.000000 0 0 1
10.572230 -0.430162 25.155361 27.290095 -0.040665 0.398159 -0.018439 -0.001801 1054180.000000 0 0 1
10.669630 -1.893062 25.052961 27.296072 -0.175598 0.408235 -0.028790 0.000008 -995353.000000 0 0 1
12.059530 -2.508462 25.104041 27.963146 -0.205082 0.456151 -0.032108 0.006236 -619052.000000 0 0 1
11.994930 -3.897962 25.097911 28.088745 -0.314202 0.465668 -0.021608 0.014179 381114.000000 0 0 1
13.265130 -4.495262 25.355891 28.967089 -0.326733 0.504669 -0.020625 0.023412 367712.000000 0 0 1
13.132430 -5.976862 25.648381 29.428269 -0.427105 0.512430 -0.017563 0.013002 -305477.000000 0 0 1
12.847330 -6.695662 24.494421 28.458082 -0.480441 0.534115 -0.002099 0.005774 182001.000000 0 0 1
12.437230 -8.015662 24.701681 28.794245 -0.572492 0.539689 0.008782 -0.007110 -153033.000000 0 0 1
12.541930 -8.824862 23.391101 27.970016 -0.613157 0.580311 0.030607 -0.009962 -58936.100000 0 0 1
12.062130 -10.111862 23.562801 28.336378 -0.697671 0.588924 0.025766 -0.002516 -365202.000000 0 0 1
12.104230 -10.770362 22.345401 27.601268 -0.727152 0.627362 0.035430 -0.007205 -55952.400000 0 0 1
11.398930 -12.122962 22.342201 27.858136 -0.816170 0.640162 0.028263 -0.001834 1202170.000000 0 0 1
9.970530 -11.952362 22.504401 27.362721 -0.875553 0.605096 0.022279 0.001078 657329.000000 0 0 1
9.364630 -13.119462 22.994001 28.080966 -0.950871 0.611398 0.021559 0.007631 -182093.000000 0 0 1
7.849030 -12.965062 23.236301 27.742130 -1.026417 0.577955 0.010646 0.009759 -280366.000000 0 0 1
7.192230 -12.684962 22.069901 26.452164 -1.055004 0.583875 0.009325 0.014644 -2262460.000000 0 0 1
5.856330 -12.578262 22.271901 26.240176 -1.135053 0.557140 -0.007305 0.013381 -1307120.000000 0 0 1
5.181430 -11.383962 21.511501 24.883458 -1.143666 0.526661 -0.016029 0.021472 92018.500000 0 1 0
5.448430 -10.131362 22.200401 25.003753 -1.077385 0.478074 -0.014241 0.022757 -323330.000000 0 0 1
4.906130 -9.064762 21.514801 23.856376 -1.074710 0.446771 -0.012921 0.022774 -278876.000000 0 1 0
5.304430 -7.653662 22.054901 23.940221 -0.964745 0.399517 -0.014493 0.009656 -54075.600000 0 1 0
4.836730 -6.586262 21.275501 22.790782 -0.937376 0.366706 -0.011631 -0.000973 -184113.000000 0 1 0
5.271830 -5.366662 21.874101 23.131570 -0.794312 0.331244 0.007113 -0.004870 193686.000000 0 1 0
-7.782170 -15.639562 -20.504453 26.936790 1.109074 2.435967 0.020699 0.002355 308474.000000 0 0 1
-7.137870 -15.048662 -19.381553 25.554960 1.127904 2.431691 0.018259 -0.004002 -133376.000000 0 0 1
-6.363470 -13.922662 -19.803353 25.030123 1.142088 2.483534 0.025313 -0.005294 -280736.000000 0 0 1
-5.620470 -13.371662 -18.643853 23.621691 1.172890 2.480413 0.031453 -0.004975 -367658.000000 0 1 0
-4.754970 -14.340362 -18.083553 23.564180 1.250625 2.445599 0.024759 -0.001761 -434426.000000 0 1 0
-4.098470 -13.845662 -16.983853 22.292399 1.283003 2.436988 0.021098 -0.004881 545476.000000 0 1 0
-2.959970 -14.766262 -16.367753 22.242015 1.372963 2.397782 0.013461 0.002333 642897.000000 0 1 0
-1.867370 -15.029162 -17.214053 22.927852 1.447180 2.420057 0.014864 0.002120 94790.500000 0 1 0
-0.877470 -15.760962 -16.447553 22.796927 1.515180 2.376735 0.020362 0.006486 459485.000000 0 1 0
0.394230 -16.077962 -17.277753 23.604597 -1.546281 2.391999 0.007793 0.019232 -185524.000000 0 1 0
0.292230 -16.842162 -18.423953 24.963691 -1.553447 2.400942 0.019733 0.014739 -384989.000000 0 1 0
0.130530 -18.213162 -18.183953 25.736986 -1.563630 2.355379 0.014442 0.019030 -156569.000000 0 0 1
-0.316170 -18.680462 -19.582353 27.065257 1.553873 2.379690 0.020004 0.005104 -3537.650000 0 0 1
-1.667970 -18.360562 -19.822453 27.070685 1.480200 2.392413 0.033718 0.002150 -149925.000000 0 0 1
-2.025270 -18.599262 -21.176353 28.257250 1.462334 2.417972 0.033910 -0.003185 22374.400000 0 0 1
-3.175770 -17.719062 -21.726453 28.215057 1.393450 2.449685 0.039194 -0.005494 97102.400000 0 0 1
-2.957470 -16.307962 -21.816253 27.397904 1.391395 2.491908 0.035860 0.002348 -238015.000000 0 0 1
-3.098270 -15.636462 -20.638153 26.077415 1.375186 2.483923 0.048484 -0.002454 212001.000000 0 0 1
-2.161270 -14.350662 -20.583053 25.184810 1.421316 2.527472 0.034234 -0.007026 588379.000000 0 0 1
-2.514670 -13.407162 -21.630053 25.572148 1.385389 2.578942 0.033375 -0.017882 182774.000000 0 0 1
-1.605370 -12.321362 -21.688953 24.996076 1.441235 2.621341 0.019503 -0.003318 206213.000000 0 1 0
-1.785170 -11.478862 -23.001753 25.768813 1.416514 2.673920 0.025128 0.002666 -200131.000000 0 0 1
-2.875170 -10.599262 -22.929853 25.424183 1.305909 2.694925 0.028259 -0.007682 -87004.000000 0 0 1
-3.000770 -9.897262 -24.120153 26.243898 1.276414 2.736527 0.025379 -0.011034 -631619.000000 0 0 1
-4.109970 -8.875962 -24.073253 25.984535 1.137147 2.755654 0.019179 -0.005194 -1427540.000000 0 0 1
-5.385870 -9.373462 -24.293353 26.590155 1.049272 2.722902 0.012416 -0.001398 -47362.000000 0 0 1
-6.314270 -8.302062 -24.022953 26.189626 0.920567 2.731967 0.028148 -0.003251 -38209.200000 0 0 1
-7.798970 -8.787362 -23.924553 26.653815 0.844919 2.685098 0.007893 -0.002603 560879.000000 0 0 1
-8.465270 -9.123362 -25.147543 28.058785 0.822796 2.682026 -0.000860 -0.001981 230974.000000 0 0 1
-8.744870 -7.909362 -25.892823 28.451169 0.735272 2.714272 -0.014764 -0.000811 -470586.000000 0 0 1
-9.596270 -8.132862 -27.174783 29.944960 0.703042 2.708069 -0.019845 0.000437 56338.900000 0 0 1
-9.873570 -6.957262 -27.925143 30.425392 0.613830 2.733359 -0.016379 -0.005740 159494.000000 0 0 1
-10.411270 -7.344962 -29.182123 31.842413 0.614396 2.729924 0.000868 -0.013117 -351198.000000 0 0 1
-11.037470 -6.277962 -30.068383 32.639641 0.517152 2.742008 0.011021 -0.018690 -90589.900000 0 0 1
-10.211570 -5.289062 -30.703833 32.786822 0.477903 2.783220 -0.009904 -0.010047 -38829.500000 0 0 1
-10.874570 -4.652762 -31.781423 33.911109 0.404288 2.785305 0.022826 -0.021320 -12321.100000 0 0 1
-10.001470 -3.649262 -32.604113 34.298319 0.349862 2.825972 0.017800 -0.016144 -28539.400000 0 0 1
-9.027070 -4.280862 -33.384403 34.847268 0.442816 2.850813 0.005699 0.001723 32385.900000 0 0 1
-8.519270 -3.488562 -34.463316 35.671671 0.388661 2.880566 0.014766 -0.004306 352425.000000 0 0 1
-7.284970 -4.026562 33.982215 34.986782 0.504931 0.240213 0.009254 -0.000027 276628.000000 0 0 1
-6.077570 -3.965262 -34.565964 35.319485 0.578090 2.934659 -0.004656 0.000741 -443090.000000 0 0 1
-5.033670 -4.504562 33.906801 34.573112 0.729983 0.196646 -0.009819 0.003176 403913.000000 0 0 1
-3.617870 -4.004362 34.316378 34.738130 0.836061 0.155984 -0.012621 0.008193 236671.000000 0 0 1
-3.571070 -2.547762 34.300222 34.579602 0.619693 0.127202 -0.001277 -0.001663 610875.000000 0 0 1
-2.274670 -1.982762 34.571692 34.703132 0.716941 0.087063 0.002386 -0.000930 776524.000000 0 0 1
-2.377370 -0.586962 -34.039463 34.127429 0.242055 3.069778 0.010719 -0.008679 -142146.000000 0 0 1
-2.719570 -0.699462 -32.645583 32.766131 0.251740 3.055787 -0.000733 -0.005923 281629.000000 0 0 1
-3.182370 0.561538 -32.126453 32.288570 -0.174655 3.041342 0.011170 -0.011580 -341197.000000 0 0 1
-3.761170 0.556938 -30.679153 30.913864 -0.147007 3.018288 0.024086 -0.003427 48341.500000 0 0 1
-4.846070 -0.318262 -30.513453 30.897516 0.065580 2.983757 0.015476 -0.003922 454798.000000 0 0 1
-6.109370 0.369938 -30.662443 31.267341 -0.060479 2.944571 0.020860 -0.005068 843578.000000 0 0 1
-7.303770 -0.647262 -30.628783 31.494227 0.088389 2.906619 0.021113 -0.002923 330642.000000 0 0 1
-7.588170 -1.282462 -29.373923 30.365315 0.167426 2.885358 0.007835 -0.000644 -252534.000000 0 0 1
-8.603770 -2.233362 -29.516353 30.825766 0.253974 2.849079 0.007529 -0.002086 -167043.000000 0 0 1
-9.047470 -2.832962 -28.161343 29.714367 0.303451 2.816856 -0.009308 0.002399 -111409.000000 0 0 1
-9.890270 -2.078662 -27.317533 29.127064 0.207157 2.787249 -0.012427 0.000747 36661.900000 0 0 1
-10.194370 -2.746562 -26.157963 28.208293 0.263171 2.757969 -0.015276 0.001917 -380537.000000 0 0 1
-11.108070 -1.911262 -25.284823 27.683287 0.170392 2.722259 -0.022298 0.006359 68793.200000 0 0 1
-10.481170 -0.710262 -24.818753 26.950508 0.067662 2.741182 -0.005911 0.003768 505560.000000 0 0 1
-11.333070 -0.178462 -23.815153 26.374833 0.015746 2.697381 -0.011755 0.001382 110129.000000 0 0 1
-10.688970 1.003538 -23.087153 25.461300 -0.093611 2.706319 -0.005296 -0.004221 33503.800000 0 0 1
-10.413670 2.062038 -24.014553 26.256337 -0.195484 2.725362 -0.012528 -0.004813 -18997.900000 0 0 1
-9.767470 3.144438 -23.399453 25.550447 -0.311452 2.728326 -0.010011 0.002192 -190610.000000 0 0 1
-9.722870 4.446238 -24.259353 26.510742 -0.428905 2.726494 0.002049 -0.008384 -388449.000000 0 0 1
-10.919770 5.138638 -24.487653 27.300039 -0.439837 2.683692 -0.000900 -0.006578 -399922.000000 0 0 1
-11.269670 5.020738 -25.849313 28.642630 -0.419113 2.696282 -0.004430 -0.001925 538284.000000 0 0 1
-12.688270 5.579038 -26.208303 29.647816 -0.414256 2.655120 -0.003158 0.001357 495195.000000 0 0 1
-12.749270 6.968438 -26.516113 30.235860 -0.500210 2.640328 0.007615 0.002044 -1061480.000000 0 0 1
-14.009670 7.407238 -26.831163 31.161664 -0.486361 2.608090 0.010677 -0.000885 -1376210.000000 0 0 1
-13.980270 8.902138 -26.962003 31.648785 -0.567014 2.590423 0.028589 -0.002838 -364481.000000 0 0 1
-13.934470 9.530238 -25.707093 30.754666 -0.599861 2.560523 0.034134 -0.012012 241074.000000 0 0 1
-13.989470 10.930538 -25.640953 31.187183 -0.663259 2.535997 0.048638 -0.011776 -170470.000000 0 0 1
-13.603570 11.411038 -24.256153 30.060436 -0.697972 2.509703 0.036151 -0.008913 -332262.000000 0 0 1
-14.626270 11.373838 -23.293653 29.763841 -0.660952 2.469653 0.036572 -0.002638 -159017.000000 0 0 1
-14.341270 12.134938 -22.154753 29.047578 -0.702258 2.438283 0.031998 0.001218 -497675.000000 0 0 1
-15.418270 12.065338 -21.059753 28.754280 -0.664001 2.392643 0.036043 -0.001625 -371274.000000 0 0 1
-16.596070 12.750838 -21.339353 29.889486 -0.655114 2.365908 0.033952 -0.000419 -326104.000000 0 0 1
-17.395070 12.964738 -20.185853 29.633453 -0.640493 2.320176 0.034847 0.005288 264119.000000 0 0 1
-18.846970 13.416538 -20.487253 30.902092 -0.618646 2.295579 0.033094 0.000892 141221.000000 0 0 1
-18.950670 14.636238 -21.212353 31.989236 -0.657642 2.295761 0.021173 -0.003036 -190994.000000 0 0 1
-20.297970 15.019838 -21.281453 33.022770 -0.637049 2.271097 0.019032 -0.006440 -297140.000000 0 0 1
-20.547170 16.260038 -22.143253 34.305957 -0.669445 2.272427 0.008057 -0.005891 -223069.000000 0 0 1
-20.605770 16.053638 -23.525453 35.153435 -0.661857 2.303958 0.017647 -0.007653 148862.000000 0 0 1
-20.909970 17.230938 -24.236053 36.352693 -0.689237 2.300558 0.002492 -0.005561 -237826.000000 0 0 1
-20.500670 17.127138 -25.715503 37.079690 -0.695982 2.337160 0.001907 -0.005179 146890.000000 0 0 1
-19.104670 17.162638 -25.954153 36.512499 -0.731902 2.361473 0.014121 -0.007346 281459.000000 0 0 1
-18.870770 17.102538 -27.362313 37.380462 -0.736284 2.392042 0.011733 -0.005089 42473.500000 0 0 1
-17.946070 18.279638 -27.792193 37.796991 -0.794606 2.396908 -0.006315 -0.002378 -50242.000000 0 0 1
-18.670070 19.491738 -28.044773 38.923112 -0.806926 2.375344 -0.021081 -0.006321 305545.000000 0 0 1
-17.883070 20.628238 -27.887733 39.026325 -0.856560 2.366831 -0.038318 -0.008418 -1129910.000000 0 0 1
-18.708970 21.912238 -28.129323 40.266990 -0.864092 2.344194 -0.004401 -0.015404 914593.000000 0 0 1
-19.808370 22.179938 -27.243013 40.329926 -0.841820 2.312444 0.012783 -0.012953 348055.000000 0 0 1
-20.974170 21.445338 -27.461623 40.668895 -0.796505 2.312098 0.045520 -0.024190 -155199.000000 0 0 1
-22.075270 21.693238 -26.337573 40.639658 -0.776670 2.275851 0.033878 -0.008843 882196.000000 0 0 1
-21.636270 21.094438 -25.111893 39.290083 -0.772719 2.264177 0.005351 -0.000240 -288370.000000 0 0 1
-22.518270 21.423338 -24.128953 39.347659 -0.760485 2.230933 -0.002140 -0.011984 -600697.000000 0 0 1
-21.998670 20.918938 -22.771353 37.948359 -0.760245 2.214374 -0.007030 0.000106 -334635.000000 0 0 1
-20.957970 21.635538 -22.194153 37.415417 -0.801305 2.205802 0.003056 -0.000697 -71945.500000 0 0 1
-20.030970 20.849838 -21.411253 35.977732 -0.805426 2.208218 0.001324 -0.001992 189366.000000 0 0 1
-20.493770 20.156638 -20.108953 35.080687 -0.777105 2.181227 0.007289 -0.001263 -1303560.000000 0 0 1
-21.385970 19.110338 -20.420053 35.207148 -0.729264 2.189522 0.016303 -0.005620 386997.000000 0 0 1
-22.081470 18.500838 -19.320053 34.686262 -0.697395 2.161559 0.008230 -0.002401 300954.000000 0 0 1
-23.104470 19.393338 -18.551253 35.412809 -0.698294 2.122169 -0.010575 -0.006782 -599663.000000 0 0 1
-24.338270 19.490038 -19.223153 36.629804 -0.675227 2.123271 -0.012656 -0.010535 -292020.000000 0 0 1
-25.127620 20.474038 -18.646353 37.393448 -0.683702 2.092840 -0.008396 -0.014490 99374.800000 0 0 1
-26.606570 20.630538 -19.201953 38.758788 -0.659555 2.089117 -0.025888 0.005282 1416500.000000 0 0 1
-27.540130 19.598638 -18.923353 38.738335 -0.618495 2.081157 -0.011939 0.001366 310373.000000 0 0 1
-27.894790 19.468238 -17.558353 38.280900 -0.609326 2.047296 -0.016789 0.001075 -891299.000000 0 0 1
-28.776360 18.249838 -17.305253 38.217892 -0.565184 2.040705 -0.025988 0.004512 -172365.000000 0 0 1
-28.007460 17.052338 -17.307153 37.077454 -0.546901 2.056447 -0.012152 -0.003384 -153556.000000 0 0 1
-28.775140 15.945638 -17.027653 37.043393 -0.506021 2.048417 -0.018998 -0.001258 -295230.000000 0 0 1
-28.030160 14.728638 -16.404453 35.661305 -0.483805 2.048799 0.008085 -0.002782 -158073.000000 0 0 1
-27.396830 14.984238 -15.167453 34.715491 -0.500486 2.022954 0.005440 0.000188 364493.000000 0 0 1
-28.305950 15.239238 -14.091153 35.100167 -0.493875 1.983902 -0.013037 0.002407 -138948.000000 0 0 1
-27.606010 15.725638 -12.843053 34.268520 -0.517801 1.954953 -0.012102 -0.000518 -98973.800000 0 0 1
-27.011930 17.030138 -13.074853 34.505387 -0.562521 1.959428 -0.016874 0.003637 542143.000000 0 0 1
-27.974520 18.080438 -12.972253 35.745704 -0.573783 1.942179 -0.020257 0.007933 120497.000000 0 0 1
-27.419230 19.502238 -13.009253 36.074813 -0.618244 1.939727 -0.009908 0.002772 -89049.000000 0 0 1
-26.823650 19.996838 -11.804953 35.478707 -0.640610 1.909997 -0.017730 -0.014585 -21750.300000 0 0 1
-26.041330 21.096438 -12.191653 35.662963 -0.680877 1.919689 -0.018978 -0.017150 80559.400000 0 0 1
-25.152970 21.646138 -11.014053 34.964790 -0.710604 1.891257 -0.020615 -0.006736 30925.600000 0 0 1
-25.817690 22.512438 -10.113553 35.716200 -0.717115 1.857888 -0.009793 -0.012343 102843.000000 0 0 1
-25.516950 23.862938 -10.408853 36.454064 -0.751915 1.860359 -0.005152 -0.013859 214580.000000 0 0 1
-26.282820 24.919338 -9.531753 37.451493 -0.758775 1.828137 0.006282 -0.003871 606208.000000 0 0 1
-25.492560 25.184938 -8.376753 36.801110 -0.779328 1.800431 0.003482 -0.006550 705158.000000 0 0 1
-26.370640 25.741538 -7.417453 37.590637 -0.773327 1.769422 0.013740 -0.015305 196166.000000 0 0 1
-26.230500 25.110338 -6.015653 36.807014 -0.763583 1.734971 0.015646 -0.008253 2977.080000 0 0 1
-26.750910 23.784738 -6.095153 36.310822 -0.726771 1.739455 0.010136 -0.011094 69526.500000 0 0 1
-26.559000 23.128538 -4.862553 35.552133 -0.716467 1.707999 0.001174 -0.002822 -53797.300000 0 0 1
-26.972020 21.614238 -4.885153 34.907447 -0.675568 1.711203 -0.018580 0.003489 533474.000000 0 0 1
-26.104940 20.797538 -5.732953 33.865502 -0.672719 1.740901 -0.022105 -0.005588 618466.000000 0 0 1
-26.267480 21.037438 -7.179853 34.410821 -0.675285 1.780992 -0.022060 -0.005351 -52488.100000 0 0 1
-27.163810 20.007638 -7.968853 34.665267 -0.634841 1.802751 -0.027119 -0.004655 53526.000000 0 0 1
-26.515710 18.766738 -8.063153 33.470700 -0.615915 1.814091 -0.036420 0.000868 298828.000000 0 0 1
-26.747360 18.126838 -9.301353 33.623187 -0.595606 1.851087 -0.042610 0.002780 918.519000 0 0 1
-26.203870 16.655938 -9.408953 32.443666 -0.566206 1.865032 -0.023156 0.004919 204208.000000 0 0 1
-26.903810 15.738238 -8.571253 32.326050 -0.529303 1.839156 -0.045954 0.013650 162595.000000 0 0 1
-26.808310 14.390838 -9.025853 31.737166 -0.492656 1.859170 -0.035444 0.003807 -1577.820000 0 0 1
-27.258630 13.418738 -7.952553 31.406027 -0.457448 1.826801 -0.028467 0.007393 182452.000000 0 0 1
-28.670180 13.302738 -7.961653 32.593404 -0.434429 1.817565 -0.019055 0.011558 59598.400000 0 0 1
-29.205050 12.324838 -7.104753 32.485598 -0.399336 1.791283 -0.009226 0.002807 198.154000 0 0 1
-29.982210 11.176938 -7.815553 32.938423 -0.356828 1.810359 -0.003497 0.008835 -21363.600000 0 0 1
-29.161350 10.240638 -8.535653 32.064191 -0.337718 1.840250 0.006130 0.009803 199183.000000 0 0 1
-29.879540 9.088338 -8.874153 32.467451 -0.295274 1.847644 -0.002513 0.016486 -129430.000000 0 0 1
-28.960610 7.869438 -9.311053 31.421978 -0.265323 1.871637 0.031510 0.005236 6809.090000 0 0 1
-28.447170 8.075238 -10.632353 31.424479 -0.276592 1.915955 0.027074 -0.006614 403713.000000 0 0 1
-27.555280 6.992538 -10.843653 30.426532 -0.248518 1.935196 0.042153 -0.014302 450252.000000 0 0 1
-26.629860 6.951338 -12.131253 30.077198 -0.255338 1.985957 0.040328 -0.012845 267110.000000 0 0 1
-25.681240 7.969638 -12.291653 29.565621 -0.300906 1.999554 0.052449 -0.015028 -81944.100000 0 0 1
-24.708170 7.531738 -13.177153 28.997553 -0.295880 2.042521 0.047911 -0.007012 -558767.000000 0 0 1
-30.524580 26.684638 -34.236228 53.065423 -0.718378 2.272042 -0.001596 -0.008109 -38737.300000 0 0 1
-31.118450 27.952838 -34.377803 54.143812 -0.731860 2.258721 0.003218 -0.017048 248739.000000 0 0 1
-31.023180 28.337338 33.506538 53.741329 -0.740183 0.897613 0.009974 -0.019272 26470.800000 0 0 1
-31.451240 29.819838 33.251208 54.626423 -0.758778 0.916373 0.013562 -0.020720 17607.800000 0 0 1
-31.320800 30.233138 31.902751 53.970553 -0.767730 0.938357 0.032630 -0.018346 97939.700000 0 0 1
-31.759290 31.557538 31.717691 54.868412 -0.782212 0.954437 0.047474 -0.020400 -159833.000000 0 0 1
-31.597960 32.045238 30.262481 54.232334 -0.792426 0.978804 0.051017 -0.026292 -407455.000000 0 0 1
-30.277420 31.990038 29.809511 53.185445 -0.812895 0.975828 0.029641 -0.021059 -360867.000000 0 0 1
-30.228000 32.523638 28.454631 52.736942 -0.821965 1.000884 0.032869 -0.023649 1237130.000000 0 0 1
-28.742110 32.394538 27.920361 51.527289 -0.845069 0.998153 0.017371 -0.020536 893255.000000 0 0 1
-28.463850 31.126038 27.264561 50.223274 -0.830044 0.996949 0.029634 -0.024182 1084210.000000 0 0 1
-27.173810 30.949238 26.626791 49.043422 -0.850263 0.996883 0.001792 -0.007698 730864.000000 0 0 1
-26.847220 31.773238 25.359901 48.717927 -0.869234 1.023307 0.004329 -0.010608 -559673.000000 0 0 1
-26.855380 33.171138 25.464761 49.698993 -0.890229 1.032843 -0.004725 -0.012796 -340071.000000 0 0 1
-27.912480 33.741938 24.773121 50.312349 -0.879668 1.055967 -0.003017 -0.012493 -648870.000000 0 0 1
-28.167150 -34.154770 25.246171 50.963770 0.881180 1.052530 0.003778 -0.009165 -271988.000000 0 0 1
-28.671210 -34.113170 26.551951 51.872466 0.871859 1.033436 0.013462 -0.025670 197645.000000 0 0 1
-28.745730 -32.800770 27.132711 51.365275 0.851189 1.014281 0.015186 -0.025029 -242367.000000 0 0 1
-29.199300 -32.834270 28.623311 52.440274 0.843928 0.993421 0.035872 -0.027091 -599582.000000 0 0 1
-30.580610 -32.910570 28.790771 53.359046 0.822079 1.000874 0.026297 -0.037020 -658468.000000 0 0 1
-30.855320 -33.259170 30.152301 54.473704 0.822874 0.984211 0.020619 -0.034480 -531179.000000 0 0 1
-32.342010 -33.415870 30.396041 55.556685 0.801727 0.991879 0.022518 -0.039755 -538482.000000 0 0 1
-32.666000 -33.874770 31.713551 56.747836 0.803562 0.977797 0.020274 -0.039713 122384.000000 0 0 1
-34.056710 -33.904670 32.013691 57.743074 0.783161 0.983135 0.012264 -0.041394 -79597.100000 0 0 1
-34.292698 -34.314970 33.449421 58.926820 0.785723 0.967156 0.007181 -0.027590 -687323.000000 0 0 1
-34.207177 33.637238 33.636542 58.591908 -0.776998 0.959314 0.000721 -0.022706 130259.000000 0 0 1
-34.845327 33.332138 -34.352639 59.205844 -0.763207 2.189800 -0.000237 -0.018247 300840.000000 0 0 1
-34.629060 31.876638 -33.835943 57.966912 -0.744036 2.194088 -0.006148 -0.019297 912948.000000 0 0 1
-33.420270 31.819538 -33.040833 56.754683 -0.760867 2.192190 -0.008271 -0.018111 427653.000000 0 0 1
-33.053110 30.479438 -32.788293 55.646890 -0.744911 2.200890 -0.008776 -0.011294 142520.000000 0 0 1
-32.022160 30.290738 -31.652433 54.266233 -0.757619 2.193558 -0.014612 -0.002421 126851.000000 0 0 1
-32.452240 30.265638 -30.264713 53.713216 -0.750548 2.169352 -0.001558 -0.008284 -379227.000000 0 0 1
-32.863600 31.504838 -29.741533 54.379498 -0.764292 2.149484 -0.012860 0.003602 150430.000000 0 0 1
-33.885890 31.536338 -28.577043 54.400749 -0.749500 2.123871 -0.002731 0.002160 -32438.800000 0 0 1
-33.348510 31.319238 -27.305853 53.278770 -0.754028 2.108901 -0.016862 -0.012218 -429207.000000 0 0 1
-34.305285 31.218838 -26.298083 53.320330 -0.738329 2.086571 0.021469 -0.014843 -477787.000000 0 0 1
-33.579340 30.900238 -25.029853 52.047001 -0.743872 2.072487 0.033299 -0.017944 -179081.000000 0 0 1
-33.217950 32.056038 -24.281853 52.159660 -0.767600 2.055029 0.026160 -0.016827 -179751.000000 0 0 1
-33.092290 31.906638 -22.909953 51.361456 -0.767159 2.033147 0.016128 -0.026280 14033.700000 0 0 1
-34.448773 31.541838 -22.195053 51.712918 -0.741376 2.014400 0.016608 -0.030145 1004390.000000 0 0 1
34.587982 32.607538 -22.214753 52.469756 0.755934 2.007972 0.021290 -0.033074 382333.000000 0 0 1
34.911000 33.760338 -21.422953 53.079952 0.768644 1.986242 0.021916 -0.032773 -380703.000000 0 0 1
34.866423 33.543238 -19.822053 52.285085 0.766058 1.959636 0.017486 -0.025121 665738.000000 0 0 1
-34.077808 32.665438 -19.385953 51.030804 -0.764240 1.960471 0.006911 -0.025632 483638.000000 0 0 1
-33.846210 32.694338 -18.000653 50.383620 -0.768089 1.936142 0.008516 -0.012021 -482911.000000 0 0 1
-32.555880 31.982938 -17.619753 48.920847 -0.776521 1.939245 0.014803 -0.011292 -384606.000000 0 0 1
-32.489540 31.567438 -16.271853 48.133632 -0.771004 1.915647 -0.005799 -0.003703 81323.100000 0 0 1
-31.270540 30.832738 -16.179853 46.800556 -0.778349 1.923802 0.000321 -0.005242 -95625.100000 0 0 1
-30.884180 30.435338 -14.721753 45.791619 -0.778079 1.898104 0.009709 -0.005726 -160786.000000 0 0 1
-31.859900 29.753938 -13.946953 45.769723 -0.751231 1.880441 0.000311 -0.003288 -25079.300000 0 0 1
-31.367180 29.458338 -12.659753 44.854910 -0.754026 1.856922 0.012863 -0.004203 -793052.000000 0 0 1
-32.270890 28.630738 -11.817653 44.730151 -0.725698 1.838169 0.006387 -0.008707 -752497.000000 0 0 1
-31.683110 28.012138 -10.679853 43.618328 -0.723980 1.818159 0.020666 -0.006872 -246462.000000 0 0 1
-32.596260 27.182538 -10.038253 43.613909 -0.695082 1.803040 0.017244 -0.008518 -371118.000000 0 0 1
-31.979070 26.582038 -8.748053 42.494636 -0.693497 1.778141 0.014759 -0.010166 55429.300000 0 0 1
-31.749930 27.484438 -7.690453 42.691866 -0.713512 1.751924 0.019541 -0.015993 23342.000000 0 0 1
-30.490690 28.121838 -7.746353 42.196278 -0.745005 1.755422 0.032715 -0.021667 -483610.000000 0 0 1
-29.950680 28.607438 -6.370653 41.904820 -0.762464 1.723415 0.027640 -0.014413 -177941.000000 0 0 1
-29.350780 27.631738 -5.522653 40.687601 -0.755239 1.706950 0.028347 -0.017082 381693.000000 0 0 1
-29.372560 28.005138 -4.169053 40.797255 -0.761571 1.673165 0.022656 -0.014500 -433837.000000 0 0 1
-28.553660 27.016938 -3.325253 39.449762 -0.757752 1.655187 0.019968 -0.016067 -231455.000000 0 0 1
-29.180560 25.768638 -3.162353 39.058011 -0.723385 1.651851 0.003951 -0.006750 300327.000000 0 0 1
-28.487070 25.000038 -2.153153 37.962496 -0.720296 1.627545 -0.010569 -0.001474 162922.000000 0 0 1
-29.287970 23.748638 -1.687853 37.744295 -0.681332 1.615529 -0.022805 0.004060 81306.400000 0 0 1
-29.406150 22.823638 -2.738853 37.324810 -0.660029 1.644241 -0.024426 0.008748 516675.000000 0 0 1
-30.388560 21.812738 -2.438853 37.486106 -0.622569 1.635902 -0.028937 0.016642 343956.000000 0 0 1
-30.703530 20.905438 -3.646353 37.323451 -0.597779 1.668648 -0.018472 0.017784 -30220.300000 0 0 1
-29.702530 19.978938 -4.047553 36.024727 -0.592123 1.683389 -0.030801 0.017384 -65822.400000 0 0 1
-30.165700 19.164638 -5.052053 36.093989 -0.565981 1.711227 -0.020528 0.014967 -476801.000000 0 0 1
-29.148750 18.166338 -5.604853 34.800572 -0.557325 1.732557 -0.029499 0.019291 -361592.000000 0 0 1
-29.058500 17.021038 -4.810453 34.018416 -0.529876 1.712679 -0.036825 0.017572 369155.000000 0 0 1
-28.087530 16.165438 -5.390853 32.852580 -0.522238 1.735634 -0.037271 0.017345 -153298.000000 0 0 1
-27.683930 15.096138 -4.337553 31.829353 -0.499230 1.707497 -0.027502 0.007461 -399032.000000 0 0 1
-28.696310 14.170238 -4.000653 32.253357 -0.458675 1.695155 0.006901 0.000182 96268.300000 0 0 1
-28.204280 12.888938 -3.658153 31.224801 -0.428648 1.688221 0.026736 -0.009657 -257104.000000 0 0 1
-29.152530 11.953038 -2.889853 31.640107 -0.389112 1.662259 0.028483 -0.017464 116109.000000 0 0 1
-30.347140 11.616838 -3.590553 32.692383 -0.365590 1.680847 -0.001387 -0.004899 651408.000000 0 0 1
-31.151430 10.695438 -2.832053 33.057896 -0.330727 1.656571 -0.002251 0.002636 -501823.000000 0 0 1
-32.357700 10.353538 -3.683753 34.172892 -0.309677 1.678804 -0.007529 0.007629 -632296.000000 0 0 1
-32.008420 9.688438 -4.883353 33.797217 -0.293917 1.715794 -0.000779 -0.006087 264835.000000 0 0 1
-33.179340 9.375438 -5.588653 34.928505 -0.275389 1.731490 -0.002841 0.004942 -246552.000000 0 0 1
-32.897010 8.474638 -6.774453 34.639947 -0.252129 1.767633 -0.003255 -0.003586 -93811.400000 0 0 1
-32.360520 7.203438 -6.373853 33.759721 -0.219029 1.760737 -0.012214 0.003081 535888.000000 0 0 1
-32.062850 6.416538 -7.527753 33.553917 -0.197515 1.797070 -0.004470 0.010861 -578520.000000 0 0 1
-31.295420 5.132238 -7.216953 32.524261 -0.162546 1.794553 0.009157 0.009593 245740.000000 0 0 1
-29.935610 5.431738 -6.890153 31.194851 -0.179495 1.793508 0.019864 0.000880 454921.000000 0 0 1
-29.200520 4.253638 -6.695453 30.258765 -0.144653 1.793916 0.012745 -0.002999 -573403.000000 0 0 1
-27.699400 4.488538 -6.557753 28.816798 -0.160648 1.800375 0.053729 -0.004359 -743801.000000 0 0 1
-27.001690 4.868138 -7.693753 28.495330 -0.178374 1.844190 0.053321 -0.007494 -384431.000000 0 0 1
-25.651260 4.921938 -7.317653 27.124908 -0.189575 1.843957 0.077008 -0.020277 -76545.900000 0 0 1
-24.652070 5.237338 -8.473853 26.588728 -0.209338 1.895155 0.069724 -0.018437 96372.200000 0 0 1
-24.816170 4.333638 -9.547553 26.940276 -0.172886 1.933065 0.063212 -0.028236 147066.000000 0 0 1
-23.847170 4.555938 -10.518753 26.459181 -0.188773 1.979638 0.061459 -0.029841 -582581.000000 0 0 1
-24.084770 3.634838 -11.740753 27.039480 -0.149788 2.019955 0.057332 -0.037186 909988.000000 0 0 1
-25.367740 3.964438 -12.336153 28.485429 -0.155025 2.018691 0.050594 -0.012068 1299450.000000 0 0 1
-25.530210 3.251738 -13.544653 29.083037 -0.126686 2.055248 0.050895 -0.013952 131431.000000 0 0 1
-26.291300 4.044338 -14.615253 30.351190 -0.152632 2.073205 0.041614 -0.006614 -266750.000000 0 0 1
-25.418550 5.011838 -15.190653 30.032934 -0.194675 2.101105 0.039615 -0.004722 274173.000000 0 0 1
-25.924530 6.028938 -16.020153 31.065650 -0.228496 2.112606 0.044940 -0.007786 -308551.000000 0 0 1
-26.750010 5.621938 -17.301653 32.349906 -0.207151 2.135101 0.019743 0.009615 1951600.000000 0 0 1
-28.138380 5.194538 -17.059353 33.313258 -0.182552 2.108411 0.019769 -0.006176 1840380.000000 0 0 1
-28.678530 4.706438 -18.279053 34.332672 -0.162660 2.132241 0.026048 0.005454 -427031.000000 0 0 1
-30.089980 4.168938 -18.010353 35.315149 -0.137673 2.105969 0.022269 0.002443 -340382.000000 0 0 1
-30.064790 2.944538 -17.287553 34.805479 -0.097628 2.090578 0.020424 -0.004680 267425.000000 0 0 1
-30.128020 1.722938 -18.030153 35.153272 -0.057125 2.109357 0.027801 -0.002130 -280148.000000 0 0 1
-29.849930 0.549938 -17.107253 34.408994 -0.018421 2.091135 0.030460 -0.002111 -92227.400000 0 0 1
-29.601000 -0.682762 -17.756953 34.525277 0.023061 2.111008 0.038842 -0.004970 329951.000000 0 0 1
-29.912040 -1.705162 -16.812653 34.355538 0.056944 2.082166 0.041996 -0.015485 -233344.000000 0 0 1
-29.640450 -3.109762 -17.365753 34.493423 0.104534 2.098385 0.047759 -0.011072 237468.000000 0 0 1
-30.588510 -3.502262 -18.364053 35.849145 0.114000 2.108610 0.048324 -0.013582 620131.000000 0 0 1
-30.162170 -4.710462 -18.982753 35.948433 0.154920 2.127105 0.049701 -0.015675 -509499.000000 0 0 1
-31.257570 -5.232162 -19.862953 37.402514 0.165851 2.130647 0.058174 -0.016658 -619133.000000 0 0 1
-30.977180 -6.459662 -20.503153 37.705333 0.205584 2.145723 0.051736 -0.012042 93049.600000 0 0 1
-31.892900 -6.615362 -21.586053 39.075283 0.204524 2.156064 0.048773 -0.010445 4234.210000 0 0 1
-31.560400 -7.736362 -22.547653 39.551318 0.240389 2.177407 0.044424 -0.015397 579957.000000 0 0 1
-30.264200 -7.576362 -23.147353 38.847432 0.245299 2.209123 0.047123 -0.019720 631173.000000 0 0 1
-29.989820 -8.438762 -24.206053 39.452946 0.274295 2.231335 0.046738 -0.007256 -56824.800000 0 0 1
-28.629630 -8.134562 -24.869953 38.785840 0.276835 2.266873 0.038929 -0.004884 -644895.000000 0 0 1
-28.571670 -6.976662 -25.723523 39.073184 0.239495 2.289410 0.033351 -0.009335 116720.000000 0 0 1
-28.600930 -7.199562 -27.134023 40.076203 0.246601 2.314558 0.028514 -0.011277 423025.000000 0 0 1
-30.046170 -7.143362 -27.717273 41.497556 0.233413 2.302214 0.035657 -0.009950 1109020.000000 0 0 1
-30.922280 -8.270962 -27.453063 42.169501 0.261358 2.279720 0.037623 -0.009026 709734.000000 0 0 1
-32.235460 -8.191962 -27.987803 43.468957 0.248861 2.270325 0.036964 -0.002414 495722.000000 0 0 1
-33.095760 -9.410762 -27.629253 44.127852 0.277037 2.247361 0.029619 -0.006417 -738393.000000 0 0 1
-32.628180 -10.652962 -28.070443 44.339976 0.315584 2.256313 0.026858 -0.005832 -510630.000000 0 0 1
-33.436180 -11.801562 -27.925893 45.134360 0.339307 2.237919 0.004887 -0.001504 -447080.000000 0 0 1
-34.635478 -11.814362 -28.895153 46.627517 0.328729 2.239159 -0.010892 -0.000155 -161141.000000 0 0 1
34.280907 -11.014862 -28.459383 45.896016 -0.310892 2.239646 -0.018390 0.009898 134403.000000 0 0 1
33.366176 -10.794462 -29.527713 45.844388 -0.312888 2.270624 -0.025090 0.005254 -369851.000000 0 0 1
32.380546 -9.751662 -29.058063 44.586609 -0.292519 2.280649 -0.021165 0.013465 156124.000000 0 0 1
31.349076 -10.209862 -28.147363 43.350662 -0.314850 2.277453 -0.033630 0.017928 762832.000000 0 0 1
30.496206 -9.145662 -27.703423 42.203571 -0.291361 2.286865 -0.028204 0.012777 423506.000000 0 0 1
29.468496 -9.582462 -26.634963 40.861193 -0.314392 2.280805 -0.037032 0.023763 -99461.000000 0 0 1
29.990776 -9.843662 -25.315103 40.462313 -0.317144 2.246756 -0.041990 0.018318 706123.000000 0 0 1
28.924306 -10.301062 -24.461153 39.256533 -0.342133 2.243510 -0.036717 0.023234 679717.000000 0 0 1
29.388046 -10.529862 -22.964653 38.754491 -0.344054 2.205039 -0.044569 0.014937 471227.000000 0 0 1
30.320686 -11.582062 -22.720353 39.619473 -0.364881 2.181525 -0.052581 0.021598 378614.000000 0 0 1
30.553836 -11.784862 -21.344053 39.089493 -0.368125 2.148415 -0.035667 0.017057 -4638.420000 0 0 1
31.550636 -12.910462 -20.971953 40.024311 -0.388411 2.122314 -0.027383 0.018712 23112.900000 0 0 1
32.851966 -12.690862 -21.450053 41.236082 -0.368644 2.117854 -0.027002 0.021376 311052.000000 0 0 1
33.857176 -13.487362 -20.821153 41.973060 -0.379092 2.089851 -0.013934 0.027009 894993.000000 0 0 1
-34.687992 -13.282762 -21.304953 42.820434 0.365697 2.091559 -0.005790 0.010745 -51280.000000 0 0 1
-34.151493 -11.957662 -21.263053 41.969364 0.336796 2.102071 0.008048 0.012956 101882.000000 0 0 1
-34.488800 -10.978162 -22.232153 42.476652 0.308170 2.121629 0.019943 0.006818 -859636.000000 0 0 1
-34.020200 -11.094662 -23.701353 42.921086 0.315244 2.155806 0.016821 0.003395 199353.000000 0 0 1
-34.676770 -12.064562 -24.522253 44.151703 0.334816 2.159651 0.004439 0.010339 1211530.000000 0 0 1
33.903936 -11.904162 -24.684853 43.595045 -0.337667 2.172722 0.004780 0.013506 1107100.000000 0 0 1
33.296086 -12.889262 -25.742103 44.016114 -0.369346 2.195471 -0.022005 0.002939 -205801.000000 0 0 1
33.510476 -14.294762 -25.454723 44.443618 -0.403205 2.180643 -0.025275 0.005797 468684.000000 0 0 1
32.821536 -14.751562 -24.292053 43.416191 -0.422394 2.164598 -0.027941 0.005175 -200921.000000 0 0 1
-28.841260 7.809138 -20.056953 35.987251 -0.264423 2.161969 0.008502 0.005484 765789.000000 0 0 1
-27.569790 7.276638 -20.465553 35.098171 -0.258051 2.193329 0.005484 0.004639 784920.000000 0 0 1
-26.619110 8.303138 -20.668253 34.708728 -0.302360 2.208656 0.010385 -0.003928 223520.000000 0 0 1
-25.268600 7.734938 -21.205453 33.882187 -0.297052 2.247028 0.002303 0.006182 69201.700000 0 0 1
-24.664070 6.948438 -20.196353 32.626520 -0.274606 2.238286 0.010410 0.010568 354204.000000 0 0 1
-23.462470 6.288138 -20.581753 31.837662 -0.261855 2.273731 0.022697 0.005836 267170.000000 0 0 1
-22.186670 6.971238 -20.059853 30.712280 -0.304441 2.282539 0.013754 0.005384 -279275.000000 0 0 1
-21.649970 7.963138 -20.905353 31.131440 -0.352455 2.307053 0.020610 0.002906 145719.000000 0 0 1
-20.530670 8.588738 -20.291953 30.117074 -0.396213 2.310094 0.019422 0.010357 185259.000000 0 0 1
-19.929170 9.684138 -21.216053 30.676949 -0.452327 2.334493 0.025322 0.006672 204644.000000 0 0 1
-19.119270 9.157738 -22.299053 30.767814 -0.446690 2.381472 0.039519 -0.004936 562823.000000 0 0 1
-18.489670 10.153538 -23.099453 31.281735 -0.502188 2.401539 0.035748 -0.001439 -13725.200000 0 0 1
-17.599970 9.520238 -24.185853 31.390275 -0.495848 2.450404 0.035435 -0.007693 -85490.800000 0 0 1
-18.318670 8.746938 -25.118383 32.295754 -0.445476 2.461892 0.026175 -0.004163 -669027.000000 0 0 1
-17.456070 8.125438 -26.003733 32.356317 -0.435652 2.504230 0.016607 0.002188 -1034830.000000 0 0 1
-18.193970 7.147138 -26.913953 33.263538 -0.374310 2.513437 0.003575 0.005065 -403600.000000 0 0 1
-18.372270 5.900938 -26.242833 32.573726 -0.310779 2.507558 0.013711 0.008499 310701.000000 0 0 1
-19.121370 4.979338 -27.050953 33.498875 -0.254749 2.510729 0.002325 0.007411 -618694.000000 0 0 1
-19.407670 3.646438 -26.360173 32.936497 -0.185721 2.498647 -0.002108 0.012669 70453.100000 0 0 1
-18.353870 2.752238 -26.021063 31.961462 -0.148845 2.522041 -0.005167 0.015945 661526.000000 0 0 1
-17.250170 3.256038 -25.260723 30.761571 -0.186559 2.534268 -0.005852 0.011582 -35954.200000 0 0 1
-16.453770 2.136338 -24.587753 29.662233 -0.129116 2.547979 -0.006802 0.009941 -208881.000000 0 0 1
-17.117170 1.535938 -23.505453 29.118086 -0.089491 2.510267 -0.008649 0.009353 648267.000000 0 0 1
-18.165470 0.603538 -23.848353 29.984871 -0.033212 2.490375 -0.011755 0.011512 417923.000000 0 0 1
-18.598370 -0.300262 -22.690353 29.340103 0.016143 2.454915 0.006344 0.013935 -120331.000000 0 0 1
-17.711170 -1.342162 -22.418753 28.602227 0.075636 2.471576 -0.010182 0.014905 17595.500000 0 0 1
-18.132370 -1.894462 -21.183653 27.948506 0.104102 2.430966 0.011532 0.010833 -25824.700000 0 0 1
-17.802370 -3.383362 -21.004753 27.741145 0.187811 2.429766 -0.020715 0.006504 -86175.500000 0 0 1
-18.550070 -4.265062 -21.838553 28.969263 0.225994 2.424702 -0.014413 -0.000489 328461.000000 0 0 1
-18.693170 -5.470062 -21.186053 28.778551 0.284676 2.398198 -0.012001 0.001845 -559450.000000 0 0 1
-18.639170 -6.655162 -22.170853 29.719632 0.342944 2.412832 -0.021614 0.000449 -293410.000000 0 0 1
-17.334270 -6.816662 -22.677953 29.346777 0.374672 2.453971 -0.019094 0.002830 -13414.600000 0 0 1
-17.288070 -7.611962 -23.828253 30.407317 0.414759 2.471293 -0.004135 -0.002376 601735.000000 0 0 1
-15.854270 -7.827962 -24.418153 30.147654 0.458631 2.514867 -0.011503 -0.014081 -288510.000000 0 0 1
-15.875270 -8.208662 -25.784963 31.373088 0.477212 2.535503 -0.011676 -0.016854 331063.000000 0 0 1
-14.597370 -8.051662 -26.370753 31.198222 0.504058 2.577856 0.000832 -0.013393 685834.000000 0 0 1
-13.402370 -8.997862 -25.974433 30.581959 0.591247 2.585527 0.012754 -0.018439 -75256.400000 0 0 1
-12.909070 -8.545462 -24.715353 29.163636 0.584746 2.582000 -0.002126 -0.008606 -174004.000000 0 0 1
-12.100470 -9.534962 -24.096453 28.600278 0.667370 2.572750 -0.004706 -0.001891 -100171.000000 0 0 1
-11.428270 -9.041562 -22.836153 27.089575 0.669326 2.573608 0.001877 0.002035 -238509.000000 0 0 1
-12.343170 -8.669962 -21.829653 26.534050 0.612341 2.536947 0.005207 0.010436 334332.000000 0 0 1
-11.603370 -8.122262 -20.733553 25.109551 0.610720 2.542280 0.010978 0.009299 -287089.000000 0 0 1
-12.397370 -7.974062 -19.395053 24.360799 0.571584 2.491716 -0.000831 0.010905 358465.000000 0 1 0
-13.282370 -6.865362 -19.284453 24.401735 0.477058 2.482079 -0.013433 0.013441 23290.000000 0 1 0
-14.554570 -7.056462 -19.836653 25.595350 0.451436 2.457527 -0.017516 0.005601 -400851.000000 0 0 1
-15.524070 -5.871862 -19.549353 25.644740 0.361610 2.437678 -0.030652 0.013515 -332263.000000 0 0 1
-15.662270 -5.662262 -18.155353 24.637060 0.346903 2.399288 -0.028288 0.012839 155931.000000 0 1 0
-14.988570 -4.508662 -17.770653 23.680822 0.292197 2.419499 -0.030254 0.015522 -642388.000000 0 1 0
-14.966970 -4.426862 -16.199953 22.495461 0.287577 2.374805 -0.011473 0.011758 -539111.000000 0 1 0
-16.089170 -3.955862 -15.523553 22.704425 0.241089 2.323650 -0.008943 0.005923 -392741.000000 0 1 0
-16.436470 -2.591562 -15.709753 22.883838 0.156384 2.327461 -0.041499 0.006686 -1149630.000000 0 1 0
-17.608970 -2.195562 -14.893553 23.167093 0.124044 2.269043 -0.035073 0.003345 -1223020.000000 0 1 0
-17.388770 -2.407562 -13.523653 22.159757 0.137580 2.227210 -0.010987 -0.010810 231624.000000 0 1 0
-18.339170 -1.760162 -12.717853 22.386762 0.095685 2.174988 -0.008507 -0.016595 -386332.000000 0 1 0
-17.857670 -0.429462 -12.027953 21.534912 0.024045 2.163412 -0.004188 -0.013572 -190317.000000 0 1 0
-17.587470 0.564638 -12.960653 21.854437 -0.032094 2.205631 0.010964 -0.013033 163751.000000 0 1 0
-16.658370 1.438038 -12.361153 20.793444 -0.086112 2.207407 0.020928 -0.009333 -780303.000000 0 1 0
-16.275370 2.492338 -13.403353 21.230857 -0.151955 2.254044 0.031378 -0.004986 147150.000000 0 1 0
-15.559570 2.022338 -14.592153 21.427109 -0.129249 2.319942 0.028615 -0.002895 962282.000000 0 1 0
-14.187570 1.738038 -14.320753 20.233434 -0.121897 2.357142 0.012327 0.004220 -439168.000000 0 1 0
-13.560670 0.659938 -15.143853 20.338721 -0.048627 2.410705 0.001505 -0.004360 -484925.000000 0 1 0
-13.201670 1.114038 -16.418053 21.096863 -0.084187 2.462627 -0.000412 -0.005607 132337.000000 0 1 0
-12.781070 0.061538 -17.265253 21.481352 -0.004815 2.504338 -0.014015 0.002454 -20124.600000 0 1 0
-12.235570 0.591338 -18.633853 22.299760 -0.048292 2.560035 -0.003395 0.000815 235974.000000 0 1 0
-11.010170 1.302938 -18.506553 21.573455 -0.117792 2.601846 -0.003986 0.000937 112796.000000 0 1 0
-10.688670 1.982638 -19.703953 22.503872 -0.183405 2.637433 -0.002088 0.004333 24575.900000 0 1 0
-9.348470 2.743038 -19.576453 21.866770 -0.285410 2.679812 -0.004275 0.004489 -53421.900000 0 1 0
-8.278170 1.798538 -19.599553 21.351939 -0.213938 2.733624 -0.007026 0.006635 -14040.700000 0 1 0
-6.967470 2.275838 -19.423553 20.760527 -0.315712 2.780752 -0.008330 0.009756 482109.000000 0 1 0
-6.354070 3.347738 -20.383253 21.611537 -0.484908 2.802826 -0.011084 0.014231 -708872.000000 0 1 0
-6.169370 2.923238 -21.709453 22.757565 -0.442494 2.836917 -0.015991 0.017960 239736.000000 0 1 0
-5.836170 3.980538 -22.555753 23.636149 -0.598575 2.838073 -0.009932 0.008998 -496447.000000 0 1 0
-5.453870 3.544538 -23.986353 24.852637 -0.576314 2.876786 0.003813 0.007050 -334630.000000 0 1 0
-4.237070 2.853838 -23.971553 24.509845 -0.592746 2.931625 0.014139 -0.002386 -376613.000000 0 1 0
-3.975070 2.146738 -25.173523 25.575690 -0.495172 2.964020 0.014505 -0.005125 -815521.000000 0 0 1
-2.635670 1.429538 -25.090513 25.269036 -0.496975 3.022654 0.013357 -0.005994 -1049950.000000 0 0 1
-1.623870 2.397938 -24.991053 25.158294 -0.975541 3.026224 0.016811 -0.007228 -4726.200000 0 0 1
-0.284570 1.935238 -25.032453 25.108760 -1.424796 3.063611 0.020399 -0.006608 486247.000000 0 0 1
0.292130 1.230138 -23.773953 23.807549 1.337638 3.088461 0.013383 -0.007446 -1032580.000000 0 1 0
-0.064170 -0.102962 -23.746253 23.746563 1.013465 3.136484 0.012532 -0.008019 -85865.300000 0 1 0
0.585830 -0.868062 -22.770653 22.794722 -0.977135 3.095634 0.013864 -0.008731 -766135.000000 0 1 0
0.225030 -2.384862 -22.856053 22.981239 -1.476717 3.037168 0.019423 -0.010340 -223762.000000 0 1 0
-0.851070 -2.938262 -22.091653 22.302440 1.288861 3.003997 0.015146 -0.009110 2041930.000000 0 1 0
-2.167170 -2.944462 -22.777153 23.068705 0.936306 2.982438 0.016979 -0.010116 1938020.000000 0 1 0
-2.908570 -1.592762 -22.922853 23.161473 0.501006 2.997925 0.015510 -0.004836 -2000940.000000 0 1 0
-3.157070 -1.067762 -21.615953 21.871365 0.326136 2.988617 0.000214 -0.003812 569551.000000 0 1 0
-4.138370 -0.031162 -21.544253 21.938138 0.007530 2.951812 0.002192 -0.002035 566259.000000 0 1 0
-5.520970 -0.258562 -22.174353 22.852787 0.046799 2.897317 -0.003502 -0.001763 -1230290.000000 0 1 0
-6.278270 -1.325762 -21.705853 22.634451 0.208109 2.854157 -0.005098 0.006039 188931.000000 0 1 0
-7.664370 -1.022862 -21.795853 23.126781 0.132673 2.800683 -0.016821 0.011367 312938.000000 0 1 0
-8.586470 -2.218362 -21.497553 23.254964 0.252827 2.750331 -0.003950 0.006784 -197705.000000 0 1 0
-8.583970 -3.230362 -22.455153 24.256002 0.359932 2.753828 0.015123 -0.001070 -68499.700000 0 1 0
-9.156470 -4.395362 -21.908453 24.148301 0.447543 2.707486 0.007128 -0.001163 -666949.000000 0 1 0
-9.932270 -5.189862 -22.945653 25.536006 0.481505 2.687275 -0.002968 -0.002030 246282.000000 0 0 1
-11.150770 -4.570862 -23.333753 26.262073 0.389024 2.664854 -0.014693 -0.003905 479734.000000 0 0 1
-12.089970 -5.422462 -23.994053 27.409579 0.421613 2.637037 -0.022914 -0.009708 1087960.000000 0 0 1
-13.572470 -4.919262 -23.875953 27.901114 0.347718 2.597765 -0.022155 -0.014852 513929.000000 0 0 1
-13.888470 -3.758062 -24.562153 28.465979 0.264260 2.611697 -0.020079 -0.016352 -388622.000000 0 0 1
-15.288970 -3.750762 -24.671453 29.266045 0.240574 2.573644 -0.012023 -0.013159 143962.000000 0 0 1
-15.810470 -2.300762 -25.180653 29.821632 0.144507 2.576195 -0.014657 -0.010916 24640.900000 0 0 1
-15.269870 -2.019562 -26.474113 30.628846 0.131495 2.614657 -0.006528 -0.011703 231167.000000 0 0 1
-15.610970 -0.710562 -26.979113 31.178194 0.045485 2.616585 -0.013318 -0.005864 680007.000000 0 0 1
-17.103370 -0.620262 -27.500983 32.391573 0.036250 2.584918 -0.010674 0.006120 595674.000000 0 0 1
-17.405170 -1.516762 -28.519213 33.445269 0.086925 2.591953 -0.003467 -0.011360 -2194.060000 0 0 1
-16.751470 -1.261762 -29.742503 34.158751 0.075181 2.627449 0.000776 -0.010192 -417809.000000 0 0 1
-17.024870 -2.311162 -30.817023 35.282808 0.134927 2.632996 0.007726 -0.008199 -1176690.000000 0 0 1
-18.274870 -2.196862 -31.377273 36.377607 0.119638 2.611072 0.004604 -0.011350 -829407.000000 0 0 1
-18.306870 -2.912762 -32.574233 37.479412 0.157785 2.624223 0.009602 -0.012944 -202621.000000 0 0 1
-19.760470 -3.351162 -32.932823 38.552267 0.167991 2.594880 -0.005226 -0.012629 673921.000000 0 0 1
-20.701470 -2.336462 -33.307723 39.286312 0.112389 2.582657 -0.004173 -0.012874 543814.000000 0 0 1
-21.220770 -1.634262 -32.208883 38.605751 0.076861 2.557663 -0.015868 0.000271 -52333.900000 0 0 1
-22.434570 -0.693962 -32.603303 39.582406 0.030923 2.538670 -0.010545 0.005683 579881.000000 0 0 1
-22.059870 0.574038 -33.088113 39.771731 -0.026016 2.553410 -0.013050 0.000916 130937.000000 0 0 1
-23.181370 1.366338 -33.397543 40.677250 -0.058873 2.534022 -0.012541 0.008319 94267.600000 0 0 1
-22.737670 2.717838 -34.050863 41.034735 -0.118966 2.549556 -0.011184 0.010753 -411700.000000 0 0 1
-22.059670 3.610738 -33.177003 40.004749 -0.162242 2.548698 -0.015071 0.012530 198250.000000 0 0 1
-22.716970 4.290838 -32.109653 39.566423 -0.186683 2.517576 -0.026580 0.008383 -496050.000000 0 0 1
-23.947770 5.203938 -32.400233 40.624521 -0.213977 2.494025 -0.036200 0.002258 1114230.000000 0 0 1
-25.213680 4.561638 -32.691183 41.536148 -0.178983 2.476815 -0.014375 0.003514 1093450.000000 0 0 1
-25.654900 4.976038 -33.968633 42.857938 -0.191582 2.485836 -0.010951 -0.006694 413353.000000 0 0 1
-27.007070 4.356838 -34.488579 44.020744 -0.159944 2.471014 0.003903 -0.008788 624398.000000 0 0 1
-26.937700 2.959438 34.412917 43.802361 -0.109423 0.667065 0.012062 -0.011474 -591617.000000 0 0 1
-28.132550 2.552838 33.879689 44.111117 -0.090495 0.695001 0.022927 -0.008172 -1003330.000000 0 0 1
-28.178260 1.056838 33.457874 43.755692 -0.037488 0.700295 0.025316 0.007846 -411261.000000 0 0 1
-28.223990 0.173038 34.544705 44.608970 -0.006131 0.685047 0.025418 0.009619 235145.000000 0 0 1
-28.227970 -1.205862 34.147481 44.320682 0.042693 0.691228 0.009759 0.011933 -507479.000000 0 0 1
-28.121580 -2.114062 -33.843263 44.052911 0.075035 2.446886 -0.018751 0.013785 449825.000000 0 0 1
-26.857970 -2.120662 -33.170513 42.733250 0.078795 2.459448 0.003171 0.003150 787371.000000 0 0 1
-26.410270 -0.948262 -32.527203 41.909670 0.035890 2.459296 0.007427 0.004444 -662702.000000 0 0 1
-26.724150 -0.754362 -31.044423 40.969567 0.028220 2.430644 0.015930 0.002255 -603984.000000 0 0 1
-25.913650 -1.542562 -30.247473 39.859834 0.059457 2.432336 0.006324 -0.000725 170990.000000 0 0 1
-25.832060 -0.917062 -29.002073 38.849151 0.035486 2.413628 0.010489 -0.004269 46532.300000 0 0 1
-24.668270 -1.462962 -28.117893 37.433670 0.059236 2.420582 0.007697 -0.001213 427352.000000 0 0 1
-24.954970 -2.809962 -27.716963 37.401556 0.112129 2.405451 -0.009213 0.001415 1082010.000000 0 0 1
-23.797670 -3.165962 -26.940943 36.085548 0.132260 2.413711 0.002128 -0.000982 590764.000000 0 0 1
-23.925870 -4.585662 -26.345263 35.882425 0.189365 2.395300 -0.007553 -0.006400 417522.000000 0 0 1
-24.980470 -4.575762 -25.371443 35.898072 0.181165 2.355709 0.006223 -0.006698 290110.000000 0 0 1
-24.966970 -5.722062 -24.533153 35.467833 0.225294 2.334639 0.000624 -0.008005 15096.700000 0 0 1
-26.185770 -5.590262 -23.601553 35.692840 0.210327 2.293268 0.011606 -0.014539 -44038.400000 0 0 1
-26.155210 -6.536262 -22.517353 35.126185 0.244887 2.266651 0.010424 -0.013402 142770.000000 0 0 1
-27.281740 -6.322062 -21.698253 35.427051 0.227713 2.229987 0.036379 -0.008149 -18858.100000 0 0 1
-27.857050 -7.576162 -21.035753 35.719971 0.265543 2.200503 0.024101 -0.013046 -274603.000000 0 0 1
-26.950080 -7.970562 -20.036953 34.515448 0.287556 2.190165 0.018141 -0.009886 304188.000000 0 0 1
-27.521280 -8.924062 -19.167353 34.705146 0.313563 2.155907 0.024533 -0.002320 265023.000000 0 0 1
-28.414670 -8.332262 -18.004853 34.655371 0.285242 2.117109 0.030944 -0.014708 245386.000000 0 0 1
-27.666270 -7.609162 -17.072153 33.388325 0.268398 2.107518 0.033252 -0.015364 304571.000000 0 0 1
-28.537560 -6.914662 -16.195053 33.533336 0.237719 2.074821 0.038119 -0.016741 83558.300000 0 0 1
-27.777670 -6.088762 -15.145853 32.219075 0.215784 2.060189 0.038936 -0.011743 206882.000000 0 0 1
-26.963710 -5.073362 -15.752853 31.637525 0.185981 2.091991 0.039514 -0.012699 126394.000000 0 0 1
-25.891930 -4.820562 -14.883753 30.251544 0.184073 2.085182 0.035224 -0.021359 -316271.000000 0 0 1
-13.793670 21.530438 -5.381753 26.130219 -1.001016 1.778240 0.014884 -0.001892 -53007.000000 0 0 1
-13.872270 20.758238 -6.569453 25.816700 -0.981679 1.828091 0.033459 -0.003862 -511280.000000 0 0 1
-14.754370 19.722638 -6.480153 25.468927 -0.928517 1.828058 0.035793 -0.016168 -729793.000000 0 0 1
-14.843570 18.845238 -7.763553 25.214030 -0.903627 1.883788 0.041410 -0.028637 -138035.000000 0 0 1
-13.615670 18.264838 -8.178753 24.205015 -0.930208 1.915476 0.029419 -0.028722 122899.000000 0 1 0
-13.736470 17.194638 -9.110653 23.819114 -0.896738 1.963290 0.017370 -0.032419 -365146.000000 0 1 0
-14.385270 15.825838 -8.632553 23.063263 -0.833045 1.954437 0.012712 -0.038424 1570840.000000 0 1 0
-15.806570 16.027938 -8.319753 23.999182 -0.792352 1.924813 0.018593 -0.020913 1799650.000000 0 1 0
-16.296070 15.184038 -7.296053 23.438201 -0.750088 1.887345 0.037641 -0.021157 781448.000000 0 1 0
-17.827570 15.366538 -7.007953 24.557364 -0.711393 1.860190 0.052754 -0.020486 1102470.000000 0 1 0
-18.735270 14.848238 -7.965753 25.197891 -0.670169 1.892441 0.045987 -0.021883 900426.000000 0 0 1
-20.078570 15.345238 -7.833453 26.457292 -0.652565 1.871381 0.021524 -0.017121 651365.000000 0 0 1
-21.044670 14.713038 -8.821153 27.150771 -0.610144 1.901697 0.018108 -0.004899 -465837.000000 0 0 1
-21.439470 13.437738 -8.333753 26.639728 -0.559875 1.888969 0.037611 -0.003977 -326211.000000 0 0 1
-22.048370 12.787338 -9.385553 27.161282 -0.525559 1.923620 0.030299 0.003230 -153998.000000 0 0 1
-22.532370 11.396138 -8.867453 26.762126 -0.468251 1.908523 0.019900 0.003587 -672695.000000 0 0 1
-21.476870 10.508138 -8.586753 25.404905 -0.455032 1.915583 0.024445 0.001912 -35477.400000 0 0 1
-21.932370 9.318438 -7.880953 25.099234 -0.401762 1.890191 0.030318 -0.009735 -126713.000000 0 0 1
-20.833270 8.343438 -7.384253 23.625522 -0.380925 1.888677 0.026889 0.004031 -132797.000000 0 1 0
-20.446170 7.363538 -8.295453 23.261171 -0.345682 1.935446 0.013153 0.003242 672408.000000 0 1 0
-19.542470 6.383538 -7.760253 21.974513 -0.315723 1.931730 0.017076 0.005991 56744.900000 0 1 0
-19.381670 5.198438 -8.713053 21.876704 -0.262047 1.980437 0.016056 -0.005154 -232448.000000 0 1 0
-20.419870 4.231038 -8.718453 22.602747 -0.204311 1.966790 0.026508 -0.005754 632513.000000 0 1 0
-20.171870 3.283638 -9.713853 22.628423 -0.161368 2.014488 0.015168 -0.008913 -548805.000000 0 1 0
-21.135470 2.126238 -9.650053 23.331363 -0.100263 1.997210 0.017532 -0.013291 -662486.000000 0 1 0
-20.803570 1.366938 -8.522453 22.523082 -0.065613 1.958850 0.014367 -0.018169 238698.000000 0 1 0
-21.672870 0.386238 -8.008353 23.108357 -0.017819 1.924694 0.027794 -0.014128 -785810.000000 0 1 0
-21.548170 -0.966862 -8.807653 23.298781 0.044840 1.958464 0.007872 -0.023234 -495972.000000 0 1 0
-20.314370 -1.609862 -8.651153 22.138377 0.079082 1.972271 -0.007328 -0.014268 -251777.000000 0 1 0
-20.256070 -2.956162 -9.141653 22.419123 0.144917 1.990797 -0.025860 -0.010884 -851393.000000 0 1 0
-21.164370 -4.021362 -8.558753 23.180901 0.187768 1.948961 -0.027678 -0.002971 -543833.000000 0 1 0
-20.909970 -4.282362 -7.215653 22.530670 0.202007 1.896799 -0.030491 0.001928 357341.000000 0 1 0
-21.906770 -5.122462 -6.606553 23.447659 0.229703 1.856422 -0.016324 0.006929 -370317.000000 0 1 0
-21.828470 -6.688162 -6.822953 23.827847 0.297315 1.861205 -0.028812 -0.000361 -488950.000000 0 1 0
-20.826870 -7.402162 -6.097453 22.928791 0.341490 1.839965 -0.039444 -0.003342 720103.000000 0 1 0
-20.978570 -8.760862 -6.326253 23.598190 0.395595 1.842198 -0.031538 -0.003523 -161742.000000 0 1 0
-19.904670 -9.658562 -5.669453 22.839142 0.451771 1.821653 -0.032372 -0.002584 26168.500000 0 1 0
-18.583970 -9.551162 -6.160453 21.783935 0.474742 1.857506 -0.041046 -0.000935 472065.000000 0 1 0
-17.734270 -10.510862 -5.509553 21.338644 0.535025 1.831951 -0.021511 0.004048 -20114.900000 0 1 0
-17.279570 -11.736362 -6.336653 21.828397 0.596633 1.865330 -0.013207 0.010657 -515445.000000 0 1 0
-16.272270 -11.597862 -7.303453 21.275281 0.619224 1.921207 -0.013885 0.005438 155450.000000 0 1 0
-16.803970 -11.055362 -8.516053 21.843021 0.581910 1.971292 -0.004372 0.001996 305527.000000 0 1 0
-15.744570 -11.143962 -9.663553 21.574606 0.615940 2.035226 -0.002899 0.001116 571116.000000 0 1 0
-15.689870 -12.474162 -10.058353 22.426484 0.671713 2.035886 -0.009103 0.001147 417768.000000 0 1 0
-14.657170 -12.646762 -11.019353 22.275533 0.711900 2.088268 -0.006105 0.006145 117670.000000 0 1 0
-14.743970 -13.994362 -11.732753 23.470925 0.759320 2.094262 0.006704 0.006317 119009.000000 0 1 0
-15.661470 -13.997862 -12.881753 24.640644 0.729366 2.120911 0.010937 0.010819 752397.000000 0 1 0
-15.596370 -15.291362 -13.536353 25.696407 0.775524 2.125604 0.006051 0.014859 -119175.000000 0 0 1
-16.200070 -15.184562 -14.919753 26.750929 0.753053 2.162443 0.023710 0.016669 -114150.000000 0 0 1
-16.220070 -16.427462 -15.659753 27.895878 0.791751 2.166830 0.023910 0.015935 234470.000000 0 0 1
-16.577870 -16.249662 -17.042353 28.797900 0.775401 2.204076 0.020384 0.013067 -186842.000000 0 0 1
-16.645870 -17.658262 -17.786153 30.087313 0.814902 2.203282 0.026227 0.000395 946826.000000 0 0 1
-17.856370 -18.393562 -17.445553 31.008392 0.800216 2.168333 0.022694 0.011175 810067.000000 0 0 1
-18.796070 -18.349562 -18.520053 32.140178 0.773378 2.184902 0.012185 0.008183 -851834.000000 0 0 1
-20.188870 -18.269362 -17.968153 32.622302 0.735528 2.154111 -0.003070 0.004008 -1267020.000000 0 0 1
-20.516170 -17.077362 -17.300953 31.809943 0.694179 2.145856 -0.005739 0.014153 55545.200000 0 0 1
-20.340570 -17.016362 -15.928653 30.935697 0.696647 2.111682 -0.001990 0.009085 -344905.000000 0 0 1
-20.503170 -15.642162 -15.251453 29.961042 0.651715 2.104869 0.012899 0.002683 117516.000000 0 0 1
-21.815870 -15.118062 -15.206153 30.589460 0.606002 2.091055 0.014214 0.000075 308176.000000 0 0 1
-21.787470 -13.773262 -14.773953 29.709700 0.563735 2.091254 0.018171 0.006502 566038.000000 0 0 1
-23.198770 -13.101562 -14.591753 30.376851 0.514099 2.071859 0.028433 0.001342 579695.000000 0 0 1
-23.821670 -13.337662 -13.353053 30.391927 0.510409 2.025684 0.026345 0.001848 577785.000000 0 0 1
-24.842870 -12.397562 -13.007453 30.660423 0.462879 2.008921 0.030782 -0.002996 102168.000000 0 0 1
-25.675880 -12.915562 -11.815153 31.075077 0.466063 1.960823 0.029294 -0.005732 -321398.000000 0 0 1
-26.540730 -11.947862 -11.266353 31.210454 0.422996 1.940115 0.028939 -0.017328 -56664.000000 0 0 1
-27.306100 -12.461762 -10.221353 31.707959 0.428141 1.899017 0.013187 -0.012971 -315236.000000 0 0 1
-27.948590 -11.302562 -9.434353 31.589216 0.384298 1.874082 0.025100 -0.020865 94775.100000 0 0 1
-27.032230 -10.480962 -8.687253 30.266489 0.369876 1.861917 0.023836 -0.022897 182640.000000 0 0 1
-27.683670 -9.336762 -8.229353 30.352643 0.325286 1.845358 0.041585 -0.024103 148061.000000 0 0 1
-26.660690 -8.188562 -7.861653 28.976724 0.297994 1.845549 0.025517 -0.008794 274469.000000 0 0 1
-25.925570 -8.593762 -6.751353 28.134830 0.320080 1.813125 -0.001182 -0.011367 -261028.000000 0 0 1
-25.117180 -7.613262 -6.118853 26.949487 0.294307 1.799843 -0.000336 -0.005206 -584099.000000 0 0 1
-25.783190 -6.403362 -5.419153 27.113523 0.243429 1.772021 0.009355 -0.007540 -477669.000000 0 0 1
-26.708290 -6.695062 -4.393553 27.882968 0.245612 1.729027 0.006564 -0.010777 351372.000000 0 0 1
-26.176500 -6.888662 -3.073453 27.241676 0.257328 1.683859 0.025268 -0.007539 -182982.000000 0 0 1
-25.736310 -5.629862 -2.247853 26.440610 0.215359 1.655914 0.016317 -0.000853 -554186.000000 0 0 1
-26.772200 -4.799762 -1.843053 27.261424 0.177397 1.638455 0.018172 0.002373 -163279.000000 0 0 1
-26.264390 -3.697462 -1.100653 26.546202 0.139859 1.612270 0.004104 0.000719 -497434.000000 0 0 1
-27.300910 -2.765662 -0.393053 27.443452 0.100959 1.585119 0.008101 -0.005111 767589.000000 0 0 1
-28.187040 -3.467862 0.529247 28.404496 0.122415 1.552163 0.010837 -0.004434 906763.000000 0 0 1
-27.478170 -3.737562 1.750747 27.786405 0.135190 1.507747 0.002617 -0.000904 -24255.600000 0 0 1
-28.378390 -4.208962 2.882847 28.833300 0.147242 1.470646 -0.008165 0.003770 -266356.000000 0 0 1
-28.793900 -5.581662 2.856347 29.468667 0.191474 1.473716 -0.002922 0.004488 512110.000000 0 0 1
-29.845750 -5.655862 3.838047 30.618429 0.187282 1.445115 0.004839 0.000771 57816.800000 0 0 1
-30.653240 -6.957262 3.845747 31.667245 0.223186 1.449053 0.005590 0.003388 -397467.000000 0 0 1
-29.937180 -8.103562 4.297347 31.310855 0.264351 1.433114 0.005236 0.008793 701400.000000 0 0 1
-30.751280 -9.275362 4.113347 32.381989 0.292947 1.443426 0.022715 0.000989 535977.000000 0 0 1
-29.924590 -10.589862 4.350747 32.039901 0.340132 1.434584 0.010525 0.000521 376374.000000 0 0 1
-29.999890 -10.786462 5.725147 32.390098 0.345157 1.393107 0.005112 0.000302 549677.000000 0 0 1
-28.912300 -11.608262 6.134647 31.753846 0.381798 1.376380 -0.004000 0.007965 -10196.500000 0 0 1
-28.927250 -11.952162 7.594447 32.207384 0.391817 1.332756 0.001269 -0.004399 -285463.000000 0 0 1
-28.687520 -10.874262 8.416647 31.812943 0.362324 1.303042 0.010515 -0.002826 390672.000000 0 0 1
-28.641070 -11.346662 9.734747 32.308249 0.377198 1.264732 0.010318 -0.006043 -310747.000000 0 0 1
-28.834570 -10.243862 10.777147 32.442504 0.341356 1.232169 0.003753 -0.006789 -77868.500000 0 0 1
-27.799640 -9.266862 10.756447 31.215315 0.321761 1.218996 0.012334 -0.008691 329206.000000 0 0 1
-27.814300 -8.333362 11.891947 31.376721 0.291096 1.182075 0.008239 -0.007886 462349.000000 0 0 1
-26.846370 -7.069062 11.641147 30.103414 0.257471 1.173740 0.011118 -0.002096 474873.000000 0 0 1
-27.144420 -6.281262 10.528947 29.784770 0.227399 1.209485 0.006530 -0.002329 120854.000000 0 0 1
-26.365210 -5.122162 10.503247 28.838846 0.191887 1.198017 0.003634 -0.001953 -509415.000000 0 0 1
-26.738630 -4.348562 9.262947 28.629819 0.161221 1.241326 0.000051 -0.003335 -322706.000000 0 0 1
-26.285870 -4.928062 8.105347 27.945114 0.185328 1.276522 0.002830 -0.001242 255402.000000 0 0 1
-26.610040 -4.130162 7.003847 27.824564 0.153982 1.316345 -0.008065 -0.005848 -158094.000000 0 0 1
-25.914820 -4.563562 5.650147 26.913345 0.174311 1.359284 -0.005533 0.000879 -249120.000000 0 0 1
-24.613470 -4.040262 5.664747 25.578037 0.162697 1.347475 0.030886 -0.012118 -198566.000000 0 0 1
-23.794670 -4.471962 4.635547 24.651025 0.185773 1.381623 0.039164 -0.010157 -195884.000000 0 1 0
-22.338670 -3.984762 4.848247 23.203448 0.176523 1.360300 0.047567 -0.013857 77711.000000 0 1 0
-22.167070 -2.630662 4.693247 22.810654 0.118122 1.363568 0.029833 -0.011481 124802.000000 0 1 0
-20.847070 -2.233362 4.974947 21.548511 0.106724 1.337823 0.029933 -0.011928 -389212.000000 0 1 0
-20.555370 -0.685262 5.062247 21.180632 0.033325 1.329457 0.023237 -0.013311 -416010.000000 0 1 0
-20.702170 0.000538 3.853047 21.057678 -0.000026 1.386784 0.025727 -0.006324 18061.400000 0 1 0
-21.929370 0.646538 3.760547 22.258863 -0.029474 1.401036 0.016922 -0.017119 -723559.000000 0 1 0
-21.996870 1.783738 2.696747 22.233229 -0.080913 1.449203 0.032465 -0.010016 -348132.000000 0 1 0
-21.361870 2.958138 3.120647 21.790331 -0.137602 1.427090 0.011826 -0.005463 -61005.100000 0 1 0
-21.584970 4.077638 2.288747 22.085661 -0.186711 1.466979 0.024778 -0.000031 -371096.000000 0 1 0
-20.487670 4.331138 1.261347 20.978426 -0.208335 1.510634 0.025042 0.001532 -820796.000000 0 1 0
-20.743270 5.032438 0.079547 21.345140 -0.238007 1.567070 0.033622 0.009104 328393.000000 0 1 0
-21.574570 4.506238 -0.954753 22.060820 -0.205908 1.614088 0.041597 0.001732 120394.000000 0 1 0
-20.968770 3.283238 -1.713853 21.293338 -0.155316 1.651371 0.030710 0.003692 -305919.000000 0 1 0
-20.915970 2.109238 -0.870453 21.040066 -0.100504 1.612179 0.012662 0.005039 640570.000000 0 1 0
-20.310770 1.086538 -1.685653 20.409541 -0.053445 1.653482 -0.003160 0.006627 -230889.000000 0 1 0
-19.601570 0.031338 -0.807053 19.618202 -0.001599 1.611946 0.003034 0.003492 -571002.000000 0 1 0
-20.450870 -0.730862 0.013747 20.463930 0.035722 1.570125 0.007736 0.000725 -116003.000000 0 1 0
-19.786770 -1.427962 1.046747 19.865825 0.072043 1.518081 0.013592 -0.005364 -873545.000000 0 1 0
-18.791470 -2.488862 0.588947 18.964721 0.131680 1.539736 -0.014183 -0.004522 -328438.000000 0 1 0
-18.148970 -3.225262 1.620347 18.504403 0.175874 1.483119 0.003410 -0.006541 570519.000000 0 1 0
-17.405070 -4.375862 1.187747 17.985977 0.246308 1.504711 -0.007925 -0.003269 -308302.000000 0 1 0
-18.208570 -5.612262 0.802247 19.070739 0.298982 1.528717 -0.022267 -0.003717 -296621.000000 0 1 0
-19.018170 -6.116262 1.876147 20.065378 0.311155 1.477158 0.009934 -0.010484 512931.000000 0 1 0
-19.924570 -7.078162 1.387847 21.189974 0.341342 1.505254 -0.008742 -0.010565 -365450.000000 0 1 0
-20.885570 -7.464462 2.551247 22.325637 0.343250 1.456272 0.012054 -0.003613 -131514.000000 0 1 0
-20.246270 -8.275262 3.560147 22.160010 0.388010 1.409441 0.020591 -0.008161 805897.000000 0 1 0
-21.136170 -8.540862 4.637447 23.263489 0.384025 1.370107 0.041062 -0.014071 198458.000000 0 1 0
-20.483770 -9.371562 5.723347 23.241508 0.429083 1.321982 0.036327 -0.002259 -261097.000000 0 1 0
-19.954670 -10.577862 5.250247 23.187176 0.487432 1.342387 0.019038 0.002686 242130.000000 0 1 0
-19.034470 -11.158562 6.157547 22.907203 0.530232 1.298645 0.024958 0.001708 -37956.600000 0 1 0
-18.289970 -12.423362 5.669147 22.825472 0.596660 1.319800 0.007311 0.001842 505813.000000 0 1 0
-19.139670 -13.589862 5.543447 24.119310 0.617430 1.338889 0.015658 0.010788 722958.000000 0 1 0
-18.350570 -14.644462 4.992747 24.002733 0.673544 1.361259 -0.002852 0.006934 125925.000000 0 1 0
-18.764370 -16.021462 5.480447 25.274970 0.706710 1.352227 -0.004571 -0.000199 -705910.000000 0 0 1
-18.024770 -17.125662 5.032547 25.367443 0.759825 1.371085 -0.008188 -0.005743 -125752.000000 0 0 1
-18.503370 -18.368462 5.536147 26.653781 0.781739 1.361567 0.000932 -0.000393 71088.500000 0 0 1
-17.533770 -19.530362 5.062347 26.730048 0.839215 1.380258 -0.000247 -0.000834 -119320.000000 0 0 1
-17.438770 -19.764062 3.671947 26.612254 0.847820 1.432375 -0.000915 -0.003619 432893.000000 0 0 1
-16.702270 -20.970762 3.318047 27.013850 0.898221 1.447658 -0.004360 -0.000637 453492.000000 0 0 1
-15.168470 -20.871262 3.542047 26.043006 0.942333 1.434366 0.002107 0.004087 -126802.000000 0 0 1
-14.599470 -22.162762 3.599547 26.782257 0.988302 1.435988 -0.000286 -0.001422 589681.000000 0 0 1
-13.197570 -22.210962 3.892547 26.127660 1.034659 1.421258 -0.007136 0.003916 696830.000000 0 0 1
-12.623570 -23.630562 4.144147 27.109628 1.080160 1.417328 0.005975 0.009208 -147536.000000 0 0 1
-12.375070 -24.415362 2.954147 27.531423 1.101679 1.463288 0.011187 0.011956 178193.000000 0 0 1
-12.045270 -25.731492 3.397747 28.613684 1.132981 1.451770 0.008663 0.008339 -301874.000000 0 0 1
17.578630 19.671438 -24.645653 36.102381 0.841522 2.322193 0.041047 0.012502 819954.000000 0 0 1
16.520130 19.761538 -25.600883 36.315813 0.874502 2.353151 0.028299 0.009060 1107410.000000 0 0 1
17.250530 19.601538 -26.876883 37.472228 0.849108 2.370641 0.027611 0.006486 799566.000000 0 0 1
16.404130 19.797138 -28.123243 38.104316 0.878851 2.400986 0.016539 0.010543 -133872.000000 0 0 1
16.097630 21.177138 -28.412373 38.921302 0.920836 2.389112 0.019839 0.017421 119643.000000 0 0 1
15.378130 21.247938 -29.618353 39.562717 0.944310 2.416809 0.001261 0.018571 -247237.000000 0 0 1
14.918630 22.668338 -29.994883 40.448882 0.988730 2.406175 0.028674 0.011941 148316.000000 0 0 1
13.884630 23.189938 -29.154483 39.756006 1.031307 2.394011 0.025772 0.005711 461669.000000 0 0 1
13.780930 24.554638 -29.386693 40.699164 1.059368 2.377552 0.037275 0.003797 -119548.000000 0 0 1
13.034230 25.405438 -28.356423 40.241945 1.096764 2.352724 0.026721 0.001579 650640.000000 0 0 1
11.666830 25.002438 -28.159013 39.422923 1.134201 2.366391 0.023911 -0.014307 377703.000000 0 0 1
11.199930 25.919638 -27.186513 39.196588 1.162926 2.337262 0.008680 -0.001912 634389.000000 0 0 1
9.724530 25.480438 -26.733893 38.190578 1.206211 2.346212 0.008964 -0.003918 1539700.000000 0 0 1
9.044530 26.304638 -25.830383 37.959797 1.239622 2.319196 -0.001870 -0.001293 -18335.700000 0 0 1
8.796030 27.630038 -26.331483 39.168050 1.262591 2.308066 0.008287 -0.010016 -963588.000000 0 0 1
8.228130 28.624138 -25.296273 39.076141 1.290889 2.274910 0.004180 -0.005129 -649202.000000 0 0 1
9.108930 28.872438 -24.247553 38.788324 1.265191 2.246088 0.001876 -0.004839 -152581.000000 0 0 1
8.495430 29.426238 -23.066253 38.342246 1.289736 2.216284 0.012075 -0.007981 -433427.000000 0 0 1
9.498730 30.057038 -22.107253 38.501715 1.264705 2.182409 -0.001281 -0.003793 -224575.000000 0 0 1
10.302830 31.081538 -22.681453 39.832883 1.250717 2.176591 -0.007635 -0.001323 340254.000000 0 0 1
11.320730 31.362738 -21.743953 39.806780 1.224390 2.148662 -0.015253 0.008492 -291246.000000 0 0 1
12.416830 32.380538 -22.105853 41.125973 1.204624 2.138284 -0.025157 0.022754 658404.000000 0 0 1
13.403330 31.716138 -22.938253 41.373012 1.170958 2.158469 -0.024708 0.023120 361681.000000 0 0 1
14.466830 32.570838 -23.327053 42.594601 1.152805 2.150353 -0.017429 0.021213 206115.000000 0 0 1
15.691730 31.791838 -23.869853 42.740159 1.112300 2.163358 -0.008217 0.017325 57322.800000 0 0 1
16.568930 31.389938 -22.860953 42.219436 1.085124 2.142992 -0.009406 0.019307 248157.000000 0 0 1
17.683030 30.615638 -23.341353 42.365382 1.047024 2.154303 0.011029 0.011284 592659.000000 0 0 1
18.498330 29.958238 -22.226553 41.637770 1.017630 2.133893 0.000618 0.011357 -325214.000000 0 0 1
19.327730 30.747838 -21.432453 42.170377 1.009621 2.103930 0.017053 0.016509 -287843.000000 0 0 1
20.118130 29.960138 -20.603053 41.555202 0.979457 2.089552 0.019328 0.005681 -313397.000000 0 0 1
20.839730 30.821238 -19.553553 42.030756 0.976258 2.054680 0.031472 0.002514 -203629.000000 0 0 1
21.859230 31.663338 -20.087553 43.403948 0.966567 2.051953 0.033602 0.005308 311056.000000 0 0 1
22.429130 32.318838 -18.938353 43.660444 0.964112 2.019463 0.029991 0.002536 -322978.000000 0 0 1
23.744730 33.041038 -19.211553 44.995624 0.947667 2.011930 0.034561 0.001663 30563.900000 0 0 1
24.887630 32.347538 -19.673353 45.307816 0.915005 2.019963 0.041179 0.000234 -459322.000000 0 0 1
26.016730 33.002338 -19.196453 46.200956 0.903212 1.999288 0.038976 0.006287 -346813.000000 0 0 1
27.341430 32.365838 -19.671453 46.712603 0.869351 2.005472 0.035474 -0.013013 85301.600000 0 0 1
27.743630 31.207238 -18.927053 45.845764 0.844085 1.996368 0.027814 -0.003873 -1165640.000000 0 0 1
29.046630 30.895038 -19.231953 46.562625 0.816225 1.996579 0.017604 -0.009042 -991909.000000 0 0 1
29.621230 29.634838 -18.504853 45.804699 0.785628 1.986676 0.014104 -0.015852 -357648.000000 0 0 1
29.974630 29.955838 -17.180453 45.727438 0.785085 1.955964 0.009872 -0.008038 -123486.000000 0 0 1
30.531430 28.842338 -16.475753 45.116506 0.756957 1.944625 0.017259 -0.005186 -209572.000000 0 0 1
31.016930 29.127038 -15.027653 45.124989 0.753986 1.910304 0.014390 -0.001726 260767.000000 0 0 1
32.261330 29.807238 -14.952153 46.398618 0.745880 1.898906 -0.032748 0.004795 4685.160000 0 0 1
32.094630 31.199438 -15.079253 47.231918 0.771256 1.895745 -0.014467 -0.003085 -820185.000000 0 0 1
33.373830 31.990438 -14.991353 48.599808 0.764237 1.884376 -0.014489 -0.013123 -222368.000000 0 0 1
34.066130 31.870138 -13.737253 48.630433 0.752106 1.857177 -0.026997 -0.008333 54418.200000 0 0 1
-34.578206 32.188838 -13.896353 49.243093 -0.749627 1.856882 -0.011714 -0.013536 24797.500000 0 0 1
-33.860806 32.332438 -12.540453 48.468585 -0.762313 1.832507 -0.015581 -0.004564 -452401.000000 0 0 1
-34.311406 33.438038 -11.806053 49.343266 -0.772508 1.812404 -0.009635 -0.011650 435691.000000 0 0 1
-33.401406 33.858038 -10.779953 48.767080 -0.792187 1.793687 -0.018874 -0.009019 273069.000000 0 0 1
-34.103706 -34.380670 -9.912253 49.430214 0.789442 1.772695 -0.019760 -0.000394 19451.900000 0 0 1
-33.219906 -33.632570 -9.104953 48.141584 0.791571 1.761071 -0.024420 0.005889 -145627.000000 0 0 1
-32.802706 -34.270670 -7.882353 48.089790 0.807281 1.735448 -0.030761 0.004955 285883.000000 0 0 1
-32.322706 -33.303570 -6.718453 46.893739 0.800343 1.714561 -0.021854 0.013852 342365.000000 0 0 1
-33.370806 -32.392970 -6.417953 46.947900 0.770530 1.707929 -0.026898 0.015705 -80627.800000 0 0 1
-33.020006 -31.516270 -5.369853 45.961195 0.762102 1.687898 -0.018473 0.018207 -598811.000000 0 0 1
-34.198806 -30.750070 -4.786053 46.238852 0.732349 1.674489 -0.015377 0.018144 -282242.000000 0 0 1
34.891730 -31.671170 -4.195053 47.308502 -0.737052 1.659587 -0.021408 0.015349 205849.000000 0 0 1
33.622430 -31.141270 -3.888653 45.993132 -0.747106 1.655446 -0.023329 0.010722 -126893.000000 0 0 1
33.575330 -30.427170 -2.532153 45.382015 -0.736250 1.626622 -0.026435 0.005898 -449270.000000 0 0 1
34.128830 -29.129270 -2.628153 44.946620 -0.706528 1.629302 -0.013600 0.007985 606581.000000 0 0 1
33.135430 -28.201670 -2.152353 43.565165 -0.705134 1.620222 -0.005312 0.002190 305901.000000 0 0 1
33.515530 -26.718570 -2.182153 42.917765 -0.673031 1.621663 0.010518 -0.006066 -249121.000000 0 0 1
33.725130 -26.134070 -3.450753 42.805160 -0.659256 1.651499 0.000796 -0.002936 3319.340000 0 0 1
33.434730 -24.785170 -3.466653 41.763663 -0.637910 1.653898 0.011402 -0.010934 -499473.000000 0 0 1
32.864130 -24.432070 -4.884453 41.241181 -0.639281 1.689511 0.014561 -0.017224 -28460.000000 0 0 1
33.835330 -24.352470 -5.936553 42.108373 -0.623848 1.712250 0.017433 -0.018111 -30759.100000 0 0 1
33.231630 -23.925170 -7.133853 41.564972 -0.623991 1.743282 0.014994 -0.018216 595590.000000 0 0 1
34.360130 -23.673970 -8.206653 42.525575 -0.603302 1.764996 0.006930 -0.013156 624150.000000 0 0 1
34.980630 -24.839370 -8.725553 43.780979 -0.617465 1.771440 -0.005797 -0.005885 -148223.000000 0 0 1
-34.078006 -24.562370 -9.722253 43.117778 0.624529 1.798233 -0.000086 -0.003657 68361.900000 0 0 1
-33.599406 -25.835870 -10.431753 43.648984 0.655512 1.812124 -0.012054 -0.002546 -57023.200000 0 0 1
-33.005406 -26.810670 -9.608053 43.594536 0.682203 1.793017 -0.014013 0.007562 302916.000000 0 0 1
-33.955406 -27.785470 -9.215753 44.832266 0.685796 1.777833 -0.015087 0.009175 -4127.040000 0 0 1
-33.221706 -28.972070 -8.572153 44.905951 0.717175 1.762866 -0.022671 0.013723 481248.000000 0 0 1
-32.422406 -29.662170 -9.559053 44.971461 0.740968 1.784989 -0.025676 0.010891 650726.000000 0 0 1
-31.527706 -30.599070 -8.964553 44.840412 0.770452 1.772074 -0.025392 0.009807 182306.000000 0 0 1
-31.017606 -31.755970 -9.900453 45.481343 0.797160 1.790235 -0.021980 0.007707 -500771.000000 0 0 1
-30.214806 -31.234970 -10.893253 44.802018 0.801998 1.816400 -0.016790 0.023650 -182207.000000 0 0 1
-29.784106 -32.204770 -11.864253 45.442279 0.824428 1.834941 -0.013175 0.020874 -90321.300000 0 0 1
-29.903606 -31.643870 -13.283753 45.519428 0.813666 1.866932 -0.022259 0.029374 -45333.100000 0 0 1
-28.973906 -30.600870 -13.535453 44.261823 0.812701 1.881579 -0.023876 0.036272 -27502.600000 0 0 1
-29.414006 -29.948170 -14.660553 44.463563 0.794396 1.906804 -0.034035 0.043473 17468.100000 0 0 1
-28.382006 -28.940570 -15.214053 43.296216 0.795142 1.929857 -0.037711 0.031629 179229.000000 0 0 1
-27.278406 -29.492670 -15.917353 43.212165 0.824382 1.948034 -0.019182 0.030200 -311445.000000 0 0 1
-26.508106 -28.473770 -16.483753 42.251028 0.821134 1.971578 -0.000191 0.035743 -99172.800000 0 0 1
-25.233806 -29.110670 -17.106153 42.152065 0.856616 1.988672 0.018518 0.022438 -171548.000000 0 0 1
-25.435106 -29.982270 -18.264753 43.352997 0.867268 2.005678 0.000072 0.031270 -57039.700000 0 0 1
-25.762606 -29.366970 -19.505053 43.664378 0.850685 2.033874 0.005229 0.038038 -155468.000000 0 0 1
-24.576706 -28.606670 -20.120953 42.745863 0.861029 2.060893 0.007142 0.027431 21664.500000 0 0 1
-24.329606 -27.440670 -19.410153 41.493062 0.845420 2.057588 0.007998 0.027686 -961802.000000 0 0 1
-22.995806 -27.130970 -19.613153 40.614928 0.867706 2.074765 0.049277 0.005776 -490112.000000 0 0 1
-22.525106 -25.826370 -18.835053 39.104233 0.853569 2.073347 0.031323 0.008486 135912.000000 0 0 1
-22.734406 -25.839770 -17.415153 38.572458 0.849242 2.039233 0.038927 0.013873 307567.000000 0 0 1
-22.274206 -24.597870 -16.844853 37.214843 0.834932 2.040518 0.042107 0.009953 -97020.200000 0 0 1
-22.478206 -24.524870 -15.300653 36.617605 0.828914 2.001873 0.014101 0.018921 -928995.000000 0 0 1
-23.749406 -24.418370 -14.789853 37.135305 0.799285 1.980426 -0.019176 0.041144 -1060190.000000 0 0 1
-23.685706 -24.265170 -13.367253 36.448520 0.797482 1.946302 -0.034593 0.045427 526266.000000 0 0 1
-25.067406 -24.370770 -12.639453 37.176136 0.771308 1.917701 -0.049835 0.054799 -325542.000000 0 0 1
-25.594806 -25.690670 -12.700253 38.423965 0.787267 1.907661 -0.029192 0.044433 223317.000000 0 0 1
-26.848506 -25.910270 -12.074253 39.216986 0.767617 1.883764 -0.033766 0.037958 396253.000000 0 0 1
-28.079306 -25.202470 -12.736653 39.822535 0.731458 1.896352 -0.038304 0.030026 -1411380.000000 0 0 1
-28.309106 -23.799570 -12.559753 39.058577 0.699072 1.898175 -0.031797 0.036121 -358273.000000 0 0 1
-28.759806 -23.472270 -11.235753 38.785514 0.684510 1.864699 -0.012485 0.025583 249026.000000 0 0 1
-30.206606 -24.081270 -10.914453 40.143143 0.673043 1.846151 -0.021986 0.021379 476063.000000 0 0 1
-31.249406 -23.339670 -11.530253 40.672009 0.641504 1.858232 -0.005428 0.008550 -26925.700000 0 0 1
-31.272306 -23.274270 -12.987453 41.089204 0.639808 1.892391 -0.007263 0.015839 -1082530.000000 0 0 1
-32.691306 -22.804770 -13.432453 42.061976 0.609099 1.895839 -0.028398 0.005692 778013.000000 0 0 1
-33.675006 -23.748570 -13.020253 43.214900 0.614226 1.876842 -0.018783 0.010134 540551.000000 0 0 1
-35.001306 -23.412170 -13.454753 44.206917 0.589543 1.880061 -0.001703 -0.006540 1064520.000000 0 0 1
33.978630 -24.530070 -13.063453 43.896759 -0.625291 1.872969 -0.014051 -0.002952 23243.400000 0 0 1
34.035830 -25.658670 -13.928153 44.841928 -0.645975 1.886626 -0.036709 0.012782 -221806.000000 0 0 1
33.249430 -26.661370 -13.385253 44.671224 -0.675874 1.875111 -0.042850 0.002245 -79732.200000 0 0 1
33.220930 -27.964470 -14.190953 45.683968 -0.699698 1.886655 -0.041091 0.002188 229829.000000 0 0 1
32.569030 -27.800070 -15.439153 45.518711 -0.706565 1.916844 -0.031534 -0.000107 -97179.300000 0 0 1
32.488130 -28.997970 -16.173353 46.453614 -0.728696 1.926405 -0.040650 0.020799 -28249.800000 0 0 1
31.768130 -28.961270 -17.546953 46.431291 -0.739212 1.958337 -0.034243 0.014533 -356374.000000 0 0 1
30.398730 -28.713070 -17.427253 45.301571 -0.756889 1.965673 0.024414 0.007777 -585077.000000 0 0 1
29.860430 -28.307170 -18.669153 45.182723 -0.758701 1.996753 0.016003 0.005020 -621837.000000 0 0 1
28.341230 -28.299970 -18.669953 44.189148 -0.784670 2.006999 0.024415 0.004068 -571187.000000 0 0 1
27.780830 -27.473570 -17.696153 42.892020 -0.779837 1.996075 0.018012 -0.002061 -715770.000000 0 0 1
26.406730 -27.662270 -17.548853 42.077058 -0.808615 2.001010 0.041523 -0.000949 -566307.000000 0 0 1
25.675430 -26.816570 -16.520353 40.635923 -0.807134 1.989466 0.031935 -0.008160 -120193.000000 0 0 1
25.604330 -25.450870 -16.745353 39.796173 -0.782392 2.005099 0.027894 -0.016240 -21654.100000 0 0 1
25.084630 -24.809270 -15.593153 38.573112 -0.779879 1.986954 0.027508 -0.008467 -223379.000000 0 0 1
24.831330 -23.322270 -15.808853 37.555866 -0.754070 2.005280 0.018144 -0.018689 156838.000000 0 0 1
23.710330 -22.950270 -16.594153 36.935898 -0.769110 2.036743 0.024554 -0.023605 -5962.630000 0 0 1
23.593530 -21.468870 -16.668753 35.991865 -0.738284 2.052315 0.022924 -0.025648 -130163.000000 0 0 1
22.185130 -20.866970 -16.566353 34.670658 -0.754790 2.068968 0.027558 -0.020129 -143121.000000 0 0 1
21.729930 -20.598870 -15.251053 33.602053 -0.758684 2.041903 0.030765 -0.019627 -298800.000000 0 0 1
20.474230 -19.979570 -15.292153 32.438053 -0.773171 2.061704 0.027289 -0.019287 -285140.000000 0 0 1
20.325230 -18.711870 -14.394153 31.151897 -0.744093 2.051117 0.036789 -0.009547 -140370.000000 0 0 1
19.971030 -19.121270 -13.096853 30.593996 -0.763664 2.013170 0.026902 -0.015697 -42684.200000 0 0 1
19.908330 -17.997270 -12.231953 29.493457 -0.735025 1.998447 0.018160 -0.020677 -147706.000000 0 0 1
18.832730 -18.098470 -11.128753 28.391469 -0.765519 1.973574 0.018826 -0.014006 -236117.000000 0 0 1
19.299430 -18.796870 -9.967053 28.725119 -0.772207 1.925146 0.018039 -0.020808 832432.000000 0 0 1
18.281330 -18.939970 -8.947553 27.802666 -0.803092 1.898451 0.017512 -0.028013 399904.000000 0 0 1
18.859930 -19.697770 -7.772153 28.356754 -0.807124 1.848434 0.025219 -0.029405 -99344.400000 0 0 1
19.794430 -18.974270 -7.016453 28.303233 -0.764246 1.821311 0.022566 -0.027472 126902.000000 0 0 1
20.511430 -19.780870 -6.065453 29.134023 -0.767269 1.780522 0.007831 -0.012837 131274.000000 0 0 1
21.784230 -19.074370 -5.569453 29.485642 -0.719172 1.760825 0.003768 -0.011623 59090.200000 0 0 1
22.750330 -18.820970 -6.579353 30.250526 -0.691157 1.790044 0.008426 -0.026122 1024510.000000 0 0 1
23.909130 -18.136870 -6.033853 30.610455 -0.648967 1.769213 0.009756 -0.024242 920385.000000 0 0 1
25.062830 -17.893770 -7.048953 31.591458 -0.620031 1.795819 0.011695 -0.030024 142310.000000 0 0 1
25.909430 -18.979770 -7.394953 32.957785 -0.632235 1.797100 0.024194 -0.034673 177941.000000 0 0 1
25.429730 -19.880670 -8.358753 33.343380 -0.663537 1.824186 0.032079 -0.038947 -467166.000000 0 0 1
26.232830 -21.193570 -8.483353 34.774935 -0.679541 1.817233 0.034715 -0.043552 7894.620000 0 0 1
27.577430 -21.021370 -8.859153 35.789625 -0.651306 1.820931 0.029378 -0.033459 99409.300000 0 0 1
28.303730 -22.262070 -8.805053 37.070607 -0.666481 1.810609 0.035978 -0.031518 268565.000000 0 0 1
-28.713910 30.470338 4.103847 42.068654 -0.815067 1.473090 -0.002498 0.007881 299644.000000 0 0 1
-28.166110 31.616038 3.484647 42.485837 -0.843043 1.488685 0.003700 0.011673 -203929.000000 0 0 1
-27.248260 32.374338 4.244247 42.527392 -0.871163 1.470830 0.012561 0.015938 -66871.900000 0 0 1
-26.640670 33.387338 3.321147 42.842381 -0.897320 1.493198 0.022873 0.003829 -941988.000000 0 0 1
-25.995580 32.820038 2.195447 41.925470 -0.900913 1.518407 0.030529 0.001452 105510.000000 0 0 1
-25.316020 33.761338 1.372047 42.220982 -0.927390 1.538294 0.030648 -0.007892 456717.000000 0 0 1
-24.031970 34.432538 1.975347 42.036142 -0.961452 1.523787 0.038497 -0.013826 808883.000000 0 0 1
-22.824670 33.653638 1.842247 40.705365 -0.974836 1.525523 0.028083 -0.014684 264756.000000 0 0 1
-21.684370 34.294638 2.330047 40.641890 -1.006967 1.513434 0.017723 -0.010747 256877.000000 0 0 1
-20.322070 33.783038 1.806247 39.465716 -1.029240 1.525013 0.017767 -0.011089 271875.000000 0 0 1
-19.980070 34.380138 0.542647 39.767971 -1.044351 1.557151 0.036635 -0.021032 -251863.000000 0 0 1
-18.661570 34.027538 0.218047 38.809471 -1.069163 1.565178 0.031169 -0.015194 -813247.000000 0 0 1
-18.120070 -34.453670 -0.944453 38.939496 1.086624 1.595053 0.032088 -0.017343 -238138.000000 0 0 1
-18.034170 -33.048770 -0.742253 37.656387 1.071273 1.590509 0.039135 -0.020293 -492274.000000 0 0 1
-17.027970 -32.646270 0.094447 36.820370 1.090026 1.568231 0.038888 -0.014953 -974362.000000 0 0 1
-17.062470 -31.091270 0.173847 35.465831 1.068885 1.565894 0.046615 -0.018667 -80645.000000 0 0 1
-16.500270 -30.431170 -0.947053 34.629640 1.073949 1.598148 0.050512 -0.012694 71811.500000 0 0 1
-16.669970 -29.028570 -0.857853 33.485545 1.049518 1.596418 0.031261 -0.007727 124273.000000 0 0 1
-15.801770 -28.258970 -1.893753 32.432262 1.060935 1.629221 0.034472 -0.002603 -206070.000000 0 0 1
-16.110370 -28.595670 -3.226753 32.979817 1.057735 1.668793 0.040326 -0.007865 -289442.000000 0 0 1
-15.231370 -28.028570 -4.169353 32.171088 1.073017 1.700761 0.035228 0.001350 -231283.000000 0 0 1
-15.791270 -27.969170 -5.623053 32.607628 1.056816 1.744109 0.050189 0.001473 401661.000000 0 0 1
-16.914070 -27.087870 -5.760753 32.450343 1.012618 1.749267 0.032288 0.005463 -70235.900000 0 0 1
-17.294970 -27.018770 -7.145153 32.866140 1.001406 1.789948 0.042570 0.000975 223523.000000 0 0 1
-17.900870 -25.668770 -7.429053 32.163920 0.961831 1.803876 0.014912 0.004697 394826.000000 0 0 1
-16.890670 -24.674170 -7.268653 30.772435 0.970516 1.809256 0.010984 0.010011 393664.000000 0 0 1
-17.407770 -23.413770 -7.625853 30.156073 0.931478 1.826452 -0.006963 0.017831 353530.000000 0 0 1
-16.412770 -22.278970 -7.246653 28.604991 0.935866 1.826923 0.006395 0.014285 785364.000000 0 0 1
-15.250370 -22.120670 -8.043353 28.046272 0.967208 1.861669 0.025086 0.007809 -723023.000000 0 0 1
-14.354870 -21.184570 -7.615953 26.699271 0.975256 1.860063 0.030663 0.001658 745089.000000 0 0 1
-13.233670 -20.981470 -8.748353 26.303722 1.008086 1.909845 0.029004 -0.000862 837720.000000 0 0 1
-13.827670 -20.255970 -9.745153 26.390847 0.971812 1.949012 0.030523 0.002827 -134498.000000 0 0 1
-12.864270 -20.018070 -10.758753 26.114428 0.999618 1.995428 0.029687 0.002330 216225.000000 0 0 1
-13.417370 -19.351870 -11.999953 26.429521 0.964556 2.042086 0.038641 0.005381 -45605.500000 0 0 1
-14.241170 -20.172770 -12.849853 27.836492 0.956082 2.050616 0.036443 0.024370 -19310.500000 0 0 1
-14.600770 -19.432870 -13.988153 28.044382 0.926436 2.092994 0.031970 0.005347 -326711.000000 0 0 1
-15.850570 -20.006070 -14.642553 29.425971 0.900776 2.091633 0.046969 0.001750 -583706.000000 0 0 1
-17.035870 -19.702070 -13.968853 29.555394 0.857845 2.063072 0.055969 0.000318 -120311.000000 0 0 1
-18.168870 -20.111170 -14.727853 30.846015 0.836094 2.068562 0.050313 0.004068 42930.600000 0 0 1
-19.514470 -19.989370 -14.004253 31.249137 0.797419 2.035489 0.029545 0.010650 336172.000000 0 0 1
-20.603370 -20.557570 -14.743753 32.626535 0.784285 2.039684 0.031986 -0.000626 701955.000000 0 0 1
-21.853270 -19.912270 -14.492953 32.925820 0.738958 2.026584 0.005514 0.007607 381203.000000 0 0 1
-22.973970 -20.510070 -15.376853 34.422578 0.728797 2.033879 -0.002544 0.008701 -270626.000000 0 0 1
-22.950570 -20.009570 -16.669753 34.712998 0.717046 2.071698 -0.006848 -0.011577 8292.930000 0 0 1
-23.720570 -20.841170 -17.474953 36.088693 0.720872 2.076270 -0.004611 -0.008435 -385020.000000 0 0 1
-23.859570 -20.368670 -18.918953 36.634527 0.706632 2.113466 -0.001709 -0.008766 -130562.000000 0 0 1
-22.698470 -20.293670 -19.707053 36.268740 0.729521 2.145233 0.000889 -0.014078 -118568.000000 0 0 1
-23.080970 -19.765170 -20.978053 36.925219 0.708164 2.175019 0.003694 -0.017513 47480.900000 0 0 1
-21.959970 -19.030070 -21.790253 36.320779 0.714041 2.214221 -0.002248 -0.009802 -61793.900000 0 0 1
-20.953970 -19.897070 -22.216653 36.449169 0.759532 2.226257 0.005019 -0.010583 -466923.000000 0 0 1
-19.948070 -19.181370 -22.898753 35.919401 0.765807 2.262050 0.001375 -0.010231 -455846.000000 0 0 1
-18.601370 -19.893870 -22.885553 35.574226 0.818961 2.269621 0.012094 -0.005327 -637249.000000 0 0 1
-18.576270 -21.036370 -23.735853 36.755916 0.847422 2.272827 0.012861 -0.004664 18380.300000 0 0 1
-17.270770 -21.585370 -23.760153 36.452058 0.895986 2.280777 0.020257 -0.000543 127187.000000 0 0 1
-17.145670 -22.981970 -24.440953 37.676320 0.929829 2.276683 0.026295 -0.001830 -232860.000000 0 0 1
-17.135770 -22.785270 -25.851883 38.485361 0.925982 2.307342 0.031566 -0.004207 111814.000000 0 0 1
-17.181770 -24.092670 -26.505193 39.726505 0.951297 2.301229 0.031170 -0.008121 -151606.000000 0 0 1
-16.914670 -24.017670 -28.038633 40.609352 0.957217 2.332904 0.045223 0.000250 754241.000000 0 0 1
-15.520170 -23.842070 -28.347713 40.161086 0.993748 2.354419 0.025585 -0.003036 785258.000000 0 0 1
-15.431570 -23.708570 -29.732053 41.039306 0.993799 2.381072 0.053418 -0.014506 324011.000000 0 0 1
-13.964770 -23.605670 -30.257543 40.838234 1.036587 2.405224 0.016549 -0.004917 501541.000000 0 0 1
-13.314470 -24.861170 -30.138133 41.275416 1.079113 2.389369 0.018453 -0.005866 -823211.000000 0 0 1
-12.003770 -24.776470 -30.582253 41.148975 1.119639 2.408649 0.018759 -0.005940 -1101760.000000 0 0 1
-11.278470 -26.061070 -30.302443 41.528560 1.162362 2.388646 -0.001125 -0.000385 -1018390.000000 0 0 1
-11.506470 -27.175370 -31.126023 42.892061 1.170269 2.382822 0.001616 0.009741 357042.000000 0 0 1
-10.706370 -28.326970 -30.822043 43.209280 1.209436 2.365020 0.006563 0.012672 1520550.000000 0 0 1
-9.246070 -28.369570 -31.466073 43.363995 1.255737 2.382741 0.012135 0.003627 1266660.000000 0 0 1
-8.334270 -27.482070 -30.826313 42.130580 1.276349 2.391587 0.005808 0.012776 334266.000000 0 0 1
-7.418070 -26.957470 -31.807893 42.349439 1.302266 2.420495 0.020815 0.013250 598827.000000 0 0 1
-6.494470 -25.780470 -31.265063 41.040406 1.324017 2.436902 0.016659 0.013576 183983.000000 0 0 1
-7.023270 -24.455370 -31.080823 40.167263 1.291135 2.455591 0.023824 0.013552 147015.000000 0 0 1
-7.976670 -24.277470 -30.040373 39.439153 1.253346 2.436712 0.016215 0.013236 -111406.000000 0 0 1
-8.503470 -22.857070 -29.840993 38.538805 1.214634 2.456421 0.011217 0.012975 191610.000000 0 0 1
-9.286470 -22.338970 -30.952553 39.285222 1.176823 2.478176 0.004348 0.007555 406404.000000 0 0 1
-9.393170 -20.883170 -30.962593 38.510006 1.148112 2.504812 0.003547 0.010747 209114.000000 0 0 1
-10.105770 -20.375770 -32.251133 39.464340 1.110378 2.527371 -0.000831 0.009513 2309.080000 0 0 1
-10.552570 -19.067870 -32.199143 38.880910 1.065330 2.546592 0.000959 0.006160 -112213.000000 0 0 1
-11.178970 -18.733270 -33.397453 39.891034 1.032774 2.562971 0.016938 0.003061 -199908.000000 0 0 1
-12.185370 -17.524770 -33.221363 39.487463 0.963216 2.570506 0.008958 0.004062 -18959.700000 0 0 1
-11.757470 -16.217570 -33.435823 38.976941 0.943499 2.601840 0.025598 -0.000411 -125948.000000 0 0 1
-10.842570 -15.754970 -32.451233 37.667797 0.968034 2.609035 -0.009263 0.005895 70441.800000 0 0 1
-10.891370 -14.192770 -32.388873 37.001294 0.916259 2.636944 0.001198 -0.004173 -691120.000000 0 0 1
-10.152070 -13.450970 -33.298083 37.319639 0.924265 2.673078 0.014199 -0.010360 -289594.000000 0 0 1
-10.525270 -13.656670 34.564004 38.625850 0.914175 0.462721 0.028248 -0.010455 -189659.000000 0 0 1
-11.163870 -12.492570 33.764127 37.692341 0.841506 0.460609 0.036971 -0.014155 683325.000000 0 0 1
-12.468170 -12.122070 34.211377 38.377313 0.771324 0.470266 0.026192 -0.006705 9391.140000 0 0 1
-13.162170 -11.248570 33.376352 37.599919 0.707166 0.478534 0.012372 -0.019192 -113433.000000 0 0 1
-14.262170 -10.530170 34.112312 38.444035 0.635990 0.479287 0.016731 -0.015187 -373302.000000 0 0 1
-13.690670 -9.633970 -34.209248 38.085699 0.613197 2.686494 0.021459 -0.019780 775919.000000 0 0 1
-14.633970 -9.090270 -33.246843 37.445142 0.555845 2.663516 0.022261 -0.019345 378812.000000 0 0 1
-13.863770 -8.104870 -32.347323 36.114295 0.529025 2.680784 0.020042 -0.029175 -585962.000000 0 0 1
-13.585670 -6.850370 -32.925423 36.270945 0.467030 2.708717 0.018916 -0.033223 618748.000000 0 0 1
-14.578270 -5.787470 -32.872043 36.422410 0.377911 2.696388 0.019412 -0.026658 420585.000000 0 0 1
-14.973270 -5.164070 -31.494133 35.252614 0.332112 2.675619 0.015195 -0.027678 -163677.000000 0 0 1
-15.539870 -6.104770 -30.612563 34.869539 0.374324 2.642291 0.008847 -0.031108 19018.000000 0 0 1
-15.934170 -5.601770 -29.329373 33.845084 0.338061 2.619098 0.013504 -0.032961 27798.700000 0 0 1
-14.828070 -4.978370 -28.428873 32.447752 0.323915 2.638598 0.012306 -0.028061 147290.000000 0 0 1
-14.438770 -3.753170 -28.977383 32.592224 0.254309 2.666147 0.010260 -0.022854 558052.000000 0 0 1
-13.178470 -3.278170 -28.471413 31.544252 0.243804 2.696536 0.011107 -0.017326 647031.000000 0 0 1
-12.764470 -1.920170 -29.137663 31.868827 0.149311 2.724572 -0.001958 -0.002563 -119191.000000 0 0 1
-12.627970 -1.994170 -30.564443 33.130462 0.156624 2.745429 0.006385 -0.007186 253319.000000 0 0 1
-12.806170 -0.711170 -31.163093 33.699289 0.055476 2.751149 0.016141 -0.009908 -7687.760000 0 0 1
-13.073870 -0.816170 -32.709843 35.235295 0.062347 2.760681 0.012983 -0.008440 -490001.000000 0 0 1
-14.359670 -1.180170 -33.121803 36.119894 0.082002 2.731280 -0.004363 -0.010932 -350079.000000 0 0 1
-14.372570 -1.451170 -34.516418 37.417372 0.100627 2.745227 -0.004995 -0.006106 -445951.000000 0 0 1
-15.744570 -1.702170 34.127661 37.622947 0.107693 0.434461 -0.002017 -0.012319 -524065.000000 0 0 1
-15.614170 -1.977170 32.761311 36.345770 0.125956 0.447853 0.004031 -0.016277 902524.000000 0 0 1
-16.854170 -1.813170 32.047701 36.254734 0.107168 0.486533 0.005077 -0.010046 671912.000000 0 0 1
-16.618770 -1.849170 30.506191 34.788369 0.110814 0.501406 0.007076 -0.008462 -119869.000000 0 0 1
-15.996470 -0.666170 30.062871 34.060344 0.041621 0.489356 -0.001441 0.003209 178119.000000 0 0 1
-15.966870 -0.627170 28.655761 32.809860 0.039259 0.508679 -0.012938 -0.004386 -604331.000000 0 0 1
-15.392470 0.678830 28.094201 32.041739 -0.044073 0.501630 -0.009036 -0.001484 -131251.000000 0 0 1
-16.131270 1.858830 28.398871 32.713437 -0.114725 0.519414 -0.003843 0.001492 -97327.500000 0 0 1
-17.493870 1.900830 28.078161 33.136562 -0.108232 0.559827 0.006189 -0.008945 -676114.000000 0 0 1
-17.886570 2.859830 26.927921 32.453365 -0.158545 0.592151 0.006063 -0.014865 -800683.000000 0 0 1
-17.601070 4.238830 27.018831 32.523569 -0.236328 0.590350 0.001070 -0.007303 -22878.700000 0 0 1
-17.983870 4.913830 25.841141 31.864241 -0.266725 0.624978 0.005747 -0.006877 -470026.000000 0 0 1
-17.825970 6.459830 25.972921 32.157226 -0.347664 0.630581 0.009692 -0.005648 839922.000000 0 0 1
-16.519570 7.084830 25.987341 31.597988 -0.405148 0.605115 -0.003369 -0.003560 911008.000000 0 0 1
-15.915470 7.170830 24.697191 30.243581 -0.423317 0.615284 -0.005836 -0.000889 -665074.000000 0 0 1
-15.078270 8.433830 24.545971 30.016469 -0.509983 0.613305 -0.020633 0.001784 -308040.000000 0 0 1
-13.835270 8.311830 25.172371 29.902332 -0.540986 0.570151 -0.043818 0.011712 -920458.000000 0 0 1
-12.759770 8.127830 24.326161 28.646735 -0.567174 0.556371 -0.026456 0.012814 -836774.000000 0 0 1
-11.399170 8.095830 25.046051 28.684285 -0.617547 0.509142 -0.022039 0.023712 -486605.000000 0 0 1
-10.369070 8.576830 24.211471 27.699728 -0.691081 0.507280 -0.018917 0.010179 -61590.900000 0 0 1
-9.124370 8.710830 24.860291 27.877710 -0.762216 0.469571 -0.016087 0.003898 -278879.000000 0 0 1
-8.923370 9.983830 25.744941 29.019052 -0.841427 0.479613 -0.005370 -0.006720 -977120.000000 0 0 1
-9.728970 10.084830 26.913161 30.342625 -0.803356 0.480042 -0.022011 -0.001966 246101.000000 0 0 1
-9.780870 11.349830 27.537071 31.349231 -0.859512 0.498299 -0.021122 0.001185 -288750.000000 0 0 1
-10.356570 12.646830 26.824681 31.412805 -0.884633 0.547284 -0.027723 0.002368 -46110.300000 0 0 1
-11.755370 12.634830 26.671061 31.767485 -0.821440 0.574303 -0.020751 -0.000548 -2367.390000 0 0 1
-12.134870 12.051830 25.381811 30.606175 -0.781965 0.592936 -0.027196 0.006443 -1375440.000000 0 0 1
-13.611470 11.880830 25.161661 30.976368 -0.717613 0.622736 -0.013229 0.008903 -1064830.000000 0 0 1
-14.292070 13.108830 24.921921 31.578581 -0.742242 0.661286 -0.014290 0.000434 51063.900000 0 0 1
-15.626670 12.994830 24.480941 31.817839 -0.693703 0.692880 -0.003125 0.020861 87105.200000 0 0 1
-15.886070 12.601830 22.982501 30.649122 -0.670619 0.722948 -0.004949 0.027353 -408802.000000 0 0 1
-15.769870 11.186830 22.772801 29.873641 -0.616994 0.703931 -0.007711 0.017138 93384.900000 0 0 1
-15.859170 10.945830 21.378401 28.781252 -0.604111 0.733570 -0.014760 0.016930 -229408.000000 0 0 1
-16.113870 9.498830 20.904301 28.051281 -0.532649 0.729936 -0.018671 0.003561 -270448.000000 0 0 1
-17.401870 9.066830 21.219701 28.901698 -0.480327 0.746305 -0.012297 0.009288 -649714.000000 0 0 1
-17.619770 7.733830 20.909601 28.416189 -0.413609 0.743899 -0.020760 0.009874 -460392.000000 0 0 1
-19.017770 7.288830 21.306701 29.475042 -0.365996 0.762846 0.001493 0.015588 -484749.000000 0 0 1
-19.229970 7.516830 22.686901 30.675559 -0.372630 0.738356 -0.002065 0.002903 -47623.500000 0 0 1
-20.539170 7.178830 23.101001 31.734041 -0.336246 0.755460 -0.011701 0.008774 4854.160000 0 0 1
-20.909470 8.073830 24.322911 33.075620 -0.368495 0.744580 0.017703 0.004682 -951176.000000 0 0 1
-21.060870 9.522830 24.246771 33.498514 -0.424647 0.761479 0.017895 -0.001766 -77567.600000 0 0 1
-19.947770 10.334830 23.931101 32.824074 -0.478018 0.753832 0.010324 0.004382 329312.000000 0 0 1
-18.710170 10.164830 24.872001 32.741574 -0.497668 0.708028 0.019721 -0.003683 -359591.000000 0 0 1
-18.687270 10.864830 26.110221 33.896935 -0.526633 0.691512 0.039596 -0.002393 58030.000000 0 0 1
-18.328770 10.065830 27.235691 34.337262 -0.502215 0.654780 0.030447 -0.005668 124273.000000 0 0 1
-30.065130 -13.965662 21.161601 39.328935 0.434858 1.002654 0.007157 0.007544 66210.600000 0 0 1
-29.334120 -15.165962 21.330401 39.312631 0.477161 0.997286 0.002372 0.005301 411836.000000 0 0 1
-30.043780 -16.315662 20.811601 40.024396 0.497502 1.023977 -0.007993 0.012645 27568.000000 0 0 1
-29.641530 -16.713362 19.381601 39.161246 0.513414 1.053056 -0.016529 0.014040 211998.000000 0 0 1
-30.296360 -15.929862 18.393601 38.858133 0.484075 1.077703 -0.010187 -0.000808 247459.000000 0 0 1
-29.477100 -15.872562 17.223801 37.649661 0.493949 1.095642 -0.006737 -0.004767 -781741.000000 0 0 1
-29.868130 -14.748562 16.214401 37.047700 0.458667 1.117799 -0.009799 0.002452 601792.000000 0 0 1
-31.170160 -14.822462 15.592201 37.873486 0.443884 1.146487 0.009163 0.003691 698990.000000 0 0 1
-32.287280 -14.609362 16.400801 39.049816 0.424915 1.137354 0.013248 -0.003215 -835018.000000 0 0 1
-32.556840 -13.108362 16.881101 38.945456 0.382772 1.122473 -0.003514 -0.000990 -1195800.000000 0 0 1
-33.770270 -13.047562 17.557501 40.236002 0.368695 1.119244 -0.006599 -0.001744 -449945.000000 0 0 1
-34.057890 -11.779662 18.028801 40.295632 0.332992 1.106925 0.002068 0.001142 674903.000000 0 0 1
34.712729 -11.811262 18.981801 41.289082 -0.327969 1.093106 -0.003591 0.021085 622899.000000 0 0 1
-34.844691 -12.163662 20.296101 42.119341 0.335857 1.068007 -0.014651 0.013622 93533.700000 0 0 1
34.204356 -11.856562 21.259901 41.982132 -0.333677 1.039787 -0.013326 0.011776 -1062080.000000 0 0 1
34.492837 -12.436562 22.653601 43.099995 -0.346047 1.017369 -0.010046 -0.002255 -523118.000000 0 0 1
-34.439319 -11.918362 23.348601 43.281303 0.333168 1.000999 -0.013061 0.003942 -468477.000000 0 0 1
-33.186550 -12.403062 22.925901 42.199289 0.357663 0.996461 -0.009780 0.000584 -1133820.000000 0 0 1
-32.045850 -11.447462 23.166501 41.166341 0.343094 0.973083 0.002714 0.003482 -697360.000000 0 0 1
-32.037300 -10.313062 22.347301 40.399872 0.311433 0.984652 0.002796 0.003228 740665.000000 0 0 1
-30.790880 -9.594962 22.497501 39.322756 0.302080 0.961703 0.004575 -0.001290 668480.000000 0 0 1
-30.689470 -8.257462 21.717401 38.492528 0.262840 0.971335 -0.001426 -0.001418 13148.200000 0 0 1
-30.833960 -8.337862 20.306401 37.849742 0.264095 1.004512 -0.001708 0.002768 297330.000000 0 0 1
-32.195220 -8.430062 19.931101 38.792356 0.256093 1.031200 -0.009615 0.000718 -199062.000000 0 0 1
-32.356010 -8.348062 18.395701 38.144506 0.252500 1.067560 -0.002603 -0.007878 162571.000000 0 0 1
-33.703150 -8.566762 17.994901 39.154925 0.248912 1.093272 -0.009499 -0.001063 425178.000000 0 0 1
-33.820550 -8.202462 16.627901 38.569380 0.237935 1.125066 0.003646 0.001981 -763856.000000 0 0 1
34.769117 -8.190162 16.126701 39.192356 -0.231341 1.146724 -0.002024 0.009620 -578979.000000 0 0 1
34.150631 -9.459962 16.298601 39.005139 -0.270231 1.139710 -0.010534 0.021120 153979.000000 0 0 1
32.756296 -9.442562 16.094501 37.698407 -0.280658 1.129704 0.000710 0.018092 324539.000000 0 0 1
31.916806 -10.750562 15.961701 37.269733 -0.324895 1.128213 -0.003573 0.022078 77999.000000 0 0 1
31.906456 -11.469262 17.197901 38.017545 -0.345082 1.101378 -0.011499 0.022361 292806.000000 0 0 1
30.992846 -12.554162 16.990901 37.508055 -0.384866 1.100676 -0.018647 0.020988 347718.000000 0 0 1
30.576576 -13.041962 18.420001 38.004161 -0.403170 1.064795 -0.028866 0.018962 -208300.000000 0 0 1
31.375296 -14.032362 18.989901 39.267451 -0.420558 1.066029 -0.004186 0.007893 -233149.000000 0 0 1
31.102046 -14.169562 20.366801 39.785932 -0.427487 1.033390 -0.013147 0.011485 -188894.000000 0 0 1
31.588006 -15.464162 21.040801 40.983628 -0.455259 1.031660 -0.007376 0.016252 -95588.700000 0 0 1
31.665636 -15.346662 22.444901 41.737347 -0.451290 1.003012 -0.003125 0.009976 -138918.000000 0 0 1
32.253086 -16.550862 22.937701 42.899076 -0.474117 1.006656 -0.001781 0.019689 178927.000000 0 0 1
32.650026 -16.406762 24.440341 43.960622 -0.465649 0.981279 0.003972 0.004112 113936.000000 0 0 1
33.604546 -15.374162 24.540381 44.360576 -0.429075 0.984593 -0.005951 0.002934 -93887.200000 0 0 1
34.016485 -15.265262 25.876651 45.384475 -0.421823 0.964089 -0.011288 0.006475 -680741.000000 0 0 1
-34.849959 -14.295162 26.189041 45.877414 0.389261 0.963258 -0.008735 0.000773 -966352.000000 0 0 1
-33.602820 -14.908762 26.075971 45.070799 0.417582 0.953839 -0.014423 0.008264 -338941.000000 0 0 1
-32.586870 -13.912062 26.329081 44.143743 0.403498 0.931738 -0.000656 0.001385 -673266.000000 0 0 1
-31.286650 -14.643962 26.494561 43.534605 0.437769 0.916519 0.010709 0.002694 -1196440.000000 0 0 1
-30.711120 -14.838562 25.186521 42.399489 0.450090 0.934738 0.000053 0.008460 -552478.000000 0 0 1
-29.399610 -15.272662 25.089471 41.558065 0.479114 0.922636 0.014032 -0.005482 -649011.000000 0 0 1
-29.068270 -16.779262 25.357341 42.065457 0.523513 0.923782 0.015928 0.001354 -716262.000000 0 0 1
-29.261360 -17.056962 26.703491 43.130541 0.527764 0.903160 0.022960 0.005891 76503.500000 0 0 1
-28.742740 -18.297962 27.104121 43.538418 0.566906 0.898821 0.016713 0.004743 -227775.000000 0 0 1
-28.528410 -18.429162 28.642571 44.428606 0.573553 0.870182 0.018271 -0.001016 -523922.000000 0 0 1
-27.457090 -17.676662 29.139271 43.765892 0.571999 0.842233 0.022766 -0.000625 -346432.000000 0 0 1
-27.042320 -17.994862 30.432581 44.511168 0.587148 0.817966 0.029408 -0.004379 132023.000000 0 0 1
-25.741740 -17.250562 30.812731 43.699467 0.590403 0.788225 0.024730 -0.007120 104371.000000 0 0 1
-25.964110 -15.966562 31.369401 43.739060 0.551338 0.771029 0.036774 -0.019035 -193083.000000 0 0 1
-24.995170 -15.091062 30.867231 42.488641 0.543179 0.757608 0.024492 -0.015441 -408778.000000 0 0 1
-24.852370 -13.799262 31.644921 42.537759 0.506864 0.731871 0.033768 -0.011373 -100319.000000 0 0 1
-24.189670 -13.938362 32.887191 43.139140 0.522744 0.703857 0.038081 -0.014894 156890.000000 0 0 1
-23.959570 -12.679762 33.466999 43.068287 0.486745 0.680802 0.042335 -0.008350 -28102.000000 0 0 1
-23.247770 -12.775462 -34.376545 43.421401 0.502486 2.484376 0.050777 -0.010052 -6817.570000 0 0 1
-21.884570 -13.127362 -34.443723 42.867611 0.540306 2.503932 0.024094 -0.006294 -271946.000000 0 0 1
-21.607170 -14.510862 -34.361105 43.105921 0.591394 2.493326 0.019557 -0.007017 -199101.000000 0 0 1
-21.654370 -15.254062 -32.986673 42.305067 0.613695 2.465036 0.019550 -0.000601 -469696.000000 0 0 1
-20.705270 -14.705862 -32.117333 40.945007 0.617570 2.472527 0.006409 0.002850 -118076.000000 0 0 1
-20.451870 -15.570062 -30.972063 40.248906 0.650696 2.448875 0.019199 -0.002014 28231.500000 0 0 1
-19.091270 -15.351162 -30.268863 38.940195 0.677232 2.461186 0.021430 0.001214 11417.500000 0 0 1
-18.865270 -14.172562 -29.510233 37.783776 0.644302 2.467109 0.002142 0.001939 -49271.200000 0 0 1
-19.637970 -14.178362 -28.335933 37.277351 0.625331 2.434322 0.008445 0.003971 -264676.000000 0 0 1
-19.449070 -12.963462 -27.396703 36.012456 0.587911 2.435274 0.007863 -0.003206 -923095.000000 0 0 1
-18.242570 -12.892462 -26.737173 34.840829 0.615224 2.445587 0.011278 -0.003366 -816983.000000 0 0 1
-18.044870 -11.665762 -26.090803 33.799960 0.573901 2.452649 0.004313 -0.010953 870440.000000 0 0 1
-16.648370 -11.555062 -25.367133 32.468124 0.606732 2.467532 -0.004328 0.000002 -48643.600000 0 0 1
-16.596570 -12.410962 -24.263353 31.909064 0.642093 2.434711 -0.001697 0.004172 357429.000000 0 0 1
-15.294370 -12.649562 -23.743753 30.946647 0.691032 2.445335 0.010159 -0.005242 700952.000000 0 0 1
-14.318670 -13.457362 -24.707753 31.568939 0.754399 2.469725 -0.010056 -0.000279 -271156.000000 0 0 1
-13.703070 -12.581862 -25.635463 31.674190 0.742768 2.513839 -0.007343 -0.010830 -337256.000000 0 0 1
-13.029270 -13.234462 -26.662623 32.493204 0.793211 2.533186 -0.019679 0.005851 -135185.000000 0 0 1
-12.298070 -12.265762 -27.620893 32.628288 0.784083 2.580233 -0.014268 0.013904 306184.000000 0 0 1
-13.206170 -11.450162 -28.339493 33.296186 0.714299 2.588937 -0.011017 -0.001345 632960.000000 0 0 1
-12.436670 -10.507762 -29.089823 33.336191 0.701527 2.631337 0.004911 -0.019177 463801.000000 0 0 1
-11.932970 -10.828362 -30.506943 34.501054 0.736906 2.655644 -0.005345 -0.012145 162135.000000 0 0 1
-11.105470 -9.876162 -31.145823 34.509887 0.726875 2.696379 0.007198 -0.014741 121569.000000 0 0 1
-10.894670 -10.118162 -32.542453 35.778237 0.748461 2.713020 0.016101 -0.012272 -556221.000000 0 0 1
-10.214070 -8.965662 -33.217163 35.889974 0.720400 2.753223 0.015071 -0.019186 -1142500.000000 0 0 1
-8.872270 -8.866262 -32.913913 35.222910 0.785059 2.777497 0.004029 -0.017726 -1072080.000000 0 0 1
-8.324170 -7.640262 -33.405893 35.264984 0.742585 2.815441 0.000568 -0.009882 290031.000000 0 0 1
-6.812770 -7.504662 -33.046543 34.565991 0.833686 2.843990 0.008907 -0.003197 -50415.000000 0 0 1
-6.518570 -7.395062 -31.633093 33.133537 0.848310 2.839498 -0.006858 0.003469 -133240.000000 0 0 1
-6.902870 -6.202062 -30.998893 32.358098 0.731972 2.850723 -0.015968 0.011135 -453094.000000 0 0 1
-6.165370 -4.897662 -31.369873 32.342971 0.671306 2.895670 -0.014373 0.013802 221228.000000 0 0 1
-4.882170 -4.741962 -30.787753 31.531056 0.770831 2.924029 -0.001419 0.017676 119491.000000 0 0 1
-4.265070 -3.545362 -31.168183 31.657796 0.693511 2.965491 0.005865 0.006259 -1314920.000000 0 0 1
-2.878770 -3.368862 -30.641183 30.959952 0.863682 2.997969 -0.013449 0.012062 -1428940.000000 0 0 1
-2.007470 -4.278162 -31.346193 31.700416 1.132061 2.991960 -0.024117 0.017053 1256200.000000 0 0 1
-0.581870 -4.154962 -31.240013 31.520480 1.431659 3.008092 -0.021606 0.013577 963953.000000 0 0 1
0.106130 -2.838662 -31.591763 31.719217 -1.533426 3.051917 -0.013159 0.009247 -1339360.000000 0 0 1
0.174830 -1.889862 -30.568183 30.627046 -1.478549 3.079584 -0.002551 0.002966 -416140.000000 0 0 1
0.950230 -0.794962 -30.809463 30.834362 -0.696663 3.101402 -0.009079 0.000247 -428042.000000 0 0 1
1.003530 0.224338 -29.680063 29.697871 0.219933 3.106960 0.001595 -0.011109 147897.000000 0 0 1
-0.155670 1.030638 -29.600813 29.619159 -1.420887 3.106394 0.016538 -0.008192 117392.000000 0 0 1
0.105130 2.162438 -28.796243 28.877513 1.522218 3.066551 0.031755 -0.012486 -171932.000000 0 0 1
-1.256470 2.749138 -28.413103 28.573430 -1.142102 3.035609 0.018395 -0.008259 -143874.000000 0 0 1
-1.964970 3.284138 -29.514253 29.761347 -1.031612 3.012643 0.006506 -0.008613 205748.000000 0 0 1
-3.172370 3.895138 -29.081593 29.512287 -0.887310 2.970541 0.033355 -0.007742 682662.000000 0 0 1
-4.223770 4.094038 -30.264153 30.830509 -0.769803 2.949621 0.032979 -0.011356 556964.000000 0 0 1
-3.899470 5.004538 -31.294203 31.930837 -0.908876 2.941570 0.036559 -0.012440 121844.000000 0 0 1
-5.033770 5.051538 -32.135933 32.917701 -0.787160 2.923218 0.036664 -0.010343 -413549.000000 0 0 1
-4.831070 5.643338 -33.616703 34.427739 -0.862791 2.924104 0.036915 -0.013406 -146331.000000 0 0 1
-4.172270 4.905638 -34.626399 35.220173 -0.866009 2.957709 0.039266 -0.013817 434361.000000 0 0 1
-2.940070 4.281738 -34.269042 34.660417 -0.969084 2.991173 0.034267 -0.017791 -241150.000000 0 0 1
-2.298170 3.576438 33.778924 34.045384 -0.999651 0.125195 0.037388 -0.016600 -417763.000000 0 0 1
-3.121670 2.560038 33.261138 33.505252 -0.686869 0.120787 0.030096 -0.021025 -225485.000000 0 0 1
-2.693070 1.832538 32.099891 32.264746 -0.597494 0.101132 0.034918 -0.016757 -390885.000000 0 0 1
-2.637870 2.781538 30.817691 31.055199 -0.811902 0.123755 0.051857 -0.025455 -242433.000000 0 0 1
-3.876470 3.353238 30.512871 30.940370 -0.713152 0.166426 0.042077 -0.023868 -126995.000000 0 0 1
-3.661570 4.358838 29.551621 30.094931 -0.872117 0.190304 0.042926 -0.026631 420712.000000 0 0 1
-4.957970 5.189938 29.386891 30.250723 -0.808253 0.239553 0.042344 -0.015480 237341.000000 0 0 1
-4.889970 6.119338 28.323971 29.387164 -0.896604 0.269811 0.044965 -0.008403 -566256.000000 0 0 1
-6.060970 6.861638 28.138021 29.589958 -0.847278 0.314564 0.028126 0.001715 -622733.000000 0 0 1
-6.121070 7.559038 26.739171 28.453292 -0.890127 0.348879 0.027565 -0.001896 -399380.000000 0 0 1
-5.071570 8.445138 26.459321 28.233612 -1.029986 0.356406 0.032249 -0.007145 -211835.000000 0 0 1
-5.310170 9.259638 25.313141 27.471693 -1.050109 0.399061 0.033619 -0.003701 -121282.000000 0 0 1
-4.315570 10.450038 25.237941 27.654676 -1.179158 0.421172 0.031907 -0.008707 -229371.000000 0 0 1
-4.734970 11.409238 24.212251 27.181312 -1.177416 0.471763 0.049581 -0.009153 460333.000000 0 0 1
-4.138670 12.709838 24.263471 27.701707 -1.255997 0.503532 0.045840 0.000047 -1363420.000000 0 0 1
-2.635170 12.863438 24.108701 27.452534 -1.368735 0.498719 0.047110 0.002603 -526729.000000 0 0 1
-1.783470 12.434838 25.188551 28.147274 -1.428343 0.462625 0.047394 0.000136 355572.000000 0 0 1
-1.962570 13.059438 26.414631 29.531903 -1.421633 0.463610 0.030392 0.001734 -776333.000000 0 0 1
-1.089970 12.483638 27.583251 30.296286 -1.483705 0.426426 0.021998 0.000831 131524.000000 0 0 1
0.289230 12.680538 27.442791 30.232209 1.547991 0.432946 0.016292 0.015330 -392972.000000 0 0 1
0.935730 12.434838 28.704561 31.296207 1.495687 0.409827 0.024526 -0.005132 479942.000000 0 0 1
2.402730 12.910138 28.877401 31.723005 1.386790 0.426792 0.020800 0.004820 373320.000000 0 0 1
2.550630 14.310638 28.675431 32.149345 1.394415 0.469169 0.008126 0.002478 -163973.000000 0 0 1
3.925130 14.545138 28.525751 32.259667 1.307216 0.485901 0.015935 0.001043 -389092.000000 0 0 1
4.317330 16.011538 28.906781 33.325826 1.307421 0.520845 0.005108 0.004171 -336662.000000 0 0 1
3.922930 16.440138 30.213151 34.619388 1.336557 0.510043 -0.001920 0.009153 718965.000000 0 0 1
2.669330 17.098038 30.388601 34.970492 1.415927 0.517662 0.003955 0.009411 100603.000000 0 0 1
2.647130 18.553038 29.844841 35.241127 1.429074 0.560715 -0.002440 0.010698 -763778.000000 0 0 1
3.495130 19.425138 30.499811 36.328919 1.392773 0.574349 -0.002052 0.013482 -353196.000000 0 0 1
4.506230 19.847038 29.604251 35.925237 1.347533 0.602270 -0.005278 0.009974 -278242.000000 0 0 1
5.642230 20.605738 30.264961 37.045905 1.303529 0.614679 -0.002091 0.012481 -140189.000000 0 0 1
5.193130 21.928038 30.660591 38.051009 1.338255 0.633812 -0.019140 0.012093 445216.000000 0 0 1
6.287830 22.648638 31.203421 39.065984 1.299991 0.645604 -0.019991 0.002539 39085.000000 0 0 1
6.639730 24.063838 30.717251 39.581609 1.301574 0.682420 -0.020148 0.000708 -152772.000000 0 0 1
7.051630 24.138738 29.386391 38.677695 1.286576 0.707828 -0.033404 0.009245 46500.000000 0 0 1
7.544430 25.388438 29.010941 39.282641 1.281947 0.739927 -0.042534 0.019707 -245493.000000 0 0 1
8.198130 25.336538 27.633581 38.376611 1.257859 0.766903 -0.029595 0.016473 -367837.000000 0 0 1
7.280730 25.104538 26.603591 37.296084 1.288524 0.776590 -0.025210 0.006468 47548.400000 0 0 1
7.895930 25.073438 25.338651 36.511234 1.265715 0.803772 -0.008695 0.002843 -650392.000000 0 0 1
27.999826 2.350538 7.030147 28.964431 0.083752 1.325631 0.016815 0.012983 40401.400000 0 0 1
28.544356 2.964538 8.154447 29.833937 0.103486 1.293945 0.016042 0.007626 655865.000000 0 0 1
27.513366 3.212638 9.157047 29.174610 0.116240 1.251530 0.010524 0.013624 403314.000000 0 0 1
27.828926 4.118038 10.414847 29.997940 0.146911 1.216228 0.006351 0.013324 -163934.000000 0 0 1
27.731086 5.544438 10.155947 30.048248 0.197334 1.226018 0.009417 0.005019 632439.000000 0 0 1
28.845956 6.077438 9.426847 30.949797 0.207649 1.261294 0.026873 -0.006164 264819.000000 0 0 1
28.631256 7.619838 9.271947 31.044803 0.260108 1.267504 0.030322 -0.014684 284.660000 0 0 1
27.682956 7.943938 8.272847 29.964850 0.279452 1.291078 0.030265 -0.010533 -137661.000000 0 0 1
28.028126 9.148138 7.587547 30.443968 0.315490 1.318911 0.037337 -0.023656 -469267.000000 0 0 1
27.249206 9.509938 6.339447 29.549057 0.335783 1.354576 0.033984 -0.012941 -68718.600000 0 0 1
25.897186 9.778438 6.708247 28.483025 0.361037 1.333045 0.026982 -0.009250 402519.000000 0 0 1
25.161616 10.056338 5.505547 27.650460 0.380222 1.370344 0.026898 -0.010052 -62608.000000 0 0 1
23.649966 10.260238 5.645647 26.390656 0.409332 1.355204 -0.001674 -0.009716 -184019.000000 0 0 1
23.333666 11.438838 6.374047 26.756971 0.455800 1.330264 -0.003741 -0.003998 693433.000000 0 0 1
21.957666 11.825738 6.273347 25.716572 0.494025 1.324368 -0.004697 0.001395 451670.000000 0 0 1
21.704866 13.215438 6.835647 26.314922 0.546916 1.308019 -0.003629 0.007121 -419659.000000 0 0 1
21.820466 14.236438 5.804847 26.692793 0.578085 1.351576 -0.011785 0.025890 378173.000000 0 0 1
21.651266 15.499238 6.404547 27.386529 0.621290 1.334753 0.015010 0.003066 -314963.000000 0 0 1
21.438766 16.587038 5.344447 27.628132 0.658493 1.376127 0.026673 0.003104 145072.000000 0 0 1
20.093866 16.729938 4.905047 26.602891 0.694299 1.385355 0.023302 0.007883 415539.000000 0 0 1
19.905966 17.713238 3.941047 26.935815 0.727177 1.423957 0.030724 0.006944 -639865.000000 0 0 1
18.448366 17.753438 3.510447 25.842794 0.766205 1.434537 0.003566 0.010110 -552365.000000 0 0 1
17.659166 18.536638 4.358147 25.970109 0.809636 1.402185 0.004826 0.002895 1506780.000000 0 0 1
16.229066 18.296138 4.236747 24.820985 0.845198 1.399264 -0.016936 -0.001706 1887090.000000 0 1 0
15.241766 19.477838 4.603847 25.157365 0.906806 1.386757 -0.007244 -0.001335 1447920.000000 0 0 1
13.868666 19.139438 4.325947 24.028563 0.943743 1.389776 -0.011796 0.000683 463626.000000 0 1 0
13.057466 20.290438 4.323047 24.513018 0.998984 1.393512 -0.019007 -0.007849 28132.700000 0 1 0
11.576866 19.845138 4.278247 23.369997 1.042702 1.386692 -0.011767 -0.010792 -99327.500000 0 1 0
11.030366 19.286638 5.409747 22.867198 1.051282 1.331960 -0.015215 -0.015995 -180469.000000 0 1 0
9.626466 19.123538 5.317947 22.060352 1.104446 1.327335 0.000717 -0.012443 202980.000000 0 1 0
9.188066 18.565138 6.640647 21.752772 1.111229 1.260566 0.005235 -0.012055 -632394.000000 0 1 0
9.407866 19.555638 7.619947 22.999881 1.122397 1.233111 0.008582 -0.010619 56386.900000 0 1 0
8.700766 19.301138 8.830347 22.939318 1.147285 1.175649 0.005652 0.007024 172408.000000 0 1 0
7.474266 20.205538 9.193547 23.423273 1.216494 1.167452 0.004636 0.003984 584120.000000 0 1 0
6.514066 20.101138 8.150147 22.647598 1.257411 1.202670 -0.000090 -0.015171 -74467.700000 0 1 0
6.465266 21.278238 7.341447 23.419221 1.275817 1.251941 -0.005882 -0.010911 -1633700.000000 0 1 0
5.294266 21.269038 6.413047 22.836997 1.326835 1.286150 0.000898 -0.010410 389697.000000 0 1 0
3.955066 21.539638 6.899147 22.960766 1.389201 1.265605 -0.002055 -0.014946 1093730.000000 0 1 0
3.696766 22.694338 7.604447 24.218313 1.409321 1.251398 -0.003367 -0.014574 -959003.000000 0 1 0
3.714566 24.007938 6.805647 25.228871 1.417291 1.297656 0.001351 -0.012007 -1159620.000000 0 0 1
2.707366 24.087338 5.887147 24.943700 1.458868 1.332531 0.014172 -0.012298 -731668.000000 0 1 0
2.805666 25.155138 4.960047 25.792534 1.459721 1.377285 0.004671 -0.002515 -1259250.000000 0 0 1
1.567266 25.297138 4.148147 25.682847 1.508921 1.408571 0.008212 -0.004215 -945135.000000 0 0 1
0.494966 25.854638 4.896247 26.318825 1.551654 1.383670 0.022780 -0.013374 256446.000000 0 0 1
-0.658234 26.005438 4.078247 26.331505 -1.545490 1.415289 0.019988 -0.016671 334517.000000 0 0 1
-1.811234 26.840438 4.659247 27.301983 -1.503417 1.399301 0.026354 -0.017205 823985.000000 0 0 1
-2.879734 27.185438 3.747347 27.593179 -1.465261 1.434568 0.030994 -0.018097 972147.000000 0 0 1
-3.944634 27.828138 4.433647 28.453868 -1.429985 1.414340 0.024214 -0.016786 441453.000000 0 0 1
-4.992434 28.589038 3.535447 29.236225 -1.397912 1.449573 0.024517 -0.020219 304158.000000 0 0 1
-4.550634 29.808138 2.976147 30.300013 -1.419302 1.472415 0.016227 -0.014004 124206.000000 0 0 1
-5.322234 30.087438 1.841747 30.610000 -1.395715 1.510592 0.006893 -0.007906 -232754.000000 0 0 1
-4.475634 30.810438 0.745647 31.142742 -1.426542 1.546851 0.000411 0.000998 143689.000000 0 0 1
-4.197934 32.214638 0.900747 32.499491 -1.441215 1.543077 -0.005540 0.008435 388751.000000 0 0 1
-3.104434 32.415538 1.792047 32.613127 -1.475318 1.515820 -0.000349 -0.002969 -258419.000000 0 0 1
-2.439534 33.825038 1.819147 33.961652 -1.498799 1.517206 -0.005315 0.001999 -76249.000000 0 0 1
-1.593234 34.189838 0.726247 34.234644 -1.524230 1.549581 -0.015318 0.014537 700776.000000 0 0 1
-0.787034 -33.945070 0.874247 33.965446 1.547615 1.545054 -0.013038 0.017675 170765.000000 0 0 1
0.486966 -34.135970 1.695747 34.181533 -1.556532 1.521166 -0.006066 0.018471 -739478.000000 0 0 1
0.251366 -34.212470 3.117847 34.355164 -1.563449 1.479918 -0.008500 0.010395 -28598.200000 0 0 1
1.422866 34.637938 3.729247 34.867156 1.529741 1.463635 -0.012834 0.009385 -94487.200000 0 0 1
1.386666 -34.522970 5.303447 34.955470 -1.530651 1.418488 -0.018659 0.002668 218453.000000 0 0 1
0.467866 33.836838 5.846947 34.341481 1.556970 1.399704 0.000227 -0.003118 250346.000000 0 0 1
0.033366 34.184138 7.169847 34.927970 1.569820 1.364051 0.005373 -0.011123 252422.000000 0 0 1
0.941966 33.874038 8.424447 34.918606 1.542996 1.327133 -0.009342 0.000832 114850.000000 0 0 1
1.205366 32.455138 8.608847 33.599124 1.533674 1.311684 -0.012241 -0.004709 -151890.000000 0 0 1
2.237066 32.204438 9.516747 33.655590 1.501443 1.284117 -0.010435 -0.000067 -479861.000000 0 0 1
2.904866 30.842538 9.318847 32.350291 1.476890 1.278595 -0.012709 -0.001506 96203.100000 0 0 1
2.110066 29.755838 9.792947 31.396880 1.500002 1.253595 0.001271 -0.008547 656657.000000 0 0 1
2.956766 28.619938 9.939447 30.440695 1.467850 1.238179 -0.001687 -0.004067 196023.000000 0 0 1
2.523766 27.756338 11.167247 30.024842 1.480120 1.189705 0.009411 -0.011014 -260659.000000 0 0 1
2.824866 28.310238 12.476547 31.066279 1.471343 1.157521 0.003269 -0.004295 -48204.600000 0 0 1
2.632466 27.396838 13.536447 30.671681 1.475004 1.113712 0.006923 -0.001959 104467.000000 0 0 1
1.136566 27.059738 13.815547 30.403792 1.528819 1.099095 0.009208 -0.000979 546936.000000 0 0 1
0.394766 28.015238 14.590147 31.589267 1.556706 1.090693 0.008178 -0.001911 419905.000000 0 0 1
-0.164634 29.070438 13.801147 32.180571 -1.565133 1.127559 0.018566 -0.006288 -331049.000000 0 0 1
-0.705534 30.269738 14.578347 33.604807 -1.547492 1.122071 -0.003394 -0.001633 -372651.000000 0 0 1
-1.873034 30.020138 15.310847 33.751133 -1.508485 1.099951 -0.003087 0.004853 -257117.000000 0 0 1
-2.502734 31.262438 15.614447 35.034478 -1.490911 1.108854 -0.019499 0.013621 -1210040.000000 0 0 1
-3.800134 31.047538 16.348947 35.294174 -1.449005 1.089172 -0.025557 0.025053 -1483560.000000 0 0 1
-4.746734 30.609438 15.425447 34.603665 -1.416948 1.108757 -0.017909 0.021262 -419735.000000 0 0 1
-5.878834 30.207638 16.166647 34.762373 -1.378585 1.087092 -0.006152 0.014855 -522706.000000 0 0 1
-7.088934 29.697538 15.376147 34.185123 -1.336477 1.104265 -0.010486 0.006177 408920.000000 0 0 1
-8.233734 29.356138 16.165947 34.509637 -1.297345 1.083264 -0.005021 0.006114 469514.000000 0 0 1
-9.217634 28.676638 15.363947 33.813684 -1.259794 1.099131 0.007950 0.010706 395655.000000 0 0 1
-10.283934 28.073538 16.334147 34.068860 -1.219656 1.070774 0.004843 0.011739 -448998.000000 0 0 1
-11.134034 29.048038 16.857747 35.382748 -1.204771 1.074195 0.010434 0.001696 11049.800000 0 0 1
-10.660534 29.708038 18.041347 36.355257 -1.226265 1.051521 0.016580 -0.003308 -466803.000000 0 0 1
-11.700434 30.747138 18.458047 37.722489 -1.207180 1.059496 0.033622 0.000374 399697.000000 0 0 1
-12.914434 30.168538 18.948747 37.894304 -1.166323 1.047149 0.029236 -0.002342 930217.000000 0 0 1
-13.862334 31.250338 19.190047 39.204666 -1.153286 1.059299 0.032897 0.003936 736379.000000 0 0 1
-14.847034 30.929938 20.341747 39.885864 -1.123259 1.035613 0.019920 -0.003209 -97260.700000 0 0 1
-14.232034 30.803838 21.571147 40.208726 -1.137990 1.004537 0.024759 -0.003610 -75671.700000 0 0 1
-15.157234 30.368438 22.569647 40.759940 -1.107860 0.983970 0.019570 -0.007379 104803.000000 0 0 1
-14.553834 30.349238 23.966047 41.319024 -1.123646 0.952038 0.030851 -0.014495 -365237.000000 0 0 1
-13.477634 29.459538 24.223947 40.451336 -1.141726 0.928742 0.025622 -0.016749 304557.000000 0 0 1
-13.063634 29.334338 25.561647 41.043388 -1.151828 0.898485 0.026804 -0.013878 151955.000000 0 0 1
-12.518134 30.598138 26.337547 42.268382 -1.182458 0.898093 0.029537 -0.013738 -660811.000000 0 0 1
-13.571234 31.449838 26.619347 43.380414 -1.163416 0.910152 0.026058 -0.002839 -251527.000000 0 0 1
-13.077634 32.619938 27.281347 44.489963 -1.189506 0.910688 0.027730 0.000465 35438.800000 0 0 1
-14.231534 33.539138 27.733147 45.787966 -1.169497 0.920168 0.027529 0.002629 260861.000000 0 0 1
-14.978434 33.145638 28.876647 46.441873 -1.146365 0.899782 -0.022399 0.008813 -204514.000000 0 0 1
-14.253034 33.219538 30.064247 47.016440 -1.165495 0.877025 0.012304 0.017369 -98205.200000 0 0 1
-15.000034 32.687038 31.344947 47.706909 -1.140567 0.853922 -0.006962 0.015309 370688.000000 0 0 1
-16.055034 33.460438 31.881047 48.926130 -1.123422 0.861083 -0.018257 0.017603 -245150.000000 0 0 1
-16.503334 32.850038 33.093047 49.463469 -1.105243 0.837880 -0.022446 0.024348 -609390.000000 0 0 1
-17.814034 33.352638 33.636847 50.608060 -1.080233 0.843766 -0.014884 0.016068 -763337.000000 0 0 1
-17.882834 -34.641070 33.999647 51.727899 1.094248 0.853594 -0.007441 0.013297 226054.000000 0 0 1
-19.248234 -34.244170 34.134447 52.041505 1.058720 0.855411 -0.006097 -0.001827 445701.000000 0 0 1
-19.492034 -32.711570 34.300047 51.249190 1.033415 0.837557 -0.002984 0.003946 -128151.000000 0 0 1
-19.011334 -32.129970 -33.726706 50.311594 1.036501 2.305485 0.002947 0.011024 122606.000000 0 0 1
-19.522834 -32.580870 -32.476806 49.973964 1.030957 2.278216 0.017729 0.009413 -99860.600000 0 0 1
-18.975134 -31.675770 -31.343806 48.433917 1.031081 2.274631 0.036568 0.011595 -101062.000000 0 0 1
-19.225134 -30.283570 -31.511606 47.746012 1.005154 2.291594 0.047357 0.002081 16657.800000 0 0 1
-18.816934 -29.507370 -30.379206 46.342832 1.003115 2.285683 0.047316 0.003594 -227168.000000 0 0 1
-19.195934 -28.052970 -30.324506 45.552483 0.970703 2.299234 0.055858 -0.009818 895366.000000 0 0 1
-20.616834 -27.962270 -30.078506 45.952790 0.935467 2.284387 0.054967 -0.003248 852682.000000 0 0 1
-20.972734 -26.558770 -30.082906 45.279190 0.902384 2.297470 0.060754 -0.008598 512290.000000 0 0 1
-22.398234 -26.268870 -29.520806 45.422598 0.864764 2.278268 0.061068 -0.010608 387476.000000 0 0 1
-22.576334 -26.312770 -28.088306 44.620686 0.861677 2.251694 0.060868 -0.006179 436058.000000 0 0 1
-21.915834 -25.215070 -27.409606 43.213309 0.855286 2.257881 0.075103 -0.011594 -13615.700000 0 0 1
-21.613934 -25.526970 -25.903006 42.305485 0.868216 2.229744 0.073956 -0.003189 -303164.000000 0 0 1
-22.751534 -25.333670 -25.117406 42.312069 0.839046 2.206349 0.058551 -0.009706 -167586.000000 0 0 1
-22.616334 -25.948970 -23.825506 41.862899 0.853913 2.176246 0.051889 0.005556 -974449.000000 0 0 1
-23.867834 -25.872770 -22.955706 42.024257 0.825684 2.148676 0.032658 0.008052 354485.000000 0 0 1
-25.011334 -26.621670 -23.400106 43.380239 0.816576 2.140543 0.017961 0.015931 501701.000000 0 0 1
-24.857134 -28.018370 -23.434306 44.182269 0.845113 2.129869 0.024839 0.023817 -101354.000000 0 0 1
-26.265534 -28.694870 -23.590206 45.494743 0.829571 2.115922 -0.011346 0.027035 826583.000000 0 0 1
-27.029234 -28.696770 -22.411206 45.346954 0.815313 2.087729 -0.009692 0.037624 403385.000000 0 0 1
-28.300434 -28.060270 -22.581706 45.806405 0.781137 2.086310 0.001768 0.035822 784183.000000 0 0 1
-28.891034 -27.394670 -21.258206 45.133924 0.758819 2.061224 -0.002540 0.042595 181636.000000 0 0 1
-29.263134 -28.248070 -20.179306 45.403622 0.767750 2.031348 -0.036760 0.046832 225125.000000 0 0 1
-29.740934 -27.555470 -19.008806 44.779033 0.747274 2.009209 -0.043624 0.051845 96605.900000 0 0 1
-30.537034 -28.588970 -18.094306 45.576787 0.752462 1.979050 -0.047026 0.039151 476584.000000 0 0 1
-31.835634 -29.030370 -18.506806 46.891064 0.739342 1.976512 -0.050801 0.043058 1469820.000000 0 0 1
-32.974334 -28.156070 -18.374306 47.092315 0.706741 1.971619 -0.057571 0.046152 615090.000000 0 0 1
-33.402034 -27.639070 -16.998906 46.567981 0.691266 1.944466 -0.043878 0.046139 -1205940.000000 0 0 1
-32.561934 -26.650570 -16.546406 45.214113 0.685895 1.945457 -0.047229 0.046399 -254175.000000 0 0 1
-32.830634 -26.257070 -15.155306 44.687443 0.674603 1.916799 -0.046560 0.038842 -76928.600000 0 0 1
-32.438534 -27.194470 -14.023706 44.592174 0.697685 1.890714 -0.017606 0.033612 -31094.800000 0 0 1
-33.242134 -28.355870 -13.977306 45.874393 0.706239 1.880406 -0.024260 0.028246 433920.000000 0 0 1
-32.930234 -28.990870 -12.734206 45.684033 0.721865 1.853284 -0.038573 0.012353 45079.600000 0 0 1
-33.697934 -30.319470 -12.572506 47.041353 0.732673 1.841350 -0.036764 0.012004 -50918.600000 0 0 1
-33.184134 -31.370970 -13.355706 47.578350 0.757318 1.855330 -0.044267 0.005182 76024.600000 0 0 1
-33.609434 -32.645270 -12.971306 48.616484 0.770847 1.840877 -0.040840 -0.004024 -553102.000000 0 0 1
-33.223834 -33.630170 -14.098106 49.331208 0.791476 1.860622 -0.036234 0.010087 341172.000000 0 0 1
-31.887334 -34.139270 -14.001406 48.768137 0.819491 1.861996 -0.022536 0.011533 517670.000000 0 0 1
-31.570234 34.294538 -15.024606 48.974828 -0.826737 1.882607 -0.001424 -0.008083 534415.000000 0 0 1
-30.017434 34.230638 -15.230006 48.007666 -0.850882 1.893615 -0.004362 -0.002442 651879.000000 0 0 1
-29.570234 33.601538 -16.364406 47.657694 -0.849127 1.921303 0.004635 -0.004428 -1775570.000000 0 0 1
-28.232334 33.336238 -16.238806 46.605453 -0.868107 1.926694 -0.000040 -0.006616 -1336760.000000 0 0 1
8.850530 20.066938 -8.745153 23.611260 1.155410 1.950215 0.003711 -0.015991 -159482.000000 0 1 0
7.436130 20.055138 -8.938753 23.182016 1.215727 1.966643 0.004976 -0.022327 383484.000000 0 1 0
7.162130 20.312938 -10.310553 23.879260 1.231816 2.017260 0.015427 -0.020600 -76535.800000 0 1 0
7.268730 19.156338 -11.322353 23.409301 1.208136 2.075638 0.020871 -0.013512 -730334.000000 0 1 0
8.529030 18.601438 -11.483753 23.465601 1.140884 2.082183 0.032817 -0.019321 -910037.000000 0 1 0
8.347630 17.500938 -12.362453 22.995565 1.125732 2.138386 0.035032 -0.026651 69170.400000 0 1 0
9.619630 16.915038 -13.023553 23.415139 1.053707 2.160605 0.046075 -0.030645 186606.000000 0 1 0
9.411030 15.797338 -13.807453 22.994980 1.033519 2.214866 0.046024 -0.039238 340209.000000 0 1 0
10.599430 15.672538 -14.602353 23.899897 0.976150 2.228094 0.060231 -0.035870 415418.000000 0 1 0
10.655730 14.426238 -15.487753 23.696654 0.934608 2.283106 0.059504 -0.037859 -487327.000000 0 1 0
10.685730 13.248638 -14.755153 22.526113 0.892072 2.285011 0.066038 -0.039496 1418560.000000 0 1 0
11.972730 12.675938 -14.392653 22.609160 0.813920 2.260858 0.076971 -0.033501 895436.000000 0 1 0
12.826930 12.010538 -15.501853 23.432682 0.752541 2.293678 0.067967 -0.029422 -455534.000000 0 1 0
13.461930 12.856338 -16.392753 24.803857 0.762392 2.292807 0.060195 -0.026854 72946.000000 0 1 0
14.330630 12.129438 -17.226453 25.480206 0.702400 2.313215 0.043627 -0.025904 78103.000000 0 0 1
15.051930 12.910638 -18.335553 27.008104 0.708970 2.317047 0.035985 -0.016540 -48880.100000 0 0 1
15.943830 13.909238 -17.907353 27.719053 0.717350 2.273169 0.007452 -0.009419 -409562.000000 0 0 1
16.694530 14.282438 -19.035653 29.069768 0.707688 2.284749 0.013394 -0.006416 -720252.000000 0 0 1
17.831030 15.203038 -18.573853 29.900936 0.706011 2.241043 -0.009679 0.009814 -805917.000000 0 0 1
17.462130 16.407338 -17.893853 29.905128 0.754265 2.212242 -0.014804 0.002573 30580.900000 0 0 1
16.975630 17.472938 -18.660053 30.686693 0.799833 2.224440 0.002077 0.002987 -85603.900000 0 0 1
16.772330 18.801438 -17.874953 30.892055 0.842376 2.187840 0.000444 0.011960 485774.000000 0 0 1
17.899530 19.669738 -17.984253 32.104908 0.832482 2.165389 -0.005917 0.012150 546100.000000 0 0 1
17.484430 20.938438 -17.444053 32.379290 0.875052 2.139738 -0.003706 0.015665 -140554.000000 0 0 1
18.348430 22.076738 -17.996453 33.880962 0.877365 2.130774 -0.000872 0.010647 459645.000000 0 0 1
19.607930 22.261938 -17.367053 34.375563 0.848701 2.100427 -0.006845 0.010875 -25098.300000 0 0 1
19.406830 23.133238 -16.284453 34.306780 0.872773 2.065387 -0.006372 0.008525 -287433.000000 0 0 1
20.625130 23.444638 -15.367353 34.802336 0.849289 2.028134 -0.014775 0.012815 -429097.000000 0 0 1
20.967630 22.463338 -14.381753 33.927539 0.819823 2.008539 -0.011097 0.012459 232499.000000 0 0 1
21.921030 22.916538 -13.388453 34.423102 0.807597 1.970275 -0.010164 0.020225 751424.000000 0 0 1
23.393330 22.845238 -13.862853 35.515229 0.773545 1.971792 0.003194 0.015517 -307267.000000 0 0 1
23.622930 23.613838 -15.049753 36.635382 0.785206 1.994126 0.003773 0.013858 -409085.000000 0 0 1
24.965030 23.994838 -15.264153 37.841767 0.765585 1.985991 0.021409 0.014130 3689.490000 0 0 1
25.195830 24.671738 -16.651053 38.997206 0.774889 2.011947 0.025097 0.010598 -245841.000000 0 0 1
25.591230 23.774638 -17.642453 39.133114 0.748616 2.038493 0.021641 0.006264 92733.300000 0 0 1
25.837130 24.376038 -18.899753 40.236167 0.756309 2.059770 0.021442 0.005622 -748324.000000 0 0 1
26.331330 23.356038 -19.996353 40.480830 0.725589 2.087447 0.015335 0.003102 -523439.000000 0 0 1
27.683230 23.017638 -19.967853 41.169018 0.693635 2.077184 0.009315 0.008003 -692132.000000 0 0 1
28.064630 22.230638 -21.087453 41.551238 0.669919 2.103083 0.012190 0.003225 -381709.000000 0 0 1
29.547030 22.230538 -21.421153 42.732769 0.645021 2.095876 0.032627 -0.015126 -778087.000000 0 0 1
29.980630 23.394738 -21.988353 43.927663 0.662630 2.095040 0.018489 -0.007640 240837.000000 0 0 1
31.388930 23.456738 -22.219153 45.046356 0.641767 2.086619 0.036145 -0.019478 532262.000000 0 0 1
31.807430 24.933538 -22.564253 46.287573 0.664841 2.079997 0.030234 -0.021276 -246018.000000 0 0 1
31.685630 25.265138 -23.972253 47.084767 0.673135 2.104970 0.028503 -0.015865 -221941.000000 0 0 1
30.373930 25.368838 -24.472253 46.530041 0.695849 2.124622 0.017050 -0.015595 -511674.000000 0 0 1
30.309030 25.798138 -25.961113 47.520107 0.705173 2.148759 0.020212 -0.015470 -274932.000000 0 0 1
30.366330 27.183838 -26.200593 48.451482 0.730155 2.142136 0.023524 -0.016465 -264635.000000 0 0 1
29.304630 27.669138 -27.010993 48.517381 0.756700 2.161238 0.016803 -0.004598 78521.400000 0 0 1
29.137530 27.160538 -28.470373 48.961746 0.750296 2.191345 0.011507 0.004116 -2754.940000 0 0 1
28.639830 25.838738 -28.528033 47.976337 0.734027 2.207598 0.007326 -0.007312 -166240.000000 0 0 1
28.288030 25.497338 -29.815493 48.366212 0.733559 2.235026 0.016944 -0.007583 -41687.600000 0 0 1
27.675230 24.083538 -30.016363 47.401658 0.716116 2.256522 0.014895 -0.010935 620210.000000 0 0 1
26.269230 24.068238 -29.805983 46.451578 0.741701 2.267453 0.017776 -0.008512 218265.000000 0 0 1
25.681830 22.803238 -29.852963 45.505422 0.726097 2.286344 0.026987 -0.015496 368430.000000 0 0 1
24.274230 22.744438 -29.190923 44.256725 0.752874 2.291058 0.007373 -0.005606 226281.000000 0 0 1
24.263530 22.681638 -27.766793 43.291689 0.751714 2.267103 0.002278 0.003397 1142650.000000 0 0 1
22.990530 23.132438 -27.212213 42.475624 0.788475 2.266147 0.015482 -0.004461 1048140.000000 0 0 1
23.004130 23.403538 -25.666653 41.661645 0.794004 2.234545 0.020088 -0.000479 -261177.000000 0 0 1
23.142430 22.140138 -25.006653 40.633612 0.763268 2.233712 0.017312 0.001452 90736.300000 0 0 1
23.651230 22.456538 -23.742353 40.340750 0.759493 2.200054 0.014638 0.001347 13661.200000 0 0 1
24.319330 21.290338 -22.930453 39.629711 0.719084 2.187829 0.025104 0.002868 477657.000000 0 0 1
25.571830 20.875038 -23.462253 40.498926 0.684619 2.188703 0.007419 0.001640 -34689.700000 0 0 1
25.688430 19.522738 -23.242253 39.764746 0.649859 2.195053 0.041834 -0.002846 549919.000000 0 0 1
27.055230 18.836938 -23.613753 40.551511 0.608198 2.192370 0.048945 -0.017048 371499.000000 0 0 1
28.085630 19.176738 -22.726753 40.902997 0.599086 2.159912 0.052290 -0.029122 58778.600000 0 0 1
29.127530 18.178638 -22.805053 41.218276 0.557955 2.157087 0.035178 -0.022420 890413.000000 0 0 1
30.423030 18.439438 -21.972453 41.813423 0.544894 2.124085 0.036994 -0.019721 136812.000000 0 0 1
31.246330 19.370438 -22.664453 43.188244 0.554943 2.123256 0.023448 -0.020420 592567.000000 0 0 1
32.555530 19.454438 -22.055853 43.872524 0.538636 2.097546 0.022912 -0.017202 924653.000000 0 0 1
32.743830 20.428038 -20.865753 43.873030 0.557789 2.066436 0.030606 -0.026459 -542674.000000 0 0 1
32.071530 20.091438 -19.667653 42.650504 0.559646 2.050071 0.036234 -0.017109 125840.000000 0 0 1
32.159730 21.173138 -18.746553 42.825031 0.582240 2.023888 0.015503 -0.004847 -240740.000000 0 0 1
31.494830 20.943738 -17.390453 41.629224 0.586841 2.001760 0.027941 -0.014066 -462038.000000 0 0 1
32.041930 19.977238 -16.582753 41.240308 0.557500 1.984606 0.025810 -0.018719 -170804.000000 0 0 1
31.621930 20.040238 -15.258453 40.427441 0.564863 1.957814 0.032144 -0.013386 -184930.000000 0 0 1
32.213630 18.909738 -14.367853 40.021636 0.530814 1.937995 0.011236 0.000885 -1063060.000000 0 0 1
33.600330 18.885438 -14.325853 41.120214 0.512056 1.926649 -0.007328 -0.005616 -476096.000000 0 0 1
34.212630 17.816938 -13.591253 40.898282 0.480126 1.909557 -0.021158 0.014417 123728.000000 0 0 1
34.120330 18.020438 -12.085653 40.435085 0.485908 1.874326 -0.007747 0.004473 -435145.000000 0 0 1
34.880930 19.180638 -11.716553 41.495226 0.502758 1.857049 -0.008436 -0.003215 -62192.400000 0 0 1
34.566330 19.694338 -10.412753 41.123273 0.517884 1.826791 -0.012900 -0.004246 248874.000000 0 0 1
33.357230 20.708938 -10.326853 40.598138 0.555590 1.827990 -0.013373 -0.009950 -126711.000000 0 0 1
32.143730 20.050638 -10.351453 39.273401 0.557722 1.837522 0.024882 -0.018552 -1061630.000000 0 0 1
31.075130 20.960438 -10.244353 38.858081 0.593412 1.837585 0.012646 -0.009592 356772.000000 0 0 1
29.662630 20.358838 -10.510653 37.481032 0.601504 1.855034 0.013740 -0.009366 302812.000000 0 0 1
29.457730 20.194938 -11.876253 37.638262 0.600966 1.891819 0.028246 -0.014358 243190.000000 0 0 1
28.301830 19.351938 -11.945053 36.306685 0.599750 1.906045 0.032654 -0.013455 212726.000000 0 0 1
28.032430 18.892938 -13.355253 36.347256 0.593040 1.947046 0.053711 -0.003318 -906757.000000 0 0 1
29.042630 18.048838 -13.863053 36.897414 0.556050 1.955969 0.054050 0.003952 -188434.000000 0 0 1
28.632130 17.180838 -14.919253 36.572724 0.540460 1.990986 0.037825 0.006966 -194675.000000 0 0 1
29.808330 16.404738 -15.513153 37.393982 0.503105 1.998582 0.034252 -0.007463 -47477.500000 0 0 1
30.582530 15.563638 -14.645553 37.309653 0.470747 1.974189 0.020021 -0.006696 367903.000000 0 0 1
31.651330 15.105138 -15.467153 38.330206 0.445271 1.986161 0.017128 -0.001251 -19629.700000 0 0 1
32.584030 14.136638 -14.716553 38.446592 0.409344 1.963599 -0.008716 0.002234 -120087.000000 0 0 1
33.418330 14.751238 -13.744953 39.029573 0.415689 1.930682 0.000182 0.010686 92539.200000 0 0 1
33.824330 13.802438 -12.794853 38.707891 0.387437 1.907681 -0.016734 0.021821 -257076.000000 0 0 1
34.776330 14.401938 -11.752253 39.432530 0.392628 1.873429 -0.007351 0.029077 1085060.000000 0 0 1
-34.004506 14.824438 -12.414153 39.117536 -0.411113 1.893736 -0.019530 0.022919 1264930.000000 0 0 1
-32.988506 15.103938 -11.437453 38.041895 -0.429367 1.876175 -0.037076 0.023957 435816.000000 0 0 1
-31.537606 15.239138 -12.025453 37.033275 -0.450122 1.901512 -0.005383 0.004556 493867.000000 0 0 1
-30.946806 14.062738 -12.558753 36.237931 -0.426521 1.924702 -0.013027 -0.002644 245084.000000 0 0 1
-30.847706 12.955438 -11.678553 35.437451 -0.397611 1.906627 0.000546 0.010410 -1383430.000000 0 0 1
-29.792506 11.959638 -12.064553 34.295478 -0.381739 1.930271 0.015523 0.002590 -538580.000000 0 0 1
-30.149406 11.205638 -13.210153 34.771557 -0.355848 1.960498 -0.002801 0.009288 607280.000000 0 0 1
-29.344006 10.021238 -13.153353 33.682437 -0.329090 1.971983 0.018418 0.000558 177149.000000 0 0 1
-29.182406 9.254238 -14.453153 33.854798 -0.307086 2.011876 0.015585 -0.003604 817085.000000 0 0 1
-30.521706 8.982638 -14.911753 35.137198 -0.286222 2.009081 -0.007772 0.001716 1157710.000000 0 0 1
-30.537006 8.197638 -16.106053 35.484010 -0.262266 2.041929 0.007148 -0.011695 -331654.000000 0 0 1
-31.915406 7.744038 -16.618153 36.806606 -0.238042 2.039241 0.009097 -0.007757 -523701.000000 0 0 1
-32.622106 6.950938 -15.717753 36.872281 -0.209935 2.011168 0.010750 -0.011306 -561436.000000 0 0 1
-33.494206 6.146738 -16.400453 37.797078 -0.181497 2.019622 -0.009003 -0.009935 -1009700.000000 0 0 1
-34.287206 5.307038 -15.404553 37.961525 -0.153563 1.988644 -0.016574 -0.002496 -21711.000000 0 0 1
34.829630 4.326738 -15.934753 38.545300 0.123593 1.996985 -0.008295 -0.000662 -26542.200000 0 0 1
33.919130 3.934938 -14.971253 37.284441 0.115493 1.983996 -0.002786 0.002426 -418793.000000 0 0 1
32.894030 2.857438 -15.351453 36.412213 0.086650 2.006007 0.001836 0.005029 -489016.000000 0 0 1
33.484230 1.648038 -15.699453 37.018678 0.049179 2.008759 0.009228 -0.000956 30422.100000 0 0 1
32.701130 0.501038 -15.379753 36.140721 0.015321 2.010368 0.005194 -0.004591 244987.000000 0 0 1
32.162930 0.231238 -13.954553 35.060478 0.007189 1.980147 0.006841 -0.017610 -128662.000000 0 0 1
33.273930 -0.007662 -13.114253 35.765040 -0.000230 1.946232 0.022294 -0.019737 332707.000000 0 0 1
32.977430 0.017638 -11.743753 35.006099 0.000535 1.912908 0.017925 -0.012448 -290838.000000 0 0 1
32.973430 1.443638 -11.105753 34.823396 0.043754 1.895382 0.020835 -0.014247 -132885.000000 0 0 1
32.010430 2.273138 -11.710053 34.160798 0.070893 1.920684 0.011658 -0.004662 356491.000000 0 0 1
32.145830 3.514938 -11.122153 34.196659 0.108911 1.902063 0.015145 -0.000055 -192167.000000 0 0 1
31.149130 4.592038 -11.606953 33.557063 0.146367 1.923980 0.006637 0.001185 -197930.000000 0 0 1
31.391930 5.050138 -12.912053 34.317317 0.159507 1.956547 -0.005305 0.006629 741800.000000 0 0 1
30.343430 5.890238 -13.376153 33.679966 0.191734 1.979211 -0.000566 0.002825 2499.400000 0 0 1
30.687330 6.373138 -14.762853 34.644927 0.204769 2.010994 -0.026188 0.013615 -218064.000000 0 0 1
30.598030 5.358438 -15.708153 34.809458 0.173366 2.038974 -0.025880 0.011374 107275.000000 0 0 1
30.918330 5.841938 -16.998553 35.763419 0.186746 2.066108 -0.028661 0.015425 -940723.000000 0 0 1
30.104330 6.961738 -17.797753 35.658049 0.227259 2.093383 -0.017203 0.017875 -84823.200000 0 0 1
28.903030 6.664138 -18.437253 34.924607 0.226609 2.126941 -0.016734 0.008042 -228686.000000 0 0 1
27.877630 6.258838 -17.564053 33.538504 0.220849 2.121983 -0.011290 0.015409 -1230030.000000 0 0 1
26.510830 6.014938 -18.213553 32.722119 0.223109 2.161099 -0.003621 0.006730 -234801.000000 0 0 1
26.531130 4.909038 -19.059253 33.034143 0.182960 2.185793 -0.003260 0.010168 301264.000000 0 0 1
25.441730 5.050938 -19.947753 32.721651 0.195981 2.226377 0.007177 0.008805 -84804.800000 0 0 1
25.164030 3.764038 -20.768853 32.844202 0.148479 2.255372 0.009353 0.016120 -354636.000000 0 0 1
24.411430 2.846338 -20.032053 31.706509 0.116074 2.254665 0.012268 0.009449 158734.000000 0 0 1
23.981230 1.792938 -20.912953 31.869509 0.074625 2.286576 0.007402 0.008283 -394416.000000 0 0 1
23.004030 0.844638 -20.200553 30.626151 0.036700 2.291063 0.004860 0.008995 -977293.000000 0 0 1
21.762330 1.435538 -20.039353 29.618161 0.065869 2.313918 0.007051 0.004192 -339920.000000 0 0 1
20.920030 0.487338 -19.331553 28.488490 0.023291 2.316616 0.007855 0.007964 780373.000000 0 0 1
19.543530 1.158838 -18.961253 27.254753 0.059226 2.340196 0.009847 0.003074 -267667.000000 0 0 1
18.656930 1.170038 -20.066453 27.424670 0.062631 2.391599 0.009297 -0.004253 -204592.000000 0 0 1
17.704030 2.168638 -20.024453 26.816308 0.121887 2.413923 0.006435 -0.008009 380215.000000 0 0 1
16.459430 1.963138 -19.078053 25.273283 0.118711 2.426253 0.015929 -0.003403 -430870.000000 0 0 1
16.790730 1.957838 -17.704053 24.478465 0.116078 2.379293 0.016693 -0.009435 -58694.300000 0 1 0
15.726330 1.811438 -16.787653 23.074316 0.114680 2.385536 0.007008 -0.008894 91686.500000 0 1 0
14.828830 3.088238 -16.550253 22.435291 0.205324 2.400436 0.011609 -0.011122 644193.000000 0 1 0
14.002330 3.482438 -17.670253 22.812945 0.243759 2.456833 0.012174 -0.004920 955817.000000 0 1 0
13.179230 4.624538 -17.423053 22.330276 0.337473 2.465851 0.020883 -0.012873 179792.000000 0 1 0
-19.739070 -21.874562 -17.704653 34.374148 0.836670 2.111871 0.045877 -0.013575 -19825.700000 0 0 1
-19.339870 -22.422662 -18.923953 35.141462 0.859082 2.139462 0.057220 -0.010717 268926.000000 0 0 1
-20.429470 -22.538562 -19.825353 36.309704 0.834444 2.148387 0.052360 -0.011892 6505.260000 0 0 1
-20.016070 -23.203362 -21.141353 37.228965 0.859012 2.174717 0.049364 -0.005005 -13612.000000 0 0 1
-19.626470 -24.540962 -20.962653 37.774197 0.896212 2.159095 0.048110 -0.001760 322562.000000 0 0 1
-19.173070 -25.257582 -22.112153 38.658755 0.921496 2.179718 0.044470 -0.006221 -72010.700000 0 0 1
-18.932570 -26.760812 -21.827953 39.383280 0.955072 2.158251 0.041976 0.011673 -290026.000000 0 0 1
-20.095670 -27.537772 -21.900853 40.519282 0.940382 2.141833 0.051343 0.014851 -59143.600000 0 0 1
-19.859270 -28.912382 -21.675253 41.232669 0.968932 2.124312 0.060688 0.002353 -295569.000000 0 0 1
-21.129070 -29.653782 -22.100253 42.593492 0.951713 2.116318 0.040147 0.010411 -112666.000000 0 0 1
-21.491670 -29.369502 -23.443553 43.290411 0.939066 2.143066 0.031771 0.016777 159090.000000 0 0 1
-20.956370 -30.275292 -24.392553 44.167402 0.965329 2.155887 0.031158 0.010361 -530433.000000 0 0 1
-21.366870 -30.041012 -25.843373 45.020944 0.952555 2.182215 0.035813 0.021313 651209.000000 0 0 1
-22.750870 -30.256392 -26.178803 46.025874 0.926057 2.175824 0.019046 0.025374 1049460.000000 0 0 1
-23.149870 -29.570022 -27.355753 46.461165 0.906580 2.200354 0.023836 0.032245 -223818.000000 0 0 1
-22.599970 -29.981302 -28.737303 47.280754 0.924866 2.224085 0.032289 0.009244 -463652.000000 0 0 1
-22.963570 -31.297452 -29.182903 48.564368 0.937796 2.215438 0.018033 0.020590 171300.000000 0 0 1
-22.644570 -31.453642 -30.530613 49.337880 0.946816 2.238019 0.038696 0.010983 -361677.000000 0 0 1
-23.467070 -32.542432 -31.222793 50.838726 0.946035 2.232110 0.011531 0.003380 -364638.000000 0 0 1
-23.102070 -33.891122 -30.952143 51.384326 0.972488 2.217258 0.010352 -0.007710 -82636.100000 0 0 1
-24.064870 34.459948 -31.328283 52.422012 -0.961183 2.211322 0.011013 -0.004722 -206219.000000 0 0 1
-23.531670 33.006126 -31.518113 51.347203 -0.951433 2.231691 0.011946 0.000223 -66166.500000 0 0 1
-22.764170 32.911456 -32.707133 51.682956 -0.965677 2.256014 0.011191 -0.016207 -429829.000000 0 0 1
-21.887970 31.853306 -32.516923 50.508085 -0.968747 2.270246 0.016639 -0.001121 -874257.000000 0 0 1
-20.521170 32.062606 -33.164823 50.487965 -1.001459 2.287477 0.010939 -0.005324 -570432.000000 0 0 1
-20.467270 31.702286 -34.573393 51.178741 -0.997514 2.312496 0.003321 -0.001944 170893.000000 0 0 1
-20.331270 30.308946 34.370611 50.133139 -0.979937 0.815387 -0.007572 0.004484 -71450.000000 0 0 1
-20.638870 30.091506 32.870061 49.111125 -0.969616 0.837530 -0.001830 0.003811 499614.000000 0 0 1
-19.542670 30.623066 32.103171 48.479910 -1.002784 0.847052 -0.005010 0.006345 828386.000000 0 0 1
-19.700670 30.610136 30.667671 47.598349 -0.998934 0.870687 0.002632 0.005269 283147.000000 0 0 1
-19.026070 31.897076 29.977441 47.729045 -1.032967 0.891719 -0.010488 0.004738 517965.000000 0 0 1
-19.869770 33.050026 30.149471 48.950001 -1.029493 0.907238 -0.002900 0.003220 442182.000000 0 0 1
-19.242470 34.313866 29.847541 49.382079 -1.059716 0.921758 -0.022059 0.001260 -94729.900000 0 0 1
-20.274970 -33.856382 29.907131 49.515305 1.031221 0.922289 -0.023593 -0.009005 63039.700000 0 0 1
-20.611870 -33.428322 31.187771 50.149566 1.018261 0.899636 -0.010090 -0.007643 -915284.000000 0 0 1
-21.660970 -32.540362 31.215291 50.024665 0.983488 0.896948 0.014341 -0.012286 -915444.000000 0 0 1
-21.314170 -31.071282 30.965481 48.770682 0.969544 0.882891 0.008528 -0.006298 -505461.000000 0 0 1
-20.978870 -30.805112 29.569351 47.575355 0.972923 0.900106 0.003385 -0.002916 28064.000000 0 0 1
-21.061470 -29.418342 29.366921 46.598717 0.949459 0.888974 0.002538 -0.007048 51153.700000 0 0 1
-22.464270 -28.795932 29.035521 46.657374 0.908296 0.899101 0.012069 -0.000833 -821927.000000 0 0 1
-23.386870 -28.891892 30.099591 47.829619 0.890313 0.890133 0.014741 0.005186 12004.800000 0 0 1
-24.475070 -29.727682 29.767521 48.671033 0.882003 0.912707 0.008695 0.001124 283588.000000 0 0 1
-25.428470 -29.390222 28.518011 48.204452 0.857543 0.937748 -0.008337 0.003535 -461152.000000 0 0 1
-24.971670 -29.768742 27.216831 47.439627 0.872808 0.959762 -0.001812 0.013116 182988.000000 0 0 1
-26.026860 -29.838862 26.266951 47.515343 0.853528 0.985064 0.000775 0.012859 71614.100000 0 0 1
-25.537650 -30.305412 24.884891 46.795805 0.870569 1.010100 0.002136 0.002255 -166044.000000 0 0 1
-24.861970 -29.365932 24.081701 45.391671 0.868264 1.011569 -0.008287 0.005810 99266.300000 0 0 1
-24.862270 -29.763132 22.730501 44.951665 0.874876 1.040643 0.011070 0.000000 89228.600000 0 0 1
-23.562970 -30.477642 22.284001 44.504796 0.912660 1.046377 -0.013631 0.003836 -76153.900000 0 0 1
-23.563170 -31.834332 22.645801 45.623239 0.933609 1.051389 -0.007263 -0.006100 827240.000000 0 0 1
-22.488070 -32.612542 22.054701 45.339839 0.967116 1.062796 -0.008555 0.004951 955312.000000 0 0 1
-21.483970 -33.278062 23.047501 45.827695 0.997528 1.043827 -0.009357 0.005194 -137330.000000 0 0 1
-20.625470 -32.390092 23.686201 45.117227 1.003768 1.018090 -0.001901 0.000881 224140.000000 0 0 1
-19.565870 -33.174862 24.248061 45.512231 1.037925 1.008913 -0.010435 -0.000730 161541.000000 0 0 1
-19.044670 -32.653852 25.593761 45.651003 1.042800 0.975638 -0.005643 -0.009624 -920185.000000 0 0 1
-18.265570 -31.504372 25.418251 44.409954 1.045378 0.961422 0.008637 -0.006853 85232.600000 0 0 1
-17.807970 -30.852222 26.625461 44.473571 1.047309 0.928944 0.012168 0.002615 139875.000000 0 0 1
-16.806370 -31.566652 27.564361 45.151983 1.081559 0.914130 -0.002112 -0.006741 -335116.000000 0 0 1
-17.332570 -32.649622 28.371871 46.598056 1.082762 0.916169 -0.014802 0.000023 176702.000000 0 0 1
-16.479970 -32.917132 29.496151 47.171495 1.106629 0.895285 -0.015050 0.003169 -229052.000000 0 0 1
-16.631070 -32.213272 30.872991 47.617528 1.094210 0.865377 -0.011259 0.011159 -56758.600000 0 0 1
-16.275670 -30.865052 30.840311 46.569020 1.085535 0.846979 0.001974 0.000311 13191.700000 0 0 1
-16.761970 -30.327692 32.076361 47.218910 1.065886 0.823972 0.002177 0.009642 48813.500000 0 0 1
-16.539770 -28.747962 32.076781 46.140320 1.048709 0.802097 0.019416 -0.002181 -46792.100000 0 0 1
-17.478170 -28.009382 31.320021 45.507753 1.012908 0.811743 0.020626 -0.001647 -24594.700000 0 0 1
-17.599270 -28.299102 29.928511 44.791620 1.014428 0.839047 0.014073 0.004689 -320291.000000 0 0 1
-16.400070 -27.917022 29.019401 43.479283 1.039650 0.840043 0.007108 0.012552 98935.500000 0 0 1
-16.175470 -26.511432 29.071171 42.539803 1.022960 0.818404 0.013408 0.006572 -148049.000000 0 0 1
-15.072370 -26.205452 28.252001 41.377259 1.048841 0.819221 0.029832 -0.000088 -84164.200000 0 0 1
-15.144570 -24.804862 27.665011 40.124706 1.022657 0.810031 0.019905 0.003384 -162597.000000 0 0 1
-16.058270 -24.716062 26.590711 39.696570 0.994625 0.836791 0.023091 0.000032 133688.000000 0 0 1
-15.862070 -23.653162 25.675371 38.344517 0.980068 0.837130 0.013482 0.009417 -101746.000000 0 0 1
-16.286470 -22.244762 26.219431 38.046512 0.938818 0.810493 0.022966 0.010326 -508219.000000 0 0 1
-16.003670 -21.141062 25.372641 36.699221 0.922834 0.807417 0.007134 0.009027 128368.000000 0 0 1
-16.444370 -19.925862 25.936671 36.608307 0.880831 0.783438 0.022086 0.010385 -141423.000000 0 0 1
-16.181570 -18.721462 24.968671 35.153533 0.858040 0.780908 -0.000937 0.002660 41450.900000 0 0 1
-14.826270 -18.323962 25.011781 34.368227 0.890520 0.755748 0.004546 0.002028 -79574.300000 0 0 1
-14.570970 -17.331262 24.044301 33.027477 0.871707 0.755383 0.017815 0.006015 -607516.000000 0 0 1
-13.281170 -16.623562 24.418621 32.388290 0.896704 0.716767 0.027227 -0.004401 -1346170.000000 0 0 1
-12.171970 -17.375362 24.124001 32.125184 0.959714 0.721316 0.008715 -0.000110 487424.000000 0 0 1
-10.890070 -16.679362 24.021701 31.206359 0.992380 0.692316 0.026468 -0.013847 1237470.000000 0 0 1
-10.646570 -15.936062 22.657201 29.675853 0.981816 0.702097 0.019632 -0.010022 -396128.000000 0 0 1
-10.276170 -16.755562 21.580001 29.189809 1.020655 0.738767 0.030182 0.000672 -825956.000000 0 0 1
-8.974070 -17.221862 21.626301 29.065845 1.090423 0.731692 0.030255 -0.002913 -1238350.000000 0 0 1
-8.559970 -18.460662 20.882301 29.157154 1.136619 0.772457 0.028444 0.003824 -178371.000000 0 0 1
-8.311270 -18.316762 19.502601 28.016645 1.144827 0.800835 0.028785 0.001621 493100.000000 0 0 1
-7.475670 -19.409862 19.002901 28.173367 1.203159 0.830511 0.034656 0.007918 352212.000000 0 0 1
-7.165570 -19.322062 17.514501 27.045244 1.215670 0.866366 0.021908 -0.005278 -19179.900000 0 0 1
-6.200770 -18.356562 17.139901 25.868690 1.245035 0.846547 0.011273 -0.002255 43910.300000 0 0 1
-6.379270 -18.038162 15.730101 24.769062 1.230870 0.882697 0.025253 -0.005898 200028.000000 0 1 0
-5.548770 -16.852962 15.260601 23.402930 1.252729 0.860471 0.008100 -0.010822 144542.000000 0 1 0
-6.145770 -15.701462 15.842601 23.136430 1.197714 0.816540 0.020519 -0.014557 567881.000000 0 1 0
-5.394670 -14.501462 15.570701 21.950890 1.214651 0.782231 0.018970 -0.019678 170518.000000 0 1 0
-5.607070 -13.381762 16.645501 22.081293 1.174012 0.716927 0.012207 -0.010653 -177623.000000 0 1 0
-5.076770 -13.599062 17.955301 23.088978 1.213501 0.679866 0.016404 -0.006920 -27252.300000 0 1 0
-5.508370 -14.756162 18.714901 24.460866 1.213523 0.699607 0.022701 -0.003385 893379.000000 0 1 0
-6.828570 -14.608462 19.571901 25.359334 1.133535 0.689156 0.050271 -0.002844 902625.000000 0 0 1
-6.513770 -13.667562 20.490501 25.477285 1.126055 0.636358 0.042687 -0.005417 -567813.000000 0 0 1
-7.655370 -13.179962 21.097201 26.027062 1.044589 0.625642 0.052052 -0.000635 -544692.000000 0 0 1
-7.416570 -12.214162 22.274301 26.463857 1.025092 0.570395 0.044253 0.006105 -610201.000000 0 0 1
-7.034670 -10.960462 21.768301 25.366853 1.000191 0.539161 0.026233 0.002482 373411.000000 0 0 1
-6.588370 -9.988762 22.769401 25.722123 0.987717 0.483858 0.018967 -0.003498 1378390.000000 0 0 1
-5.121370 -10.306962 23.307401 25.994169 1.109644 0.458676 0.016508 0.000883 827797.000000 0 0 1
-5.075470 -11.197762 24.433251 27.352039 1.145237 0.466188 0.026112 0.006498 133897.000000 0 0 1
-3.762070 -11.586962 24.794001 27.625230 1.256853 0.456699 0.013010 0.004690 -108876.000000 0 0 1
-3.732170 -12.787062 25.739211 28.981805 1.286814 0.477566 0.012386 -0.000741 -662071.000000 0 0 1
-2.446670 -13.182962 26.145581 29.383126 1.387291 0.473854 -0.005323 0.002882 -90057.200000 0 0 1
-2.414470 -14.475062 26.745971 30.507442 1.405516 0.501831 0.000762 -0.004355 -106339.000000 0 0 1
-2.425770 -15.711662 25.863941 30.359251 1.417613 0.551137 0.004433 -0.020293 -243968.000000 0 0 1
-1.205070 -16.097662 25.265021 29.981798 1.496076 0.568557 -0.009261 -0.009288 -81352.800000 0 0 1
-1.192370 -17.396662 24.661901 30.203890 1.502363 0.615449 -0.011434 -0.003127 -669114.000000 0 0 1
0.195830 -18.027062 24.831991 30.686171 -1.559934 0.627966 -0.005336 -0.006636 -232928.000000 0 0 1
0.520130 -18.564462 26.108071 32.039681 -1.542786 0.618297 0.009977 -0.010977 46521.200000 0 0 1
0.735130 -17.586462 27.132451 32.341830 -1.529020 0.575487 0.009008 -0.013858 -708218.000000 0 0 1
1.394130 -18.237862 28.366761 33.752575 -1.494503 0.572716 0.004322 -0.015716 -245384.000000 0 0 1
2.645130 -18.902262 28.141701 34.003640 -1.431762 0.595963 0.008133 -0.017368 598434.000000 0 0 1
3.393530 -19.069862 29.326551 35.145729 -1.394687 0.583704 0.009467 -0.019866 397058.000000 0 0 1
4.231730 -17.795162 29.723961 34.901134 -1.337330 0.551648 0.010546 -0.011982 -930693.000000 0 0 1
3.515530 -16.797062 30.338511 34.855781 -1.364480 0.514780 0.004924 -0.019125 -99642.800000 0 0 1
4.408930 -15.790562 30.792271 34.884731 -1.298518 0.489249 0.003064 -0.017835 -353327.000000 0 0 1
3.728130 -14.654062 31.517861 34.957346 -1.321672 0.447321 0.016201 -0.016605 -171391.000000 0 0 1
3.079930 -15.109262 32.676481 36.132093 -1.369708 0.440915 -0.002164 -0.016044 -105782.000000 0 0 1
1.976030 -14.333762 33.080141 36.106193 -1.433801 0.412328 0.001077 0.002055 366286.000000 0 0 1
1.035530 -15.016562 34.107603 37.281337 -1.501946 0.415609 -0.001157 0.002951 641034.000000 0 0 1
1.740330 -14.989662 -33.894603 37.102059 -1.455212 2.722726 0.017391 0.006388 351642.000000 0 0 1
1.163530 -15.884862 -32.941473 36.589934 -1.497679 2.691227 0.017349 0.008498 163208.000000 0 0 1
1.649230 -15.629262 -31.477643 35.182890 -1.465663 2.678524 0.020956 0.004522 216546.000000 0 0 1
1.138430 -16.521862 -30.476023 34.685096 -1.502001 2.643821 0.029755 0.003094 -21656.100000 0 0 1
1.522130 -16.181762 -29.159873 33.383596 -1.477008 2.633099 0.023027 0.001255 20488.700000 0 0 1
1.162130 -17.328662 -28.113363 33.045336 -1.503833 2.588209 0.030572 -0.000551 -88926.700000 0 0 1
1.838930 -18.506062 -28.459283 33.996864 -1.471752 2.562784 0.030425 -0.003395 171117.000000 0 0 1
1.408530 -19.643762 -27.670343 33.963351 -1.499215 2.523028 0.024168 -0.001870 -213313.000000 0 0 1
2.317230 -20.913062 -27.893033 34.939190 -1.460443 2.495315 0.019820 -0.003543 -189049.000000 0 0 1
3.544030 -20.909162 -27.227593 34.512244 -1.402896 2.479855 0.014243 -0.007426 -364643.000000 0 0 1
3.542230 -21.151162 -25.849543 33.587466 -1.404864 2.449040 0.008482 0.000707 -958125.000000 0 0 1
4.842230 -21.843762 -25.367293 33.824498 -1.352648 2.418810 -0.002658 -0.008718 27604.200000 0 0 1
4.860130 -23.171562 -25.738183 34.971363 -1.364048 2.397908 0.004742 -0.007897 217741.000000 0 0 1
5.309030 -23.416462 -27.058313 36.175527 -1.347843 2.415799 -0.015052 -0.005359 -544154.000000 0 0 1
4.881430 -24.784362 -27.614793 37.425522 -1.376329 2.400690 -0.012159 0.000629 210964.000000 0 0 1
5.587630 -25.839472 -26.928273 37.736346 -1.357831 2.365405 -0.003524 0.004502 194299.000000 0 0 1
5.144430 -27.089412 -27.377913 38.856808 -1.383126 2.352634 -0.008630 0.008884 -133269.000000 0 0 1
5.501530 -28.172962 -26.357583 38.970563 -1.377946 2.313587 -0.001064 0.008086 405801.000000 0 0 1
6.903130 -28.302242 -26.147473 39.145376 -1.331560 2.302258 0.000612 0.007913 29113.300000 0 0 1
7.128330 -29.605622 -25.586593 39.774108 -1.334518 2.269594 0.006684 0.009618 -837530.000000 0 0 1
8.557630 -30.062382 -25.740073 40.491125 -1.293469 2.259707 0.010099 0.004441 -856104.000000 0 0 1
8.918830 -30.110672 -27.077173 41.465303 -1.282828 2.282346 0.016523 -0.005031 -484192.000000 0 0 1
10.263630 -30.441992 -27.289133 42.151557 -1.245611 2.274971 0.026471 0.003752 -92299.100000 0 0 1
10.653730 -30.362782 -28.823343 43.199370 -1.233337 2.301262 0.037692 -0.011511 -266707.000000 0 0 1
10.275630 -31.422132 -29.661963 44.415887 -1.254740 2.302077 0.052411 -0.008856 -86589.300000 0 0 1
10.519030 -31.171252 -31.022023 45.217948 -1.245337 2.326850 0.040838 -0.012143 -498500.000000 0 0 1
-33.850650 -4.772862 -5.690653 34.655883 0.140074 1.735748 0.058968 -0.008899 -78310.400000 0 0 1
-33.585410 -4.232762 -4.397453 34.135518 0.125369 1.699979 0.059424 -0.021674 12540.700000 0 0 1
-32.819120 -3.067462 -4.369153 33.250465 0.093195 1.702579 0.056827 -0.021944 -708130.000000 0 0 1
-33.317380 -1.772762 -5.029253 33.741427 0.053158 1.720407 0.049923 -0.001016 -572940.000000 0 0 1
-34.151720 -1.031062 -4.199253 34.424363 0.030181 1.693086 0.027009 0.001213 258237.000000 0 0 1
-34.886291 -0.077162 -4.975553 35.239401 0.002212 1.712463 0.022278 -0.010700 -216690.000000 0 0 1
34.350325 0.892238 -4.138453 34.610226 0.025969 1.690656 0.032555 -0.009539 -121297.000000 0 0 1
-34.892545 1.960438 -3.578753 35.130336 -0.056126 1.672844 0.021621 -0.001834 427702.000000 0 0 1
34.279420 2.715938 -2.716453 34.493972 0.079064 1.649629 0.019634 -0.004689 65152.700000 0 0 1
34.906842 4.018238 -2.078453 35.198776 0.114609 1.629880 0.001642 -0.009759 -187131.000000 0 0 1
34.926690 5.139538 -2.993253 35.429481 0.146104 1.655382 0.011548 -0.010923 751299.000000 0 0 1
-33.790570 5.372238 -3.566553 34.400347 -0.157667 1.674661 0.005948 -0.001276 261192.000000 0 0 1
-33.126010 6.595238 -2.932453 33.903230 -0.196526 1.657399 0.002607 -0.004358 -420338.000000 0 0 1
-32.617160 6.380538 -1.625453 33.275103 -0.193180 1.619665 0.001818 -0.013953 261633.000000 0 0 1
-32.575730 7.650338 -0.953853 33.475598 -0.230668 1.599294 0.007312 -0.026894 -447658.000000 0 0 1
-31.704560 7.664938 0.290547 32.619240 -0.237210 1.561889 0.009953 -0.018798 1085130.000000 0 0 1
-30.277840 7.729738 0.008647 31.248944 -0.249955 1.570520 0.021844 -0.018981 1449550.000000 0 0 1
-29.438520 8.238238 1.015647 30.586379 -0.272865 1.537584 0.017510 -0.021260 71434.100000 0 0 1
-29.320790 9.765338 1.199947 30.927503 -0.321497 1.531988 0.013880 -0.014043 -4147.060000 0 0 1
-30.601120 10.347238 1.448747 32.335626 -0.326064 1.525978 0.005322 -0.012918 506657.000000 0 0 1
-30.566180 11.723538 1.571047 32.775004 -0.366242 1.522844 0.013258 -0.001499 -679789.000000 0 0 1
-31.917450 12.345438 1.295947 34.246356 -0.369069 1.532945 0.022291 -0.015706 -1089690.000000 0 0 1
-32.233910 12.296538 -0.102653 34.499860 -0.364438 1.573772 0.015113 -0.010384 1280150.000000 0 0 1
-33.544990 12.775038 -0.482053 35.898472 -0.363875 1.584225 0.015561 -0.003370 900757.000000 0 0 1
-34.785749 11.934338 -0.142753 36.776312 -0.330498 1.574678 0.017917 -0.016509 -659110.000000 0 0 1
-34.877443 10.675038 -0.833753 36.484073 -0.297019 1.593651 0.017881 -0.006025 -873318.000000 0 0 1
33.977286 10.033138 -0.476153 35.430870 0.287130 1.584236 0.035040 -0.006614 -738434.000000 0 0 1
33.713226 8.918238 -1.478553 34.904194 0.258609 1.613169 0.023383 -0.022055 -136768.000000 0 0 1
33.319366 9.425338 -2.717553 34.733302 0.275676 1.649117 0.020379 -0.020782 129636.000000 0 0 1
33.148836 8.405638 -3.639953 34.391123 0.248338 1.676835 0.004734 -0.021467 -227691.000000 0 0 1
32.469666 8.812238 -4.947353 34.006045 0.265015 1.716799 0.001877 -0.010489 323463.000000 0 0 1
31.171076 9.379038 -4.772253 32.899495 0.292272 1.716365 0.012943 -0.013110 390839.000000 0 0 1
30.713446 9.935738 -5.979553 32.829708 0.312873 1.753957 0.009589 0.000283 -904168.000000 0 0 1
29.288406 10.436238 -6.020453 31.669728 0.342300 1.762062 0.013163 0.007053 -716179.000000 0 0 1
28.338556 9.383338 -6.027853 30.454159 0.319753 1.770044 0.005367 0.008130 -185002.000000 0 0 1
27.062176 9.878238 -6.284053 29.486103 0.349993 1.785563 0.001837 0.013017 -1173700.000000 0 0 1
25.959306 8.852038 -6.353753 28.153407 0.328632 1.798441 0.001081 0.018815 -841454.000000 0 0 1
25.913286 8.083838 -7.528553 28.169593 0.302390 1.841343 0.006997 0.016692 254032.000000 0 0 1
24.927066 7.067738 -7.408653 26.948093 0.276285 1.849306 -0.008047 0.007493 -52915.000000 0 0 1
25.016816 6.070838 -8.523853 27.117379 0.238068 1.890549 -0.004141 0.002488 -108449.000000 0 0 1
26.060636 5.112938 -8.444353 27.867651 0.193733 1.878652 0.008002 -0.001699 512290.000000 0 0 1
26.158626 4.285838 -9.591853 28.189462 0.162397 1.917994 0.000336 -0.001924 -661523.000000 0 0 1
27.094896 3.065538 -9.444853 28.857169 0.112662 1.904237 0.007096 -0.004096 44596.700000 0 0 1
28.454416 3.543938 -9.480953 30.201023 0.123910 1.890124 0.030014 -0.004495 674524.000000 0 0 1
29.291256 3.100238 -8.465653 30.647291 0.105449 1.850664 0.012311 -0.009555 -375255.000000 0 0 1
29.561626 1.581338 -8.292253 30.743322 0.053442 1.843904 0.019702 -0.013250 -337214.000000 0 0 1
28.430876 0.956738 -7.648653 29.457291 0.033639 1.833458 0.023461 -0.012901 746216.000000 0 0 1
28.615546 -0.402962 -7.235353 29.518845 -0.014081 1.818429 0.020548 -0.009905 -516310.000000 0 0 1
28.594126 -1.494862 -8.328553 29.819850 -0.052231 1.853857 0.012651 -0.002063 -154454.000000 0 0 1
29.644466 -1.430662 -9.307153 31.104088 -0.048223 1.874678 0.024330 -0.017004 542884.000000 0 0 1
29.459826 -2.610962 -10.083853 31.247121 -0.088397 1.899391 0.005146 -0.019837 114425.000000 0 0 1
30.499276 -2.738462 -11.259653 32.626444 -0.089548 1.923150 0.008846 -0.019926 -64319.200000 0 0 1
31.734906 -3.268162 -10.844253 33.695445 -0.102621 1.898460 0.023022 -0.014742 -384516.000000 0 0 1
32.515136 -3.520062 -11.976853 34.829154 -0.107839 1.921836 0.006792 -0.027430 178055.000000 0 0 1
33.982661 -3.867662 -11.556753 36.101781 -0.113325 1.896648 0.011276 -0.018854 258240.000000 0 0 1
34.071508 -5.000562 -10.729853 36.069420 -0.145726 1.872846 0.006674 -0.014469 762881.000000 0 0 1
-34.570157 -5.326762 -10.488853 36.516930 0.152883 1.862133 0.023580 -0.010078 627780.000000 0 0 1
-34.504974 -6.691862 -9.770653 36.480678 0.191561 1.841937 0.025795 -0.011849 -47917.000000 0 0 1
34.934831 -6.753362 -8.464153 36.574475 -0.190958 1.804336 0.024527 -0.001620 386085.000000 0 0 1
34.617830 -8.095362 -8.233053 36.492633 -0.229721 1.798364 0.017873 0.006047 -388311.000000 0 0 1
34.119257 -8.257062 -6.784753 35.753820 -0.237441 1.761717 0.025550 0.010581 -539337.000000 0 0 1
-34.826135 -7.972462 -5.931653 36.216078 0.225044 1.735323 0.034121 0.003240 95290.100000 0 0 1
-34.954299 -8.559962 -4.628853 36.283636 0.240164 1.698719 0.038459 -0.000383 -260918.000000 0 0 1
-34.544986 -10.046162 -4.555453 36.263392 0.283008 1.696750 0.044487 -0.004931 -173647.000000 0 0 1
34.568442 -10.926862 -5.207853 36.626428 -0.306155 1.713468 0.027815 -0.006975 -75946.300000 0 0 1
-34.726409 -11.813662 -6.010453 37.170037 0.327911 1.733211 0.020780 -0.001962 -66254.200000 0 0 1
34.471342 -12.414162 -7.228053 37.344740 -0.345671 1.765575 0.004966 0.003005 125618.000000 0 0 1
34.247697 -11.454362 -8.242853 37.041218 -0.322761 1.795207 0.026429 0.000180 45799.900000 0 0 1
33.934056 -12.092662 -9.415853 37.234540 -0.342327 1.826452 0.003333 0.012466 -107905.000000 0 0 1
34.250365 -11.206062 -10.638653 37.574517 -0.316203 1.857857 -0.013167 -0.000366 570613.000000 0 0 1
33.358126 -10.055262 -10.739553 36.458345 -0.292772 1.869802 -0.011850 0.007169 903375.000000 0 0 1
33.473306 -9.477962 -12.031453 36.811002 -0.275927 1.903758 -0.003241 0.004588 -652269.000000 0 0 1
32.662416 -8.231162 -12.226953 35.834116 -0.246867 1.919000 -0.001072 0.007655 -427852.000000 0 0 1
32.791176 -7.737862 -13.540353 36.310837 -0.231735 1.952930 -0.001326 -0.000259 780968.000000 0 0 1
31.793406 -6.730862 -13.722353 35.276453 -0.208626 1.970336 -0.009944 -0.009118 369348.000000 0 0 1
32.089556 -5.940162 -15.084653 35.952356 -0.183040 2.003772 -0.015376 -0.013010 -322272.000000 0 0 1
33.103066 -5.015362 -14.941953 36.663726 -0.150364 1.990555 -0.003603 -0.000674 -158285.000000 0 0 1
32.773486 -3.957862 -15.793253 36.594985 -0.120182 2.017027 0.002030 -0.011287 -312959.000000 0 0 1
33.898656 -2.941762 -15.919253 37.565882 -0.086564 2.008399 0.017425 -0.018073 -922590.000000 0 0 1
34.899025 -3.330062 -16.834253 38.889887 -0.095132 2.018470 0.019218 -0.016289 -439640.000000 0 0 1
-33.865910 -2.727662 -16.698053 37.857165 0.080370 2.027598 0.025579 -0.009847 -531995.000000 0 0 1
-33.676890 -1.223062 -16.566053 37.550804 0.036302 2.027691 0.020261 -0.001309 -1303740.000000 0 0 1
-33.876180 -0.427562 -17.702053 38.224875 0.012621 2.052289 0.014713 -0.000353 239091.000000 0 0 1
-33.897770 0.931838 -17.416253 38.121555 -0.027483 2.045260 0.013326 -0.000159 -378351.000000 0 0 1
-34.082712 1.921438 -18.594553 38.872620 -0.056316 2.069566 -0.001101 -0.002478 -389534.000000 0 0 1
-33.051170 2.094738 -19.545453 38.455071 -0.063294 2.103968 0.003926 -0.002338 13538.600000 0 0 1
-33.255690 3.228538 -20.384853 39.139578 -0.096779 2.118613 -0.002620 -0.000857 -245318.000000 0 0 1
-32.262250 3.342138 -21.547253 38.939784 -0.103225 2.157175 0.005934 0.002128 -651308.000000 0 0 1
-30.922220 3.564838 -21.235753 37.680883 -0.114777 2.169495 0.016410 -0.004736 -292879.000000 0 0 1
-30.279000 4.161838 -22.358753 37.868886 -0.136594 2.202382 0.021224 -0.005060 213417.000000 0 0 1
-28.840070 4.673538 -22.074053 36.617692 -0.160654 2.217833 0.030928 -0.005625 118590.000000 0 0 1
-27.859430 3.670138 -21.900853 35.626747 -0.130983 2.232841 0.037563 0.002646 -401241.000000 0 0 1
-26.746360 4.318538 -21.371953 34.507650 -0.160081 2.238698 0.016411 0.021047 -645986.000000 0 0 1
-25.817550 3.291338 -20.671653 33.236967 -0.126801 2.242024 0.019078 0.017783 22861.300000 0 0 1
-26.455000 2.766238 -19.505153 32.984391 -0.104185 2.203522 0.031736 0.008323 280499.000000 0 0 1
-25.575940 1.986938 -18.752453 31.776266 -0.077532 2.202029 0.031542 0.008177 -251306.000000 0 0 1
-24.726670 2.651338 -17.686253 30.516247 -0.106818 2.188995 0.037572 0.003087 192244.000000 0 0 1
-23.567870 3.411438 -18.013853 29.859358 -0.143751 2.218416 0.025957 0.004838 802183.000000 0 0 1
-22.855570 3.746338 -16.799653 28.611893 -0.162469 2.198338 0.024665 -0.002018 -610761.000000 0 0 1
-21.769770 4.781338 -16.953553 28.003696 -0.216199 2.221070 0.023762 -0.002183 -32522.800000 0 0 1
-20.716870 4.176738 -17.716953 27.577604 -0.198944 2.268474 0.041086 -0.007033 507690.000000 0 0 1
-19.523870 4.925538 -17.859953 26.915058 -0.247126 2.296373 0.037418 -0.002133 1151830.000000 0 0 1
-18.299070 4.078938 -18.453253 26.306201 -0.219319 2.348267 0.040124 -0.005248 743485.000000 0 0 1
-17.826870 3.165638 -17.496053 25.177975 -0.175745 2.339070 0.045410 -0.007046 105875.000000 0 0 1
-16.733970 2.401838 -17.967953 24.670669 -0.142557 2.386652 0.022027 -0.002106 -484742.000000 0 1 0
-16.765870 0.947838 -17.228653 24.058663 -0.056474 2.369010 0.010329 -0.003218 28374.800000 0 1 0
-17.700170 0.013538 -17.712553 25.040581 -0.000765 2.356544 0.001997 -0.003643 1297140.000000 0 0 1
-19.098970 0.384138 -17.768953 26.089344 -0.020110 2.320034 0.012942 -0.015486 609991.000000 0 0 1
-20.012970 -0.725562 -18.272953 27.109891 0.036239 2.310451 0.006234 -0.010629 -581497.000000 0 0 1
-19.832770 -1.894462 -17.480753 26.504801 0.095233 2.290992 -0.012226 -0.008915 168852.000000 0 0 1
-20.553670 -3.015262 -17.889653 27.415047 0.145663 2.281739 0.011533 -0.001340 -249214.000000 0 0 1
-20.767070 -4.012062 -16.675653 26.934090 0.190842 2.238428 0.017261 -0.004898 212796.000000 0 0 1
-21.645570 -3.511962 -15.657153 26.944591 0.160847 2.190860 0.013161 -0.011633 660060.000000 0 0 1
-21.880670 -4.549262 -14.720553 26.761057 0.204992 2.153249 0.017091 -0.021018 -89384.900000 0 0 1
-22.142370 -4.107662 -13.246853 26.127314 0.183426 2.102511 0.012450 -0.014754 -483299.000000 0 0 1
-23.224170 -3.249062 -13.077653 26.850390 0.138998 2.079512 0.015259 -0.020065 107037.000000 0 0 1
-23.207070 -2.648662 -11.804953 26.171366 0.113640 2.038753 0.006628 -0.021022 -121235.000000 0 0 1
-24.161570 -1.431262 -11.611853 26.845206 0.059168 2.018114 0.041299 -0.025833 -104268.000000 0 0 1
-24.457570 -1.035262 -10.241853 26.535637 0.042304 1.967051 0.043613 -0.030684 503641.000000 0 0 1
-25.141230 0.195538 -10.335253 27.183398 -0.007777 1.960814 0.050818 -0.027929 -599172.000000 0 0 1
-25.734080 0.605338 -8.984853 27.264205 -0.023518 1.906621 0.069786 -0.017796 -715389.000000 0 0 1
-24.810470 0.910938 -7.984853 26.079630 -0.036699 1.881966 0.057026 -0.015920 108957.000000 0 0 1
-25.446160 1.151138 -6.747753 26.350794 -0.045207 1.829755 0.057585 -0.021757 -454625.000000 0 0 1
-24.426170 1.255038 -5.618353 25.095394 -0.051336 1.796590 0.043209 -0.013197 -293869.000000 0 0 1
-23.811270 2.523538 -5.777753 24.631834 -0.105587 1.807567 0.047472 -0.016166 334017.000000 0 1 0
-22.522770 2.615838 -5.200253 23.262854 -0.115624 1.796244 0.033575 -0.004735 173005.000000 0 1 0
-21.837670 4.015138 -5.339253 22.836654 -0.181832 1.806782 0.030809 -0.003120 -365871.000000 0 1 0
-22.386370 4.957938 -4.458253 23.358226 -0.217953 1.762839 0.029853 -0.003135 622190.000000 0 1 0
-22.061970 6.295138 -4.821253 23.443629 -0.277953 1.777927 0.032027 -0.005484 -362808.000000 0 1 0
-22.619470 7.401538 -3.852053 24.109365 -0.316238 1.731258 0.035258 -0.000055 -66364.300000 0 1 0
-22.098770 7.374238 -2.536953 23.434401 -0.322076 1.679267 0.033899 0.002121 766174.000000 0 1 0
-20.723770 7.656238 -2.307153 22.212960 -0.353889 1.674849 0.033180 -0.002973 -93528.400000 0 1 0
-20.312070 9.161838 -2.187153 22.389799 -0.423730 1.668638 0.025764 -0.007461 -500260.000000 0 1 0
-20.314770 9.827738 -3.442953 22.828233 -0.450582 1.722194 0.023331 -0.008972 444414.000000 0 1 0
-19.690570 11.082838 -3.376553 22.846202 -0.512655 1.719135 0.023212 -0.007020 -580267.000000 0 1 0
-19.545470 11.657638 -4.836153 23.266162 -0.537795 1.780185 0.026475 -0.012642 306668.000000 0 1 0
-18.437070 11.193638 -5.622953 22.289923 -0.545643 1.825816 0.012833 -0.002020 420205.000000 0 1 0
-18.600070 11.645838 -7.001353 23.034910 -0.559403 1.879627 0.021728 -0.001699 -274744.000000 0 1 0
-17.399270 11.469238 -7.922953 22.294645 -0.582801 1.934111 0.027024 -0.000661 -279182.000000 0 1 0
-16.960370 10.140838 -8.269053 21.421204 -0.538884 1.967112 0.012119 0.003608 648136.000000 0 1 0
-17.694170 9.483338 -9.334553 22.139359 -0.491999 2.006035 0.008296 0.003595 49629.300000 0 1 0
-17.714770 10.193138 -10.700953 23.069970 -0.522137 2.053130 0.009706 0.003811 82028.100000 0 1 0
-16.533970 10.047338 -11.463153 22.488331 -0.546046 2.105676 0.006390 -0.001659 138975.000000 0 1 0
-16.770070 10.739138 -12.658053 23.596411 -0.569579 2.137009 0.011580 -0.003605 83433.700000 0 1 0
-15.689170 10.321838 -13.669853 23.228329 -0.581906 2.199998 0.007430 0.001310 -306078.000000 0 1 0
-15.766670 9.067238 -14.353553 23.169531 -0.521901 2.238903 0.011186 0.002578 21181.700000 0 1 0
-15.815970 7.888138 -13.555653 22.273826 -0.462643 2.225080 0.013985 -0.001124 -316097.000000 0 1 0
-15.584170 6.583238 -14.314053 22.160719 -0.399693 2.273024 0.016679 -0.005449 -195416.000000 0 1 0
-14.364770 6.505638 -15.022853 21.779716 -0.425253 2.331959 0.016867 -0.008098 611173.000000 0 1 0
-14.474570 5.394538 -15.883853 22.156511 -0.356745 2.370132 0.009628 -0.007318 148214.000000 0 1 0
31.153456 -16.480962 28.567121 45.367834 -0.486597 0.889658 -0.021811 -0.001746 -754308.000000 0 0 1
30.431476 -15.330362 28.805721 44.619103 -0.466656 0.868999 -0.027373 0.008013 -489573.000000 0 0 1
29.652116 -15.314162 29.995181 44.871845 -0.476730 0.838656 -0.023844 0.002079 172345.000000 0 0 1
30.431436 -15.196162 31.318601 46.236895 -0.463133 0.826641 -0.038285 -0.001669 -81509.400000 0 0 1
30.896126 -13.882062 31.581461 46.310592 -0.422283 0.820372 -0.034889 0.000820 -13128.700000 0 0 1
30.882556 -13.707062 32.980021 47.215438 -0.417723 0.797496 -0.044152 -0.004918 -180520.000000 0 0 1
31.049066 -12.249462 33.524751 47.307534 -0.375773 0.783205 -0.032036 -0.002686 -71085.800000 0 0 1
30.810946 -12.209462 -34.335786 47.721395 -0.377287 2.373886 -0.045898 -0.007890 99207.100000 0 0 1
30.932856 -10.931162 -33.807213 47.109018 -0.339686 2.371201 -0.013210 0.005086 -686159.000000 0 0 1
30.586806 -10.812162 -32.350523 45.814975 -0.339781 2.354789 -0.014211 0.010210 1521700.000000 0 0 1
29.127486 -10.865662 -32.250123 44.794458 -0.357050 2.374538 0.011214 0.010514 1537020.000000 0 0 1
28.757496 -10.204962 -31.045343 43.531002 -0.341000 2.364817 -0.000510 0.019267 -341476.000000 0 0 1
27.577866 -10.881862 -30.357893 42.432950 -0.375831 2.368039 0.011908 0.027513 -388575.000000 0 0 1
27.182246 -10.404462 -29.113423 41.166962 -0.365562 2.356331 0.003108 0.026676 731632.000000 0 0 1
26.212516 -11.265762 -28.447883 40.290141 -0.405917 2.354737 0.014335 0.021566 -304872.000000 0 0 1
25.849166 -10.828462 -27.039833 38.943389 -0.396701 2.338294 0.013141 0.019515 -328753.000000 0 0 1
24.868166 -9.807162 -26.890443 37.917041 -0.375640 2.359147 0.000771 0.015025 1156120.000000 0 0 1
23.553766 -9.893162 -27.456193 37.503294 -0.397649 2.392197 0.005993 0.003694 1004950.000000 0 0 1
22.686966 -11.209462 -27.309353 37.231052 -0.458911 2.394268 0.012138 0.009244 -755088.000000 0 0 1
23.182966 -12.262062 -28.101123 38.438018 -0.486519 2.390694 0.010334 0.009273 -296529.000000 0 0 1
22.619666 -13.532462 -27.954013 38.421396 -0.539140 2.385560 0.021879 0.003044 -354518.000000 0 0 1
23.512566 -14.574962 -28.614083 39.799950 -0.554909 2.373083 0.010835 0.007563 -120539.000000 0 0 1
23.527566 -14.480462 -30.027113 40.802667 -0.551715 2.397807 0.015281 -0.008454 451227.000000 0 0 1
24.604466 -15.186862 -30.651483 42.137085 -0.553000 2.385355 0.010630 0.001726 273586.000000 0 0 1
24.675966 -15.172762 -32.205333 43.316273 -0.551289 2.409074 0.034015 -0.013688 142102.000000 0 0 1
23.521266 -15.827162 -32.744763 43.312452 -0.592297 2.427996 0.041157 -0.019611 468449.000000 0 0 1
23.496966 -15.931862 -34.151477 44.410078 -0.595835 2.448076 0.055950 -0.018724 109207.000000 0 0 1
23.613766 -14.681362 34.234348 44.103774 -0.556244 0.682144 0.045689 -0.018321 1125080.000000 0 0 1
22.422766 -13.824662 34.285251 43.236330 -0.552497 0.655123 0.049590 -0.015406 1018020.000000 0 0 1
22.401766 -12.955562 33.161771 42.064103 -0.524332 0.662653 0.042924 -0.008670 -537961.000000 0 0 1
21.398666 -11.765362 33.382256 41.360629 -0.502703 0.631569 0.055636 -0.010094 884422.000000 0 0 1
20.018766 -12.056562 33.187927 40.590026 -0.542082 0.613501 0.043187 -0.006482 503653.000000 0 0 1
19.739366 -12.265862 31.812371 39.396966 -0.556000 0.630924 0.032730 0.002070 -1976240.000000 0 0 1
18.258866 -12.516662 31.593211 38.576988 -0.600936 0.611191 0.028824 0.005270 -530890.000000 0 0 1
17.480566 -11.357062 31.820591 38.040808 -0.576162 0.579958 0.022315 0.001642 59780.200000 0 0 1
16.571866 -11.495662 32.912741 38.600849 -0.606475 0.549773 0.007962 0.014501 -43430.500000 0 0 1
15.578366 -10.347562 33.014721 37.943765 -0.586311 0.515399 0.013133 0.013115 -38510.900000 0 0 1
14.628966 -10.182062 31.940381 36.576891 -0.608050 0.508985 0.003718 0.015563 699984.000000 0 0 1
13.843666 -8.985462 31.899161 35.915764 -0.575719 0.477458 0.017015 0.013483 377509.000000 0 0 1
12.816766 -8.656362 33.005631 36.449606 -0.594020 0.438207 0.017465 0.016360 -1151250.000000 0 0 1
11.875766 -9.700562 32.998641 36.387429 -0.684923 0.435002 0.007572 0.022258 718982.000000 0 0 1
10.657166 -9.512062 33.744683 36.643664 -0.728684 0.400446 -0.006677 0.026784 1095420.000000 0 0 1
9.644666 -8.494762 33.135771 35.540961 -0.722090 0.370003 -0.014058 0.015532 -751674.000000 0 0 1
10.072966 -7.127462 33.173201 35.393878 -0.615797 0.356116 0.011076 0.013333 247876.000000 0 0 1
9.131966 -6.316362 32.528441 34.371335 -0.605118 0.328948 0.000728 0.017086 -78733.500000 0 0 1
9.698166 -4.853462 32.491581 34.253662 -0.464009 0.322147 0.012197 0.014146 103510.000000 0 0 1
9.743066 -4.168362 33.756208 35.380562 -0.404264 0.304193 0.013760 0.003791 267177.000000 0 0 1
10.334466 -2.882662 33.645324 35.314568 -0.272022 0.308691 -0.001244 0.001046 -541218.000000 0 0 1
10.300266 -2.117762 -34.248079 35.826126 -0.202777 2.843685 -0.002293 0.002398 -38701.100000 0 0 1
8.975866 -2.087762 -33.720773 34.957337 -0.228534 2.874819 0.004613 0.013391 358408.000000 0 0 1
8.868666 -1.427362 -32.527853 33.745397 -0.159576 2.872151 0.008726 0.008468 299872.000000 0 0 1
7.425966 -1.088862 -32.042343 32.909608 -0.145592 2.911508 0.014650 0.009628 445981.000000 0 0 1
6.798366 -0.074662 -32.821763 33.518524 -0.010982 2.937339 0.005355 0.012419 -123276.000000 0 0 1
5.432766 0.045538 -32.530593 32.981153 0.008382 2.976109 0.009550 0.012618 -71855.500000 0 0 1
4.680866 0.981838 -33.543463 33.882715 0.206758 2.999964 0.010505 0.010578 -49996.100000 0 0 1
5.211666 2.253438 -33.600683 34.077050 0.408108 2.974190 0.012008 0.005792 -78353.900000 0 0 1
4.576866 3.022238 -34.603047 35.035018 0.583602 2.984398 0.008888 0.002757 -70097.300000 0 0 1
5.261366 4.386438 34.458216 35.132484 0.694959 0.196234 0.011641 0.006026 -10044.600000 0 0 1
4.976266 5.165238 33.278464 34.042607 0.804029 0.212279 0.024267 -0.008325 -328818.000000 0 0 1
5.900766 6.197238 33.291432 34.373598 0.809899 0.251591 0.017927 -0.004572 -508139.000000 0 0 1
5.713966 7.310538 32.240631 33.549242 0.907372 0.280221 0.036814 -0.011455 -116601.000000 0 0 1
4.439566 7.888538 32.505511 33.742362 1.058189 0.271595 0.032553 -0.007205 394661.000000 0 0 1
4.180066 9.203538 31.907731 33.470604 1.144471 0.306796 0.024390 -0.011291 -816.931000 0 0 1
3.752766 9.128938 30.425091 31.986042 1.180771 0.313698 0.030303 -0.013992 -105260.000000 0 0 1
2.476566 8.566938 30.194311 31.483682 1.289384 0.287180 0.055523 -0.020238 -73522.800000 0 0 1
2.234266 8.562138 28.804701 30.133253 1.315541 0.298051 0.049576 -0.010450 41608.200000 0 0 1
0.844766 8.080538 28.335461 29.477230 1.466631 0.279237 0.056218 -0.015785 497070.000000 0 0 1
-0.263134 8.910938 28.703261 30.055802 -1.541276 0.301140 0.055776 -0.017488 916330.000000 0 0 1
-1.425034 8.554338 27.906231 29.222682 -1.405726 0.301302 0.065492 -0.013593 1580880.000000 0 0 1
-2.778434 8.776638 28.665641 30.107607 -1.264206 0.310744 0.048986 -0.008090 277534.000000 0 0 1
-3.046434 10.126538 28.889281 30.763909 -1.278572 0.350899 0.038551 -0.005933 29058.800000 0 0 1
-4.346834 10.184838 29.448831 31.462033 -1.167407 0.359674 0.016532 0.001773 -820.830000 0 0 1
-4.608734 11.500038 30.202981 32.645235 -1.189637 0.389266 -0.000138 0.005679 -200322.000000 0 0 1
-4.706634 12.695338 29.388841 32.357811 -1.215768 0.431724 0.009322 0.002773 -156739.000000 0 0 1
-5.708934 12.835038 28.432781 31.713611 -1.152281 0.458882 0.002663 -0.000039 -536069.000000 0 0 1
-5.800334 14.284238 27.932481 31.904652 -1.185072 0.504329 -0.009180 0.002702 530791.000000 0 0 1
-4.775834 14.678438 26.998271 31.099385 -1.256235 0.519377 -0.009728 0.005894 480092.000000 0 0 1
-4.957834 16.001138 26.599751 31.435064 -1.270334 0.562019 -0.010196 0.017608 703324.000000 0 0 1
-3.738934 16.519838 25.723241 30.798860 -1.348216 0.582298 0.007550 0.013007 136429.000000 0 0 1
-3.651034 16.018838 24.437021 29.446582 -1.346703 0.591910 0.028888 0.013119 -487513.000000 0 0 1
-2.818834 16.795038 23.661501 29.152800 -1.404509 0.623847 0.032531 0.016486 -366973.000000 0 0 1
-2.840234 16.542338 22.150301 27.791216 -1.400759 0.648443 0.040354 0.015752 -71145.500000 0 0 1
-2.143334 15.382038 21.797801 26.764624 -1.432348 0.619057 0.043370 0.003154 -65640.400000 0 0 1
-2.138734 15.216438 20.407901 25.545970 -1.431157 0.645383 0.046439 0.002437 -69514.400000 0 0 1
-1.267634 14.017038 19.991701 24.448974 -1.480606 0.613408 0.038590 -0.008117 -413111.000000 0 1 0
-1.727934 12.701538 20.286401 23.996935 -1.435585 0.563530 0.048629 -0.006520 -382238.000000 0 1 0
-1.091734 11.618938 19.681701 22.881454 -1.477110 0.535214 0.042099 -0.011564 -1169520.000000 0 1 0
-1.915834 10.388738 19.546201 22.218242 -1.388431 0.495488 0.032083 -0.006366 -1097790.000000 0 1 0
-2.069534 9.551738 20.680001 22.873152 -1.357429 0.441488 0.044207 -0.018011 242025.000000 0 1 0
-3.065934 9.890838 21.624101 23.975620 -1.270212 0.446601 0.050270 -0.013560 119521.000000 0 1 0
-4.568734 10.010138 21.294701 23.969574 -1.142624 0.476936 0.040419 -0.005819 -355296.000000 0 1 0
-5.222534 8.799838 21.064101 23.418120 -1.035184 0.452221 0.025733 -0.009704 554695.000000 0 1 0
-6.627534 8.986638 21.276001 24.028152 -0.935351 0.483310 0.019463 0.001450 732606.000000 0 1 0
-7.497234 7.710738 21.235401 23.803492 -0.799436 0.468796 0.029050 -0.004546 -42469.300000 0 1 0
-7.274134 6.852438 22.323601 24.458374 -0.755556 0.420909 0.015525 -0.007862 162639.000000 0 1 0
-7.957934 5.612038 22.253301 24.290596 -0.614216 0.412483 0.015800 -0.007761 121989.000000 0 1 0
-7.823234 4.827338 23.598201 25.325506 -0.552863 0.371467 0.009529 -0.006347 -716998.000000 0 0 1
-8.719534 5.295638 24.501871 26.540831 -0.545792 0.394532 -0.021635 0.005443 -460618.000000 0 0 1
-8.546934 4.536338 25.703881 27.464849 -0.487949 0.360040 -0.015464 0.013293 -27659.000000 0 0 1
-9.513134 4.947338 26.810811 28.875516 -0.479561 0.380453 -0.028298 0.013457 -246800.000000 0 0 1
-9.122034 6.123738 27.470851 29.586472 -0.591212 0.380461 -0.030691 0.020358 31217.900000 0 0 1
-10.130434 6.508538 28.404711 30.851488 -0.571066 0.400947 -0.029642 0.022403 187118.000000 0 0 1
-9.750734 7.664038 29.360521 31.872472 -0.666143 0.399675 -0.011072 0.013485 49914.000000 0 0 1
-8.633334 7.364238 30.166301 32.229988 -0.706233 0.359792 -0.010274 0.009661 147341.000000 0 0 1
-8.165234 8.490038 30.925171 33.092567 -0.804897 0.363930 0.001462 0.006189 -65355.800000 0 0 1
-7.197234 8.113838 32.045721 33.831387 -0.845192 0.326350 0.011535 0.001971 347233.000000 0 0 1
-5.888734 7.798538 31.555781 33.034250 -0.924035 0.300312 0.019092 -0.003879 283424.000000 0 0 1
-5.070834 7.329938 32.620661 33.816399 -0.965597 0.266721 0.038900 -0.006677 428727.000000 0 0 1
-3.552634 7.367438 32.313001 33.332122 -1.121484 0.247919 0.032588 -0.010648 304443.000000 0 0 1
-2.962634 8.633438 32.438941 33.698640 -1.240230 0.274287 0.012665 -0.007824 475920.000000 0 0 1
-1.555134 8.639238 32.167501 33.343710 -1.392695 0.266401 0.036774 -0.014207 774022.000000 0 0 1
-0.968334 9.935538 31.650071 33.187039 -1.473642 0.305530 0.031927 -0.010591 -188290.000000 0 0 1
-1.171634 11.036238 32.469681 34.314012 -1.465030 0.329354 0.012152 -0.012462 80624.600000 0 0 1
-1.216134 12.236038 31.757581 34.055008 -1.471732 0.369418 0.002719 0.001017 -195102.000000 0 0 1
-1.523234 13.435338 32.673141 35.360468 -1.457903 0.392379 -0.010476 -0.011539 -449327.000000 0 0 1
-0.399034 13.936138 33.360352 36.156441 -1.542171 0.395856 0.006496 -0.003253 -339491.000000 0 0 1
-0.677334 14.626338 34.522861 37.499553 -1.524520 0.401129 0.009518 0.002172 596056.000000 0 0 1
0.616166 15.125438 -33.982383 37.201624 1.530082 2.722516 -0.002850 -0.001270 314976.000000 0 0 1
1.348566 16.061038 34.584168 38.155474 1.487028 0.436111 -0.004422 0.002508 -650275.000000 0 0 1
2.494166 16.455838 -33.999103 37.854385 1.420374 2.686351 0.000092 0.000823 -362151.000000 0 0 1
3.445966 17.359438 34.421753 38.705062 1.374837 0.474908 0.008127 0.005815 -73753.500000 0 0 1
3.061166 18.710438 34.371849 39.253983 1.408626 0.504064 -0.001787 0.007789 -39100.500000 0 0 1
4.037066 19.564638 33.821415 39.280543 1.367307 0.533520 -0.010407 0.020760 -504712.000000 0 0 1
3.742166 21.057838 33.820712 40.015958 1.394923 0.563893 -0.006233 0.012804 -259497.000000 0 0 1
3.619666 21.530838 -34.102080 40.492355 1.404238 2.572120 0.001817 0.007978 239202.000000 0 0 1
3.360166 22.940338 -34.021543 41.170562 1.425356 2.543402 -0.006778 0.010780 32147.200000 0 0 1
3.396466 23.452738 -32.524373 40.241791 1.426974 2.511926 0.004669 0.005648 -188671.000000 0 0 1
3.210766 24.863538 -32.477603 41.028030 1.442372 2.484212 0.007193 0.002452 207335.000000 0 0 1
2.877166 25.225638 -31.169583 40.201415 1.457230 2.458042 0.007291 0.000610 -290877.000000 0 0 1
2.275266 26.631138 -31.032863 40.956476 1.485567 2.430583 -0.001059 0.005856 -339095.000000 0 0 1
3.150966 27.738338 -31.078523 41.775813 1.457685 2.409737 -0.012619 0.005259 -83684.100000 0 0 1
2.600666 28.946338 -30.571923 42.181707 1.481193 2.381493 -0.014664 0.009375 -505664.000000 0 0 1
3.645666 30.043638 -30.446233 42.928826 1.450041 2.359196 -0.019606 0.009566 -562317.000000 0 0 1
4.605866 29.850538 -29.465633 42.195878 1.417706 2.343824 -0.002390 -0.003797 -240329.000000 0 0 1
5.352466 31.028538 -29.207823 42.947828 1.399976 2.318664 0.016581 -0.003140 -716378.000000 0 0 1
6.528866 30.875738 -28.229533 42.341986 1.362410 2.300573 0.025393 -0.014919 -923209.000000 0 0 1
7.667066 30.368738 -28.826863 42.567971 1.323498 2.314742 0.030457 -0.016791 -1097410.000000 0 0 1
8.686166 31.285538 -29.050583 43.568001 1.299976 2.300686 0.045792 -0.018038 -819382.000000 0 0 1
8.545666 32.526738 -29.990673 45.060599 1.313875 2.299044 0.046185 -0.017531 -975825.000000 0 0 1
7.761066 33.551138 -29.400033 45.279962 1.343474 2.277453 0.030814 -0.016694 101280.000000 0 0 1
7.506966 34.640138 -30.296003 46.627690 1.357383 2.278042 0.041884 -0.021966 706199.000000 0 0 1
6.150966 34.568838 -31.098543 46.903713 1.394705 2.295655 0.011614 -0.002931 364839.000000 0 0 1
6.209466 33.770138 -32.257613 47.111923 1.388953 2.324991 0.003147 -0.009722 18030.200000 0 0 1
4.965066 33.644938 -32.900103 47.318606 1.424281 2.339618 -0.013200 0.003435 -109296.000000 0 0 1
5.129166 32.883838 -34.194830 47.717308 1.416065 2.369730 -0.022144 -0.006448 105985.000000 0 0 1
5.737866 33.654538 34.059117 48.224210 1.401927 0.786587 -0.014182 -0.020498 -85504.100000 0 0 1
5.926566 32.859038 32.922901 46.890916 1.392351 0.792430 -0.024106 -0.022672 -699757.000000 0 0 1
5.287766 33.349338 31.630981 46.267243 1.413548 0.818033 -0.038904 -0.021441 -326948.000000 0 0 1
5.892966 34.365238 30.880641 46.575859 1.400968 0.845953 -0.030502 -0.024015 -391741.000000 0 0 1
5.059866 -34.543770 29.839121 45.926544 -1.425354 0.863588 -0.044029 -0.031835 -38887.400000 0 0 1
17.661630 -22.417462 29.759731 41.232479 -0.903507 0.764462 0.017111 0.008749 -1349090.000000 0 0 1
16.670830 -21.441362 29.570951 40.150837 -0.909921 0.742920 0.008622 0.016032 369710.000000 0 0 1
15.325430 -21.898662 29.664301 39.929825 -0.960182 0.733388 -0.004164 0.015882 548873.000000 0 0 1
14.885930 -22.339862 31.061291 41.054405 -0.983020 0.712716 -0.002248 0.010046 -1354830.000000 0 0 1
15.430430 -23.546062 31.546871 42.281441 -0.990684 0.728587 0.013965 0.001254 28888.100000 0 0 1
15.098130 -23.626962 32.904721 43.230863 -1.002178 0.705728 0.022809 -0.001736 425447.000000 0 0 1
15.936930 -24.727262 33.694922 44.729979 -0.998291 0.717737 0.027019 -0.009393 329102.000000 0 0 1
15.602430 -26.011032 33.265375 45.017716 -1.030495 0.739301 0.038792 -0.013012 -28126.700000 0 0 1
16.286930 -26.954452 34.076197 46.400364 -1.027266 0.746021 0.031434 -0.011540 125961.000000 0 0 1
15.845030 -28.419752 33.824708 46.934616 -1.062186 0.766018 0.023900 -0.006630 -127930.000000 0 0 1
16.290230 -28.979932 32.608001 46.567046 -1.058695 0.795066 0.018441 -0.009597 10356.200000 0 0 1
15.800430 -30.286582 32.348361 47.046223 -1.089942 0.812636 0.019769 -0.011077 -357326.000000 0 0 1
16.545230 -30.998912 31.236501 47.014850 -1.080526 0.844110 0.042962 -0.015096 -186040.000000 0 0 1
17.768930 -31.588472 31.593141 48.080068 -1.058397 0.853839 0.027025 -0.017887 -269777.000000 0 0 1
18.428430 -32.087802 30.449811 47.921029 -1.049479 0.882249 0.027369 -0.020701 -562472.000000 0 0 1
19.644230 -32.950662 30.769241 49.177109 -1.033197 0.894791 0.008115 -0.017037 -454340.000000 0 0 1
20.785330 -32.208772 31.110021 49.368698 -0.997710 0.889041 0.001770 -0.011496 -132812.000000 0 0 1
21.856130 -33.032052 31.544701 50.634722 -0.986265 0.898243 0.000461 -0.007020 396410.000000 0 0 1
23.086230 -32.184332 31.994511 50.916146 -0.948545 0.891332 -0.006512 -0.009032 164586.000000 0 0 1
23.829930 -31.609122 30.952471 50.249951 -0.924808 0.907179 -0.008906 0.001798 -63666.000000 0 0 1
24.495830 -30.348232 31.271871 49.989907 -0.891706 0.894942 -0.020101 0.013329 -106363.000000 0 0 1
25.402130 -29.904032 30.167511 49.493414 -0.866619 0.915334 -0.014770 0.014760 -768737.000000 0 0 1
26.538130 -30.712842 30.201661 50.593392 -0.858189 0.931104 -0.016117 0.016486 -661017.000000 0 0 1
27.339630 -30.680952 29.035821 50.317542 -0.842923 0.955682 -0.023546 -0.002979 270801.000000 0 0 1
28.588130 -31.577022 29.182941 51.633647 -0.835035 0.970130 -0.016227 -0.006656 58149.300000 0 0 1
28.237830 -32.922742 29.203351 52.288791 -0.861849 0.978219 -0.022493 -0.008114 1224210.000000 0 0 1
29.370430 -33.740122 29.673531 53.679944 -0.854527 0.985092 -0.014254 -0.014434 422593.000000 0 0 1
28.851230 34.251048 30.266741 54.051858 0.870763 0.976462 -0.023226 -0.008076 -668771.000000 0 0 1
28.152130 34.442481 31.527891 54.523709 0.885555 0.954224 -0.012660 -0.007248 -73246.100000 0 0 1
26.913630 -34.245653 31.542881 53.777891 -0.904713 0.944016 -0.022651 -0.000048 -950805.000000 0 0 1
25.806730 34.424271 30.693691 52.849980 0.927509 0.951122 -0.015979 -0.007286 -1222860.000000 0 0 1
25.377030 33.205186 31.243601 52.179887 0.918238 0.928835 -0.017812 -0.006043 1537060.000000 0 0 1
23.912030 33.114896 31.222581 51.412363 0.945396 0.918142 -0.024765 -0.005313 2028320.000000 0 0 1
23.455330 31.609826 31.330131 50.308158 0.932418 0.898525 -0.006306 -0.004619 -151172.000000 0 0 1
23.390730 31.130396 30.022301 49.168754 0.926413 0.913982 -0.008139 -0.010023 300995.000000 0 0 1
22.769530 29.842036 29.971611 48.034322 0.919026 0.896993 0.025416 -0.028255 -2432.770000 0 0 1
22.315330 29.415806 28.549111 46.672426 0.921803 0.912600 0.026432 -0.023734 -318095.000000 0 0 1
21.272630 30.191206 28.026471 46.362882 0.956992 0.921655 0.039824 -0.031601 -196815.000000 0 0 1
20.706630 29.608226 26.860821 45.021276 0.960504 0.931507 0.032996 -0.020043 -137681.000000 0 0 1
19.382330 30.248526 26.443201 44.608194 1.000937 0.936280 0.055288 -0.019235 -306008.000000 0 0 1
19.527330 31.582576 25.966531 45.310446 1.017034 0.960536 0.051031 -0.027875 330535.000000 0 0 1
18.280130 32.208016 25.651901 45.050411 1.054568 0.965015 0.067503 -0.030903 123434.000000 0 0 1
18.469630 33.631000 24.964761 45.775656 1.068579 0.993963 0.079457 -0.027687 -64603.600000 0 0 1
18.837830 33.667840 23.585401 45.217900 1.060673 1.022078 0.079765 -0.027949 -720532.000000 0 0 1
20.210430 33.841357 23.488101 45.884527 1.032430 1.033406 0.069405 -0.023444 -697928.000000 0 0 1
20.809430 33.867140 22.054401 45.457807 1.019825 1.064248 0.065811 -0.025038 183956.000000 0 0 1
20.346530 -34.310005 21.338601 45.238188 -1.035525 1.079585 0.079631 -0.016483 850031.000000 0 0 1
21.253730 -34.122609 20.227801 45.002638 -1.013735 1.104613 0.097249 -0.023607 733653.000000 0 0 1
20.845930 -32.876272 19.419901 43.503271 -1.005700 1.108057 0.071714 -0.022012 377.850000 0 0 1
21.140730 -31.777012 20.288401 43.224162 -0.983752 1.082212 0.070809 -0.016372 150832.000000 0 0 1
20.674630 -30.547582 19.754901 41.843174 -0.975811 1.079105 0.075675 -0.028040 -291837.000000 0 0 1
21.338830 -29.984192 18.488001 41.184993 -0.952281 1.105261 0.053510 -0.018496 -340537.000000 0 0 1
21.059130 -30.727462 17.316101 41.079329 -0.969969 1.135666 0.047356 -0.019415 -1125.280000 0 0 1
21.537830 -30.059132 16.211401 40.376219 -0.949072 1.157633 0.030408 -0.012933 -432404.000000 0 0 1
21.221930 -30.604292 14.845801 40.092279 -0.964493 1.191474 0.024193 -0.018623 56900.700000 0 0 1
21.888830 -31.868272 14.592301 41.323636 -0.968948 1.209890 0.034613 -0.019375 253944.000000 0 0 1
22.185930 -32.190092 13.173801 41.254897 -0.967345 1.245777 0.029871 -0.013908 199753.000000 0 0 1
21.076730 -32.430292 12.072701 40.517928 -0.994485 1.268242 0.026919 -0.011480 396533.000000 0 0 1
20.273430 -33.564972 12.418101 41.131843 -1.027437 1.264101 0.034892 -0.014033 250942.000000 0 0 1
19.067830 -33.607522 11.663401 40.361895 -1.054717 1.277645 0.041215 -0.004233 450841.000000 0 0 1
17.876030 -34.096106 12.519201 40.482432 -1.087911 1.256392 0.058070 -0.005672 -224142.000000 0 0 1
17.637230 -33.271562 13.629501 40.047872 -1.083360 1.223528 0.057358 -0.004056 236118.000000 0 0 1
18.121930 -33.848012 14.870601 41.173135 -1.079238 1.201271 0.053729 -0.012274 -297136.000000 0 0 1
17.958830 -32.985062 16.123501 40.871765 -1.072221 1.165284 0.059434 -0.020837 651397.000000 0 0 1
16.658030 -32.599232 16.593001 40.193626 -1.098392 1.145241 0.066926 -0.030976 971596.000000 0 0 1
15.792930 -33.546152 17.279101 40.906335 -1.130795 1.134698 0.061672 -0.018136 609453.000000 0 0 1
16.374730 -34.284426 18.560901 42.285467 -1.125217 1.116375 0.043901 -0.023647 214611.000000 0 0 1
17.149730 33.851068 18.349301 42.150978 1.101864 1.120399 0.038442 -0.018437 -131231.000000 0 0 1
17.569230 33.393868 19.564501 42.504094 1.086471 1.092467 0.038689 -0.020671 -260348.000000 0 0 1
18.343830 32.085846 19.507701 41.791722 1.051437 1.085146 0.033149 -0.010850 -202998.000000 0 0 1
17.608230 30.889266 19.221901 40.418783 1.052695 1.075186 0.029854 -0.009599 -300770.000000 0 0 1
18.440830 29.776386 18.989501 39.840915 1.016299 1.073975 0.018411 -0.011681 197102.000000 0 0 1
17.608030 28.465246 18.757301 38.368598 1.016827 1.060001 0.011843 -0.001215 138035.000000 0 0 1
17.203730 27.737926 19.921601 38.239130 1.015639 1.022804 0.010112 -0.006298 -239536.000000 0 0 1
16.584030 26.541676 19.544501 36.898213 1.012319 1.012565 0.002782 -0.004354 -575400.000000 0 0 1
16.278930 25.590266 20.730401 36.737104 1.004228 0.971223 0.001941 0.000340 -943143.000000 0 0 1
15.158630 26.047626 21.406001 36.965927 1.043748 0.953204 0.007908 0.005287 -1367230.000000 0 0 1
14.273130 24.962646 21.367601 35.824996 1.051386 0.931733 0.007222 0.005526 -906800.000000 0 0 1
13.019230 25.388186 22.116801 36.100045 1.096956 0.911383 -0.000043 0.001831 -700974.000000 0 0 1
12.187130 26.326676 21.481701 36.098248 1.137251 0.933419 0.007965 -0.006266 -233136.000000 0 0 1
11.074830 26.721436 22.249801 36.493022 1.177891 0.915114 -0.007038 -0.000692 76767.100000 0 0 1
10.221030 27.795296 21.536701 36.617993 1.218419 0.942033 -0.010200 -0.013199 -286367.000000 0 0 1
10.915530 28.994656 21.398201 37.652648 1.210740 0.966352 -0.013177 -0.011498 -572625.000000 0 0 1
10.478930 29.843766 20.387501 37.631218 1.233119 0.998254 -0.000624 -0.014727 -405452.000000 0 0 1
11.009630 31.300496 20.380601 38.939722 1.232572 1.019974 0.014221 -0.024579 -166957.000000 0 0 1
10.447430 32.236676 21.308801 40.030202 1.257392 1.009460 0.006087 -0.024536 -241731.000000 0 0 1
10.915630 31.908186 22.620801 40.607684 1.241181 0.979958 -0.004441 -0.011661 273443.000000 0 0 1
10.191830 32.851436 23.645901 41.739896 1.269972 0.968537 -0.021308 -0.016215 313895.000000 0 0 1
8.869130 32.548596 24.010501 41.407448 1.304766 0.952240 -0.017593 -0.018294 -482199.000000 0 0 1
8.659430 33.229086 25.248191 42.621932 1.315868 0.936792 -0.024210 -0.007223 319764.000000 0 0 1
7.238430 33.108546 25.930231 42.672562 1.355556 0.917691 -0.008005 -0.012562 335507.000000 0 0 1
6.187830 33.678328 25.206021 42.518967 1.389090 0.936242 -0.003550 -0.012528 -150497.000000 0 0 1
5.620530 33.043956 24.082701 41.273113 1.402316 0.947769 -0.007692 -0.015483 250340.000000 0 0 1
4.774030 31.734446 24.348061 40.282683 1.421479 0.921746 -0.006576 -0.030201 124040.000000 0 0 1
5.678130 30.737636 24.786321 39.892420 1.388127 0.900359 -0.027412 -0.019070 -94557.900000 0 0 1
5.074130 29.439746 24.868391 38.870070 1.400117 0.876581 -0.026202 -0.014885 -1197080.000000 0 0 1
6.056830 28.403946 25.368331 38.561919 1.360704 0.852823 -0.036185 -0.003105 43941.100000 0 0 1
7.113830 28.197806 24.389191 37.954650 1.323670 0.872926 -0.039057 0.002836 1455350.000000 0 0 1
8.183830 29.176176 24.443601 38.932171 1.297327 0.892007 -0.033112 0.003921 -421417.000000 0 0 1
9.296030 28.917536 25.476041 39.644278 1.259763 0.872889 -0.033937 0.004100 -512442.000000 0 0 1
8.930730 29.232206 26.809681 40.657580 1.274292 0.850774 -0.040603 0.015215 -170838.000000 0 0 1
10.035230 29.176266 27.662571 41.438849 1.239520 0.839881 -0.022800 0.006908 -301162.000000 0 0 1
10.608430 30.582966 28.090851 42.859684 1.236909 0.856065 -0.011477 -0.013631 208660.000000 0 0 1
9.864930 31.328986 29.067151 43.860250 1.265743 0.846349 -0.016085 -0.002510 244092.000000 0 0 1
9.963030 32.717796 28.851911 44.745379 1.275203 0.870032 -0.040643 0.008689 -147757.000000 0 0 1
9.311430 33.513826 29.993741 45.929335 1.299793 0.859203 -0.017594 0.002000 -305116.000000 0 0 1
9.874530 33.304858 31.236181 46.716367 1.282564 0.838425 0.005200 -0.031111 -33393.800000 0 0 1
9.311930 32.169186 31.905001 46.254704 1.289030 0.809628 0.001709 -0.011437 -183703.000000 0 0 1
9.776830 32.092426 33.366510 47.316321 1.275083 0.788120 0.024203 -0.030551 -59481.200000 0 0 1
9.348330 30.850686 33.896815 46.777667 1.276573 0.760289 0.021953 -0.028063 42847.500000 0 0 1
9.754630 30.567636 -34.044033 46.781720 1.261895 2.385789 0.062682 -0.028499 -403510.000000 0 0 1
9.802930 29.019676 -33.814363 45.625105 1.245029 2.405556 0.047281 -0.018450 -760836.000000 0 0 1
10.887630 28.439706 -34.463501 45.990110 1.205177 2.417903 0.063114 -0.012062 -427780.000000 0 0 1
10.913330 27.056566 -34.270311 45.006808 1.187403 2.436339 0.060431 -0.018677 -560889.000000 0 0 1
12.227430 26.447636 34.502075 45.159503 1.137740 0.701299 0.060993 -0.021193 -368752.000000 0 0 1
12.452130 25.046996 -34.533802 44.440871 1.109431 2.460798 0.054097 -0.017160 -208722.000000 0 0 1
12.541330 24.634916 -33.195143 43.198166 1.099905 2.447194 0.055278 -0.021535 -376673.000000 0 0 1
12.623830 23.072046 -33.066283 42.249964 1.070145 2.469683 0.040245 -0.029890 -297193.000000 0 0 1
13.763030 22.561346 -33.705773 42.831232 1.023037 2.476636 0.030844 -0.013030 -158004.000000 0 0 1
13.863130 21.143146 -33.571823 42.027209 0.990439 2.496114 0.027522 -0.007930 -1229070.000000 0 0 1
15.172530 20.680746 -34.096074 42.666628 0.937838 2.496639 0.040949 -0.012107 -1701570.000000 0 0 1
16.239730 20.956846 -33.274233 42.545185 0.911541 2.468812 0.023539 -0.005411 384907.000000 0 0 1
17.444030 20.192046 -33.573193 42.885571 0.858284 2.470038 0.035811 -0.007972 790115.000000 0 0 1
18.554930 20.403146 -32.531033 42.647883 0.832804 2.438401 0.027017 0.000699 -289040.000000 0 0 1
19.109530 21.696946 -32.768643 43.700292 0.848720 2.418631 0.007880 0.002616 -306075.000000 0 0 1
20.034030 22.038946 -31.755573 43.537270 0.833015 2.388224 0.002042 0.014963 -255930.000000 0 0 1
19.465130 22.379846 -30.370233 42.451147 0.854941 2.368016 0.003582 0.005028 -118762.000000 0 0 1
18.727930 23.580846 -30.467213 42.837399 0.899601 2.362042 -0.002534 0.025573 -18147.000000 0 0 1
18.250130 24.175446 -29.251193 42.108808 0.924164 2.338740 0.011302 0.023473 185034.000000 0 0 1
19.372830 24.677826 -28.287313 42.243032 0.905250 2.304510 0.012845 0.019695 467644.000000 0 0 1
20.203730 25.737686 -28.728543 43.542489 0.905277 2.291325 0.016097 0.025537 -150107.000000 0 0 1
19.561330 27.000996 -28.784823 44.048444 0.943838 2.282970 0.016021 0.027371 -658168.000000 0 0 1
20.418830 28.086886 -29.445193 45.528246 0.942186 2.274106 0.009025 0.024801 -397115.000000 0 0 1
20.452830 28.212946 -30.902713 46.575382 0.943524 2.296282 0.012351 0.018935 -78784.100000 0 0 1
20.893030 27.092766 -31.677763 46.626359 0.913886 2.317736 0.010020 0.020341 -336343.000000 0 0 1
22.238430 26.441596 -31.347573 46.651646 0.871527 2.307635 0.022751 0.013304 -356307.000000 0 0 1
23.321330 27.331366 -31.508623 47.787878 0.864401 2.290741 0.020698 0.009796 228627.000000 0 0 1
24.607730 26.743376 -31.319343 47.975512 0.826963 2.282097 0.031808 0.001334 1274910.000000 0 0 1
25.780130 27.741026 -31.730833 49.406734 0.822020 2.268209 0.021960 0.010535 591880.000000 0 0 1
25.944930 28.818936 -30.874653 49.567274 0.837830 2.243220 0.014068 0.009336 -296790.000000 0 0 1
26.961630 29.707066 -31.240873 50.847138 0.833807 2.232431 0.010845 -0.001175 -101797.000000 0 0 1
26.976130 30.983096 -30.309393 51.052161 0.854423 2.206439 -0.002227 0.011903 62180.900000 0 0 1
27.421130 30.573906 -28.999243 50.275622 0.839708 2.185609 0.004857 0.005134 264905.000000 0 0 1
26.891730 31.426296 -28.009433 49.953034 0.862998 2.166046 0.004944 0.008593 -306649.000000 0 0 1
27.452230 31.194416 -26.566263 49.320207 0.849121 2.139629 0.011380 0.004919 -360580.000000 0 0 1
27.274130 29.871886 -26.075763 48.126429 0.830825 2.143395 0.006220 0.016024 103205.000000 0 0 1
25.939430 29.441656 -25.870273 46.999321 0.848553 2.153687 0.017737 0.011806 139673.000000 0 0 1
25.409130 29.733856 -24.417753 46.108055 0.863665 2.128898 0.022552 0.012171 -297638.000000 0 0 1
25.270330 31.136476 -24.061353 46.765569 0.889023 2.111232 0.030592 0.009505 422119.000000 0 0 1
24.445530 31.411346 -22.919853 45.930124 0.909466 2.093259 0.030736 0.018528 331616.000000 0 0 1
2.859830 -26.544122 -20.270053 33.520801 -1.463472 2.220186 0.003687 0.010931 -33675.300000 0 0 1
2.420030 -27.300582 -19.162453 33.442158 -1.482384 2.180962 -0.008638 0.022242 12755.600000 0 0 1
2.797130 -26.732102 -17.946053 32.318571 -1.466540 2.159503 0.013899 0.016263 -130608.000000 0 0 1
2.731530 -27.638422 -16.691453 32.402904 -1.472285 2.111946 0.016117 0.000322 529264.000000 0 0 1
3.860230 -28.522072 -16.668253 33.260196 -1.436272 2.095720 0.016119 0.004598 473662.000000 0 0 1
3.748430 -29.322502 -15.491553 33.374362 -1.443651 2.053500 0.013439 -0.004771 924830.000000 0 0 1
5.052230 -30.155642 -15.129053 34.114161 -1.404800 2.030277 0.024074 0.012431 1046460.000000 0 0 1
6.157330 -29.388082 -14.644053 33.406891 -1.364266 2.024563 0.010400 0.017448 182373.000000 0 0 1
7.341230 -30.162962 -14.571253 34.293138 -1.332053 2.009651 0.014624 0.023434 239742.000000 0 0 1
7.472430 -31.077622 -13.261853 34.605383 -1.334831 1.964088 0.017095 0.015233 -395471.000000 0 0 1
8.083130 -30.379022 -12.151753 33.702924 -1.310745 1.939659 0.022217 0.012318 152942.000000 0 0 1
8.178530 -31.207962 -10.976353 34.077934 -1.314495 1.898739 0.030060 0.009403 235278.000000 0 0 1
9.425230 -32.097322 -10.693953 35.120274 -1.285180 1.880205 0.035587 0.003507 110476.000000 0 0 1
10.552130 -31.459372 -10.180153 34.708429 -1.247168 1.868478 0.028229 -0.002182 -254711.000000 0 0 1
11.658830 -32.325182 -10.027153 35.796501 -1.224645 1.854711 0.036887 -0.005426 -90981.900000 0 0 1
12.719330 -31.871992 -9.026753 35.483623 -1.191087 1.828015 0.044475 -0.004053 141840.000000 0 0 1
13.671730 -31.019532 -9.697853 35.258700 -1.155665 1.849436 0.039107 -0.021611 837899.000000 0 0 1
14.657230 -30.525432 -8.767953 34.978756 -1.123143 1.824164 0.035134 -0.012652 618814.000000 0 0 1
15.943730 -29.833702 -9.307553 35.083940 -1.079993 1.839305 0.048635 -0.031798 246175.000000 0 0 1
15.888930 -28.499512 -9.764453 34.059137 -1.062201 1.861568 0.048523 -0.026319 -271525.000000 0 0 1
15.024530 -28.272822 -10.836453 33.801149 -1.082336 1.897153 0.040612 -0.017573 -360596.000000 0 0 1
14.764730 -26.812302 -11.115353 32.564518 -1.067439 1.919131 0.035170 -0.009110 -300595.000000 0 0 1
13.866530 -26.224282 -10.142653 31.350710 -1.084401 1.900246 0.028422 -0.004928 541618.000000 0 0 1
13.531730 -24.882962 -10.449053 30.190267 -1.072714 1.924214 -0.009242 0.009610 522637.000000 0 0 1
12.671330 -24.572762 -11.738253 30.036142 -1.094695 1.972302 -0.002129 0.011956 227152.000000 0 0 1
13.498230 -24.125162 -12.816253 30.471002 -1.060682 2.004908 0.002078 0.011769 116783.000000 0 0 1
12.776330 -24.021662 -14.027953 30.611408 -1.081981 2.046832 0.005846 0.014042 -307673.000000 0 0 1
13.507730 -23.321362 -15.172353 30.928061 -1.045811 2.083539 0.008388 0.008689 346533.000000 0 0 1
14.387430 -24.207162 -15.923653 32.350387 -1.034545 2.085440 0.005870 0.003795 493711.000000 0 0 1
14.913830 -23.629962 -17.079353 32.749072 -1.007793 2.119430 0.000633 0.000097 -736534.000000 0 0 1
15.781030 -24.697962 -17.830853 34.306990 -1.002221 2.117348 0.001538 0.000121 990404.000000 0 0 1
17.043830 -25.085272 -17.260853 34.895559 -0.974006 2.088221 0.022674 -0.000355 616769.000000 0 0 1
18.029930 -24.070062 -17.359553 34.724636 -0.927897 2.094303 0.030180 -0.008984 -664041.000000 0 0 1
19.399530 -24.509962 -16.814553 35.493791 -0.901262 2.064320 0.026434 -0.005791 153334.000000 0 0 1
20.054030 -25.450282 -17.664853 36.904309 -0.903435 2.069931 0.048031 -0.000951 155585.000000 0 0 1
21.352130 -25.780282 -17.166653 37.619548 -0.879074 2.044654 0.055282 0.008492 532934.000000 0 0 1
22.035130 -26.840922 -18.063953 39.144456 -0.883409 2.050447 0.054510 0.004173 -393997.000000 0 0 1
22.725130 -26.182632 -19.088553 39.576945 -0.855975 2.074092 0.059061 -0.000157 -278266.000000 0 0 1
23.326930 -27.047182 -20.046853 40.958174 -0.859117 2.082252 0.051377 -0.005230 672339.000000 0 0 1
24.465730 -26.274582 -20.828153 41.505874 -0.821032 2.096489 0.031458 -0.017501 686636.000000 0 0 1
23.899030 -25.216992 -21.597353 40.908507 -0.812225 2.126973 0.048191 -0.015904 168911.000000 0 0 1
24.051830 -24.013362 -20.859453 39.877924 -0.784598 2.121260 0.049128 -0.015686 -551306.000000 0 0 1
23.430730 -22.762262 -21.516853 39.116424 -0.770928 2.153247 0.064405 -0.025171 -286420.000000 0 0 1
23.950830 -22.425062 -22.803953 39.956801 -0.752510 2.178173 0.042398 -0.010748 478991.000000 0 0 1
23.283630 -23.219962 -23.811853 40.599241 -0.784029 2.197539 0.032690 -0.011144 298971.000000 0 0 1
22.403630 -22.365862 -24.796853 40.212415 -0.784555 2.235272 0.032920 -0.005957 -17785.100000 0 0 1
23.148830 -21.507662 -25.567143 40.646361 -0.748664 2.251081 0.019541 0.001342 -337094.000000 0 0 1
22.342530 -20.801662 -26.494233 40.420813 -0.749699 2.285588 0.016776 0.006302 -246099.000000 0 0 1
23.068830 -19.993762 -27.561493 41.128546 -0.714110 2.305181 0.012006 0.005625 532302.000000 0 0 1
22.107330 -19.212162 -28.318573 40.740432 -0.715445 2.339352 0.009996 0.008069 1075180.000000 0 0 1
22.820030 -18.790062 -29.475483 41.744752 -0.688849 2.354755 0.015502 0.000904 310907.000000 0 0 1
22.049430 -17.914662 -30.497253 41.679670 -0.682303 2.391617 0.042352 -0.008390 102794.000000 0 0 1
20.835430 -18.406362 -31.036533 41.667441 -0.723577 2.411126 0.035981 -0.013877 393117.000000 0 0 1
19.949130 -17.396362 -31.443833 41.101287 -0.717149 2.441889 0.045756 -0.012884 530040.000000 0 0 1
18.578630 -17.913262 -31.978403 41.093414 -0.767167 2.462572 0.030573 -0.005143 289475.000000 0 0 1
18.687330 -18.357462 -33.307943 42.374895 -0.776494 2.475157 0.024548 -0.005001 296711.000000 0 0 1
17.538830 -19.001062 -33.825453 42.577132 -0.825394 2.488900 0.020597 -0.004133 -153457.000000 0 0 1
17.893530 -19.781762 34.166296 43.345499 -0.835475 0.662866 0.023188 0.002316 -75185.700000 0 0 1
18.744330 -20.866062 34.441590 44.418077 -0.838912 0.683455 0.019739 0.003964 -133660.000000 0 0 1
18.909530 -21.604662 33.265160 43.942037 -0.851823 0.712051 0.014538 -0.000118 -33652.500000 0 0 1
19.661030 -22.953062 33.501818 45.119519 -0.862497 0.733982 0.002399 0.002474 -188979.000000 0 0 1
19.017830 -23.854862 34.344171 45.937505 -0.897746 0.726313 0.010349 0.001534 -296526.000000 0 0 1
19.237730 -23.642462 -33.483493 45.279140 -0.887761 2.403109 0.013571 0.003819 -441095.000000 0 0 1
18.272330 -24.370062 -32.552333 44.580627 -0.927432 2.389396 0.019749 -0.002278 -382334.000000 0 0 1
18.402130 -25.791092 -32.418443 45.329618 -0.951063 2.367666 0.017091 -0.003795 -91050.200000 0 0 1
19.637930 -26.135452 -31.834903 45.630814 -0.926406 2.342926 0.010658 -0.001600 -51617.000000 0 0 1
19.800730 -27.707062 -31.870593 46.642093 -0.950309 2.323071 0.010829 -0.003833 2508.960000 0 0 1
18.883230 -28.453102 -31.096523 46.186027 -0.984877 2.309444 0.010200 -0.010557 -220785.000000 0 0 1
19.048930 -29.805202 -31.281803 47.220366 -1.002112 2.294900 0.008869 -0.010476 -454859.000000 0 0 1
17.988830 -30.740742 -30.662483 46.997650 -1.041346 2.281577 0.010439 -0.011873 1226960.000000 0 0 1
16.767630 -30.947432 -31.430023 47.188381 -1.074263 2.299703 -0.000536 -0.014955 739396.000000 0 0 1
16.918530 -31.602892 -32.680543 48.507704 -1.079272 2.310026 0.006632 -0.015808 -662808.000000 0 0 1
15.637830 -32.207592 -33.270323 48.875199 -1.118790 2.319541 0.021564 -0.020504 213065.000000 0 0 1
14.673630 -31.296242 -33.747083 48.307720 -1.132368 2.344215 0.023614 -0.018326 847183.000000 0 0 1
13.368730 -31.843222 -34.064323 48.508678 -1.173313 2.349323 0.022745 -0.026192 992241.000000 0 0 1
12.445830 -30.811902 34.561336 47.945364 -1.186907 0.765771 0.024329 -0.011814 -390550.000000 0 0 1
11.985130 -29.915602 -33.765473 46.676479 -1.189746 2.379501 0.022471 -0.013323 -301845.000000 0 0 1
11.213030 -28.906652 -34.400040 46.310790 -1.200760 2.408052 0.007782 -0.003671 53291.800000 0 0 1
10.479230 -28.044622 -33.322063 44.795926 -1.213199 2.409629 0.004965 -0.000559 44307.500000 0 0 1
9.456930 -28.838332 -32.766653 44.662472 -1.253917 2.394475 0.009151 -0.005216 -619120.000000 0 0 1
8.672830 -28.099062 -31.863023 43.359284 -1.271421 2.396257 0.004378 -0.010252 46216.800000 0 0 1
7.634830 -29.041742 -31.197843 43.301487 -1.313722 2.375290 -0.009634 -0.003127 -253650.000000 0 0 1
6.552130 -29.493372 -31.983663 43.997092 -1.352190 2.384665 -0.014413 0.004796 -88590.500000 0 0 1
6.813230 -30.630842 -32.861703 45.437430 -1.351929 2.379264 -0.000536 0.007277 4716.910000 0 0 1
5.503130 -31.149492 -33.484463 46.062832 -1.395932 2.384637 0.012872 -0.005134 925226.000000 0 0 1
4.469130 -31.635012 -32.599023 45.644752 -1.430453 2.366262 0.010349 -0.006463 762106.000000 0 0 1
3.425030 -32.264902 -33.344283 46.525218 -1.465039 2.369845 0.016309 -0.009054 168364.000000 0 0 1
2.285430 -32.741342 -32.415393 46.129994 -1.501107 2.349977 0.005496 0.000769 58339.300000 0 0 1
1.465630 -31.645402 -32.015183 45.039443 -1.524515 2.361467 -0.018635 0.010712 602509.000000 0 0 1
0.490530 -31.994152 -31.001143 44.552634 -1.555466 2.340374 -0.024176 0.012403 231093.000000 0 0 1
-0.355170 -30.830052 -30.599333 43.438893 1.559277 2.352405 -0.016712 0.005329 -427388.000000 0 0 1
-1.219870 -31.050552 -29.481493 42.834370 1.531530 2.329894 -0.025089 0.016819 504197.000000 0 0 1
-1.978670 -29.932832 -29.059053 41.765034 1.504789 2.340294 -0.016038 0.014035 305992.000000 0 0 1
-2.716670 -30.069232 -27.719783 40.986893 1.480694 2.313536 -0.006846 0.008581 -327722.000000 0 0 1
-1.744170 -30.077452 -26.730083 40.276452 1.512872 2.296504 -0.009774 0.014691 41446.800000 0 0 1
-2.306770 -30.347912 -25.455023 39.677136 1.494931 2.267319 -0.002447 0.010476 341975.000000 0 0 1
-1.219870 -30.516112 -24.358653 39.064884 1.530843 2.244063 -0.011568 0.014733 95616.500000 0 0 1
-1.884170 -30.704832 -23.142253 38.495463 1.509509 2.215759 0.011706 0.003788 65522.500000 0 0 1
-1.071470 -31.160122 -22.064953 38.196379 1.536424 2.186669 0.004624 0.013100 -69557.900000 0 0 1
-1.812270 -30.980152 -20.767553 37.340934 1.512365 2.160555 -0.008097 0.028779 -310375.000000 0 0 1
-1.881670 -29.653142 -20.297453 35.983831 1.507425 2.170105 -0.009796 0.015954 208841.000000 0 0 1
-0.677470 -29.064952 -19.796253 35.172745 1.547492 2.168601 -0.001973 0.011628 146216.000000 0 0 1
-0.782770 -27.613552 -19.245653 33.667731 1.542457 2.179293 0.005205 0.001478 -289761.000000 0 0 1
-1.580570 -27.535212 -18.081653 32.979270 1.513457 2.151094 -0.005845 0.002941 -8452.260000 0 0 1
-1.301570 -26.306492 -17.476753 31.609532 1.521360 2.156631 0.003424 -0.003086 115151.000000 0 0 1
-2.104670 -26.261892 -16.167853 30.911423 1.490826 2.121208 -0.001707 -0.004550 -299419.000000 0 0 1
-2.005170 -25.017262 -15.477153 29.486037 1.490816 2.123391 -0.001034 -0.003416 -98737.600000 0 0 1
-2.985170 -24.818062 -14.487653 28.891859 1.451089 2.096063 -0.007227 0.001104 -157088.000000 0 0 1
-2.732470 -23.605462 -13.541553 27.350647 1.455553 2.088757 -0.001314 -0.000647 422257.000000 0 0 1
-1.649170 -23.871562 -12.637053 27.060420 1.501821 2.056685 0.005633 -0.004895 122298.000000 0 0 1
-1.443470 -22.744262 -11.831553 25.678214 1.507416 2.049650 0.004192 0.000296 552641.000000 0 0 1
-0.183870 -22.721062 -10.902153 25.201932 1.562704 2.018162 -0.001829 -0.004284 577776.000000 0 0 1
0.161930 -21.383962 -10.517053 23.830830 -1.563224 2.027867 -0.002851 -0.003890 -210842.000000 0 1 0
1.371130 -21.293462 -9.799853 23.480388 -1.506493 2.001338 -0.001875 -0.009498 66663.700000 0 1 0
1.811430 -19.892062 -9.474053 22.107308 -1.479984 2.013682 -0.001447 -0.007273 -1129780.000000 0 1 0
2.337030 -19.059562 -10.512553 21.891605 -1.448788 2.071690 -0.002971 -0.000907 -130469.000000 0 1 0
3.222330 -18.044562 -10.140453 20.947993 -1.394083 2.076105 -0.000391 -0.004374 369385.000000 0 1 0
4.603030 -18.549862 -9.627453 21.400306 -1.327566 2.037421 0.005440 -0.013066 -606454.000000 0 1 0
4.447530 -18.979262 -8.268953 21.174713 -1.340613 1.971983 0.003616 -0.019437 -264725.000000 0 1 0
5.354830 -19.976762 -7.838353 22.117527 -1.308900 1.933064 0.007332 -0.018948 -501746.000000 0 1 0
4.797930 -21.130162 -6.981653 22.765047 -1.347517 1.882502 0.019486 -0.013533 -169832.000000 0 1 0
4.023530 -22.078062 -7.687253 23.721793 -1.390533 1.900813 -0.002481 -0.015642 60821.500000 0 1 0
3.734230 -23.188762 -6.798253 24.451573 -1.411131 1.852538 0.006400 -0.016967 -239248.000000 0 1 0
2.959630 -24.247262 -7.618153 25.587602 -1.449337 1.873108 0.002879 -0.012678 188566.000000 0 0 1
3.691230 -24.802762 -8.709053 26.545240 -1.423057 1.905070 0.001821 -0.013832 13322.000000 0 0 1
2.828230 -25.494712 -9.582853 27.382664 -1.460314 1.928325 -0.008154 -0.005976 -123137.000000 0 0 1
3.561230 -26.427862 -10.495653 28.657861 -1.436850 1.945761 -0.020204 -0.002308 -350320.000000 0 0 1
4.092430 -27.596542 -9.911153 29.606554 -1.423574 1.912149 -0.004693 -0.003323 -435558.000000 0 0 1
4.780230 -28.255622 -10.881853 30.653638 -1.403205 1.933704 0.015484 0.003697 -343561.000000 0 0 1
4.753330 -29.776922 -10.653953 31.980712 -1.412501 1.910425 0.016188 0.007337 -919678.000000 0 0 1
3.560130 -30.287082 -11.107353 32.455433 -1.453787 1.920090 0.007568 0.011552 -808628.000000 0 0 1
3.457830 -31.692592 -10.984353 33.719920 -1.462121 1.902604 0.022718 0.011965 -122383.000000 0 0 1
2.136330 -32.310942 -11.463053 34.350582 -1.504775 1.911030 0.019743 0.004971 -107818.000000 0 0 1
2.096430 -32.342212 -12.851853 34.865224 -1.506067 1.948315 0.018965 0.001805 -430838.000000 0 0 1
1.001830 -33.077382 -13.246553 35.645309 -1.540518 1.951551 0.010727 0.000306 -897759.000000 0 0 1
0.694830 -33.118942 -14.754953 36.263697 -1.549820 1.989832 0.006020 0.006990 -621339.000000 0 0 1
-0.375870 -32.287942 -15.027253 35.615598 1.559156 2.006368 0.004408 0.004118 -553897.000000 0 0 1
-0.671870 -32.346982 -16.394853 36.270785 1.550029 2.039817 -0.011380 0.010955 -331720.000000 0 0 1
-1.812470 -31.417972 -16.810853 35.678828 1.513171 2.061415 -0.016158 0.020641 786755.000000 0 0 1
-3.100170 -31.942682 -16.401053 36.040817 1.474045 2.043246 -0.021936 0.015661 902021.000000 0 0 1
-4.144570 -31.224592 -17.062053 35.822706 1.438834 2.067229 -0.014126 0.022279 419314.000000 0 0 1
-5.537570 -31.396612 -16.425153 35.863597 1.396217 2.046529 -0.013594 0.016881 -233262.000000 0 0 1
-5.768770 -30.518012 -15.369853 34.653429 1.383972 2.030330 -0.023277 0.020352 189681.000000 0 0 1
-7.063170 -30.514682 -14.787453 34.636728 1.343334 2.011891 -0.009472 0.017070 190376.000000 0 0 1
-7.420570 -31.679592 -13.851553 35.362790 1.340706 1.973273 -0.007197 0.003250 -78285.700000 0 0 1
-7.487870 -32.956112 -14.413353 36.741234 1.347382 1.973920 -0.004150 0.003732 -35963.500000 0 0 1
-8.209070 -33.861542 -13.590253 37.399035 1.332955 1.942695 0.016011 -0.002346 429466.000000 0 0 1
-8.624270 34.135885 -14.298153 38.000972 -1.323330 1.956550 0.028874 -0.002539 -14316.800000 0 0 1
-7.488570 33.329026 -14.400053 37.071069 -1.349781 1.969739 0.006664 -0.006126 -161045.000000 0 0 1
-7.824070 32.105396 -15.033653 36.304039 -1.331756 1.997755 0.017266 -0.022219 -322646.000000 0 0 1
-7.388170 -22.215262 -3.434853 23.662230 1.249731 1.716473 0.022233 0.008560 202729.000000 0 1 0
-7.182870 -21.099662 -4.268353 22.693792 1.242676 1.760008 0.005621 0.002441 -692121.000000 0 1 0
-5.919570 -21.037462 -4.849353 22.385985 1.296506 1.789152 -0.000921 -0.001160 -242565.000000 0 1 0
-5.918370 -20.014762 -5.991153 21.714320 1.283289 1.850330 -0.004258 -0.000527 -239322.000000 0 1 0
-6.686770 -20.451562 -7.043153 22.640346 1.254796 1.887135 -0.007373 0.005747 -544207.000000 0 1 0
-6.878070 -19.348862 -7.920753 22.009649 1.229251 1.938932 -0.005913 0.006237 -640607.000000 0 1 0
-7.783170 -19.664462 -9.096553 23.022078 1.193917 1.976998 -0.001619 0.000049 356555.000000 0 1 0
-7.089570 -20.386162 -10.107953 23.833344 1.236115 2.008775 -0.008782 0.000516 -576115.000000 0 1 0
-8.036970 -20.680562 -11.030853 24.778181 1.200135 2.032176 0.005571 0.010523 -284258.000000 0 1 0
-7.508970 -21.571262 -12.231553 25.909744 1.235815 2.062449 0.001703 0.004735 63240.600000 0 0 1
-6.610570 -20.927062 -13.117453 25.567736 1.264830 2.109527 0.013051 0.000276 -173995.000000 0 0 1
-6.534170 -21.584662 -14.363153 26.737486 1.276843 2.137900 0.004450 -0.000234 18668.500000 0 0 1
-5.589770 -20.794362 -15.353453 26.445785 1.308192 2.190217 0.009451 0.000601 -96305.600000 0 0 1
-4.278370 -20.901462 -14.826453 25.980748 1.368893 2.178119 -0.000922 0.006892 -219486.000000 0 0 1
-3.324070 -20.222462 -15.627353 25.772302 1.407878 2.222274 -0.000024 0.014288 67383.500000 0 0 1
-3.206470 -18.696662 -15.698653 24.623044 1.400949 2.262122 0.015719 0.012812 -658014.000000 0 1 0
-4.297370 -18.074862 -16.365053 24.758493 1.337376 2.292930 0.017638 0.011237 -192650.000000 0 1 0
-4.261870 -18.100362 -17.789353 25.734174 1.339551 2.334046 0.022796 0.005419 -183390.000000 0 0 1
-5.693070 -18.091562 -18.366553 26.401627 1.265926 2.340134 0.029228 0.002756 -124585.000000 0 0 1
-6.425770 -19.201562 -17.940653 27.052865 1.247863 2.295843 0.019676 0.003656 -1467370.000000 0 0 1
-7.658970 -19.131462 -18.542453 27.721746 1.190002 2.303494 0.017794 0.002264 -1112490.000000 0 0 1
-8.640170 -20.192762 -17.991653 28.391896 1.166485 2.257110 0.018502 -0.002779 -353007.000000 0 0 1
-8.426070 -21.494162 -18.448253 29.552253 1.197191 2.244979 0.012389 0.004392 280373.000000 0 0 1
-9.212270 -22.490862 -17.816653 30.135326 1.182041 2.203369 0.017479 -0.001035 18069.600000 0 0 1
-8.596970 -23.864162 -18.216053 31.228684 1.225023 2.193596 0.016583 -0.004591 -605168.000000 0 0 1
-8.551870 -24.004662 -19.633053 32.168541 1.228557 2.227259 0.008619 -0.010988 439666.000000 0 0 1
-7.534770 -24.882662 -20.090553 32.856505 1.276762 2.228705 0.010592 -0.019093 815468.000000 0 0 1
-6.043670 -24.474862 -19.861353 32.093896 1.328706 2.238076 0.010248 -0.007906 -449613.000000 0 0 1
-5.558770 -23.375962 -20.591653 31.644141 1.337334 2.279336 0.007675 -0.011377 -72948.200000 0 0 1
-5.384870 -22.136362 -19.904653 30.252447 1.332172 2.288892 0.019198 -0.011442 1027530.000000 0 0 1
-4.225670 -22.152362 -18.770053 29.341069 1.382306 2.264930 0.020974 -0.003328 663719.000000 0 0 1
-2.982570 -22.508662 -19.316753 29.810611 1.439056 2.275729 0.020255 -0.010398 -897785.000000 0 0 1
-2.035570 -22.430662 -18.304053 29.022689 1.480295 2.253226 0.014807 -0.003252 -1512730.000000 0 0 1
-0.726970 -23.050162 -18.664353 29.668106 1.539268 2.251198 0.019892 -0.000819 -933998.000000 0 0 1
0.032630 -22.200662 -19.541053 29.575720 -1.569327 2.292564 0.022314 -0.003982 -519516.000000 0 0 1
1.295630 -22.756062 -19.754853 30.162414 -1.513922 2.284912 0.011998 -0.001163 -28622.900000 0 0 1
2.050530 -22.141962 -20.964253 30.560940 -1.478451 2.326749 0.020866 0.000606 490666.000000 0 0 1
1.286030 -22.346962 -22.141653 31.484812 -1.513311 2.350753 0.008853 -0.008016 167845.000000 0 0 1
0.821530 -21.196562 -22.831753 31.165014 -1.532058 2.392943 0.018481 0.001146 -29531.500000 0 0 1
0.343330 -21.421062 -24.326253 32.415218 -1.554770 2.419551 0.017320 -0.003901 -32764.200000 0 0 1
-0.240670 -20.367562 -25.068533 32.300570 1.558981 2.459257 0.021748 0.003143 -737399.000000 0 0 1
-1.604070 -20.195962 -24.873053 32.079879 1.491537 2.458061 0.032222 -0.005326 -692655.000000 0 0 1
-2.179070 -18.932362 -25.555473 31.878909 1.456203 2.500833 0.023988 0.001994 138849.000000 0 0 1
-1.656470 -17.741162 -24.948153 30.657838 1.477698 2.521391 0.051814 -0.002534 137791.000000 0 0 1
-2.038570 -16.542162 -25.673083 30.608921 1.448180 2.565771 0.031032 -0.002132 35704.800000 0 0 1
-1.308870 -15.231562 -25.281183 29.544066 1.485075 2.597720 0.034654 -0.002107 807313.000000 0 0 1
0.043530 -15.081662 -25.762793 29.852637 -1.567910 2.611972 0.043902 -0.015309 635790.000000 0 0 1
0.670730 -13.878862 -25.377033 28.932101 -1.522506 2.640636 0.036553 -0.014207 183843.000000 0 0 1
0.128230 -12.628062 -26.080533 28.977208 -1.560642 2.690649 0.034980 -0.005729 -319497.000000 0 0 1
0.872630 -11.482062 -25.771333 28.226952 -1.494943 2.721385 0.016634 -0.008196 175571.000000 0 0 1
0.318930 -10.359962 -26.416953 28.377560 -1.540021 2.767693 0.011738 -0.003785 -496930.000000 0 0 1
1.179830 -9.095662 -26.213993 27.772225 -1.441803 2.805021 0.007477 -0.010359 1105190.000000 0 0 1
2.562930 -9.098762 -26.635953 28.263582 -1.296231 2.800568 0.030998 -0.009881 981036.000000 0 0 1
2.739230 -9.212662 -28.024233 29.626578 -1.281788 2.811201 0.010762 -0.004567 -788141.000000 0 0 1
4.197230 -9.053662 -28.478123 30.175967 -1.136695 2.804545 0.017905 0.004630 -472689.000000 0 0 1
4.470530 -7.650962 -28.660193 29.998825 -1.041994 2.841730 0.008407 -0.001810 -147127.000000 0 0 1
5.707930 -7.368062 -29.253323 30.702210 -0.911683 2.833153 0.009252 0.001795 -1029880.000000 0 0 1
6.916030 -7.228662 -28.339863 30.053832 -0.807497 2.802239 0.013428 -0.009656 -453737.000000 0 0 1
7.437830 -8.483862 -27.796973 29.999482 -0.851002 2.756016 0.005460 -0.010495 527669.000000 0 0 1
8.168630 -9.317262 -28.669393 31.232547 -0.850993 2.733636 0.003605 -0.011199 -479065.000000 0 0 1
8.597730 -10.637962 -28.118173 31.268496 -0.891068 2.688847 0.018854 -0.016251 552960.000000 0 0 1
7.461530 -11.526062 -28.044833 31.225585 -0.996278 2.686309 0.008582 -0.012362 851157.000000 0 0 1
7.724830 -12.691562 -27.283013 31.066244 -1.024034 2.642925 0.019157 -0.010608 65925.800000 0 0 1
8.719030 -13.731062 -27.901433 32.296339 -1.005048 2.613797 0.013911 -0.016503 181749.000000 0 0 1
8.184230 -14.461662 -29.051563 33.468113 -1.055808 2.622031 0.019499 -0.018853 354041.000000 0 0 1
9.127030 -15.448562 -29.485713 34.516199 -1.037168 2.594917 0.010325 -0.013171 538669.000000 0 0 1
8.460030 -16.229662 -30.657453 35.705090 -1.090278 2.603387 0.013779 -0.009321 156361.000000 0 0 1
8.284530 -15.377962 -31.789243 36.272181 -1.076649 2.639149 0.003056 -0.001901 275521.000000 0 0 1
7.328730 -16.002362 -32.635373 37.079016 -1.141328 2.646990 0.005526 0.000486 -98162.900000 0 0 1
6.462130 -14.941662 -33.337443 37.099831 -1.162598 2.687336 0.006641 0.006358 62539.200000 0 0 1
7.012930 -14.327562 -34.504643 38.013558 -1.115607 2.708550 0.006563 0.012980 285890.000000 0 0 1
6.013230 -13.418362 34.320324 37.337595 -1.149495 0.404779 -0.021454 0.012562 70679.500000 0 0 1
6.409130 -12.316062 33.372204 36.145073 -1.090972 0.394250 -0.001812 0.016115 -520091.000000 0 0 1
6.773130 -12.701162 32.113041 35.191507 -1.080889 0.421387 -0.004637 0.009452 115721.000000 0 0 1
7.152730 -11.590962 31.298801 34.133955 -1.017901 0.410453 -0.007123 0.011543 -135553.000000 0 0 1
7.619430 -11.890662 29.891651 33.059860 -1.000922 0.441369 -0.022826 0.019079 199840.000000 0 0 1
6.588830 -12.438062 29.080421 32.307723 -1.083648 0.450780 -0.008544 0.011784 452396.000000 0 0 1
6.957630 -12.286262 27.733631 31.120976 -1.055530 0.470910 -0.005736 0.010626 -163759.000000 0 0 1
6.029330 -13.047662 26.774751 30.388840 -1.137925 0.492673 -0.001809 -0.002438 -416480.000000 0 0 1
6.103530 -14.478362 27.033411 31.267896 -1.171841 0.526494 -0.002715 0.000674 372876.000000 0 0 1
5.308630 -15.414762 26.239031 30.891474 -1.239131 0.555960 -0.018087 0.001877 1727540.000000 0 0 1
3.734430 -15.247162 26.428371 30.738912 -1.330599 0.535979 -0.012041 -0.013354 943012.000000 0 0 1
3.122230 -14.149562 25.812231 29.601177 -1.353617 0.511523 -0.016522 -0.008224 -279882.000000 0 0 1
1.860230 -14.565962 25.334491 29.282488 -1.443773 0.525296 -0.018607 -0.005898 -137426.000000 0 0 1
0.986030 -13.389862 24.887091 28.277693 -1.497289 0.494732 -0.026643 -0.002906 -486909.000000 0 0 1
1.480430 -12.755662 23.745201 26.995058 -1.455253 0.495749 -0.033824 0.015266 -365704.000000 0 0 1
0.745730 -11.633962 23.399501 26.142720 -1.506784 0.462214 -0.022312 0.023067 491185.000000 0 0 1
-0.654070 -11.820662 22.724001 25.622960 1.515520 0.480290 -0.013243 0.010424 186725.000000 0 0 1
-0.628570 -12.528362 21.483501 24.877616 1.520667 0.528494 -0.014235 0.001158 -567381.000000 0 1 0
-1.896070 -12.722962 20.928501 24.565646 1.422858 0.551114 -0.003422 -0.014566 -279184.000000 0 1 0
-1.857970 -13.627362 19.685701 24.014243 1.435291 0.609820 0.016327 -0.010051 -159258.000000 0 1 0
-1.617370 -15.009062 19.958901 25.024899 1.463451 0.647554 0.005945 -0.011684 -105844.000000 0 0 1
-1.645370 -15.728862 18.751001 24.529663 1.466567 0.700653 0.010206 -0.007835 90016.500000 0 1 0
-2.351270 -17.113262 18.845001 25.564160 1.434257 0.741931 0.008884 -0.007342 163324.000000 0 0 1
-2.144270 -17.860562 17.689801 25.229479 1.451312 0.793779 -0.000153 -0.008081 152213.000000 0 0 1
-2.963670 -19.041262 17.789501 26.226310 1.416391 0.825340 0.005293 -0.002890 31944.200000 0 0 1
-2.699370 -20.136562 16.680001 26.286692 1.437538 0.883381 0.002649 -0.006590 988154.000000 0 0 1
-1.541770 -20.984362 16.972601 27.033122 1.497456 0.892015 -0.011364 -0.004360 827825.000000 0 0 1
-1.620270 -21.842062 18.093201 28.408887 1.496751 0.880345 -0.009116 -0.001581 533464.000000 0 0 1
-0.253470 -22.571562 18.447901 29.152439 1.559567 0.885622 -0.010778 -0.004238 1000530.000000 0 0 1
0.138330 -23.677562 17.665101 29.541528 -1.564954 0.929824 -0.004044 0.002440 -39561.500000 0 0 1
1.397630 -24.219862 18.018601 30.219614 -1.513154 0.931968 0.005137 0.007538 745836.000000 0 0 1
2.604630 -23.762562 17.139501 29.414383 -1.461622 0.948760 0.006679 -0.005298 301727.000000 0 0 1
3.118030 -22.460762 17.299001 28.521279 -1.432857 0.919108 0.014014 -0.008661 -222836.000000 0 0 1
4.146730 -22.131062 16.398901 27.855039 -1.385573 0.941318 0.021887 -0.011371 116909.000000 0 0 1
4.811230 -20.769362 16.802701 27.144891 -1.343161 0.903327 0.027150 -0.012613 -534095.000000 0 0 1
5.648230 -20.955562 17.979401 28.183274 -1.307519 0.878969 0.023214 -0.005017 412716.000000 0 0 1
6.269530 -19.737662 18.429301 27.722219 -1.263233 0.843591 0.023344 -0.000446 -1732.710000 0 0 1
7.331530 -19.173362 17.495901 26.971757 -1.205570 0.864954 0.016392 -0.002869 -1315510.000000 0 0 1
6.808530 -18.489162 16.357501 25.608066 -1.217961 0.877906 0.013447 -0.003141 -384112.000000 0 0 1
7.802130 -17.906962 15.587801 24.990239 -1.159895 0.897258 0.017721 -0.002341 -393666.000000 0 1 0
7.240130 -16.813262 14.629401 23.433408 -1.164175 0.896565 0.018431 -0.004568 496142.000000 0 1 0
6.390830 -17.417662 13.620201 23.015810 -1.219131 0.937536 0.015141 -0.009416 291779.000000 0 1 0
5.720530 -16.465862 12.852501 21.657236 -1.236424 0.935457 0.007046 -0.009056 -217458.000000 0 1 0
6.146630 -16.544262 11.395501 21.008358 -1.215074 0.997473 0.005347 -0.010385 -212443.000000 0 1 0
7.511530 -16.229562 11.329501 21.170247 -1.137324 1.006097 0.007025 -0.002042 -447423.000000 0 1 0
8.046530 -16.501262 10.054001 20.931346 -1.117093 1.069763 0.007098 -0.000625 164586.000000 0 1 0
9.542430 -16.117062 10.015301 21.239678 -1.036228 1.079763 0.006001 0.006664 29805.400000 0 1 0
10.194730 -16.631662 8.903301 21.443262 -1.020894 1.142631 0.010330 0.008794 -700852.000000 0 1 0
11.548130 -16.245762 8.923201 21.838214 -0.952832 1.149871 0.013444 0.016898 744.540000 0 1 0
12.451930 -17.163162 8.047101 22.679959 -0.943158 1.208084 0.007134 0.010640 9173.840000 0 1 0
12.624930 -18.457962 8.572901 23.949527 -0.970901 1.204717 0.005766 0.009850 40414.200000 0 1 0
13.343730 -19.319662 7.672201 24.701561 -0.966352 1.254977 0.007855 0.007240 -45803.900000 0 1 0
13.833430 -20.679662 8.192601 26.194101 -0.981222 1.252694 0.008357 0.005391 -730996.000000 0 0 1
12.901430 -21.502862 8.809201 26.578600 -1.030387 1.232967 0.020118 -0.001217 -712535.000000 0 0 1
13.476730 -22.541462 9.538801 27.941519 -1.031949 1.222407 0.031254 -0.000216 175173.000000 0 0 1
12.375830 -23.447162 10.188001 28.402921 -1.085143 1.203926 0.034361 -0.005276 532610.000000 0 0 1
11.986530 -22.994062 11.468401 28.353624 -1.090264 1.154389 0.029131 -0.013298 320041.000000 0 0 1
10.867530 -23.647562 12.112901 28.705971 -1.140019 1.135185 0.033616 -0.005285 566918.000000 0 0 1
11.111330 -25.097522 12.648701 30.221464 -1.154008 1.138966 0.032482 -0.006349 -289153.000000 0 0 1
12.056830 -25.079152 13.684201 31.009488 -1.122666 1.113760 0.020674 -0.008055 -246094.000000 0 0 1
12.018630 -26.305202 14.228701 32.231461 -1.142226 1.113578 0.022874 -0.013946 911040.000000 0 0 1
13.291330 -26.649132 15.110501 33.394055 -1.108147 1.101240 0.030884 -0.008018 814972.000000 0 0 1
13.299630 -26.061442 16.416401 33.549622 -1.098928 1.059490 0.032612 -0.015317 111591.000000 0 0 1
14.434930 -26.506332 17.122101 34.700420 -1.072121 1.054772 0.043620 -0.016152 -115054.000000 0 0 1
14.331730 -26.061512 18.615701 35.087679 -1.068015 1.011549 0.051072 -0.019031 119015.000000 0 0 1
14.556830 -24.710862 18.914501 34.355296 -1.038440 0.987767 0.015034 -0.018323 316900.000000 0 0 1
15.894730 -24.451962 19.351001 35.000030 -0.994394 0.984973 0.023024 -0.020590 527029.000000 0 0 1
16.067030 -22.994662 19.811001 34.342098 -0.960924 0.955902 -0.006802 -0.023405 -46213.700000 0 0 1
16.166530 -21.996962 18.807601 33.150398 -0.937001 0.967522 -0.008909 -0.020892 22278.200000 0 0 1
14.918130 -21.451262 18.450201 31.986203 -0.963135 0.955969 -0.000787 -0.007557 -554183.000000 0 0 1
15.043430 -20.404062 17.302501 30.692134 -0.935488 0.971885 -0.005567 -0.006173 181726.000000 0 0 1
15.881730 -19.343262 17.738801 30.676639 -0.883353 0.954213 -0.006226 -0.010423 557755.000000 0 0 1
17.274230 -19.466862 17.464501 31.342727 -0.845005 0.979774 -0.010994 -0.003932 279904.000000 0 0 1
18.017630 -18.105062 17.757001 31.108509 -0.787819 0.963306 -0.000475 -0.003100 -392003.000000 0 0 1
18.298830 -17.936762 19.132501 31.978543 -0.775406 0.929429 -0.004542 -0.000752 231781.000000 0 0 1
18.891630 -16.669562 19.427401 31.814963 -0.722994 0.913931 0.006974 -0.002349 -269855.000000 0 0 1
19.307330 -16.535162 20.891701 32.903613 -0.708209 0.882870 0.019832 0.001898 -181132.000000 0 0 1
20.340730 -17.428862 21.201801 34.161775 -0.708455 0.901251 0.022124 0.002637 -301525.000000 0 0 1
20.652530 -17.373062 22.594701 35.197596 -0.699367 0.873772 0.019683 0.011199 78750.600000 0 0 1
32.291976 -1.263862 -7.862753 33.259464 -0.039119 1.809462 0.039892 -0.006205 -69454.200000 0 0 1
33.520306 -0.638962 -8.317753 34.542788 -0.019060 1.813982 0.021818 -0.009858 593553.000000 0 0 1
34.414913 -1.702462 -8.429953 35.473212 -0.049428 1.810735 0.034789 -0.017158 -196007.000000 0 0 1
-34.130443 -1.396962 -8.822953 35.280067 0.040907 1.823563 0.014820 -0.012028 590689.000000 0 0 1
-33.307250 -2.566262 -8.641053 34.505454 0.076896 1.823916 0.034184 -0.007472 -284330.000000 0 0 1
-31.977910 -2.305662 -8.950653 33.286889 0.071977 1.843041 0.062284 -0.008527 -441649.000000 0 0 1
-30.986010 -3.446362 -8.538453 32.325151 0.110768 1.838111 0.070450 -0.010916 39270.100000 0 0 1
-30.756960 -3.505562 -7.168253 31.775201 0.113486 1.798348 0.063844 -0.014132 623201.000000 0 0 1
-29.622020 -4.353362 -6.877953 30.720059 0.145919 1.796602 0.056550 -0.014940 753161.000000 0 0 1
-29.248830 -4.156962 -5.357853 30.024673 0.141179 1.750206 0.051685 -0.019668 26818.800000 0 0 1
-28.676770 -2.859562 -5.103853 29.267448 0.099388 1.746079 0.052698 -0.018348 779814.000000 0 0 1
-29.073720 -2.420462 -3.779353 29.418078 0.083061 1.699623 0.047652 -0.017123 -323687.000000 0 0 1
-28.771200 -0.985662 -3.360353 28.983537 0.034245 1.686998 0.050605 -0.016001 -573289.000000 0 0 1
-27.397070 -0.928762 -3.054753 27.582486 0.033887 1.681774 0.044142 -0.006223 298438.000000 0 0 1
-27.027760 0.371038 -2.705153 27.165333 -0.013727 1.670543 0.054358 -0.012612 -1186430.000000 0 0 1
-25.588130 0.479438 -2.287753 25.694670 -0.018735 1.659950 0.048193 -0.011229 -1317790.000000 0 0 1
-25.240070 -0.090062 -1.043753 25.261802 0.003568 1.612126 0.027340 -0.005007 675323.000000 0 0 1
-23.852670 -0.047862 -0.723853 23.863699 0.002007 1.601134 0.018542 -0.005273 266515.000000 0 1 0
-23.448770 -0.883962 0.472247 23.470177 0.037680 1.550674 0.004083 -0.007652 -840522.000000 0 1 0
-23.677570 -2.268262 0.256347 23.787350 0.095506 1.560019 0.010811 -0.003339 590869.000000 0 1 0
-22.935670 -3.090562 1.165647 23.172295 0.133942 1.520472 -0.002714 -0.002582 -234023.000000 0 1 0
-23.164970 -4.593762 0.811147 23.629990 0.195767 1.536463 -0.000693 0.000540 -697179.000000 0 1 0
-24.256170 -5.152462 1.451447 24.839814 0.209308 1.512331 -0.009140 0.006402 -290104.000000 0 1 0
-24.226670 -6.549162 1.303347 25.130097 0.264018 1.518909 -0.017235 0.005321 -340602.000000 0 0 1
-25.386060 -7.332662 1.941947 26.495115 0.281193 1.497436 -0.016688 0.003630 -395653.000000 0 0 1
-25.359530 -7.422262 3.353247 26.635315 0.284729 1.444567 -0.014066 0.002798 664432.000000 0 0 1
-26.544800 -8.053562 3.859447 28.006813 0.294569 1.432553 -0.013105 0.009122 372035.000000 0 0 1
-26.609540 -8.147362 5.379047 28.343981 0.297119 1.379861 -0.011270 0.003423 -77972.700000 0 0 1
-25.947000 -9.305662 5.906147 28.190862 0.344352 1.359727 -0.003374 0.002481 165882.000000 0 0 1
-25.964770 -9.539062 7.254447 28.597028 0.352078 1.314315 -0.017515 -0.001336 -387539.000000 0 0 1
-25.399050 -8.444062 8.192747 27.991696 0.320961 1.273763 -0.005580 -0.001228 -459668.000000 0 0 1
-24.030170 -8.240562 7.976647 26.626731 0.330359 1.266551 0.000789 -0.007784 -551269.000000 0 0 1
-23.626370 -7.043362 8.463647 26.066216 0.289726 1.240104 -0.001708 0.001265 366868.000000 0 0 1
-22.236570 -6.585762 7.924247 24.507774 0.287938 1.241544 0.014047 -0.009176 604608.000000 0 1 0
-21.076870 -7.237662 8.358147 23.800774 0.330777 1.211975 0.019400 -0.018265 245671.000000 0 1 0
-19.870070 -6.615862 7.932347 22.394451 0.321411 1.208727 0.024064 -0.020665 908993.000000 0 1 0
-18.688970 -6.952662 8.908147 21.839693 0.356155 1.150657 0.028504 -0.019721 227828.000000 0 1 0
-18.855470 -6.058862 9.993147 22.183362 0.310911 1.103494 0.038071 -0.013489 117699.000000 0 1 0
-17.850470 -6.237562 10.940147 21.845670 0.336171 1.046282 0.032653 -0.016117 -407712.000000 0 1 0
-17.629470 -5.021262 11.908747 21.859313 0.277475 0.994657 0.025140 -0.009529 -75650.500000 0 1 0
-18.669970 -4.837962 12.829547 23.164001 0.253554 0.983807 0.017592 -0.008485 -54927.700000 0 1 0
-18.760570 -3.484662 13.206247 23.205750 0.183651 0.965393 0.015967 -0.001648 -15345.800000 0 1 0
-19.750570 -3.352962 14.363347 24.650215 0.168162 0.948766 0.004703 0.001905 -403152.000000 0 1 0
-19.378170 -4.038062 15.516747 25.151319 0.205442 0.905953 -0.000932 0.004078 326764.000000 0 0 1
-20.443370 -4.108362 16.454247 26.562234 0.198321 0.902741 -0.008899 0.011025 93031.400000 0 0 1
-20.234970 -5.179462 17.481647 27.237636 0.250586 0.873928 -0.007831 0.015841 -481197.000000 0 0 1
-21.216070 -5.128062 18.468647 28.592124 0.237158 0.868549 -0.011399 0.017598 -4885.980000 0 0 1
-21.017370 -5.981462 19.590247 29.347666 0.277266 0.839919 -0.005004 0.014976 -434615.000000 0 0 1
-21.893970 -5.595762 20.791847 30.707644 0.250228 0.826995 -0.005994 0.020191 -435126.000000 0 0 1
-21.598470 -4.309262 21.278747 30.624316 0.196931 0.802610 -0.014477 0.020811 129255.000000 0 0 1
-22.148270 -3.936162 22.493647 31.812001 0.175882 0.785435 -0.006639 0.012229 -443372.000000 0 0 1
-22.011270 -2.425762 22.734947 31.737331 0.109763 0.772243 -0.002747 0.012900 -352870.000000 0 0 1
-22.888570 -1.554862 22.103447 31.856971 0.067828 0.803997 0.007204 0.013027 -169617.000000 0 0 1
-22.545670 -0.222462 22.433347 31.805845 0.009867 0.787920 0.009333 0.004394 -485384.000000 0 0 1
-23.635370 0.748438 22.039147 32.325143 -0.031655 0.820582 0.006569 0.003737 -27663.800000 0 0 1
-24.803470 0.613038 22.860447 33.737042 -0.024711 0.826293 0.000492 0.000684 -458044.000000 0 0 1
-25.818370 1.360938 22.299347 34.142368 -0.052663 0.859088 -0.000247 0.007248 -626650.000000 0 0 1
-26.973490 1.318238 23.330447 35.687767 -0.048833 0.858283 -0.002896 0.004256 -212485.000000 0 0 1
-26.718570 2.126438 24.426947 36.264025 -0.079419 0.831746 0.000629 0.003113 -110717.000000 0 0 1
-27.764770 1.981438 25.353947 37.651443 -0.071244 0.832017 -0.009613 0.005013 -613515.000000 0 0 1
-27.663630 2.723138 26.683647 38.531921 -0.098121 0.805837 0.009467 -0.000597 -582264.000000 0 0 1
-26.715960 2.246938 27.576047 38.460754 -0.083907 0.771319 -0.003946 -0.009396 -242797.000000 0 0 1
-26.538870 3.127138 28.621847 39.157384 -0.117292 0.751092 -0.006022 -0.014687 -870423.000000 0 0 1
-25.320450 2.807238 29.455547 38.943999 -0.110417 0.713071 0.007903 -0.016196 -723114.000000 0 0 1
-25.493000 1.623238 30.216147 39.566950 -0.063588 0.701815 0.002245 -0.012165 567218.000000 0 0 1
-24.394870 1.511438 31.113747 39.565887 -0.061878 0.665872 0.014251 -0.020302 40211.500000 0 0 1
-24.617670 0.402638 32.115947 40.467590 -0.016354 0.654058 0.004636 -0.018237 -130383.000000 0 0 1
-24.543770 -0.855562 31.409947 39.871210 0.034845 0.663591 0.011066 -0.018359 -152223.000000 0 0 1
-24.950970 -1.975462 32.160347 40.752194 0.079009 0.661342 0.037396 -0.011348 -579883.000000 0 0 1
-25.837930 -2.865862 31.242147 40.643370 0.110465 0.694006 0.018631 -0.007516 152226.000000 0 0 1
-27.143380 -2.328862 31.097347 41.342855 0.085589 0.719429 0.013730 0.002560 105035.000000 0 0 1
-27.273800 -1.346162 30.073947 40.621603 0.049317 0.737215 0.012319 0.004727 -776193.000000 0 0 1
-28.724660 -0.910762 29.800847 41.400798 0.031696 0.767263 0.006326 0.004477 506862.000000 0 0 1
-29.377520 -0.231362 30.912147 42.645669 0.007875 0.759965 0.016044 0.004226 -730399.000000 0 0 1
-30.751590 -0.183362 30.697547 43.451505 0.005963 0.786287 -0.001502 0.002587 -492704.000000 0 0 1
-31.520140 0.011938 32.017847 44.929522 -0.000379 0.777565 -0.004207 0.016742 -352889.000000 0 0 1
-31.543950 -1.140362 32.808647 45.527229 0.036136 0.766074 -0.001111 0.013503 -293948.000000 0 0 1
-32.318830 -0.824862 33.906347 46.848987 0.025517 0.761594 0.016665 0.012959 -332999.000000 0 0 1
-32.568310 -2.078862 -34.487506 47.480570 0.063744 2.383793 0.014271 0.005958 172892.000000 0 0 1
-33.370950 -3.020462 34.043347 47.767070 0.090266 0.777464 0.011019 0.010547 161025.000000 0 0 1
-33.204780 -4.377662 34.513447 48.092613 0.131082 0.770381 0.009942 0.008521 -828905.000000 0 0 1
-34.312135 -5.298662 34.075447 48.647040 0.153215 0.794750 0.001878 0.003771 -899030.000000 0 0 1
34.466804 -4.834562 34.539547 49.033804 -0.139358 0.789215 0.008945 -0.008297 -823787.000000 0 0 1
33.439626 -5.522662 33.827447 47.885328 -0.163676 0.786360 0.007226 -0.009920 -468549.000000 0 0 1
32.062176 -5.048362 34.318147 47.235626 -0.156173 0.757536 0.031379 -0.010620 -622359.000000 0 0 1
31.738856 -5.608762 -33.663706 46.605346 -0.174910 2.377939 0.034663 -0.012931 156155.000000 0 0 1
31.241476 -6.944162 -33.640506 46.432046 -0.218718 2.381120 0.032889 -0.007444 43019.800000 0 0 1
29.794516 -7.221862 -34.171306 45.908024 -0.237803 2.410346 0.028596 -0.010639 756266.000000 0 0 1
28.761226 -6.741962 -33.301306 44.515606 -0.230254 2.415963 0.024456 -0.011819 -384706.000000 0 0 1
27.508346 -6.995062 -33.837506 44.165788 -0.249011 2.443621 0.032809 -0.006405 -1046250.000000 0 0 1
26.373836 -6.740862 -32.843006 42.657725 -0.250232 2.449511 0.040727 -0.016631 -510648.000000 0 0 1
25.182486 -7.306962 -33.337806 42.414132 -0.282405 2.475120 0.035405 -0.008580 377527.000000 0 0 1
24.063866 -6.892362 -32.515706 41.034686 -0.278952 2.485523 0.037000 -0.010131 337051.000000 0 0 1
22.735866 -7.517662 -32.970606 40.749181 -0.319336 2.513434 0.034166 -0.015234 -250678.000000 0 0 1
22.452566 -8.870162 -32.707006 40.651516 -0.376242 2.505748 0.049056 -0.020892 162978.000000 0 0 1
22.494866 -9.331762 -31.383206 39.724129 -0.393233 2.481652 0.041857 -0.017911 -449177.000000 0 0 1
22.377366 -10.863662 -31.205106 39.906445 -0.451961 2.468595 0.052885 -0.012190 -193576.000000 0 0 1
21.130266 -11.378862 -31.608406 39.687000 -0.493979 2.492185 0.063913 -0.018596 -87092.200000 0 0 1
21.182766 -12.786962 -31.736006 40.241646 -0.543098 2.479384 0.061159 -0.014790 -464779.000000 0 0 1
20.034466 -13.207062 -32.640106 40.511515 -0.582827 2.507652 0.055042 -0.009981 881325.000000 0 0 1
18.658066 -13.022562 -32.267406 39.482858 -0.609355 2.527421 0.056623 -0.009265 835553.000000 0 0 1
18.201066 -11.733462 -32.607006 39.142940 -0.572611 2.555348 0.051632 -0.016558 -1515500.000000 0 0 1
16.859066 -11.316162 -32.077606 37.963883 -0.591149 2.577269 0.040397 -0.016620 -879319.000000 0 0 1
15.811666 -11.911962 -32.826106 38.333495 -0.645651 2.598916 0.023416 0.002056 -244884.000000 0 0 1
14.586766 -11.525562 -32.238406 37.214609 -0.668699 2.618511 0.033396 -0.001520 431586.000000 0 0 1
13.312266 -11.824362 -33.089206 37.575624 -0.726274 2.647929 0.011157 0.014546 -429646.000000 0 0 1
13.068266 -13.200262 -33.266306 38.100835 -0.790423 2.632346 0.014304 0.014520 514228.000000 0 0 1
11.804266 -13.375862 -33.903306 38.310423 -0.847731 2.657211 -0.006515 0.012207 116285.000000 0 0 1
10.535966 -13.307862 -33.078306 37.179028 -0.901131 2.667491 -0.016343 0.021032 -1200350.000000 0 0 1
10.284866 -12.092062 -32.416006 36.094236 -0.865985 2.686212 0.004840 0.021844 148368.000000 0 0 1
9.055266 -12.010062 -31.705706 35.092609 -0.924757 2.698632 0.005412 0.004382 223802.000000 0 0 1
7.980066 -11.223662 -32.474706 35.274050 -0.952723 2.740513 -0.008708 0.016147 -438268.000000 0 0 1
8.208966 -9.824662 -32.405606 34.842997 -0.874753 2.765336 -0.007421 0.017691 183316.000000 0 0 1
7.130866 -9.062862 -32.880206 34.843833 -0.904142 2.804272 -0.005183 0.019993 -156403.000000 0 0 1
7.517766 -7.586762 -33.106506 34.786729 -0.789966 2.829520 0.003466 0.018806 -8019.460000 0 0 1
7.876266 -6.882362 -31.960306 33.628316 -0.718156 2.825311 -0.009999 0.013559 281290.000000 0 0 1
8.314866 -5.542662 -32.295406 33.806085 -0.587954 2.841515 0.007172 0.009898 267984.000000 0 0 1
8.855066 -4.825262 -31.005706 32.604435 -0.498931 2.827140 0.016885 0.010171 -324571.000000 0 0 1
7.817366 -4.505962 -30.134806 31.456660 -0.522889 2.850666 0.033596 0.008064 -63602.500000 0 0 1
8.179066 -3.517462 -29.148706 30.478135 -0.406146 2.845147 0.030446 0.002075 -247159.000000 0 0 1
6.904166 -3.028062 -28.455106 29.436877 -0.413321 2.882599 0.020897 -0.001564 -704129.000000 0 0 1
6.189366 -2.153762 -29.265806 29.990571 -0.334872 2.921300 0.021655 0.015244 577819.000000 0 0 1
4.861566 -1.741862 -28.929606 29.386919 -0.344043 2.964944 0.023896 0.004868 1208210.000000 0 0 1
3.740566 -2.827062 -29.002106 29.378670 -0.647193 2.981311 0.003046 0.001208 -247803.000000 0 0 1
3.803866 -3.644462 -27.859506 28.353193 -0.764000 2.954709 0.012126 -0.009392 -200646.000000 0 0 1
2.915066 -4.698962 -28.020806 28.561222 -1.015538 2.946753 0.023549 -0.006049 -224312.000000 0 0 1
3.051766 -5.678562 -26.853106 27.616094 -1.077664 2.905980 0.015564 -0.019058 -106586.000000 0 0 1
2.581166 -5.153762 -25.619506 26.259908 -1.106484 2.920293 0.022737 -0.020287 264054.000000 0 0 1
2.887866 -6.099262 -24.565006 25.475091 -1.128591 2.873491 0.026140 -0.028747 -272840.000000 0 0 1
2.814666 -5.498162 -23.141806 23.951938 -1.097651 2.880765 0.028705 -0.032628 295619.000000 0 1 0
3.781866 -4.470962 -22.864906 23.602880 -0.868703 2.890871 0.024998 -0.031155 366648.000000 0 1 0
3.415066 -3.744362 -21.738806 22.321707 -0.831360 2.912559 0.022229 -0.024895 -150881.000000 0 1 0
4.405466 -2.601162 -21.399806 22.002861 -0.533360 2.906926 0.025824 -0.024978 -65656.200000 0 1 0
5.676066 -2.958262 -20.939106 21.895552 -0.480449 2.844931 0.019481 -0.030531 -165923.000000 0 1 0
6.507666 -1.835362 -20.662906 21.741066 -0.274891 2.825345 0.032924 -0.017542 1518060.000000 0 1 0
8.030866 -2.165462 -20.355506 21.989331 -0.263378 2.753676 0.025188 -0.014235 42936.100000 0 1 0
8.736866 -2.530462 -21.537206 23.379207 -0.281916 2.741981 0.030017 -0.021884 70607.600000 0 1 0
9.872266 -3.339162 -21.320006 23.730872 -0.326157 2.686927 0.025321 -0.024637 7246.210000 0 1 0
11.079966 -2.630462 -20.681006 23.609087 -0.233092 2.638253 0.017464 -0.011495 -1163940.000000 0 1 0
10.877666 -2.404062 -19.321906 22.303345 -0.217513 2.618590 0.021023 -0.008377 -137316.000000 0 1 0
12.050566 -1.879162 -18.732606 22.353029 -0.154694 2.564467 0.020119 -0.009557 83022.100000 0 1 0
12.390666 -0.344762 -18.903606 22.605172 -0.027817 2.561207 0.027972 -0.004398 -20675.000000 0 1 0
12.730266 0.209938 -20.175306 23.856796 0.016490 2.578641 0.017772 -0.006047 305076.000000 0 1 0
12.569266 1.628038 -20.101506 23.763575 0.128808 2.579039 0.018554 -0.008475 -89020.700000 0 1 0
12.751166 2.414138 -21.425306 25.049232 0.187112 2.596980 0.012904 -0.011834 -1060210.000000 0 0 1
14.058966 2.657838 -21.795906 26.072594 0.186844 2.560694 0.008861 -0.009149 -633137.000000 0 0 1
14.056866 3.820938 -22.625306 26.909098 0.265407 2.569565 0.018823 -0.016633 65007.100000 0 0 1
15.507866 4.104438 -23.127006 28.146025 0.258736 2.535147 0.019857 -0.019128 536988.000000 0 0 1
15.969066 3.153138 -24.035806 29.028836 0.194945 2.546323 0.001935 -0.015286 -156873.000000 0 0 1
16.712666 2.111538 -23.484606 28.901532 0.125678 2.519349 -0.007042 -0.010813 -866243.000000 0 0 1
8.589330 27.132938 2.910447 28.608454 1.264213 1.468886 -0.037145 0.008609 -9325.710000 0 0 1
8.781530 27.343138 4.279947 29.035847 1.260041 1.422855 -0.033332 0.011034 133250.000000 0 0 1
10.115030 27.625338 4.660247 29.785752 1.219807 1.413692 -0.027903 0.005679 -98696.100000 0 0 1
10.323630 28.348038 5.956347 30.751694 1.221550 1.375873 -0.032351 0.009334 -240308.000000 0 0 1
10.179930 27.424338 7.019547 30.083207 1.215361 1.335288 -0.029958 0.014530 130277.000000 0 0 1
10.092730 28.116438 8.229347 30.985794 1.226160 1.301986 -0.030378 0.011685 -588358.000000 0 0 1
10.008230 27.267638 9.524847 30.568145 1.219025 1.253926 -0.026124 0.004147 660480.000000 0 0 1
11.197530 26.567038 9.994347 30.513590 1.171909 1.237100 -0.010565 0.003997 1296140.000000 0 0 1
11.855930 25.653538 9.062247 29.678130 1.137880 1.260489 -0.019779 -0.001338 -496851.000000 0 0 1
13.077030 24.944038 9.624347 29.763095 1.087934 1.241513 -0.009958 0.001056 -517209.000000 0 0 1
14.085730 25.919538 9.855547 31.102445 1.073003 1.248365 0.001265 0.000096 -730792.000000 0 0 1
15.095530 25.324338 10.606447 31.331994 1.033258 1.225455 0.008476 0.004830 -894297.000000 0 0 1
16.101030 26.394538 10.982947 32.810668 1.023046 1.229470 0.011521 0.006210 -202741.000000 0 0 1
17.027030 26.761938 9.921047 33.234745 1.004155 1.267661 0.020902 -0.000656 704181.000000 0 0 1
18.420830 26.641938 10.104747 33.929718 0.965850 1.268394 0.033549 -0.014157 200668.000000 0 0 1
19.073530 27.527138 11.214947 35.317388 0.964852 1.247654 0.042698 -0.012445 -622162.000000 0 0 1
19.146430 28.943138 10.905747 36.376178 0.986366 1.266308 0.047623 -0.020418 491400.000000 0 0 1
17.892530 29.602738 11.097247 36.326487 1.027132 1.260347 0.036411 -0.010663 458351.000000 0 0 1
18.076230 31.096038 11.202947 37.672532 1.044238 1.268852 0.038395 0.004792 -539888.000000 0 0 1
18.326830 31.836938 10.074447 38.091440 1.048476 1.303131 0.050388 -0.015394 537209.000000 0 0 1
17.246230 31.964538 9.127847 37.449723 1.076017 1.324580 0.052152 -0.016988 277223.000000 0 0 1
15.981130 32.715638 9.517447 37.633646 1.116402 1.315123 0.046802 -0.013245 -690804.000000 0 0 1
16.178030 34.094138 9.890047 39.012202 1.127747 1.314488 0.047880 -0.014422 1314340.000000 0 0 1
14.882230 -34.533970 9.952947 38.899062 -1.163901 1.312053 0.062367 -0.006348 1681110.000000 0 0 1
14.973530 -33.084370 10.252047 37.734423 -1.145794 1.295648 0.062756 -0.005622 -182618.000000 0 0 1
15.718530 -32.386470 9.304347 37.182342 -1.118943 1.317873 0.068415 -0.008844 -138263.000000 0 0 1
15.659030 -31.008570 9.523747 36.019973 -1.103164 1.303213 0.054240 -0.001861 -269150.000000 0 0 1
16.396830 -30.270070 8.441547 35.445633 -1.074360 1.330331 0.040227 -0.001071 -386799.000000 0 0 1
15.772430 -30.284970 7.193247 34.895441 -1.090647 1.363171 0.040479 -0.007426 -301124.000000 0 0 1
16.513030 -29.671670 6.167347 34.512670 -1.062957 1.391133 0.028384 0.000334 -436440.000000 0 0 1
15.810830 -29.671470 4.828347 33.966034 -1.081205 1.428161 0.032172 -0.006252 -358819.000000 0 0 1
15.925230 -30.953370 4.176947 35.059535 -1.095623 1.451374 0.021235 -0.006755 58101.800000 0 0 1
15.640330 -30.975770 2.771347 34.810898 -1.103219 1.491101 0.026496 0.004172 -81531.700000 0 0 1
15.676530 -32.374970 2.159047 36.035452 -1.119854 1.510846 0.001122 0.007531 384850.000000 0 0 1
16.982230 -32.958870 2.102947 37.136312 -1.095019 1.514138 0.010671 0.002428 548993.000000 0 0 1
16.998730 -34.252170 1.511047 38.268150 -1.110128 1.531300 0.013735 0.002628 -180000.000000 0 0 1
18.359030 34.328938 1.460047 38.957178 1.079700 1.533309 0.021618 -0.002788 -36116.100000 0 0 1
18.775130 33.981038 2.773447 38.921825 1.066022 1.499479 0.030162 -0.027834 908715.000000 0 0 1
20.164530 33.589138 2.685247 39.268932 1.030135 1.502362 0.047457 -0.021626 825978.000000 0 0 1
20.783430 33.286738 4.030747 39.448762 1.012646 1.468441 0.048033 -0.034891 -786797.000000 0 0 1
20.201930 32.189038 4.726047 38.296053 1.010328 1.447073 0.047981 -0.036586 -620738.000000 0 0 1
20.972430 31.479938 5.660347 38.247469 0.983106 1.422258 0.030922 -0.034946 -105251.000000 0 0 1
20.132830 30.528338 6.577047 37.155993 0.987786 1.392847 0.034328 -0.030882 -490049.000000 0 0 1
19.628630 29.359438 5.964547 35.816694 0.981482 1.403487 0.048530 -0.027939 929147.000000 0 0 1
18.541330 28.830938 6.793047 34.944948 0.999283 1.375158 0.044981 -0.029423 1136620.000000 0 0 1
17.119730 29.033838 6.230747 34.276393 1.038024 1.388000 0.045343 -0.031050 -485058.000000 0 0 1
16.575930 30.348038 6.047347 35.104633 1.070880 1.397666 0.036153 -0.036077 255226.000000 0 0 1
17.137130 31.101238 4.975047 35.856929 1.067177 1.431600 0.053020 -0.035637 -921329.000000 0 0 1
17.131030 32.616838 5.105147 37.193989 1.087177 1.433104 0.052135 -0.030891 -978116.000000 0 0 1
15.856530 33.152538 5.251347 37.122728 1.124667 1.428861 0.050387 -0.022570 -755203.000000 0 0 1
15.906930 34.525738 5.345347 38.387885 1.139058 1.431097 0.044773 -0.031789 833019.000000 0 0 1
14.515730 -34.159970 5.760347 37.560506 -1.168982 1.416827 0.037194 -0.022405 459780.000000 0 0 1
13.544830 -34.254370 4.787047 37.144854 -1.194245 1.441562 0.021350 -0.011354 -672430.000000 0 0 1
12.774330 -33.045470 4.804947 35.752960 -1.201922 1.435995 0.022237 -0.007087 -271055.000000 0 0 1
11.670830 -33.047270 3.766247 35.249326 -1.231313 1.463746 0.011651 -0.006372 101302.000000 0 0 1
10.786030 -31.909870 3.700947 33.886211 -1.244838 1.461361 0.016923 -0.014409 110186.000000 0 0 1
10.069430 -31.882770 2.521247 33.530004 -1.264884 1.495532 0.013443 0.004320 -1235880.000000 0 0 1
9.273930 -30.611570 2.382647 32.074149 -1.276631 1.496442 0.033739 -0.004811 -563938.000000 0 0 1
8.860130 -30.265570 1.111747 31.555390 -1.286008 1.535557 0.040000 0.010780 744422.000000 0 0 1
7.825930 -31.148270 0.557347 32.121186 -1.324644 1.553444 0.033388 0.004491 -40288.600000 0 0 1
8.106330 -31.554570 -0.882453 32.591137 -1.319335 1.597876 0.048415 0.004152 -104115.000000 0 0 1
9.211830 -32.428270 -0.858153 33.722203 -1.294019 1.596247 0.030493 0.001175 -116625.000000 0 0 1
9.417030 -33.076770 -2.109753 34.455831 -1.293433 1.632065 0.038325 0.017630 509435.000000 0 0 1
10.450330 -34.291670 -2.057153 35.907659 -1.274989 1.628118 0.009062 0.015051 468381.000000 0 0 1
10.260730 34.011838 -1.080753 35.542309 1.277798 1.601209 0.001087 0.011946 -3051.440000 0 0 1
11.257930 32.981638 -1.100553 34.867473 1.241858 1.602365 0.003736 0.007995 57487.700000 0 0 1
11.308930 32.169338 0.223447 34.099973 1.232747 1.564244 -0.004784 0.004438 -343879.000000 0 0 1
11.535130 32.951938 1.438747 34.942230 1.234069 1.529610 0.000341 0.006063 -139961.000000 0 0 1
12.754130 33.645538 1.520247 36.013903 1.208459 1.528571 -0.000895 0.005217 484058.000000 0 0 1
14.015730 32.813038 1.988847 35.736419 1.167115 1.515114 0.016891 -0.002174 213264.000000 0 0 1
14.541430 32.086738 0.920947 35.240035 1.145292 1.544660 0.023862 -0.003221 516667.000000 0 0 1
15.758630 31.393038 1.240447 35.148200 1.105567 1.535497 0.038304 -0.011989 498791.000000 0 0 1
16.464430 30.664238 0.072547 34.804859 1.078046 1.568712 0.046572 -0.006794 -830859.000000 0 0 1
17.300430 31.489238 -0.698353 35.935563 1.068408 1.590231 0.027331 0.006608 -259610.000000 0 0 1
16.748730 32.612038 -1.390153 36.687839 1.096348 1.608697 0.036511 0.002612 -879048.000000 0 0 1
17.751830 33.360038 -2.226753 37.854696 1.081777 1.629654 0.019842 0.005649 -982196.000000 0 0 1
18.758430 33.933938 -1.489153 38.802170 1.065812 1.609184 0.019212 0.012261 -473841.000000 0 0 1
19.752430 34.483038 -2.342353 39.808605 1.050605 1.629671 0.021402 0.012217 -350683.000000 0 0 1
20.861930 -33.985970 -1.586253 39.909679 -1.020263 1.610553 0.022695 0.014228 125841.000000 0 0 1
21.887430 34.649138 -0.898153 40.993036 1.007402 1.592708 0.029682 0.005830 628147.000000 0 0 1
22.678730 33.703938 -1.638153 40.656657 0.978504 1.611100 0.029686 0.009286 -305334.000000 0 0 1
23.531030 34.190038 -2.858153 41.603331 0.968005 1.639551 0.025113 0.006872 -91960.200000 0 0 1
22.744430 34.631338 -4.018753 41.626783 0.989685 1.667489 0.018450 -0.004004 653065.000000 0 0 1
23.640930 -34.146970 -4.975153 41.828953 -0.965237 1.690019 0.016233 -0.007618 52569.700000 0 0 1
23.014630 -33.638070 -6.304353 41.242428 -0.970764 1.724259 0.010616 -0.012073 -363037.000000 0 0 1
22.285530 -32.425370 -6.070653 39.810832 -0.968654 1.723881 0.013575 -0.007877 111961.000000 0 0 1
21.722430 -32.098970 -7.326853 39.444780 -0.975857 1.757631 0.013938 -0.018545 -332147.000000 0 0 1
20.807930 -30.865170 -7.236853 37.920980 -0.977627 1.762814 0.015445 -0.018674 -155987.000000 0 0 1
19.599030 -31.087770 -6.548953 37.329080 -1.008293 1.747147 0.022362 -0.008708 -550148.000000 0 0 1
18.908230 -29.880570 -6.574253 35.966519 -1.006612 1.754618 0.021687 -0.015084 5026.300000 0 0 1
17.687030 -29.784470 -5.618453 35.092916 -1.034923 1.731591 0.003662 0.000680 1100820.000000 0 0 1
16.530330 -30.543970 -5.995053 35.243817 -1.074736 1.741730 0.012702 -0.004476 902049.000000 0 0 1
15.525230 -30.699670 -4.986053 34.761520 -1.102589 1.714729 -0.001882 0.000018 1310940.000000 0 0 1
14.190830 -31.472370 -5.276553 34.924658 -1.147196 1.722461 0.007473 0.011063 330571.000000 0 0 1
14.239230 -32.895070 -5.308453 36.235632 -1.162280 1.717824 0.000912 0.026159 -868350.000000 0 0 1
13.065830 -33.543570 -5.672953 36.442687 -1.199359 1.727100 0.015485 0.029417 -664300.000000 0 0 1
13.274630 34.247138 -5.613453 37.156333 1.201014 1.722454 0.010155 0.025432 39960.900000 0 0 1
13.418630 33.698638 -4.320253 36.528378 1.191847 1.689345 0.007042 0.009093 108876.000000 0 0 1
13.918730 32.360838 -4.226053 35.479775 1.164605 1.690191 0.018349 0.007885 325530.000000 0 0 1
12.882430 31.244638 -4.587853 34.106199 1.179724 1.705722 0.014572 0.000583 361408.000000 0 0 1
11.934830 30.885438 -3.596553 33.305940 1.202049 1.678993 0.006096 -0.001119 261096.000000 0 0 1
12.385730 29.857938 -2.734353 32.440398 1.177578 1.655185 0.015165 -0.005376 -459902.000000 0 0 1
11.190730 28.979038 -2.327353 31.151784 1.202272 1.645576 0.002379 -0.002389 -398821.000000 0 0 1
10.309830 29.703438 -1.541153 31.479549 1.236714 1.619773 -0.014230 -0.000292 -595042.000000 0 0 1
9.407930 28.836538 -0.842953 30.344120 1.255434 1.598580 -0.025466 0.008574 -202625.000000 0 0 1
8.279730 29.680038 -0.263353 30.814411 1.298746 1.579343 -0.025019 0.013047 -136988.000000 0 0 1
7.424430 28.935038 0.624047 29.878889 1.319625 1.549909 -0.023045 0.011754 -326387.000000 0 0 1
6.288630 29.695438 0.896647 30.367250 1.362109 1.541265 -0.013551 0.018539 -462674.000000 0 0 1
5.228230 28.928038 1.723747 29.447191 1.391994 1.512226 -0.018819 0.017164 -118834.000000 0 0 1
4.761630 27.891038 0.926847 28.309754 1.401704 1.538051 -0.012549 0.007849 247889.000000 0 0 1
3.529830 27.430938 1.513247 27.698483 1.442819 1.516136 -0.006620 0.002779 612918.000000 0 0 1
3.077030 26.197838 0.712947 26.387556 1.453878 1.543775 -0.002956 -0.003952 -1402710.000000 0 0 1
1.879130 25.694338 1.111147 25.786911 1.497792 1.527693 0.012694 -0.007244 -997745.000000 0 0 1
1.331930 24.778438 0.162747 24.814744 1.517094 1.564238 0.006197 -0.003594 415657.000000 0 1 0
-0.007670 24.142738 0.626747 24.150873 -1.570479 1.544842 0.003965 0.000233 465498.000000 0 1 0
-1.120370 25.004038 0.643747 25.037403 -1.526019 1.545082 0.004063 -0.005092 242387.000000 0 0 1
-2.351670 24.320338 0.855047 24.448728 -1.474400 1.535816 0.003747 0.001567 52135.200000 0 1 0
-3.526770 25.224238 1.235847 25.499561 -1.431880 1.522312 0.012533 -0.012607 -1111790.000000 0 0 1
-4.666170 24.433238 1.461547 24.917712 -1.382092 1.512108 0.005806 -0.010510 -592458.000000 0 1 0
-5.656270 25.165638 2.112347 25.879813 -1.349709 1.489084 0.003976 -0.011281 -78039.000000 0 0 1
-6.752270 25.753338 1.162847 26.649198 -1.314378 1.527147 0.008718 -0.009263 -401761.000000 0 0 1
-6.533170 27.054538 0.633047 27.839380 -1.333851 1.548055 0.009710 -0.010827 -128644.000000 0 0 1
-7.157070 27.036038 -0.607853 27.973925 -1.312009 1.592527 -0.002635 0.000687 -365819.000000 0 0 1
-6.808170 28.244638 -1.530253 29.093855 -1.334265 1.623418 -0.010882 0.008250 382337.000000 0 0 1
-7.395370 29.529038 -1.174453 30.463666 -1.325400 1.609358 -0.004936 0.002177 162606.000000 0 0 1
-6.849070 30.481038 -2.046453 31.308009 -1.349768 1.636208 -0.021546 0.009224 -267343.000000 0 0 1
-7.243470 31.945238 -1.796053 32.805364 -1.347820 1.625572 -0.023478 0.012598 -727170.000000 0 0 1
-7.152170 32.832038 -2.878153 33.725065 -1.356306 1.656242 -0.025143 0.017333 483516.000000 0 0 1
-5.911070 33.157838 -3.521653 33.864214 -1.394379 1.674978 -0.025558 0.016644 887499.000000 0 0 1
-4.760070 33.793438 -2.670853 34.231392 -1.430859 1.648899 -0.027369 0.015466 -98652.800000 0 0 1
-4.935970 -34.153970 -2.409653 34.592831 1.427269 1.640510 -0.029553 0.018050 -266047.000000 0 0 1
-4.067270 -33.721270 -1.419453 33.995318 1.450762 1.612563 -0.023635 0.018650 -368609.000000 0 0 1
-3.954570 -32.168070 -1.483153 32.444154 1.448475 1.616526 -0.016028 0.008022 -117988.000000 0 0 1
-5.133970 -31.524070 -1.094153 31.958126 1.409355 1.605040 -0.022669 0.003733 -485158.000000 0 0 1
-5.173470 -30.229970 -1.673453 30.715083 1.401301 1.625306 -0.014707 0.010088 182835.000000 0 0 1
-6.543870 -29.610570 -1.324153 30.353937 1.353295 1.614434 0.000374 0.006916 202567.000000 0 0 1
-6.631170 -29.335570 0.059147 30.075764 1.348487 1.568830 -0.007543 0.002138 -113123.000000 0 0 1
-7.972570 -29.010870 0.369447 30.088685 1.302604 1.558517 -0.004289 0.005486 23067.400000 0 0 1
-8.104970 -28.447870 1.789947 29.634031 1.293244 1.510358 -0.001284 0.001532 -36833.100000 0 0 1
-7.699570 -27.067870 1.800547 28.199201 1.293662 1.506902 -0.000644 -0.001572 -7738.400000 0 0 1
-7.343570 -26.564970 3.083947 27.733309 1.301094 1.459366 0.006191 0.000396 243973.000000 0 0 1
-8.277870 -25.433870 3.592147 26.987190 1.256143 1.437294 0.000385 0.002708 -106070.000000 0 0 1
-7.861770 -24.153070 3.276847 25.610856 1.256114 1.442497 0.004751 -0.000484 -698450.000000 0 0 1
-8.763670 -23.148270 3.649447 25.019249 1.208883 1.424408 0.002606 0.000908 -708774.000000 0 0 1
-8.140170 -21.805270 3.971847 23.611602 1.213506 1.401777 -0.002190 0.009187 89844.800000 0 1 0
-7.395970 -21.945670 5.190247 23.732920 1.245738 1.350320 -0.003518 0.007756 -627424.000000 0 1 0
-6.622970 -20.844470 5.464947 22.543765 1.263151 1.325942 -0.007647 0.011849 -484071.000000 0 1 0
-7.358870 -19.490770 5.889747 21.650225 1.209786 1.295283 -0.003504 -0.000391 411824.000000 0 1 0
-7.784470 -19.455670 7.255347 22.175688 1.190192 1.237483 -0.001293 -0.002025 -244793.000000 0 1 0
-8.721870 -18.484070 7.566747 21.794209 1.129914 1.216222 0.003278 -0.016548 -591712.000000 0 1 0
-26.170220 29.004938 -5.625953 39.469205 -0.836730 1.713824 0.046173 -0.011106 -563107.000000 0 0 1
-25.459370 29.903538 -4.883353 39.575854 -0.865500 1.694504 0.046032 -0.018198 -614779.000000 0 0 1
-24.487070 29.264438 -4.105153 38.378069 -0.874044 1.677967 0.032693 -0.013579 -213075.000000 0 0 1
-23.562270 30.248338 -3.338953 38.487545 -0.909016 1.657660 0.024370 -0.016597 -340926.000000 0 0 1
-24.180670 31.073938 -2.330553 39.442691 -0.909512 1.629918 0.025067 -0.012195 252016.000000 0 0 1
-23.382770 32.186638 -1.923053 39.830035 -0.942522 1.619097 0.028794 -0.008151 554566.000000 0 0 1
-22.171370 31.856138 -0.975753 38.824416 -0.962771 1.595931 0.025164 -0.006044 773765.000000 0 0 1
-21.219270 31.006038 -1.651753 37.607979 -0.970645 1.614731 0.021175 -0.016934 -543039.000000 0 0 1
-20.006870 31.098538 -0.973553 36.991103 -0.999119 1.597118 0.012726 -0.007720 -782211.000000 0 0 1
-18.852770 30.408438 -1.698353 35.818772 -1.015812 1.618229 0.025119 -0.013458 472673.000000 0 0 1
-17.569570 30.459938 -1.049653 35.179531 -1.047604 1.600638 0.016664 -0.008463 495294.000000 0 0 1
-16.656270 29.576838 -1.638853 33.983915 -1.057911 1.619039 0.011949 -0.008772 -702387.000000 0 0 1
-15.237370 29.770838 -1.136853 33.463004 -1.097736 1.604776 0.017226 -0.003824 -620862.000000 0 0 1
-14.977370 29.077738 0.077047 32.708445 -1.095157 1.568441 0.007459 -0.010755 -392593.000000 0 0 1
-13.837770 29.598838 0.688047 32.681011 -1.133476 1.549741 0.012241 -0.012208 -191708.000000 0 0 1
-13.518670 28.905438 2.055547 31.976617 -1.133332 1.506469 0.004586 -0.009691 -11427.400000 0 0 1
-14.493470 29.282738 3.009347 32.811516 -1.111197 1.478951 -0.010595 0.000427 -242046.000000 0 0 1
-14.302570 28.770938 4.306047 32.417162 -1.109456 1.437570 -0.004090 -0.010066 1042430.000000 0 0 1
-13.090770 29.341038 5.188647 32.545151 -1.151141 1.410684 0.009271 -0.005714 1001680.000000 0 0 1
-13.346870 30.613138 5.750747 33.887671 -1.159658 1.400271 0.000733 -0.008852 -141481.000000 0 0 1
-13.243970 31.715538 4.865947 34.712469 -1.175222 1.430154 0.005900 0.005998 -118555.000000 0 0 1
-13.067470 33.034638 5.622047 35.967395 -1.194116 1.413843 0.015199 0.009155 -420734.000000 0 0 1
-14.149470 33.463438 6.382647 36.888309 -1.170762 1.396895 0.017915 0.016983 -426171.000000 0 0 1
-13.803370 34.613938 7.154047 37.945199 -1.191342 1.381125 0.028343 0.006619 22462.700000 0 0 1
-14.869570 -34.271470 8.166847 38.240492 1.161432 1.355573 0.013152 0.011582 -261787.000000 0 0 1
-15.070170 34.066838 9.096247 38.345811 -1.154305 1.331297 -0.002092 0.012707 224975.000000 0 0 1
-16.166770 34.283838 9.982147 39.196802 -1.130161 1.313293 0.014779 0.008826 -209843.000000 0 0 1
-16.304370 33.342738 11.261047 38.786362 -1.115993 1.276219 0.012332 0.010644 71203.100000 0 0 1
-15.674570 33.775338 12.444247 39.259711 -1.136293 1.248261 0.022296 0.005736 692298.000000 0 0 1
-14.247870 33.615638 12.462447 38.578822 -1.169903 1.241858 0.026652 0.007112 494855.000000 0 0 1
-13.606870 33.715938 13.888947 38.920615 -1.187213 1.205899 0.039781 0.005079 10480.300000 0 0 1
-13.889270 32.644938 14.801347 38.440651 -1.168532 1.175541 0.031930 0.009594 -90390.600000 0 0 1
-12.849770 31.709038 14.840447 37.293680 -1.185781 1.161532 0.022562 0.012669 -374685.000000 0 0 1
-13.161970 30.344838 14.164947 35.981834 -1.161541 1.166176 0.016353 0.010222 -47140.600000 0 0 1
-13.202270 30.424638 12.781247 35.543196 -1.161383 1.202960 0.011416 0.015345 598668.000000 0 0 1
-14.449870 29.941338 12.272847 35.438753 -1.121160 1.217160 -0.004926 0.007425 407692.000000 0 0 1
-14.518270 29.905738 10.714047 34.927412 -1.118842 1.259018 -0.000662 0.011606 -110383.000000 0 0 1
-13.755770 28.863338 10.168947 33.551766 -1.126057 1.262871 -0.004274 0.011310 42942.200000 0 0 1
-14.210270 28.429138 8.893347 33.003625 -1.107270 1.297958 -0.007410 0.008310 -137084.000000 0 0 1
-13.442470 27.170038 8.433347 31.464779 -1.111355 1.299454 0.001582 0.007248 555628.000000 0 0 1
-12.096570 27.433238 8.041547 31.041521 -1.155497 1.308750 0.014685 0.005686 741712.000000 0 0 1
-11.419270 26.214038 7.746347 29.624001 -1.159968 1.306232 0.022039 -0.003861 -901027.000000 0 0 1
-10.232870 26.272738 6.874647 29.021185 -1.199386 1.331639 0.027772 -0.013656 -998982.000000 0 0 1
-10.690770 26.376638 5.500847 28.987565 -1.185719 1.379873 0.025080 -0.018401 1045440.000000 0 0 1
-9.604870 26.192738 4.578847 28.271521 -1.219322 1.408120 0.038325 -0.010349 328984.000000 0 0 1
-9.938270 26.592138 3.180747 28.566207 -1.213140 1.459218 0.018902 -0.010849 -138520.000000 0 0 1
-9.784070 28.005038 3.067047 29.823094 -1.234684 1.467773 0.019248 -0.008478 142731.000000 0 0 1
-9.660270 28.380438 1.707647 30.028089 -1.242713 1.513897 0.007483 -0.003070 -347880.000000 0 0 1
-9.185870 29.795438 1.578547 31.219227 -1.271744 1.520211 0.009063 -0.007826 -250890.000000 0 0 1
-10.060970 30.760838 2.111947 32.433202 -1.254693 1.505633 0.003313 -0.014624 -221771.000000 0 0 1
-9.626270 32.062538 1.843247 33.527138 -1.279125 1.515791 0.001952 -0.008861 -308256.000000 0 0 1
-10.363570 33.189638 2.596647 34.866864 -1.268136 1.496254 0.002177 0.002365 611659.000000 0 0 1
-11.609970 33.691338 2.075247 35.695998 -1.238942 1.512627 0.024127 0.002853 541909.000000 0 0 1
-11.499970 34.521138 0.920747 36.397885 -1.249230 1.545497 0.022615 0.002559 188730.000000 0 0 1
-12.841270 -34.202870 0.361347 36.535806 1.211636 1.560906 0.028671 0.001195 1120530.000000 0 0 1
-13.758170 34.202438 -0.264453 36.866841 -1.188346 1.577970 0.018720 -0.000231 226894.000000 0 0 1
-13.708770 34.187938 -1.654653 36.871172 -1.189443 1.615688 0.023467 0.001440 -253719.000000 0 0 1
-12.440370 33.723238 -2.388653 36.023954 -1.217388 1.637152 0.020670 0.003307 -201340.000000 0 0 1
-12.364670 32.373438 -2.663753 34.756584 -1.205956 1.647512 0.011693 0.008235 -67622.600000 0 0 1
-11.013570 32.071738 -2.932553 34.036671 -1.240010 1.657062 -0.006187 0.014738 20272.400000 0 0 1
-10.679870 30.556038 -3.031353 32.510309 -1.234551 1.664175 -0.014281 -0.000781 -13287.500000 0 0 1
-11.005670 29.826138 -4.217853 32.070447 -1.217301 1.702697 -0.010175 0.002386 -298224.000000 0 0 1
-10.049070 29.993838 -5.240453 32.063631 -1.247513 1.734972 -0.018344 0.004771 -156588.000000 0 0 1
-10.353370 29.306738 -6.548453 31.764121 -1.231206 1.778444 -0.003421 -0.003756 -177430.000000 0 0 1
-10.432470 27.907538 -6.425353 30.478718 -1.213058 1.783204 0.000250 0.001048 126632.000000 0 0 1
-10.770070 27.209438 -7.619553 30.239139 -1.193898 1.825518 -0.006445 -0.001702 -151424.000000 0 0 1
-11.285070 25.834338 -7.408053 29.148672 -1.158953 1.827762 0.009578 -0.006603 12668.600000 0 0 1
-10.274570 24.984838 -6.882453 27.877896 -1.180645 1.820254 -0.009317 0.001864 22329.000000 0 0 1
-10.730670 23.660738 -6.716053 26.834365 -1.145017 1.823764 0.012221 -0.005629 -411215.000000 0 0 1
-9.985570 22.627538 -5.827753 25.410230 -1.155199 1.802203 -0.000254 -0.007723 -813062.000000 0 0 1
-8.699470 22.342738 -6.337353 24.800015 -1.199492 1.829201 -0.001508 -0.009846 118024.000000 0 1 0
-8.111070 21.180738 -5.759953 23.400645 -1.205078 1.819497 0.008838 -0.006401 -253036.000000 0 1 0
-7.788470 21.150038 -4.226653 22.931397 -1.217958 1.756174 0.004240 -0.013188 -277278.000000 0 1 0
-8.890970 21.107638 -3.320253 23.143159 -1.172131 1.714759 -0.000695 -0.009778 311748.000000 0 1 0
-9.632570 19.896238 -3.320453 22.353346 -1.119917 1.719892 0.004865 -0.013643 102143.000000 0 1 0
-11.032470 19.936638 -2.632953 22.937248 -1.065364 1.685839 0.015497 -0.011503 378655.000000 0 1 0
-11.067970 19.741238 -1.230053 22.665601 -1.059812 1.625093 0.024381 -0.011502 156896.000000 0 1 0
-11.110770 18.379538 -0.856253 21.493948 -1.027061 1.610644 0.029721 -0.019715 -338341.000000 0 1 0
-10.813970 18.212338 0.634447 21.190416 -1.034969 1.540852 0.025458 -0.017512 -456490.000000 0 1 0
-11.852270 18.587538 1.467247 22.093567 -1.003155 1.504337 0.035020 -0.007745 -306771.000000 0 1 0
-11.420070 18.393538 2.775847 21.827633 -1.015170 1.443280 0.027638 -0.016224 -160388.000000 0 1 0
-12.525670 18.454538 3.831847 22.630630 -0.974488 1.400655 0.031665 -0.011279 -91063.000000 0 1 0
-13.131070 17.181638 4.052047 22.001199 -0.918237 1.385565 0.014537 -0.010782 269749.000000 0 1 0
-14.412270 17.398638 4.619247 23.059999 -0.879003 1.369118 0.014807 -0.014744 79771.500000 0 1 0
-15.024770 16.126338 5.210647 22.648473 -0.820746 1.338651 0.006277 -0.004705 -483213.000000 0 1 0
-14.350370 15.703738 6.374747 22.207609 -0.830399 1.279648 0.008907 -0.001289 166196.000000 0 1 0
-14.857270 16.365738 7.548947 23.357278 -0.833673 1.241693 0.007826 0.008545 -504385.000000 0 1 0
-13.884670 16.164838 8.737447 23.031045 -0.861133 1.181674 0.001795 0.012641 314165.000000 0 1 0
-12.612670 16.740138 8.694347 22.691482 -0.925098 1.177587 0.011817 -0.009499 33943.700000 0 1 0
-11.693770 16.127638 7.754547 21.377043 -0.943438 1.199578 0.012811 -0.008884 -604300.000000 0 1 0
-10.593470 17.129438 7.388347 21.452900 -1.016931 1.219198 0.021697 -0.019274 175936.000000 0 1 0
-9.694370 17.344238 8.490847 21.607820 -1.061116 1.166956 0.025633 -0.009319 267078.000000 0 1 0
-8.798870 18.409238 8.207047 21.992630 -1.124936 1.188370 0.020682 -0.018988 642738.000000 0 1 0
-7.587170 18.549538 9.206447 22.054686 -1.182537 1.140173 0.023182 -0.011711 380865.000000 0 1 0
-6.534970 17.585838 8.947847 20.785367 -1.215006 1.125763 0.019090 -0.011850 743395.000000 0 1 0
-5.411170 17.952138 9.761247 21.138637 -1.278035 1.090804 0.022797 -0.007607 686781.000000 0 1 0
-4.428670 19.019138 9.259047 21.611818 -1.342020 1.128047 0.019186 -0.006932 -958177.000000 0 1 0
-4.886370 20.361038 9.467947 22.980220 -1.335264 1.146144 0.027032 -0.011254 74108.900000 0 1 0
-4.375370 21.289538 8.513947 23.342570 -1.368101 1.197444 0.022731 -0.016395 1690940.000000 0 1 0
-2.857970 21.816338 8.623647 23.632348 -1.440537 1.197262 0.017592 -0.013021 1748310.000000 0 1 0
-1.849170 20.838338 8.419647 22.550969 -1.482289 1.188167 0.005358 -0.001317 -805773.000000 0 1 0
-0.630170 21.478938 8.377747 23.063576 -1.541466 1.199047 0.004961 -0.005518 -518875.000000 0 1 0
0.598030 20.568738 8.116047 22.120146 1.541730 1.195114 0.000381 -0.002454 183515.000000 0 1 0
1.083330 19.906938 9.237447 21.972488 1.516430 1.136899 -0.003835 -0.008047 -578853.000000 0 1 0
2.476930 19.843438 9.343247 22.072460 1.446615 1.133713 -0.002667 0.003334 -178310.000000 0 1 0
3.131930 19.476838 10.705347 22.444613 1.411358 1.073595 -0.013089 -0.001079 -1194370.000000 0 1 0
3.541730 18.156138 10.827447 21.434151 1.378145 1.041241 -0.009921 -0.001857 -74783.200000 0 1 0
4.262830 17.884538 11.984447 21.946649 1.336809 0.993128 -0.018612 0.002230 -659022.000000 0 1 0
5.675430 18.515838 12.004247 22.784835 1.273371 1.015903 -0.006231 0.005278 -328637.000000 0 1 0
6.687430 17.824038 11.221247 22.098291 1.211858 1.038181 -0.019526 0.008000 470024.000000 0 1 0
7.228630 16.770038 12.020747 21.862883 1.163817 0.988642 -0.020576 0.006753 -1355770.000000 0 1 0
8.436830 16.171038 11.321147 21.467439 1.089920 1.015302 -0.015405 0.000666 -184337.000000 0 1 0
9.603830 16.955838 11.265247 22.508660 1.055447 1.046637 0.001150 -0.003215 -504274.000000 0 1 0
10.621730 16.402038 10.510647 22.188324 0.996120 1.077307 0.004497 -0.006949 -240366.000000 0 1 0
11.804130 17.393938 10.326647 23.420636 0.974554 1.114172 0.008470 -0.004053 -287836.000000 0 1 0
12.729330 16.881138 9.414647 23.143990 0.924704 1.151863 0.008807 -0.006956 -766357.000000 0 1 0
13.570130 17.966938 9.026447 24.257701 0.923922 1.189519 0.012155 -0.004874 -600550.000000 0 1 0
14.452330 17.524738 7.909247 24.052910 0.881186 1.235735 0.011643 -0.008637 -1116790.000000 0 1 0
15.577130 16.871738 8.404747 24.452859 0.825274 1.219929 0.018037 -0.010387 -1083760.000000 0 1 0
16.468730 16.673738 7.375647 24.568939 0.791584 1.265892 0.022944 -0.005938 -622155.000000 0 1 0
17.935130 16.503738 7.836347 25.601769 0.743859 1.259717 0.021563 -0.006353 -171161.000000 0 0 1
18.188330 15.280338 8.504547 25.231556 0.698729 1.227004 0.024778 -0.008671 -220549.000000 0 0 1
19.115030 15.462038 9.514347 26.362508 0.680141 1.201559 0.024072 -0.010331 -562940.000000 0 0 1
19.400030 14.257138 10.414047 26.231270 0.633769 1.162541 0.022776 -0.017481 403368.000000 0 0 1
20.222430 13.206838 9.847247 26.083242 0.578536 1.183667 0.032033 -0.021703 655104.000000 0 0 1
20.352630 12.080638 10.709247 25.978055 0.535676 1.145883 0.033918 -0.029072 -637571.000000 0 0 1
21.175430 10.997538 10.096547 25.909167 0.479010 1.170501 0.030946 -0.025347 353193.000000 0 0 1
22.601930 11.273638 10.210647 27.243338 0.462680 1.186621 0.023838 -0.032315 1760510.000000 0 0 1
23.432030 10.335638 9.566747 27.338766 0.415420 1.213296 0.032062 -0.027723 -118116.000000 0 0 1
23.682230 8.980438 10.265947 27.329215 0.362453 1.185709 0.044195 -0.032706 -1420770.000000 0 0 1
22.582530 8.212038 10.022847 26.035854 0.348779 1.175628 0.039722 -0.026343 -484905.000000 0 0 1
22.666130 6.811538 10.312747 25.816725 0.291930 1.159869 0.035875 -0.025362 -505313.000000 0 0 1
23.706330 5.973338 9.558247 26.249399 0.246834 1.198096 0.044740 -0.020335 32437.600000 0 0 1
23.375730 5.830338 8.211147 25.452712 0.244431 1.242317 0.051673 -0.015388 111215.000000 0 0 1
24.464030 5.345838 7.473047 26.132608 0.215137 1.280782 0.038447 -0.013154 -229921.000000 0 0 1
24.101230 5.141038 5.966147 25.355364 0.210160 1.333268 0.036694 -0.015097 -237110.000000 0 0 1
23.071530 4.188238 5.798147 24.154821 0.179577 1.328388 0.026541 -0.010384 572580.000000 0 1 0
22.988930 3.789538 4.444847 23.719363 0.163373 1.382289 0.027036 -0.012071 -209663.000000 0 1 0
21.965330 2.670838 4.262247 22.533882 0.120999 1.380502 0.013567 -0.008908 -249800.000000 0 1 0
22.534830 1.401338 4.656547 23.053541 0.062105 1.367409 0.018906 -0.007143 863070.000000 0 1 0
21.773230 0.332738 4.105947 22.159492 0.015281 1.384429 0.005812 -0.005304 -427282.000000 0 1 0
22.374430 -1.065162 4.315147 22.811624 -0.047570 1.380485 0.010008 -0.003688 -479043.000000 0 1 0
22.162630 -1.580662 5.630947 22.921349 -0.071200 1.322592 0.004764 -0.005870 603807.000000 0 1 0
22.423230 -2.927662 5.716347 23.324860 -0.129829 1.323199 0.006346 -0.005044 -769698.000000 0 1 0
22.087330 -3.434862 7.145747 23.467214 -0.154277 1.261384 0.015622 -0.002189 -279274.000000 0 1 0
22.207630 -4.806462 7.358847 23.883751 -0.213145 1.257589 0.013284 -0.006507 485921.000000 0 1 0
21.947330 -5.078662 8.730947 24.160040 -0.227400 1.201049 0.017663 -0.002605 -126844.000000 0 1 0
21.932430 -6.580062 9.022947 24.611832 -0.291471 1.195433 0.034301 -0.014083 730791.000000 0 1 0
20.738530 -7.217862 8.513547 23.551320 -0.334929 1.200932 0.035090 -0.016273 1018770.000000 0 1 0
20.507530 -8.418462 9.233347 24.014246 -0.389530 1.176136 0.029949 -0.009676 19573.200000 0 1 0
-25.164270 -33.108970 5.148047 41.904019 0.920898 1.447632 0.031859 -0.014443 809670.000000 0 0 1
-26.186290 -33.970770 5.759347 43.277074 0.914086 1.437320 0.029715 -0.020400 1003070.000000 0 0 1
-26.013230 -34.093870 7.143547 43.475400 0.919034 1.405735 0.025198 0.001547 -232079.000000 0 0 1
-26.822020 34.078138 7.750547 44.054639 -0.903987 1.393946 0.018854 -0.001511 -99170.200000 0 0 1
-28.219100 34.177938 7.581947 44.965931 -0.880608 1.401372 0.027564 -0.007715 -139966.000000 0 0 1
-28.772250 32.893638 7.795447 44.391472 -0.852133 1.394274 0.022069 -0.009057 1239820.000000 0 0 1
-30.354720 32.789838 7.875247 45.371820 -0.823943 1.396341 0.020616 -0.006376 1334910.000000 0 0 1
-30.959470 32.851438 6.587947 45.619149 -0.815039 1.425878 0.006410 -0.005252 -79422.100000 0 0 1
-32.362890 32.918138 6.737447 46.651406 -0.793903 1.425868 -0.002378 -0.000073 -268914.000000 0 0 1
-33.029380 32.894038 5.352647 46.921301 -0.783345 1.456470 -0.013571 0.004867 -589768.000000 0 0 1
-32.874840 31.674638 4.616247 45.884066 -0.766807 1.470019 -0.023094 0.002087 98015.000000 0 0 1
-33.622850 31.591938 3.434447 46.263830 -0.754266 1.496492 -0.016605 0.008037 -343232.000000 0 0 1
-33.293000 30.309638 2.640247 45.100653 -0.738526 1.512222 -0.016093 0.000593 -76133.800000 0 0 1
-33.393220 29.013238 3.267447 44.357089 -0.715328 1.497067 -0.009260 -0.004379 550833.000000 0 0 1
-32.623200 28.071238 2.512347 43.111245 -0.710540 1.512487 -0.018285 0.004372 -127101.000000 0 0 1
-32.717310 26.671038 3.132647 42.327061 -0.683939 1.496718 -0.006663 0.005098 10509.100000 0 0 1
-34.061510 26.176538 3.129247 43.071914 -0.655241 1.498081 0.013261 0.001075 469929.000000 0 0 1
-34.246942 25.272438 4.197247 42.768751 -0.635743 1.472500 0.008392 0.001294 1093190.000000 0 0 1
34.229010 24.880938 4.223947 42.526791 0.628550 1.471308 0.013697 -0.004245 1067590.000000 0 0 1
33.776126 24.125438 3.165047 41.627887 0.620242 1.494691 0.013097 -0.006416 -171856.000000 0 0 1
34.101973 22.768538 3.213747 41.130027 0.588690 1.492580 0.019218 -0.004895 -1092160.000000 0 0 1
33.423846 21.931838 2.131547 40.033767 0.580703 1.517527 0.021597 -0.006703 -1112670.000000 0 0 1
32.055486 21.846138 2.311447 38.860658 0.598209 1.511281 0.030180 -0.016902 -521262.000000 0 0 1
31.487016 20.905938 3.233047 37.933403 0.586122 1.485463 0.021587 -0.009935 -427595.000000 0 0 1
31.814916 19.416838 3.067147 37.397993 0.547963 1.488690 0.016846 -0.008527 -936234.000000 0 0 1
31.024026 18.769638 2.130747 36.322577 0.544090 1.512101 0.015776 -0.013181 12821.100000 0 0 1
31.241236 17.420038 2.017747 35.826581 0.508658 1.514447 0.001572 -0.004435 -202357.000000 0 0 1
30.499946 16.501438 3.057647 34.812259 0.495932 1.482851 0.010719 -0.002162 -839545.000000 0 0 1
29.138116 16.381838 2.855947 33.549231 0.512172 1.485566 0.009592 -0.001062 -856605.000000 0 0 1
28.601966 15.458838 3.798747 32.733448 0.495506 1.454483 0.014451 -0.006173 -62833.100000 0 0 1
27.059466 15.456538 3.726747 31.384836 0.518979 1.451772 0.000646 0.002201 -196311.000000 0 0 1
26.618356 15.058838 2.445147 30.680356 0.514841 1.491014 0.006337 -0.002352 618742.000000 0 0 1
25.221436 15.368738 2.342247 29.627776 0.547268 1.491658 -0.008369 0.005605 282125.000000 0 0 1
24.651366 14.685038 1.104647 28.715161 0.537258 1.532318 -0.003155 -0.001048 -404100.000000 0 0 1
25.173366 15.120338 -0.152953 29.365735 0.540896 1.576005 0.016981 -0.000553 442249.000000 0 0 1
26.452876 14.578938 -0.451553 30.207681 0.503709 1.585745 0.027269 -0.001180 -489988.000000 0 0 1
27.203246 15.312438 -1.583053 31.256894 0.512686 1.621465 0.036867 -0.000965 -138565.000000 0 0 1
27.495756 16.667038 -1.486753 32.187221 0.544942 1.617004 0.044548 -0.011820 298303.000000 0 0 1
27.937416 17.136838 -0.233953 32.775375 0.550215 1.577934 0.021865 -0.006650 -966346.000000 0 0 1
28.553006 18.494538 -0.336053 34.021097 0.574775 1.580674 0.039650 -0.008206 573182.000000 0 0 1
29.790996 18.490538 -1.103753 35.080219 0.555483 1.602265 0.017123 -0.002790 966425.000000 0 0 1
30.383966 19.757338 -1.246453 36.264190 0.576555 1.605175 0.011841 0.002912 -142741.000000 0 0 1
29.901156 20.754538 -2.338453 36.473255 0.606759 1.634955 0.023976 -0.002421 -317380.000000 0 0 1
30.700146 21.945638 -2.406853 37.814058 0.620615 1.634489 -0.018225 0.007703 497951.000000 0 0 1
30.253426 22.974338 -3.309253 38.131892 0.649488 1.657690 0.005901 0.003117 -654918.000000 0 0 1
31.293136 24.065838 -3.413453 39.624192 0.655579 1.657049 -0.015435 0.002975 -498970.000000 0 0 1
31.502096 24.914438 -2.269453 40.227624 0.669156 1.627242 -0.002517 0.004736 477543.000000 0 0 1
32.375376 24.375138 -1.259153 40.545010 0.645349 1.601857 0.003453 0.012477 166919.000000 0 0 1
32.576936 25.266438 0.010247 41.226809 0.659680 1.570548 0.008893 -0.004539 156626.000000 0 0 1
32.925496 26.620738 -0.237253 42.341567 0.679911 1.576400 0.022673 -0.007123 -153888.000000 0 0 1
34.022909 27.054538 0.526047 43.471636 0.671799 1.558695 0.012127 -0.002658 11969.700000 0 0 1
34.433583 28.502538 0.166847 44.700047 0.691437 1.567064 -0.003032 -0.014083 -259429.000000 0 0 1
34.959034 28.769238 -1.112853 45.288426 0.688574 1.595371 -0.016763 -0.005586 392454.000000 0 0 1
33.999944 28.678738 -2.175153 44.533106 0.700705 1.619659 -0.014746 -0.004942 65942.600000 0 0 1
34.615163 28.044438 -3.436053 44.682284 0.680916 1.647772 -0.018654 -0.007216 480122.000000 0 0 1
-34.389108 28.832938 -4.101953 45.064122 -0.697740 1.661947 -0.018861 -0.004056 606710.000000 0 0 1
-33.919480 28.172438 -5.275353 44.407733 -0.693104 1.689871 -0.010334 -0.009518 -438467.000000 0 0 1
-34.850001 28.143038 -6.472253 45.259730 -0.679326 1.714291 -0.023477 -0.009472 -765723.000000 0 0 1
34.061416 27.311738 -6.325353 44.114864 0.675861 1.714676 -0.026844 0.000497 -525283.000000 0 0 1
33.125146 27.507138 -7.393553 43.687328 0.693005 1.740853 -0.036263 0.001615 -147426.000000 0 0 1
31.870686 26.669738 -7.213853 42.178848 0.696787 1.742671 -0.034188 0.011702 -822069.000000 0 0 1
31.771516 25.268738 -7.418753 41.267133 0.671885 1.751553 -0.030103 0.010096 -573654.000000 0 0 1
32.752906 24.605038 -6.682753 41.506866 0.644289 1.732504 -0.029247 0.008532 -295707.000000 0 0 1
32.797906 23.132938 -7.100553 40.758476 0.614286 1.745900 -0.027262 0.011183 150118.000000 0 0 1
31.922536 22.323738 -6.311053 39.461716 0.610262 1.731415 -0.018593 0.010088 551592.000000 0 0 1
32.192686 20.929438 -6.502353 38.944718 0.576467 1.738546 -0.002615 0.003117 -79543.700000 0 0 1
31.006886 20.099238 -5.957153 37.428519 0.575122 1.730637 0.006933 -0.000343 107913.000000 0 0 1
30.000786 19.916338 -6.949353 36.674258 0.586057 1.761438 -0.000375 -0.004189 346259.000000 0 0 1
28.941096 19.151438 -6.355353 35.281088 0.584583 1.751920 0.047863 -0.013954 415663.000000 0 0 1
27.674636 19.012938 -7.223453 34.344659 0.601959 1.782701 0.040518 -0.019388 120925.000000 0 0 1
27.744586 17.784238 -7.938753 33.897861 0.570021 1.807188 0.035401 -0.016972 793643.000000 0 0 1
26.568526 17.593738 -8.765653 33.049401 0.584905 1.839238 0.049755 -0.012829 791224.000000 0 0 1
26.580746 16.374538 -9.619053 32.667840 0.552123 1.869677 0.048540 -0.017174 -841590.000000 0 0 1
25.660816 16.468638 -10.655353 32.299072 0.570576 1.906990 0.037373 -0.016737 -136367.000000 0 0 1
25.934336 15.481938 -11.658153 32.375805 0.538186 1.939159 0.028323 -0.006429 307938.000000 0 0 1
24.985716 15.605838 -12.883153 32.152820 0.558305 1.983061 0.029947 0.001849 -479335.000000 0 0 1
23.605266 15.408738 -12.742053 30.935380 0.578318 1.995326 0.030617 0.006393 15715.300000 0 0 1
22.964566 15.683238 -13.994453 31.131655 0.599179 2.037030 0.017269 0.008572 -245437.000000 0 0 1
22.894166 14.410838 -14.864553 30.866973 0.561796 2.073240 0.011881 0.005068 -651628.000000 0 0 1
24.151066 13.964938 -15.320053 31.827622 0.524260 2.072984 0.027943 -0.000618 332781.000000 0 0 1
24.579266 14.551738 -16.575153 33.024674 0.534541 2.096593 0.040358 -0.008385 -770525.000000 0 0 1
25.852196 13.962138 -17.141153 34.016121 0.495192 2.098919 0.061166 -0.004774 -482517.000000 0 0 1
25.766406 12.663638 -17.674253 33.714309 0.456807 2.122614 0.066450 -0.005326 335515.000000 0 0 1
27.096736 12.212038 -17.905253 34.698200 0.423422 2.113004 0.064306 0.001765 520479.000000 0 0 1
27.160006 10.750338 -18.402953 34.523968 0.376893 2.132996 0.042898 0.003198 -433011.000000 0 0 1
26.813116 10.620038 -19.750553 34.954438 0.377119 2.171274 0.043736 -0.007881 -115782.000000 0 0 1
27.067966 9.311938 -20.216653 35.044258 0.331338 2.185711 0.016551 0.004981 -216281.000000 0 0 1
28.491566 9.138638 -20.759353 36.417507 0.310382 2.177348 0.008276 0.003371 -1217020.000000 0 0 1
28.582316 9.764038 -22.031353 37.385368 0.329182 2.200994 0.009417 -0.002445 468647.000000 0 0 1
29.335826 9.084138 -23.052453 38.399581 0.300296 2.214711 -0.018015 -0.001448 -647305.000000 0 0 1
30.811616 8.838138 -22.816953 39.345670 0.279344 2.189415 -0.030599 0.005106 -1462260.000000 0 0 1
31.615406 9.962838 -23.015353 40.354659 0.305275 2.177700 -0.030393 0.011637 524505.000000 0 0 1
32.988116 9.537338 -22.960153 41.307932 0.281440 2.160156 -0.043510 0.011643 992095.000000 0 0 1
34.043767 10.679938 -22.989453 42.444718 0.303989 2.143175 -0.009853 0.011569 84659.100000 0 0 1
33.851406 11.448738 -21.851253 41.886377 0.326129 2.119614 -0.019078 0.010648 272454.000000 0 0 1
34.884629 12.382738 -21.679953 42.898600 0.341089 2.100615 -0.032590 0.007538 -146080.000000 0 0 1
34.668284 13.163238 -20.318553 42.284801 0.362877 2.072040 -0.042534 0.013814 -78195.300000 0 0 1
34.995541 12.397738 -19.192053 41.793860 0.340470 2.047899 -0.040820 0.021202 234155.000000 0 0 1
34.406258 12.849538 -18.028253 40.913557 0.357424 2.027111 -0.034766 0.016642 -370564.000000 0 0 1
34.920552 11.916438 -16.872153 40.572354 0.328853 1.999677 -0.055848 0.021223 69068.900000 0 0 1
34.231002 10.694038 -16.588553 39.513340 0.302801 2.004045 -0.054592 0.024021 487100.000000 0 0 1
-34.969056 10.011838 -15.677853 39.608924 -0.278846 1.977753 -0.047961 0.012451 -146748.000000 0 0 1
34.331376 8.722138 -15.219553 38.553260 0.248794 1.976611 -0.014941 0.014465 -327403.000000 0 0 1
33.293236 9.131938 -14.364553 37.392142 0.267704 1.965094 -0.004436 0.010834 256438.000000 0 0 1
33.603696 8.771238 -13.027853 37.092694 0.255323 1.929675 -0.015272 0.015876 135104.000000 0 0 1
32.369186 9.080238 -12.119453 35.736481 0.273492 1.916792 -0.000323 0.020547 241881.000000 0 0 1
32.372936 10.479438 -11.839853 36.027875 0.313065 1.905649 0.000482 0.017272 954528.000000 0 0 1
31.304326 11.009038 -11.001053 34.959733 0.338169 1.890914 -0.007119 0.026882 312502.000000 0 0 1
31.383556 10.726438 -9.471753 34.492002 0.329338 1.848978 0.001881 0.022385 96122.700000 0 0 1
32.489916 11.300738 -8.742653 35.492750 0.334734 1.819680 0.002302 0.022464 656652.000000 0 0 1
32.493086 12.717238 -8.598853 35.937015 0.373056 1.812416 0.009096 0.017787 -871136.000000 0 0 1
32.289266 13.124338 -7.162453 35.582941 0.386064 1.773470 0.009523 0.007795 477000.000000 0 0 1
33.467976 12.784238 -6.401153 36.393914 0.364880 1.747601 0.016434 0.009205 1000280.000000 0 0 1
33.293326 13.022838 -5.029553 36.101749 0.372858 1.710567 0.014774 0.006660 95302.400000 0 0 1
34.622551 12.849538 -4.245053 37.173272 0.355375 1.685242 0.010593 0.007494 327480.000000 0 0 1
-34.624101 14.027138 -4.347953 37.609755 -0.384918 1.686662 0.014715 0.018569 -239529.000000 0 0 1
-33.334250 13.919638 -3.795153 36.322606 -0.395567 1.675472 0.003492 0.004231 -3665.780000 0 0 1
-32.514930 15.208238 -3.718053 36.087880 -0.437501 1.674007 0.003302 0.004704 69903.600000 0 0 1
-32.891300 16.135038 -2.677453 36.733443 -0.456064 1.643750 0.018683 0.005303 199396.000000 0 0 1
-32.048130 17.269838 -2.644253 36.500986 -0.494259 1.643303 0.014869 0.007905 -69401.300000 0 0 1
-32.417650 18.259938 -1.494253 37.236570 -0.512975 1.610936 0.011780 0.013844 -428746.000000 0 0 1
-33.562450 19.016738 -1.701753 38.613085 -0.515504 1.614883 -0.010384 0.013235 -415105.000000 0 0 1
-33.908690 19.752138 -0.600153 39.246737 -0.527460 1.586089 -0.018553 0.013723 406848.000000 0 0 1
34.843442 20.660238 -0.812953 40.516315 0.535216 1.590862 -0.016046 0.015797 538140.000000 0 0 1
-34.870862 21.829038 -1.550253 41.169008 -0.559316 1.608461 -0.014076 0.018832 105607.000000 0 0 1
34.962291 21.664138 -2.922653 41.233949 0.554738 1.641736 -0.036808 0.026860 -101024.000000 0 0 1
-34.850334 22.978238 -3.724453 41.909626 -0.582914 1.659782 -0.014144 -0.003856 9193.710000 0 0 1
-33.483340 23.267138 -3.930653 40.962712 -0.607286 1.666901 -0.010141 0.011453 -131347.000000 0 0 1
-33.300960 24.363238 -4.754653 41.534660 -0.631626 1.685522 -0.008224 -0.002081 -308004.000000 0 0 1
-31.851760 24.712538 -5.084553 40.633691 -0.659848 1.696257 -0.004204 -0.009061 -178744.000000 0 0 1
-31.382920 23.868338 -6.166953 39.907600 -0.650220 1.725949 -0.014389 0.004813 -954229.000000 0 0 1
-30.107080 24.248438 -6.545053 39.207916 -0.678029 1.738513 -0.001042 0.003383 -987937.000000 0 0 1
-29.556570 23.355338 -7.714953 38.452349 -0.668731 1.772804 -0.003799 -0.010674 -699020.000000 0 0 1
-30.290950 23.235438 -8.887953 39.197231 -0.654340 1.799535 -0.000235 -0.018030 -407534.000000 0 0 1
-29.644240 22.563638 -9.924153 38.553697 -0.650597 1.831138 -0.010379 -0.020517 99625.200000 0 0 1
-30.585000 22.522838 -11.170853 39.591772 -0.634741 1.856832 -0.018257 -0.001633 45927.400000 0 0 1
-30.992210 23.782338 -11.637853 40.762192 -0.654522 1.860331 -0.002585 -0.004718 19734.800000 0 0 1
-31.630410 23.607338 -12.897653 41.522749 -0.641161 1.886638 -0.013435 0.000641 -409637.000000 0 0 1
-32.372770 24.864538 -13.403853 42.963994 -0.654966 1.888071 0.007236 0.000762 41580.900000 0 0 1
-31.508950 25.957238 -13.723353 43.068812 -0.689089 1.895088 -0.005280 -0.005744 -169183.000000 0 0 1
-30.687100 25.777838 -14.864053 42.745001 -0.698673 1.925954 -0.014473 -0.005257 228268.000000 0 0 1
-29.321330 26.471738 -14.615453 42.120123 -0.734368 1.925161 -0.022836 -0.002468 766740.000000 0 0 1
-28.334720 25.900938 -13.712653 40.764590 -0.740554 1.913873 -0.009331 -0.010502 816206.000000 0 0 1
-28.703040 25.777138 -12.365253 40.512033 -0.731744 1.880970 -0.002494 -0.008010 -999987.000000 0 0 1
-28.817240 26.996638 -11.399953 41.100008 -0.752791 1.851853 0.011471 -0.000257 -715524.000000 0 0 1
-27.613290 27.651638 -11.118853 40.629247 -0.786092 1.847999 0.016292 -0.001607 -536347.000000 0 0 1
-27.796830 28.772138 -10.320753 41.316070 -0.802637 1.823270 0.004220 -0.009129 -205106.000000 0 0 1
-26.498460 29.478238 -9.923953 40.860980 -0.838580 1.816121 0.007476 -0.008080 -28664.700000 0 0 1
-26.780390 30.771038 -9.488753 41.881768 -0.854628 1.799341 0.009954 -0.008281 341170.000000 0 0 1
-25.565050 31.453738 -9.163353 41.555703 -0.888310 1.793131 0.020699 -0.006442 105640.000000 0 0 1
33.237706 -25.827532 34.009775 54.115352 -0.660593 0.891214 -0.003477 -0.000960 -288205.000000 0 0 1
32.908816 -24.459762 34.258054 53.431118 -0.639173 0.874784 -0.005474 -0.010730 379197.000000 0 0 1
32.070616 -24.422262 -33.832553 52.627112 -0.650830 2.269040 -0.010287 -0.007047 297545.000000 0 0 1
31.824396 -22.975962 -33.295913 51.471398 -0.625313 2.274285 -0.016373 -0.012161 -43600.400000 0 0 1
30.998306 -22.264562 -34.168767 51.226071 -0.622870 2.300997 -0.019381 -0.008767 11190.600000 0 0 1
30.614106 -20.979362 -33.720073 50.143798 -0.600781 2.308334 -0.029153 -0.001318 433909.000000 0 0 1
30.008486 -20.098162 34.369544 49.856904 -0.590134 0.810186 -0.026503 0.007587 211679.000000 0 0 1
31.045516 -19.829962 33.461437 49.766648 -0.568418 0.833395 -0.015682 -0.006349 267888.000000 0 0 1
30.617676 -19.038962 32.360051 48.446848 -0.556316 0.839346 -0.017767 -0.000591 -440539.000000 0 0 1
31.786826 -18.821262 31.399701 48.482816 -0.534597 0.866305 -0.020509 0.005751 549681.000000 0 0 1
32.674956 -17.708162 31.756271 48.884481 -0.496641 0.863714 -0.026894 -0.003870 333338.000000 0 0 1
33.721726 -17.651762 30.855751 48.998132 -0.482234 0.889587 -0.002679 0.000004 -714370.000000 0 0 1
34.604304 -16.395062 30.930541 49.223514 -0.442458 0.891341 0.011903 -0.005345 -827314.000000 0 0 1
-34.313106 -16.430162 30.085001 48.502028 0.446569 0.901692 0.007775 -0.002280 -851030.000000 0 0 1
-33.344130 -15.510162 30.423071 47.727972 0.435384 0.879643 0.005020 -0.012940 -703309.000000 0 0 1
-32.106020 -16.103162 31.088851 47.503947 0.464896 0.857344 0.040955 -0.015122 -643672.000000 0 0 1
-31.134960 -15.140562 31.444021 46.769101 0.452618 0.833452 0.033070 -0.018718 -4725.050000 0 0 1
-30.053010 -15.752362 32.103171 46.711175 0.482782 0.813073 0.029241 -0.021836 152386.000000 0 0 1
-28.946820 -14.791062 32.665291 46.083784 0.472388 0.782967 0.037736 -0.023522 384595.000000 0 0 1
-29.359960 -13.955262 33.719596 46.837674 0.443706 0.767103 0.038273 -0.024455 253309.000000 0 0 1
-28.271960 -13.144262 34.120587 46.220015 0.435194 0.740367 0.038225 -0.022437 50270.500000 0 0 1
-28.480130 -12.532462 -33.669803 45.845785 0.414542 2.395600 0.027130 -0.009340 -261748.000000 0 0 1
-28.305840 -13.528962 -32.652443 45.281734 0.445858 2.376178 0.035830 -0.010045 285326.000000 0 0 1
-28.753580 -13.029862 -31.379773 44.511075 0.425475 2.353203 0.048300 -0.004535 -618234.000000 0 0 1
-28.928800 -14.014162 -30.151063 44.072200 0.451119 2.324205 0.049053 -0.009428 -629509.000000 0 0 1
-30.026670 -14.838462 -30.361633 45.206300 0.458978 2.307195 0.027804 -0.006818 -518227.000000 0 0 1
-30.438710 -15.535562 -29.228363 44.968499 0.471924 2.278347 0.015038 -0.001862 149053.000000 0 0 1
-31.659150 -16.426762 -29.442503 46.249338 0.478624 2.260883 0.003978 -0.005276 -193073.000000 0 0 1
-31.188700 -17.630562 -29.903733 46.666958 0.514504 2.266324 -0.001232 -0.004396 -203204.000000 0 0 1
-32.271010 -18.514262 -29.982723 47.782420 0.520866 2.249114 -0.006601 -0.005864 -264183.000000 0 0 1
-32.016290 -19.974362 -30.501663 48.521844 0.557794 2.250570 0.003579 -0.007699 -226999.000000 0 0 1
-33.176640 -20.761762 -30.585493 49.671043 0.559171 2.234148 -0.014453 -0.008556 -481780.000000 0 0 1
-32.740570 -22.043362 -31.096883 50.248093 0.592563 2.238096 -0.007128 -0.014554 692105.000000 0 0 1
-33.916060 -23.066662 -31.395723 51.653281 0.597252 2.224104 -0.004846 -0.013059 459595.000000 0 0 1
-34.472975 -23.540362 -30.201913 51.523685 0.599133 2.197126 -0.031912 -0.009240 -402484.000000 0 0 1
34.559710 -24.537662 -30.367763 52.140881 -0.617411 2.192496 -0.019483 -0.009937 -239612.000000 0 0 1
34.956314 -25.966652 -30.796343 53.335032 -0.638897 2.186353 -0.024901 -0.004809 -295530.000000 0 0 1
-34.668822 -26.000052 -32.158043 53.963595 0.643472 2.209208 -0.009776 -0.008555 8114.690000 0 0 1
-33.828970 -27.127412 -32.495993 54.187501 0.675898 2.213917 -0.009345 -0.009939 323654.000000 0 0 1
-34.075269 -27.860412 -33.838773 55.519267 0.685389 2.226221 -0.003404 -0.015455 -333675.000000 0 0 1
34.675434 -28.469232 -33.866453 56.212272 -0.687427 2.217394 -0.001110 -0.006879 -676457.000000 0 0 1
34.533259 -29.681842 34.617325 57.200672 -0.709992 0.920791 -0.010366 -0.007063 -5051.840000 0 0 1
-34.829322 -30.922322 -34.000483 57.665453 0.726047 2.201380 -0.017292 -0.015040 -177530.000000 0 0 1
34.522568 -31.375052 -32.835663 57.047194 -0.737671 2.184119 0.001502 -0.015997 -128995.000000 0 0 1
-34.657200 -32.230482 -32.067913 57.168842 0.749134 2.166309 0.005351 -0.017964 -31107.900000 0 0 1
34.723595 -32.602772 -30.733983 56.685505 -0.753908 2.143831 -0.000732 -0.012042 -96001.900000 0 0 1
33.733936 -33.595222 -30.849733 56.730269 -0.783338 2.145751 0.008099 -0.006251 22533.500000 0 0 1
33.207816 -33.937272 -29.567503 55.935094 -0.796262 2.127751 0.008149 -0.006308 -74141.400000 0 0 1
32.122016 34.273399 -29.608603 55.526203 0.817789 2.133218 0.009208 -0.012824 -91684.700000 0 0 1
31.033116 -34.570778 -30.364503 55.499514 -0.839271 2.149708 0.010331 -0.009454 -114253.000000 0 0 1
29.841176 34.101019 -29.904643 54.292384 0.851920 2.154128 0.009291 -0.006996 660094.000000 0 0 1
28.530526 34.588303 -30.560893 54.261495 0.881079 2.169068 -0.013861 -0.004422 -142167.000000 0 0 1
28.497876 34.230798 -31.901403 54.786640 0.876537 2.192332 -0.006232 -0.001219 -897707.000000 0 0 1
27.303426 34.592518 -32.486923 54.749608 0.902622 2.206039 0.002152 0.009734 -748410.000000 0 0 1
27.172286 34.016982 -33.964713 55.218565 0.896796 2.233304 0.003847 -0.008486 97055.600000 0 0 1
27.135576 32.570206 -33.889563 54.273938 0.876172 2.245181 -0.002095 -0.007224 31207.600000 0 0 1
27.113816 32.082626 34.060025 54.079009 0.869140 0.889475 0.008742 -0.008002 -37488.500000 0 0 1
26.994486 30.539576 34.133902 53.164756 0.846938 0.873640 0.005989 -0.012981 -302957.000000 0 0 1
28.251026 29.994876 34.431375 53.696673 0.815329 0.874709 0.011695 -0.010166 -811933.000000 0 0 1
28.175086 28.639296 -34.606942 53.025326 0.793569 2.281872 0.014662 -0.014084 -422157.000000 0 0 1
29.490166 27.923046 -34.361953 53.198780 0.758109 2.273019 0.023424 -0.015830 -617880.000000 0 0 1
30.015106 28.093016 -33.093123 52.775742 0.752332 2.248559 0.017073 -0.008353 -73639.600000 0 0 1
31.320566 27.524746 -33.094763 53.233945 0.720982 2.241689 0.030040 -0.008772 1088740.000000 0 0 1
32.230566 27.904276 -31.823383 53.199490 0.713579 2.212036 0.020978 -0.005543 -30565.100000 0 0 1
32.894466 29.167306 -31.612593 54.149180 0.725415 2.194204 0.011472 -0.007110 116628.000000 0 0 1
32.124506 30.336356 -31.482803 54.253528 0.756778 2.189882 0.006581 -0.003475 -208629.000000 0 0 1
31.172146 30.561806 -30.285143 53.131126 0.775512 2.177311 0.010045 0.003097 170156.000000 0 0 1
31.791276 30.528156 -29.016993 52.769683 0.765132 2.153017 0.010117 0.000554 -657026.000000 0 0 1
30.855996 30.842416 -28.041213 51.861901 0.785178 2.142053 0.009979 0.004666 -592547.000000 0 0 1
31.362196 31.137046 -26.580253 51.571434 0.781796 2.112278 0.011881 -0.000698 -199180.000000 0 0 1
32.072086 32.352796 -26.489483 52.697389 0.789755 2.097483 0.012328 -0.003920 67073.600000 0 0 1
32.112476 32.759806 -25.121523 52.302074 0.795376 2.071811 0.013334 -0.015192 156724.000000 0 0 1
32.374576 34.280920 -24.949153 53.345617 0.813990 2.057471 0.015863 -0.009092 30266.000000 0 0 1
31.149806 -34.324591 -25.037353 52.681657 -0.833849 2.066053 0.014300 -0.006882 200990.000000 0 0 1
31.093026 -32.902392 -25.069143 51.747518 -0.813664 2.076532 0.011023 -0.008684 -924545.000000 0 0 1
31.615956 -32.207752 -26.394283 52.283517 -0.794670 2.099981 0.009243 -0.007638 554884.000000 0 0 1
33.017236 -32.354042 -26.557103 53.312303 -0.775253 2.092251 0.011848 -0.013935 449827.000000 0 0 1
33.875936 -31.537722 -25.751083 52.965321 -0.749668 2.078518 0.009734 -0.009854 -1345460.000000 0 0 1
-34.680724 -31.674012 -26.114403 53.739722 0.740116 2.078237 0.010080 -0.003121 -1095250.000000 0 0 1
-34.197281 -33.003182 -25.992033 54.168716 0.767631 2.071263 0.012385 -0.014468 -215110.000000 0 0 1
-34.051510 -33.618522 -24.701853 53.850644 0.779000 2.047340 0.013281 -0.009689 -921372.000000 0 0 1
-32.706130 -33.375662 -24.035653 52.548438 0.795530 2.045865 -0.010953 0.003749 -447913.000000 0 0 1
-32.452100 -31.982872 -23.899253 51.451114 0.778116 2.053871 -0.026662 0.009696 -291962.000000 0 0 1
-32.134520 -31.729082 -22.550753 50.476712 0.779050 2.033932 -0.019051 0.009737 -43538.200000 0 0 1
-31.764470 -30.195212 -22.350453 49.196292 0.760076 2.042396 -0.030291 0.023142 161857.000000 0 0 1
-32.850600 -29.322462 -22.628753 49.507869 0.728712 2.045499 -0.038862 0.026781 -23442.900000 0 0 1
-32.903590 -28.949152 -23.970953 49.953040 0.721552 2.071303 -0.044816 0.021967 -35735.400000 0 0 1
-34.123891 -28.064572 -24.324153 50.435350 0.688270 2.074056 -0.048446 0.020051 21545.300000 0 0 1
-34.243742 -26.858792 -23.599153 49.507056 0.665120 2.067673 -0.058923 0.024000 -34638.000000 0 0 1
34.931976 -25.850542 -24.197953 49.739666 -0.637087 2.078866 -0.044041 0.016713 10986.500000 0 0 1
-34.753791 -25.379802 -25.640963 50.094104 0.630757 2.108140 -0.036641 0.007711 -715099.000000 0 0 1
-33.704890 -24.446062 -25.774083 48.968693 0.627503 2.125084 -0.046800 0.009667 -440858.000000 0 0 1
-33.557760 -23.888662 -27.026013 49.266589 0.618646 2.151445 -0.032380 -0.000070 491309.000000 0 0 1
-32.274530 -23.008862 -27.238903 48.093771 0.619339 2.172892 -0.026506 -0.011030 251829.000000 0 0 1
-32.318990 -21.740762 -26.573723 47.152312 0.592163 2.169500 -0.029214 0.008382 709186.000000 0 0 1
-33.366690 -20.840762 -27.050473 47.743077 0.558310 2.173151 -0.042560 0.000469 517393.000000 0 0 1
-34.576391 -20.661262 -26.148803 48.022645 0.538619 2.146601 -0.045843 0.002461 -429308.000000 0 0 1
-34.270446 -20.077062 -24.852653 46.853028 0.529944 2.129914 -0.043210 0.007034 -201751.000000 0 0 1
-33.545610 -20.857662 -23.923053 46.180758 0.556273 2.115343 -0.053313 0.012685 -445731.000000 0 0 1
-34.297904 -22.012362 -23.280953 46.934987 0.570588 2.089812 -0.041445 0.022306 -172526.000000 0 0 1
34.714675 -21.715362 -22.345953 46.647693 -0.558986 2.070353 -0.035290 0.021928 -246290.000000 0 0 1
34.490658 -22.754962 -21.405853 46.536054 -0.583194 2.048774 -0.027630 0.023451 -13108.200000 0 0 1
33.332736 -22.453462 -20.430853 45.084909 -0.592798 2.041108 -0.033516 0.019188 545032.000000 0 0 1
32.100696 -22.057762 -21.037553 44.267123 -0.602045 2.066034 -0.006253 0.008293 568367.000000 0 0 1
31.059396 -21.978762 -20.066153 43.016306 -0.615833 2.056101 0.001226 -0.001271 -329606.000000 0 0 1
29.816736 -21.293862 -20.584153 42.025869 -0.620165 2.082653 -0.005564 -0.005844 -727959.000000 0 0 1
29.104336 -22.130962 -21.556053 42.444143 -0.650124 2.103505 0.000955 -0.006844 599552.000000 0 0 1
28.008746 -21.453062 -22.162953 41.664376 -0.653626 2.131686 0.018282 -0.012234 39671.300000 0 0 1
28.195616 -20.185962 -22.997153 41.609312 -0.621334 2.156388 0.013820 -0.010467 -910845.000000 0 0 1
28.730636 -19.054862 -22.318553 41.068906 -0.585616 2.145328 0.011622 0.000834 217193.000000 0 0 1
28.717016 -17.898662 -23.175353 41.013731 -0.557359 2.171306 0.005142 -0.000074 -174790.000000 0 0 1
29.350086 -16.659762 -22.458153 40.538178 -0.516272 2.157958 -0.003367 0.000239 -188832.000000 0 0 1
28.704396 -16.302962 -21.219853 39.242975 -0.516528 2.142101 -0.008625 -0.004248 76877.700000 0 0 1
29.531896 -16.041862 -20.117753 39.168842 -0.497611 2.110190 -0.017639 -0.001690 -290875.000000 0 0 1
30.392006 -17.231162 -19.586653 40.052765 -0.515774 2.081764 -0.004920 -0.008550 350788.000000 0 0 1
31.565246 -17.419762 -20.372853 41.410941 -0.504274 2.085145 -0.010611 -0.000160 98199.500000 0 0 1
32.451876 -18.379062 -19.813553 42.231399 -0.515308 2.059143 -0.007543 0.004196 219655.000000 0 0 1
33.592066 -18.565962 -20.852353 43.680001 -0.504905 2.068477 -0.021017 0.008989 -115199.000000 0 0 1
34.541113 -17.527962 -20.886053 44.006195 -0.469592 2.065324 -0.022975 0.011336 -45399.700000 0 0 1
-34.438265 -17.908562 -21.791653 44.515018 0.479534 2.082353 -0.032412 0.023855 190284.000000 0 0 1
-33.552210 -16.675162 -22.070253 43.484570 0.461238 2.103126 -0.027112 0.021456 -44839.400000 0 0 1
-32.739220 -16.310662 -20.963453 42.158754 0.462206 2.091223 -0.011497 0.013882 -340401.000000 0 0 1
-31.890440 -15.270562 -21.354753 41.306364 0.446580 2.114121 -0.004280 0.008678 -776088.000000 0 0 1
-30.964720 -14.842262 -20.177253 39.827480 0.446974 2.102052 -0.000843 -0.003395 -214384.000000 0 0 1
-29.871620 -15.727762 -19.963153 39.219939 0.484631 2.104825 -0.000878 -0.007595 215578.000000 0 0 1
-30.212490 -16.956962 -19.352353 39.684338 0.511444 2.080201 -0.009821 0.000680 -270509.000000 0 0 1
-29.020270 -17.968262 -19.332853 39.227461 0.554391 2.086147 -0.016816 -0.006990 229551.000000 0 0 1
-29.385210 -19.248962 -18.918753 39.899026 0.579921 2.064813 -0.016567 -0.001546 165522.000000 0 0 1
-28.410440 -20.244362 -19.212153 39.825797 0.619111 2.074194 -0.017420 -0.002847 253988.000000 0 0 1
-29.022620 -21.669862 -18.942253 40.874250 0.641356 2.052656 -0.029205 0.026120 -783830.000000 0 0 1
-29.888720 -22.066062 -19.897553 42.144505 0.635954 2.062498 -0.037634 0.032652 -702765.000000 0 0 1
-30.143320 -23.461762 -19.737053 42.995642 0.661394 2.047719 -0.042497 0.044977 -329276.000000 0 0 1
-31.193770 -24.047262 -20.665953 44.479250 0.656743 2.054002 -0.053357 0.047040 -389796.000000 0 0 1
-30.758280 -24.098762 -21.990753 44.837655 0.664592 2.083406 -0.049767 0.041561 181518.000000 0 0 1
-31.428050 -25.121542 -22.712353 46.202437 0.674335 2.084703 -0.042035 0.042649 -171222.000000 0 0 1
-31.051870 -25.142662 -24.238553 46.731997 0.680627 2.116093 -0.035455 0.036389 -357623.000000 0 0 1
-29.715970 -25.549622 -24.381853 46.155138 0.710153 2.127345 -0.025879 0.032397 -443434.000000 0 0 1
-29.622240 -25.960272 -25.752183 47.059406 0.719610 2.149844 -0.012102 0.032663 801664.000000 0 0 1
-28.172720 -26.316582 -26.265493 46.649124 0.751347 2.168860 -0.001004 0.026661 770966.000000 0 0 1
-27.479480 -25.152602 -26.565773 45.754950 0.741217 2.190274 0.008541 0.014651 -213027.000000 0 0 1
-26.066960 -25.300172 -26.526473 44.980427 0.770472 2.201525 0.020229 0.011855 606617.000000 0 0 1
-25.362720 -23.960062 -26.933673 44.076920 0.756967 2.228196 0.035287 0.012076 -142855.000000 0 0 1
-25.512530 -23.532962 -28.258073 44.757213 0.745058 2.254107 0.036424 0.002210 -248549.000000 0 0 1
-24.802170 -22.372262 -28.408283 43.848561 0.733935 2.275585 0.041526 -0.013810 -321774.000000 0 0 1
-24.632470 -22.044562 -29.878353 44.558245 0.730012 2.305741 0.032624 -0.005478 4632.350000 0 0 1
-23.717470 -22.949362 -30.461253 44.911908 0.768940 2.316167 0.042667 -0.007648 254463.000000 0 0 1
-23.449870 -22.692062 -31.811823 45.572120 0.768976 2.343473 0.033826 -0.011905 -233032.000000 0 0 1
-22.762070 -23.773162 -32.613373 46.334729 0.807122 2.351620 0.039049 -0.018390 82630.300000 0 0 1
-23.621270 -24.884862 -32.764993 47.442233 0.811442 2.333155 0.032272 -0.020357 47263.100000 0 0 1
-23.129070 -25.670892 -33.775983 48.319412 0.837438 2.344815 0.029802 -0.010887 78730.600000 0 0 1
-19.026570 -14.173662 -11.827553 26.510263 0.640255 2.033255 0.012926 0.020814 -133398.000000 0 0 1
-19.615370 -14.014362 -10.611253 26.339396 0.620364 1.985443 0.008534 0.019142 -130224.000000 0 0 1
-18.933770 -14.763162 -9.612053 25.861751 0.662256 1.951604 -0.004290 0.007378 102359.000000 0 0 1
-19.264970 -14.355862 -8.146553 25.369197 0.640409 1.897708 0.001201 -0.006328 780656.000000 0 0 1
-20.590770 -14.582962 -7.619453 26.357136 0.616227 1.864067 0.024668 -0.012362 1057590.000000 0 0 1
-20.747370 -14.024462 -6.305553 25.824385 0.594411 1.817461 0.017584 -0.020827 -217814.000000 0 0 1
-21.995570 -14.586062 -5.613453 26.982757 0.585555 1.780365 0.019975 -0.028005 -872259.000000 0 0 1
-21.957070 -15.952462 -5.248953 27.643181 0.628310 1.761839 0.020033 -0.025406 373275.000000 0 0 1
-21.037570 -16.176362 -4.186553 26.865987 0.655505 1.727265 0.014445 -0.025014 -165363.000000 0 0 1
-20.856370 -17.639962 -3.886153 27.590915 0.702041 1.712115 0.004482 -0.016875 109508.000000 0 0 1
-21.975070 -18.342262 -3.339553 28.818308 0.695535 1.686940 0.009032 -0.017554 236487.000000 0 0 1
-21.659770 -19.258962 -2.322353 29.076564 0.726793 1.650752 -0.006027 -0.004965 40779.400000 0 0 1
-22.856470 -20.206462 -2.046153 30.576234 0.723938 1.637766 -0.019444 -0.010795 153852.000000 0 0 1
-23.085970 -21.041462 -3.150453 31.394752 0.739099 1.671315 -0.030398 -0.002381 -273583.000000 0 0 1
-24.012170 -21.985762 -2.692753 32.668164 0.741372 1.653317 -0.022115 -0.000105 -340937.000000 0 0 1
-24.086070 -23.109062 -3.780653 33.592571 0.764700 1.683580 -0.023815 0.002536 212332.000000 0 0 1
-22.919170 -23.933762 -3.938753 33.371052 0.807050 1.689101 -0.027667 0.005846 -107490.000000 0 0 1
-22.883370 -24.619562 -5.159453 34.005755 0.821931 1.723107 -0.021686 0.007030 -604758.000000 0 0 1
-21.559770 -24.659162 -5.942553 33.289816 0.852357 1.750268 -0.017659 0.011795 19766.800000 0 0 1
-21.079870 -23.412762 -6.398053 32.147370 0.837783 1.771157 -0.021729 0.017845 5470.880000 0 0 1
-20.703970 -22.463462 -5.469153 31.035031 0.826135 1.747947 -0.025620 0.018019 -944606.000000 0 0 1
-20.716570 -21.077562 -6.059253 30.168766 0.794035 1.773017 -0.014607 0.020945 -417831.000000 0 0 1
-19.642670 -20.836262 -6.936253 29.463467 0.814876 1.808446 -0.014547 0.021401 -152740.000000 0 0 1
-19.710270 -19.581862 -7.521853 28.784064 0.782130 1.835186 -0.015486 0.018864 -417454.000000 0 0 1
-18.510670 -19.303862 -8.393053 28.030828 0.806371 1.874883 0.003679 0.014823 -598557.000000 0 0 1
-18.519470 -19.963462 -9.674853 28.898328 0.822903 1.912178 -0.002219 0.013866 459609.000000 0 0 1
-17.302970 -19.727462 -10.412753 28.231028 0.850778 1.948558 0.015568 0.015643 647707.000000 0 0 1
-17.020170 -18.309962 -11.007053 27.314760 0.821889 1.985557 0.021177 0.017424 -142321.000000 0 0 1
-16.581470 -17.254462 -10.153453 25.995273 0.805285 1.972067 0.010982 0.009150 563106.000000 0 0 1
-15.320370 -17.359562 -9.489953 25.022536 0.847716 1.959789 0.010875 0.009369 84964.300000 0 0 1
-15.155170 -16.205562 -8.509153 23.763524 0.818880 1.937003 -0.004321 0.010471 116355.000000 0 1 0
-15.793670 -16.508662 -7.257753 23.971877 0.807529 1.878385 -0.024221 0.015787 402593.000000 0 1 0
-16.074670 -15.334062 -6.554653 23.162296 0.761823 1.857704 -0.011919 0.010476 -303057.000000 0 1 0
-16.601270 -15.435862 -5.136353 23.243281 0.749037 1.793618 -0.013986 0.004017 -133010.000000 0 1 0
-17.024270 -14.239062 -4.561553 22.657988 0.696544 1.773504 -0.020958 0.006440 3939.290000 0 1 0
-17.417070 -14.485762 -3.198253 22.878384 0.693773 1.711049 -0.017013 0.000941 -112908.000000 0 1 0
-18.309870 -13.352662 -2.645053 22.815372 0.630095 1.686991 -0.010508 0.000238 -48217.100000 0 1 0
-19.621670 -13.356362 -3.168153 23.946597 0.597651 1.703486 0.002387 -0.010407 141755.000000 0 1 0
-20.444670 -12.556862 -2.354053 24.108108 0.550786 1.668598 -0.000576 -0.004908 -415795.000000 0 1 0
-21.948470 -12.592462 -2.660153 25.443699 0.520878 1.675538 -0.004253 -0.006962 -185655.000000 0 0 1
-22.249970 -11.831262 -3.844053 25.491502 0.488718 1.722171 -0.001340 -0.022027 -552237.000000 0 0 1
-23.617970 -11.767962 -4.033553 26.693875 0.462257 1.722481 -0.004943 -0.016841 -1131180.000000 0 0 1
-24.035370 -11.171562 -5.375853 27.044456 0.435091 1.770908 -0.001386 -0.019229 -189598.000000 0 0 1
-23.574170 -11.931662 -6.491453 27.207444 0.468542 1.811711 -0.000504 -0.025405 340283.000000 0 0 1
-24.217170 -11.498762 -7.672153 27.884669 0.443300 1.849530 0.007160 -0.023861 -613849.000000 0 0 1
-23.405470 -11.880962 -8.913253 27.720378 0.469721 1.898153 0.032673 -0.026642 -426017.000000 0 0 1
-22.264370 -11.066762 -8.931553 26.418706 0.461294 1.915669 0.019835 -0.018304 -519751.000000 0 0 1
-21.612270 -11.141962 -10.157853 26.351765 0.476001 1.966515 0.013396 -0.011302 784500.000000 0 0 1
-20.200370 -10.419162 -10.059353 24.855672 0.476200 1.987459 0.001200 -0.005369 761297.000000 0 1 0
-20.380470 -9.007062 -10.060453 24.447974 0.416136 1.994901 0.000145 -0.015962 644643.000000 0 1 0
-19.146770 -8.390062 -9.741753 23.062820 0.412996 2.006889 -0.008068 -0.004577 -92937.400000 0 1 0
-18.854370 -7.102862 -10.461153 22.701842 0.360280 2.049700 -0.033369 -0.005393 -265142.000000 0 1 0
-18.613770 -7.296962 -11.827453 23.229436 0.373608 2.105002 -0.009221 -0.004053 464968.000000 0 1 0
-18.619370 -6.035762 -12.477253 23.211919 0.313477 2.138309 -0.006283 -0.018028 -284860.000000 0 1 0
-17.978870 -6.044062 -13.855553 23.489291 0.324307 2.201690 -0.002570 -0.008304 -208147.000000 0 1 0
-18.789370 -6.697662 -14.820753 24.850630 0.342418 2.209797 -0.001305 -0.011573 745927.000000 0 1 0
-18.160070 -6.669262 -16.127153 25.186350 0.351958 2.265702 -0.002772 -0.010379 -193671.000000 0 0 1
-18.664870 -7.668362 -17.169853 26.494999 0.389820 2.275806 -0.004595 -0.006270 -52361.200000 0 0 1
-19.947870 -7.325962 -17.671053 27.637897 0.351964 2.264485 0.006979 -0.008829 432767.000000 0 0 1
-20.292270 -8.175562 -18.779753 28.832189 0.382996 2.280154 0.011083 -0.009428 -129853.000000 0 0 1
-21.600970 -7.643262 -19.402853 30.024857 0.340091 2.273425 0.007183 -0.008823 -1281960.000000 0 0 1
-21.514370 -6.359662 -19.948553 30.020962 0.287416 2.297604 0.009841 -0.012410 511909.000000 0 0 1
-22.699970 -6.137862 -20.700753 31.328631 0.264076 2.292629 -0.004160 -0.012676 333086.000000 0 0 1
-24.021170 -5.964162 -19.944053 31.786051 0.243366 2.249066 0.018816 -0.012960 -1345500.000000 0 0 1
-24.029970 -4.738062 -19.299053 31.182401 0.194676 2.238149 0.025473 -0.011489 855344.000000 0 0 1
-25.328610 -4.463362 -18.753153 31.829873 0.174427 2.200825 0.041411 -0.002824 450426.000000 0 0 1
-25.526080 -3.024962 -18.197953 31.494390 0.117955 2.186846 0.041764 -0.001668 -74015.900000 0 0 1
-25.688250 -1.972762 -19.158353 32.106393 0.076646 2.210197 0.043648 -0.001443 916279.000000 0 0 1
-27.004270 -1.823462 -19.726753 33.491796 0.067423 2.200620 0.048637 -0.002623 576254.000000 0 0 1
-27.185880 -0.650362 -20.711153 34.182552 0.023918 2.221691 0.048828 0.001931 17702.200000 0 0 1
-26.495920 -0.779362 -21.967453 34.426881 0.029406 2.262812 0.044583 -0.001210 798514.000000 0 0 1
-27.154750 -1.749862 -22.823953 35.515845 0.064351 2.268737 0.037228 0.001643 133233.000000 0 0 1
-26.539920 -1.851462 -24.241053 35.991998 0.069649 2.309747 0.030658 -0.002466 -478842.000000 0 0 1
-26.717460 -0.716962 -25.138003 36.691360 0.026829 2.325565 0.033573 0.002848 227499.000000 0 0 1
-26.289640 0.567738 -24.736353 36.102003 -0.021592 2.325646 0.035687 0.008309 9585.430000 0 0 1
-24.800770 0.785238 -24.322453 34.745884 -0.031651 2.346207 0.033967 0.006700 -170324.000000 0 0 1
-23.964470 0.545438 -25.426923 34.944552 -0.022756 2.385666 0.025477 0.014368 187544.000000 0 0 1
-22.608470 0.667138 -24.992453 33.707724 -0.029500 2.406019 0.014362 0.012780 537151.000000 0 0 1
-21.546970 0.207238 -26.020553 33.784375 -0.009618 2.449943 -0.000399 0.012113 -25571.900000 0 0 1
-21.519170 0.948438 -27.271533 34.752132 -0.044046 2.473080 -0.011028 0.014556 -86841.600000 0 0 1
-20.645870 0.293138 -28.164453 34.922403 -0.014197 2.508982 -0.020221 0.007417 -123240.000000 0 0 1
-20.402070 0.993438 -29.527553 35.904146 -0.048655 2.536412 -0.027302 0.024098 641175.000000 0 0 1
-19.491770 2.150838 -29.452943 35.384050 -0.109901 2.554183 -0.018997 0.019227 999478.000000 0 0 1
-19.688970 3.070438 -30.498553 36.431372 -0.154701 2.562850 -0.026852 0.017418 -306466.000000 0 0 1
-19.187770 2.612238 -31.890113 37.309162 -0.135309 2.595871 -0.027526 0.017697 898452.000000 0 0 1
-17.782470 2.266638 -31.827793 36.528924 -0.126781 2.628649 -0.027775 0.022374 882773.000000 0 0 1
-17.271370 2.001738 -33.109843 37.397444 -0.115384 2.658043 -0.017429 0.016931 128968.000000 0 0 1
-15.738270 1.781838 -33.019993 36.622234 -0.112737 2.694338 -0.010743 0.009217 -165267.000000 0 0 1
-15.078470 2.996038 -32.840893 36.261008 -0.196142 2.703779 -0.003471 0.012527 -118831.000000 0 0 1
-13.710870 2.843038 -33.178013 36.011822 -0.204459 2.742230 0.002454 0.016406 21486.100000 0 0 1
-13.060170 4.190838 -33.557683 36.252575 -0.310507 2.753582 0.012678 0.019893 -456120.000000 0 0 1
-12.941670 5.030938 -32.410103 35.259210 -0.370761 2.736829 0.027215 0.000093 318504.000000 0 0 1
-12.409870 6.271838 -32.811793 35.636422 -0.467951 2.740763 0.025303 0.006201 -90105.500000 0 0 1
-11.992270 7.227238 -31.610333 34.572542 -0.542372 2.724620 0.036155 -0.006886 -195102.000000 0 0 1
-10.830470 6.994938 -30.856523 33.441789 -0.573457 2.745806 0.048926 -0.013001 35313.500000 0 0 1
-10.949470 5.993338 -29.861433 32.365354 -0.500817 2.745656 0.045378 -0.003591 55085.000000 0 0 1
-9.647270 5.154838 -29.810083 31.753475 -0.490734 2.789919 0.047217 -0.009807 -79486.800000 0 0 1
-9.162770 4.449938 -30.947953 32.581192 -0.452105 2.823622 0.038217 -0.006401 203090.000000 0 0 1
-9.853370 3.275938 -31.317823 32.994343 -0.320972 2.821441 0.041360 0.000011 -258038.000000 0 0 1
-9.314270 2.542938 -32.584253 33.984639 -0.266520 2.853521 0.037875 -0.006291 -181138.000000 0 0 1
-9.983670 1.330838 -32.723183 34.238158 -0.132520 2.843001 0.037399 -0.002553 355569.000000 0 0 1
-9.545470 0.554538 -33.865653 35.189571 -0.058029 2.866417 0.032946 -0.003315 -221325.000000 0 0 1
-9.977870 1.117438 33.991630 35.443440 -0.111527 0.287207 0.024507 -0.001999 278863.000000 0 0 1
-11.384170 1.125438 33.770655 35.655617 -0.098540 0.326614 0.005617 0.004178 331560.000000 0 0 1
-11.648970 1.138938 32.351481 34.403691 -0.097462 0.347141 -0.011486 0.011828 1149450.000000 0 0 1
-13.185570 0.979338 31.999771 34.623744 -0.074137 0.391823 -0.004062 0.013272 1473160.000000 0 0 1
-13.961370 2.177238 32.182821 35.148174 -0.154701 0.413717 -0.009976 0.025693 403050.000000 0 0 1
-15.274770 1.954538 31.708271 35.249869 -0.127267 0.452107 -0.017287 0.021666 678509.000000 0 0 1
-16.166270 3.233838 31.350151 35.420869 -0.197430 0.484140 -0.007600 0.017264 552371.000000 0 0 1
-16.789970 3.922738 32.443661 36.740741 -0.229519 0.488489 -0.007577 0.015688 111554.000000 0 0 1
-15.984070 4.824538 33.109991 37.081507 -0.293139 0.467056 -0.001470 0.017845 -670734.000000 0 0 1
-16.640170 5.246438 34.450377 38.616691 -0.305422 0.468800 0.001742 0.019552 145199.000000 0 0 1
-17.829670 5.991238 34.270470 39.092930 -0.324172 0.501960 -0.000739 0.015897 -405100.000000 0 0 1
-18.851170 5.441138 -34.210223 39.437443 -0.280999 2.620861 -0.011088 0.022186 210241.000000 0 0 1
-20.263370 6.103138 -34.320346 40.320449 -0.292549 2.589044 -0.015461 0.015809 381529.000000 0 0 1
-20.292670 7.419738 -33.866553 40.171985 -0.350536 2.573705 -0.013811 0.005835 80989.700000 0 0 1
-19.839670 8.318838 34.413753 40.584750 -0.397036 0.558694 -0.014696 0.002388 -453886.000000 0 0 1
-19.654870 9.796338 -34.430107 40.837659 -0.462381 2.573813 -0.007669 0.007132 -445156.000000 0 0 1
-18.636370 10.020338 -33.486143 39.611150 -0.493333 2.578057 0.001763 0.006595 121440.000000 0 0 1
-18.380170 11.414138 -33.135933 39.574022 -0.555720 2.563150 0.002675 -0.001491 -188809.000000 0 0 1
-17.753970 12.348238 -34.251508 40.507384 -0.607713 2.578413 -0.006332 -0.011622 -652676.000000 0 0 1
-18.419470 12.448938 33.779750 40.439145 -0.594339 0.582076 -0.004239 -0.009317 -327543.000000 0 0 1
-17.585970 12.599438 32.670731 39.184038 -0.621680 0.584883 -0.007195 -0.002448 -67148.400000 0 0 1
-18.315070 11.990538 31.453471 38.321477 -0.579659 0.608023 0.011424 -0.007351 69208.000000 0 0 1
-18.576970 10.610038 31.495661 38.074314 -0.518928 0.596663 0.011144 -0.008205 -43931.200000 0 0 1
-17.419670 9.851338 31.269201 37.124879 -0.514688 0.569314 0.000700 -0.012017 -126335.000000 0 0 1
-17.649270 8.339938 31.378351 36.954732 -0.441437 0.556513 0.010035 -0.000644 -184284.000000 0 0 1
-18.240270 7.798338 30.235311 36.162073 -0.404015 0.580651 0.026347 -0.006688 63211.100000 0 0 1
-18.218070 6.401538 30.281201 35.914188 -0.337907 0.567673 0.019909 -0.004627 -138256.000000 0 0 1
-18.999370 5.773238 29.101861 35.231018 -0.294999 0.598770 0.025121 -0.014720 -85197.400000 0 0 1
-20.399170 5.957538 29.138881 36.065118 -0.284146 0.630128 0.045290 -0.024518 155266.000000 0 0 1
-21.076070 5.182638 28.120591 35.522220 -0.241118 0.657318 0.032055 -0.022861 368178.000000 0 0 1
-22.608170 5.416538 28.118331 36.484363 -0.235151 0.690865 0.014139 -0.016180 17688.500000 0 0 1
-22.978270 6.242138 27.036931 36.027223 -0.265253 0.722041 0.012011 -0.021696 -957799.000000 0 0 1
-24.338670 6.425538 27.015521 36.925557 -0.258116 0.750099 0.017383 -0.019770 -1283100.000000 0 0 1
-24.818970 7.149438 25.695861 36.433130 -0.280470 0.787967 0.018513 -0.014127 -172199.000000 0 0 1
-24.791170 6.452738 24.433941 35.401376 -0.254634 0.809034 0.007359 -0.012568 562009.000000 0 0 1
-25.652870 5.323838 24.275691 35.717253 -0.204629 0.823493 0.002619 -0.005119 -287009.000000 0 0 1
-25.717850 4.820038 22.862501 34.746719 -0.185271 0.852669 0.006505 0.001798 533613.000000 0 0 1
-26.589500 5.651638 22.031601 34.990484 -0.209435 0.889700 -0.004778 0.005856 626990.000000 0 0 1
-26.677350 4.959438 20.790501 34.183650 -0.183806 0.917005 0.027685 0.012060 -185987.000000 0 0 1
-27.461610 5.723038 19.711201 34.284466 -0.205461 0.958277 0.022347 0.005819 -577577.000000 0 0 1
-28.819850 5.654738 20.014101 35.540456 -0.193749 0.972621 0.025624 0.001132 -711140.000000 0 0 1
-29.613150 6.127438 18.943801 35.684054 -0.204037 1.011163 0.038196 0.005160 378248.000000 0 0 1
-31.069890 6.509238 19.351801 37.177956 -0.206516 1.023339 0.026570 0.006311 341039.000000 0 0 1
-31.102790 7.615538 20.203101 37.862187 -0.240126 1.007950 0.021807 -0.014552 321327.000000 0 0 1
-32.441200 7.843738 20.597601 39.220107 -0.237230 1.017870 0.016667 -0.014978 -305570.000000 0 0 1
-32.520670 9.013838 21.631001 40.084204 -0.270385 1.000788 0.021792 0.001407 -31831.000000 0 0 1
-32.148880 8.710538 22.937901 40.442196 -0.264591 0.967722 0.009722 0.012363 165013.000000 0 0 1
-32.774030 9.657338 23.757201 41.614971 -0.286555 0.963218 0.011465 0.025227 -256795.000000 0 0 1
0.133530 32.890938 12.275847 35.107379 1.566737 1.213582 -0.014099 0.002254 -242477.000000 0 0 1
-0.228270 33.008838 13.631747 35.713583 -1.563881 1.179165 -0.018637 0.002411 297804.000000 0 0 1
0.178430 34.292338 14.204647 37.118301 1.565593 1.178095 -0.033793 0.012613 -486550.000000 0 0 1
0.017730 34.310638 15.728047 37.743763 1.570280 1.140978 -0.035792 0.012886 859576.000000 0 0 1
-1.335770 34.273838 16.222147 37.942566 -1.531843 1.129021 -0.031187 0.012875 776928.000000 0 0 1
-1.257070 34.461438 17.617247 38.723873 -1.534335 1.098485 -0.035907 0.008250 190125.000000 0 0 1
-2.584170 -34.616170 18.384947 39.280574 1.496282 1.083723 -0.041320 0.014175 -116853.000000 0 0 1
-3.343170 33.523338 18.579547 38.473245 -1.471398 1.066809 -0.037697 0.009280 -529908.000000 0 0 1
-4.237770 33.806838 19.610147 39.311816 -1.446094 1.048541 -0.025540 0.007168 -283839.000000 0 0 1
-5.430070 32.793138 19.595047 38.585508 -1.406700 1.038127 -0.018151 0.005195 258802.000000 0 0 1
-6.311070 33.205638 18.549147 38.555348 -1.382976 1.068882 -0.013229 0.002605 333430.000000 0 0 1
-7.448370 32.354438 18.410947 37.963810 -1.344527 1.064478 -0.001584 0.000835 347464.000000 0 0 1
-8.383170 32.854238 17.269647 38.051534 -1.320965 1.099716 0.004463 -0.002973 359936.000000 0 0 1
-9.171970 34.036838 17.565247 39.384887 -1.307577 1.108517 0.023596 -0.002341 284585.000000 0 0 1
-9.906870 34.473138 16.448247 39.459956 -1.290958 1.140837 0.024129 -0.006008 79360.700000 0 0 1
-11.102270 -33.927070 16.790647 39.449111 1.254540 1.131141 0.042903 0.001053 232486.000000 0 0 1
-12.081870 -34.550370 17.617047 40.620931 1.234399 1.122208 0.043582 0.003043 -827095.000000 0 0 1
-13.278270 -33.872370 17.582847 40.408000 1.197198 1.120611 0.033147 0.003936 -999942.000000 0 0 1
-14.167970 -34.402470 18.676247 41.630080 1.180133 1.105571 0.031139 0.008202 -387351.000000 0 0 1
-14.071670 -33.754870 19.912847 41.640421 1.175825 1.072181 0.029197 0.000932 -94015.900000 0 0 1
-14.969370 -34.376770 20.802347 42.878690 1.160108 1.064268 0.024126 0.002212 31050.700000 0 0 1
-14.880870 -33.781270 22.263147 43.107566 1.155865 1.028090 0.030074 -0.003489 -98365.400000 0 0 1
-15.392870 -32.495270 22.316247 42.319002 1.128413 1.015337 0.026606 0.002894 -305553.000000 0 0 1
-15.176870 -31.898870 23.581647 42.473161 1.126711 0.982177 0.031028 -0.001824 51403.300000 0 0 1
-15.201570 -30.347070 23.454447 41.257042 1.106410 0.966120 0.028515 -0.005988 95094.600000 0 0 1
-14.787270 -29.709170 24.678147 41.355884 1.108963 0.931381 0.041727 -0.006268 -175493.000000 0 0 1
-14.656170 -28.274170 24.683147 40.292553 1.092570 0.911453 0.023251 -0.008678 557622.000000 0 0 1
-16.005670 -27.500870 24.557947 40.194180 1.043713 0.913495 0.027823 -0.003370 162971.000000 0 0 1
-16.934770 -27.591370 25.568047 41.252821 1.020313 0.902322 0.042261 -0.005786 342112.000000 0 0 1
-18.176670 -26.965270 25.190647 41.134971 0.977681 0.911716 0.036953 0.003237 151388.000000 0 0 1
-19.226370 -26.837370 26.317947 42.220044 0.949146 0.897774 0.025148 0.008600 -181760.000000 0 0 1
-19.932470 -28.027370 26.685947 43.531329 0.952607 0.910908 0.020706 0.006819 475850.000000 0 0 1
-20.742970 -28.653170 25.692547 43.719355 0.944188 0.942620 0.018246 -0.000066 -380547.000000 0 0 1
-22.105270 -28.021370 25.374247 43.791467 0.902878 0.952763 0.028525 0.012489 -410319.000000 0 0 1
-21.863970 -26.748970 24.721047 42.481417 0.885550 0.949701 0.028203 0.007738 684828.000000 0 0 1
-23.025870 -26.408270 23.954147 42.442769 0.853714 0.971106 0.026165 0.007050 332334.000000 0 0 1
-23.264870 -24.885370 23.790447 41.551429 0.819041 0.961178 0.028547 0.020957 71124.100000 0 0 1
-23.904970 -24.197370 24.872747 42.138034 0.791477 0.939405 0.021328 0.023364 414531.000000 0 0 1
-24.212170 -22.836870 24.555247 41.360754 0.756175 0.935166 0.014100 0.027178 266066.000000 0 0 1
-24.835870 -22.036170 25.745047 42.014530 0.725738 0.911241 0.014530 0.027922 -121600.000000 0 0 1
-26.103520 -22.374270 26.230347 43.243876 0.708622 0.919060 0.002341 0.036100 -138499.000000 0 0 1
-26.393900 -21.612670 27.381247 43.743322 0.686130 0.894444 -0.000438 0.031500 -325702.000000 0 0 1
-27.615310 -22.206570 28.156847 45.260857 0.677260 0.899372 -0.002341 0.031207 -405939.000000 0 0 1
-28.867600 -21.928370 27.659847 45.598892 0.649629 0.919032 -0.004600 0.030588 -691942.000000 0 0 1
-29.242530 -22.710770 26.520347 45.543753 0.660331 0.949235 -0.011307 0.029819 -1849870.000000 0 0 1
-30.754520 -22.692970 26.358547 46.428272 0.635695 0.967055 -0.026546 0.034654 -293342.000000 0 0 1
-31.387500 -23.213070 25.153947 46.440746 0.636789 0.998415 -0.038543 0.020412 473668.000000 0 0 1
-30.890940 -24.467970 24.796647 46.559698 0.669890 1.009153 -0.033883 0.022284 -1047330.000000 0 0 1
-31.329520 -24.895470 23.410647 46.361424 0.671460 1.041461 -0.044093 0.023019 170551.000000 0 0 1
-32.569720 -25.594970 23.437947 47.594396 0.666054 1.055892 -0.045367 0.025679 210191.000000 0 0 1
-32.753160 -26.231470 22.214247 47.479810 0.675280 1.083920 -0.033015 0.024335 -350875.000000 0 0 1
-33.948950 -27.186270 22.242947 48.850519 0.675228 1.098057 -0.013380 0.013569 -767992.000000 0 0 1
-33.893100 -28.366070 23.061547 49.851892 0.696856 1.089869 -0.013886 0.012383 -234224.000000 0 0 1
-32.940510 -29.365870 22.839047 49.689573 0.728089 1.093213 -0.029808 0.017435 -722674.000000 0 0 1
-33.282670 -30.436470 21.730747 50.063362 0.740760 1.121796 -0.016639 0.010742 -171695.000000 0 0 1
-33.225360 -29.973370 20.397247 49.176978 0.733987 1.143104 -0.029600 0.014861 268099.000000 0 0 1
-33.632690 -30.961770 19.494147 49.697191 0.744073 1.167711 -0.021348 0.017236 -153420.000000 0 0 1
-33.893300 -30.436770 17.995647 48.979548 0.731719 1.194572 -0.026119 0.020623 316496.000000 0 0 1
-32.698320 -30.183770 17.246347 47.725010 0.745431 1.201060 -0.021448 0.012711 381918.000000 0 0 1
-32.989630 -29.579470 15.970647 47.099069 0.730950 1.224851 -0.017199 0.019466 677424.000000 0 0 1
-34.026650 -30.194770 14.937247 47.881713 0.725802 1.253540 -0.003682 0.024639 659088.000000 0 0 1
-33.477380 -31.472370 14.501047 48.182211 0.754538 1.265094 0.007681 0.009847 517425.000000 0 0 1
-34.234431 -32.209670 13.523347 48.911553 0.754934 1.290661 0.003602 0.004416 149442.000000 0 0 1
-34.214684 -31.589270 12.096647 48.112945 0.745522 1.316647 0.009977 0.002670 746170.000000 0 0 1
34.820618 -30.516570 11.965747 47.821707 -0.719619 1.317893 0.013737 0.006791 879673.000000 0 0 1
34.524338 -30.227370 10.583447 47.091753 -0.719135 1.344119 0.001135 0.008113 -264595.000000 0 0 1
33.444186 -29.164070 10.464947 45.591356 -0.717141 1.339193 0.029412 0.011516 -369418.000000 0 0 1
33.875306 -28.002470 9.818047 45.034085 -0.690771 1.351018 0.040434 -0.022270 -55172.300000 0 0 1
32.765736 -27.296770 9.324647 43.653822 -0.694594 1.355533 0.026816 -0.021530 -214700.000000 0 0 1
33.081666 -26.355270 8.171847 43.078719 -0.672709 1.379944 0.026161 -0.021524 370586.000000 0 0 1
33.837486 -25.163670 8.508847 43.018441 -0.639433 1.371688 0.049187 -0.032813 382722.000000 0 0 1
33.938686 -24.332870 7.352047 42.402543 -0.622022 1.396529 0.053437 -0.032992 174070.000000 0 0 1
34.522959 -22.900670 7.620047 42.122922 -0.585700 1.388895 0.071421 -0.043246 81631.300000 0 0 1
33.606936 -22.067970 8.307647 41.054092 -0.581035 1.367031 0.066549 -0.037335 127568.000000 0 0 1
34.120935 -20.760570 8.218647 40.777269 -0.546603 1.367856 0.074716 -0.028005 432304.000000 0 0 1
33.260916 -19.761870 9.046247 39.732288 -0.536105 1.341102 0.081436 -0.020209 439476.000000 0 0 1
33.571346 -19.869270 10.425047 40.379510 -0.534407 1.309662 0.077419 -0.036395 -133615.000000 0 0 1
32.734316 -18.972370 11.080347 39.424110 -0.525274 1.285903 0.069453 -0.016209 -159148.000000 0 0 1
33.060356 -18.851370 12.614047 40.093335 -0.518228 1.250743 0.054835 -0.029078 495166.000000 0 0 1
34.347284 -18.326370 12.934147 41.022969 -0.490135 1.250034 0.021245 -0.012852 529003.000000 0 0 1
34.573196 -18.749470 14.270747 41.839010 -0.496922 1.222723 0.040017 -0.012424 -82095.000000 0 0 1
-34.139101 -18.235770 14.919947 41.480433 0.490601 1.202865 0.036239 -0.013782 -391493.000000 0 0 1
-32.958140 -18.644370 14.310647 40.480195 0.514816 1.209463 0.032794 -0.013572 -324524.000000 0 0 1
-31.833690 -17.951670 14.807647 39.432381 0.513468 1.185839 0.014846 -0.011008 31161.700000 0 0 1
-30.579140 -18.023770 13.929747 38.131063 0.532599 1.196828 0.012055 -0.010320 -304439.000000 0 0 1
-29.816700 -19.208370 13.883947 38.088858 0.572298 1.197685 -0.001171 0.000290 43581.300000 0 0 1
-28.708000 -19.019570 13.034147 36.820949 0.585125 1.208965 -0.038971 0.016397 -512235.000000 0 0 1
-27.876860 -20.298270 12.979747 36.845800 0.629364 1.210799 -0.061256 0.007456 -643812.000000 0 0 1
-28.434710 -21.423570 12.310047 37.670139 0.645693 1.237896 -0.042100 0.001670 -164414.000000 0 0 1
-27.613030 -21.800670 11.218547 36.927015 0.668310 1.262114 -0.051346 0.013717 -97618.100000 0 0 1
-28.378600 -22.416570 9.999947 37.521281 0.668559 1.301022 -0.023679 -0.000025 385493.000000 0 0 1
-28.918380 -23.730570 10.128447 38.755620 0.687179 1.306385 -0.011465 -0.009061 155161.000000 0 0 1
-30.237060 -23.666770 10.667847 39.852212 0.664107 1.299807 0.007907 -0.014465 442900.000000 0 0 1
-31.110460 -24.976770 10.709947 41.308628 0.676471 1.308534 0.031028 -0.019188 317039.000000 0 0 1
-31.684530 -25.305770 9.470347 41.641073 0.673935 1.341361 0.043524 -0.012993 303996.000000 0 0 1
-32.504670 -26.498370 9.674147 43.038429 0.683951 1.344080 0.048158 -0.011401 722776.000000 0 0 1
-32.746230 -27.314170 8.409647 43.463797 0.695200 1.376082 0.049741 -0.015883 554873.000000 0 0 1
-31.468420 -27.793070 7.995147 42.739193 0.723458 1.382619 0.043673 -0.011903 417313.000000 0 0 1
-31.585530 -28.537570 6.771147 43.103214 0.734746 1.413051 0.039339 -0.008380 153109.000000 0 0 1
-30.222850 -28.796070 6.082247 42.185638 0.761228 1.426114 0.044946 -0.009041 265449.000000 0 0 1
-29.709490 -27.734070 5.313947 40.988663 0.751023 1.440786 0.045247 -0.005322 718591.000000 0 0 1
-28.382880 -28.043770 4.832647 40.191982 0.779388 1.450266 0.041245 -0.009141 851830.000000 0 0 1
-27.645930 -26.891970 4.192747 38.795034 0.771575 1.462510 0.035439 -0.006014 -150509.000000 0 0 1
-28.127830 -26.596270 2.928147 38.821521 0.757419 1.495299 0.037852 -0.002411 -81036.200000 0 0 1
-27.277270 -25.627170 2.343547 37.500580 0.754218 1.508262 0.026484 -0.003104 -219482.000000 0 0 1
-27.722790 -25.022770 0.992047 37.358751 0.734253 1.544239 0.025746 -0.006145 -172611.000000 0 0 1
-27.388080 -25.919870 -0.067853 37.708768 0.757863 1.572596 0.022304 -0.007184 -341728.000000 0 0 1
-27.504330 -25.304770 -1.345853 37.398274 0.743771 1.606791 0.017734 -0.009568 -80532.800000 0 0 1
-28.895370 -25.063770 -1.975553 38.301929 0.714508 1.622398 0.026357 -0.006755 89044.500000 0 0 1
-29.505640 -23.913570 -1.449353 38.007134 0.681095 1.608939 0.025989 -0.004922 1129800.000000 0 0 1
-30.817790 -23.678470 -2.053853 38.918176 0.655134 1.623594 0.034762 -0.009423 1291940.000000 0 0 1
-31.554070 -22.415770 -1.674953 38.741858 0.617667 1.614043 0.028443 -0.010408 -240511.000000 0 0 1
-31.795810 -22.164770 -0.322453 38.760219 0.608775 1.579116 0.036108 -0.010412 589.805000 0 0 1
-32.578160 -21.011870 -0.181053 38.766841 0.572830 1.575467 0.030504 -0.004828 -390973.000000 0 0 1
-32.741290 -20.541670 1.244347 38.671704 0.560319 1.538614 0.033395 -0.008725 6750.060000 0 0 1
-33.696760 -21.324370 1.963247 39.925615 0.564211 1.521604 0.047446 -0.013626 418452.000000 0 0 1
-33.741240 -20.911670 3.330147 39.835400 0.554827 1.487101 0.055988 -0.023673 -1375290.000000 0 0 1
-34.777020 -21.783070 4.041247 41.234390 0.559580 1.472632 0.075934 -0.015172 -2694.510000 0 0 1
33.939316 -21.700470 3.510747 40.436530 -0.568881 1.483866 0.054707 -0.011090 -412073.000000 0 0 1
33.253866 -20.519170 3.843447 39.263572 -0.552859 1.472751 0.057732 -0.018350 -896371.000000 0 0 1
31.992896 -20.347170 2.950247 38.029682 -0.566463 1.493141 0.033622 -0.001442 -245488.000000 0 0 1
31.008016 -21.280370 3.215047 37.745037 -0.601463 1.485515 0.025312 0.005611 -567919.000000 0 0 1
29.783686 -20.805270 2.658947 36.427974 -0.609749 1.497739 0.007347 0.007454 648357.000000 0 0 1
28.571776 -21.750070 2.913747 36.026406 -0.650658 1.489830 -0.022915 0.029009 88421.900000 0 0 1
28.302446 -22.828870 1.983747 36.415945 -0.678755 1.516295 -0.034058 0.021781 167544.000000 0 0 1
27.174556 -23.586470 2.406247 36.063391 -0.714830 1.504024 -0.048926 0.034193 71260.900000 0 0 1
26.959906 -24.840470 1.473547 36.688648 -0.744506 1.530622 -0.041741 0.034770 27128.000000 0 0 1
26.508296 -24.499770 0.186447 36.096583 -0.746042 1.565631 -0.044562 0.025876 -14766.300000 0 0 1
26.213926 -25.675970 -0.555753 36.697878 -0.775031 1.585941 -0.028341 0.019303 -171938.000000 0 0 1
25.452776 -25.227670 -1.807353 35.882387 -0.780957 1.621186 -0.026362 0.005380 -377932.000000 0 0 1
26.308316 -24.781570 -2.808353 36.251077 -0.755524 1.648344 -0.022227 -0.009122 -319750.000000 0 0 1
26.504456 -25.780670 -3.802953 37.169768 -0.771556 1.673289 -0.005535 -0.016892 -93220.400000 0 0 1
25.374056 -26.337670 -4.759153 36.880417 -0.804030 1.700200 -0.002899 -0.027433 326174.000000 0 0 1
25.092336 -25.450970 -5.849153 36.215878 -0.792494 1.733015 -0.000920 -0.037394 822320.000000 0 0 1
23.930766 -24.642670 -5.580553 34.800652 -0.800053 1.731849 0.005066 -0.030909 43867.100000 0 0 1
23.575866 -23.560870 -6.676153 33.992751 -0.785080 1.768481 0.016308 -0.041629 -537158.000000 0 0 1
22.687066 -24.100870 -7.610953 33.962944 -0.815606 1.796811 0.004367 -0.039723 -134007.000000 0 0 1
21.627566 -23.227570 -7.961153 32.720813 -0.821054 1.816569 0.014111 -0.035898 -8846.560000 0 0 1
21.957066 -21.854270 -8.615953 32.155195 -0.783052 1.842060 0.018165 -0.032758 -682868.000000 0 0 1
22.433666 -21.867070 -9.967753 32.875435 -0.772609 1.878843 0.025324 -0.032401 227433.000000 0 0 1
22.388866 -20.544870 -10.535753 32.161392 -0.742475 1.904548 0.025260 -0.027967 175032.000000 0 0 1
22.979866 -20.528970 -12.052753 33.087486 -0.729127 1.943644 0.013299 -0.019623 -805816.000000 0 0 1
24.346866 -20.429070 -12.081553 34.001187 -0.698123 1.934061 0.019381 -0.017541 -1247270.000000 0 0 1
24.857866 -20.166670 -13.398253 34.700451 -0.681581 1.967209 0.014059 -0.011853 1473490.000000 0 0 1
26.440006 -20.257370 -13.604153 35.979271 -0.653766 1.958551 0.008770 -0.024087 1508820.000000 0 0 1
26.883376 -21.608070 -13.745353 37.128956 -0.677036 1.950027 0.001081 -0.017215 88395.700000 0 0 1
27.160796 -22.209670 -12.492353 37.242948 -0.685447 1.912857 0.014813 -0.033144 -445024.000000 0 0 1
27.523346 -23.696370 -12.693253 38.472994 -0.710820 1.907022 0.006532 -0.013583 -230092.000000 0 0 1
28.778606 -23.915970 -13.302053 39.713051 -0.693379 1.912353 0.007361 -0.022895 218870.000000 0 0 1
28.913206 -25.311070 -13.615653 40.767754 -0.719065 1.911320 0.003508 -0.004799 15836.400000 0 0 1
-3.864970 -9.398462 -28.026583 29.812051 1.180643 2.793747 0.002561 0.003918 -88910.000000 0 0 1
-3.975470 -8.170062 -27.318953 28.790266 1.117934 2.820514 0.000039 0.010570 81559.000000 0 0 1
-4.861170 -7.313762 -27.975813 29.321804 0.984184 2.837423 -0.012476 0.008356 -282510.000000 0 0 1
-4.797070 -5.909462 -27.300393 28.341578 0.888925 2.869695 -0.012616 0.011053 -79146.600000 0 0 1
-5.349570 -5.809262 -25.986163 27.159640 0.826570 2.846562 -0.011590 0.007656 362465.000000 0 0 1
-5.116070 -4.547562 -25.387633 26.294227 0.726636 2.878234 0.000022 0.008769 -37496.300000 0 0 1
-5.625470 -4.348462 -23.938553 24.972171 0.658056 2.852873 -0.001984 0.002922 -205861.000000 0 1 0
-4.957370 -5.172262 -23.019153 24.108281 0.806609 2.839862 -0.002039 -0.003879 580077.000000 0 1 0
-5.500170 -5.079862 -21.680453 22.936846 0.745693 2.809076 0.004302 -0.000587 53089.100000 0 1 0
-4.892570 -6.213062 -20.758153 22.213516 0.903745 2.777600 0.010277 -0.000963 -2006.910000 0 1 0
-5.437770 -7.547462 -20.948353 22.920886 0.946459 2.723689 0.011494 0.003185 1150120.000000 0 1 0
-4.524570 -8.540962 -20.403453 22.576994 1.083633 2.699195 0.018032 0.000491 -216367.000000 0 1 0
-5.137770 -9.983262 -20.389953 23.276863 1.095507 2.638250 0.021544 0.007097 659260.000000 0 1 0
-6.223970 -10.251762 -19.509853 22.901327 1.025164 2.590417 0.026715 0.008874 1140890.000000 0 1 0
-7.435370 -9.481962 -19.657653 23.056792 0.905789 2.591690 0.022780 0.001836 12193.900000 0 1 0
-8.463470 -9.633762 -18.525153 22.530445 0.849975 2.536110 0.013814 0.009618 -90709.600000 0 1 0
-9.062570 -10.923662 -18.632953 23.423140 0.878249 2.490618 0.024661 0.015163 -167758.000000 0 1 0
-9.755370 -11.237762 -17.462953 22.943610 0.855894 2.435842 0.016732 0.015038 -31820.500000 0 1 0
-10.657370 -12.533462 -17.630353 24.114239 0.866120 2.390755 0.018123 0.016328 552518.000000 0 1 0
-11.850970 -12.294462 -18.380253 25.088503 0.803764 2.392955 0.019317 0.010990 331608.000000 0 0 1
-11.708870 -12.154962 -19.779353 26.001222 0.804089 2.435200 0.016655 0.013244 -1337720.000000 0 0 1
-13.021570 -11.756062 -20.482753 26.968675 0.734368 2.433343 0.003934 0.012514 616800.000000 0 0 1
-13.993870 -12.771262 -20.779853 28.120025 0.739751 2.402336 -0.000850 0.017199 275200.000000 0 0 1
-14.527270 -13.446962 -19.705953 27.931826 0.746799 2.353927 -0.001033 0.018305 -1375980.000000 0 0 1
-15.583970 -14.461062 -20.158053 29.297261 0.748041 2.329598 -0.000694 0.017423 -47514.300000 0 0 1
-15.017170 -15.661662 -20.730553 30.009313 0.806403 2.333397 0.014718 0.026683 -135593.000000 0 0 1
-16.005870 -16.404162 -21.416153 31.367754 0.797687 2.322308 0.001696 0.007487 -41953.100000 0 0 1
-15.571070 -17.868962 -21.640153 32.094458 0.854007 2.310765 0.004137 -0.000187 -110517.000000 0 0 1
-15.749170 -18.699862 -20.527453 31.923307 0.870843 2.269237 0.015670 0.009640 -1333.900000 0 0 1
-15.279370 -19.959462 -20.916153 32.700531 0.917436 2.264810 0.015758 0.003187 25687.500000 0 0 1
-15.961270 -21.128362 -20.139953 33.268416 0.923821 2.221036 0.022322 -0.004361 -7609.580000 0 0 1
-15.376670 -22.366062 -20.448453 33.982671 0.968509 2.216464 0.028459 -0.000214 -29610.200000 0 0 1
-16.131470 -23.484062 -20.047953 34.837421 0.968909 2.183977 0.044121 0.000147 -74898.900000 0 0 1
-15.465070 -24.773062 -20.526353 35.695996 1.012722 2.183440 0.044367 0.005425 12166.200000 0 0 1
-15.647370 -25.132032 -21.905853 36.828326 1.013920 2.207825 0.035531 0.001023 393703.000000 0 0 1
-14.858470 -26.329942 -22.090053 37.443429 1.057027 2.201803 0.034272 0.003401 -33666.000000 0 0 1
-14.996870 -26.901872 -23.580653 38.789999 1.062239 2.224216 0.037466 0.001311 -997403.000000 0 0 1
-16.191270 -27.472022 -23.963653 39.888919 1.038227 2.215247 0.045392 0.003001 -872174.000000 0 0 1
-16.110170 -28.842752 -24.019453 40.845759 1.061411 2.199445 0.042933 0.016094 436922.000000 0 0 1
-17.311670 -29.375172 -24.872453 42.204663 1.038259 2.201025 0.044709 0.009732 236495.000000 0 0 1
-17.256670 -29.221102 -26.307033 42.938624 1.037351 2.230226 0.045787 0.011781 -53998.000000 0 0 1
-17.192670 -27.900652 -26.865343 42.376655 1.018543 2.257467 0.071872 0.000455 -42635.400000 0 0 1
-16.021070 -27.538182 -27.807763 42.288270 1.043884 2.288393 0.065354 -0.010032 -754188.000000 0 0 1
-16.046670 -28.054732 -29.101483 43.490917 1.051237 2.303846 0.068045 0.003395 818883.000000 0 0 1
-14.886970 -27.663292 -29.877813 43.353930 1.077097 2.331126 0.031422 0.003769 413349.000000 0 0 1
-15.077070 -28.126872 -31.342033 44.729878 1.078736 2.347168 0.034322 0.000312 111697.000000 0 0 1
-14.941670 -29.531962 -31.445483 45.653134 1.102401 2.330617 0.013553 0.001067 -38044.100000 0 0 1
-15.615670 -29.978022 -32.570403 46.939984 1.090566 2.337650 0.019142 0.009853 -121709.000000 0 0 1
-15.271770 -31.457622 -32.875133 47.995659 1.118839 2.325346 0.010314 0.015109 485465.000000 0 0 1
-14.330670 -31.702852 -33.917253 48.588259 1.146255 2.343473 -0.003181 0.018828 -88342.600000 0 0 1
-14.892070 -32.742532 34.582855 49.898106 1.143939 0.805058 -0.010628 0.030343 -91876.200000 0 0 1
-13.946570 -33.517252 33.679854 49.520153 1.176487 0.822864 -0.004804 0.013502 7992.990000 0 0 1
-13.021970 -34.357537 34.347107 50.296479 1.208512 0.819081 0.008566 0.023967 -429233.000000 0 0 1
-12.085170 34.398442 33.474663 49.496032 -1.232938 0.828055 0.013159 0.017550 -71554.800000 0 0 1
-11.116170 33.438767 34.211543 49.113645 -1.249856 0.800178 0.032385 0.008609 511928.000000 0 0 1
-10.229570 34.215215 -34.208619 49.452549 -1.280278 2.334701 0.026006 0.007512 89182.200000 0 0 1
-9.386570 33.436966 -33.395793 48.181089 -1.297116 2.336620 0.017324 0.004320 -35955.200000 0 0 1
-8.592870 34.212451 -32.342843 47.858006 -1.324724 2.312857 0.011088 0.005249 253114.000000 0 0 1
-9.503870 -34.348829 -31.544773 47.594519 1.300863 2.295324 -0.003525 0.006819 47835.900000 0 0 1
-8.970670 -33.158702 -31.052133 46.305587 1.306584 2.305802 -0.004367 0.007959 -3362.930000 0 0 1
-9.888170 -32.444352 -29.998073 45.280197 1.274966 2.294946 -0.011346 0.008269 354876.000000 0 0 1
-9.781970 -32.922192 -28.656023 44.729468 1.281980 2.266143 -0.003543 0.017168 -118150.000000 0 0 1
-10.309670 -34.220160 -28.440073 45.674351 1.278170 2.242947 0.011031 0.008785 -241426.000000 0 0 1
-10.676070 -34.471576 -26.944793 45.036539 1.270458 2.212158 0.020269 0.001874 898798.000000 0 0 1
-9.536570 -34.563342 -26.049503 44.318702 1.301579 2.199104 0.015418 0.008245 453750.000000 0 0 1
-9.988370 34.447146 -24.759153 43.581981 -1.288574 2.174998 0.023051 0.005335 -226251.000000 0 0 1
-8.942570 34.203963 -23.680153 42.551501 -1.315072 2.160970 0.026707 0.009102 -162970.000000 0 0 1
-8.108170 33.050956 -23.707553 41.474766 -1.330224 2.179268 0.013251 -0.002537 125530.000000 0 0 1
-7.380870 32.879866 -22.522453 40.531762 -1.349977 2.159970 0.022854 0.000538 -379914.000000 0 0 1
-6.448270 31.698246 -22.517653 39.413243 -1.370108 2.178912 0.007604 -0.006018 -1080270.000000 0 0 1
-5.289870 31.756346 -23.269853 39.723221 -1.405735 2.196663 -0.008698 -0.007830 -330392.000000 0 0 1
-4.506670 30.557736 -23.055853 38.544230 -1.424371 2.212007 -0.011418 -0.007578 1370980.000000 0 0 1
-2.974970 30.792596 -23.408853 38.794443 -1.474482 2.218563 -0.020501 -0.004416 1002040.000000 0 0 1
-2.655170 31.012556 -24.812853 39.805857 -1.485389 2.243812 -0.024317 0.004045 82223.200000 0 0 1
-2.882070 32.361196 -25.236133 41.138981 -1.481971 2.231200 -0.025696 0.000616 -334732.000000 0 0 1
-2.309670 32.677616 -26.671013 42.243391 -1.500233 2.254109 -0.020954 0.018278 -40969.500000 0 0 1
-1.331770 33.705004 -26.635893 42.979899 -1.531304 2.239194 -0.015860 0.009094 -356490.000000 0 0 1
-1.741670 -34.239060 -26.537723 43.354324 1.519972 2.229526 -0.013232 0.012187 -746472.000000 0 0 1
-0.801170 -33.128062 -27.003673 42.747031 1.546617 2.254552 -0.027230 0.018771 -63080.500000 0 0 1
0.412430 -33.139992 -26.248493 42.277802 -1.558352 2.240632 -0.001064 0.020769 587143.000000 0 0 1
1.257130 -32.056652 -26.690363 41.732299 -1.531601 2.264724 -0.008368 0.019329 392043.000000 0 0 1
2.446430 -31.768832 -25.736393 40.958584 -1.493941 2.250229 -0.002725 0.014687 -172484.000000 0 0 1
2.143130 -31.126142 -24.537553 39.692836 -1.502052 2.237229 -0.004595 0.014966 221635.000000 0 0 1
3.212930 -30.325642 -24.063953 38.846381 -1.465242 2.238857 -0.016326 0.017175 -66668.800000 0 0 1
3.022830 -29.823202 -22.602053 37.542158 -1.469783 2.216856 -0.011827 0.023308 -118176.000000 0 0 1
3.094330 -30.805162 -21.613753 37.758273 -1.470684 2.180256 -0.003754 0.026628 355933.000000 0 0 1
2.894930 -30.192052 -20.349753 36.524691 -1.475205 2.161747 0.001198 0.025556 -301687.000000 0 0 1
2.812230 -31.181662 -19.141053 36.695839 -1.480851 2.119538 0.003421 0.024943 -507062.000000 0 0 1
1.635230 -31.934602 -19.085853 37.239261 -1.519635 2.108913 0.009533 0.017600 -167220.000000 0 0 1
1.563230 -33.150832 -19.834253 38.662888 -1.523676 2.109478 0.012036 0.019107 -248921.000000 0 0 1
2.071230 -34.407596 -19.037053 39.377430 -1.510672 2.075389 0.001434 0.012635 813616.000000 0 0 1
3.493430 -34.565446 -19.023253 39.608815 -1.470071 2.071768 0.003570 0.015124 528132.000000 0 0 1
3.866030 33.831957 -18.013053 38.522949 1.457018 2.057362 0.016156 0.003337 375729.000000 0 0 1
4.935630 32.780656 -18.462853 37.944813 1.421354 2.078957 0.014265 0.005887 923697.000000 0 0 1
6.180930 33.381418 -18.844753 38.828439 1.387709 2.077541 0.038044 0.002943 290515.000000 0 0 1
7.053530 32.429846 -19.442453 38.463700 1.356631 2.100729 0.024099 -0.013989 -517497.000000 0 0 1
8.384530 33.042446 -19.831053 39.438233 1.322291 2.097676 0.012999 -0.003201 -701011.000000 0 0 1
9.192330 33.328458 -18.705053 39.308575 1.301677 2.066728 0.006855 -0.002488 -627398.000000 0 0 1
10.434030 33.827182 -19.114653 40.230799 1.271604 2.065902 0.004459 0.016386 190972.000000 0 0 1
11.343830 34.314220 -17.905653 40.333120 1.251520 2.030792 -0.011703 0.018069 204779.000000 0 0 1
11.844030 33.239566 -17.133253 39.226243 1.228499 2.022813 -0.008820 0.010121 478006.000000 0 0 1
12.802730 33.723521 -16.155453 39.524479 1.207966 1.991875 -0.019773 0.004019 614863.000000 0 0 1
13.960730 32.727366 -15.860353 38.955530 1.167591 1.990117 -0.018011 0.007272 342480.000000 0 0 1
13.599830 31.509596 -15.248553 37.554339 1.163341 1.988913 -0.005396 0.007332 -301902.000000 0 0 1
14.780030 30.861386 -14.853253 37.302729 1.124157 1.980330 -0.005122 0.010585 100567.000000 0 0 1
14.465530 29.658036 -13.876553 35.796779 1.117001 1.968875 -0.000261 0.007597 -129572.000000 0 0 1
14.308830 30.017156 -12.508553 35.527963 1.125971 1.930585 0.004962 0.007819 408103.000000 0 0 1
13.041430 29.783566 -11.885753 34.618071 1.158073 1.921267 0.022349 0.007244 576827.000000 0 0 1
12.577630 28.308516 -11.592853 33.075113 1.152688 1.928902 0.016568 0.007765 -184656.000000 0 0 1
12.137530 27.603696 -12.751653 32.739706 1.156535 1.970870 0.009612 -0.001299 256812.000000 0 0 1
11.678030 26.230046 -12.638653 31.370803 1.151928 1.985457 0.025134 -0.004932 9649.670000 0 0 1
10.726130 25.763996 -11.534953 30.197492 1.176299 1.962738 0.026173 -0.007084 -961369.000000 0 0 1
9.549230 26.496396 -11.582953 30.453433 1.224889 1.960971 0.010567 -0.005364 -517779.000000 0 0 1
9.053330 26.707886 -10.241153 30.002586 1.243976 1.919141 -0.007489 0.003571 -100717.000000 0 0 1
7.976130 27.777506 -10.019453 30.587546 1.291176 1.904523 -0.007919 0.000946 15558.500000 0 0 1
8.425430 29.112176 -10.339253 32.021974 1.289081 1.899567 0.002722 0.002554 414789.000000 0 0 1
7.476030 30.132396 -9.963353 32.605532 1.327601 1.881336 0.005848 -0.005121 53112.900000 0 0 1
7.836130 31.532666 -10.434453 34.126116 1.327222 1.881534 0.029632 -0.010768 86126.700000 0 0 1
8.999430 32.049156 -9.799353 34.701088 1.297045 1.857084 0.002497 -0.004013 -60459.200000 0 0 1
9.393230 33.313945 -10.370853 36.133175 1.295970 1.861908 0.030897 -0.003116 713926.000000 0 0 1
10.503730 33.185766 -11.486853 36.654757 1.264260 1.889546 0.010294 -0.006657 260319.000000 0 0 1
11.821130 33.026166 -10.997553 36.761569 1.227072 1.874607 0.007058 -0.004037 -628536.000000 0 0 1
12.680430 33.375819 -12.047053 37.681164 1.207712 1.896220 0.029898 0.002064 -519762.000000 0 0 1
14.111730 33.252776 -11.499453 37.909438 1.169453 1.878992 0.030747 -0.005181 -337641.000000 0 0 1
14.513330 34.247460 -10.566753 38.667577 1.169961 1.847589 0.044392 -0.008065 112901.000000 0 0 1
15.929030 34.271085 -10.505153 39.224986 1.135707 1.841924 0.020293 -0.014281 318984.000000 0 0 1
16.544130 -33.945872 -9.578353 38.958636 -1.117305 1.819203 0.050830 -0.026743 116703.000000 0 0 1
16.365730 -34.358546 -8.221353 38.935041 -1.126270 1.783553 0.030993 -0.014146 76733.600000 0 0 1
16.939130 -33.388162 -7.356453 38.155221 -1.101294 1.764815 0.021291 -0.010129 -547880.000000 0 0 1
17.102030 -33.940682 -5.917153 38.463776 -1.104050 1.725247 0.014476 0.004188 92464.700000 0 0 1
17.956130 34.252947 -5.872753 39.117467 1.087960 1.721497 0.012480 -0.004891 242455.000000 0 0 1
19.355930 34.460018 -6.011253 39.978495 1.059021 1.721731 0.012475 -0.007474 -211922.000000 0 0 1
20.083530 33.528271 -7.053353 39.714518 1.031110 1.749345 0.005070 0.004330 185323.000000 0 0 1
20.404930 32.211656 -6.708553 38.716362 1.006134 1.744950 0.021101 0.012899 -185368.000000 0 0 1
21.380930 32.176726 -5.682353 39.048368 0.984306 1.716836 0.024034 0.009022 -527094.000000 0 0 1
21.832930 30.777176 -5.174853 38.087931 0.953798 1.707084 0.020927 0.002918 -289067.000000 0 0 1
22.499430 30.063986 -6.162553 38.053182 0.928330 1.733458 0.020714 0.011354 -236810.000000 0 0 1
22.684130 28.704276 -5.829453 37.047102 0.902016 1.728805 0.017328 0.019963 -343593.000000 0 0 1
23.585030 27.897186 -6.745553 37.148474 0.868963 1.753393 0.000095 0.023273 128133.000000 0 0 1
24.942630 28.343896 -6.817953 38.366597 0.849141 1.749451 0.006352 0.012102 109624.000000 0 0 1
25.816930 27.356306 -7.219853 38.301536 0.814340 1.760431 -0.001811 0.019884 -268518.000000 0 0 1
26.374330 26.461476 -6.027053 37.843631 0.787048 1.730739 -0.001386 0.013361 -133652.000000 0 0 1
27.300630 27.206336 -5.231053 38.895669 0.783668 1.705694 -0.000412 0.005617 652598.000000 0 0 1
28.325830 26.400406 -4.642253 38.998521 0.750230 1.690116 -0.003496 0.009215 561688.000000 0 0 1
29.461330 27.181486 -3.930853 40.277224 0.745170 1.668547 -0.005739 0.005928 -94208.300000 0 0 1
29.096430 27.923746 -2.763453 40.422451 0.764835 1.639214 0.011714 -0.005023 -244285.000000 0 0 1
30.186130 28.304656 -1.961253 41.427075 0.753242 1.618156 0.023756 -0.009929 -182930.000000 0 0 1
29.871830 29.598016 -1.264053 42.070971 0.780794 1.600847 0.029757 -0.015445 75579.700000 0 0 1
29.778530 30.601066 -2.285453 42.759904 0.799020 1.624270 0.011404 -0.013372 -160612.000000 0 0 1
29.741530 31.911366 -1.781553 43.658537 0.820578 1.611614 0.020976 -0.013623 -74142.700000 0 0 1
32.548396 23.398338 19.585601 44.614752 0.623284 1.116318 0.013394 0.003034 282416.000000 0 0 1
32.826026 23.071438 20.924501 45.251232 0.612629 1.090088 0.000009 0.001302 -252198.000000 0 0 1
33.552456 24.141538 21.462101 46.574703 0.623704 1.091888 -0.004000 0.001755 -66401.600000 0 0 1
33.472326 24.111938 23.007301 47.234713 0.624256 1.062048 0.005079 0.002175 -458468.000000 0 0 1
32.242116 24.568938 23.460401 46.835640 0.651146 1.046147 0.004015 -0.002123 -698690.000000 0 0 1
32.105206 24.675938 24.868691 47.519448 0.655297 1.020034 0.003149 -0.008939 373728.000000 0 0 1
30.707756 25.199438 25.339511 47.117606 0.687189 1.002979 0.025721 -0.010675 644901.000000 0 0 1
30.379286 26.543338 25.015211 47.467996 0.718111 1.015740 0.014714 -0.005188 677456.000000 0 0 1
29.065066 26.983838 25.383381 47.087383 0.748283 1.001464 0.011974 -0.013268 649888.000000 0 0 1
29.022626 28.437138 25.818401 48.141183 0.775209 1.004742 0.001750 -0.004781 -190045.000000 0 0 1
29.274766 29.294338 24.731871 48.237285 0.785732 1.032455 0.002546 -0.014245 209521.000000 0 0 1
28.860186 30.626038 25.061741 48.979132 0.815074 1.033655 0.000280 -0.008760 -161802.000000 0 0 1
28.698856 31.508238 23.820901 48.824469 0.832026 1.061127 0.007769 -0.010338 -662139.000000 0 0 1
29.948366 32.031838 23.542501 49.771404 0.819001 1.078089 -0.008161 -0.017492 -686704.000000 0 0 1
29.976066 32.794038 22.312101 49.717636 0.830262 1.105401 -0.010454 -0.008866 552663.000000 0 0 1
31.439246 33.224438 22.001801 50.757943 0.812998 1.122462 -0.012260 -0.018001 667798.000000 0 0 1
32.053016 34.133938 22.895801 52.122349 0.816828 1.116010 -0.007764 -0.006817 -1118590.000000 0 0 1
33.427476 34.069238 22.827101 52.907331 0.794906 1.124692 -0.013075 -0.002534 -1064740.000000 0 0 1
34.053369 -34.072170 23.593401 53.639476 -0.785674 1.115363 -0.005906 -0.000881 -425366.000000 0 0 1
33.702866 -32.808870 23.196001 52.443871 -0.771958 1.112633 -0.014016 0.002938 -19653.800000 0 0 1
34.082749 -31.825470 24.091601 52.487138 -0.751163 1.093927 -0.002174 -0.003304 -159941.000000 0 0 1
33.134996 -30.608970 23.853001 51.027470 -0.745791 1.084388 -0.004681 0.004139 696421.000000 0 0 1
31.740536 -30.590770 24.115001 50.247290 -0.766954 1.070226 -0.011922 0.009792 415874.000000 0 0 1
30.987706 -31.064170 22.998401 49.539349 -0.786630 1.088014 -0.018364 0.016876 -160507.000000 0 0 1
30.263386 -32.426570 23.182001 50.047579 -0.819891 1.089195 -0.027462 0.012462 -175233.000000 0 0 1
29.282286 -32.382670 24.197241 49.915890 -0.835634 1.064707 -0.028708 0.003323 -239134.000000 0 0 1
28.840696 -33.694870 24.385081 50.613854 -0.862865 1.068104 -0.035031 0.001731 -1000520.000000 0 0 1
27.868486 -33.836570 25.494981 50.710552 -0.881818 1.044013 -0.034927 0.005617 -859432.000000 0 0 1
27.604316 34.109638 25.652491 50.828299 0.890421 1.041774 -0.029433 -0.007673 10943.200000 0 0 1
26.870596 33.871438 26.834291 50.885975 0.900147 1.015328 -0.029956 -0.004867 -665901.000000 0 0 1
26.415466 32.391938 27.017851 49.769255 0.886678 0.996955 -0.023115 -0.006267 481345.000000 0 0 1
25.594586 31.901038 25.955341 48.440054 0.894647 1.005313 -0.028457 0.001685 -121084.000000 0 0 1
24.253366 32.323438 25.972051 48.037255 0.927082 0.999569 -0.022818 -0.000900 -438473.000000 0 0 1
23.530166 31.986738 24.621061 46.722765 0.936560 1.015776 0.004255 -0.007202 -26432.400000 0 0 1
23.731866 32.774738 23.493901 46.790472 0.944085 1.044761 0.003606 -0.013877 1953640.000000 0 0 1
25.133946 32.967338 23.054001 47.434667 0.919413 1.063271 -0.011930 -0.002564 1918570.000000 0 0 1
25.214026 33.456838 21.583401 47.126960 0.924977 1.095070 -0.002237 -0.010254 590379.000000 0 0 1
26.569216 33.775438 21.257401 47.943514 0.904253 1.111425 -0.003531 -0.007669 497035.000000 0 0 1
26.730876 34.295938 19.974401 47.851100 0.908732 1.140183 -0.006244 -0.006632 537193.000000 0 0 1
28.135286 -34.634070 19.385601 48.650948 -0.888565 1.160956 -0.006274 -0.004197 294177.000000 0 0 1
28.995506 33.649138 19.101501 48.351538 0.859548 1.164669 -0.003750 -0.006050 -487764.000000 0 0 1
29.989076 34.136538 18.208701 48.951044 0.849985 1.189658 -0.004110 0.001232 -251218.000000 0 0 1
30.994326 33.100938 17.713201 48.683445 0.818253 1.198404 -0.016850 -0.003377 -34726.500000 0 0 1
31.866676 32.608238 18.717901 49.286327 0.796899 1.181239 -0.007351 -0.006291 441281.000000 0 0 1
32.709906 31.522738 18.282001 48.967873 0.766918 1.188182 -0.002570 -0.017094 773914.000000 0 0 1
33.610636 30.877938 19.384701 49.587181 0.743049 1.169164 0.015020 -0.031231 558415.000000 0 0 1
34.491801 31.809438 20.013201 51.010322 0.744963 1.167626 0.025286 -0.023530 125908.000000 0 0 1
-34.657620 31.196938 20.946501 51.119032 -0.732896 1.148606 0.021943 -0.022538 236967.000000 0 0 1
-33.539970 32.174638 21.413001 51.172781 -0.764624 1.139064 0.010831 -0.018349 -299758.000000 0 0 1
-32.713070 32.540838 20.329101 50.421458 -0.782759 1.155803 0.016411 -0.019515 -135362.000000 0 0 1
-31.623260 33.403738 20.592801 50.397457 -0.812772 1.149868 0.005217 -0.003643 83118.500000 0 0 1
-31.746740 -34.621270 21.484201 51.653255 0.828683 1.141830 -0.007632 -0.003826 -626725.000000 0 0 1
-31.735240 34.502538 22.876201 52.161970 -0.827152 1.116800 0.016362 -0.006947 123035.000000 0 0 1
-31.835520 -33.651870 23.566501 51.974308 0.813127 1.100191 0.006085 0.000146 -74778.800000 0 0 1
-32.039530 -33.846570 25.119491 52.944411 0.812818 1.076457 0.007568 -0.011240 -474945.000000 0 0 1
-33.315350 -34.274470 25.478051 54.164407 0.799588 1.081071 0.015331 -0.016217 -666142.000000 0 0 1
-33.239030 34.506238 26.766571 54.881353 -0.804101 1.061324 0.016069 -0.017467 1121660.000000 0 0 1
-34.629169 34.435138 27.524771 56.058640 -0.782589 1.057559 0.012712 -0.024292 1160530.000000 0 0 1
-34.499342 33.562338 28.629451 56.002505 -0.771632 1.034196 0.028075 -0.029207 -178862.000000 0 0 1
34.250457 33.423538 29.238151 56.081157 0.773180 1.022359 0.027467 -0.029509 -104341.000000 0 0 1
34.218730 32.434938 30.451801 56.127167 0.758642 0.997326 0.020717 -0.023548 -220341.000000 0 0 1
34.120057 31.029738 30.250711 55.155493 0.738000 0.990272 0.011694 -0.017429 161122.000000 0 0 1
-34.909303 30.453838 29.396881 54.865948 -0.717339 1.005348 0.014321 -0.019358 -292556.000000 0 0 1
34.919038 28.993438 28.863321 53.787079 0.692948 1.004368 0.011153 -0.016891 -568188.000000 0 0 1
33.806086 28.859938 28.002281 52.534515 0.706633 1.008623 0.012152 -0.015582 190254.000000 0 0 1
33.447436 27.568138 27.530101 51.348220 0.689337 1.004933 0.017374 -0.018281 201091.000000 0 0 1
33.100596 26.443238 28.568621 51.098536 0.674055 0.977510 0.011022 -0.017844 -1192990.000000 0 0 1
34.243134 26.018038 29.229071 51.998742 0.649746 0.973860 -0.005576 -0.013381 -552080.000000 0 0 1
34.081879 24.771838 29.875511 51.650408 0.628509 0.954009 -0.008860 -0.009761 -414860.000000 0 0 1
34.645337 23.641438 29.063911 51.028697 0.598805 0.964826 -0.009921 -0.005394 -723130.000000 0 0 1
33.904236 23.441838 27.886761 49.766338 0.604940 0.975983 -0.024349 -0.007851 -61689.700000 0 0 1
34.518723 22.729938 26.832091 49.276297 0.582314 0.994976 -0.026368 -0.012851 -853285.000000 0 0 1
34.456605 21.168938 27.066331 48.661770 0.550915 0.980974 -0.022930 -0.009151 -226145.000000 0 0 1
33.165136 20.616438 26.822221 47.375050 0.556172 0.968947 0.000654 0.008720 664891.000000 0 0 1
32.771556 19.502538 27.586421 47.067340 0.536813 0.944553 0.009290 0.007316 -719077.000000 0 0 1
32.587906 19.787138 29.137341 47.984238 0.545691 0.918230 0.002442 0.000059 -506430.000000 0 0 1
31.418806 20.382638 29.649131 47.766770 0.575489 0.901153 -0.003689 0.007720 122508.000000 0 0 1
31.221506 21.744438 29.217411 47.971451 0.608344 0.915924 -0.002737 -0.003171 -1094780.000000 0 0 1
30.342816 22.509238 30.198451 48.366297 0.638252 0.896472 0.009673 -0.003630 430.222000 0 0 1
28.951536 22.259038 30.061641 47.300724 0.655449 0.882085 0.017212 -0.009559 878098.000000 0 0 1
28.188676 22.871238 28.966191 46.440663 0.681631 0.897297 0.020592 -0.014125 211474.000000 0 0 1
28.005056 24.412238 28.955631 47.102750 0.716963 0.908749 0.019200 -0.007756 494353.000000 0 0 1
29.270076 25.100238 28.757681 48.101596 0.708855 0.929976 0.010065 -0.005534 942883.000000 0 0 1
29.349356 26.434538 29.268761 49.161264 0.733194 0.933080 0.011350 -0.006355 -342177.000000 0 0 1
29.731386 26.461438 30.756761 50.300511 0.727272 0.912892 0.009614 -0.011378 -298799.000000 0 0 1
31.101646 26.149538 30.864251 51.026588 0.699115 0.921199 0.010692 -0.012189 -73789.500000 0 0 1
31.662196 25.906438 32.198491 52.061320 0.685749 0.903999 0.021988 -0.016615 161481.000000 0 0 1
30.885016 24.846438 33.069561 51.621949 0.677468 0.875503 0.027247 -0.013841 -167432.000000 0 0 1
31.412286 24.576138 34.366039 52.647345 0.663900 0.859575 0.010916 -0.010988 -171997.000000 0 0 1
30.583606 23.768338 -34.081971 51.593329 0.660658 2.292399 -0.001165 -0.009861 -504855.000000 0 0 1
31.291246 23.362238 -32.764823 50.975189 0.641326 2.268892 -0.014680 -0.002569 -241933.000000 0 0 1
31.501696 24.319838 -31.762963 50.918535 0.657444 2.244391 -0.008367 -0.006028 215974.000000 0 0 1
32.097616 23.714138 -30.620673 50.301520 0.636303 2.225271 -0.008091 -0.008847 -40798.600000 0 0 1
32.680436 24.580338 -29.467113 50.403518 0.644871 2.195213 0.004706 -0.003685 403111.000000 0 0 1
33.199376 23.759538 -28.402043 49.733191 0.621160 2.178627 -0.000485 -0.009505 67353.400000 0 0 1
34.043660 24.479938 -27.524973 50.158372 0.623413 2.151678 0.013920 -0.006646 69399.500000 0 0 1
34.544786 23.692638 -26.316273 49.469481 0.601168 2.131722 0.010188 -0.013402 278492.000000 0 0 1
-34.330059 22.838638 -26.520843 49.025620 -0.587033 2.142373 -0.001775 -0.007912 321351.000000 0 0 1
-34.656937 21.524738 -26.728443 48.773223 -0.555776 2.150785 -0.011738 0.006077 -725299.000000 0 0 1
-33.497670 20.696838 -27.299773 47.913783 -0.553448 2.177021 -0.004316 0.011848 -735619.000000 0 0 1
-32.437620 20.673238 -26.409723 46.658926 -0.567412 2.172462 -0.009027 0.006402 -822819.000000 0 0 1
-31.722510 19.456638 -26.549293 45.713711 -0.550170 2.190474 -0.024830 0.014961 673916.000000 0 0 1
-30.272050 19.485738 -25.946483 44.376919 -0.571925 2.195287 -0.019988 0.006294 563462.000000 0 0 1
-30.257040 19.489438 -24.523853 43.551647 -0.572237 2.168926 -0.027678 0.000740 143788.000000 0 0 1
-28.961530 19.728238 -24.006853 42.477083 -0.597988 2.171438 -0.030168 0.005858 227580.000000 0 0 1
-29.196110 19.975238 -22.484753 41.916429 -0.600026 2.136984 -0.038809 0.009640 75379.700000 0 0 1
-29.862240 18.980238 -21.764953 41.541738 -0.566181 2.122254 -0.055200 0.017066 -115748.000000 0 0 1
-30.341590 19.542038 -20.575853 41.543580 -0.572194 2.088958 -0.044807 0.021282 -1153290.000000 0 0 1
-31.371890 18.647538 -19.843353 41.541362 -0.536294 2.068805 -0.042668 0.016270 -24595.700000 0 0 1
-32.071580 19.210838 -18.759653 41.827827 -0.539683 2.035879 -0.039062 0.005906 319217.000000 0 0 1
-32.933440 20.271338 -19.161953 43.159229 -0.551756 2.030835 -0.043893 0.007769 -1215190.000000 0 0 1
-33.948970 20.754038 -18.114653 43.719598 -0.548709 1.998011 -0.027231 -0.002181 -279698.000000 0 0 1
-33.492810 21.319938 -16.886253 43.144566 -0.566864 1.972935 -0.025641 -0.007538 -212654.000000 0 0 1
-34.498885 21.083438 -15.944153 43.461482 -0.548566 1.946425 -0.016236 0.004896 -779318.000000 0 0 1
-34.537894 21.892238 -14.596653 43.418872 -0.564946 1.913657 -0.012697 0.007176 -253389.000000 0 0 1
-34.791262 23.311238 -14.725553 44.392427 -0.590328 1.908915 -0.009675 -0.001988 209757.000000 0 0 1
33.935006 23.600038 -15.225653 44.049597 0.607665 1.923726 -0.000254 0.011250 -174515.000000 0 0 1
33.777366 25.110938 -15.432853 44.829038 0.639280 1.922247 -0.005619 0.002531 4587.250000 0 0 1
34.125957 25.837338 -14.237753 45.109451 0.648040 1.891913 -0.007677 0.002411 66864.000000 0 0 1
34.050282 27.227438 -14.383253 45.908965 0.674512 1.889462 -0.013170 0.008562 76296.500000 0 0 1
-34.678745 27.830038 -15.018753 46.932817 -0.676270 1.896531 -0.007863 0.001357 229615.000000 0 0 1
-34.647900 27.593838 -16.399553 47.231792 -0.672546 1.925395 0.004922 0.001209 509325.000000 0 0 1
-33.647970 28.447538 -16.993853 47.225410 -0.701844 1.938899 0.016625 -0.004948 -341886.000000 0 0 1
-33.577580 28.124938 -18.510253 47.550977 -0.697257 1.970637 0.013586 -0.012461 -79440.100000 0 0 1
-32.952200 26.925038 -18.968653 46.589859 -0.685077 1.990118 0.005588 -0.012255 756472.000000 0 0 1
-31.544700 26.859738 -18.738253 45.471263 -0.705354 1.995543 -0.002914 -0.000805 252447.000000 0 0 1
-31.016470 25.442538 -18.928353 44.357938 -0.686992 2.011658 -0.010037 -0.005955 -573047.000000 0 0 1
-30.907980 25.156638 -20.309853 44.728624 -0.683172 2.042123 -0.014060 -0.006574 141523.000000 0 0 1
-30.537340 23.806838 -20.406853 43.769102 -0.662176 2.055831 -0.017482 -0.006777 -360700.000000 0 0 1
-30.031130 23.511938 -21.826753 43.944136 -0.664238 2.090581 -0.023808 -0.001301 -242479.000000 0 0 1
-31.025030 23.761438 -22.810953 45.249287 -0.653587 2.099156 -0.001391 -0.008056 -30061.500000 0 0 1
-30.663870 23.523738 -24.140353 45.567486 -0.654386 2.129127 0.008782 -0.007715 29015.900000 0 0 1
-31.660650 24.091038 -25.201863 47.094678 -0.650450 2.135460 -0.013614 0.000161 89217.200000 0 0 1
-31.588330 25.500338 -25.260483 47.814033 -0.679159 2.127402 -0.020677 0.003837 105511.000000 0 0 1
-32.514930 26.020538 -26.210523 49.206509 -0.674902 2.132541 -0.013163 -0.001608 -148659.000000 0 0 1
-32.315900 27.493038 -26.454173 50.000078 -0.704934 2.128315 -0.015706 0.006043 -247710.000000 0 0 1
-31.138590 27.801938 -27.135803 49.788667 -0.728848 2.147209 -0.025717 0.001485 -693764.000000 0 0 1
-30.917680 29.212238 -27.387443 50.589819 -0.757043 2.142853 -0.024301 -0.000120 94208.600000 0 0 1
-29.611240 29.555338 -28.161643 50.432347 -0.784453 2.163257 -0.027778 0.011462 -48791.000000 0 0 1
-28.496920 29.111638 -27.435013 49.114579 -0.796068 2.163484 -0.069124 0.011334 163794.000000 0 0 1
-27.270280 29.196138 -28.214543 48.909539 -0.819491 2.185690 -0.024216 0.016325 1020450.000000 0 0 1
-26.411380 30.399338 -27.850303 48.962435 -0.855480 2.175854 -0.034690 0.014057 -941012.000000 0 0 1
-25.846820 30.334538 -26.576503 47.901490 -0.865108 2.158938 -0.035757 0.014778 -49643.900000 0 0 1
-26.741590 30.660238 -25.522653 48.026749 -0.853559 2.131079 -0.043449 0.022451 -64259.500000 0 0 1
-26.031560 31.303138 -24.314153 47.420529 -0.877084 2.109163 -0.058567 0.018408 216103.000000 0 0 1
-25.654890 32.676038 -24.456253 48.207936 -0.905189 2.102854 -0.037144 0.015525 -221190.000000 0 0 1
-24.614270 33.036138 -23.588953 47.473017 -0.930457 2.090810 -0.033044 0.024783 -63619.100000 0 0 1
-23.944870 34.425638 -23.880153 48.257052 -0.963061 2.088462 -0.037090 0.030426 73870.700000 0 0 1
-24.601170 -33.736770 -23.267553 47.799228 0.940735 2.079192 -0.042374 0.015877 268901.000000 0 0 1
-24.033070 -32.514670 -23.680853 46.856963 0.934278 2.100626 -0.025446 0.012272 -98737.600000 0 0 1
16.115030 8.491238 -25.551143 31.379232 0.484946 2.522265 0.036960 -0.029070 650354.000000 0 0 1
14.764330 8.131138 -25.215303 30.330057 0.503402 2.552353 0.040662 -0.031033 896277.000000 0 0 1
14.575530 6.776238 -25.489973 30.134734 0.435180 2.578985 0.043047 -0.035993 56234.400000 0 0 1
13.073330 6.439738 -25.372273 29.259774 0.457699 2.620224 0.036359 -0.026194 22993.400000 0 0 1
12.542530 6.401338 -24.061953 27.879558 0.471910 2.612109 0.036506 -0.037270 -183596.000000 0 0 1
11.237830 5.897538 -24.126853 27.261232 0.483285 2.657342 0.028168 -0.026807 -830064.000000 0 0 1
10.469830 6.036138 -22.849053 25.848240 0.522981 2.655081 0.031671 -0.031844 -700339.000000 0 0 1
10.919130 5.191338 -21.838953 24.962316 0.443803 2.635978 0.019286 -0.020395 166524.000000 0 1 0
10.279330 5.317638 -20.556953 23.590892 0.477402 2.628832 0.012221 -0.013401 -463551.000000 0 1 0
10.759330 6.539938 -19.781253 23.448495 0.546163 2.574757 0.019800 -0.025741 -351730.000000 0 1 0
10.482630 6.797538 -18.434853 22.269617 0.575290 2.545976 0.012104 -0.015524 -373075.000000 0 1 0
10.939130 8.095538 -18.123353 22.664029 0.637105 2.497513 0.026164 -0.012122 141361.000000 0 1 0
12.428430 8.266738 -17.774253 23.210534 0.586950 2.443056 0.029322 -0.017675 -86517.300000 0 1 0
12.914830 7.886638 -16.477153 22.371599 0.548225 2.398709 0.025345 -0.023582 419079.000000 0 1 0
14.252430 8.254238 -16.207253 23.107125 0.524945 2.348151 0.008345 -0.017081 -98270.300000 0 1 0
14.603730 7.768138 -14.756053 22.166506 0.488863 2.299216 0.015744 -0.024752 -300483.000000 0 1 0
15.998430 7.518338 -14.630853 22.946394 0.439314 2.262188 0.000988 -0.026864 652528.000000 0 1 0
16.498830 7.809838 -13.371353 22.627374 0.442107 2.203016 -0.007802 -0.027244 -644949.000000 0 1 0
17.138030 9.169738 -13.356153 23.583532 0.491294 2.172847 0.012580 -0.023559 -1182800.000000 0 1 0
16.170630 10.165838 -13.394253 23.328942 0.561227 2.182359 0.020010 -0.012653 101816.000000 0 1 0
16.714430 11.470138 -13.368053 24.282526 0.601432 2.153785 0.025445 -0.011854 -92110.100000 0 1 0
15.606230 12.548838 -13.239453 24.006475 0.677231 2.154952 0.039011 -0.010768 -38012.600000 0 1 0
14.935230 12.566238 -11.981353 22.902494 0.699470 2.121335 0.054752 -0.007367 396486.000000 0 1 0
15.541330 13.473238 -11.077953 23.361980 0.714241 2.064837 0.049393 0.001116 -75788.700000 0 1 0
15.090030 14.968538 -11.228153 24.038252 0.781356 2.056799 0.046220 -0.006619 1119060.000000 0 1 0
13.842430 15.280638 -10.549253 23.160257 0.834742 2.043718 0.058400 -0.016505 927644.000000 0 1 0
13.492230 16.600938 -10.705753 23.921634 0.888336 2.034803 0.043387 -0.014186 725735.000000 0 1 0
12.198230 17.031838 -9.908153 23.174378 0.949279 2.012575 0.032926 -0.016492 706820.000000 0 1 0
12.353830 16.973538 -8.487853 22.644243 0.941636 1.955015 0.031882 -0.007849 -416270.000000 0 1 0
11.330230 17.534438 -7.741453 22.265685 0.997118 1.925898 0.027586 0.001929 -570221.000000 0 1 0
11.523430 17.334938 -6.225953 21.726758 0.984121 1.861427 0.018875 0.004770 172633.000000 0 1 0
12.501630 18.217138 -5.723453 22.823514 0.969354 1.824272 0.015298 0.009967 207509.000000 0 1 0
13.181630 17.675738 -4.591553 22.522643 0.930023 1.776099 0.017049 0.006994 -32088.000000 0 1 0
14.162030 18.649238 -3.851753 23.731691 0.921313 1.733822 0.007448 0.012732 675056.000000 0 1 0
15.264330 18.928138 -4.738553 24.773536 0.892143 1.763257 0.003560 0.008346 440525.000000 0 1 0
16.017430 20.071738 -4.304653 26.037718 0.897271 1.736883 0.004860 0.004907 93447.800000 0 0 1
17.432630 20.079338 -4.960753 27.049685 0.855838 1.755234 0.009320 0.004689 103523.000000 0 0 1
18.328930 19.200738 -4.299153 26.890532 0.808624 1.731361 0.006225 -0.005378 33656.600000 0 0 1
18.290830 17.878438 -4.825853 26.028482 0.773997 1.757282 -0.006083 -0.005399 -769025.000000 0 0 1
19.435430 17.021038 -4.294453 26.189578 0.719268 1.735516 0.027650 -0.018028 -388897.000000 0 0 1
20.702530 17.281238 -4.853253 27.400547 0.695568 1.748858 0.044063 -0.023913 -649438.000000 0 0 1
21.556430 16.422138 -4.193253 27.421701 0.651024 1.724316 0.059259 -0.027493 696767.000000 0 0 1
23.091830 16.548438 -4.603653 28.779803 0.621804 1.731448 0.068057 -0.021133 1418710.000000 0 0 1
23.618230 17.848538 -4.338553 29.920129 0.647146 1.716314 0.070764 -0.025130 848404.000000 0 0 1
25.053330 17.805738 -4.361853 31.044153 0.617880 1.711768 0.052545 -0.016190 845805.000000 0 0 1
25.712230 18.993238 -3.605753 32.169292 0.636220 1.683119 0.057323 -0.014085 -74683.100000 0 0 1
25.656730 20.132638 -4.411953 32.909820 0.665337 1.705263 0.063564 -0.010996 188188.000000 0 0 1
26.181730 21.209138 -3.701353 33.897058 0.680853 1.680208 0.085283 0.015371 -420700.000000 0 0 1
25.911630 22.630538 -4.354953 34.677362 0.717908 1.696714 0.048243 0.017021 -111284.000000 0 0 1
26.757830 23.234438 -5.335853 35.837019 0.715036 1.720244 0.033204 0.020626 151621.000000 0 0 1
27.213330 22.419738 -6.390353 35.833596 0.689116 1.750089 0.034246 0.015798 -200120.000000 0 0 1
28.250330 23.172538 -7.227653 37.246297 0.686971 1.766086 0.012695 0.017353 -82516.500000 0 0 1
27.701930 24.039838 -8.213953 37.586963 0.714740 1.791106 0.001878 0.016243 563412.000000 0 0 1
28.706330 24.982838 -8.614653 39.018045 0.716156 1.793417 -0.008477 0.017183 13282.900000 0 0 1
29.640930 24.560138 -9.718353 39.701782 0.691932 1.818093 -0.004187 0.005199 -304462.000000 0 0 1
29.022030 24.356538 -11.004753 39.454071 0.698216 1.853472 -0.003769 0.008473 -427255.000000 0 0 1
29.995530 24.000238 -11.895853 40.215104 0.674818 1.871095 -0.005048 0.006546 -688840.000000 0 0 1
29.489230 23.415638 -13.224853 39.909943 0.671096 1.908549 -0.002992 0.007750 -16690.400000 0 0 1
29.300730 24.265738 -14.334053 40.654937 0.691678 1.931121 0.014317 0.008923 120652.000000 0 0 1
29.017730 23.613938 -15.561253 40.519123 0.683085 1.964972 0.017346 0.005059 -111571.000000 0 0 1
28.963430 24.608338 -16.734053 41.526848 0.704282 1.985555 0.019730 0.004003 -175156.000000 0 0 1
30.165730 25.283338 -17.061853 42.899012 0.697573 1.979828 0.015842 0.008322 -62527.300000 0 0 1
30.181430 25.667138 -18.380553 43.675684 0.704743 2.005169 0.022049 -0.005341 580050.000000 0 0 1
31.589230 26.123038 -18.891053 45.134958 0.690965 2.002640 0.013585 -0.012749 667690.000000 0 0 1
32.462130 25.058138 -19.178853 45.271719 0.657382 2.008255 0.015896 -0.012967 -37875.400000 0 0 1
33.815630 25.466438 -19.326053 46.535284 0.645480 1.999068 0.011670 -0.018662 666678.000000 0 0 1
34.803430 24.241638 -19.199553 46.557047 0.608393 1.995870 0.001581 -0.019925 249260.000000 0 0 1
34.818930 23.171738 -20.185553 46.440757 0.587189 2.020448 0.002600 -0.015889 524207.000000 0 0 1
-34.226306 23.512738 -21.201053 46.623744 -0.601933 2.042861 0.015392 -0.021348 292552.000000 0 0 1
-34.161006 22.566738 -22.414953 46.676141 -0.583790 2.071705 0.019060 -0.021365 -211258.000000 0 0 1
-33.859506 21.262838 -22.152953 45.709165 -0.560734 2.076759 -0.003557 -0.016169 230669.000000 0 0 1
-33.548306 20.587538 -23.384953 45.784185 -0.550409 2.106871 -0.013841 -0.010391 71789.800000 0 0 1
-33.160406 19.104838 -23.129753 44.716807 -0.522686 2.114430 -0.031008 0.005473 -70341.600000 0 0 1
-34.298506 18.318938 -22.819253 45.085356 -0.490556 2.101493 -0.020187 -0.005880 74052.600000 0 0 1
-34.146606 16.984638 -23.121253 44.598890 -0.461568 2.115806 -0.028603 -0.000282 -740828.000000 0 0 1
34.655730 16.117538 -22.824353 44.516803 0.435320 2.109138 -0.025127 -0.004799 -1079410.000000 0 0 1
33.607630 16.451238 -23.694253 44.289205 0.455220 2.135291 0.008139 -0.013392 -377283.000000 0 0 1
32.484830 15.610538 -23.572453 43.065225 0.447966 2.150010 0.012596 -0.000498 -263945.000000 0 0 1
32.618930 14.151138 -24.062753 42.933266 0.409328 2.165748 -0.020330 0.000443 -1229210.000000 0 0 1
32.619130 13.929338 -25.490383 43.678298 0.403589 2.193944 -0.023780 0.010102 230366.000000 0 0 1
32.917930 12.588738 -25.855953 43.710373 0.365267 2.203750 -0.022396 0.012692 -310548.000000 0 0 1
32.983530 12.271938 -27.343133 44.566362 0.356193 2.231329 -0.005677 0.005684 621866.000000 0 0 1
31.672030 12.416938 -27.915913 44.006772 0.373632 2.257970 -0.014674 0.003074 754521.000000 0 0 1
31.303330 13.632838 -28.467243 44.453759 0.410737 2.265788 -0.000462 0.001460 -424006.000000 0 0 1
31.563230 13.743438 -29.997743 45.661627 0.410668 2.287572 0.006261 -0.003110 218159.000000 0 0 1
32.943230 14.009238 -30.221443 46.849234 0.402086 2.271923 -0.012787 0.003295 341169.000000 0 0 1
33.234730 13.698338 -31.608423 47.867360 0.390953 2.292059 -0.013584 0.000756 425873.000000 0 0 1
34.729430 14.009938 -31.968353 49.238067 0.383436 2.277409 -0.001143 -0.004820 1266860.000000 0 0 1
-34.184906 13.255838 -31.452983 48.307506 -0.369918 2.279828 -0.003027 -0.001703 591649.000000 0 0 1
-33.989206 13.333438 -30.070383 47.299837 -0.373837 2.259763 -0.005748 -0.001499 -479512.000000 0 0 1
-32.955506 12.285038 -29.579753 45.955950 -0.356820 2.270060 -0.003399 -0.003594 -56792.300000 0 0 1
-33.355206 10.996338 -29.901983 46.126107 -0.318453 2.276101 -0.002630 -0.010241 -107051.000000 0 0 1
-32.417606 10.006538 -29.584913 45.014432 -0.299397 2.287936 0.001158 -0.012147 -439076.000000 0 0 1
-32.679606 8.633538 -30.136003 45.284360 -0.258286 2.298938 0.014433 -0.013511 -737688.000000 0 0 1
-32.649906 8.573038 -31.526803 46.189313 -0.256778 2.322051 0.011994 -0.015307 302341.000000 0 0 1
-33.000306 7.326538 -32.164343 46.660940 -0.218471 2.331347 0.013514 -0.011337 191324.000000 0 0 1
-34.399506 6.733938 -31.822863 47.343073 -0.193312 2.307940 0.021959 0.006866 -266088.000000 0 0 1
-34.305506 5.765638 -30.776173 46.446562 -0.166511 2.295101 0.025368 -0.001882 224806.000000 0 0 1
34.500930 5.338238 -30.188423 46.153568 0.153510 2.283771 0.012849 -0.001096 -375111.000000 0 0 1
34.732030 4.684838 -28.857083 45.398159 0.134076 2.259639 0.014029 -0.009495 -302243.000000 0 0 1
-34.593106 3.475538 -28.944483 45.238760 -0.100133 2.265055 0.031475 -0.008242 188843.000000 0 0 1
-34.944506 2.522438 -27.951093 44.819023 -0.072059 2.244191 0.027680 -0.008777 -273178.000000 0 0 1
-34.018106 1.292238 -27.990433 44.072279 -0.037969 2.258938 0.051483 -0.009234 248299.000000 0 0 1
-32.681406 1.530438 -27.583743 42.793451 -0.046795 2.271268 0.056313 -0.011157 157781.000000 0 0 1
-32.045706 0.340238 -27.214183 42.043487 -0.010617 2.274816 0.055086 -0.011674 -97137.200000 0 0 1
-30.878506 0.464538 -26.242763 40.526294 -0.015043 2.275160 0.051521 -0.010660 -118640.000000 0 0 1
-31.382006 0.322638 -24.936953 40.084735 -0.010281 2.242226 0.043033 -0.008597 310323.000000 0 0 1
-30.333006 0.441938 -24.018153 38.693129 -0.014569 2.240475 0.054937 -0.008104 -121731.000000 0 0 1
-30.809006 0.009538 -22.610453 38.215540 -0.000310 2.203908 0.042077 0.002759 -352237.000000 0 0 1
-31.005506 -1.409762 -22.526053 38.350383 0.045437 2.198608 0.059688 -0.003654 265549.000000 0 0 1
-31.111106 -1.842562 -21.222053 37.705059 0.059156 2.168618 0.038414 0.000361 -456804.000000 0 0 1
-32.500506 -1.643562 -20.595853 38.511990 0.050527 2.135056 0.026736 0.004469 -320857.000000 0 0 1
-33.427306 -2.659362 -21.017153 39.574963 0.079389 2.130661 0.033957 -0.011059 300521.000000 0 0 1
-34.615406 -2.477862 -20.269153 40.189609 0.071461 2.099412 0.022912 -0.003640 340622.000000 0 0 1
34.541230 -3.801262 -20.079753 40.134058 -0.109609 2.094761 0.019703 -0.001545 199384.000000 0 0 1
33.877330 -4.453862 -21.144553 40.182117 -0.130721 2.124943 0.016508 -0.000364 141898.000000 0 0 1
34.727530 -4.886562 -22.202753 41.507133 -0.139794 2.135202 0.025459 -0.011538 -387727.000000 0 0 1
34.091330 -5.650362 -23.387753 41.726878 -0.164249 2.165781 0.022271 -0.008718 -961880.000000 0 0 1
33.775730 -6.985762 -23.056953 41.487635 -0.203952 2.160067 0.020328 0.000234 336530.000000 0 0 1
33.279930 -7.670362 -24.261753 41.892969 -0.226524 2.188466 0.024054 0.002287 931148.000000 0 0 1
31.864230 -7.272162 -24.820153 41.039657 -0.224380 2.220292 -0.002965 0.013534 32691.200000 0 0 1
31.822630 -6.027962 -25.463833 41.199792 -0.187206 2.237065 0.001152 0.003777 -31448.100000 0 0 1
30.495830 -5.700962 -25.831793 40.370511 -0.184809 2.265123 -0.028096 0.016042 185924.000000 0 0 1
30.331030 -4.412462 -26.679853 40.635646 -0.144463 2.287049 0.000252 -0.014380 50190.800000 0 0 1
30.877630 -4.545162 -27.989803 41.922734 -0.146150 2.301847 0.010273 -0.009878 572821.000000 0 0 1
30.287430 -3.515662 -28.798123 41.940674 -0.115559 2.327653 0.015415 -0.013544 160020.000000 0 0 1
30.576230 -3.691962 -30.307633 43.209826 -0.120164 2.348165 0.027895 -0.009393 -351641.000000 0 0 1
29.812530 -2.814362 -31.037873 43.128380 -0.094123 2.374112 0.037107 -0.028912 174379.000000 0 0 1
28.980930 -3.410062 -32.079593 43.366151 -0.117127 2.403477 0.039900 -0.029407 176876.000000 0 0 1
28.279230 -2.294962 -32.943233 43.476871 -0.080976 2.430606 0.043490 -0.031733 1011150.000000 0 0 1
27.127130 -1.586062 -32.340593 42.241102 -0.058401 2.442799 0.034484 -0.031154 1870150.000000 0 0 1
25.959030 -2.380562 -32.106353 41.356453 -0.091449 2.459622 0.047622 -0.032610 286715.000000 0 0 1
25.085530 -2.704362 -33.350323 41.819151 -0.107391 2.493919 0.050994 -0.034325 -822492.000000 0 0 1
25.728330 -3.673262 -34.118439 42.889482 -0.141813 2.490623 0.056688 -0.036017 -51888.300000 0 0 1
25.060830 -3.936162 33.917337 42.354744 -0.155792 0.642180 0.043263 -0.029133 -690881.000000 0 0 1
25.731030 -4.994562 32.949231 42.103247 -0.191722 0.671994 0.040080 -0.027256 855849.000000 0 0 1
27.096630 -4.698962 32.605441 42.654688 -0.171707 0.700679 0.035351 -0.020163 740638.000000 0 0 1
27.329630 -3.601362 31.720271 42.024446 -0.131020 0.715439 0.036676 -0.027420 -526741.000000 0 0 1
28.111730 -2.379462 32.283331 42.873589 -0.084442 0.718204 0.030011 -0.032685 505276.000000 0 0 1
29.475430 -2.618762 32.608031 44.033426 -0.088613 0.736939 0.018266 -0.027309 429988.000000 0 0 1
30.172330 -1.478662 33.072101 44.791961 -0.048968 0.740177 0.013180 -0.020382 -430650.000000 0 0 1
31.643130 -1.671162 33.419687 46.053837 -0.052764 0.758795 0.010909 -0.015208 -485066.000000 0 0 1
32.400130 -1.945262 32.242551 45.750787 -0.059967 0.788735 0.025651 -0.013365 -708314.000000 0 0 1
33.735030 -2.066762 32.630641 46.979596 -0.061188 0.802974 0.027129 -0.007639 -714376.000000 0 0 1
34.595430 -2.660062 31.518141 46.875504 -0.076740 0.833377 0.002114 0.003391 -257899.000000 0 0 1
34.774830 -1.910862 30.347601 46.194340 -0.054894 0.854024 -0.000227 0.010265 -172578.000000 0 0 1
-34.316406 -2.520062 29.477391 45.308752 0.073304 0.862436 -0.005175 0.017007 -77655.200000 0 0 1
-34.087406 -1.733262 28.139591 44.235642 0.050804 0.881325 -0.005337 0.018557 -152811.000000 0 0 1
34.875930 -1.686162 27.205041 44.263844 -0.048310 0.908904 -0.003845 0.005737 -134659.000000 0 0 1
-34.585906 -1.619262 25.865661 43.218507 0.046784 0.929187 -0.003682 0.011350 -67275.400000 0 0 1
-26.018200 15.624438 12.410547 32.788588 -0.540801 1.182619 0.017923 0.002871 -311177.000000 0 0 1
-27.279820 15.089538 12.692147 33.659669 -0.505250 1.184163 -0.007349 0.009869 -169014.000000 0 0 1
-28.003070 15.895538 13.580047 34.946498 -0.516282 1.171690 0.009674 0.002483 257233.000000 0 0 1
-29.250570 15.190138 14.207647 35.891411 -0.478977 1.163802 0.011977 -0.002071 190964.000000 0 0 1
-29.994720 16.109938 14.966747 37.191623 -0.492879 1.156635 0.016413 -0.004776 -541442.000000 0 0 1
-30.984710 15.308838 15.583747 37.911291 -0.458898 1.147182 0.006650 0.017536 -398416.000000 0 0 1
-32.070960 16.141238 16.285847 39.424800 -0.466282 1.144956 0.017055 0.013745 -62652.300000 0 0 1
-31.600770 16.676938 17.481247 39.778423 -0.485591 1.115793 0.019301 0.020599 285458.000000 0 0 1
-32.685000 16.535638 18.382547 40.983589 -0.468364 1.105672 0.013362 0.017846 240851.000000 0 0 1
-32.196570 16.884838 19.845847 41.419494 -0.483000 1.071119 0.009209 0.016658 58021.400000 0 0 1
-31.399830 15.766338 20.140247 40.498843 -0.465338 1.050308 0.011549 0.006372 -541583.000000 0 0 1
-30.189830 15.960838 20.823147 39.997220 -0.486330 1.023225 0.008201 0.005164 -65421.100000 0 0 1
-30.207130 16.348338 22.315647 40.960066 -0.496068 0.994628 0.016684 -0.001698 -505574.000000 0 0 1
-30.570000 17.691838 22.444847 41.848503 -0.524634 1.004707 0.000692 0.003609 -67907.800000 0 0 1
-30.696400 18.214038 23.732747 42.863311 -0.535523 0.984014 -0.008031 -0.009217 -700221.000000 0 0 1
-31.603820 17.558538 24.805647 43.845454 -0.507119 0.969452 -0.015666 -0.006671 -302367.000000 0 0 1
-32.962330 17.405038 24.505447 44.609052 -0.485818 0.989225 0.010654 -0.001336 -602147.000000 0 0 1
-33.755590 18.529038 24.558047 45.671247 -0.502012 1.003073 0.000283 -0.005790 -284408.000000 0 0 1
34.771391 18.184838 24.204647 46.104262 0.481864 1.018084 -0.039284 -0.010378 586384.000000 0 0 1
34.154904 17.359138 25.169747 45.841175 0.470224 0.989552 -0.017882 -0.002591 713997.000000 0 0 1
32.870646 16.885238 24.698147 44.447600 0.474537 0.981629 0.000409 -0.009363 979224.000000 0 0 1
32.128646 15.988438 25.686647 44.132572 0.461756 0.949569 -0.000515 0.004583 -417882.000000 0 0 1
31.570666 16.513238 26.828647 44.600116 0.481922 0.925372 0.005389 0.001881 -126046.000000 0 0 1
31.411736 15.698738 27.959747 44.887582 0.463466 0.898373 -0.002837 0.000285 778303.000000 0 0 1
30.405576 14.441238 27.925147 43.736281 0.443410 0.878263 -0.002842 -0.004309 728632.000000 0 0 1
30.999026 13.319438 27.370347 43.445172 0.405822 0.889246 -0.007713 -0.002695 615499.000000 0 0 1
30.007666 12.290438 27.505147 42.521148 0.388735 0.867339 -0.004385 0.003724 587163.000000 0 0 1
30.595296 10.897938 27.261247 42.402981 0.342184 0.872506 -0.000978 0.013380 124248.000000 0 0 1
31.636626 10.481538 28.131047 43.613010 0.319929 0.869753 -0.003964 0.008412 52703.400000 0 0 1
32.102356 9.198638 27.822347 43.465610 0.279064 0.876168 -0.012690 0.011266 -418743.000000 0 0 1
33.050046 8.555338 28.812547 44.672836 0.253300 0.869815 -0.008684 0.020168 -707372.000000 0 0 1
34.326396 9.114638 28.812247 45.733180 0.259540 0.889233 -0.004925 0.016702 -945250.000000 0 0 1
-34.843205 8.256238 29.534547 46.416634 -0.232663 0.881114 -0.013757 0.018408 -72320.600000 0 0 1
-33.475990 8.941438 29.787247 45.693231 -0.261007 0.860714 -0.011121 0.013428 77834.100000 0 0 1
-32.799960 9.199338 28.573147 44.462230 -0.273443 0.872859 -0.018318 0.016841 150468.000000 0 0 1
-31.656640 10.027238 28.755747 43.927000 -0.306752 0.857109 -0.003350 0.012710 336770.000000 0 0 1
-30.971020 10.475038 27.466247 42.700413 -0.326143 0.872085 -0.002703 0.011480 172011.000000 0 0 1
-30.383160 9.414338 26.663347 41.505424 -0.300472 0.873162 -0.009275 0.007353 491819.000000 0 0 1
-29.670050 10.020338 25.587247 40.440404 -0.325698 0.885742 -0.006938 0.002202 -212610.000000 0 0 1
-28.898310 9.050738 24.693347 39.074155 -0.303516 0.886715 0.000529 0.001601 107802.000000 0 0 1
-27.982900 9.673738 23.811447 37.994854 -0.332841 0.893483 -0.000272 -0.003213 108463.000000 0 0 1
-27.236120 8.685138 23.097347 36.752215 -0.308689 0.891223 -0.002644 0.003335 -795930.000000 0 0 1
-26.054060 9.248538 22.386147 35.573713 -0.341100 0.890158 -0.009023 0.009494 -3313060.000000 0 0 1
-25.053670 9.661738 23.253947 35.521566 -0.368068 0.857086 0.000562 0.002864 316024.000000 0 0 1
-23.943170 10.235838 22.518747 34.425888 -0.403991 0.857774 -0.005547 0.015361 981116.000000 0 0 1
-23.282670 9.419238 21.340447 32.957844 -0.384431 0.866487 -0.008883 0.021683 -1647580.000000 0 0 1
-24.004470 9.454438 20.106347 32.708809 -0.375203 0.908781 -0.004999 0.018429 230580.000000 0 0 1
-23.493470 8.628738 19.058947 31.458572 -0.351987 0.919972 -0.003037 0.017073 -186530.000000 0 0 1
-23.429570 7.051338 19.158147 31.075726 -0.292336 0.906508 -0.011479 0.024831 -246254.000000 0 0 1
-22.357070 6.683938 20.010547 30.739805 -0.290505 0.861941 -0.014017 0.026678 531434.000000 0 0 1
-22.282470 5.291538 20.394147 30.666433 -0.233156 0.843260 -0.010231 0.017393 -328706.000000 0 0 1
-22.283470 4.172338 19.264747 29.750495 -0.185096 0.866440 -0.001777 0.015280 377659.000000 0 0 1
-23.580570 3.941738 18.634947 30.312404 -0.165629 0.908711 0.016137 0.012366 1622400.000000 0 0 1
-23.683870 2.897838 17.670047 29.690971 -0.121750 0.933366 0.018094 0.012378 -215683.000000 0 0 1
-23.522670 1.438638 18.149047 29.745144 -0.061084 0.914544 0.013243 0.022959 -475394.000000 0 0 1
-22.185270 1.032838 18.280847 28.765297 -0.046522 0.882118 -0.021680 0.028637 150450.000000 0 0 1
-22.105270 -0.376762 18.513947 28.836629 0.017042 0.873655 -0.009043 0.021263 -1010680.000000 0 0 1
-20.699570 -0.919562 18.663247 27.886100 0.044395 0.837574 -0.009385 0.021780 -813776.000000 0 0 1
-20.054970 -0.372962 19.810847 28.192385 0.018595 0.791608 -0.034609 0.020135 710973.000000 0 0 1
-19.045170 -1.344762 20.202547 27.796939 0.070492 0.757159 -0.045827 0.021127 782914.000000 0 0 1
-18.163470 -1.049462 21.450647 28.127269 0.057715 0.703430 -0.036556 0.017321 515761.000000 0 0 1
-18.789870 -1.319262 22.707147 29.502783 0.070096 0.692486 -0.034487 0.017283 -259601.000000 0 0 1
-17.873570 -1.072562 23.714347 29.715066 0.059936 0.646731 -0.029536 0.012413 -766414.000000 0 0 1
-18.519070 -0.861362 25.072247 31.181974 0.046479 0.636700 -0.018087 0.015552 179042.000000 0 0 1
-19.141270 0.400338 25.343147 31.761984 -0.020912 0.646979 -0.005168 -0.008307 -53557.200000 0 0 1
-20.458070 0.212838 25.792147 32.921312 -0.010403 0.670601 0.002876 -0.012100 -308698.000000 0 0 1
-21.034570 1.478338 26.514647 33.877207 -0.070166 0.671854 0.010439 -0.023067 -752640.000000 0 0 1
-21.038170 2.696538 25.784947 33.387714 -0.127479 0.688361 0.010415 -0.019095 938377.000000 0 0 1
-22.220570 2.914438 24.973247 33.554594 -0.130415 0.731374 0.010123 -0.015247 -86359.700000 0 0 1
-22.002270 4.066138 24.011147 32.820246 -0.182744 0.750137 0.004682 -0.005857 241512.000000 0 0 1
-21.181270 3.863738 22.845047 31.392210 -0.180429 0.755790 -0.001959 -0.001972 2022540.000000 0 0 1
-19.844370 3.309838 23.040847 30.588146 -0.165268 0.717791 -0.019435 0.012471 447226.000000 0 0 1
-19.243570 2.640738 21.814547 29.208953 -0.136375 0.727492 -0.028623 0.015224 -580968.000000 0 0 1
-18.997770 3.491738 20.724247 28.330230 -0.181769 0.750242 -0.030503 0.020024 302234.000000 0 0 1
-18.896270 2.706938 19.568847 27.337453 -0.142284 0.772991 -0.032218 0.021186 -315493.000000 0 0 1
-18.607870 3.453838 18.227847 26.276153 -0.183523 0.804179 -0.027654 0.016158 -673361.000000 0 0 1
-17.284070 3.897038 18.210747 25.407820 -0.221762 0.771683 -0.028684 0.008456 -352086.000000 0 0 1
-17.048070 4.596138 16.996247 24.507827 -0.263338 0.804457 -0.015866 0.008310 562269.000000 0 1 0
-15.503870 4.924638 16.851447 23.422069 -0.307560 0.767759 0.002012 0.006046 973253.000000 0 1 0
-14.865770 5.837338 17.723447 23.857624 -0.374171 0.733428 -0.002775 0.002040 98707.000000 0 1 0
-15.325670 7.175138 17.793247 24.555212 -0.437867 0.760311 -0.017582 -0.005061 -553793.000000 0 1 0
-14.954270 8.182938 16.549947 23.759028 -0.500689 0.800183 -0.011380 -0.002907 -56318.600000 0 1 0
-15.337870 7.833738 15.252747 23.005739 -0.472206 0.845981 -0.014305 0.000373 623732.000000 0 1 0
-16.714370 8.105238 14.964747 23.853903 -0.451516 0.892651 -0.016797 0.003991 440728.000000 0 1 0
-17.163270 7.542938 13.595547 23.158425 -0.414072 0.943365 -0.017970 0.007513 -284531.000000 0 1 0
-17.053170 6.139138 13.719447 22.731539 -0.345555 0.922860 -0.008249 0.006269 389603.000000 0 1 0
-17.631770 5.508238 12.564747 22.340387 -0.302798 0.973483 -0.005678 0.003738 88934.200000 0 1 0
-17.452870 3.989838 12.371647 21.761873 -0.224744 0.966114 -0.004216 0.001965 -393829.000000 0 1 0
-18.001770 3.341138 13.463247 22.726327 -0.183512 0.936752 -0.020932 0.008286 -12701.000000 0 1 0
-17.498670 2.009638 13.719047 22.326091 -0.114344 0.909063 -0.022232 0.003600 -449001.000000 0 1 0
-18.465170 1.260138 14.651847 23.605658 -0.068138 0.901171 -0.015090 0.007091 -400667.000000 0 1 0
-19.764170 1.130738 14.165647 24.342690 -0.057149 0.949701 -0.007850 0.011241 -487145.000000 0 1 0
-20.575070 0.514438 15.138947 25.549675 -0.024998 0.936600 -0.020417 0.016975 673018.000000 0 0 1
-21.983270 -0.005762 14.670047 26.428668 0.000262 0.982336 -0.007146 0.011719 760564.000000 0 0 1
-21.864570 -0.994762 13.696547 25.819457 0.045465 1.011637 0.003618 0.001977 410467.000000 0 0 1
-23.173170 -1.431862 13.410947 26.812302 0.061711 1.046991 0.022888 0.000047 -89159.500000 0 0 1
-23.124170 -2.562762 12.343247 26.337250 0.110376 1.083022 0.013760 -0.001773 45967.500000 0 0 1
-22.544670 -3.822262 12.770847 26.190960 0.167945 1.061452 0.009104 0.000390 331081.000000 0 0 1
-22.833470 -4.839062 11.863847 26.182718 0.208838 1.100537 0.023076 -0.011205 -74747.000000 0 0 1
-22.588270 -6.163362 12.566247 26.573060 0.266373 1.078224 0.023331 -0.010051 1002280.000000 0 0 1
-23.672870 -6.520662 13.475947 28.009373 0.268783 1.068861 0.017458 -0.009001 1090270.000000 0 0 1
-23.697170 -7.908162 13.708547 28.495950 0.322096 1.068921 0.024615 -0.013753 -15968.100000 0 0 1
-24.668170 -8.337962 14.834147 29.968186 0.325949 1.052966 0.027237 -0.006573 579517.000000 0 0 1
-26.048030 -8.028262 14.660747 30.949804 0.298972 1.077315 0.018301 -0.011422 570738.000000 0 0 1
-26.773170 -8.478262 15.819247 32.232470 0.306679 1.057805 0.015658 -0.001928 385383.000000 0 0 1
-28.247030 -7.931762 15.836147 33.340533 0.273750 1.075853 0.005809 -0.006226 497481.000000 0 0 1
-29.139630 -8.469662 14.862847 33.789901 0.282864 1.115353 0.000393 -0.003937 702042.000000 0 0 1
-29.629890 -9.811662 14.929847 34.599125 0.319776 1.124631 0.008621 -0.006854 -397635.000000 0 0 1
-30.041080 -10.396362 16.297047 35.723166 0.333171 1.097072 0.006280 -0.005156 -958993.000000 0 0 1
-28.893920 -10.597262 17.078747 35.197218 0.351531 1.064170 0.005573 -0.002554 -128461.000000 0 0 1
-29.160750 -10.922962 18.394647 36.166607 0.358400 1.037228 0.012377 0.007010 196691.000000 0 0 1
-27.916060 -10.996762 19.332047 35.692622 0.375256 0.998426 0.013501 0.013942 976611.000000 0 0 1
-26.968870 -12.053462 19.064647 35.157740 0.420306 0.997671 0.019582 0.014739 371798.000000 0 0 1
-25.879630 -12.047862 19.967347 34.836779 0.435697 0.960429 0.015875 0.008946 -8854.220000 0 0 1
-24.780170 -13.032862 19.541347 34.143470 0.484183 0.961451 0.035842 0.005830 -293239.000000 0 0 1
-24.177770 -12.509062 18.377847 32.844885 0.477454 0.976972 0.029003 0.009825 -14368.500000 0 0 1
-23.053970 -13.286662 18.007347 32.129200 0.522832 0.975847 0.026734 0.000715 18238.100000 0 0 1
-22.825670 -13.244262 16.472247 31.108787 0.525760 1.012780 0.024536 -0.008400 -793363.000000 0 0 1
-22.310270 -12.073962 15.999747 29.992009 0.496050 1.008102 0.022958 -0.009997 -149691.000000 0 0 1
-22.059770 -12.042062 14.584147 29.057565 0.499677 1.044996 0.017465 -0.014132 596313.000000 0 0 1
-20.760270 -11.259562 14.176047 27.544997 0.496959 1.030196 0.007803 -0.009920 326646.000000 0 0 1
-20.871870 -9.864762 13.953447 26.974936 0.441516 1.027133 0.007634 -0.009479 325862.000000 0 0 1
-19.657070 -9.187462 13.630847 25.624400 0.437219 1.009897 0.010543 -0.006142 95192.100000 0 0 1
-19.139670 -9.294462 12.236747 24.544897 0.452071 1.048876 0.016327 0.003626 -498407.000000 0 1 0
-18.550170 -10.496162 11.795747 24.360170 0.514912 1.065322 0.012438 -0.004281 195289.000000 0 1 0
-18.364670 -10.413262 10.408247 23.537815 0.515822 1.112755 0.025162 -0.005209 -910740.000000 0 1 0
-17.878470 -11.784862 9.878847 23.582075 0.582791 1.138548 0.029588 -0.003281 1215200.000000 0 1 0
-16.450670 -12.024462 9.835947 22.626491 0.631191 1.121081 0.033839 -0.014488 1613440.000000 0 1 0
-15.774070 -12.037162 11.133047 22.752127 0.651831 1.059488 0.030053 -0.009661 505378.000000 0 1 0
-14.245870 -12.383262 11.037647 21.865947 0.715566 1.041661 0.038967 -0.009983 849183.000000 0 1 0
-13.964870 -13.752962 10.763247 22.360882 0.777753 1.068610 0.030386 -0.013579 1409830.000000 0 1 0
-12.544870 -14.063062 10.830347 21.735683 0.842394 1.049188 0.042230 -0.015035 1398750.000000 0 1 0
-12.231770 -15.578762 10.767947 22.544683 0.905172 1.072845 0.042830 -0.010585 -1871.260000 0 1 0
-12.473070 -16.066362 9.448047 22.427016 0.910645 1.135940 0.030483 -0.013871 -1798.900000 0 1 0
-12.157470 -17.446262 9.512747 23.295246 0.962186 1.150144 0.020618 -0.007764 321752.000000 0 1 0
-12.555970 -18.255762 8.222547 23.633356 0.968318 1.215443 0.012650 -0.009279 -694998.000000 0 1 0
-11.820770 -17.968962 7.128947 22.659128 0.988927 1.250743 0.020501 -0.016573 -1181940.000000 0 1 0
-12.270870 -18.547162 6.006347 23.035791 0.986307 1.307008 0.015377 -0.008512 -552028.000000 0 1 0
-11.396570 -18.310862 4.768847 22.088716 1.014073 1.353188 0.017133 -0.009441 -254377.000000 0 1 0
-11.728070 -19.039062 3.632047 22.654476 1.018695 1.409778 0.014666 -0.006550 111813.000000 0 1 0
-10.773170 -18.842062 2.618347 21.861844 1.051399 1.450740 0.013110 -0.019173 -70796.500000 0 1 0
-10.952170 -19.901362 1.521747 22.766861 1.067705 1.503906 0.011753 -0.008638 9366.270000 0 1 0
-10.477070 -21.187562 1.894347 23.712240 1.111565 1.490822 -0.007266 -0.009453 -344269.000000 0 1 0
-10.841370 -22.277662 1.049147 24.797787 1.117888 1.528476 -0.002346 -0.006444 -704250.000000 0 1 0
-10.067770 -22.572862 -0.231953 24.717360 1.151264 1.580181 0.018010 -0.002654 -742678.000000 0 1 0
-10.201970 -21.860162 -1.419953 24.165329 1.134148 1.629590 0.019416 -0.005558 -1223810.000000 0 1 0
-11.295770 -22.142862 -2.182353 24.953225 1.099076 1.658366 0.029907 0.002901 -783811.000000 0 1 0
-12.368770 -21.014162 -2.186153 24.481845 1.038807 1.660212 0.026823 0.002716 492870.000000 0 1 0
-13.091670 -20.859962 -0.934853 24.645563 1.010331 1.608737 0.017767 0.000943 94122.000000 0 1 0
-14.073870 -19.885162 -0.927553 24.379373 0.954883 1.608852 0.019032 0.012266 -184726.000000 0 1 0
26.302830 -21.279062 -4.609553 34.145063 -0.680206 1.706209 0.017632 0.010777 -339059.000000 0 0 1
24.977630 -21.259962 -4.161953 33.063422 -0.705167 1.697009 0.023264 0.009127 -320180.000000 0 0 1
24.785630 -22.039262 -3.009353 33.303344 -0.726813 1.661282 -0.007347 0.010581 -5508.980000 0 0 1
23.309430 -22.071062 -2.564153 32.203046 -0.758116 1.650505 -0.021534 0.005903 -199972.000000 0 0 1
22.398330 -22.794862 -3.333753 32.131057 -0.794172 1.674738 -0.005397 -0.009000 -823931.000000 0 0 1
21.224230 -22.904662 -2.560053 31.331220 -0.823460 1.652597 -0.011512 -0.004260 197634.000000 0 0 1
20.134430 -23.673562 -3.397753 31.263038 -0.866010 1.679694 -0.005055 -0.017518 386803.000000 0 0 1
19.521430 -22.826162 -4.386053 30.353869 -0.863279 1.715801 0.000385 -0.016791 327909.000000 0 0 1
18.357830 -23.475162 -4.930353 30.205985 -0.907121 1.734754 0.013305 -0.021335 113710.000000 0 0 1
17.331430 -22.517062 -5.469653 28.936372 -0.914805 1.760964 -0.001622 0.001759 -543286.000000 0 0 1
16.519230 -21.811262 -4.509353 27.729955 -0.922594 1.734138 0.000490 0.001814 540874.000000 0 0 1
17.220330 -20.878462 -3.720553 27.318354 -0.881122 1.707413 0.002915 -0.004695 -789283.000000 0 0 1
16.307430 -20.180762 -2.745053 26.090817 -0.891155 1.676203 0.038815 0.000641 -433689.000000 0 0 1
15.795930 -21.091562 -1.789753 26.411524 -0.927986 1.638612 0.028582 -0.006402 271438.000000 0 0 1
15.175830 -20.447462 -0.665653 25.472487 -0.932315 1.596932 0.054047 0.002541 -64245.000000 0 0 1
15.076030 -21.450262 0.523547 26.223549 -0.958169 1.550830 0.039986 -0.000877 334962.000000 0 0 1
14.110430 -22.501462 0.347247 26.562014 -1.010696 1.557723 0.058676 -0.007713 355811.000000 0 0 1
13.198330 -22.644762 1.437547 26.249718 -1.043088 1.516005 0.054222 -0.007834 123988.000000 0 0 1
12.366430 -23.883262 1.208347 26.922090 -1.093021 1.525898 0.055698 -0.009776 -200462.000000 0 0 1
12.897230 -25.075422 1.822347 28.256615 -1.095745 1.506259 0.039819 -0.012011 306618.000000 0 0 1
12.170530 -26.234552 1.400947 28.954036 -1.136433 1.522392 0.033957 -0.009741 136457.000000 0 0 1
12.413030 -27.445872 2.337347 30.212951 -1.146054 1.493357 0.030478 -0.019633 44081.400000 0 0 1
11.535130 -27.569662 3.425047 30.081164 -1.174530 1.456689 0.058859 -0.022782 -118157.000000 0 0 1
11.974930 -28.630232 4.236447 31.321504 -1.174647 1.435124 0.051540 -0.018362 -174524.000000 0 0 1
11.287130 -28.905692 5.576347 31.528305 -1.198523 1.392993 0.046966 -0.019516 -529290.000000 0 0 1
11.913030 -29.922012 6.335447 32.823543 -1.191898 1.376562 0.032806 -0.009899 -215424.000000 0 0 1
11.390430 -30.212022 7.617547 33.174315 -1.210259 1.339107 0.022625 -0.010783 -167164.000000 0 0 1
12.146530 -31.418912 8.226747 34.675144 -1.201895 1.331260 0.036436 -0.005777 156668.000000 0 0 1
11.792430 -31.864102 9.567747 35.297651 -1.216342 1.296303 0.032111 -0.009310 28672.800000 0 0 1
10.676230 -32.749542 9.531647 35.740267 -1.255664 1.300837 0.020993 -0.006816 288700.000000 0 0 1
10.458330 -33.259132 11.014647 36.563219 -1.266136 1.264794 0.014032 -0.002276 -1415180.000000 0 0 1
11.458730 -34.004182 11.510447 37.683913 -1.245767 1.260388 0.015098 -0.003797 -1206080.000000 0 0 1
11.420830 -34.288898 12.914247 38.378922 -1.249277 1.227606 0.017790 -0.002677 122712.000000 0 0 1
10.417130 33.937701 13.359647 37.931047 1.272977 1.210866 0.006577 0.000070 53401.200000 0 0 1
10.798330 32.629686 12.881647 36.704730 1.251205 1.212207 0.001592 0.005092 394900.000000 0 0 1
9.729830 31.683686 12.952847 35.585135 1.272845 1.198242 -0.011619 0.005135 141509.000000 0 0 1
9.763130 30.637086 11.851747 34.269720 1.262300 1.217665 -0.018428 0.008243 -209377.000000 0 0 1
9.315130 31.099326 10.568747 34.141444 1.279772 1.256068 -0.030010 0.007806 280457.000000 0 0 1
10.308030 31.865676 9.868647 34.915140 1.257936 1.284244 -0.017061 0.007034 113605.000000 0 0 1
9.915730 32.367046 8.438147 34.887673 1.273522 1.326508 -0.016571 0.007470 -390274.000000 0 0 1
8.839530 33.252266 8.581547 35.461154 1.310973 1.326371 -0.018956 0.002123 -242523.000000 0 0 1
8.183330 33.482484 7.306647 35.233943 1.331089 1.361905 -0.026886 0.003969 5807.760000 0 0 1
8.679830 -34.630168 6.488447 36.286195 -1.325212 1.391016 -0.021345 0.008917 -49625.700000 0 0 1
8.091930 -33.460732 7.007547 35.131263 -1.333518 1.369982 -0.015746 0.009026 94620.700000 0 0 1
8.569430 -32.372482 6.218747 34.060029 -1.312018 1.387184 0.007081 -0.008162 338523.000000 0 0 1
7.716430 -31.043762 6.345047 32.611625 -1.327168 1.374983 0.006583 -0.011239 199103.000000 0 0 1
7.593630 -30.616642 7.721747 32.475643 -1.327679 1.330727 0.017831 -0.009811 -15051.300000 0 0 1
7.070530 -29.293332 7.867147 31.144561 -1.333956 1.315429 0.014353 -0.011981 -1058.610000 0 0 1
8.070230 -28.149792 7.577447 30.248258 -1.291596 1.317591 0.034039 -0.013457 -110278.000000 0 0 1
8.909930 -27.688742 8.647447 30.345208 -1.259471 1.281822 0.034708 -0.014316 232889.000000 0 0 1
9.841930 -26.687832 8.290247 29.628233 -1.217490 1.287201 0.051540 -0.018572 53917.500000 0 0 1
9.378130 -25.364202 7.564747 28.080553 -1.216646 1.298032 0.042012 -0.016458 -598083.000000 0 0 1
9.107130 -25.589102 6.198147 27.859630 -1.228876 1.346441 0.041961 -0.015017 172630.000000 0 0 1
8.134530 -24.627062 5.720847 26.559195 -1.251771 1.353695 0.037926 -0.011437 702465.000000 0 0 1
7.898830 -24.850062 4.203447 26.411855 -1.263036 1.410967 0.053465 -0.012846 825182.000000 0 0 1
7.035630 -25.972432 3.832347 27.180033 -1.306257 1.429326 0.027759 -0.011065 56827.900000 0 0 1
7.670030 -27.224172 3.842547 28.543827 -1.296179 1.435767 0.040284 -0.014157 -17765.000000 0 0 1
6.774030 -28.406532 3.363647 29.396134 -1.336701 1.456120 0.032600 -0.008607 307233.000000 0 0 1
5.780930 -28.796172 4.327147 29.687756 -1.372676 1.424520 0.016867 -0.003607 -194970.000000 0 0 1
4.756230 -29.480772 3.666747 30.086254 -1.410841 1.448618 0.004521 0.007561 -4016.100000 0 0 1
4.682130 -30.972392 4.106047 31.592262 -1.420761 1.440458 0.003285 0.003778 -273402.000000 0 0 1
5.734630 -31.648992 3.493247 32.353477 -1.391546 1.462614 0.006488 0.002223 -319359.000000 0 0 1
5.524130 -33.034352 3.631947 33.689397 -1.405106 1.462780 -0.006881 0.011598 -52735.700000 0 0 1
6.626430 -33.952832 3.078547 34.730129 -1.378053 1.482038 -0.013333 0.013076 -160838.000000 0 0 1
6.671130 -34.054993 1.654047 34.741652 -1.377353 1.523168 0.001599 0.013829 19300.700000 0 0 1
7.632930 34.307574 1.220247 35.167603 1.351877 1.536091 -0.006539 0.012425 -302770.000000 0 0 1
7.311530 33.676539 -0.173353 34.461541 1.357004 1.575827 0.005849 0.012598 300901.000000 0 0 1
6.257130 32.713276 -0.067753 33.306377 1.381807 1.572831 -0.001073 0.013725 432963.000000 0 0 1
4.965830 33.289433 -0.224453 33.658524 1.422717 1.577465 0.002739 0.011131 181125.000000 0 0 1
3.745530 32.344636 -0.098553 32.560931 1.455509 1.573823 -0.000204 0.014763 154798.000000 0 0 1
3.588330 31.446526 -1.134153 31.670908 1.457179 1.606615 0.006809 0.012773 33244.700000 0 0 1
2.550730 30.526136 -0.827753 30.643701 1.487431 1.597812 0.002433 0.008376 253372.000000 0 0 1
2.362230 29.500126 -1.985353 29.661072 1.490892 1.637781 0.004293 0.006603 41200.400000 0 0 1
1.661330 29.981586 -3.122653 30.189510 1.515441 1.674417 0.011253 -0.003542 67148.300000 0 0 1
1.836030 29.066396 -4.153753 29.419043 1.507713 1.712462 0.016517 -0.011887 -89387.600000 0 0 1
1.500630 29.662366 -5.549253 30.214269 1.520249 1.755508 0.022046 -0.017238 -367217.000000 0 0 1
0.148430 30.033786 -5.636453 30.558468 1.565854 1.756307 0.021179 -0.008206 -196096.000000 0 0 1
0.001030 30.855916 -6.770353 31.589955 1.570763 1.786792 0.010449 -0.009631 -200927.000000 0 0 1
-0.107670 30.224296 -8.213853 31.320713 -1.567234 1.836149 0.013411 -0.015274 -658093.000000 0 0 1
-1.424670 29.834146 -8.497453 31.053384 -1.523080 1.847972 0.009182 -0.015480 -291890.000000 0 0 1
-1.715170 29.221776 -9.743053 30.850950 -1.512169 1.892107 0.017545 -0.016588 -107958.000000 0 0 1
-1.961170 30.186696 -10.951753 32.171784 -1.505919 1.918154 0.008462 -0.020176 -836409.000000 0 0 1
-0.859170 30.904076 -11.443653 32.966002 -1.543002 1.925311 0.010019 -0.011549 -490745.000000 0 0 1
-0.956370 32.242606 -11.981853 34.410247 -1.541143 1.926453 -0.005373 -0.018140 -586832.000000 0 0 1
-1.123770 33.379489 -10.967353 35.153037 -1.537143 1.888082 -0.011639 -0.009865 -413148.000000 0 0 1
0.017830 33.612418 -10.207853 35.128268 1.570266 1.865638 -0.013555 -0.016793 -322937.000000 0 0 1
-0.327770 34.590176 -9.187953 35.791147 -1.561321 1.830413 -0.011023 -0.004815 -71923.200000 0 0 1
0.694630 -34.534184 -8.031953 35.462722 -1.550685 1.799269 0.008521 -0.010493 348747.000000 0 0 1
1.842030 -33.801462 -8.481053 34.897853 -1.516355 1.816280 0.023431 -0.006674 -81919.700000 0 0 1
2.556130 -33.492362 -7.305353 34.374995 -1.494624 1.784949 0.034182 -0.010770 -1855830.000000 0 0 1
3.754830 -32.600582 -7.566053 33.677023 -1.456125 1.797396 0.007739 -0.002337 346020.000000 0 0 1
4.847530 -33.284082 -8.222653 34.625723 -1.426172 1.810559 0.026725 0.003372 818850.000000 0 0 1
5.540130 -34.219699 -7.375953 35.441297 -1.410290 1.780446 0.043003 0.003518 -1231200.000000 0 0 1
6.024830 33.835490 -8.139753 35.318473 1.394581 1.803354 0.045694 0.004977 -47967.400000 0 0 1
5.097930 32.797676 -8.365753 34.229553 1.416595 1.817699 0.042664 -0.000645 -224003.000000 0 0 1
4.172830 33.045626 -9.421753 34.614959 1.445186 1.846462 0.037611 -0.007177 523298.000000 0 0 1
3.329930 31.756896 -9.662953 33.361078 1.466321 1.864655 0.024238 -0.014151 413545.000000 0 0 1
4.158730 30.804306 -10.350053 32.761623 1.436603 1.892223 0.015794 -0.015680 145450.000000 0 0 1
3.546430 29.548286 -10.539653 31.571548 1.451346 1.911164 0.002865 -0.018841 -214449.000000 0 0 1
4.184530 28.562156 -11.527653 31.083659 1.425325 1.950730 0.012384 -0.017608 14913.700000 0 0 1
3.754630 28.819806 -12.853153 31.778641 1.441246 1.987183 0.016284 -0.014846 -229139.000000 0 0 1
4.873830 29.064116 -13.660553 32.482115 1.404650 2.004855 0.022637 -0.015582 -420386.000000 0 0 1
4.488430 29.617176 -15.020753 33.510389 1.420393 2.035594 0.022691 -0.006162 -252088.000000 0 0 1
3.929630 28.714846 -15.960453 33.086560 1.434791 2.074171 0.012464 -0.007198 101069.000000 0 0 1
3.590430 29.270596 -17.258953 34.169145 1.448743 2.100298 0.022640 -0.005728 -276776.000000 0 0 1
2.627130 28.318396 -17.967453 33.640195 1.478290 2.134247 0.009080 -0.009238 163093.000000 0 0 1
3.217630 27.197056 -18.658253 33.138549 1.453036 2.168853 0.016273 -0.001451 -24474.800000 0 0 1
2.192930 26.715906 -19.474953 33.133403 1.488897 2.199101 0.001532 -0.007670 205196.000000 0 0 1
2.626630 25.467896 -20.288853 32.667269 1.468025 2.240911 0.012903 -0.003970 205797.000000 0 0 1
2.851630 24.336296 -19.488653 31.308061 1.454152 2.242704 0.014305 -0.006939 -162937.000000 0 0 1
3.852730 23.509746 -20.039953 31.131197 1.408362 2.270153 0.016507 -0.003405 -21698.800000 0 0 1
4.228130 22.403446 -19.077053 29.727520 1.384264 2.267549 0.023727 -0.008547 -31302.700000 0 0 1
3.231530 21.403946 -18.927653 28.754613 1.420950 2.289285 0.021590 -0.006048 -38941.300000 0 0 1
3.837230 20.401346 -18.140753 27.568572 1.384881 2.288986 0.018550 -0.003440 683251.000000 0 0 1
2.883430 19.202846 -17.752453 26.309942 1.421753 2.311413 0.016490 -0.013087 190163.000000 0 0 1
2.263230 19.314046 -16.522953 25.517887 1.454148 2.275102 0.021356 -0.016925 -644259.000000 0 0 1
1.342530 18.276046 -16.325153 24.542348 1.497470 2.298535 0.008447 -0.008082 -265161.000000 0 1 0
1.808230 17.102046 -15.392853 23.080069 1.465456 2.300881 0.013081 -0.010194 1324130.000000 0 1 0
2.998030 16.348346 -15.840553 22.960395 1.389427 2.332158 0.014516 -0.019116 919322.000000 0 1 0
2.798130 15.426146 -16.897953 23.050734 1.391359 2.393631 0.014700 -0.016540 -492352.000000 0 1 0
2.656430 15.853546 -18.357653 24.400716 1.404778 2.422404 -0.001269 -0.014289 -332455.000000 0 1 0
3.892830 16.337546 -18.871953 25.263019 1.336883 2.414363 0.007586 -0.013432 12598.000000 0 0 1
3.852830 16.766446 -20.225653 26.552496 1.344924 2.436765 -0.007652 -0.007926 -458247.000000 0 0 1
4.259530 15.706446 -21.302853 26.807603 1.305970 2.489239 -0.007822 -0.004752 103692.000000 0 0 1
3.342730 14.648246 -21.461653 26.198235 1.346438 2.530815 -0.010450 -0.003390 -628300.000000 0 0 1
2.156930 15.000546 -22.080753 26.781120 1.427985 2.540096 -0.005511 -0.003290 -722290.000000 0 0 1
1.387630 13.785646 -22.671053 26.569648 1.470477 2.593018 0.006898 0.009053 167371.000000 0 0 1
0.581130 13.073346 -21.749753 25.383101 1.526374 2.599943 0.008485 0.012978 197001.000000 0 0 1
-0.270470 12.148346 -22.396653 25.480689 -1.548536 2.644485 0.003251 0.014880 168461.000000 0 0 1
-0.852270 11.121746 -21.361453 24.098366 -1.494315 2.660365 0.004551 0.013405 -540651.000000 0 1 0
-1.862270 11.636546 -20.525953 23.668375 -1.412106 2.620410 0.006021 0.014124 68599.300000 0 1 0
-2.286570 10.665946 -19.541553 22.379971 -1.359612 2.632468 0.003260 0.011573 -237798.000000 0 1 0
-3.182070 9.493446 -19.924453 22.298765 -1.247379 2.675927 0.002272 0.003931 -1044640.000000 0 1 0
-2.650070 8.439246 -20.705553 22.515853 -1.266530 2.737854 0.001004 0.004649 255876.000000 0 1 0
-3.672570 7.602146 -21.286953 22.900104 -1.120763 2.764006 -0.001736 0.014467 289405.000000 0 1 0
-3.023070 6.439746 -22.064553 23.183049 -1.131895 2.829697 -0.004256 0.008033 131198.000000 0 1 0
-2.530970 5.438346 -21.212253 22.044071 -1.135215 2.866006 0.004302 0.003309 -117569.000000 0 1 0
-2.064470 4.408846 -21.996353 22.528637 -1.132865 2.923782 0.011059 0.003571 -483390.000000 0 1 0
-1.465470 3.215546 -21.212153 21.504482 -1.143175 2.976518 0.008302 0.003779 504293.000000 0 1 0
-0.044870 3.353446 -21.082653 21.347737 -1.557417 2.983838 0.000068 0.005626 354318.000000 0 1 0
0.370230 2.321046 -20.228753 20.364841 1.412619 3.025921 0.001172 0.006808 300111.000000 0 1 0
1.916330 2.281146 -20.087853 20.307579 0.872094 2.994355 0.003491 -0.005247 673980.000000 0 1 0
2.618130 1.872846 -21.293353 21.535297 0.620946 2.991553 0.011171 -0.005834 -264316.000000 0 1 0
4.001930 1.922546 -21.126153 21.587634 0.447849 2.934451 0.016798 -0.009127 -375482.000000 0 1 0
4.744630 1.416246 -22.395353 22.936196 0.290075 2.923999 0.018574 0.001248 -552342.000000 0 1 0
6.125530 1.299046 -22.257053 23.121117 0.208975 2.867343 0.015432 -0.007601 -463009.000000 0 1 0
6.679730 0.628746 -23.387353 24.330688 0.093851 2.862220 0.019714 -0.011860 -859274.000000 0 1 0
8.179530 0.721346 -23.537953 24.929105 0.087962 2.805940 0.014721 -0.017170 -865900.000000 0 1 0
8.573530 2.042346 -23.792653 25.372562 0.233857 2.786838 0.009192 -0.012657 -1297730.000000 0 0 1
9.935130 2.153246 -23.755453 25.839211 0.213430 2.737239 0.010505 -0.014091 -1547010.000000 0 0 1
13.220130 -22.081662 22.202401 33.989973 -1.031339 0.858988 -0.009317 0.009659 82260.400000 0 0 1
11.968830 -22.607762 22.688301 34.192438 -1.083897 0.845246 -0.025386 0.019335 1112370.000000 0 0 1
10.745230 -22.037162 22.233901 33.097475 -1.117121 0.834200 -0.019024 0.013934 311125.000000 0 0 1
10.573530 -21.868862 20.689701 31.907842 -1.120438 0.865288 -0.010000 0.003015 -1124000.000000 0 0 1
11.045930 -20.582162 20.254401 30.917288 -1.078241 0.856461 -0.015294 -0.001657 134327.000000 0 0 1
10.840530 -20.473862 18.834501 29.856901 -1.083843 0.888179 0.011214 -0.011501 8791.400000 0 0 1
11.197830 -19.054162 18.336701 28.717366 -1.039482 0.878219 0.016960 -0.010708 145386.000000 0 0 1
10.338230 -18.050962 18.885301 28.095744 -1.050674 0.833652 0.016593 -0.008556 87435.900000 0 0 1
10.663230 -16.795162 18.340001 27.058041 -1.005110 0.826027 0.020346 -0.008779 -571279.000000 0 0 1
9.900630 -15.583362 18.823601 26.366486 -1.004801 0.775714 0.028789 0.003487 -234748.000000 0 0 1
8.550630 -15.754762 18.450401 25.724368 -1.073549 0.770971 0.018496 0.006192 -210553.000000 0 0 1
7.802130 -14.579762 18.780501 25.022988 -1.079438 0.721933 0.006188 0.010074 601599.000000 0 0 1
6.297330 -14.552862 18.392201 24.284053 -1.162404 0.711508 -0.008883 0.008677 45164.000000 0 1 0
6.022030 -14.628362 17.024501 23.239782 -1.180272 0.748723 -0.012204 0.005485 -179684.000000 0 1 0
4.666930 -14.809862 16.682901 22.791038 -1.265523 0.749552 -0.020222 0.001565 -384067.000000 0 1 0
3.997330 -16.144762 16.955801 23.751446 -1.328084 0.775766 -0.028327 0.007779 -1027280.000000 0 1 0
2.757330 -16.186462 16.313201 23.145733 -1.402068 0.788650 -0.014648 0.000403 -349541.000000 0 1 0
2.129930 -17.474062 16.526501 24.145490 -1.449504 0.816940 -0.013437 0.000883 781451.000000 0 1 0
0.626930 -17.563462 16.140301 23.861633 -1.535116 0.827916 -0.009553 0.005127 295988.000000 0 1 0
0.376130 -17.556462 14.740501 22.927128 -1.549376 0.872481 -0.006724 0.002304 588676.000000 0 1 0
-1.042770 -17.657662 14.507701 22.876927 1.511810 0.883871 -0.001162 0.001086 793819.000000 0 1 0
-1.468170 -18.199262 13.143201 22.496942 1.490299 0.946876 -0.005647 -0.001600 105596.000000 0 1 0
-2.850770 -18.500162 13.141801 22.871157 1.417905 0.958679 -0.006211 0.000841 -51754.800000 0 1 0
-3.054670 -19.626062 12.308701 23.367016 1.416392 1.016017 -0.000796 -0.005898 -564420.000000 0 1 0
-4.484870 -20.137262 12.285501 24.011599 1.351658 1.033694 0.004368 -0.003356 -630235.000000 0 1 0
-4.867670 -20.489162 13.599201 25.068670 1.337548 0.997412 -0.007736 -0.004887 -391064.000000 0 0 1
-6.188170 -20.967662 13.579701 25.736056 1.283814 1.014961 -0.000371 -0.004174 -266646.000000 0 0 1
-6.663470 -21.680062 14.858001 27.114334 1.272606 0.990854 0.004047 0.002110 -421838.000000 0 0 1
-8.051770 -21.712262 14.992101 27.586526 1.215678 0.996246 0.001269 0.009800 -596759.000000 0 0 1
-8.308370 -22.540762 16.088201 28.912716 1.217654 0.980701 -0.002427 0.004071 -732362.000000 0 0 1
-9.668570 -22.546062 16.753301 29.706552 1.165681 0.971623 0.004982 0.009354 -543320.000000 0 0 1
-9.988370 -21.368662 17.505201 29.373786 1.133542 0.932353 0.000152 0.005190 132058.000000 0 0 1
-10.758770 -20.374062 16.831701 28.533484 1.084952 0.939870 0.021824 -0.002229 -130035.000000 0 0 1
-11.090670 -19.212462 17.763201 28.419236 1.047262 0.895612 0.003230 0.005874 149767.000000 0 0 1
-12.090570 -19.604562 18.718301 29.679884 1.018172 0.888376 0.003065 0.010462 383949.000000 0 0 1
-12.163470 -18.621762 19.730901 29.732616 0.992185 0.845160 0.005587 0.003185 -216193.000000 0 0 1
-12.542370 -19.257862 21.084801 31.188862 0.993518 0.828426 0.012475 -0.001624 -605499.000000 0 0 1
-13.829270 -19.783862 21.138201 32.085408 0.960730 0.851560 0.009746 0.001387 -588109.000000 0 0 1
-14.076970 -20.574162 22.288401 33.439947 0.970749 0.841265 0.003006 0.017834 -376133.000000 0 0 1
-15.386770 -21.354762 22.170501 34.413800 0.946424 0.870776 0.010481 0.007447 -1052610.000000 0 0 1
-15.360370 -22.379462 21.203801 34.443903 0.969283 0.907644 0.004484 0.004950 257165.000000 0 0 1
-16.650370 -22.717162 20.736101 34.975565 0.938302 0.936173 0.012678 0.006710 418572.000000 0 0 1
-17.655670 -23.458362 21.668101 36.490054 0.925609 0.935012 0.010813 0.006787 -241774.000000 0 0 1
-18.047570 -22.585562 22.743801 36.784547 0.896619 0.904221 0.008398 0.013493 -427442.000000 0 0 1
-19.099970 -23.128162 23.483601 38.094622 0.880502 0.906564 0.024011 0.005768 -613414.000000 0 0 1
-19.723570 -22.212962 24.521801 38.519522 0.844690 0.880706 0.020991 0.017292 -22683.700000 0 0 1
-20.634370 -21.302862 23.892301 38.084527 0.801337 0.892652 0.022042 0.021141 386661.000000 0 0 1
-20.770170 -20.133462 24.643921 38.001041 0.769833 0.865176 0.020896 0.010940 101759.000000 0 0 1
-21.799370 -19.189162 23.973801 37.658725 0.721803 0.880706 0.026550 0.013311 182807.000000 0 0 1
-21.348670 -18.580762 22.777101 36.329145 0.716189 0.893145 0.030866 0.012847 261573.000000 0 0 1
-22.353770 -17.629462 22.432201 36.244897 0.667786 0.903447 0.021155 0.012704 206493.000000 0 0 1
-22.002770 -16.871962 21.116101 34.852184 0.654174 0.919930 0.019147 0.017076 -692758.000000 0 0 1
-20.835170 -16.105762 21.127701 33.762103 0.658065 0.894663 0.021356 0.018448 -650555.000000 0 0 1
-20.629270 -15.633562 19.801901 32.589727 0.648496 0.917746 0.020532 0.013529 -78254.200000 0 0 1
-19.445170 -14.698962 19.545801 31.244399 0.647278 0.894924 0.016410 0.002413 -82276.200000 0 0 1
-19.547870 -14.168862 18.235301 30.255612 0.627196 0.923906 0.009346 0.006988 167212.000000 0 0 1
-18.579470 -13.157962 17.958701 28.997303 0.616207 0.902916 0.022472 -0.003035 -45189.700000 0 0 1
-18.226870 -13.132762 16.454301 27.846584 0.624363 0.938633 0.012800 -0.002264 138503.000000 0 0 1
-17.756070 -11.973962 15.755601 26.587455 0.593309 0.936519 0.010465 -0.000510 754475.000000 0 0 1
-16.435570 -11.532162 16.098501 25.734810 0.611838 0.894956 0.005045 -0.001801 513292.000000 0 0 1
-15.938570 -10.248162 15.375901 24.402483 0.571424 0.889120 0.016185 -0.007428 215265.000000 0 1 0
-16.586970 -9.053362 15.827201 24.649365 0.499622 0.873570 0.014958 -0.002027 154227.000000 0 1 0
-16.259870 -7.985362 14.965101 23.496885 0.456509 0.880329 0.010436 -0.002944 -667191.000000 0 1 0
-16.481170 -6.628262 15.617901 23.653364 0.382377 0.849602 0.007223 0.000273 334961.000000 0 1 0
-15.733970 -6.290562 16.786501 23.851951 0.380341 0.790093 0.003001 0.001949 -66469.800000 0 1 0
-14.341870 -6.229662 16.586301 22.794808 0.409779 0.755928 0.010951 -0.002171 -389679.000000 0 1 0
-13.424070 -6.052162 17.843201 23.134695 0.423556 0.689955 0.014694 -0.004334 165144.000000 0 1 0
-13.461870 -7.164462 18.711601 24.138671 0.489078 0.683810 0.018863 -0.006245 257490.000000 0 1 0
-12.859170 -8.383862 18.235501 23.836545 0.577763 0.699720 0.017697 -0.001655 -541154.000000 0 1 0
-12.927970 -9.632862 19.245601 25.106126 0.640369 0.697314 0.026190 0.001049 410516.000000 0 0 1
-14.171170 -10.269862 19.559701 26.246410 0.627112 0.729912 0.014265 0.006414 906249.000000 0 0 1
-15.101370 -9.442862 20.306101 27.010308 0.558814 0.720023 0.019884 0.007453 -658459.000000 0 0 1
-16.439570 -10.115962 20.644201 28.262611 0.551624 0.751827 0.011404 0.011517 -73398.400000 0 0 1
-17.388170 -10.334662 19.638001 28.192282 0.536255 0.800185 0.019673 0.003459 173261.000000 0 0 1
-17.845470 -9.146162 18.943001 27.585329 0.473613 0.813849 0.011894 -0.000237 -1260150.000000 0 0 1
-19.050770 -9.413362 18.044801 27.877555 0.458932 0.866775 0.015142 0.006749 -299461.000000 0 0 1
-20.272370 -9.296762 18.759001 29.142733 0.429977 0.871481 0.015946 -0.001748 -210116.000000 0 0 1
-21.298470 -9.323262 17.803201 29.283135 0.412615 0.917298 0.022990 -0.005213 975565.000000 0 0 1
-22.790870 -9.558262 18.300301 30.751994 0.397109 0.933415 0.023731 0.000929 1178470.000000 0 0 1
-23.193370 -8.478062 19.134201 31.239840 0.350450 0.911585 0.026762 0.007402 660785.000000 0 0 1
-24.611970 -8.565862 19.231501 32.387863 0.334924 0.935039 0.019347 0.010481 279805.000000 0 0 1
-25.290430 -7.426862 20.002501 33.088732 0.285633 0.921645 0.030053 0.009365 -136022.000000 0 0 1
-25.080460 -7.598862 21.393801 33.829970 0.294188 0.886159 0.038996 0.002507 299990.000000 0 0 1
-25.579330 -6.458862 22.056401 34.387553 0.247333 0.874466 0.035711 0.001473 -790429.000000 0 0 1
-25.532270 -6.481762 23.546701 35.332098 0.248613 0.841374 0.030815 -0.002824 530849.000000 0 0 1
-24.297270 -6.244662 24.216281 34.868057 0.251566 0.803055 0.019798 -0.002803 679215.000000 0 0 1
-23.202370 -7.119062 23.986101 34.122779 0.297706 0.791280 0.020080 0.003498 -821227.000000 0 0 1
-22.128370 -6.995962 25.040241 34.141205 0.306210 0.747440 0.014076 0.002111 -516442.000000 0 0 1
-21.480070 -5.736762 24.958241 33.424805 0.260982 0.727712 0.007119 0.002861 309053.000000 0 0 1
-20.807970 -5.374662 26.164611 33.859200 0.252773 0.687638 0.011728 -0.004131 1475.640000 0 0 1
-20.438470 -3.910462 26.195211 33.454623 0.189044 0.671310 0.006112 -0.004075 -29252.400000 0 0 1
-19.399270 -3.486462 27.055651 33.473801 0.177823 0.629599 -0.004293 -0.004921 -132292.000000 0 0 1
-19.620970 -3.565062 28.406581 34.707722 0.179736 0.612086 0.006853 -0.017808 -189003.000000 0 0 1
-20.278270 -2.268262 28.996921 35.456659 0.111394 0.613196 0.022228 -0.021328 467377.000000 0 0 1
-21.559270 -2.055762 28.426481 35.736439 0.095067 0.651050 0.022053 -0.022332 -226402.000000 0 0 1
-22.245070 -0.973062 28.987471 36.552202 0.043715 0.655008 0.020348 -0.023599 1388900.000000 0 0 1
-23.656670 -0.724962 28.258871 36.860919 0.030636 0.697212 0.021437 -0.016649 883050.000000 0 0 1
-23.629070 -0.225762 26.905321 35.808940 0.009554 0.720679 0.018649 -0.021156 102571.000000 0 0 1
-24.849370 -0.135962 26.176971 36.093538 0.005471 0.759394 0.010963 -0.014006 -85019.600000 0 0 1
-25.511790 -1.492862 25.723571 36.259925 0.058450 0.782119 0.012082 -0.003930 11858.800000 0 0 1
-26.415980 -1.970062 26.709601 37.617654 0.074441 0.781258 0.008257 -0.002110 237831.000000 0 0 1
-26.825240 -3.288562 26.480451 37.836786 0.121983 0.795595 0.004295 0.001116 115417.000000 0 0 1
-25.688240 -4.338262 26.675581 37.286630 0.167303 0.773572 0.025502 -0.015508 110101.000000 0 0 1
-25.300070 -4.618162 27.978581 38.002920 0.180548 0.743326 0.034154 -0.013486 -99340.100000 0 0 1
-24.417870 -5.708462 27.947041 37.548049 0.229658 0.731309 0.038697 -0.017464 -308575.000000 0 0 1
-24.150970 -6.270862 29.401611 38.562258 0.254043 0.703713 0.032875 -0.013357 -1043300.000000 0 0 1
-25.249320 -6.787462 30.034731 39.820633 0.262609 0.716285 0.042177 -0.010086 -829381.000000 0 0 1
-25.052770 -7.210562 31.347111 40.771005 0.280241 0.693743 0.046700 -0.003516 -290633.000000 0 0 1
-26.315810 -7.784162 32.021821 42.172408 0.287597 0.708548 0.016826 -0.009301 40957.100000 0 0 1
-26.933480 -8.794762 31.273501 42.199432 0.315621 0.736107 0.010633 -0.013788 -540969.000000 0 0 1
-28.247250 -9.022762 31.658851 43.377416 0.309178 0.752699 0.016841 -0.007902 -775911.000000 0 0 1
-29.073920 -9.897362 30.724251 43.442263 0.328116 0.785205 0.013764 -0.018806 -407897.000000 0 0 1
-28.846360 -11.253762 30.923821 43.761197 0.371967 0.786045 0.033987 -0.014760 -276778.000000 0 0 1
-29.566120 -11.961962 29.986281 43.776946 0.384451 0.816222 0.014086 -0.008592 -118844.000000 0 0 1
-28.804670 -13.206362 29.296511 43.155562 0.429883 0.824590 0.024249 -0.013407 -85131.500000 0 0 1
-27.811280 -12.692262 28.480611 41.781647 0.428139 0.820776 0.031351 -0.006720 -347799.000000 0 0 1
-26.821190 -13.687162 28.162411 41.229068 0.471863 0.818836 0.037388 -0.003386 -761910.000000 0 0 1
-25.694430 -12.993162 27.435221 39.770810 0.468181 0.809538 0.039202 -0.007029 -984584.000000 0 0 1
-24.723670 -12.483462 28.348991 39.632839 0.467575 0.773757 0.030251 -0.007643 -78471.700000 0 0 1
-25.028970 -11.250362 28.976251 39.907933 0.422433 0.758196 0.037380 -0.010503 -797409.000000 0 0 1
-25.098910 -9.970562 28.132411 38.997435 0.378134 0.764987 0.033238 -0.006126 -254289.000000 0 0 1
-23.893970 -9.607762 27.528451 37.696770 0.382315 0.752094 0.022396 -0.006206 -169945.000000 0 0 1
-23.257570 -10.406362 26.518981 36.775852 0.420723 0.765411 0.023724 -0.005939 48557.900000 0 0 1
-23.961670 -10.417162 25.106311 36.235421 0.410094 0.805339 0.027804 0.000523 -599258.000000 0 0 1
-25.220410 -10.995962 25.061501 37.216382 0.411146 0.831998 0.029829 -0.003777 -665684.000000 0 0 1
-25.807220 -10.680662 23.797501 36.693462 0.392400 0.865120 0.025375 0.004191 497296.000000 0 0 1
-27.189390 -11.387362 23.528601 37.716442 0.396621 0.897164 0.038518 0.000228 1272440.000000 0 0 1
-28.385560 -10.955562 24.165601 38.855381 0.368341 0.899582 0.032548 -0.006324 383315.000000 0 0 1
-28.435890 -11.101162 25.563041 39.815885 0.372197 0.873652 0.041535 -0.010095 -736714.000000 0 0 1
-29.895420 -11.094362 26.066411 41.185905 0.355352 0.885508 0.007163 -0.005719 -337538.000000 0 0 1
-30.423320 -9.796962 25.750921 41.044717 0.311536 0.892603 0.009628 -0.009693 658238.000000 0 0 1
-31.770170 -9.531662 26.191101 42.263105 0.291474 0.902416 0.006535 -0.007335 605129.000000 0 0 1
-32.129010 -9.437762 27.654651 43.429533 0.285709 0.880494 -0.000347 0.001803 -703337.000000 0 0 1
-32.523750 -10.761262 28.117081 44.318950 0.319535 0.883531 -0.001263 -0.006443 450601.000000 0 0 1
-33.125780 -10.600762 29.403201 45.543843 0.309717 0.868985 -0.006594 -0.000429 -751203.000000 0 0 1
-33.698510 -11.845162 30.095881 46.708238 0.338014 0.870639 -0.017243 -0.005609 926695.000000 0 0 1
-34.898026 -12.420362 29.544841 47.381803 0.341925 0.897523 -0.014348 -0.001490 865019.000000 0 0 1
33.885556 -11.731862 29.630821 46.517234 -0.333303 0.880214 -0.013011 0.000191 -91957.200000 0 0 1
32.774846 -12.535362 28.923241 45.473945 -0.365303 0.881441 -0.011886 -0.000864 -189229.000000 0 0 1
32.718766 -12.317162 27.561961 44.518444 -0.360046 0.903183 -0.006605 0.007656 41435.600000 0 0 1
31.624056 -12.969262 26.940431 43.520909 -0.389189 0.903299 -0.015149 0.019522 -239548.000000 0 0 1
31.484976 -12.524262 25.459771 42.383497 -0.378596 0.926420 -0.008764 0.022698 -142431.000000 0 0 1
30.942826 -11.229862 25.341121 41.542035 -0.348141 0.914721 -0.005459 0.014490 77696.800000 0 0 1
31.255836 -10.638762 24.091301 40.871767 -0.328076 0.940436 -0.008502 0.011004 -278609.000000 0 0 1
31.080816 -9.160862 23.984701 40.313824 -0.286627 0.933593 -0.012779 0.031656 577422.000000 0 0 1
29.693786 -8.804662 24.039901 39.206630 -0.288257 0.910743 -0.015765 0.027035 626373.000000 0 0 1
29.637336 -7.424062 23.896001 38.787978 -0.245446 0.907056 -0.012175 0.030414 144327.000000 0 0 1
28.207586 -6.933762 23.534901 37.384978 -0.241033 0.889850 -0.011162 0.028831 236754.000000 0 0 1
27.661536 -7.364562 22.311501 36.293256 -0.260202 0.908720 -0.019802 0.031720 -45453.600000 0 0 1
26.826216 -8.483362 22.487101 36.017815 -0.306283 0.896519 -0.032244 0.026955 -325376.000000 0 0 1
13.832830 -17.441962 26.806271 34.844589 -0.900291 0.693037 -0.025235 0.012609 -47803.500000 0 0 1
13.075630 -18.427262 26.157391 34.565086 -0.953669 0.712458 -0.046450 0.017187 315923.000000 0 0 1
13.896730 -19.586662 26.028851 35.415498 -0.953723 0.745194 -0.026188 0.022455 -260359.000000 0 0 1
13.084230 -20.847162 25.607581 35.518297 -1.010311 0.765597 -0.052993 0.010988 419193.000000 0 0 1
12.566230 -21.638962 26.691041 36.586425 -1.044672 0.753156 -0.034138 0.006555 957108.000000 0 0 1
11.482930 -20.953762 27.388851 36.346485 -1.069480 0.717352 -0.027637 0.008128 127215.000000 0 0 1
11.106630 -21.672662 28.700781 37.640355 -1.097221 0.703627 -0.030789 0.014353 77527.800000 0 0 1
11.808030 -21.213662 29.870391 38.492717 -1.062882 0.682496 -0.024418 0.008318 412383.000000 0 0 1
10.994130 -20.428862 30.755441 38.524102 -1.077084 0.646258 -0.022395 0.009655 34505.300000 0 0 1
10.790230 -18.970962 30.278391 37.324354 -1.053652 0.624555 -0.026752 0.016502 344093.000000 0 0 1
11.858230 -18.061162 30.501491 37.378659 -0.989824 0.616316 -0.030624 0.033588 -77511.700000 0 0 1
11.446230 -16.793162 30.117941 36.333412 -0.972526 0.593600 -0.032987 0.029831 286881.000000 0 0 1
12.604730 -15.725262 30.147341 36.263277 -0.895105 0.589271 -0.031959 0.024692 646025.000000 0 0 1
12.102230 -14.434562 29.872501 35.315533 -0.873063 0.562594 -0.015682 0.021707 546111.000000 0 0 1
13.000330 -13.431962 30.426601 35.710002 -0.801726 0.550913 -0.016830 0.027803 404478.000000 0 0 1
12.560130 -11.930262 30.299571 34.902034 -0.759685 0.519370 -0.012875 0.021378 -124238.000000 0 0 1
12.620630 -11.333862 28.956941 33.559517 -0.731733 0.529908 0.005025 0.015378 613524.000000 0 0 1
13.935630 -11.058262 28.447951 33.552539 -0.670780 0.558855 0.007106 0.014017 122506.000000 0 0 1
14.062230 -10.119662 27.296511 32.330379 -0.623782 0.565540 0.010995 0.005030 -117205.000000 0 0 1
14.211530 -8.733062 27.495221 32.159309 -0.551017 0.545305 0.006737 0.007257 653007.000000 0 0 1
15.544130 -8.414962 27.932081 33.054995 -0.496185 0.564197 0.014389 -0.001230 199560.000000 0 0 1
15.859230 -6.943762 28.077811 32.986277 -0.412693 0.552535 0.007438 -0.005620 442479.000000 0 0 1
17.269030 -6.783062 28.272501 33.816618 -0.374273 0.580746 0.013072 -0.010636 470936.000000 0 0 1
17.683330 -5.488762 27.782171 33.386759 -0.300963 0.587856 0.018073 -0.001865 983130.000000 0 0 1
19.250830 -5.371562 27.644141 34.112265 -0.272109 0.625984 0.034246 -0.009325 239631.000000 0 0 1
19.726830 -6.346662 26.712931 33.808410 -0.311269 0.659781 0.035318 -0.001484 15582.400000 0 0 1
20.914830 -6.050562 25.993301 33.907095 -0.281607 0.697261 0.038027 0.002131 321696.000000 0 0 1
22.181230 -6.302562 26.855011 35.396622 -0.276843 0.709499 0.040662 -0.010700 -1023200.000000 0 0 1
22.368030 -5.247062 27.771471 36.043238 -0.230413 0.691164 0.049783 -0.014610 -161787.000000 0 0 1
23.269830 -5.568162 28.820201 37.457888 -0.234870 0.692891 0.041542 -0.023309 -160660.000000 0 0 1
23.756430 -4.330962 29.574851 38.181108 -0.180327 0.684724 0.047579 -0.021479 326012.000000 0 0 1
24.719130 -3.580162 28.801511 38.123221 -0.143834 0.714403 0.035180 -0.008843 632894.000000 0 0 1
24.895830 -2.255562 29.330651 38.537994 -0.090353 0.705814 0.027177 -0.013699 -335453.000000 0 0 1
25.894330 -1.431962 28.468311 38.509889 -0.055244 0.738845 0.027652 -0.012866 221901.000000 0 0 1
27.250630 -1.657962 28.821481 39.699162 -0.060766 0.758313 0.027711 -0.010302 439314.000000 0 0 1
28.077630 -1.103462 27.753851 39.494901 -0.039280 0.791583 0.019881 -0.002227 721838.000000 0 0 1
29.588030 -1.028462 28.097581 40.816459 -0.034745 0.811531 0.001161 0.001487 255139.000000 0 0 1
29.746830 0.177338 28.873631 41.455903 0.005962 0.800302 -0.011287 0.013104 250307.000000 0 0 1
30.988930 0.137538 29.561881 42.827999 0.004438 0.808967 0.000962 0.006218 287387.000000 0 0 1
31.024730 1.329338 30.571841 43.576811 0.042821 0.793209 0.007576 -0.003259 -130714.000000 0 0 1
31.426430 2.588638 30.104481 43.595886 0.082186 0.808568 -0.002901 0.013229 49364.200000 0 0 1
31.547830 3.578338 31.144151 44.475029 0.112943 0.795033 -0.013511 0.014628 -35012.400000 0 0 1
32.285330 4.854738 30.628541 44.766266 0.149252 0.817307 -0.007512 0.020425 68546.200000 0 0 1
32.159130 5.974938 31.449701 45.376130 0.183698 0.805031 -0.010002 0.019656 -35218.200000 0 0 1
30.880230 6.573738 31.518521 44.611880 0.209748 0.786249 -0.014228 0.014588 7095.680000 0 0 1
30.885430 7.468738 32.785641 45.657311 0.237266 0.769756 0.001705 0.002559 -163878.000000 0 0 1
30.968430 6.698838 33.971596 46.454143 0.213030 0.750580 -0.004021 0.007528 115091.000000 0 0 1
31.493330 7.409838 -34.168806 47.055742 0.231080 2.383480 -0.009977 -0.005614 -262525.000000 0 0 1
31.570630 6.505438 -32.942343 46.089298 0.203215 2.367063 0.007988 -0.004302 507953.000000 0 0 1
30.312730 5.919838 -32.562013 44.879737 0.192865 2.382614 0.008449 -0.001750 707645.000000 0 0 1
30.217530 4.552538 -32.916383 44.914507 0.149534 2.393323 0.014409 -0.010387 -192837.000000 0 0 1
31.006430 3.535938 -32.034913 44.722893 0.113548 2.369279 0.014340 -0.017359 -58507.600000 0 0 1
31.118630 2.276738 -32.637853 45.152875 0.073033 2.378685 0.018895 -0.020225 43953.200000 0 0 1
31.492730 1.321038 -31.697633 44.702093 0.041923 2.358998 0.016770 -0.024864 -248015.000000 0 0 1
31.394630 -0.153862 -32.066663 44.876690 -0.004901 2.366778 0.022771 -0.034621 443533.000000 0 0 1
32.567930 -0.521362 -32.848853 46.260015 -0.016007 2.360425 0.026243 -0.027346 1112580.000000 0 0 1
33.196530 -1.755762 -32.503503 46.492688 -0.052841 2.344948 0.031170 -0.019943 338979.000000 0 0 1
34.035930 -1.717862 -31.212203 46.212522 -0.050429 2.312311 0.027035 -0.020386 -641516.000000 0 0 1
33.214430 -1.739862 -30.070573 44.838207 -0.052335 2.305876 0.024060 -0.023876 -160595.000000 0 0 1
33.965930 -1.839862 -28.874793 44.618641 -0.054115 2.274632 0.025882 -0.024283 -296967.000000 0 0 1
33.238230 -1.546562 -27.557723 43.204165 -0.046496 2.262498 0.024676 -0.023432 -430123.000000 0 0 1
32.826530 -0.208962 -27.452713 42.793413 -0.006366 2.267271 0.014432 -0.026013 432016.000000 0 0 1
32.092230 0.080138 -26.268863 41.472531 0.002497 2.256740 0.014210 -0.020224 -50180.600000 0 0 1
31.379930 1.444338 -26.288973 40.962131 0.045995 2.267623 0.002980 -0.012713 -273652.000000 0 0 1
30.518130 1.666838 -27.358143 41.019539 0.054564 2.300909 0.015163 -0.028198 169858.000000 0 0 1
29.921930 2.964538 -27.272093 40.594056 0.098753 2.307466 0.005716 -0.016214 89420.600000 0 0 1
29.232430 3.372538 -28.594773 41.031330 0.114862 2.341863 0.014772 -0.018373 -645494.000000 0 0 1
28.412730 4.443538 -28.423593 40.434254 0.155136 2.350345 0.007436 -0.014264 -399090.000000 0 0 1
27.751230 4.763538 -29.618423 40.866527 0.169995 2.381482 0.011095 -0.011692 -830983.000000 0 0 1
26.636230 5.789538 -29.471783 40.144657 0.214027 2.395195 0.003491 -0.016545 -533235.000000 0 0 1
25.560430 5.134838 -28.805343 38.851640 0.198251 2.405979 0.002779 -0.015981 -82043.200000 0 0 1
24.709730 6.058838 -28.207333 37.985970 0.240456 2.407699 0.002690 -0.018732 760642.000000 0 0 1
23.224630 5.559438 -27.970493 36.778244 0.234956 2.434906 0.006712 -0.015354 1307900.000000 0 0 1
22.400830 5.229238 -29.116303 37.106619 0.229333 2.472953 0.008692 -0.021344 62425.800000 0 0 1
21.279530 4.495038 -28.792153 36.083401 0.208177 2.494655 0.021733 -0.019081 -180754.000000 0 0 1
20.242630 4.237838 -29.945773 36.393305 0.206372 2.537182 0.006213 -0.014382 406698.000000 0 0 1
20.568730 3.141638 -30.810123 37.178034 0.151567 2.547610 -0.003207 -0.013930 616380.000000 0 0 1
19.629530 3.029138 -31.896153 37.574708 0.153108 2.584646 -0.011902 -0.015639 364281.000000 0 0 1
20.212130 3.693938 -33.144353 38.996455 0.180764 2.586653 -0.009556 -0.009837 881188.000000 0 0 1
21.279730 2.961238 -33.812633 40.061078 0.138270 2.575545 0.004430 -0.007133 396457.000000 0 0 1
21.841930 3.674938 34.407306 40.919895 0.166690 0.571953 0.004509 -0.020435 -414484.000000 0 0 1
23.232930 3.091638 34.073139 41.355847 0.132294 0.602535 0.022578 -0.007778 -76543.900000 0 0 1
23.283030 1.825338 33.508404 40.844149 0.078238 0.608692 0.031643 -0.019651 278352.000000 0 0 1
24.619430 1.341538 33.539383 41.626990 0.054437 0.633919 0.025809 -0.020001 -589019.000000 0 0 1
24.733030 -0.126362 33.163371 41.370858 -0.005109 0.640810 0.016380 -0.017124 -505720.000000 0 0 1
24.215530 -0.565362 31.921641 40.071220 -0.023343 0.649109 0.023557 -0.018244 1032620.000000 0 0 1
22.801430 -0.633362 31.702931 39.056141 -0.027770 0.623693 0.033363 -0.019460 566923.000000 0 0 1
21.928430 -1.622662 32.543821 39.275811 -0.073863 0.594199 0.023744 -0.026946 -562280.000000 0 0 1
22.121730 -3.009862 32.323131 39.283775 -0.135229 0.604456 0.022746 -0.036567 196868.000000 0 0 1
21.345330 -3.828662 33.188115 39.645085 -0.177480 0.578780 0.036812 -0.034551 -358669.000000 0 0 1
21.369030 -5.316262 32.790311 39.498134 -0.243833 0.591377 0.037611 -0.030861 249129.000000 0 0 1
22.587430 -6.039062 32.927551 40.384228 -0.261253 0.617451 0.037649 -0.023353 216087.000000 0 0 1
22.360030 -7.396662 32.534771 40.164572 -0.319467 0.626582 0.046690 -0.019320 -801901.000000 0 0 1
23.676930 -8.100462 32.340201 40.891357 -0.329642 0.658549 0.035989 -0.019280 -551071.000000 0 0 1
24.286730 -7.932262 31.096991 40.246601 -0.315686 0.687774 0.034231 -0.016126 1051070.000000 0 0 1
25.659230 -8.401962 30.969461 41.086452 -0.316441 0.717026 0.030897 -0.012415 1567850.000000 0 0 1
26.180430 -7.952762 29.569151 40.286425 -0.294910 0.746643 0.016295 -0.006657 -50255.000000 0 0 1
25.373530 -8.484062 28.530491 39.112456 -0.322680 0.753282 0.014041 0.002022 65859.300000 0 0 1
25.898530 -8.272462 27.195821 38.454911 -0.309175 0.785248 0.003612 0.015064 -186952.000000 0 0 1
25.272830 -9.155362 26.101921 37.467944 -0.347556 0.800084 -0.000857 0.016783 742663.000000 0 0 1
23.851430 -8.956562 26.028871 36.422697 -0.359222 0.774697 0.002844 0.004239 646426.000000 0 0 1
23.303630 -10.006862 25.243811 35.783326 -0.405602 0.787720 0.006105 0.002041 333789.000000 0 0 1
21.944330 -9.703062 24.550381 34.328184 -0.416321 0.773933 0.007913 0.014439 744810.000000 0 0 1
20.847530 -9.654762 25.456621 34.291012 -0.433705 0.734195 0.014905 0.007667 678052.000000 0 0 1
19.608330 -9.367562 24.778641 32.957835 -0.445677 0.719965 0.021506 0.008688 1027740.000000 0 0 1
18.366530 -9.105262 25.666331 32.848071 -0.460244 0.673946 0.023040 0.009169 181023.000000 0 0 1
17.725830 -10.231362 26.329931 33.348929 -0.523487 0.660756 0.012971 0.008566 -61141.300000 0 0 1
18.526630 -11.025962 27.166851 34.682065 -0.536839 0.670822 0.011114 0.008196 -713137.000000 0 0 1
17.724830 -11.979762 28.044761 35.273119 -0.594350 0.651666 0.010740 0.005517 -210650.000000 0 0 1
17.168630 -13.019162 27.244471 34.735020 -0.648799 0.669146 0.000677 0.007992 61532.100000 0 0 1
16.297930 -13.804362 28.009861 35.224072 -0.702750 0.651474 -0.015534 0.012053 -279474.000000 0 0 1
16.975030 -15.061562 28.591161 36.502832 -0.725741 0.670906 -0.004036 0.014690 -209131.000000 0 0 1
15.999030 -15.885562 29.206521 36.896353 -0.781839 0.657401 -0.010603 0.016477 341226.000000 0 0 1
16.528630 -16.948562 29.995891 38.212600 -0.797941 0.668142 -0.002427 0.015509 -414705.000000 0 0 1
16.819830 -18.291862 29.271881 38.397160 -0.827298 0.703868 -0.006258 0.021065 -519712.000000 0 0 1
17.783830 -18.122862 28.292481 38.015355 -0.794840 0.731403 0.004768 0.015953 -208066.000000 0 0 1
18.121030 -19.286362 27.553931 38.204117 -0.816541 0.765221 -0.000718 0.019744 -179201.000000 0 0 1
19.199830 -19.036962 26.483191 37.847045 -0.781139 0.795759 0.009791 0.011438 -193205.000000 0 0 1
20.486830 -18.867462 27.039171 38.817626 -0.744273 0.800191 0.030879 -0.001818 -272181.000000 0 0 1
21.141930 -17.874562 26.259451 38.158091 -0.701850 0.811825 0.025657 -0.001395 1031540.000000 0 0 1
22.645930 -17.578762 26.638911 39.134161 -0.660087 0.822069 0.029591 -0.007675 1208260.000000 0 0 1
23.491530 -18.707762 26.652311 40.151937 -0.672519 0.844926 0.035312 -0.022917 -620675.000000 0 0 1
24.792730 -18.426462 27.065291 41.069988 -0.639148 0.851302 0.035266 -0.026743 -231621.000000 0 0 1
25.635930 -19.748562 27.075931 42.193751 -0.656397 0.874077 0.015908 -0.015734 105441.000000 0 0 1
25.370630 -20.500162 28.277051 43.168474 -0.679617 0.856562 0.016786 -0.013753 102475.000000 0 0 1
26.121630 -21.679162 28.155001 44.102491 -0.692727 0.878379 0.018445 -0.006429 41181.500000 0 0 1
25.566330 -22.752562 29.081741 44.911735 -0.727231 0.866456 0.017976 0.005902 170787.000000 0 0 1
25.601730 -22.384862 30.459891 45.654524 -0.718462 0.840377 0.012444 0.002181 -267297.000000 0 0 1
24.788730 -23.349862 31.070841 46.098746 -0.755517 0.831178 0.001979 0.014511 -529990.000000 0 0 1
24.416330 -22.974962 32.505911 46.697326 -0.754993 0.800848 0.007778 0.001011 -239482.000000 0 0 1
23.853730 -24.048362 33.179571 47.415273 -0.789461 0.795727 -0.006154 0.011792 -85333.600000 0 0 1
23.717030 -23.931862 34.603356 48.297244 -0.789907 0.772072 -0.009103 0.011809 -329166.000000 0 0 1
23.417330 -25.324032 -33.975403 48.414935 -0.824497 2.348654 -0.004908 0.012283 281307.000000 0 0 1
22.139330 -25.914892 -34.088349 48.205260 -0.863806 2.356256 -0.003374 0.011233 -145295.000000 0 0 1
21.694530 -26.264502 33.873232 48.040322 -0.880400 0.788232 -0.008894 0.002097 -723392.000000 0 0 1
20.529430 -27.212572 33.799238 48.003855 -0.924479 0.789650 0.000173 -0.000004 -387206.000000 0 0 1
20.885730 -28.566832 34.044501 49.105047 -0.939490 0.804739 0.007197 0.001095 142741.000000 0 0 1
19.749930 -29.393632 33.893975 49.018842 -0.979171 0.807305 0.019884 -0.004262 11188.200000 0 0 1
20.055730 -30.893192 33.976044 50.109811 -0.994987 0.825715 0.008246 -0.010044 -262282.000000 0 0 1
20.430030 -31.198092 -33.964153 50.440765 -0.991020 2.309523 0.007362 -0.014567 327309.000000 0 0 1
21.103830 -32.437602 -33.805663 51.384750 -0.994001 2.288814 -0.020187 -0.007973 -113091.000000 0 0 1
21.595830 -32.732502 -32.378163 50.854125 -0.987586 2.260991 -0.013861 -0.002774 -787950.000000 0 0 1
22.498830 -33.807912 -32.475143 51.998146 -0.983609 2.245344 -0.026017 -0.001087 179091.000000 0 0 1
23.058930 -34.261743 -31.240253 51.783537 -0.978406 2.218411 -0.021363 0.006909 -2229.800000 0 0 1
24.329330 -33.513922 -30.771673 51.594526 -0.942868 2.209822 -0.017495 0.003462 -565990.000000 0 0 1
24.702930 -33.938812 -29.499593 51.305981 -0.941612 2.183368 -0.006002 0.009148 -117598.000000 0 0 1
25.775430 -33.080982 -29.149673 51.072768 -0.908892 2.178213 -0.010243 0.008025 -55570.400000 0 0 1
26.398330 -33.143102 -27.705533 50.625424 -0.898196 2.149890 -0.011555 0.011919 371441.000000 0 0 1
26.970130 -34.441366 -27.479713 51.659754 -0.906462 2.131682 -0.005289 0.019276 153110.000000 0 0 1
27.774430 -34.391317 -26.306103 51.441158 -0.891438 2.107589 -0.002229 0.009390 330289.000000 0 0 1
-25.816910 -30.856870 9.509147 41.341059 0.874094 1.338701 0.024704 -0.000743 -307929.000000 0 0 1
-25.815240 -32.086170 10.261547 42.441116 0.893281 1.326593 0.031270 -0.001864 352089.000000 0 0 1
-24.499070 -32.511270 10.634347 42.074654 0.925023 1.315275 0.012657 0.001289 575441.000000 0 0 1
-24.442470 -33.803470 11.450747 43.257699 0.944751 1.302893 0.008117 0.002082 26834.200000 0 0 1
-24.487070 34.388938 10.630547 43.534173 -0.952021 1.324113 0.009791 0.001489 -100491.000000 0 0 1
-24.861470 33.314438 11.428947 43.111081 -0.929689 1.302484 0.006179 -0.002682 -107437.000000 0 0 1
-24.955470 31.998938 10.596647 41.940392 -0.908442 1.315368 0.002323 -0.000922 578789.000000 0 0 1
-26.005030 31.761238 9.618947 42.161143 -0.884717 1.340622 0.008424 -0.009868 447627.000000 0 0 1
-25.952870 30.590538 8.854447 41.082036 -0.867235 1.353561 0.012287 -0.009852 -601290.000000 0 0 1
-25.026570 30.619238 7.631447 40.275376 -0.885567 1.380162 0.008118 0.002505 759750.000000 0 0 1
-23.665070 30.339438 8.024447 39.305328 -0.908364 1.365194 -0.000330 0.002631 631002.000000 0 0 1
-22.862770 30.141538 6.896147 38.454849 -0.921869 1.390490 -0.007819 0.011356 -48303.000000 0 0 1
-21.596070 29.266538 7.018047 37.042860 -0.935078 1.380187 0.023898 0.019499 -55078.600000 0 0 1
-21.772770 27.861638 7.289247 36.103428 -0.907463 1.367500 0.008712 0.011351 267824.000000 0 0 1
-22.374370 27.106938 6.208347 35.692325 -0.880752 1.395966 0.006233 0.006789 -76405.300000 0 0 1
-22.700570 25.661838 6.460347 34.865196 -0.846553 1.384424 0.007365 0.011838 -314542.000000 0 0 1
-23.779770 25.305138 7.318347 35.487824 -0.816464 1.363085 0.011491 0.007585 650899.000000 0 0 1
-24.118870 23.918938 7.412047 34.767426 -0.781236 1.355958 0.008701 0.004586 -95892.100000 0 0 1
-24.467770 23.183438 6.068547 34.248662 -0.758452 1.392665 0.000348 -0.011390 -724641.000000 0 0 1
-25.765370 23.520438 5.643047 35.339910 -0.739880 1.410431 0.001659 -0.012507 15622.900000 0 0 1
-26.165970 22.927738 4.407747 35.068039 -0.719533 1.444772 0.001323 -0.013278 -90995.700000 0 0 1
-25.755570 23.679738 3.084547 35.122554 -0.743432 1.482861 -0.002164 -0.015087 -336014.000000 0 0 1
-24.408570 24.106438 3.139147 34.449280 -0.779171 1.479546 0.003369 -0.012267 212943.000000 0 0 1
-24.062670 24.812138 1.946447 34.618534 -0.800731 1.514541 0.010179 -0.007639 43114.200000 0 0 1
-22.688270 25.510538 2.009847 34.199190 -0.843886 1.511994 0.015790 -0.002231 79403.600000 0 0 1
-22.420670 26.199038 0.792447 34.492086 -0.862955 1.547820 0.019241 -0.007689 164817.000000 0 0 1
-21.312870 27.096438 0.868447 34.484918 -0.904307 1.545610 0.024643 -0.010963 -15101.400000 0 0 1
-20.818670 27.554738 -0.540853 34.539443 -0.923760 1.586456 0.026923 -0.012416 80985.500000 0 0 1
-20.499770 26.575538 -1.502953 33.597004 -0.913753 1.615546 0.022066 -0.016003 34390.400000 0 0 1
-19.308170 25.898638 -1.154553 32.324571 -0.930163 1.606521 0.018579 -0.019798 -328550.000000 0 0 1
-18.936470 24.820538 -2.218453 31.298091 -0.919068 1.641737 0.026061 -0.028034 528317.000000 0 0 1
-20.015670 23.899438 -2.450653 31.270048 -0.873607 1.649247 0.021345 -0.026247 636492.000000 0 0 1
-19.552570 22.883638 -3.295053 30.279056 -0.863733 1.679835 0.024143 -0.024273 -233279.000000 0 0 1
-20.705470 22.118638 -3.960153 30.555416 -0.818386 1.700768 0.009825 -0.014179 -68339.900000 0 0 1
-21.451670 23.000238 -4.804153 31.816112 -0.820221 1.722374 0.001341 -0.009609 92148.300000 0 0 1
-22.611670 22.330638 -5.250653 32.210470 -0.779145 1.734538 -0.001956 -0.010450 7606.100000 0 0 1
-23.016970 23.023038 -6.578853 33.213288 -0.785530 1.770194 -0.005356 -0.001823 7044.050000 0 0 1
-22.088470 22.640838 -7.582953 32.527054 -0.797747 1.806089 -0.010941 -0.006062 326920.000000 0 0 1
-22.251970 23.425838 -8.730053 33.468401 -0.811091 1.834693 0.000163 -0.013857 -61070.100000 0 0 1
-21.396170 22.949138 -9.951353 32.916386 -0.820404 1.877924 -0.008024 -0.015564 -115987.000000 0 0 1
-21.666870 21.724938 -10.603853 32.463331 -0.786736 1.903544 -0.008634 -0.011682 -136156.000000 0 0 1
-21.082070 21.483338 -11.905453 32.368616 -0.794825 1.947448 -0.027357 0.000101 392996.000000 0 0 1
-21.978970 21.956638 -13.132353 33.728738 -0.784890 1.970724 -0.028255 0.008305 716961.000000 0 0 1
-23.062770 21.104438 -13.530053 34.063925 -0.741088 1.979256 -0.032351 0.001356 316574.000000 0 0 1
-22.691070 20.016738 -14.366453 33.495513 -0.722861 2.014079 -0.001323 0.000225 -111358.000000 0 0 1
-23.832470 18.989338 -14.661953 33.816482 -0.672777 2.019252 -0.001856 -0.007735 406942.000000 0 0 1
-23.434570 17.953138 -15.570353 33.375591 -0.653723 2.056148 -0.011308 -0.005438 745082.000000 0 0 1
-24.555770 17.044438 -15.698953 33.763232 -0.606763 2.054399 0.022460 -0.010199 883198.000000 0 0 1
-24.479170 16.134438 -16.946153 33.863283 -0.582752 2.094890 0.023295 -0.007635 160101.000000 0 0 1
-23.401370 15.225038 -16.788453 32.577263 -0.576800 2.112204 0.025147 -0.005710 144886.000000 0 0 1
-23.170870 14.623738 -18.002753 32.784783 -0.562992 2.152106 0.028736 -0.010264 -414034.000000 0 0 1
-22.354170 13.370438 -17.855453 31.579973 -0.539035 2.171720 0.024265 -0.000196 -619298.000000 0 0 1
-21.059370 13.616738 -17.384353 30.514395 -0.573973 2.176949 0.017705 -0.003979 -315736.000000 0 0 1
-20.407470 12.409738 -17.036353 29.337753 -0.546353 2.190381 0.019574 0.003891 -139752.000000 0 0 1
-19.317970 12.609138 -15.976453 28.061029 -0.578282 2.176507 0.019404 0.001330 27870.400000 0 0 1
-18.264270 13.457838 -16.403553 27.995955 -0.635025 2.196818 0.013524 0.004346 266941.000000 0 0 1
-17.275170 13.677938 -15.434553 26.902470 -0.669702 2.181840 0.015203 0.004715 -110293.000000 0 0 1
-16.259670 14.805938 -15.730153 27.037573 -0.738637 2.191722 0.002867 0.012186 -36080.200000 0 0 1
-15.569670 14.555538 -16.941453 27.226662 -0.751747 2.242394 0.016503 0.008555 282536.000000 0 0 1
-14.832370 15.653238 -17.498053 27.770576 -0.812318 2.252470 0.008635 0.012373 352558.000000 0 0 1
-14.045570 15.199538 -18.757153 27.930893 -0.824836 2.307103 0.008650 0.013319 434673.000000 0 0 1
-13.027170 14.230338 -18.540953 26.757739 -0.829510 2.336326 0.008336 0.013419 280653.000000 0 0 1
-12.113670 14.211538 -19.631653 27.094475 -0.864921 2.381196 0.014997 0.010175 277294.000000 0 0 1
-11.247670 12.952338 -19.695253 26.118501 -0.855723 2.425038 0.013903 -0.000274 88887.300000 0 0 1
-11.949670 11.892338 -20.261853 26.358395 -0.782994 2.447612 0.020475 0.005538 43978.300000 0 0 1
-11.057770 10.804338 -20.309753 25.524381 -0.773806 2.490959 0.003980 0.020824 5654.140000 0 0 1
-11.544970 9.673638 -21.226453 26.027445 -0.697433 2.524460 0.005712 0.010472 16412.300000 0 0 1
-11.205670 9.927038 -22.613253 27.119593 -0.724967 2.556814 0.003570 0.003811 -142774.000000 0 0 1
-10.864570 8.661838 -23.208953 27.050357 -0.673065 2.602141 0.000213 0.015965 -70152.800000 0 0 1
-10.790970 8.588838 -24.785853 28.364620 -0.672253 2.633820 0.006064 -0.001168 -171087.000000 0 0 1
-9.836270 9.397938 -25.424943 28.835762 -0.762613 2.650283 0.001979 -0.012571 -96739.400000 0 0 1
-9.917770 9.096738 -26.819593 30.006722 -0.742246 2.676514 0.007198 -0.014128 -107835.000000 0 0 1
-9.587670 10.412438 -27.646353 31.059026 -0.826613 2.668411 0.021277 -0.020274 -5252.120000 0 0 1
-8.236770 10.773238 -27.787723 30.920294 -0.918043 2.687567 0.007427 -0.023816 -189456.000000 0 0 1
-7.669770 11.463138 -26.735113 30.083137 -0.981124 2.665315 -0.006354 -0.006153 855062.000000 0 0 1
-6.106870 11.554538 -27.020183 30.014854 -1.084589 2.691087 -0.010066 0.004744 1183480.000000 0 0 1
-5.711270 12.323938 -28.177933 31.280888 -1.136831 2.692413 -0.002889 -0.006956 -969863.000000 0 0 1
-4.344670 12.427738 -28.256183 31.172691 -1.234483 2.705574 0.000513 0.000439 -1183980.000000 0 0 1
-3.722070 12.637838 -29.644243 32.439943 -1.284377 2.723387 -0.002150 0.006315 -1034260.000000 0 0 1
-2.376170 12.937738 -29.505363 32.304762 -1.389159 2.722219 -0.006389 0.006573 -898684.000000 0 0 1
-1.714270 12.851938 -30.767773 33.388125 -1.438193 2.742769 -0.010187 0.009997 641821.000000 0 0 1
-0.182070 12.596338 -30.669893 33.156345 -1.556343 2.751854 -0.002970 0.003687 208208.000000 0 0 1
0.121730 11.283138 -30.267073 32.302008 1.560008 2.784745 -0.019079 0.014813 831449.000000 0 0 1
1.496330 10.887438 -30.433733 32.357184 1.434216 2.795059 0.010561 0.003906 765626.000000 0 0 1
1.769630 10.239938 -31.803363 33.458060 1.399670 2.825779 0.016871 -0.001145 -504359.000000 0 0 1
1.816130 11.126938 -32.885763 34.764644 1.409004 2.811321 0.022090 0.001931 338512.000000 0 0 1
1.785330 10.446138 -34.089563 35.698844 1.401524 2.840189 0.017525 -0.004650 -63969.800000 0 0 1
1.835030 11.494138 34.025383 35.961218 1.412483 0.329610 0.021413 -0.006909 714.202000 0 0 1
3.080830 12.158938 33.935298 36.179217 1.322639 0.354046 0.015482 -0.009603 175586.000000 0 0 1
2.977330 13.202438 32.962011 35.632331 1.348993 0.389605 0.023419 -0.010431 795941.000000 0 0 1
4.421030 13.548138 32.445181 35.437089 1.255371 0.413870 0.028508 -0.005383 730661.000000 0 0 1
4.987730 12.524938 31.643551 34.395724 1.191822 0.402754 0.023273 -0.004947 279404.000000 0 0 1
6.364730 12.755238 31.417131 34.499884 1.107957 0.425955 0.020900 -0.001943 350688.000000 0 0 1
7.246230 11.530138 31.039531 33.895492 1.009713 0.413445 0.003212 0.006139 44258.400000 0 0 1
6.893730 10.994438 29.740491 32.448389 1.010746 0.411436 0.008843 0.003997 -244974.000000 0 0 1
7.870230 10.131138 29.285041 31.971770 0.910340 0.412889 0.011411 0.002860 -484270.000000 0 0 1
7.373130 9.262938 28.128851 30.518803 0.898510 0.398384 0.006651 0.004699 498471.000000 0 0 1
6.300330 8.422138 28.563451 30.438418 0.928533 0.352822 0.004929 -0.000384 303736.000000 0 0 1
5.879630 7.538838 27.507441 29.121529 0.908425 0.334502 0.017651 -0.008395 -83626.700000 0 0 1
5.094430 6.304638 27.984851 29.135091 0.891169 0.281929 0.032420 -0.019646 -207397.000000 0 0 1
5.844430 5.382638 28.748881 29.826637 0.744289 0.269643 0.014806 -0.007306 287059.000000 0 0 1
4.982630 4.603138 29.618491 30.385366 0.745830 0.225145 0.014539 -0.003632 -145827.000000 0 0 1
5.588530 3.411038 30.348881 31.047084 0.548005 0.212477 0.016966 0.002802 -253988.000000 0 0 1
5.643630 2.134438 29.730361 30.336459 0.361576 0.200230 0.015453 0.000075 252264.000000 0 0 1
6.730730 1.905938 28.828811 29.665395 0.275945 0.238051 0.013706 0.000054 169238.000000 0 0 1
6.887530 0.508838 28.250501 29.082431 0.073744 0.239764 0.007058 0.001425 -67654.200000 0 0 1
7.285230 -0.528662 29.131821 30.033599 -0.072439 0.245671 -0.007513 0.004605 57713.700000 0 0 1
7.290430 -1.841562 28.451131 29.428023 -0.247424 0.258385 0.006625 0.001696 -458128.000000 0 0 1
7.735030 -2.964562 29.423571 30.567398 -0.365996 0.274429 0.002365 0.009836 318168.000000 0 0 1
9.104630 -2.895862 29.807181 31.300932 -0.307946 0.310183 -0.007642 0.000602 295722.000000 0 0 1
9.847930 -3.835962 29.053131 30.915704 -0.371439 0.348889 -0.012559 0.011957 -544702.000000 0 0 1
11.381530 -3.618862 29.135861 31.488629 -0.307851 0.389018 -0.017766 0.012672 510742.000000 0 0 1
12.195730 -4.742162 28.743481 31.581824 -0.370847 0.427205 -0.017496 0.009148 548006.000000 0 0 1
12.336430 -5.649162 29.793621 32.737752 -0.429425 0.427345 -0.004957 0.005543 -823535.000000 0 0 1
11.876930 -7.051862 29.378591 32.463700 -0.535807 0.439493 -0.003964 0.012610 188933.000000 0 0 1
10.460930 -6.972462 29.229741 31.818611 -0.587904 0.406181 0.001292 0.014899 440567.000000 0 0 1
9.890730 -8.242762 28.889771 31.628919 -0.694767 0.419243 0.000356 0.014276 790895.000000 0 0 1
8.329830 -8.249862 28.754911 31.053038 -0.780575 0.387138 0.003998 0.013035 587521.000000 0 0 1
7.710830 -7.843462 29.964311 31.919222 -0.793925 0.351799 -0.002411 0.020083 -3030.880000 0 0 1
6.467630 -7.279262 29.587161 31.148322 -0.844371 0.317945 -0.004625 0.019001 336530.000000 0 0 1
5.694730 -6.457962 30.691201 31.876089 -0.848119 0.273512 -0.014358 0.015503 156875.000000 0 0 1
5.114230 -7.140162 31.752351 32.944636 -0.949239 0.269856 -0.024381 0.017545 -129801.000000 0 0 1
4.503630 -6.267062 32.714721 33.612672 -0.947683 0.231666 -0.021024 0.015128 -127508.000000 0 0 1
5.367330 -5.348762 33.638682 34.481566 -0.783665 0.221561 -0.009599 0.017240 -145807.000000 0 0 1
5.843930 -4.306762 32.785091 33.579188 -0.635105 0.217910 -0.001265 0.012754 -140543.000000 0 0 1
6.343230 -3.175062 33.434218 34.178422 -0.464082 0.209063 0.002454 0.015307 -254566.000000 0 0 1
6.220230 -1.828162 32.651151 33.288603 -0.285856 0.196014 0.005527 0.018270 -184388.000000 0 0 1
4.900630 -1.350662 32.507881 32.902930 -0.268933 0.155117 0.003401 0.015985 -182468.000000 0 0 1
4.841730 -0.096862 31.894071 32.259626 -0.020003 0.150686 0.013806 0.008405 -709206.000000 0 0 1
3.443330 0.433438 31.647361 31.837083 0.125219 0.109225 0.011456 0.001353 -537232.000000 0 0 1
2.792430 0.793038 32.866351 32.994296 0.276710 0.088094 0.005777 0.000769 -155539.000000 0 0 1
1.490530 1.290338 32.657361 32.716813 0.713533 0.060295 0.012837 0.002740 -234848.000000 0 0 1
0.728530 1.272038 33.981582 34.013185 1.050672 0.043111 0.012030 -0.003539 -601592.000000 0 0 1
1.182130 2.230638 -34.369288 34.461879 1.083476 3.068272 0.008056 -0.003750 182248.000000 0 0 1
0.550630 2.044638 -33.125473 33.193082 1.307733 3.077756 -0.000541 0.003307 -102330.000000 0 0 1
0.966330 3.125738 -32.111163 32.277404 1.270964 3.040056 0.005863 0.008454 -227933.000000 0 0 1
2.160630 2.808838 -31.461403 31.660350 0.915104 3.029429 0.000135 0.005969 -273522.000000 0 0 1
2.743930 3.862638 -30.702653 31.066091 0.953140 2.988480 -0.001967 0.011946 -181117.000000 0 0 1
3.909730 3.368238 -29.842843 30.285744 0.711133 2.970363 0.003371 0.006761 -519167.000000 0 0 1
3.505230 2.621238 -28.698303 29.030158 0.642097 2.990244 0.004318 -0.010495 577899.000000 0 0 1
4.591630 2.051138 -27.958613 28.407292 0.420117 2.963625 0.020041 -0.013909 -64267.600000 0 0 1
4.164730 1.357738 -26.645593 27.003260 0.315144 2.978653 0.014587 -0.014408 -470023.000000 0 0 1
3.241830 0.351938 -26.845373 27.042695 0.108138 3.020716 0.017410 -0.010483 -348769.000000 0 0 1
2.770730 -0.245662 -25.683693 25.833880 -0.088432 3.033711 0.011510 -0.005393 -565168.000000 0 0 1
3.513330 -1.544462 -25.270323 25.560087 -0.414172 2.990874 0.022520 -0.014789 407691.000000 0 0 1
4.910930 -1.397462 -25.008653 25.524554 -0.277234 2.940195 0.022908 -0.017739 228924.000000 0 0 1
5.319330 -2.714562 -24.861753 25.568943 -0.471870 2.905853 0.025199 -0.024293 317839.000000 0 0 1
6.843830 -2.773362 -24.499053 25.587753 -0.385011 2.848837 0.030196 -0.026448 600441.000000 0 0 1
7.709830 -2.332762 -25.499393 26.741396 -0.293813 2.835622 0.026411 -0.022507 -1614900.000000 0 0 1
8.966430 -2.832562 -25.294093 26.985392 -0.305986 2.785670 0.018539 -0.019128 -1091160.000000 0 0 1
-28.252380 -4.331362 17.978501 33.766613 0.152125 1.009323 0.022711 0.000010 124318.000000 0 0 1
-29.654110 -4.429862 17.761001 34.848860 0.148288 1.036009 0.011087 -0.000795 413410.000000 0 0 1
-30.277450 -5.117162 18.855001 36.033601 0.167427 1.020122 0.007635 -0.000570 -55260.400000 0 0 1
-31.682790 -4.603462 19.158801 37.310195 0.144289 1.031537 0.007053 0.000080 -678109.000000 0 0 1
-32.679770 -4.801762 18.213001 37.719195 0.145890 1.066881 0.006773 0.003884 -360105.000000 0 0 1
-33.923240 -4.362562 18.716101 38.988595 0.127899 1.070096 0.006164 0.015957 -655604.000000 0 0 1
-34.943036 -4.548162 17.601701 39.389356 0.129432 1.107539 0.005746 0.014349 -992679.000000 0 0 1
33.871336 -5.022862 18.127001 38.743835 -0.147220 1.083919 0.009518 0.021446 -289791.000000 0 0 1
32.816726 -4.899562 17.166101 37.357975 -0.148206 1.093361 0.005738 0.019322 421416.000000 0 0 1
31.458906 -5.471362 17.624501 36.472203 -0.172198 1.066455 0.004098 0.027455 256755.000000 0 0 1
30.781086 -4.681762 18.631201 36.283823 -0.150942 1.031555 0.014193 0.021305 628272.000000 0 0 1
29.658046 -5.384362 19.137301 35.704725 -0.179592 1.005119 -0.000421 0.019768 252736.000000 0 0 1
29.070026 -4.783262 20.457701 35.867305 -0.163081 0.963838 0.002427 0.018960 282342.000000 0 0 1
28.209176 -3.626862 20.460201 35.036147 -0.127869 0.947181 0.015206 0.013003 533127.000000 0 0 1
28.897786 -2.413862 20.359401 35.431822 -0.083338 0.958671 0.024886 0.020961 40861.700000 0 0 1
27.890246 -1.249462 20.469001 34.618015 -0.044769 0.938149 0.015118 0.010908 9754.970000 0 0 1
28.484266 -0.013462 20.186701 34.912125 -0.000473 0.954258 0.014193 0.008245 668477.000000 0 0 1
27.422396 0.948138 20.256601 34.105962 0.034562 0.934860 0.013510 0.009325 665832.000000 0 0 1
27.880326 2.379338 19.898001 34.335176 0.085135 0.952654 0.002080 0.013317 -152498.000000 0 0 1
28.327356 2.529038 18.588901 33.976203 0.089043 0.991882 -0.020981 0.013286 28478.900000 0 0 1
28.157016 3.818538 18.028701 33.651640 0.134794 1.005406 -0.031329 0.027492 -96568.400000 0 0 1
28.056666 3.800538 16.496201 32.768052 0.134640 1.043240 -0.028379 0.024017 -118443.000000 0 0 1
27.816556 5.014338 15.846201 32.403803 0.178349 1.059827 -0.036976 0.028078 272398.000000 0 0 1
27.434106 4.765538 14.500801 31.394486 0.171992 1.090671 -0.015513 0.021325 -443513.000000 0 0 1
27.057166 6.091138 13.784401 30.970985 0.221430 1.109539 -0.004257 0.016649 18900.000000 0 0 1
25.856096 6.630138 14.293101 30.278527 0.251016 1.079177 -0.004561 0.011848 -110376.000000 0 0 1
25.527446 7.792538 13.637801 29.972717 0.296277 1.098416 0.012201 -0.008749 -303598.000000 0 0 1
24.232266 8.448338 14.248201 29.352826 0.335463 1.063962 0.007749 -0.007006 1929080.000000 0 0 1
22.905366 7.962438 13.921201 27.961689 0.334556 1.049659 0.011536 -0.004550 1586440.000000 0 0 1
22.712766 6.671938 14.486101 27.753047 0.285716 1.021644 0.014061 -0.002293 -1086100.000000 0 0 1
21.329666 6.009738 14.332401 26.391084 0.274635 0.996699 0.037052 -0.001189 -321161.000000 0 0 1
20.991166 5.871738 12.945201 25.351225 0.272753 1.034874 0.039544 -0.007246 548575.000000 0 0 1
19.905966 4.977138 12.778701 24.172600 0.245009 1.013794 0.041940 -0.005290 -297737.000000 0 1 0
19.446366 4.850538 11.332901 23.024412 0.244444 1.056167 0.038098 -0.011136 -695967.000000 0 1 0
20.417366 4.362338 10.470701 23.356678 0.210493 1.105938 0.033909 -0.015090 252058.000000 0 1 0
19.879966 4.120938 9.171701 22.278135 0.204396 1.146488 0.030271 -0.009886 180873.000000 0 1 0
20.927866 3.401538 8.275801 22.760381 0.161127 1.198661 0.025799 0.000371 -762839.000000 0 1 0
21.039366 1.994238 8.519501 22.786264 0.094504 1.187599 0.009555 0.001473 98228.300000 0 1 0
21.929966 1.390238 7.648201 23.266954 0.063310 1.235854 0.002489 0.002775 -381785.000000 0 1 0
23.462766 1.687338 7.782301 24.777262 0.071792 1.251298 0.014451 -0.000889 -411461.000000 0 1 0
24.103066 0.986038 8.774001 25.669304 0.040886 1.221955 0.007860 0.018199 90189.500000 0 0 1
23.905266 1.604938 10.077201 25.992067 0.067037 1.172658 0.007737 0.012820 -665991.000000 0 0 1
24.731766 1.049538 11.275101 27.200914 0.042411 1.143390 -0.009575 0.023202 -308546.000000 0 0 1
26.068356 1.488838 11.298901 28.450677 0.057051 1.162398 -0.012980 0.024310 -30140.500000 0 0 1
26.651776 0.947238 12.485101 29.446429 0.035526 1.132946 -0.004821 0.021345 225523.000000 0 0 1
28.192356 0.819138 12.658901 30.914846 0.029047 1.148916 0.000544 0.024925 502841.000000 0 0 1
28.810856 2.071738 12.839901 31.610451 0.071785 1.152514 -0.011304 0.032842 972621.000000 0 0 1
30.226676 1.978238 13.089301 32.998412 0.065354 1.162916 0.000478 0.027458 950470.000000 0 0 1
30.827116 3.342638 13.458701 33.802677 0.108010 1.161292 -0.008657 0.020141 -875008.000000 0 0 1
30.728516 4.292938 12.413201 33.417938 0.138807 1.190223 -0.005598 0.016565 -71428.200000 0 0 1
31.505686 5.438138 12.553901 34.347956 0.170924 1.196635 -0.008875 0.013524 214840.000000 0 0 1
32.985856 5.234338 12.124201 35.531131 0.157372 1.222574 -0.014265 0.013946 241135.000000 0 0 1
33.753356 4.362538 12.991501 36.429382 0.128535 1.206147 -0.012012 0.016202 759086.000000 0 0 1
-34.876023 4.398538 12.661601 37.363087 -0.125457 1.225070 -0.004719 0.013784 648102.000000 0 0 1
-33.978580 3.405038 13.494301 36.718310 -0.099878 1.194467 0.011491 0.018778 -531927.000000 0 0 1
-34.085985 2.047938 13.219201 36.616877 -0.060009 1.201441 0.011134 0.023813 -36315.200000 0 0 1
34.716209 1.359738 13.432101 37.248965 0.039147 1.201882 0.026538 0.032674 -69076.900000 0 0 1
34.305126 1.171338 14.913101 37.424782 0.034131 1.160935 0.016929 0.034535 -253263.000000 0 0 1
-34.722877 0.403338 15.581001 38.060589 -0.011615 1.149029 0.027485 0.029422 343882.000000 0 0 1
34.915147 0.070538 16.893201 38.787275 0.002020 1.120164 0.028959 0.015686 -416949.000000 0 0 1
-34.072760 -0.777262 17.678701 38.393926 0.022808 1.092288 0.029043 0.011716 -49439.300000 0 0 1
-32.852520 -0.023562 17.726401 37.329799 0.000717 1.075992 0.021039 0.010651 253537.000000 0 0 1
-31.794860 -0.783162 18.272901 36.680040 0.024627 1.049309 0.024867 0.001589 -44569.900000 0 0 1
-31.654130 -0.916862 19.811601 37.354037 0.028957 1.011755 0.013249 -0.003002 -610487.000000 0 0 1
-32.796940 -1.483762 20.397901 38.651199 0.045210 1.014855 0.013185 -0.003973 97964.700000 0 0 1
-32.751490 -1.323762 21.804001 39.367841 0.040396 0.983811 0.005074 -0.003101 357809.000000 0 0 1
-33.500060 -2.559062 22.420501 40.391604 0.076242 0.982339 -0.005212 -0.001301 71830.600000 0 0 1
-32.756910 -3.751562 22.215101 39.756761 0.114031 0.977888 0.001606 -0.003453 377621.000000 0 0 1
-33.378070 -4.976362 22.609901 40.621021 0.148001 0.980502 0.000601 -0.000076 -198602.000000 0 0 1
-33.673540 -5.229462 24.121001 41.750176 0.154068 0.954832 -0.005841 -0.009538 -589913.000000 0 0 1
-32.490320 -5.062162 24.814501 41.194730 0.154563 0.924328 -0.000831 -0.007275 -803896.000000 0 0 1
-32.684530 -5.063662 26.201251 42.195079 0.153703 0.900836 -0.000097 -0.006807 -147174.000000 0 0 1
-31.587850 -4.420262 27.081811 41.842030 0.139033 0.866839 0.002279 0.005169 -501398.000000 0 0 1
-31.410880 -3.004362 27.003301 41.531287 0.095357 0.862960 -0.002257 0.014045 128137.000000 0 0 1
-30.580760 -2.529362 25.935201 40.177297 0.082523 0.869094 0.000454 0.007760 -151263.000000 0 0 1
-30.367590 -1.030262 25.866921 39.904255 0.033913 0.865546 -0.005284 0.001681 1133800.000000 0 0 1
-31.592060 -0.258262 25.669861 40.707084 0.008175 0.888471 0.013572 -0.012109 1007080.000000 0 0 1
-31.313370 1.116638 25.430771 40.354654 -0.035645 0.889009 -0.020102 0.012016 -97992.400000 0 0 1
-32.558830 1.929438 24.997291 41.093365 -0.059191 0.916873 0.018601 0.003833 -161201.000000 0 0 1
-33.258410 1.423438 23.919201 40.991172 -0.042773 0.947739 0.022837 0.009686 -104026.000000 0 0 1
-34.413073 2.184238 23.572301 41.769413 -0.063386 0.971158 0.009876 0.015467 486360.000000 0 0 1
-34.179044 3.522838 22.842101 41.259896 -0.102707 0.984097 0.013178 0.008632 -550530.000000 0 0 1
-33.563850 3.423838 21.623501 40.072815 -0.101658 1.000828 0.011245 -0.009755 -440952.000000 0 0 1
-34.534826 3.371738 20.575001 40.340469 -0.097325 1.035572 0.009147 0.000266 337053.000000 0 0 1
-33.950660 2.832438 19.236301 39.124229 -0.083235 1.056787 0.014289 0.000258 196839.000000 0 0 1
-32.964400 3.636538 18.598701 38.023516 -0.109873 1.059697 0.013425 0.003338 334724.000000 0 0 1
-32.760460 3.086238 17.349501 37.199164 -0.093929 1.085585 0.022869 0.012850 -344407.000000 0 0 1
-31.764940 3.918338 16.520201 36.017799 -0.122734 1.094301 0.015644 0.014842 -164078.000000 0 0 1
-32.204780 5.249738 16.249901 36.452255 -0.161590 1.108744 0.013681 0.003964 106494.000000 0 0 1
-31.309320 5.906738 15.372801 35.376349 -0.186466 1.121257 0.011176 0.006352 70250.700000 0 0 1
-31.795350 7.370938 14.942301 35.896342 -0.227800 1.141465 0.018766 -0.014181 186457.000000 0 0 1
-31.006950 7.967638 13.929101 34.913236 -0.251521 1.160410 0.011811 -0.004410 -124155.000000 0 0 1
-31.477580 9.231938 13.495201 35.470934 -0.285286 1.180505 -0.001702 -0.008687 -116012.000000 0 0 1
-30.682840 9.757738 12.264901 34.453997 -0.307905 1.206835 -0.003726 -0.004687 73444.700000 0 0 1
-31.144700 11.062738 12.086501 35.191760 -0.341304 1.220212 -0.005595 -0.000819 138019.000000 0 0 1
-30.418850 11.717238 11.068601 34.425485 -0.367680 1.243458 -0.017778 -0.013211 -232602.000000 0 0 1
-30.613350 13.238138 10.973801 35.111961 -0.408147 1.252933 -0.013623 -0.005386 -204235.000000 0 0 1
-29.989370 13.804338 9.891601 34.463979 -0.431393 1.279689 -0.012914 -0.005447 -176686.000000 0 0 1
-29.807470 15.198538 10.117601 34.954923 -0.471528 1.277147 -0.007098 -0.001778 -160912.000000 0 0 1
-29.004480 15.786438 8.940701 34.211220 -0.498438 1.306388 0.006693 -0.007146 5044.450000 0 0 1
-27.609190 15.568138 9.071801 32.968650 -0.513434 1.292036 0.006514 -0.000685 185107.000000 0 0 1
-26.871810 16.280738 8.093701 32.444793 -0.544722 1.318673 -0.003267 -0.007204 -150136.000000 0 0 1
-25.451050 16.621138 8.583201 31.586223 -0.578525 1.295597 0.004537 0.000114 -495215.000000 0 0 1
-25.307690 17.324338 9.828501 32.205765 -0.600280 1.260671 0.005317 0.004074 -21914.800000 0 0 1
-25.719250 18.663338 9.853001 33.269830 -0.627738 1.270133 0.004132 0.000046 -221809.000000 0 0 1
-25.812820 19.215038 11.322701 34.113383 -0.639907 1.232465 0.014919 0.015919 445403.000000 0 0 1
-24.544770 19.200638 11.991701 33.390285 -0.663836 1.203453 0.007341 0.017655 455881.000000 0 0 1
-24.511970 19.751638 13.293701 34.171426 -0.678265 1.171218 0.016281 0.010999 -216878.000000 0 0 1
-25.034270 18.915738 14.499501 34.565233 -0.647072 1.137921 0.012759 0.005980 29614.800000 0 0 1
-24.276970 17.764338 14.772601 33.513769 -0.631709 1.114316 0.016296 -0.003102 113374.000000 0 0 1
-24.792270 17.161138 15.944701 34.108573 -0.605470 1.084371 0.019696 -0.004247 605962.000000 0 0 1
-23.755470 16.033538 16.420201 33.030587 -0.593709 1.050519 0.015849 -0.005803 107666.000000 0 0 1
-22.589070 16.674038 16.877101 32.758604 -0.635871 1.029560 0.016912 -0.009752 73968.500000 0 0 1
-21.471170 15.797638 17.073701 31.655770 -0.634325 1.001125 0.003829 -0.026346 154777.000000 0 0 1
-21.675570 14.561738 18.003401 31.717455 -0.591551 0.967187 0.008214 -0.003243 -1181300.000000 0 0 1
-22.043170 15.010638 19.266701 32.900248 -0.597837 0.945164 0.010540 0.006728 125182.000000 0 0 1
-22.411170 13.929538 20.067801 33.151307 -0.556111 0.920604 0.008314 0.005852 -723683.000000 0 0 1
-22.306770 14.085338 21.620101 34.108906 -0.563215 0.884269 0.010057 0.004917 -195301.000000 0 0 1
-20.963670 13.982338 22.060201 33.490800 -0.588219 0.851714 0.009122 0.008231 278317.000000 0 0 1
-20.326970 15.265138 22.080801 33.671530 -0.644128 0.855593 0.012280 0.022895 373384.000000 0 0 1
-18.783670 15.178938 22.380201 32.925671 -0.679656 0.823417 0.025462 0.009750 1503580.000000 0 0 1
-17.917470 14.560238 21.392601 31.475063 -0.682394 0.823486 0.008101 0.009292 391634.000000 0 0 1
-17.699170 15.324138 20.240801 30.948018 -0.713602 0.857902 0.008325 0.001441 -2420650.000000 0 0 1
-16.533570 14.737638 19.428001 29.461910 -0.728030 0.850739 -0.003318 0.007521 286104.000000 0 0 1
-15.345170 14.623838 20.199001 29.280207 -0.761334 0.809512 -0.005022 0.012632 259338.000000 0 0 1
-14.795070 15.903038 20.618601 29.948746 -0.821475 0.811429 -0.013823 0.002730 -1510250.000000 0 0 1
-13.748370 15.776538 21.760201 30.189786 -0.853984 0.765869 -0.044960 0.022883 396220.000000 0 0 1
-12.581770 15.051938 21.414001 29.041715 -0.874551 0.741653 -0.016227 0.017694 279464.000000 0 0 1
-11.776070 14.529038 22.454401 29.222746 -0.889674 0.694478 0.012422 0.013399 -72475.000000 0 0 1
-10.437370 13.896638 22.125901 28.135577 -0.926610 0.665832 0.000971 0.011777 -1386220.000000 0 0 1
-10.034170 12.857938 23.027001 28.217971 -0.908129 0.616270 0.015992 0.005257 253425.000000 0 0 1
-8.964270 11.984138 22.663601 27.159096 -0.928569 0.583616 0.022953 0.015345 338285.000000 0 0 1
-7.587970 12.671538 22.842101 27.201227 -1.031245 0.573982 0.015940 0.018557 -830544.000000 0 0 1
-7.270370 13.532338 21.832101 26.695001 -1.077788 0.613158 0.013801 0.016588 -391237.000000 0 0 1
-6.465270 14.626638 22.111101 27.288075 -1.154598 0.626159 0.018050 0.023596 181554.000000 0 0 1
-7.354270 15.833338 22.651201 28.598195 -1.135966 0.656636 0.007435 0.014433 943909.000000 0 0 1
-8.327470 16.370438 21.748301 28.466236 -1.100221 0.701301 -0.026165 0.015220 -4681.250000 0 0 1
-7.779670 17.080438 20.680201 27.927322 -1.143401 0.736981 -0.002901 0.021216 -240381.000000 0 0 1
-8.910570 17.542338 19.701501 27.843868 -1.100812 0.784742 0.008038 0.024914 1402040.000000 0 0 1
-9.855870 18.556438 20.119701 29.090925 -1.082556 0.807075 -0.026665 0.035194 100217.000000 0 0 1
-10.826370 18.097338 20.993301 29.756388 -1.031679 0.787660 -0.019116 0.026000 -116883.000000 0 0 1
-12.154470 18.933838 21.252701 30.949938 -1.000105 0.813884 -0.029673 0.019077 1003050.000000 0 0 1
-12.874470 18.973738 20.027301 30.444170 -0.974618 0.852853 -0.018260 0.017491 8273.450000 0 0 1
-14.033370 19.791838 20.159101 31.544281 -0.954023 0.877504 -0.017446 0.000957 339398.000000 0 0 1
-14.821770 19.815838 18.821801 31.090392 -0.928592 0.920541 0.003337 -0.000098 -252741.000000 0 0 1
-15.410470 18.589338 18.406801 30.362088 -0.878624 0.919469 0.006209 -0.000909 125937.000000 0 0 1
-16.068170 18.820238 17.153401 30.110241 -0.864117 0.964672 0.014180 -0.011046 -521163.000000 0 0 1
-16.964470 17.630938 16.714301 29.631251 -0.804660 0.971482 0.011364 -0.013576 1125150.000000 0 0 1
-18.009070 17.238938 17.637901 30.538551 -0.763553 0.955058 0.016538 -0.020081 368593.000000 0 0 1
-19.074570 18.119538 17.861501 31.799215 -0.759727 0.974362 0.027615 -0.018594 -879656.000000 0 0 1
33.146936 -9.971662 12.163047 36.689142 -0.292220 1.232886 0.009295 0.007991 -71105.300000 0 0 1
31.816476 -10.325162 11.840447 35.483705 -0.313800 1.230584 0.004116 0.015882 65834.600000 0 0 1
31.403956 -11.445262 12.541347 35.699971 -0.349492 1.211839 0.018146 0.007679 528147.000000 0 0 1
29.906146 -11.802462 12.210047 34.391292 -0.375886 1.207847 0.005705 0.016322 1686.900000 0 0 1
29.045616 -10.873762 12.809647 33.555530 -0.358217 1.179113 -0.001045 0.017558 1000650.000000 0 0 1
27.651616 -11.227862 12.938147 32.528025 -0.385709 1.161729 -0.002441 0.016577 1189610.000000 0 0 1
27.433966 -12.408462 13.950147 33.184319 -0.424767 1.136928 -0.025195 0.023731 -1433430.000000 0 0 1
27.599276 -12.185662 15.337547 33.844509 -0.415781 1.100470 -0.019492 0.021649 479796.000000 0 0 1
26.546046 -12.551862 16.240247 33.555737 -0.441679 1.065601 -0.025479 0.019076 956654.000000 0 0 1
25.168766 -11.813962 16.139747 32.148530 -0.438861 1.044844 -0.028681 0.008974 -301589.000000 0 0 1
25.220516 -10.455362 16.431447 31.865052 -0.392993 1.029022 -0.036560 0.028232 -246994.000000 0 0 1
24.280466 -9.804462 15.610847 30.485523 -0.383778 1.033199 -0.010834 0.012910 -619912.000000 0 0 1
24.188866 -8.287562 15.985247 30.154819 -0.330084 1.012071 0.006718 -0.005923 -1327790.000000 0 0 1
25.352106 -7.585162 15.884947 30.864147 -0.290716 1.030170 -0.015783 0.000198 -1250350.000000 0 0 1
25.268336 -6.327262 16.458847 30.812607 -0.245358 1.007283 -0.011248 0.008658 -24193.700000 0 0 1
26.506746 -5.396362 16.393347 31.630210 -0.200840 1.025956 -0.006260 0.009922 66524.000000 0 0 1
26.679696 -4.850162 15.097647 31.036579 -0.179828 1.062778 0.010111 0.014295 1440680.000000 0 0 1
27.982956 -4.196562 15.099147 32.072437 -0.148859 1.080619 0.013808 0.023087 1168020.000000 0 0 1
28.026826 -3.373862 13.803247 31.423170 -0.119803 1.116011 0.017869 0.024950 -127651.000000 0 0 1
28.457886 -4.196262 12.738847 31.460104 -0.146400 1.153904 -0.002529 0.025071 325723.000000 0 0 1
28.505826 -3.545862 11.466147 30.929401 -0.123755 1.191012 0.005595 0.015396 -133427.000000 0 0 1
28.910846 -4.483762 10.318147 31.022658 -0.153863 1.231737 0.003083 0.012445 144495.000000 0 0 1
30.236966 -5.005962 10.341747 32.346337 -0.164069 1.245363 0.021602 0.012132 404388.000000 0 0 1
30.574506 -5.594262 9.149847 32.400863 -0.180970 1.284506 0.023001 0.003299 -121485.000000 0 0 1
31.906776 -6.374762 9.195947 33.811912 -0.197197 1.295353 0.018703 0.002540 171499.000000 0 0 1
33.049456 -5.562562 9.000447 34.701826 -0.166747 1.308431 0.021434 0.007622 143391.000000 0 0 1
34.233734 -6.340262 8.872147 35.928575 -0.183130 1.321277 0.028470 -0.005900 434760.000000 0 0 1
-34.566263 -5.542662 8.345547 35.988829 0.158995 1.336773 0.029191 -0.006479 58679.100000 0 0 1
-34.735686 -4.955362 7.071847 35.792939 0.141703 1.371911 0.028583 -0.008768 -696084.000000 0 0 1
-33.615620 -4.245662 6.698547 34.538472 0.125635 1.375615 0.023806 0.013186 -844532.000000 0 0 1
-33.770510 -3.668262 5.330247 34.384808 0.108199 1.415151 0.027239 -0.004381 -509186.000000 0 0 1
-32.967590 -4.228462 4.354547 33.521694 0.127565 1.440526 0.033458 -0.010082 -169117.000000 0 0 1
-33.103000 -3.482462 3.161247 33.435455 0.104815 1.476107 0.022982 -0.005755 191792.000000 0 0 1
-32.327850 -4.043662 1.915947 32.636053 0.124437 1.512056 0.026492 -0.011650 99655.200000 0 0 1
-32.974150 -5.099962 1.227647 33.388790 0.153450 1.534020 0.033381 -0.005010 -205959.000000 0 0 1
-34.043230 -4.743362 0.402647 34.374454 0.138442 1.559082 0.028499 -0.003487 -553453.000000 0 0 1
-33.613900 -4.824062 -1.046453 33.974415 0.142541 1.601602 0.048151 -0.004840 -994971.000000 0 0 1
-33.397060 -6.207262 -1.371853 33.996701 0.183766 1.611160 0.042199 -0.012086 235715.000000 0 0 1
-32.411210 -6.423562 -2.368053 33.126369 0.195654 1.642343 0.045923 -0.010677 834634.000000 0 0 1
-30.926050 -6.158962 -1.931153 31.592447 0.196579 1.631961 0.046118 -0.013000 82181.800000 0 0 1
-30.390650 -7.181162 -1.136153 31.248224 0.232039 1.607163 0.051021 -0.008246 -1253240.000000 0 0 1
-29.191610 -6.850862 -0.588653 29.990514 0.230514 1.590426 0.029286 -0.014777 -1318970.000000 0 0 1
-28.839750 -7.850262 0.585547 29.894827 0.265764 1.551208 0.005527 -0.002403 -336928.000000 0 0 1
-28.491700 -9.044462 -0.071253 29.892881 0.307381 1.573180 0.012921 0.001877 245476.000000 0 0 1
-28.124550 -10.069562 0.798147 29.883498 0.343815 1.544085 0.014448 0.002882 -186835.000000 0 0 1
-27.584290 -11.363762 0.159447 29.833765 0.390778 1.565452 0.008139 0.002334 481571.000000 0 0 1
-26.375330 -11.154462 -0.604253 28.643414 0.400101 1.591894 0.001249 -0.002158 1077630.000000 0 0 1
-25.842250 -12.353062 -1.222553 28.669054 0.445908 1.613453 -0.006834 0.003900 -259190.000000 0 0 1
-26.668620 -13.158062 -2.298953 29.826751 0.458347 1.647950 -0.002400 -0.001847 -355239.000000 0 0 1
-27.743150 -13.798262 -1.635853 31.028220 0.461531 1.623542 0.013106 -0.008461 113822.000000 0 0 1
-28.120410 -14.909662 -2.415753 31.920077 0.487521 1.646550 0.005960 -0.014533 -180078.000000 0 0 1
-29.019010 -15.919462 -1.647853 33.139819 0.501758 1.620541 0.017582 -0.010714 396032.000000 0 0 1
-28.339450 -16.561962 -0.525853 32.828334 0.528880 1.586815 0.004136 -0.004383 564291.000000 0 0 1
-29.208590 -17.304762 0.342847 33.951643 0.534853 1.560698 0.009067 0.004083 117449.000000 0 0 1
-29.308230 -18.874262 -0.002853 34.859864 0.572140 1.570878 0.012957 0.001223 -265516.000000 0 0 1
-28.145020 -19.614462 0.273947 34.306622 0.608647 1.562811 0.018681 -0.003544 125711.000000 0 0 1
-28.356070 -21.005062 0.177247 35.288961 0.637562 1.565774 0.031746 -0.008459 45367.700000 0 0 1
-29.188430 -21.709362 1.290347 36.399531 0.639499 1.535339 0.036887 -0.006212 -171454.000000 0 0 1
-28.477220 -21.978462 2.482547 36.057841 0.657302 1.501893 0.041451 -0.007241 195959.000000 0 0 1
-29.421670 -22.473662 3.419747 37.180570 0.652305 1.478689 0.040769 -0.010782 466727.000000 0 0 1
-28.837380 -22.563962 4.858547 36.936870 0.663951 1.438878 0.024600 -0.014458 262906.000000 0 0 1
-28.234010 -21.320062 5.314747 35.776401 0.646770 1.421690 0.008590 -0.011708 208881.000000 0 0 1
-27.531670 -21.497962 6.512047 35.532548 0.662951 1.386485 -0.008626 -0.008569 -33098.800000 0 0 1
-27.205420 -20.104162 7.133147 34.571578 0.636409 1.362974 -0.017256 0.000407 289306.000000 0 0 1
-26.336560 -20.159762 8.265047 34.181009 0.653327 1.326573 -0.024706 0.002005 -82032.100000 0 0 1
-25.820340 -18.909662 8.551147 33.126838 0.632113 1.309707 -0.018501 -0.000427 173639.000000 0 0 1
-24.842470 -18.939262 9.762747 32.728507 0.651374 1.267891 -0.018118 0.007283 -52757.900000 0 0 1
-25.491220 -19.160862 10.961847 33.720958 0.644566 1.239705 -0.023387 0.007659 -474776.000000 0 0 1
-24.598270 -19.202362 12.015147 33.439039 0.662823 1.203263 -0.016073 0.033282 -682419.000000 0 0 1
-24.474370 -17.845162 12.825347 32.892767 0.630014 1.170258 -0.015566 0.017657 -407345.000000 0 0 1
-23.531570 -16.910262 12.300847 31.480194 0.623114 1.169351 -0.013259 0.011345 253676.000000 0 0 1
-23.141870 -15.905762 13.234547 31.043399 0.602162 1.130371 -0.008847 0.021094 555832.000000 0 0 1
-22.126270 -16.398462 14.339847 31.050163 0.637801 1.090741 0.013872 0.017806 -187387.000000 0 0 1
-22.787470 -17.137362 15.378047 32.395097 0.644813 1.076170 0.004991 0.002442 311750.000000 0 0 1
-21.950270 -17.510862 16.507647 32.572182 0.673368 1.039325 0.023061 0.002404 -35481.700000 0 0 1
-22.701370 -18.309662 17.580747 34.054054 0.678719 1.028318 0.012523 0.024308 289341.000000 0 0 1
-23.625970 -17.564762 18.367447 34.699718 0.639297 1.012991 0.021416 0.008444 -57156.900000 0 0 1
-24.485570 -18.401162 19.112047 36.102857 0.644467 1.012929 0.000609 0.021829 1658.630000 0 0 1
-25.577060 -17.497462 19.779947 36.764024 0.599980 1.002705 0.004337 0.018032 -165521.000000 0 0 1
-25.127900 -16.838062 20.933547 36.785121 0.590372 0.965414 0.020375 0.015426 -259607.000000 0 0 1
-26.050610 -15.890662 21.400747 37.271160 0.547734 0.959181 0.024723 0.008833 -13248.300000 0 0 1
-25.402780 -15.094662 22.582347 37.190220 0.536153 0.918249 0.020578 0.009891 175184.000000 0 0 1
-24.197470 -14.467362 22.251347 35.915798 0.538865 0.902637 0.019751 0.008864 -234699.000000 0 0 1
-23.464770 -13.922262 23.323147 35.894206 0.535498 0.863508 0.011023 0.009368 -656254.000000 0 0 1
-22.302370 -13.105662 22.835147 34.505044 0.531278 0.847590 0.007849 0.011311 -869320.000000 0 0 1
-22.614670 -11.913962 22.104747 33.793278 0.484876 0.857782 0.014553 0.007281 1046750.000000 0 0 1
-21.408270 -11.298562 21.600047 32.442774 0.485613 0.842245 0.005316 0.008619 422789.000000 0 0 1
-21.196470 -9.929862 22.231047 32.281759 0.438105 0.811162 0.005628 0.004488 -134081.000000 0 0 1
-20.837270 -9.956362 23.563747 32.993502 0.445743 0.775325 0.003350 0.000865 -671623.000000 0 0 1
-19.472670 -10.104162 23.754447 32.335008 0.478645 0.745667 0.000500 0.008244 -1156960.000000 0 0 1
-19.046070 -10.135662 25.189047 33.165834 0.489048 0.708271 -0.010505 0.003079 -39895.800000 0 0 1
-19.082870 -11.399962 25.764247 34.028099 0.538500 0.711863 -0.007855 0.011312 116496.000000 0 0 1
-18.606770 -11.186462 27.102547 34.726026 0.541304 0.675383 -0.008726 0.009093 -692433.000000 0 0 1
-18.519670 -12.497262 27.882047 35.729096 0.593619 0.675533 -0.010020 -0.004230 -174717.000000 0 0 1
-19.701870 -12.942462 28.473147 36.964728 0.581221 0.691518 -0.006189 -0.001448 -1080000.000000 0 0 1
-20.708570 -13.408962 27.647047 37.054073 0.574621 0.728570 -0.011828 0.003922 156120.000000 0 0 1
-21.988970 -13.935162 28.410847 38.534138 0.564855 0.741746 -0.006557 0.002086 324434.000000 0 0 1
-21.849770 -15.086662 29.194247 39.462943 0.604303 0.738040 -0.005766 0.000760 62534.900000 0 0 1
-21.011970 -14.961962 30.361647 39.839589 0.618780 0.704250 -0.007825 -0.001827 237395.000000 0 0 1
-21.381770 -15.943862 31.534747 41.301660 0.640728 0.702046 -0.005929 -0.003247 -410604.000000 0 0 1
-21.391470 -17.373262 31.310447 41.710542 0.682111 0.721735 0.000648 0.003761 -86071.900000 0 0 1
-21.375270 -18.134962 32.509347 42.925944 0.703569 0.711573 0.008860 0.002136 231634.000000 0 0 1
-22.770570 -18.280862 33.183947 44.202524 0.676463 0.721637 0.019862 0.001810 335655.000000 0 0 1
-23.246070 -17.205662 33.988147 44.627444 0.637170 0.705022 0.027773 -0.003366 137622.000000 0 0 1
-24.576670 -17.492762 34.395147 45.749706 0.618577 0.719992 0.039296 -0.014657 -85173.900000 0 0 1
-25.339080 -16.384762 -34.190206 45.601530 0.573996 2.418496 0.042619 -0.012507 -404272.000000 0 0 1
-24.911770 -16.116562 -32.879206 44.287493 0.574225 2.407448 0.059033 -0.018853 -317892.000000 0 0 1
-25.531850 -14.983662 -32.345806 43.847881 0.530703 2.400427 0.053845 -0.016157 -452004.000000 0 0 1
-25.043670 -14.470362 -30.979906 42.383149 0.523940 2.390507 0.048036 -0.011749 15186.800000 0 0 1
-25.499560 -15.335262 -29.922506 42.198983 0.541443 2.358991 0.053652 -0.006205 351180.000000 0 0 1
-24.994170 -14.790962 -28.714106 40.840923 0.534351 2.350504 0.056781 -0.003814 -95519.300000 0 0 1
-25.359580 -15.618262 -27.480506 40.524272 0.552009 2.316004 0.050696 -0.004258 153741.000000 0 0 1
-26.611960 -15.363062 -26.863106 40.814783 0.523560 2.289183 0.062193 -0.003175 214278.000000 0 0 1
-26.714400 -14.244162 -26.017706 39.918371 0.489855 2.280716 0.038174 0.003838 -473144.000000 0 0 1
-25.818070 -14.035062 -24.760606 38.427117 0.497927 2.270973 0.019787 -0.001835 1584730.000000 0 0 1
-24.405370 -13.769162 -25.042606 37.581166 0.513669 2.300113 0.010513 -0.007651 2816570.000000 0 0 1
-23.406770 -14.128862 -24.038706 36.405508 0.543079 2.292020 0.000421 -0.009317 917836.000000 0 0 1
-22.921170 -15.577762 -24.217906 36.804262 0.596919 2.288981 0.004979 -0.007976 -279167.000000 0 0 1
-22.071670 -15.856762 -25.348706 37.163859 0.622983 2.321399 0.012661 0.000429 457144.000000 0 0 1
-21.838570 -17.257662 -25.351006 37.648686 0.668760 2.309536 0.025513 0.003525 147633.000000 0 0 1
-20.789770 -17.649762 -26.468006 38.003736 0.703892 2.341246 0.021022 0.005130 369311.000000 0 0 1
-21.256170 -17.595062 -27.826806 39.188545 0.691442 2.360401 0.030651 0.002494 143230.000000 0 0 1
-22.226370 -18.577862 -28.119006 40.371116 0.696220 2.341323 0.044327 -0.006417 -2932.920000 0 0 1
-22.765070 -18.457662 -29.571106 41.633928 0.681285 2.360670 0.043339 -0.009077 160979.000000 0 0 1
-21.838270 -19.028562 -30.458706 42.032475 0.716753 2.381318 0.052531 -0.011989 573718.000000 0 0 1
-22.417270 -18.867062 -31.733106 43.191319 0.699615 2.396036 0.043131 -0.006708 -109465.000000 0 0 1
-21.506770 -19.471262 -32.807606 43.795093 0.735766 2.417523 0.040547 -0.014971 -305549.000000 0 0 1
-20.451170 -18.558862 -33.158206 43.152617 0.736928 2.447124 0.028219 -0.006745 1283070.000000 0 0 1
-19.111170 -19.021762 -32.898406 42.536682 0.783054 2.455003 0.029652 -0.013183 984966.000000 0 0 1
-18.651670 -20.168862 -33.869506 43.609761 0.824460 2.460126 0.028198 -0.013424 -1095460.000000 0 0 1
-18.686570 -19.854262 33.986547 43.571378 0.815686 0.676099 0.031945 -0.011970 249189.000000 0 0 1
-18.295670 -20.930662 33.162547 43.273302 0.852471 0.697654 0.019281 -0.013326 297610.000000 0 0 1
-19.517670 -21.765062 32.629747 43.810476 0.839784 0.730571 0.009941 -0.000853 375186.000000 0 0 1
-20.243870 -22.397162 33.707047 45.250549 0.835853 0.730414 0.017929 -0.000732 -312972.000000 0 0 1
-21.482970 -22.830462 33.213347 45.671374 0.815797 0.756526 0.023172 0.003697 -505899.000000 0 0 1
-21.525170 -24.104362 32.312747 45.699747 0.841863 0.785456 0.014111 0.014565 -809140.000000 0 0 1
-21.265470 -25.327072 32.928247 46.668515 0.872351 0.787559 0.017328 0.014925 -73074.300000 0 0 1
-21.128970 -26.375632 32.001547 46.542522 0.895398 0.812650 0.021181 0.019492 -181271.000000 0 0 1
-20.526170 -27.571802 32.729547 47.463156 0.930849 0.809890 0.018069 0.006709 -171445.000000 0 0 1
-21.343870 -28.044102 33.797547 48.829363 0.920240 0.806324 0.023546 -0.002286 -122181.000000 0 0 1
-20.726870 -28.969992 34.612247 49.667608 0.949770 0.799762 0.027182 -0.012631 -549194.000000 0 0 1
-21.747370 -29.809122 -33.856306 50.077753 0.940509 2.313219 0.035286 -0.015662 -339175.000000 0 0 1
-22.706570 -30.625092 -34.567306 51.462445 0.932798 2.307297 0.036691 -0.016294 1282240.000000 0 0 1
-23.926270 -30.016822 34.242847 51.439757 0.897829 0.842380 0.031378 -0.013330 560621.000000 0 0 1
-24.791270 -29.313312 -33.907506 51.221053 0.868784 2.294259 0.025908 -0.010609 -687312.000000 0 0 1
-25.980240 -28.790862 -34.490106 51.898497 0.836669 2.297713 0.023082 -0.009368 -256219.000000 0 0 1
-27.011300 -28.724602 -33.555006 51.775008 0.816128 2.275874 0.016884 0.001545 -374974.000000 0 0 1
-28.098210 -27.785512 -34.101906 52.196591 0.779803 2.282779 0.011010 -0.014126 185092.000000 0 0 1
-29.102260 -28.328022 34.303547 53.161562 0.771918 0.869420 0.017201 -0.021299 -335867.000000 0 0 1
-30.187870 -27.513432 34.025247 53.160266 0.739082 0.876233 0.007262 -0.024805 -332678.000000 0 0 1
